<?xml version="1.0"?>
<VTKFile type="UnstructuredGrid" version="0.1" byte_order="LittleEndian">
<UnstructuredGrid>
<Piece NumberOfPoints="3142" NumberOfCells="1054">
<Points>
<DataArray type="Float64" NumberOfComponents="3" format="ascii">
0.02576622439977887 0.024532886826226379 0 0 0 0 0.049999999999899652 0 0 0.02576622439977887 0.024532886826226379 0 0 0 0 0 0.050000000000207989 0 0.02576622439977887 0.024532886826226379 0 0.049999999999899652 0 0 0.053064897599215843 0.048131547304697528 0 0.02576622439977887 0.024532886826226379 0 0.053064897599215843 0.048131547304697528 0 0 0.050000000000207989 0 0 0.050000000000207989 0 0 0.10000000000041601 0 0.044310582753132287 0.101412518374475 0 0 0.10000000000041601 0 0.044310582753132287 0.101412518374475 0 0 0.15000000000062411 0 0.053064897599215843 0.048131547304697528 0 0.044310582753132287 0.101412518374475 0 0.083411279318303222 0.089699755330707398 0 0.053064897599215843 0.048131547304697528 0 0 0.050000000000207989 0 0.044310582753132287 0.101412518374475 0 0.044310582753132287 0.101412518374475 0 0.083411279318303222 0.089699755330707398 0 0.065374659239632718 0.1448908038746782 0 0.083411279318303222 0.089699755330707398 0 0.065374659239632718 0.1448908038746782 0 0.1053400320299198 0.12877248826361379 0 0.083411279318303222 0.089699755330707398 0 0.12372429750337779 0.095814237875728972 0 0.1053400320299198 0.12877248826361379 0 0.12372429750337779 0.095814237875728972 0 0.1053400320299198 0.12877248826361379 0 0.14332333627550789 0.14578431753966009 0 0.12372429750337779 0.095814237875728972 0 0.10266856499169109 0.044518360900210059 0 0.14618258501891079 0.062070108745602003 0 0.083411279318303222 0.089699755330707398 0 0.12372429750337779 0.095814237875728972 0 0.10266856499169109 0.044518360900210059 0 0.10266856499169109 0.044518360900210059 0 0.099999999999814668 0 0 0.14999999999970359 0 0 0.049999999999899652 0 0 0.053064897599215843 0.048131547304697528 0 0.099999999999814668 0 0 0.053064897599215843 0.048131547304697528 0 0.10266856499169109 0.044518360900210059 0 0.099999999999814668 0 0 0.053064897599215843 0.048131547304697528 0 0.083411279318303222 0.089699755330707398 0 0.10266856499169109 0.044518360900210059 0 0.044081577119474857 0.2271058242433576 0 0 0.20000000000083221 0 0 0.25000000000104028 0 0.044081577119474857 0.2271058242433576 0 0 0.20000000000083221 0 0.038512288486115001 0.1844147282893184 0 0.044081577119474857 0.2271058242433576 0 0.038512288486115001 0.1844147282893184 0 0.083105206071467416 0.20007701332709979 0 0.038512288486115001 0.1844147282893184 0 0 0.15000000000062411 0 0.065374659239632718 0.1448908038746782 0 0.044310582753132287 0.101412518374475 0 0 0.15000000000062411 0 0.065374659239632718 0.1448908038746782 0 0.038512288486115001 0.1844147282893184 0 0.065374659239632718 0.1448908038746782 0 0.083105206071467416 0.20007701332709979 0 0 0.20000000000083221 0 0.038512288486115001 0.1844147282893184 0 0 0.15000000000062411 0 0.065374659239632718 0.1448908038746782 0 0.1053400320299198 0.12877248826361379 0 0.106902708054812 0.16453234188234539 0 0.1053400320299198 0.12877248826361379 0 0.106902708054812 0.16453234188234539 0 0.14332333627550789 0.14578431753966009 0 0.065374659239632718 0.1448908038746782 0 0.106902708054812 0.16453234188234539 0 0.083105206071467416 0.20007701332709979 0 0.083105206071467416 0.20007701332709979 0 0.095326043202144745 0.24554465089224409 0 0.13737030665753211 0.20313708640667491 0 0.106902708054812 0.16453234188234539 0 0.083105206071467416 0.20007701332709979 0 0.13737030665753211 0.20313708640667491 0 0.044081577119474857 0.2271058242433576 0 0.083105206071467416 0.20007701332709979 0 0.095326043202144745 0.24554465089224409 0 0.044081577119474857 0.2271058242433576 0 0.095326043202144745 0.24554465089224409 0 0.049706944316556423 0.27522722923869108 0 0.095326043202144745 0.24554465089224409 0 0.14377654328998779 0.2442024734791064 0 0.13737030665753211 0.20313708640667491 0 0.17933913398461551 0.2350063570234002 0 0.14377654328998779 0.2442024734791064 0 0.13737030665753211 0.20313708640667491 0 0.17933913398461551 0.2350063570234002 0 0.13737030665753211 0.20313708640667491 0 0.18124454140915969 0.18790916706335251 0 0.18124454140915969 0.18790916706335251 0 0.14332333627550789 0.14578431753966009 0 0.18652628422869419 0.14162325200928061 0 0.106902708054812 0.16453234188234539 0 0.13737030665753211 0.20313708640667491 0 0.14332333627550789 0.14578431753966009 0 0.13737030665753211 0.20313708640667491 0 0.18124454140915969 0.18790916706335251 0 0.14332333627550789 0.14578431753966009 0 0.14332333627550789 0.14578431753966009 0 0.18652628422869419 0.14162325200928061 0 0.16141998738593399 0.10404039647458049 0 0.18652628422869419 0.14162325200928061 0 0.22985637510995899 0.1298347970200906 0 0.2185883431182947 0.18019736283949719 0 0.22985637510995899 0.1298347970200906 0 0.2185883431182947 0.18019736283949719 0 0.25557216766470708 0.15874861286892261 0 0.2185883431182947 0.18019736283949719 0 0.25557216766470708 0.15874861286892261 0 0.26429849586623999 0.19346700179430079 0 0.18124454140915969 0.18790916706335251 0 0.18652628422869419 0.14162325200928061 0 0.2185883431182947 0.18019736283949719 0 0.17933913398461551 0.2350063570234002 0 0.18124454140915969 0.18790916706335251 0 0.224700362040408 0.22206622194729711 0 0.18124454140915969 0.18790916706335251 0 0.2185883431182947 0.18019736283949719 0 0.224700362040408 0.22206622194729711 0 0.2185883431182947 0.18019736283949719 0 0.224700362040408 0.22206622194729711 0 0.26429849586623999 0.19346700179430079 0 0.224700362040408 0.22206622194729711 0 0.25195515620380449 0.25883339815888678 0 0.21049769590865089 0.26857363548218488 0 0.17933913398461551 0.2350063570234002 0 0.224700362040408 0.22206622194729711 0 0.21049769590865089 0.26857363548218488 0 0.184418230509967 0.038773194583122873 0 0.14999999999970359 0 0 0.14618258501891079 0.062070108745602003 0 0.184418230509967 0.038773194583122873 0 0.14618258501891079 0.062070108745602003 0 0.19922788606653311 0.085920220746880993 0 0.184418230509967 0.038773194583122873 0 0.14999999999970359 0 0 0.19999999999955789 0 0 0.10266856499169109 0.044518360900210059 0 0.14999999999970359 0 0 0.14618258501891079 0.062070108745602003 0 0.12372429750337779 0.095814237875728972 0 0.14618258501891079 0.062070108745602003 0 0.16141998738593399 0.10404039647458049 0 0.12372429750337779 0.095814237875728972 0 0.14332333627550789 0.14578431753966009 0 0.16141998738593399 0.10404039647458049 0 0.18652628422869419 0.14162325200928061 0 0.16141998738593399 0.10404039647458049 0 0.19922788606653311 0.085920220746880993 0 0.14618258501891079 0.062070108745602003 0 0.16141998738593399 0.10404039647458049 0 0.19922788606653311 0.085920220746880993 0 0.18652628422869419 0.14162325200928061 0 0.22985637510995899 0.1298347970200906 0 0.19922788606653311 0.085920220746880993 0 0.22985637510995899 0.1298347970200906 0 0.19922788606653311 0.085920220746880993 0 0.24218496799700481 0.089025544070598317 0 0.22985637510995899 0.1298347970200906 0 0.24218496799700481 0.089025544070598317 0 0.27474541102162192 0.11822029332053539 0 0.19922788606653311 0.085920220746880993 0 0.24218496799700481 0.089025544070598317 0 0.22668068146512929 0.045875643423131329 0 0.24218496799700481 0.089025544070598317 0 0.22668068146512929 0.045875643423131329 0 0.27499999999933927 0.060310814194988557 0 0.184418230509967 0.038773194583122873 0 0.19922788606653311 0.085920220746880993 0 0.22668068146512929 0.045875643423131329 0 0.184418230509967 0.038773194583122873 0 0.22668068146512929 0.045875643423131329 0 0.19999999999955789 0 0 0.22668068146512929 0.045875643423131329 0 0.19999999999955789 0 0 0.24999999999941211 0 0 0.24999999999941211 0 0 0.27499999999933927 0.060310814194988557 0 0.29999999999926641 0 0 0.22668068146512929 0.045875643423131329 0 0.24999999999941211 0 0 0.27499999999933927 0.060310814194988557 0 0.27499999999933927 0.060310814194988557 0 0.29999999999926641 0 0 0.32541448401678508 0.046215317981507749 0 0.29999999999926641 0 0 0.32541448401678508 0.046215317981507749 0 0.34999999999912063 0 0 0.32541448401678508 0.046215317981507749 0 0.3615861437013822 0.03582617922508851 0 0.35312867752657662 0.084946736076730367 0 0.3615861437013822 0.03582617922508851 0 0.35312867752657662 0.084946736076730367 0 0.39591832466117061 0.056982757562006353 0 0.32541448401678508 0.046215317981507749 0 0.3615861437013822 0.03582617922508851 0 0.34999999999912063 0 0 0.3615861437013822 0.03582617922508851 0 0.34999999999912063 0 0 0.3999999999989749 0 0 0.35312867752657662 0.084946736076730367 0 0.36246644853392812 0.1399454205365751 0 0.39823268594401579 0.1116623613130045 0 0.35312867752657662 0.084946736076730367 0 0.32215584939770009 0.1218492143506909 0 0.36246644853392812 0.1399454205365751 0 0.32541448401678508 0.046215317981507749 0 0.35312867752657662 0.084946736076730367 0 0.3096713403101819 0.085471541595262421 0 0.35312867752657662 0.084946736076730367 0 0.32215584939770009 0.1218492143506909 0 0.3096713403101819 0.085471541595262421 0 0.32215584939770009 0.1218492143506909 0 0.3096713403101819 0.085471541595262421 0 0.27474541102162192 0.11822029332053539 0 0.27499999999933927 0.060310814194988557 0 0.32541448401678508 0.046215317981507749 0 0.3096713403101819 0.085471541595262421 0 0.27499999999933927 0.060310814194988557 0 0.3096713403101819 0.085471541595262421 0 0.27474541102162192 0.11822029332053539 0 0.24218496799700481 0.089025544070598317 0 0.27499999999933927 0.060310814194988557 0 0.27474541102162192 0.11822029332053539 0 0.22985637510995899 0.1298347970200906 0 0.27474541102162192 0.11822029332053539 0 0.25557216766470708 0.15874861286892261 0 0.27474541102162192 0.11822029332053539 0 0.25557216766470708 0.15874861286892261 0 0.29336099386129338 0.15892013001050981 0 0.25557216766470708 0.15874861286892261 0 0.29336099386129338 0.15892013001050981 0 0.26429849586623999 0.19346700179430079 0 0.29336099386129338 0.15892013001050981 0 0.31255190597181792 0.19850845631528771 0 0.33084213324567391 0.16272720141332131 0 0.29336099386129338 0.15892013001050981 0 0.26429849586623999 0.19346700179430079 0 0.31255190597181792 0.19850845631528771 0 0.32215584939770009 0.1218492143506909 0 0.27474541102162192 0.11822029332053539 0 0.29336099386129338 0.15892013001050981 0 0.224700362040408 0.22206622194729711 0 0.28040350263641872 0.23054717217092141 0 0.25195515620380449 0.25883339815888678 0 0.224700362040408 0.22206622194729711 0 0.28040350263641872 0.23054717217092141 0 0.26429849586623999 0.19346700179430079 0 0.28040350263641872 0.23054717217092141 0 0.26429849586623999 0.19346700179430079 0 0.31255190597181792 0.19850845631528771 0 0.28040350263641872 0.23054717217092141 0 0.33758650185219202 0.23837101504325639 0 0.29132859388405002 0.27203693976649962 0 0.28040350263641872 0.23054717217092141 0 0.33758650185219202 0.23837101504325639 0 0.31255190597181792 0.19850845631528771 0 0.33758650185219202 0.23837101504325639 0 0.31255190597181792 0.19850845631528771 0 0.3572130504031617 0.1874703368446563 0 0.33758650185219202 0.23837101504325639 0 0.3572130504031617 0.1874703368446563 0 0.38831533174504851 0.2189834941785925 0 0.33758650185219202 0.23837101504325639 0 0.38831533174504851 0.2189834941785925 0 0.3786248352540974 0.27082301512024259 0 0.32215584939770009 0.1218492143506909 0 0.29336099386129338 0.15892013001050981 0 0.33084213324567391 0.16272720141332131 0 0.32215584939770009 0.1218492143506909 0 0.33084213324567391 0.16272720141332131 0 0.36246644853392812 0.1399454205365751 0 0.31255190597181792 0.19850845631528771 0 0.33084213324567391 0.16272720141332131 0 0.3572130504031617 0.1874703368446563 0 0.3572130504031617 0.1874703368446563 0 0.36246644853392812 0.1399454205365751 0 0.39801143831225599 0.16651381068160659 0 0.33084213324567391 0.16272720141332131 0 0.3572130504031617 0.1874703368446563 0 0.36246644853392812 0.1399454205365751 0 0.36246644853392812 0.1399454205365751 0 0.39801143831225599 0.16651381068160659 0 0.39823268594401579 0.1116623613130045 0 0.39801143831225599 0.16651381068160659 0 0.42905200079338551 0.19982395548231649 0 0.44288491854585582 0.14116182884956319 0 0.39801143831225599 0.16651381068160659 0 0.44288491854585582 0.14116182884956319 0 0.39823268594401579 0.1116623613130045 0 0.38831533174504851 0.2189834941785925 0 0.42377727103934271 0.25099357235810238 0 0.3786248352540974 0.27082301512024259 0 0.3572130504031617 0.1874703368446563 0 0.39801143831225599 0.16651381068160659 0 0.38831533174504851 0.2189834941785925 0 0.39801143831225599 0.16651381068160659 0 0.38831533174504851 0.2189834941785925 0 0.42905200079338551 0.19982395548231649 0 0.38831533174504851 0.2189834941785925 0 0.42905200079338551 0.19982395548231649 0 0.42377727103934271 0.25099357235810238 0 0.42905200079338551 0.19982395548231649 0 0.46429753744194407 0.22870891180733599 0 0.42377727103934271 0.25099357235810238 0 0.42905200079338551 0.19982395548231649 0 0.46429753744194407 0.22870891180733599 0 0.47357141910802508 0.1873585799078378 0 0.47357141910802508 0.1873585799078378 0 0.51729576145820033 0.1683240575987815 0 0.50760557329222289 0.20700468884612061 0 0.46429753744194407 0.22870891180733599 0 0.47357141910802508 0.1873585799078378 0 0.50760557329222289 0.20700468884612061 0 0.46429753744194407 0.22870891180733599 0 0.49695729691142171 0.25014895411178018 0 0.50760557329222289 0.20700468884612061 0 0.44288491854585582 0.14116182884956319 0 0.47357141910802508 0.1873585799078378 0 0.48466639505193998 0.1421439844745814 0 0.42905200079338551 0.19982395548231649 0 0.44288491854585582 0.14116182884956319 0 0.47357141910802508 0.1873585799078378 0 0.47357141910802508 0.1873585799078378 0 0.48466639505193998 0.1421439844745814 0 0.51729576145820033 0.1683240575987815 0 0.44288491854585582 0.14116182884956319 0 0.48466639505193998 0.1421439844745814 0 0.47881186583059909 0.093591717165689425 0 0.48466639505193998 0.1421439844745814 0 0.47881186583059909 0.093591717165689425 0 0.51076801031701946 0.1202837388510348 0 0.44288491854585582 0.14116182884956319 0 0.47881186583059909 0.093591717165689425 0 0.43698630808430822 0.080423614171545449 0 0.47881186583059909 0.093591717165689425 0 0.47040171442036788 0.044141676406503738 0 0.43698630808430822 0.080423614171545449 0 0.47881186583059909 0.093591717165689425 0 0.47040171442036788 0.044141676406503738 0 0.52375890611712683 0.059318771819432882 0 0.47040171442036788 0.044141676406503738 0 0.49999999999869432 0 0 0.52375890611712683 0.059318771819432882 0 0.47040171442036788 0.044141676406503738 0 0.49999999999869432 0 0 0.44999999999882923 0 0 0.47040171442036788 0.044141676406503738 0 0.44999999999882923 0 0 0.4320097814748517 0.037406712692169303 0 0.47040171442036788 0.044141676406503738 0 0.4320097814748517 0.037406712692169303 0 0.43698630808430822 0.080423614171545449 0 0.4320097814748517 0.037406712692169303 0 0.3999999999989749 0 0 0.39591832466117061 0.056982757562006353 0 0.4320097814748517 0.037406712692169303 0 0.39591832466117061 0.056982757562006353 0 0.43698630808430822 0.080423614171545449 0 0.44999999999882923 0 0 0.4320097814748517 0.037406712692169303 0 0.3999999999989749 0 0 0.3615861437013822 0.03582617922508851 0 0.3999999999989749 0 0 0.39591832466117061 0.056982757562006353 0 0.35312867752657662 0.084946736076730367 0 0.39591832466117061 0.056982757562006353 0 0.39823268594401579 0.1116623613130045 0 0.44288491854585582 0.14116182884956319 0 0.39823268594401579 0.1116623613130045 0 0.43698630808430822 0.080423614171545449 0 0.39591832466117061 0.056982757562006353 0 0.39823268594401579 0.1116623613130045 0 0.43698630808430822 0.080423614171545449 0 0.42161023666869668 0.39493916313643851 0 0.38707855792647411 0.42299362914874578 0 0.43249999999999988 0.43937499999999979 0 0.42161023666869668 0.39493916313643851 0 0.38083244760691543 0.38531983672244652 0 0.38707855792647411 0.42299362914874578 0 0.42161023666869668 0.39493916313643851 0 0.38083244760691543 0.38531983672244652 0 0.40076539126862748 0.34589349467022118 0 0.38707855792647411 0.42299362914874578 0 0.3908716102680424 0.47010282357248828 0 0.43249999999999988 0.43937499999999979 0 0.3908716102680424 0.47010282357248828 0 0.43507373378304309 0.49699695397193322 0 0.38244435121258652 0.51653317813019495 0 0.3908716102680424 0.47010282357248828 0 0.43507373378304309 0.49699695397193322 0 0.43249999999999988 0.43937499999999979 0 0.43507373378304309 0.49699695397193322 0 0.43249999999999988 0.43937499999999979 0 0.46111841286828259 0.46690301029591341 0 0.43249999999999988 0.43937499999999979 0 0.46111841286828259 0.46690301029591341 0 0.48858720058566618 0.43964267759203868 0 0.43507373378304309 0.49699695397193322 0 0.46111841286828259 0.46690301029591341 0 0.49102375406324739 0.49123754822244059 0 0.46111841286828259 0.46690301029591341 0 0.49102375406324739 0.49123754822244059 0 0.48858720058566618 0.43964267759203868 0 0.48858720058566618 0.43964267759203868 0 0.46655310992796922 0.39650496622958609 0 0.52289427570932567 0.3932284363388488 0 0.43249999999999988 0.43937499999999979 0 0.48858720058566618 0.43964267759203868 0 0.46655310992796922 0.39650496622958609 0 0.42161023666869668 0.39493916313643851 0 0.43249999999999988 0.43937499999999979 0 0.46655310992796922 0.39650496622958609 0 0.42161023666869668 0.39493916313643851 0 0.46655310992796922 0.39650496622958609 0 0.4409427642593301 0.35743108089689513 0 0.46655310992796922 0.39650496622958609 0 0.49077833859261139 0.35229981449445641 0 0.52289427570932567 0.3932284363388488 0 0.49077833859261139 0.35229981449445641 0 0.46226845272279993 0.31901800744800313 0 0.5 0.29999999999999999 0 0.49077833859261139 0.35229981449445641 0 0.46226845272279993 0.31901800744800313 0 0.4409427642593301 0.35743108089689513 0 0.46226845272279993 0.31901800744800313 0 0.4409427642593301 0.35743108089689513 0 0.41914690343363781 0.30688979866601612 0 0.46655310992796922 0.39650496622958609 0 0.49077833859261139 0.35229981449445641 0 0.4409427642593301 0.35743108089689513 0 0.49695729691142171 0.25014895411178018 0 0.4604742573284204 0.27846934318264788 0 0.5 0.29999999999999999 0 0.46429753744194407 0.22870891180733599 0 0.49695729691142171 0.25014895411178018 0 0.4604742573284204 0.27846934318264788 0 0.46226845272279993 0.31901800744800313 0 0.4604742573284204 0.27846934318264788 0 0.5 0.29999999999999999 0 0.46226845272279993 0.31901800744800313 0 0.4604742573284204 0.27846934318264788 0 0.41914690343363781 0.30688979866601612 0 0.46429753744194407 0.22870891180733599 0 0.4604742573284204 0.27846934318264788 0 0.42377727103934271 0.25099357235810238 0 0.4604742573284204 0.27846934318264788 0 0.42377727103934271 0.25099357235810238 0 0.41914690343363781 0.30688979866601612 0 0.42377727103934271 0.25099357235810238 0 0.41914690343363781 0.30688979866601612 0 0.3786248352540974 0.27082301512024259 0 0.41914690343363781 0.30688979866601612 0 0.3786248352540974 0.27082301512024259 0 0.36575549820117997 0.31677992835137742 0 0.42161023666869668 0.39493916313643851 0 0.4409427642593301 0.35743108089689513 0 0.40076539126862748 0.34589349467022118 0 0.4409427642593301 0.35743108089689513 0 0.41914690343363781 0.30688979866601612 0 0.40076539126862748 0.34589349467022118 0 0.41914690343363781 0.30688979866601612 0 0.40076539126862748 0.34589349467022118 0 0.36575549820117997 0.31677992835137742 0 0.40076539126862748 0.34589349467022118 0 0.36575549820117997 0.31677992835137742 0 0.33277555741076909 0.36432196682010132 0 0.38083244760691543 0.38531983672244652 0 0.40076539126862748 0.34589349467022118 0 0.33277555741076909 0.36432196682010132 0 0.36575549820117997 0.31677992835137742 0 0.32752639306529541 0.32610012995269699 0 0.33277555741076909 0.36432196682010132 0 0.32752639306529541 0.32610012995269699 0 0.33277555741076909 0.36432196682010132 0 0.29644548887253103 0.34914008784168082 0 0.33758650185219202 0.23837101504325639 0 0.3786248352540974 0.27082301512024259 0 0.33402499257867951 0.28911035184473982 0 0.3786248352540974 0.27082301512024259 0 0.36575549820117997 0.31677992835137742 0 0.33402499257867951 0.28911035184473982 0 0.36575549820117997 0.31677992835137742 0 0.32752639306529541 0.32610012995269699 0 0.33402499257867951 0.28911035184473982 0 0.32752639306529541 0.32610012995269699 0 0.33402499257867951 0.28911035184473982 0 0.29348325746214782 0.31350119524708198 0 0.33758650185219202 0.23837101504325639 0 0.33402499257867951 0.28911035184473982 0 0.29132859388405002 0.27203693976649962 0 0.33402499257867951 0.28911035184473982 0 0.29132859388405002 0.27203693976649962 0 0.29348325746214782 0.31350119524708198 0 0.29132859388405002 0.27203693976649962 0 0.29348325746214782 0.31350119524708198 0 0.24432083401701241 0.3006253385567515 0 0.29132859388405002 0.27203693976649962 0 0.25195515620380449 0.25883339815888678 0 0.24432083401701241 0.3006253385567515 0 0.28040350263641872 0.23054717217092141 0 0.29132859388405002 0.27203693976649962 0 0.25195515620380449 0.25883339815888678 0 0.33277555741076909 0.36432196682010132 0 0.29644548887253103 0.34914008784168082 0 0.27866744612395528 0.38416094670951489 0 0.32752639306529541 0.32610012995269699 0 0.29644548887253103 0.34914008784168082 0 0.29348325746214782 0.31350119524708198 0 0.29644548887253103 0.34914008784168082 0 0.29348325746214782 0.31350119524708198 0 0.25966125648670141 0.34351016742083729 0 0.29348325746214782 0.31350119524708198 0 0.25966125648670141 0.34351016742083729 0 0.24432083401701241 0.3006253385567515 0 0.29644548887253103 0.34914008784168082 0 0.25966125648670141 0.34351016742083729 0 0.27866744612395528 0.38416094670951489 0 0.25966125648670141 0.34351016742083729 0 0.27866744612395528 0.38416094670951489 0 0.22033343844674469 0.36963382230740238 0 0.27866744612395528 0.38416094670951489 0 0.29124338931648802 0.43334555462578611 0 0.24049127783545701 0.41270748208749802 0 0.29124338931648802 0.43334555462578611 0 0.25982634974572738 0.46097799597715272 0 0.24049127783545701 0.41270748208749802 0 0.27866744612395528 0.38416094670951489 0 0.29124338931648802 0.43334555462578611 0 0.31778888742534622 0.40581751814196781 0 0.33277555741076909 0.36432196682010132 0 0.27866744612395528 0.38416094670951489 0 0.31778888742534622 0.40581751814196781 0 0.33277555741076909 0.36432196682010132 0 0.31778888742534622 0.40581751814196781 0 0.35221190152536241 0.40457127605439203 0 0.31778888742534622 0.40581751814196781 0 0.35221190152536241 0.40457127605439203 0 0.34258405725730701 0.4444034294386992 0 0.29124338931648802 0.43334555462578611 0 0.31778888742534622 0.40581751814196781 0 0.34258405725730701 0.4444034294386992 0 0.38707855792647411 0.42299362914874578 0 0.35221190152536241 0.40457127605439203 0 0.34258405725730701 0.4444034294386992 0 0.38083244760691543 0.38531983672244652 0 0.38707855792647411 0.42299362914874578 0 0.35221190152536241 0.40457127605439203 0 0.38083244760691543 0.38531983672244652 0 0.33277555741076909 0.36432196682010132 0 0.35221190152536241 0.40457127605439203 0 0.3908716102680424 0.47010282357248828 0 0.35024835142131061 0.48654922671676981 0 0.38244435121258652 0.51653317813019495 0 0.3908716102680424 0.47010282357248828 0 0.35024835142131061 0.48654922671676981 0 0.34258405725730701 0.4444034294386992 0 0.38707855792647411 0.42299362914874578 0 0.3908716102680424 0.47010282357248828 0 0.34258405725730701 0.4444034294386992 0 0.29124338931648802 0.43334555462578611 0 0.34258405725730701 0.4444034294386992 0 0.31068898841644388 0.47541502461811092 0 0.35024835142131061 0.48654922671676981 0 0.31068898841644388 0.47541502461811092 0 0.33190227185843768 0.52715113583864037 0 0.35024835142131061 0.48654922671676981 0 0.34258405725730701 0.4444034294386992 0 0.31068898841644388 0.47541502461811092 0 0.31068898841644388 0.47541502461811092 0 0.25982634974572738 0.46097799597715272 0 0.28307294598219601 0.50789252727458634 0 0.29124338931648802 0.43334555462578611 0 0.31068898841644388 0.47541502461811092 0 0.25982634974572738 0.46097799597715272 0 0.25982634974572738 0.46097799597715272 0 0.23975172658309729 0.49475499200540818 0 0.28307294598219601 0.50789252727458634 0 0.23975172658309729 0.49475499200540818 0 0.19604738184454831 0.47787523520405789 0 0.22278230690790279 0.44824268025881547 0 0.19604738184454831 0.47787523520405789 0 0.22278230690790279 0.44824268025881547 0 0.191953871957803 0.42546416763755879 0 0.25982634974572738 0.46097799597715272 0 0.22278230690790279 0.44824268025881547 0 0.24049127783545701 0.41270748208749802 0 0.25982634974572738 0.46097799597715272 0 0.23975172658309729 0.49475499200540818 0 0.22278230690790279 0.44824268025881547 0 0.27866744612395528 0.38416094670951489 0 0.24049127783545701 0.41270748208749802 0 0.22033343844674469 0.36963382230740238 0 0.191953871957803 0.42546416763755879 0 0.1650278706801647 0.38791388161335733 0 0.22033343844674469 0.36963382230740238 0 0.24049127783545701 0.41270748208749802 0 0.191953871957803 0.42546416763755879 0 0.22033343844674469 0.36963382230740238 0 0.22278230690790279 0.44824268025881547 0 0.24049127783545701 0.41270748208749802 0 0.191953871957803 0.42546416763755879 0 0.191953871957803 0.42546416763755879 0 0.13773355295499351 0.42497777642586831 0 0.15801167086041079 0.46008690540259539 0 0.191953871957803 0.42546416763755879 0 0.1650278706801647 0.38791388161335733 0 0.13773355295499351 0.42497777642586831 0 0.1650278706801647 0.38791388161335733 0 0.13773355295499351 0.42497777642586831 0 0.1117088112799664 0.38831403004970022 0 0.13773355295499351 0.42497777642586831 0 0.15801167086041079 0.46008690540259539 0 0.113541300460994 0.46208784312094731 0 0.15801167086041079 0.46008690540259539 0 0.113541300460994 0.46208784312094731 0 0.1216098864341134 0.50637075089503902 0 0.15801167086041079 0.46008690540259539 0 0.1216098864341134 0.50637075089503902 0 0.16618607197337229 0.50652878253548905 0 0.19604738184454831 0.47787523520405789 0 0.15801167086041079 0.46008690540259539 0 0.16618607197337229 0.50652878253548905 0 0.19604738184454831 0.47787523520405789 0 0.191953871957803 0.42546416763755879 0 0.15801167086041079 0.46008690540259539 0 0.25195515620380449 0.25883339815888678 0 0.21049769590865089 0.26857363548218488 0 0.24432083401701241 0.3006253385567515 0 0.21049769590865089 0.26857363548218488 0 0.24432083401701241 0.3006253385567515 0 0.19670163708476801 0.31472518408333222 0 0.21049769590865089 0.26857363548218488 0 0.19670163708476801 0.31472518408333222 0 0.168349569971391 0.28054490850913671 0 0.19670163708476801 0.31472518408333222 0 0.22615676742807109 0.33458786033114157 0 0.18434624290945251 0.35208838264196463 0 0.24432083401701241 0.3006253385567515 0 0.19670163708476801 0.31472518408333222 0 0.22615676742807109 0.33458786033114157 0 0.25966125648670141 0.34351016742083729 0 0.24432083401701241 0.3006253385567515 0 0.22615676742807109 0.33458786033114157 0 0.25966125648670141 0.34351016742083729 0 0.22615676742807109 0.33458786033114157 0 0.22033343844674469 0.36963382230740238 0 0.22615676742807109 0.33458786033114157 0 0.22033343844674469 0.36963382230740238 0 0.18434624290945251 0.35208838264196463 0 0.1650278706801647 0.38791388161335733 0 0.22033343844674469 0.36963382230740238 0 0.18434624290945251 0.35208838264196463 0 0.1650278706801647 0.38791388161335733 0 0.18434624290945251 0.35208838264196463 0 0.14223753364722069 0.3341983344262433 0 0.1650278706801647 0.38791388161335733 0 0.14223753364722069 0.3341983344262433 0 0.1117088112799664 0.38831403004970022 0 0.19670163708476801 0.31472518408333222 0 0.18434624290945251 0.35208838264196463 0 0.14223753364722069 0.3341983344262433 0 0.19670163708476801 0.31472518408333222 0 0.14223753364722069 0.3341983344262433 0 0.168349569971391 0.28054490850913671 0 0.14223753364722069 0.3341983344262433 0 0.168349569971391 0.28054490850913671 0 0.1247745017231483 0.27198077544791172 0 0.14377654328998779 0.2442024734791064 0 0.168349569971391 0.28054490850913671 0 0.1247745017231483 0.27198077544791172 0 0.17933913398461551 0.2350063570234002 0 0.21049769590865089 0.26857363548218488 0 0.168349569971391 0.28054490850913671 0 0.17933913398461551 0.2350063570234002 0 0.14377654328998779 0.2442024734791064 0 0.168349569971391 0.28054490850913671 0 0.095326043202144745 0.24554465089224409 0 0.093851963071650835 0.30582068233324772 0 0.049706944316556423 0.27522722923869108 0 0.095326043202144745 0.24554465089224409 0 0.14377654328998779 0.2442024734791064 0 0.1247745017231483 0.27198077544791172 0 0.095326043202144745 0.24554465089224409 0 0.1247745017231483 0.27198077544791172 0 0.093851963071650835 0.30582068233324772 0 0.14223753364722069 0.3341983344262433 0 0.1247745017231483 0.27198077544791172 0 0.093851963071650835 0.30582068233324772 0 0.093851963071650835 0.30582068233324772 0 0.046389130980076937 0.32668781832131749 0 0.049706944316556423 0.27522722923869108 0 0.093851963071650835 0.30582068233324772 0 0.087545339447545459 0.35122518864182262 0 0.046389130980076937 0.32668781832131749 0 0.14223753364722069 0.3341983344262433 0 0.093851963071650835 0.30582068233324772 0 0.087545339447545459 0.35122518864182262 0 0.14223753364722069 0.3341983344262433 0 0.087545339447545459 0.35122518864182262 0 0.1117088112799664 0.38831403004970022 0 0.087545339447545459 0.35122518864182262 0 0.1117088112799664 0.38831403004970022 0 0.050583896093752537 0.38543522283434112 0 0.087545339447545459 0.35122518864182262 0 0.046389130980076937 0.32668781832131749 0 0.050583896093752537 0.38543522283434112 0 0 0.35000000000145642 0 0.046389130980076937 0.32668781832131749 0 0.050583896093752537 0.38543522283434112 0 0 0.35000000000145642 0 0.046389130980076937 0.32668781832131749 0 0 0.30000000000124832 0 0.046389130980076937 0.32668781832131749 0 0 0.30000000000124832 0 0.049706944316556423 0.27522722923869108 0 0 0.30000000000124832 0 0 0.25000000000104028 0 0.049706944316556423 0.27522722923869108 0 0.044081577119474857 0.2271058242433576 0 0 0.25000000000104028 0 0.049706944316556423 0.27522722923869108 0 0.068743045408989428 0.48853989837882689 0 0.113541300460994 0.46208784312094731 0 0.078358742472063481 0.43365249433908948 0 0.068743045408989428 0.48853989837882689 0 0.113541300460994 0.46208784312094731 0 0.1216098864341134 0.50637075089503902 0 0.13773355295499351 0.42497777642586831 0 0.113541300460994 0.46208784312094731 0 0.078358742472063481 0.43365249433908948 0 0.13773355295499351 0.42497777642586831 0 0.1117088112799664 0.38831403004970022 0 0.078358742472063481 0.43365249433908948 0 0.1117088112799664 0.38831403004970022 0 0.078358742472063481 0.43365249433908948 0 0.050583896093752537 0.38543522283434112 0 0.078358742472063481 0.43365249433908948 0 0.035463093262830522 0.42673416072819947 0 0.050583896093752537 0.38543522283434112 0 0 0.35000000000145642 0 0.050583896093752537 0.38543522283434112 0 0 0.40000000000166441 0 0.035463093262830522 0.42673416072819947 0 0.050583896093752537 0.38543522283434112 0 0 0.40000000000166441 0 0.035463093262830522 0.42673416072819947 0 0 0.40000000000166441 0 0 0.45000000000187229 0 0.035463093262830522 0.42673416072819947 0 0 0.45000000000187229 0 0.033550201249889847 0.46247875832467239 0 0.068743045408989428 0.48853989837882689 0 0.033550201249889847 0.46247875832467239 0 0 0.50000000000205869 0 0.068743045408989428 0.48853989837882689 0 0.078358742472063481 0.43365249433908948 0 0.033550201249889847 0.46247875832467239 0 0.078358742472063481 0.43365249433908948 0 0.035463093262830522 0.42673416072819947 0 0.033550201249889847 0.46247875832467239 0 0 0.45000000000187229 0 0.033550201249889847 0.46247875832467239 0 0 0.50000000000205869 0 0.068743045408989428 0.48853989837882689 0 0 0.50000000000205869 0 0.044576108720083309 0.53509043209532614 0 0 0.50000000000205869 0 0 0.55000000000173355 0 0.044576108720083309 0.53509043209532614 0 0 0.55000000000173355 0 0.044576108720083309 0.53509043209532614 0 0.034381862692950467 0.57372682250960894 0 0.044576108720083309 0.53509043209532614 0 0.077693244765132896 0.56932317963405099 0 0.034381862692950467 0.57372682250960894 0 0.068743045408989428 0.48853989837882689 0 0.044576108720083309 0.53509043209532614 0 0.085622222639554768 0.53333248912060549 0 0.068743045408989428 0.48853989837882689 0 0.085622222639554768 0.53333248912060549 0 0.1216098864341134 0.50637075089503902 0 0.044576108720083309 0.53509043209532614 0 0.085622222639554768 0.53333248912060549 0 0.077693244765132896 0.56932317963405099 0 0.085622222639554768 0.53333248912060549 0 0.1154888278694548 0.56733818459978413 0 0.077693244765132896 0.56932317963405099 0 0.085622222639554768 0.53333248912060549 0 0.1216098864341134 0.50637075089503902 0 0.1154888278694548 0.56733818459978413 0 0.1024350934457823 0.60772393977513839 0 0.1154888278694548 0.56733818459978413 0 0.077693244765132896 0.56932317963405099 0 0.1024350934457823 0.60772393977513839 0 0.050069554451969707 0.61308520079857043 0 0.086179601630648681 0.64647209519980475 0 0.1024350934457823 0.60772393977513839 0 0.077693244765132896 0.56932317963405099 0 0.050069554451969707 0.61308520079857043 0 0.077693244765132896 0.56932317963405099 0 0.050069554451969707 0.61308520079857043 0 0.034381862692950467 0.57372682250960894 0 0 0.55000000000173355 0 0.034381862692950467 0.57372682250960894 0 0 0.60000000000138687 0 0.050069554451969707 0.61308520079857043 0 0 0.60000000000138687 0 0 0.65000000000104008 0 0.050069554451969707 0.61308520079857043 0 0.034381862692950467 0.57372682250960894 0 0 0.60000000000138687 0 0 0.65000000000104008 0 0.046634677244967337 0.671418230738282 0 0 0.7000000000006934 0 0.050069554451969707 0.61308520079857043 0 0.046634677244967337 0.671418230738282 0 0.086179601630648681 0.64647209519980475 0 0.050069554451969707 0.61308520079857043 0 0 0.65000000000104008 0 0.046634677244967337 0.671418230738282 0 0 0.7000000000006934 0 0.049706944316475897 0.72477277076253799 0 0 0.75000000000034661 0 0.046634677244967337 0.671418230738282 0 0 0.7000000000006934 0 0.049706944316475897 0.72477277076253799 0 0.049706944316475897 0.72477277076253799 0 0 0.75000000000034661 0 0.04408157711937423 0.7728941757575627 0 0.049706944316475897 0.72477277076253799 0 0.1020579365089687 0.69352219419301997 0 0.090953281884486245 0.7564451946902494 0 0.1020579365089687 0.69352219419301997 0 0.1215415378367805 0.72939333680004137 0 0.090953281884486245 0.7564451946902494 0 0.046634677244967337 0.671418230738282 0 0.049706944316475897 0.72477277076253799 0 0.1020579365089687 0.69352219419301997 0 0.1215415378367805 0.72939333680004137 0 0.090953281884486245 0.7564451946902494 0 0.14335651144331049 0.75565258250209677 0 0.046634677244967337 0.671418230738282 0 0.1020579365089687 0.69352219419301997 0 0.086179601630648681 0.64647209519980475 0 0.1020579365089687 0.69352219419301997 0 0.086179601630648681 0.64647209519980475 0 0.1241190223511371 0.64391885572885044 0 0.1024350934457823 0.60772393977513839 0 0.086179601630648681 0.64647209519980475 0 0.1241190223511371 0.64391885572885044 0 0.1020579365089687 0.69352219419301997 0 0.1241190223511371 0.64391885572885044 0 0.16500388252850301 0.66612077714085194 0 0.1241190223511371 0.64391885572885044 0 0.16500388252850301 0.66612077714085194 0 0.15720202157091859 0.60665697304410315 0 0.16500388252850301 0.66612077714085194 0 0.19914261668318661 0.62286739485272158 0 0.15720202157091859 0.60665697304410315 0 0.1020579365089687 0.69352219419301997 0 0.16500388252850301 0.66612077714085194 0 0.15332765547575641 0.71200081858233666 0 0.1215415378367805 0.72939333680004137 0 0.15332765547575641 0.71200081858233666 0 0.14335651144331049 0.75565258250209677 0 0.1020579365089687 0.69352219419301997 0 0.1215415378367805 0.72939333680004137 0 0.15332765547575641 0.71200081858233666 0 0.16500388252850301 0.66612077714085194 0 0.15332765547575641 0.71200081858233666 0 0.19068556247388771 0.71028988922845504 0 0.15332765547575641 0.71200081858233666 0 0.14335651144331049 0.75565258250209677 0 0.18269480424590959 0.75905448272264375 0 0.15332765547575641 0.71200081858233666 0 0.19068556247388771 0.71028988922845504 0 0.18269480424590959 0.75905448272264375 0 0.19068556247388771 0.71028988922845504 0 0.2248999640082178 0.72584299459689172 0 0.18269480424590959 0.75905448272264375 0 0.19068556247388771 0.71028988922845504 0 0.2248999640082178 0.72584299459689172 0 0.2236846579037573 0.67380363126050236 0 0.2248999640082178 0.72584299459689172 0 0.2236846579037573 0.67380363126050236 0 0.26439878998046262 0.7048065392091396 0 0.2248999640082178 0.72584299459689172 0 0.22556077506376701 0.77837424984191617 0 0.25676291524611189 0.7436741304886243 0 0.2248999640082178 0.72584299459689172 0 0.25676291524611189 0.7436741304886243 0 0.26439878998046262 0.7048065392091396 0 0.16500388252850301 0.66612077714085194 0 0.2236846579037573 0.67380363126050236 0 0.19914261668318661 0.62286739485272158 0 0.16500388252850301 0.66612077714085194 0 0.19068556247388771 0.71028988922845504 0 0.2236846579037573 0.67380363126050236 0 0.2236846579037573 0.67380363126050236 0 0.2459498854893499 0.63248470766216769 0 0.19914261668318661 0.62286739485272158 0 0.2236846579037573 0.67380363126050236 0 0.2459498854893499 0.63248470766216769 0 0.27820712747429932 0.65530134213254643 0 0.2459498854893499 0.63248470766216769 0 0.19914261668318661 0.62286739485272158 0 0.22549374774072969 0.58452645269293457 0 0.2459498854893499 0.63248470766216769 0 0.22549374774072969 0.58452645269293457 0 0.26573297623774761 0.59828298563722948 0 0.19914261668318661 0.62286739485272158 0 0.22549374774072969 0.58452645269293457 0 0.18381867841758909 0.57774125163628387 0 0.22549374774072969 0.58452645269293457 0 0.20050006573841939 0.53248514016039872 0 0.18381867841758909 0.57774125163628387 0 0.22549374774072969 0.58452645269293457 0 0.25115337790845271 0.54719303014923271 0 0.26573297623774761 0.59828298563722948 0 0.22549374774072969 0.58452645269293457 0 0.20050006573841939 0.53248514016039872 0 0.25115337790845271 0.54719303014923271 0 0.23975172658309729 0.49475499200540818 0 0.20050006573841939 0.53248514016039872 0 0.25115337790845271 0.54719303014923271 0 0.19604738184454831 0.47787523520405789 0 0.20050006573841939 0.53248514016039872 0 0.16618607197337229 0.50652878253548905 0 0.23975172658309729 0.49475499200540818 0 0.19604738184454831 0.47787523520405789 0 0.20050006573841939 0.53248514016039872 0 0.20050006573841939 0.53248514016039872 0 0.14934928745814749 0.55042914607228977 0 0.18381867841758909 0.57774125163628387 0 0.20050006573841939 0.53248514016039872 0 0.16618607197337229 0.50652878253548905 0 0.14934928745814749 0.55042914607228977 0 0.1216098864341134 0.50637075089503902 0 0.16618607197337229 0.50652878253548905 0 0.14934928745814749 0.55042914607228977 0 0.1216098864341134 0.50637075089503902 0 0.1154888278694548 0.56733818459978413 0 0.14934928745814749 0.55042914607228977 0 0.1154888278694548 0.56733818459978413 0 0.14934928745814749 0.55042914607228977 0 0.15720202157091859 0.60665697304410315 0 0.1024350934457823 0.60772393977513839 0 0.1154888278694548 0.56733818459978413 0 0.15720202157091859 0.60665697304410315 0 0.1024350934457823 0.60772393977513839 0 0.1241190223511371 0.64391885572885044 0 0.15720202157091859 0.60665697304410315 0 0.19914261668318661 0.62286739485272158 0 0.15720202157091859 0.60665697304410315 0 0.18381867841758909 0.57774125163628387 0 0.14934928745814749 0.55042914607228977 0 0.15720202157091859 0.60665697304410315 0 0.18381867841758909 0.57774125163628387 0 0.10000000000041601 1 0 0.10266856499240549 0.95548163909968886 0 0.15000000000062411 1 0 0.10266856499240549 0.95548163909968886 0 0.053064897599294662 0.95186845269532028 0 0.083411279318375747 0.91030024466934134 0 0.10000000000041601 1 0 0.050000000000207989 1 0 0.053064897599294662 0.95186845269532028 0 0.10000000000041601 1 0 0.10266856499240549 0.95548163909968886 0 0.053064897599294662 0.95186845269532028 0 0.050000000000207989 1 0 0.025766224399875661 0.97546711317377799 0 0.053064897599294662 0.95186845269532028 0 0.050000000000207989 1 0 0 1 0 0.025766224399875661 0.97546711317377799 0 0 1 0 0.025766224399875661 0.97546711317377799 0 0 0.94999999999979179 0 0.025766224399875661 0.97546711317377799 0 0 0.94999999999979179 0 0.053064897599294662 0.95186845269532028 0 0 0.94999999999979179 0 0.053064897599294662 0.95186845269532028 0 0.0443105827531413 0.89858748162559932 0 0.053064897599294662 0.95186845269532028 0 0.0443105827531413 0.89858748162559932 0 0.083411279318375747 0.91030024466934134 0 0 0.94999999999979179 0 0 0.89999999999958358 0 0.0443105827531413 0.89858748162559932 0 0 0.89999999999958358 0 0.0443105827531413 0.89858748162559932 0 0 0.84999999999965292 0 0.0443105827531413 0.89858748162559932 0 0.083411279318375747 0.91030024466934134 0 0.065374659239661639 0.8551091961254178 0 0.083411279318375747 0.91030024466934134 0 0.10562472963403439 0.87143394428979881 0 0.065374659239661639 0.8551091961254178 0 0.10266856499240549 0.95548163909968886 0 0.083411279318375747 0.91030024466934134 0 0.1241151115713819 0.9045666525468371 0 0.10266856499240549 0.95548163909968886 0 0.1241151115713819 0.9045666525468371 0 0.14617343800780541 0.93808063414349496 0 0.1241151115713819 0.9045666525468371 0 0.10562472963403439 0.87143394428979881 0 0.14474682429600511 0.85524784522713515 0 0.083411279318375747 0.91030024466934134 0 0.1241151115713819 0.9045666525468371 0 0.10562472963403439 0.87143394428979881 0 0.10562472963403439 0.87143394428979881 0 0.1074251789111534 0.83564394292147814 0 0.14474682429600511 0.85524784522713515 0 0.1074251789111534 0.83564394292147814 0 0.065374659239661639 0.8551091961254178 0 0.083105206071452636 0.79992298667296435 0 0.10562472963403439 0.87143394428979881 0 0.1074251789111534 0.83564394292147814 0 0.065374659239661639 0.8551091961254178 0 0.065374659239661639 0.8551091961254178 0 0 0.84999999999965292 0 0.038512288486097702 0.8155852717111195 0 0.0443105827531413 0.89858748162559932 0 0.065374659239661639 0.8551091961254178 0 0 0.84999999999965292 0 0 0.84999999999965292 0 0.038512288486097702 0.8155852717111195 0 0 0.79999999999999982 0 0.065374659239661639 0.8551091961254178 0 0.038512288486097702 0.8155852717111195 0 0.083105206071452636 0.79992298667296435 0 0.038512288486097702 0.8155852717111195 0 0.04408157711937423 0.7728941757575627 0 0.083105206071452636 0.79992298667296435 0 0.038512288486097702 0.8155852717111195 0 0 0.79999999999999982 0 0.04408157711937423 0.7728941757575627 0 0 0.79999999999999982 0 0 0.75000000000034661 0 0.04408157711937423 0.7728941757575627 0 0.049706944316475897 0.72477277076253799 0 0.04408157711937423 0.7728941757575627 0 0.090953281884486245 0.7564451946902494 0 0.04408157711937423 0.7728941757575627 0 0.090953281884486245 0.7564451946902494 0 0.083105206071452636 0.79992298667296435 0 0.1074251789111534 0.83564394292147814 0 0.083105206071452636 0.79992298667296435 0 0.1382744753146134 0.79650574229207483 0 0.090953281884486245 0.7564451946902494 0 0.083105206071452636 0.79992298667296435 0 0.1382744753146134 0.79650574229207483 0 0.090953281884486245 0.7564451946902494 0 0.14335651144331049 0.75565258250209677 0 0.1382744753146134 0.79650574229207483 0 0.14335651144331049 0.75565258250209677 0 0.1382744753146134 0.79650574229207483 0 0.18269480424590959 0.75905448272264375 0 0.1382744753146134 0.79650574229207483 0 0.18269480424590959 0.75905448272264375 0 0.17777405986036951 0.81832336108265358 0 0.2248999640082178 0.72584299459689172 0 0.18269480424590959 0.75905448272264375 0 0.22556077506376701 0.77837424984191617 0 0.22556077506376701 0.77837424984191617 0 0.21858834311891909 0.81980263716112767 0 0.26104540868854792 0.81401944968719064 0 0.22556077506376701 0.77837424984191617 0 0.21858834311891909 0.81980263716112767 0 0.17777405986036951 0.81832336108265358 0 0.18269480424590959 0.75905448272264375 0 0.22556077506376701 0.77837424984191617 0 0.17777405986036951 0.81832336108265358 0 0.21858834311891909 0.81980263716112767 0 0.19741632902693801 0.86755867406447229 0 0.17777405986036951 0.81832336108265358 0 0.21858834311891909 0.81980263716112767 0 0.2401283238295133 0.85648409884788523 0 0.26104540868854792 0.81401944968719064 0 0.21858834311891909 0.81980263716112767 0 0.2401283238295133 0.85648409884788523 0 0.19741632902693801 0.86755867406447229 0 0.19741632902693801 0.86755867406447229 0 0.17777405986036951 0.81832336108265358 0 0.14474682429600511 0.85524784522713515 0 0.19741632902693801 0.86755867406447229 0 0.14474682429600511 0.85524784522713515 0 0.16206583317966519 0.89685560785156404 0 0.1382744753146134 0.79650574229207483 0 0.17777405986036951 0.81832336108265358 0 0.14474682429600511 0.85524784522713515 0 0.1074251789111534 0.83564394292147814 0 0.1382744753146134 0.79650574229207483 0 0.14474682429600511 0.85524784522713515 0 0.1241151115713819 0.9045666525468371 0 0.14474682429600511 0.85524784522713515 0 0.16206583317966519 0.89685560785156404 0 0.1241151115713819 0.9045666525468371 0 0.16206583317966519 0.89685560785156404 0 0.14617343800780541 0.93808063414349496 0 0.16206583317966519 0.89685560785156404 0 0.19901705110390991 0.9175543425573498 0 0.14617343800780541 0.93808063414349496 0 0.19741632902693801 0.86755867406447229 0 0.16206583317966519 0.89685560785156404 0 0.19901705110390991 0.9175543425573498 0 0.19741632902693801 0.86755867406447229 0 0.24536017905392571 0.90704567837671446 0 0.19901705110390991 0.9175543425573498 0 0.2401283238295133 0.85648409884788523 0 0.19741632902693801 0.86755867406447229 0 0.24536017905392571 0.90704567837671446 0 0.24536017905392571 0.90704567837671446 0 0.19901705110390991 0.9175543425573498 0 0.22850979588452081 0.95594428570238643 0 0.19901705110390991 0.9175543425573498 0 0.22850979588452081 0.95594428570238643 0 0.18474005699953849 0.96231585248064622 0 0.24536017905392571 0.90704567837671446 0 0.22850979588452081 0.95594428570238643 0 0.27609987656793722 0.94991445621608572 0 0.22850979588452081 0.95594428570238643 0 0.20000000000083221 1 0 0.25000000000104028 1 0 0.22850979588452081 0.95594428570238643 0 0.20000000000083221 1 0 0.18474005699953849 0.96231585248064622 0 0.20000000000083221 1 0 0.18474005699953849 0.96231585248064622 0 0.15000000000062411 1 0 0.19901705110390991 0.9175543425573498 0 0.18474005699953849 0.96231585248064622 0 0.14617343800780541 0.93808063414349496 0 0.18474005699953849 0.96231585248064622 0 0.14617343800780541 0.93808063414349496 0 0.15000000000062411 1 0 0.10266856499240549 0.95548163909968886 0 0.14617343800780541 0.93808063414349496 0 0.15000000000062411 1 0 0.35000000000145642 1 0 0.36184234618600131 0.96443954459096326 0 0.32544832635163229 0.95485394099568932 0 0.35000000000145642 1 0 0.36184234618600131 0.96443954459096326 0 0.40000000000166441 1 0 0.36184234618600131 0.96443954459096326 0 0.32544832635163229 0.95485394099568932 0 0.35752321586431363 0.9185439911803448 0 0.36184234618600131 0.96443954459096326 0 0.35752321586431363 0.9185439911803448 0 0.39641108128798319 0.94356127926187128 0 0.35000000000145642 1 0 0.32544832635163229 0.95485394099568932 0 0.30000000000124832 1 0 0.30000000000124832 1 0 0.25000000000104028 1 0 0.27609987656793722 0.94991445621608572 0 0.22850979588452081 0.95594428570238643 0 0.25000000000104028 1 0 0.27609987656793722 0.94991445621608572 0 0.32544832635163229 0.95485394099568932 0 0.30000000000124832 1 0 0.27609987656793722 0.94991445621608572 0 0.32544832635163229 0.95485394099568932 0 0.27609987656793722 0.94991445621608572 0 0.30864387279288652 0.89906554525974958 0 0.24536017905392571 0.90704567837671446 0 0.27270076654418179 0.87751467830216623 0 0.30864387279288652 0.89906554525974958 0 0.24536017905392571 0.90704567837671446 0 0.27609987656793722 0.94991445621608572 0 0.30864387279288652 0.89906554525974958 0 0.2401283238295133 0.85648409884788523 0 0.24536017905392571 0.90704567837671446 0 0.27270076654418179 0.87751467830216623 0 0.30864387279288652 0.89906554525974958 0 0.35752321586431363 0.9185439911803448 0 0.35864759629805099 0.87963482415279515 0 0.32544832635163229 0.95485394099568932 0 0.30864387279288652 0.89906554525974958 0 0.35752321586431363 0.9185439911803448 0 0.35752321586431363 0.9185439911803448 0 0.35864759629805099 0.87963482415279515 0 0.39767323751400468 0.89584229130535065 0 0.35864759629805099 0.87963482415279515 0 0.33403534827021109 0.84402799729020661 0 0.39536230704883951 0.84069429572832477 0 0.33403534827021109 0.84402799729020661 0 0.35642984951668422 0.80994399665655703 0 0.39536230704883951 0.84069429572832477 0 0.33403534827021109 0.84402799729020661 0 0.30857225866488791 0.81101973481716805 0 0.35642984951668422 0.80994399665655703 0 0.30864387279288652 0.89906554525974958 0 0.35864759629805099 0.87963482415279515 0 0.33403534827021109 0.84402799729020661 0 0.30864387279288652 0.89906554525974958 0 0.33403534827021109 0.84402799729020661 0 0.29209212897034281 0.84715728365233667 0 0.27270076654418179 0.87751467830216623 0 0.30864387279288652 0.89906554525974958 0 0.29209212897034281 0.84715728365233667 0 0.2401283238295133 0.85648409884788523 0 0.27270076654418179 0.87751467830216623 0 0.29209212897034281 0.84715728365233667 0 0.2401283238295133 0.85648409884788523 0 0.29209212897034281 0.84715728365233667 0 0.26104540868854792 0.81401944968719064 0 0.29209212897034281 0.84715728365233667 0 0.26104540868854792 0.81401944968719064 0 0.30857225866488791 0.81101973481716805 0 0.33403534827021109 0.84402799729020661 0 0.29209212897034281 0.84715728365233667 0 0.30857225866488791 0.81101973481716805 0 0.26104540868854792 0.81401944968719064 0 0.30857225866488791 0.81101973481716805 0 0.2792923945214143 0.77665808831789485 0 0.30857225866488791 0.81101973481716805 0 0.2792923945214143 0.77665808831789485 0 0.33123028043633618 0.77629643437932982 0 0.22556077506376701 0.77837424984191617 0 0.26104540868854792 0.81401944968719064 0 0.2792923945214143 0.77665808831789485 0 0.2792923945214143 0.77665808831789485 0 0.25676291524611189 0.7436741304886243 0 0.29904318922293632 0.74132814928635593 0 0.22556077506376701 0.77837424984191617 0 0.2792923945214143 0.77665808831789485 0 0.25676291524611189 0.7436741304886243 0 0.2792923945214143 0.77665808831789485 0 0.33123028043633618 0.77629643437932982 0 0.29904318922293632 0.74132814928635593 0 0.33123028043633618 0.77629643437932982 0 0.29904318922293632 0.74132814928635593 0 0.35415581127540569 0.73730480045900215 0 0.30857225866488791 0.81101973481716805 0 0.33123028043633618 0.77629643437932982 0 0.35642984951668422 0.80994399665655703 0 0.33123028043633618 0.77629643437932982 0 0.35642984951668422 0.80994399665655703 0 0.38586766253264881 0.78219501014812498 0 0.33123028043633618 0.77629643437932982 0 0.38586766253264881 0.78219501014812498 0 0.35415581127540569 0.73730480045900215 0 0.38586766253264881 0.78219501014812498 0 0.42676259796334498 0.76772545931379299 0 0.40326160981139969 0.73346192995102844 0 0.38586766253264881 0.78219501014812498 0 0.35415581127540569 0.73730480045900215 0 0.40326160981139969 0.73346192995102844 0 0.38586766253264881 0.78219501014812498 0 0.42609163930740518 0.80361684430568059 0 0.39536230704883951 0.84069429572832477 0 0.35642984951668422 0.80994399665655703 0 0.38586766253264881 0.78219501014812498 0 0.39536230704883951 0.84069429572832477 0 0.38586766253264881 0.78219501014812498 0 0.42609163930740518 0.80361684430568059 0 0.42676259796334498 0.76772545931379299 0 0.42676259796334498 0.76772545931379299 0 0.4656888918609538 0.78493261229743638 0 0.45582236402875981 0.73896743678908217 0 0.4656888918609538 0.78493261229743638 0 0.45582236402875981 0.73896743678908217 0 0.50945740445113552 0.75476055527778108 0 0.4656888918609538 0.78493261229743638 0 0.50731287292894423 0.78963574450233831 0 0.50945740445113552 0.75476055527778108 0 0.4656888918609538 0.78493261229743638 0 0.50627822638148745 0.8263979829520941 0 0.50731287292894423 0.78963574450233831 0 0.42609163930740518 0.80361684430568059 0 0.4656888918609538 0.78493261229743638 0 0.45677673713123867 0.84253684404072415 0 0.42609163930740518 0.80361684430568059 0 0.42676259796334498 0.76772545931379299 0 0.4656888918609538 0.78493261229743638 0 0.4656888918609538 0.78493261229743638 0 0.45677673713123867 0.84253684404072415 0 0.50627822638148745 0.8263979829520941 0 0.45677673713123867 0.84253684404072415 0 0.50202631463681879 0.87892870825713787 0 0.50627822638148745 0.8263979829520941 0 0.45677673713123867 0.84253684404072415 0 0.44003836461056539 0.88093474584252718 0 0.50202631463681879 0.87892870825713787 0 0.45677673713123867 0.84253684404072415 0 0.39536230704883951 0.84069429572832477 0 0.44003836461056539 0.88093474584252718 0 0.39536230704883951 0.84069429572832477 0 0.39767323751400468 0.89584229130535065 0 0.44003836461056539 0.88093474584252718 0 0.42609163930740518 0.80361684430568059 0 0.45677673713123867 0.84253684404072415 0 0.39536230704883951 0.84069429572832477 0 0.35864759629805099 0.87963482415279515 0 0.39536230704883951 0.84069429572832477 0 0.39767323751400468 0.89584229130535065 0 0.35752321586431363 0.9185439911803448 0 0.39767323751400468 0.89584229130535065 0 0.39641108128798319 0.94356127926187128 0 0.39767323751400468 0.89584229130535065 0 0.4367309254023824 0.92065556789053882 0 0.39641108128798319 0.94356127926187128 0 0.39767323751400468 0.89584229130535065 0 0.4367309254023824 0.92065556789053882 0 0.44003836461056539 0.88093474584252718 0 0.4367309254023824 0.92065556789053882 0 0.44003836461056539 0.88093474584252718 0 0.47401147028110507 0.91529957330468115 0 0.44003836461056539 0.88093474584252718 0 0.47401147028110507 0.91529957330468115 0 0.50202631463681879 0.87892870825713787 0 0.47401147028110507 0.91529957330468115 0 0.47135117303824892 0.95556877749289892 0 0.52122150208832174 0.94089974453840242 0 0.47401147028110507 0.91529957330468115 0 0.52122150208832174 0.94089974453840242 0 0.50202631463681879 0.87892870825713787 0 0.4367309254023824 0.92065556789053882 0 0.47401147028110507 0.91529957330468115 0 0.47135117303824892 0.95556877749289892 0 0.4367309254023824 0.92065556789053882 0 0.47135117303824892 0.95556877749289892 0 0.4308986359464303 0.96395712492906194 0 0.47135117303824892 0.95556877749289892 0 0.50000000000205869 1 0 0.52122150208832174 0.94089974453840242 0 0.47135117303824892 0.95556877749289892 0 0.45000000000187229 1 0 0.50000000000205869 1 0 0.47135117303824892 0.95556877749289892 0 0.45000000000187229 1 0 0.4308986359464303 0.96395712492906194 0 0.45000000000187229 1 0 0.4308986359464303 0.96395712492906194 0 0.40000000000166441 1 0 0.4308986359464303 0.96395712492906194 0 0.39641108128798319 0.94356127926187128 0 0.40000000000166441 1 0 0.4367309254023824 0.92065556789053882 0 0.4308986359464303 0.96395712492906194 0 0.39641108128798319 0.94356127926187128 0 0.36184234618600131 0.96443954459096326 0 0.39641108128798319 0.94356127926187128 0 0.40000000000166441 1 0 0.33122374654748771 0.57588941099433744 0 0.31502927232353312 0.6134992213375432 0 0.35765792684946668 0.6000687869219653 0 0.31502927232353312 0.6134992213375432 0 0.35765792684946668 0.6000687869219653 0 0.35864735590330371 0.63903383440414463 0 0.35765792684946668 0.6000687869219653 0 0.35864735590330371 0.63903383440414463 0 0.39743091024207589 0.6239520004230239 0 0.33122374654748771 0.57588941099433744 0 0.35765792684946668 0.6000687869219653 0 0.37272913873093971 0.56192925302619479 0 0.37272913873093971 0.56192925302619479 0 0.33190227185843768 0.52715113583864037 0 0.38244435121258652 0.51653317813019495 0 0.33122374654748771 0.57588941099433744 0 0.37272913873093971 0.56192925302619479 0 0.33190227185843768 0.52715113583864037 0 0.35024835142131061 0.48654922671676981 0 0.33190227185843768 0.52715113583864037 0 0.38244435121258652 0.51653317813019495 0 0.33122374654748771 0.57588941099433744 0 0.33190227185843768 0.52715113583864037 0 0.29110487519241501 0.56588143995431495 0 0.33190227185843768 0.52715113583864037 0 0.28307294598219601 0.50789252727458634 0 0.29110487519241501 0.56588143995431495 0 0.31068898841644388 0.47541502461811092 0 0.33190227185843768 0.52715113583864037 0 0.28307294598219601 0.50789252727458634 0 0.23975172658309729 0.49475499200540818 0 0.28307294598219601 0.50789252727458634 0 0.25115337790845271 0.54719303014923271 0 0.28307294598219601 0.50789252727458634 0 0.25115337790845271 0.54719303014923271 0 0.29110487519241501 0.56588143995431495 0 0.25115337790845271 0.54719303014923271 0 0.29110487519241501 0.56588143995431495 0 0.26573297623774761 0.59828298563722948 0 0.33122374654748771 0.57588941099433744 0 0.31502927232353312 0.6134992213375432 0 0.29110487519241501 0.56588143995431495 0 0.31502927232353312 0.6134992213375432 0 0.29110487519241501 0.56588143995431495 0 0.26573297623774761 0.59828298563722948 0 0.31502927232353312 0.6134992213375432 0 0.26573297623774761 0.59828298563722948 0 0.27820712747429932 0.65530134213254643 0 0.2459498854893499 0.63248470766216769 0 0.26573297623774761 0.59828298563722948 0 0.27820712747429932 0.65530134213254643 0 0.2236846579037573 0.67380363126050236 0 0.27820712747429932 0.65530134213254643 0 0.26439878998046262 0.7048065392091396 0 0.27820712747429932 0.65530134213254643 0 0.31378396441836959 0.70157213313026345 0 0.32263089806001177 0.66003674931826484 0 0.27820712747429932 0.65530134213254643 0 0.26439878998046262 0.7048065392091396 0 0.31378396441836959 0.70157213313026345 0 0.31502927232353312 0.6134992213375432 0 0.27820712747429932 0.65530134213254643 0 0.32263089806001177 0.66003674931826484 0 0.25676291524611189 0.7436741304886243 0 0.26439878998046262 0.7048065392091396 0 0.29904318922293632 0.74132814928635593 0 0.26439878998046262 0.7048065392091396 0 0.29904318922293632 0.74132814928635593 0 0.31378396441836959 0.70157213313026345 0 0.29904318922293632 0.74132814928635593 0 0.31378396441836959 0.70157213313026345 0 0.35415581127540569 0.73730480045900215 0 0.31378396441836959 0.70157213313026345 0 0.36622285152418499 0.69092437780804039 0 0.35415581127540569 0.73730480045900215 0 0.36622285152418499 0.69092437780804039 0 0.35415581127540569 0.73730480045900215 0 0.40326160981139969 0.73346192995102844 0 0.31502927232353312 0.6134992213375432 0 0.32263089806001177 0.66003674931826484 0 0.35864735590330371 0.63903383440414463 0 0.31378396441836959 0.70157213313026345 0 0.36622285152418499 0.69092437780804039 0 0.32263089806001177 0.66003674931826484 0 0.36622285152418499 0.69092437780804039 0 0.32263089806001177 0.66003674931826484 0 0.35864735590330371 0.63903383440414463 0 0.36622285152418499 0.69092437780804039 0 0.35864735590330371 0.63903383440414463 0 0.3977710372045391 0.65868194622830212 0 0.35864735590330371 0.63903383440414463 0 0.3977710372045391 0.65868194622830212 0 0.39743091024207589 0.6239520004230239 0 0.36622285152418499 0.69092437780804039 0 0.3977710372045391 0.65868194622830212 0 0.43323420005758778 0.6913544522562407 0 0.3977710372045391 0.65868194622830212 0 0.43323420005758778 0.6913544522562407 0 0.43846182030517877 0.64845797726506715 0 0.43846182030517877 0.64845797726506715 0 0.43545892161006339 0.61093128915313821 0 0.39743091024207589 0.6239520004230239 0 0.3977710372045391 0.65868194622830212 0 0.43846182030517877 0.64845797726506715 0 0.39743091024207589 0.6239520004230239 0 0.36622285152418499 0.69092437780804039 0 0.40326160981139969 0.73346192995102844 0 0.43323420005758778 0.6913544522562407 0 0.40326160981139969 0.73346192995102844 0 0.43323420005758778 0.6913544522562407 0 0.45582236402875981 0.73896743678908217 0 0.42676259796334498 0.76772545931379299 0 0.40326160981139969 0.73346192995102844 0 0.45582236402875981 0.73896743678908217 0 0.43323420005758778 0.6913544522562407 0 0.45582236402875981 0.73896743678908217 0 0.5 0.69999999999999996 0 0.45582236402875981 0.73896743678908217 0 0.5 0.69999999999999996 0 0.50945740445113552 0.75476055527778108 0 0.43323420005758778 0.6913544522562407 0 0.47913475093885149 0.66010775372412711 0 0.5 0.69999999999999996 0 0.43846182030517877 0.64845797726506715 0 0.47913475093885149 0.66010775372412711 0 0.47095389620662098 0.61892551373708504 0 0.43846182030517877 0.64845797726506715 0 0.47095389620662098 0.61892551373708504 0 0.43545892161006339 0.61093128915313821 0 0.43323420005758778 0.6913544522562407 0 0.43846182030517877 0.64845797726506715 0 0.47913475093885149 0.66010775372412711 0 0.47913475093885149 0.66010775372412711 0 0.47095389620662098 0.61892551373708504 0 0.50715858906372158 0.63295939104129484 0 0.47095389620662098 0.61892551373708504 0 0.5166924242153631 0.59825134841919447 0 0.50715858906372158 0.63295939104129484 0 0.47095389620662098 0.61892551373708504 0 0.46666084890304671 0.57634471035397938 0 0.5166924242153631 0.59825134841919447 0 0.47095389620662098 0.61892551373708504 0 0.46666084890304671 0.57634471035397938 0 0.43545892161006339 0.61093128915313821 0 0.43545892161006339 0.61093128915313821 0 0.4089290844030305 0.58728915500154233 0 0.39743091024207589 0.6239520004230239 0 0.46666084890304671 0.57634471035397938 0 0.43545892161006339 0.61093128915313821 0 0.4089290844030305 0.58728915500154233 0 0.46666084890304671 0.57634471035397938 0 0.4089290844030305 0.58728915500154233 0 0.42644501560315817 0.54603747078095544 0 0.37272913873093971 0.56192925302619479 0 0.4089290844030305 0.58728915500154233 0 0.42644501560315817 0.54603747078095544 0 0.35765792684946668 0.6000687869219653 0 0.37272913873093971 0.56192925302619479 0 0.4089290844030305 0.58728915500154233 0 0.35765792684946668 0.6000687869219653 0 0.4089290844030305 0.58728915500154233 0 0.39743091024207589 0.6239520004230239 0 0.37272913873093971 0.56192925302619479 0 0.38244435121258652 0.51653317813019495 0 0.42644501560315817 0.54603747078095544 0 0.43507373378304309 0.49699695397193322 0 0.38244435121258652 0.51653317813019495 0 0.42644501560315817 0.54603747078095544 0 0.46666084890304671 0.57634471035397938 0 0.47793794143994173 0.52940715638744962 0 0.53245488764484505 0.55078124999999989 0 0.43507373378304309 0.49699695397193322 0 0.49102375406324739 0.49123754822244059 0 0.47793794143994173 0.52940715638744962 0 0.43507373378304309 0.49699695397193322 0 0.42644501560315817 0.54603747078095544 0 0.47793794143994173 0.52940715638744962 0 0.46666084890304671 0.57634471035397938 0 0.42644501560315817 0.54603747078095544 0 0.47793794143994173 0.52940715638744962 0 0.49102375406324739 0.49123754822244059 0 0.47793794143994173 0.52940715638744962 0 0.53330375813596242 0.50827942741749099 0 0.47793794143994173 0.52940715638744962 0 0.53245488764484505 0.55078124999999989 0 0.53330375813596242 0.50827942741749099 0 0.53245488764484505 0.55078124999999989 0 0.53330375813596242 0.50827942741749099 0 0.57435499076887508 0.54267261987897775 0 0.53245488764484505 0.55078124999999989 0 0.57435499076887508 0.54267261987897775 0 0.57412547362576272 0.58273804879550706 0 0.53330375813596242 0.50827942741749099 0 0.57611405284611883 0.50165903596042916 0 0.57435499076887508 0.54267261987897775 0 0.57611405284611883 0.50165903596042916 0 0.57435499076887508 0.54267261987897775 0 0.62042975506801734 0.54295974692364424 0 0.57435499076887508 0.54267261987897775 0 0.62042975506801734 0.54295974692364424 0 0.57412547362576272 0.58273804879550706 0 0.57611405284611883 0.50165903596042916 0 0.62042975506801734 0.54295974692364424 0 0.61547661924074692 0.48539576058873962 0 0.5991018319127801 0.62925360607495295 0 0.6405463747586706 0.63290524857395714 0 0.63065402604362242 0.59661356661633302 0 0.57412547362576272 0.58273804879550706 0 0.5991018319127801 0.62925360607495295 0 0.63065402604362242 0.59661356661633302 0 0.62042975506801734 0.54295974692364424 0 0.57412547362576272 0.58273804879550706 0 0.63065402604362242 0.59661356661633302 0 0.57412547362576272 0.58273804879550706 0 0.5498280205245758 0.6290146943450976 0 0.5991018319127801 0.62925360607495295 0 0.46666084890304671 0.57634471035397938 0 0.53245488764484505 0.55078124999999989 0 0.5166924242153631 0.59825134841919447 0 0.57412547362576272 0.58273804879550706 0 0.5166924242153631 0.59825134841919447 0 0.5498280205245758 0.6290146943450976 0 0.53245488764484505 0.55078124999999989 0 0.57412547362576272 0.58273804879550706 0 0.5166924242153631 0.59825134841919447 0 0.5166924242153631 0.59825134841919447 0 0.50715858906372158 0.63295939104129484 0 0.5498280205245758 0.6290146943450976 0 0.47913475093885149 0.66010775372412711 0 0.50715858906372158 0.63295939104129484 0 0.52584555706968406 0.66664215091846768 0 0.50715858906372158 0.63295939104129484 0 0.52584555706968406 0.66664215091846768 0 0.5498280205245758 0.6290146943450976 0 0.47913475093885149 0.66010775372412711 0 0.52584555706968406 0.66664215091846768 0 0.5 0.69999999999999996 0 0.52584555706968406 0.66664215091846768 0 0.54999999999999993 0.69999999999999996 0 0.57484956128872922 0.66573805030881994 0 0.52584555706968406 0.66664215091846768 0 0.5498280205245758 0.6290146943450976 0 0.57484956128872922 0.66573805030881994 0 0.5 0.69999999999999996 0 0.55363780716230748 0.74348740161571747 0 0.50945740445113552 0.75476055527778108 0 0.52584555706968406 0.66664215091846768 0 0.5 0.69999999999999996 0 0.54999999999999993 0.69999999999999996 0 0.5 0.69999999999999996 0 0.54999999999999993 0.69999999999999996 0 0.5 0.69999999999999996 0 0.54999999999999993 0.69999999999999996 0 0.55363780716230748 0.74348740161571747 0 0.55363780716230748 0.74348740161571747 0 0.59999999999999976 0.69999999999999996 0 0.59636844454254345 0.75937156204589151 0 0.54999999999999993 0.69999999999999996 0 0.59999999999999976 0.69999999999999996 0 0.54999999999999993 0.69999999999999996 0 0.59999999999999976 0.69999999999999996 0 0.57484956128872922 0.66573805030881994 0 0.54999999999999993 0.69999999999999996 0 0.55363780716230748 0.74348740161571747 0 0.59999999999999976 0.69999999999999996 0 0.59999999999999976 0.69999999999999996 0 0.6499999999999998 0.69999999999999996 0 0.59999999999999976 0.69999999999999996 0 0.62460753523532009 0.66851202781000296 0 0.6499999999999998 0.69999999999999996 0 0.59999999999999976 0.69999999999999996 0 0.63221990677827677 0.73442891067859706 0 0.59636844454254345 0.75937156204589151 0 0.5498280205245758 0.6290146943450976 0 0.57484956128872922 0.66573805030881994 0 0.5991018319127801 0.62925360607495295 0 0.59999999999999976 0.69999999999999996 0 0.57484956128872922 0.66573805030881994 0 0.62460753523532009 0.66851202781000296 0 0.57484956128872922 0.66573805030881994 0 0.62460753523532009 0.66851202781000296 0 0.5991018319127801 0.62925360607495295 0 0.62460753523532009 0.66851202781000296 0 0.5991018319127801 0.62925360607495295 0 0.6405463747586706 0.63290524857395714 0 0.62460753523532009 0.66851202781000296 0 0.6405463747586706 0.63290524857395714 0 0.675261390228442 0.65996937624687813 0 0.62460753523532009 0.66851202781000296 0 0.675261390228442 0.65996937624687813 0 0.6499999999999998 0.69999999999999996 0 0.675261390228442 0.65996937624687813 0 0.6499999999999998 0.69999999999999996 0 0.69999999999999984 0.69999999999999996 0 0.6405463747586706 0.63290524857395714 0 0.675261390228442 0.65996937624687813 0 0.67529834988829951 0.61613270668143583 0 0.63221990677827677 0.73442891067859706 0 0.66427993341343905 0.73232764502436276 0 0.64753070846764316 0.77332939069435502 0 0.63221990677827677 0.73442891067859706 0 0.6499999999999998 0.69999999999999996 0 0.66427993341343905 0.73232764502436276 0 0.59999999999999976 0.69999999999999996 0 0.63221990677827677 0.73442891067859706 0 0.6499999999999998 0.69999999999999996 0 0.6499999999999998 0.69999999999999996 0 0.69999999999999984 0.69999999999999996 0 0.6499999999999998 0.69999999999999996 0 0.66427993341343905 0.73232764502436276 0 0.69999999999999984 0.69999999999999996 0 0.66427993341343905 0.73232764502436276 0 0.69999999999999984 0.69999999999999996 0 0.6916490518212759 0.75387992374886192 0 0.69999999999999984 0.69999999999999996 0 0.72501250972655151 0.74067302935308721 0 0.6916490518212759 0.75387992374886192 0 0.69999999999999984 0.69999999999999996 0 0.74999999999999989 0.69999999999999996 0 0.72501250972655151 0.74067302935308721 0 0.69999999999999984 0.69999999999999996 0 0.74999999999999989 0.69999999999999996 0 0.72500000000000064 0.67022701834392062 0 0.69999999999999984 0.69999999999999996 0 0.74999999999999989 0.69999999999999996 0 0.74999999999999989 0.69999999999999996 0 0.72501250972655151 0.74067302935308721 0 0.75841349681148107 0.75422312624214749 0 0.675261390228442 0.65996937624687813 0 0.71406021706547751 0.63292083137662503 0 0.72500000000000064 0.67022701834392062 0 0.675261390228442 0.65996937624687813 0 0.71406021706547751 0.63292083137662503 0 0.67529834988829951 0.61613270668143583 0 0.675261390228442 0.65996937624687813 0 0.69999999999999984 0.69999999999999996 0 0.72500000000000064 0.67022701834392062 0 0.71406021706547751 0.63292083137662503 0 0.72500000000000064 0.67022701834392062 0 0.74994237037456724 0.62775548192980357 0 0.72500000000000064 0.67022701834392062 0 0.74994237037456724 0.62775548192980357 0 0.7750489929959945 0.66593931409600093 0 0.71406021706547751 0.63292083137662503 0 0.74994237037456724 0.62775548192980357 0 0.71809016091162536 0.58185040402320831 0 0.74994237037456724 0.62775548192980357 0 0.71809016091162536 0.58185040402320831 0 0.77293540622714185 0.59448302402785813 0 0.71406021706547751 0.63292083137662503 0 0.71809016091162536 0.58185040402320831 0 0.67529834988829951 0.61613270668143583 0 0.71809016091162536 0.58185040402320831 0 0.67569444444444449 0.53500863336860327 0 0.67323294229744413 0.57556450033612505 0 0.71809016091162536 0.58185040402320831 0 0.67529834988829951 0.61613270668143583 0 0.67323294229744413 0.57556450033612505 0 0.71809016091162536 0.58185040402320831 0 0.7152569930854884 0.5237994455134295 0 0.77151014687832564 0.54436834383023036 0 0.7152569930854884 0.5237994455134295 0 0.77151014687832564 0.54436834383023036 0 0.73947346780852752 0.49062440112282169 0 0.7152569930854884 0.5237994455134295 0 0.67569444444444449 0.53500863336860327 0 0.69385896817107129 0.48377516041410151 0 0.71809016091162536 0.58185040402320831 0 0.7152569930854884 0.5237994455134295 0 0.67569444444444449 0.53500863336860327 0 0.62042975506801734 0.54295974692364424 0 0.67569444444444449 0.53500863336860327 0 0.67323294229744413 0.57556450033612505 0 0.67569444444444449 0.53500863336860327 0 0.6541250972820879 0.49999999999999989 0 0.69385896817107129 0.48377516041410151 0 0.62042975506801734 0.54295974692364424 0 0.67569444444444449 0.53500863336860327 0 0.6541250972820879 0.49999999999999989 0 0.62042975506801734 0.54295974692364424 0 0.61547661924074692 0.48539576058873962 0 0.6541250972820879 0.49999999999999989 0 0.62042975506801734 0.54295974692364424 0 0.63065402604362242 0.59661356661633302 0 0.67323294229744413 0.57556450033612505 0 0.6405463747586706 0.63290524857395714 0 0.63065402604362242 0.59661356661633302 0 0.67529834988829951 0.61613270668143583 0 0.63065402604362242 0.59661356661633302 0 0.67529834988829951 0.61613270668143583 0 0.67323294229744413 0.57556450033612505 0 0.60000000000138687 1 0 0.62065498684670595 0.95224934003983619 0 0.57382506491224949 0.9629411906298494 0 0.60000000000138687 1 0 0.62065498684670595 0.95224934003983619 0 0.65000000000104008 1 0 0.62065498684670595 0.95224934003983619 0 0.57382506491224949 0.9629411906298494 0 0.57724883562309992 0.92155686857100794 0 0.60000000000138687 1 0 0.57382506491224949 0.9629411906298494 0 0.55000000000173355 1 0 0.55000000000173355 1 0 0.50000000000205869 1 0 0.52122150208832174 0.94089974453840242 0 0.57382506491224949 0.9629411906298494 0 0.52122150208832174 0.94089974453840242 0 0.57724883562309992 0.92155686857100794 0 0.57382506491224949 0.9629411906298494 0 0.55000000000173355 1 0 0.52122150208832174 0.94089974453840242 0 0.52122150208832174 0.94089974453840242 0 0.54783390826260769 0.89287767010860219 0 0.57724883562309992 0.92155686857100794 0 0.52122150208832174 0.94089974453840242 0 0.50202631463681879 0.87892870825713787 0 0.54783390826260769 0.89287767010860219 0 0.54783390826260769 0.89287767010860219 0 0.5832743223239254 0.88483152652961872 0 0.55899371797446828 0.85003102233514438 0 0.54783390826260769 0.89287767010860219 0 0.5832743223239254 0.88483152652961872 0 0.57724883562309992 0.92155686857100794 0 0.5832743223239254 0.88483152652961872 0 0.57724883562309992 0.92155686857100794 0 0.61885627562261258 0.90282959257498208 0 0.62065498684670595 0.95224934003983619 0 0.57724883562309992 0.92155686857100794 0 0.61885627562261258 0.90282959257498208 0 0.5832743223239254 0.88483152652961872 0 0.61885627562261258 0.90282959257498208 0 0.61343887413683884 0.856862479058357 0 0.61343887413683884 0.856862479058357 0 0.60294066490120068 0.80851322453934582 0 0.65005442820240822 0.82644988530054031 0 0.61343887413683884 0.856862479058357 0 0.55899371797446828 0.85003102233514438 0 0.60294066490120068 0.80851322453934582 0 0.55899371797446828 0.85003102233514438 0 0.54782696902220018 0.79245182748204157 0 0.60294066490120068 0.80851322453934582 0 0.5832743223239254 0.88483152652961872 0 0.61343887413683884 0.856862479058357 0 0.55899371797446828 0.85003102233514438 0 0.50202631463681879 0.87892870825713787 0 0.54783390826260769 0.89287767010860219 0 0.55899371797446828 0.85003102233514438 0 0.50202631463681879 0.87892870825713787 0 0.55899371797446828 0.85003102233514438 0 0.50627822638148745 0.8263979829520941 0 0.55899371797446828 0.85003102233514438 0 0.50627822638148745 0.8263979829520941 0 0.54782696902220018 0.79245182748204157 0 0.50627822638148745 0.8263979829520941 0 0.54782696902220018 0.79245182748204157 0 0.50731287292894423 0.78963574450233831 0 0.54782696902220018 0.79245182748204157 0 0.50731287292894423 0.78963574450233831 0 0.50945740445113552 0.75476055527778108 0 0.55363780716230748 0.74348740161571747 0 0.54782696902220018 0.79245182748204157 0 0.50945740445113552 0.75476055527778108 0 0.55363780716230748 0.74348740161571747 0 0.54782696902220018 0.79245182748204157 0 0.59636844454254345 0.75937156204589151 0 0.54782696902220018 0.79245182748204157 0 0.60294066490120068 0.80851322453934582 0 0.59636844454254345 0.75937156204589151 0 0.60294066490120068 0.80851322453934582 0 0.59636844454254345 0.75937156204589151 0 0.64753070846764316 0.77332939069435502 0 0.63221990677827677 0.73442891067859706 0 0.59636844454254345 0.75937156204589151 0 0.64753070846764316 0.77332939069435502 0 0.60294066490120068 0.80851322453934582 0 0.64753070846764316 0.77332939069435502 0 0.65005442820240822 0.82644988530054031 0 0.64753070846764316 0.77332939069435502 0 0.68024162096458085 0.79868546898116533 0 0.65005442820240822 0.82644988530054031 0 0.64753070846764316 0.77332939069435502 0 0.68024162096458085 0.79868546898116533 0 0.6916490518212759 0.75387992374886192 0 0.66427993341343905 0.73232764502436276 0 0.64753070846764316 0.77332939069435502 0 0.6916490518212759 0.75387992374886192 0 0.72501250972655151 0.74067302935308721 0 0.6916490518212759 0.75387992374886192 0 0.72500000000000064 0.7952620967744265 0 0.72501250972655151 0.74067302935308721 0 0.72500000000000064 0.7952620967744265 0 0.75841349681148107 0.75422312624214749 0 0.68024162096458085 0.79868546898116533 0 0.6916490518212759 0.75387992374886192 0 0.72500000000000064 0.7952620967744265 0 0.68024162096458085 0.79868546898116533 0 0.72500000000000064 0.7952620967744265 0 0.68697391633157634 0.84450604838764298 0 0.72500000000000064 0.7952620967744265 0 0.72863726579783861 0.85390518901155588 0 0.68697391633157634 0.84450604838764298 0 0.72500000000000064 0.7952620967744265 0 0.72863726579783861 0.85390518901155588 0 0.76901770135486491 0.84293557325473656 0 0.72863726579783861 0.85390518901155588 0 0.68697391633157634 0.84450604838764298 0 0.7250000000005199 0.89375000000045834 0 0.68697391633157634 0.84450604838764298 0 0.66412543161245952 0.88015090885499059 0 0.7250000000005199 0.89375000000045834 0 0.68697391633157634 0.84450604838764298 0 0.65005442820240822 0.82644988530054031 0 0.66412543161245952 0.88015090885499059 0 0.68024162096458085 0.79868546898116533 0 0.68697391633157634 0.84450604838764298 0 0.65005442820240822 0.82644988530054031 0 0.61343887413683884 0.856862479058357 0 0.65005442820240822 0.82644988530054031 0 0.66412543161245952 0.88015090885499059 0 0.61885627562261258 0.90282959257498208 0 0.61343887413683884 0.856862479058357 0 0.66412543161245952 0.88015090885499059 0 0.61885627562261258 0.90282959257498208 0 0.65507451745379841 0.92229208810758578 0 0.66412543161245952 0.88015090885499059 0 0.62065498684670595 0.95224934003983619 0 0.61885627562261258 0.90282959257498208 0 0.65507451745379841 0.92229208810758578 0 0.65507451745379841 0.92229208810758578 0 0.68987011941058407 0.92105047536677087 0 0.68015064798562208 0.95924320340003011 0 0.65507451745379841 0.92229208810758578 0 0.66412543161245952 0.88015090885499059 0 0.68987011941058407 0.92105047536677087 0 0.66412543161245952 0.88015090885499059 0 0.7250000000005199 0.89375000000045834 0 0.68987011941058407 0.92105047536677087 0 0.72863726579783861 0.85390518901155588 0 0.7250000000005199 0.89375000000045834 0 0.76891166905518427 0.88835469571185499 0 0.7250000000005199 0.89375000000045834 0 0.7250000000005199 0.94981617647078953 0 0.75729602384198635 0.92353652857884294 0 0.7250000000005199 0.89375000000045834 0 0.68987011941058407 0.92105047536677087 0 0.7250000000005199 0.94981617647078953 0 0.68987011941058407 0.92105047536677087 0 0.7250000000005199 0.94981617647078953 0 0.68015064798562208 0.95924320340003011 0 0.7250000000005199 0.94981617647078953 0 0.7000000000006934 1 0 0.75000000000034661 1 0 0.7250000000005199 0.94981617647078953 0 0.75000000000034661 1 0 0.770759834363826 0.95919399014344442 0 0.7250000000005199 0.94981617647078953 0 0.7000000000006934 1 0 0.68015064798562208 0.95924320340003011 0 0.7000000000006934 1 0 0.68015064798562208 0.95924320340003011 0 0.65000000000104008 1 0 0.62065498684670595 0.95224934003983619 0 0.65507451745379841 0.92229208810758578 0 0.68015064798562208 0.95924320340003011 0 0.62065498684670595 0.95224934003983619 0 0.68015064798562208 0.95924320340003011 0 0.65000000000104008 1 0 0.84999999999965292 1 0 0.85170973911348691 0.93569607295217616 0 0.89898474358632463 0.95391965591118966 0 0.84999999999965292 1 0 0.81486180804382891 0.96321394949790495 0 0.85170973911348691 0.93569607295217616 0 0.81486180804382891 0.96321394949790495 0 0.79680861578988083 0.92656778056766709 0 0.85170973911348691 0.93569607295217616 0 0.84999999999965292 1 0 0.81486180804382891 0.96321394949790495 0 0.79999999999999982 1 0 0.81486180804382891 0.96321394949790495 0 0.79999999999999982 1 0 0.770759834363826 0.95919399014344442 0 0.79999999999999982 1 0 0.75000000000034661 1 0 0.770759834363826 0.95919399014344442 0 0.7250000000005199 0.94981617647078953 0 0.770759834363826 0.95919399014344442 0 0.75729602384198635 0.92353652857884294 0 0.81486180804382891 0.96321394949790495 0 0.770759834363826 0.95919399014344442 0 0.79680861578988083 0.92656778056766709 0 0.79680861578988083 0.92656778056766709 0 0.75729602384198635 0.92353652857884294 0 0.76891166905518427 0.88835469571185499 0 0.770759834363826 0.95919399014344442 0 0.79680861578988083 0.92656778056766709 0 0.75729602384198635 0.92353652857884294 0 0.7250000000005199 0.89375000000045834 0 0.75729602384198635 0.92353652857884294 0 0.76891166905518427 0.88835469571185499 0 0.79680861578988083 0.92656778056766709 0 0.76891166905518427 0.88835469571185499 0 0.81159157511211755 0.88795995483179491 0 0.81159157511211755 0.88795995483179491 0 0.85170973911348691 0.93569607295217616 0 0.85600844944837662 0.88483418979512773 0 0.79680861578988083 0.92656778056766709 0 0.81159157511211755 0.88795995483179491 0 0.85170973911348691 0.93569607295217616 0 0.85170973911348691 0.93569607295217616 0 0.85600844944837662 0.88483418979512773 0 0.90416666666660628 0.9041666666666166 0 0.85600844944837662 0.88483418979512773 0 0.82709327591091286 0.84937141670920724 0 0.88088768115933802 0.84674609810493673 0 0.82709327591091286 0.84937141670920724 0 0.84725310900444062 0.80779732082917555 0 0.88088768115933802 0.84674609810493673 0 0.82709327591091286 0.84937141670920724 0 0.80041942726660109 0.81543261647703358 0 0.84725310900444062 0.80779732082917555 0 0.81159157511211755 0.88795995483179491 0 0.85600844944837662 0.88483418979512773 0 0.82709327591091286 0.84937141670920724 0 0.76891166905518427 0.88835469571185499 0 0.81159157511211755 0.88795995483179491 0 0.76901770135486491 0.84293557325473656 0 0.81159157511211755 0.88795995483179491 0 0.82709327591091286 0.84937141670920724 0 0.76901770135486491 0.84293557325473656 0 0.72863726579783861 0.85390518901155588 0 0.76891166905518427 0.88835469571185499 0 0.76901770135486491 0.84293557325473656 0 0.76901770135486491 0.84293557325473656 0 0.80041942726660109 0.81543261647703358 0 0.77094201086366854 0.79647480515688507 0 0.82709327591091286 0.84937141670920724 0 0.76901770135486491 0.84293557325473656 0 0.80041942726660109 0.81543261647703358 0 0.80041942726660109 0.81543261647703358 0 0.77094201086366854 0.79647480515688507 0 0.80185942888539485 0.77452061303608133 0 0.72500000000000064 0.7952620967744265 0 0.77094201086366854 0.79647480515688507 0 0.75841349681148107 0.75422312624214749 0 0.72500000000000064 0.7952620967744265 0 0.76901770135486491 0.84293557325473656 0 0.77094201086366854 0.79647480515688507 0 0.77094201086366854 0.79647480515688507 0 0.75841349681148107 0.75422312624214749 0 0.80185942888539485 0.77452061303608133 0 0.75841349681148107 0.75422312624214749 0 0.80185942888539485 0.77452061303608133 0 0.78578450296893509 0.73292684821144505 0 0.80185942888539485 0.77452061303608133 0 0.84725310900444062 0.80779732082917555 0 0.85491058998424563 0.76004753345552634 0 0.80185942888539485 0.77452061303608133 0 0.85491058998424563 0.76004753345552634 0 0.81864958914779962 0.73589050177899629 0 0.80041942726660109 0.81543261647703358 0 0.80185942888539485 0.77452061303608133 0 0.84725310900444062 0.80779732082917555 0 0.84725310900444062 0.80779732082917555 0 0.85491058998424563 0.76004753345552634 0 0.90299850604011456 0.79563452813489832 0 0.85491058998424563 0.76004753345552634 0 0.90299850604011456 0.79563452813489832 0 0.89999166460796554 0.74528934923809909 0 0.90299850604011456 0.79563452813489832 0 0.94399509803918602 0.75600490196082126 0 0.95386563387742829 0.80414874155775029 0 0.90299850604011456 0.79563452813489832 0 0.94399509803918602 0.75600490196082126 0 0.89999166460796554 0.74528934923809909 0 0.94399509803918602 0.75600490196082126 0 0.97435614836745565 0.77499999999987745 0 0.95386563387742829 0.80414874155775029 0 0.94399509803918602 0.75600490196082126 0 0.97435614836745565 0.77499999999987745 0 0.97166519676947294 0.73337114490064459 0 0.97435614836745565 0.77499999999987745 0 0.97166519676947294 0.73337114490064459 0 1 0.74999999999993494 0 0.97435614836745565 0.77499999999987745 0 1 0.7999999999998193 0 1 0.74999999999993494 0 0.97435614836745565 0.77499999999987745 0 1 0.7999999999998193 0 0.95386563387742829 0.80414874155775029 0 1 0.84999999999982645 0 0.93677536231884972 0.85000000000000286 0 0.95391631417670719 0.89584263333814784 0 0.95386563387742829 0.80414874155775029 0 1 0.84999999999982645 0 0.93677536231884972 0.85000000000000286 0 1 0.7999999999998193 0 0.95386563387742829 0.80414874155775029 0 1 0.84999999999982645 0 0.93677536231884972 0.85000000000000286 0 0.88088768115933802 0.84674609810493673 0 0.90416666666660628 0.9041666666666166 0 0.90299850604011456 0.79563452813489832 0 0.95386563387742829 0.80414874155775029 0 0.93677536231884972 0.85000000000000286 0 0.90299850604011456 0.79563452813489832 0 0.93677536231884972 0.85000000000000286 0 0.88088768115933802 0.84674609810493673 0 0.84725310900444062 0.80779732082917555 0 0.90299850604011456 0.79563452813489832 0 0.88088768115933802 0.84674609810493673 0 0.85600844944837662 0.88483418979512773 0 0.88088768115933802 0.84674609810493673 0 0.90416666666660628 0.9041666666666166 0 0.85170973911348691 0.93569607295217616 0 0.90416666666660628 0.9041666666666166 0 0.89898474358632463 0.95391965591118966 0 0.90416666666660628 0.9041666666666166 0 0.95391631417670719 0.89584263333814784 0 0.94399509803919068 0.9439950980391687 0 0.90416666666660628 0.9041666666666166 0 0.94399509803919068 0.9439950980391687 0 0.89898474358632463 0.95391965591118966 0 0.93677536231884972 0.85000000000000286 0 0.90416666666660628 0.9041666666666166 0 0.95391631417670719 0.89584263333814784 0 1 0.84999999999982645 0 0.95391631417670719 0.89584263333814784 0 1 0.8999999999998336 0 1 0.8999999999998336 0 0.97435614836744289 0.92499999999990257 0 1 0.94999999999997109 0 0.95391631417670719 0.89584263333814784 0 1 0.8999999999998336 0 0.97435614836744289 0.92499999999990257 0 0.95391631417670719 0.89584263333814784 0 0.97435614836744289 0.92499999999990257 0 0.94399509803919068 0.9439950980391687 0 0.97435614836744289 0.92499999999990257 0 0.94399509803919068 0.9439950980391687 0 0.97166519676946206 0.96662885509935492 0 0.97435614836744289 0.92499999999990257 0 0.97166519676946206 0.96662885509935492 0 1 0.94999999999997109 0 0.97166519676946206 0.96662885509935492 0 1 0.94999999999997109 0 1 1 0 0.97166519676946206 0.96662885509935492 0 1 1 0 0.94999999999979179 1 0 0.94399509803919068 0.9439950980391687 0 0.97166519676946206 0.96662885509935492 0 0.94999999999979179 1 0 0.94999999999979179 1 0 0.89898474358632463 0.95391965591118966 0 0.89999999999958358 1 0 0.94399509803919068 0.9439950980391687 0 0.94999999999979179 1 0 0.89898474358632463 0.95391965591118966 0 0.84999999999965292 1 0 0.89898474358632463 0.95391965591118966 0 0.89999999999958358 1 0 0.81723410853263523 0.59419663659258926 0 0.86956835336234861 0.571283299838105 0 0.82862096804812391 0.55037090955459045 0 0.81723410853263523 0.59419663659258926 0 0.87159648282691515 0.61285406320581504 0 0.83758014339878906 0.63222013025741819 0 0.81723410853263523 0.59419663659258926 0 0.79884539758237771 0.62875045078114233 0 0.83758014339878906 0.63222013025741819 0 0.81723410853263523 0.59419663659258926 0 0.87159648282691515 0.61285406320581504 0 0.86956835336234861 0.571283299838105 0 0.86956835336234861 0.571283299838105 0 0.86907294890112186 0.52008116128001669 0 0.82862096804812391 0.55037090955459045 0 0.86907294890112186 0.52008116128001669 0 0.81441713509985358 0.51161854125224959 0 0.82862096804812391 0.55037090955459045 0 0.86907294890112186 0.52008116128001669 0 0.81441713509985358 0.51161854125224959 0 0.84723782639812573 0.48638347960178252 0 0.81441713509985358 0.51161854125224959 0 0.82862096804812391 0.55037090955459045 0 0.77151014687832564 0.54436834383023036 0 0.81441713509985358 0.51161854125224959 0 0.77151014687832564 0.54436834383023036 0 0.77846603114747959 0.49850927265137401 0 0.77151014687832564 0.54436834383023036 0 0.77846603114747959 0.49850927265137401 0 0.73947346780852752 0.49062440112282169 0 0.71809016091162536 0.58185040402320831 0 0.77151014687832564 0.54436834383023036 0 0.77293540622714185 0.59448302402785813 0 0.81723410853263523 0.59419663659258926 0 0.77151014687832564 0.54436834383023036 0 0.77293540622714185 0.59448302402785813 0 0.81723410853263523 0.59419663659258926 0 0.82862096804812391 0.55037090955459045 0 0.77151014687832564 0.54436834383023036 0 0.81723410853263523 0.59419663659258926 0 0.77293540622714185 0.59448302402785813 0 0.79884539758237771 0.62875045078114233 0 0.74994237037456724 0.62775548192980357 0 0.77293540622714185 0.59448302402785813 0 0.79884539758237771 0.62875045078114233 0 0.74994237037456724 0.62775548192980357 0 0.7750489929959945 0.66593931409600093 0 0.79884539758237771 0.62875045078114233 0 0.74999999999999989 0.69999999999999996 0 0.72500000000000064 0.67022701834392062 0 0.7750489929959945 0.66593931409600093 0 0.7750489929959945 0.66593931409600093 0 0.79999999999999982 0.69999999999999996 0 0.82457059160610424 0.66831947184359608 0 0.7750489929959945 0.66593931409600093 0 0.79884539758237771 0.62875045078114233 0 0.82457059160610424 0.66831947184359608 0 0.74999999999999989 0.69999999999999996 0 0.75841349681148107 0.75422312624214749 0 0.78578450296893509 0.73292684821144505 0 0.74999999999999989 0.69999999999999996 0 0.79999999999999982 0.69999999999999996 0 0.78578450296893509 0.73292684821144505 0 0.74999999999999989 0.69999999999999996 0 0.7750489929959945 0.66593931409600093 0 0.79999999999999982 0.69999999999999996 0 0.74999999999999989 0.69999999999999996 0 0.79999999999999982 0.69999999999999996 0 0.80185942888539485 0.77452061303608133 0 0.78578450296893509 0.73292684821144505 0 0.81864958914779962 0.73589050177899629 0 0.79999999999999982 0.69999999999999996 0 0.78578450296893509 0.73292684821144505 0 0.81864958914779962 0.73589050177899629 0 0.85491058998424563 0.76004753345552634 0 0.81864958914779962 0.73589050177899629 0 0.84999999999999987 0.69999999999999996 0 0.79999999999999982 0.69999999999999996 0 0.84999999999999987 0.69999999999999996 0 0.79999999999999982 0.69999999999999996 0 0.84999999999999987 0.69999999999999996 0 0.82457059160610424 0.66831947184359608 0 0.79999999999999982 0.69999999999999996 0 0.81864958914779962 0.73589050177899629 0 0.84999999999999987 0.69999999999999996 0 0.84999999999999987 0.69999999999999996 0 0.89999999999999991 0.69999999999999996 0 0.85491058998424563 0.76004753345552634 0 0.84999999999999987 0.69999999999999996 0 0.89999166460796554 0.74528934923809909 0 0.79884539758237771 0.62875045078114233 0 0.83758014339878906 0.63222013025741819 0 0.82457059160610424 0.66831947184359608 0 0.84999999999999987 0.69999999999999996 0 0.82457059160610424 0.66831947184359608 0 0.87712158428786946 0.65709029563313581 0 0.87159648282691515 0.61285406320581504 0 0.83758014339878906 0.63222013025741819 0 0.87712158428786946 0.65709029563313581 0 0.83758014339878906 0.63222013025741819 0 0.82457059160610424 0.66831947184359608 0 0.87712158428786946 0.65709029563313581 0 0.87712158428786946 0.65709029563313581 0 0.92057473616084773 0.66770436535372446 0 0.91750694127105259 0.63017627779935648 0 0.87159648282691515 0.61285406320581504 0 0.87712158428786946 0.65709029563313581 0 0.91750694127105259 0.63017627779935648 0 0.84999999999999987 0.69999999999999996 0 0.87712158428786946 0.65709029563313581 0 0.89999999999999991 0.69999999999999996 0 0.87712158428786946 0.65709029563313581 0 0.92057473616084773 0.66770436535372446 0 0.89999999999999991 0.69999999999999996 0 0.92057473616084773 0.66770436535372446 0 0.91750694127105259 0.63017627779935648 0 0.9578014258160763 0.65787212321113708 0 0.84999999999999987 0.69999999999999996 0 0.89999166460796554 0.74528934923809909 0 0.89999999999999991 0.69999999999999996 0 0.89999999999999991 0.69999999999999996 0 0.94999999999999996 0.69999999999999996 0 0.92057473616084773 0.66770436535372446 0 0.89999999999999991 0.69999999999999996 0 0.94999999999999996 0.69999999999999996 0 0.89999166460796554 0.74528934923809909 0 0.89999999999999991 0.69999999999999996 0 0.94999999999999996 0.69999999999999996 0 0.94399509803918602 0.75600490196082126 0 0.89999166460796554 0.74528934923809909 0 0.94999999999999996 0.69999999999999996 0 0.94399509803918602 0.75600490196082126 0 0.94999999999999996 0.69999999999999996 0 0.97166519676947294 0.73337114490064459 0 0.94999999999999996 0.69999999999999996 0 1 0.69999999999999996 0 0.94999999999999996 0.69999999999999996 0 1 0.69999999999999996 0 0.97166519676947294 0.73337114490064459 0 1 0.69999999999999996 0 0.97166519676947294 0.73337114490064459 0 1 0.74999999999993494 0 0.91750694127105259 0.63017627779935648 0 0.9578014258160763 0.65787212321113708 0 0.95867599106212187 0.60011091146651041 0 0.92057473616084773 0.66770436535372446 0 0.94999999999999996 0.69999999999999996 0 0.9578014258160763 0.65787212321113708 0 0.94999999999999996 0.69999999999999996 0 1 0.69999999999999996 0 0.9578014258160763 0.65787212321113708 0 1 0.69999999999999996 0 0.9578014258160763 0.65787212321113708 0 1 0.64999999999986979 0 0.9578014258160763 0.65787212321113708 0 1 0.64999999999986979 0 0.95867599106212187 0.60011091146651041 0 0.95867599106212187 0.60011091146651041 0 0.93732437411268477 0.55911392101136159 0 1 0.54999999999963112 0 1 0.64999999999986979 0 1 0.59999999999973963 0 0.95867599106212187 0.60011091146651041 0 1 0.59999999999973963 0 0.95867599106212187 0.60011091146651041 0 1 0.54999999999963112 0 0.91750694127105259 0.63017627779935648 0 0.95867599106212187 0.60011091146651041 0 0.91143117093204207 0.58709913730335972 0 0.95867599106212187 0.60011091146651041 0 0.91143117093204207 0.58709913730335972 0 0.93732437411268477 0.55911392101136159 0 0.86956835336234861 0.571283299838105 0 0.91143117093204207 0.58709913730335972 0 0.90900154012161016 0.53607784105648792 0 0.87159648282691515 0.61285406320581504 0 0.86956835336234861 0.571283299838105 0 0.91143117093204207 0.58709913730335972 0 0.87159648282691515 0.61285406320581504 0 0.91750694127105259 0.63017627779935648 0 0.91143117093204207 0.58709913730335972 0 0.86907294890112186 0.52008116128001669 0 0.90900154012161016 0.53607784105648792 0 0.91696753777131557 0.497780560203536 0 0.86956835336234861 0.571283299838105 0 0.86907294890112186 0.52008116128001669 0 0.90900154012161016 0.53607784105648792 0 0.90900154012161016 0.53607784105648792 0 0.93732437411268477 0.55911392101136159 0 0.95631871884947484 0.51827533208233789 0 0.91143117093204207 0.58709913730335972 0 0.90900154012161016 0.53607784105648792 0 0.93732437411268477 0.55911392101136159 0 0.90900154012161016 0.53607784105648792 0 0.95631871884947484 0.51827533208233789 0 0.91696753777131557 0.497780560203536 0 0.93732437411268477 0.55911392101136159 0 0.95631871884947484 0.51827533208233789 0 1 0.54999999999963112 0 0.95631871884947484 0.51827533208233789 0 1 0.54999999999963112 0 1 0.49999999999950101 0 0.95631871884947484 0.51827533208233789 0 1 0.49999999999950101 0 0.96228564064454991 0.48206450662049471 0 1 0.49999999999950101 0 1 0.44999999999963131 0 0.96228564064454991 0.48206450662049471 0 1 0.44999999999963131 0 0.93814194660195893 0.44426664081746747 0 0.96228564064454991 0.48206450662049471 0 0.93814194660195893 0.44426664081746747 0 0.96228564064454991 0.48206450662049471 0 0.91696753777131557 0.497780560203536 0 0.95631871884947484 0.51827533208233789 0 0.96228564064454991 0.48206450662049471 0 0.91696753777131557 0.497780560203536 0 1 0.39999999999978308 0 0.95871855522754235 0.40006508612975411 0 1 0.34999999999993492 0 1 0.44999999999963131 0 1 0.39999999999978308 0 0.95871855522754235 0.40006508612975411 0 1 0.44999999999963131 0 0.93814194660195893 0.44426664081746747 0 0.95871855522754235 0.40006508612975411 0 0.95871855522754235 0.40006508612975411 0 0.90594285160987287 0.4141265964174129 0 0.91750694127107502 0.36982372220068471 0 0.93814194660195893 0.44426664081746747 0 0.95871855522754235 0.40006508612975411 0 0.90594285160987287 0.4141265964174129 0 0.90594285160987287 0.4141265964174129 0 0.88594198078881503 0.46167788676578442 0 0.86411095495256451 0.42388805655111889 0 0.90594285160987287 0.4141265964174129 0 0.86411095495256451 0.42388805655111889 0 0.86844634540301924 0.38530937474099819 0 0.90594285160987287 0.4141265964174129 0 0.86844634540301924 0.38530937474099819 0 0.91750694127107502 0.36982372220068471 0 0.93814194660195893 0.44426664081746747 0 0.91696753777131557 0.497780560203536 0 0.88594198078881503 0.46167788676578442 0 0.93814194660195893 0.44426664081746747 0 0.90594285160987287 0.4141265964174129 0 0.88594198078881503 0.46167788676578442 0 0.86907294890112186 0.52008116128001669 0 0.91696753777131557 0.497780560203536 0 0.88594198078881503 0.46167788676578442 0 0.86907294890112186 0.52008116128001669 0 0.88594198078881503 0.46167788676578442 0 0.84723782639812573 0.48638347960178252 0 0.81441713509985358 0.51161854125224959 0 0.84723782639812573 0.48638347960178252 0 0.81400510706333218 0.47357325943904899 0 0.84723782639812573 0.48638347960178252 0 0.81400510706333218 0.47357325943904899 0 0.84925632466077294 0.45359738909549091 0 0.81400510706333218 0.47357325943904899 0 0.84925632466077294 0.45359738909549091 0 0.81973119833356312 0.43505687159469048 0 0.88594198078881503 0.46167788676578442 0 0.84723782639812573 0.48638347960178252 0 0.84925632466077294 0.45359738909549091 0 0.84925632466077294 0.45359738909549091 0 0.86411095495256451 0.42388805655111889 0 0.81973119833356312 0.43505687159469048 0 0.88594198078881503 0.46167788676578442 0 0.84925632466077294 0.45359738909549091 0 0.86411095495256451 0.42388805655111889 0 0.86411095495256451 0.42388805655111889 0 0.86844634540301924 0.38530937474099819 0 0.81308179852519835 0.39754945808726527 0 0.86844634540301924 0.38530937474099819 0 0.81308179852519835 0.39754945808726527 0 0.83573492347052902 0.36590755630746369 0 0.86411095495256451 0.42388805655111889 0 0.81308179852519835 0.39754945808726527 0 0.81973119833356312 0.43505687159469048 0 0.81973119833356312 0.43505687159469048 0 0.77354604466818633 0.40378688774472771 0 0.77972660463949339 0.45529290596363098 0 0.81308179852519835 0.39754945808726527 0 0.81973119833356312 0.43505687159469048 0 0.77354604466818633 0.40378688774472771 0 0.81308179852519835 0.39754945808726527 0 0.77354604466818633 0.40378688774472771 0 0.78145581580700685 0.34881365920033602 0 0.77354604466818633 0.40378688774472771 0 0.77972660463949339 0.45529290596363098 0 0.73483647259922602 0.44789725365921768 0 0.77972660463949339 0.45529290596363098 0 0.73483647259922602 0.44789725365921768 0 0.73947346780852752 0.49062440112282169 0 0.77972660463949339 0.45529290596363098 0 0.77846603114747959 0.49850927265137401 0 0.73947346780852752 0.49062440112282169 0 0.81400510706333218 0.47357325943904899 0 0.77972660463949339 0.45529290596363098 0 0.77846603114747959 0.49850927265137401 0 0.81441713509985358 0.51161854125224959 0 0.81400510706333218 0.47357325943904899 0 0.77846603114747959 0.49850927265137401 0 0.81400510706333218 0.47357325943904899 0 0.81973119833356312 0.43505687159469048 0 0.77972660463949339 0.45529290596363098 0 0.79999999999999982 0.29999999999999999 0 0.77075983436335049 0.25919399014334171 0 0.81486180804364938 0.26321394949780091 0 0.79999999999999982 0.29999999999999999 0 0.74999999999999989 0.29999999999999999 0 0.79999999999999982 0.29999999999999999 0 0.77075983436335049 0.25919399014334171 0 0.74999999999999989 0.29999999999999999 0 0.79999999999999982 0.29999999999999999 0 0.78145581580700685 0.34881365920033602 0 0.74999999999999989 0.29999999999999999 0 0.78145581580700685 0.34881365920033602 0 0.73090396928863699 0.33699297293167962 0 0.74999999999999989 0.29999999999999999 0 0.77354604466818633 0.40378688774472771 0 0.78145581580700685 0.34881365920033602 0 0.74764719760526988 0.3719647154012321 0 0.78145581580700685 0.34881365920033602 0 0.74764719760526988 0.3719647154012321 0 0.73090396928863699 0.33699297293167962 0 0.81308179852519835 0.39754945808726527 0 0.78145581580700685 0.34881365920033602 0 0.83573492347052902 0.36590755630746369 0 0.79999999999999982 0.29999999999999999 0 0.78145581580700685 0.34881365920033602 0 0.82500000000000062 0.33010209762754811 0 0.78145581580700685 0.34881365920033602 0 0.82500000000000062 0.33010209762754811 0 0.83573492347052902 0.36590755630746369 0 0.82500000000000062 0.33010209762754811 0 0.83573492347052902 0.36590755630746369 0 0.87430060258887643 0.34056085888204451 0 0.86844634540301924 0.38530937474099819 0 0.83573492347052902 0.36590755630746369 0 0.87430060258887643 0.34056085888204451 0 0.82500000000000062 0.33010209762754811 0 0.87430060258887643 0.34056085888204451 0 0.84999999999999987 0.29999999999999999 0 0.87430060258887643 0.34056085888204451 0 0.84999999999999987 0.29999999999999999 0 0.89999999999999991 0.29999999999999999 0 0.84999999999999987 0.29999999999999999 0 0.81486180804364938 0.26321394949780091 0 0.8517097391133297 0.2356960729520409 0 0.84999999999999987 0.29999999999999999 0 0.89898474358614167 0.25391965591104898 0 0.8517097391133297 0.2356960729520409 0 0.84999999999999987 0.29999999999999999 0 0.89999999999999991 0.29999999999999999 0 0.79999999999999982 0.29999999999999999 0 0.82500000000000062 0.33010209762754811 0 0.84999999999999987 0.29999999999999999 0 0.79999999999999982 0.29999999999999999 0 0.84999999999999987 0.29999999999999999 0 0.81486180804364938 0.26321394949780091 0 0.79999999999999982 0.29999999999999999 0 0.84999999999999987 0.29999999999999999 0 0.84999999999999987 0.29999999999999999 0 0.89898474358614167 0.25391965591104898 0 0.89999999999999991 0.29999999999999999 0 0.89999999999999991 0.29999999999999999 0 0.94999999999999996 0.29999999999999999 0 0.89999999999999991 0.29999999999999999 0 0.92012390126144183 0.33123581297173937 0 0.94999999999999996 0.29999999999999999 0 0.89898474358614167 0.25391965591104898 0 0.89999999999999991 0.29999999999999999 0 0.94999999999999996 0.29999999999999999 0 0.89898474358614167 0.25391965591104898 0 0.94999999999999996 0.29999999999999999 0 0.94399509803921056 0.24399509803922639 0 0.86844634540301924 0.38530937474099819 0 0.87430060258887643 0.34056085888204451 0 0.91750694127107502 0.36982372220068471 0 0.87430060258887643 0.34056085888204451 0 0.92012390126144183 0.33123581297173937 0 0.91750694127107502 0.36982372220068471 0 0.87430060258887643 0.34056085888204451 0 0.89999999999999991 0.29999999999999999 0 0.92012390126144183 0.33123581297173937 0 0.92012390126144183 0.33123581297173937 0 0.91750694127107502 0.36982372220068471 0 0.95780851984364423 0.34215720972155339 0 0.95871855522754235 0.40006508612975411 0 0.91750694127107502 0.36982372220068471 0 0.95780851984364423 0.34215720972155339 0 0.92012390126144183 0.33123581297173937 0 0.95780851984364423 0.34215720972155339 0 0.94999999999999996 0.29999999999999999 0 0.95780851984364423 0.34215720972155339 0 0.94999999999999996 0.29999999999999999 0 1 0.29999999999999999 0 0.95780851984364423 0.34215720972155339 0 1 0.34999999999993492 0 1 0.29999999999999999 0 0.95871855522754235 0.40006508612975411 0 0.95780851984364423 0.34215720972155339 0 1 0.34999999999993492 0 0.94999999999999996 0.29999999999999999 0 0.97166519676951801 0.26662885509932011 0 0.94399509803921056 0.24399509803922639 0 0.94999999999999996 0.29999999999999999 0 1 0.29999999999999999 0 0.94999999999999996 0.29999999999999999 0 1 0.29999999999999999 0 0.97166519676951801 0.26662885509932011 0 1 0.29999999999999999 0 0.97166519676951801 0.26662885509932011 0 1 0.24999999999987299 0 0.97166519676951801 0.26662885509932011 0 0.97435614836740092 0.22499999999981049 0 1 0.24999999999987299 0 0.97435614836740092 0.22499999999981049 0 1 0.24999999999987299 0 1 0.19999999999974799 0 0.97435614836740092 0.22499999999981049 0 0.94399509803921056 0.24399509803922639 0 0.95391631417672862 0.19584263333809451 0 0.97166519676951801 0.26662885509932011 0 0.97435614836740092 0.22499999999981049 0 0.94399509803921056 0.24399509803922639 0 0.97435614836740092 0.22499999999981049 0 0.95391631417672862 0.19584263333809451 0 1 0.19999999999974799 0 0.95391631417672862 0.19584263333809451 0 1 0.14999999999961891 0 0.93677536231883773 0.14999999999999089 0 1 0.14999999999961891 0 0.93677536231883773 0.14999999999999089 0 0.95386563387744361 0.1041487415577465 0 0.95391631417672862 0.19584263333809451 0 1 0.19999999999974799 0 1 0.14999999999961891 0 0.95391631417672862 0.19584263333809451 0 0.93677536231883773 0.14999999999999089 0 0.90416666666668166 0.20416666666667119 0 0.93677536231883773 0.14999999999999089 0 0.88088768115941807 0.14674609810479519 0 0.90416666666668166 0.20416666666667119 0 0.93677536231883773 0.14999999999999089 0 0.88088768115941807 0.14674609810479519 0 0.90299850604006393 0.09563452813493091 0 0.88088768115941807 0.14674609810479519 0 0.90416666666668166 0.20416666666667119 0 0.85600844944842547 0.1848341897950983 0 0.89898474358614167 0.25391965591104898 0 0.90416666666668166 0.20416666666667119 0 0.8517097391133297 0.2356960729520409 0 0.89898474358614167 0.25391965591104898 0 0.94399509803921056 0.24399509803922639 0 0.90416666666668166 0.20416666666667119 0 0.94399509803921056 0.24399509803922639 0 0.95391631417672862 0.19584263333809451 0 0.90416666666668166 0.20416666666667119 0 0.94999999999986839 0 0 0.97166519676946894 0.033371144900598393 0 0.94399509803922566 0.056004901960802607 0 0.94999999999986839 0 0 1 0 0 0.97166519676946894 0.033371144900598393 0 1 0 0 1 0.049999999999896842 0 0.97166519676946894 0.033371144900598393 0 1 0.049999999999896842 0 0.97166519676946894 0.033371144900598393 0 0.97435614836748241 0.074999999999825387 0 0.97166519676946894 0.033371144900598393 0 0.94399509803922566 0.056004901960802607 0 0.97435614836748241 0.074999999999825387 0 0.94399509803922566 0.056004901960802607 0 0.97435614836748241 0.074999999999825387 0 0.95386563387744361 0.1041487415577465 0 0.97435614836748241 0.074999999999825387 0 1 0.099999999999753911 0 0.95386563387744361 0.1041487415577465 0 1 0.049999999999896842 0 0.97435614836748241 0.074999999999825387 0 1 0.099999999999753911 0 1 0.14999999999961891 0 1 0.099999999999753911 0 0.95386563387744361 0.1041487415577465 0 0.93677536231883773 0.14999999999999089 0 0.95386563387744361 0.1041487415577465 0 0.90299850604006393 0.09563452813493091 0 0.88088768115941807 0.14674609810479519 0 0.90299850604006393 0.09563452813493091 0 0.84725310900442086 0.10779732082922661 0 0.90299850604006393 0.09563452813493091 0 0.899991664607802 0.045289349238254978 0 0.85491058998398861 0.060047533455626502 0 0.94399509803922566 0.056004901960802607 0 0.95386563387744361 0.1041487415577465 0 0.90299850604006393 0.09563452813493091 0 0.94399509803922566 0.056004901960802607 0 0.90299850604006393 0.09563452813493091 0 0.899991664607802 0.045289349238254978 0 0.94999999999986839 0 0 0.94399509803922566 0.056004901960802607 0 0.899991664607802 0.045289349238254978 0 0.899991664607802 0.045289349238254978 0 0.89999999999973679 0 0 0.84999999999960507 0 0 0.94999999999986839 0 0 0.899991664607802 0.045289349238254978 0 0.89999999999973679 0 0 0.84999999999960507 0 0 0.81864958914740749 0.035890501779055867 0 0.79999999999947335 0 0 0.899991664607802 0.045289349238254978 0 0.84999999999960507 0 0 0.85491058998398861 0.060047533455626502 0 0.85491058998398861 0.060047533455626502 0 0.81864958914740749 0.035890501779055867 0 0.80185942888501827 0.074520613036224564 0 0.84999999999960507 0 0 0.85491058998398861 0.060047533455626502 0 0.81864958914740749 0.035890501779055867 0 0.85491058998398861 0.060047533455626502 0 0.84725310900442086 0.10779732082922661 0 0.80185942888501827 0.074520613036224564 0 0.90299850604006393 0.09563452813493091 0 0.85491058998398861 0.060047533455626502 0 0.84725310900442086 0.10779732082922661 0 0.84725310900442086 0.10779732082922661 0 0.80076557130237269 0.1154587552654202 0 0.80185942888501827 0.074520613036224564 0 0.84725310900442086 0.10779732082922661 0 0.80076557130237269 0.1154587552654202 0 0.82709327591102189 0.14937141670914489 0 0.80076557130237269 0.1154587552654202 0 0.76878382444651716 0.097147941686331368 0 0.80185942888501827 0.074520613036224564 0 0.76878382444651716 0.097147941686331368 0 0.77144070960558853 0.14311854477243749 0 0.72525833953073282 0.1032114801687094 0 0.80076557130237269 0.1154587552654202 0 0.76878382444651716 0.097147941686331368 0 0.77144070960558853 0.14311854477243749 0 0.76878382444651716 0.097147941686331368 0 0.80185942888501827 0.074520613036224564 0 0.7527966693318906 0.053051678021508272 0 0.81864958914740749 0.035890501779055867 0 0.80185942888501827 0.074520613036224564 0 0.78393852574753176 0.032039079577822822 0 0.80185942888501827 0.074520613036224564 0 0.78393852574753176 0.032039079577822822 0 0.7527966693318906 0.053051678021508272 0 0.78393852574753176 0.032039079577822822 0 0.7527966693318906 0.053051678021508272 0 0.74999999999934175 0 0 0.78393852574753176 0.032039079577822822 0 0.79999999999947335 0 0 0.74999999999934175 0 0 0.81864958914740749 0.035890501779055867 0 0.78393852574753176 0.032039079577822822 0 0.79999999999947335 0 0 0.81283102246527783 0.1881007222486438 0 0.8517097391133297 0.2356960729520409 0 0.79680861578956375 0.22656778056752541 0 0.81283102246527783 0.1881007222486438 0 0.8517097391133297 0.2356960729520409 0 0.85600844944842547 0.1848341897950983 0 0.81486180804364938 0.26321394949780091 0 0.8517097391133297 0.2356960729520409 0 0.79680861578956375 0.22656778056752541 0 0.90416666666668166 0.20416666666667119 0 0.8517097391133297 0.2356960729520409 0 0.85600844944842547 0.1848341897950983 0 0.88088768115941807 0.14674609810479519 0 0.85600844944842547 0.1848341897950983 0 0.82709327591102189 0.14937141670914489 0 0.88088768115941807 0.14674609810479519 0 0.84725310900442086 0.10779732082922661 0 0.82709327591102189 0.14937141670914489 0 0.81283102246527783 0.1881007222486438 0 0.85600844944842547 0.1848341897950983 0 0.82709327591102189 0.14937141670914489 0 0.81283102246527783 0.1881007222486438 0 0.77144070960558853 0.14311854477243749 0 0.76587607630038135 0.18880039518954719 0 0.81283102246527783 0.1881007222486438 0 0.82709327591102189 0.14937141670914489 0 0.77144070960558853 0.14311854477243749 0 0.80076557130237269 0.1154587552654202 0 0.82709327591102189 0.14937141670914489 0 0.77144070960558853 0.14311854477243749 0 0.77144070960558853 0.14311854477243749 0 0.76587607630038135 0.18880039518954719 0 0.72634814642510737 0.16106886917518889 0 0.76587607630038135 0.18880039518954719 0 0.79680861578956375 0.22656778056752541 0 0.75668890529066124 0.2244279804069782 0 0.81283102246527783 0.1881007222486438 0 0.76587607630038135 0.18880039518954719 0 0.79680861578956375 0.22656778056752541 0 0.77075983436335049 0.25919399014334171 0 0.81486180804364938 0.26321394949780091 0 0.79680861578956375 0.22656778056752541 0 0.77075983436335049 0.25919399014334171 0 0.79680861578956375 0.22656778056752541 0 0.75668890529066124 0.2244279804069782 0 0.77075983436335049 0.25919399014334171 0 0.75668890529066124 0.2244279804069782 0 0.72500000000000064 0.2498161764706 0 0.75668890529066124 0.2244279804069782 0 0.72500000000000064 0.2498161764706 0 0.72500000000001008 0.19776155966387679 0 0.72500000000000064 0.2498161764706 0 0.69397719155551807 0.2245125647000914 0 0.72500000000001008 0.19776155966387679 0 0.72500000000000064 0.2498161764706 0 0.69397719155551807 0.2245125647000914 0 0.67933712972090698 0.25920070958121938 0 0.69397719155551807 0.2245125647000914 0 0.72500000000001008 0.19776155966387679 0 0.6865991819015953 0.189116534044597 0 0.76587607630038135 0.18880039518954719 0 0.75668890529066124 0.2244279804069782 0 0.72500000000001008 0.19776155966387679 0 0.76587607630038135 0.18880039518954719 0 0.72500000000001008 0.19776155966387679 0 0.72634814642510737 0.16106886917518889 0 0.77144070960558853 0.14311854477243749 0 0.72634814642510737 0.16106886917518889 0 0.72525833953073282 0.1032114801687094 0 0.72634814642510737 0.16106886917518889 0 0.68391457121233579 0.14440470121196541 0 0.72525833953073282 0.1032114801687094 0 0.72500000000001008 0.19776155966387679 0 0.72634814642510737 0.16106886917518889 0 0.6865991819015953 0.189116534044597 0 0.72634814642510737 0.16106886917518889 0 0.68391457121233579 0.14440470121196541 0 0.6865991819015953 0.189116534044597 0 0.68391457121233579 0.14440470121196541 0 0.64011864159029941 0.18789607982138171 0 0.6865991819015953 0.189116534044597 0 0.68391457121233579 0.14440470121196541 0 0.65290632656860115 0.11434202593454081 0 0.6236733212988993 0.14864538214901801 0 0.68391457121233579 0.14440470121196541 0 0.64011864159029941 0.18789607982138171 0 0.6236733212988993 0.14864538214901801 0 0.64011864159029941 0.18789607982138171 0 0.65394964615507722 0.22666784374016369 0 0.59814117807200873 0.23398510860739519 0 0.65394964615507722 0.22666784374016369 0 0.59814117807200873 0.23398510860739519 0 0.62657463266645097 0.26524202571255862 0 0.69397719155551807 0.2245125647000914 0 0.65394964615507722 0.22666784374016369 0 0.67933712972090698 0.25920070958121938 0 0.64011864159029941 0.18789607982138171 0 0.65394964615507722 0.22666784374016369 0 0.6865991819015953 0.189116534044597 0 0.69397719155551807 0.2245125647000914 0 0.65394964615507722 0.22666784374016369 0 0.6865991819015953 0.189116534044597 0 0.69999999999921003 0 0 0.72683645290270404 0.027797073151180601 0 0.7010294155333181 0.056779085686491267 0 0.69999999999921003 0 0 0.7010294155333181 0.056779085686491267 0 0.66369801598854572 0.036327466368102787 0 0.7527966693318906 0.053051678021508272 0 0.74999999999934175 0 0 0.72683645290270404 0.027797073151180601 0 0.69999999999921003 0 0 0.74999999999934175 0 0 0.72683645290270404 0.027797073151180601 0 0.7527966693318906 0.053051678021508272 0 0.72683645290270404 0.027797073151180601 0 0.7010294155333181 0.056779085686491267 0 0.7010294155333181 0.056779085686491267 0 0.72525833953073282 0.1032114801687094 0 0.68330259535470161 0.10038702501083881 0 0.7527966693318906 0.053051678021508272 0 0.7010294155333181 0.056779085686491267 0 0.72525833953073282 0.1032114801687094 0 0.76878382444651716 0.097147941686331368 0 0.7527966693318906 0.053051678021508272 0 0.72525833953073282 0.1032114801687094 0 0.68391457121233579 0.14440470121196541 0 0.72525833953073282 0.1032114801687094 0 0.68330259535470161 0.10038702501083881 0 0.68330259535470161 0.10038702501083881 0 0.65290632656860115 0.11434202593454081 0 0.65408113592120842 0.073941773121567966 0 0.68391457121233579 0.14440470121196541 0 0.68330259535470161 0.10038702501083881 0 0.65290632656860115 0.11434202593454081 0 0.65290632656860115 0.11434202593454081 0 0.61956000905586006 0.1043312481793135 0 0.6236733212988993 0.14864538214901801 0 0.65290632656860115 0.11434202593454081 0 0.65408113592120842 0.073941773121567966 0 0.61956000905586006 0.1043312481793135 0 0.65408113592120842 0.073941773121567966 0 0.61940220174112337 0.047251958781050582 0 0.61956000905586006 0.1043312481793135 0 0.7010294155333181 0.056779085686491267 0 0.68330259535470161 0.10038702501083881 0 0.65408113592120842 0.073941773121567966 0 0.7010294155333181 0.056779085686491267 0 0.65408113592120842 0.073941773121567966 0 0.66369801598854572 0.036327466368102787 0 0.65408113592120842 0.073941773121567966 0 0.66369801598854572 0.036327466368102787 0 0.61940220174112337 0.047251958781050582 0 0.66369801598854572 0.036327466368102787 0 0.64999999999907843 0 0 0.61940220174112337 0.047251958781050582 0 0.69999999999921003 0 0 0.66369801598854572 0.036327466368102787 0 0.64999999999907843 0 0 0.59999999999894682 0 0 0.57396793757665954 0.037011367187645222 0 0.5499999999988151 0 0 0.64999999999907843 0 0 0.59999999999894682 0 0 0.61940220174112337 0.047251958781050582 0 0.59999999999894682 0 0 0.61940220174112337 0.047251958781050582 0 0.57396793757665954 0.037011367187645222 0 0.61940220174112337 0.047251958781050582 0 0.57396793757665954 0.037011367187645222 0 0.57667858002728545 0.078486105337742612 0 0.61940220174112337 0.047251958781050582 0 0.57667858002728545 0.078486105337742612 0 0.61956000905586006 0.1043312481793135 0 0.61956000905586006 0.1043312481793135 0 0.58516465772821369 0.11653801664834119 0 0.6236733212988993 0.14864538214901801 0 0.57667858002728545 0.078486105337742612 0 0.61956000905586006 0.1043312481793135 0 0.58516465772821369 0.11653801664834119 0 0.58516465772821369 0.11653801664834119 0 0.54979595918804436 0.1060565713905809 0 0.56202748619534593 0.15054058349222879 0 0.57667858002728545 0.078486105337742612 0 0.58516465772821369 0.11653801664834119 0 0.54979595918804436 0.1060565713905809 0 0.54979595918804436 0.1060565713905809 0 0.51076801031701946 0.1202837388510348 0 0.52375890611712683 0.059318771819432882 0 0.47881186583059909 0.093591717165689425 0 0.51076801031701946 0.1202837388510348 0 0.52375890611712683 0.059318771819432882 0 0.57667858002728545 0.078486105337742612 0 0.54979595918804436 0.1060565713905809 0 0.52375890611712683 0.059318771819432882 0 0.57396793757665954 0.037011367187645222 0 0.52375890611712683 0.059318771819432882 0 0.5499999999988151 0 0 0.57396793757665954 0.037011367187645222 0 0.57667858002728545 0.078486105337742612 0 0.52375890611712683 0.059318771819432882 0 0.49999999999869432 0 0 0.52375890611712683 0.059318771819432882 0 0.5499999999988151 0 0 0.59814117807200873 0.23398510860739519 0 0.59443395090188023 0.18455690917515069 0 0.55306006949600994 0.20198184231352201 0 0.59814117807200873 0.23398510860739519 0 0.55306006949600994 0.20198184231352201 0 0.54248833945060504 0.2520322959927106 0 0.64011864159029941 0.18789607982138171 0 0.59814117807200873 0.23398510860739519 0 0.59443395090188023 0.18455690917515069 0 0.64011864159029941 0.18789607982138171 0 0.59443395090188023 0.18455690917515069 0 0.6236733212988993 0.14864538214901801 0 0.58516465772821369 0.11653801664834119 0 0.6236733212988993 0.14864538214901801 0 0.56202748619534593 0.15054058349222879 0 0.59443395090188023 0.18455690917515069 0 0.6236733212988993 0.14864538214901801 0 0.56202748619534593 0.15054058349222879 0 0.59443395090188023 0.18455690917515069 0 0.56202748619534593 0.15054058349222879 0 0.55306006949600994 0.20198184231352201 0 0.56202748619534593 0.15054058349222879 0 0.51729576145820033 0.1683240575987815 0 0.55306006949600994 0.20198184231352201 0 0.54979595918804436 0.1060565713905809 0 0.51076801031701946 0.1202837388510348 0 0.56202748619534593 0.15054058349222879 0 0.48466639505193998 0.1421439844745814 0 0.51076801031701946 0.1202837388510348 0 0.51729576145820033 0.1683240575987815 0 0.51076801031701946 0.1202837388510348 0 0.56202748619534593 0.15054058349222879 0 0.51729576145820033 0.1683240575987815 0 0.51729576145820033 0.1683240575987815 0 0.50760557329222289 0.20700468884612061 0 0.55306006949600994 0.20198184231352201 0 0.50760557329222289 0.20700468884612061 0 0.55306006949600994 0.20198184231352201 0 0.54248833945060504 0.2520322959927106 0 0.49695729691142171 0.25014895411178018 0 0.50760557329222289 0.20700468884612061 0 0.54248833945060504 0.2520322959927106 0 0.49695729691142171 0.25014895411178018 0 0.5 0.29999999999999999 0 0.54248833945060504 0.2520322959927106 0 0.5 0.29999999999999999 0 0.54999999999999993 0.29999999999999999 0 0.52752007115234678 0.33170632466418198 0 0.5 0.29999999999999999 0 0.54999999999999993 0.29999999999999999 0 0.54248833945060504 0.2520322959927106 0 0.5 0.29999999999999999 0 0.54999999999999993 0.29999999999999999 0 0.54999999999999993 0.29999999999999999 0 0.54248833945060504 0.2520322959927106 0 0.5794309697024993 0.27124795968204829 0 0.59814117807200873 0.23398510860739519 0 0.54248833945060504 0.2520322959927106 0 0.5794309697024993 0.27124795968204829 0 0.54999999999999993 0.29999999999999999 0 0.59999999999999976 0.29999999999999999 0 0.54999999999999993 0.29999999999999999 0 0.5794309697024993 0.27124795968204829 0 0.59999999999999976 0.29999999999999999 0 0.59999999999999976 0.29999999999999999 0 0.6499999999999998 0.29999999999999999 0 0.5794309697024993 0.27124795968204829 0 0.59999999999999976 0.29999999999999999 0 0.62657463266645097 0.26524202571255862 0 0.59814117807200873 0.23398510860739519 0 0.5794309697024993 0.27124795968204829 0 0.62657463266645097 0.26524202571255862 0 0.61959173890754571 0.33832250091341232 0 0.56836770495988642 0.3523062350852913 0 0.6084546825910605 0.37989672713932537 0 0.59999999999999976 0.29999999999999999 0 0.61959173890754571 0.33832250091341232 0 0.6499999999999998 0.29999999999999999 0 0.59999999999999976 0.29999999999999999 0 0.61959173890754571 0.33832250091341232 0 0.56836770495988642 0.3523062350852913 0 0.54999999999999993 0.29999999999999999 0 0.59999999999999976 0.29999999999999999 0 0.56836770495988642 0.3523062350852913 0 0.56836770495988642 0.3523062350852913 0 0.52752007115234678 0.33170632466418198 0 0.52289427570932567 0.3932284363388488 0 0.54999999999999993 0.29999999999999999 0 0.56836770495988642 0.3523062350852913 0 0.52752007115234678 0.33170632466418198 0 0.49077833859261139 0.35229981449445641 0 0.5 0.29999999999999999 0 0.52752007115234678 0.33170632466418198 0 0.49077833859261139 0.35229981449445641 0 0.52752007115234678 0.33170632466418198 0 0.52289427570932567 0.3932284363388488 0 0.56836770495988642 0.3523062350852913 0 0.52289427570932567 0.3932284363388488 0 0.57744073070774993 0.41535148636609359 0 0.52289427570932567 0.3932284363388488 0 0.53823865529665704 0.45873898050322898 0 0.57744073070774993 0.41535148636609359 0 0.48858720058566618 0.43964267759203868 0 0.52289427570932567 0.3932284363388488 0 0.53823865529665704 0.45873898050322898 0 0.49102375406324739 0.49123754822244059 0 0.53330375813596242 0.50827942741749099 0 0.53823865529665704 0.45873898050322898 0 0.49102375406324739 0.49123754822244059 0 0.48858720058566618 0.43964267759203868 0 0.53823865529665704 0.45873898050322898 0 0.53330375813596242 0.50827942741749099 0 0.57611405284611883 0.50165903596042916 0 0.53823865529665704 0.45873898050322898 0 0.57611405284611883 0.50165903596042916 0 0.57975577671020095 0.46172033326338591 0 0.61547661924074692 0.48539576058873962 0 0.57611405284611883 0.50165903596042916 0 0.53823865529665704 0.45873898050322898 0 0.57975577671020095 0.46172033326338591 0 0.57975577671020095 0.46172033326338591 0 0.61209567303293111 0.44669033081290321 0 0.57744073070774993 0.41535148636609359 0 0.53823865529665704 0.45873898050322898 0 0.57975577671020095 0.46172033326338591 0 0.57744073070774993 0.41535148636609359 0 0.57975577671020095 0.46172033326338591 0 0.61209567303293111 0.44669033081290321 0 0.61547661924074692 0.48539576058873962 0 0.56836770495988642 0.3523062350852913 0 0.57744073070774993 0.41535148636609359 0 0.6084546825910605 0.37989672713932537 0 0.61209567303293111 0.44669033081290321 0 0.57744073070774993 0.41535148636609359 0 0.63912439215427275 0.41063340167983359 0 0.57744073070774993 0.41535148636609359 0 0.6084546825910605 0.37989672713932537 0 0.63912439215427275 0.41063340167983359 0 0.6084546825910605 0.37989672713932537 0 0.63912439215427275 0.41063340167983359 0 0.65481233915350323 0.35652751921065562 0 0.63912439215427275 0.41063340167983359 0 0.65178832218679827 0.45929119821019959 0 0.6879972333610942 0.43038561374960838 0 0.63912439215427275 0.41063340167983359 0 0.68128176404677243 0.38629093627004979 0 0.6879972333610942 0.43038561374960838 0 0.63912439215427275 0.41063340167983359 0 0.68128176404677243 0.38629093627004979 0 0.65481233915350323 0.35652751921065562 0 0.61547661924074692 0.48539576058873962 0 0.6541250972820879 0.49999999999999989 0 0.65178832218679827 0.45929119821019959 0 0.61209567303293111 0.44669033081290321 0 0.61547661924074692 0.48539576058873962 0 0.65178832218679827 0.45929119821019959 0 0.61209567303293111 0.44669033081290321 0 0.63912439215427275 0.41063340167983359 0 0.65178832218679827 0.45929119821019959 0 0.65178832218679827 0.45929119821019959 0 0.69385896817107129 0.48377516041410151 0 0.6879972333610942 0.43038561374960838 0 0.6541250972820879 0.49999999999999989 0 0.65178832218679827 0.45929119821019959 0 0.69385896817107129 0.48377516041410151 0 0.7152569930854884 0.5237994455134295 0 0.69385896817107129 0.48377516041410151 0 0.73947346780852752 0.49062440112282169 0 0.69385896817107129 0.48377516041410151 0 0.73483647259922602 0.44789725365921768 0 0.6879972333610942 0.43038561374960838 0 0.69385896817107129 0.48377516041410151 0 0.73483647259922602 0.44789725365921768 0 0.73947346780852752 0.49062440112282169 0 0.68128176404677243 0.38629093627004979 0 0.72622533758026719 0.40265885511101601 0 0.71508799138962864 0.36622814920737751 0 0.73483647259922602 0.44789725365921768 0 0.6879972333610942 0.43038561374960838 0 0.72622533758026719 0.40265885511101601 0 0.68128176404677243 0.38629093627004979 0 0.6879972333610942 0.43038561374960838 0 0.72622533758026719 0.40265885511101601 0 0.77354604466818633 0.40378688774472771 0 0.73483647259922602 0.44789725365921768 0 0.72622533758026719 0.40265885511101601 0 0.72622533758026719 0.40265885511101601 0 0.74764719760526988 0.3719647154012321 0 0.71508799138962864 0.36622814920737751 0 0.77354604466818633 0.40378688774472771 0 0.72622533758026719 0.40265885511101601 0 0.74764719760526988 0.3719647154012321 0 0.74764719760526988 0.3719647154012321 0 0.71508799138962864 0.36622814920737751 0 0.73090396928863699 0.33699297293167962 0 0.71508799138962864 0.36622814920737751 0 0.68887083591306764 0.33632058575757479 0 0.73090396928863699 0.33699297293167962 0 0.68128176404677243 0.38629093627004979 0 0.71508799138962864 0.36622814920737751 0 0.68887083591306764 0.33632058575757479 0 0.68887083591306764 0.33632058575757479 0 0.73090396928863699 0.33699297293167962 0 0.69999999999999984 0.29999999999999999 0 0.72500000000000064 0.2498161764706 0 0.74999999999999989 0.29999999999999999 0 0.69999999999999984 0.29999999999999999 0 0.74999999999999989 0.29999999999999999 0 0.69999999999999984 0.29999999999999999 0 0.73090396928863699 0.33699297293167962 0 0.74999999999999989 0.29999999999999999 0 0.69999999999999984 0.29999999999999999 0 0.77075983436335049 0.25919399014334171 0 0.72500000000000064 0.2498161764706 0 0.74999999999999989 0.29999999999999999 0 0.72500000000000064 0.2498161764706 0 0.69999999999999984 0.29999999999999999 0 0.67933712972090698 0.25920070958121938 0 0.69999999999999984 0.29999999999999999 0 0.67933712972090698 0.25920070958121938 0 0.6499999999999998 0.29999999999999999 0 0.68887083591306764 0.33632058575757479 0 0.69999999999999984 0.29999999999999999 0 0.6499999999999998 0.29999999999999999 0 0.69999999999999984 0.29999999999999999 0 0.6499999999999998 0.29999999999999999 0 0.67933712972090698 0.25920070958121938 0 0.62657463266645097 0.26524202571255862 0 0.6499999999999998 0.29999999999999999 0 0.65394964615507722 0.22666784374016369 0 0.67933712972090698 0.25920070958121938 0 0.62657463266645097 0.26524202571255862 0 0.59999999999999976 0.29999999999999999 0 0.62657463266645097 0.26524202571255862 0 0.6499999999999998 0.29999999999999999 0 0.61959173890754571 0.33832250091341232 0 0.6499999999999998 0.29999999999999999 0 0.65481233915350323 0.35652751921065562 0 0.61959173890754571 0.33832250091341232 0 0.6084546825910605 0.37989672713932537 0 0.65481233915350323 0.35652751921065562 0 0.68128176404677243 0.38629093627004979 0 0.68887083591306764 0.33632058575757479 0 0.65481233915350323 0.35652751921065562 0 0.68887083591306764 0.33632058575757479 0 0.6499999999999998 0.29999999999999999 0 0.65481233915350323 0.35652751921065562 0 
</DataArray>
</Points>
<Cells>
<DataArray type="UInt32" Name="connectivity" format="ascii">
0 1 2 3 4 5 6 7 8 9 10 11 12 13 14 15 16 17 18 19 20 21 22 23 24 25 26 27 28 29 30 31 32 33 34 35 36 37 38 39 40 41 42 43 44 45 46 47 48 49 50 51 52 53 54 55 56 57 58 59 60 61 62 63 64 65 66 67 68 69 70 71 72 73 74 75 76 77 78 79 80 81 82 83 84 85 86 87 88 89 90 91 92 93 94 95 96 97 98 99 100 101 102 103 104 105 106 107 108 109 110 111 112 113 114 115 116 117 118 119 120 121 122 123 124 125 126 127 128 129 130 131 132 133 134 135 136 137 138 139 140 141 142 143 144 145 146 147 148 149 150 151 152 153 154 155 156 157 158 159 160 161 162 163 164 165 166 167 168 169 170 171 172 173 174 175 176 177 178 179 180 181 182 183 184 185 186 187 188 189 190 191 192 193 194 195 196 197 198 199 200 201 202 203 204 205 206 207 208 209 210 211 212 213 214 215 216 217 218 219 220 221 222 223 224 225 226 227 228 229 230 231 232 233 234 235 236 237 238 239 240 241 242 243 244 245 246 247 248 249 250 251 252 253 254 255 256 257 258 259 260 261 262 263 264 265 266 267 268 269 270 271 272 273 274 275 276 277 278 279 280 281 282 283 284 285 286 287 288 289 290 291 292 293 294 295 296 297 298 299 300 301 302 303 304 305 306 307 308 309 310 311 312 313 314 315 316 317 318 319 320 321 322 323 324 325 326 327 328 329 330 331 332 333 334 335 336 337 338 339 340 341 342 343 344 345 346 347 348 349 350 351 352 353 354 355 356 357 358 359 360 361 362 363 364 365 366 367 368 369 370 371 372 373 374 375 376 377 378 379 380 381 382 383 384 385 386 387 388 389 390 391 392 393 394 395 396 397 398 399 400 401 402 403 404 405 406 407 408 409 410 411 412 413 414 415 416 417 418 419 420 421 422 423 424 425 426 427 428 429 430 431 432 433 434 435 436 437 438 439 440 441 442 443 444 445 446 447 448 449 450 451 452 453 454 455 456 457 458 459 460 461 462 463 464 465 466 467 468 469 470 471 472 473 474 475 476 477 478 479 480 481 482 483 484 485 486 487 488 489 490 491 492 493 494 495 496 497 498 499 500 501 502 503 504 505 506 507 508 509 510 511 512 513 514 515 516 517 518 519 520 521 522 523 524 525 526 527 528 529 530 531 532 533 534 535 536 537 538 539 540 541 542 543 544 545 546 547 548 549 550 551 552 553 554 555 556 557 558 559 560 561 562 563 564 565 566 567 568 569 570 571 572 573 574 575 576 577 578 579 580 581 582 583 584 585 586 587 588 589 590 591 592 593 594 595 596 597 598 599 600 601 602 603 604 605 606 607 608 609 610 611 612 613 614 615 616 617 618 619 620 621 622 623 624 625 626 627 628 629 630 631 632 633 634 635 636 637 638 639 640 641 642 643 644 645 646 647 648 649 650 651 652 653 654 655 656 657 658 659 660 661 662 663 664 665 666 667 668 669 670 671 672 673 674 675 676 677 678 679 680 681 682 683 684 685 686 687 688 689 690 691 692 693 694 695 696 697 698 699 700 701 702 703 704 705 706 707 708 709 710 711 712 713 714 715 716 717 718 719 720 721 722 723 724 725 726 727 728 729 730 731 732 733 734 735 736 737 738 739 740 741 742 743 744 745 746 747 748 749 750 751 752 753 754 755 756 757 758 759 760 761 762 763 764 765 766 767 768 769 770 771 772 773 774 775 776 777 778 779 780 781 782 783 784 785 786 787 788 789 790 791 792 793 794 795 796 797 798 799 800 801 802 803 804 805 806 807 808 809 810 811 812 813 814 815 816 817 818 819 820 821 822 823 824 825 826 827 828 829 830 831 832 833 834 835 836 837 838 839 840 841 842 843 844 845 846 847 848 849 850 851 852 853 854 855 856 857 858 859 860 861 862 863 864 865 866 867 868 869 870 871 872 873 874 875 876 877 878 879 880 881 882 883 884 885 886 887 888 889 890 891 892 893 894 895 896 897 898 899 900 901 902 903 904 905 906 907 908 909 910 911 912 913 914 915 916 917 918 919 920 921 922 923 924 925 926 927 928 929 930 931 932 933 934 935 936 937 938 939 940 941 942 943 944 945 946 947 948 949 950 951 952 953 954 955 956 957 958 959 960 961 962 963 964 965 966 967 968 969 970 971 972 973 974 975 976 977 978 979 980 981 982 983 984 985 986 987 988 989 990 991 992 993 994 995 996 997 998 999 1000 1001 1002 1003 1004 1005 1006 1007 1008 1009 1010 1011 1012 1013 1014 1015 1016 1017 1018 1019 1020 1021 1022 1023 1024 1025 1026 1027 1028 1029 1030 1031 1032 1033 1034 1035 1036 1037 1038 1039 1040 1041 1042 1043 1044 1045 1046 1047 1048 1049 1050 1051 1052 1053 1054 1055 1056 1057 1058 1059 1060 1061 1062 1063 1064 1065 1066 1067 1068 1069 1070 1071 1072 1073 1074 1075 1076 1077 1078 1079 1080 1081 1082 1083 1084 1085 1086 1087 1088 1089 1090 1091 1092 1093 1094 1095 1096 1097 1098 1099 1100 1101 1102 1103 1104 1105 1106 1107 1108 1109 1110 1111 1112 1113 1114 1115 1116 1117 1118 1119 1120 1121 1122 1123 1124 1125 1126 1127 1128 1129 1130 1131 1132 1133 1134 1135 1136 1137 1138 1139 1140 1141 1142 1143 1144 1145 1146 1147 1148 1149 1150 1151 1152 1153 1154 1155 1156 1157 1158 1159 1160 1161 1162 1163 1164 1165 1166 1167 1168 1169 1170 1171 1172 1173 1174 1175 1176 1177 1178 1179 1180 1181 1182 1183 1184 1185 1186 1187 1188 1189 1190 1191 1192 1193 1194 1195 1196 1197 1198 1199 1200 1201 1202 1203 1204 1205 1206 1207 1208 1209 1210 1211 1212 1213 1214 1215 1216 1217 1218 1219 1220 1221 1222 1223 1224 1225 1226 1227 1228 1229 1230 1231 1232 1233 1234 1235 1236 1237 1238 1239 1240 1241 1242 1243 1244 1245 1246 1247 1248 1249 1250 1251 1252 1253 1254 1255 1256 1257 1258 1259 1260 1261 1262 1263 1264 1265 1266 1267 1268 1269 1270 1271 1272 1273 1274 1275 1276 1277 1278 1279 1280 1281 1282 1283 1284 1285 1286 1287 1288 1289 1290 1291 1292 1293 1294 1295 1296 1297 1298 1299 1300 1301 1302 1303 1304 1305 1306 1307 1308 1309 1310 1311 1312 1313 1314 1315 1316 1317 1318 1319 1320 1321 1322 1323 1324 1325 1326 1327 1328 1329 1330 1331 1332 1333 1334 1335 1336 1337 1338 1339 1340 1341 1342 1343 1344 1345 1346 1347 1348 1349 1350 1351 1352 1353 1354 1355 1356 1357 1358 1359 1360 1361 1362 1363 1364 1365 1366 1367 1368 1369 1370 1371 1372 1373 1374 1375 1376 1377 1378 1379 1380 1381 1382 1383 1384 1385 1386 1387 1388 1389 1390 1391 1392 1393 1394 1395 1396 1397 1398 1399 1400 1401 1402 1403 1404 1405 1406 1407 1408 1409 1410 1411 1412 1413 1414 1415 1416 1417 1418 1419 1420 1421 1422 1423 1424 1425 1426 1427 1428 1429 1430 1431 1432 1433 1434 1435 1436 1437 1438 1439 1440 1441 1442 1443 1444 1445 1446 1447 1448 1449 1450 1451 1452 1453 1454 1455 1456 1457 1458 1459 1460 1461 1462 1463 1464 1465 1466 1467 1468 1469 1470 1471 1472 1473 1474 1475 1476 1477 1478 1479 1480 1481 1482 1483 1484 1485 1486 1487 1488 1489 1490 1491 1492 1493 1494 1495 1496 1497 1498 1499 1500 1501 1502 1503 1504 1505 1506 1507 1508 1509 1510 1511 1512 1513 1514 1515 1516 1517 1518 1519 1520 1521 1522 1523 1524 1525 1526 1527 1528 1529 1530 1531 1532 1533 1534 1535 1536 1537 1538 1539 1540 1541 1542 1543 1544 1545 1546 1547 1548 1549 1550 1551 1552 1553 1554 1555 1556 1557 1558 1559 1560 1561 1562 1563 1564 1565 1566 1567 1568 1569 1570 1571 1572 1573 1574 1575 1576 1577 1578 1579 1580 1581 1582 1583 1584 1585 1586 1587 1588 1589 1590 1591 1592 1593 1594 1595 1596 1597 1598 1599 1600 1601 1602 1603 1604 1605 1606 1607 1608 1609 1610 1611 1612 1613 1614 1615 1616 1617 1618 1619 1620 1621 1622 1623 1624 1625 1626 1627 1628 1629 1630 1631 1632 1633 1634 1635 1636 1637 1638 1639 1640 1641 1642 1643 1644 1645 1646 1647 1648 1649 1650 1651 1652 1653 1654 1655 1656 1657 1658 1659 1660 1661 1662 1663 1664 1665 1666 1667 1668 1669 1670 1671 1672 1673 1674 1675 1676 1677 1678 1679 1680 1681 1682 1683 1684 1685 1686 1687 1688 1689 1690 1691 1692 1693 1694 1695 1696 1697 1698 1699 1700 1701 1702 1703 1704 1705 1706 1707 1708 1709 1710 1711 1712 1713 1714 1715 1716 1717 1718 1719 1720 1721 1722 1723 1724 1725 1726 1727 1728 1729 1730 1731 1732 1733 1734 1735 1736 1737 1738 1739 1740 1741 1742 1743 1744 1745 1746 1747 1748 1749 1750 1751 1752 1753 1754 1755 1756 1757 1758 1759 1760 1761 1762 1763 1764 1765 1766 1767 1768 1769 1770 1771 1772 1773 1774 1775 1776 1777 1778 1779 1780 1781 1782 1783 1784 1785 1786 1787 1788 1789 1790 1791 1792 1793 1794 1795 1796 1797 1798 1799 1800 1801 1802 1803 1804 1805 1806 1807 1808 1809 1810 1811 1812 1813 1814 1815 1816 1817 1818 1819 1820 1821 1822 1823 1824 1825 1826 1827 1828 1829 1830 1831 1832 1833 1834 1835 1836 1837 1838 1839 1840 1841 1842 1843 1844 1845 1846 1847 1848 1849 1850 1851 1852 1853 1854 1855 1856 1857 1858 1859 1860 1861 1862 1863 1864 1865 1866 1867 1868 1869 1870 1871 1872 1873 1874 1875 1876 1877 1878 1879 1880 1881 1882 1883 1884 1885 1886 1887 1888 1889 1890 1891 1892 1893 1894 1895 1896 1897 1898 1899 1900 1901 1902 1903 1904 1905 1906 1907 1908 1909 1910 1911 1912 1913 1914 1915 1916 1917 1918 1919 1920 1921 1922 1923 1924 1925 1926 1927 1928 1929 1930 1931 1932 1933 1934 1935 1936 1937 1938 1939 1940 1941 1942 1943 1944 1945 1946 1947 1948 1949 1950 1951 1952 1953 1954 1955 1956 1957 1958 1959 1960 1961 1962 1963 1964 1965 1966 1967 1968 1969 1970 1971 1972 1973 1974 1975 1976 1977 1978 1979 1980 1981 1982 1983 1984 1985 1986 1987 1988 1989 1990 1991 1992 1993 1994 1995 1996 1997 1998 1999 2000 2001 2002 2003 2004 2005 2006 2007 2008 2009 2010 2011 2012 2013 2014 2015 2016 2017 2018 2019 2020 2021 2022 2023 2024 2025 2026 2027 2028 2029 2030 2031 2032 2033 2034 2035 2036 2037 2038 2039 2040 2041 2042 2043 2044 2045 2046 2047 2048 2049 2050 2051 2052 2053 2054 2055 2056 2057 2058 2059 2060 2061 2062 2063 2064 2065 2066 2067 2068 2069 2070 2071 2072 2073 2074 2075 2076 2077 2078 2079 2080 2081 2082 2083 2084 2085 2086 2087 2088 2089 2090 2091 2092 2093 2094 2095 2096 2097 2098 2099 2100 2101 2102 2103 2104 2105 2106 2107 2108 2109 2110 2111 2112 2113 2114 2115 2116 2117 2118 2119 2120 2121 2122 2123 2124 2125 2126 2127 2128 2129 2130 2131 2132 2133 2134 2135 2136 2137 2138 2139 2140 2141 2142 2143 2144 2145 2146 2147 2148 2149 2150 2151 2152 2153 2154 2155 2156 2157 2158 2159 2160 2161 2162 2163 2164 2165 2166 2167 2168 2169 2170 2171 2172 2173 2174 2175 2176 2177 2178 2179 2180 2181 2182 2183 2184 2185 2186 2187 2188 2189 2190 2191 2192 2193 2194 2195 2196 2197 2198 2199 2200 2201 2202 2203 2204 2205 2206 2207 2208 2209 2210 2211 2212 2213 2214 2215 2216 2217 2218 2219 2220 2221 2222 2223 2224 2225 2226 2227 2228 2229 2230 2231 2232 2233 2234 2235 2236 2237 2238 2239 2240 2241 2242 2243 2244 2245 2246 2247 2248 2249 2250 2251 2252 2253 2254 2255 2256 2257 2258 2259 2260 2261 2262 2263 2264 2265 2266 2267 2268 2269 2270 2271 2272 2273 2274 2275 2276 2277 2278 2279 2280 2281 2282 2283 2284 2285 2286 2287 2288 2289 2290 2291 2292 2293 2294 2295 2296 2297 2298 2299 2300 2301 2302 2303 2304 2305 2306 2307 2308 2309 2310 2311 2312 2313 2314 2315 2316 2317 2318 2319 2320 2321 2322 2323 2324 2325 2326 2327 2328 2329 2330 2331 2332 2333 2334 2335 2336 2337 2338 2339 2340 2341 2342 2343 2344 2345 2346 2347 2348 2349 2350 2351 2352 2353 2354 2355 2356 2357 2358 2359 2360 2361 2362 2363 2364 2365 2366 2367 2368 2369 2370 2371 2372 2373 2374 2375 2376 2377 2378 2379 2380 2381 2382 2383 2384 2385 2386 2387 2388 2389 2390 2391 2392 2393 2394 2395 2396 2397 2398 2399 2400 2401 2402 2403 2404 2405 2406 2407 2408 2409 2410 2411 2412 2413 2414 2415 2416 2417 2418 2419 2420 2421 2422 2423 2424 2425 2426 2427 2428 2429 2430 2431 2432 2433 2434 2435 2436 2437 2438 2439 2440 2441 2442 2443 2444 2445 2446 2447 2448 2449 2450 2451 2452 2453 2454 2455 2456 2457 2458 2459 2460 2461 2462 2463 2464 2465 2466 2467 2468 2469 2470 2471 2472 2473 2474 2475 2476 2477 2478 2479 2480 2481 2482 2483 2484 2485 2486 2487 2488 2489 2490 2491 2492 2493 2494 2495 2496 2497 2498 2499 2500 2501 2502 2503 2504 2505 2506 2507 2508 2509 2510 2511 2512 2513 2514 2515 2516 2517 2518 2519 2520 2521 2522 2523 2524 2525 2526 2527 2528 2529 2530 2531 2532 2533 2534 2535 2536 2537 2538 2539 2540 2541 2542 2543 2544 2545 2546 2547 2548 2549 2550 2551 2552 2553 2554 2555 2556 2557 2558 2559 2560 2561 2562 2563 2564 2565 2566 2567 2568 2569 2570 2571 2572 2573 2574 2575 2576 2577 2578 2579 2580 2581 2582 2583 2584 2585 2586 2587 2588 2589 2590 2591 2592 2593 2594 2595 2596 2597 2598 2599 2600 2601 2602 2603 2604 2605 2606 2607 2608 2609 2610 2611 2612 2613 2614 2615 2616 2617 2618 2619 2620 2621 2622 2623 2624 2625 2626 2627 2628 2629 2630 2631 2632 2633 2634 2635 2636 2637 2638 2639 2640 2641 2642 2643 2644 2645 2646 2647 2648 2649 2650 2651 2652 2653 2654 2655 2656 2657 2658 2659 2660 2661 2662 2663 2664 2665 2666 2667 2668 2669 2670 2671 2672 2673 2674 2675 2676 2677 2678 2679 2680 2681 2682 2683 2684 2685 2686 2687 2688 2689 2690 2691 2692 2693 2694 2695 2696 2697 2698 2699 2700 2701 2702 2703 2704 2705 2706 2707 2708 2709 2710 2711 2712 2713 2714 2715 2716 2717 2718 2719 2720 2721 2722 2723 2724 2725 2726 2727 2728 2729 2730 2731 2732 2733 2734 2735 2736 2737 2738 2739 2740 2741 2742 2743 2744 2745 2746 2747 2748 2749 2750 2751 2752 2753 2754 2755 2756 2757 2758 2759 2760 2761 2762 2763 2764 2765 2766 2767 2768 2769 2770 2771 2772 2773 2774 2775 2776 2777 2778 2779 2780 2781 2782 2783 2784 2785 2786 2787 2788 2789 2790 2791 2792 2793 2794 2795 2796 2797 2798 2799 2800 2801 2802 2803 2804 2805 2806 2807 2808 2809 2810 2811 2812 2813 2814 2815 2816 2817 2818 2819 2820 2821 2822 2823 2824 2825 2826 2827 2828 2829 2830 2831 2832 2833 2834 2835 2836 2837 2838 2839 2840 2841 2842 2843 2844 2845 2846 2847 2848 2849 2850 2851 2852 2853 2854 2855 2856 2857 2858 2859 2860 2861 2862 2863 2864 2865 2866 2867 2868 2869 2870 2871 2872 2873 2874 2875 2876 2877 2878 2879 2880 2881 2882 2883 2884 2885 2886 2887 2888 2889 2890 2891 2892 2893 2894 2895 2896 2897 2898 2899 2900 2901 2902 2903 2904 2905 2906 2907 2908 2909 2910 2911 2912 2913 2914 2915 2916 2917 2918 2919 2920 2921 2922 2923 2924 2925 2926 2927 2928 2929 2930 2931 2932 2933 2934 2935 2936 2937 2938 2939 2940 2941 2942 2943 2944 2945 2946 2947 2948 2949 2950 2951 2952 2953 2954 2955 2956 2957 2958 2959 2960 2961 2962 2963 2964 2965 2966 2967 2968 2969 2970 2971 2972 2973 2974 2975 2976 2977 2978 2979 2980 2981 2982 2983 2984 2985 2986 2987 2988 2989 2990 2991 2992 2993 2994 2995 2996 2997 2998 2999 3000 3001 3002 3003 3004 3005 3006 3007 3008 3009 3010 3011 3012 3013 3014 3015 3016 3017 3018 3019 3020 3021 3022 3023 3024 3025 3026 3027 3028 3029 3030 3031 3032 3033 3034 3035 3036 3037 3038 3039 3040 3041 3042 3043 3044 3045 3046 3047 3048 3049 3050 3051 3052 3053 3054 3055 3056 3057 3058 3059 3060 3061 3062 3063 3064 3065 3066 3067 3068 3069 3070 3071 3072 3073 3074 3075 3076 3077 3078 3079 3080 3081 3082 3083 3084 3085 3086 3087 3088 3089 3090 3091 3092 3093 3094 3095 3096 3097 3098 3099 3100 3101 3102 3103 3104 3105 3106 3107 3108 3109 3110 3111 3112 3113 3114 3115 3116 3117 3118 3119 3120 3121 3122 3123 3124 3125 3126 3127 3128 3129 3130 3131 3132 3133 3134 3135 3136 3137 3138 3139 3140 3141 
</DataArray>
<DataArray type="UInt32" Name="offsets" format="ascii">
3 6 9 12 15 18 21 24 27 30 33 36 39 42 45 48 51 54 57 60 63 66 69 72 75 78 81 84 87 90 93 96 99 102 105 108 111 114 117 120 123 126 129 132 135 138 141 144 147 150 153 156 159 162 165 168 171 174 177 180 183 186 189 192 195 198 201 204 207 210 213 216 219 222 225 228 231 234 237 240 243 246 249 252 255 258 261 264 267 270 273 276 279 282 285 288 291 294 297 300 303 306 309 312 315 318 321 324 327 330 333 336 339 342 345 348 351 354 357 360 363 366 369 372 375 378 381 384 387 390 393 396 399 402 405 408 411 414 417 420 423 426 429 432 435 438 441 444 447 450 453 456 459 462 465 468 471 474 477 480 483 486 489 492 495 498 501 504 507 510 513 516 519 522 525 528 531 534 537 540 543 546 549 552 555 558 561 564 567 570 573 576 579 582 585 588 591 594 597 600 603 606 609 612 615 618 621 624 627 630 633 636 639 642 645 648 651 654 657 660 663 666 669 672 675 678 681 684 687 690 693 696 699 702 705 708 711 714 717 720 723 726 729 732 735 738 741 744 747 750 753 756 759 762 765 768 771 774 777 780 783 786 789 792 795 798 801 804 807 810 813 816 819 822 825 828 831 834 837 840 843 846 849 852 855 858 861 864 867 870 873 876 879 882 885 888 891 894 897 900 903 906 909 912 915 918 921 924 927 930 933 936 939 942 945 948 951 954 957 960 963 966 969 972 975 978 981 984 987 990 993 996 999 1002 1005 1008 1011 1014 1017 1020 1023 1026 1029 1032 1035 1038 1041 1044 1047 1050 1053 1056 1059 1062 1065 1068 1071 1074 1077 1080 1083 1086 1089 1092 1095 1098 1101 1104 1107 1110 1113 1116 1119 1122 1125 1128 1131 1134 1137 1140 1143 1146 1149 1152 1155 1158 1161 1164 1167 1170 1173 1176 1179 1182 1185 1188 1191 1194 1197 1200 1203 1206 1209 1212 1215 1218 1221 1224 1227 1230 1233 1236 1239 1242 1245 1248 1251 1254 1257 1260 1263 1266 1269 1272 1275 1278 1281 1284 1287 1290 1293 1296 1299 1302 1305 1308 1311 1314 1317 1320 1323 1326 1329 1332 1335 1338 1341 1344 1347 1350 1353 1356 1359 1362 1365 1368 1371 1374 1377 1380 1383 1386 1389 1392 1395 1398 1401 1404 1407 1410 1413 1416 1419 1422 1425 1428 1431 1434 1437 1440 1443 1446 1449 1452 1455 1458 1461 1464 1467 1470 1473 1476 1479 1482 1485 1488 1491 1494 1497 1500 1503 1506 1509 1512 1515 1518 1521 1524 1527 1530 1533 1536 1539 1542 1545 1548 1551 1554 1557 1560 1563 1566 1569 1572 1575 1578 1581 1584 1587 1590 1593 1596 1599 1602 1605 1608 1611 1614 1616 1619 1622 1624 1627 1630 1632 1635 1638 1641 1644 1647 1650 1653 1656 1659 1662 1665 1668 1671 1673 1676 1679 1682 1685 1688 1690 1693 1696 1699 1702 1705 1708 1711 1714 1717 1720 1723 1726 1729 1732 1735 1738 1741 1744 1747 1750 1753 1756 1759 1762 1765 1768 1771 1774 1777 1780 1783 1786 1789 1792 1795 1798 1801 1804 1807 1810 1813 1816 1819 1822 1825 1828 1831 1834 1837 1840 1843 1846 1849 1852 1855 1858 1861 1864 1867 1870 1873 1876 1879 1882 1885 1888 1891 1894 1897 1900 1903 1906 1909 1912 1915 1918 1921 1924 1927 1930 1933 1936 1939 1942 1945 1948 1951 1954 1957 1960 1963 1966 1969 1972 1975 1978 1981 1984 1987 1990 1993 1996 1999 2002 2005 2008 2011 2014 2017 2020 2023 2026 2029 2032 2035 2038 2041 2044 2047 2050 2053 2056 2059 2062 2065 2068 2071 2074 2077 2080 2083 2086 2089 2092 2095 2098 2101 2104 2107 2110 2113 2116 2119 2122 2125 2128 2131 2134 2137 2140 2143 2146 2149 2152 2155 2158 2161 2164 2167 2170 2173 2176 2179 2182 2185 2188 2191 2194 2196 2199 2202 2205 2207 2210 2213 2215 2218 2221 2224 2227 2230 2233 2236 2239 2242 2245 2248 2250 2253 2256 2259 2262 2264 2267 2270 2273 2276 2279 2282 2285 2288 2291 2294 2297 2300 2303 2306 2309 2312 2315 2318 2321 2324 2327 2330 2333 2336 2339 2342 2345 2348 2351 2354 2357 2360 2363 2366 2369 2372 2375 2378 2381 2384 2387 2390 2393 2396 2399 2402 2405 2408 2411 2414 2417 2420 2423 2426 2429 2432 2435 2438 2440 2443 2446 2449 2452 2455 2458 2461 2464 2467 2470 2473 2476 2479 2482 2484 2487 2490 2492 2495 2497 2500 2503 2506 2509 2512 2515 2518 2521 2524 2527 2530 2533 2536 2538 2541 2544 2547 2550 2553 2556 2559 2562 2565 2568 2571 2574 2577 2580 2583 2586 2589 2592 2595 2598 2601 2604 2607 2610 2613 2616 2619 2622 2625 2628 2631 2634 2637 2640 2643 2646 2649 2652 2655 2658 2661 2664 2667 2670 2673 2676 2679 2682 2685 2688 2691 2694 2697 2700 2703 2706 2709 2712 2715 2718 2721 2724 2727 2730 2733 2736 2739 2742 2745 2748 2751 2754 2757 2760 2763 2766 2769 2772 2775 2778 2781 2784 2787 2790 2793 2796 2799 2802 2805 2808 2811 2814 2817 2820 2823 2826 2829 2832 2835 2838 2841 2844 2847 2850 2853 2856 2859 2862 2865 2868 2871 2874 2877 2880 2883 2886 2889 2892 2895 2898 2901 2904 2907 2910 2913 2916 2919 2922 2925 2928 2931 2934 2937 2940 2943 2946 2948 2951 2954 2956 2959 2961 2964 2967 2970 2973 2976 2979 2982 2985 2988 2991 2994 2997 3000 3003 3006 3009 3012 3015 3018 3021 3024 3027 3030 3033 3036 3039 3042 3045 3048 3051 3054 3057 3060 3063 3066 3069 3072 3075 3078 3081 3084 3087 3090 3093 3096 3099 3102 3104 3107 3110 3113 3116 3119 3121 3124 3127 3130 3133 3136 3139 3142 
</DataArray>
<DataArray type="UInt32" Name="types" format="ascii">
5 5 5 5 5 5 5 5 5 5 5 5 5 5 5 5 5 5 5 5 5 5 5 5 5 5 5 5 5 5 5 5 5 5 5 5 5 5 5 5 5 5 5 5 5 5 5 5 5 5 5 5 5 5 5 5 5 5 5 5 5 5 5 5 5 5 5 5 5 5 5 5 5 5 5 5 5 5 5 5 5 5 5 5 5 5 5 5 5 5 5 5 5 5 5 5 5 5 5 5 5 5 5 5 5 5 5 5 5 5 5 5 5 5 5 5 5 5 5 5 5 5 5 5 5 5 5 5 5 5 5 5 5 5 5 5 5 5 5 5 5 5 5 5 5 5 5 5 5 5 5 5 5 5 5 5 5 5 5 5 5 5 5 5 5 5 5 5 5 5 5 5 5 5 5 5 5 5 5 5 5 5 5 5 5 5 5 5 5 5 5 5 5 5 5 5 5 5 5 5 5 5 5 5 5 5 5 5 5 5 5 5 5 5 5 5 5 5 5 5 5 5 5 5 5 5 5 5 5 5 5 5 5 5 5 5 5 5 5 5 5 5 5 5 5 5 5 5 5 5 5 5 5 5 5 5 5 5 5 5 5 5 5 5 5 5 5 5 5 5 5 5 5 5 5 5 5 5 5 5 5 5 5 5 5 5 5 5 5 5 5 5 5 5 5 5 5 5 5 5 5 5 5 5 5 5 5 5 5 5 5 5 5 5 5 5 5 5 5 5 5 5 5 5 5 5 5 5 5 5 5 5 5 5 5 5 5 5 5 5 5 5 5 5 5 5 5 5 5 5 5 5 5 5 5 5 5 5 5 5 5 5 5 5 5 5 5 5 5 5 5 5 5 5 5 5 5 5 5 5 5 5 5 5 5 5 5 5 5 5 5 5 5 5 5 5 5 5 5 5 5 5 5 5 5 5 5 5 5 5 5 5 5 5 5 5 5 5 5 5 5 5 5 5 5 5 5 5 5 5 5 5 5 5 5 5 5 5 5 5 5 5 5 5 5 5 5 5 5 5 5 5 5 5 5 5 5 5 5 5 5 5 5 5 5 5 5 5 5 5 5 5 5 5 5 5 5 5 5 5 5 5 5 5 5 5 5 5 5 5 5 5 5 5 5 5 5 5 5 5 5 5 5 5 5 5 5 5 5 5 5 5 5 5 5 5 5 5 5 5 5 5 5 5 5 5 5 5 5 5 5 5 5 5 5 5 5 5 3 5 5 3 5 5 3 5 5 5 5 5 5 5 5 5 5 5 5 5 3 5 5 5 5 5 3 5 5 5 5 5 5 5 5 5 5 5 5 5 5 5 5 5 5 5 5 5 5 5 5 5 5 5 5 5 5 5 5 5 5 5 5 5 5 5 5 5 5 5 5 5 5 5 5 5 5 5 5 5 5 5 5 5 5 5 5 5 5 5 5 5 5 5 5 5 5 5 5 5 5 5 5 5 5 5 5 5 5 5 5 5 5 5 5 5 5 5 5 5 5 5 5 5 5 5 5 5 5 5 5 5 5 5 5 5 5 5 5 5 5 5 5 5 5 5 5 5 5 5 5 5 5 5 5 5 5 5 5 5 5 5 5 5 5 5 5 5 5 5 5 5 5 5 5 5 5 5 5 5 5 5 5 5 5 5 5 5 5 5 5 5 5 5 5 3 5 5 5 3 5 5 3 5 5 5 5 5 5 5 5 5 5 5 3 5 5 5 5 3 5 5 5 5 5 5 5 5 5 5 5 5 5 5 5 5 5 5 5 5 5 5 5 5 5 5 5 5 5 5 5 5 5 5 5 5 5 5 5 5 5 5 5 5 5 5 5 5 5 5 5 5 5 5 5 5 5 5 3 5 5 5 5 5 5 5 5 5 5 5 5 5 5 3 5 5 3 5 3 5 5 5 5 5 5 5 5 5 5 5 5 5 3 5 5 5 5 5 5 5 5 5 5 5 5 5 5 5 5 5 5 5 5 5 5 5 5 5 5 5 5 5 5 5 5 5 5 5 5 5 5 5 5 5 5 5 5 5 5 5 5 5 5 5 5 5 5 5 5 5 5 5 5 5 5 5 5 5 5 5 5 5 5 5 5 5 5 5 5 5 5 5 5 5 5 5 5 5 5 5 5 5 5 5 5 5 5 5 5 5 5 5 5 5 5 5 5 5 5 5 5 5 5 5 5 5 5 5 5 5 5 5 5 5 5 5 5 5 5 5 5 5 5 5 5 5 5 5 5 3 5 5 3 5 3 5 5 5 5 5 5 5 5 5 5 5 5 5 5 5 5 5 5 5 5 5 5 5 5 5 5 5 5 5 5 5 5 5 5 5 5 5 5 5 5 5 5 5 5 5 5 5 3 5 5 5 5 5 3 5 5 5 5 5 5 5 
</DataArray>
</Cells>
<PointData Scalars="" Vectors="displacement," Tensors="">
<DataArray type="Float64" Name="displacement" NumberOfComponents="3" format="ascii">
-6.2350235117121617e-07 1.1110781828216067e-07 0 -1.2495748675270559e-09 -5.1543113799471635e-10 0 -1.3990596893707074e-06 -7.043838409055423e-08 0 -6.2350235117121617e-07 1.1110781828216067e-07 0 -1.2495748675270559e-09 -5.1543113799471635e-10 0 -1.0818628378013676e-09 3.4319134068290109e-10 0 -6.2350235117121617e-07 1.1110781828216067e-07 0 -1.3990596893707074e-06 -7.043838409055423e-08 0 -1.374037394703733e-06 4.8090664896316212e-07 0 -6.2350235117121617e-07 1.1110781828216067e-07 0 -1.374037394703733e-06 4.8090664896316212e-07 0 -1.0818628378013676e-09 3.4319134068290109e-10 0 -1.0818628378013676e-09 3.4319134068290109e-10 0 -1.0538076048949992e-09 1.7912922899641391e-10 0 -8.6379914000853867e-07 7.375096735236459e-07 0 -1.0538076048949992e-09 1.7912922899641391e-10 0 -8.6379914000853867e-07 7.375096735236459e-07 0 -5.4418276473749846e-10 6.0640481390343183e-10 0 -1.374037394703733e-06 4.8090664896316212e-07 0 -8.6379914000853867e-07 7.375096735236459e-07 0 -1.8890580816119537e-06 1.0715616511062213e-06 0 -1.374037394703733e-06 4.8090664896316212e-07 0 -1.0818628378013676e-09 3.4319134068290109e-10 0 -8.6379914000853867e-07 7.375096735236459e-07 0 -8.6379914000853867e-07 7.375096735236459e-07 0 -1.8890580816119537e-06 1.0715616511062213e-06 0 -9.8011356558206296e-07 1.2226583741232824e-06 0 -1.8890580816119537e-06 1.0715616511062213e-06 0 -9.8011356558206296e-07 1.2226583741232824e-06 0 -1.898337571115045e-06 1.5051422902509391e-06 0 -1.8890580816119537e-06 1.0715616511062213e-06 0 -2.9055778720307875e-06 1.3302701255063088e-06 0 -1.898337571115045e-06 1.5051422902509391e-06 0 -2.9055778720307875e-06 1.3302701255063088e-06 0 -1.898337571115045e-06 1.5051422902509391e-06 0 -2.2722382661263461e-06 1.7107853299499574e-06 0 -2.9055778720307875e-06 1.3302701255063088e-06 0 -2.9516812774455654e-06 7.4478222515496865e-07 0 -4.184996668220619e-06 9.8211858965187558e-07 0 -1.8890580816119537e-06 1.0715616511062213e-06 0 -2.9055778720307875e-06 1.3302701255063088e-06 0 -2.9516812774455654e-06 7.4478222515496865e-07 0 -2.9516812774455654e-06 7.4478222515496865e-07 0 -3.089027389624565e-06 1.8914101818261469e-07 0 -5.1368380676219354e-06 2.1923581371457275e-07 0 -1.3990596893707074e-06 -7.043838409055423e-08 0 -1.374037394703733e-06 4.8090664896316212e-07 0 -3.089027389624565e-06 1.8914101818261469e-07 0 -1.374037394703733e-06 4.8090664896316212e-07 0 -2.9516812774455654e-06 7.4478222515496865e-07 0 -3.089027389624565e-06 1.8914101818261469e-07 0 -1.374037394703733e-06 4.8090664896316212e-07 0 -1.8890580816119537e-06 1.0715616511062213e-06 0 -2.9516812774455654e-06 7.4478222515496865e-07 0 -1.1706681657733925e-07 1.0269306557368107e-06 0 -3.2705288712748305e-10 4.1251350318569028e-10 0 5.7229925034153321e-12 5.1268002835506435e-10 0 -1.1706681657733925e-07 1.0269306557368107e-06 0 -3.2705288712748305e-10 4.1251350318569028e-10 0 -3.3524725191095389e-07 8.6364529080525754e-07 0 -1.1706681657733925e-07 1.0269306557368107e-06 0 -3.3524725191095389e-07 8.6364529080525754e-07 0 -5.7597248059733662e-07 1.5719353812765184e-06 0 -3.3524725191095389e-07 8.6364529080525754e-07 0 -5.4418276473749846e-10 6.0640481390343183e-10 0 -9.8011356558206296e-07 1.2226583741232824e-06 0 -8.6379914000853867e-07 7.375096735236459e-07 0 -5.4418276473749846e-10 6.0640481390343183e-10 0 -9.8011356558206296e-07 1.2226583741232824e-06 0 -3.3524725191095389e-07 8.6364529080525754e-07 0 -9.8011356558206296e-07 1.2226583741232824e-06 0 -5.7597248059733662e-07 1.5719353812765184e-06 0 -3.2705288712748305e-10 4.1251350318569028e-10 0 -3.3524725191095389e-07 8.6364529080525754e-07 0 -5.4418276473749846e-10 6.0640481390343183e-10 0 -9.8011356558206296e-07 1.2226583741232824e-06 0 -1.898337571115045e-06 1.5051422902509391e-06 0 -1.3316132258393488e-06 1.6920294423302153e-06 0 -1.898337571115045e-06 1.5051422902509391e-06 0 -1.3316132258393488e-06 1.6920294423302153e-06 0 -2.2722382661263461e-06 1.7107853299499574e-06 0 -9.8011356558206296e-07 1.2226583741232824e-06 0 -1.3316132258393488e-06 1.6920294423302153e-06 0 -5.7597248059733662e-07 1.5719353812765184e-06 0 -5.7597248059733662e-07 1.5719353812765184e-06 0 1.7744317501179143e-08 1.725108244116171e-06 0 -8.5549059945553929e-07 1.9185256631087395e-06 0 -1.3316132258393488e-06 1.6920294423302153e-06 0 -5.7597248059733662e-07 1.5719353812765184e-06 0 -8.5549059945553929e-07 1.9185256631087395e-06 0 -1.1706681657733925e-07 1.0269306557368107e-06 0 -5.7597248059733662e-07 1.5719353812765184e-06 0 1.7744317501179143e-08 1.725108244116171e-06 0 -1.1706681657733925e-07 1.0269306557368107e-06 0 1.7744317501179143e-08 1.725108244116171e-06 0 1.9069969870735763e-07 1.1051933227879119e-06 0 1.7744317501179143e-08 1.725108244116171e-06 0 -3.8908940386725995e-09 1.9037289705340927e-06 0 -8.5549059945553929e-07 1.9185256631087395e-06 0 -2.0358551082275108e-07 1.8126875453023864e-06 0 -3.8908940386725995e-09 1.9037289705340927e-06 0 -8.5549059945553929e-07 1.9185256631087395e-06 0 -2.0358551082275108e-07 1.8126875453023864e-06 0 -8.5549059945553929e-07 1.9185256631087395e-06 0 -1.6125988555353987e-06 1.7313108632637571e-06 0 -1.6125988555353987e-06 1.7313108632637571e-06 0 -2.2722382661263461e-06 1.7107853299499574e-06 0 -3.1524431605815834e-06 1.4628459849363936e-06 0 -1.3316132258393488e-06 1.6920294423302153e-06 0 -8.5549059945553929e-07 1.9185256631087395e-06 0 -2.2722382661263461e-06 1.7107853299499574e-06 0 -8.5549059945553929e-07 1.9185256631087395e-06 0 -1.6125988555353987e-06 1.7313108632637571e-06 0 -2.2722382661263461e-06 1.7107853299499574e-06 0 -2.2722382661263461e-06 1.7107853299499574e-06 0 -3.1524431605815834e-06 1.4628459849363936e-06 0 -3.6972391159366715e-06 1.3435288153969194e-06 0 -3.1524431605815834e-06 1.4628459849363936e-06 0 -4.4730478500296385e-06 7.9915125926200965e-07 0 -2.2366636168940889e-06 1.2655121488782027e-06 0 -4.4730478500296385e-06 7.9915125926200965e-07 0 -2.2366636168940889e-06 1.2655121488782027e-06 0 -3.6317018895963068e-06 4.0406376803942609e-07 0 -2.2366636168940889e-06 1.2655121488782027e-06 0 -3.6317018895963068e-06 4.0406376803942609e-07 0 -2.0474200796468153e-06 3.5773625194149372e-07 0 -1.6125988555353987e-06 1.7313108632637571e-06 0 -3.1524431605815834e-06 1.4628459849363936e-06 0 -2.2366636168940889e-06 1.2655121488782027e-06 0 -2.0358551082275108e-07 1.8126875453023864e-06 0 -1.6125988555353987e-06 1.7313108632637571e-06 0 -6.7433064462863507e-07 1.2997459363461347e-06 0 -1.6125988555353987e-06 1.7313108632637571e-06 0 -2.2366636168940889e-06 1.2655121488782027e-06 0 -6.7433064462863507e-07 1.2997459363461347e-06 0 -2.2366636168940889e-06 1.2655121488782027e-06 0 -6.7433064462863507e-07 1.2997459363461347e-06 0 -2.0474200796468153e-06 3.5773625194149372e-07 0 -6.7433064462863507e-07 1.2997459363461347e-06 0 7.6903949198418014e-07 7.5149859568538498e-07 0 8.8512141378367135e-07 1.4956056750313079e-06 0 -2.0358551082275108e-07 1.8126875453023864e-06 0 -6.7433064462863507e-07 1.2997459363461347e-06 0 8.8512141378367135e-07 1.4956056750313079e-06 0 -6.0141889670131327e-06 4.864157542058039e-07 0 -5.1368380676219354e-06 2.1923581371457275e-07 0 -4.184996668220619e-06 9.8211858965187558e-07 0 -6.0141889670131327e-06 4.864157542058039e-07 0 -4.184996668220619e-06 9.8211858965187558e-07 0 -5.2840887251742461e-06 8.9500057214759355e-07 0 -6.0141889670131327e-06 4.864157542058039e-07 0 -5.1368380676219354e-06 2.1923581371457275e-07 0 -7.5513675853261939e-06 -2.8668018449340088e-07 0 -2.9516812774455654e-06 7.4478222515496865e-07 0 -5.1368380676219354e-06 2.1923581371457275e-07 0 -4.184996668220619e-06 9.8211858965187558e-07 0 -2.9055778720307875e-06 1.3302701255063088e-06 0 -4.184996668220619e-06 9.8211858965187558e-07 0 -3.6972391159366715e-06 1.3435288153969194e-06 0 -2.9055778720307875e-06 1.3302701255063088e-06 0 -2.2722382661263461e-06 1.7107853299499574e-06 0 -3.6972391159366715e-06 1.3435288153969194e-06 0 -3.1524431605815834e-06 1.4628459849363936e-06 0 -3.6972391159366715e-06 1.3435288153969194e-06 0 -5.2840887251742461e-06 8.9500057214759355e-07 0 -4.184996668220619e-06 9.8211858965187558e-07 0 -3.6972391159366715e-06 1.3435288153969194e-06 0 -5.2840887251742461e-06 8.9500057214759355e-07 0 -3.1524431605815834e-06 1.4628459849363936e-06 0 -4.4730478500296385e-06 7.9915125926200965e-07 0 -5.2840887251742461e-06 8.9500057214759355e-07 0 -4.4730478500296385e-06 7.9915125926200965e-07 0 -5.2840887251742461e-06 8.9500057214759355e-07 0 -6.5272362497615483e-06 1.6301611052005034e-07 0 -4.4730478500296385e-06 7.9915125926200965e-07 0 -6.5272362497615483e-06 1.6301611052005034e-07 0 -6.0855791335949003e-06 -4.0603048009716234e-07 0 -5.2840887251742461e-06 8.9500057214759355e-07 0 -6.5272362497615483e-06 1.6301611052005034e-07 0 -7.5631126610132922e-06 -4.2704710959865119e-08 0 -6.5272362497615483e-06 1.6301611052005034e-07 0 -7.5631126610132922e-06 -4.2704710959865119e-08 0 -9.0908869482681073e-06 -1.09965590854299e-06 0 -6.0141889670131327e-06 4.864157542058039e-07 0 -5.2840887251742461e-06 8.9500057214759355e-07 0 -7.5631126610132922e-06 -4.2704710959865119e-08 0 -6.0141889670131327e-06 4.864157542058039e-07 0 -7.5631126610132922e-06 -4.2704710959865119e-08 0 -7.5513675853261939e-06 -2.8668018449340088e-07 0 -7.5631126610132922e-06 -4.2704710959865119e-08 0 -7.5513675853261939e-06 -2.8668018449340088e-07 0 -1.0284585838027409e-05 -1.3675117853545848e-06 0 -1.0284585838027409e-05 -1.3675117853545848e-06 0 -9.0908869482681073e-06 -1.09965590854299e-06 0 -1.3184318319893766e-05 -3.1319186461733924e-06 0 -7.5631126610132922e-06 -4.2704710959865119e-08 0 -1.0284585838027409e-05 -1.3675117853545848e-06 0 -9.0908869482681073e-06 -1.09965590854299e-06 0 -9.0908869482681073e-06 -1.09965590854299e-06 0 -1.3184318319893766e-05 -3.1319186461733924e-06 0 -1.2223596564947064e-05 -3.3666478735628208e-06 0 -1.3184318319893766e-05 -3.1319186461733924e-06 0 -1.2223596564947064e-05 -3.3666478735628208e-06 0 -1.6548063074797519e-05 -5.7303460079440857e-06 0 -1.2223596564947064e-05 -3.3666478735628208e-06 0 -1.4859732082774416e-05 -5.6828135496768411e-06 0 -1.0711817952335071e-05 -4.2731685670089125e-06 0 -1.4859732082774416e-05 -5.6828135496768411e-06 0 -1.0711817952335071e-05 -4.2731685670089125e-06 0 -1.4948438826906687e-05 -7.8130571875922569e-06 0 -1.2223596564947064e-05 -3.3666478735628208e-06 0 -1.4859732082774416e-05 -5.6828135496768411e-06 0 -1.6548063074797519e-05 -5.7303460079440857e-06 0 -1.4859732082774416e-05 -5.6828135496768411e-06 0 -1.6548063074797519e-05 -5.7303460079440857e-06 0 -2.0268614152840545e-05 -9.3000750099472729e-06 0 -1.0711817952335071e-05 -4.2731685670089125e-06 0 -6.6688833023066873e-06 -4.2007693338378495e-06 0 -1.0003745990911646e-05 -7.0898062678912229e-06 0 -1.0711817952335071e-05 -4.2731685670089125e-06 0 -7.0516957699415042e-06 -2.1955131373183354e-06 0 -6.6688833023066873e-06 -4.2007693338378495e-06 0 -1.2223596564947064e-05 -3.3666478735628208e-06 0 -1.0711817952335071e-05 -4.2731685670089125e-06 0 -9.0381387052435262e-06 -2.0758035005959598e-06 0 -1.0711817952335071e-05 -4.2731685670089125e-06 0 -7.0516957699415042e-06 -2.1955131373183354e-06 0 -9.0381387052435262e-06 -2.0758035005959598e-06 0 -7.0516957699415042e-06 -2.1955131373183354e-06 0 -9.0381387052435262e-06 -2.0758035005959598e-06 0 -6.0855791335949003e-06 -4.0603048009716234e-07 0 -9.0908869482681073e-06 -1.09965590854299e-06 0 -1.2223596564947064e-05 -3.3666478735628208e-06 0 -9.0381387052435262e-06 -2.0758035005959598e-06 0 -9.0908869482681073e-06 -1.09965590854299e-06 0 -9.0381387052435262e-06 -2.0758035005959598e-06 0 -6.0855791335949003e-06 -4.0603048009716234e-07 0 -6.5272362497615483e-06 1.6301611052005034e-07 0 -9.0908869482681073e-06 -1.09965590854299e-06 0 -6.0855791335949003e-06 -4.0603048009716234e-07 0 -4.4730478500296385e-06 7.9915125926200965e-07 0 -6.0855791335949003e-06 -4.0603048009716234e-07 0 -3.6317018895963068e-06 4.0406376803942609e-07 0 -6.0855791335949003e-06 -4.0603048009716234e-07 0 -3.6317018895963068e-06 4.0406376803942609e-07 0 -4.1817552705679145e-06 -7.2998539848780116e-07 0 -3.6317018895963068e-06 4.0406376803942609e-07 0 -4.1817552705679145e-06 -7.2998539848780116e-07 0 -2.0474200796468153e-06 3.5773625194149372e-07 0 -4.1817552705679145e-06 -7.2998539848780116e-07 0 -2.0636701692521566e-06 -1.2497866579726186e-06 0 -4.4717829552796693e-06 -2.2806622773238701e-06 0 -4.1817552705679145e-06 -7.2998539848780116e-07 0 -2.0474200796468153e-06 3.5773625194149372e-07 0 -2.0636701692521566e-06 -1.2497866579726186e-06 0 -7.0516957699415042e-06 -2.1955131373183354e-06 0 -6.0855791335949003e-06 -4.0603048009716234e-07 0 -4.1817552705679145e-06 -7.2998539848780116e-07 0 -6.7433064462863507e-07 1.2997459363461347e-06 0 -3.2790523321891375e-07 5.4042900701527524e-09 0 7.6903949198418014e-07 7.5149859568538498e-07 0 -6.7433064462863507e-07 1.2997459363461347e-06 0 -3.2790523321891375e-07 5.4042900701527524e-09 0 -2.0474200796468153e-06 3.5773625194149372e-07 0 -3.2790523321891375e-07 5.4042900701527524e-09 0 -2.0474200796468153e-06 3.5773625194149372e-07 0 -2.0636701692521566e-06 -1.2497866579726186e-06 0 -3.2790523321891375e-07 5.4042900701527524e-09 0 3.1761129987995113e-07 -2.1565942546577278e-06 0 1.6047746547091273e-06 -2.8794008877988369e-07 0 -3.2790523321891375e-07 5.4042900701527524e-09 0 3.1761129987995113e-07 -2.1565942546577278e-06 0 -2.0636701692521566e-06 -1.2497866579726186e-06 0 3.1761129987995113e-07 -2.1565942546577278e-06 0 -2.0636701692521566e-06 -1.2497866579726186e-06 0 -2.9642554311505639e-06 -3.4579616053274347e-06 0 3.1761129987995113e-07 -2.1565942546577278e-06 0 -2.9642554311505639e-06 -3.4579616053274347e-06 0 -6.5638344017434367e-07 -5.1154294970602197e-06 0 3.1761129987995113e-07 -2.1565942546577278e-06 0 -6.5638344017434367e-07 -5.1154294970602197e-06 0 2.5474063819682016e-06 -4.1797388339041887e-06 0 -7.0516957699415042e-06 -2.1955131373183354e-06 0 -4.1817552705679145e-06 -7.2998539848780116e-07 0 -4.4717829552796693e-06 -2.2806622773238701e-06 0 -7.0516957699415042e-06 -2.1955131373183354e-06 0 -4.4717829552796693e-06 -2.2806622773238701e-06 0 -6.6688833023066873e-06 -4.2007693338378495e-06 0 -2.0636701692521566e-06 -1.2497866579726186e-06 0 -4.4717829552796693e-06 -2.2806622773238701e-06 0 -2.9642554311505639e-06 -3.4579616053274347e-06 0 -2.9642554311505639e-06 -3.4579616053274347e-06 0 -6.6688833023066873e-06 -4.2007693338378495e-06 0 -5.0078923475011007e-06 -6.3477927220738012e-06 0 -4.4717829552796693e-06 -2.2806622773238701e-06 0 -2.9642554311505639e-06 -3.4579616053274347e-06 0 -6.6688833023066873e-06 -4.2007693338378495e-06 0 -6.6688833023066873e-06 -4.2007693338378495e-06 0 -5.0078923475011007e-06 -6.3477927220738012e-06 0 -1.0003745990911646e-05 -7.0898062678912229e-06 0 -5.0078923475011007e-06 -6.3477927220738012e-06 0 -2.1956384301364168e-06 -8.4724624781123126e-06 0 -8.2192149250783843e-06 -1.07186826111531e-05 0 -5.0078923475011007e-06 -6.3477927220738012e-06 0 -8.2192149250783843e-06 -1.07186826111531e-05 0 -1.0003745990911646e-05 -7.0898062678912229e-06 0 -6.5638344017434367e-07 -5.1154294970602197e-06 0 2.0577735311304963e-06 -7.2932346159760918e-06 0 2.5474063819682016e-06 -4.1797388339041887e-06 0 -2.9642554311505639e-06 -3.4579616053274347e-06 0 -5.0078923475011007e-06 -6.3477927220738012e-06 0 -6.5638344017434367e-07 -5.1154294970602197e-06 0 -5.0078923475011007e-06 -6.3477927220738012e-06 0 -6.5638344017434367e-07 -5.1154294970602197e-06 0 -2.1956384301364168e-06 -8.4724624781123126e-06 0 -6.5638344017434367e-07 -5.1154294970602197e-06 0 -2.1956384301364168e-06 -8.4724624781123126e-06 0 2.0577735311304963e-06 -7.2932346159760918e-06 0 -2.1956384301364168e-06 -8.4724624781123126e-06 0 6.3471696195848136e-07 -1.1344186601861049e-05 0 2.0577735311304963e-06 -7.2932346159760918e-06 0 -2.1956384301364168e-06 -8.4724624781123126e-06 0 6.3471696195848136e-07 -1.1344186601861049e-05 0 -3.7007882537448628e-06 -1.3360761680835562e-05 0 -3.7007882537448628e-06 -1.3360761680835562e-05 0 -6.2362821031825728e-06 -1.980664552536888e-05 0 -1.5571755261199043e-06 -1.7502973784328865e-05 0 6.3471696195848136e-07 -1.1344186601861049e-05 0 -3.7007882537448628e-06 -1.3360761680835562e-05 0 -1.5571755261199043e-06 -1.7502973784328865e-05 0 6.3471696195848136e-07 -1.1344186601861049e-05 0 3.1846995068903107e-06 -1.4649330590711178e-05 0 -1.5571755261199043e-06 -1.7502973784328865e-05 0 -8.2192149250783843e-06 -1.07186826111531e-05 0 -3.7007882537448628e-06 -1.3360761680835562e-05 0 -8.9982175827746829e-06 -1.5671902683602562e-05 0 -2.1956384301364168e-06 -8.4724624781123126e-06 0 -8.2192149250783843e-06 -1.07186826111531e-05 0 -3.7007882537448628e-06 -1.3360761680835562e-05 0 -3.7007882537448628e-06 -1.3360761680835562e-05 0 -8.9982175827746829e-06 -1.5671902683602562e-05 0 -6.2362821031825728e-06 -1.980664552536888e-05 0 -8.2192149250783843e-06 -1.07186826111531e-05 0 -8.9982175827746829e-06 -1.5671902683602562e-05 0 -1.4610982238165482e-05 -1.5693673075241552e-05 0 -8.9982175827746829e-06 -1.5671902683602562e-05 0 -1.4610982238165482e-05 -1.5693673075241552e-05 0 -1.2262134384715059e-05 -1.9646957145848102e-05 0 -8.2192149250783843e-06 -1.07186826111531e-05 0 -1.4610982238165482e-05 -1.5693673075241552e-05 0 -1.4500728967170485e-05 -1.1134270852665544e-05 0 -1.4610982238165482e-05 -1.5693673075241552e-05 0 -2.0270418026085106e-05 -1.557594198288741e-05 0 -1.4500728967170485e-05 -1.1134270852665544e-05 0 -1.4610982238165482e-05 -1.5693673075241552e-05 0 -2.0270418026085106e-05 -1.557594198288741e-05 0 -2.1043303905006176e-05 -2.2674974211072219e-05 0 -2.0270418026085106e-05 -1.557594198288741e-05 0 -2.8108205118092849e-05 -2.0554199154198517e-05 0 -2.1043303905006176e-05 -2.2674974211072219e-05 0 -2.0270418026085106e-05 -1.557594198288741e-05 0 -2.8108205118092849e-05 -2.0554199154198517e-05 0 -2.4182844274377792e-05 -1.4249482585185555e-05 0 -2.0270418026085106e-05 -1.557594198288741e-05 0 -2.4182844274377792e-05 -1.4249482585185555e-05 0 -1.8827098926937874e-05 -1.1469649264416944e-05 0 -2.0270418026085106e-05 -1.557594198288741e-05 0 -1.8827098926937874e-05 -1.1469649264416944e-05 0 -1.4500728967170485e-05 -1.1134270852665544e-05 0 -1.8827098926937874e-05 -1.1469649264416944e-05 0 -2.0268614152840545e-05 -9.3000750099472729e-06 0 -1.4948438826906687e-05 -7.8130571875922569e-06 0 -1.8827098926937874e-05 -1.1469649264416944e-05 0 -1.4948438826906687e-05 -7.8130571875922569e-06 0 -1.4500728967170485e-05 -1.1134270852665544e-05 0 -2.4182844274377792e-05 -1.4249482585185555e-05 0 -1.8827098926937874e-05 -1.1469649264416944e-05 0 -2.0268614152840545e-05 -9.3000750099472729e-06 0 -1.4859732082774416e-05 -5.6828135496768411e-06 0 -2.0268614152840545e-05 -9.3000750099472729e-06 0 -1.4948438826906687e-05 -7.8130571875922569e-06 0 -1.0711817952335071e-05 -4.2731685670089125e-06 0 -1.4948438826906687e-05 -7.8130571875922569e-06 0 -1.0003745990911646e-05 -7.0898062678912229e-06 0 -8.2192149250783843e-06 -1.07186826111531e-05 0 -1.0003745990911646e-05 -7.0898062678912229e-06 0 -1.4500728967170485e-05 -1.1134270852665544e-05 0 -1.4948438826906687e-05 -7.8130571875922569e-06 0 -1.0003745990911646e-05 -7.0898062678912229e-06 0 -1.4500728967170485e-05 -1.1134270852665544e-05 0 6.9244387950451752e-06 -4.4999163836667061e-06 0 7.2731399092988643e-06 -2.3382705327806306e-06 0 7.8788771720355058e-06 -3.6033658739536311e-06 0 6.9244387950451752e-06 -4.4999163836667061e-06 0 6.3454190952595035e-06 -2.9567250551974183e-06 0 7.2731399092988643e-06 -2.3382705327806306e-06 0 6.9244387950451752e-06 -4.4999163836667061e-06 0 6.3454190952595035e-06 -2.9567250551974183e-06 0 5.6990014936956116e-06 -4.5789958714698692e-06 0 7.2731399092988643e-06 -2.3382705327806306e-06 0 8.3739828029465228e-06 -1.2223576237178971e-06 0 7.8788771720355058e-06 -3.6033658739536311e-06 0 8.3739828029465228e-06 -1.2223576237178971e-06 0 9.3121731173957628e-06 -1.7187396421206228e-06 0 9.4772007730126181e-06 4.1862191438469778e-07 0 8.3739828029465228e-06 -1.2223576237178971e-06 0 9.3121731173957628e-06 -1.7187396421206228e-06 0 7.8788771720355058e-06 -3.6033658739536311e-06 0 9.3121731173957628e-06 -1.7187396421206228e-06 0 7.8788771720355058e-06 -3.6033658739536311e-06 0 8.6395174246911125e-06 -3.9442963559586076e-06 0 7.8788771720355058e-06 -3.6033658739536311e-06 0 8.6395174246911125e-06 -3.9442963559586076e-06 0 8.0741620232675723e-06 -6.0040909438160846e-06 0 9.3121731173957628e-06 -1.7187396421206228e-06 0 8.6395174246911125e-06 -3.9442963559586076e-06 0 9.4833654471574874e-06 -4.6117277766670793e-06 0 8.6395174246911125e-06 -3.9442963559586076e-06 0 9.4833654471574874e-06 -4.6117277766670793e-06 0 8.0741620232675723e-06 -6.0040909438160846e-06 0 8.0741620232675723e-06 -6.0040909438160846e-06 0 7.0796833529336742e-06 -6.4480158308040858e-06 0 7.1065543426618966e-06 -8.6952776112798307e-06 0 7.8788771720355058e-06 -3.6033658739536311e-06 0 8.0741620232675723e-06 -6.0040909438160846e-06 0 7.0796833529336742e-06 -6.4480158308040858e-06 0 6.9244387950451752e-06 -4.4999163836667061e-06 0 7.8788771720355058e-06 -3.6033658739536311e-06 0 7.0796833529336742e-06 -6.4480158308040858e-06 0 6.9244387950451752e-06 -4.4999163836667061e-06 0 7.0796833529336742e-06 -6.4480158308040858e-06 0 6.3680370609218378e-06 -6.5860769993575627e-06 0 7.0796833529336742e-06 -6.4480158308040858e-06 0 6.2613777234871766e-06 -9.0791671918322551e-06 0 7.1065543426618966e-06 -8.6952776112798307e-06 0 6.2613777234871766e-06 -9.0791671918322551e-06 0 6.3617884485725073e-06 -9.061407233679675e-06 0 7.4443166414392464e-06 -1.2556471359074781e-05 0 6.2613777234871766e-06 -9.0791671918322551e-06 0 6.3617884485725073e-06 -9.061407233679675e-06 0 6.3680370609218378e-06 -6.5860769993575627e-06 0 6.3617884485725073e-06 -9.061407233679675e-06 0 6.3680370609218378e-06 -6.5860769993575627e-06 0 5.0747465563238129e-06 -6.3039575380281037e-06 0 7.0796833529336742e-06 -6.4480158308040858e-06 0 6.2613777234871766e-06 -9.0791671918322551e-06 0 6.3680370609218378e-06 -6.5860769993575627e-06 0 3.1846995068903107e-06 -1.4649330590711178e-05 0 4.7438992388734091e-06 -9.8003145558516192e-06 0 7.4443166414392464e-06 -1.2556471359074781e-05 0 6.3471696195848136e-07 -1.1344186601861049e-05 0 3.1846995068903107e-06 -1.4649330590711178e-05 0 4.7438992388734091e-06 -9.8003145558516192e-06 0 6.3617884485725073e-06 -9.061407233679675e-06 0 4.7438992388734091e-06 -9.8003145558516192e-06 0 7.4443166414392464e-06 -1.2556471359074781e-05 0 6.3617884485725073e-06 -9.061407233679675e-06 0 4.7438992388734091e-06 -9.8003145558516192e-06 0 5.0747465563238129e-06 -6.3039575380281037e-06 0 6.3471696195848136e-07 -1.1344186601861049e-05 0 4.7438992388734091e-06 -9.8003145558516192e-06 0 2.0577735311304963e-06 -7.2932346159760918e-06 0 4.7438992388734091e-06 -9.8003145558516192e-06 0 2.0577735311304963e-06 -7.2932346159760918e-06 0 5.0747465563238129e-06 -6.3039575380281037e-06 0 2.0577735311304963e-06 -7.2932346159760918e-06 0 5.0747465563238129e-06 -6.3039575380281037e-06 0 2.5474063819682016e-06 -4.1797388339041887e-06 0 5.0747465563238129e-06 -6.3039575380281037e-06 0 2.5474063819682016e-06 -4.1797388339041887e-06 0 4.3812834063706989e-06 -3.1999480113314523e-06 0 6.9244387950451752e-06 -4.4999163836667061e-06 0 6.3680370609218378e-06 -6.5860769993575627e-06 0 5.6990014936956116e-06 -4.5789958714698692e-06 0 6.3680370609218378e-06 -6.5860769993575627e-06 0 5.0747465563238129e-06 -6.3039575380281037e-06 0 5.6990014936956116e-06 -4.5789958714698692e-06 0 5.0747465563238129e-06 -6.3039575380281037e-06 0 5.6990014936956116e-06 -4.5789958714698692e-06 0 4.3812834063706989e-06 -3.1999480113314523e-06 0 5.6990014936956116e-06 -4.5789958714698692e-06 0 4.3812834063706989e-06 -3.1999480113314523e-06 0 5.2803377582659845e-06 -1.2731163130759476e-06 0 6.3454190952595035e-06 -2.9567250551974183e-06 0 5.6990014936956116e-06 -4.5789958714698692e-06 0 5.2803377582659845e-06 -1.2731163130759476e-06 0 4.3812834063706989e-06 -3.1999480113314523e-06 0 4.0956170859992289e-06 -1.4221374349685845e-06 0 5.2803377582659845e-06 -1.2731163130759476e-06 0 4.0956170859992289e-06 -1.4221374349685845e-06 0 5.2803377582659845e-06 -1.2731163130759476e-06 0 4.3259783598763552e-06 -2.9807969541530103e-07 0 3.1761129987995113e-07 -2.1565942546577278e-06 0 2.5474063819682016e-06 -4.1797388339041887e-06 0 2.7983116931395211e-06 -1.8551895148360989e-06 0 2.5474063819682016e-06 -4.1797388339041887e-06 0 4.3812834063706989e-06 -3.1999480113314523e-06 0 2.7983116931395211e-06 -1.8551895148360989e-06 0 4.3812834063706989e-06 -3.1999480113314523e-06 0 4.0956170859992289e-06 -1.4221374349685845e-06 0 2.7983116931395211e-06 -1.8551895148360989e-06 0 4.0956170859992289e-06 -1.4221374349685845e-06 0 2.7983116931395211e-06 -1.8551895148360989e-06 0 3.1942994964903566e-06 -3.0428771811707008e-07 0 3.1761129987995113e-07 -2.1565942546577278e-06 0 2.7983116931395211e-06 -1.8551895148360989e-06 0 1.6047746547091273e-06 -2.8794008877988369e-07 0 2.7983116931395211e-06 -1.8551895148360989e-06 0 1.6047746547091273e-06 -2.8794008877988369e-07 0 3.1942994964903566e-06 -3.0428771811707008e-07 0 1.6047746547091273e-06 -2.8794008877988369e-07 0 3.1942994964903566e-06 -3.0428771811707008e-07 0 2.1653547966248181e-06 9.3887467250687113e-07 0 1.6047746547091273e-06 -2.8794008877988369e-07 0 7.6903949198418014e-07 7.5149859568538498e-07 0 2.1653547966248181e-06 9.3887467250687113e-07 0 -3.2790523321891375e-07 5.4042900701527524e-09 0 1.6047746547091273e-06 -2.8794008877988369e-07 0 7.6903949198418014e-07 7.5149859568538498e-07 0 5.2803377582659845e-06 -1.2731163130759476e-06 0 4.3259783598763552e-06 -2.9807969541530103e-07 0 4.9680799625233299e-06 3.4301572148517497e-07 0 4.0956170859992289e-06 -1.4221374349685845e-06 0 4.3259783598763552e-06 -2.9807969541530103e-07 0 3.1942994964903566e-06 -3.0428771811707008e-07 0 4.3259783598763552e-06 -2.9807969541530103e-07 0 3.1942994964903566e-06 -3.0428771811707008e-07 0 3.6484008912225118e-06 6.0192338570355989e-07 0 3.1942994964903566e-06 -3.0428771811707008e-07 0 3.6484008912225118e-06 6.0192338570355989e-07 0 2.1653547966248181e-06 9.3887467250687113e-07 0 4.3259783598763552e-06 -2.9807969541530103e-07 0 3.6484008912225118e-06 6.0192338570355989e-07 0 4.9680799625233299e-06 3.4301572148517497e-07 0 3.6484008912225118e-06 6.0192338570355989e-07 0 4.9680799625233299e-06 3.4301572148517497e-07 0 3.634432327242303e-06 1.2218688046087717e-06 0 4.9680799625233299e-06 3.4301572148517497e-07 0 6.270840980575842e-06 3.871945567857125e-07 0 4.8851814793463099e-06 9.6650356135433112e-07 0 6.270840980575842e-06 3.871945567857125e-07 0 6.2070942587054442e-06 8.9013971857111719e-07 0 4.8851814793463099e-06 9.6650356135433112e-07 0 4.9680799625233299e-06 3.4301572148517497e-07 0 6.270840980575842e-06 3.871945567857125e-07 0 6.073869138510406e-06 -4.5572570186816244e-07 0 5.2803377582659845e-06 -1.2731163130759476e-06 0 4.9680799625233299e-06 3.4301572148517497e-07 0 6.073869138510406e-06 -4.5572570186816244e-07 0 5.2803377582659845e-06 -1.2731163130759476e-06 0 6.073869138510406e-06 -4.5572570186816244e-07 0 6.5027537411281836e-06 -1.496003187815197e-06 0 6.073869138510406e-06 -4.5572570186816244e-07 0 6.5027537411281836e-06 -1.496003187815197e-06 0 7.3133972079617829e-06 -5.1628827758650221e-07 0 6.270840980575842e-06 3.871945567857125e-07 0 6.073869138510406e-06 -4.5572570186816244e-07 0 7.3133972079617829e-06 -5.1628827758650221e-07 0 7.2731399092988643e-06 -2.3382705327806306e-06 0 6.5027537411281836e-06 -1.496003187815197e-06 0 7.3133972079617829e-06 -5.1628827758650221e-07 0 6.3454190952595035e-06 -2.9567250551974183e-06 0 7.2731399092988643e-06 -2.3382705327806306e-06 0 6.5027537411281836e-06 -1.496003187815197e-06 0 6.3454190952595035e-06 -2.9567250551974183e-06 0 5.2803377582659845e-06 -1.2731163130759476e-06 0 6.5027537411281836e-06 -1.496003187815197e-06 0 8.3739828029465228e-06 -1.2223576237178971e-06 0 8.3638179674222713e-06 1.6193546370008656e-07 0 9.4772007730126181e-06 4.1862191438469778e-07 0 8.3739828029465228e-06 -1.2223576237178971e-06 0 8.3638179674222713e-06 1.6193546370008656e-07 0 7.3133972079617829e-06 -5.1628827758650221e-07 0 7.2731399092988643e-06 -2.3382705327806306e-06 0 8.3739828029465228e-06 -1.2223576237178971e-06 0 7.3133972079617829e-06 -5.1628827758650221e-07 0 6.270840980575842e-06 3.871945567857125e-07 0 7.3133972079617829e-06 -5.1628827758650221e-07 0 7.5174439670515887e-06 5.4290151273767443e-07 0 8.3638179674222713e-06 1.6193546370008656e-07 0 7.5174439670515887e-06 5.4290151273767443e-07 0 9.0055939171151606e-06 1.2164639355130831e-06 0 8.3638179674222713e-06 1.6193546370008656e-07 0 7.3133972079617829e-06 -5.1628827758650221e-07 0 7.5174439670515887e-06 5.4290151273767443e-07 0 7.5174439670515887e-06 5.4290151273767443e-07 0 6.2070942587054442e-06 8.9013971857111719e-07 0 7.5682568027235167e-06 1.0221340128363526e-06 0 6.270840980575842e-06 3.871945567857125e-07 0 7.5174439670515887e-06 5.4290151273767443e-07 0 6.2070942587054442e-06 8.9013971857111719e-07 0 6.2070942587054442e-06 8.9013971857111719e-07 0 6.2788887343423548e-06 1.0147693817823126e-06 0 7.5682568027235167e-06 1.0221340128363526e-06 0 6.2788887343423548e-06 1.0147693817823126e-06 0 4.9128825041149899e-06 1.0279300514809042e-06 0 5.153559133362259e-06 1.0779501454534051e-06 0 4.9128825041149899e-06 1.0279300514809042e-06 0 5.153559133362259e-06 1.0779501454534051e-06 0 4.0996875524060283e-06 1.2669925165456e-06 0 6.2070942587054442e-06 8.9013971857111719e-07 0 5.153559133362259e-06 1.0779501454534051e-06 0 4.8851814793463099e-06 9.6650356135433112e-07 0 6.2070942587054442e-06 8.9013971857111719e-07 0 6.2788887343423548e-06 1.0147693817823126e-06 0 5.153559133362259e-06 1.0779501454534051e-06 0 4.9680799625233299e-06 3.4301572148517497e-07 0 4.8851814793463099e-06 9.6650356135433112e-07 0 3.634432327242303e-06 1.2218688046087717e-06 0 4.0996875524060283e-06 1.2669925165456e-06 0 2.9310052187167403e-06 1.4947804962348541e-06 0 3.634432327242303e-06 1.2218688046087717e-06 0 4.8851814793463099e-06 9.6650356135433112e-07 0 4.0996875524060283e-06 1.2669925165456e-06 0 3.634432327242303e-06 1.2218688046087717e-06 0 5.153559133362259e-06 1.0779501454534051e-06 0 4.8851814793463099e-06 9.6650356135433112e-07 0 4.0996875524060283e-06 1.2669925165456e-06 0 4.0996875524060283e-06 1.2669925165456e-06 0 2.8537155560544409e-06 1.285117709341505e-06 0 3.7288763805537506e-06 1.1038237846310633e-06 0 4.0996875524060283e-06 1.2669925165456e-06 0 2.9310052187167403e-06 1.4947804962348541e-06 0 2.8537155560544409e-06 1.285117709341505e-06 0 2.9310052187167403e-06 1.4947804962348541e-06 0 2.8537155560544409e-06 1.285117709341505e-06 0 1.9315704669729843e-06 1.3947315767138418e-06 0 2.8537155560544409e-06 1.285117709341505e-06 0 3.7288763805537506e-06 1.1038237846310633e-06 0 2.5965482274516115e-06 9.2951768236106085e-07 0 3.7288763805537506e-06 1.1038237846310633e-06 0 2.5965482274516115e-06 9.2951768236106085e-07 0 3.106630593692521e-06 6.381639662766195e-07 0 3.7288763805537506e-06 1.1038237846310633e-06 0 3.106630593692521e-06 6.381639662766195e-07 0 4.3785692897961176e-06 7.9704275238813562e-07 0 4.9128825041149899e-06 1.0279300514809042e-06 0 3.7288763805537506e-06 1.1038237846310633e-06 0 4.3785692897961176e-06 7.9704275238813562e-07 0 4.9128825041149899e-06 1.0279300514809042e-06 0 4.0996875524060283e-06 1.2669925165456e-06 0 3.7288763805537506e-06 1.1038237846310633e-06 0 7.6903949198418014e-07 7.5149859568538498e-07 0 8.8512141378367135e-07 1.4956056750313079e-06 0 2.1653547966248181e-06 9.3887467250687113e-07 0 8.8512141378367135e-07 1.4956056750313079e-06 0 2.1653547966248181e-06 9.3887467250687113e-07 0 2.0131325826064888e-06 1.5708002327725767e-06 0 8.8512141378367135e-07 1.4956056750313079e-06 0 2.0131325826064888e-06 1.5708002327725767e-06 0 9.4474969287975529e-07 1.8260433735265064e-06 0 2.0131325826064888e-06 1.5708002327725767e-06 0 2.8941950038160124e-06 1.1856366818316486e-06 0 2.6561057066796368e-06 1.5383688891164457e-06 0 2.1653547966248181e-06 9.3887467250687113e-07 0 2.0131325826064888e-06 1.5708002327725767e-06 0 2.8941950038160124e-06 1.1856366818316486e-06 0 3.6484008912225118e-06 6.0192338570355989e-07 0 2.1653547966248181e-06 9.3887467250687113e-07 0 2.8941950038160124e-06 1.1856366818316486e-06 0 3.6484008912225118e-06 6.0192338570355989e-07 0 2.8941950038160124e-06 1.1856366818316486e-06 0 3.634432327242303e-06 1.2218688046087717e-06 0 2.8941950038160124e-06 1.1856366818316486e-06 0 3.634432327242303e-06 1.2218688046087717e-06 0 2.6561057066796368e-06 1.5383688891164457e-06 0 2.9310052187167403e-06 1.4947804962348541e-06 0 3.634432327242303e-06 1.2218688046087717e-06 0 2.6561057066796368e-06 1.5383688891164457e-06 0 2.9310052187167403e-06 1.4947804962348541e-06 0 2.6561057066796368e-06 1.5383688891164457e-06 0 1.7201764795082602e-06 1.7431933590531285e-06 0 2.9310052187167403e-06 1.4947804962348541e-06 0 1.7201764795082602e-06 1.7431933590531285e-06 0 1.9315704669729843e-06 1.3947315767138418e-06 0 2.0131325826064888e-06 1.5708002327725767e-06 0 2.6561057066796368e-06 1.5383688891164457e-06 0 1.7201764795082602e-06 1.7431933590531285e-06 0 2.0131325826064888e-06 1.5708002327725767e-06 0 1.7201764795082602e-06 1.7431933590531285e-06 0 9.4474969287975529e-07 1.8260433735265064e-06 0 1.7201764795082602e-06 1.7431933590531285e-06 0 9.4474969287975529e-07 1.8260433735265064e-06 0 4.8945739926063456e-07 1.8495907892817094e-06 0 -3.8908940386725995e-09 1.9037289705340927e-06 0 9.4474969287975529e-07 1.8260433735265064e-06 0 4.8945739926063456e-07 1.8495907892817094e-06 0 -2.0358551082275108e-07 1.8126875453023864e-06 0 8.8512141378367135e-07 1.4956056750313079e-06 0 9.4474969287975529e-07 1.8260433735265064e-06 0 -2.0358551082275108e-07 1.8126875453023864e-06 0 -3.8908940386725995e-09 1.9037289705340927e-06 0 9.4474969287975529e-07 1.8260433735265064e-06 0 1.7744317501179143e-08 1.725108244116171e-06 0 7.606250288754001e-07 1.6064753260709179e-06 0 1.9069969870735763e-07 1.1051933227879119e-06 0 1.7744317501179143e-08 1.725108244116171e-06 0 -3.8908940386725995e-09 1.9037289705340927e-06 0 4.8945739926063456e-07 1.8495907892817094e-06 0 1.7744317501179143e-08 1.725108244116171e-06 0 4.8945739926063456e-07 1.8495907892817094e-06 0 7.606250288754001e-07 1.6064753260709179e-06 0 1.7201764795082602e-06 1.7431933590531285e-06 0 4.8945739926063456e-07 1.8495907892817094e-06 0 7.606250288754001e-07 1.6064753260709179e-06 0 7.606250288754001e-07 1.6064753260709179e-06 0 4.6403188668528461e-07 9.4250182582978824e-07 0 1.9069969870735763e-07 1.1051933227879119e-06 0 7.606250288754001e-07 1.6064753260709179e-06 0 1.1440996847696627e-06 1.3881389372053428e-06 0 4.6403188668528461e-07 9.4250182582978824e-07 0 1.7201764795082602e-06 1.7431933590531285e-06 0 7.606250288754001e-07 1.6064753260709179e-06 0 1.1440996847696627e-06 1.3881389372053428e-06 0 1.7201764795082602e-06 1.7431933590531285e-06 0 1.1440996847696627e-06 1.3881389372053428e-06 0 1.9315704669729843e-06 1.3947315767138418e-06 0 1.1440996847696627e-06 1.3881389372053428e-06 0 1.9315704669729843e-06 1.3947315767138418e-06 0 7.7944121448946689e-07 8.6631332748359634e-07 0 1.1440996847696627e-06 1.3881389372053428e-06 0 4.6403188668528461e-07 9.4250182582978824e-07 0 7.7944121448946689e-07 8.6631332748359634e-07 0 5.368369842340722e-10 4.3815802616402624e-10 0 4.6403188668528461e-07 9.4250182582978824e-07 0 7.7944121448946689e-07 8.6631332748359634e-07 0 5.368369842340722e-10 4.3815802616402624e-10 0 4.6403188668528461e-07 9.4250182582978824e-07 0 3.2859370287445877e-10 4.3867779293906159e-10 0 4.6403188668528461e-07 9.4250182582978824e-07 0 3.2859370287445877e-10 4.3867779293906159e-10 0 1.9069969870735763e-07 1.1051933227879119e-06 0 3.2859370287445877e-10 4.3867779293906159e-10 0 5.7229925034153321e-12 5.1268002835506435e-10 0 1.9069969870735763e-07 1.1051933227879119e-06 0 -1.1706681657733925e-07 1.0269306557368107e-06 0 5.7229925034153321e-12 5.1268002835506435e-10 0 1.9069969870735763e-07 1.1051933227879119e-06 0 1.6064744355578876e-06 5.1081323285898774e-07 0 2.5965482274516115e-06 9.2951768236106085e-07 0 1.5852131917456875e-06 9.1006332861849662e-07 0 1.6064744355578876e-06 5.1081323285898774e-07 0 2.5965482274516115e-06 9.2951768236106085e-07 0 3.106630593692521e-06 6.381639662766195e-07 0 2.8537155560544409e-06 1.285117709341505e-06 0 2.5965482274516115e-06 9.2951768236106085e-07 0 1.5852131917456875e-06 9.1006332861849662e-07 0 2.8537155560544409e-06 1.285117709341505e-06 0 1.9315704669729843e-06 1.3947315767138418e-06 0 1.5852131917456875e-06 9.1006332861849662e-07 0 1.9315704669729843e-06 1.3947315767138418e-06 0 1.5852131917456875e-06 9.1006332861849662e-07 0 7.7944121448946689e-07 8.6631332748359634e-07 0 1.5852131917456875e-06 9.1006332861849662e-07 0 6.5748602463823601e-07 5.219268017696089e-07 0 7.7944121448946689e-07 8.6631332748359634e-07 0 5.368369842340722e-10 4.3815802616402624e-10 0 7.7944121448946689e-07 8.6631332748359634e-07 0 8.2518551790465754e-10 2.7554746331404898e-10 0 6.5748602463823601e-07 5.219268017696089e-07 0 7.7944121448946689e-07 8.6631332748359634e-07 0 8.2518551790465754e-10 2.7554746331404898e-10 0 6.5748602463823601e-07 5.219268017696089e-07 0 8.2518551790465754e-10 2.7554746331404898e-10 0 9.587905703744808e-10 2.312491891846061e-10 0 6.5748602463823601e-07 5.219268017696089e-07 0 9.587905703744808e-10 2.312491891846061e-10 0 6.9055473555482312e-07 3.7969311771146264e-07 0 1.6064744355578876e-06 5.1081323285898774e-07 0 6.9055473555482312e-07 3.7969311771146264e-07 0 1.0297608639273436e-09 1.8829975930465768e-10 0 1.6064744355578876e-06 5.1081323285898774e-07 0 1.5852131917456875e-06 9.1006332861849662e-07 0 6.9055473555482312e-07 3.7969311771146264e-07 0 1.5852131917456875e-06 9.1006332861849662e-07 0 6.5748602463823601e-07 5.219268017696089e-07 0 6.9055473555482312e-07 3.7969311771146264e-07 0 9.587905703744808e-10 2.312491891846061e-10 0 6.9055473555482312e-07 3.7969311771146264e-07 0 1.0297608639273436e-09 1.8829975930465768e-10 0 1.6064744355578876e-06 5.1081323285898774e-07 0 1.0297608639273436e-09 1.8829975930465768e-10 0 1.0429142752716096e-06 1.2775261857921138e-07 0 1.0297608639273436e-09 1.8829975930465768e-10 0 1.0995731998779188e-09 -7.8110016805152908e-11 0 1.0429142752716096e-06 1.2775261857921138e-07 0 1.0995731998779188e-09 -7.8110016805152908e-11 0 1.0429142752716096e-06 1.2775261857921138e-07 0 7.9238588714332134e-07 -9.6021120338008691e-08 0 1.0429142752716096e-06 1.2775261857921138e-07 0 1.9512550068750057e-06 -7.5206557001314358e-08 0 7.9238588714332134e-07 -9.6021120338008691e-08 0 1.6064744355578876e-06 5.1081323285898774e-07 0 1.0429142752716096e-06 1.2775261857921138e-07 0 2.146656224266636e-06 2.4731183116939921e-07 0 1.6064744355578876e-06 5.1081323285898774e-07 0 2.146656224266636e-06 2.4731183116939921e-07 0 3.106630593692521e-06 6.381639662766195e-07 0 1.0429142752716096e-06 1.2775261857921138e-07 0 2.146656224266636e-06 2.4731183116939921e-07 0 1.9512550068750057e-06 -7.5206557001314358e-08 0 2.146656224266636e-06 2.4731183116939921e-07 0 3.0723736040002935e-06 3.1327442243943175e-08 0 1.9512550068750057e-06 -7.5206557001314358e-08 0 2.146656224266636e-06 2.4731183116939921e-07 0 3.106630593692521e-06 6.381639662766195e-07 0 3.0723736040002935e-06 3.1327442243943175e-08 0 2.5984364610281549e-06 -4.4766737954305009e-07 0 3.0723736040002935e-06 3.1327442243943175e-08 0 1.9512550068750057e-06 -7.5206557001314358e-08 0 2.5984364610281549e-06 -4.4766737954305009e-07 0 1.1281647207203581e-06 -4.007593181473398e-07 0 1.9168428463960034e-06 -8.4045683783965578e-07 0 2.5984364610281549e-06 -4.4766737954305009e-07 0 1.9512550068750057e-06 -7.5206557001314358e-08 0 1.1281647207203581e-06 -4.007593181473398e-07 0 1.9512550068750057e-06 -7.5206557001314358e-08 0 1.1281647207203581e-06 -4.007593181473398e-07 0 7.9238588714332134e-07 -9.6021120338008691e-08 0 1.0995731998779188e-09 -7.8110016805152908e-11 0 7.9238588714332134e-07 -9.6021120338008691e-08 0 1.1094146451723271e-09 -4.3400333522315616e-12 0 1.1281647207203581e-06 -4.007593181473398e-07 0 1.1094146451723271e-09 -4.3400333522315616e-12 0 8.7123190614037219e-10 -3.2994033565060738e-10 0 1.1281647207203581e-06 -4.007593181473398e-07 0 7.9238588714332134e-07 -9.6021120338008691e-08 0 1.1094146451723271e-09 -4.3400333522315616e-12 0 8.7123190614037219e-10 -3.2994033565060738e-10 0 8.7231096577858227e-07 -7.3411866770920919e-07 0 6.490333904262292e-10 -4.1421652112710674e-10 0 1.1281647207203581e-06 -4.007593181473398e-07 0 8.7231096577858227e-07 -7.3411866770920919e-07 0 1.9168428463960034e-06 -8.4045683783965578e-07 0 1.1281647207203581e-06 -4.007593181473398e-07 0 8.7123190614037219e-10 -3.2994033565060738e-10 0 8.7231096577858227e-07 -7.3411866770920919e-07 0 6.490333904262292e-10 -4.1421652112710674e-10 0 5.7050038269292143e-07 -1.1331497731472192e-06 0 2.9231733489932312e-10 -6.0794439559174372e-10 0 8.7231096577858227e-07 -7.3411866770920919e-07 0 6.490333904262292e-10 -4.1421652112710674e-10 0 5.7050038269292143e-07 -1.1331497731472192e-06 0 5.7050038269292143e-07 -1.1331497731472192e-06 0 2.9231733489932312e-10 -6.0794439559174372e-10 0 1.383593128525308e-07 -1.2214813360715748e-06 0 5.7050038269292143e-07 -1.1331497731472192e-06 0 1.8503969575370993e-06 -1.4102702489564475e-06 0 7.134264453669545e-07 -1.8629586772383455e-06 0 1.8503969575370993e-06 -1.4102702489564475e-06 0 1.6460684905448822e-06 -1.7767255990223908e-06 0 7.134264453669545e-07 -1.8629586772383455e-06 0 8.7231096577858227e-07 -7.3411866770920919e-07 0 5.7050038269292143e-07 -1.1331497731472192e-06 0 1.8503969575370993e-06 -1.4102702489564475e-06 0 1.6460684905448822e-06 -1.7767255990223908e-06 0 7.134264453669545e-07 -1.8629586772383455e-06 0 1.332391317546445e-06 -1.9738184755555611e-06 0 8.7231096577858227e-07 -7.3411866770920919e-07 0 1.8503969575370993e-06 -1.4102702489564475e-06 0 1.9168428463960034e-06 -8.4045683783965578e-07 0 1.8503969575370993e-06 -1.4102702489564475e-06 0 1.9168428463960034e-06 -8.4045683783965578e-07 0 2.9846892501090726e-06 -7.9388583058433043e-07 0 2.5984364610281549e-06 -4.4766737954305009e-07 0 1.9168428463960034e-06 -8.4045683783965578e-07 0 2.9846892501090726e-06 -7.9388583058433043e-07 0 1.8503969575370993e-06 -1.4102702489564475e-06 0 2.9846892501090726e-06 -7.9388583058433043e-07 0 3.9437348213130016e-06 -9.2449904188150466e-07 0 2.9846892501090726e-06 -7.9388583058433043e-07 0 3.9437348213130016e-06 -9.2449904188150466e-07 0 4.3137168312917212e-06 -2.2654639942054989e-07 0 3.9437348213130016e-06 -9.2449904188150466e-07 0 5.5902360676790561e-06 -1.6264411347373795e-08 0 4.3137168312917212e-06 -2.2654639942054989e-07 0 1.8503969575370993e-06 -1.4102702489564475e-06 0 3.9437348213130016e-06 -9.2449904188150466e-07 0 2.7306534592551299e-06 -1.5123667433123494e-06 0 1.6460684905448822e-06 -1.7767255990223908e-06 0 2.7306534592551299e-06 -1.5123667433123494e-06 0 1.332391317546445e-06 -1.9738184755555611e-06 0 1.8503969575370993e-06 -1.4102702489564475e-06 0 1.6460684905448822e-06 -1.7767255990223908e-06 0 2.7306534592551299e-06 -1.5123667433123494e-06 0 3.9437348213130016e-06 -9.2449904188150466e-07 0 2.7306534592551299e-06 -1.5123667433123494e-06 0 3.7046536016209023e-06 -1.1467162109790673e-06 0 2.7306534592551299e-06 -1.5123667433123494e-06 0 1.332391317546445e-06 -1.9738184755555611e-06 0 1.8395251461371642e-06 -1.8199133147547745e-06 0 2.7306534592551299e-06 -1.5123667433123494e-06 0 3.7046536016209023e-06 -1.1467162109790673e-06 0 1.8395251461371642e-06 -1.8199133147547745e-06 0 3.7046536016209023e-06 -1.1467162109790673e-06 0 4.1364407062992389e-06 -7.8410295256248584e-07 0 1.8395251461371642e-06 -1.8199133147547745e-06 0 3.7046536016209023e-06 -1.1467162109790673e-06 0 4.1364407062992389e-06 -7.8410295256248584e-07 0 5.7010008114880864e-06 -2.3045586609388632e-07 0 4.1364407062992389e-06 -7.8410295256248584e-07 0 5.7010008114880864e-06 -2.3045586609388632e-07 0 6.2209500703691045e-06 4.7711852866902657e-07 0 4.1364407062992389e-06 -7.8410295256248584e-07 0 1.5337042589830122e-06 -1.2367135030028093e-06 0 4.1133943895428407e-06 -5.9389225504872154e-08 0 4.1364407062992389e-06 -7.8410295256248584e-07 0 4.1133943895428407e-06 -5.9389225504872154e-08 0 6.2209500703691045e-06 4.7711852866902657e-07 0 3.9437348213130016e-06 -9.2449904188150466e-07 0 5.7010008114880864e-06 -2.3045586609388632e-07 0 5.5902360676790561e-06 -1.6264411347373795e-08 0 3.9437348213130016e-06 -9.2449904188150466e-07 0 3.7046536016209023e-06 -1.1467162109790673e-06 0 5.7010008114880864e-06 -2.3045586609388632e-07 0 5.7010008114880864e-06 -2.3045586609388632e-07 0 7.160594565192463e-06 6.5694796476496916e-07 0 5.5902360676790561e-06 -1.6264411347373795e-08 0 5.7010008114880864e-06 -2.3045586609388632e-07 0 7.160594565192463e-06 6.5694796476496916e-07 0 8.140682098789394e-06 1.2438037702385213e-06 0 7.160594565192463e-06 6.5694796476496916e-07 0 5.5902360676790561e-06 -1.6264411347373795e-08 0 6.6383988609199518e-06 6.6142121407690817e-07 0 7.160594565192463e-06 6.5694796476496916e-07 0 6.6383988609199518e-06 6.6142121407690817e-07 0 8.0160382554690398e-06 1.1451780673558631e-06 0 5.5902360676790561e-06 -1.6264411347373795e-08 0 6.6383988609199518e-06 6.6142121407690817e-07 0 5.2367251704806935e-06 2.8982616778111363e-07 0 6.6383988609199518e-06 6.6142121407690817e-07 0 5.6014561052463129e-06 7.7317149523041044e-07 0 5.2367251704806935e-06 2.8982616778111363e-07 0 6.6383988609199518e-06 6.6142121407690817e-07 0 7.2552885569168693e-06 1.0399536255272723e-06 0 8.0160382554690398e-06 1.1451780673558631e-06 0 6.6383988609199518e-06 6.6142121407690817e-07 0 5.6014561052463129e-06 7.7317149523041044e-07 0 7.2552885569168693e-06 1.0399536255272723e-06 0 6.2788887343423548e-06 1.0147693817823126e-06 0 5.6014561052463129e-06 7.7317149523041044e-07 0 7.2552885569168693e-06 1.0399536255272723e-06 0 4.9128825041149899e-06 1.0279300514809042e-06 0 5.6014561052463129e-06 7.7317149523041044e-07 0 4.3785692897961176e-06 7.9704275238813562e-07 0 6.2788887343423548e-06 1.0147693817823126e-06 0 4.9128825041149899e-06 1.0279300514809042e-06 0 5.6014561052463129e-06 7.7317149523041044e-07 0 5.6014561052463129e-06 7.7317149523041044e-07 0 4.0917619667348492e-06 3.3985252030446324e-07 0 5.2367251704806935e-06 2.8982616778111363e-07 0 5.6014561052463129e-06 7.7317149523041044e-07 0 4.3785692897961176e-06 7.9704275238813562e-07 0 4.0917619667348492e-06 3.3985252030446324e-07 0 3.106630593692521e-06 6.381639662766195e-07 0 4.3785692897961176e-06 7.9704275238813562e-07 0 4.0917619667348492e-06 3.3985252030446324e-07 0 3.106630593692521e-06 6.381639662766195e-07 0 3.0723736040002935e-06 3.1327442243943175e-08 0 4.0917619667348492e-06 3.3985252030446324e-07 0 3.0723736040002935e-06 3.1327442243943175e-08 0 4.0917619667348492e-06 3.3985252030446324e-07 0 4.3137168312917212e-06 -2.2654639942054989e-07 0 2.5984364610281549e-06 -4.4766737954305009e-07 0 3.0723736040002935e-06 3.1327442243943175e-08 0 4.3137168312917212e-06 -2.2654639942054989e-07 0 2.5984364610281549e-06 -4.4766737954305009e-07 0 2.9846892501090726e-06 -7.9388583058433043e-07 0 4.3137168312917212e-06 -2.2654639942054989e-07 0 5.5902360676790561e-06 -1.6264411347373795e-08 0 4.3137168312917212e-06 -2.2654639942054989e-07 0 5.2367251704806935e-06 2.8982616778111363e-07 0 4.0917619667348492e-06 3.3985252030446324e-07 0 4.3137168312917212e-06 -2.2654639942054989e-07 0 5.2367251704806935e-06 2.8982616778111363e-07 0 -4.0517123422235487e-06 -5.2500131449687573e-07 0 -3.8023756315952368e-06 -1.2849611998466871e-06 0 -6.905914296236409e-06 -5.6796479704405693e-07 0 -3.8023756315952368e-06 -1.2849611998466871e-06 0 -1.7404210689485789e-06 -8.2763410016295893e-07 0 -2.267380037919965e-06 -1.6532481613937045e-06 0 -4.0517123422235487e-06 -5.2500131449687573e-07 0 -1.7823824072594387e-06 -8.3737626451888714e-08 0 -1.7404210689485789e-06 -8.2763410016295893e-07 0 -4.0517123422235487e-06 -5.2500131449687573e-07 0 -3.8023756315952368e-06 -1.2849611998466871e-06 0 -1.7404210689485789e-06 -8.2763410016295893e-07 0 -1.7823824072594387e-06 -8.3737626451888714e-08 0 -7.8804639826649496e-07 -2.3967181043659898e-07 0 -1.7404210689485789e-06 -8.2763410016295893e-07 0 -1.7823824072594387e-06 -8.3737626451888714e-08 0 -1.4653025450812746e-09 5.9911105331763029e-10 0 -7.8804639826649496e-07 -2.3967181043659898e-07 0 -1.4653025450812746e-09 5.9911105331763029e-10 0 -7.8804639826649496e-07 -2.3967181043659898e-07 0 -1.4177023158806738e-09 -5.4096079373997882e-10 0 -7.8804639826649496e-07 -2.3967181043659898e-07 0 -1.4177023158806738e-09 -5.4096079373997882e-10 0 -1.7404210689485789e-06 -8.2763410016295893e-07 0 -1.4177023158806738e-09 -5.4096079373997882e-10 0 -1.7404210689485789e-06 -8.2763410016295893e-07 0 -1.0185686656005199e-06 -1.1148061158382428e-06 0 -1.7404210689485789e-06 -8.2763410016295893e-07 0 -1.0185686656005199e-06 -1.1148061158382428e-06 0 -2.267380037919965e-06 -1.6532481613937045e-06 0 -1.4177023158806738e-09 -5.4096079373997882e-10 0 -1.2363212938624482e-09 -2.7645330548308408e-10 0 -1.0185686656005199e-06 -1.1148061158382428e-06 0 -1.2363212938624482e-09 -2.7645330548308408e-10 0 -1.0185686656005199e-06 -1.1148061158382428e-06 0 -5.2724784558718112e-10 -8.7167552572323157e-10 0 -1.0185686656005199e-06 -1.1148061158382428e-06 0 -2.267380037919965e-06 -1.6532481613937045e-06 0 -9.8106141029019857e-07 -1.7121305707109012e-06 0 -2.267380037919965e-06 -1.6532481613937045e-06 0 -2.0333928508129576e-06 -2.1668708576638168e-06 0 -9.8106141029019857e-07 -1.7121305707109012e-06 0 -3.8023756315952368e-06 -1.2849611998466871e-06 0 -2.267380037919965e-06 -1.6532481613937045e-06 0 -3.4836407300300834e-06 -2.0354796246149659e-06 0 -3.8023756315952368e-06 -1.2849611998466871e-06 0 -3.4836407300300834e-06 -2.0354796246149659e-06 0 -5.3564107318863913e-06 -1.61060379941634e-06 0 -3.4836407300300834e-06 -2.0354796246149659e-06 0 -2.0333928508129576e-06 -2.1668708576638168e-06 0 -2.2149191670758585e-06 -2.3833935430129049e-06 0 -2.267380037919965e-06 -1.6532481613937045e-06 0 -3.4836407300300834e-06 -2.0354796246149659e-06 0 -2.0333928508129576e-06 -2.1668708576638168e-06 0 -2.0333928508129576e-06 -2.1668708576638168e-06 0 -1.1170321998342604e-06 -2.2841648547811294e-06 0 -2.2149191670758585e-06 -2.3833935430129049e-06 0 -1.1170321998342604e-06 -2.2841648547811294e-06 0 -9.8106141029019857e-07 -1.7121305707109012e-06 0 -1.8934956287308054e-07 -1.9676057005565607e-06 0 -2.0333928508129576e-06 -2.1668708576638168e-06 0 -1.1170321998342604e-06 -2.2841648547811294e-06 0 -9.8106141029019857e-07 -1.7121305707109012e-06 0 -9.8106141029019857e-07 -1.7121305707109012e-06 0 -5.2724784558718112e-10 -8.7167552572323157e-10 0 -2.2555479310245237e-07 -1.1335994719989103e-06 0 -1.0185686656005199e-06 -1.1148061158382428e-06 0 -9.8106141029019857e-07 -1.7121305707109012e-06 0 -5.2724784558718112e-10 -8.7167552572323157e-10 0 -5.2724784558718112e-10 -8.7167552572323157e-10 0 -2.2555479310245237e-07 -1.1335994719989103e-06 0 -1.6084473327189191e-10 -5.4405032055232956e-10 0 -9.8106141029019857e-07 -1.7121305707109012e-06 0 -2.2555479310245237e-07 -1.1335994719989103e-06 0 -1.8934956287308054e-07 -1.9676057005565607e-06 0 -2.2555479310245237e-07 -1.1335994719989103e-06 0 1.383593128525308e-07 -1.2214813360715748e-06 0 -1.8934956287308054e-07 -1.9676057005565607e-06 0 -2.2555479310245237e-07 -1.1335994719989103e-06 0 -1.6084473327189191e-10 -5.4405032055232956e-10 0 1.383593128525308e-07 -1.2214813360715748e-06 0 -1.6084473327189191e-10 -5.4405032055232956e-10 0 2.9231733489932312e-10 -6.0794439559174372e-10 0 1.383593128525308e-07 -1.2214813360715748e-06 0 5.7050038269292143e-07 -1.1331497731472192e-06 0 1.383593128525308e-07 -1.2214813360715748e-06 0 7.134264453669545e-07 -1.8629586772383455e-06 0 1.383593128525308e-07 -1.2214813360715748e-06 0 7.134264453669545e-07 -1.8629586772383455e-06 0 -1.8934956287308054e-07 -1.9676057005565607e-06 0 -1.1170321998342604e-06 -2.2841648547811294e-06 0 -1.8934956287308054e-07 -1.9676057005565607e-06 0 -3.0163362797322502e-09 -2.3423512557555565e-06 0 7.134264453669545e-07 -1.8629586772383455e-06 0 -1.8934956287308054e-07 -1.9676057005565607e-06 0 -3.0163362797322502e-09 -2.3423512557555565e-06 0 7.134264453669545e-07 -1.8629586772383455e-06 0 1.332391317546445e-06 -1.9738184755555611e-06 0 -3.0163362797322502e-09 -2.3423512557555565e-06 0 1.332391317546445e-06 -1.9738184755555611e-06 0 -3.0163362797322502e-09 -2.3423512557555565e-06 0 1.8395251461371642e-06 -1.8199133147547745e-06 0 -3.0163362797322502e-09 -2.3423512557555565e-06 0 1.8395251461371642e-06 -1.8199133147547745e-06 0 -8.6091655584355631e-07 -2.2165902641661692e-06 0 4.1364407062992389e-06 -7.8410295256248584e-07 0 1.8395251461371642e-06 -1.8199133147547745e-06 0 1.5337042589830122e-06 -1.2367135030028093e-06 0 1.5337042589830122e-06 -1.2367135030028093e-06 0 -1.0126569572904926e-06 -1.4638197842023448e-06 0 -5.554940967178963e-07 -2.1470377001457045e-07 0 1.5337042589830122e-06 -1.2367135030028093e-06 0 -1.0126569572904926e-06 -1.4638197842023448e-06 0 -8.6091655584355631e-07 -2.2165902641661692e-06 0 1.8395251461371642e-06 -1.8199133147547745e-06 0 1.5337042589830122e-06 -1.2367135030028093e-06 0 -8.6091655584355631e-07 -2.2165902641661692e-06 0 -1.0126569572904926e-06 -1.4638197842023448e-06 0 -3.7292191843086227e-06 -1.9009716201760156e-06 0 -8.6091655584355631e-07 -2.2165902641661692e-06 0 -1.0126569572904926e-06 -1.4638197842023448e-06 0 -3.7713751262391193e-06 -8.2593514453379784e-07 0 -5.554940967178963e-07 -2.1470377001457045e-07 0 -1.0126569572904926e-06 -1.4638197842023448e-06 0 -3.7713751262391193e-06 -8.2593514453379784e-07 0 -3.7292191843086227e-06 -1.9009716201760156e-06 0 -3.7292191843086227e-06 -1.9009716201760156e-06 0 -8.6091655584355631e-07 -2.2165902641661692e-06 0 -2.2149191670758585e-06 -2.3833935430129049e-06 0 -3.7292191843086227e-06 -1.9009716201760156e-06 0 -2.2149191670758585e-06 -2.3833935430129049e-06 0 -4.3289381248524844e-06 -2.0223826014713325e-06 0 -3.0163362797322502e-09 -2.3423512557555565e-06 0 -8.6091655584355631e-07 -2.2165902641661692e-06 0 -2.2149191670758585e-06 -2.3833935430129049e-06 0 -1.1170321998342604e-06 -2.2841648547811294e-06 0 -3.0163362797322502e-09 -2.3423512557555565e-06 0 -2.2149191670758585e-06 -2.3833935430129049e-06 0 -3.4836407300300834e-06 -2.0354796246149659e-06 0 -2.2149191670758585e-06 -2.3833935430129049e-06 0 -4.3289381248524844e-06 -2.0223826014713325e-06 0 -3.4836407300300834e-06 -2.0354796246149659e-06 0 -4.3289381248524844e-06 -2.0223826014713325e-06 0 -5.3564107318863913e-06 -1.61060379941634e-06 0 -4.3289381248524844e-06 -2.0223826014713325e-06 0 -6.6794318726815273e-06 -1.3430746911645513e-06 0 -5.3564107318863913e-06 -1.61060379941634e-06 0 -3.7292191843086227e-06 -1.9009716201760156e-06 0 -4.3289381248524844e-06 -2.0223826014713325e-06 0 -6.6794318726815273e-06 -1.3430746911645513e-06 0 -3.7292191843086227e-06 -1.9009716201760156e-06 0 -7.8063390061455122e-06 -3.0053175354049211e-07 0 -6.6794318726815273e-06 -1.3430746911645513e-06 0 -3.7713751262391193e-06 -8.2593514453379784e-07 0 -3.7292191843086227e-06 -1.9009716201760156e-06 0 -7.8063390061455122e-06 -3.0053175354049211e-07 0 -7.8063390061455122e-06 -3.0053175354049211e-07 0 -6.6794318726815273e-06 -1.3430746911645513e-06 0 -1.0361039957925526e-05 2.0394580186259717e-09 0 -6.6794318726815273e-06 -1.3430746911645513e-06 0 -1.0361039957925526e-05 2.0394580186259717e-09 0 -8.0564505081889412e-06 -8.7344183326447799e-07 0 -7.8063390061455122e-06 -3.0053175354049211e-07 0 -1.0361039957925526e-05 2.0394580186259717e-09 0 -1.2975180068315517e-05 1.9500509550501582e-06 0 -1.0361039957925526e-05 2.0394580186259717e-09 0 -1.035709795945688e-05 2.2491643402903056e-07 0 -1.4418284298121825e-05 1.937015123778841e-06 0 -1.0361039957925526e-05 2.0394580186259717e-09 0 -1.035709795945688e-05 2.2491643402903056e-07 0 -8.0564505081889412e-06 -8.7344183326447799e-07 0 -1.035709795945688e-05 2.2491643402903056e-07 0 -8.0564505081889412e-06 -8.7344183326447799e-07 0 -6.905914296236409e-06 -5.6796479704405693e-07 0 -6.6794318726815273e-06 -1.3430746911645513e-06 0 -8.0564505081889412e-06 -8.7344183326447799e-07 0 -5.3564107318863913e-06 -1.61060379941634e-06 0 -8.0564505081889412e-06 -8.7344183326447799e-07 0 -5.3564107318863913e-06 -1.61060379941634e-06 0 -6.905914296236409e-06 -5.6796479704405693e-07 0 -3.8023756315952368e-06 -1.2849611998466871e-06 0 -5.3564107318863913e-06 -1.61060379941634e-06 0 -6.905914296236409e-06 -5.6796479704405693e-07 0 -2.4299073757740955e-05 9.7127056094740188e-06 0 -2.1046988981902291e-05 9.8017848834088478e-06 0 -1.6897174270217446e-05 5.6696675775827762e-06 0 -2.4299073757740955e-05 9.7127056094740188e-06 0 -2.1046988981902291e-05 9.8017848834088478e-06 0 -3.0248989253787803e-05 1.6342781758443089e-05 0 -2.1046988981902291e-05 9.8017848834088478e-06 0 -1.6897174270217446e-05 5.6696675775827762e-06 0 -1.4406179004117631e-05 7.9055306774481145e-06 0 -2.1046988981902291e-05 9.8017848834088478e-06 0 -1.4406179004117631e-05 7.9055306774481145e-06 0 -2.070685395102792e-05 1.3879999794806854e-05 0 -2.4299073757740955e-05 9.7127056094740188e-06 0 -1.6897174270217446e-05 5.6696675775827762e-06 0 -1.9009937622037348e-05 4.96969403028783e-06 0 -1.9009937622037348e-05 4.96969403028783e-06 0 -1.4418284298121825e-05 1.937015123778841e-06 0 -1.2975180068315517e-05 1.9500509550501582e-06 0 -1.0361039957925526e-05 2.0394580186259717e-09 0 -1.4418284298121825e-05 1.937015123778841e-06 0 -1.2975180068315517e-05 1.9500509550501582e-06 0 -1.6897174270217446e-05 5.6696675775827762e-06 0 -1.9009937622037348e-05 4.96969403028783e-06 0 -1.2975180068315517e-05 1.9500509550501582e-06 0 -1.6897174270217446e-05 5.6696675775827762e-06 0 -1.2975180068315517e-05 1.9500509550501582e-06 0 -9.6511434581656937e-06 2.958097181912874e-06 0 -7.8063390061455122e-06 -3.0053175354049211e-07 0 -6.2299584224625899e-06 6.421345702433045e-07 0 -9.6511434581656937e-06 2.958097181912874e-06 0 -7.8063390061455122e-06 -3.0053175354049211e-07 0 -1.2975180068315517e-05 1.9500509550501582e-06 0 -9.6511434581656937e-06 2.958097181912874e-06 0 -3.7713751262391193e-06 -8.2593514453379784e-07 0 -7.8063390061455122e-06 -3.0053175354049211e-07 0 -6.2299584224625899e-06 6.421345702433045e-07 0 -9.6511434581656937e-06 2.958097181912874e-06 0 -1.4406179004117631e-05 7.9055306774481145e-06 0 -8.9612159618263158e-06 7.1669496596935368e-06 0 -1.6897174270217446e-05 5.6696675775827762e-06 0 -9.6511434581656937e-06 2.958097181912874e-06 0 -1.4406179004117631e-05 7.9055306774481145e-06 0 -1.4406179004117631e-05 7.9055306774481145e-06 0 -8.9612159618263158e-06 7.1669496596935368e-06 0 -1.2921221380659046e-05 1.2639233858580067e-05 0 -8.9612159618263158e-06 7.1669496596935368e-06 0 -3.7821238798302762e-06 4.1108386739929713e-06 0 -3.9549852224984266e-06 1.0407046272322249e-05 0 -3.7821238798302762e-06 4.1108386739929713e-06 0 4.9019121157796718e-07 5.5579483620088698e-06 0 -3.9549852224984266e-06 1.0407046272322249e-05 0 -3.7821238798302762e-06 4.1108386739929713e-06 0 -4.3464646573185573e-08 2.0184174914059033e-06 0 4.9019121157796718e-07 5.5579483620088698e-06 0 -9.6511434581656937e-06 2.958097181912874e-06 0 -8.9612159618263158e-06 7.1669496596935368e-06 0 -3.7821238798302762e-06 4.1108386739929713e-06 0 -9.6511434581656937e-06 2.958097181912874e-06 0 -3.7821238798302762e-06 4.1108386739929713e-06 0 -3.5737084509215491e-06 1.3173444764248284e-06 0 -6.2299584224625899e-06 6.421345702433045e-07 0 -9.6511434581656937e-06 2.958097181912874e-06 0 -3.5737084509215491e-06 1.3173444764248284e-06 0 -3.7713751262391193e-06 -8.2593514453379784e-07 0 -6.2299584224625899e-06 6.421345702433045e-07 0 -3.5737084509215491e-06 1.3173444764248284e-06 0 -3.7713751262391193e-06 -8.2593514453379784e-07 0 -3.5737084509215491e-06 1.3173444764248284e-06 0 -5.554940967178963e-07 -2.1470377001457045e-07 0 -3.5737084509215491e-06 1.3173444764248284e-06 0 -5.554940967178963e-07 -2.1470377001457045e-07 0 -4.3464646573185573e-08 2.0184174914059033e-06 0 -3.7821238798302762e-06 4.1108386739929713e-06 0 -3.5737084509215491e-06 1.3173444764248284e-06 0 -4.3464646573185573e-08 2.0184174914059033e-06 0 -5.554940967178963e-07 -2.1470377001457045e-07 0 -4.3464646573185573e-08 2.0184174914059033e-06 0 2.5248447829807163e-06 5.4821266962526649e-07 0 -4.3464646573185573e-08 2.0184174914059033e-06 0 2.5248447829807163e-06 5.4821266962526649e-07 0 3.7409692187551767e-06 3.28682680430691e-06 0 1.5337042589830122e-06 -1.2367135030028093e-06 0 -5.554940967178963e-07 -2.1470377001457045e-07 0 2.5248447829807163e-06 5.4821266962526649e-07 0 2.5248447829807163e-06 5.4821266962526649e-07 0 4.1133943895428407e-06 -5.9389225504872154e-08 0 5.5841434878393448e-06 1.531864576228561e-06 0 1.5337042589830122e-06 -1.2367135030028093e-06 0 2.5248447829807163e-06 5.4821266962526649e-07 0 4.1133943895428407e-06 -5.9389225504872154e-08 0 2.5248447829807163e-06 5.4821266962526649e-07 0 3.7409692187551767e-06 3.28682680430691e-06 0 5.5841434878393448e-06 1.531864576228561e-06 0 3.7409692187551767e-06 3.28682680430691e-06 0 5.5841434878393448e-06 1.531864576228561e-06 0 8.0726136603015069e-06 4.5345859661078517e-06 0 -4.3464646573185573e-08 2.0184174914059033e-06 0 3.7409692187551767e-06 3.28682680430691e-06 0 4.9019121157796718e-07 5.5579483620088698e-06 0 3.7409692187551767e-06 3.28682680430691e-06 0 4.9019121157796718e-07 5.5579483620088698e-06 0 4.6727477783006938e-06 7.7278412515586883e-06 0 3.7409692187551767e-06 3.28682680430691e-06 0 4.6727477783006938e-06 7.7278412515586883e-06 0 8.0726136603015069e-06 4.5345859661078517e-06 0 4.6727477783006938e-06 7.7278412515586883e-06 0 8.0231800757022246e-06 1.1853117881225397e-05 0 1.0940834729944935e-05 8.2005752333820332e-06 0 4.6727477783006938e-06 7.7278412515586883e-06 0 8.0726136603015069e-06 4.5345859661078517e-06 0 1.0940834729944935e-05 8.2005752333820332e-06 0 4.6727477783006938e-06 7.7278412515586883e-06 0 2.0295665900193282e-06 1.3644884307583713e-05 0 -3.9549852224984266e-06 1.0407046272322249e-05 0 4.9019121157796718e-07 5.5579483620088698e-06 0 4.6727477783006938e-06 7.7278412515586883e-06 0 -3.9549852224984266e-06 1.0407046272322249e-05 0 4.6727477783006938e-06 7.7278412515586883e-06 0 2.0295665900193282e-06 1.3644884307583713e-05 0 8.0231800757022246e-06 1.1853117881225397e-05 0 8.0231800757022246e-06 1.1853117881225397e-05 0 5.8620989653300969e-06 1.9696747692829131e-05 0 1.4063139411175843e-05 1.3634767765187626e-05 0 5.8620989653300969e-06 1.9696747692829131e-05 0 1.4063139411175843e-05 1.3634767765187626e-05 0 1.2987081800824591e-05 2.7422762323145079e-05 0 5.8620989653300969e-06 1.9696747692829131e-05 0 5.6455526465354504e-06 3.0605717377832921e-05 0 1.2987081800824591e-05 2.7422762323145079e-05 0 5.8620989653300969e-06 1.9696747692829131e-05 0 -2.4113216764405816e-06 3.2825198058432053e-05 0 5.6455526465354504e-06 3.0605717377832921e-05 0 2.0295665900193282e-06 1.3644884307583713e-05 0 5.8620989653300969e-06 1.9696747692829131e-05 0 -5.2183179390670287e-06 2.1204791623340371e-05 0 2.0295665900193282e-06 1.3644884307583713e-05 0 8.0231800757022246e-06 1.1853117881225397e-05 0 5.8620989653300969e-06 1.9696747692829131e-05 0 5.8620989653300969e-06 1.9696747692829131e-05 0 -5.2183179390670287e-06 2.1204791623340371e-05 0 -2.4113216764405816e-06 3.2825198058432053e-05 0 -5.2183179390670287e-06 2.1204791623340371e-05 0 -1.3549279869316522e-05 3.3951395300446613e-05 0 -2.4113216764405816e-06 3.2825198058432053e-05 0 -5.2183179390670287e-06 2.1204791623340371e-05 0 -1.1938256599181078e-05 1.9327027453450263e-05 0 -1.3549279869316522e-05 3.3951395300446613e-05 0 -5.2183179390670287e-06 2.1204791623340371e-05 0 -3.9549852224984266e-06 1.0407046272322249e-05 0 -1.1938256599181078e-05 1.9327027453450263e-05 0 -3.9549852224984266e-06 1.0407046272322249e-05 0 -1.2921221380659046e-05 1.2639233858580067e-05 0 -1.1938256599181078e-05 1.9327027453450263e-05 0 2.0295665900193282e-06 1.3644884307583713e-05 0 -5.2183179390670287e-06 2.1204791623340371e-05 0 -3.9549852224984266e-06 1.0407046272322249e-05 0 -8.9612159618263158e-06 7.1669496596935368e-06 0 -3.9549852224984266e-06 1.0407046272322249e-05 0 -1.2921221380659046e-05 1.2639233858580067e-05 0 -1.4406179004117631e-05 7.9055306774481145e-06 0 -1.2921221380659046e-05 1.2639233858580067e-05 0 -2.070685395102792e-05 1.3879999794806854e-05 0 -1.2921221380659046e-05 1.2639233858580067e-05 0 -1.9269053117606387e-05 2.0111761341739952e-05 0 -2.070685395102792e-05 1.3879999794806854e-05 0 -1.2921221380659046e-05 1.2639233858580067e-05 0 -1.9269053117606387e-05 2.0111761341739952e-05 0 -1.1938256599181078e-05 1.9327027453450263e-05 0 -1.9269053117606387e-05 2.0111761341739952e-05 0 -1.1938256599181078e-05 1.9327027453450263e-05 0 -2.0248299727680683e-05 2.827334449942949e-05 0 -1.1938256599181078e-05 1.9327027453450263e-05 0 -2.0248299727680683e-05 2.827334449942949e-05 0 -1.3549279869316522e-05 3.3951395300446613e-05 0 -2.0248299727680683e-05 2.827334449942949e-05 0 -2.8745858406607711e-05 2.887180355743686e-05 0 -2.8688283985534436e-05 4.162527790935135e-05 0 -2.0248299727680683e-05 2.827334449942949e-05 0 -2.8688283985534436e-05 4.162527790935135e-05 0 -1.3549279869316522e-05 3.3951395300446613e-05 0 -1.9269053117606387e-05 2.0111761341739952e-05 0 -2.0248299727680683e-05 2.827334449942949e-05 0 -2.8745858406607711e-05 2.887180355743686e-05 0 -1.9269053117606387e-05 2.0111761341739952e-05 0 -2.8745858406607711e-05 2.887180355743686e-05 0 -2.7105174592339046e-05 2.0481672570159972e-05 0 -2.8745858406607711e-05 2.887180355743686e-05 0 -4.2259464323930423e-05 3.786265754436232e-05 0 -2.8688283985534436e-05 4.162527790935135e-05 0 -2.8745858406607711e-05 2.887180355743686e-05 0 -3.6474214456214861e-05 2.5780001536900412e-05 0 -4.2259464323930423e-05 3.786265754436232e-05 0 -2.8745858406607711e-05 2.887180355743686e-05 0 -3.6474214456214861e-05 2.5780001536900412e-05 0 -2.7105174592339046e-05 2.0481672570159972e-05 0 -3.6474214456214861e-05 2.5780001536900412e-05 0 -2.7105174592339046e-05 2.0481672570159972e-05 0 -3.0248989253787803e-05 1.6342781758443089e-05 0 -2.7105174592339046e-05 2.0481672570159972e-05 0 -2.070685395102792e-05 1.3879999794806854e-05 0 -3.0248989253787803e-05 1.6342781758443089e-05 0 -1.9269053117606387e-05 2.0111761341739952e-05 0 -2.7105174592339046e-05 2.0481672570159972e-05 0 -2.070685395102792e-05 1.3879999794806854e-05 0 -2.1046988981902291e-05 9.8017848834088478e-06 0 -2.070685395102792e-05 1.3879999794806854e-05 0 -3.0248989253787803e-05 1.6342781758443089e-05 0 9.8797700251346535e-06 2.0397713778076143e-06 0 9.810514999654412e-06 2.214270626879341e-06 0 1.1049849119542212e-05 2.9314813807123903e-06 0 9.810514999654412e-06 2.214270626879341e-06 0 1.1049849119542212e-05 2.9314813807123903e-06 0 1.1624389617439273e-05 3.7576293732014896e-06 0 1.1049849119542212e-05 2.9314813807123903e-06 0 1.1624389617439273e-05 3.7576293732014896e-06 0 1.2839319695255557e-05 4.4182306841343896e-06 0 9.8797700251346535e-06 2.0397713778076143e-06 0 1.1049849119542212e-05 2.9314813807123903e-06 0 1.0572323171110144e-05 1.9703309423866771e-06 0 1.0572323171110144e-05 1.9703309423866771e-06 0 9.0055939171151606e-06 1.2164639355130831e-06 0 9.4772007730126181e-06 4.1862191438469778e-07 0 9.8797700251346535e-06 2.0397713778076143e-06 0 1.0572323171110144e-05 1.9703309423866771e-06 0 9.0055939171151606e-06 1.2164639355130831e-06 0 8.3638179674222713e-06 1.6193546370008656e-07 0 9.0055939171151606e-06 1.2164639355130831e-06 0 9.4772007730126181e-06 4.1862191438469778e-07 0 9.8797700251346535e-06 2.0397713778076143e-06 0 9.0055939171151606e-06 1.2164639355130831e-06 0 8.6325420598232306e-06 1.4928178946785211e-06 0 9.0055939171151606e-06 1.2164639355130831e-06 0 7.5682568027235167e-06 1.0221340128363526e-06 0 8.6325420598232306e-06 1.4928178946785211e-06 0 7.5174439670515887e-06 5.4290151273767443e-07 0 9.0055939171151606e-06 1.2164639355130831e-06 0 7.5682568027235167e-06 1.0221340128363526e-06 0 6.2788887343423548e-06 1.0147693817823126e-06 0 7.5682568027235167e-06 1.0221340128363526e-06 0 7.2552885569168693e-06 1.0399536255272723e-06 0 7.5682568027235167e-06 1.0221340128363526e-06 0 7.2552885569168693e-06 1.0399536255272723e-06 0 8.6325420598232306e-06 1.4928178946785211e-06 0 7.2552885569168693e-06 1.0399536255272723e-06 0 8.6325420598232306e-06 1.4928178946785211e-06 0 8.0160382554690398e-06 1.1451780673558631e-06 0 9.8797700251346535e-06 2.0397713778076143e-06 0 9.810514999654412e-06 2.214270626879341e-06 0 8.6325420598232306e-06 1.4928178946785211e-06 0 9.810514999654412e-06 2.214270626879341e-06 0 8.6325420598232306e-06 1.4928178946785211e-06 0 8.0160382554690398e-06 1.1451780673558631e-06 0 9.810514999654412e-06 2.214270626879341e-06 0 8.0160382554690398e-06 1.1451780673558631e-06 0 8.140682098789394e-06 1.2438037702385213e-06 0 7.160594565192463e-06 6.5694796476496916e-07 0 8.0160382554690398e-06 1.1451780673558631e-06 0 8.140682098789394e-06 1.2438037702385213e-06 0 5.7010008114880864e-06 -2.3045586609388632e-07 0 8.140682098789394e-06 1.2438037702385213e-06 0 6.2209500703691045e-06 4.7711852866902657e-07 0 8.140682098789394e-06 1.2438037702385213e-06 0 8.3173782918133544e-06 2.3033509179618389e-06 0 9.8553071255823782e-06 2.6677657263052356e-06 0 8.140682098789394e-06 1.2438037702385213e-06 0 6.2209500703691045e-06 4.7711852866902657e-07 0 8.3173782918133544e-06 2.3033509179618389e-06 0 9.810514999654412e-06 2.214270626879341e-06 0 8.140682098789394e-06 1.2438037702385213e-06 0 9.8553071255823782e-06 2.6677657263052356e-06 0 4.1133943895428407e-06 -5.9389225504872154e-08 0 6.2209500703691045e-06 4.7711852866902657e-07 0 5.5841434878393448e-06 1.531864576228561e-06 0 6.2209500703691045e-06 4.7711852866902657e-07 0 5.5841434878393448e-06 1.531864576228561e-06 0 8.3173782918133544e-06 2.3033509179618389e-06 0 5.5841434878393448e-06 1.531864576228561e-06 0 8.3173782918133544e-06 2.3033509179618389e-06 0 8.0726136603015069e-06 4.5345859661078517e-06 0 8.3173782918133544e-06 2.3033509179618389e-06 0 1.1363831503257605e-05 4.792093805795251e-06 0 8.0726136603015069e-06 4.5345859661078517e-06 0 1.1363831503257605e-05 4.792093805795251e-06 0 8.0726136603015069e-06 4.5345859661078517e-06 0 1.0940834729944935e-05 8.2005752333820332e-06 0 9.810514999654412e-06 2.214270626879341e-06 0 9.8553071255823782e-06 2.6677657263052356e-06 0 1.1624389617439273e-05 3.7576293732014896e-06 0 8.3173782918133544e-06 2.3033509179618389e-06 0 1.1363831503257605e-05 4.792093805795251e-06 0 9.8553071255823782e-06 2.6677657263052356e-06 0 1.1363831503257605e-05 4.792093805795251e-06 0 9.8553071255823782e-06 2.6677657263052356e-06 0 1.1624389617439273e-05 3.7576293732014896e-06 0 1.1363831503257605e-05 4.792093805795251e-06 0 1.1624389617439273e-05 3.7576293732014896e-06 0 1.358366850472628e-05 5.8308069682734536e-06 0 1.1624389617439273e-05 3.7576293732014896e-06 0 1.358366850472628e-05 5.8308069682734536e-06 0 1.2839319695255557e-05 4.4182306841343896e-06 0 1.1363831503257605e-05 4.792093805795251e-06 0 1.358366850472628e-05 5.8308069682734536e-06 0 1.6034130761184106e-05 9.0672821650850811e-06 0 1.358366850472628e-05 5.8308069682734536e-06 0 1.6034130761184106e-05 9.0672821650850811e-06 0 1.5272874230531499e-05 6.5211546649734943e-06 0 1.5272874230531499e-05 6.5211546649734943e-06 0 1.3327303759695334e-05 3.9120898055452008e-06 0 1.2839319695255557e-05 4.4182306841343896e-06 0 1.358366850472628e-05 5.8308069682734536e-06 0 1.5272874230531499e-05 6.5211546649734943e-06 0 1.2839319695255557e-05 4.4182306841343896e-06 0 1.1363831503257605e-05 4.792093805795251e-06 0 1.0940834729944935e-05 8.2005752333820332e-06 0 1.6034130761184106e-05 9.0672821650850811e-06 0 1.0940834729944935e-05 8.2005752333820332e-06 0 1.6034130761184106e-05 9.0672821650850811e-06 0 1.4063139411175843e-05 1.3634767765187626e-05 0 8.0231800757022246e-06 1.1853117881225397e-05 0 1.0940834729944935e-05 8.2005752333820332e-06 0 1.4063139411175843e-05 1.3634767765187626e-05 0 1.6034130761184106e-05 9.0672821650850811e-06 0 1.4063139411175843e-05 1.3634767765187626e-05 0 2.4097709089874213e-05 1.5021473597008109e-05 0 1.4063139411175843e-05 1.3634767765187626e-05 0 2.4097709089874213e-05 1.5021473597008109e-05 0 1.2987081800824591e-05 2.7422762323145079e-05 0 1.6034130761184106e-05 9.0672821650850811e-06 0 1.7656505329122569e-05 8.9080407152619065e-06 0 2.4097709089874213e-05 1.5021473597008109e-05 0 1.5272874230531499e-05 6.5211546649734943e-06 0 1.7656505329122569e-05 8.9080407152619065e-06 0 1.4291781730985207e-05 3.9552363943211046e-06 0 1.5272874230531499e-05 6.5211546649734943e-06 0 1.4291781730985207e-05 3.9552363943211046e-06 0 1.3327303759695334e-05 3.9120898055452008e-06 0 1.6034130761184106e-05 9.0672821650850811e-06 0 1.5272874230531499e-05 6.5211546649734943e-06 0 1.7656505329122569e-05 8.9080407152619065e-06 0 1.7656505329122569e-05 8.9080407152619065e-06 0 1.4291781730985207e-05 3.9552363943211046e-06 0 1.5280049433270949e-05 1.3593900033412671e-06 0 1.4291781730985207e-05 3.9552363943211046e-06 0 1.3476140610958948e-05 -2.3543439507969013e-06 0 1.5280049433270949e-05 1.3593900033412671e-06 0 1.4291781730985207e-05 3.9552363943211046e-06 0 1.2106627937892966e-05 8.0212492713650118e-07 0 1.3476140610958948e-05 -2.3543439507969013e-06 0 1.4291781730985207e-05 3.9552363943211046e-06 0 1.2106627937892966e-05 8.0212492713650118e-07 0 1.3327303759695334e-05 3.9120898055452008e-06 0 1.3327303759695334e-05 3.9120898055452008e-06 0 1.1917476766675479e-05 2.9122482185854921e-06 0 1.2839319695255557e-05 4.4182306841343896e-06 0 1.2106627937892966e-05 8.0212492713650118e-07 0 1.3327303759695334e-05 3.9120898055452008e-06 0 1.1917476766675479e-05 2.9122482185854921e-06 0 1.2106627937892966e-05 8.0212492713650118e-07 0 1.1917476766675479e-05 2.9122482185854921e-06 0 1.0753928266709559e-05 5.862043836708698e-07 0 1.0572323171110144e-05 1.9703309423866771e-06 0 1.1917476766675479e-05 2.9122482185854921e-06 0 1.0753928266709559e-05 5.862043836708698e-07 0 1.1049849119542212e-05 2.9314813807123903e-06 0 1.0572323171110144e-05 1.9703309423866771e-06 0 1.1917476766675479e-05 2.9122482185854921e-06 0 1.1049849119542212e-05 2.9314813807123903e-06 0 1.1917476766675479e-05 2.9122482185854921e-06 0 1.2839319695255557e-05 4.4182306841343896e-06 0 1.0572323171110144e-05 1.9703309423866771e-06 0 9.4772007730126181e-06 4.1862191438469778e-07 0 1.0753928266709559e-05 5.862043836708698e-07 0 9.3121731173957628e-06 -1.7187396421206228e-06 0 9.4772007730126181e-06 4.1862191438469778e-07 0 1.0753928266709559e-05 5.862043836708698e-07 0 1.2106627937892966e-05 8.0212492713650118e-07 0 1.0501450219713219e-05 -2.3859691139556194e-06 0 1.1989240083654713e-05 -5.9325622523535622e-06 0 9.3121731173957628e-06 -1.7187396421206228e-06 0 9.4833654471574874e-06 -4.6117277766670793e-06 0 1.0501450219713219e-05 -2.3859691139556194e-06 0 9.3121731173957628e-06 -1.7187396421206228e-06 0 1.0753928266709559e-05 5.862043836708698e-07 0 1.0501450219713219e-05 -2.3859691139556194e-06 0 1.2106627937892966e-05 8.0212492713650118e-07 0 1.0753928266709559e-05 5.862043836708698e-07 0 1.0501450219713219e-05 -2.3859691139556194e-06 0 9.4833654471574874e-06 -4.6117277766670793e-06 0 1.0501450219713219e-05 -2.3859691139556194e-06 0 1.0600546205829681e-05 -7.089958340367104e-06 0 1.0501450219713219e-05 -2.3859691139556194e-06 0 1.1989240083654713e-05 -5.9325622523535622e-06 0 1.0600546205829681e-05 -7.089958340367104e-06 0 1.1989240083654713e-05 -5.9325622523535622e-06 0 1.0600546205829681e-05 -7.089958340367104e-06 0 1.2887175292172959e-05 -1.0181361139109123e-05 0 1.1989240083654713e-05 -5.9325622523535622e-06 0 1.2887175292172959e-05 -1.0181361139109123e-05 0 1.4474249564983703e-05 -9.860944362362429e-06 0 1.0600546205829681e-05 -7.089958340367104e-06 0 1.1356831647825693e-05 -1.0555666373308779e-05 0 1.2887175292172959e-05 -1.0181361139109123e-05 0 1.1356831647825693e-05 -1.0555666373308779e-05 0 1.2887175292172959e-05 -1.0181361139109123e-05 0 1.450804001237483e-05 -1.4358501184595792e-05 0 1.2887175292172959e-05 -1.0181361139109123e-05 0 1.450804001237483e-05 -1.4358501184595792e-05 0 1.4474249564983703e-05 -9.860944362362429e-06 0 1.1356831647825693e-05 -1.0555666373308779e-05 0 1.450804001237483e-05 -1.4358501184595792e-05 0 1.2023567028630136e-05 -1.3561138435932456e-05 0 1.8764934388423238e-05 -1.3050890078532033e-05 0 2.1040854775329797e-05 -1.7051511514453881e-05 0 1.8046996586250227e-05 -1.5907941330262028e-05 0 1.4474249564983703e-05 -9.860944362362429e-06 0 1.8764934388423238e-05 -1.3050890078532033e-05 0 1.8046996586250227e-05 -1.5907941330262028e-05 0 1.450804001237483e-05 -1.4358501184595792e-05 0 1.4474249564983703e-05 -9.860944362362429e-06 0 1.8046996586250227e-05 -1.5907941330262028e-05 0 1.4474249564983703e-05 -9.860944362362429e-06 0 1.6024471884149124e-05 -5.601969757161958e-06 0 1.8764934388423238e-05 -1.3050890078532033e-05 0 1.2106627937892966e-05 8.0212492713650118e-07 0 1.1989240083654713e-05 -5.9325622523535622e-06 0 1.3476140610958948e-05 -2.3543439507969013e-06 0 1.4474249564983703e-05 -9.860944362362429e-06 0 1.3476140610958948e-05 -2.3543439507969013e-06 0 1.6024471884149124e-05 -5.601969757161958e-06 0 1.1989240083654713e-05 -5.9325622523535622e-06 0 1.4474249564983703e-05 -9.860944362362429e-06 0 1.3476140610958948e-05 -2.3543439507969013e-06 0 1.3476140610958948e-05 -2.3543439507969013e-06 0 1.5280049433270949e-05 1.3593900033412671e-06 0 1.6024471884149124e-05 -5.601969757161958e-06 0 1.7656505329122569e-05 8.9080407152619065e-06 0 1.5280049433270949e-05 1.3593900033412671e-06 0 1.8111331278832291e-05 1.3429183863188068e-06 0 1.5280049433270949e-05 1.3593900033412671e-06 0 1.8111331278832291e-05 1.3429183863188068e-06 0 1.6024471884149124e-05 -5.601969757161958e-06 0 1.7656505329122569e-05 8.9080407152619065e-06 0 1.8111331278832291e-05 1.3429183863188068e-06 0 2.4097709089874213e-05 1.5021473597008109e-05 0 1.8111331278832291e-05 1.3429183863188068e-06 0 2.6377433517811295e-05 -5.3234339924809769e-06 0 2.1217961276295401e-05 -1.0075099283974565e-05 0 1.8111331278832291e-05 1.3429183863188068e-06 0 1.6024471884149124e-05 -5.601969757161958e-06 0 2.1217961276295401e-05 -1.0075099283974565e-05 0 2.4097709089874213e-05 1.5021473597008109e-05 0 1.9155226204826004e-05 4.6732318388616489e-05 0 1.2987081800824591e-05 2.7422762323145079e-05 0 1.8111331278832291e-05 1.3429183863188068e-06 0 2.4097709089874213e-05 1.5021473597008109e-05 0 2.6377433517811295e-05 -5.3234339924809769e-06 0 8.9347643486143727e-06 1.1996957761130435e-05 0 3.5000467187103481e-05 2.170328756489926e-05 0 2.4097709089874213e-05 1.5021473597008109e-05 0 3.479958613396074e-05 4.5371521731423367e-05 0 1.9155226204826004e-05 4.6732318388616489e-05 0 1.9155226204826004e-05 4.6732318388616489e-05 0 3.974330690271448e-05 6.6444883943731975e-05 0 1.8328880101971276e-05 6.4517838186357038e-05 0 3.5000467187103481e-05 2.170328756489926e-05 0 3.2008781957214985e-05 2.6641050107718147e-05 0 2.6377433517811295e-05 -5.3234339924809769e-06 0 2.6401830872187001e-05 -1.2660053853068202e-05 0 2.1217961276295401e-05 -1.0075099283974565e-05 0 3.479958613396074e-05 4.5371521731423367e-05 0 1.9155226204826004e-05 4.6732318388616489e-05 0 3.974330690271448e-05 6.6444883943731975e-05 0 3.2008781957214985e-05 2.6641050107718147e-05 0 3.5315187722435744e-05 3.4497110702245912e-05 0 2.6401830872187001e-05 -1.2660053853068202e-05 0 2.3479566715096193e-05 -1.5716686993578998e-05 0 2.6592234206195516e-05 -1.657081468699467e-05 0 3.974330690271448e-05 6.6444883943731975e-05 0 3.0044019563935042e-05 7.8986616799892241e-05 0 1.8328880101971276e-05 6.4517838186357038e-05 0 1.6024471884149124e-05 -5.601969757161958e-06 0 2.1217961276295401e-05 -1.0075099283974565e-05 0 1.8764934388423238e-05 -1.3050890078532033e-05 0 2.6401830872187001e-05 -1.2660053853068202e-05 0 2.1217961276295401e-05 -1.0075099283974565e-05 0 2.3479566715096193e-05 -1.5716686993578998e-05 0 2.1217961276295401e-05 -1.0075099283974565e-05 0 2.3479566715096193e-05 -1.5716686993578998e-05 0 1.8764934388423238e-05 -1.3050890078532033e-05 0 2.3479566715096193e-05 -1.5716686993578998e-05 0 1.8764934388423238e-05 -1.3050890078532033e-05 0 2.1040854775329797e-05 -1.7051511514453881e-05 0 2.3479566715096193e-05 -1.5716686993578998e-05 0 2.1040854775329797e-05 -1.7051511514453881e-05 0 2.4346213472000117e-05 -1.9228663699290367e-05 0 2.3479566715096193e-05 -1.5716686993578998e-05 0 2.4346213472000117e-05 -1.9228663699290367e-05 0 2.6592234206195516e-05 -1.657081468699467e-05 0 2.4346213472000117e-05 -1.9228663699290367e-05 0 2.6592234206195516e-05 -1.657081468699467e-05 0 2.7404378354063439e-05 -1.8859320884135717e-05 0 2.1040854775329797e-05 -1.7051511514453881e-05 0 2.4346213472000117e-05 -1.9228663699290367e-05 0 2.1337558570075693e-05 -1.9354836723119486e-05 0 3.0044019563935042e-05 7.8986616799892241e-05 0 3.2972477237722589e-05 9.1146715284736753e-05 0 1.7832809012585288e-05 8.474913418629616e-05 0 3.0044019563935042e-05 7.8986616799892241e-05 0 4.3475610445133298e-05 8.5155120718814441e-05 0 3.2972477237722589e-05 9.1146715284736753e-05 0 3.974330690271448e-05 6.6444883943731975e-05 0 3.0044019563935042e-05 7.8986616799892241e-05 0 4.3475610445133298e-05 8.5155120718814441e-05 0 3.5315187722435744e-05 3.4497110702245912e-05 0 3.6845199328199112e-05 4.2336191953480186e-05 0 4.3475610445133298e-05 8.5155120718814441e-05 0 3.2972477237722589e-05 9.1146715284736753e-05 0 4.6550855083651299e-05 0.00010362950687790265 0 3.2972477237722589e-05 9.1146715284736753e-05 0 4.6550855083651299e-05 0.00010362950687790265 0 2.7166016375106631e-05 0.00010167617483927692 0 4.6550855083651299e-05 0.00010362950687790265 0 3.3626092168458927e-05 0.00011408937973351713 0 2.7166016375106631e-05 0.00010167617483927692 0 4.6550855083651299e-05 0.00010362950687790265 0 4.9369314343970268e-05 0.00012192436156622617 0 3.3626092168458927e-05 0.00011408937973351713 0 2.7404378354063439e-05 -1.8859320884135717e-05 0 2.8526481221758643e-05 -2.0303812713618885e-05 0 2.6447727641779864e-05 -2.1008053753111547e-05 0 3.6845199328199112e-05 4.2336191953480186e-05 0 3.8842904470401216e-05 5.0771897715709135e-05 0 4.9369314343970268e-05 0.00012192436156622617 0 3.3626092168458927e-05 0.00011408937973351713 0 3.0604440093397577e-05 0.00012685244378984428 0 2.4346213472000117e-05 -1.9228663699290367e-05 0 2.3920202573677228e-05 -2.129361970870599e-05 0 2.6447727641779864e-05 -2.1008053753111547e-05 0 2.4346213472000117e-05 -1.9228663699290367e-05 0 2.3920202573677228e-05 -2.129361970870599e-05 0 2.1337558570075693e-05 -1.9354836723119486e-05 0 2.4346213472000117e-05 -1.9228663699290367e-05 0 2.7404378354063439e-05 -1.8859320884135717e-05 0 2.6447727641779864e-05 -2.1008053753111547e-05 0 2.3920202573677228e-05 -2.129361970870599e-05 0 2.6447727641779864e-05 -2.1008053753111547e-05 0 2.4923311656252568e-05 -2.2765357778904586e-05 0 2.6447727641779864e-05 -2.1008053753111547e-05 0 2.4923311656252568e-05 -2.2765357778904586e-05 0 2.7925494113590997e-05 -2.2586899510783964e-05 0 2.3920202573677228e-05 -2.129361970870599e-05 0 2.4923311656252568e-05 -2.2765357778904586e-05 0 2.0891732443794764e-05 -2.1458908211233792e-05 0 2.4923311656252568e-05 -2.2765357778904586e-05 0 2.0891732443794764e-05 -2.1458908211233792e-05 0 2.3690625681524825e-05 -2.3801080291955618e-05 0 2.3920202573677228e-05 -2.129361970870599e-05 0 2.0891732443794764e-05 -2.1458908211233792e-05 0 2.1337558570075693e-05 -1.9354836723119486e-05 0 2.0891732443794764e-05 -2.1458908211233792e-05 0 1.6473512428629592e-05 -1.84017172277177e-05 0 1.8669054861610077e-05 -1.8800229662964396e-05 0 2.0891732443794764e-05 -2.1458908211233792e-05 0 2.1337558570075693e-05 -1.9354836723119486e-05 0 1.8669054861610077e-05 -1.8800229662964396e-05 0 2.0891732443794764e-05 -2.1458908211233792e-05 0 1.7400446904539447e-05 -2.0633967254942564e-05 0 2.0605772182805589e-05 -2.3622841098028128e-05 0 1.7400446904539447e-05 -2.0633967254942564e-05 0 2.0605772182805589e-05 -2.3622841098028128e-05 0 1.65184258561985e-05 -2.1545142026832641e-05 0 1.7400446904539447e-05 -2.0633967254942564e-05 0 1.6473512428629592e-05 -1.84017172277177e-05 0 1.4644397492603593e-05 -1.8868100638446781e-05 0 2.0891732443794764e-05 -2.1458908211233792e-05 0 1.7400446904539447e-05 -2.0633967254942564e-05 0 1.6473512428629592e-05 -1.84017172277177e-05 0 1.450804001237483e-05 -1.4358501184595792e-05 0 1.6473512428629592e-05 -1.84017172277177e-05 0 1.8669054861610077e-05 -1.8800229662964396e-05 0 1.6473512428629592e-05 -1.84017172277177e-05 0 1.3956924214864031e-05 -1.6412647050334558e-05 0 1.4644397492603593e-05 -1.8868100638446781e-05 0 1.450804001237483e-05 -1.4358501184595792e-05 0 1.6473512428629592e-05 -1.84017172277177e-05 0 1.3956924214864031e-05 -1.6412647050334558e-05 0 1.450804001237483e-05 -1.4358501184595792e-05 0 1.2023567028630136e-05 -1.3561138435932456e-05 0 1.3956924214864031e-05 -1.6412647050334558e-05 0 1.450804001237483e-05 -1.4358501184595792e-05 0 1.8046996586250227e-05 -1.5907941330262028e-05 0 1.8669054861610077e-05 -1.8800229662964396e-05 0 2.1040854775329797e-05 -1.7051511514453881e-05 0 1.8046996586250227e-05 -1.5907941330262028e-05 0 2.1337558570075693e-05 -1.9354836723119486e-05 0 1.8046996586250227e-05 -1.5907941330262028e-05 0 2.1337558570075693e-05 -1.9354836723119486e-05 0 1.8669054861610077e-05 -1.8800229662964396e-05 0 -5.1317711890909649e-05 6.895566913357859e-05 0 -3.6735705549895207e-05 7.5151509967926258e-05 0 -3.7859552296784456e-05 5.8996013081911275e-05 0 -5.1317711890909649e-05 6.895566913357859e-05 0 -3.6735705549895207e-05 7.5151509967926258e-05 0 -5.420422775978303e-05 8.6761447007871912e-05 0 -3.6735705549895207e-05 7.5151509967926258e-05 0 -3.7859552296784456e-05 5.8996013081911275e-05 0 -2.6205018299405164e-05 5.9135279206655147e-05 0 -5.1317711890909649e-05 6.895566913357859e-05 0 -3.7859552296784456e-05 5.8996013081911275e-05 0 -4.7048433975930849e-05 5.2316713777897904e-05 0 -4.7048433975930849e-05 5.2316713777897904e-05 0 -4.2259464323930423e-05 3.786265754436232e-05 0 -2.8688283985534436e-05 4.162527790935135e-05 0 -3.7859552296784456e-05 5.8996013081911275e-05 0 -2.8688283985534436e-05 4.162527790935135e-05 0 -2.6205018299405164e-05 5.9135279206655147e-05 0 -3.7859552296784456e-05 5.8996013081911275e-05 0 -4.7048433975930849e-05 5.2316713777897904e-05 0 -2.8688283985534436e-05 4.162527790935135e-05 0 -2.8688283985534436e-05 4.162527790935135e-05 0 -1.7939110592018936e-05 4.8818814070332099e-05 0 -2.6205018299405164e-05 5.9135279206655147e-05 0 -2.8688283985534436e-05 4.162527790935135e-05 0 -1.3549279869316522e-05 3.3951395300446613e-05 0 -1.7939110592018936e-05 4.8818814070332099e-05 0 -1.7939110592018936e-05 4.8818814070332099e-05 0 -1.643519681392509e-05 6.0619880360938226e-05 0 -7.6100150136293583e-06 5.1203225618041899e-05 0 -1.7939110592018936e-05 4.8818814070332099e-05 0 -1.643519681392509e-05 6.0619880360938226e-05 0 -2.6205018299405164e-05 5.9135279206655147e-05 0 -1.643519681392509e-05 6.0619880360938226e-05 0 -2.6205018299405164e-05 5.9135279206655147e-05 0 -2.1711561358743827e-05 7.3810545118806444e-05 0 -3.6735705549895207e-05 7.5151509967926258e-05 0 -2.6205018299405164e-05 5.9135279206655147e-05 0 -2.1711561358743827e-05 7.3810545118806444e-05 0 -1.643519681392509e-05 6.0619880360938226e-05 0 -2.1711561358743827e-05 7.3810545118806444e-05 0 -8.5080498563841872e-06 7.1474983954418364e-05 0 -8.5080498563841872e-06 7.1474983954418364e-05 0 4.5035428981453616e-06 6.7171437680061313e-05 0 1.3657531317405368e-06 8.5423411976437717e-05 0 -8.5080498563841872e-06 7.1474983954418364e-05 0 -7.6100150136293583e-06 5.1203225618041899e-05 0 4.5035428981453616e-06 6.7171437680061313e-05 0 -7.6100150136293583e-06 5.1203225618041899e-05 0 5.9241281979615368e-06 4.5551982850762045e-05 0 4.5035428981453616e-06 6.7171437680061313e-05 0 -1.643519681392509e-05 6.0619880360938226e-05 0 -8.5080498563841872e-06 7.1474983954418364e-05 0 -7.6100150136293583e-06 5.1203225618041899e-05 0 -1.3549279869316522e-05 3.3951395300446613e-05 0 -1.7939110592018936e-05 4.8818814070332099e-05 0 -7.6100150136293583e-06 5.1203225618041899e-05 0 -1.3549279869316522e-05 3.3951395300446613e-05 0 -7.6100150136293583e-06 5.1203225618041899e-05 0 -2.4113216764405816e-06 3.2825198058432053e-05 0 -7.6100150136293583e-06 5.1203225618041899e-05 0 -2.4113216764405816e-06 3.2825198058432053e-05 0 5.9241281979615368e-06 4.5551982850762045e-05 0 -2.4113216764405816e-06 3.2825198058432053e-05 0 5.9241281979615368e-06 4.5551982850762045e-05 0 5.6455526465354504e-06 3.0605717377832921e-05 0 5.9241281979615368e-06 4.5551982850762045e-05 0 5.6455526465354504e-06 3.0605717377832921e-05 0 1.2987081800824591e-05 2.7422762323145079e-05 0 1.9155226204826004e-05 4.6732318388616489e-05 0 5.9241281979615368e-06 4.5551982850762045e-05 0 1.2987081800824591e-05 2.7422762323145079e-05 0 1.9155226204826004e-05 4.6732318388616489e-05 0 5.9241281979615368e-06 4.5551982850762045e-05 0 1.8328880101971276e-05 6.4517838186357038e-05 0 5.9241281979615368e-06 4.5551982850762045e-05 0 4.5035428981453616e-06 6.7171437680061313e-05 0 1.8328880101971276e-05 6.4517838186357038e-05 0 4.5035428981453616e-06 6.7171437680061313e-05 0 1.8328880101971276e-05 6.4517838186357038e-05 0 1.7832809012585288e-05 8.474913418629616e-05 0 3.0044019563935042e-05 7.8986616799892241e-05 0 1.8328880101971276e-05 6.4517838186357038e-05 0 1.7832809012585288e-05 8.474913418629616e-05 0 4.5035428981453616e-06 6.7171437680061313e-05 0 1.7832809012585288e-05 8.474913418629616e-05 0 1.3657531317405368e-06 8.5423411976437717e-05 0 1.7832809012585288e-05 8.474913418629616e-05 0 1.1518080398166544e-05 9.7219702030609527e-05 0 1.3657531317405368e-06 8.5423411976437717e-05 0 1.7832809012585288e-05 8.474913418629616e-05 0 1.1518080398166544e-05 9.7219702030609527e-05 0 2.7166016375106631e-05 0.00010167617483927692 0 3.2972477237722589e-05 9.1146715284736753e-05 0 1.7832809012585288e-05 8.474913418629616e-05 0 2.7166016375106631e-05 0.00010167617483927692 0 3.3626092168458927e-05 0.00011408937973351713 0 2.7166016375106631e-05 0.00010167617483927692 0 1.4726288665908706e-05 0.00011448220534527094 0 3.3626092168458927e-05 0.00011408937973351713 0 1.4726288665908706e-05 0.00011448220534527094 0 3.0604440093397577e-05 0.00012685244378984428 0 1.1518080398166544e-05 9.7219702030609527e-05 0 2.7166016375106631e-05 0.00010167617483927692 0 1.4726288665908706e-05 0.00011448220534527094 0 1.1518080398166544e-05 9.7219702030609527e-05 0 1.4726288665908706e-05 0.00011448220534527094 0 -3.1209437127245954e-06 9.9572191033087584e-05 0 1.4726288665908706e-05 0.00011448220534527094 0 -5.1914776937512763e-06 0.00011584051330139941 0 -3.1209437127245954e-06 9.9572191033087584e-05 0 1.4726288665908706e-05 0.00011448220534527094 0 -5.1914776937512763e-06 0.00011584051330139941 0 -3.0970190647392876e-07 0.00013147716896185133 0 -5.1914776937512763e-06 0.00011584051330139941 0 -3.1209437127245954e-06 9.9572191033087584e-05 0 -1.8747378261594385e-05 0.00011434850180896094 0 -3.1209437127245954e-06 9.9572191033087584e-05 0 -1.4805248550340794e-05 9.0777790658004063e-05 0 -1.8747378261594385e-05 0.00011434850180896094 0 -3.1209437127245954e-06 9.9572191033087584e-05 0 1.3657531317405368e-06 8.5423411976437717e-05 0 -1.4805248550340794e-05 9.0777790658004063e-05 0 1.1518080398166544e-05 9.7219702030609527e-05 0 -3.1209437127245954e-06 9.9572191033087584e-05 0 1.3657531317405368e-06 8.5423411976437717e-05 0 -8.5080498563841872e-06 7.1474983954418364e-05 0 1.3657531317405368e-06 8.5423411976437717e-05 0 -1.4805248550340794e-05 9.0777790658004063e-05 0 -2.1711561358743827e-05 7.3810545118806444e-05 0 -8.5080498563841872e-06 7.1474983954418364e-05 0 -1.4805248550340794e-05 9.0777790658004063e-05 0 -2.1711561358743827e-05 7.3810545118806444e-05 0 -2.8146061908340648e-05 8.7569137191858312e-05 0 -1.4805248550340794e-05 9.0777790658004063e-05 0 -3.6735705549895207e-05 7.5151509967926258e-05 0 -2.1711561358743827e-05 7.3810545118806444e-05 0 -2.8146061908340648e-05 8.7569137191858312e-05 0 -2.8146061908340648e-05 8.7569137191858312e-05 0 -2.8065457835000827e-05 0.00010080807771675641 0 -4.0893088304085049e-05 9.7419611235843403e-05 0 -2.8146061908340648e-05 8.7569137191858312e-05 0 -1.4805248550340794e-05 9.0777790658004063e-05 0 -2.8065457835000827e-05 0.00010080807771675641 0 -1.4805248550340794e-05 9.0777790658004063e-05 0 -1.8747378261594385e-05 0.00011434850180896094 0 -2.8065457835000827e-05 0.00010080807771675641 0 -5.1914776937512763e-06 0.00011584051330139941 0 -1.8747378261594385e-05 0.00011434850180896094 0 -1.6465017624862103e-05 0.0001314327293241433 0 -1.8747378261594385e-05 0.00011434850180896094 0 -3.8352440368220189e-05 0.00011457270414560001 0 -2.918348961205918e-05 0.00012696200282315295 0 -1.8747378261594385e-05 0.00011434850180896094 0 -2.8065457835000827e-05 0.00010080807771675641 0 -3.8352440368220189e-05 0.00011457270414560001 0 -2.8065457835000827e-05 0.00010080807771675641 0 -3.8352440368220189e-05 0.00011457270414560001 0 -4.0893088304085049e-05 9.7419611235843403e-05 0 -3.8352440368220189e-05 0.00011457270414560001 0 -5.6227459344518669e-05 0.00010555231511529007 0 -5.7405142483661937e-05 0.0001246815407960439 0 -3.8352440368220189e-05 0.00011457270414560001 0 -5.7405142483661937e-05 0.0001246815407960439 0 -4.2326169518420237e-05 0.0001324071881498542 0 -3.8352440368220189e-05 0.00011457270414560001 0 -5.6227459344518669e-05 0.00010555231511529007 0 -4.0893088304085049e-05 9.7419611235843403e-05 0 -5.6227459344518669e-05 0.00010555231511529007 0 -4.0893088304085049e-05 9.7419611235843403e-05 0 -5.420422775978303e-05 8.6761447007871912e-05 0 -3.6735705549895207e-05 7.5151509967926258e-05 0 -2.8146061908340648e-05 8.7569137191858312e-05 0 -4.0893088304085049e-05 9.7419611235843403e-05 0 -3.6735705549895207e-05 7.5151509967926258e-05 0 -4.0893088304085049e-05 9.7419611235843403e-05 0 -5.420422775978303e-05 8.6761447007871912e-05 0 -5.8619524497615033e-05 0.00016373345567366929 0 -3.3559293828641582e-05 0.00016413188440359678 0 -4.0608595629394637e-05 0.00018305489176082717 0 -5.8619524497615033e-05 0.00016373345567366929 0 -4.4134777532093927e-05 0.00014967879783011579 0 -3.3559293828641582e-05 0.00016413188440359678 0 -4.4134777532093927e-05 0.00014967879783011579 0 -3.0266831985606251e-05 0.0001424321569527074 0 -3.3559293828641582e-05 0.00016413188440359678 0 -5.8619524497615033e-05 0.00016373345567366929 0 -4.4134777532093927e-05 0.00014967879783011579 0 -5.8176261089596679e-05 0.00014407963198223586 0 -4.4134777532093927e-05 0.00014967879783011579 0 -5.8176261089596679e-05 0.00014407963198223586 0 -4.2326169518420237e-05 0.0001324071881498542 0 -5.8176261089596679e-05 0.00014407963198223586 0 -5.7405142483661937e-05 0.0001246815407960439 0 -4.2326169518420237e-05 0.0001324071881498542 0 -3.8352440368220189e-05 0.00011457270414560001 0 -4.2326169518420237e-05 0.0001324071881498542 0 -2.918348961205918e-05 0.00012696200282315295 0 -4.4134777532093927e-05 0.00014967879783011579 0 -4.2326169518420237e-05 0.0001324071881498542 0 -3.0266831985606251e-05 0.0001424321569527074 0 -3.0266831985606251e-05 0.0001424321569527074 0 -2.918348961205918e-05 0.00012696200282315295 0 -1.6465017624862103e-05 0.0001314327293241433 0 -4.2326169518420237e-05 0.0001324071881498542 0 -3.0266831985606251e-05 0.0001424321569527074 0 -2.918348961205918e-05 0.00012696200282315295 0 -1.8747378261594385e-05 0.00011434850180896094 0 -2.918348961205918e-05 0.00012696200282315295 0 -1.6465017624862103e-05 0.0001314327293241433 0 -3.0266831985606251e-05 0.0001424321569527074 0 -1.6465017624862103e-05 0.0001314327293241433 0 -1.5796894740951552e-05 0.00014813273834092709 0 -1.5796894740951552e-05 0.00014813273834092709 0 -3.3559293828641582e-05 0.00016413188440359678 0 -1.4132206829190862e-05 0.0001656582393875756 0 -3.0266831985606251e-05 0.0001424321569527074 0 -1.5796894740951552e-05 0.00014813273834092709 0 -3.3559293828641582e-05 0.00016413188440359678 0 -3.3559293828641582e-05 0.00016413188440359678 0 -1.4132206829190862e-05 0.0001656582393875756 0 -2.1074928082285328e-05 0.0001848873400059896 0 -1.4132206829190862e-05 0.0001656582393875756 0 -1.3163645433019626e-06 0.00015412180053248973 0 9.0103512075932645e-07 0.00017525696215675123 0 -1.3163645433019626e-06 0.00015412180053248973 0 1.4802080895638363e-05 0.000161648592588287 0 9.0103512075932645e-07 0.00017525696215675123 0 -1.3163645433019626e-06 0.00015412180053248973 0 1.0418728977154669e-05 0.00014356879423016515 0 1.4802080895638363e-05 0.000161648592588287 0 -1.5796894740951552e-05 0.00014813273834092709 0 -1.4132206829190862e-05 0.0001656582393875756 0 -1.3163645433019626e-06 0.00015412180053248973 0 -1.6465017624862103e-05 0.0001314327293241433 0 -1.5796894740951552e-05 0.00014813273834092709 0 -3.0970190647392876e-07 0.00013147716896185133 0 -1.5796894740951552e-05 0.00014813273834092709 0 -1.3163645433019626e-06 0.00015412180053248973 0 -3.0970190647392876e-07 0.00013147716896185133 0 -5.1914776937512763e-06 0.00011584051330139941 0 -1.6465017624862103e-05 0.0001314327293241433 0 -3.0970190647392876e-07 0.00013147716896185133 0 -3.0970190647392876e-07 0.00013147716896185133 0 1.0418728977154669e-05 0.00014356879423016515 0 1.6137933528120459e-05 0.00013214441090273732 0 -1.3163645433019626e-06 0.00015412180053248973 0 -3.0970190647392876e-07 0.00013147716896185133 0 1.0418728977154669e-05 0.00014356879423016515 0 1.0418728977154669e-05 0.00014356879423016515 0 1.6137933528120459e-05 0.00013214441090273732 0 2.5325799056595812e-05 0.00014365996158605162 0 1.4726288665908706e-05 0.00011448220534527094 0 1.6137933528120459e-05 0.00013214441090273732 0 3.0604440093397577e-05 0.00012685244378984428 0 1.4726288665908706e-05 0.00011448220534527094 0 -3.0970190647392876e-07 0.00013147716896185133 0 1.6137933528120459e-05 0.00013214441090273732 0 1.6137933528120459e-05 0.00013214441090273732 0 3.0604440093397577e-05 0.00012685244378984428 0 2.5325799056595812e-05 0.00014365996158605162 0 3.0604440093397577e-05 0.00012685244378984428 0 2.5325799056595812e-05 0.00014365996158605162 0 3.9583267715864888e-05 0.00013651095021525029 0 2.5325799056595812e-05 0.00014365996158605162 0 1.4802080895638363e-05 0.000161648592588287 0 3.2991159659556839e-05 0.0001635805505015532 0 2.5325799056595812e-05 0.00014365996158605162 0 3.2991159659556839e-05 0.0001635805505015532 0 4.0152848863366322e-05 0.00014891364882404302 0 1.0418728977154669e-05 0.00014356879423016515 0 2.5325799056595812e-05 0.00014365996158605162 0 1.4802080895638363e-05 0.000161648592588287 0 1.4802080895638363e-05 0.000161648592588287 0 3.2991159659556839e-05 0.0001635805505015532 0 2.1429901884044329e-05 0.00018318496745837144 0 3.2991159659556839e-05 0.0001635805505015532 0 2.1429901884044329e-05 0.00018318496745837144 0 4.080977683515593e-05 0.00018029704057550517 0 2.1429901884044329e-05 0.00018318496745837144 0 3.8984048488884354e-05 0.00019805278860319459 0 1.9799093972731839e-05 0.0002036917500537764 0 2.1429901884044329e-05 0.00018318496745837144 0 3.8984048488884354e-05 0.00019805278860319459 0 4.080977683515593e-05 0.00018029704057550517 0 3.8984048488884354e-05 0.00019805278860319459 0 3.2655680627692863e-05 0.00021113499894982195 0 1.9799093972731839e-05 0.0002036917500537764 0 3.8984048488884354e-05 0.00019805278860319459 0 3.2655680627692863e-05 0.00021113499894982195 0 4.9731268806136545e-05 0.00020790370324636024 0 3.2655680627692863e-05 0.00021113499894982195 0 4.9731268806136545e-05 0.00020790370324636024 0 4.4586099032649888e-05 0.0002207325413622742 0 3.2655680627692863e-05 0.00021113499894982195 0 2.3017854896251782e-05 0.00022271606509766394 0 4.4586099032649888e-05 0.0002207325413622742 0 3.2655680627692863e-05 0.00021113499894982195 0 2.3017854896251782e-05 0.00022271606509766394 0 1.9799093972731839e-05 0.0002036917500537764 0 1.9622974653489821e-06 0.00022345795974230715 0 7.9207421680216484e-07 0.00019757559739108795 0 -1.7324348386831864e-05 0.00020491245017402441 0 1.9799093972731839e-05 0.0002036917500537764 0 1.9622974653489821e-06 0.00022345795974230715 0 7.9207421680216484e-07 0.00019757559739108795 0 2.3017854896251782e-05 0.00022271606509766394 0 1.9799093972731839e-05 0.0002036917500537764 0 1.9622974653489821e-06 0.00022345795974230715 0 7.9207421680216484e-07 0.00019757559739108795 0 9.0103512075932645e-07 0.00017525696215675123 0 -2.1074928082285328e-05 0.0001848873400059896 0 2.1429901884044329e-05 0.00018318496745837144 0 1.9799093972731839e-05 0.0002036917500537764 0 7.9207421680216484e-07 0.00019757559739108795 0 2.1429901884044329e-05 0.00018318496745837144 0 7.9207421680216484e-07 0.00019757559739108795 0 9.0103512075932645e-07 0.00017525696215675123 0 1.4802080895638363e-05 0.000161648592588287 0 2.1429901884044329e-05 0.00018318496745837144 0 9.0103512075932645e-07 0.00017525696215675123 0 -1.4132206829190862e-05 0.0001656582393875756 0 9.0103512075932645e-07 0.00017525696215675123 0 -2.1074928082285328e-05 0.0001848873400059896 0 -3.3559293828641582e-05 0.00016413188440359678 0 -2.1074928082285328e-05 0.0001848873400059896 0 -4.0608595629394637e-05 0.00018305489176082717 0 -2.1074928082285328e-05 0.0001848873400059896 0 -1.7324348386831864e-05 0.00020491245017402441 0 -3.655756361222816e-05 0.0002011041796059306 0 -2.1074928082285328e-05 0.0001848873400059896 0 -3.655756361222816e-05 0.0002011041796059306 0 -4.0608595629394637e-05 0.00018305489176082717 0 7.9207421680216484e-07 0.00019757559739108795 0 -2.1074928082285328e-05 0.0001848873400059896 0 -1.7324348386831864e-05 0.00020491245017402441 0 1.9622974653489821e-06 0.00022345795974230715 0 -1.7324348386831864e-05 0.00020491245017402441 0 -1.8502452139754941e-05 0.00022370826973589761 0 -1.8502452139754941e-05 0.00022370826973589761 0 -2.8818037495949553e-05 0.00021331463526395769 0 -3.8734109654508996e-05 0.00022373364225364688 0 -1.7324348386831864e-05 0.00020491245017402441 0 -1.8502452139754941e-05 0.00022370826973589761 0 -2.8818037495949553e-05 0.00021331463526395769 0 -1.7324348386831864e-05 0.00020491245017402441 0 -2.8818037495949553e-05 0.00021331463526395769 0 -3.655756361222816e-05 0.0002011041796059306 0 -2.8818037495949553e-05 0.00021331463526395769 0 -3.655756361222816e-05 0.0002011041796059306 0 -4.5505820679113804e-05 0.00021233718727877788 0 -2.8818037495949553e-05 0.00021331463526395769 0 -4.5505820679113804e-05 0.00021233718727877788 0 -3.8734109654508996e-05 0.00022373364225364688 0 -4.5505820679113804e-05 0.00021233718727877788 0 -3.8734109654508996e-05 0.00022373364225364688 0 -5.8797350835059395e-05 0.00022382289543763126 0 -4.5505820679113804e-05 0.00021233718727877788 0 -5.8797350835059395e-05 0.00022382289543763126 0 -5.8874938170121944e-05 0.00020370654798441105 0 -3.655756361222816e-05 0.0002011041796059306 0 -4.5505820679113804e-05 0.00021233718727877788 0 -5.8874938170121944e-05 0.00020370654798441105 0 -5.8874938170121944e-05 0.00020370654798441105 0 -4.0608595629394637e-05 0.00018305489176082717 0 -5.8827822479947556e-05 0.00018368327291174151 0 -3.655756361222816e-05 0.0002011041796059306 0 -5.8874938170121944e-05 0.00020370654798441105 0 -4.0608595629394637e-05 0.00018305489176082717 0 -5.8619524497615033e-05 0.00016373345567366929 0 -4.0608595629394637e-05 0.00018305489176082717 0 -5.8827822479947556e-05 0.00018368327291174151 0 2.5269727518569688e-05 -2.5313321235902255e-05 0 2.54814339246897e-05 -2.7281278441500432e-05 0 2.279189878989394e-05 -2.5857886479067615e-05 0 2.5269727518569688e-05 -2.5313321235902255e-05 0 2.8512160247692934e-05 -2.6804547336545681e-05 0 2.8463808581783803e-05 -2.5264251683870011e-05 0 2.5269727518569688e-05 -2.5313321235902255e-05 0 2.6766020309100177e-05 -2.4283571485374714e-05 0 2.8463808581783803e-05 -2.5264251683870011e-05 0 2.5269727518569688e-05 -2.5313321235902255e-05 0 2.8512160247692934e-05 -2.6804547336545681e-05 0 2.54814339246897e-05 -2.7281278441500432e-05 0 2.54814339246897e-05 -2.7281278441500432e-05 0 2.2009219053760142e-05 -2.7371438198532923e-05 0 2.279189878989394e-05 -2.5857886479067615e-05 0 2.2009219053760142e-05 -2.7371438198532923e-05 0 2.001902251865991e-05 -2.5214117708573692e-05 0 2.279189878989394e-05 -2.5857886479067615e-05 0 2.2009219053760142e-05 -2.7371438198532923e-05 0 2.001902251865991e-05 -2.5214117708573692e-05 0 1.9552241435441286e-05 -2.6435077116370185e-05 0 2.001902251865991e-05 -2.5214117708573692e-05 0 2.279189878989394e-05 -2.5857886479067615e-05 0 2.0605772182805589e-05 -2.3622841098028128e-05 0 2.001902251865991e-05 -2.5214117708573692e-05 0 2.0605772182805589e-05 -2.3622841098028128e-05 0 1.8199193987350251e-05 -2.3598016205936732e-05 0 2.0605772182805589e-05 -2.3622841098028128e-05 0 1.8199193987350251e-05 -2.3598016205936732e-05 0 1.65184258561985e-05 -2.1545142026832641e-05 0 2.0891732443794764e-05 -2.1458908211233792e-05 0 2.0605772182805589e-05 -2.3622841098028128e-05 0 2.3690625681524825e-05 -2.3801080291955618e-05 0 2.5269727518569688e-05 -2.5313321235902255e-05 0 2.0605772182805589e-05 -2.3622841098028128e-05 0 2.3690625681524825e-05 -2.3801080291955618e-05 0 2.5269727518569688e-05 -2.5313321235902255e-05 0 2.279189878989394e-05 -2.5857886479067615e-05 0 2.0605772182805589e-05 -2.3622841098028128e-05 0 2.5269727518569688e-05 -2.5313321235902255e-05 0 2.3690625681524825e-05 -2.3801080291955618e-05 0 2.6766020309100177e-05 -2.4283571485374714e-05 0 2.4923311656252568e-05 -2.2765357778904586e-05 0 2.3690625681524825e-05 -2.3801080291955618e-05 0 2.6766020309100177e-05 -2.4283571485374714e-05 0 2.4923311656252568e-05 -2.2765357778904586e-05 0 2.7925494113590997e-05 -2.2586899510783964e-05 0 2.6766020309100177e-05 -2.4283571485374714e-05 0 2.8526481221758643e-05 -2.0303812713618885e-05 0 2.6447727641779864e-05 -2.1008053753111547e-05 0 2.7925494113590997e-05 -2.2586899510783964e-05 0 2.7925494113590997e-05 -2.2586899510783964e-05 0 3.0256956903297546e-05 -2.1342048601404338e-05 0 3.0001432638290044e-05 -2.3640868307074348e-05 0 2.7925494113590997e-05 -2.2586899510783964e-05 0 2.6766020309100177e-05 -2.4283571485374714e-05 0 3.0001432638290044e-05 -2.3640868307074348e-05 0 4.9369314343970268e-05 0.00012192436156622617 0 3.0604440093397577e-05 0.00012685244378984428 0 3.9583267715864888e-05 0.00013651095021525029 0 4.9369314343970268e-05 0.00012192436156622617 0 5.2076939007020347e-05 0.00014011510212175537 0 3.9583267715864888e-05 0.00013651095021525029 0 2.8526481221758643e-05 -2.0303812713618885e-05 0 2.7925494113590997e-05 -2.2586899510783964e-05 0 3.0256956903297546e-05 -2.1342048601404338e-05 0 3.8842904470401216e-05 5.0771897715709135e-05 0 4.1107286218513305e-05 5.9525059240307413e-05 0 2.5325799056595812e-05 0.00014365996158605162 0 3.9583267715864888e-05 0.00013651095021525029 0 4.0152848863366322e-05 0.00014891364882404302 0 5.2076939007020347e-05 0.00014011510212175537 0 3.9583267715864888e-05 0.00013651095021525029 0 4.0152848863366322e-05 0.00014891364882404302 0 3.2991159659556839e-05 0.0001635805505015532 0 4.0152848863366322e-05 0.00014891364882404302 0 5.4951330823536998e-05 0.00015870941538587578 0 4.1107286218513305e-05 5.9525059240307413e-05 0 4.3282543800713264e-05 6.7909719036480086e-05 0 3.0256956903297546e-05 -2.1342048601404338e-05 0 3.2596092742385817e-05 -2.2333951545606003e-05 0 3.0001432638290044e-05 -2.3640868307074348e-05 0 5.2076939007020347e-05 0.00014011510212175537 0 4.0152848863366322e-05 0.00014891364882404302 0 5.4951330823536998e-05 0.00015870941538587578 0 4.3282543800713264e-05 6.7909719036480086e-05 0 4.780503497865688e-05 7.7277342023993504e-05 0 3.2991159659556839e-05 0.0001635805505015532 0 5.4951330823536998e-05 0.00015870941538587578 0 4.080977683515593e-05 0.00018029704057550517 0 2.6766020309100177e-05 -2.4283571485374714e-05 0 2.8463808581783803e-05 -2.5264251683870011e-05 0 3.0001432638290044e-05 -2.3640868307074348e-05 0 3.2596092742385817e-05 -2.2333951545606003e-05 0 3.0001432638290044e-05 -2.3640868307074348e-05 0 3.1879059058582634e-05 -2.5576723509016506e-05 0 2.8512160247692934e-05 -2.6804547336545681e-05 0 2.8463808581783803e-05 -2.5264251683870011e-05 0 3.1879059058582634e-05 -2.5576723509016506e-05 0 2.8463808581783803e-05 -2.5264251683870011e-05 0 3.0001432638290044e-05 -2.3640868307074348e-05 0 3.1879059058582634e-05 -2.5576723509016506e-05 0 3.1879059058582634e-05 -2.5576723509016506e-05 0 3.4984017346999477e-05 -2.670902698066347e-05 0 3.1823725866624501e-05 -2.8207131803110126e-05 0 2.8512160247692934e-05 -2.6804547336545681e-05 0 3.1879059058582634e-05 -2.5576723509016506e-05 0 3.1823725866624501e-05 -2.8207131803110126e-05 0 3.2596092742385817e-05 -2.2333951545606003e-05 0 3.1879059058582634e-05 -2.5576723509016506e-05 0 3.5668415187078983e-05 -2.3696479584245273e-05 0 3.1879059058582634e-05 -2.5576723509016506e-05 0 3.4984017346999477e-05 -2.670902698066347e-05 0 3.5668415187078983e-05 -2.3696479584245273e-05 0 3.4984017346999477e-05 -2.670902698066347e-05 0 3.1823725866624501e-05 -2.8207131803110126e-05 0 3.6432556585370105e-05 -2.9516416162655145e-05 0 5.4951330823536998e-05 0.00015870941538587578 0 4.080977683515593e-05 0.00018029704057550517 0 5.7922551996948583e-05 0.00017739869334575589 0 4.780503497865688e-05 7.7277342023993504e-05 0 4.5704177050947811e-05 8.4934596386526369e-05 0 3.4984017346999477e-05 -2.670902698066347e-05 0 3.5668415187078983e-05 -2.3696479584245273e-05 0 3.957699978136039e-05 -2.603826820347603e-05 0 4.080977683515593e-05 0.00018029704057550517 0 5.7922551996948583e-05 0.00017739869334575589 0 6.141703634018089e-05 0.00019679787773393056 0 3.8984048488884354e-05 0.00019805278860319459 0 4.080977683515593e-05 0.00018029704057550517 0 6.141703634018089e-05 0.00019679787773393056 0 3.8984048488884354e-05 0.00019805278860319459 0 6.141703634018089e-05 0.00019679787773393056 0 4.9731268806136545e-05 0.00020790370324636024 0 4.5704177050947811e-05 8.4934596386526369e-05 0 7.1769883878243135e-05 9.3595517650212071e-05 0 6.141703634018089e-05 0.00019679787773393056 0 6.5623867878028576e-05 0.00021695385091857517 0 4.9731268806136545e-05 0.00020790370324636024 0 6.5623867878028576e-05 0.00021695385091857517 0 4.9731268806136545e-05 0.00020790370324636024 0 4.4586099032649888e-05 0.0002207325413622742 0 3.1823725866624501e-05 -2.8207131803110126e-05 0 3.6432556585370105e-05 -2.9516416162655145e-05 0 3.0928672772625044e-05 -3.1425730172612536e-05 0 3.4984017346999477e-05 -2.670902698066347e-05 0 3.957699978136039e-05 -2.603826820347603e-05 0 3.6432556585370105e-05 -2.9516416162655145e-05 0 3.957699978136039e-05 -2.603826820347603e-05 0 4.3821633510859968e-05 -3.0264173832024235e-05 0 3.6432556585370105e-05 -2.9516416162655145e-05 0 4.3821633510859968e-05 -3.0264173832024235e-05 0 3.6432556585370105e-05 -2.9516416162655145e-05 0 3.8246152760562127e-05 -3.3654270661897802e-05 0 3.6432556585370105e-05 -2.9516416162655145e-05 0 3.8246152760562127e-05 -3.3654270661897802e-05 0 3.0928672772625044e-05 -3.1425730172612536e-05 0 3.0928672772625044e-05 -3.1425730172612536e-05 0 2.6687877606854278e-05 -3.0325375570972073e-05 0 2.7821896824407611e-05 -3.4432727556167112e-05 0 3.8246152760562127e-05 -3.3654270661897802e-05 0 3.2758192375823781e-05 -3.4871332106576925e-05 0 3.0928672772625044e-05 -3.1425730172612536e-05 0 3.2758192375823781e-05 -3.4871332106576925e-05 0 3.0928672772625044e-05 -3.1425730172612536e-05 0 2.7821896824407611e-05 -3.4432727556167112e-05 0 3.1823725866624501e-05 -2.8207131803110126e-05 0 3.0928672772625044e-05 -3.1425730172612536e-05 0 2.8028482411189371e-05 -2.8835264898001088e-05 0 3.0928672772625044e-05 -3.1425730172612536e-05 0 2.8028482411189371e-05 -2.8835264898001088e-05 0 2.6687877606854278e-05 -3.0325375570972073e-05 0 2.54814339246897e-05 -2.7281278441500432e-05 0 2.8028482411189371e-05 -2.8835264898001088e-05 0 2.4167879185192768e-05 -2.8991046455952296e-05 0 2.8512160247692934e-05 -2.6804547336545681e-05 0 2.54814339246897e-05 -2.7281278441500432e-05 0 2.8028482411189371e-05 -2.8835264898001088e-05 0 2.8512160247692934e-05 -2.6804547336545681e-05 0 3.1823725866624501e-05 -2.8207131803110126e-05 0 2.8028482411189371e-05 -2.8835264898001088e-05 0 2.2009219053760142e-05 -2.7371438198532923e-05 0 2.4167879185192768e-05 -2.8991046455952296e-05 0 2.1893176906347266e-05 -2.9210471072396101e-05 0 2.54814339246897e-05 -2.7281278441500432e-05 0 2.2009219053760142e-05 -2.7371438198532923e-05 0 2.4167879185192768e-05 -2.8991046455952296e-05 0 2.4167879185192768e-05 -2.8991046455952296e-05 0 2.6687877606854278e-05 -3.0325375570972073e-05 0 2.4159886685285217e-05 -3.1156421748423143e-05 0 2.8028482411189371e-05 -2.8835264898001088e-05 0 2.4167879185192768e-05 -2.8991046455952296e-05 0 2.6687877606854278e-05 -3.0325375570972073e-05 0 2.4167879185192768e-05 -2.8991046455952296e-05 0 2.4159886685285217e-05 -3.1156421748423143e-05 0 2.1893176906347266e-05 -2.9210471072396101e-05 0 2.6687877606854278e-05 -3.0325375570972073e-05 0 2.4159886685285217e-05 -3.1156421748423143e-05 0 2.7821896824407611e-05 -3.4432727556167112e-05 0 2.4159886685285217e-05 -3.1156421748423143e-05 0 2.7821896824407611e-05 -3.4432727556167112e-05 0 2.4341383581998104e-05 -3.3109953596213574e-05 0 2.4159886685285217e-05 -3.1156421748423143e-05 0 2.4341383581998104e-05 -3.3109953596213574e-05 0 2.2274740077231842e-05 -3.0893305871365607e-05 0 2.4341383581998104e-05 -3.3109953596213574e-05 0 2.2212493919349763e-05 -3.139010014475708e-05 0 2.2274740077231842e-05 -3.0893305871365607e-05 0 2.2212493919349763e-05 -3.139010014475708e-05 0 2.002471202315137e-05 -2.9618292011288478e-05 0 2.2274740077231842e-05 -3.0893305871365607e-05 0 2.002471202315137e-05 -2.9618292011288478e-05 0 2.2274740077231842e-05 -3.0893305871365607e-05 0 2.1893176906347266e-05 -2.9210471072396101e-05 0 2.4159886685285217e-05 -3.1156421748423143e-05 0 2.2274740077231842e-05 -3.0893305871365607e-05 0 2.1893176906347266e-05 -2.9210471072396101e-05 0 2.1927282124450546e-05 -3.0051251608823417e-05 0 1.9792643111901047e-05 -2.981739346079822e-05 0 2.2689259147909721e-05 -2.9906304684763257e-05 0 2.2212493919349763e-05 -3.139010014475708e-05 0 2.1927282124450546e-05 -3.0051251608823417e-05 0 1.9792643111901047e-05 -2.981739346079822e-05 0 2.2212493919349763e-05 -3.139010014475708e-05 0 2.002471202315137e-05 -2.9618292011288478e-05 0 1.9792643111901047e-05 -2.981739346079822e-05 0 1.9792643111901047e-05 -2.981739346079822e-05 0 1.80439037173658e-05 -2.8608027294376721e-05 0 1.7586132111285637e-05 -2.9318210383489448e-05 0 2.002471202315137e-05 -2.9618292011288478e-05 0 1.9792643111901047e-05 -2.981739346079822e-05 0 1.80439037173658e-05 -2.8608027294376721e-05 0 1.80439037173658e-05 -2.8608027294376721e-05 0 1.9261859976197134e-05 -2.7905916757818399e-05 0 1.7087934460636984e-05 -2.7106400876188504e-05 0 1.80439037173658e-05 -2.8608027294376721e-05 0 1.7087934460636984e-05 -2.7106400876188504e-05 0 1.584986912551273e-05 -2.7583372038705239e-05 0 1.80439037173658e-05 -2.8608027294376721e-05 0 1.584986912551273e-05 -2.7583372038705239e-05 0 1.7586132111285637e-05 -2.9318210383489448e-05 0 2.002471202315137e-05 -2.9618292011288478e-05 0 2.1893176906347266e-05 -2.9210471072396101e-05 0 1.9261859976197134e-05 -2.7905916757818399e-05 0 2.002471202315137e-05 -2.9618292011288478e-05 0 1.80439037173658e-05 -2.8608027294376721e-05 0 1.9261859976197134e-05 -2.7905916757818399e-05 0 2.2009219053760142e-05 -2.7371438198532923e-05 0 2.1893176906347266e-05 -2.9210471072396101e-05 0 1.9261859976197134e-05 -2.7905916757818399e-05 0 2.2009219053760142e-05 -2.7371438198532923e-05 0 1.9261859976197134e-05 -2.7905916757818399e-05 0 1.9552241435441286e-05 -2.6435077116370185e-05 0 2.001902251865991e-05 -2.5214117708573692e-05 0 1.9552241435441286e-05 -2.6435077116370185e-05 0 1.7951434377464321e-05 -2.5031266145086734e-05 0 1.9552241435441286e-05 -2.6435077116370185e-05 0 1.7951434377464321e-05 -2.5031266145086734e-05 0 1.7939720737711963e-05 -2.6469873729839693e-05 0 1.7951434377464321e-05 -2.5031266145086734e-05 0 1.7939720737711963e-05 -2.6469873729839693e-05 0 1.6251340640247604e-05 -2.5218218790287057e-05 0 1.9261859976197134e-05 -2.7905916757818399e-05 0 1.9552241435441286e-05 -2.6435077116370185e-05 0 1.7939720737711963e-05 -2.6469873729839693e-05 0 1.7939720737711963e-05 -2.6469873729839693e-05 0 1.7087934460636984e-05 -2.7106400876188504e-05 0 1.6251340640247604e-05 -2.5218218790287057e-05 0 1.9261859976197134e-05 -2.7905916757818399e-05 0 1.7939720737711963e-05 -2.6469873729839693e-05 0 1.7087934460636984e-05 -2.7106400876188504e-05 0 1.7087934460636984e-05 -2.7106400876188504e-05 0 1.584986912551273e-05 -2.7583372038705239e-05 0 1.4449911352838176e-05 -2.5057665065247304e-05 0 1.584986912551273e-05 -2.7583372038705239e-05 0 1.4449911352838176e-05 -2.5057665065247304e-05 0 1.4032025107134166e-05 -2.6513326182104484e-05 0 1.7087934460636984e-05 -2.7106400876188504e-05 0 1.4449911352838176e-05 -2.5057665065247304e-05 0 1.6251340640247604e-05 -2.5218218790287057e-05 0 1.6251340640247604e-05 -2.5218218790287057e-05 0 1.3533687396341714e-05 -2.3020571751952796e-05 0 1.6030358888945137e-05 -2.3372616557189722e-05 0 1.4449911352838176e-05 -2.5057665065247304e-05 0 1.6251340640247604e-05 -2.5218218790287057e-05 0 1.3533687396341714e-05 -2.3020571751952796e-05 0 1.4449911352838176e-05 -2.5057665065247304e-05 0 1.3533687396341714e-05 -2.3020571751952796e-05 0 1.1460933754974424e-05 -2.4054846990189896e-05 0 1.3533687396341714e-05 -2.3020571751952796e-05 0 1.6030358888945137e-05 -2.3372616557189722e-05 0 1.4356553013475349e-05 -2.0954978554087414e-05 0 1.6030358888945137e-05 -2.3372616557189722e-05 0 1.4356553013475349e-05 -2.0954978554087414e-05 0 1.65184258561985e-05 -2.1545142026832641e-05 0 1.6030358888945137e-05 -2.3372616557189722e-05 0 1.8199193987350251e-05 -2.3598016205936732e-05 0 1.65184258561985e-05 -2.1545142026832641e-05 0 1.7951434377464321e-05 -2.5031266145086734e-05 0 1.6030358888945137e-05 -2.3372616557189722e-05 0 1.8199193987350251e-05 -2.3598016205936732e-05 0 2.001902251865991e-05 -2.5214117708573692e-05 0 1.7951434377464321e-05 -2.5031266145086734e-05 0 1.8199193987350251e-05 -2.3598016205936732e-05 0 1.7951434377464321e-05 -2.5031266145086734e-05 0 1.6251340640247604e-05 -2.5218218790287057e-05 0 1.6030358888945137e-05 -2.3372616557189722e-05 0 2.5603085735652161e-05 -8.0369908021675932e-05 0 1.4955549405237149e-05 -7.4086592223848068e-05 0 1.7538736861460124e-05 -8.5437617898117535e-05 0 1.7726096800712702e-05 -5.3454453098022575e-05 0 1.5598868186298842e-05 -4.5679917816542522e-05 0 2.5603085735652161e-05 -8.0369908021675932e-05 0 1.4955549405237149e-05 -7.4086592223848068e-05 0 2.3250441204103013e-05 -6.7928038770890203e-05 0 1.0083869099430833e-05 -2.6541723949447128e-05 0 1.1460933754974424e-05 -2.4054846990189896e-05 0 8.178846740387433e-06 -2.3416144138510996e-05 0 1.1460933754974424e-05 -2.4054846990189896e-05 0 9.3932663042119955e-06 -2.1222872031834164e-05 0 8.178846740387433e-06 -2.3416144138510996e-05 0 1.3533687396341714e-05 -2.3020571751952796e-05 0 1.1460933754974424e-05 -2.4054846990189896e-05 0 1.1409048589070064e-05 -2.1749150369316389e-05 0 1.1460933754974424e-05 -2.4054846990189896e-05 0 1.1409048589070064e-05 -2.1749150369316389e-05 0 9.3932663042119955e-06 -2.1222872031834164e-05 0 1.4449911352838176e-05 -2.5057665065247304e-05 0 1.1460933754974424e-05 -2.4054846990189896e-05 0 1.4032025107134166e-05 -2.6513326182104484e-05 0 1.0083869099430833e-05 -2.6541723949447128e-05 0 1.1460933754974424e-05 -2.4054846990189896e-05 0 1.2332077914088658e-05 -2.6849201014861803e-05 0 1.1460933754974424e-05 -2.4054846990189896e-05 0 1.2332077914088658e-05 -2.6849201014861803e-05 0 1.4032025107134166e-05 -2.6513326182104484e-05 0 1.2332077914088658e-05 -2.6849201014861803e-05 0 1.4032025107134166e-05 -2.6513326182104484e-05 0 1.492647675102968e-05 -2.8707702979103915e-05 0 1.584986912551273e-05 -2.7583372038705239e-05 0 1.4032025107134166e-05 -2.6513326182104484e-05 0 1.492647675102968e-05 -2.8707702979103915e-05 0 1.2332077914088658e-05 -2.6849201014861803e-05 0 1.492647675102968e-05 -2.8707702979103915e-05 0 1.2525368817694448e-05 -2.9225433323644567e-05 0 1.492647675102968e-05 -2.8707702979103915e-05 0 1.2525368817694448e-05 -2.9225433323644567e-05 0 1.5644111861524829e-05 -3.125431249185378e-05 0 2.8085508932084897e-05 -9.3508061593880332e-05 0 1.7538736861460124e-05 -8.5437617898117535e-05 0 1.2275055272560222e-05 -9.609112900837073e-05 0 2.8085508932084897e-05 -9.3508061593880332e-05 0 1.8835523914203408e-05 -0.00010881665523425442 0 1.2275055272560222e-05 -9.609112900837073e-05 0 2.0009557555633147e-05 -6.1364013387537651e-05 0 2.3431325819401427e-05 -6.9325563621820742e-05 0 1.0083869099430833e-05 -2.6541723949447128e-05 0 1.2332077914088658e-05 -2.6849201014861803e-05 0 1.2525368817694448e-05 -2.9225433323644567e-05 0 2.5603085735652161e-05 -8.0369908021675932e-05 0 2.8085508932084897e-05 -9.3508061593880332e-05 0 1.7538736861460124e-05 -8.5437617898117535e-05 0 1.7726096800712702e-05 -5.3454453098022575e-05 0 2.0009557555633147e-05 -6.1364013387537651e-05 0 2.8085508932084897e-05 -9.3508061593880332e-05 0 1.8835523914203408e-05 -0.00010881665523425442 0 3.0900359434939039e-05 -0.00010711581572722427 0 2.3431325819401427e-05 -6.9325563621820742e-05 0 2.5148224589902181e-05 -7.6409743043964173e-05 0 1.5644111861524829e-05 -3.125431249185378e-05 0 1.7366111954863304e-05 -3.0348051697707484e-05 0 1.9658286369349977e-05 -3.2240121240217352e-05 0 1.8835523914203408e-05 -0.00010881665523425442 0 3.0900359434939039e-05 -0.00010711581572722427 0 3.4258704396474752e-05 -0.00012132816703772664 0 1.8835523914203408e-05 -0.00010881665523425442 0 3.4258704396474752e-05 -0.00012132816703772664 0 1.860652156092103e-05 -0.0001219660821848373 0 1.584986912551273e-05 -2.7583372038705239e-05 0 1.492647675102968e-05 -2.8707702979103915e-05 0 1.7586132111285637e-05 -2.9318210383489448e-05 0 1.492647675102968e-05 -2.8707702979103915e-05 0 1.7366111954863304e-05 -3.0348051697707484e-05 0 1.7586132111285637e-05 -2.9318210383489448e-05 0 1.492647675102968e-05 -2.8707702979103915e-05 0 1.5644111861524829e-05 -3.125431249185378e-05 0 1.7366111954863304e-05 -3.0348051697707484e-05 0 1.7366111954863304e-05 -3.0348051697707484e-05 0 1.7586132111285637e-05 -2.9318210383489448e-05 0 1.9839565806757486e-05 -3.0382520845051236e-05 0 1.9792643111901047e-05 -2.981739346079822e-05 0 1.7586132111285637e-05 -2.9318210383489448e-05 0 1.9839565806757486e-05 -3.0382520845051236e-05 0 1.7366111954863304e-05 -3.0348051697707484e-05 0 1.9839565806757486e-05 -3.0382520845051236e-05 0 1.9658286369349977e-05 -3.2240121240217352e-05 0 1.9839565806757486e-05 -3.0382520845051236e-05 0 1.9658286369349977e-05 -3.2240121240217352e-05 0 2.4326498622860388e-05 -3.1779243115763024e-05 0 1.9839565806757486e-05 -3.0382520845051236e-05 0 2.2689259147909721e-05 -2.9906304684763257e-05 0 2.4326498622860388e-05 -3.1779243115763024e-05 0 1.9792643111901047e-05 -2.981739346079822e-05 0 1.9839565806757486e-05 -3.0382520845051236e-05 0 2.2689259147909721e-05 -2.9906304684763257e-05 0 3.4258704396474752e-05 -0.00012132816703772664 0 2.6714421685206209e-05 -0.00012925825953237071 0 1.860652156092103e-05 -0.0001219660821848373 0 2.5148224589902181e-05 -7.6409743043964173e-05 0 3.6794078171119873e-05 -8.4292817941861823e-05 0 3.4258704396474752e-05 -0.00012132816703772664 0 3.8932198737102661e-05 -0.00013596421727614277 0 2.6714421685206209e-05 -0.00012925825953237071 0 3.8932198737102661e-05 -0.00013596421727614277 0 2.6714421685206209e-05 -0.00012925825953237071 0 2.3833177350980832e-05 -0.00013830841929337228 0 2.6714421685206209e-05 -0.00012925825953237071 0 1.4868604196862313e-05 -0.00013115963590682464 0 2.3833177350980832e-05 -0.00013830841929337228 0 1.4868604196862313e-05 -0.00013115963590682464 0 2.3833177350980832e-05 -0.00013830841929337228 0 8.6382435793962153e-06 -0.00013900289064491919 0 1.4868604196862313e-05 -0.00013115963590682464 0 1.860652156092103e-05 -0.0001219660821848373 0 5.8133691068216241e-06 -0.00012565929096542623 0 2.6714421685206209e-05 -0.00012925825953237071 0 1.4868604196862313e-05 -0.00013115963590682464 0 1.860652156092103e-05 -0.0001219660821848373 0 1.4868604196862313e-05 -0.00013115963590682464 0 5.8133691068216241e-06 -0.00012565929096542623 0 8.6382435793962153e-06 -0.00013900289064491919 0 5.8133691068216241e-06 -0.00012565929096542623 0 -5.6487314065199016e-06 -0.00013892901087397789 0 -6.8795146927759358e-06 -0.00012102703767195189 0 -5.6487314065199016e-06 -0.00013892901087397789 0 -6.8795146927759358e-06 -0.00012102703767195189 0 -1.8671454206868444e-05 -0.00012590926304522073 0 5.8133691068216241e-06 -0.00012565929096542623 0 8.6382435793962153e-06 -0.00013900289064491919 0 -5.6487314065199016e-06 -0.00013892901087397789 0 5.8133691068216241e-06 -0.00012565929096542623 0 -6.8795146927759358e-06 -0.00012102703767195189 0 6.301023717215989e-06 -0.00011128533547443187 0 -6.8795146927759358e-06 -0.00012102703767195189 0 -8.6304800153108406e-06 -0.00010523411299121421 0 6.301023717215989e-06 -0.00011128533547443187 0 -6.8795146927759358e-06 -0.00012102703767195189 0 -8.6304800153108406e-06 -0.00010523411299121421 0 -2.1259759289756643e-05 -0.00011163076948127033 0 -8.6304800153108406e-06 -0.00010523411299121421 0 6.301023717215989e-06 -0.00011128533547443187 0 2.2878337190413092e-07 -9.8011433808746772e-05 0 1.8835523914203408e-05 -0.00010881665523425442 0 6.301023717215989e-06 -0.00011128533547443187 0 1.2275055272560222e-05 -9.609112900837073e-05 0 1.8835523914203408e-05 -0.00010881665523425442 0 1.860652156092103e-05 -0.0001219660821848373 0 6.301023717215989e-06 -0.00011128533547443187 0 1.860652156092103e-05 -0.0001219660821848373 0 5.8133691068216241e-06 -0.00012565929096542623 0 6.301023717215989e-06 -0.00011128533547443187 0 -4.6460849229201012e-05 -0.00012504438002058663 0 -3.7435552589665869e-05 -0.00013090598211952249 0 -3.1403656015749614e-05 -0.00012319883217572927 0 -4.6460849229201012e-05 -0.00012504438002058663 0 -4.6399760440407029e-05 -0.00013871509987190206 0 -3.7435552589665869e-05 -0.00013090598211952249 0 -4.6399760440407029e-05 -0.00013871509987190206 0 -3.2845110926295542e-05 -0.00013864010350473664 0 -3.7435552589665869e-05 -0.00013090598211952249 0 -3.2845110926295542e-05 -0.00013864010350473664 0 -3.7435552589665869e-05 -0.00013090598211952249 0 -2.6231140465488714e-05 -0.00013159427028415887 0 -3.7435552589665869e-05 -0.00013090598211952249 0 -3.1403656015749614e-05 -0.00012319883217572927 0 -2.6231140465488714e-05 -0.00013159427028415887 0 -3.1403656015749614e-05 -0.00012319883217572927 0 -2.6231140465488714e-05 -0.00013159427028415887 0 -1.8671454206868444e-05 -0.00012590926304522073 0 -2.6231140465488714e-05 -0.00013159427028415887 0 -1.924890649486393e-05 -0.00013875973710090607 0 -1.8671454206868444e-05 -0.00012590926304522073 0 -3.2845110926295542e-05 -0.00013864010350473664 0 -2.6231140465488714e-05 -0.00013159427028415887 0 -1.924890649486393e-05 -0.00013875973710090607 0 -5.6487314065199016e-06 -0.00013892901087397789 0 -1.924890649486393e-05 -0.00013875973710090607 0 -1.8671454206868444e-05 -0.00012590926304522073 0 -6.8795146927759358e-06 -0.00012102703767195189 0 -1.8671454206868444e-05 -0.00012590926304522073 0 -2.1259759289756643e-05 -0.00011163076948127033 0 -8.6304800153108406e-06 -0.00010523411299121421 0 -2.1259759289756643e-05 -0.00011163076948127033 0 -1.8403867401634578e-05 -9.6081585304919715e-05 0 -2.1259759289756643e-05 -0.00011163076948127033 0 -3.4199907350240036e-05 -0.00011102391730292972 0 -3.0135271821009374e-05 -9.8457129618720646e-05 0 -3.1403656015749614e-05 -0.00012319883217572927 0 -1.8671454206868444e-05 -0.00012590926304522073 0 -2.1259759289756643e-05 -0.00011163076948127033 0 -3.1403656015749614e-05 -0.00012319883217572927 0 -2.1259759289756643e-05 -0.00011163076948127033 0 -3.4199907350240036e-05 -0.00011102391730292972 0 -4.6460849229201012e-05 -0.00012504438002058663 0 -3.1403656015749614e-05 -0.00012319883217572927 0 -3.4199907350240036e-05 -0.00011102391730292972 0 -3.4199907350240036e-05 -0.00011102391730292972 0 -4.627340929044602e-05 -0.00011127320830738835 0 -4.5737096856798135e-05 -9.7468493327322131e-05 0 -4.6460849229201012e-05 -0.00012504438002058663 0 -3.4199907350240036e-05 -0.00011102391730292972 0 -4.627340929044602e-05 -0.00011127320830738835 0 -4.5737096856798135e-05 -9.7468493327322131e-05 0 -3.5895198516711195e-05 -8.8706056004636002e-05 0 -4.4701069297710898e-05 -8.4097972150276923e-05 0 -3.4199907350240036e-05 -0.00011102391730292972 0 -4.5737096856798135e-05 -9.7468493327322131e-05 0 -3.0135271821009374e-05 -9.8457129618720646e-05 0 -3.0135271821009374e-05 -9.8457129618720646e-05 0 -3.5895198516711195e-05 -8.8706056004636002e-05 0 -2.6193002213412286e-05 -8.3906872641211982e-05 0 -4.5737096856798135e-05 -9.7468493327322131e-05 0 -3.0135271821009374e-05 -9.8457129618720646e-05 0 -3.5895198516711195e-05 -8.8706056004636002e-05 0 -3.0135271821009374e-05 -9.8457129618720646e-05 0 -1.8403867401634578e-05 -9.6081585304919715e-05 0 -2.6193002213412286e-05 -8.3906872641211982e-05 0 -2.1259759289756643e-05 -0.00011163076948127033 0 -3.0135271821009374e-05 -9.8457129618720646e-05 0 -1.8403867401634578e-05 -9.6081585304919715e-05 0 -1.8403867401634578e-05 -9.6081585304919715e-05 0 -1.6634331797272441e-05 -8.3399030508682012e-05 0 -2.6193002213412286e-05 -8.3906872641211982e-05 0 -1.8403867401634578e-05 -9.6081585304919715e-05 0 -1.6634331797272441e-05 -8.3399030508682012e-05 0 -8.6297062762006588e-06 -9.0307017713424939e-05 0 -1.6634331797272441e-05 -8.3399030508682012e-05 0 -2.0663013749697834e-05 -7.5102088613439598e-05 0 -2.6193002213412286e-05 -8.3906872641211982e-05 0 -2.0663013749697834e-05 -7.5102088613439598e-05 0 -1.0523639984346777e-05 -7.5441704704262729e-05 0 -1.894985998758826e-05 -6.3893393243778164e-05 0 -1.6634331797272441e-05 -8.3399030508682012e-05 0 -2.0663013749697834e-05 -7.5102088613439598e-05 0 -1.0523639984346777e-05 -7.5441704704262729e-05 0 -2.0663013749697834e-05 -7.5102088613439598e-05 0 -2.6193002213412286e-05 -8.3906872641211982e-05 0 -3.0416996048677211e-05 -7.12503235126379e-05 0 -3.5895198516711195e-05 -8.8706056004636002e-05 0 -2.6193002213412286e-05 -8.3906872641211982e-05 0 -3.6191857054166887e-05 -7.95503917701594e-05 0 -2.6193002213412286e-05 -8.3906872641211982e-05 0 -3.6191857054166887e-05 -7.95503917701594e-05 0 -3.0416996048677211e-05 -7.12503235126379e-05 0 -3.6191857054166887e-05 -7.95503917701594e-05 0 -3.0416996048677211e-05 -7.12503235126379e-05 0 -4.3099382205422498e-05 -7.1142072921482889e-05 0 -3.6191857054166887e-05 -7.95503917701594e-05 0 -4.4701069297710898e-05 -8.4097972150276923e-05 0 -4.3099382205422498e-05 -7.1142072921482889e-05 0 -3.5895198516711195e-05 -8.8706056004636002e-05 0 -3.6191857054166887e-05 -7.95503917701594e-05 0 -4.4701069297710898e-05 -8.4097972150276923e-05 0 4.6463390587971443e-08 -8.6153290004289463e-05 0 1.2275055272560222e-05 -9.609112900837073e-05 0 8.4485992201303762e-06 -8.1392563837694574e-05 0 4.6463390587971443e-08 -8.6153290004289463e-05 0 1.2275055272560222e-05 -9.609112900837073e-05 0 2.2878337190413092e-07 -9.8011433808746772e-05 0 1.7538736861460124e-05 -8.5437617898117535e-05 0 1.2275055272560222e-05 -9.609112900837073e-05 0 8.4485992201303762e-06 -8.1392563837694574e-05 0 6.301023717215989e-06 -0.00011128533547443187 0 1.2275055272560222e-05 -9.609112900837073e-05 0 2.2878337190413092e-07 -9.8011433808746772e-05 0 -8.6304800153108406e-06 -0.00010523411299121421 0 2.2878337190413092e-07 -9.8011433808746772e-05 0 -8.6297062762006588e-06 -9.0307017713424939e-05 0 -8.6304800153108406e-06 -0.00010523411299121421 0 -1.8403867401634578e-05 -9.6081585304919715e-05 0 -8.6297062762006588e-06 -9.0307017713424939e-05 0 4.6463390587971443e-08 -8.6153290004289463e-05 0 2.2878337190413092e-07 -9.8011433808746772e-05 0 -8.6297062762006588e-06 -9.0307017713424939e-05 0 4.6463390587971443e-08 -8.6153290004289463e-05 0 -1.0523639984346777e-05 -7.5441704704262729e-05 0 -6.1300402289139151e-07 -7.3709693840377807e-05 0 4.6463390587971443e-08 -8.6153290004289463e-05 0 -8.6297062762006588e-06 -9.0307017713424939e-05 0 -1.0523639984346777e-05 -7.5441704704262729e-05 0 -1.6634331797272441e-05 -8.3399030508682012e-05 0 -8.6297062762006588e-06 -9.0307017713424939e-05 0 -1.0523639984346777e-05 -7.5441704704262729e-05 0 -1.0523639984346777e-05 -7.5441704704262729e-05 0 -6.1300402289139151e-07 -7.3709693840377807e-05 0 -6.9377776950949744e-06 -6.3849826944249667e-05 0 -6.1300402289139151e-07 -7.3709693840377807e-05 0 8.4485992201303762e-06 -8.1392563837694574e-05 0 6.8840439886193771e-06 -7.1033873744836556e-05 0 4.6463390587971443e-08 -8.6153290004289463e-05 0 -6.1300402289139151e-07 -7.3709693840377807e-05 0 8.4485992201303762e-06 -8.1392563837694574e-05 0 1.4955549405237149e-05 -7.4086592223848068e-05 0 1.7538736861460124e-05 -8.5437617898117535e-05 0 8.4485992201303762e-06 -8.1392563837694574e-05 0 1.4955549405237149e-05 -7.4086592223848068e-05 0 8.4485992201303762e-06 -8.1392563837694574e-05 0 6.8840439886193771e-06 -7.1033873744836556e-05 0 1.4955549405237149e-05 -7.4086592223848068e-05 0 6.8840439886193771e-06 -7.1033873744836556e-05 0 1.1300854142045443e-05 -6.2873995328002654e-05 0 6.8840439886193771e-06 -7.1033873744836556e-05 0 1.1300854142045443e-05 -6.2873995328002654e-05 0 5.3318911698806906e-07 -6.333602237399795e-05 0 1.1300854142045443e-05 -6.2873995328002654e-05 0 5.199912458052838e-06 -5.5645193623634243e-05 0 5.3318911698806906e-07 -6.333602237399795e-05 0 1.1300854142045443e-05 -6.2873995328002654e-05 0 5.199912458052838e-06 -5.5645193623634243e-05 0 1.1627707567287207e-05 -5.1926191240790887e-05 0 5.199912458052838e-06 -5.5645193623634243e-05 0 5.3318911698806906e-07 -6.333602237399795e-05 0 -1.8355150451695075e-06 -5.4063291922061855e-05 0 -6.1300402289139151e-07 -7.3709693840377807e-05 0 6.8840439886193771e-06 -7.1033873744836556e-05 0 5.3318911698806906e-07 -6.333602237399795e-05 0 -6.1300402289139151e-07 -7.3709693840377807e-05 0 5.3318911698806906e-07 -6.333602237399795e-05 0 -6.9377776950949744e-06 -6.3849826944249667e-05 0 -1.0523639984346777e-05 -7.5441704704262729e-05 0 -6.9377776950949744e-06 -6.3849826944249667e-05 0 -1.894985998758826e-05 -6.3893393243778164e-05 0 -6.9377776950949744e-06 -6.3849826944249667e-05 0 -1.0407569967573137e-05 -5.359701460866742e-05 0 -1.894985998758826e-05 -6.3893393243778164e-05 0 5.3318911698806906e-07 -6.333602237399795e-05 0 -6.9377776950949744e-06 -6.3849826944249667e-05 0 -1.8355150451695075e-06 -5.4063291922061855e-05 0 -6.9377776950949744e-06 -6.3849826944249667e-05 0 -1.0407569967573137e-05 -5.359701460866742e-05 0 -1.8355150451695075e-06 -5.4063291922061855e-05 0 -1.0407569967573137e-05 -5.359701460866742e-05 0 -2.7083612660354103e-06 -4.3389853660948354e-05 0 -1.8355150451695075e-06 -5.4063291922061855e-05 0 -1.0407569967573137e-05 -5.359701460866742e-05 0 -1.5911642645277922e-05 -4.6751049961905144e-05 0 -9.6283593727493002e-06 -4.002934475577683e-05 0 -1.0407569967573137e-05 -5.359701460866742e-05 0 -2.7083612660354103e-06 -4.3389853660948354e-05 0 -9.6283593727493002e-06 -4.002934475577683e-05 0 -2.7083612660354103e-06 -4.3389853660948354e-05 0 4.5071536874352064e-06 -4.6352456694339694e-05 0 4.0514157277034853e-06 -3.4149856061713814e-05 0 4.5071536874352064e-06 -4.6352456694339694e-05 0 4.0514157277034853e-06 -3.4149856061713814e-05 0 1.0683078012721369e-05 -4.0173840179345295e-05 0 5.199912458052838e-06 -5.5645193623634243e-05 0 4.5071536874352064e-06 -4.6352456694339694e-05 0 1.1627707567287207e-05 -5.1926191240790887e-05 0 -2.7083612660354103e-06 -4.3389853660948354e-05 0 4.5071536874352064e-06 -4.6352456694339694e-05 0 -1.8355150451695075e-06 -5.4063291922061855e-05 0 5.199912458052838e-06 -5.5645193623634243e-05 0 4.5071536874352064e-06 -4.6352456694339694e-05 0 -1.8355150451695075e-06 -5.4063291922061855e-05 0 -4.0922790710277472e-05 -5.8968977856213457e-05 0 -3.5668683542145348e-05 -6.5024007656349885e-05 0 -2.8378928621544896e-05 -5.8424762241289139e-05 0 -4.0922790710277472e-05 -5.8968977856213457e-05 0 -2.8378928621544896e-05 -5.8424762241289139e-05 0 -3.1438740484529758e-05 -5.0061793244234398e-05 0 -3.0416996048677211e-05 -7.12503235126379e-05 0 -4.3099382205422498e-05 -7.1142072921482889e-05 0 -3.5668683542145348e-05 -6.5024007656349885e-05 0 -4.0922790710277472e-05 -5.8968977856213457e-05 0 -4.3099382205422498e-05 -7.1142072921482889e-05 0 -3.5668683542145348e-05 -6.5024007656349885e-05 0 -3.0416996048677211e-05 -7.12503235126379e-05 0 -3.5668683542145348e-05 -6.5024007656349885e-05 0 -2.8378928621544896e-05 -5.8424762241289139e-05 0 -2.8378928621544896e-05 -5.8424762241289139e-05 0 -1.894985998758826e-05 -6.3893393243778164e-05 0 -1.9006901730183423e-05 -5.3838706106698145e-05 0 -3.0416996048677211e-05 -7.12503235126379e-05 0 -2.8378928621544896e-05 -5.8424762241289139e-05 0 -1.894985998758826e-05 -6.3893393243778164e-05 0 -2.0663013749697834e-05 -7.5102088613439598e-05 0 -3.0416996048677211e-05 -7.12503235126379e-05 0 -1.894985998758826e-05 -6.3893393243778164e-05 0 -1.0407569967573137e-05 -5.359701460866742e-05 0 -1.894985998758826e-05 -6.3893393243778164e-05 0 -1.9006901730183423e-05 -5.3838706106698145e-05 0 -1.9006901730183423e-05 -5.3838706106698145e-05 0 -1.5911642645277922e-05 -4.6751049961905144e-05 0 -2.359292679047731e-05 -4.7380355714344939e-05 0 -1.0407569967573137e-05 -5.359701460866742e-05 0 -1.9006901730183423e-05 -5.3838706106698145e-05 0 -1.5911642645277922e-05 -4.6751049961905144e-05 0 -1.5911642645277922e-05 -4.6751049961905144e-05 0 -1.7160913450091535e-05 -3.9635897448246098e-05 0 -9.6283593727493002e-06 -4.002934475577683e-05 0 -1.5911642645277922e-05 -4.6751049961905144e-05 0 -2.359292679047731e-05 -4.7380355714344939e-05 0 -1.7160913450091535e-05 -3.9635897448246098e-05 0 -2.359292679047731e-05 -4.7380355714344939e-05 0 -2.7386442394210524e-05 -4.0342961065709153e-05 0 -1.7160913450091535e-05 -3.9635897448246098e-05 0 -2.8378928621544896e-05 -5.8424762241289139e-05 0 -1.9006901730183423e-05 -5.3838706106698145e-05 0 -2.359292679047731e-05 -4.7380355714344939e-05 0 -2.8378928621544896e-05 -5.8424762241289139e-05 0 -2.359292679047731e-05 -4.7380355714344939e-05 0 -3.1438740484529758e-05 -5.0061793244234398e-05 0 -2.359292679047731e-05 -4.7380355714344939e-05 0 -3.1438740484529758e-05 -5.0061793244234398e-05 0 -2.7386442394210524e-05 -4.0342961065709153e-05 0 -3.1438740484529758e-05 -5.0061793244234398e-05 0 -3.833293490735017e-05 -4.7658113458231705e-05 0 -2.7386442394210524e-05 -4.0342961065709153e-05 0 -4.0922790710277472e-05 -5.8968977856213457e-05 0 -3.1438740484529758e-05 -5.0061793244234398e-05 0 -3.833293490735017e-05 -4.7658113458231705e-05 0 -3.5331804002592765e-05 -3.7389596546572134e-05 0 -2.7089372593430143e-05 -3.1682672858976699e-05 0 -3.1698515934686047e-05 -2.8272291675441036e-05 0 -3.833293490735017e-05 -4.7658113458231705e-05 0 -3.5331804002592765e-05 -3.7389596546572134e-05 0 -2.7386442394210524e-05 -4.0342961065709153e-05 0 -3.5331804002592765e-05 -3.7389596546572134e-05 0 -2.7386442394210524e-05 -4.0342961065709153e-05 0 -2.7089372593430143e-05 -3.1682672858976699e-05 0 -2.7386442394210524e-05 -4.0342961065709153e-05 0 -2.7089372593430143e-05 -3.1682672858976699e-05 0 -2.0349432845162905e-05 -3.1431170644239683e-05 0 -2.7386442394210524e-05 -4.0342961065709153e-05 0 -2.0349432845162905e-05 -3.1431170644239683e-05 0 -1.7160913450091535e-05 -3.9635897448246098e-05 0 -1.7160913450091535e-05 -3.9635897448246098e-05 0 -1.4494272636770277e-05 -3.2588678301781842e-05 0 -9.6283593727493002e-06 -4.002934475577683e-05 0 -2.0349432845162905e-05 -3.1431170644239683e-05 0 -1.7160913450091535e-05 -3.9635897448246098e-05 0 -1.4494272636770277e-05 -3.2588678301781842e-05 0 -1.4494272636770277e-05 -3.2588678301781842e-05 0 -1.5284057254222012e-05 -2.6292198064044022e-05 0 -9.022856545120143e-06 -2.7696750785323343e-05 0 -2.0349432845162905e-05 -3.1431170644239683e-05 0 -1.4494272636770277e-05 -3.2588678301781842e-05 0 -1.5284057254222012e-05 -2.6292198064044022e-05 0 -1.5284057254222012e-05 -2.6292198064044022e-05 0 -1.2262134384715059e-05 -1.9646957145848102e-05 0 -2.1043303905006176e-05 -2.2674974211072219e-05 0 -1.4610982238165482e-05 -1.5693673075241552e-05 0 -1.2262134384715059e-05 -1.9646957145848102e-05 0 -2.1043303905006176e-05 -2.2674974211072219e-05 0 -2.0349432845162905e-05 -3.1431170644239683e-05 0 -1.5284057254222012e-05 -2.6292198064044022e-05 0 -2.1043303905006176e-05 -2.2674974211072219e-05 0 -2.7089372593430143e-05 -3.1682672858976699e-05 0 -2.1043303905006176e-05 -2.2674974211072219e-05 0 -3.1698515934686047e-05 -2.8272291675441036e-05 0 -2.7089372593430143e-05 -3.1682672858976699e-05 0 -2.0349432845162905e-05 -3.1431170644239683e-05 0 -2.1043303905006176e-05 -2.2674974211072219e-05 0 -2.8108205118092849e-05 -2.0554199154198517e-05 0 -2.1043303905006176e-05 -2.2674974211072219e-05 0 -3.1698515934686047e-05 -2.8272291675441036e-05 0 4.0514157277034853e-06 -3.4149856061713814e-05 0 -3.8848696548453957e-06 -3.3758301739324957e-05 0 -1.7411640062053369e-06 -2.5350509338843278e-05 0 4.0514157277034853e-06 -3.4149856061713814e-05 0 -1.7411640062053369e-06 -2.5350509338843278e-05 0 4.5599086009783197e-06 -2.2648235363546192e-05 0 -2.7083612660354103e-06 -4.3389853660948354e-05 0 4.0514157277034853e-06 -3.4149856061713814e-05 0 -3.8848696548453957e-06 -3.3758301739324957e-05 0 -2.7083612660354103e-06 -4.3389853660948354e-05 0 -3.8848696548453957e-06 -3.3758301739324957e-05 0 -9.6283593727493002e-06 -4.002934475577683e-05 0 -1.4494272636770277e-05 -3.2588678301781842e-05 0 -9.6283593727493002e-06 -4.002934475577683e-05 0 -9.022856545120143e-06 -2.7696750785323343e-05 0 -3.8848696548453957e-06 -3.3758301739324957e-05 0 -9.6283593727493002e-06 -4.002934475577683e-05 0 -9.022856545120143e-06 -2.7696750785323343e-05 0 -3.8848696548453957e-06 -3.3758301739324957e-05 0 -9.022856545120143e-06 -2.7696750785323343e-05 0 -1.7411640062053369e-06 -2.5350509338843278e-05 0 -9.022856545120143e-06 -2.7696750785323343e-05 0 -6.2362821031825728e-06 -1.980664552536888e-05 0 -1.7411640062053369e-06 -2.5350509338843278e-05 0 -1.5284057254222012e-05 -2.6292198064044022e-05 0 -1.2262134384715059e-05 -1.9646957145848102e-05 0 -9.022856545120143e-06 -2.7696750785323343e-05 0 -8.9982175827746829e-06 -1.5671902683602562e-05 0 -1.2262134384715059e-05 -1.9646957145848102e-05 0 -6.2362821031825728e-06 -1.980664552536888e-05 0 -1.2262134384715059e-05 -1.9646957145848102e-05 0 -9.022856545120143e-06 -2.7696750785323343e-05 0 -6.2362821031825728e-06 -1.980664552536888e-05 0 -6.2362821031825728e-06 -1.980664552536888e-05 0 -1.5571755261199043e-06 -1.7502973784328865e-05 0 -1.7411640062053369e-06 -2.5350509338843278e-05 0 -1.5571755261199043e-06 -1.7502973784328865e-05 0 -1.7411640062053369e-06 -2.5350509338843278e-05 0 4.5599086009783197e-06 -2.2648235363546192e-05 0 3.1846995068903107e-06 -1.4649330590711178e-05 0 -1.5571755261199043e-06 -1.7502973784328865e-05 0 4.5599086009783197e-06 -2.2648235363546192e-05 0 3.1846995068903107e-06 -1.4649330590711178e-05 0 7.4443166414392464e-06 -1.2556471359074781e-05 0 4.5599086009783197e-06 -2.2648235363546192e-05 0 7.4443166414392464e-06 -1.2556471359074781e-05 0 5.9836152483581789e-06 -1.0582601082403892e-05 0 6.0907807977613859e-06 -1.0093697231729174e-05 0 7.4443166414392464e-06 -1.2556471359074781e-05 0 1.2406791301696697e-05 -2.4655723964110581e-05 0 4.5599086009783197e-06 -2.2648235363546192e-05 0 6.5086491655323799e-06 -1.2241409238894868e-05 0 9.4816592722708674e-06 -1.7841089858357033e-05 0 1.2406791301696697e-05 -2.4655723964110581e-05 0 4.5599086009783197e-06 -2.2648235363546192e-05 0 9.5373438169944962e-06 -3.0291920214088287e-05 0 4.0514157277034853e-06 -3.4149856061713814e-05 0 4.5599086009783197e-06 -2.2648235363546192e-05 0 9.5373438169944962e-06 -3.0291920214088287e-05 0 9.4816592722708674e-06 -1.7841089858357033e-05 0 1.0662615488166673e-05 -2.3729712061747391e-05 0 1.2406791301696697e-05 -2.4655723964110581e-05 0 9.5373438169944962e-06 -3.0291920214088287e-05 0 1.5863543595822774e-05 -3.4514238147704677e-05 0 1.0662615488166673e-05 -2.3729712061747391e-05 0 1.2187165255184232e-05 -3.0682145375006584e-05 0 9.5373438169944962e-06 -3.0291920214088287e-05 0 1.5863543595822774e-05 -3.4514238147704677e-05 0 1.0683078012721369e-05 -4.0173840179345295e-05 0 4.0514157277034853e-06 -3.4149856061713814e-05 0 9.5373438169944962e-06 -3.0291920214088287e-05 0 1.0683078012721369e-05 -4.0173840179345295e-05 0 7.1365961902943147e-06 -1.369668441972693e-05 0 6.8393397323735403e-06 -1.0757245192239468e-05 0 8.273587208963129e-06 -1.2798712364009795e-05 0 5.6700578565276064e-06 -1.3057157679865962e-05 0 7.1365961902943147e-06 -1.369668441972693e-05 0 5.8855114871765662e-06 -1.6367638970873009e-05 0 5.6700578565276064e-06 -1.3057157679865962e-05 0 7.1365961902943147e-06 -1.369668441972693e-05 0 6.8393397323735403e-06 -1.0757245192239468e-05 0 5.9836152483581789e-06 -1.0582601082403892e-05 0 5.6700578565276064e-06 -1.3057157679865962e-05 0 6.8393397323735403e-06 -1.0757245192239468e-05 0 6.8393397323735403e-06 -1.0757245192239468e-05 0 6.0907807977613859e-06 -1.0093697231729174e-05 0 7.1065543426618966e-06 -8.6952776112798307e-06 0 5.9836152483581789e-06 -1.0582601082403892e-05 0 6.8393397323735403e-06 -1.0757245192239468e-05 0 6.0907807977613859e-06 -1.0093697231729174e-05 0 6.2613777234871766e-06 -9.0791671918322551e-06 0 7.4443166414392464e-06 -1.2556471359074781e-05 0 6.0907807977613859e-06 -1.0093697231729174e-05 0 6.2613777234871766e-06 -9.0791671918322551e-06 0 6.0907807977613859e-06 -1.0093697231729174e-05 0 7.1065543426618966e-06 -8.6952776112798307e-06 0 6.8393397323735403e-06 -1.0757245192239468e-05 0 7.1065543426618966e-06 -8.6952776112798307e-06 0 8.6082359225528183e-06 -1.0909728326897861e-05 0 7.1065543426618966e-06 -8.6952776112798307e-06 0 9.1196384306721814e-06 -8.3245734882923198e-06 0 8.6082359225528183e-06 -1.0909728326897861e-05 0 8.0741620232675723e-06 -6.0040909438160846e-06 0 7.1065543426618966e-06 -8.6952776112798307e-06 0 9.1196384306721814e-06 -8.3245734882923198e-06 0 9.4833654471574874e-06 -4.6117277766670793e-06 0 1.0600546205829681e-05 -7.089958340367104e-06 0 9.1196384306721814e-06 -8.3245734882923198e-06 0 9.4833654471574874e-06 -4.6117277766670793e-06 0 8.0741620232675723e-06 -6.0040909438160846e-06 0 9.1196384306721814e-06 -8.3245734882923198e-06 0 1.0600546205829681e-05 -7.089958340367104e-06 0 1.1356831647825693e-05 -1.0555666373308779e-05 0 9.1196384306721814e-06 -8.3245734882923198e-06 0 1.1356831647825693e-05 -1.0555666373308779e-05 0 1.0202194200537379e-05 -1.0958177812524171e-05 0 1.2023567028630136e-05 -1.3561138435932456e-05 0 1.1356831647825693e-05 -1.0555666373308779e-05 0 9.1196384306721814e-06 -8.3245734882923198e-06 0 1.0202194200537379e-05 -1.0958177812524171e-05 0 1.0202194200537379e-05 -1.0958177812524171e-05 0 1.0551765383534249e-05 -1.3149942786143681e-05 0 8.6082359225528183e-06 -1.0909728326897861e-05 0 9.1196384306721814e-06 -8.3245734882923198e-06 0 1.0202194200537379e-05 -1.0958177812524171e-05 0 8.6082359225528183e-06 -1.0909728326897861e-05 0 1.0202194200537379e-05 -1.0958177812524171e-05 0 1.0551765383534249e-05 -1.3149942786143681e-05 0 1.2023567028630136e-05 -1.3561138435932456e-05 0 6.8393397323735403e-06 -1.0757245192239468e-05 0 8.6082359225528183e-06 -1.0909728326897861e-05 0 8.273587208963129e-06 -1.2798712364009795e-05 0 1.0551765383534249e-05 -1.3149942786143681e-05 0 8.6082359225528183e-06 -1.0909728326897861e-05 0 1.0045611998202474e-05 -1.4767358825657243e-05 0 8.6082359225528183e-06 -1.0909728326897861e-05 0 8.273587208963129e-06 -1.2798712364009795e-05 0 1.0045611998202474e-05 -1.4767358825657243e-05 0 8.273587208963129e-06 -1.2798712364009795e-05 0 1.0045611998202474e-05 -1.4767358825657243e-05 0 8.4677145734671044e-06 -1.5878363617731532e-05 0 1.0045611998202474e-05 -1.4767358825657243e-05 0 1.2205211535243866e-05 -1.5869686744626593e-05 0 1.2170784975731216e-05 -1.8034358907196847e-05 0 1.0045611998202474e-05 -1.4767358825657243e-05 0 1.0233326224046373e-05 -1.7509780913613289e-05 0 1.2170784975731216e-05 -1.8034358907196847e-05 0 1.0045611998202474e-05 -1.4767358825657243e-05 0 1.0233326224046373e-05 -1.7509780913613289e-05 0 8.4677145734671044e-06 -1.5878363617731532e-05 0 1.2023567028630136e-05 -1.3561138435932456e-05 0 1.3956924214864031e-05 -1.6412647050334558e-05 0 1.2205211535243866e-05 -1.5869686744626593e-05 0 1.0551765383534249e-05 -1.3149942786143681e-05 0 1.2023567028630136e-05 -1.3561138435932456e-05 0 1.2205211535243866e-05 -1.5869686744626593e-05 0 1.0551765383534249e-05 -1.3149942786143681e-05 0 1.0045611998202474e-05 -1.4767358825657243e-05 0 1.2205211535243866e-05 -1.5869686744626593e-05 0 1.2205211535243866e-05 -1.5869686744626593e-05 0 1.4644397492603593e-05 -1.8868100638446781e-05 0 1.2170784975731216e-05 -1.8034358907196847e-05 0 1.3956924214864031e-05 -1.6412647050334558e-05 0 1.2205211535243866e-05 -1.5869686744626593e-05 0 1.4644397492603593e-05 -1.8868100638446781e-05 0 1.7400446904539447e-05 -2.0633967254942564e-05 0 1.4644397492603593e-05 -1.8868100638446781e-05 0 1.65184258561985e-05 -2.1545142026832641e-05 0 1.4644397492603593e-05 -1.8868100638446781e-05 0 1.4356553013475349e-05 -2.0954978554087414e-05 0 1.2170784975731216e-05 -1.8034358907196847e-05 0 1.4644397492603593e-05 -1.8868100638446781e-05 0 1.4356553013475349e-05 -2.0954978554087414e-05 0 1.65184258561985e-05 -2.1545142026832641e-05 0 1.0233326224046373e-05 -1.7509780913613289e-05 0 1.211075437151465e-05 -2.0334061786232704e-05 0 1.0258250498452065e-05 -1.9800124970720401e-05 0 1.4356553013475349e-05 -2.0954978554087414e-05 0 1.2170784975731216e-05 -1.8034358907196847e-05 0 1.211075437151465e-05 -2.0334061786232704e-05 0 1.0233326224046373e-05 -1.7509780913613289e-05 0 1.2170784975731216e-05 -1.8034358907196847e-05 0 1.211075437151465e-05 -2.0334061786232704e-05 0 1.3533687396341714e-05 -2.3020571751952796e-05 0 1.4356553013475349e-05 -2.0954978554087414e-05 0 1.211075437151465e-05 -2.0334061786232704e-05 0 1.211075437151465e-05 -2.0334061786232704e-05 0 1.1409048589070064e-05 -2.1749150369316389e-05 0 1.0258250498452065e-05 -1.9800124970720401e-05 0 1.3533687396341714e-05 -2.3020571751952796e-05 0 1.211075437151465e-05 -2.0334061786232704e-05 0 1.1409048589070064e-05 -2.1749150369316389e-05 0 1.1409048589070064e-05 -2.1749150369316389e-05 0 1.0258250498452065e-05 -1.9800124970720401e-05 0 9.3932663042119955e-06 -2.1222872031834164e-05 0 1.0258250498452065e-05 -1.9800124970720401e-05 0 8.3250401914824671e-06 -1.8412723921417792e-05 0 9.3932663042119955e-06 -2.1222872031834164e-05 0 1.0233326224046373e-05 -1.7509780913613289e-05 0 1.0258250498452065e-05 -1.9800124970720401e-05 0 8.3250401914824671e-06 -1.8412723921417792e-05 0 8.3250401914824671e-06 -1.8412723921417792e-05 0 9.3932663042119955e-06 -2.1222872031834164e-05 0 6.7443447023080385e-06 -1.9997437319334098e-05 0 1.1300854142045443e-05 -6.2873995328002654e-05 0 2.3250441204103013e-05 -6.7928038770890203e-05 0 2.0978281999268766e-05 -5.6114117110832213e-05 0 1.5598868186298842e-05 -4.5679917816542522e-05 0 1.3778222380947159e-05 -3.8060080301311707e-05 0 9.3932663042119955e-06 -2.1222872031834164e-05 0 8.178846740387433e-06 -2.3416144138510996e-05 0 6.7443447023080385e-06 -1.9997437319334098e-05 0 1.4955549405237149e-05 -7.4086592223848068e-05 0 1.1300854142045443e-05 -6.2873995328002654e-05 0 2.3250441204103013e-05 -6.7928038770890203e-05 0 1.1300854142045443e-05 -6.2873995328002654e-05 0 2.0978281999268766e-05 -5.6114117110832213e-05 0 1.1627707567287207e-05 -5.1926191240790887e-05 0 2.0978281999268766e-05 -5.6114117110832213e-05 0 1.1627707567287207e-05 -5.1926191240790887e-05 0 1.8555803911910376e-05 -4.4982732343738784e-05 0 8.3250401914824671e-06 -1.8412723921417792e-05 0 6.7443447023080385e-06 -1.9997437319334098e-05 0 5.8855114871765662e-06 -1.6367638970873009e-05 0 1.3778222380947159e-05 -3.8060080301311707e-05 0 1.2187165255184232e-05 -3.0682145375006584e-05 0 1.1627707567287207e-05 -5.1926191240790887e-05 0 1.0683078012721369e-05 -4.0173840179345295e-05 0 1.8555803911910376e-05 -4.4982732343738784e-05 0 4.5071536874352064e-06 -4.6352456694339694e-05 0 1.1627707567287207e-05 -5.1926191240790887e-05 0 1.0683078012721369e-05 -4.0173840179345295e-05 0 1.5863543595822774e-05 -3.4514238147704677e-05 0 1.0683078012721369e-05 -4.0173840179345295e-05 0 1.8555803911910376e-05 -4.4982732343738784e-05 0 7.1365961902943147e-06 -1.369668441972693e-05 0 5.8855114871765662e-06 -1.6367638970873009e-05 0 8.4677145734671044e-06 -1.5878363617731532e-05 0 7.1365961902943147e-06 -1.369668441972693e-05 0 8.273587208963129e-06 -1.2798712364009795e-05 0 8.4677145734671044e-06 -1.5878363617731532e-05 0 1.0233326224046373e-05 -1.7509780913613289e-05 0 8.3250401914824671e-06 -1.8412723921417792e-05 0 8.4677145734671044e-06 -1.5878363617731532e-05 0 8.3250401914824671e-06 -1.8412723921417792e-05 0 5.8855114871765662e-06 -1.6367638970873009e-05 0 8.4677145734671044e-06 -1.5878363617731532e-05 0 
</DataArray>
</PointData>
<CellData Scalars="region_id,von_mises_stress,cross_section_updated,displacement_divergence," Vectors="" Tensors="effective_stress,">
<DataArray type="Float64" Name="region_id" format="ascii">
1 1 1 1 1 1 1 1 1 1 1 1 1 1 1 1 1 1 1 1 1 1 1 1 1 1 1 1 1 1 1 1 1 1 1 1 1 1 1 1 1 1 1 1 1 1 1 1 1 1 1 1 1 1 1 1 1 1 1 1 1 1 1 1 1 1 1 1 1 1 1 1 1 1 1 1 1 1 1 1 1 1 1 1 1 1 1 1 1 1 1 1 1 1 1 1 1 1 1 1 1 1 1 1 1 1 1 1 1 1 1 1 1 1 1 1 1 1 1 1 1 1 1 1 1 1 1 1 1 1 1 1 1 1 1 1 1 1 1 1 1 1 1 1 1 1 1 1 1 1 1 1 1 1 1 1 1 1 1 1 1 1 1 1 1 1 1 1 1 1 1 1 1 1 1 1 1 1 1 1 1 1 1 1 1 1 1 1 1 1 1 1 1 1 1 1 1 1 1 1 1 1 1 1 1 1 1 1 1 1 1 1 1 1 1 1 1 1 1 1 1 1 1 1 1 1 1 1 1 1 1 1 1 1 1 1 1 1 1 1 1 1 1 1 1 1 1 1 1 1 1 1 1 1 1 1 1 1 1 1 1 1 1 1 1 1 1 1 1 1 1 1 1 1 1 1 1 1 1 1 1 1 1 1 1 1 1 1 1 1 1 1 1 1 1 1 1 1 1 1 1 1 1 1 1 1 1 1 1 1 1 1 1 1 1 1 1 1 1 1 1 1 1 1 1 1 1 1 1 1 1 1 1 1 1 1 1 1 1 1 1 1 1 1 1 1 1 1 1 1 1 1 1 1 1 1 1 1 1 1 1 1 1 1 1 1 1 1 1 1 1 1 1 1 1 1 1 1 1 1 1 1 1 1 1 1 1 1 1 1 1 1 1 1 1 1 1 1 1 1 1 1 1 1 1 1 1 1 1 1 1 1 1 1 1 1 1 1 1 1 1 1 1 1 1 1 1 1 1 1 1 1 1 1 1 1 1 1 1 1 1 1 1 1 1 1 1 1 1 1 1 1 1 1 1 1 1 1 1 1 1 1 1 1 1 1 1 1 1 1 1 1 1 1 1 1 1 1 1 1 1 1 1 1 1 1 1 1 1 1 1 1 1 1 1 1 1 1 1 1 1 1 1 1 1 1 1 1 1 1 1 1 1 1 1 1 1 1 1 1 1 1 1 1 1 1 1 1 1 1 1 1 1 1 1 1 1 1 3 1 1 3 1 1 3 1 1 1 1 1 1 1 1 1 1 1 1 1 3 1 1 1 1 1 3 1 1 1 1 1 1 1 1 1 1 1 1 1 1 1 1 1 1 1 1 1 1 1 1 1 1 1 1 1 1 1 1 1 1 1 1 1 1 1 1 1 1 1 1 1 1 1 1 1 1 1 1 1 1 1 1 1 1 1 1 1 1 1 1 1 1 1 1 1 1 1 1 1 1 1 1 1 1 1 1 1 1 1 1 1 1 1 1 1 1 1 1 1 1 1 1 1 1 1 1 1 1 1 1 1 1 1 1 1 1 1 1 1 1 1 1 1 1 1 1 1 1 1 1 1 1 1 1 1 1 1 1 1 1 1 1 1 1 1 1 1 1 1 1 1 1 1 1 1 1 1 1 1 1 1 1 1 1 1 1 1 1 1 1 1 1 1 1 3 1 1 1 3 1 1 3 1 1 1 1 1 1 1 1 1 1 1 3 1 1 1 1 3 1 1 1 1 1 1 1 1 1 1 1 1 1 1 1 1 1 1 1 1 1 1 1 1 1 1 1 1 1 1 1 1 1 1 1 1 1 1 1 1 1 1 1 1 1 1 1 1 1 1 1 1 1 1 1 1 1 1 2 1 1 1 1 1 1 1 1 1 1 1 1 1 1 2 1 1 2 1 2 1 1 1 1 1 1 1 1 1 1 1 1 1 2 1 1 1 1 1 1 1 1 1 1 1 1 1 1 1 1 1 1 1 1 1 1 1 1 1 1 1 1 1 1 1 1 1 1 1 1 1 1 1 1 1 1 1 1 1 1 1 1 1 1 1 1 1 1 1 1 1 1 1 1 1 1 1 1 1 1 1 1 1 1 1 1 1 1 1 1 1 1 1 1 1 1 1 1 1 1 1 1 1 1 1 1 1 1 1 1 1 1 1 1 1 1 1 1 1 1 1 1 1 1 1 1 1 1 1 1 1 1 1 1 1 1 1 1 1 1 1 1 1 1 1 1 1 1 1 1 2 1 1 2 1 2 1 1 1 1 1 1 1 1 1 1 1 1 1 1 1 1 1 1 1 1 1 1 1 1 1 1 1 1 1 1 1 1 1 1 1 1 1 1 1 1 1 1 1 1 1 1 1 2 1 1 1 1 1 2 1 1 1 1 1 1 1 
</DataArray>
<DataArray type="Float64" Name="effective_stress" NumberOfComponents="9" format="ascii">
-0.031139959920777484 0.001039661869292909 0 0.001039661869292909 -0.0039600324339493804 0 0 0 -0.0087749980886817174 -0.02897689158296023 0.0017276630684788109 0 0.0017276630684788109 -0.0096406465814416996 0 0 0 -0.0096543845411004841 -0.031001009015051432 0.0025036645548190605 0 0.0025036645548190605 0.0016230257070132779 0 0 0 -0.0073444958270095385 -0.029127469857203506 0.002972347576991267 0 0.002972347576991267 -0.0043854332743850826 0 0 0 -0.0083782257828971477 -0.023365829179896387 0.0066562883732948263 0 0.0066562883732948263 -0.0077921097183480973 0 0 0 -0.0077894847245611213 -0.023361466909994667 0.0066599901263836407 0 0.0066599901263836407 -0.0077780404241869112 0 0 0 -0.0077848768335453946 -0.026856759374562816 0.0064175287805761927 0 0.0064175287805761927 -0.0019744148688937615 0 0 0 -0.007207793560864143 -0.028285176056966007 0.0058542735615729697 0 0.0058542735615729697 -0.0026649944447739923 0 0 0 -0.0077375426254350016 -0.025865355286234661 0.007654727281881029 0 0.007654727281881029 -0.0020833488068741704 0 0 0 -0.0069871760232772077 -0.020250032325721382 0.0078935649284415862 0 0.0078935649284415862 -0.0005485118188279306 0 0 0 -0.005199636036137328 -0.029750002833522672 0.0081535307702015232 0 0.0081535307702015232 -0.0011780512386851197 0 0 0 -0.0077320135180519479 -0.019928636050572601 0.0089957476259153422 0 0.0089957476259153422 0.00046282207196902958 0 0 0 -0.0048664534946508946 -0.03688324973225944 0.0064154942087276757 0 0.0064154942087276757 -0.00056574089141116918 0 0 0 -0.0093622476559176472 -0.028697164358137243 0.0067973936243357824 0 0.0067973936243357824 0.000421069993794293 0 0 0 -0.007069023591085734 -0.044169420267006584 0.0024568366285749451 0 0.0024568366285749451 -0.0014483774088970142 0 0 0 -0.011404449418975907 -0.03610947509064176 0.0031454880668335167 0 0.0031454880668335167 -0.00017049245549454606 0 0 0 -0.0090699918865340731 -0.032887794897098969 0.0044686741255913053 0 0.0044686741255913053 0.0019541145648008327 0 0 0 -0.0077334200830745381 -0.033345467219528163 0.0065264565083840995 0 0.0065264565083840995 -0.00065716841987204302 0 0 0 -0.0085006589098500507 -0.0031820294452936356 0.0093168828623195216 0 0.0093168828623195216 -0.0010585395958942667 0 0 0 -0.0010601422602969758 -0.0072128194940906179 0.011477084740886457 0 0.011477084740886457 -0.001491684746579177 0 0 0 -0.0021761260601674487 -0.0083117062596148455 0.008532977410721395 0 0.008532977410721395 -0.00081121852333587274 0 0 0 -0.0022807311957376789 -0.015843614233387447 0.010187186025923412 0 0.010187186025923412 -0.0012018406762215987 0 0 0 -0.0042613637274022623 -0.016756316673261232 0.0093072793755069362 0 0.0093072793755069362 -0.0034249732921104933 0 0 0 -0.0050453224913429313 -0.010228327092616412 0.010243138687857006 0 0.010243138687857006 -0.0019354509543415659 0 0 0 -0.0030409445117394948 -0.010435182523180597 0.0089668998403752993 0 0.0089668998403752993 -0.0034825305223554924 0 0 0 -0.0034794282613840226 -0.017623114440467821 0.010230904529653435 0 0.010230904529653435 -0.00072009464946336948 0 0 0 -0.0045858022724827967 -0.018700315448228613 0.0078951569841109164 0 0.0078951569841109164 -0.00080497134191370289 0 0 0 -0.0048763216975355808 -0.015605716829101172 0.0086560335701858712 0 0.0086560335701858712 -0.0018087025393824716 0 0 0 -0.0043536048421209082 -0.0065025009749349657 0.0083828592190072805 0 0.0083828592190072805 -0.00037810350666737415 0 0 0 -0.0017201511204005832 -0.0069966064162571562 0.0094002151408120703 0 0.0094002151408120703 -0.0014097310002077514 0 0 0 -0.0021015843541162278 -0.0028768509851563578 0.010965811130397638 0 0.010965811130397638 -0.0013051351484321752 0 0 0 -0.0010454965333971337 0.00042677740678073034 0.0079868891119356904 0 0.0079868891119356904 0.00017974835101465525 0 0 0 0.0001516314394488464 -0.00021970871728005034 0.0097514569337554379 0 0.0097514569337554379 -0.0010667487879539167 0 0 0 -0.00032161437630848916 -0.00027653604100066204 0.0072900902880256632 0 0.0072900902880256632 -5.2143373053224751e-05 0 0 0 -8.2169853513471697e-05 -0.007733694553011111 0.010366212160618464 0 0.010366212160618464 -0.00089537872317692335 0 0 0 -0.0021572683190470062 -0.018751414782042369 0.010419685420613221 0 0.010419685420613221 -0.00070120057157129628 0 0 0 -0.0048631538384034147 -0.015067851402339773 0.0103114046776197 0 0.0103114046776197 -0.00088066588105018342 0 0 0 -0.0039871293208474864 -0.0094892993840873362 0.008258019364797059 0 0.008258019364797059 0.00035482731998166817 0 0 0 -0.0022836180160264157 -0.018762474586749948 0.0085209040501435882 0 0.0085209040501435882 0.00076969650928172123 0 0 0 -0.0044981945193670585 -0.021022465871431015 0.010558192619015038 0 0.010558192619015038 -0.00038230976248069398 0 0 0 -0.0053511939084779289 -0.014640914981321709 0.0082937875296063522 0 0.0082937875296063522 8.2147086652432054e-05 0 0 0 -0.0036396919736673217 -0.01021050943582729 0.010838752065099027 0 0.010838752065099027 0.00080455293466878686 0 0 0 -0.0023514891252896276 -0.010301468242846439 0.0082281637625919619 0 0.0082281637625919619 0.0013474377600219932 0 0 0 -0.0022385076207061122 -0.0017236797975842917 0.0075601575030126407 0 0.0075601575030126407 0.00079631395548485843 0 0 0 -0.0002318414605248588 -0.009465840457873409 0.010658695721668804 0 0.010658695721668804 -0.00042325121719432451 0 0 0 -0.0024722729187669334 -0.006833830463571053 0.0069396033626970624 0 0.0069396033626970624 0.0018619988231872409 0 0 0 -0.0012429579100959481 0.0060173664956306959 0.0067727024788627899 0 0.0067727024788627899 0.0005465351096576275 0 0 0 0.0016409754013220791 -0.00073558314761179924 0.0088753976104428128 0 0.0088753976104428128 0.00064060708491475021 0 0 0 -2.3744015674263125e-05 -0.043217870888705608 0.0028745020397472698 0 0.0028745020397472698 -0.0016691196718307925 0 0 0 -0.011221747640134094 -0.034405288089084364 0.0076645902810944643 0 0.0076645902810944643 -6.3475237106112858e-05 0 0 0 -0.0086171908315476158 -0.051599635401687327 0.0040482213167162022 0 0.0040482213167162022 -0.00026901707153907054 0 0 0 -0.012967163118306594 -0.035502932681310655 0.0054989892525883185 0 0.0054989892525883185 0.0013075255512126349 0 0 0 -0.0085488517825245067 -0.026989953424974004 0.0076972990739705097 0 0.0076972990739705097 0.000830921053428961 0 0 0 -0.0065397580928862609 -0.027919608798027039 0.0085744658498184412 0 0.0085744658498184412 -0.00058465031545187549 0 0 0 -0.007126064778369726 -0.028472840899815718 0.0097539476245247746 0 0.0097539476245247746 -0.00052253325046614126 0 0 0 -0.0072488435375704513 -0.032806319286565237 0.0065154980038207196 0 0.0065154980038207196 0.00080163009795050817 0 0 0 -0.0080011722971536827 -0.022814553573665235 0.0080065569083135734 0 0.0080065569083135734 1.6174862134017698e-05 0 0 0 -0.005699594677882799 -0.034171323568514336 0.0091705089484748134 0 0.0091705089484748134 -0.00049222114428884708 0 0 0 -0.0086658861782007955 -0.02656394151695924 0.0072330591153533736 0 0.0072330591153533736 -0.00020274151018311081 0 0 0 -0.0066916707567855884 -0.033318978444734436 0.0069896129761167873 0 0.0069896129761167873 0.00081968922802364073 0 0 0 -0.008124822304177692 -0.046487294773313967 0.005407992154150696 0 0.005407992154150696 -0.00040698539705725199 0 0 0 -0.011723570042592807 -0.04440776496741889 0.0054989799632929022 0 0.0054989799632929022 -0.00061482203777123731 0 0 0 -0.011255646751297548 -0.043101359008145171 0.0033895245596097948 0 0.0033895245596097948 0.00052830524343422131 0 0 0 -0.01064326344117774 -0.058441179769115066 0.0039677746137310906 0 0.0039677746137310906 -0.00039757113395748681 0 0 0 -0.014709687725768146 -0.061966030028006602 0.0034176878599326034 0 0.0034176878599326034 -0.00031521124403219303 0 0 0 -0.015570310318009694 -0.045235810714322998 0.0044273625000563269 0 0.0044273625000563269 0.0013671135969464659 0 0 0 -0.010967174279344138 -0.051772577223479214 0.0029718731274622733 0 0.0029718731274622733 0.00090838839458860787 0 0 0 -0.012716047207222667 -0.071330180395795806 0.0023259436689872307 0 0.0023259436689872307 0.0012891231270805298 0 0 0 -0.017510264317178816 -0.053948585502192996 0.006777299914084817 0 0.006777299914084817 0.0018487060348319484 0 0 0 -0.013024969866840271 -0.052742846405581301 0.0015428092321839587 0 0.0015428092321839587 -0.00020882454431978698 0 0 0 -0.013237917737475291 -0.05709459405410329 0.0025777238941039858 0 0.0025777238941039858 0.0024746572699769764 0 0 0 -0.013654984196031589 -0.079526956166654478 -8.18087724603761e-05 0 -8.18087724603761e-05 -0.00046559950451573184 0 0 0 -0.019998138917792539 -0.031845311602904575 0.0033874530952686804 0 0.0033874530952686804 0.0035197864089147532 0 0 0 -0.0070813812984974762 -0.026303967142403774 0.009336072669012381 0 0.009336072669012381 0.0025041637489240653 0 0 0 -0.0059499508483699323 -0.04019264355782081 0.0062436456517545903 0 0.0062436456517545903 0.00011288028811944767 0 0 0 -0.010019940817425332 -0.03963527029731749 0.0068595791785172368 0 0.0068595791785172368 0.0017261188231194949 0 0 0 -0.0094772878685494867 -0.026294486633048581 0.0099029215057376534 0 0.0099029215057376534 0.0018202614583428442 0 0 0 -0.0061185562936764389 -0.046630658084255233 0.0092138959231730447 0 0.0092138959231730447 0.0022957938927013893 0 0 0 -0.011083716047888457 -0.038503116572300211 0.0060035918185600851 0 0.0060035918185600851 -0.00023034137559395547 0 0 0 -0.0096833644869735499 -0.034664580872941504 0.0094587208927055452 0 0.0094587208927055452 0.0010896111727513799 0 0 0 -0.0083937424250475328 -0.024377147486088206 0.0099711494680140948 0 0.0099711494680140948 0.00073123473950071835 0 0 0 -0.0059114781866468763 -0.015447358742333009 0.0094038666655767364 0 0.0094038666655767364 0.001014775463132906 0 0 0 -0.0036081458198000209 -0.015249690924779121 0.007723541490420067 0 0.007723541490420067 0.0015467940117287141 0 0 0 -0.0034257242282626056 -0.013711833940027347 0.0072427509397308895 0 0.0072427509397308895 0.0031991589288464448 0 0 0 -0.0026281687527952291 -0.0062192769291447023 0.0091530412885637083 0 0.0091530412885637083 0.0013192892603785429 0 0 0 -0.0012249969171915414 -0.025936125872128714 0.007860164475953434 0 0.007860164475953434 0.0016391972978691133 0 0 0 -0.0060742321435648915 0.0013706237803537882 0.0061684974684901054 0 0.0061684974684901054 0.0032384122584217349 0 0 0 0.0011522590096938821 -0.00082812864640764792 0.0093725924930632629 0 0.0093725924930632629 0.00039826839334168238 0 0 0 -0.00010746506326649117 -0.004432250813849764 0.0059490471995080983 0 0.0059490471995080983 0.0040730455552222475 0 0 0 -8.9801314656876539e-05 0.0073159869146503034 0.0028085939463488134 0 0.0028085939463488134 0.0056314893627752126 0 0 0 0.0032368690693563794 0.004525697167614447 0.007855752820737142 0 0.007855752820737142 0.0026710605826668829 0 0 0 0.0017991894375703338 -0.0027350575979125033 0.0060027139979263386 0 0.0060027139979263386 0.0067547658126954555 0 0 0 0.0010049270536957415 0.0091016398504370905 0.0039957218737147471 0 0.0039957218737147471 0.0068832215277578115 0 0 0 0.0039962153445487307 0.0087899808553569617 0.0029226843565135999 0 0.0029226843565135999 0.011139573223180127 0 0 0 0.0049823885196342774 -0.014610212544819035 0.009646677188110752 0 0.009646677188110752 0.0024432884584202133 0 0 0 -0.003041731021599707 -0.021233551329405426 0.005431982134394886 0 0.005431982134394886 0.0029301498397791108 0 0 0 -0.0045758503724065876 -0.0032309145168125161 0.0067170302386168612 0 0.0067170302386168612 0.0032412619943789911 0 0 0 2.5868693916131225e-06 -0.0094789128157602431 0.0040756814024271448 0 0.0040756814024271448 0.0056613223400727025 0 0 0 -0.00095439761892188429 -0.013490805964294347 0.0090463415975069843 0 0.0090463415975069843 0.0058389861964442819 0 0 0 -0.0019129549419625302 -0.020244147902825894 0.008276575583077081 0 0.008276575583077081 0.0073790144978999328 0 0 0 -0.0032162833512315026 -0.011690792675678872 0.00463120043462871 0 0.00463120043462871 0.014958658933851371 0 0 0 0.00081696656454312289 -0.018917604134006533 0.00041253284133731249 0 0.00041253284133731249 0.0077365888190379928 0 0 0 -0.0027952538287421419 0.023554500819873474 -0.00054619399125228549 0 -0.00054619399125228549 0.013847502723966509 0 0 0 0.0093505008859599975 -0.0053370500742964122 0.0065893275167800101 0 0.0065893275167800101 0.010475142659386427 0 0 0 0.0012845231462724968 0.0052218465798637564 0.0020106400683535947 0 0.0020106400683535947 0.01138828402873554 0 0 0 0.0041525326521498276 0.0077686771591616022 0.0032199059972396263 0 0.0032199059972396263 0.018900993373477087 0 0 0 0.0066674176331596724 0.01888083041326255 -0.0033057199806144841 0 -0.0033057199806144841 0.020699515063213436 0 0 0 0.0098950863691189828 0.0046042128101018015 0.00047763793024672985 0 0.00047763793024672985 0.029011924339676087 0 0 0 0.0084040342874444757 0.0029823721589654073 -0.0067585594237153657 0 -0.0067585594237153657 0.028081116999057798 0 0 0 0.007765872289505843 0.010218916679942187 -0.010937856817013758 0 -0.010937856817013758 0.023684498610180571 0 0 0 0.0084758538225306809 0.020290595471579048 -0.0053155191700874765 0 -0.0053155191700874765 0.04455084864718889 0 0 0 0.016210361029691991 -0.016772064226836289 -0.0028497111528927588 0 -0.0028497111528927588 0.017767279012112613 0 0 0 0.00024880369631906374 -0.0011883488459254327 -0.0018715440832328123 0 -0.0018715440832328123 0.013764309961888002 0 0 0 0.0031439902789906424 -0.002692432389081699 -0.0099584147587277738 0 -0.0099584147587277738 0.016944541178052608 0 0 0 0.0035630271972427394 -0.019793304449842897 -0.00028497791449517886 0 -0.00028497791449517886 0.0091732940045246569 0 0 0 -0.0026550026113295599 -0.023932825626837753 -0.0077149233415541585 0 -0.0077149233415541585 0.010247964597931994 0 0 0 -0.0034212152572264537 -0.036375846492251715 -0.0030899436817073411 0 -0.0030899436817073411 0.0070518039734316362 0 0 0 -0.0073310106297050232 -0.042197486306410119 0.0028043454561829523 0 0.0028043454561829523 0.0041454738007249345 0 0 0 -0.0095130031264212891 -0.050805738005805276 -0.0064979661210281814 0 -0.0064979661210281814 0.0057594887591215921 0 0 0 -0.0112615623116709 -0.057580102053422497 0.00091389729474367076 0 0.00091389729474367076 0.0019181508204958453 0 0 0 -0.013915487808231694 -0.082917008071779638 -0.00047036822999245442 0 -0.00047036822999245442 0.0024720697831025762 0 0 0 -0.020111234572169276 -0.060960579809792595 0.0018819490996350163 0 0.0018819490996350163 0.0021806336145822613 0 0 0 -0.014694986548802566 -0.059423107092814377 -0.0013889692458084191 0 -0.0013889692458084191 0.0021527121157621787 0 0 0 -0.014317598744263069 -0.063108129426045503 -0.00062150950830953955 0 -0.00062150950830953955 -0.00012908540059886064 0 0 0 -0.01580930370666106 -0.052404256750646264 0.0059922231544172269 0 0.0059922231544172269 0.0021211483909503448 0 0 0 -0.01257077708992399 -0.083258789557203186 0.0026152193738930574 0 0.0026152193738930574 0.00073435910750373201 0 0 0 -0.020631107612424884 -0.06079743345024622 0.0057656694932659291 0 0.0057656694932659291 0.0018527166621493674 0 0 0 -0.014736179197024211 -0.040094191854067568 0.0079938788339608199 0 0.0079938788339608199 0.0039988080399563086 0 0 0 -0.0090238459535278009 -0.030065745213943937 0.0058762699917316447 0 0.0058762699917316447 0.0067727632157836282 0 0 0 -0.0058232454995400668 -0.043241815769451311 0.00063452461524575454 0 0.00063452461524575454 0.003785754409212758 0 0 0 -0.0098640153400596387 0.019205626150379844 -0.0074233874984389672 0 -0.0074233874984389672 0.037996467236647846 0 0 0 0.01430052334675691 0.019923878161352101 -0.0080947834169108248 0 -0.0080947834169108248 0.031829457578507206 0 0 0 0.012938333934964828 0.018944311231769054 -0.0085684554740247422 0 -0.0085684554740247422 0.027294255661864344 0 0 0 0.011559641723408356 0.016748370559058638 -0.0058092145003542615 0 -0.0058092145003542615 0.034069037317034333 0 0 0 0.012704351969023234 0.019311037810757645 -0.0018445154313742108 0 -0.0018445154313742108 0.038428923894841434 0 0 0 0.014434990426399771 0.021167433442107773 -0.0029619589399937918 0 -0.0029619589399937918 0.043467564796727143 0 0 0 0.016158749559708724 0.017218068926513595 -0.0082281433983976068 0 -0.0082281433983976068 0.042785785370121489 0 0 0 0.015000963574158787 0.016949641267006196 -0.0075303845681469611 0 -0.0075303845681469611 0.040075677251545427 0 0 0 0.014256329629637902 0.019886057325810017 -0.0083845963207168778 0 -0.0083845963207168778 0.040826585293594592 0 0 0 0.015178160654851142 0.0191425541581519 -0.0076113764932373568 0 -0.0076113764932373568 0.037485941551325716 0 0 0 0.01415712392736939 0.014030134939553036 -0.0064011505058440277 0 -0.0064011505058440277 0.03644181639123964 0 0 0 0.012617987832698168 0.016949148899918859 -0.008652062414858757 0 -0.008652062414858757 0.040031371245491304 0 0 0 0.014245130036352555 0.015700782730409459 -0.0094472892960147381 0 -0.0094472892960147381 0.038368777889590935 0 0 0 0.013517390155000098 0.016538888177137751 -0.011265421055015818 0 -0.011265421055015818 0.040382662833637867 0 0 0 0.01423038775269389 0.017486568677763249 -0.0072933547315731928 0 -0.0072933547315731928 0.047324939077581049 0 0 0 0.016202876938836076 0.044790474356641456 -0.033662579521147068 0 -0.033662579521147068 0.073647327364347454 0 0 0 0.029609450430247215 0.012853271781291087 -0.018843902109640216 0 -0.018843902109640216 0.045766911798939505 0 0 0 0.014655045895057651 0.040943785767068266 -0.022605279069021926 0 -0.022605279069021926 0.040347301667862226 0 0 0 0.02032277185873262 0.013312547306146151 -0.011258937861914467 0 -0.011258937861914467 0.040731910991594553 0 0 0 0.013511114574435178 0.046160569824682265 -0.0046847832022575697 0 -0.0046847832022575697 0.066403943562999945 0 0 0 0.028141128346920549 0.03611842449130212 -0.012561834901590137 0 -0.012561834901590137 0.035649244871430119 0 0 0 0.017941917340683053 0.066017666755629215 -0.017534699933154194 0 -0.017534699933154194 0.045295962044794288 0 0 0 0.027828407200105869 0.031158322027381908 -0.012350486078289577 0 -0.012350486078289577 0.033124778748197678 0 0 0 0.016070775193894899 0.02265016723969733 -0.0012651897775927401 0 -0.0012651897775927401 0.033549772618667081 0 0 0 0.014049984964591089 0.041579489575487426 -0.008109614171072331 0 -0.008109614171072331 0.025951525056094937 0 0 0 0.016882753657895593 0.020989917026682316 -0.0033649789477489048 0 -0.0033649789477489048 0.020264721140263259 0 0 0 0.010313659541736384 0.027920264381474564 -0.0044914851684526372 0 -0.0044914851684526372 0.014976508301404859 0 0 0 0.010724193170719851 0.023361168622902575 -0.014811818913022211 0 -0.014811818913022211 0.035541230601071408 0 0 0 0.01472559980599349 0.020029546797777031 -0.013670991484358061 0 -0.013670991484358061 0.0261083239756668 0 0 0 0.011534467693360955 0.028349317660086949 -0.012191722575350745 0 -0.012191722575350745 0.029115427948488933 0 0 0 0.014366186402143969 0.020024988537085897 -0.0071211661836121853 0 -0.0071211661836121853 0.015606779021740624 0 0 0 0.0089079418897066321 0.022420099727352018 -0.0083255332101910568 0 -0.0083255332101910568 0.027947594722436773 0 0 0 0.012591923612447195 0.021431697274105949 -0.0060316080065967968 0 -0.0060316080065967968 0.017759613264037882 0 0 0 0.0097978276345359466 0.020171084784054511 -0.00045800476421626723 0 -0.00045800476421626723 0.015306573265685349 0 0 0 0.0088694145124349651 0.018758015929042401 -0.00048938233265618039 0 -0.00048938233265618039 0.0087587492682654824 0 0 0 0.0068791912993269727 0.017593491396252263 -0.0022817750445675508 0 -0.0022817750445675508 0.013967775263697149 0 0 0 0.007890316664987353 0.021566190320390081 -0.0030360680403888817 0 -0.0030360680403888817 0.011130588339131595 0 0 0 0.008174194664880426 0.017436905631245555 0.00095938597224495131 0 0.00095938597224495131 0.011759946625948384 0 0 0 0.0072992130642984777 0.011117647554756752 0.0045798545913780095 0 0.0045798545913780095 0.0071958935242584891 0 0 0 0.0045783852697538095 0.016089287600912775 0.00013604043592478849 0 0.00013604043592478849 0.0070114149329077481 0 0 0 0.0057751756334551308 0.013620597032470701 0.0048920394787668872 0 0.0048920394787668872 0.0055348086304982556 0 0 0 0.0047888514157422395 0.011204146497520648 0.0035375100514618008 0 0.0035375100514618008 0.0033940198947359952 0 0 0 0.0036495415980641608 0.0073252881211743623 0.0074429727622831454 0 0.0074429727622831454 0.0023028100546058196 0 0 0 0.0024070245439450455 0.019965922732007875 -0.00092993960817001117 0 -0.00092993960817001117 0.01077530415052688 0 0 0 0.0076853067206336927 0.019427784256797184 -0.0013814171642663031 0 -0.0013814171642663031 0.0096712602888302281 0 0 0 0.007274761136406847 0.017376536921134712 0.002321222177346682 0 0.002321222177346682 0.0081775605881871192 0 0 0 0.006388524377330459 0.016243905707542715 0.0017063888197003637 0 0.0017063888197003637 0.006813166013476063 0 0 0 0.0057642679302546945 0.0195706367016521 0.00015472650390924495 0 0.00015472650390924495 0.012348903693313639 0 0 0 0.0079798850987414325 0.020375649402630921 0.0037551670898913064 0 0.0037551670898913064 0.0076067046956887147 0 0 0 0.0069955885245799104 0.02384381962090918 0.0034492282322304973 0 0.0034492282322304973 0.012491592567241172 0 0 0 0.0090838530470375919 0.024603110437499777 0.0027131954090530439 0 0.0027131954090530439 0.012011131856539237 0 0 0 0.0091535605735097551 0.021865972117790355 -0.00077078548243094454 0 -0.00077078548243094454 0.0148912676855633 0 0 0 0.0091893099508384094 0.02178882163543731 -0.00066325017993088551 0 -0.00066325017993088551 0.018218608278347391 0 0 0 0.010001857478446178 0.019551036504748813 -0.0023848417966369842 0 -0.0023848417966369842 0.016010497806237447 0 0 0 0.0088903835777465658 0.022952701881254433 -0.0024078401863556471 0 -0.0024078401863556471 0.026257990871986821 0 0 0 0.012302673188310319 0.023167193158275992 0.00084268368133583356 0 0.00084268368133583356 0.019779070410997891 0 0 0 0.01073656589231848 0.018722402575107676 -0.004065018077499487 0 -0.004065018077499487 0.023982576640961234 0 0 0 0.010676244804017226 0.020900293464301528 -0.0052032715146419391 0 -0.0052032715146419391 0.030840637675734285 0 0 0 0.012935232785008965 0.019294211050701254 -0.0065629106561683574 0 -0.0065629106561683574 0.021816290989597413 0 0 0 0.010277625510074669 0.025371210247206035 0.0017434567667353972 0 0.0017434567667353972 0.042025441826014656 0 0 0 0.016849163018305181 0.019862023855437769 -0.00099974156297701782 0 -0.00099974156297701782 0.028765429104293833 0 0 0 0.012156863239932893 0.022335809607149426 -0.0023527195005939739 0 -0.0023527195005939739 0.03515549884371108 0 0 0 0.01437282711271513 0.023814284121261162 0.00082216567459765847 0 0.00082216567459765847 0.021958244053577769 0 0 0 0.011443132043709735 0.025713641489724111 0.0030283245636713906 0 0.0030283245636713906 0.029031483967126327 0 0 0 0.013686281364212615 0.025709552371293045 0.0028976134940295693 0 0.0028976134940295693 0.028629753866839597 0 0 0 0.013584826559533161 0.027359134770044778 0.0040134935511996856 0 0.0040134935511996856 0.01681088077419033 0 0 0 0.011042503886058781 0.027123286835266196 0.0045333182400513535 0 0.0045333182400513535 0.017459502016569137 0 0 0 0.011145697212958841 0.030890775496370097 0.0063938304818182395 0 0.0063938304818182395 0.013722968171253925 0 0 0 0.011153435916906002 0.03002478900616894 0.0060596778573953226 0 0.0060596778573953226 0.0084580922960745056 0 0 0 0.0096207203255608657 0.027201820802295908 0.0042805891961820285 0 0.0042805891961820285 0.0044460714625931819 0 0 0 0.0079119730662222734 0.026684437666402508 0.0053195852940283311 0 0.0053195852940283311 0.0094499747791267005 0 0 0 0.0090336031113823021 0.027834579302259136 0.0042147668110796219 0 0.0042147668110796219 0.009877439684344104 0 0 0 0.0094280047466508109 0.021739597775218215 0.0021500913687878161 0 0.0021500913687878161 0.0086012593522633227 0 0 0 0.0075852142818703828 0.021500294922082629 0.0048708282643330205 0 0.0048708282643330205 0.0049870830691616987 0 0 0 0.0066218444978110823 0.024368190311397017 0.0048851023093775241 0 0.0048851023093775241 0.0052434502636355615 0 0 0 0.0074029101437581429 0.025111267937472512 0.0047183005031323222 0 0.0047183005031323222 0.0084330315263427685 0 0 0 0.0083860748659538228 0.02545103295825802 0.0045702294045953922 0 0.0045702294045953922 0.0031540368514603109 0 0 0 0.0071512674524295827 0.025071395081725917 0.0057832992537460992 0 0.0057832992537460992 0.0021019559295266804 0 0 0 0.0067933377528131512 0.020879927927811581 0.0054510389400412567 0 0.0054510389400412567 0.0023746620664628383 0 0 0 0.0058136474985686021 0.028197116825182205 0.0054221459030487085 0 0.0054221459030487085 0.0016769614208968185 0 0 0 0.0074685195615197576 0.028029761688312428 0.0041669860831418364 0 0.0041669860831418364 0.001626735613951949 0 0 0 0.007414124325566096 0.031307651877938755 0.005024985287574355 0 0.005024985287574355 0.0027158161058598099 0 0 0 0.0085058669959496378 0.029423884032315786 0.0041863140598846042 0 0.0041863140598846042 0.0025380652054321322 0 0 0 0.007990487309436977 0.027904077446606571 0.0054894348539434139 0 0.0054894348539434139 0.0044240534215531481 0 0 0 0.0080820327170399251 0.0068349710613967041 0.0066888015279000243 0 0.0066888015279000243 0.0036210476606988763 0 0 0 0.0026140046805238973 0.012710376066816468 0.0055333973480147895 0 0.0055333973480147895 0.0015012032301473799 0 0 0 0.0035528948242409637 0.0069359932691646182 0.0072741726261721859 0 0.0072741726261721859 0.0014794025846452917 0 0 0 0.0021038489634524768 0.016265195617278325 0.0047781783113846499 0 0.0047781783113846499 0.00089328560507794669 0 0 0 0.0042896203055890758 0.013697584662353672 0.0057272668870312887 0 0.0057272668870312887 0.0047792256577980502 0 0 0 0.004619202580037932 0.016923697009345672 0.0049517751442600295 0 0.0049517751442600295 0.0037253022279720056 0 0 0 0.005162249809329421 0.018691451660956669 0.0027445786501315156 0 0.0027445786501315156 0.0043295026520880214 0 0 0 0.0057552385782611813 0.018588123936718215 0.0060462801132176482 0 0.0060462801132176482 0.0057741939462534371 0 0 0 0.0060905794707429104 0.02038916404722781 0.0044757274220474539 0 0.0044757274220474539 0.0017631979786553592 0 0 0 0.0055380905064707948 0.017267905275595311 0.0049829575251729274 0 0.0049829575251729274 0.0024237635563220047 0 0 0 0.0049229172079793314 0.020462859671204973 0.0065512836406117318 0 0.0065512836406117318 0.0010572013223574591 0 0 0 0.0053800152483906086 0.014824970866469885 0.007036701157093055 0 0.007036701157093055 0.002625456907422918 0 0 0 0.0043626069434731978 0.013827790023757287 0.0064663774408957432 0 0.0064663774408957432 0.00062583347350906454 0 0 0 0.003613405874316588 0.0076728205858439093 0.0070462834447940041 0 0.0070462834447940041 0.00079824761739030053 0 0 0 0.002117767050808554 0.0065424656637897306 0.0087268280532657345 0 0.0087268280532657345 7.4998006996396249e-07 0 0 0 0.0016358039109649249 0.0067180692157977184 0.0073513857139877285 0 0.0073513857139877285 0.0004086170290620722 0 0 0 0.0017816715612149515 0.0010204702397255544 0.009120119304077464 0 0.009120119304077464 -2.9028432495435685e-05 0 0 0 0.00024786045180752794 0.0044905709916968914 0.0099748240100595714 0 0.0099748240100595714 -0.00027624951390086035 0 0 0 0.001053580369449008 0.00028920744319960862 0.0085978953708702958 0 0.0085978953708702958 0.00071936918056186849 0 0 0 0.00025214415594037101 0.0050875835546028876 0.007323362360730893 0 0.007323362360730893 -0.00025051139703693298 0 0 0 0.0012092680393914895 0.010623598334202044 0.0086394748543292717 0 0.0086394748543292717 0.00034501885495599391 0 0 0 0.0027421542972895091 0.0096713162967170425 0.0075392075611951997 0 0.0075392075611951997 0.0007432801305284481 0 0 0 0.0026036491068113718 0.011511295614614529 0.009026798012769734 0 0.009026798012769734 0.00058166432981260861 0 0 0 0.0030232399861067844 0.014875342325493307 0.0062308704439536762 0 0.0062308704439536762 0.00060264483963241855 0 0 0 0.0038694967912814345 0.015755368545725984 0.0069559134179821031 0 0.0069559134179821031 0.0016587293669659275 0 0 0 0.0043535244781729762 0.01984573807794289 0.0072581132371045661 0 0.0072581132371045661 0.00061303163770782404 0 0 0 0.0051146924289126785 0.015833781966632279 0.0065969069321348238 0 0.0065969069321348238 0.0029717127094945183 0 0 0 0.0047013736690316998 0.013639241861310093 0.0093877830614219095 0 0.0093877830614219095 0.0017178489621495381 0 0 0 0.0038392727058649077 0.011992256925721676 0.0081248051865204837 0 0.0081248051865204837 0.003997407886882692 0 0 0 0.0039974162031510916 0.0073160464875984179 0.010831293006997304 0 0.010831293006997304 0.00053369084455338889 0 0 0 0.0019624343330379521 0.0045991131299440696 0.0088924312182840377 0 0.0088924312182840377 0.0015314589956258241 0 0 0 0.0015326430313924737 0.00034009126092716252 0.011628129475880879 0 0.011628129475880879 -0.00098837435362147952 0 0 0 -0.00016207077317357925 0.027372200243052161 0.0041539177695131971 0 0.0041539177695131971 0.0024180061407999484 0 0 0 0.0074475515959630248 0.028322550388813268 0.0046780496353146187 0 0.0046780496353146187 0.0014645001309814918 0 0 0 0.0074467626299486913 0.024577314756645229 0.0052674543038045774 0 0.0052674543038045774 0.0017501573762559626 0 0 0 0.0065818680332253039 0.024515025677593096 0.0057502549284657251 0 0.0057502549284657251 0.00094901632129695823 0 0 0 0.0063660104997225134 0.020604072423465822 0.005943598321251505 0 0.005943598321251505 0.0024029847839989842 0 0 0 0.0057517643018662008 0.023147307713463617 0.0058009774912387794 0 0.0058009774912387794 0.0026536457465428445 0 0 0 0.0064502383650016145 0.018471772573605751 0.0068502602213777134 0 0.0068502602213777134 0.0061537884991944613 0 0 0 0.0061563902682000527 0.018581479557099666 0.0077813085476397996 0 0.0077813085476397996 0.0037251300878300337 0 0 0 0.0055766524112324245 0.02221731504975261 0.0058852136439604069 0 0.0058852136439604069 0.007404826653402777 0 0 0 0.0074055354257888473 0.022455536640409338 0.0058105031109131847 0 0.0058105031109131847 0.0039565978369598392 0 0 0 0.0066030336193422957 0.026981884082650207 0.0038769303746954125 0 0.0038769303746954125 0.0046410778372779366 0 0 0 0.0079057404799820347 0.024995446749757979 0.0049778588691024445 0 0.0049778588691024445 0.0020801667472694469 0 0 0 0.0067689033742568544 0.024167424491383614 0.0046687865371845307 0 0.0046687865371845307 0.0043597770509042968 0 0 0 0.0071318003855719786 0.024664005596107558 0.0045248039635799745 0 0.0045248039635799745 0.0082204189441984158 0 0 0 0.008221106135076494 0.026114330869227837 0.0026599141814347741 0 0.0026599141814347741 0.0035987249448614124 0 0 0 0.0074282639535223124 0.028044341581481027 0.0011469240399714046 0 0.0011469240399714046 0.009342430451936631 0 0 0 0.0093466930083544158 0.025697074712978458 0.00026886692214559148 0 0.00026886692214559148 0.0026750121098889578 0 0 0 0.0070930217057168544 0.029851719546332544 0.00019204037933763193 0 0.00019204037933763193 0.0037413484067863926 0 0 0 0.0083982669882797355 0.029618005080926376 0.001805823432724164 0 0.001805823432724164 0.0025452397257435515 0 0 0 0.0080408112016674797 0.030306022283428234 0.0026393125503113876 0 0.0026393125503113876 0.0018042504847464074 0 0 0 0.008027568192043661 0.02893454676487188 0.0012210796421494744 0 0.0012210796421494744 0.00068623818344934516 0 0 0 0.0074051962370803061 0.032290598013794157 0.0013976589534029022 0 0.0013976589534029022 0.0017631971676992072 0 0 0 0.0085134487953733417 0.030233874534808185 0.0023875542531819728 0 0.0023875542531819728 -0.00014490672273591505 0 0 0 0.0075222419530180653 0.03100214765770104 1.9648872714342239e-05 0 1.9648872714342239e-05 -0.001547015123235082 0 0 0 0.0073637831336164916 0.028552636475129095 -0.0032371034302987947 0 -0.0032371034302987947 -0.0021993346121746138 0 0 0 0.0065883254657386221 0.030126886939902599 -0.0011729096787819297 0 -0.0011729096787819297 0.00091413996989671113 0 0 0 0.0077602567274498288 0.028807780742316928 -0.00093805098792904701 0 -0.00093805098792904701 0.0014690613538356784 0 0 0 0.007569210524038153 0.027617999404463446 -0.0011165334511389451 0 -0.0011165334511389451 0.0092075735611348228 0 0 0 0.0092063932413995672 0.027010640714732685 -0.0032028108551618458 0 -0.0032028108551618458 0.0089966007651284836 0 0 0 0.0090018103699652935 0.025133360510932189 -0.0028671687934179323 0 -0.0028671687934179323 0.0029572740008708834 0 0 0 0.007022658627950768 0.022425596557463373 -0.0062954000149177455 0 -0.0062954000149177455 0.0074734009605309498 0 0 0 0.0074747493794985785 0.02703116469990504 -0.0037907422932164257 0 -0.0037907422932164257 0.0025040625794272996 0 0 0 0.0073838068198330848 0.021600456678008063 -0.0063856752597346951 0 -0.0063856752597346951 0.00030264604548916468 0 0 0 0.0054757756808743079 0.013759780969932542 -0.0091173916561050148 0 -0.0091173916561050148 0.0045824607953222404 0 0 0 0.0045855604413136963 0.015106930136104601 -0.010451048286038296 0 -0.010451048286038296 -0.001736473130934571 0 0 0 0.0033426142512925083 0.0069066415979002396 -0.013333119044347145 0 -0.013333119044347145 -0.0027994821087910966 0 0 0 0.001026789872277287 0.014690712413211749 -0.010436555869485744 0 -0.010436555869485744 -0.004794495127316882 0 0 0 0.0024740543214737173 0.017458082427798751 -0.0076934636860803984 0 -0.0076934636860803984 -0.0026449768811030207 0 0 0 0.0037032763866739343 0.021671435595456621 -0.0065053704355784638 0 -0.0065053704355784638 -0.00017421180753841143 0 0 0 0.0053743059469795523 0.011513141335241065 -0.0094757162293217963 0 -0.0094757162293217963 -0.0022175955113010321 0 0 0 0.0023238864559850074 0.02155692067288761 -0.0068118867140985612 0 -0.0068118867140985612 -0.0026669976462733412 0 0 0 0.0047224807566535656 0.028014984923025267 -0.004106112052655677 0 -0.004106112052655677 -0.0037250230168935639 0 0 0 0.0060724904765329258 0.029334126756553038 -0.0021557776070357838 0 -0.0021557776070357838 -0.00078363299949501565 0 0 0 0.0071376234392645076 0.03021398275721425 -0.0028614752503530521 0 -0.0028614752503530521 -0.0018256159981507574 0 0 0 0.0070970916897658744 0.02979898296001782 -0.0026359931416887377 0 -0.0026359931416887377 -0.0030659983944233702 0 0 0 0.0066832461413986084 0.036291752752520577 -0.00028016633387943656 0 -0.00028016633387943656 -0.0018306696898274183 0 0 0 0.0086152707656732847 0.024466333043803235 -0.0071241682217895869 0 -0.0071241682217895869 -0.004858761612428264 0 0 0 0.0049018928578437419 0.018793375596011939 -0.0099223881707739235 0 -0.0099223881707739235 -0.0043062955895115315 0 0 0 0.0036217700016250957 0.024138274716616587 -0.0066304104866042792 0 -0.0066304104866042792 -0.0040687777325204427 0 0 0 0.0050173742460240377 0.026007695364757825 -0.004291668824647904 0 -0.004291668824647904 -0.0024709711490069862 0 0 0 0.0058841810539377107 0.014633943264020391 -0.0095163810230611059 0 -0.0095163810230611059 -0.0052447526919124545 0 0 0 0.0023472976430269823 0.024487846321766513 -0.010002986762341879 0 -0.010002986762341879 -0.0049503819029821927 0 0 0 0.0048843661046960724 0.029018920754264939 -0.007187007348661659 0 -0.007187007348661659 -0.0023075347762752177 0 0 0 0.0066778464944974286 0.027481406133194382 -0.0060341141638242599 0 -0.0060341141638242599 -0.0025764111398884288 0 0 0 0.006226248748326486 0.039074335928297926 -0.0019884512969089605 0 -0.0019884512969089605 0.0010302831031085468 0 0 0 0.010026154757851615 0.029048275739641694 -0.008850676078077194 0 -0.008850676078077194 0.00011982425375782208 0 0 0 0.0072920249983498692 0.028660762989418147 -0.0086118623156160555 0 -0.0086118623156160555 0.00058247529477118039 0 0 0 0.0073108095710473315 0.033762079556766258 5.2908494126659636e-05 0 5.2908494126659636e-05 -2.1274496882087938e-05 0 0 0 0.0084352012649710414 0.034661274051575305 -0.0044762092141268587 0 -0.0044762092141268587 -0.0021947174737570931 0 0 0 0.0081166391444545526 0.039144418902504537 0.00055780694927424048 0 0.00055780694927424048 -0.00013411979770883096 0 0 0 0.009752574776198928 0.04472685618390343 0.0041796344964488011 0 0.0041796344964488011 0.0058935779356685293 0 0 0 0.012655108529892991 0.038453505701067321 0.004813955458341769 0 0.004813955458341769 0.0055364376122953585 0 0 0 0.010997485828340668 0.040422513377815016 0.003905184403375412 0 0.003905184403375412 0.0069541929262742878 0 0 0 0.011844176576022313 0.03694795603017189 0.0027239816891117281 0 0.0027239816891117281 0.0012386277333800285 0 0 0 0.0095466459408879746 0.036770505085794179 0.0056577985576302687 0 0.0056577985576302687 0.0048168120657448976 0 0 0 0.010396829287884766 0.038148044813830856 0.0072861428462611937 0 0.0072861428462611937 0.011095347598023164 0 0 0 0.012310848102963515 0.035287495254382281 0.0047109527366947946 0 0.0047109527366947946 0.0059654911062232939 0 0 0 0.010313246590151386 0.034611322065155499 0.0071080877981538918 0 0.0071080877981538918 0.010780082409448763 0 0 0 0.011347851118651071 0.031414537182966676 0.0053441314013321708 0 0.0053441314013321708 0.0052328458410220123 0 0 0 0.0091618457559971764 0.030775823690663586 0.0047748158064046817 0 0.0047748158064046817 0.0051477853163091648 0 0 0 0.008980902251743186 0.033308816189532867 0.0034659847052890278 0 0.0034659847052890278 0.0018442108149780752 0 0 0 0.0087882567511277376 0.034433966370201428 0.0044389851188342336 0 0.0044389851188342336 0.0026468485110467356 0 0 0 0.0092702037203120438 0.030608099581571676 0.0032002237892435909 0 0.0032002237892435909 0.00056533372025316907 0 0 0 0.0077933583254562117 0.033872772922364382 0.002780121162972376 0 0.002780121162972376 0.0011408015506203847 0 0 0 0.0087533936182461955 0.031740211735357272 0.0014299612055609229 0 0.0014299612055609229 -0.00073312242709180388 0 0 0 0.0077517723270663676 0.033296700229964026 0.00088336185092064844 0 0.00088336185092064844 -0.00023161332875755404 0 0 0 0.0082662717253016212 0.032658199990329317 -0.0016766733156192524 0 -0.0016766733156192524 -0.0017496042689923957 0 0 0 0.0077271489303342347 0.03395224094590106 0.0023637440797038421 0 0.0023637440797038421 0.00089864964286808131 0 0 0 0.0087127226471922815 0.036160089230803695 0.0026260871634363201 0 0.0026260871634363201 0.00021465705872483125 0 0 0 0.0090936865723821297 -0.061693167070279227 -0.0039527282357493159 0 -0.0039527282357493159 -0.0024105761547748563 0 0 0 -0.016025935806263516 -0.043428603316189987 -0.010762128168608553 0 -0.010762128168608553 -0.0011770161059316483 0 0 0 -0.011151404855530414 -0.048506512508765087 -0.0050348740576079002 0 -0.0050348740576079002 -0.00028242168919649646 0 0 0 -0.012197233549490392 -0.042599525482017397 -0.0073899651406714407 0 -0.0073899651406714407 0.0033428197658494831 0 0 0 -0.0098141764290419799 -0.039298698684753358 -0.0047709392112954534 0 -0.0047709392112954534 0.0027984956028782107 0 0 0 -0.0091250507704687886 -0.039533091207058009 -0.0028133594448944625 0 -0.0028133594448944625 -0.0046205789199293083 0 0 0 -0.011038417531746832 -0.036625091978891813 -0.0037217104417186508 0 -0.0037217104417186508 -0.012184042460226811 0 0 0 -0.012202283609779655 -0.036778728488281516 -0.0053869830427843053 0 -0.0053869830427843053 -0.0052031639709125312 0 0 0 -0.010495473114798513 -0.035779783538806495 -0.0096316357780988956 0 -0.0096316357780988956 -0.003396505832492621 0 0 0 -0.0097940723428247799 -0.03196845755637235 -0.0099646786652790517 0 -0.0099646786652790517 -0.0020711063213966156 0 0 0 -0.0085098909694422409 -0.027553208512601762 -0.010062588281921879 0 -0.010062588281921879 -0.0091900456639500451 0 0 0 -0.0091858135441379527 -0.027546734393522853 -0.010066590571855286 0 -0.010066590571855286 -0.0091695467238091435 0 0 0 -0.0091790702793329987 -0.030729490697737716 -0.011953970725736181 0 -0.011953970725736181 -0.0036604211664361536 0 0 0 -0.0085974779660434701 -0.020896591356851485 -0.012216447795609793 0 -0.012216447795609793 -0.0011135340681577878 0 0 0 -0.0055025313562523173 -0.034657379848682571 -0.011124353944290099 0 -0.011124353944290099 0.00067729218685703974 0 0 0 -0.0084950219154563845 -0.049589617080522584 -0.011013988239479865 0 -0.011013988239479865 -0.0016652929254579556 0 0 0 -0.012813727501495127 -0.019886092815868492 -0.014648002163239707 0 -0.014648002163239707 -0.00051561056717278758 0 0 0 -0.0051004258457603216 -0.03668901600715084 -0.013323541593122898 0 -0.013323541593122898 -0.0031254215244976707 0 0 0 -0.0099536093829121243 -0.017443269727054185 -0.01226154348799288 0 -0.01226154348799288 -0.0025476428441166088 0 0 0 -0.0049977281427927012 -0.013797841199381791 -0.012614305775951788 0 -0.012614305775951788 -0.0042751024839415563 0 0 0 -0.0045182359208308341 -0.017472364935967405 -0.015502163288103454 0 -0.015502163288103454 -0.0029923691449972524 0 0 0 -0.0051161835202411616 -0.015782828974974981 -0.014343286104263716 0 -0.014343286104263716 -0.0017089605961643842 0 0 0 -0.0043729473927848414 -0.016856569721355495 -0.013635331398057832 0 -0.013635331398057832 -0.0045327382948759957 0 0 0 -0.0053473270040578728 -0.0070220866543026826 -0.011770118724342983 0 -0.011770118724342983 -0.002347684889144587 0 0 0 -0.0023424428858618176 -0.0063394571835955239 -0.014050321853252126 0 -0.014050321853252126 -0.0037718720908491189 0 0 0 -0.0025278323186111624 -0.0029040951086523443 -0.011066284482426676 0 -0.011066284482426676 -0.0013942964768157507 0 0 0 -0.0010745978963670236 -0.0034149546301376951 -0.015023476146325949 0 -0.015023476146325949 -0.0029412980062669333 0 0 0 -0.0015890631591011575 0.0037646548151708051 -0.011082200315886635 0 -0.011082200315886635 0.0012562480119911162 0 0 0 0.0012552257067904801 0.0099760443089228542 -0.0091247273894213624 0 -0.0091247273894213624 -0.0004959094930286059 0 0 0 0.0023700337039735623 0.0042999834605513959 -0.01412685493400255 0 -0.01412685493400255 -0.0041209741190234642 0 0 0 4.4752335381981201e-05 0.00041038197964906806 -0.013668128346720557 0 -0.013668128346720557 -0.0042001474525245192 0 0 0 -0.00094744136821886538 0.0010683312940995443 -0.010961012306955259 0 -0.010961012306955259 -0.0035629432133549854 0 0 0 -0.00062365297981386214 0.0098855666376223179 -0.013413484182802823 0 -0.013413484182802823 -0.0066264952320988571 0 0 0 0.00081476785138086608 0.01528397249982498 -0.010444380026114333 0 -0.010444380026114333 -0.0039116296957633712 0 0 0 0.0028430857010154015 0.0014967045895060808 -0.015483980510075709 0 -0.015483980510075709 -0.006057499477441039 0 0 0 -0.0011401987219837387 0.014804643675434048 -0.012860207492099278 0 -0.012860207492099278 -0.0044915425369782547 0 0 0 0.0025782752846139467 0.0027248654045169103 -0.012681920112467986 0 -0.012681920112467986 0.00032928247081737767 0 0 0 0.00076353696883357553 -0.0027226461628067572 -0.017273589203555165 0 -0.017273589203555165 -0.0034284840657000017 0 0 0 -0.0015377825571266908 0.013355851647216973 -0.011387187503151904 0 -0.011387187503151904 -0.0012681712915863785 0 0 0 0.0030219200889076529 -0.0023405406559239752 -0.015651246570766657 0 -0.015651246570766657 -0.0018058724345570605 0 0 0 -0.0010366032726202585 0.00062366111734436314 -0.01842281367768293 0 -0.01842281367768293 0.00031999462138242087 0 0 0 0.00023591393468169611 -0.020429989382321986 -0.01560399056037071 0 -0.01560399056037071 -0.004393942699614857 0 0 0 -0.0062059830204842089 -0.018812716808226125 -0.017259791912279998 0 -0.017259791912279998 -0.0030285110631858222 0 0 0 -0.0054603069678529816 -0.020277475213579092 -0.014050810943591105 0 -0.014050810943591105 -0.0010117465687494026 0 0 0 -0.0053223054455821227 -0.0016235041436627774 -0.01349813504447156 0 -0.01349813504447156 -0.0017331696662289398 0 0 0 -0.00083916845247292843 -0.012448566591508912 -0.015583922571179317 0 -0.015583922571179317 -0.0046088971336933834 0 0 0 -0.0042643659313005705 -0.03291919237111561 -0.014541726875697627 0 -0.014541726875697627 -0.0025810774438207139 0 0 0 -0.0088750674537340785 -0.031200438494326896 -0.013512589549724398 0 -0.013512589549724398 0.0013137678105766687 0 0 0 -0.0074716676709375499 -0.043381164665949795 -0.012058767187277279 0 -0.012058767187277279 0.00051890787917791004 0 0 0 -0.010715564196692973 -0.033031267289495132 -0.01826340448529145 0 -0.01826340448529145 0.00047047672061727858 0 0 0 -0.0081401976422194652 -0.040765494023061594 -0.013185978383084706 0 -0.013185978383084706 -0.002534203971284666 0 0 0 -0.010824924498586561 -0.022301308144820595 -0.020193064847562371 0 -0.020193064847562371 0.00065528743361443868 0 0 0 -0.0054115051778015413 -0.041026072992163098 -0.015935196470498483 0 -0.015935196470498483 0.0024542091910291141 0 0 0 -0.0096429659502835028 -0.064817845735342022 -0.010918167162649768 0 -0.010918167162649768 -0.00273324041024464 0 0 0 -0.016887771536396683 -0.068744162333658293 -0.012320590605893959 0 -0.012320590605893959 -0.00028035906380242601 0 0 0 -0.017256130349365184 -0.086581270059227985 -0.0072923594230955256 0 -0.0072923594230955256 0.00017211549579101981 0 0 0 -0.021602288640859231 -0.06178680653251864 -0.0058490783261032301 0 -0.0058490783261032301 0.00060457552167426584 0 0 0 -0.015295557752711089 -0.07373841251243031 -0.0068970016173999218 0 -0.0068970016173999218 -0.00033948309210005568 0 0 0 -0.018519473901132597 -0.045132311997089281 -0.013519349272849489 0 -0.013519349272849489 -0.0003041412228912601 0 0 0 -0.011359113304995134 -0.061257162881762445 -0.005062770224041507 0 -0.005062770224041507 -0.0030430056387453254 0 0 0 -0.016075042130126945 -0.046798972918586798 -0.009199451812968858 0 -0.009199451812968858 0.0024098303578159817 0 0 0 -0.011097285640192705 -0.086238673837532073 -0.0055995092906416105 0 -0.0055995092906416105 0.0058762147171421211 0 0 0 -0.020090614780097531 -0.12613638702053093 0.00060816530210128228 0 0.00060816530210128228 0.0023854306838214656 0 0 0 -0.030937739084177386 -0.080848661816383394 -0.012841155900999119 0 -0.012841155900999119 0.0065549132287877621 0 0 0 -0.018573437146898943 -0.076619967389987956 -0.0010189039311562231 0 -0.0010189039311562231 0.0049554622823236999 0 0 0 -0.017916126276916057 -0.11175246582550079 -0.0046266806092215354 0 -0.0046266806092215354 0.0032473152071199052 0 0 0 -0.0271262876545952 -0.097661011306349105 -0.0064055887265413386 0 -0.0064055887265413386 0.00088277881032326061 0 0 0 -0.024194558124006477 -0.066242902496869094 -0.0070824935928422567 0 -0.0070824935928422567 0.0019827800290102976 0 0 0 -0.016065030616964696 -0.074739358259785948 -0.0055551305503815252 0 -0.0055551305503815252 0.0023316903295291062 0 0 0 -0.018101916982564196 -0.071567479654347135 -0.014614732815263178 0 -0.014614732815263178 0.004630134566095595 0 0 0 -0.016734336272062882 -0.041617205042142794 -0.014900623012251993 0 -0.014900623012251993 0.0051503662780849196 0 0 0 -0.0091167096910144685 -0.04309939512694675 -0.015244564641562316 0 -0.015244564641562316 0.00087015104530809018 0 0 0 -0.010557311020409653 -0.028349218304317136 -0.014415466265177491 0 -0.014415466265177491 -0.0029028571300765346 0 0 0 -0.0078130188585984091 -0.040587484004280465 -0.019415891385918864 0 -0.019415891385918864 0.0095724010743716004 0 0 0 -0.0077537707324772387 -0.053843239170215121 -0.008515381435528005 0 -0.008515381435528005 0.004012077011660356 0 0 0 -0.012457790539638702 -0.042303663473480413 -0.0041633259959963642 0 -0.0041633259959963642 0.010177308355114035 0 0 0 -0.0080315887795915919 -0.0066740461704297011 -0.013944835673435879 0 -0.013944835673435879 0.013056211545428575 0 0 0 0.001595541343749729 -0.0016173148489129069 -0.011133796886275499 0 -0.011133796886275499 0.027113627271730431 0 0 0 0.0063740781057043949 0.012641638152254574 -0.018275815803571398 0 -0.018275815803571398 0.010858343082510352 0 0 0 0.0058749953086912401 -0.031695024706585348 -0.011813522366981986 0 -0.011813522366981986 0.012682554627855364 0 0 0 -0.0047531175196824926 -0.012010490589334691 -0.01818178136116877 0 -0.01818178136116877 0.0068025702827864826 0 0 0 -0.0013019800766370529 -0.03159646285865559 -0.020399029227117005 0 -0.020399029227117005 0.0040576300328750009 0 0 0 -0.0068847082064451351 -0.014276258060986055 -0.021603205964315517 0 -0.021603205964315517 0.00018622032918528403 0 0 0 -0.0035225094329501914 -0.010286869127145595 -0.015443336685024067 0 -0.015443336685024067 0.0035013418573532499 0 0 0 -0.00169638181744809 0.0065281814592142266 -0.01936288882968102 0 -0.01936288882968102 0.0044028829884637938 0 0 0 0.002732766111919506 -0.010683141175290988 -0.014410594880009019 0 -0.014410594880009019 0.0085556284166275615 0 0 0 -0.00053187818966584505 0.0079395705462281616 -0.012995723023245804 0 -0.012995723023245804 0.0054287162263778957 0 0 0 0.0033420716931515139 0.02645870719492811 -0.016569300367990879 0 -0.016569300367990879 0.0065457778401964567 0 0 0 0.0082511212587811494 0.017571102442147692 -0.016607521795239551 0 -0.016607521795239551 0.0013104854424093454 0 0 0 0.0047203969711392593 0.034321019288155223 -0.012819529508842978 0 -0.012819529508842978 0.0039526161881485861 0 0 0 0.0095684088690759488 0.018185098622576071 -0.010551072923811491 0 -0.010551072923811491 0.0016052296520453705 0 0 0 0.0049475820686553608 0.02813813880429571 -0.0084198153133393794 0 -0.0084198153133393794 0.011130686133863865 0 0 0 0.0098172062345398999 0.046458468390300316 -0.013539777534415997 0 -0.013539777534415997 0.015523343440497564 0 0 0 0.015495452957699482 0.015359344004362094 -0.011599511703159315 0 -0.011599511703159315 0.017820085499200694 0 0 0 0.0082948573758906963 0.038764398296865919 -0.015401236716015676 0 -0.015401236716015676 0.020607853898144124 0 0 0 0.014843063048752499 0.038715013798716502 -0.0061414796840409715 0 -0.0061414796840409715 0.028742053681606233 0 0 0 0.016864266870080684 0.062061924437831789 -0.00088639128783563059 0 -0.00088639128783563059 0.052800521071800499 0 0 0 0.028715611377408093 0.066652181212048606 -0.01394037417140781 0 -0.01394037417140781 0.040812045673512876 0 0 0 0.02686605672139037 0.026456206216456335 -0.0061769829137379231 0 -0.0061769829137379231 0.034416607324449483 0 0 0 0.015218203385226461 0.014920693481831206 -0.018616646893561212 0 -0.018616646893561212 0.036275639917105973 0 0 0 0.0127990833497343 0.04845382143428148 -0.018894184939423742 0 -0.018894184939423742 0.071780755084937364 0 0 0 0.030058644129804746 0.07012805033315167 -0.010296974975267346 0 -0.010296974975267346 0.12782508984489072 0 0 0 0.049488285044510638 0.074348130662691206 0.018840936852302648 0 0.018840936852302648 0.11211737861139004 0 0 0 0.046616377318520294 0.064802697596575143 0.016264139956269269 0 0.016264139956269269 0.13535240598256326 0 0 0 0.050038775894784615 0.050412728216363889 0.014335990867024806 0 0.014335990867024806 0.088841915782515768 0 0 0 0.034813660999719942 0.02929789998643581 -0.0052606262519870051 0 -0.0052606262519870051 0.067098147259544993 0 0 0 0.02409901181149518 0.043080842535594799 0.0045229759319078133 0 0.0045229759319078133 0.071158937345681336 0 0 0 0.02855994497031902 0.018735260884199037 0.025149648083550691 0 0.025149648083550691 0.07645107261243092 0 0 0 0.023796583374157507 0.0013044294536296852 0.014092113778661791 0 0.014092113778661791 0.044739675951210423 0 0 0 0.011511026351210013 -0.016642035185959109 0.019475941937978525 0 0.019475941937978525 0.052812383836479515 0 0 0 0.0090425871626300947 -0.0071941728303109576 -0.0026415277775678073 0 -0.0026415277775678073 0.02680875883768874 0 0 0 0.0049036465018444109 -0.026869593123680178 0.003368910711858103 0 0.003368910711858103 0.026637333569925623 0 0 0 -5.8064888438628254e-05 0.0043732122834800394 -6.934523385820901e-06 0 -6.934523385820901e-06 0.062228489470587511 0 0 0 0.016650425438516865 -0.027376082920566661 -0.014215406215065118 0 -0.014215406215065118 0.02843539489618388 0 0 0 0.00026482799390428746 -0.055502065085281993 -0.012009768107495045 0 -0.012009768107495045 0.013032176701509079 0 0 0 -0.010617472095943215 -0.057259364385738115 0.0028902189286388463 0 0.0028902189286388463 0.013498685034395608 0 0 0 -0.010940169837835662 -0.038042948993840864 -0.0073404176827620571 0 -0.0073404176827620571 0.023472568657504911 0 0 0 -0.0036425950840839605 -0.048727059851780906 0.014176190717471504 0 0.014176190717471504 0.024765935367586756 0 0 0 -0.0059902811210485393 -0.028816022242292211 0.010938981141957127 0 0.010938981141957127 0.01840523719592102 0 0 0 -0.0026026962615927907 -0.061592903666832323 0.020054330757873717 0 0.020054330757873717 0.014013233618748955 0 0 0 -0.011894917512020854 -0.049366907278305949 0.012862197399424957 0 0.012862197399424957 0.029988755674374978 0 0 0 -0.0048445379009827705 -0.056708712665968497 0.0033536029935564426 0 0.0033536029935564426 0.012675909882998271 0 0 0 -0.011008200695742543 -0.081382337629109763 0.0093611165344434644 0 0.0093611165344434644 0.012900727616865226 0 0 0 -0.017120402503061127 -0.076480410724226427 0.0034843306210106118 0 0.0034843306210106118 0.0080940598953405107 0 0 0 -0.017096587707221417 -0.12023047876457524 0.0048447920286385227 0 0.0048447920286385227 0.0095645552386901533 0 0 0 -0.027666480881471278 -0.088764589459308485 -0.000201072576617084 0 -0.000201072576617084 0.006050465536562688 0 0 0 -0.020678530980686449 -0.13061607631230421 -0.0020857751811661496 0 -0.0020857751811661496 0.0065661840167625107 0 0 0 -0.03101247307388541 -0.093578650935308913 0.0034672830924321191 0 0.0034672830924321191 0.0036801093641597449 0 0 0 -0.022474635392787254 -0.074535749191874098 -0.0072559989682007553 0 -0.0072559989682007553 0.009067106973408956 0 0 0 -0.016367160554616327 -0.092713341987805592 -0.0097717169072409488 0 -0.0097717169072409488 0.0062134304331825096 0 0 0 -0.021624977888655778 0.045057403722519429 0.013403759579140456 0 0.013403759579140456 0.029685311254357596 0 0 0 0.018685678744219249 0.048384909643610377 0.014885441543210734 0 0.014885441543210734 0.038112491305639457 0 0 0 0.021624350237312455 0.052263629131971245 0.015537601882886064 0 0.015537601882886064 0.039359004396190049 0 0 0 0.022905658382040325 0.040240818512459892 0.011955969301106935 0 0.011955969301106935 0.043601671375053351 0 0 0 0.020960622471878312 0.030993469106837982 0.0073361767067136032 0 0.0073361767067136032 0.044734748948211764 0 0 0 0.018932054513762439 0.034169973000229906 0.0089125634084574312 0 0.0089125634084574312 0.029468381148817425 0 0 0 0.015909588537261841 0.025100482214337323 0.0042840213682418388 0 0.0042840213682418388 0.030570035627072546 0 0 0 0.01391762946035247 0.038635512084469477 0.011076855308287427 0 0.011076855308287427 0.031036478985338133 0 0 0 0.017417997767451902 0.031377059393822196 0.0063698146957978253 0 0.0063698146957978253 0.018995272593847114 0 0 0 0.012593082996917332 0.031331112529517875 0.0074149687089493585 0 0.0074149687089493585 0.024933491247645784 0 0 0 0.014066150944290919 0.031172278553192632 0.0052129434857546833 0 0.0052129434857546833 0.010896996563814357 0 0 0 0.010517318779251744 0.036017808787276027 0.0090319688365279056 0 0.0090319688365279056 0.019472934135957395 0 0 0 0.013872685730808347 0.037552049834266264 0.0071203713289953955 0 0.0071203713289953955 0.011070699793776121 0 0 0 0.012155687407010599 0.037981484218007358 0.0086763777744502026 0 0.0086763777744502026 0.02278389242647923 0 0 0 0.015191344161121643 0.042869403984835165 0.011106098234642085 0 0.011106098234642085 0.019661237432597154 0 0 0 0.015632660354358074 0.044684035570836986 0.0065955521491027971 0 0.0065955521491027971 0.011445942259001265 0 0 0 0.014032494457459565 0.039875024137788012 0.0059193642651166273 0 0.0059193642651166273 0.0104517333778524 0 0 0 0.012581689378910108 0.038356878396581646 -0.0019941412365764013 0 -0.0019941412365764013 0.0034250220771181589 0 0 0 0.01044547511842495 0.049158152853616383 0.0016362101792540794 0 0.0016362101792540794 0.014356228044558307 0 0 0 0.015878595224543664 0.046676709455282808 0.0036781049342428582 0 0.0036781049342428582 0.0099389907755935009 0 0 0 0.014153925057719081 0.048847378307923336 0.010451258919333435 0 0.010451258919333435 0.021177158282521202 0 0 0 0.017506134147611135 0.035960575147024124 -0.0042544138301729133 0 -0.0042544138301729133 0.0050746179484281503 0 0 0 0.010258798273863072 0.044336383313147321 -0.0070930163090031084 0 -0.0070930163090031084 0.0085537293517324448 0 0 0 0.013222528166219952 0.049827304279417658 0.0004350459443896379 0 0.0004350459443896379 0.017481651514344103 0 0 0 0.016827238948440439 0.058217754827063976 -0.0040178069170694938 0 -0.0040178069170694938 0.027059085461378404 0 0 0 0.0213192100721106 0.070409026217058704 0.0075356902954462762 0 0.0075356902954462762 0.038573228500903889 0 0 0 0.027245563679490652 0.056184941201435516 0.010548063195791414 0 0.010548063195791414 0.023404883599260889 0 0 0 0.019897456200174093 0.06399414277340279 0.0087904138443897026 0 0.0087904138443897026 0.022820014866699934 0 0 0 0.021703539410025674 0.056800199752121049 0.010945513229955874 0 0.010945513229955874 0.034187146763722601 0 0 0 0.022746836628960924 0.073380826838133184 0.013228379506228086 0 0.013228379506228086 0.0385025624060744 0 0 0 0.027970847311051927 0.063552975410826135 0.021508231765191659 0 0.021508231765191659 0.064227160029854707 0 0 0 0.031945033860170211 0.095646010678159366 0.025181831348763728 0 0.025181831348763728 0.063903374287509543 0 0 0 0.039887346241417238 0.082254332192384191 0.022564816091742334 0 0.022564816091742334 0.095005187855588424 0 0 0 0.044314880011993157 0.063205114815874902 0.02387149787996929 0 0.02387149787996929 0.09435702092356768 0 0 0 0.039390533934860646 0.072302905962399605 0.019237126894486655 0 0.019237126894486655 0.067202371483513323 0 0 0 0.034876319361478232 0.094066399644892718 -0.0029545966644676513 0 -0.0029545966644676513 0.057719220052912801 0 0 0 0.03794640492445138 0.10022015452161495 0.010002102851306677 0 0.010002102851306677 0.08602749548683733 0 0 0 0.046561912502113084 0.10371432073154435 -0.014512639713191319 0 -0.014512639713191319 0.075585471088778972 0 0 0 0.044824947955080852 0.18412077503836616 -0.0093480476260994483 0 -0.0093480476260994483 0.12231321794154809 0 0 0 0.076608498244978548 0.12689681197089242 -0.0038108547829242834 0 -0.0038108547829242834 0.24690847367252339 0 0 0 0.093451321410853938 0.17428464946955924 0.071923855747916515 0 0.071923855747916515 0.1800665898783467 0 0 0 0.088587809836976492 0.090856210955426009 0.039995329376020586 0 0.039995329376020586 0.15312298136514116 0 0 0 0.060994798080141792 0.047217058950798745 0.01434964388558601 0 0.01434964388558601 0.091155055810429278 0 0 0 0.034593028690307011 0.087765444277994625 0.025730785100466849 0 0.025730785100466849 0.097803092454000165 0 0 0 0.046392134182998722 0.052605826922957975 -0.018217341012295687 0 -0.018217341012295687 0.17298069391592938 0 0 0 0.056396630209721819 0.039315922750718352 -0.019414079174594701 0 -0.019414079174594701 0.097268682912803703 0 0 0 0.034146151415880496 0.039805315281377533 -0.019649336599112402 0 -0.019649336599112402 0.1030012652094979 0 0 0 0.03570164512271886 0.049430682004108904 0.013554254689211336 0 0.013554254689211336 0.097165103445728457 0 0 0 0.036648946362459349 0.045361686829218081 0.013409129399689731 0 0.013409129399689731 0.059218416664737004 0 0 0 0.026145025873488756 0.041905042177655165 0.0090447720060648218 0 0.0090447720060648218 0.087240439121341218 0 0 0 0.03228637032474909 0.029031916192439333 0.0016253286618195305 0 0.0016253286618195305 0.057084735146661708 0 0 0 0.021529162834775274 0.036882029081882581 0.0094037019879405249 0 0.0094037019879405249 0.067733504902967367 0 0 0 0.026153883496212497 0.037795537108528246 0.01114309565036636 0 0.01114309565036636 0.042241015316900998 0 0 0 0.020009138106357325 0.047960148303253944 0.01749322901098142 0 0.01749322901098142 0.063381075146504443 0 0 0 0.027835305862439593 0.025716435579679519 0.0039254535920312788 0 0.0039254535920312788 0.041217249872011384 0 0 0 0.016733421362922715 0.027041179198931127 0.0024319842087949452 0 0.0024319842087949452 0.054496558296688716 0 0 0 0.020384434373904962 0.034341131331727677 -0.018618138069112257 0 -0.018618138069112257 0.062423520067913962 0 0 0 0.024191162849910401 0.02404939913716888 -0.0074561066609082592 0 -0.0074561066609082592 0.052891404574453099 0 0 0 0.019235200927905496 0.021467960687259063 -0.0059390749160914205 0 -0.0059390749160914205 0.048825112666555932 0 0 0 0.01757326833845374 0.03143046961994575 -0.0011984278628326579 0 -0.0011984278628326579 0.072985100122021737 0 0 0 0.026103892435491861 0.029954463610949153 -0.016302181777217997 0 -0.016302181777217997 0.045800627967088024 0 0 0 0.018938772894509293 0.027533624946868604 -0.016872920272311537 0 -0.016872920272311537 0.036624149683051138 0 0 0 0.016039443657479932 0.043555108898809675 -0.025310365211022465 0 -0.025310365211022465 0.041509523085597251 0 0 0 0.021266157996101723 0.037924089148892809 -0.024074917360837139 0 -0.024074917360837139 0.020561017102409707 0 0 0 0.014621276562825636 0.030588072427020399 -0.0166999199194241 0 -0.0166999199194241 0.016267475427750089 0 0 0 0.011713886963692619 0.044019212780473438 -0.020752454818462357 0 -0.020752454818462357 0.020258763442122709 0 0 0 0.016069494055649031 0.044908183155926262 -0.020357789878497939 0 -0.020357789878497939 0.022945628746934232 0 0 0 0.016963452975715138 0.037479576434536629 -0.015595138710394404 0 -0.015595138710394404 0.0049925266100289689 0 0 0 0.010618025761141403 0.056451943485859801 -0.010749134222480871 0 -0.010749134222480871 0.013135667182972655 0 0 0 0.017396902667208142 0.050929578860009622 -0.014666502272102824 0 -0.014666502272102824 0.0032905016456578895 0 0 0 0.013555020126416878 0.055618656193154731 -0.01928976057780539 0 -0.01928976057780539 0.0090349170779909227 0 0 0 0.016163393317786393 0.071427402332577966 -0.035477539079515105 0 -0.035477539079515105 0.037278119623900041 0 0 0 0.027176380489119488 0.033317409163757666 -0.019445714366362679 0 -0.019445714366362679 0.061794278979069861 0 0 0 0.023777922035706864 0.047863946307067314 -0.029466590159561171 0 -0.029466590159561171 0.045049738807823869 0 0 0 0.023228421278722801 0.048114061603112684 -0.032185867303482121 0 -0.032185867303482121 0.053509579003945616 0 0 0 0.02540591015176457 0.052919255482366277 -0.039600992406546631 0 -0.039600992406546631 0.085698859821486228 0 0 0 0.034654528825963107 0.036122748518706518 -0.036094472472707383 0 -0.036094472472707383 0.11538222015423609 0 0 0 0.037876242168235638 0.063036875089038991 -0.033792132567012634 0 -0.033792132567012634 0.11235250956015413 0 0 0 0.043847346162298295 0.086059797905011795 -0.011662279530760017 0 -0.011662279530760017 0.30254685175686302 0 0 0 0.097151662415468687 0.068198848902455395 -0.013733572666868782 0 -0.013733572666868782 -0.010031336660240475 0 0 0 0.014541878060553751 0.092818780968159487 -0.054128230762682035 0 -0.054128230762682035 0.069863762649643835 0 0 0 0.04067063590445081 0.1588044135828183 0.10261405466413884 0 0.10261405466413884 0.20718413647791001 0 0 0 0.09149713751518207 0.092630049294283284 -0.076844935129296493 0 -0.076844935129296493 0.13198778449487603 0 0 0 0.056154458447289793 0.0056950724405141727 0.00091986590004509636 0 0.00091986590004509636 0.015417012339879216 0 0 0 0.0052780211950983463 0.24905101436370947 0.091740660942057309 0 0.091740660942057309 0.062232912269590157 0 0 0 0.077820981658324961 0.13188756444366578 0.025977968635607862 0 0.025977968635607862 0.036663538245902183 0 0 0 0.042137775672392019 0.012908188906553132 0.0022158649650102459 0 0.0022158649650102459 0.038916034574372246 0 0 0 0.012956055870231345 0.013491160427787793 0.0016841948871907653 0 0.0016841948871907653 0.038912050603318371 0 0 0 0.013100802757776545 0.11706336876749146 0.021380622860739162 0 0.021380622860739162 0.034791977102233834 0 0 0 0.03796383646743124 0.01816244105862623 0.0030853337117027479 0 0.0030853337117027479 0.054275713206904559 0 0 0 0.018109538566382696 0.018949131742413139 0.0070265906125152044 0 0.0070265906125152044 0.044661581850694576 0 0 0 0.01590267839827697 0.091796419054033185 0.016835132980300371 0 0.016835132980300371 0.021940160381813456 0 0 0 0.028434144858961619 0.058589790254548677 -0.018884883575853342 0 -0.018884883575853342 -0.00059346928176817748 0 0 0 0.014499080243195142 0.049561532051631059 0.0036542971471123786 0 0.0036542971471123786 0.02517518427053983 0 0 0 0.018684179080542762 0.050646089190979113 -0.0078990598478383845 0 -0.0078990598478383845 0.023254837258259664 0 0 0 0.018475231612309712 0.054228644651234184 -0.0026016434682327727 0 -0.0026016434682327727 0.012204285471052068 0 0 0 0.016608232530571546 0.039991797097335788 0.0056843957696116332 0 0.0056843957696116332 0.020774844278963894 0 0 0 0.015191660344074917 0.045819378026006358 0.0039253181674642063 0 0.0039253181674642063 0.042301978039279264 0 0 0 0.022030339016321426 0.034496292447091723 0.0082350146069163355 0 0.0082350146069163355 0.051511651877728215 0 0 0 0.021501986081204988 0.05114491186920328 0.0015008764470358094 0 0.0015008764470358094 0.020060059313964373 0 0 0 0.017801242795791927 0.082338532395782038 0.01526229023019321 0 0.01526229023019321 0.026250214824867335 0 0 0 0.027147186805162371 0.088611852084747755 0.010182886952749381 0 0.010182886952749381 0.047986643261064721 0 0 0 0.034149623836453258 0.095208819774162956 0.0090515164826271421 0 0.0090515164826271421 0.046759032607685214 0 0 0 0.035491963095461987 0.022458196595323068 0.0036656979468624382 0 0.0036656979468624382 0.067276669043200343 0 0 0 0.022433716409630856 0.082656927208822506 0.0069692546386653786 0 0.0069692546386653786 0.051155124761315562 0 0 0 0.033453012992534614 0.084436461952216879 0.0073466266022497173 0 0.0073466266022497173 0.050366793531488874 0 0 0 0.033700813870926383 0.074592794753116198 0.011906995536955733 0 0.011906995536955733 0.049197530638802167 0 0 0 0.030947581347979591 0.080505287583339191 0.005383867739732681 0 0.005383867739732681 0.061134470089602821 0 0 0 0.03540993941823567 0.046095320645200277 0.0088343932615932274 0 0.0088343932615932274 0.06647137840310835 0 0 0 0.028141674762077185 0.026519645127601195 0.0040664166312777807 0 0.0040664166312777807 0.079431082253702642 0 0 0 0.026487681845325961 0.077423299694373227 0.005641281700904166 0 0.005641281700904166 0.061772324996431927 0 0 0 0.034798906172701205 0.043844282673574597 0.0076666523089035654 0 0.0076666523089035654 0.035215685950119591 0 0 0 0.019764992155923589 0.045401161950992946 0.0069674867421103542 0 0.0069674867421103542 0.018157770358309788 0 0 0 0.015889733077325691 0.050804198293814273 0.005779436665946075 0 0.005779436665946075 0.055240889267151705 0 0 0 0.02651127189024155 0.050971555844824365 0.0075374426840231767 0 0.0075374426840231767 0.037134601593997257 0 0 0 0.02202653935970543 0.050818323383902325 0.010627226722583843 0 0.010627226722583843 0.042603931258351158 0 0 0 0.023355563660563378 0.0442935897097885 0.0084786588798997364 0 0.0084786588798997364 0.014764462553685131 0 0 0 0.014764513065868401 0.044554058260807911 0.0077432680590439895 0 0.0077432680590439895 0.016339336321370579 0 0 0 0.01522334864554456 0.047235666129065851 0.0050815153158581261 0 0.0050815153158581261 0.015012504636173207 0 0 0 0.01556204269130973 0.04460780955370941 -0.00029715006245309428 0 -0.00029715006245309428 0.00067153155594157354 0 0 0 0.01131983527741276 0.044454738506534308 0.0023775385565141804 0 0.0023775385565141804 0.0033729268690162462 0 0 0 0.011956916343887597 0.038018995490164194 0.0038382414099535078 0 0.0038382414099535078 5.5830541511314724e-05 0 0 0 0.0095187065079188702 0.04118928376690606 0.0015802110791031249 0 0.0015802110791031249 0.0041997940883385931 0 0 0 0.011347269463811205 0.039901439655363691 -0.00437364823841499 0 -0.00437364823841499 0.00037374488417324381 0 0 0 0.010068796134884261 0.043380716952091378 -0.00057261241268835583 0 -0.00057261241268835583 0.0024062220768212746 0 0 0 0.011446734757228141 0.046725500852034613 -0.0073763525181971129 0 -0.0073763525181971129 0.00022330149981308889 0 0 0 0.011737200587961932 0.038742442977758793 -0.0075977509309077262 0 -0.0075977509309077262 -0.0030589624676818361 0 0 0 0.0089208701275192565 0.046288846113469256 -0.011523518014614546 0 -0.011523518014614546 0.003925615571535479 0 0 0 0.012553615421251191 0.03871557070227781 -0.012275354192733873 0 -0.012275354192733873 0.0046327434513744603 0 0 0 0.01083707853841305 0.04595701644170179 -0.0069562220236839833 0 -0.0069562220236839833 -0.00021414986264789437 0 0 0 0.011435716644763495 0.046524631593633237 -0.00046659793402323291 0 -0.00046659793402323291 0.0028349009110795464 0 0 0 0.01233988312617823 0.051179549805474567 -0.0037658644065922953 0 -0.0037658644065922953 0.0064338051307909483 0 0 0 0.014403338734066323 -0.052238223413607426 0.0090366716963630189 0 0.0090366716963630189 0.0056325139362269905 0 0 0 -0.01165142736934513 -0.059561572120285455 0.010306266813030152 0 0.010306266813030152 0.006052299248320181 0 0 0 -0.013377318217991263 -0.039024726555011102 0.02633027383284986 0 0.02633027383284986 0.01436270844290255 0 0 0 -0.0061655045280271104 -0.088979403280909364 0.011972314963823116 0 0.011972314963823116 0.0062955767178093369 0 0 0 -0.020670956640774896 -0.09888041498648123 0.010023681813759178 0 0.010023681813759178 0.009852812770576147 0 0 0 -0.022256900553976333 -0.056089579081113061 0.013758558622739947 0 0.013758558622739947 0.0059986160003746569 0 0 0 -0.012522740770184559 -0.056497409327426501 0.014400305012568143 0 0.014400305012568143 0.0081100036469087811 0 0 0 -0.012096851420129479 -0.037330186317566461 0.030436979418594912 0 0.030436979418594912 0.018416771894394279 0 0 0 -0.0047283536057931008 -0.018120280231864544 0.031908150387464806 0 0.031908150387464806 0.021400097267595397 0 0 0 0.00081995425893263696 -0.002469933796764856 0.038402986689858226 0 0.038402986689858226 0.034410814021244684 0 0 0 0.0079852200561200126 -0.016484391102005946 0.026899548688339714 0 0.026899548688339714 0.010246510046634016 0 0 0 -0.0015594702638429547 -0.0076766279706318163 0.03723262355737722 0 0.03723262355737722 0.017531603349261959 0 0 0 0.0024637438446575566 -0.028420270690225236 0.022424259943044533 0 0.022424259943044533 0.0055307266086250806 0 0 0 -0.0057223860203999832 -0.00079579545786179207 0.032008036093990111 0 0.032008036093990111 0.0078103083379525984 0 0 0 0.0017536282200227848 0.049036345440573975 0.043107355408461778 0 0.043107355408461778 0.022033630541322236 0 0 0 0.017767493995474032 0.024664930834336296 0.039323301691622528 0 0.039323301691622528 0.01717352293027119 0 0 0 0.010459613441151872 0.063697712046045893 0.056647124341790533 0 0.056647124341790533 0.04618584172427026 0 0 0 0.027470888442579042 0.024893132090383574 0.042214116206510222 0 0.042214116206510222 0.020933920929700589 0 0 0 0.011456763255020985 -0.014225034752479604 0.027972160001653784 0 0.027972160001653784 0.023805261848118375 0 0 0 0.0023950567739097761 0.015041153000016017 0.045935384482189562 0 0.045935384482189562 0.056126627242359062 0 0 0 0.017791945060593783 0.022260760327390106 0.038858104296313117 0 0.038858104296313117 0.043093137403524384 0 0 0 0.016338474432728622 0.054727246368781401 0.058186374004083496 0 0.058186374004083496 0.093568951706135994 0 0 0 0.037074049518729391 0.071086892250263378 0.060734607379121175 0 0.060734607379121175 0.14472735352680233 0 0 0 0.05395356144426644 0.098895385492457563 0.073118332678831333 0 0.073118332678831333 0.06350282466344967 0 0 0 0.040599552538976832 0.10290708265124511 0.058488347190362555 0 0.058488347190362555 0.060137869886035228 0 0 0 0.040761238134320046 0.070830075960693573 0.041057998314129734 0 0.041057998314129734 0.025315603094741679 0 0 0 0.02403641976385873 0.083977511701408381 0.041789795659915363 0 0.041789795659915363 0.029225241605969343 0 0 0 0.028300688326844459 0.098731696287057802 0.020132935592554524 0 0.020132935592554524 0.023943922061377521 0 0 0 0.030668904587108692 0.060510800475441884 0.030853830448333508 0 0.030853830448333508 0.013965389089397595 0 0 0 0.018619047391209786 0.056614575136278322 0.029308748872638901 0 0.029308748872638901 0.012870366577242276 0 0 0 0.017371235428380039 0.077039690646544257 0.020025590731303167 0 0.020025590731303167 0.023541460392642932 0 0 0 0.025145287759796742 0.071717436325134887 0.015641026838800531 0 0.015641026838800531 0.024814953677877449 0 0 0 0.024133097500753153 0.070810848823604666 0.011494343873530766 0 0.011494343873530766 0.031371052663925703 0 0 0 0.025545475371882564 0.06289349078661656 0.013181487097462474 0 0.013181487097462474 0.028732964697740258 0 0 0 0.022906613871089176 0.054513955665481284 0.019207126018280007 0 0.019207126018280007 0.016791485210148505 0 0 0 0.017826360218907433 0.053954086888067687 0.023571750841149083 0 0.023571750841149083 0.012366853028816571 0 0 0 0.016580234979221231 0.032341229638449903 0.019749945121802726 0 0.019749945121802726 0.0096378204055917738 0 0 0 0.010494762511010475 0.033447931486416518 0.01824594933714474 0 0.01824594933714474 0.01025200715708538 0 0 0 0.010924984660875617 0.031105429155688258 0.021228568857724839 0 0.021228568857724839 0.008486046963473548 0 0 0 0.009897869029790396 0.0094070577696315216 0.025545895671431951 0 0.025545895671431951 0.0045115796980830236 0 0 0 0.0034796593669286779 0.035111937246176672 0.029905274592802289 0 0.029905274592802289 0.010835982847209991 0 0 0 0.011486980023346582 0.04275453104451285 0.024346993085717195 0 0.024346993085717195 0.0085441875596234951 0 0 0 0.012824679651034038 0.019226040071984363 0.030212806826172167 0 0.030212806826172167 0.006312967114170176 0 0 0 0.0063847517965388567 0.012321806258627152 0.035898171226644848 0 0.035898171226644848 0.010791869288620914 0 0 0 0.0057784188868120062 -0.0061605282674048745 0.023691456638626984 0 0.023691456638626984 0.0031569469673025097 0 0 0 -0.00075089532502570222 -0.012065151744122052 0.027642397241686933 0 0.027642397241686933 0.010456482146419768 0 0 0 -0.00040216739942545987 -0.0084362412704717116 0.016968219618512637 0 0.016968219618512637 0.0059130643960876306 0 0 0 -0.00063079421859590923 -0.0086110507684842297 0.024864048779149384 0 0.024864048779149384 0.0031242282908365837 0 0 0 -0.0013717056194118005 0.011414072720774326 0.022790471925767997 0 0.022790471925767997 0.0056835352379263071 0 0 0 0.0042744019896749919 0.011567262661924871 0.019816394449201358 0 0.019816394449201358 0.0017737295158939959 0 0 0 0.0033352480444547306 0.00083999771377026022 0.014877443920910727 0 0.014877443920910727 0.0045454793212359318 0 0 0 0.0013463692587516035 -0.0061980285287233094 0.015547770246558734 0 0.015547770246558734 0.0021994705737373721 0 0 0 -0.00099963948874637332 -0.014045072116567026 0.017902518796917621 0 0.017902518796917621 0.0050214894202587068 0 0 0 -0.0022558956740770242 -0.023926552809559243 0.0058639865900423915 0 0.0058639865900423915 0.003592062477012492 0 0 0 -0.0050836225831366599 -0.0088296857673659801 0.0053732511993831444 0 0.0053732511993831444 0.0057043913165524263 0 0 0 -0.00078132361270355499 -0.019604183460336155 0.0074649806428697119 0 0.0074649806428697119 0.0063120057818157882 0 0 0 -0.0033230444196301057 -0.041952791998606187 0.0077134370875985292 0 0.0077134370875985292 0.0036284454281603207 0 0 0 -0.009581086642611425 -0.032771130713239782 0.019731893646816934 0 0.019731893646816934 0.0036615937560002809 0 0 0 -0.0072773842393099031 -0.02910060738830289 0.0098364531874614997 0 0.0098364531874614997 0.0053881482620967702 0 0 0 -0.00592811478155153 0.0030849788977438328 0.0035569363883583005 0 0.0035569363883583005 0.0057233029440282024 0 0 0 0.002202070460443066 -0.0032118022281976133 0.0022545426884148512 0 0.0022545426884148512 0.0035359690596199478 0 0 0 8.1041707855500356e-05 0.005176275760381821 0.0058764052360433805 0 0.0058764052360433805 0.0052476621554240488 0 0 0 0.0026059844789517728 -0.0079996992773450071 0.0031152411577399786 0 0.0031152411577399786 0.004369760281336621 0 0 0 -0.00090748474900204101 -0.004875620432956973 0.0027885457626191101 0 0.0027885457626191101 0.0045595646227003517 0 0 0 -7.9013952564377377e-05 -0.015287949647127652 0.004235014876983096 0 0.004235014876983096 0.003487741838782199 0 0 0 -0.0029500519520864188 -0.012296862385001717 0.0098213691383350898 0 0.0098213691383350898 0.0023139093908159936 0 0 0 -0.0024957382485468749 -0.0061690929721023302 0.0064406786669311267 0 0.0064406786669311267 0.0033222304473587982 0 0 0 -0.00071171563118577197 0.0012243011732469 0.011982235903355232 0 0.011982235903355232 0.0026874833663823594 0 0 0 0.00097794613490731486 0.0030684068600747016 0.0088897363016204878 0 0.0088897363016204878 0.0063761179386507827 0 0 0 0.0023611311996817319 0.010028200479778926 0.012131848987341431 0 0.012131848987341431 0.004873596563828908 0 0 0 0.003725449260902236 0.015548400067843637 0.0084782621297430083 0 0.0084782621297430083 0.0075054310316584605 0 0 0 0.0057634577748753024 0.014138215787022235 0.0054993344219940177 0 0.0054993344219940177 0.0082946579437184198 0 0 0 0.0056082184326851081 0.0040328897122457463 0.0082903644523970588 0 0.0082903644523970588 0.0050430544804580535 0 0 0 0.0022689860481759916 0.012085231614703512 0.0066523193050387341 0 0.0066523193050387341 0.0078838758180876378 0 0 0 0.0049922768581977806 0.029126167465830965 0.0052956285538388048 0 0.0052956285538388048 0.014800583200573314 0 0 0 0.010981687666600903 0.031287538480759824 0.0066928811612074757 0 0.0066928811612074757 0.020776729987690423 0 0 0 0.013016067117112562 0.042266090770633591 0.0061709539731538143 0 0.0061709539731538143 0.021214117780315345 0 0 0 0.015870052137737511 0.015030688320059271 0.0096518769179857189 0 0.0096518769179857189 0.0086348832538760689 0 0 0 0.0059163928934840015 0.014811737365327815 0.014247668381787027 0 0.014247668381787027 0.004867945212543745 0 0 0 0.004919920644467668 0.028410313031929646 0.0095347524196242039 0 0.0095347524196242039 0.010933786605226814 0 0 0 0.0098360249092889207 0.02911015204338474 0.012630310212848772 0 0.012630310212848772 0.0096239454291859872 0 0 0 0.0096835243681425709 0.039997345470911272 0.01354052263112604 0 0.01354052263112604 0.015089065837431637 0 0 0 0.013771602827085783 0.029551468645172774 0.010213351575961899 0 0.010213351575961899 0.015098278427777778 0 0 0 0.011162436768237471 0.051773398325986486 0.0069619802103508821 0 0.0069619802103508821 0.029162105461578491 0 0 0 0.020233875946891411 0.052630364865934087 0.011949323541543252 0 0.011949323541543252 0.02964074673705408 0 0 0 0.020567777900746931 0.048657011923962656 0.012820420964122281 0 0.012820420964122281 0.017882829965764735 0 0 0 0.016634960472431848 0.058467939099701993 0.010207598698570131 0 0.010207598698570131 0.032535396379387072 0 0 0 0.022750833869772114 0.067507472596148865 0.0052419602040760793 0 0.0052419602040760793 0.05161531529824348 0 0 0 0.029780696973598086 0.059173999301281421 0.0028052229202587542 0 0.0028052229202587542 0.041763355917716627 0 0 0 0.025234338804749568 0.066502026974147643 0.0078849888378932365 0 0.0078849888378932365 0.055091282764435867 0 0 0 0.030398327434645767 0.045835855609215943 0.0098986109675072154 0 0.0098986109675072154 0.027465212063200267 0 0 0 0.01832526691810394 0.053405769459217628 0.0064864565205378089 0 0.0064864565205378089 0.041561487126816066 0 0 0 0.023741814146508472 0.069625315555581491 -0.002240232513838869 0 -0.002240232513838869 0.060051929325611653 0 0 0 0.032419311220298175 0.05732492922507415 -0.0034712104643939146 0 -0.0034712104643939146 0.057187383453493723 0 0 0 0.028628078169641968 0.077125276013539024 0.0028727815873190732 0 0.0028727815873190732 0.061712812341832013 0 0 0 0.034709522088842704 0.069477276163055324 0.00084891253678343048 0 0.00084891253678343048 0.058382177285534631 0 0 0 0.031964863362147655 0.081014214547844521 -0.0059977199886276367 0 -0.0059977199886276367 0.082328334099364575 0 0 0 0.040835637161802385 0.093872641809129298 0.0036408477858347332 0 0.0036408477858347332 0.084902862603688734 0 0 0 0.04469387610320491 0.069508946498814117 -0.0073710108577362821 0 -0.0073710108577362821 0.065484821854685293 0 0 0 0.033748442088374464 0.053306166880542794 -0.0011182171524468654 0 -0.0011182171524468654 0.057081051586923337 0 0 0 0.027596804616866422 0.025001502230963979 0.0029054331630722122 0 0.0029054331630722122 0.015775786174034856 0 0 0 0.010194322101249931 0.029888786617433549 0.00069355000343374051 0 0.00069355000343374051 0.030437639333492861 0 0 0 0.015081606487731714 0.044214983441014599 -0.002963710661738006 0 -0.002963710661738006 0.030565413566057131 0 0 0 0.018695099251768044 0.027372244974665394 0.0031357181580387167 0 0.0031357181580387167 0.01547784237312122 0 0 0 0.010712521836946598 0.048513546001937025 -0.00038217862314121609 0 -0.00038217862314121609 0.033113030425500511 0 0 0 0.020406644106859329 0.03197522009937781 0.00229711166340274 0 0.00229711166340274 0.029018259346672348 0 0 0 0.015248369861512345 0.046730463569394143 0.001005773496485951 0 0.001005773496485951 0.029730064836613224 0 0 0 0.019115132101501953 0.016366788170331215 0.0036736073941510128 0 0.0036736073941510128 0.012895196239533391 0 0 0 0.0073154961024661791 0.0044434459171569518 0.002433968084536331 0 0.002433968084536331 0.0064639585133789978 0 0 0 0.0027268511076341539 0.012229835600875871 0.0022348404289275203 0 0.0022348404289275203 0.0083254744917891088 0 0 0 0.0051388275231665226 0.0062367710159920708 0.0039478800801751035 0 0.0039478800801751035 0.0074663804716901261 0 0 0 0.0034257878719208268 0.014056754559977902 0.0022286371322943754 0 0.0022286371322943754 0.014261974480457074 0 0 0 0.0070796822601086884 0.015633827164588388 -0.00075354104257274734 0 -0.00075354104257274734 0.010551222251457659 0 0 0 0.0065462623540115672 0.0095505587357131994 0.00046745332161890474 0 0.00046745332161890474 0.0037247999572196377 0 0 0 0.0033188396732337644 0.013766377526702733 0.0023879583266627757 0 0.0023879583266627757 0.0071482292161206828 0 0 0 0.0052286516857060761 0.0086504017593242999 0.0026603613440170371 0 0.0026603613440170371 0.0075064885061744135 0 0 0 0.0040392225663747894 0.0061960075089362299 0.0012891476566430082 0 0.0012891476566430082 0.0048634430148455365 0 0 0 0.0027648626309457747 0.0057000658723048159 0.0012495001645715931 0 0.0012495001645715931 0.0046931298917229913 0 0 0 0.0025982989410067714 0.0049125264670557556 0.0007958935777332421 0 0.0007958935777332421 0.0035415767473514492 0 0 0 0.0021135258036015792 0.0028911673912948022 0.001086115822367395 0 0.001086115822367395 0.0037079127299026737 0 0 0 0.0016497700302993135 0.0046667458711353582 0.0018140631137146812 0 0.0018140631137146812 0.0049920689618305758 0 0 0 0.0024147037082413725 0.00079460821028209949 0.0020426752171749385 0 0.0020426752171749385 0.0053992288019957257 0 0 0 0.0015484592530694563 0.0038617392537332318 0.0012148462359609091 0 0.0012148462359609091 0.0049039801876852307 0 0 0 0.0021914298603544768 -0.0030608192354344421 0.0014834222867505797 0 0.0014834222867505797 0.0041486131629957512 0 0 0 0.00027194848189027176 0.040193548675618834 0.011475834939644228 0 0.011475834939644228 0.0165939308520624 0 0 0 0.014196869881920315 0.053120365364607347 0.011864116492625795 0 0.011864116492625795 0.03857186024859971 0 0 0 0.022923056403301778 0.051995197374855973 0.014753439654608097 0 0.014753439654608097 0.033955580209747205 0 0 0 0.021487694396150836 0.04746530300844079 0.01571442416374548 0 0.01571442416374548 0.029714375587954533 0 0 0 0.019294919649098852 0.038287155351832289 0.012669634664265794 0 0.012669634664265794 0.015010499501017974 0 0 0 0.013324413713212566 0.03132053829203052 0.0090361728977595424 0 0.0090361728977595424 0.0080143676257862229 0 0 0 0.0098337264794541301 0.032527716419205488 0.0062907478151996085 0 0.0062907478151996085 0.0082211343539217996 0 0 0 0.010187212693281877 0.037444954612909434 0.008376409539418872 0 0.008376409539418872 0.0099652904797942754 0 0 0 0.011852561273175979 0.033011095314152472 0.0058372568826050852 0 0.0058372568826050852 0.0035647415603958788 0 0 0 0.00914395921863706 0.034522061640282861 0.002513871469516149 0 0.002513871469516149 0.0026826307122264081 0 0 0 0.0093011730881273208 0.04357371389036796 0.0073354999199668203 0 0.0073354999199668203 0.012009863726414993 0 0 0 0.013895894404195724 0.042211499502353089 0.010550755030421605 0 0.010550755030421605 0.011312861567446708 0 0 0 0.013381090267449935 0.038651070319867795 0.010140137822090139 0 0.010140137822090139 0.015227709457422883 0 0 0 0.013469694944322638 0.047930565846880102 0.011370667860204882 0 0.011370667860204882 0.028429562409756137 0 0 0 0.019090032064159046 0.047514268886285349 0.012389403470845634 0 0.012389403470845634 0.026014485231885154 0 0 0 0.018382188529542626 0.054055220796446812 0.0092063776647477447 0 0.0092063776647477447 0.045140296281277803 0 0 0 0.02479887926943114 0.058461010584910933 0.0057867621427667437 0 0.0057867621427667437 0.069382991084158574 0 0 0 0.031961000417267321 0.069664206158086106 0.0060955864012092187 0 0.0060955864012092187 0.080865689350179348 0 0 0 0.037632473877066308 0.059478216454340399 0.01339828627209716 0 0.01339828627209716 0.052945678886402336 0 0 0 0.028105973835185649 0.075833770334409967 0.0095008659925868155 0 0.0095008659925868155 0.059666867876310592 0 0 0 0.033875159552680167 0.084027103886845644 0.0031027370356821043 0 0.0031027370356821043 0.078793333225330997 0 0 0 0.04070510927804416 0.062235069037416352 0.0089329973621944114 0 0.0089329973621944114 0.075954763493759125 0 0 0 0.034547458132793918 0.030422877662255168 0.0043363068147902299 0 0.0043363068147902299 0.091123712554886327 0 0 0 0.030386647554285374 0.070767413672713442 0.0051416003323003778 0 0.0051416003323003778 0.052355323332605064 0 0 0 0.030780684251329626 0.080124288679265021 0.0058898577301140786 0 0.0058898577301140786 0.081603172055265016 0 0 0 0.04043186518363262 0.07887500203360398 0.00037098830513970782 0 0.00037098830513970782 0.080490855819762785 0 0 0 0.039841464463341802 0.034302257947436958 0.0044845992968567863 0 0.0044845992968567863 0.10276755735705004 0 0 0 0.034267453826121751 0.079009925092060146 0.0098044212697296906 0 0.0098044212697296906 0.087325081574531449 0 0 0 0.041583751666647906 0.089748787251863305 0.0039115640751195002 0 0.0039115640751195002 0.085285285498525987 0 0 0 0.043758518187597351 0.038322393774418949 0.0045358784730021836 0 0.0045358784730021836 0.11467774188786843 0 0 0 0.03825003391557185 0.082561876932674 0.0068057319802221627 0 0.0068057319802221627 0.080291451779919198 0 0 0 0.040713332178148182 0.060407192282218414 0.011254357376797811 0 0.011254357376797811 0.057175549848576757 0 0 0 0.029395685532698834 0.078705656743699809 0.0086037400589224766 0 0.0086037400589224766 0.090718542683383918 0 0 0 0.042356049856770939 0.062615953606946717 0.017348468578585699 0 0.017348468578585699 0.054145122505321996 0 0 0 0.029190269028067151 0.072021300868732499 0.012239368603522677 0 0.012239368603522677 0.060634910915085771 0 0 0 0.03316405294595455 0.079469249078123305 0.017371334394398155 0 0.017371334394398155 0.072256647461225842 0 0 0 0.037931474134837218 0.067926151756620673 0.010947806267441795 0 0.010947806267441795 0.057984158228794713 0 0 0 0.031477577496353805 0.097074921446899748 0.01131907327718204 0 0.01131907327718204 0.094596127880337222 0 0 0 0.047917762331809305 0.095366103215049014 0.0061857675614299806 0 0.0061857675614299806 0.10256606526228207 0 0 0 0.049483042119332743 0.089876893875275324 0.0063276335952381357 0 0.0063276335952381357 0.078076705067189764 0 0 0 0.041988399735616314 0.096935314520840477 -0.0016231198580671791 0 -0.0016231198580671791 0.10064778846417965 0 0 0 0.049395775746255088 0.04234271129647578 0.004470675371769291 0 0.004470675371769291 0.12716258879680067 0 0 0 0.042376325023319117 0.11918300469482615 0.0096628388462862147 0 0.0096628388462862147 0.1073996000504685 0 0 0 0.056645651186323753 0.10949467584863108 0.0040569020105645226 0 0.0040569020105645226 0.10483702957902653 0 0 0 0.053582926356914348 0.091149765514476622 -0.0027096260975729702 0 -0.0027096260975729702 0.098650625696238059 0 0 0 0.047450097802678393 0.10648009125693902 0.0067666593379582807 0 0.0067666593379582807 0.10632337941529335 0 0 0 0.053200867668057983 0.047630994032655694 0.0044335144627083989 0 0.0044335144627083989 0.14122477686102017 0 0 0 0.047213942723418972 0.12939765934176561 -0.00067179187187549338 0 -0.00067179187187549338 0.11895575960304328 0 0 0 0.062088354736202334 0.10864236755502876 -0.0049393477157511079 0 -0.0049393477157511079 0.11682618531736111 0 0 0 0.056367138218097468 0.070948522054541191 0.016550034765743016 0 0.016550034765743016 0.058025960728552151 0 0 0 0.032243620695773328 0.10281762472850745 0.011876440257706899 0 0.011876440257706899 0.1112047202180817 0 0 0 0.053505586236647279 0.12863530386735345 0.0023372501543270294 0 0.0023372501543270294 0.11424935291408822 0 0 0 0.060721164195360389 0.10365644881673278 0.01044051825874992 0 0.01044051825874992 0.10687421530935881 0 0 0 0.052632666031522973 0.085774576311406114 0.0016235005347165002 0 0.0016235005347165002 0.062362235653678599 0 0 0 0.037034202991271137 0.039673997784122575 0.0091405559732344321 0 0.0091405559732344321 0.020453784798728392 0 0 0 0.01503194564571271 0.063217067288121154 0.010577756566253149 0 0.010577756566253149 0.047036333249127593 0 0 0 0.027563350134312159 0.049936203981825106 0.0061288881360260531 0 0.0061288881360260531 0.0072885042518859855 0 0 0 0.014306177058427849 0.055633181019778238 0.0085724483310550548 0 0.0085724483310550548 0.043309183039445642 0 0 0 0.024735591014805908 0.046889072927473519 0.011222685428301224 0 0.011222685428301224 0.017767152549349241 0 0 0 0.016164056369205704 0.041379822907233049 0.01405067478756343 0 0.01405067478756343 0.019029843606972241 0 0 0 0.015102416628551329 0.046120514623002762 0.011607283804233037 0 0.011607283804233037 0.029803722426758765 0 0 0 0.018981059262440366 0.057270971289327816 0.01769259968932417 0 0.01769259968932417 0.040372814511612454 0 0 0 0.024410946450235116 0.032526873836176251 0.010258418630678418 0 0.010258418630678418 0.0081762589804927899 0 0 0 0.010175783204167288 0.033263788220525996 0.010449586911057296 0 0.010449586911057296 0.013393743580934134 0 0 0 0.011664382950365032 0.033176707532146271 0.011498896452674795 0 0.011498896452674795 0.0098497849163025064 0 0 0 0.010756623112112174 0.036448203928284746 0.0090858237058938918 0 0.0090858237058938918 0.018026864731152226 0 0 0 0.013618767164859276 0.027228838060440019 0.006836393811300065 0 0.006836393811300065 0.0046910857701175646 0 0 0 0.0079799809576392433 0.030526217157754595 0.0033218914037271563 0 0.0033218914037271563 -0.001414424215012533 0 0 0 0.0072779482356854913 0.029352010749359059 0.0055277777420991991 0 0.0055277777420991991 -0.018435174229149198 0 0 0 0.0027292091300525345 0.027139951823185404 0.0021405938555696946 0 0.0021405938555696946 -0.0077207399745429228 0 0 0 0.0048548029621606759 0.027699857028904595 6.4430359102252144e-05 0 6.4430359102252144e-05 -0.027456921288199321 0 0 0 6.0733935176304765e-05 0.031511507774792058 0.0048553953772774022 0 0.0048553953772774022 -0.0069978205133265359 0 0 0 0.006128421815366325 0.025272790358412345 0.0017413561219247475 0 0.0017413561219247475 -0.00031930229928223142 0 0 0 0.0062383720147825561 0.028015519323775578 0.0058520202276453048 0 0.0058520202276453048 -0.0058044359412112445 0 0 0 0.0055527708456411251 0.060862879730346348 -0.0083636324426900298 0 -0.0083636324426900298 0.01719542553015585 0 0 0 0.01951457631512557 0.051351291883093078 -1.1807554689546862e-06 0 -1.1807554689546862e-06 -0.011445004805640464 0 0 0 0.0099765717693631878 0.036740361112092723 -0.0028168802981226315 0 -0.0028168802981226315 0.0032182233923594428 0 0 0 0.0099896461261130831 0.050604965984664546 0.00014518868388996298 0 0.00014518868388996298 0.028388184745916312 0 0 0 0.019748287682645194 0.044494558230723763 -0.00047478436275724678 0 -0.00047478436275724678 0.0073267857608902975 0 0 0 0.012955335997903522 0.038212697563079989 0.0012305964731978425 0 0.0012305964731978425 0.012343214855547124 0 0 0 0.012638978104656834 0.04081160185202648 0.000677133660523771 0 0.000677133660523771 0.022728041096987006 0 0 0 0.015884910737253399 0.05351078321109462 -0.0046777511549352113 0 -0.0046777511549352113 0.025741633790255958 0 0 0 0.019813104250337582 0.033833765374309765 0.0048089873890486412 0 0.0048089873890486412 0.004692376229665618 0 0 0 0.0096315354009938736 0.032773875869563318 0.0018058551472484585 0 0.0018058551472484585 0.01212486130215118 0 0 0 0.011224684292928583 0.026112638268747962 0.005640579469615728 0 0.005640579469615728 0.0063144352721741237 0 0 0 0.0081067683852305006 0.032244602136515685 0.0062349994564673827 0 0.0062349994564673827 0.0083616243343790919 0 0 0 0.01015155661772367 0.031055443667870691 0.0053963588178658206 0 0.0053963588178658206 0.0056937773701422056 0 0 0 0.0091873052595032312 0.033639157831966637 0.0037110221153563161 0 0.0037110221153563161 0.009609168766177012 0 0 0 0.010812081649535898 0.031810994333922538 0.0026340998822199924 0 0.0026340998822199924 0.0091904771803774654 0 0 0 0.010250367878575084 0.029310823082562498 0.0047450830836351099 0 0.0047450830836351099 0.0083509738283329416 0 0 0 0.0094154492277238599 0.035851584164183131 0.00043102583161852559 0 0.00043102583161852559 0.012136242212923753 0 0 0 0.01199695659427677 0.032798534873347773 0.0010185279201428421 0 0.0010185279201428421 0.012713234412216501 0 0 0 0.01137794232139111 0.042815874943661444 -0.0032621047593679731 0 -0.0032621047593679731 0.022188058787538129 0 0 0 0.016250983432799893 0.046553095503291952 -0.0019670249562334791 0 -0.0019670249562334791 0.03242800545002833 0 0 0 0.01974527523833014 0.036788946963101699 0.00040719783210885208 0 0.00040719783210885208 0.015593911277978267 0 0 0 0.013095714560269978 0.033499581903665865 -0.00067188209466736981 0 -0.00067188209466736981 0.0098602224782590175 0 0 0 0.010839951095481248 0.037786970161848434 -0.0032220803807481713 0 -0.0032220803807481713 0.017632325157439621 0 0 0 0.013854823829822095 0.040425616991147523 -0.0030769921802616847 0 -0.0030769921802616847 0.025918181955840724 0 0 0 0.016585949736747069 0.035718048700334855 -0.0035630827323943071 0 -0.0035630827323943071 0.011500801453511442 0 0 0 0.011804712538461527 0.032128433535766249 -0.0020488679802466991 0 -0.0020488679802466991 0.0020560590971285819 0 0 0 0.0085461231582237007 0.036631326407102691 -5.9784280932284606e-05 0 -5.9784280932284606e-05 0.0050512961119882384 0 0 0 0.010420655629772718 0.03198734268657924 0.0024476021863849007 0 0.0024476021863849007 0.0037019038742900356 0 0 0 0.0089223116402173674 0.035375488223468414 0.004255608970116509 0 0.004255608970116509 0.0071662877700622712 0 0 0 0.010635443998382671 0.035272479929140108 0.00055416879258191054 0 0.00055416879258191054 0.009445101478273904 0 0 0 0.011179395351853513 0.057695183265235928 -0.010436321630239442 0 -0.010436321630239442 0.05398184711299514 0 0 0 0.027919257594557711 0.01971906922766754 -0.0061803585022392263 0 -0.0061803585022392263 0.059021065051680102 0 0 0 0.019685033569836915 0.066194687860537671 -0.0086493021402868075 0 -0.0086493021402868075 0.048014813562466951 0 0 0 0.028552375355751169 0.056599871840245758 -0.0079306768133626804 0 -0.0079306768133626804 0.047878184541959384 0 0 0 0.026119514095551327 0.046416101988711905 -0.0056902158581563431 0 -0.0056902158581563431 0.044377952751097904 0 0 0 0.022698513684952432 0.040406134281517327 -0.0077160642457548834 0 -0.0077160642457548834 0.024119710682643347 0 0 0 0.016131461241040181 0.042359561849586974 -0.0065061228115718406 0 -0.0065061228115718406 0.028259956284464649 0 0 0 0.01765487953351294 0.046742936814986577 -0.0041332029044063301 0 -0.0041332029044063301 0.027399343574240898 0 0 0 0.018535570097306914 0.058776146489298714 -0.0030927214036014505 0 -0.0030927214036014505 0.053459148739560147 0 0 0 0.028058823807214722 0.053096702276961949 -0.0066130585299289807 0 -0.0066130585299289807 0.044743088741763359 0 0 0 0.024459947754681299 0.063365871733410559 -0.0034119713029489851 0 -0.0034119713029489851 0.044681974781500516 0 0 0 0.027011961628727807 0.055993208364997132 -0.007315825661131703 0 -0.007315825661131703 0.039299002955699214 0 0 0 0.023823052830174135 0.071277859452577752 -0.0058358844484557165 0 -0.0058358844484557165 0.066955346172151153 0 0 0 0.034558301406182268 0.089679795861778711 -0.0074998451801463473 0 -0.0074998451801463473 0.069439832780191946 0 0 0 0.039779907160492678 0.063166934816536013 -0.0069581069016689812 0 -0.0069581069016689812 0.056405448379023504 0 0 0 0.029893095798889879 0.065328422335636072 -0.013899539867486488 0 -0.013899539867486488 0.056632305204000311 0 0 0 0.030490181884909151 0.028110948739451691 -0.0062269699394351943 0 -0.0062269699394351943 0.084113853049473913 0 0 0 0.028056200447231405 0.072340917389226683 -0.0078166868432029968 0 -0.0078166868432029968 0.060766770198808939 0 0 0 0.033276921897008843 0.072219639361295829 -0.0093926995662854725 0 -0.0093926995662854725 0.057783833512193183 0 0 0 0.03250086821837217 0.023676965526611013 -0.0062791478324384807 0 -0.0062791478324384807 0.07088475509151812 0 0 0 0.02364043015453228 0.084719015684958987 -0.0046294813565023185 0 -0.0046294813565023185 0.074006614872211607 0 0 0 0.039681407639292732 0.03303111537706796 -0.0060280065554849356 0 -0.0060280065554849356 0.09898346460989188 0 0 0 0.033003644996739967 0.11302651107774905 -0.0065241482877574364 0 -0.0065241482877574364 0.082172364732437941 0 0 0 0.048799718952546672 0.097869448071513973 -0.0095620542798117159 0 -0.0095620542798117159 0.07867426667625517 0 0 0 0.044135928686942258 0.082967254012984104 -0.0037538273637086617 0 -0.0037538273637086617 0.072165213733209388 0 0 0 0.038783116936548456 0.061003064167340464 -0.00090343721574673297 0 -0.00090343721574673297 0.043142216395364877 0 0 0 0.026036320140676354 0.07603398864521943 -0.0085393652524008851 0 -0.0085393652524008851 0.051584649133974092 0 0 0 0.031904659444798422 0.086800899411541593 -0.0032054555966872234 0 -0.0032054555966872234 0.078042991487140778 0 0 0 0.041210972724670586 0.085745029762519479 0.00058995928407284959 0 0.00058995928407284959 0.056435458971426156 0 0 0 0.035545122183486447 0.069746810883914573 -0.0084679172974513051 0 -0.0084679172974513051 0.033985475203484272 0 0 0 0.025933071521849732 0.10034715303796077 -0.0091055785181598792 0 -0.0091055785181598792 0.083307373202634261 0 0 0 0.045913631560148771 0.12897962787483055 -0.0015102556263798528 0 -0.0015102556263798528 0.088173299399825683 0 0 0 0.054288231818664018 0.10333794809975516 -0.011368325908597189 0 -0.011368325908597189 0.074402002561298697 0 0 0 0.044434987665263492 0.085312943245922951 0.0030493937046948694 0 0.0030493937046948694 0.038688069715404547 0 0 0 0.031000253240331895 0.10210685685782717 -0.0108720376448872 0 -0.0108720376448872 0.080391829008904292 0 0 0 0.04562467146668292 0.038934104477527029 -0.0059042882274565819 0 -0.0059042882274565819 0.11605697880338317 0 0 0 0.038747770820227553 0.13120108129775776 -0.0023865991424827752 0 -0.0023865991424827752 0.094499606093087607 0 0 0 0.05642517184771112 0.10939879579831768 0.0040377785437502034 0 0.0040377785437502034 0.086475908300208904 0 0 0 0.048968676024631508 0.091871867434623528 -0.0060748992878356667 0 -0.0060748992878356667 0.05837311457524369 0 0 0 0.037561245502466561 0.069529293413231885 0.0046344595348606354 0 0.0046344595348606354 0.037991819970707663 0 0 0 0.026880278345984943 0.065950343028691183 -0.0066621018105094132 0 -0.0066621018105094132 0.039504407228873273 0 0 0 0.026363687564391114 0.079556039610189477 0.00098702781345338941 0 0.00098702781345338941 0.055532660451449056 0 0 0 0.033772175015409578 0.048756441139666484 -0.0021096746192714733 0 -0.0021096746192714733 0.032577774217088962 0 0 0 0.020333553839188778 0.025290144138654047 -0.005419214681325113 0 -0.005419214681325113 0.013576575767832111 0 0 0 0.0097166799766216227 0.023736520969133812 -0.0074858642204978882 0 -0.0074858642204978882 0.0089157062593701042 0 0 0 0.0081630568071260345 0.042034474265885136 -0.0014714746726253308 0 -0.0014714746726253308 0.012435389641884509 0 0 0 0.013617465976942578 0.043878699803872934 -0.0095197077287240139 0 -0.0095197077287240139 0.021638189644464623 0 0 0 0.016379222362084334 0.023657939367182856 -0.011926157086951009 0 -0.011926157086951009 0.017912965092467648 0 0 0 0.010392726114912709 0.020966719079727025 -0.011402447637650977 0 -0.011402447637650977 0.010012010517404857 0 0 0 0.0077446823992830538 0.034141291294908838 -0.011660319775301797 0 -0.011660319775301797 0.019483004229289502 0 0 0 0.013406073881049529 0.056358322747470782 -0.0084294535919027247 0 -0.0084294535919027247 0.04091907989138191 0 0 0 0.02431935065971326 0.069835340462449658 -0.012198900588091255 0 -0.012198900588091255 0.044230264339993663 0 0 0 0.028516401200610719 0.050178528257635385 -0.0051504546631141457 0 -0.0051504546631141457 0.03569329284488465 0 0 0 0.021467955275629974 0.0038878343975892182 -0.0026747121436232479 0 -0.0026747121436232479 0.0049068192479713169 0 0 0 0.0021986634113901893 0.0022089836254957085 -0.0015021940000145757 0 -0.0015021940000145757 0.0027172683936829145 0 0 0 0.0012315630047945447 0.0040928743685414255 -0.0010968408313172251 0 -0.0010968408313172251 0.0029642139557133919 0 0 0 0.0017642720810634269 0.0055144589370919039 -0.0019016663443977011 0 -0.0019016663443977011 0.003069161253815178 0 0 0 0.002145905047726826 0.0030295816464640524 -0.003350858884899055 0 -0.003350858884899055 0.0025002675049079492 0 0 0 0.0013824622878428894 0.0069382693959736397 -0.0053982509084373742 0 -0.0053982509084373742 0.0027948928892715941 0 0 0 0.0024332905713113639 0.013512188913566758 -0.0044645349824851133 0 -0.0044645349824851133 0.0036246331107698815 0 0 0 0.0042842055060838824 0.0076593477135149524 -0.0020662892055476334 0 -0.0020662892055476334 9.3251954957906946e-07 0 0 0 0.0019150700582661884 0.01297837766066441 -0.0027381790002036777 0 -0.0027381790002036777 0.00071495206134573441 0 0 0 0.0034233324305025918 0.0095495280479312439 -0.0084264429525361395 0 -0.0084264429525361395 0.0050434903166187706 0 0 0 0.0036482545911374342 0.0055332102181210319 -0.011791464173912969 0 -0.011791464173912969 0.0071270307907110864 0 0 0 0.0031650602522081961 -0.005282019135902552 -0.0079612634075485467 0 -0.0079612634075485467 0.0030466255171258394 0 0 0 -0.00055884840469423713 0.0087417403634095225 -0.0071447851347923308 0 -0.0071447851347923308 0.0042961509934701381 0 0 0 0.0032594728392198458 0.0029783262761908791 -0.0083260689797457488 0 -0.0083260689797457488 0.0058320219380960658 0 0 0 0.0022025870535715697 -0.00096898734362052541 -0.0035229312631294141 0 -0.0035229312631294141 0.0030942432757309346 0 0 0 0.00053131398302772026 -0.010690061452339073 -0.0038041493801789228 0 -0.0038041493801789228 0.0022538113963561954 0 0 0 -0.0021090625139957749 -0.0023170721864942401 -0.0035352895723259614 0 -0.0035352895723259614 0.0050449395208058689 0 0 0 0.00068196683357779619 -0.020640583628601883 -0.0045158882073595974 0 -0.0045158882073595974 0.0043840128956027513 0 0 0 -0.0040641426832497274 -0.0034983012038981576 -0.0066038689508964854 0 -0.0066038689508964854 0.005412228649197548 0 0 0 0.00047848186132493087 -0.0056041459494261536 -0.0097649357501432554 0 -0.0097649357501432554 0.0042147927040132593 0 0 0 -0.00034733831135336235 -0.015745138341439369 -0.0047003570169019682 0 -0.0047003570169019682 0.00098687801590185975 0 0 0 -0.0036895650813843495 -0.0067293027747373085 -0.011263994355625528 0 -0.011263994355625528 0.0041890185935940516 0 0 0 -0.00063507104528585934 0.0050318646278528778 -0.012687242619341288 0 -0.012687242619341288 0.0072243150946551538 0 0 0 0.0030640449306270634 0.0025566243752781492 -0.015387076667946309 0 -0.015387076667946309 0.0063329012550710218 0 0 0 0.0022223814075871262 0.0037608298965193798 -0.014468623239642958 0 -0.014468623239642958 0.0089120316666799759 0 0 0 0.0031682153907998112 -0.0069614921366677462 -0.011690522396827996 0 -0.011690522396827996 0.0034296897667966952 0 0 0 -0.00088295059246779051 -0.0073028004441620664 -0.014170916246995513 0 -0.014170916246995513 0.0054973753756443894 0 0 0 -0.00045135626712952681 0.0027588571126054839 -0.017340156586002686 0 -0.017340156586002686 0.0093103437032637792 0 0 0 0.003017300203967288 -0.012321733424545123 -0.014148679582442425 0 -0.014148679582442425 0.003724023462726489 0 0 0 -0.0021494274904547694 -0.018458777704393026 -0.0086552127618746422 0 -0.0086552127618746422 0.0036061864390797282 0 0 0 -0.003713147816328255 -0.021792823666272387 -0.006888299974580403 0 -0.006888299974580403 0.00094248413322772784 0 0 0 -0.0052125848832609845 -0.02332983149661827 -0.0073654516196886566 0 -0.0073654516196886566 0.0045936447371823785 0 0 0 -0.0046840466898588895 -0.033624327606766036 -0.0038352987439286279 0 -0.0038352987439286279 0.0016349910858891592 0 0 0 -0.0079973341302190804 -0.020104711293120747 -0.0036543105972894757 0 -0.0036543105972894757 0.0031093652501543723 0 0 0 -0.0042488365107414827 0.042043219664592346 -0.015281968365506771 0 -0.015281968365506771 0.026231093971698982 0 0 0 0.017068578409072832 0.032594608256155788 -0.013921633558001689 0 -0.013921633558001689 0.026477926634849158 0 0 0 0.01476813372275132 0.046563396884493735 -0.015536100628297189 0 -0.015536100628297189 0.040513112376352245 0 0 0 0.021769127315211523 0.041587268449171044 -0.016746956348717534 0 -0.016746956348717534 0.028779955188102946 0 0 0 0.017591805909318414 0.017513888422460211 -0.014725308427404715 0 -0.014725308427404715 0.015068307283124804 0 0 0 0.0081455489263960179 0.015863510293131045 -0.014589386095875567 0 -0.014589386095875567 0.010032051704462752 0 0 0 0.0064738904993986157 0.02864828852493706 -0.016848566333171305 0 -0.016848566333171305 0.016257531894400046 0 0 0 0.011226455104834221 0.023027860159476998 -0.018347913865678134 0 -0.018347913865678134 0.013695265905799392 0 0 0 0.0091807815163190698 0.013624379512829937 -0.016365415101327052 0 -0.016365415101327052 0.013643264464452964 0 0 0 0.0068169109943207185 0.011482341541173058 -0.015165132335421383 0 -0.015165132335421383 0.0081136443183860152 0 0 0 0.0048989964648897266 0.011401320858205582 -0.014592938047037207 0 -0.014592938047037207 0.011199672149349776 0 0 0 0.0056502482518887842 0.036240451217724901 -0.016460037608727163 0 -0.016460037608727163 0.021050634679561364 0 0 0 0.014322771474321594 0.026273492833945533 -0.015654412521363542 0 -0.015654412521363542 0.023116633318406077 0 0 0 0.012347531538087875 0.052058516639455599 -0.011778325803429995 0 -0.011778325803429995 0.035683986645521415 0 0 0 0.021935625821244198 0.039466161796814392 -0.015178912178045678 0 -0.015178912178045678 0.031353146417072431 0 0 0 0.017704827053471761 0.047206592356570348 -0.011861725121144473 0 -0.011861725121144473 0.028954157391369528 0 0 0 0.019040187436985018 0.035163405195066444 -0.017414113516526109 0 -0.017414113516526109 0.021188668960987034 0 0 0 0.014088018539013425 0.037079519735696786 -0.013360802702165442 0 -0.013360802702165442 0.021827373807865813 0 0 0 0.014726723385890705 0.043273545929647439 -0.015521264495034159 0 -0.015521264495034159 0.02146188422337425 0 0 0 0.016183857538255408 0.023692645247434085 -0.01909830750854008 0 -0.01909830750854008 0.014211301828488621 0 0 0 0.0094759867689806487 0.027106752800359735 -0.014466141170718538 0 -0.014466141170718538 0.019960342413498755 0 0 0 0.011766773803464747 0.021963588384630306 -0.019410243904192576 0 -0.019410243904192576 0.01235213582629946 0 0 0 0.0085789310527324414 0.0059431390752380242 -0.018920335956591067 0 -0.018920335956591067 0.0079047990429830239 0 0 0 0.0034619845295553175 0.0024239549537076743 -0.014443183557027284 0 -0.014443183557027284 0.0065079356321018356 0 0 0 0.0022329726464523358 0.020894667673596629 -0.015372505335142672 0 -0.015372505335142672 0.012392897671549358 0 0 0 0.0083218913362864966 0.0096349176547329551 -0.020776597345334769 0 -0.020776597345334769 0.0076676304291038999 0 0 0 0.0043256370209592276 0.017865548684461496 -0.015531801974212278 0 -0.015531801974212278 0.0095439948461952806 0 0 0 0.0068523858826641804 0.0016571848040438097 -0.016716077142221647 0 -0.016716077142221647 0.0051101611241438638 0 0 0 0.00169183648204696 0.0027879223870017067 -0.01924331996347467 0 -0.01924331996347467 0.0099925960144964243 0 0 0 0.0031951296003744356 0.037940642106394154 -0.017379438807859748 0 -0.017379438807859748 0.014264960559339734 0 0 0 0.013051400666433469 0.040786489924600933 -0.014002889312068494 0 -0.014002889312068494 0.019480879635139559 0 0 0 0.015066842389935109 0.037280955535127336 -0.013825768075938057 0 -0.013825768075938057 0.022501738063544607 0 0 0 0.014945673399668014 0.019051138765869113 -0.019471445522531383 0 -0.019471445522531383 0.012278046921556984 0 0 0 0.007832296421856566 0.034701854845840874 -0.015588757047805657 0 -0.015588757047805657 0.015470177947761954 0 0 0 0.012543008198400596 -0.034843632521621981 -0.0074113872986800722 0 -0.0074113872986800722 0.0032517808207368493 0 0 0 -0.0078979629252212691 -0.041837932395817651 -0.0039725185067494007 0 -0.0039725185067494007 0.00075611356376073524 0 0 0 -0.010270454708014271 -0.033806935078096567 -0.003989707490091865 0 -0.003989707490091865 0.00065219327221294199 0 0 0 -0.0082886854514709341 -0.045350793811615109 -0.0049671590544094939 0 -0.0049671590544094939 0.0032494742540691846 0 0 0 -0.010525329889386481 -0.0242289247273626 -0.0063636429030577424 0 -0.0063636429030577424 2.7953187662355106e-06 0 0 0 -0.006056532352149202 -0.012295000113921151 -0.012171434251740831 0 -0.012171434251740831 0.0039449229469433744 0 0 0 -0.0020875192917444441 -0.024187049183982401 -0.012575545346576095 0 -0.012575545346576095 0.0037649333897167292 0 0 0 -0.0051055289485663069 -0.0074702822339987873 -0.013030457189386335 0 -0.013030457189386335 0.0036177240463308724 0 0 0 -0.00096313954691698567 -0.010631419617229798 -0.017887741740672924 0 -0.017887741740672924 0.005875808744686184 0 0 0 -0.0011889027181358758 -0.014119534867446937 -0.015752464298231239 0 -0.015752464298231239 0.004803074975303856 0 0 0 -0.0023291149730358396 -0.011004212389343839 -0.013465155271917384 0 -0.013465155271917384 0.0055876325663304013 0 0 0 -0.0013541449557533582 -0.012249549255527292 -0.018187869017638705 0 -0.018187869017638705 0.0079062716759266127 0 0 0 -0.0010858193949001005 -0.019617417535930787 -0.010638604331291324 0 -0.010638604331291324 0.0033712455279853518 0 0 0 -0.0040615430019863182 -0.029065496841723271 -0.013476677341787063 0 -0.013476677341787063 0.004152615648902791 0 0 0 -0.0062282202982051893 -0.02846695350469905 -0.010958734029740846 0 -0.010958734029740846 0.0024593743550032077 0 0 0 -0.0065018947874238842 -0.029090215671111253 -0.011765055257849433 0 -0.011765055257849433 0.0034135184245831507 0 0 0 -0.0064191743116319699 -0.044795924804671872 -0.0070995083483492705 0 -0.0070995083483492705 0.0023629526453970429 0 0 0 -0.010608243039818666 -0.042989954913493861 -0.0041908451338255048 0 -0.0041908451338255048 0.0018360596836722864 0 0 0 -0.010288473807455428 -0.054503396223876233 -0.0067628032981448816 0 -0.0067628032981448816 0.0022405827152818247 0 0 0 -0.01306570337714863 -0.076822872213128612 -0.0043023170841230418 0 -0.0043023170841230418 0.0020618197060318089 0 0 0 -0.018690263126774187 -0.063297156826881473 -0.0050302101211776584 0 -0.0050302101211776584 0.0021809074233241077 0 0 0 -0.015279062350889383 -0.051815303537141172 -0.002508185207344138 0 -0.002508185207344138 0.0012589904894064752 0 0 0 -0.012639078261933584 -0.045054845306576219 -0.011791188948617845 0 -0.011791188948617845 0.0050335515580434143 0 0 0 -0.010005323437133173 -0.035232297312651067 -0.0079575627814167937 0 -0.0079575627814167937 0.0020563673789475434 0 0 0 -0.008293982483425888 -0.016059484169618832 -0.011951283266242618 0 -0.011951283266242618 0.0051174021446496187 0 0 0 -0.0027355205062423171 -0.019825656665428681 -0.016502440964215881 0 -0.016502440964215881 0.0084885247442980649 0 0 0 -0.0028342829802827096 -0.017754037725223826 -0.014830619481860097 0 -0.014830619481860097 0.014260637124758224 0 0 0 -0.00087335015011641426 -0.02592418982287964 -0.0086159684874062559 0 -0.0086159684874062559 0.0019606700169765845 0 0 0 -0.005990879951475736 -0.026621131772011003 -0.01067994801302477 0 -0.01067994801302477 0.0066071540782128846 0 0 0 -0.0050034944234495504 -0.03976754260408058 -0.0018666603723043462 0 -0.0018666603723043462 0.0078487539723238187 0 0 0 -0.0079796971579391696 -0.039976926735892537 -0.01077891665536615 0 -0.01077891665536615 0.0064287145193404061 0 0 0 -0.0083870530541380606 -0.05318947645772179 -0.005538157436639754 0 -0.005538157436639754 0.0021791898531037246 0 0 0 -0.012752571651154537 -0.049313463234887861 -0.0024615548702454915 0 -0.0024615548702454915 0.0020018810559652434 0 0 0 -0.011827895544730653 -0.075737751711714665 -0.002600303448612673 0 -0.002600303448612673 0.0025666371262653698 0 0 0 -0.018292778646362334 0.021228068090043246 -0.016325616100508922 0 -0.016325616100508922 0.014644840030771003 0 0 0 0.0089682270302035086 0.045261610381047812 -0.027995340219705997 0 -0.027995340219705997 0.026925749913620678 0 0 0 0.018046840073667136 0.02008690369344554 -0.020760730982681441 0 -0.020760730982681441 0.015158885055907345 0 0 0 0.0088114471873382283 0.017048327499584071 -0.016116028485866317 0 -0.016116028485866317 0.0086713252055712342 0 0 0 0.0064299131762887707 -0.0028128953284444758 -0.016915590530830527 0 -0.016915590530830527 0.0074956384964447453 0 0 0 0.0011706857920000813 -0.0012216532227594112 -0.017539010676444922 0 -0.017539010676444922 0.012435195128844834 0 0 0 0.0028033854765212585 0.014502787197515937 -0.022225592262563487 0 -0.022225592262563487 0.016559044529916578 0 0 0 0.0077654579318581218 -0.0013738901379955204 -0.011845123731359722 0 -0.011845123731359722 0.016574941054401493 0 0 0 0.0038002627291015278 -0.02294694438532488 -0.0071754398418674842 0 -0.0071754398418674842 0.0071294875055440965 0 0 0 -0.0039543642199451889 -0.015305129182406702 -0.0045432840405184999 0 -0.0045432840405184999 0.011532670913113885 0 0 0 -0.00094311456732321108 -0.0063152858777039411 -0.016626161590603025 0 -0.016626161590603025 0.018786154844396274 0 0 0 0.0031177172416730625 0.018209633646856939 -0.018969609771172735 0 -0.018969609771172735 0.023957390489697611 0 0 0 0.010541756034138629 0.019296898831209219 -0.017054203409603275 0 -0.017054203409603275 0.025571787864758111 0 0 0 0.011217171673991805 0.039499000865526927 -0.024174893403948711 0 -0.024174893403948711 0.037222504603895812 0 0 0 0.019180376367355693 0.05321960595747325 -0.037620345243920467 0 -0.037620345243920467 0.074100886510224451 0 0 0 0.031830123116924451 -0.017693066012353098 0.0088577875348118396 0 0.0088577875348118396 0.040405691120129095 0 0 0 0.005678156276944013 0.11751683512320278 -0.037576225492127566 0 -0.037576225492127566 0.034952127113131115 0 0 0 0.038117240559083443 0.0028859768189030627 -0.0013294326556234012 0 -0.0013294326556234012 0.0084676578098779216 0 0 0 0.0028384086571952467 0.060741496413710586 -0.018573094559318049 0 -0.018573094559318049 0.0092737928381159962 0 0 0 0.017503822312956677 0.055222182092240668 -0.014553127984606021 0 -0.014553127984606021 0.018104717799210635 0 0 0 0.01833172497286284 0.007134383619090582 -0.00337044133615386 0 -0.00337044133615386 0.021327569659454412 0 0 0 0.0071154883196362486 0.080642687206740782 -0.010641179015136115 0 -0.010641179015136115 0.020695914796152626 0 0 0 0.025334650500723366 0.010051023962549322 -0.0046283750993118709 0 -0.0046283750993118709 0.03005550070255884 0 0 0 0.01002663116627704 0.058692335528634398 -0.0094145869843367258 0 -0.0094145869843367258 0.022597470494447602 0 0 0 0.0203224515057705 0.054467922222198539 -0.015810484597477248 0 -0.015810484597477248 0.016199808678433958 0 0 0 0.01766693272515818 0.019866397138556591 -0.0097465946246709095 0 -0.0097465946246709095 0.013788348322368638 0 0 0 0.0084136863652312932 0.012035104727839599 -0.012057692585143068 0 -0.012057692585143068 0.022316281821985307 0 0 0 0.008587846637456209 0.021551637499740886 -0.0093502771550331293 0 -0.0093502771550331293 0.019023354772664106 0 0 0 0.010143748068101269 -0.0019092637705102056 -0.012371631814051619 0 -0.012371631814051619 0.014339881765626089 0 0 0 0.0031076544987789778 0.019849828363695761 -0.0037841261361803713 0 -0.0037841261361803713 0.028721308091217868 0 0 0 0.012142784113728412 0.015841861197069401 -0.0022534317917783792 0 -0.0022534317917783792 0.0083467972035798643 0 0 0 0.0060471646001623164 0.004286576504862416 -0.0061180641552582571 0 -0.0061180641552582571 0.074363999505057968 0 0 0 0.019662644002480092 0.014401816235717103 0.00053842356205195674 0 0.00053842356205195674 0.02780105997167634 0 0 0 0.01055071905184838 0.02203661782966037 -0.0065932247791623683 0 -0.0065932247791623683 0.011224058083791538 0 0 0 0.0083151689783629787 0.0266824563452377 -0.0082261884941312452 0 -0.0082261884941312452 0.026771401646441852 0 0 0 0.013363464497919884 0.019482444650124393 -0.010161229094547794 0 -0.010161229094547794 0.025960214315508143 0 0 0 0.011360664741408136 0.023921797323313981 -0.013895972382087233 0 -0.013895972382087233 0.02754291914737042 0 0 0 0.012866179117671087 0.024789573059423999 -0.012546336747106368 0 -0.012546336747106368 0.039979013026144733 0 0 0 0.016192146521392167 0.034013329201671508 -0.018463782488644671 0 -0.018463782488644671 0.02960005581157249 0 0 0 0.01590334625331101 0.037311756056653315 -0.017347485056629419 0 -0.017347485056629419 0.015891211735567061 0 0 0 0.013300741948055092 0.03031778091199791 -0.013062496543001553 0 -0.013062496543001553 0.014656527894467031 0 0 0 0.011243577201616256 0.032327877926616379 -0.013456731678304502 0 -0.013456731678304502 0.013214109786094552 0 0 0 0.011385496928177766 0.029281541449730372 -0.012157728240445077 0 -0.012157728240445077 0.012032329171317357 0 0 0 0.010328467655261908 0.031036671644126268 -0.013695477165104469 0 -0.013695477165104469 0.0055239939063365662 0 0 0 0.0091401663876157224 0.024113337755091214 -0.01169996164110676 0 -0.01169996164110676 0.013851225291641331 0 0 0 0.009491140761683118 0.030172219033088296 -0.011712560604059882 0 -0.011712560604059882 0.0077686627237206762 0 0 0 0.0094852204392022327 0.030284671164345342 -0.012278012208708902 0 -0.012278012208708902 0.0084635616025393601 0 0 0 0.0096870581917211929 0.027142815199056494 -0.012041585483491046 0 -0.012041585483491046 0.010636529227950886 0 0 0 0.0094448361067518555 0.031908817592746136 -0.011007805508765345 0 -0.011007805508765345 0.0043699065699053796 0 0 0 0.0090696810406628858 0.032164170529112135 -0.010537679387518734 0 -0.010537679387518734 0.0087708615224861286 0 0 0 0.01023375801289958 0.031491724363835627 -0.01092565937361227 0 -0.01092565937361227 0.012639512638674466 0 0 0 0.011032809250627496 0.037693557769330477 -0.011686221760466804 0 -0.011686221760466804 0.0026399208462669632 0 0 0 0.010083369653899388 0.034605714493190477 -0.012655116189545013 0 -0.012655116189545013 0.0064464520287051616 0 0 0 0.010263041630473905 0.033956576956409676 -0.012115578560978765 0 -0.012115578560978765 0.0057129462334499226 0 0 0 0.009917380797464917 0.036428830950350835 -0.0094933329463953026 0 -0.0094933329463953026 0.0032650323711185814 0 0 0 0.0099234658303673506 0.037062551164528175 -0.0098517270208163532 0 -0.0098517270208163532 0.0021503159401770194 0 0 0 0.0098032167761762986 0.03457121009581203 -0.0022479562428107114 0 -0.0022479562428107114 -0.0032558270018410163 0 0 0 0.0078288457734927569 0.033061242848002562 -0.0063852220815206195 0 -0.0063852220815206195 0.0012650737714090532 0 0 0 0.0085815791548528725 0.037823044605852896 -0.0042597738506081895 0 -0.0042597738506081895 0.004536772246774845 0 0 0 0.010589954213156949 0.033451155334991128 -0.0087427789756566315 0 -0.0087427789756566315 0.016617734845288279 0 0 0 0.012517222545069873 0.035510873433655443 -0.0070892071443867111 0 -0.0070892071443867111 0.009705171923083733 0 0 0 0.011304011339184766 0.031756155188323462 -0.0088641513020970841 0 -0.0088641513020970841 0.0079583780187966052 0 0 0 0.009928633301779996 0.033649059465936437 -0.0050329968699209249 0 -0.0050329968699209249 0.0080887712058422268 0 0 0 0.01043445766794468 0.035005836004904173 -0.0072860484869963493 0 -0.0072860484869963493 0.015776887280002982 0 0 0 0.012695680821226768 0.037400066377285324 -0.0055177672749528424 0 -0.0055177672749528424 0.019266267534961523 0 0 0 0.014166583478061767 0.038957477717667027 -0.0072041143906074398 0 -0.0072041143906074398 0.028841284436266212 0 0 0 0.016949690538483275 0.03462799059926347 -0.0096358998996956824 0 -0.0096358998996956824 0.024758760671104274 0 0 0 0.014846687817591964 0.034282931614753182 -0.0082320330230056804 0 -0.0082320330230056804 0.020548840325382289 0 0 0 0.013707942985033861 0.038729729638092431 -0.0064665645668944404 0 -0.0064665645668944404 0.037478281316215001 0 0 0 0.019052002738576851 0.06133016609704689 -0.008320192942796345 0 -0.008320192942796345 0.038572309181749032 0 0 0 0.024975618819698897 0.0161694103841039 -0.0059220650522571073 0 -0.0059220650522571073 0.048391709820769208 0 0 0 0.016140280051218273 0.044025520304735652 -0.0082943008074724267 0 -0.0082943008074724267 0.040268430477125694 0 0 0 0.021073487695465312 0.051034882591237229 -0.011610587592018301 0 -0.011610587592018301 0.042381806853791337 0 0 0 0.023354172361257142 0.050216048915442013 -0.010158191105449688 0 -0.010158191105449688 0.034878566055435489 0 0 0 0.021273653742719389 0.062180733786268594 -0.0071921307205685681 0 -0.0071921307205685681 0.031503603767868538 0 0 0 0.023421084388534352 0.029166715687256504 -0.0095248534268450591 0 -0.0095248534268450591 0.032534821293355345 0 0 0 0.015425384245152961 0.012984540003891086 -0.0054398694237493481 0 -0.0054398694237493481 0.038851792355624443 0 0 0 0.01295908308987888 0.053205242989926405 -0.0089668378963168385 0 -0.0089668378963168385 0.029384270956265057 0 0 0 0.020647378486547796 0.04824361902070004 -0.013753525522641197 0 -0.013753525522641197 0.018521831339114447 0 0 0 0.016691362589953601 0.065715281544407977 -0.0076631724785988231 0 -0.0076631724785988231 0.0248411844036176 0 0 0 0.022639116487006394 0.023629991068238446 -0.010022722163688963 0 -0.010022722163688963 0.023418061378894073 0 0 0 0.011762013111783126 0.026695177376380101 -0.012520303492732698 0 -0.012520303492732698 0.013588363202491766 0 0 0 0.010070885144717955 0.027331865399609179 -0.011491058892257877 0 -0.011491058892257877 0.017045333161649273 0 0 0 0.011094299640314626 0.031881634673495043 -0.008848875411285928 0 -0.008848875411285928 0.025848188448270526 0 0 0 0.014432455780441403 
</DataArray>
<DataArray type="Float64" Name="von_mises_stress" format="ascii">
0.025185405009760672 0.01955963644782437 0.029512579669049525 0.023575951694972654 0.01937782625579574 0.019385641556135962 0.025295347715315265 0.025592623977679519 0.025471416375977985 0.0224738458982775 0.029521035526527729 0.024048107387809364 0.034646045449678815 0.028713906972307225 0.038948494609828348 0.032873315819896082 0.032096447197733663 0.03164551728729996 0.01627632413286224 0.020602293177643921 0.016304288775485096 0.022142304484222462 0.020460331483689968 0.019380192466615848 0.017016957032663583 0.023437744420235364 0.021235854826723768 0.019659675203545949 0.015553362633080131 0.017114867033195626 0.019070732084730275 0.013836182734710267 0.01690899998405301 0.012628569402731101 0.019028946182556905 0.02436631840948722 0.022041542011839617 0.016807131987806055 0.022894987491213339 0.02612610961352994 0.019549539890110049 0.021188766820224806 0.017603741402832582 0.013277216246658181 0.020205490144462341 0.014238409816382996 0.012757303551677278 0.01541878843086312 0.038018942013024332 0.033689967242914849 0.046834131682359947 0.034351956154869467 0.028302198988297771 0.028839992362823377 0.030395377752021141 0.032225682261454829 0.024813944884928132 0.034323515866702889 0.026887070114903731 0.032964576123399904 0.042634814601687845 0.040691182257703171 0.039691389354972989 0.052824236830163712 0.055929365514671717 0.04252008870599467 0.047640917813078963 0.065406512148425258 0.051404752013401209 0.04745788487379652 0.053551511204635062 0.071330002286166497 0.031977931367614072 0.030320289870483855 0.037891291696516137 0.038910844855149951 0.030405091503678948 0.046614211062394877 0.036062458081811827 0.036022615136974329 0.028390846816911564 0.021944663086906908 0.020057075948841024 0.019461907778437662 0.017188880041554541 0.028152116951455045 0.010867164268144188 0.016268867696838333 0.012666357083485041 0.0060224638014904266 0.013818661202174863 0.013290980613910479 0.0082193766093940166 0.0073885644833899195 0.022506525548676378 0.023395961980671932 0.01291403476708141 0.014921945313119035 0.023008670849037516 0.02807363379588091 0.024447012907126656 0.02326281357631186 0.012609369907812008 0.017872514942470795 0.0076085649756516853 0.012980916377890325 0.011540225232420794 0.022762128478351022 0.025880560142308301 0.023806336463415852 0.028088430891813346 0.030317472483330634 0.013714197413921072 0.024482918218343197 0.025230746037599512 0.032657459417822707 0.038689243872792253 0.041531226232977718 0.051509340279753506 0.053396423073307185 0.07663939233522489 0.056715760168027214 0.05526723689406416 0.056796680322581936 0.049955074877663798 0.075744950230328095 0.057102231070885634 0.041608659819440633 0.033989831018856553 0.041918980555028656 0.025192197113275236 0.021686035983009579 0.020153703962146913 0.022082699132846891 0.022196752834209538 0.02569818443869086 0.0303053960972724 0.027829357969779003 0.027751760501376933 0.025031644173972079 0.025668081335784056 0.028759172852365913 0.028911107988674245 0.031774632376077458 0.033013005799295093 0.070005469850327989 0.045744169953643984 0.044116638883165513 0.033566462295944038 0.034133712379789974 0.028204194427090191 0.044931716383023436 0.026809952414521599 0.017067666539048672 0.025797283836650347 0.011863189069743839 0.017354660823924523 0.031405073802282156 0.026859739731598008 0.025548812174631407 0.015688367781428725 0.019733599536176955 0.014671450593739961 0.0098510620300445804 0.011091923117759042 0.0093667471536928813 0.013272035540579534 0.0089560411650525269 0.0097684150157328186 0.0097577663289432296 0.011990172193450848 0.0098290205072643893 0.013816883231115901 0.011180738117291061 0.011403482349269434 0.010974667880631339 0.010424308685312959 0.010142260980419777 0.014612548036566137 0.014658195887719119 0.014993011791950225 0.011077482773177879 0.010531698485241691 0.010271460073970418 0.013301975498084843 0.01122558356315754 0.013575985873180868 0.017962465945658642 0.015479523260795821 0.022383828783751194 0.014499680761371318 0.018612961893501406 0.011642886399380135 0.014935950106968108 0.014701417860733316 0.015928293389468377 0.015997532369908331 0.021635446464250457 0.023485296507129303 0.022493059938758296 0.019729926039774422 0.019596535376468344 0.014172724042024092 0.017875635730503499 0.020017804918038649 0.01859397773232261 0.022060567607112423 0.023284875774284782 0.019487781358188284 0.025912675759620668 0.02509781659783902 0.027590233949478422 0.025662404489062297 0.023858008803108122 0.012198368572390275 0.014096548762974205 0.013619755103189839 0.016251631283033457 0.01339382827879647 0.015193988052371229 0.014505864038139409 0.016429098248604768 0.018733974840326163 0.016247649628978775 0.020979447038859306 0.016709246975662343 0.016407850444311811 0.013743365074048251 0.016224794948285 0.013969962758434188 0.015824577364423817 0.017794474057676202 0.014898784193379384 0.013554655335911183 0.017626056976796887 0.015397412541148819 0.018525168207601153 0.016859023252487629 0.017695869487526078 0.021485424121773088 0.016635356226157777 0.019639784464883427 0.016185021551524539 0.01975606575645391 0.01570454934066124 0.020173994843011259 0.023963826400469176 0.025731748222329653 0.022745736894780884 0.023584740461692351 0.019685567531621685 0.021390470545028382 0.017102014067917424 0.019449387649003815 0.017980726715480261 0.020038561445979281 0.021952817989895578 0.022671299760853358 0.020261106899026427 0.018215427398082455 0.02136864334315625 0.018805001578724917 0.021166940025867501 0.024123746344876677 0.024982766211410195 0.026355322233672381 0.025647324247775567 0.027879756344974482 0.027673780604675097 0.029134386188461901 0.028001881054915381 0.026540293422829042 0.024909575473633917 0.018512305425239482 0.01884637388300716 0.021043141746204929 0.018505247288444635 0.023426776098614394 0.022192616298661004 0.018264042832403318 0.023486623343433918 0.024597298954381262 0.024852384688584719 0.022234706016633698 0.022666427393085626 0.020400193459816741 0.024527655623074473 0.029034921855828347 0.027298303778366881 0.029066041157709853 0.029590393848112857 0.034124004594191633 0.028657647401602111 0.026620944491860012 0.027455225912174842 0.026422616929035542 0.023949243082705313 0.031208864534083228 0.030586973857729117 0.028733291825315758 0.034610663984287811 0.030262493432003514 0.029448822287334742 0.030449093199017271 0.033834335537641709 0.035399842688371472 0.036654841837112193 0.031672025901099014 0.032033299390202698 0.032707274007544036 0.031143297609794753 0.02932075943304055 0.028596804502249471 0.026576200802516145 0.02614821906181073 0.025330820484119321 0.029253865559750923 0.030047730197398037 0.027719786549343831 0.030055707998463039 0.029276482286614648 0.030228845334952372 0.030920305242256949 0.030200634391860964 0.032748125249772081 0.054217358744454075 0.042552573420936247 0.044373354370829718 0.042932238801127384 0.038479636947419509 0.03255386722576737 0.025268019061847058 0.030740460646452483 0.034069584420646122 0.032259749149198692 0.025318975722107319 0.025328932831900752 0.032437012342071588 0.027776422705613493 0.037145974684640745 0.047441237943276302 0.030840199948139146 0.038425392352526656 0.025346072829727555 0.023786309107253826 0.030072898799845347 0.028015487967629996 0.026462583185776187 0.020916061936356405 0.024567640071388785 0.019241942113736608 0.026073125843083897 0.019358206570263162 0.018375129166196193 0.025532146182182337 0.024026934446308264 0.019414088778293287 0.0272931247901495 0.024732402156512491 0.027628979527818918 0.027965325233597023 0.022076693482358491 0.029964463660666549 0.023633295451661946 0.027132517512789275 0.031911205035191292 0.031013446831695841 0.033322245812671819 0.029982978920311609 0.023394703943908531 0.028157699796244506 0.037462690732204554 0.037369456184580339 0.044681955993274514 0.04368860019071124 0.041653483917014122 0.040593323989503709 0.047672627953847954 0.059444845140853485 0.065334785236492166 0.079188426056672964 0.057062269975311983 0.067277254236063691 0.046738865418194539 0.053637374881193828 0.046831284730180285 0.082834538902623517 0.11552768721941839 0.081050583712140814 0.072904150232341897 0.10353147458846566 0.089395918651445083 0.062447002908814851 0.069822759346300639 0.072631718731671444 0.048883579957327568 0.047525128219285395 0.034206698749947355 0.055480285046391943 0.053695064167814374 0.046713976189429351 0.029629096851028772 0.032118739815985183 0.03223223550600679 0.043798370049465289 0.035480630167030493 0.047425427169954244 0.039615351284631638 0.029342012998197477 0.033698962481158737 0.030014601785698675 0.022859662857412418 0.034483325139784853 0.032373094337927379 0.035724716778492011 0.023761797683820536 0.022934635221351491 0.038830687041998581 0.021840149053288838 0.034338839179485339 0.021729053484145805 0.029854205726413677 0.042492017525188774 0.019838978234124165 0.039313871117102717 0.048811905675298708 0.072552634093359797 0.065634719521589655 0.083847432003674324 0.054186296582877255 0.041658480006008608 0.038318754503149768 0.070442373391653226 0.046295056092845378 0.069553163601784915 0.030201461513112756 0.04670434083498947 0.052798310913742631 0.054244762397041797 0.063781980422869464 0.062448167152876786 0.054891100172556072 0.068481325026747725 0.045145802244512964 0.075068193034673492 0.072406966828434421 0.061364401947463475 0.084988069658709725 0.075454262976290806 0.11606426380543974 0.084676702371224682 0.12283751166570189 0.087382064712445723 0.075285527672620672 0.089966542385800874 0.032639896182979113 0.034806372503863404 0.037065042930049731 0.029608356914368725 0.025719607945838975 0.02253874644711296 0.016468027749169039 0.026735478204446536 0.019881922452662414 0.019836810575326051 0.022370820916386223 0.025347198079840937 0.028736844379655197 0.025096625838407195 0.031912075610724441 0.033999896476430057 0.030211141270971253 0.032190273184715429 0.034183940898739044 0.035400055686431162 0.03476178906474206 0.029580395825513261 0.03586177122755653 0.032686460578473978 0.035086807247844888 0.040900111699942523 0.039186640671107421 0.044433538641971762 0.035501323641776258 0.047113781101977219 0.049077878754062103 0.065184894754745093 0.060110395160468809 0.063158454203538134 0.048436250831843886 0.049567697841015466 0.05117823324477775 0.056873106387636096 0.094848039369918841 0.13992432427656881 0.15294442211084947 0.10689764979394321 0.057116767668745815 0.064915451206870034 0.12265307127165055 0.069394314427852627 0.073676270374607944 0.060026910405192889 0.036972737970012298 0.053191231163633584 0.032582977466797711 0.040782038024376362 0.028065869969675954 0.043257336657220966 0.022504252509530566 0.03160090485050563 0.04708060081774848 0.034068599803729345 0.031240165108172846 0.044506318376540864 0.036664508784974875 0.034253880048443833 0.048756861601733377 0.046676480900862363 0.033581047445774136 0.044425679474283261 0.043506814525962119 0.040421823684472981 0.045348745589840596 0.050310721478593244 0.054818550103544875 0.073410851555085962 0.048041607839968539 0.056127882419373894 0.061441713345972308 0.081923922100760896 0.10027258066387548 0.084689658685240671 0.21212367893693693 0.073261659290497105 0.10411002051132937 0.20424521293746681 0.14842684682588841 0.010063948236813135 0.23975175546606217 0.10296051707280311 0.026265863464825567 0.025783847911814369 0.088820506618511402 0.036532719011411155 0.029947648907298705 0.072929338115834186 0.062507067343833184 0.028899492718856147 0.033033772633457484 0.040257596890222451 0.024590487317743891 0.023255951546249331 0.02971403110619664 0.032378128098891706 0.061605249667525619 0.052106391759788442 0.057148978150385152 0.045278088085535212 0.044822854405042849 0.046564153085664993 0.043206156957288973 0.040277081980968181 0.036571589637739085 0.05339400393544811 0.038602471491473722 0.024956504139453922 0.030899401626525356 0.028597488908294409 0.028270188184977927 0.030576189687998506 0.032979248448506193 0.031759688998418495 0.03314199253047153 0.039701397436481496 0.037758606340584776 0.03486693970849912 0.034094258834274992 0.036477336015522409 0.037298703921724706 0.043850137006690257 0.039538304267722174 0.043611353325778444 0.037956877742777145 0.043298673630211983 0.0398060332336619 0.041852570061392376 0.053782029962124056 0.061045025485713812 0.065234400956596814 0.087551634967834482 0.098305535588954135 0.060132527128676512 0.062442201483234892 0.071640623870956766 0.065011212007690014 0.074217747669682449 0.052048966498641047 0.068128305419525345 0.049048859996294214 0.055965767238775783 0.080232637204327439 0.069213153196615973 0.10301135375303282 0.074088519760709251 0.058632662374070145 0.088953606430023993 0.071570199847981797 0.11252980077331451 0.13432889691266844 0.13647956040773346 0.11530846879497088 0.0847862169338435 0.091040915714411419 0.079696269520715568 0.069479507601750701 0.065680552209834389 0.063102328238826 0.054462957278817503 0.047069674696795544 0.043831198048222296 0.049917519682378085 0.056911422580760096 0.040827743388548152 0.039008171843863189 0.042821157815272702 0.044585431089523737 0.057069418491474198 0.053108957117562715 0.053891249144555564 0.062459440819087914 0.041827391806458745 0.051699962371780567 0.031915298247810718 0.044269988957895468 0.040013955553640818 0.035512354399967035 0.026002416589576659 0.027912134483207545 0.03520283979656269 0.026399959757926209 0.015673401017448206 0.026114307971615236 0.042761261211319464 0.047079833912441867 0.034892917311760349 0.0069300121973297681 0.0070288526072601679 0.010506730824199142 0.012028730536207805 0.0094921674759370547 0.018080481260889143 0.021347425455388098 0.01387506682511 0.020815474699642986 0.015838651758077631 0.021802561957216637 0.017244629451874407 0.012156912743148372 0.014563792452233255 0.013073692192138711 0.018937932377987531 0.019663666984944636 0.026428956633958414 0.018578472241370159 0.02659610937493137 0.02446535569093939 0.029276766190363714 0.034713269790151081 0.024376395887059865 0.030631195943549936 0.035323991752910636 0.038472057358666094 0.036531605963861687 0.034040341512133095 0.02979475724153783 0.034759621262459933 0.029713184162909918 0.028197719083696421 0.03368686625493502 0.029252845247615556 0.037518896213840726 0.033410183501030692 0.042151659282204705 0.045800137370680206 0.036250488699473137 0.027857174475733187 0.013895474308981793 0.015136836477630249 0.022706619013438751 0.015822892249609009 0.024387521711297915 0.015965608728942749 0.024190559812491259 0.010150941827474209 0.0053169702121083134 0.007268019695471856 0.0077218681992043039 0.0080656033697575433 0.0079957287124631689 0.0060930151492669679 0.0087918000805131853 0.006207196591938983 0.0037365714910950884 0.0034921840476090042 0.0027887198558103009 0.0026001901089666192 0.0039727377556567885 0.0055513232910922531 0.0031693246263586627 0.0067570346787580301 0.031848735425342951 0.033263832403281714 0.036861684660180978 0.036734791041668262 0.03264124628559209 0.027368643220488868 0.025799365795572477 0.03028737153835246 0.028916232568856393 0.029424182086812609 0.033192349064195714 0.035057855632594975 0.030023161769129156 0.032210595124321298 0.033838991313503486 0.030477261876210148 0.034805640914698052 0.040271286670641247 0.036884868518387556 0.040179003843600791 0.04130776100417808 0.039674862331678107 0.061181717346452419 0.035791234791923844 0.041718668680822454 0.039871210480057463 0.068921812234745139 0.045491150814992727 0.044448296372775788 0.076794479386557923 0.042431067664964635 0.035382490619592477 0.04609056367548222 0.042529943882653493 0.04057706552195648 0.048817033118890886 0.037742995346524609 0.0518178011846279 0.051012177060648756 0.044582237438631392 0.049580067193180033 0.085155871504546329 0.05994145169071264 0.054192025338789994 0.048122086195940147 0.054476726915015365 0.09411679805994097 0.062754224235671757 0.057451517763629972 0.044571363802701526 0.057781959002575975 0.062118151008493022 0.055722314327569779 0.042314805026875249 0.027453071245274078 0.035941162864908914 0.041005807278605463 0.030760701693589666 0.035709766281187418 0.034568606495222226 0.031050700529003578 0.041822713144408129 0.029393304596665143 0.027563625213903129 0.030339541669382714 0.026222827835614068 0.02418370620560022 0.029175792131381446 0.042565582915089127 0.030802052081428985 0.047767340183079203 0.034935775655589613 0.023221340481869995 0.03148672286683378 0.044953360818879948 0.055290714833653477 0.031086938761196677 0.02757257935188696 0.034707340349973713 0.025811033924196827 0.022337575882334509 0.032195456392244096 0.028267666586833294 0.021343927189445475 0.021334121386433605 0.025445573838141437 0.025576927717237127 0.024316587875248846 0.022575458698219728 0.022038252769710821 0.023797004017867419 0.020859871519299265 0.024802188299513549 0.023475989489952262 0.022559195981633123 0.023194251484635293 0.022973002323068582 0.021478980999568152 0.024845406254470955 0.027638570500664272 0.02926729439690854 0.026412675952965509 0.027645298602613777 0.025023794632674307 0.033415221399466136 0.040750168062318883 0.035882451046686518 0.030462547377698778 0.024808743061253757 0.025254161624106646 0.024244232948881665 0.025989390280972736 0.02893432596913649 0.027961112600254853 0.032037270787794898 0.030612483273124977 0.036200302882190276 0.045369881265371462 0.032758681376701772 0.039572208136945314 0.057058915305000721 0.037297801181072787 0.038435260090966504 0.048462197402713639 0.041532843070346478 0.06678724016731058 0.056772263144187839 0.049986198983386618 0.04042173764941296 0.03032484089367065 0.041048717677077344 0.042269313018663511 0.043689679237528735 0.042974363472460059 0.050740140087700891 0.064829947268801202 0.054682276277215718 0.051179304710654586 0.052819230209819379 0.07789046738957775 0.064893268495998441 0.053300434114073314 0.048612603305305473 0.039152818325783954 0.036779552251756373 0.039702953752063667 0.024962322413440787 0.016894475311130124 0.019987305904383849 0.029137783901727596 0.030184990475742222 0.023652948479002258 0.023238583683562561 0.027363498012217321 0.031358819254895122 0.041849009624317028 0.026416305327371967 0.0052033761678648253 0.002912090817608 0.0027707834901647722 0.0044652574057922612 0.0059838196724306195 0.010306304782655366 0.012307455239119537 0.0077759011717822785 0.012124594146350537 0.0155419711132727 0.020713249057241929 0.015571839903808974 0.013363774754583741 0.014796261280914789 0.0070638382556716846 0.013172725057879317 0.0088661890418887616 0.023395935930271044 0.013806170973540892 0.018933864416061926 0.017025370400832417 0.021689705574070677 0.02226862987410826 0.026942913067840437 0.025650768485025732 0.022175821055692959 0.026935695648737747 0.030713818945432691 0.028253763924133358 0.02456974913497106 0.023604824429301015 0.027739508283555141 0.03225679104558575 0.021500804213730598 0.03434340590965914 0.028767929400031887 0.035006579799170719 0.035691367733865789 0.026857768754881942 0.026570025406749166 0.033057586029209378 0.034052130117589577 0.029153918729765468 0.026878522529142898 0.025900141399098756 0.034510696773537859 0.02991851852535125 0.03314290996211048 0.032465747945084507 0.032163548355295814 0.035421691866200068 0.030444712098753688 0.036625914857988863 0.035375871425155844 0.028364909182270404 0.035681308530924924 0.032997102257402662 0.025363595846446482 0.02885144201120133 0.036285186945345903 0.028681039097210918 0.029156239466990225 0.034059586526736005 0.038689496788176951 0.033995576759573806 0.030994317121735046 0.035116413816037133 0.034113752956626726 0.036271327405199241 0.038903913854184097 0.031733724160272127 0.044229968556829181 0.024465314823664343 0.025428143813378407 0.03296186350142101 0.024546160472354896 0.034142258925861382 0.031912286715378067 0.027426846652989029 0.0360314804030075 0.027429816076853176 0.037566414157952303 0.033464675504102516 0.03533871704132132 0.043951264697613311 0.040811406868580702 0.052180729100631956 0.071217636137481471 0.059370796368058719 0.047867314455969118 0.048977939247159014 0.036077582340808247 0.027790789356288034 0.03776631415721949 0.037806204747957026 0.02901326313493964 0.034573227511130157 0.042126151073983646 0.045100004955154364 0.0505362103236532 0.046184686747030551 0.070381769430347449 0.03020778853225034 0.05412077690690055 0.037267673392767639 0.029549171418193767 0.030650962732970143 0.0327198989428353 0.039311631062821761 0.02601890219290073 0.029129737788406555 0.024556351320604027 0.036215599584341951 0.034863224699363815 0.032060773173142459 0.046098265447760398 0.07473987406061039 0.052907672827250347 0.10393045968885151 0.0060601245264855852 0.057688445148059084 0.044774014333627946 0.015355607962908137 0.06063629466190576 0.021562310125669164 0.040694407979947833 0.046479793106093972 0.019582784445641124 0.024273275698446648 0.019234677893272264 0.025823543244528763 0.015793460744658271 0.0096919581314575589 0.064668737477649021 0.01571121166012621 0.016948081316122458 0.019534550116653619 0.021686114414081931 0.02747120497662385 0.030124020667277603 0.035920160772586508 0.037733873893325755 0.028675086933710011 0.030771456288001969 0.027807549427820051 0.033681055059888283 0.024077630164274107 0.029630408974090135 0.030053426837594772 0.026991616835084341 0.03185228682180808 0.029125470698318584 0.027320091387165339 0.037854270258876645 0.034358317300608919 0.033719329483174146 0.034550303002039325 0.036075209788843543 0.033905962597223588 0.030890191968366152 0.031584269750680932 0.024464514034243885 0.027892685761755395 0.027550824721203251 0.025978208776903055 0.024449011656459879 0.023208949779835127 0.022797868906746913 0.023917088332718359 0.023079769314598611 0.022126969345595701 0.03492704404578003 0.033829404950735401 0.025711183447772117 0.03171736731135761 0.030635986495139576 0.037543869758782801 0.022773209678252103 0.027541794254258477 0.033062150798376544 0.038840938135645903 0.044064964489133357 0.020970062393759908 0.026467681416968415 0.024465819974344667 0.021691136968870144 
</DataArray>
<DataArray type="Float64" Name="cross_section_updated" format="ascii">
1 1 1 1 1 1 1 1 1 1 1 1 1 1 1 1 1 1 1 1 1 1 1 1 1 1 1 1 1 1 1 1 1 1 1 1 1 1 1 1 1 1 1 1 1 1 1 1 1 1 1 1 1 1 1 1 1 1 1 1 1 1 1 1 1 1 1 1 1 1 1 1 1 1 1 1 1 1 1 1 1 1 1 1 1 1 1 1 1 1 1 1 1 1 1 1 1 1 1 1 1 1 1 1 1 1 1 1 1 1 1 1 1 1 1 1 1 1 1 1 1 1 1 1 1 1 1 1 1 1 1 1 1 1 1 1 1 1 1 1 1 1 1 1 1 1 1 1 1 1 1 1 1 1 1 1 1 1 1 1 1 1 1 1 1 1 1 1 1 1 1 1 1 1 1 1 1 1 1 1 1 1 1 1 1 1 1 1 1 1 1 1 1 1 1 1 1 1 1 1 1 1 1 1 1 1 1 1 1 1 1 1 1 1 1 1 1 1 1 1 1 1 1 1 1 1 1 1 1 1 1 1 1 1 1 1 1 1 1 1 1 1 1 1 1 1 1 1 1 1 1 1 1 1 1 1 1 1 1 1 1 1 1 1 1 1 1 1 1 1 1 1 1 1 1 1 1 1 1 1 1 1 1 1 1 1 1 1 1 1 1 1 1 1 1 1 1 1 1 1 1 1 1 1 1 1 1 1 1 1 1 1 1 1 1 1 1 1 1 1 1 1 1 1 1 1 1 1 1 1 1 1 1 1 1 1 1 1 1 1 1 1 1 1 1 1 1 1 1 1 1 1 1 1 1 1 1 1 1 1 1 1 1 1 1 1 1 1 1 1 1 1 1 1 1 1 1 1 1 1 1 1 1 1 1 1 1 1 1 1 1 1 1 1 1 1 1 1 1 1 1 1 1 1 1 1 1 1 1 1 1 1 1 1 1 1 1 1 1 1 1 1 1 1 1 1 1 1 1 1 1 1 1 1 1 1 1 1 1 1 1 1 1 1 1 1 1 1 1 1 1 1 1 1 1 1 1 1 1 1 1 1 1 1 1 1 1 1 1 1 1 1 1 1 1 1 1 1 1 1 1 1 1 1 1 1 1 1 1 1 1 1 1 1 1 1 1 1 1 1 1 1 1 1 1 1 1 1 1 1 1 1 1 1 1 1 1 1 1 1 1 1 1 1 1 1 1 1 1 1 1 1 1 1 1 1 1 1 0.0020253474778619525 1 1 0.0020648999467603527 1 1 0.0020904154366013046 1 1 1 1 1 1 1 1 1 1 1 1 1 0.0021121073815839235 1 1 1 1 1 0.0021323585010209417 1 1 1 1 1 1 1 1 1 1 1 1 1 1 1 1 1 1 1 1 1 1 1 1 1 1 1 1 1 1 1 1 1 1 1 1 1 1 1 1 1 1 1 1 1 1 1 1 1 1 1 1 1 1 1 1 1 1 1 1 1 1 1 1 1 1 1 1 1 1 1 1 1 1 1 1 1 1 1 1 1 1 1 1 1 1 1 1 1 1 1 1 1 1 1 1 1 1 1 1 1 1 1 1 1 1 1 1 1 1 1 1 1 1 1 1 1 1 1 1 1 1 1 1 1 1 1 1 1 1 1 1 1 1 1 1 1 1 1 1 1 1 1 1 1 1 1 1 1 1 1 1 1 1 1 1 1 1 1 1 1 1 1 1 1 1 1 1 0.0021518426625015026 1 1 1 0.0021712502588273207 1 1 0.0021910692699307413 1 1 1 1 1 1 1 1 1 1 1 0.002211965659433704 1 1 1 1 0.0022350270853440032 1 1 1 1 1 1 1 1 1 1 1 1 1 1 1 1 1 1 1 1 1 1 1 1 1 1 1 1 1 1 1 1 1 1 1 1 1 1 1 1 1 1 1 1 1 1 1 1 1 1 1 1 1 1 1 1 1 1 0.0010491700393523041 1 1 1 1 1 1 1 1 1 1 1 1 1 1 0.0010700720657528032 1 1 0.0010590554061712322 1 0.0010824747745164399 1 1 1 1 1 1 1 1 1 1 1 1 1 0.0010966365099789445 1 1 1 1 1 1 1 1 1 1 1 1 1 1 1 1 1 1 1 1 1 1 1 1 1 1 1 1 1 1 1 1 1 1 1 1 1 1 1 1 1 1 1 1 1 1 1 1 1 1 1 1 1 1 1 1 1 1 1 1 1 1 1 1 1 1 1 1 1 1 1 1 1 1 1 1 1 1 1 1 1 1 1 1 1 1 1 1 1 1 1 1 1 1 1 1 1 1 1 1 1 1 1 1 1 1 1 1 1 1 1 1 1 1 1 1 1 1 1 1 1 1 1 1 1 1 1 1 1 1 1 1 1 1 1 1 0.0010070365614408532 1 1 0.0010177651016747727 1 0.0010250360869203522 1 1 1 1 1 1 1 1 1 1 1 1 1 1 1 1 1 1 1 1 1 1 1 1 1 1 1 1 1 1 1 1 1 1 1 1 1 1 1 1 1 1 1 1 1 1 1 0.0010403142872119388 1 1 1 1 1 0.001032365886582182 1 1 1 1 1 1 1 
</DataArray>
<DataArray type="Float64" Name="displacement_divergence" format="ascii">
-2.1937495221704292e-05 -2.4135961352751205e-05 -1.8361239567523841e-05 -2.0945564457242869e-05 -1.9473711811402804e-05 -1.9462192083863485e-05 -1.8019483902160355e-05 -1.9343856563587496e-05 -1.7467940058193032e-05 -1.2999090090343325e-05 -1.9330033795129875e-05 -1.2166133736627236e-05 -2.3405619139794135e-05 -1.7672558977714345e-05 -2.8511123547439747e-05 -2.2674979716335182e-05 -1.9333550207686343e-05 -2.1251647274625127e-05 -2.6503556507424395e-06 -5.4403151504186218e-06 -5.7018279893441952e-06 -1.0653409318505654e-05 -1.2613306228357324e-05 -7.6023612793487388e-06 -8.6985706534600551e-06 -1.1464505681206995e-05 -1.2190804243838945e-05 -1.0884012105302274e-05 -4.3003778010014592e-06 -5.253960885290564e-06 -2.6137413334928266e-06 3.7907859862212196e-07 -8.0403594077121395e-07 -2.0542463378369063e-07 -5.3931707976175151e-06 -1.2157884596008544e-05 -9.9678233021187114e-06 -5.7090450400660362e-06 -1.1245486298417647e-05 -1.3377984771194817e-05 -9.0992299341683042e-06 -5.878722813224073e-06 -5.596269051765283e-06 -5.796036513121536e-07 -6.1806822969173309e-06 -3.1073947752398623e-06 4.102438503305199e-06 -5.9360039185667299e-08 -2.8054369100335222e-05 -2.1542977078869041e-05 -3.2417907795766487e-05 -2.1372129456311256e-05 -1.634939523221562e-05 -1.7815161945924323e-05 -1.8122108843926141e-05 -2.0002930742884202e-05 -1.4248986694707001e-05 -2.1664715445502024e-05 -1.6729176891963983e-05 -2.0312055760444261e-05 -2.930892510648198e-05 -2.8139116878243808e-05 -2.6608158602944336e-05 -3.6774219314420361e-05 -3.8925775795024275e-05 -2.7417935698360311e-05 -3.1790118018056637e-05 -4.3775660792947087e-05 -3.2562424667100568e-05 -3.309479434368819e-05 -3.4137460490078932e-05 -4.9995347294481366e-05 -1.7703453246243688e-05 -1.4874877120924808e-05 -2.5049852043563271e-05 -2.3693219671373768e-05 -1.5296390734191073e-05 -2.7709290119721116e-05 -2.4208411217433856e-05 -2.0984356062618843e-05 -1.4778695466617196e-05 -9.0203645495000689e-06 -8.5643105706565042e-06 -6.5704218819880774e-06 -3.0624922929788451e-06 -1.5185580358912249e-05 2.880647524234701e-06 -2.6866265816622887e-07 -2.2450328664220131e-07 8.0921726733909477e-06 4.4979735939258343e-06 2.5123176342393443e-06 9.990538361371817e-06 1.2455971299085705e-05 -7.6043275539992275e-06 -1.1439625931016433e-05 6.4671734790328061e-09 -2.3859940473047377e-06 -4.7823873549062844e-06 -8.0407083780787542e-06 2.0424164113578202e-06 -6.9881345718553493e-06 2.3376252214900008e-05 3.2113078656812382e-06 1.0381331630374564e-05 1.666854408289916e-05 2.4737715922797462e-05 2.1010085718611154e-05 1.9414680723764508e-05 2.1189634556326704e-05 4.052590257422995e-05 6.2200924079761598e-07 7.8599756974766775e-06 8.9075679931068679e-06 -6.6375065283238804e-06 -8.5530381430661093e-06 -1.8327526574262603e-05 -2.3782507816053243e-05 -2.8153905779177262e-05 -3.4788719520579219e-05 -5.0278086430423103e-05 -3.67374663720064e-05 -3.5793996860657607e-05 -3.952325926665271e-05 -3.1426942724810034e-05 -5.1577769031062095e-05 -3.684044799256063e-05 -2.2559614883819478e-05 -1.4558113748850202e-05 -2.4660038350149087e-05 3.57513083668923e-05 3.2345834837412067e-05 2.8899104308520855e-05 3.1760879922558103e-05 3.6087476065999415e-05 4.0396873899271853e-05 3.7502408935396953e-05 3.5640824074094747e-05 3.7945401637127897e-05 3.5392809818423463e-05 3.1544969581745425e-05 3.5612825090881357e-05 3.379347538750028e-05 3.5575969381734779e-05 4.050719234709017e-05 7.4023626075618018e-05 3.6637614737644125e-05 5.0806929646831522e-05 3.3777786436087949e-05 7.0352820867301439e-05 4.4854793351707667e-05 6.9571018000264706e-05 4.0176937984737268e-05 3.5124962411477733e-05 4.2206884144738985e-05 2.5784148854340999e-05 2.6810482926799627e-05 3.6813999514983741e-05 2.883616923340235e-05 3.5915466005359935e-05 2.2269854724266586e-05 3.1479809031117992e-05 2.4494569086339867e-05 2.2173536281087435e-05 1.7197978248317439e-05 1.9725791662468404e-05 2.0435486662201081e-05 1.8248032660746207e-05 1.1445963174384532e-05 1.4437939083637833e-05 1.1972128539355595e-05 9.1238539951603959e-06 6.0175613598626081e-06 1.9213266801584227e-05 1.8186902841017129e-05 1.5971310943326148e-05 1.4410669825636735e-05 1.994971274685357e-05 1.7488971311449782e-05 2.2709632617593959e-05 2.2883901433774374e-05 2.2973274877096042e-05 2.5004643696115436e-05 2.2225958944366393e-05 3.0756682970775781e-05 2.684141473079621e-05 2.6690612010043064e-05 3.2338081962522389e-05 2.5694063775186651e-05 4.212290754576294e-05 3.039215809983224e-05 3.593206778178784e-05 2.8607830109274334e-05 3.4215703410531547e-05 3.3962066398832922e-05 2.7606259715146971e-05 2.78642430323971e-05 2.7883589792265062e-05 2.4051800813902154e-05 1.9779932665555672e-05 2.2584007778455779e-05 2.3570011866627011e-05 1.8963035704675952e-05 1.6554611244527704e-05 1.8507275359395341e-05 2.0965187164884563e-05 1.7878168631073963e-05 1.698334438203286e-05 1.4534118746421503e-05 1.8671298903799381e-05 1.8535310813915232e-05 2.1264667489874125e-05 1.9976218273592441e-05 2.0205081792599814e-05 6.5350117013097389e-06 8.8822370606024145e-06 5.2596224086311907e-06 1.0724050763972684e-05 1.1548006450094828e-05 1.2905624523323556e-05 1.4388096445652939e-05 1.5226448676857291e-05 1.3845226266176992e-05 1.2307293019948321e-05 1.3450038120976524e-05 1.0906517358682987e-05 9.0335146857914631e-06 5.2944176270213886e-06 4.0895097774123142e-06 4.4541789030373854e-06 6.1965112951881471e-07 2.6339509236225214e-06 6.3036038985092265e-07 3.02317009847872e-06 6.855385743223782e-06 6.5091227670284308e-06 7.5580999652669631e-06 9.6737419782035825e-06 1.0883811195432438e-05 1.2786731072281698e-05 1.1753434172579246e-05 9.5981817646622682e-06 9.9935405078777309e-06 4.9060858325948803e-06 3.8316075784811834e-06 -4.0517693293394839e-07 1.8618878989907573e-05 1.8616906574871732e-05 1.6454670083063251e-05 1.5915026249306283e-05 1.4379410754665506e-05 1.6125595912504044e-05 1.5390975670500135e-05 1.3941631028081058e-05 1.8513838564472114e-05 1.6507584048355739e-05 1.9764351199955079e-05 1.6922258435642144e-05 1.7829500963929944e-05 2.0552765337691235e-05 1.8570659883805778e-05 2.336673252088604e-05 1.7732554264292129e-05 2.0995667470699329e-05 2.0102028004168705e-05 2.0068920480109152e-05 1.8512990592700768e-05 2.1283621988433353e-05 1.8805604882545162e-05 1.8409457834041213e-05 1.6470813664346552e-05 1.9400641818624567e-05 1.892302631009538e-05 2.301598310349891e-05 2.2504525924913235e-05 1.7556646569876916e-05 1.8686873448746449e-05 1.8459517049582701e-05 1.3689439202185765e-05 1.1463901103284238e-05 8.3565356282312718e-06 2.5669746806932166e-06 6.1851358036842932e-06 9.2581909666848467e-06 1.3435764867448887e-05 5.8097161399625215e-06 1.1806201891633919e-05 1.5181226191332311e-05 1.7844058598161263e-05 1.7742729224414679e-05 1.670811535349653e-05 2.153817691418322e-05 1.2254732144609358e-05 9.0544250040627505e-06 1.2543435615060074e-05 1.4710452634844272e-05 5.868244107567463e-06 1.221091526174019e-05 1.6694616236243586e-05 1.5565621870816219e-05 2.5065386894629057e-05 1.8230062495874693e-05 1.8277023927618331e-05 2.1088003162427594e-05 2.0291597861136387e-05 2.4381436940497306e-05 3.1637771324732467e-05 2.7493714570851677e-05 2.9610441440055828e-05 2.3866614852219931e-05 2.5992073219711918e-05 3.0777120257408802e-05 2.5783116475378442e-05 2.8369627796627698e-05 2.2904614389992908e-05 2.2452255629357933e-05 2.1970641877819323e-05 2.3175509300780075e-05 1.9483395813640544e-05 2.1883484045615487e-05 1.9379430817665917e-05 2.0665679313254048e-05 1.9317872325835574e-05 2.1781806617980705e-05 2.2734216430955331e-05 -4.0064839515658808e-05 -2.7878512138826037e-05 -3.0493083873725993e-05 -2.4535441072604948e-05 -2.2812626926171978e-05 -2.7596043829367078e-05 -3.0505709024449138e-05 -2.6238682786996266e-05 -2.4485180857061939e-05 -2.1274727423605604e-05 -2.2964533860344877e-05 -2.2947675698332497e-05 -2.1493694915108685e-05 -1.3756328390630788e-05 -2.1237554788640961e-05 -3.2034318753737813e-05 -1.2751064614400822e-05 -2.4884023457280315e-05 -1.2494320356981752e-05 -1.1295589802077084e-05 -1.2790458800602898e-05 -1.0932368481962099e-05 -1.3368317510144681e-05 -5.8561072146545445e-06 -6.3195807965279012e-06 -2.6864947409175599e-06 -3.9726578977528998e-06 3.1380642669762006e-06 5.9250842599339013e-06 1.1188083845495653e-07 -2.3686034205471534e-06 -1.5591324495346534e-06 2.0369196284521508e-06 7.1077142525385039e-06 -2.8504968049593418e-06 6.4456882115348764e-06 1.9088424220839259e-06 -3.8444563928167248e-06 7.5548002222691272e-06 -2.5915081815506455e-06 5.8978483670423918e-07 -1.5514957551210525e-05 -1.3650767419632436e-05 -1.33057636139553e-05 -2.09792113118232e-06 -1.0660914828251431e-05 -2.2187668634335182e-05 -1.8679169177343889e-05 -2.6788910491732425e-05 -2.0350494105548658e-05 -2.7062311246466435e-05 -1.352876294450386e-05 -2.410741487570876e-05 -4.2219428840991652e-05 -4.3140325873412981e-05 -5.4005721602148107e-05 -3.8238894381777734e-05 -4.6298684752831446e-05 -2.8397783262487834e-05 -4.0187605325317371e-05 -2.7743214100481784e-05 -5.0226536950243739e-05 -7.7344347710443483e-05 -4.6433592867247396e-05 -4.4790315692290123e-05 -6.7815719136488138e-05 -6.0486395310016156e-05 -4.0162576542411753e-05 -4.5254792456410507e-05 -4.1835840680157217e-05 -2.279177422753618e-05 -2.6393277551024139e-05 -1.9532547146496034e-05 -1.938442683119306e-05 -3.1144476349096736e-05 -2.0078971948978915e-05 3.988853359374297e-06 1.5935195264260967e-05 1.4687488271728093e-05 -1.1882793799206223e-05 -3.2549501915926253e-06 -1.7211770516112856e-05 -8.8062735823754837e-06 -4.2409545436202091e-06 6.8319152797987663e-06 -1.329695474164634e-06 8.3551792328787849e-06 2.0627803146952865e-05 1.1800992427848152e-05 2.3921022172689896e-05 1.2368955171638404e-05 2.4543015586349741e-05 3.8738632394248669e-05 2.0737143439726739e-05 3.7107657621881208e-05 4.2160667175201685e-05 7.1789028443520217e-05 6.7165141803475983e-05 3.8045508463066172e-05 3.1997708374335751e-05 7.5146610324511797e-05 0.00012372071261127653 0.00011654094329630076 0.00012509693973696153 8.7034152499299803e-05 6.0247529528738005e-05 7.1399862425797591e-05 5.9491458435393735e-05 2.8777565878025007e-05 2.2606467906575268e-05 1.2259116254611114e-05 -1.4516222109657104e-07 4.1626063596292225e-05 6.6206998476070456e-07 -2.6543680239858114e-05 -2.7350424594589076e-05 -9.1064877102099359e-06 -1.4975702802621409e-05 -6.5067406539820287e-06 -2.9737293780052257e-05 -1.2111344752456922e-05 -2.7520501739356287e-05 -4.2801006257652896e-05 -4.2741469268053564e-05 -6.9166202203678234e-05 -5.169632745171608e-05 -7.7531182684713562e-05 -5.6186588481968132e-05 -4.0917901386540876e-05 -5.4062444721639518e-05 4.67141968605481e-05 5.4060875593281129e-05 5.7264145955100856e-05 5.2401556179695752e-05 4.7330136284406133e-05 3.9773971343154544e-05 3.4794073650881169e-05 4.3544994418629765e-05 3.1482707492293315e-05 3.5165377360727301e-05 2.6293296948129359e-05 3.468171432702091e-05 3.0389218517526512e-05 3.7978360402804146e-05 3.9081650885895211e-05 3.5081236143648877e-05 3.1454223447275311e-05 2.6113687796062379e-05 3.9696488061359177e-05 3.5384812644297719e-05 4.3765335369027842e-05 2.56469956846577e-05 3.3056320415549897e-05 4.2068097371101136e-05 5.3298025180276535e-05 6.8113909198726577e-05 4.9743640500435256e-05 5.4258848525064199e-05 5.6867091572402286e-05 6.9927118277629725e-05 7.9862584650425473e-05 9.9718365603543123e-05 0.00011078720002998275 9.8476334837151628e-05 8.7190798403695625e-05 9.4866012311128445e-05 0.00011640478125528265 0.00011206236988770205 0.00019152124561244642 0.00023362830352713482 0.00022146952459244123 0.00015248699520035446 8.6482571725767494e-05 0.00011598033545749674 0.00014099157552430446 8.5365378539701178e-05 8.925411280679713e-05 9.1622365906148356e-05 6.536256468372189e-05 8.0715925811872697e-05 5.3822907086938162e-05 6.5384708740531266e-05 5.0022845265893279e-05 6.9588264656098996e-05 4.1833553407306808e-05 5.0961085934762421e-05 6.0477907124776008e-05 4.808800231976373e-05 4.393317084613436e-05 6.5259731088729614e-05 4.734693223627324e-05 4.0098609143699804e-05 5.3165394990254294e-05 3.6553191407064176e-05 2.9284717409231548e-05 4.0173735139122601e-05 4.2408632439287915e-05 2.6545064402853545e-05 4.3492256668020452e-05 3.3887550316042244e-05 4.0408483294466049e-05 6.7940951222798747e-05 5.944480508926718e-05 5.8071053196806992e-05 6.3514775379411409e-05 8.6636322064907745e-05 9.4690605420589153e-05 0.00010961836540574573 0.00024287915603867172 3.6354695151384479e-05 0.00010167658976112699 0.00022874284378795518 0.00014038614611822458 0.013195052987745867 0.00019455245414581228 0.00010534443918098005 0.032390139675578362 3.2752006894441331e-05 9.4909591168578468e-05 0.045273846415956734 3.9756695995692398e-05 7.1085362147404216e-05 3.6247700607987932e-05 4.6710447701356827e-05 4.6188079030774342e-05 4.1520581326428993e-05 3.7979150860187322e-05 5.5075847540803568e-05 5.3754965203012392e-05 4.4503106989479712e-05 6.7867967012905615e-05 8.537405959113285e-05 8.8729907738654707e-05 0.056084291024077138 8.3632532481336627e-05 8.4252034677316078e-05 7.7368953369948926e-05 8.852484854558881e-05 7.035418690519294e-05 0.066219204613314889 8.6997265431752648e-05 4.9412480389808805e-05 3.9724332693314129e-05 6.6278179725603775e-05 5.5066348399263369e-05 5.8388909151408546e-05 3.6911282664671007e-05 3.8058371613861476e-05 3.8905106728274352e-05 2.829958819353188e-05 2.989229085971891e-05 2.379676626979712e-05 2.8368173659527917e-05 2.5171990337210669e-05 2.8616836893070454e-05 2.9343001469904798e-05 2.2302175318798193e-05 3.1384038553127999e-05 2.7092696346032564e-05 2.8589291611908686e-05 3.0849707815445553e-05 3.6008346835165919e-05 -2.9128568423362751e-05 -3.3443295544978327e-05 -1.5413761320068114e-05 -5.1677391601937048e-05 -5.5642251384940811e-05 -3.1306851925461425e-05 -3.0242128550323855e-05 -1.1820884014482769e-05 2.0498856473316835e-06 1.996305014029991e-05 -3.8986756596070486e-06 6.1593596116438958e-06 -1.4305965051000314e-05 4.3840705500571876e-06 4.4418734988685372e-05 2.6149033602879644e-05 6.8677221106447502e-05 2.8641908137552719e-05 5.9876419347747005e-06 4.4479862651484472e-05 4.0846186081821482e-05 9.268512379682339e-05 0.00013488390361066603 0.00010149888134744207 0.00010190309533580005 6.0091049409646911e-05 7.0751720817111349e-05 7.6672261467771547e-05 4.6547618478024518e-05 4.342808857095014e-05 6.2863219399492305e-05 6.0332743751882528e-05 6.3863688429705977e-05 5.7266534677723303e-05 4.456590054726815e-05 4.1450587448052609e-05 2.6236906277526099e-05 2.7312461652188495e-05 2.4744672574475868e-05 8.6991484173220852e-06 2.8717450058366378e-05 3.2061699127584821e-05 1.5961879491346821e-05 1.4446047217029972e-05 -1.8772383125638652e-06 -1.0054184985637738e-06 -1.5769855464899986e-06 -3.4292640485297831e-06 1.0686004974187063e-05 8.3381201111371148e-06 3.3659231468788006e-06 -2.4990987218666098e-06 -5.6397391851926472e-06 -1.2709056457841728e-05 -1.9533090317590176e-06 -8.3076110490754203e-06 -2.3952716606528502e-05 -1.8193460598274914e-05 -1.4820286953879085e-05 5.5051761511079372e-06 2.0260426963859476e-07 6.5149611973786339e-06 -2.2687118725046689e-06 -1.9753488141060517e-07 -7.3751298802155266e-06 -6.2393456213664933e-06 -1.7792890779641871e-06 2.4448653372683045e-06 5.9028279992038267e-06 9.3136231522550003e-06 1.4408644437188985e-05 1.4020546081713273e-05 5.6724651204393111e-06 1.2480692145494987e-05 2.745421916650146e-05 3.2540167792781795e-05 3.9675130344343258e-05 1.4790982233709934e-05 1.2299801611170141e-05 2.4590062273223152e-05 2.4208810920356427e-05 3.4429007067714786e-05 2.7906091920593817e-05 5.0584689867228666e-05 5.1419444751867743e-05 4.158740118107929e-05 5.687708467443011e-05 7.4451742433995043e-05 6.3085847011874318e-05 7.5995818586614e-05 4.58131672952601e-05 5.9354535366271674e-05 8.1048278050745853e-05 7.1570195424104817e-05 8.6773805222106499e-05 7.991215840537011e-05 0.00010208909290450579 0.00011173469025801226 8.4371105220935882e-05 6.8992011542167754e-05 2.5485805253124168e-05 3.7704016219329214e-05 4.6737748129420213e-05 2.6781304592366547e-05 5.1016610267149397e-05 3.812092465378062e-05 4.7787830253755159e-05 1.8288740256165812e-05 6.8171277690844828e-06 1.2847068807915821e-05 8.5644696798019629e-06 1.7699205650272779e-05 1.6365655885029404e-05 8.2970991830844804e-06 1.3071629214262206e-05 1.0098056415937078e-05 6.9121565773634652e-06 6.4957473525177872e-06 5.2838145090036703e-06 4.1244250757487867e-06 6.0367592706039169e-06 3.8711481326735714e-06 5.4785746508866128e-06 6.798712047263733e-07 3.549217470480068e-05 5.7307641008254437e-05 5.3719235990377012e-05 4.8237299122747099e-05 3.3311034283031526e-05 2.4584316198635438e-05 2.5468031733204667e-05 2.9631403182939957e-05 2.2859898046592676e-05 2.3252932720318272e-05 3.4739736010489365e-05 3.3452725668624804e-05 3.3674237360806794e-05 4.7725080160397615e-05 4.5955471323856493e-05 6.199719817357775e-05 7.9902501043168403e-05 9.408118469266582e-05 7.0264934587964314e-05 8.4687898881700367e-05 0.0001017627731951104 8.6368645331984814e-05 0.075966618885713433 7.695171062832378e-05 0.00010107966295907979 9.9603661158354818e-05 0.08566863456530438 0.0001039593791666198 0.00010939629546899399 0.095625084788929601 0.00010178333044537016 7.3489213831746947e-05 0.0001058901246419274 7.2975672570167933e-05 8.2910132364886552e-05 9.48286853370931e-05 7.8693943740884838e-05 0.0001197944058295232 0.00012370760529833178 0.00010497099933904086 0.00012348943936563682 0.10594081255829778 0.00014161412796580931 0.00013395731589228624 0.00011862524450669725 0.00013300216917014535 0.1180348568085474 0.00015522088684050573 0.00014091784554524315 8.0609051739433362e-05 0.00013376396559161802 0.00015180291048840096 0.00013158166507880732 9.2585507478177924e-05 3.7579864114281744e-05 6.890837533578048e-05 3.5765442646069749e-05 6.1838977537014808e-05 4.0410140923014199e-05 3.7756041571378293e-05 4.7452648156100825e-05 6.1027366125587595e-05 2.5439458010417934e-05 2.9160957375912771e-05 2.6891557780280646e-05 3.4046917912148314e-05 1.9949952394098381e-05 1.8194870589213698e-05 6.8230228251313103e-06 1.2137007405401551e-05 1.5183483794074023e-07 1.5321054538415774e-05 1.559593003695644e-05 1.3881927114102759e-05 4.87864407878139e-05 2.4941429423407858e-05 2.4974115315282586e-05 4.9370719206613071e-05 3.2388339994758586e-05 3.1597445261641864e-05 3.9712276843133286e-05 4.953276062584402e-05 2.4078838502484537e-05 2.8061710732321644e-05 2.0266920963076321e-05 2.5378891544309136e-05 2.2968263148758156e-05 2.703020412383962e-05 2.5625919696437753e-05 2.3538623069309611e-05 2.9992391485691907e-05 2.8444855803477754e-05 4.0627458581999633e-05 4.936318809582545e-05 3.2739286400675039e-05 2.7099877738703056e-05 3.4637059574554966e-05 4.1464874341867687e-05 2.9511781346153904e-05 2.1365307895559169e-05 2.6051639074431851e-05 2.2305779100543328e-05 2.6588609995956606e-05 2.7948488379633864e-05 6.9798143986394461e-05 0.049212583924592282 7.1380938389377932e-05 6.5298785238878109e-05 5.6746284212381157e-05 4.0328653102600508e-05 4.4137198833782312e-05 4.6338925243267191e-05 7.0147059518036771e-05 6.1149869386703287e-05 6.7529904071819479e-05 5.9557632075435299e-05 8.6395753515455505e-05 9.944976790123174e-05 7.473273949722462e-05 7.6225454712272687e-05 0.070140501118078485 8.3192304742522123e-05 8.1252170545931084e-05 0.059101075386330693 9.9203519098231378e-05 0.08250911249184989 0.00012199929738136668 0.00011033982171735604 9.6957792341370846e-05 6.5090800351691038e-05 7.9761648611996168e-05 0.00010302743181167632 8.8862805458716154e-05 6.4832678804624454e-05 0.00011478407890037174 0.00013572057954666013 0.00011108746916315879 7.7500633100829736e-05 0.00011406167866670719 0.096869427050568863 0.00014106292961927908 0.00012242169006157965 9.3903113756167082e-05 6.7200695864962773e-05 6.5909218910977733e-05 8.4430437538523834e-05 5.0833884597971824e-05 2.4291699941554005e-05 2.0407642017814843e-05 3.4043664942356045e-05 4.0948055905210869e-05 2.5981815287281704e-05 1.9361705998207669e-05 3.3515184702623876e-05 6.0798376649282926e-05 7.1291003001526781e-05 5.3669888189074809e-05 5.49665852847569e-06 3.0789075119866741e-06 4.410680202658585e-06 5.3647626193165446e-06 3.4561557196084204e-06 6.083226428278514e-06 1.0710513765210643e-05 4.787675145665523e-06 8.5583310762563574e-06 9.1206364778435682e-06 7.9126506305200565e-06 -1.3971210117349076e-06 8.1486820980498399e-06 5.5064676339291498e-06 1.3282849575691359e-06 -5.2726562849893164e-06 1.704917083944317e-06 -1.0160356708124353e-05 1.196204653312492e-06 -8.6834577838314567e-07 -9.2239127034607858e-06 -1.5876776132147221e-06 7.6601123265677973e-06 5.5559535189686135e-06 7.9205384769997708e-06 -2.2073764811693201e-06 -1.1283906678234424e-06 7.5432505099184109e-06 -5.3735687261368542e-06 -9.2828695408207458e-06 -1.3031462208152331e-05 -1.1710116724647154e-05 -1.9993335325548087e-05 -1.0622091276853759e-05 4.2671446022682098e-05 3.6920334306878152e-05 5.4422818288028417e-05 4.3979514773296452e-05 2.0363872315990296e-05 1.618472624849627e-05 2.8066137762085362e-05 2.2951953790797648e-05 1.7042277485801959e-05 1.2247491162224343e-05 1.4125620629722288e-05 3.5806928685804245e-05 3.0868828845219323e-05 5.483906455311079e-05 4.4262067633679463e-05 4.7600468592462431e-05 3.5220046347533536e-05 3.6816808464726868e-05 4.045964384563833e-05 2.3689966922451743e-05 2.9416934508661526e-05 2.1447327631831129e-05 8.6549613238884153e-06 5.5824316161309263e-06 2.0804728340716534e-05 1.081409255239787e-05 1.7130964706660442e-05 4.2295912051175388e-06 7.98782400093605e-06 3.2628501666083796e-05 3.7667105974837972e-05 3.7364183499169869e-05 1.9580741054641478e-05 3.1357520496001854e-05 -1.974490731305339e-05 -2.5676136770035614e-05 -2.0721713628677466e-05 -2.6313324723466463e-05 -1.5141330880372563e-05 -5.2187982293610581e-06 -1.2763822371415811e-05 -2.4078488672923818e-06 -2.9722567953397241e-06 -5.8227874325893474e-06 -3.3853623893832846e-06 -2.7145484872502079e-06 -1.0153857504965929e-05 -1.5570550745512795e-05 -1.6254736968559851e-05 -1.6047935779079812e-05 -2.6520607599546668e-05 -2.5721184518638575e-05 -3.2664258442871769e-05 -4.6725657816935591e-05 -3.8197655877223206e-05 -3.1597695654834047e-05 -2.5013308592832873e-05 -2.0734956208564703e-05 -6.8388012656057364e-06 -7.0857074507065139e-06 -2.1833753752910747e-06 -1.4977199878689367e-05 -1.2508736058623716e-05 -1.9949242894847961e-05 -2.0967632635345089e-05 -3.1881429127886209e-05 -2.9569738861826628e-05 -4.573194661590586e-05 2.2420567575508848e-05 4.5117100184167882e-05 2.2028617968345549e-05 1.6074782940722057e-05 2.9267144800001121e-06 7.0084636913034237e-06 1.9413644829645326e-05 9.5006568227536982e-06 -9.8859105498627815e-06 -2.3577864183080559e-06 7.79429310418273e-06 2.63543900853467e-05 2.8042929184979488e-05 4.7950940918389278e-05 7.9575307792311112e-05 1.4195390692360024e-05 9.5293101397708735e-05 0.0070960216429881151 4.3759555782391693e-05 4.5829312432157346e-05 0.017788720799090614 6.3336626251808432e-05 0.025066577915692594 5.0806128764426233e-05 4.4167331812895423e-05 2.1034215913078285e-05 2.1469616593640492e-05 2.5359370170253173e-05 7.7691362469474261e-06 3.035696028432102e-05 1.5117911500405764e-05 4.9156610006200224e-05 2.6376797629620955e-05 2.0787922445907422e-05 3.3408661244799729e-05 2.8401661853520314e-05 3.2165447794177757e-05 4.0480366303480453e-05 3.9758365633277569e-05 3.3251854870137723e-05 2.8108943004040627e-05 2.8463742320444427e-05 2.5821169138154799e-05 2.2850415969039202e-05 2.3727851904207779e-05 2.3713051098005623e-05 2.4217645479302917e-05 2.3612090266879641e-05 2.267420260165726e-05 2.5584395032248874e-05 2.758202312656881e-05 2.5208424134748407e-05 2.5657604076184827e-05 2.4793451993662284e-05 2.4808664575918355e-05 2.4508041940440717e-05 1.957211443373184e-05 2.1453947887132175e-05 2.6474885532892204e-05 3.1293056362674781e-05 2.8260028347961948e-05 2.4821583254449944e-05 2.608614416986163e-05 3.1739202053066907e-05 3.5416458695154262e-05 4.237422634620824e-05 3.7116719543979807e-05 3.4269857462584626e-05 4.7630006846442253e-05 6.2439047049247381e-05 0.040350700128045702 5.2683719238663294e-05 5.8385430903142802e-05 5.3184134356798539e-05 5.8552710971335859e-05 3.8563460612882407e-05 0.032397707724697203 5.1618446216369863e-05 4.1728406474883799e-05 5.6597791217516012e-05 2.9405032779457839e-05 2.5177212861794929e-05 2.7735749100786452e-05 3.6081139451103533e-05 
</DataArray>
</CellData>
</Piece>
</UnstructuredGrid>
</VTKFile>
