<?xml version="1.0"?>
<VTKFile type="UnstructuredGrid" version="0.1" byte_order="LittleEndian">
<UnstructuredGrid>
<Piece NumberOfPoints="3142" NumberOfCells="1054">
<Points>
<DataArray type="Float64" NumberOfComponents="3" format="ascii">
0.02576622439977887 0.024532886826226379 0 0 0 0 0.049999999999899652 0 0 0.02576622439977887 0.024532886826226379 0 0 0 0 0 0.050000000000207989 0 0.02576622439977887 0.024532886826226379 0 0.049999999999899652 0 0 0.053064897599215843 0.048131547304697528 0 0.02576622439977887 0.024532886826226379 0 0.053064897599215843 0.048131547304697528 0 0 0.050000000000207989 0 0 0.050000000000207989 0 0 0.10000000000041601 0 0.044310582753132287 0.101412518374475 0 0 0.10000000000041601 0 0.044310582753132287 0.101412518374475 0 0 0.15000000000062411 0 0.053064897599215843 0.048131547304697528 0 0.044310582753132287 0.101412518374475 0 0.083411279318303222 0.089699755330707398 0 0.053064897599215843 0.048131547304697528 0 0 0.050000000000207989 0 0.044310582753132287 0.101412518374475 0 0.044310582753132287 0.101412518374475 0 0.083411279318303222 0.089699755330707398 0 0.065374659239632718 0.1448908038746782 0 0.083411279318303222 0.089699755330707398 0 0.065374659239632718 0.1448908038746782 0 0.1053400320299198 0.12877248826361379 0 0.083411279318303222 0.089699755330707398 0 0.12372429750337779 0.095814237875728972 0 0.1053400320299198 0.12877248826361379 0 0.12372429750337779 0.095814237875728972 0 0.1053400320299198 0.12877248826361379 0 0.14332333627550789 0.14578431753966009 0 0.12372429750337779 0.095814237875728972 0 0.10266856499169109 0.044518360900210059 0 0.14618258501891079 0.062070108745602003 0 0.083411279318303222 0.089699755330707398 0 0.12372429750337779 0.095814237875728972 0 0.10266856499169109 0.044518360900210059 0 0.10266856499169109 0.044518360900210059 0 0.099999999999814668 0 0 0.14999999999970359 0 0 0.049999999999899652 0 0 0.053064897599215843 0.048131547304697528 0 0.099999999999814668 0 0 0.053064897599215843 0.048131547304697528 0 0.10266856499169109 0.044518360900210059 0 0.099999999999814668 0 0 0.053064897599215843 0.048131547304697528 0 0.083411279318303222 0.089699755330707398 0 0.10266856499169109 0.044518360900210059 0 0.044081577119474857 0.2271058242433576 0 0 0.20000000000083221 0 0 0.25000000000104028 0 0.044081577119474857 0.2271058242433576 0 0 0.20000000000083221 0 0.038512288486115001 0.1844147282893184 0 0.044081577119474857 0.2271058242433576 0 0.038512288486115001 0.1844147282893184 0 0.083105206071467416 0.20007701332709979 0 0.038512288486115001 0.1844147282893184 0 0 0.15000000000062411 0 0.065374659239632718 0.1448908038746782 0 0.044310582753132287 0.101412518374475 0 0 0.15000000000062411 0 0.065374659239632718 0.1448908038746782 0 0.038512288486115001 0.1844147282893184 0 0.065374659239632718 0.1448908038746782 0 0.083105206071467416 0.20007701332709979 0 0 0.20000000000083221 0 0.038512288486115001 0.1844147282893184 0 0 0.15000000000062411 0 0.065374659239632718 0.1448908038746782 0 0.1053400320299198 0.12877248826361379 0 0.106902708054812 0.16453234188234539 0 0.1053400320299198 0.12877248826361379 0 0.106902708054812 0.16453234188234539 0 0.14332333627550789 0.14578431753966009 0 0.065374659239632718 0.1448908038746782 0 0.106902708054812 0.16453234188234539 0 0.083105206071467416 0.20007701332709979 0 0.083105206071467416 0.20007701332709979 0 0.095326043202144745 0.24554465089224409 0 0.13737030665753211 0.20313708640667491 0 0.106902708054812 0.16453234188234539 0 0.083105206071467416 0.20007701332709979 0 0.13737030665753211 0.20313708640667491 0 0.044081577119474857 0.2271058242433576 0 0.083105206071467416 0.20007701332709979 0 0.095326043202144745 0.24554465089224409 0 0.044081577119474857 0.2271058242433576 0 0.095326043202144745 0.24554465089224409 0 0.049706944316556423 0.27522722923869108 0 0.095326043202144745 0.24554465089224409 0 0.14377654328998779 0.2442024734791064 0 0.13737030665753211 0.20313708640667491 0 0.17933913398461551 0.2350063570234002 0 0.14377654328998779 0.2442024734791064 0 0.13737030665753211 0.20313708640667491 0 0.17933913398461551 0.2350063570234002 0 0.13737030665753211 0.20313708640667491 0 0.18124454140915969 0.18790916706335251 0 0.18124454140915969 0.18790916706335251 0 0.14332333627550789 0.14578431753966009 0 0.18652628422869419 0.14162325200928061 0 0.106902708054812 0.16453234188234539 0 0.13737030665753211 0.20313708640667491 0 0.14332333627550789 0.14578431753966009 0 0.13737030665753211 0.20313708640667491 0 0.18124454140915969 0.18790916706335251 0 0.14332333627550789 0.14578431753966009 0 0.14332333627550789 0.14578431753966009 0 0.18652628422869419 0.14162325200928061 0 0.16141998738593399 0.10404039647458049 0 0.18652628422869419 0.14162325200928061 0 0.22985637510995899 0.1298347970200906 0 0.2185883431182947 0.18019736283949719 0 0.22985637510995899 0.1298347970200906 0 0.2185883431182947 0.18019736283949719 0 0.25557216766470708 0.15874861286892261 0 0.2185883431182947 0.18019736283949719 0 0.25557216766470708 0.15874861286892261 0 0.26429849586623999 0.19346700179430079 0 0.18124454140915969 0.18790916706335251 0 0.18652628422869419 0.14162325200928061 0 0.2185883431182947 0.18019736283949719 0 0.17933913398461551 0.2350063570234002 0 0.18124454140915969 0.18790916706335251 0 0.224700362040408 0.22206622194729711 0 0.18124454140915969 0.18790916706335251 0 0.2185883431182947 0.18019736283949719 0 0.224700362040408 0.22206622194729711 0 0.2185883431182947 0.18019736283949719 0 0.224700362040408 0.22206622194729711 0 0.26429849586623999 0.19346700179430079 0 0.224700362040408 0.22206622194729711 0 0.25195515620380449 0.25883339815888678 0 0.21049769590865089 0.26857363548218488 0 0.17933913398461551 0.2350063570234002 0 0.224700362040408 0.22206622194729711 0 0.21049769590865089 0.26857363548218488 0 0.184418230509967 0.038773194583122873 0 0.14999999999970359 0 0 0.14618258501891079 0.062070108745602003 0 0.184418230509967 0.038773194583122873 0 0.14618258501891079 0.062070108745602003 0 0.19922788606653311 0.085920220746880993 0 0.184418230509967 0.038773194583122873 0 0.14999999999970359 0 0 0.19999999999955789 0 0 0.10266856499169109 0.044518360900210059 0 0.14999999999970359 0 0 0.14618258501891079 0.062070108745602003 0 0.12372429750337779 0.095814237875728972 0 0.14618258501891079 0.062070108745602003 0 0.16141998738593399 0.10404039647458049 0 0.12372429750337779 0.095814237875728972 0 0.14332333627550789 0.14578431753966009 0 0.16141998738593399 0.10404039647458049 0 0.18652628422869419 0.14162325200928061 0 0.16141998738593399 0.10404039647458049 0 0.19922788606653311 0.085920220746880993 0 0.14618258501891079 0.062070108745602003 0 0.16141998738593399 0.10404039647458049 0 0.19922788606653311 0.085920220746880993 0 0.18652628422869419 0.14162325200928061 0 0.22985637510995899 0.1298347970200906 0 0.19922788606653311 0.085920220746880993 0 0.22985637510995899 0.1298347970200906 0 0.19922788606653311 0.085920220746880993 0 0.24218496799700481 0.089025544070598317 0 0.22985637510995899 0.1298347970200906 0 0.24218496799700481 0.089025544070598317 0 0.27474541102162192 0.11822029332053539 0 0.19922788606653311 0.085920220746880993 0 0.24218496799700481 0.089025544070598317 0 0.22668068146512929 0.045875643423131329 0 0.24218496799700481 0.089025544070598317 0 0.22668068146512929 0.045875643423131329 0 0.27499999999933927 0.060310814194988557 0 0.184418230509967 0.038773194583122873 0 0.19922788606653311 0.085920220746880993 0 0.22668068146512929 0.045875643423131329 0 0.184418230509967 0.038773194583122873 0 0.22668068146512929 0.045875643423131329 0 0.19999999999955789 0 0 0.22668068146512929 0.045875643423131329 0 0.19999999999955789 0 0 0.24999999999941211 0 0 0.24999999999941211 0 0 0.27499999999933927 0.060310814194988557 0 0.29999999999926641 0 0 0.22668068146512929 0.045875643423131329 0 0.24999999999941211 0 0 0.27499999999933927 0.060310814194988557 0 0.27499999999933927 0.060310814194988557 0 0.29999999999926641 0 0 0.32541448401678508 0.046215317981507749 0 0.29999999999926641 0 0 0.32541448401678508 0.046215317981507749 0 0.34999999999912063 0 0 0.32541448401678508 0.046215317981507749 0 0.3615861437013822 0.03582617922508851 0 0.35312867752657662 0.084946736076730367 0 0.3615861437013822 0.03582617922508851 0 0.35312867752657662 0.084946736076730367 0 0.39591832466117061 0.056982757562006353 0 0.32541448401678508 0.046215317981507749 0 0.3615861437013822 0.03582617922508851 0 0.34999999999912063 0 0 0.3615861437013822 0.03582617922508851 0 0.34999999999912063 0 0 0.3999999999989749 0 0 0.35312867752657662 0.084946736076730367 0 0.36246644853392812 0.1399454205365751 0 0.39823268594401579 0.1116623613130045 0 0.35312867752657662 0.084946736076730367 0 0.32215584939770009 0.1218492143506909 0 0.36246644853392812 0.1399454205365751 0 0.32541448401678508 0.046215317981507749 0 0.35312867752657662 0.084946736076730367 0 0.3096713403101819 0.085471541595262421 0 0.35312867752657662 0.084946736076730367 0 0.32215584939770009 0.1218492143506909 0 0.3096713403101819 0.085471541595262421 0 0.32215584939770009 0.1218492143506909 0 0.3096713403101819 0.085471541595262421 0 0.27474541102162192 0.11822029332053539 0 0.27499999999933927 0.060310814194988557 0 0.32541448401678508 0.046215317981507749 0 0.3096713403101819 0.085471541595262421 0 0.27499999999933927 0.060310814194988557 0 0.3096713403101819 0.085471541595262421 0 0.27474541102162192 0.11822029332053539 0 0.24218496799700481 0.089025544070598317 0 0.27499999999933927 0.060310814194988557 0 0.27474541102162192 0.11822029332053539 0 0.22985637510995899 0.1298347970200906 0 0.27474541102162192 0.11822029332053539 0 0.25557216766470708 0.15874861286892261 0 0.27474541102162192 0.11822029332053539 0 0.25557216766470708 0.15874861286892261 0 0.29336099386129338 0.15892013001050981 0 0.25557216766470708 0.15874861286892261 0 0.29336099386129338 0.15892013001050981 0 0.26429849586623999 0.19346700179430079 0 0.29336099386129338 0.15892013001050981 0 0.31255190597181792 0.19850845631528771 0 0.33084213324567391 0.16272720141332131 0 0.29336099386129338 0.15892013001050981 0 0.26429849586623999 0.19346700179430079 0 0.31255190597181792 0.19850845631528771 0 0.32215584939770009 0.1218492143506909 0 0.27474541102162192 0.11822029332053539 0 0.29336099386129338 0.15892013001050981 0 0.224700362040408 0.22206622194729711 0 0.28040350263641872 0.23054717217092141 0 0.25195515620380449 0.25883339815888678 0 0.224700362040408 0.22206622194729711 0 0.28040350263641872 0.23054717217092141 0 0.26429849586623999 0.19346700179430079 0 0.28040350263641872 0.23054717217092141 0 0.26429849586623999 0.19346700179430079 0 0.31255190597181792 0.19850845631528771 0 0.28040350263641872 0.23054717217092141 0 0.33758650185219202 0.23837101504325639 0 0.29132859388405002 0.27203693976649962 0 0.28040350263641872 0.23054717217092141 0 0.33758650185219202 0.23837101504325639 0 0.31255190597181792 0.19850845631528771 0 0.33758650185219202 0.23837101504325639 0 0.31255190597181792 0.19850845631528771 0 0.3572130504031617 0.1874703368446563 0 0.33758650185219202 0.23837101504325639 0 0.3572130504031617 0.1874703368446563 0 0.38831533174504851 0.2189834941785925 0 0.33758650185219202 0.23837101504325639 0 0.38831533174504851 0.2189834941785925 0 0.3786248352540974 0.27082301512024259 0 0.32215584939770009 0.1218492143506909 0 0.29336099386129338 0.15892013001050981 0 0.33084213324567391 0.16272720141332131 0 0.32215584939770009 0.1218492143506909 0 0.33084213324567391 0.16272720141332131 0 0.36246644853392812 0.1399454205365751 0 0.31255190597181792 0.19850845631528771 0 0.33084213324567391 0.16272720141332131 0 0.3572130504031617 0.1874703368446563 0 0.3572130504031617 0.1874703368446563 0 0.36246644853392812 0.1399454205365751 0 0.39801143831225599 0.16651381068160659 0 0.33084213324567391 0.16272720141332131 0 0.3572130504031617 0.1874703368446563 0 0.36246644853392812 0.1399454205365751 0 0.36246644853392812 0.1399454205365751 0 0.39801143831225599 0.16651381068160659 0 0.39823268594401579 0.1116623613130045 0 0.39801143831225599 0.16651381068160659 0 0.42905200079338551 0.19982395548231649 0 0.44288491854585582 0.14116182884956319 0 0.39801143831225599 0.16651381068160659 0 0.44288491854585582 0.14116182884956319 0 0.39823268594401579 0.1116623613130045 0 0.38831533174504851 0.2189834941785925 0 0.42377727103934271 0.25099357235810238 0 0.3786248352540974 0.27082301512024259 0 0.3572130504031617 0.1874703368446563 0 0.39801143831225599 0.16651381068160659 0 0.38831533174504851 0.2189834941785925 0 0.39801143831225599 0.16651381068160659 0 0.38831533174504851 0.2189834941785925 0 0.42905200079338551 0.19982395548231649 0 0.38831533174504851 0.2189834941785925 0 0.42905200079338551 0.19982395548231649 0 0.42377727103934271 0.25099357235810238 0 0.42905200079338551 0.19982395548231649 0 0.46429753744194407 0.22870891180733599 0 0.42377727103934271 0.25099357235810238 0 0.42905200079338551 0.19982395548231649 0 0.46429753744194407 0.22870891180733599 0 0.47357141910802508 0.1873585799078378 0 0.47357141910802508 0.1873585799078378 0 0.51729576145820033 0.1683240575987815 0 0.50760557329222289 0.20700468884612061 0 0.46429753744194407 0.22870891180733599 0 0.47357141910802508 0.1873585799078378 0 0.50760557329222289 0.20700468884612061 0 0.46429753744194407 0.22870891180733599 0 0.49695729691142171 0.25014895411178018 0 0.50760557329222289 0.20700468884612061 0 0.44288491854585582 0.14116182884956319 0 0.47357141910802508 0.1873585799078378 0 0.48466639505193998 0.1421439844745814 0 0.42905200079338551 0.19982395548231649 0 0.44288491854585582 0.14116182884956319 0 0.47357141910802508 0.1873585799078378 0 0.47357141910802508 0.1873585799078378 0 0.48466639505193998 0.1421439844745814 0 0.51729576145820033 0.1683240575987815 0 0.44288491854585582 0.14116182884956319 0 0.48466639505193998 0.1421439844745814 0 0.47881186583059909 0.093591717165689425 0 0.48466639505193998 0.1421439844745814 0 0.47881186583059909 0.093591717165689425 0 0.51076801031701946 0.1202837388510348 0 0.44288491854585582 0.14116182884956319 0 0.47881186583059909 0.093591717165689425 0 0.43698630808430822 0.080423614171545449 0 0.47881186583059909 0.093591717165689425 0 0.47040171442036788 0.044141676406503738 0 0.43698630808430822 0.080423614171545449 0 0.47881186583059909 0.093591717165689425 0 0.47040171442036788 0.044141676406503738 0 0.52375890611712683 0.059318771819432882 0 0.47040171442036788 0.044141676406503738 0 0.49999999999869432 0 0 0.52375890611712683 0.059318771819432882 0 0.47040171442036788 0.044141676406503738 0 0.49999999999869432 0 0 0.44999999999882923 0 0 0.47040171442036788 0.044141676406503738 0 0.44999999999882923 0 0 0.4320097814748517 0.037406712692169303 0 0.47040171442036788 0.044141676406503738 0 0.4320097814748517 0.037406712692169303 0 0.43698630808430822 0.080423614171545449 0 0.4320097814748517 0.037406712692169303 0 0.3999999999989749 0 0 0.39591832466117061 0.056982757562006353 0 0.4320097814748517 0.037406712692169303 0 0.39591832466117061 0.056982757562006353 0 0.43698630808430822 0.080423614171545449 0 0.44999999999882923 0 0 0.4320097814748517 0.037406712692169303 0 0.3999999999989749 0 0 0.3615861437013822 0.03582617922508851 0 0.3999999999989749 0 0 0.39591832466117061 0.056982757562006353 0 0.35312867752657662 0.084946736076730367 0 0.39591832466117061 0.056982757562006353 0 0.39823268594401579 0.1116623613130045 0 0.44288491854585582 0.14116182884956319 0 0.39823268594401579 0.1116623613130045 0 0.43698630808430822 0.080423614171545449 0 0.39591832466117061 0.056982757562006353 0 0.39823268594401579 0.1116623613130045 0 0.43698630808430822 0.080423614171545449 0 0.42161023666869668 0.39493916313643851 0 0.38707855792647411 0.42299362914874578 0 0.43249999999999988 0.43937499999999979 0 0.42161023666869668 0.39493916313643851 0 0.38083244760691543 0.38531983672244652 0 0.38707855792647411 0.42299362914874578 0 0.42161023666869668 0.39493916313643851 0 0.38083244760691543 0.38531983672244652 0 0.40076539126862748 0.34589349467022118 0 0.38707855792647411 0.42299362914874578 0 0.3908716102680424 0.47010282357248828 0 0.43249999999999988 0.43937499999999979 0 0.3908716102680424 0.47010282357248828 0 0.43507373378304309 0.49699695397193322 0 0.38244435121258652 0.51653317813019495 0 0.3908716102680424 0.47010282357248828 0 0.43507373378304309 0.49699695397193322 0 0.43249999999999988 0.43937499999999979 0 0.43507373378304309 0.49699695397193322 0 0.43249999999999988 0.43937499999999979 0 0.46111841286828259 0.46690301029591341 0 0.43249999999999988 0.43937499999999979 0 0.46111841286828259 0.46690301029591341 0 0.48858720058566618 0.43964267759203868 0 0.43507373378304309 0.49699695397193322 0 0.46111841286828259 0.46690301029591341 0 0.49102375406324739 0.49123754822244059 0 0.46111841286828259 0.46690301029591341 0 0.49102375406324739 0.49123754822244059 0 0.48858720058566618 0.43964267759203868 0 0.48858720058566618 0.43964267759203868 0 0.46655310992796922 0.39650496622958609 0 0.52289427570932567 0.3932284363388488 0 0.43249999999999988 0.43937499999999979 0 0.48858720058566618 0.43964267759203868 0 0.46655310992796922 0.39650496622958609 0 0.42161023666869668 0.39493916313643851 0 0.43249999999999988 0.43937499999999979 0 0.46655310992796922 0.39650496622958609 0 0.42161023666869668 0.39493916313643851 0 0.46655310992796922 0.39650496622958609 0 0.4409427642593301 0.35743108089689513 0 0.46655310992796922 0.39650496622958609 0 0.49077833859261139 0.35229981449445641 0 0.52289427570932567 0.3932284363388488 0 0.49077833859261139 0.35229981449445641 0 0.46226845272279993 0.31901800744800313 0 0.5 0.29999999999999999 0 0.49077833859261139 0.35229981449445641 0 0.46226845272279993 0.31901800744800313 0 0.4409427642593301 0.35743108089689513 0 0.46226845272279993 0.31901800744800313 0 0.4409427642593301 0.35743108089689513 0 0.41914690343363781 0.30688979866601612 0 0.46655310992796922 0.39650496622958609 0 0.49077833859261139 0.35229981449445641 0 0.4409427642593301 0.35743108089689513 0 0.49695729691142171 0.25014895411178018 0 0.4604742573284204 0.27846934318264788 0 0.5 0.29999999999999999 0 0.46429753744194407 0.22870891180733599 0 0.49695729691142171 0.25014895411178018 0 0.4604742573284204 0.27846934318264788 0 0.46226845272279993 0.31901800744800313 0 0.4604742573284204 0.27846934318264788 0 0.5 0.29999999999999999 0 0.46226845272279993 0.31901800744800313 0 0.4604742573284204 0.27846934318264788 0 0.41914690343363781 0.30688979866601612 0 0.46429753744194407 0.22870891180733599 0 0.4604742573284204 0.27846934318264788 0 0.42377727103934271 0.25099357235810238 0 0.4604742573284204 0.27846934318264788 0 0.42377727103934271 0.25099357235810238 0 0.41914690343363781 0.30688979866601612 0 0.42377727103934271 0.25099357235810238 0 0.41914690343363781 0.30688979866601612 0 0.3786248352540974 0.27082301512024259 0 0.41914690343363781 0.30688979866601612 0 0.3786248352540974 0.27082301512024259 0 0.36575549820117997 0.31677992835137742 0 0.42161023666869668 0.39493916313643851 0 0.4409427642593301 0.35743108089689513 0 0.40076539126862748 0.34589349467022118 0 0.4409427642593301 0.35743108089689513 0 0.41914690343363781 0.30688979866601612 0 0.40076539126862748 0.34589349467022118 0 0.41914690343363781 0.30688979866601612 0 0.40076539126862748 0.34589349467022118 0 0.36575549820117997 0.31677992835137742 0 0.40076539126862748 0.34589349467022118 0 0.36575549820117997 0.31677992835137742 0 0.33277555741076909 0.36432196682010132 0 0.38083244760691543 0.38531983672244652 0 0.40076539126862748 0.34589349467022118 0 0.33277555741076909 0.36432196682010132 0 0.36575549820117997 0.31677992835137742 0 0.32752639306529541 0.32610012995269699 0 0.33277555741076909 0.36432196682010132 0 0.32752639306529541 0.32610012995269699 0 0.33277555741076909 0.36432196682010132 0 0.29644548887253103 0.34914008784168082 0 0.33758650185219202 0.23837101504325639 0 0.3786248352540974 0.27082301512024259 0 0.33402499257867951 0.28911035184473982 0 0.3786248352540974 0.27082301512024259 0 0.36575549820117997 0.31677992835137742 0 0.33402499257867951 0.28911035184473982 0 0.36575549820117997 0.31677992835137742 0 0.32752639306529541 0.32610012995269699 0 0.33402499257867951 0.28911035184473982 0 0.32752639306529541 0.32610012995269699 0 0.33402499257867951 0.28911035184473982 0 0.29348325746214782 0.31350119524708198 0 0.33758650185219202 0.23837101504325639 0 0.33402499257867951 0.28911035184473982 0 0.29132859388405002 0.27203693976649962 0 0.33402499257867951 0.28911035184473982 0 0.29132859388405002 0.27203693976649962 0 0.29348325746214782 0.31350119524708198 0 0.29132859388405002 0.27203693976649962 0 0.29348325746214782 0.31350119524708198 0 0.24432083401701241 0.3006253385567515 0 0.29132859388405002 0.27203693976649962 0 0.25195515620380449 0.25883339815888678 0 0.24432083401701241 0.3006253385567515 0 0.28040350263641872 0.23054717217092141 0 0.29132859388405002 0.27203693976649962 0 0.25195515620380449 0.25883339815888678 0 0.33277555741076909 0.36432196682010132 0 0.29644548887253103 0.34914008784168082 0 0.27866744612395528 0.38416094670951489 0 0.32752639306529541 0.32610012995269699 0 0.29644548887253103 0.34914008784168082 0 0.29348325746214782 0.31350119524708198 0 0.29644548887253103 0.34914008784168082 0 0.29348325746214782 0.31350119524708198 0 0.25966125648670141 0.34351016742083729 0 0.29348325746214782 0.31350119524708198 0 0.25966125648670141 0.34351016742083729 0 0.24432083401701241 0.3006253385567515 0 0.29644548887253103 0.34914008784168082 0 0.25966125648670141 0.34351016742083729 0 0.27866744612395528 0.38416094670951489 0 0.25966125648670141 0.34351016742083729 0 0.27866744612395528 0.38416094670951489 0 0.22033343844674469 0.36963382230740238 0 0.27866744612395528 0.38416094670951489 0 0.29124338931648802 0.43334555462578611 0 0.24049127783545701 0.41270748208749802 0 0.29124338931648802 0.43334555462578611 0 0.25982634974572738 0.46097799597715272 0 0.24049127783545701 0.41270748208749802 0 0.27866744612395528 0.38416094670951489 0 0.29124338931648802 0.43334555462578611 0 0.31778888742534622 0.40581751814196781 0 0.33277555741076909 0.36432196682010132 0 0.27866744612395528 0.38416094670951489 0 0.31778888742534622 0.40581751814196781 0 0.33277555741076909 0.36432196682010132 0 0.31778888742534622 0.40581751814196781 0 0.35221190152536241 0.40457127605439203 0 0.31778888742534622 0.40581751814196781 0 0.35221190152536241 0.40457127605439203 0 0.34258405725730701 0.4444034294386992 0 0.29124338931648802 0.43334555462578611 0 0.31778888742534622 0.40581751814196781 0 0.34258405725730701 0.4444034294386992 0 0.38707855792647411 0.42299362914874578 0 0.35221190152536241 0.40457127605439203 0 0.34258405725730701 0.4444034294386992 0 0.38083244760691543 0.38531983672244652 0 0.38707855792647411 0.42299362914874578 0 0.35221190152536241 0.40457127605439203 0 0.38083244760691543 0.38531983672244652 0 0.33277555741076909 0.36432196682010132 0 0.35221190152536241 0.40457127605439203 0 0.3908716102680424 0.47010282357248828 0 0.35024835142131061 0.48654922671676981 0 0.38244435121258652 0.51653317813019495 0 0.3908716102680424 0.47010282357248828 0 0.35024835142131061 0.48654922671676981 0 0.34258405725730701 0.4444034294386992 0 0.38707855792647411 0.42299362914874578 0 0.3908716102680424 0.47010282357248828 0 0.34258405725730701 0.4444034294386992 0 0.29124338931648802 0.43334555462578611 0 0.34258405725730701 0.4444034294386992 0 0.31068898841644388 0.47541502461811092 0 0.35024835142131061 0.48654922671676981 0 0.31068898841644388 0.47541502461811092 0 0.33190227185843768 0.52715113583864037 0 0.35024835142131061 0.48654922671676981 0 0.34258405725730701 0.4444034294386992 0 0.31068898841644388 0.47541502461811092 0 0.31068898841644388 0.47541502461811092 0 0.25982634974572738 0.46097799597715272 0 0.28307294598219601 0.50789252727458634 0 0.29124338931648802 0.43334555462578611 0 0.31068898841644388 0.47541502461811092 0 0.25982634974572738 0.46097799597715272 0 0.25982634974572738 0.46097799597715272 0 0.23975172658309729 0.49475499200540818 0 0.28307294598219601 0.50789252727458634 0 0.23975172658309729 0.49475499200540818 0 0.19604738184454831 0.47787523520405789 0 0.22278230690790279 0.44824268025881547 0 0.19604738184454831 0.47787523520405789 0 0.22278230690790279 0.44824268025881547 0 0.191953871957803 0.42546416763755879 0 0.25982634974572738 0.46097799597715272 0 0.22278230690790279 0.44824268025881547 0 0.24049127783545701 0.41270748208749802 0 0.25982634974572738 0.46097799597715272 0 0.23975172658309729 0.49475499200540818 0 0.22278230690790279 0.44824268025881547 0 0.27866744612395528 0.38416094670951489 0 0.24049127783545701 0.41270748208749802 0 0.22033343844674469 0.36963382230740238 0 0.191953871957803 0.42546416763755879 0 0.1650278706801647 0.38791388161335733 0 0.22033343844674469 0.36963382230740238 0 0.24049127783545701 0.41270748208749802 0 0.191953871957803 0.42546416763755879 0 0.22033343844674469 0.36963382230740238 0 0.22278230690790279 0.44824268025881547 0 0.24049127783545701 0.41270748208749802 0 0.191953871957803 0.42546416763755879 0 0.191953871957803 0.42546416763755879 0 0.13773355295499351 0.42497777642586831 0 0.15801167086041079 0.46008690540259539 0 0.191953871957803 0.42546416763755879 0 0.1650278706801647 0.38791388161335733 0 0.13773355295499351 0.42497777642586831 0 0.1650278706801647 0.38791388161335733 0 0.13773355295499351 0.42497777642586831 0 0.1117088112799664 0.38831403004970022 0 0.13773355295499351 0.42497777642586831 0 0.15801167086041079 0.46008690540259539 0 0.113541300460994 0.46208784312094731 0 0.15801167086041079 0.46008690540259539 0 0.113541300460994 0.46208784312094731 0 0.1216098864341134 0.50637075089503902 0 0.15801167086041079 0.46008690540259539 0 0.1216098864341134 0.50637075089503902 0 0.16618607197337229 0.50652878253548905 0 0.19604738184454831 0.47787523520405789 0 0.15801167086041079 0.46008690540259539 0 0.16618607197337229 0.50652878253548905 0 0.19604738184454831 0.47787523520405789 0 0.191953871957803 0.42546416763755879 0 0.15801167086041079 0.46008690540259539 0 0.25195515620380449 0.25883339815888678 0 0.21049769590865089 0.26857363548218488 0 0.24432083401701241 0.3006253385567515 0 0.21049769590865089 0.26857363548218488 0 0.24432083401701241 0.3006253385567515 0 0.19670163708476801 0.31472518408333222 0 0.21049769590865089 0.26857363548218488 0 0.19670163708476801 0.31472518408333222 0 0.168349569971391 0.28054490850913671 0 0.19670163708476801 0.31472518408333222 0 0.22615676742807109 0.33458786033114157 0 0.18434624290945251 0.35208838264196463 0 0.24432083401701241 0.3006253385567515 0 0.19670163708476801 0.31472518408333222 0 0.22615676742807109 0.33458786033114157 0 0.25966125648670141 0.34351016742083729 0 0.24432083401701241 0.3006253385567515 0 0.22615676742807109 0.33458786033114157 0 0.25966125648670141 0.34351016742083729 0 0.22615676742807109 0.33458786033114157 0 0.22033343844674469 0.36963382230740238 0 0.22615676742807109 0.33458786033114157 0 0.22033343844674469 0.36963382230740238 0 0.18434624290945251 0.35208838264196463 0 0.1650278706801647 0.38791388161335733 0 0.22033343844674469 0.36963382230740238 0 0.18434624290945251 0.35208838264196463 0 0.1650278706801647 0.38791388161335733 0 0.18434624290945251 0.35208838264196463 0 0.14223753364722069 0.3341983344262433 0 0.1650278706801647 0.38791388161335733 0 0.14223753364722069 0.3341983344262433 0 0.1117088112799664 0.38831403004970022 0 0.19670163708476801 0.31472518408333222 0 0.18434624290945251 0.35208838264196463 0 0.14223753364722069 0.3341983344262433 0 0.19670163708476801 0.31472518408333222 0 0.14223753364722069 0.3341983344262433 0 0.168349569971391 0.28054490850913671 0 0.14223753364722069 0.3341983344262433 0 0.168349569971391 0.28054490850913671 0 0.1247745017231483 0.27198077544791172 0 0.14377654328998779 0.2442024734791064 0 0.168349569971391 0.28054490850913671 0 0.1247745017231483 0.27198077544791172 0 0.17933913398461551 0.2350063570234002 0 0.21049769590865089 0.26857363548218488 0 0.168349569971391 0.28054490850913671 0 0.17933913398461551 0.2350063570234002 0 0.14377654328998779 0.2442024734791064 0 0.168349569971391 0.28054490850913671 0 0.095326043202144745 0.24554465089224409 0 0.093851963071650835 0.30582068233324772 0 0.049706944316556423 0.27522722923869108 0 0.095326043202144745 0.24554465089224409 0 0.14377654328998779 0.2442024734791064 0 0.1247745017231483 0.27198077544791172 0 0.095326043202144745 0.24554465089224409 0 0.1247745017231483 0.27198077544791172 0 0.093851963071650835 0.30582068233324772 0 0.14223753364722069 0.3341983344262433 0 0.1247745017231483 0.27198077544791172 0 0.093851963071650835 0.30582068233324772 0 0.093851963071650835 0.30582068233324772 0 0.046389130980076937 0.32668781832131749 0 0.049706944316556423 0.27522722923869108 0 0.093851963071650835 0.30582068233324772 0 0.087545339447545459 0.35122518864182262 0 0.046389130980076937 0.32668781832131749 0 0.14223753364722069 0.3341983344262433 0 0.093851963071650835 0.30582068233324772 0 0.087545339447545459 0.35122518864182262 0 0.14223753364722069 0.3341983344262433 0 0.087545339447545459 0.35122518864182262 0 0.1117088112799664 0.38831403004970022 0 0.087545339447545459 0.35122518864182262 0 0.1117088112799664 0.38831403004970022 0 0.050583896093752537 0.38543522283434112 0 0.087545339447545459 0.35122518864182262 0 0.046389130980076937 0.32668781832131749 0 0.050583896093752537 0.38543522283434112 0 0 0.35000000000145642 0 0.046389130980076937 0.32668781832131749 0 0.050583896093752537 0.38543522283434112 0 0 0.35000000000145642 0 0.046389130980076937 0.32668781832131749 0 0 0.30000000000124832 0 0.046389130980076937 0.32668781832131749 0 0 0.30000000000124832 0 0.049706944316556423 0.27522722923869108 0 0 0.30000000000124832 0 0 0.25000000000104028 0 0.049706944316556423 0.27522722923869108 0 0.044081577119474857 0.2271058242433576 0 0 0.25000000000104028 0 0.049706944316556423 0.27522722923869108 0 0.068743045408989428 0.48853989837882689 0 0.113541300460994 0.46208784312094731 0 0.078358742472063481 0.43365249433908948 0 0.068743045408989428 0.48853989837882689 0 0.113541300460994 0.46208784312094731 0 0.1216098864341134 0.50637075089503902 0 0.13773355295499351 0.42497777642586831 0 0.113541300460994 0.46208784312094731 0 0.078358742472063481 0.43365249433908948 0 0.13773355295499351 0.42497777642586831 0 0.1117088112799664 0.38831403004970022 0 0.078358742472063481 0.43365249433908948 0 0.1117088112799664 0.38831403004970022 0 0.078358742472063481 0.43365249433908948 0 0.050583896093752537 0.38543522283434112 0 0.078358742472063481 0.43365249433908948 0 0.035463093262830522 0.42673416072819947 0 0.050583896093752537 0.38543522283434112 0 0 0.35000000000145642 0 0.050583896093752537 0.38543522283434112 0 0 0.40000000000166441 0 0.035463093262830522 0.42673416072819947 0 0.050583896093752537 0.38543522283434112 0 0 0.40000000000166441 0 0.035463093262830522 0.42673416072819947 0 0 0.40000000000166441 0 0 0.45000000000187229 0 0.035463093262830522 0.42673416072819947 0 0 0.45000000000187229 0 0.033550201249889847 0.46247875832467239 0 0.068743045408989428 0.48853989837882689 0 0.033550201249889847 0.46247875832467239 0 0 0.50000000000205869 0 0.068743045408989428 0.48853989837882689 0 0.078358742472063481 0.43365249433908948 0 0.033550201249889847 0.46247875832467239 0 0.078358742472063481 0.43365249433908948 0 0.035463093262830522 0.42673416072819947 0 0.033550201249889847 0.46247875832467239 0 0 0.45000000000187229 0 0.033550201249889847 0.46247875832467239 0 0 0.50000000000205869 0 0.068743045408989428 0.48853989837882689 0 0 0.50000000000205869 0 0.044576108720083309 0.53509043209532614 0 0 0.50000000000205869 0 0 0.55000000000173355 0 0.044576108720083309 0.53509043209532614 0 0 0.55000000000173355 0 0.044576108720083309 0.53509043209532614 0 0.034381862692950467 0.57372682250960894 0 0.044576108720083309 0.53509043209532614 0 0.077693244765132896 0.56932317963405099 0 0.034381862692950467 0.57372682250960894 0 0.068743045408989428 0.48853989837882689 0 0.044576108720083309 0.53509043209532614 0 0.085622222639554768 0.53333248912060549 0 0.068743045408989428 0.48853989837882689 0 0.085622222639554768 0.53333248912060549 0 0.1216098864341134 0.50637075089503902 0 0.044576108720083309 0.53509043209532614 0 0.085622222639554768 0.53333248912060549 0 0.077693244765132896 0.56932317963405099 0 0.085622222639554768 0.53333248912060549 0 0.1154888278694548 0.56733818459978413 0 0.077693244765132896 0.56932317963405099 0 0.085622222639554768 0.53333248912060549 0 0.1216098864341134 0.50637075089503902 0 0.1154888278694548 0.56733818459978413 0 0.1024350934457823 0.60772393977513839 0 0.1154888278694548 0.56733818459978413 0 0.077693244765132896 0.56932317963405099 0 0.1024350934457823 0.60772393977513839 0 0.050069554451969707 0.61308520079857043 0 0.086179601630648681 0.64647209519980475 0 0.1024350934457823 0.60772393977513839 0 0.077693244765132896 0.56932317963405099 0 0.050069554451969707 0.61308520079857043 0 0.077693244765132896 0.56932317963405099 0 0.050069554451969707 0.61308520079857043 0 0.034381862692950467 0.57372682250960894 0 0 0.55000000000173355 0 0.034381862692950467 0.57372682250960894 0 0 0.60000000000138687 0 0.050069554451969707 0.61308520079857043 0 0 0.60000000000138687 0 0 0.65000000000104008 0 0.050069554451969707 0.61308520079857043 0 0.034381862692950467 0.57372682250960894 0 0 0.60000000000138687 0 0 0.65000000000104008 0 0.046634677244967337 0.671418230738282 0 0 0.7000000000006934 0 0.050069554451969707 0.61308520079857043 0 0.046634677244967337 0.671418230738282 0 0.086179601630648681 0.64647209519980475 0 0.050069554451969707 0.61308520079857043 0 0 0.65000000000104008 0 0.046634677244967337 0.671418230738282 0 0 0.7000000000006934 0 0.049706944316475897 0.72477277076253799 0 0 0.75000000000034661 0 0.046634677244967337 0.671418230738282 0 0 0.7000000000006934 0 0.049706944316475897 0.72477277076253799 0 0.049706944316475897 0.72477277076253799 0 0 0.75000000000034661 0 0.04408157711937423 0.7728941757575627 0 0.049706944316475897 0.72477277076253799 0 0.1020579365089687 0.69352219419301997 0 0.090953281884486245 0.7564451946902494 0 0.1020579365089687 0.69352219419301997 0 0.1215415378367805 0.72939333680004137 0 0.090953281884486245 0.7564451946902494 0 0.046634677244967337 0.671418230738282 0 0.049706944316475897 0.72477277076253799 0 0.1020579365089687 0.69352219419301997 0 0.1215415378367805 0.72939333680004137 0 0.090953281884486245 0.7564451946902494 0 0.14335651144331049 0.75565258250209677 0 0.046634677244967337 0.671418230738282 0 0.1020579365089687 0.69352219419301997 0 0.086179601630648681 0.64647209519980475 0 0.1020579365089687 0.69352219419301997 0 0.086179601630648681 0.64647209519980475 0 0.1241190223511371 0.64391885572885044 0 0.1024350934457823 0.60772393977513839 0 0.086179601630648681 0.64647209519980475 0 0.1241190223511371 0.64391885572885044 0 0.1020579365089687 0.69352219419301997 0 0.1241190223511371 0.64391885572885044 0 0.16500388252850301 0.66612077714085194 0 0.1241190223511371 0.64391885572885044 0 0.16500388252850301 0.66612077714085194 0 0.15720202157091859 0.60665697304410315 0 0.16500388252850301 0.66612077714085194 0 0.19914261668318661 0.62286739485272158 0 0.15720202157091859 0.60665697304410315 0 0.1020579365089687 0.69352219419301997 0 0.16500388252850301 0.66612077714085194 0 0.15332765547575641 0.71200081858233666 0 0.1215415378367805 0.72939333680004137 0 0.15332765547575641 0.71200081858233666 0 0.14335651144331049 0.75565258250209677 0 0.1020579365089687 0.69352219419301997 0 0.1215415378367805 0.72939333680004137 0 0.15332765547575641 0.71200081858233666 0 0.16500388252850301 0.66612077714085194 0 0.15332765547575641 0.71200081858233666 0 0.19068556247388771 0.71028988922845504 0 0.15332765547575641 0.71200081858233666 0 0.14335651144331049 0.75565258250209677 0 0.18269480424590959 0.75905448272264375 0 0.15332765547575641 0.71200081858233666 0 0.19068556247388771 0.71028988922845504 0 0.18269480424590959 0.75905448272264375 0 0.19068556247388771 0.71028988922845504 0 0.2248999640082178 0.72584299459689172 0 0.18269480424590959 0.75905448272264375 0 0.19068556247388771 0.71028988922845504 0 0.2248999640082178 0.72584299459689172 0 0.2236846579037573 0.67380363126050236 0 0.2248999640082178 0.72584299459689172 0 0.2236846579037573 0.67380363126050236 0 0.26439878998046262 0.7048065392091396 0 0.2248999640082178 0.72584299459689172 0 0.22556077506376701 0.77837424984191617 0 0.25676291524611189 0.7436741304886243 0 0.2248999640082178 0.72584299459689172 0 0.25676291524611189 0.7436741304886243 0 0.26439878998046262 0.7048065392091396 0 0.16500388252850301 0.66612077714085194 0 0.2236846579037573 0.67380363126050236 0 0.19914261668318661 0.62286739485272158 0 0.16500388252850301 0.66612077714085194 0 0.19068556247388771 0.71028988922845504 0 0.2236846579037573 0.67380363126050236 0 0.2236846579037573 0.67380363126050236 0 0.2459498854893499 0.63248470766216769 0 0.19914261668318661 0.62286739485272158 0 0.2236846579037573 0.67380363126050236 0 0.2459498854893499 0.63248470766216769 0 0.27820712747429932 0.65530134213254643 0 0.2459498854893499 0.63248470766216769 0 0.19914261668318661 0.62286739485272158 0 0.22549374774072969 0.58452645269293457 0 0.2459498854893499 0.63248470766216769 0 0.22549374774072969 0.58452645269293457 0 0.26573297623774761 0.59828298563722948 0 0.19914261668318661 0.62286739485272158 0 0.22549374774072969 0.58452645269293457 0 0.18381867841758909 0.57774125163628387 0 0.22549374774072969 0.58452645269293457 0 0.20050006573841939 0.53248514016039872 0 0.18381867841758909 0.57774125163628387 0 0.22549374774072969 0.58452645269293457 0 0.25115337790845271 0.54719303014923271 0 0.26573297623774761 0.59828298563722948 0 0.22549374774072969 0.58452645269293457 0 0.20050006573841939 0.53248514016039872 0 0.25115337790845271 0.54719303014923271 0 0.23975172658309729 0.49475499200540818 0 0.20050006573841939 0.53248514016039872 0 0.25115337790845271 0.54719303014923271 0 0.19604738184454831 0.47787523520405789 0 0.20050006573841939 0.53248514016039872 0 0.16618607197337229 0.50652878253548905 0 0.23975172658309729 0.49475499200540818 0 0.19604738184454831 0.47787523520405789 0 0.20050006573841939 0.53248514016039872 0 0.20050006573841939 0.53248514016039872 0 0.14934928745814749 0.55042914607228977 0 0.18381867841758909 0.57774125163628387 0 0.20050006573841939 0.53248514016039872 0 0.16618607197337229 0.50652878253548905 0 0.14934928745814749 0.55042914607228977 0 0.1216098864341134 0.50637075089503902 0 0.16618607197337229 0.50652878253548905 0 0.14934928745814749 0.55042914607228977 0 0.1216098864341134 0.50637075089503902 0 0.1154888278694548 0.56733818459978413 0 0.14934928745814749 0.55042914607228977 0 0.1154888278694548 0.56733818459978413 0 0.14934928745814749 0.55042914607228977 0 0.15720202157091859 0.60665697304410315 0 0.1024350934457823 0.60772393977513839 0 0.1154888278694548 0.56733818459978413 0 0.15720202157091859 0.60665697304410315 0 0.1024350934457823 0.60772393977513839 0 0.1241190223511371 0.64391885572885044 0 0.15720202157091859 0.60665697304410315 0 0.19914261668318661 0.62286739485272158 0 0.15720202157091859 0.60665697304410315 0 0.18381867841758909 0.57774125163628387 0 0.14934928745814749 0.55042914607228977 0 0.15720202157091859 0.60665697304410315 0 0.18381867841758909 0.57774125163628387 0 0.10000000000041601 1 0 0.10266856499240549 0.95548163909968886 0 0.15000000000062411 1 0 0.10266856499240549 0.95548163909968886 0 0.053064897599294662 0.95186845269532028 0 0.083411279318375747 0.91030024466934134 0 0.10000000000041601 1 0 0.050000000000207989 1 0 0.053064897599294662 0.95186845269532028 0 0.10000000000041601 1 0 0.10266856499240549 0.95548163909968886 0 0.053064897599294662 0.95186845269532028 0 0.050000000000207989 1 0 0.025766224399875661 0.97546711317377799 0 0.053064897599294662 0.95186845269532028 0 0.050000000000207989 1 0 0 1 0 0.025766224399875661 0.97546711317377799 0 0 1 0 0.025766224399875661 0.97546711317377799 0 0 0.94999999999979179 0 0.025766224399875661 0.97546711317377799 0 0 0.94999999999979179 0 0.053064897599294662 0.95186845269532028 0 0 0.94999999999979179 0 0.053064897599294662 0.95186845269532028 0 0.0443105827531413 0.89858748162559932 0 0.053064897599294662 0.95186845269532028 0 0.0443105827531413 0.89858748162559932 0 0.083411279318375747 0.91030024466934134 0 0 0.94999999999979179 0 0 0.89999999999958358 0 0.0443105827531413 0.89858748162559932 0 0 0.89999999999958358 0 0.0443105827531413 0.89858748162559932 0 0 0.84999999999965292 0 0.0443105827531413 0.89858748162559932 0 0.083411279318375747 0.91030024466934134 0 0.065374659239661639 0.8551091961254178 0 0.083411279318375747 0.91030024466934134 0 0.10562472963403439 0.87143394428979881 0 0.065374659239661639 0.8551091961254178 0 0.10266856499240549 0.95548163909968886 0 0.083411279318375747 0.91030024466934134 0 0.1241151115713819 0.9045666525468371 0 0.10266856499240549 0.95548163909968886 0 0.1241151115713819 0.9045666525468371 0 0.14617343800780541 0.93808063414349496 0 0.1241151115713819 0.9045666525468371 0 0.10562472963403439 0.87143394428979881 0 0.14474682429600511 0.85524784522713515 0 0.083411279318375747 0.91030024466934134 0 0.1241151115713819 0.9045666525468371 0 0.10562472963403439 0.87143394428979881 0 0.10562472963403439 0.87143394428979881 0 0.1074251789111534 0.83564394292147814 0 0.14474682429600511 0.85524784522713515 0 0.1074251789111534 0.83564394292147814 0 0.065374659239661639 0.8551091961254178 0 0.083105206071452636 0.79992298667296435 0 0.10562472963403439 0.87143394428979881 0 0.1074251789111534 0.83564394292147814 0 0.065374659239661639 0.8551091961254178 0 0.065374659239661639 0.8551091961254178 0 0 0.84999999999965292 0 0.038512288486097702 0.8155852717111195 0 0.0443105827531413 0.89858748162559932 0 0.065374659239661639 0.8551091961254178 0 0 0.84999999999965292 0 0 0.84999999999965292 0 0.038512288486097702 0.8155852717111195 0 0 0.79999999999999982 0 0.065374659239661639 0.8551091961254178 0 0.038512288486097702 0.8155852717111195 0 0.083105206071452636 0.79992298667296435 0 0.038512288486097702 0.8155852717111195 0 0.04408157711937423 0.7728941757575627 0 0.083105206071452636 0.79992298667296435 0 0.038512288486097702 0.8155852717111195 0 0 0.79999999999999982 0 0.04408157711937423 0.7728941757575627 0 0 0.79999999999999982 0 0 0.75000000000034661 0 0.04408157711937423 0.7728941757575627 0 0.049706944316475897 0.72477277076253799 0 0.04408157711937423 0.7728941757575627 0 0.090953281884486245 0.7564451946902494 0 0.04408157711937423 0.7728941757575627 0 0.090953281884486245 0.7564451946902494 0 0.083105206071452636 0.79992298667296435 0 0.1074251789111534 0.83564394292147814 0 0.083105206071452636 0.79992298667296435 0 0.1382744753146134 0.79650574229207483 0 0.090953281884486245 0.7564451946902494 0 0.083105206071452636 0.79992298667296435 0 0.1382744753146134 0.79650574229207483 0 0.090953281884486245 0.7564451946902494 0 0.14335651144331049 0.75565258250209677 0 0.1382744753146134 0.79650574229207483 0 0.14335651144331049 0.75565258250209677 0 0.1382744753146134 0.79650574229207483 0 0.18269480424590959 0.75905448272264375 0 0.1382744753146134 0.79650574229207483 0 0.18269480424590959 0.75905448272264375 0 0.17777405986036951 0.81832336108265358 0 0.2248999640082178 0.72584299459689172 0 0.18269480424590959 0.75905448272264375 0 0.22556077506376701 0.77837424984191617 0 0.22556077506376701 0.77837424984191617 0 0.21858834311891909 0.81980263716112767 0 0.26104540868854792 0.81401944968719064 0 0.22556077506376701 0.77837424984191617 0 0.21858834311891909 0.81980263716112767 0 0.17777405986036951 0.81832336108265358 0 0.18269480424590959 0.75905448272264375 0 0.22556077506376701 0.77837424984191617 0 0.17777405986036951 0.81832336108265358 0 0.21858834311891909 0.81980263716112767 0 0.19741632902693801 0.86755867406447229 0 0.17777405986036951 0.81832336108265358 0 0.21858834311891909 0.81980263716112767 0 0.2401283238295133 0.85648409884788523 0 0.26104540868854792 0.81401944968719064 0 0.21858834311891909 0.81980263716112767 0 0.2401283238295133 0.85648409884788523 0 0.19741632902693801 0.86755867406447229 0 0.19741632902693801 0.86755867406447229 0 0.17777405986036951 0.81832336108265358 0 0.14474682429600511 0.85524784522713515 0 0.19741632902693801 0.86755867406447229 0 0.14474682429600511 0.85524784522713515 0 0.16206583317966519 0.89685560785156404 0 0.1382744753146134 0.79650574229207483 0 0.17777405986036951 0.81832336108265358 0 0.14474682429600511 0.85524784522713515 0 0.1074251789111534 0.83564394292147814 0 0.1382744753146134 0.79650574229207483 0 0.14474682429600511 0.85524784522713515 0 0.1241151115713819 0.9045666525468371 0 0.14474682429600511 0.85524784522713515 0 0.16206583317966519 0.89685560785156404 0 0.1241151115713819 0.9045666525468371 0 0.16206583317966519 0.89685560785156404 0 0.14617343800780541 0.93808063414349496 0 0.16206583317966519 0.89685560785156404 0 0.19901705110390991 0.9175543425573498 0 0.14617343800780541 0.93808063414349496 0 0.19741632902693801 0.86755867406447229 0 0.16206583317966519 0.89685560785156404 0 0.19901705110390991 0.9175543425573498 0 0.19741632902693801 0.86755867406447229 0 0.24536017905392571 0.90704567837671446 0 0.19901705110390991 0.9175543425573498 0 0.2401283238295133 0.85648409884788523 0 0.19741632902693801 0.86755867406447229 0 0.24536017905392571 0.90704567837671446 0 0.24536017905392571 0.90704567837671446 0 0.19901705110390991 0.9175543425573498 0 0.22850979588452081 0.95594428570238643 0 0.19901705110390991 0.9175543425573498 0 0.22850979588452081 0.95594428570238643 0 0.18474005699953849 0.96231585248064622 0 0.24536017905392571 0.90704567837671446 0 0.22850979588452081 0.95594428570238643 0 0.27609987656793722 0.94991445621608572 0 0.22850979588452081 0.95594428570238643 0 0.20000000000083221 1 0 0.25000000000104028 1 0 0.22850979588452081 0.95594428570238643 0 0.20000000000083221 1 0 0.18474005699953849 0.96231585248064622 0 0.20000000000083221 1 0 0.18474005699953849 0.96231585248064622 0 0.15000000000062411 1 0 0.19901705110390991 0.9175543425573498 0 0.18474005699953849 0.96231585248064622 0 0.14617343800780541 0.93808063414349496 0 0.18474005699953849 0.96231585248064622 0 0.14617343800780541 0.93808063414349496 0 0.15000000000062411 1 0 0.10266856499240549 0.95548163909968886 0 0.14617343800780541 0.93808063414349496 0 0.15000000000062411 1 0 0.35000000000145642 1 0 0.36184234618600131 0.96443954459096326 0 0.32544832635163229 0.95485394099568932 0 0.35000000000145642 1 0 0.36184234618600131 0.96443954459096326 0 0.40000000000166441 1 0 0.36184234618600131 0.96443954459096326 0 0.32544832635163229 0.95485394099568932 0 0.35752321586431363 0.9185439911803448 0 0.36184234618600131 0.96443954459096326 0 0.35752321586431363 0.9185439911803448 0 0.39641108128798319 0.94356127926187128 0 0.35000000000145642 1 0 0.32544832635163229 0.95485394099568932 0 0.30000000000124832 1 0 0.30000000000124832 1 0 0.25000000000104028 1 0 0.27609987656793722 0.94991445621608572 0 0.22850979588452081 0.95594428570238643 0 0.25000000000104028 1 0 0.27609987656793722 0.94991445621608572 0 0.32544832635163229 0.95485394099568932 0 0.30000000000124832 1 0 0.27609987656793722 0.94991445621608572 0 0.32544832635163229 0.95485394099568932 0 0.27609987656793722 0.94991445621608572 0 0.30864387279288652 0.89906554525974958 0 0.24536017905392571 0.90704567837671446 0 0.27270076654418179 0.87751467830216623 0 0.30864387279288652 0.89906554525974958 0 0.24536017905392571 0.90704567837671446 0 0.27609987656793722 0.94991445621608572 0 0.30864387279288652 0.89906554525974958 0 0.2401283238295133 0.85648409884788523 0 0.24536017905392571 0.90704567837671446 0 0.27270076654418179 0.87751467830216623 0 0.30864387279288652 0.89906554525974958 0 0.35752321586431363 0.9185439911803448 0 0.35864759629805099 0.87963482415279515 0 0.32544832635163229 0.95485394099568932 0 0.30864387279288652 0.89906554525974958 0 0.35752321586431363 0.9185439911803448 0 0.35752321586431363 0.9185439911803448 0 0.35864759629805099 0.87963482415279515 0 0.39767323751400468 0.89584229130535065 0 0.35864759629805099 0.87963482415279515 0 0.33403534827021109 0.84402799729020661 0 0.39536230704883951 0.84069429572832477 0 0.33403534827021109 0.84402799729020661 0 0.35642984951668422 0.80994399665655703 0 0.39536230704883951 0.84069429572832477 0 0.33403534827021109 0.84402799729020661 0 0.30857225866488791 0.81101973481716805 0 0.35642984951668422 0.80994399665655703 0 0.30864387279288652 0.89906554525974958 0 0.35864759629805099 0.87963482415279515 0 0.33403534827021109 0.84402799729020661 0 0.30864387279288652 0.89906554525974958 0 0.33403534827021109 0.84402799729020661 0 0.29209212897034281 0.84715728365233667 0 0.27270076654418179 0.87751467830216623 0 0.30864387279288652 0.89906554525974958 0 0.29209212897034281 0.84715728365233667 0 0.2401283238295133 0.85648409884788523 0 0.27270076654418179 0.87751467830216623 0 0.29209212897034281 0.84715728365233667 0 0.2401283238295133 0.85648409884788523 0 0.29209212897034281 0.84715728365233667 0 0.26104540868854792 0.81401944968719064 0 0.29209212897034281 0.84715728365233667 0 0.26104540868854792 0.81401944968719064 0 0.30857225866488791 0.81101973481716805 0 0.33403534827021109 0.84402799729020661 0 0.29209212897034281 0.84715728365233667 0 0.30857225866488791 0.81101973481716805 0 0.26104540868854792 0.81401944968719064 0 0.30857225866488791 0.81101973481716805 0 0.2792923945214143 0.77665808831789485 0 0.30857225866488791 0.81101973481716805 0 0.2792923945214143 0.77665808831789485 0 0.33123028043633618 0.77629643437932982 0 0.22556077506376701 0.77837424984191617 0 0.26104540868854792 0.81401944968719064 0 0.2792923945214143 0.77665808831789485 0 0.2792923945214143 0.77665808831789485 0 0.25676291524611189 0.7436741304886243 0 0.29904318922293632 0.74132814928635593 0 0.22556077506376701 0.77837424984191617 0 0.2792923945214143 0.77665808831789485 0 0.25676291524611189 0.7436741304886243 0 0.2792923945214143 0.77665808831789485 0 0.33123028043633618 0.77629643437932982 0 0.29904318922293632 0.74132814928635593 0 0.33123028043633618 0.77629643437932982 0 0.29904318922293632 0.74132814928635593 0 0.35415581127540569 0.73730480045900215 0 0.30857225866488791 0.81101973481716805 0 0.33123028043633618 0.77629643437932982 0 0.35642984951668422 0.80994399665655703 0 0.33123028043633618 0.77629643437932982 0 0.35642984951668422 0.80994399665655703 0 0.38586766253264881 0.78219501014812498 0 0.33123028043633618 0.77629643437932982 0 0.38586766253264881 0.78219501014812498 0 0.35415581127540569 0.73730480045900215 0 0.38586766253264881 0.78219501014812498 0 0.42676259796334498 0.76772545931379299 0 0.40326160981139969 0.73346192995102844 0 0.38586766253264881 0.78219501014812498 0 0.35415581127540569 0.73730480045900215 0 0.40326160981139969 0.73346192995102844 0 0.38586766253264881 0.78219501014812498 0 0.42609163930740518 0.80361684430568059 0 0.39536230704883951 0.84069429572832477 0 0.35642984951668422 0.80994399665655703 0 0.38586766253264881 0.78219501014812498 0 0.39536230704883951 0.84069429572832477 0 0.38586766253264881 0.78219501014812498 0 0.42609163930740518 0.80361684430568059 0 0.42676259796334498 0.76772545931379299 0 0.42676259796334498 0.76772545931379299 0 0.4656888918609538 0.78493261229743638 0 0.45582236402875981 0.73896743678908217 0 0.4656888918609538 0.78493261229743638 0 0.45582236402875981 0.73896743678908217 0 0.50945740445113552 0.75476055527778108 0 0.4656888918609538 0.78493261229743638 0 0.50731287292894423 0.78963574450233831 0 0.50945740445113552 0.75476055527778108 0 0.4656888918609538 0.78493261229743638 0 0.50627822638148745 0.8263979829520941 0 0.50731287292894423 0.78963574450233831 0 0.42609163930740518 0.80361684430568059 0 0.4656888918609538 0.78493261229743638 0 0.45677673713123867 0.84253684404072415 0 0.42609163930740518 0.80361684430568059 0 0.42676259796334498 0.76772545931379299 0 0.4656888918609538 0.78493261229743638 0 0.4656888918609538 0.78493261229743638 0 0.45677673713123867 0.84253684404072415 0 0.50627822638148745 0.8263979829520941 0 0.45677673713123867 0.84253684404072415 0 0.50202631463681879 0.87892870825713787 0 0.50627822638148745 0.8263979829520941 0 0.45677673713123867 0.84253684404072415 0 0.44003836461056539 0.88093474584252718 0 0.50202631463681879 0.87892870825713787 0 0.45677673713123867 0.84253684404072415 0 0.39536230704883951 0.84069429572832477 0 0.44003836461056539 0.88093474584252718 0 0.39536230704883951 0.84069429572832477 0 0.39767323751400468 0.89584229130535065 0 0.44003836461056539 0.88093474584252718 0 0.42609163930740518 0.80361684430568059 0 0.45677673713123867 0.84253684404072415 0 0.39536230704883951 0.84069429572832477 0 0.35864759629805099 0.87963482415279515 0 0.39536230704883951 0.84069429572832477 0 0.39767323751400468 0.89584229130535065 0 0.35752321586431363 0.9185439911803448 0 0.39767323751400468 0.89584229130535065 0 0.39641108128798319 0.94356127926187128 0 0.39767323751400468 0.89584229130535065 0 0.4367309254023824 0.92065556789053882 0 0.39641108128798319 0.94356127926187128 0 0.39767323751400468 0.89584229130535065 0 0.4367309254023824 0.92065556789053882 0 0.44003836461056539 0.88093474584252718 0 0.4367309254023824 0.92065556789053882 0 0.44003836461056539 0.88093474584252718 0 0.47401147028110507 0.91529957330468115 0 0.44003836461056539 0.88093474584252718 0 0.47401147028110507 0.91529957330468115 0 0.50202631463681879 0.87892870825713787 0 0.47401147028110507 0.91529957330468115 0 0.47135117303824892 0.95556877749289892 0 0.52122150208832174 0.94089974453840242 0 0.47401147028110507 0.91529957330468115 0 0.52122150208832174 0.94089974453840242 0 0.50202631463681879 0.87892870825713787 0 0.4367309254023824 0.92065556789053882 0 0.47401147028110507 0.91529957330468115 0 0.47135117303824892 0.95556877749289892 0 0.4367309254023824 0.92065556789053882 0 0.47135117303824892 0.95556877749289892 0 0.4308986359464303 0.96395712492906194 0 0.47135117303824892 0.95556877749289892 0 0.50000000000205869 1 0 0.52122150208832174 0.94089974453840242 0 0.47135117303824892 0.95556877749289892 0 0.45000000000187229 1 0 0.50000000000205869 1 0 0.47135117303824892 0.95556877749289892 0 0.45000000000187229 1 0 0.4308986359464303 0.96395712492906194 0 0.45000000000187229 1 0 0.4308986359464303 0.96395712492906194 0 0.40000000000166441 1 0 0.4308986359464303 0.96395712492906194 0 0.39641108128798319 0.94356127926187128 0 0.40000000000166441 1 0 0.4367309254023824 0.92065556789053882 0 0.4308986359464303 0.96395712492906194 0 0.39641108128798319 0.94356127926187128 0 0.36184234618600131 0.96443954459096326 0 0.39641108128798319 0.94356127926187128 0 0.40000000000166441 1 0 0.33122374654748771 0.57588941099433744 0 0.31502927232353312 0.6134992213375432 0 0.35765792684946668 0.6000687869219653 0 0.31502927232353312 0.6134992213375432 0 0.35765792684946668 0.6000687869219653 0 0.35864735590330371 0.63903383440414463 0 0.35765792684946668 0.6000687869219653 0 0.35864735590330371 0.63903383440414463 0 0.39743091024207589 0.6239520004230239 0 0.33122374654748771 0.57588941099433744 0 0.35765792684946668 0.6000687869219653 0 0.37272913873093971 0.56192925302619479 0 0.37272913873093971 0.56192925302619479 0 0.33190227185843768 0.52715113583864037 0 0.38244435121258652 0.51653317813019495 0 0.33122374654748771 0.57588941099433744 0 0.37272913873093971 0.56192925302619479 0 0.33190227185843768 0.52715113583864037 0 0.35024835142131061 0.48654922671676981 0 0.33190227185843768 0.52715113583864037 0 0.38244435121258652 0.51653317813019495 0 0.33122374654748771 0.57588941099433744 0 0.33190227185843768 0.52715113583864037 0 0.29110487519241501 0.56588143995431495 0 0.33190227185843768 0.52715113583864037 0 0.28307294598219601 0.50789252727458634 0 0.29110487519241501 0.56588143995431495 0 0.31068898841644388 0.47541502461811092 0 0.33190227185843768 0.52715113583864037 0 0.28307294598219601 0.50789252727458634 0 0.23975172658309729 0.49475499200540818 0 0.28307294598219601 0.50789252727458634 0 0.25115337790845271 0.54719303014923271 0 0.28307294598219601 0.50789252727458634 0 0.25115337790845271 0.54719303014923271 0 0.29110487519241501 0.56588143995431495 0 0.25115337790845271 0.54719303014923271 0 0.29110487519241501 0.56588143995431495 0 0.26573297623774761 0.59828298563722948 0 0.33122374654748771 0.57588941099433744 0 0.31502927232353312 0.6134992213375432 0 0.29110487519241501 0.56588143995431495 0 0.31502927232353312 0.6134992213375432 0 0.29110487519241501 0.56588143995431495 0 0.26573297623774761 0.59828298563722948 0 0.31502927232353312 0.6134992213375432 0 0.26573297623774761 0.59828298563722948 0 0.27820712747429932 0.65530134213254643 0 0.2459498854893499 0.63248470766216769 0 0.26573297623774761 0.59828298563722948 0 0.27820712747429932 0.65530134213254643 0 0.2236846579037573 0.67380363126050236 0 0.27820712747429932 0.65530134213254643 0 0.26439878998046262 0.7048065392091396 0 0.27820712747429932 0.65530134213254643 0 0.31378396441836959 0.70157213313026345 0 0.32263089806001177 0.66003674931826484 0 0.27820712747429932 0.65530134213254643 0 0.26439878998046262 0.7048065392091396 0 0.31378396441836959 0.70157213313026345 0 0.31502927232353312 0.6134992213375432 0 0.27820712747429932 0.65530134213254643 0 0.32263089806001177 0.66003674931826484 0 0.25676291524611189 0.7436741304886243 0 0.26439878998046262 0.7048065392091396 0 0.29904318922293632 0.74132814928635593 0 0.26439878998046262 0.7048065392091396 0 0.29904318922293632 0.74132814928635593 0 0.31378396441836959 0.70157213313026345 0 0.29904318922293632 0.74132814928635593 0 0.31378396441836959 0.70157213313026345 0 0.35415581127540569 0.73730480045900215 0 0.31378396441836959 0.70157213313026345 0 0.36622285152418499 0.69092437780804039 0 0.35415581127540569 0.73730480045900215 0 0.36622285152418499 0.69092437780804039 0 0.35415581127540569 0.73730480045900215 0 0.40326160981139969 0.73346192995102844 0 0.31502927232353312 0.6134992213375432 0 0.32263089806001177 0.66003674931826484 0 0.35864735590330371 0.63903383440414463 0 0.31378396441836959 0.70157213313026345 0 0.36622285152418499 0.69092437780804039 0 0.32263089806001177 0.66003674931826484 0 0.36622285152418499 0.69092437780804039 0 0.32263089806001177 0.66003674931826484 0 0.35864735590330371 0.63903383440414463 0 0.36622285152418499 0.69092437780804039 0 0.35864735590330371 0.63903383440414463 0 0.3977710372045391 0.65868194622830212 0 0.35864735590330371 0.63903383440414463 0 0.3977710372045391 0.65868194622830212 0 0.39743091024207589 0.6239520004230239 0 0.36622285152418499 0.69092437780804039 0 0.3977710372045391 0.65868194622830212 0 0.43323420005758778 0.6913544522562407 0 0.3977710372045391 0.65868194622830212 0 0.43323420005758778 0.6913544522562407 0 0.43846182030517877 0.64845797726506715 0 0.43846182030517877 0.64845797726506715 0 0.43545892161006339 0.61093128915313821 0 0.39743091024207589 0.6239520004230239 0 0.3977710372045391 0.65868194622830212 0 0.43846182030517877 0.64845797726506715 0 0.39743091024207589 0.6239520004230239 0 0.36622285152418499 0.69092437780804039 0 0.40326160981139969 0.73346192995102844 0 0.43323420005758778 0.6913544522562407 0 0.40326160981139969 0.73346192995102844 0 0.43323420005758778 0.6913544522562407 0 0.45582236402875981 0.73896743678908217 0 0.42676259796334498 0.76772545931379299 0 0.40326160981139969 0.73346192995102844 0 0.45582236402875981 0.73896743678908217 0 0.43323420005758778 0.6913544522562407 0 0.45582236402875981 0.73896743678908217 0 0.5 0.69999999999999996 0 0.45582236402875981 0.73896743678908217 0 0.5 0.69999999999999996 0 0.50945740445113552 0.75476055527778108 0 0.43323420005758778 0.6913544522562407 0 0.47913475093885149 0.66010775372412711 0 0.5 0.69999999999999996 0 0.43846182030517877 0.64845797726506715 0 0.47913475093885149 0.66010775372412711 0 0.47095389620662098 0.61892551373708504 0 0.43846182030517877 0.64845797726506715 0 0.47095389620662098 0.61892551373708504 0 0.43545892161006339 0.61093128915313821 0 0.43323420005758778 0.6913544522562407 0 0.43846182030517877 0.64845797726506715 0 0.47913475093885149 0.66010775372412711 0 0.47913475093885149 0.66010775372412711 0 0.47095389620662098 0.61892551373708504 0 0.50715858906372158 0.63295939104129484 0 0.47095389620662098 0.61892551373708504 0 0.5166924242153631 0.59825134841919447 0 0.50715858906372158 0.63295939104129484 0 0.47095389620662098 0.61892551373708504 0 0.46666084890304671 0.57634471035397938 0 0.5166924242153631 0.59825134841919447 0 0.47095389620662098 0.61892551373708504 0 0.46666084890304671 0.57634471035397938 0 0.43545892161006339 0.61093128915313821 0 0.43545892161006339 0.61093128915313821 0 0.4089290844030305 0.58728915500154233 0 0.39743091024207589 0.6239520004230239 0 0.46666084890304671 0.57634471035397938 0 0.43545892161006339 0.61093128915313821 0 0.4089290844030305 0.58728915500154233 0 0.46666084890304671 0.57634471035397938 0 0.4089290844030305 0.58728915500154233 0 0.42644501560315817 0.54603747078095544 0 0.37272913873093971 0.56192925302619479 0 0.4089290844030305 0.58728915500154233 0 0.42644501560315817 0.54603747078095544 0 0.35765792684946668 0.6000687869219653 0 0.37272913873093971 0.56192925302619479 0 0.4089290844030305 0.58728915500154233 0 0.35765792684946668 0.6000687869219653 0 0.4089290844030305 0.58728915500154233 0 0.39743091024207589 0.6239520004230239 0 0.37272913873093971 0.56192925302619479 0 0.38244435121258652 0.51653317813019495 0 0.42644501560315817 0.54603747078095544 0 0.43507373378304309 0.49699695397193322 0 0.38244435121258652 0.51653317813019495 0 0.42644501560315817 0.54603747078095544 0 0.46666084890304671 0.57634471035397938 0 0.47793794143994173 0.52940715638744962 0 0.53245488764484505 0.55078124999999989 0 0.43507373378304309 0.49699695397193322 0 0.49102375406324739 0.49123754822244059 0 0.47793794143994173 0.52940715638744962 0 0.43507373378304309 0.49699695397193322 0 0.42644501560315817 0.54603747078095544 0 0.47793794143994173 0.52940715638744962 0 0.46666084890304671 0.57634471035397938 0 0.42644501560315817 0.54603747078095544 0 0.47793794143994173 0.52940715638744962 0 0.49102375406324739 0.49123754822244059 0 0.47793794143994173 0.52940715638744962 0 0.53330375813596242 0.50827942741749099 0 0.47793794143994173 0.52940715638744962 0 0.53245488764484505 0.55078124999999989 0 0.53330375813596242 0.50827942741749099 0 0.53245488764484505 0.55078124999999989 0 0.53330375813596242 0.50827942741749099 0 0.57435499076887508 0.54267261987897775 0 0.53245488764484505 0.55078124999999989 0 0.57435499076887508 0.54267261987897775 0 0.57412547362576272 0.58273804879550706 0 0.53330375813596242 0.50827942741749099 0 0.57611405284611883 0.50165903596042916 0 0.57435499076887508 0.54267261987897775 0 0.57611405284611883 0.50165903596042916 0 0.57435499076887508 0.54267261987897775 0 0.62042975506801734 0.54295974692364424 0 0.57435499076887508 0.54267261987897775 0 0.62042975506801734 0.54295974692364424 0 0.57412547362576272 0.58273804879550706 0 0.57611405284611883 0.50165903596042916 0 0.62042975506801734 0.54295974692364424 0 0.61547661924074692 0.48539576058873962 0 0.5991018319127801 0.62925360607495295 0 0.6405463747586706 0.63290524857395714 0 0.63065402604362242 0.59661356661633302 0 0.57412547362576272 0.58273804879550706 0 0.5991018319127801 0.62925360607495295 0 0.63065402604362242 0.59661356661633302 0 0.62042975506801734 0.54295974692364424 0 0.57412547362576272 0.58273804879550706 0 0.63065402604362242 0.59661356661633302 0 0.57412547362576272 0.58273804879550706 0 0.5498280205245758 0.6290146943450976 0 0.5991018319127801 0.62925360607495295 0 0.46666084890304671 0.57634471035397938 0 0.53245488764484505 0.55078124999999989 0 0.5166924242153631 0.59825134841919447 0 0.57412547362576272 0.58273804879550706 0 0.5166924242153631 0.59825134841919447 0 0.5498280205245758 0.6290146943450976 0 0.53245488764484505 0.55078124999999989 0 0.57412547362576272 0.58273804879550706 0 0.5166924242153631 0.59825134841919447 0 0.5166924242153631 0.59825134841919447 0 0.50715858906372158 0.63295939104129484 0 0.5498280205245758 0.6290146943450976 0 0.47913475093885149 0.66010775372412711 0 0.50715858906372158 0.63295939104129484 0 0.52584555706968406 0.66664215091846768 0 0.50715858906372158 0.63295939104129484 0 0.52584555706968406 0.66664215091846768 0 0.5498280205245758 0.6290146943450976 0 0.47913475093885149 0.66010775372412711 0 0.52584555706968406 0.66664215091846768 0 0.5 0.69999999999999996 0 0.52584555706968406 0.66664215091846768 0 0.54999999999999993 0.69999999999999996 0 0.57484956128872922 0.66573805030881994 0 0.52584555706968406 0.66664215091846768 0 0.5498280205245758 0.6290146943450976 0 0.57484956128872922 0.66573805030881994 0 0.5 0.69999999999999996 0 0.55363780716230748 0.74348740161571747 0 0.50945740445113552 0.75476055527778108 0 0.52584555706968406 0.66664215091846768 0 0.5 0.69999999999999996 0 0.54999999999999993 0.69999999999999996 0 0.5 0.69999999999999996 0 0.54999999999999993 0.69999999999999996 0 0.5 0.69999999999999996 0 0.54999999999999993 0.69999999999999996 0 0.55363780716230748 0.74348740161571747 0 0.55363780716230748 0.74348740161571747 0 0.59999999999999976 0.69999999999999996 0 0.59636844454254345 0.75937156204589151 0 0.54999999999999993 0.69999999999999996 0 0.59999999999999976 0.69999999999999996 0 0.54999999999999993 0.69999999999999996 0 0.59999999999999976 0.69999999999999996 0 0.57484956128872922 0.66573805030881994 0 0.54999999999999993 0.69999999999999996 0 0.55363780716230748 0.74348740161571747 0 0.59999999999999976 0.69999999999999996 0 0.59999999999999976 0.69999999999999996 0 0.6499999999999998 0.69999999999999996 0 0.59999999999999976 0.69999999999999996 0 0.62460753523532009 0.66851202781000296 0 0.6499999999999998 0.69999999999999996 0 0.59999999999999976 0.69999999999999996 0 0.63221990677827677 0.73442891067859706 0 0.59636844454254345 0.75937156204589151 0 0.5498280205245758 0.6290146943450976 0 0.57484956128872922 0.66573805030881994 0 0.5991018319127801 0.62925360607495295 0 0.59999999999999976 0.69999999999999996 0 0.57484956128872922 0.66573805030881994 0 0.62460753523532009 0.66851202781000296 0 0.57484956128872922 0.66573805030881994 0 0.62460753523532009 0.66851202781000296 0 0.5991018319127801 0.62925360607495295 0 0.62460753523532009 0.66851202781000296 0 0.5991018319127801 0.62925360607495295 0 0.6405463747586706 0.63290524857395714 0 0.62460753523532009 0.66851202781000296 0 0.6405463747586706 0.63290524857395714 0 0.675261390228442 0.65996937624687813 0 0.62460753523532009 0.66851202781000296 0 0.675261390228442 0.65996937624687813 0 0.6499999999999998 0.69999999999999996 0 0.675261390228442 0.65996937624687813 0 0.6499999999999998 0.69999999999999996 0 0.69999999999999984 0.69999999999999996 0 0.6405463747586706 0.63290524857395714 0 0.675261390228442 0.65996937624687813 0 0.67529834988829951 0.61613270668143583 0 0.63221990677827677 0.73442891067859706 0 0.66427993341343905 0.73232764502436276 0 0.64753070846764316 0.77332939069435502 0 0.63221990677827677 0.73442891067859706 0 0.6499999999999998 0.69999999999999996 0 0.66427993341343905 0.73232764502436276 0 0.59999999999999976 0.69999999999999996 0 0.63221990677827677 0.73442891067859706 0 0.6499999999999998 0.69999999999999996 0 0.6499999999999998 0.69999999999999996 0 0.69999999999999984 0.69999999999999996 0 0.6499999999999998 0.69999999999999996 0 0.66427993341343905 0.73232764502436276 0 0.69999999999999984 0.69999999999999996 0 0.66427993341343905 0.73232764502436276 0 0.69999999999999984 0.69999999999999996 0 0.6916490518212759 0.75387992374886192 0 0.69999999999999984 0.69999999999999996 0 0.72501250972655151 0.74067302935308721 0 0.6916490518212759 0.75387992374886192 0 0.69999999999999984 0.69999999999999996 0 0.74999999999999989 0.69999999999999996 0 0.72501250972655151 0.74067302935308721 0 0.69999999999999984 0.69999999999999996 0 0.74999999999999989 0.69999999999999996 0 0.72500000000000064 0.67022701834392062 0 0.69999999999999984 0.69999999999999996 0 0.74999999999999989 0.69999999999999996 0 0.74999999999999989 0.69999999999999996 0 0.72501250972655151 0.74067302935308721 0 0.75841349681148107 0.75422312624214749 0 0.675261390228442 0.65996937624687813 0 0.71406021706547751 0.63292083137662503 0 0.72500000000000064 0.67022701834392062 0 0.675261390228442 0.65996937624687813 0 0.71406021706547751 0.63292083137662503 0 0.67529834988829951 0.61613270668143583 0 0.675261390228442 0.65996937624687813 0 0.69999999999999984 0.69999999999999996 0 0.72500000000000064 0.67022701834392062 0 0.71406021706547751 0.63292083137662503 0 0.72500000000000064 0.67022701834392062 0 0.74994237037456724 0.62775548192980357 0 0.72500000000000064 0.67022701834392062 0 0.74994237037456724 0.62775548192980357 0 0.7750489929959945 0.66593931409600093 0 0.71406021706547751 0.63292083137662503 0 0.74994237037456724 0.62775548192980357 0 0.71809016091162536 0.58185040402320831 0 0.74994237037456724 0.62775548192980357 0 0.71809016091162536 0.58185040402320831 0 0.77293540622714185 0.59448302402785813 0 0.71406021706547751 0.63292083137662503 0 0.71809016091162536 0.58185040402320831 0 0.67529834988829951 0.61613270668143583 0 0.71809016091162536 0.58185040402320831 0 0.67569444444444449 0.53500863336860327 0 0.67323294229744413 0.57556450033612505 0 0.71809016091162536 0.58185040402320831 0 0.67529834988829951 0.61613270668143583 0 0.67323294229744413 0.57556450033612505 0 0.71809016091162536 0.58185040402320831 0 0.7152569930854884 0.5237994455134295 0 0.77151014687832564 0.54436834383023036 0 0.7152569930854884 0.5237994455134295 0 0.77151014687832564 0.54436834383023036 0 0.73947346780852752 0.49062440112282169 0 0.7152569930854884 0.5237994455134295 0 0.67569444444444449 0.53500863336860327 0 0.69385896817107129 0.48377516041410151 0 0.71809016091162536 0.58185040402320831 0 0.7152569930854884 0.5237994455134295 0 0.67569444444444449 0.53500863336860327 0 0.62042975506801734 0.54295974692364424 0 0.67569444444444449 0.53500863336860327 0 0.67323294229744413 0.57556450033612505 0 0.67569444444444449 0.53500863336860327 0 0.6541250972820879 0.49999999999999989 0 0.69385896817107129 0.48377516041410151 0 0.62042975506801734 0.54295974692364424 0 0.67569444444444449 0.53500863336860327 0 0.6541250972820879 0.49999999999999989 0 0.62042975506801734 0.54295974692364424 0 0.61547661924074692 0.48539576058873962 0 0.6541250972820879 0.49999999999999989 0 0.62042975506801734 0.54295974692364424 0 0.63065402604362242 0.59661356661633302 0 0.67323294229744413 0.57556450033612505 0 0.6405463747586706 0.63290524857395714 0 0.63065402604362242 0.59661356661633302 0 0.67529834988829951 0.61613270668143583 0 0.63065402604362242 0.59661356661633302 0 0.67529834988829951 0.61613270668143583 0 0.67323294229744413 0.57556450033612505 0 0.60000000000138687 1 0 0.62065498684670595 0.95224934003983619 0 0.57382506491224949 0.9629411906298494 0 0.60000000000138687 1 0 0.62065498684670595 0.95224934003983619 0 0.65000000000104008 1 0 0.62065498684670595 0.95224934003983619 0 0.57382506491224949 0.9629411906298494 0 0.57724883562309992 0.92155686857100794 0 0.60000000000138687 1 0 0.57382506491224949 0.9629411906298494 0 0.55000000000173355 1 0 0.55000000000173355 1 0 0.50000000000205869 1 0 0.52122150208832174 0.94089974453840242 0 0.57382506491224949 0.9629411906298494 0 0.52122150208832174 0.94089974453840242 0 0.57724883562309992 0.92155686857100794 0 0.57382506491224949 0.9629411906298494 0 0.55000000000173355 1 0 0.52122150208832174 0.94089974453840242 0 0.52122150208832174 0.94089974453840242 0 0.54783390826260769 0.89287767010860219 0 0.57724883562309992 0.92155686857100794 0 0.52122150208832174 0.94089974453840242 0 0.50202631463681879 0.87892870825713787 0 0.54783390826260769 0.89287767010860219 0 0.54783390826260769 0.89287767010860219 0 0.5832743223239254 0.88483152652961872 0 0.55899371797446828 0.85003102233514438 0 0.54783390826260769 0.89287767010860219 0 0.5832743223239254 0.88483152652961872 0 0.57724883562309992 0.92155686857100794 0 0.5832743223239254 0.88483152652961872 0 0.57724883562309992 0.92155686857100794 0 0.61885627562261258 0.90282959257498208 0 0.62065498684670595 0.95224934003983619 0 0.57724883562309992 0.92155686857100794 0 0.61885627562261258 0.90282959257498208 0 0.5832743223239254 0.88483152652961872 0 0.61885627562261258 0.90282959257498208 0 0.61343887413683884 0.856862479058357 0 0.61343887413683884 0.856862479058357 0 0.60294066490120068 0.80851322453934582 0 0.65005442820240822 0.82644988530054031 0 0.61343887413683884 0.856862479058357 0 0.55899371797446828 0.85003102233514438 0 0.60294066490120068 0.80851322453934582 0 0.55899371797446828 0.85003102233514438 0 0.54782696902220018 0.79245182748204157 0 0.60294066490120068 0.80851322453934582 0 0.5832743223239254 0.88483152652961872 0 0.61343887413683884 0.856862479058357 0 0.55899371797446828 0.85003102233514438 0 0.50202631463681879 0.87892870825713787 0 0.54783390826260769 0.89287767010860219 0 0.55899371797446828 0.85003102233514438 0 0.50202631463681879 0.87892870825713787 0 0.55899371797446828 0.85003102233514438 0 0.50627822638148745 0.8263979829520941 0 0.55899371797446828 0.85003102233514438 0 0.50627822638148745 0.8263979829520941 0 0.54782696902220018 0.79245182748204157 0 0.50627822638148745 0.8263979829520941 0 0.54782696902220018 0.79245182748204157 0 0.50731287292894423 0.78963574450233831 0 0.54782696902220018 0.79245182748204157 0 0.50731287292894423 0.78963574450233831 0 0.50945740445113552 0.75476055527778108 0 0.55363780716230748 0.74348740161571747 0 0.54782696902220018 0.79245182748204157 0 0.50945740445113552 0.75476055527778108 0 0.55363780716230748 0.74348740161571747 0 0.54782696902220018 0.79245182748204157 0 0.59636844454254345 0.75937156204589151 0 0.54782696902220018 0.79245182748204157 0 0.60294066490120068 0.80851322453934582 0 0.59636844454254345 0.75937156204589151 0 0.60294066490120068 0.80851322453934582 0 0.59636844454254345 0.75937156204589151 0 0.64753070846764316 0.77332939069435502 0 0.63221990677827677 0.73442891067859706 0 0.59636844454254345 0.75937156204589151 0 0.64753070846764316 0.77332939069435502 0 0.60294066490120068 0.80851322453934582 0 0.64753070846764316 0.77332939069435502 0 0.65005442820240822 0.82644988530054031 0 0.64753070846764316 0.77332939069435502 0 0.68024162096458085 0.79868546898116533 0 0.65005442820240822 0.82644988530054031 0 0.64753070846764316 0.77332939069435502 0 0.68024162096458085 0.79868546898116533 0 0.6916490518212759 0.75387992374886192 0 0.66427993341343905 0.73232764502436276 0 0.64753070846764316 0.77332939069435502 0 0.6916490518212759 0.75387992374886192 0 0.72501250972655151 0.74067302935308721 0 0.6916490518212759 0.75387992374886192 0 0.72500000000000064 0.7952620967744265 0 0.72501250972655151 0.74067302935308721 0 0.72500000000000064 0.7952620967744265 0 0.75841349681148107 0.75422312624214749 0 0.68024162096458085 0.79868546898116533 0 0.6916490518212759 0.75387992374886192 0 0.72500000000000064 0.7952620967744265 0 0.68024162096458085 0.79868546898116533 0 0.72500000000000064 0.7952620967744265 0 0.68697391633157634 0.84450604838764298 0 0.72500000000000064 0.7952620967744265 0 0.72863726579783861 0.85390518901155588 0 0.68697391633157634 0.84450604838764298 0 0.72500000000000064 0.7952620967744265 0 0.72863726579783861 0.85390518901155588 0 0.76901770135486491 0.84293557325473656 0 0.72863726579783861 0.85390518901155588 0 0.68697391633157634 0.84450604838764298 0 0.7250000000005199 0.89375000000045834 0 0.68697391633157634 0.84450604838764298 0 0.66412543161245952 0.88015090885499059 0 0.7250000000005199 0.89375000000045834 0 0.68697391633157634 0.84450604838764298 0 0.65005442820240822 0.82644988530054031 0 0.66412543161245952 0.88015090885499059 0 0.68024162096458085 0.79868546898116533 0 0.68697391633157634 0.84450604838764298 0 0.65005442820240822 0.82644988530054031 0 0.61343887413683884 0.856862479058357 0 0.65005442820240822 0.82644988530054031 0 0.66412543161245952 0.88015090885499059 0 0.61885627562261258 0.90282959257498208 0 0.61343887413683884 0.856862479058357 0 0.66412543161245952 0.88015090885499059 0 0.61885627562261258 0.90282959257498208 0 0.65507451745379841 0.92229208810758578 0 0.66412543161245952 0.88015090885499059 0 0.62065498684670595 0.95224934003983619 0 0.61885627562261258 0.90282959257498208 0 0.65507451745379841 0.92229208810758578 0 0.65507451745379841 0.92229208810758578 0 0.68987011941058407 0.92105047536677087 0 0.68015064798562208 0.95924320340003011 0 0.65507451745379841 0.92229208810758578 0 0.66412543161245952 0.88015090885499059 0 0.68987011941058407 0.92105047536677087 0 0.66412543161245952 0.88015090885499059 0 0.7250000000005199 0.89375000000045834 0 0.68987011941058407 0.92105047536677087 0 0.72863726579783861 0.85390518901155588 0 0.7250000000005199 0.89375000000045834 0 0.76891166905518427 0.88835469571185499 0 0.7250000000005199 0.89375000000045834 0 0.7250000000005199 0.94981617647078953 0 0.75729602384198635 0.92353652857884294 0 0.7250000000005199 0.89375000000045834 0 0.68987011941058407 0.92105047536677087 0 0.7250000000005199 0.94981617647078953 0 0.68987011941058407 0.92105047536677087 0 0.7250000000005199 0.94981617647078953 0 0.68015064798562208 0.95924320340003011 0 0.7250000000005199 0.94981617647078953 0 0.7000000000006934 1 0 0.75000000000034661 1 0 0.7250000000005199 0.94981617647078953 0 0.75000000000034661 1 0 0.770759834363826 0.95919399014344442 0 0.7250000000005199 0.94981617647078953 0 0.7000000000006934 1 0 0.68015064798562208 0.95924320340003011 0 0.7000000000006934 1 0 0.68015064798562208 0.95924320340003011 0 0.65000000000104008 1 0 0.62065498684670595 0.95224934003983619 0 0.65507451745379841 0.92229208810758578 0 0.68015064798562208 0.95924320340003011 0 0.62065498684670595 0.95224934003983619 0 0.68015064798562208 0.95924320340003011 0 0.65000000000104008 1 0 0.84999999999965292 1 0 0.85170973911348691 0.93569607295217616 0 0.89898474358632463 0.95391965591118966 0 0.84999999999965292 1 0 0.81486180804382891 0.96321394949790495 0 0.85170973911348691 0.93569607295217616 0 0.81486180804382891 0.96321394949790495 0 0.79680861578988083 0.92656778056766709 0 0.85170973911348691 0.93569607295217616 0 0.84999999999965292 1 0 0.81486180804382891 0.96321394949790495 0 0.79999999999999982 1 0 0.81486180804382891 0.96321394949790495 0 0.79999999999999982 1 0 0.770759834363826 0.95919399014344442 0 0.79999999999999982 1 0 0.75000000000034661 1 0 0.770759834363826 0.95919399014344442 0 0.7250000000005199 0.94981617647078953 0 0.770759834363826 0.95919399014344442 0 0.75729602384198635 0.92353652857884294 0 0.81486180804382891 0.96321394949790495 0 0.770759834363826 0.95919399014344442 0 0.79680861578988083 0.92656778056766709 0 0.79680861578988083 0.92656778056766709 0 0.75729602384198635 0.92353652857884294 0 0.76891166905518427 0.88835469571185499 0 0.770759834363826 0.95919399014344442 0 0.79680861578988083 0.92656778056766709 0 0.75729602384198635 0.92353652857884294 0 0.7250000000005199 0.89375000000045834 0 0.75729602384198635 0.92353652857884294 0 0.76891166905518427 0.88835469571185499 0 0.79680861578988083 0.92656778056766709 0 0.76891166905518427 0.88835469571185499 0 0.81159157511211755 0.88795995483179491 0 0.81159157511211755 0.88795995483179491 0 0.85170973911348691 0.93569607295217616 0 0.85600844944837662 0.88483418979512773 0 0.79680861578988083 0.92656778056766709 0 0.81159157511211755 0.88795995483179491 0 0.85170973911348691 0.93569607295217616 0 0.85170973911348691 0.93569607295217616 0 0.85600844944837662 0.88483418979512773 0 0.90416666666660628 0.9041666666666166 0 0.85600844944837662 0.88483418979512773 0 0.82709327591091286 0.84937141670920724 0 0.88088768115933802 0.84674609810493673 0 0.82709327591091286 0.84937141670920724 0 0.84725310900444062 0.80779732082917555 0 0.88088768115933802 0.84674609810493673 0 0.82709327591091286 0.84937141670920724 0 0.80041942726660109 0.81543261647703358 0 0.84725310900444062 0.80779732082917555 0 0.81159157511211755 0.88795995483179491 0 0.85600844944837662 0.88483418979512773 0 0.82709327591091286 0.84937141670920724 0 0.76891166905518427 0.88835469571185499 0 0.81159157511211755 0.88795995483179491 0 0.76901770135486491 0.84293557325473656 0 0.81159157511211755 0.88795995483179491 0 0.82709327591091286 0.84937141670920724 0 0.76901770135486491 0.84293557325473656 0 0.72863726579783861 0.85390518901155588 0 0.76891166905518427 0.88835469571185499 0 0.76901770135486491 0.84293557325473656 0 0.76901770135486491 0.84293557325473656 0 0.80041942726660109 0.81543261647703358 0 0.77094201086366854 0.79647480515688507 0 0.82709327591091286 0.84937141670920724 0 0.76901770135486491 0.84293557325473656 0 0.80041942726660109 0.81543261647703358 0 0.80041942726660109 0.81543261647703358 0 0.77094201086366854 0.79647480515688507 0 0.80185942888539485 0.77452061303608133 0 0.72500000000000064 0.7952620967744265 0 0.77094201086366854 0.79647480515688507 0 0.75841349681148107 0.75422312624214749 0 0.72500000000000064 0.7952620967744265 0 0.76901770135486491 0.84293557325473656 0 0.77094201086366854 0.79647480515688507 0 0.77094201086366854 0.79647480515688507 0 0.75841349681148107 0.75422312624214749 0 0.80185942888539485 0.77452061303608133 0 0.75841349681148107 0.75422312624214749 0 0.80185942888539485 0.77452061303608133 0 0.78578450296893509 0.73292684821144505 0 0.80185942888539485 0.77452061303608133 0 0.84725310900444062 0.80779732082917555 0 0.85491058998424563 0.76004753345552634 0 0.80185942888539485 0.77452061303608133 0 0.85491058998424563 0.76004753345552634 0 0.81864958914779962 0.73589050177899629 0 0.80041942726660109 0.81543261647703358 0 0.80185942888539485 0.77452061303608133 0 0.84725310900444062 0.80779732082917555 0 0.84725310900444062 0.80779732082917555 0 0.85491058998424563 0.76004753345552634 0 0.90299850604011456 0.79563452813489832 0 0.85491058998424563 0.76004753345552634 0 0.90299850604011456 0.79563452813489832 0 0.89999166460796554 0.74528934923809909 0 0.90299850604011456 0.79563452813489832 0 0.94399509803918602 0.75600490196082126 0 0.95386563387742829 0.80414874155775029 0 0.90299850604011456 0.79563452813489832 0 0.94399509803918602 0.75600490196082126 0 0.89999166460796554 0.74528934923809909 0 0.94399509803918602 0.75600490196082126 0 0.97435614836745565 0.77499999999987745 0 0.95386563387742829 0.80414874155775029 0 0.94399509803918602 0.75600490196082126 0 0.97435614836745565 0.77499999999987745 0 0.97166519676947294 0.73337114490064459 0 0.97435614836745565 0.77499999999987745 0 0.97166519676947294 0.73337114490064459 0 1 0.74999999999993494 0 0.97435614836745565 0.77499999999987745 0 1 0.7999999999998193 0 1 0.74999999999993494 0 0.97435614836745565 0.77499999999987745 0 1 0.7999999999998193 0 0.95386563387742829 0.80414874155775029 0 1 0.84999999999982645 0 0.93677536231884972 0.85000000000000286 0 0.95391631417670719 0.89584263333814784 0 0.95386563387742829 0.80414874155775029 0 1 0.84999999999982645 0 0.93677536231884972 0.85000000000000286 0 1 0.7999999999998193 0 0.95386563387742829 0.80414874155775029 0 1 0.84999999999982645 0 0.93677536231884972 0.85000000000000286 0 0.88088768115933802 0.84674609810493673 0 0.90416666666660628 0.9041666666666166 0 0.90299850604011456 0.79563452813489832 0 0.95386563387742829 0.80414874155775029 0 0.93677536231884972 0.85000000000000286 0 0.90299850604011456 0.79563452813489832 0 0.93677536231884972 0.85000000000000286 0 0.88088768115933802 0.84674609810493673 0 0.84725310900444062 0.80779732082917555 0 0.90299850604011456 0.79563452813489832 0 0.88088768115933802 0.84674609810493673 0 0.85600844944837662 0.88483418979512773 0 0.88088768115933802 0.84674609810493673 0 0.90416666666660628 0.9041666666666166 0 0.85170973911348691 0.93569607295217616 0 0.90416666666660628 0.9041666666666166 0 0.89898474358632463 0.95391965591118966 0 0.90416666666660628 0.9041666666666166 0 0.95391631417670719 0.89584263333814784 0 0.94399509803919068 0.9439950980391687 0 0.90416666666660628 0.9041666666666166 0 0.94399509803919068 0.9439950980391687 0 0.89898474358632463 0.95391965591118966 0 0.93677536231884972 0.85000000000000286 0 0.90416666666660628 0.9041666666666166 0 0.95391631417670719 0.89584263333814784 0 1 0.84999999999982645 0 0.95391631417670719 0.89584263333814784 0 1 0.8999999999998336 0 1 0.8999999999998336 0 0.97435614836744289 0.92499999999990257 0 1 0.94999999999997109 0 0.95391631417670719 0.89584263333814784 0 1 0.8999999999998336 0 0.97435614836744289 0.92499999999990257 0 0.95391631417670719 0.89584263333814784 0 0.97435614836744289 0.92499999999990257 0 0.94399509803919068 0.9439950980391687 0 0.97435614836744289 0.92499999999990257 0 0.94399509803919068 0.9439950980391687 0 0.97166519676946206 0.96662885509935492 0 0.97435614836744289 0.92499999999990257 0 0.97166519676946206 0.96662885509935492 0 1 0.94999999999997109 0 0.97166519676946206 0.96662885509935492 0 1 0.94999999999997109 0 1 1 0 0.97166519676946206 0.96662885509935492 0 1 1 0 0.94999999999979179 1 0 0.94399509803919068 0.9439950980391687 0 0.97166519676946206 0.96662885509935492 0 0.94999999999979179 1 0 0.94999999999979179 1 0 0.89898474358632463 0.95391965591118966 0 0.89999999999958358 1 0 0.94399509803919068 0.9439950980391687 0 0.94999999999979179 1 0 0.89898474358632463 0.95391965591118966 0 0.84999999999965292 1 0 0.89898474358632463 0.95391965591118966 0 0.89999999999958358 1 0 0.81723410853263523 0.59419663659258926 0 0.86956835336234861 0.571283299838105 0 0.82862096804812391 0.55037090955459045 0 0.81723410853263523 0.59419663659258926 0 0.87159648282691515 0.61285406320581504 0 0.83758014339878906 0.63222013025741819 0 0.81723410853263523 0.59419663659258926 0 0.79884539758237771 0.62875045078114233 0 0.83758014339878906 0.63222013025741819 0 0.81723410853263523 0.59419663659258926 0 0.87159648282691515 0.61285406320581504 0 0.86956835336234861 0.571283299838105 0 0.86956835336234861 0.571283299838105 0 0.86907294890112186 0.52008116128001669 0 0.82862096804812391 0.55037090955459045 0 0.86907294890112186 0.52008116128001669 0 0.81441713509985358 0.51161854125224959 0 0.82862096804812391 0.55037090955459045 0 0.86907294890112186 0.52008116128001669 0 0.81441713509985358 0.51161854125224959 0 0.84723782639812573 0.48638347960178252 0 0.81441713509985358 0.51161854125224959 0 0.82862096804812391 0.55037090955459045 0 0.77151014687832564 0.54436834383023036 0 0.81441713509985358 0.51161854125224959 0 0.77151014687832564 0.54436834383023036 0 0.77846603114747959 0.49850927265137401 0 0.77151014687832564 0.54436834383023036 0 0.77846603114747959 0.49850927265137401 0 0.73947346780852752 0.49062440112282169 0 0.71809016091162536 0.58185040402320831 0 0.77151014687832564 0.54436834383023036 0 0.77293540622714185 0.59448302402785813 0 0.81723410853263523 0.59419663659258926 0 0.77151014687832564 0.54436834383023036 0 0.77293540622714185 0.59448302402785813 0 0.81723410853263523 0.59419663659258926 0 0.82862096804812391 0.55037090955459045 0 0.77151014687832564 0.54436834383023036 0 0.81723410853263523 0.59419663659258926 0 0.77293540622714185 0.59448302402785813 0 0.79884539758237771 0.62875045078114233 0 0.74994237037456724 0.62775548192980357 0 0.77293540622714185 0.59448302402785813 0 0.79884539758237771 0.62875045078114233 0 0.74994237037456724 0.62775548192980357 0 0.7750489929959945 0.66593931409600093 0 0.79884539758237771 0.62875045078114233 0 0.74999999999999989 0.69999999999999996 0 0.72500000000000064 0.67022701834392062 0 0.7750489929959945 0.66593931409600093 0 0.7750489929959945 0.66593931409600093 0 0.79999999999999982 0.69999999999999996 0 0.82457059160610424 0.66831947184359608 0 0.7750489929959945 0.66593931409600093 0 0.79884539758237771 0.62875045078114233 0 0.82457059160610424 0.66831947184359608 0 0.74999999999999989 0.69999999999999996 0 0.75841349681148107 0.75422312624214749 0 0.78578450296893509 0.73292684821144505 0 0.74999999999999989 0.69999999999999996 0 0.79999999999999982 0.69999999999999996 0 0.78578450296893509 0.73292684821144505 0 0.74999999999999989 0.69999999999999996 0 0.7750489929959945 0.66593931409600093 0 0.79999999999999982 0.69999999999999996 0 0.74999999999999989 0.69999999999999996 0 0.79999999999999982 0.69999999999999996 0 0.80185942888539485 0.77452061303608133 0 0.78578450296893509 0.73292684821144505 0 0.81864958914779962 0.73589050177899629 0 0.79999999999999982 0.69999999999999996 0 0.78578450296893509 0.73292684821144505 0 0.81864958914779962 0.73589050177899629 0 0.85491058998424563 0.76004753345552634 0 0.81864958914779962 0.73589050177899629 0 0.84999999999999987 0.69999999999999996 0 0.79999999999999982 0.69999999999999996 0 0.84999999999999987 0.69999999999999996 0 0.79999999999999982 0.69999999999999996 0 0.84999999999999987 0.69999999999999996 0 0.82457059160610424 0.66831947184359608 0 0.79999999999999982 0.69999999999999996 0 0.81864958914779962 0.73589050177899629 0 0.84999999999999987 0.69999999999999996 0 0.84999999999999987 0.69999999999999996 0 0.89999999999999991 0.69999999999999996 0 0.85491058998424563 0.76004753345552634 0 0.84999999999999987 0.69999999999999996 0 0.89999166460796554 0.74528934923809909 0 0.79884539758237771 0.62875045078114233 0 0.83758014339878906 0.63222013025741819 0 0.82457059160610424 0.66831947184359608 0 0.84999999999999987 0.69999999999999996 0 0.82457059160610424 0.66831947184359608 0 0.87712158428786946 0.65709029563313581 0 0.87159648282691515 0.61285406320581504 0 0.83758014339878906 0.63222013025741819 0 0.87712158428786946 0.65709029563313581 0 0.83758014339878906 0.63222013025741819 0 0.82457059160610424 0.66831947184359608 0 0.87712158428786946 0.65709029563313581 0 0.87712158428786946 0.65709029563313581 0 0.92057473616084773 0.66770436535372446 0 0.91750694127105259 0.63017627779935648 0 0.87159648282691515 0.61285406320581504 0 0.87712158428786946 0.65709029563313581 0 0.91750694127105259 0.63017627779935648 0 0.84999999999999987 0.69999999999999996 0 0.87712158428786946 0.65709029563313581 0 0.89999999999999991 0.69999999999999996 0 0.87712158428786946 0.65709029563313581 0 0.92057473616084773 0.66770436535372446 0 0.89999999999999991 0.69999999999999996 0 0.92057473616084773 0.66770436535372446 0 0.91750694127105259 0.63017627779935648 0 0.9578014258160763 0.65787212321113708 0 0.84999999999999987 0.69999999999999996 0 0.89999166460796554 0.74528934923809909 0 0.89999999999999991 0.69999999999999996 0 0.89999999999999991 0.69999999999999996 0 0.94999999999999996 0.69999999999999996 0 0.92057473616084773 0.66770436535372446 0 0.89999999999999991 0.69999999999999996 0 0.94999999999999996 0.69999999999999996 0 0.89999166460796554 0.74528934923809909 0 0.89999999999999991 0.69999999999999996 0 0.94999999999999996 0.69999999999999996 0 0.94399509803918602 0.75600490196082126 0 0.89999166460796554 0.74528934923809909 0 0.94999999999999996 0.69999999999999996 0 0.94399509803918602 0.75600490196082126 0 0.94999999999999996 0.69999999999999996 0 0.97166519676947294 0.73337114490064459 0 0.94999999999999996 0.69999999999999996 0 1 0.69999999999999996 0 0.94999999999999996 0.69999999999999996 0 1 0.69999999999999996 0 0.97166519676947294 0.73337114490064459 0 1 0.69999999999999996 0 0.97166519676947294 0.73337114490064459 0 1 0.74999999999993494 0 0.91750694127105259 0.63017627779935648 0 0.9578014258160763 0.65787212321113708 0 0.95867599106212187 0.60011091146651041 0 0.92057473616084773 0.66770436535372446 0 0.94999999999999996 0.69999999999999996 0 0.9578014258160763 0.65787212321113708 0 0.94999999999999996 0.69999999999999996 0 1 0.69999999999999996 0 0.9578014258160763 0.65787212321113708 0 1 0.69999999999999996 0 0.9578014258160763 0.65787212321113708 0 1 0.64999999999986979 0 0.9578014258160763 0.65787212321113708 0 1 0.64999999999986979 0 0.95867599106212187 0.60011091146651041 0 0.95867599106212187 0.60011091146651041 0 0.93732437411268477 0.55911392101136159 0 1 0.54999999999963112 0 1 0.64999999999986979 0 1 0.59999999999973963 0 0.95867599106212187 0.60011091146651041 0 1 0.59999999999973963 0 0.95867599106212187 0.60011091146651041 0 1 0.54999999999963112 0 0.91750694127105259 0.63017627779935648 0 0.95867599106212187 0.60011091146651041 0 0.91143117093204207 0.58709913730335972 0 0.95867599106212187 0.60011091146651041 0 0.91143117093204207 0.58709913730335972 0 0.93732437411268477 0.55911392101136159 0 0.86956835336234861 0.571283299838105 0 0.91143117093204207 0.58709913730335972 0 0.90900154012161016 0.53607784105648792 0 0.87159648282691515 0.61285406320581504 0 0.86956835336234861 0.571283299838105 0 0.91143117093204207 0.58709913730335972 0 0.87159648282691515 0.61285406320581504 0 0.91750694127105259 0.63017627779935648 0 0.91143117093204207 0.58709913730335972 0 0.86907294890112186 0.52008116128001669 0 0.90900154012161016 0.53607784105648792 0 0.91696753777131557 0.497780560203536 0 0.86956835336234861 0.571283299838105 0 0.86907294890112186 0.52008116128001669 0 0.90900154012161016 0.53607784105648792 0 0.90900154012161016 0.53607784105648792 0 0.93732437411268477 0.55911392101136159 0 0.95631871884947484 0.51827533208233789 0 0.91143117093204207 0.58709913730335972 0 0.90900154012161016 0.53607784105648792 0 0.93732437411268477 0.55911392101136159 0 0.90900154012161016 0.53607784105648792 0 0.95631871884947484 0.51827533208233789 0 0.91696753777131557 0.497780560203536 0 0.93732437411268477 0.55911392101136159 0 0.95631871884947484 0.51827533208233789 0 1 0.54999999999963112 0 0.95631871884947484 0.51827533208233789 0 1 0.54999999999963112 0 1 0.49999999999950101 0 0.95631871884947484 0.51827533208233789 0 1 0.49999999999950101 0 0.96228564064454991 0.48206450662049471 0 1 0.49999999999950101 0 1 0.44999999999963131 0 0.96228564064454991 0.48206450662049471 0 1 0.44999999999963131 0 0.93814194660195893 0.44426664081746747 0 0.96228564064454991 0.48206450662049471 0 0.93814194660195893 0.44426664081746747 0 0.96228564064454991 0.48206450662049471 0 0.91696753777131557 0.497780560203536 0 0.95631871884947484 0.51827533208233789 0 0.96228564064454991 0.48206450662049471 0 0.91696753777131557 0.497780560203536 0 1 0.39999999999978308 0 0.95871855522754235 0.40006508612975411 0 1 0.34999999999993492 0 1 0.44999999999963131 0 1 0.39999999999978308 0 0.95871855522754235 0.40006508612975411 0 1 0.44999999999963131 0 0.93814194660195893 0.44426664081746747 0 0.95871855522754235 0.40006508612975411 0 0.95871855522754235 0.40006508612975411 0 0.90594285160987287 0.4141265964174129 0 0.91750694127107502 0.36982372220068471 0 0.93814194660195893 0.44426664081746747 0 0.95871855522754235 0.40006508612975411 0 0.90594285160987287 0.4141265964174129 0 0.90594285160987287 0.4141265964174129 0 0.88594198078881503 0.46167788676578442 0 0.86411095495256451 0.42388805655111889 0 0.90594285160987287 0.4141265964174129 0 0.86411095495256451 0.42388805655111889 0 0.86844634540301924 0.38530937474099819 0 0.90594285160987287 0.4141265964174129 0 0.86844634540301924 0.38530937474099819 0 0.91750694127107502 0.36982372220068471 0 0.93814194660195893 0.44426664081746747 0 0.91696753777131557 0.497780560203536 0 0.88594198078881503 0.46167788676578442 0 0.93814194660195893 0.44426664081746747 0 0.90594285160987287 0.4141265964174129 0 0.88594198078881503 0.46167788676578442 0 0.86907294890112186 0.52008116128001669 0 0.91696753777131557 0.497780560203536 0 0.88594198078881503 0.46167788676578442 0 0.86907294890112186 0.52008116128001669 0 0.88594198078881503 0.46167788676578442 0 0.84723782639812573 0.48638347960178252 0 0.81441713509985358 0.51161854125224959 0 0.84723782639812573 0.48638347960178252 0 0.81400510706333218 0.47357325943904899 0 0.84723782639812573 0.48638347960178252 0 0.81400510706333218 0.47357325943904899 0 0.84925632466077294 0.45359738909549091 0 0.81400510706333218 0.47357325943904899 0 0.84925632466077294 0.45359738909549091 0 0.81973119833356312 0.43505687159469048 0 0.88594198078881503 0.46167788676578442 0 0.84723782639812573 0.48638347960178252 0 0.84925632466077294 0.45359738909549091 0 0.84925632466077294 0.45359738909549091 0 0.86411095495256451 0.42388805655111889 0 0.81973119833356312 0.43505687159469048 0 0.88594198078881503 0.46167788676578442 0 0.84925632466077294 0.45359738909549091 0 0.86411095495256451 0.42388805655111889 0 0.86411095495256451 0.42388805655111889 0 0.86844634540301924 0.38530937474099819 0 0.81308179852519835 0.39754945808726527 0 0.86844634540301924 0.38530937474099819 0 0.81308179852519835 0.39754945808726527 0 0.83573492347052902 0.36590755630746369 0 0.86411095495256451 0.42388805655111889 0 0.81308179852519835 0.39754945808726527 0 0.81973119833356312 0.43505687159469048 0 0.81973119833356312 0.43505687159469048 0 0.77354604466818633 0.40378688774472771 0 0.77972660463949339 0.45529290596363098 0 0.81308179852519835 0.39754945808726527 0 0.81973119833356312 0.43505687159469048 0 0.77354604466818633 0.40378688774472771 0 0.81308179852519835 0.39754945808726527 0 0.77354604466818633 0.40378688774472771 0 0.78145581580700685 0.34881365920033602 0 0.77354604466818633 0.40378688774472771 0 0.77972660463949339 0.45529290596363098 0 0.73483647259922602 0.44789725365921768 0 0.77972660463949339 0.45529290596363098 0 0.73483647259922602 0.44789725365921768 0 0.73947346780852752 0.49062440112282169 0 0.77972660463949339 0.45529290596363098 0 0.77846603114747959 0.49850927265137401 0 0.73947346780852752 0.49062440112282169 0 0.81400510706333218 0.47357325943904899 0 0.77972660463949339 0.45529290596363098 0 0.77846603114747959 0.49850927265137401 0 0.81441713509985358 0.51161854125224959 0 0.81400510706333218 0.47357325943904899 0 0.77846603114747959 0.49850927265137401 0 0.81400510706333218 0.47357325943904899 0 0.81973119833356312 0.43505687159469048 0 0.77972660463949339 0.45529290596363098 0 0.79999999999999982 0.29999999999999999 0 0.77075983436335049 0.25919399014334171 0 0.81486180804364938 0.26321394949780091 0 0.79999999999999982 0.29999999999999999 0 0.74999999999999989 0.29999999999999999 0 0.79999999999999982 0.29999999999999999 0 0.77075983436335049 0.25919399014334171 0 0.74999999999999989 0.29999999999999999 0 0.79999999999999982 0.29999999999999999 0 0.78145581580700685 0.34881365920033602 0 0.74999999999999989 0.29999999999999999 0 0.78145581580700685 0.34881365920033602 0 0.73090396928863699 0.33699297293167962 0 0.74999999999999989 0.29999999999999999 0 0.77354604466818633 0.40378688774472771 0 0.78145581580700685 0.34881365920033602 0 0.74764719760526988 0.3719647154012321 0 0.78145581580700685 0.34881365920033602 0 0.74764719760526988 0.3719647154012321 0 0.73090396928863699 0.33699297293167962 0 0.81308179852519835 0.39754945808726527 0 0.78145581580700685 0.34881365920033602 0 0.83573492347052902 0.36590755630746369 0 0.79999999999999982 0.29999999999999999 0 0.78145581580700685 0.34881365920033602 0 0.82500000000000062 0.33010209762754811 0 0.78145581580700685 0.34881365920033602 0 0.82500000000000062 0.33010209762754811 0 0.83573492347052902 0.36590755630746369 0 0.82500000000000062 0.33010209762754811 0 0.83573492347052902 0.36590755630746369 0 0.87430060258887643 0.34056085888204451 0 0.86844634540301924 0.38530937474099819 0 0.83573492347052902 0.36590755630746369 0 0.87430060258887643 0.34056085888204451 0 0.82500000000000062 0.33010209762754811 0 0.87430060258887643 0.34056085888204451 0 0.84999999999999987 0.29999999999999999 0 0.87430060258887643 0.34056085888204451 0 0.84999999999999987 0.29999999999999999 0 0.89999999999999991 0.29999999999999999 0 0.84999999999999987 0.29999999999999999 0 0.81486180804364938 0.26321394949780091 0 0.8517097391133297 0.2356960729520409 0 0.84999999999999987 0.29999999999999999 0 0.89898474358614167 0.25391965591104898 0 0.8517097391133297 0.2356960729520409 0 0.84999999999999987 0.29999999999999999 0 0.89999999999999991 0.29999999999999999 0 0.79999999999999982 0.29999999999999999 0 0.82500000000000062 0.33010209762754811 0 0.84999999999999987 0.29999999999999999 0 0.79999999999999982 0.29999999999999999 0 0.84999999999999987 0.29999999999999999 0 0.81486180804364938 0.26321394949780091 0 0.79999999999999982 0.29999999999999999 0 0.84999999999999987 0.29999999999999999 0 0.84999999999999987 0.29999999999999999 0 0.89898474358614167 0.25391965591104898 0 0.89999999999999991 0.29999999999999999 0 0.89999999999999991 0.29999999999999999 0 0.94999999999999996 0.29999999999999999 0 0.89999999999999991 0.29999999999999999 0 0.92012390126144183 0.33123581297173937 0 0.94999999999999996 0.29999999999999999 0 0.89898474358614167 0.25391965591104898 0 0.89999999999999991 0.29999999999999999 0 0.94999999999999996 0.29999999999999999 0 0.89898474358614167 0.25391965591104898 0 0.94999999999999996 0.29999999999999999 0 0.94399509803921056 0.24399509803922639 0 0.86844634540301924 0.38530937474099819 0 0.87430060258887643 0.34056085888204451 0 0.91750694127107502 0.36982372220068471 0 0.87430060258887643 0.34056085888204451 0 0.92012390126144183 0.33123581297173937 0 0.91750694127107502 0.36982372220068471 0 0.87430060258887643 0.34056085888204451 0 0.89999999999999991 0.29999999999999999 0 0.92012390126144183 0.33123581297173937 0 0.92012390126144183 0.33123581297173937 0 0.91750694127107502 0.36982372220068471 0 0.95780851984364423 0.34215720972155339 0 0.95871855522754235 0.40006508612975411 0 0.91750694127107502 0.36982372220068471 0 0.95780851984364423 0.34215720972155339 0 0.92012390126144183 0.33123581297173937 0 0.95780851984364423 0.34215720972155339 0 0.94999999999999996 0.29999999999999999 0 0.95780851984364423 0.34215720972155339 0 0.94999999999999996 0.29999999999999999 0 1 0.29999999999999999 0 0.95780851984364423 0.34215720972155339 0 1 0.34999999999993492 0 1 0.29999999999999999 0 0.95871855522754235 0.40006508612975411 0 0.95780851984364423 0.34215720972155339 0 1 0.34999999999993492 0 0.94999999999999996 0.29999999999999999 0 0.97166519676951801 0.26662885509932011 0 0.94399509803921056 0.24399509803922639 0 0.94999999999999996 0.29999999999999999 0 1 0.29999999999999999 0 0.94999999999999996 0.29999999999999999 0 1 0.29999999999999999 0 0.97166519676951801 0.26662885509932011 0 1 0.29999999999999999 0 0.97166519676951801 0.26662885509932011 0 1 0.24999999999987299 0 0.97166519676951801 0.26662885509932011 0 0.97435614836740092 0.22499999999981049 0 1 0.24999999999987299 0 0.97435614836740092 0.22499999999981049 0 1 0.24999999999987299 0 1 0.19999999999974799 0 0.97435614836740092 0.22499999999981049 0 0.94399509803921056 0.24399509803922639 0 0.95391631417672862 0.19584263333809451 0 0.97166519676951801 0.26662885509932011 0 0.97435614836740092 0.22499999999981049 0 0.94399509803921056 0.24399509803922639 0 0.97435614836740092 0.22499999999981049 0 0.95391631417672862 0.19584263333809451 0 1 0.19999999999974799 0 0.95391631417672862 0.19584263333809451 0 1 0.14999999999961891 0 0.93677536231883773 0.14999999999999089 0 1 0.14999999999961891 0 0.93677536231883773 0.14999999999999089 0 0.95386563387744361 0.1041487415577465 0 0.95391631417672862 0.19584263333809451 0 1 0.19999999999974799 0 1 0.14999999999961891 0 0.95391631417672862 0.19584263333809451 0 0.93677536231883773 0.14999999999999089 0 0.90416666666668166 0.20416666666667119 0 0.93677536231883773 0.14999999999999089 0 0.88088768115941807 0.14674609810479519 0 0.90416666666668166 0.20416666666667119 0 0.93677536231883773 0.14999999999999089 0 0.88088768115941807 0.14674609810479519 0 0.90299850604006393 0.09563452813493091 0 0.88088768115941807 0.14674609810479519 0 0.90416666666668166 0.20416666666667119 0 0.85600844944842547 0.1848341897950983 0 0.89898474358614167 0.25391965591104898 0 0.90416666666668166 0.20416666666667119 0 0.8517097391133297 0.2356960729520409 0 0.89898474358614167 0.25391965591104898 0 0.94399509803921056 0.24399509803922639 0 0.90416666666668166 0.20416666666667119 0 0.94399509803921056 0.24399509803922639 0 0.95391631417672862 0.19584263333809451 0 0.90416666666668166 0.20416666666667119 0 0.94999999999986839 0 0 0.97166519676946894 0.033371144900598393 0 0.94399509803922566 0.056004901960802607 0 0.94999999999986839 0 0 1 0 0 0.97166519676946894 0.033371144900598393 0 1 0 0 1 0.049999999999896842 0 0.97166519676946894 0.033371144900598393 0 1 0.049999999999896842 0 0.97166519676946894 0.033371144900598393 0 0.97435614836748241 0.074999999999825387 0 0.97166519676946894 0.033371144900598393 0 0.94399509803922566 0.056004901960802607 0 0.97435614836748241 0.074999999999825387 0 0.94399509803922566 0.056004901960802607 0 0.97435614836748241 0.074999999999825387 0 0.95386563387744361 0.1041487415577465 0 0.97435614836748241 0.074999999999825387 0 1 0.099999999999753911 0 0.95386563387744361 0.1041487415577465 0 1 0.049999999999896842 0 0.97435614836748241 0.074999999999825387 0 1 0.099999999999753911 0 1 0.14999999999961891 0 1 0.099999999999753911 0 0.95386563387744361 0.1041487415577465 0 0.93677536231883773 0.14999999999999089 0 0.95386563387744361 0.1041487415577465 0 0.90299850604006393 0.09563452813493091 0 0.88088768115941807 0.14674609810479519 0 0.90299850604006393 0.09563452813493091 0 0.84725310900442086 0.10779732082922661 0 0.90299850604006393 0.09563452813493091 0 0.899991664607802 0.045289349238254978 0 0.85491058998398861 0.060047533455626502 0 0.94399509803922566 0.056004901960802607 0 0.95386563387744361 0.1041487415577465 0 0.90299850604006393 0.09563452813493091 0 0.94399509803922566 0.056004901960802607 0 0.90299850604006393 0.09563452813493091 0 0.899991664607802 0.045289349238254978 0 0.94999999999986839 0 0 0.94399509803922566 0.056004901960802607 0 0.899991664607802 0.045289349238254978 0 0.899991664607802 0.045289349238254978 0 0.89999999999973679 0 0 0.84999999999960507 0 0 0.94999999999986839 0 0 0.899991664607802 0.045289349238254978 0 0.89999999999973679 0 0 0.84999999999960507 0 0 0.81864958914740749 0.035890501779055867 0 0.79999999999947335 0 0 0.899991664607802 0.045289349238254978 0 0.84999999999960507 0 0 0.85491058998398861 0.060047533455626502 0 0.85491058998398861 0.060047533455626502 0 0.81864958914740749 0.035890501779055867 0 0.80185942888501827 0.074520613036224564 0 0.84999999999960507 0 0 0.85491058998398861 0.060047533455626502 0 0.81864958914740749 0.035890501779055867 0 0.85491058998398861 0.060047533455626502 0 0.84725310900442086 0.10779732082922661 0 0.80185942888501827 0.074520613036224564 0 0.90299850604006393 0.09563452813493091 0 0.85491058998398861 0.060047533455626502 0 0.84725310900442086 0.10779732082922661 0 0.84725310900442086 0.10779732082922661 0 0.80076557130237269 0.1154587552654202 0 0.80185942888501827 0.074520613036224564 0 0.84725310900442086 0.10779732082922661 0 0.80076557130237269 0.1154587552654202 0 0.82709327591102189 0.14937141670914489 0 0.80076557130237269 0.1154587552654202 0 0.76878382444651716 0.097147941686331368 0 0.80185942888501827 0.074520613036224564 0 0.76878382444651716 0.097147941686331368 0 0.77144070960558853 0.14311854477243749 0 0.72525833953073282 0.1032114801687094 0 0.80076557130237269 0.1154587552654202 0 0.76878382444651716 0.097147941686331368 0 0.77144070960558853 0.14311854477243749 0 0.76878382444651716 0.097147941686331368 0 0.80185942888501827 0.074520613036224564 0 0.7527966693318906 0.053051678021508272 0 0.81864958914740749 0.035890501779055867 0 0.80185942888501827 0.074520613036224564 0 0.78393852574753176 0.032039079577822822 0 0.80185942888501827 0.074520613036224564 0 0.78393852574753176 0.032039079577822822 0 0.7527966693318906 0.053051678021508272 0 0.78393852574753176 0.032039079577822822 0 0.7527966693318906 0.053051678021508272 0 0.74999999999934175 0 0 0.78393852574753176 0.032039079577822822 0 0.79999999999947335 0 0 0.74999999999934175 0 0 0.81864958914740749 0.035890501779055867 0 0.78393852574753176 0.032039079577822822 0 0.79999999999947335 0 0 0.81283102246527783 0.1881007222486438 0 0.8517097391133297 0.2356960729520409 0 0.79680861578956375 0.22656778056752541 0 0.81283102246527783 0.1881007222486438 0 0.8517097391133297 0.2356960729520409 0 0.85600844944842547 0.1848341897950983 0 0.81486180804364938 0.26321394949780091 0 0.8517097391133297 0.2356960729520409 0 0.79680861578956375 0.22656778056752541 0 0.90416666666668166 0.20416666666667119 0 0.8517097391133297 0.2356960729520409 0 0.85600844944842547 0.1848341897950983 0 0.88088768115941807 0.14674609810479519 0 0.85600844944842547 0.1848341897950983 0 0.82709327591102189 0.14937141670914489 0 0.88088768115941807 0.14674609810479519 0 0.84725310900442086 0.10779732082922661 0 0.82709327591102189 0.14937141670914489 0 0.81283102246527783 0.1881007222486438 0 0.85600844944842547 0.1848341897950983 0 0.82709327591102189 0.14937141670914489 0 0.81283102246527783 0.1881007222486438 0 0.77144070960558853 0.14311854477243749 0 0.76587607630038135 0.18880039518954719 0 0.81283102246527783 0.1881007222486438 0 0.82709327591102189 0.14937141670914489 0 0.77144070960558853 0.14311854477243749 0 0.80076557130237269 0.1154587552654202 0 0.82709327591102189 0.14937141670914489 0 0.77144070960558853 0.14311854477243749 0 0.77144070960558853 0.14311854477243749 0 0.76587607630038135 0.18880039518954719 0 0.72634814642510737 0.16106886917518889 0 0.76587607630038135 0.18880039518954719 0 0.79680861578956375 0.22656778056752541 0 0.75668890529066124 0.2244279804069782 0 0.81283102246527783 0.1881007222486438 0 0.76587607630038135 0.18880039518954719 0 0.79680861578956375 0.22656778056752541 0 0.77075983436335049 0.25919399014334171 0 0.81486180804364938 0.26321394949780091 0 0.79680861578956375 0.22656778056752541 0 0.77075983436335049 0.25919399014334171 0 0.79680861578956375 0.22656778056752541 0 0.75668890529066124 0.2244279804069782 0 0.77075983436335049 0.25919399014334171 0 0.75668890529066124 0.2244279804069782 0 0.72500000000000064 0.2498161764706 0 0.75668890529066124 0.2244279804069782 0 0.72500000000000064 0.2498161764706 0 0.72500000000001008 0.19776155966387679 0 0.72500000000000064 0.2498161764706 0 0.69397719155551807 0.2245125647000914 0 0.72500000000001008 0.19776155966387679 0 0.72500000000000064 0.2498161764706 0 0.69397719155551807 0.2245125647000914 0 0.67933712972090698 0.25920070958121938 0 0.69397719155551807 0.2245125647000914 0 0.72500000000001008 0.19776155966387679 0 0.6865991819015953 0.189116534044597 0 0.76587607630038135 0.18880039518954719 0 0.75668890529066124 0.2244279804069782 0 0.72500000000001008 0.19776155966387679 0 0.76587607630038135 0.18880039518954719 0 0.72500000000001008 0.19776155966387679 0 0.72634814642510737 0.16106886917518889 0 0.77144070960558853 0.14311854477243749 0 0.72634814642510737 0.16106886917518889 0 0.72525833953073282 0.1032114801687094 0 0.72634814642510737 0.16106886917518889 0 0.68391457121233579 0.14440470121196541 0 0.72525833953073282 0.1032114801687094 0 0.72500000000001008 0.19776155966387679 0 0.72634814642510737 0.16106886917518889 0 0.6865991819015953 0.189116534044597 0 0.72634814642510737 0.16106886917518889 0 0.68391457121233579 0.14440470121196541 0 0.6865991819015953 0.189116534044597 0 0.68391457121233579 0.14440470121196541 0 0.64011864159029941 0.18789607982138171 0 0.6865991819015953 0.189116534044597 0 0.68391457121233579 0.14440470121196541 0 0.65290632656860115 0.11434202593454081 0 0.6236733212988993 0.14864538214901801 0 0.68391457121233579 0.14440470121196541 0 0.64011864159029941 0.18789607982138171 0 0.6236733212988993 0.14864538214901801 0 0.64011864159029941 0.18789607982138171 0 0.65394964615507722 0.22666784374016369 0 0.59814117807200873 0.23398510860739519 0 0.65394964615507722 0.22666784374016369 0 0.59814117807200873 0.23398510860739519 0 0.62657463266645097 0.26524202571255862 0 0.69397719155551807 0.2245125647000914 0 0.65394964615507722 0.22666784374016369 0 0.67933712972090698 0.25920070958121938 0 0.64011864159029941 0.18789607982138171 0 0.65394964615507722 0.22666784374016369 0 0.6865991819015953 0.189116534044597 0 0.69397719155551807 0.2245125647000914 0 0.65394964615507722 0.22666784374016369 0 0.6865991819015953 0.189116534044597 0 0.69999999999921003 0 0 0.72683645290270404 0.027797073151180601 0 0.7010294155333181 0.056779085686491267 0 0.69999999999921003 0 0 0.7010294155333181 0.056779085686491267 0 0.66369801598854572 0.036327466368102787 0 0.7527966693318906 0.053051678021508272 0 0.74999999999934175 0 0 0.72683645290270404 0.027797073151180601 0 0.69999999999921003 0 0 0.74999999999934175 0 0 0.72683645290270404 0.027797073151180601 0 0.7527966693318906 0.053051678021508272 0 0.72683645290270404 0.027797073151180601 0 0.7010294155333181 0.056779085686491267 0 0.7010294155333181 0.056779085686491267 0 0.72525833953073282 0.1032114801687094 0 0.68330259535470161 0.10038702501083881 0 0.7527966693318906 0.053051678021508272 0 0.7010294155333181 0.056779085686491267 0 0.72525833953073282 0.1032114801687094 0 0.76878382444651716 0.097147941686331368 0 0.7527966693318906 0.053051678021508272 0 0.72525833953073282 0.1032114801687094 0 0.68391457121233579 0.14440470121196541 0 0.72525833953073282 0.1032114801687094 0 0.68330259535470161 0.10038702501083881 0 0.68330259535470161 0.10038702501083881 0 0.65290632656860115 0.11434202593454081 0 0.65408113592120842 0.073941773121567966 0 0.68391457121233579 0.14440470121196541 0 0.68330259535470161 0.10038702501083881 0 0.65290632656860115 0.11434202593454081 0 0.65290632656860115 0.11434202593454081 0 0.61956000905586006 0.1043312481793135 0 0.6236733212988993 0.14864538214901801 0 0.65290632656860115 0.11434202593454081 0 0.65408113592120842 0.073941773121567966 0 0.61956000905586006 0.1043312481793135 0 0.65408113592120842 0.073941773121567966 0 0.61940220174112337 0.047251958781050582 0 0.61956000905586006 0.1043312481793135 0 0.7010294155333181 0.056779085686491267 0 0.68330259535470161 0.10038702501083881 0 0.65408113592120842 0.073941773121567966 0 0.7010294155333181 0.056779085686491267 0 0.65408113592120842 0.073941773121567966 0 0.66369801598854572 0.036327466368102787 0 0.65408113592120842 0.073941773121567966 0 0.66369801598854572 0.036327466368102787 0 0.61940220174112337 0.047251958781050582 0 0.66369801598854572 0.036327466368102787 0 0.64999999999907843 0 0 0.61940220174112337 0.047251958781050582 0 0.69999999999921003 0 0 0.66369801598854572 0.036327466368102787 0 0.64999999999907843 0 0 0.59999999999894682 0 0 0.57396793757665954 0.037011367187645222 0 0.5499999999988151 0 0 0.64999999999907843 0 0 0.59999999999894682 0 0 0.61940220174112337 0.047251958781050582 0 0.59999999999894682 0 0 0.61940220174112337 0.047251958781050582 0 0.57396793757665954 0.037011367187645222 0 0.61940220174112337 0.047251958781050582 0 0.57396793757665954 0.037011367187645222 0 0.57667858002728545 0.078486105337742612 0 0.61940220174112337 0.047251958781050582 0 0.57667858002728545 0.078486105337742612 0 0.61956000905586006 0.1043312481793135 0 0.61956000905586006 0.1043312481793135 0 0.58516465772821369 0.11653801664834119 0 0.6236733212988993 0.14864538214901801 0 0.57667858002728545 0.078486105337742612 0 0.61956000905586006 0.1043312481793135 0 0.58516465772821369 0.11653801664834119 0 0.58516465772821369 0.11653801664834119 0 0.54979595918804436 0.1060565713905809 0 0.56202748619534593 0.15054058349222879 0 0.57667858002728545 0.078486105337742612 0 0.58516465772821369 0.11653801664834119 0 0.54979595918804436 0.1060565713905809 0 0.54979595918804436 0.1060565713905809 0 0.51076801031701946 0.1202837388510348 0 0.52375890611712683 0.059318771819432882 0 0.47881186583059909 0.093591717165689425 0 0.51076801031701946 0.1202837388510348 0 0.52375890611712683 0.059318771819432882 0 0.57667858002728545 0.078486105337742612 0 0.54979595918804436 0.1060565713905809 0 0.52375890611712683 0.059318771819432882 0 0.57396793757665954 0.037011367187645222 0 0.52375890611712683 0.059318771819432882 0 0.5499999999988151 0 0 0.57396793757665954 0.037011367187645222 0 0.57667858002728545 0.078486105337742612 0 0.52375890611712683 0.059318771819432882 0 0.49999999999869432 0 0 0.52375890611712683 0.059318771819432882 0 0.5499999999988151 0 0 0.59814117807200873 0.23398510860739519 0 0.59443395090188023 0.18455690917515069 0 0.55306006949600994 0.20198184231352201 0 0.59814117807200873 0.23398510860739519 0 0.55306006949600994 0.20198184231352201 0 0.54248833945060504 0.2520322959927106 0 0.64011864159029941 0.18789607982138171 0 0.59814117807200873 0.23398510860739519 0 0.59443395090188023 0.18455690917515069 0 0.64011864159029941 0.18789607982138171 0 0.59443395090188023 0.18455690917515069 0 0.6236733212988993 0.14864538214901801 0 0.58516465772821369 0.11653801664834119 0 0.6236733212988993 0.14864538214901801 0 0.56202748619534593 0.15054058349222879 0 0.59443395090188023 0.18455690917515069 0 0.6236733212988993 0.14864538214901801 0 0.56202748619534593 0.15054058349222879 0 0.59443395090188023 0.18455690917515069 0 0.56202748619534593 0.15054058349222879 0 0.55306006949600994 0.20198184231352201 0 0.56202748619534593 0.15054058349222879 0 0.51729576145820033 0.1683240575987815 0 0.55306006949600994 0.20198184231352201 0 0.54979595918804436 0.1060565713905809 0 0.51076801031701946 0.1202837388510348 0 0.56202748619534593 0.15054058349222879 0 0.48466639505193998 0.1421439844745814 0 0.51076801031701946 0.1202837388510348 0 0.51729576145820033 0.1683240575987815 0 0.51076801031701946 0.1202837388510348 0 0.56202748619534593 0.15054058349222879 0 0.51729576145820033 0.1683240575987815 0 0.51729576145820033 0.1683240575987815 0 0.50760557329222289 0.20700468884612061 0 0.55306006949600994 0.20198184231352201 0 0.50760557329222289 0.20700468884612061 0 0.55306006949600994 0.20198184231352201 0 0.54248833945060504 0.2520322959927106 0 0.49695729691142171 0.25014895411178018 0 0.50760557329222289 0.20700468884612061 0 0.54248833945060504 0.2520322959927106 0 0.49695729691142171 0.25014895411178018 0 0.5 0.29999999999999999 0 0.54248833945060504 0.2520322959927106 0 0.5 0.29999999999999999 0 0.54999999999999993 0.29999999999999999 0 0.52752007115234678 0.33170632466418198 0 0.5 0.29999999999999999 0 0.54999999999999993 0.29999999999999999 0 0.54248833945060504 0.2520322959927106 0 0.5 0.29999999999999999 0 0.54999999999999993 0.29999999999999999 0 0.54999999999999993 0.29999999999999999 0 0.54248833945060504 0.2520322959927106 0 0.5794309697024993 0.27124795968204829 0 0.59814117807200873 0.23398510860739519 0 0.54248833945060504 0.2520322959927106 0 0.5794309697024993 0.27124795968204829 0 0.54999999999999993 0.29999999999999999 0 0.59999999999999976 0.29999999999999999 0 0.54999999999999993 0.29999999999999999 0 0.5794309697024993 0.27124795968204829 0 0.59999999999999976 0.29999999999999999 0 0.59999999999999976 0.29999999999999999 0 0.6499999999999998 0.29999999999999999 0 0.5794309697024993 0.27124795968204829 0 0.59999999999999976 0.29999999999999999 0 0.62657463266645097 0.26524202571255862 0 0.59814117807200873 0.23398510860739519 0 0.5794309697024993 0.27124795968204829 0 0.62657463266645097 0.26524202571255862 0 0.61959173890754571 0.33832250091341232 0 0.56836770495988642 0.3523062350852913 0 0.6084546825910605 0.37989672713932537 0 0.59999999999999976 0.29999999999999999 0 0.61959173890754571 0.33832250091341232 0 0.6499999999999998 0.29999999999999999 0 0.59999999999999976 0.29999999999999999 0 0.61959173890754571 0.33832250091341232 0 0.56836770495988642 0.3523062350852913 0 0.54999999999999993 0.29999999999999999 0 0.59999999999999976 0.29999999999999999 0 0.56836770495988642 0.3523062350852913 0 0.56836770495988642 0.3523062350852913 0 0.52752007115234678 0.33170632466418198 0 0.52289427570932567 0.3932284363388488 0 0.54999999999999993 0.29999999999999999 0 0.56836770495988642 0.3523062350852913 0 0.52752007115234678 0.33170632466418198 0 0.49077833859261139 0.35229981449445641 0 0.5 0.29999999999999999 0 0.52752007115234678 0.33170632466418198 0 0.49077833859261139 0.35229981449445641 0 0.52752007115234678 0.33170632466418198 0 0.52289427570932567 0.3932284363388488 0 0.56836770495988642 0.3523062350852913 0 0.52289427570932567 0.3932284363388488 0 0.57744073070774993 0.41535148636609359 0 0.52289427570932567 0.3932284363388488 0 0.53823865529665704 0.45873898050322898 0 0.57744073070774993 0.41535148636609359 0 0.48858720058566618 0.43964267759203868 0 0.52289427570932567 0.3932284363388488 0 0.53823865529665704 0.45873898050322898 0 0.49102375406324739 0.49123754822244059 0 0.53330375813596242 0.50827942741749099 0 0.53823865529665704 0.45873898050322898 0 0.49102375406324739 0.49123754822244059 0 0.48858720058566618 0.43964267759203868 0 0.53823865529665704 0.45873898050322898 0 0.53330375813596242 0.50827942741749099 0 0.57611405284611883 0.50165903596042916 0 0.53823865529665704 0.45873898050322898 0 0.57611405284611883 0.50165903596042916 0 0.57975577671020095 0.46172033326338591 0 0.61547661924074692 0.48539576058873962 0 0.57611405284611883 0.50165903596042916 0 0.53823865529665704 0.45873898050322898 0 0.57975577671020095 0.46172033326338591 0 0.57975577671020095 0.46172033326338591 0 0.61209567303293111 0.44669033081290321 0 0.57744073070774993 0.41535148636609359 0 0.53823865529665704 0.45873898050322898 0 0.57975577671020095 0.46172033326338591 0 0.57744073070774993 0.41535148636609359 0 0.57975577671020095 0.46172033326338591 0 0.61209567303293111 0.44669033081290321 0 0.61547661924074692 0.48539576058873962 0 0.56836770495988642 0.3523062350852913 0 0.57744073070774993 0.41535148636609359 0 0.6084546825910605 0.37989672713932537 0 0.61209567303293111 0.44669033081290321 0 0.57744073070774993 0.41535148636609359 0 0.63912439215427275 0.41063340167983359 0 0.57744073070774993 0.41535148636609359 0 0.6084546825910605 0.37989672713932537 0 0.63912439215427275 0.41063340167983359 0 0.6084546825910605 0.37989672713932537 0 0.63912439215427275 0.41063340167983359 0 0.65481233915350323 0.35652751921065562 0 0.63912439215427275 0.41063340167983359 0 0.65178832218679827 0.45929119821019959 0 0.6879972333610942 0.43038561374960838 0 0.63912439215427275 0.41063340167983359 0 0.68128176404677243 0.38629093627004979 0 0.6879972333610942 0.43038561374960838 0 0.63912439215427275 0.41063340167983359 0 0.68128176404677243 0.38629093627004979 0 0.65481233915350323 0.35652751921065562 0 0.61547661924074692 0.48539576058873962 0 0.6541250972820879 0.49999999999999989 0 0.65178832218679827 0.45929119821019959 0 0.61209567303293111 0.44669033081290321 0 0.61547661924074692 0.48539576058873962 0 0.65178832218679827 0.45929119821019959 0 0.61209567303293111 0.44669033081290321 0 0.63912439215427275 0.41063340167983359 0 0.65178832218679827 0.45929119821019959 0 0.65178832218679827 0.45929119821019959 0 0.69385896817107129 0.48377516041410151 0 0.6879972333610942 0.43038561374960838 0 0.6541250972820879 0.49999999999999989 0 0.65178832218679827 0.45929119821019959 0 0.69385896817107129 0.48377516041410151 0 0.7152569930854884 0.5237994455134295 0 0.69385896817107129 0.48377516041410151 0 0.73947346780852752 0.49062440112282169 0 0.69385896817107129 0.48377516041410151 0 0.73483647259922602 0.44789725365921768 0 0.6879972333610942 0.43038561374960838 0 0.69385896817107129 0.48377516041410151 0 0.73483647259922602 0.44789725365921768 0 0.73947346780852752 0.49062440112282169 0 0.68128176404677243 0.38629093627004979 0 0.72622533758026719 0.40265885511101601 0 0.71508799138962864 0.36622814920737751 0 0.73483647259922602 0.44789725365921768 0 0.6879972333610942 0.43038561374960838 0 0.72622533758026719 0.40265885511101601 0 0.68128176404677243 0.38629093627004979 0 0.6879972333610942 0.43038561374960838 0 0.72622533758026719 0.40265885511101601 0 0.77354604466818633 0.40378688774472771 0 0.73483647259922602 0.44789725365921768 0 0.72622533758026719 0.40265885511101601 0 0.72622533758026719 0.40265885511101601 0 0.74764719760526988 0.3719647154012321 0 0.71508799138962864 0.36622814920737751 0 0.77354604466818633 0.40378688774472771 0 0.72622533758026719 0.40265885511101601 0 0.74764719760526988 0.3719647154012321 0 0.74764719760526988 0.3719647154012321 0 0.71508799138962864 0.36622814920737751 0 0.73090396928863699 0.33699297293167962 0 0.71508799138962864 0.36622814920737751 0 0.68887083591306764 0.33632058575757479 0 0.73090396928863699 0.33699297293167962 0 0.68128176404677243 0.38629093627004979 0 0.71508799138962864 0.36622814920737751 0 0.68887083591306764 0.33632058575757479 0 0.68887083591306764 0.33632058575757479 0 0.73090396928863699 0.33699297293167962 0 0.69999999999999984 0.29999999999999999 0 0.72500000000000064 0.2498161764706 0 0.74999999999999989 0.29999999999999999 0 0.69999999999999984 0.29999999999999999 0 0.74999999999999989 0.29999999999999999 0 0.69999999999999984 0.29999999999999999 0 0.73090396928863699 0.33699297293167962 0 0.74999999999999989 0.29999999999999999 0 0.69999999999999984 0.29999999999999999 0 0.77075983436335049 0.25919399014334171 0 0.72500000000000064 0.2498161764706 0 0.74999999999999989 0.29999999999999999 0 0.72500000000000064 0.2498161764706 0 0.69999999999999984 0.29999999999999999 0 0.67933712972090698 0.25920070958121938 0 0.69999999999999984 0.29999999999999999 0 0.67933712972090698 0.25920070958121938 0 0.6499999999999998 0.29999999999999999 0 0.68887083591306764 0.33632058575757479 0 0.69999999999999984 0.29999999999999999 0 0.6499999999999998 0.29999999999999999 0 0.69999999999999984 0.29999999999999999 0 0.6499999999999998 0.29999999999999999 0 0.67933712972090698 0.25920070958121938 0 0.62657463266645097 0.26524202571255862 0 0.6499999999999998 0.29999999999999999 0 0.65394964615507722 0.22666784374016369 0 0.67933712972090698 0.25920070958121938 0 0.62657463266645097 0.26524202571255862 0 0.59999999999999976 0.29999999999999999 0 0.62657463266645097 0.26524202571255862 0 0.6499999999999998 0.29999999999999999 0 0.61959173890754571 0.33832250091341232 0 0.6499999999999998 0.29999999999999999 0 0.65481233915350323 0.35652751921065562 0 0.61959173890754571 0.33832250091341232 0 0.6084546825910605 0.37989672713932537 0 0.65481233915350323 0.35652751921065562 0 0.68128176404677243 0.38629093627004979 0 0.68887083591306764 0.33632058575757479 0 0.65481233915350323 0.35652751921065562 0 0.68887083591306764 0.33632058575757479 0 0.6499999999999998 0.29999999999999999 0 0.65481233915350323 0.35652751921065562 0 
</DataArray>
</Points>
<Cells>
<DataArray type="UInt32" Name="connectivity" format="ascii">
0 1 2 3 4 5 6 7 8 9 10 11 12 13 14 15 16 17 18 19 20 21 22 23 24 25 26 27 28 29 30 31 32 33 34 35 36 37 38 39 40 41 42 43 44 45 46 47 48 49 50 51 52 53 54 55 56 57 58 59 60 61 62 63 64 65 66 67 68 69 70 71 72 73 74 75 76 77 78 79 80 81 82 83 84 85 86 87 88 89 90 91 92 93 94 95 96 97 98 99 100 101 102 103 104 105 106 107 108 109 110 111 112 113 114 115 116 117 118 119 120 121 122 123 124 125 126 127 128 129 130 131 132 133 134 135 136 137 138 139 140 141 142 143 144 145 146 147 148 149 150 151 152 153 154 155 156 157 158 159 160 161 162 163 164 165 166 167 168 169 170 171 172 173 174 175 176 177 178 179 180 181 182 183 184 185 186 187 188 189 190 191 192 193 194 195 196 197 198 199 200 201 202 203 204 205 206 207 208 209 210 211 212 213 214 215 216 217 218 219 220 221 222 223 224 225 226 227 228 229 230 231 232 233 234 235 236 237 238 239 240 241 242 243 244 245 246 247 248 249 250 251 252 253 254 255 256 257 258 259 260 261 262 263 264 265 266 267 268 269 270 271 272 273 274 275 276 277 278 279 280 281 282 283 284 285 286 287 288 289 290 291 292 293 294 295 296 297 298 299 300 301 302 303 304 305 306 307 308 309 310 311 312 313 314 315 316 317 318 319 320 321 322 323 324 325 326 327 328 329 330 331 332 333 334 335 336 337 338 339 340 341 342 343 344 345 346 347 348 349 350 351 352 353 354 355 356 357 358 359 360 361 362 363 364 365 366 367 368 369 370 371 372 373 374 375 376 377 378 379 380 381 382 383 384 385 386 387 388 389 390 391 392 393 394 395 396 397 398 399 400 401 402 403 404 405 406 407 408 409 410 411 412 413 414 415 416 417 418 419 420 421 422 423 424 425 426 427 428 429 430 431 432 433 434 435 436 437 438 439 440 441 442 443 444 445 446 447 448 449 450 451 452 453 454 455 456 457 458 459 460 461 462 463 464 465 466 467 468 469 470 471 472 473 474 475 476 477 478 479 480 481 482 483 484 485 486 487 488 489 490 491 492 493 494 495 496 497 498 499 500 501 502 503 504 505 506 507 508 509 510 511 512 513 514 515 516 517 518 519 520 521 522 523 524 525 526 527 528 529 530 531 532 533 534 535 536 537 538 539 540 541 542 543 544 545 546 547 548 549 550 551 552 553 554 555 556 557 558 559 560 561 562 563 564 565 566 567 568 569 570 571 572 573 574 575 576 577 578 579 580 581 582 583 584 585 586 587 588 589 590 591 592 593 594 595 596 597 598 599 600 601 602 603 604 605 606 607 608 609 610 611 612 613 614 615 616 617 618 619 620 621 622 623 624 625 626 627 628 629 630 631 632 633 634 635 636 637 638 639 640 641 642 643 644 645 646 647 648 649 650 651 652 653 654 655 656 657 658 659 660 661 662 663 664 665 666 667 668 669 670 671 672 673 674 675 676 677 678 679 680 681 682 683 684 685 686 687 688 689 690 691 692 693 694 695 696 697 698 699 700 701 702 703 704 705 706 707 708 709 710 711 712 713 714 715 716 717 718 719 720 721 722 723 724 725 726 727 728 729 730 731 732 733 734 735 736 737 738 739 740 741 742 743 744 745 746 747 748 749 750 751 752 753 754 755 756 757 758 759 760 761 762 763 764 765 766 767 768 769 770 771 772 773 774 775 776 777 778 779 780 781 782 783 784 785 786 787 788 789 790 791 792 793 794 795 796 797 798 799 800 801 802 803 804 805 806 807 808 809 810 811 812 813 814 815 816 817 818 819 820 821 822 823 824 825 826 827 828 829 830 831 832 833 834 835 836 837 838 839 840 841 842 843 844 845 846 847 848 849 850 851 852 853 854 855 856 857 858 859 860 861 862 863 864 865 866 867 868 869 870 871 872 873 874 875 876 877 878 879 880 881 882 883 884 885 886 887 888 889 890 891 892 893 894 895 896 897 898 899 900 901 902 903 904 905 906 907 908 909 910 911 912 913 914 915 916 917 918 919 920 921 922 923 924 925 926 927 928 929 930 931 932 933 934 935 936 937 938 939 940 941 942 943 944 945 946 947 948 949 950 951 952 953 954 955 956 957 958 959 960 961 962 963 964 965 966 967 968 969 970 971 972 973 974 975 976 977 978 979 980 981 982 983 984 985 986 987 988 989 990 991 992 993 994 995 996 997 998 999 1000 1001 1002 1003 1004 1005 1006 1007 1008 1009 1010 1011 1012 1013 1014 1015 1016 1017 1018 1019 1020 1021 1022 1023 1024 1025 1026 1027 1028 1029 1030 1031 1032 1033 1034 1035 1036 1037 1038 1039 1040 1041 1042 1043 1044 1045 1046 1047 1048 1049 1050 1051 1052 1053 1054 1055 1056 1057 1058 1059 1060 1061 1062 1063 1064 1065 1066 1067 1068 1069 1070 1071 1072 1073 1074 1075 1076 1077 1078 1079 1080 1081 1082 1083 1084 1085 1086 1087 1088 1089 1090 1091 1092 1093 1094 1095 1096 1097 1098 1099 1100 1101 1102 1103 1104 1105 1106 1107 1108 1109 1110 1111 1112 1113 1114 1115 1116 1117 1118 1119 1120 1121 1122 1123 1124 1125 1126 1127 1128 1129 1130 1131 1132 1133 1134 1135 1136 1137 1138 1139 1140 1141 1142 1143 1144 1145 1146 1147 1148 1149 1150 1151 1152 1153 1154 1155 1156 1157 1158 1159 1160 1161 1162 1163 1164 1165 1166 1167 1168 1169 1170 1171 1172 1173 1174 1175 1176 1177 1178 1179 1180 1181 1182 1183 1184 1185 1186 1187 1188 1189 1190 1191 1192 1193 1194 1195 1196 1197 1198 1199 1200 1201 1202 1203 1204 1205 1206 1207 1208 1209 1210 1211 1212 1213 1214 1215 1216 1217 1218 1219 1220 1221 1222 1223 1224 1225 1226 1227 1228 1229 1230 1231 1232 1233 1234 1235 1236 1237 1238 1239 1240 1241 1242 1243 1244 1245 1246 1247 1248 1249 1250 1251 1252 1253 1254 1255 1256 1257 1258 1259 1260 1261 1262 1263 1264 1265 1266 1267 1268 1269 1270 1271 1272 1273 1274 1275 1276 1277 1278 1279 1280 1281 1282 1283 1284 1285 1286 1287 1288 1289 1290 1291 1292 1293 1294 1295 1296 1297 1298 1299 1300 1301 1302 1303 1304 1305 1306 1307 1308 1309 1310 1311 1312 1313 1314 1315 1316 1317 1318 1319 1320 1321 1322 1323 1324 1325 1326 1327 1328 1329 1330 1331 1332 1333 1334 1335 1336 1337 1338 1339 1340 1341 1342 1343 1344 1345 1346 1347 1348 1349 1350 1351 1352 1353 1354 1355 1356 1357 1358 1359 1360 1361 1362 1363 1364 1365 1366 1367 1368 1369 1370 1371 1372 1373 1374 1375 1376 1377 1378 1379 1380 1381 1382 1383 1384 1385 1386 1387 1388 1389 1390 1391 1392 1393 1394 1395 1396 1397 1398 1399 1400 1401 1402 1403 1404 1405 1406 1407 1408 1409 1410 1411 1412 1413 1414 1415 1416 1417 1418 1419 1420 1421 1422 1423 1424 1425 1426 1427 1428 1429 1430 1431 1432 1433 1434 1435 1436 1437 1438 1439 1440 1441 1442 1443 1444 1445 1446 1447 1448 1449 1450 1451 1452 1453 1454 1455 1456 1457 1458 1459 1460 1461 1462 1463 1464 1465 1466 1467 1468 1469 1470 1471 1472 1473 1474 1475 1476 1477 1478 1479 1480 1481 1482 1483 1484 1485 1486 1487 1488 1489 1490 1491 1492 1493 1494 1495 1496 1497 1498 1499 1500 1501 1502 1503 1504 1505 1506 1507 1508 1509 1510 1511 1512 1513 1514 1515 1516 1517 1518 1519 1520 1521 1522 1523 1524 1525 1526 1527 1528 1529 1530 1531 1532 1533 1534 1535 1536 1537 1538 1539 1540 1541 1542 1543 1544 1545 1546 1547 1548 1549 1550 1551 1552 1553 1554 1555 1556 1557 1558 1559 1560 1561 1562 1563 1564 1565 1566 1567 1568 1569 1570 1571 1572 1573 1574 1575 1576 1577 1578 1579 1580 1581 1582 1583 1584 1585 1586 1587 1588 1589 1590 1591 1592 1593 1594 1595 1596 1597 1598 1599 1600 1601 1602 1603 1604 1605 1606 1607 1608 1609 1610 1611 1612 1613 1614 1615 1616 1617 1618 1619 1620 1621 1622 1623 1624 1625 1626 1627 1628 1629 1630 1631 1632 1633 1634 1635 1636 1637 1638 1639 1640 1641 1642 1643 1644 1645 1646 1647 1648 1649 1650 1651 1652 1653 1654 1655 1656 1657 1658 1659 1660 1661 1662 1663 1664 1665 1666 1667 1668 1669 1670 1671 1672 1673 1674 1675 1676 1677 1678 1679 1680 1681 1682 1683 1684 1685 1686 1687 1688 1689 1690 1691 1692 1693 1694 1695 1696 1697 1698 1699 1700 1701 1702 1703 1704 1705 1706 1707 1708 1709 1710 1711 1712 1713 1714 1715 1716 1717 1718 1719 1720 1721 1722 1723 1724 1725 1726 1727 1728 1729 1730 1731 1732 1733 1734 1735 1736 1737 1738 1739 1740 1741 1742 1743 1744 1745 1746 1747 1748 1749 1750 1751 1752 1753 1754 1755 1756 1757 1758 1759 1760 1761 1762 1763 1764 1765 1766 1767 1768 1769 1770 1771 1772 1773 1774 1775 1776 1777 1778 1779 1780 1781 1782 1783 1784 1785 1786 1787 1788 1789 1790 1791 1792 1793 1794 1795 1796 1797 1798 1799 1800 1801 1802 1803 1804 1805 1806 1807 1808 1809 1810 1811 1812 1813 1814 1815 1816 1817 1818 1819 1820 1821 1822 1823 1824 1825 1826 1827 1828 1829 1830 1831 1832 1833 1834 1835 1836 1837 1838 1839 1840 1841 1842 1843 1844 1845 1846 1847 1848 1849 1850 1851 1852 1853 1854 1855 1856 1857 1858 1859 1860 1861 1862 1863 1864 1865 1866 1867 1868 1869 1870 1871 1872 1873 1874 1875 1876 1877 1878 1879 1880 1881 1882 1883 1884 1885 1886 1887 1888 1889 1890 1891 1892 1893 1894 1895 1896 1897 1898 1899 1900 1901 1902 1903 1904 1905 1906 1907 1908 1909 1910 1911 1912 1913 1914 1915 1916 1917 1918 1919 1920 1921 1922 1923 1924 1925 1926 1927 1928 1929 1930 1931 1932 1933 1934 1935 1936 1937 1938 1939 1940 1941 1942 1943 1944 1945 1946 1947 1948 1949 1950 1951 1952 1953 1954 1955 1956 1957 1958 1959 1960 1961 1962 1963 1964 1965 1966 1967 1968 1969 1970 1971 1972 1973 1974 1975 1976 1977 1978 1979 1980 1981 1982 1983 1984 1985 1986 1987 1988 1989 1990 1991 1992 1993 1994 1995 1996 1997 1998 1999 2000 2001 2002 2003 2004 2005 2006 2007 2008 2009 2010 2011 2012 2013 2014 2015 2016 2017 2018 2019 2020 2021 2022 2023 2024 2025 2026 2027 2028 2029 2030 2031 2032 2033 2034 2035 2036 2037 2038 2039 2040 2041 2042 2043 2044 2045 2046 2047 2048 2049 2050 2051 2052 2053 2054 2055 2056 2057 2058 2059 2060 2061 2062 2063 2064 2065 2066 2067 2068 2069 2070 2071 2072 2073 2074 2075 2076 2077 2078 2079 2080 2081 2082 2083 2084 2085 2086 2087 2088 2089 2090 2091 2092 2093 2094 2095 2096 2097 2098 2099 2100 2101 2102 2103 2104 2105 2106 2107 2108 2109 2110 2111 2112 2113 2114 2115 2116 2117 2118 2119 2120 2121 2122 2123 2124 2125 2126 2127 2128 2129 2130 2131 2132 2133 2134 2135 2136 2137 2138 2139 2140 2141 2142 2143 2144 2145 2146 2147 2148 2149 2150 2151 2152 2153 2154 2155 2156 2157 2158 2159 2160 2161 2162 2163 2164 2165 2166 2167 2168 2169 2170 2171 2172 2173 2174 2175 2176 2177 2178 2179 2180 2181 2182 2183 2184 2185 2186 2187 2188 2189 2190 2191 2192 2193 2194 2195 2196 2197 2198 2199 2200 2201 2202 2203 2204 2205 2206 2207 2208 2209 2210 2211 2212 2213 2214 2215 2216 2217 2218 2219 2220 2221 2222 2223 2224 2225 2226 2227 2228 2229 2230 2231 2232 2233 2234 2235 2236 2237 2238 2239 2240 2241 2242 2243 2244 2245 2246 2247 2248 2249 2250 2251 2252 2253 2254 2255 2256 2257 2258 2259 2260 2261 2262 2263 2264 2265 2266 2267 2268 2269 2270 2271 2272 2273 2274 2275 2276 2277 2278 2279 2280 2281 2282 2283 2284 2285 2286 2287 2288 2289 2290 2291 2292 2293 2294 2295 2296 2297 2298 2299 2300 2301 2302 2303 2304 2305 2306 2307 2308 2309 2310 2311 2312 2313 2314 2315 2316 2317 2318 2319 2320 2321 2322 2323 2324 2325 2326 2327 2328 2329 2330 2331 2332 2333 2334 2335 2336 2337 2338 2339 2340 2341 2342 2343 2344 2345 2346 2347 2348 2349 2350 2351 2352 2353 2354 2355 2356 2357 2358 2359 2360 2361 2362 2363 2364 2365 2366 2367 2368 2369 2370 2371 2372 2373 2374 2375 2376 2377 2378 2379 2380 2381 2382 2383 2384 2385 2386 2387 2388 2389 2390 2391 2392 2393 2394 2395 2396 2397 2398 2399 2400 2401 2402 2403 2404 2405 2406 2407 2408 2409 2410 2411 2412 2413 2414 2415 2416 2417 2418 2419 2420 2421 2422 2423 2424 2425 2426 2427 2428 2429 2430 2431 2432 2433 2434 2435 2436 2437 2438 2439 2440 2441 2442 2443 2444 2445 2446 2447 2448 2449 2450 2451 2452 2453 2454 2455 2456 2457 2458 2459 2460 2461 2462 2463 2464 2465 2466 2467 2468 2469 2470 2471 2472 2473 2474 2475 2476 2477 2478 2479 2480 2481 2482 2483 2484 2485 2486 2487 2488 2489 2490 2491 2492 2493 2494 2495 2496 2497 2498 2499 2500 2501 2502 2503 2504 2505 2506 2507 2508 2509 2510 2511 2512 2513 2514 2515 2516 2517 2518 2519 2520 2521 2522 2523 2524 2525 2526 2527 2528 2529 2530 2531 2532 2533 2534 2535 2536 2537 2538 2539 2540 2541 2542 2543 2544 2545 2546 2547 2548 2549 2550 2551 2552 2553 2554 2555 2556 2557 2558 2559 2560 2561 2562 2563 2564 2565 2566 2567 2568 2569 2570 2571 2572 2573 2574 2575 2576 2577 2578 2579 2580 2581 2582 2583 2584 2585 2586 2587 2588 2589 2590 2591 2592 2593 2594 2595 2596 2597 2598 2599 2600 2601 2602 2603 2604 2605 2606 2607 2608 2609 2610 2611 2612 2613 2614 2615 2616 2617 2618 2619 2620 2621 2622 2623 2624 2625 2626 2627 2628 2629 2630 2631 2632 2633 2634 2635 2636 2637 2638 2639 2640 2641 2642 2643 2644 2645 2646 2647 2648 2649 2650 2651 2652 2653 2654 2655 2656 2657 2658 2659 2660 2661 2662 2663 2664 2665 2666 2667 2668 2669 2670 2671 2672 2673 2674 2675 2676 2677 2678 2679 2680 2681 2682 2683 2684 2685 2686 2687 2688 2689 2690 2691 2692 2693 2694 2695 2696 2697 2698 2699 2700 2701 2702 2703 2704 2705 2706 2707 2708 2709 2710 2711 2712 2713 2714 2715 2716 2717 2718 2719 2720 2721 2722 2723 2724 2725 2726 2727 2728 2729 2730 2731 2732 2733 2734 2735 2736 2737 2738 2739 2740 2741 2742 2743 2744 2745 2746 2747 2748 2749 2750 2751 2752 2753 2754 2755 2756 2757 2758 2759 2760 2761 2762 2763 2764 2765 2766 2767 2768 2769 2770 2771 2772 2773 2774 2775 2776 2777 2778 2779 2780 2781 2782 2783 2784 2785 2786 2787 2788 2789 2790 2791 2792 2793 2794 2795 2796 2797 2798 2799 2800 2801 2802 2803 2804 2805 2806 2807 2808 2809 2810 2811 2812 2813 2814 2815 2816 2817 2818 2819 2820 2821 2822 2823 2824 2825 2826 2827 2828 2829 2830 2831 2832 2833 2834 2835 2836 2837 2838 2839 2840 2841 2842 2843 2844 2845 2846 2847 2848 2849 2850 2851 2852 2853 2854 2855 2856 2857 2858 2859 2860 2861 2862 2863 2864 2865 2866 2867 2868 2869 2870 2871 2872 2873 2874 2875 2876 2877 2878 2879 2880 2881 2882 2883 2884 2885 2886 2887 2888 2889 2890 2891 2892 2893 2894 2895 2896 2897 2898 2899 2900 2901 2902 2903 2904 2905 2906 2907 2908 2909 2910 2911 2912 2913 2914 2915 2916 2917 2918 2919 2920 2921 2922 2923 2924 2925 2926 2927 2928 2929 2930 2931 2932 2933 2934 2935 2936 2937 2938 2939 2940 2941 2942 2943 2944 2945 2946 2947 2948 2949 2950 2951 2952 2953 2954 2955 2956 2957 2958 2959 2960 2961 2962 2963 2964 2965 2966 2967 2968 2969 2970 2971 2972 2973 2974 2975 2976 2977 2978 2979 2980 2981 2982 2983 2984 2985 2986 2987 2988 2989 2990 2991 2992 2993 2994 2995 2996 2997 2998 2999 3000 3001 3002 3003 3004 3005 3006 3007 3008 3009 3010 3011 3012 3013 3014 3015 3016 3017 3018 3019 3020 3021 3022 3023 3024 3025 3026 3027 3028 3029 3030 3031 3032 3033 3034 3035 3036 3037 3038 3039 3040 3041 3042 3043 3044 3045 3046 3047 3048 3049 3050 3051 3052 3053 3054 3055 3056 3057 3058 3059 3060 3061 3062 3063 3064 3065 3066 3067 3068 3069 3070 3071 3072 3073 3074 3075 3076 3077 3078 3079 3080 3081 3082 3083 3084 3085 3086 3087 3088 3089 3090 3091 3092 3093 3094 3095 3096 3097 3098 3099 3100 3101 3102 3103 3104 3105 3106 3107 3108 3109 3110 3111 3112 3113 3114 3115 3116 3117 3118 3119 3120 3121 3122 3123 3124 3125 3126 3127 3128 3129 3130 3131 3132 3133 3134 3135 3136 3137 3138 3139 3140 3141 
</DataArray>
<DataArray type="UInt32" Name="offsets" format="ascii">
3 6 9 12 15 18 21 24 27 30 33 36 39 42 45 48 51 54 57 60 63 66 69 72 75 78 81 84 87 90 93 96 99 102 105 108 111 114 117 120 123 126 129 132 135 138 141 144 147 150 153 156 159 162 165 168 171 174 177 180 183 186 189 192 195 198 201 204 207 210 213 216 219 222 225 228 231 234 237 240 243 246 249 252 255 258 261 264 267 270 273 276 279 282 285 288 291 294 297 300 303 306 309 312 315 318 321 324 327 330 333 336 339 342 345 348 351 354 357 360 363 366 369 372 375 378 381 384 387 390 393 396 399 402 405 408 411 414 417 420 423 426 429 432 435 438 441 444 447 450 453 456 459 462 465 468 471 474 477 480 483 486 489 492 495 498 501 504 507 510 513 516 519 522 525 528 531 534 537 540 543 546 549 552 555 558 561 564 567 570 573 576 579 582 585 588 591 594 597 600 603 606 609 612 615 618 621 624 627 630 633 636 639 642 645 648 651 654 657 660 663 666 669 672 675 678 681 684 687 690 693 696 699 702 705 708 711 714 717 720 723 726 729 732 735 738 741 744 747 750 753 756 759 762 765 768 771 774 777 780 783 786 789 792 795 798 801 804 807 810 813 816 819 822 825 828 831 834 837 840 843 846 849 852 855 858 861 864 867 870 873 876 879 882 885 888 891 894 897 900 903 906 909 912 915 918 921 924 927 930 933 936 939 942 945 948 951 954 957 960 963 966 969 972 975 978 981 984 987 990 993 996 999 1002 1005 1008 1011 1014 1017 1020 1023 1026 1029 1032 1035 1038 1041 1044 1047 1050 1053 1056 1059 1062 1065 1068 1071 1074 1077 1080 1083 1086 1089 1092 1095 1098 1101 1104 1107 1110 1113 1116 1119 1122 1125 1128 1131 1134 1137 1140 1143 1146 1149 1152 1155 1158 1161 1164 1167 1170 1173 1176 1179 1182 1185 1188 1191 1194 1197 1200 1203 1206 1209 1212 1215 1218 1221 1224 1227 1230 1233 1236 1239 1242 1245 1248 1251 1254 1257 1260 1263 1266 1269 1272 1275 1278 1281 1284 1287 1290 1293 1296 1299 1302 1305 1308 1311 1314 1317 1320 1323 1326 1329 1332 1335 1338 1341 1344 1347 1350 1353 1356 1359 1362 1365 1368 1371 1374 1377 1380 1383 1386 1389 1392 1395 1398 1401 1404 1407 1410 1413 1416 1419 1422 1425 1428 1431 1434 1437 1440 1443 1446 1449 1452 1455 1458 1461 1464 1467 1470 1473 1476 1479 1482 1485 1488 1491 1494 1497 1500 1503 1506 1509 1512 1515 1518 1521 1524 1527 1530 1533 1536 1539 1542 1545 1548 1551 1554 1557 1560 1563 1566 1569 1572 1575 1578 1581 1584 1587 1590 1593 1596 1599 1602 1605 1608 1611 1614 1616 1619 1622 1624 1627 1630 1632 1635 1638 1641 1644 1647 1650 1653 1656 1659 1662 1665 1668 1671 1673 1676 1679 1682 1685 1688 1690 1693 1696 1699 1702 1705 1708 1711 1714 1717 1720 1723 1726 1729 1732 1735 1738 1741 1744 1747 1750 1753 1756 1759 1762 1765 1768 1771 1774 1777 1780 1783 1786 1789 1792 1795 1798 1801 1804 1807 1810 1813 1816 1819 1822 1825 1828 1831 1834 1837 1840 1843 1846 1849 1852 1855 1858 1861 1864 1867 1870 1873 1876 1879 1882 1885 1888 1891 1894 1897 1900 1903 1906 1909 1912 1915 1918 1921 1924 1927 1930 1933 1936 1939 1942 1945 1948 1951 1954 1957 1960 1963 1966 1969 1972 1975 1978 1981 1984 1987 1990 1993 1996 1999 2002 2005 2008 2011 2014 2017 2020 2023 2026 2029 2032 2035 2038 2041 2044 2047 2050 2053 2056 2059 2062 2065 2068 2071 2074 2077 2080 2083 2086 2089 2092 2095 2098 2101 2104 2107 2110 2113 2116 2119 2122 2125 2128 2131 2134 2137 2140 2143 2146 2149 2152 2155 2158 2161 2164 2167 2170 2173 2176 2179 2182 2185 2188 2191 2194 2196 2199 2202 2205 2207 2210 2213 2215 2218 2221 2224 2227 2230 2233 2236 2239 2242 2245 2248 2250 2253 2256 2259 2262 2264 2267 2270 2273 2276 2279 2282 2285 2288 2291 2294 2297 2300 2303 2306 2309 2312 2315 2318 2321 2324 2327 2330 2333 2336 2339 2342 2345 2348 2351 2354 2357 2360 2363 2366 2369 2372 2375 2378 2381 2384 2387 2390 2393 2396 2399 2402 2405 2408 2411 2414 2417 2420 2423 2426 2429 2432 2435 2438 2440 2443 2446 2449 2452 2455 2458 2461 2464 2467 2470 2473 2476 2479 2482 2484 2487 2490 2492 2495 2497 2500 2503 2506 2509 2512 2515 2518 2521 2524 2527 2530 2533 2536 2538 2541 2544 2547 2550 2553 2556 2559 2562 2565 2568 2571 2574 2577 2580 2583 2586 2589 2592 2595 2598 2601 2604 2607 2610 2613 2616 2619 2622 2625 2628 2631 2634 2637 2640 2643 2646 2649 2652 2655 2658 2661 2664 2667 2670 2673 2676 2679 2682 2685 2688 2691 2694 2697 2700 2703 2706 2709 2712 2715 2718 2721 2724 2727 2730 2733 2736 2739 2742 2745 2748 2751 2754 2757 2760 2763 2766 2769 2772 2775 2778 2781 2784 2787 2790 2793 2796 2799 2802 2805 2808 2811 2814 2817 2820 2823 2826 2829 2832 2835 2838 2841 2844 2847 2850 2853 2856 2859 2862 2865 2868 2871 2874 2877 2880 2883 2886 2889 2892 2895 2898 2901 2904 2907 2910 2913 2916 2919 2922 2925 2928 2931 2934 2937 2940 2943 2946 2948 2951 2954 2956 2959 2961 2964 2967 2970 2973 2976 2979 2982 2985 2988 2991 2994 2997 3000 3003 3006 3009 3012 3015 3018 3021 3024 3027 3030 3033 3036 3039 3042 3045 3048 3051 3054 3057 3060 3063 3066 3069 3072 3075 3078 3081 3084 3087 3090 3093 3096 3099 3102 3104 3107 3110 3113 3116 3119 3121 3124 3127 3130 3133 3136 3139 3142 
</DataArray>
<DataArray type="UInt32" Name="types" format="ascii">
5 5 5 5 5 5 5 5 5 5 5 5 5 5 5 5 5 5 5 5 5 5 5 5 5 5 5 5 5 5 5 5 5 5 5 5 5 5 5 5 5 5 5 5 5 5 5 5 5 5 5 5 5 5 5 5 5 5 5 5 5 5 5 5 5 5 5 5 5 5 5 5 5 5 5 5 5 5 5 5 5 5 5 5 5 5 5 5 5 5 5 5 5 5 5 5 5 5 5 5 5 5 5 5 5 5 5 5 5 5 5 5 5 5 5 5 5 5 5 5 5 5 5 5 5 5 5 5 5 5 5 5 5 5 5 5 5 5 5 5 5 5 5 5 5 5 5 5 5 5 5 5 5 5 5 5 5 5 5 5 5 5 5 5 5 5 5 5 5 5 5 5 5 5 5 5 5 5 5 5 5 5 5 5 5 5 5 5 5 5 5 5 5 5 5 5 5 5 5 5 5 5 5 5 5 5 5 5 5 5 5 5 5 5 5 5 5 5 5 5 5 5 5 5 5 5 5 5 5 5 5 5 5 5 5 5 5 5 5 5 5 5 5 5 5 5 5 5 5 5 5 5 5 5 5 5 5 5 5 5 5 5 5 5 5 5 5 5 5 5 5 5 5 5 5 5 5 5 5 5 5 5 5 5 5 5 5 5 5 5 5 5 5 5 5 5 5 5 5 5 5 5 5 5 5 5 5 5 5 5 5 5 5 5 5 5 5 5 5 5 5 5 5 5 5 5 5 5 5 5 5 5 5 5 5 5 5 5 5 5 5 5 5 5 5 5 5 5 5 5 5 5 5 5 5 5 5 5 5 5 5 5 5 5 5 5 5 5 5 5 5 5 5 5 5 5 5 5 5 5 5 5 5 5 5 5 5 5 5 5 5 5 5 5 5 5 5 5 5 5 5 5 5 5 5 5 5 5 5 5 5 5 5 5 5 5 5 5 5 5 5 5 5 5 5 5 5 5 5 5 5 5 5 5 5 5 5 5 5 5 5 5 5 5 5 5 5 5 5 5 5 5 5 5 5 5 5 5 5 5 5 5 5 5 5 5 5 5 5 5 5 5 5 5 5 5 5 5 5 5 5 5 5 5 5 5 5 5 5 5 5 5 5 5 5 5 5 5 5 5 5 5 5 5 5 5 5 5 5 5 5 5 5 5 5 5 5 5 5 5 5 5 5 5 5 5 5 5 5 5 5 5 5 5 5 5 5 5 3 5 5 3 5 5 3 5 5 5 5 5 5 5 5 5 5 5 5 5 3 5 5 5 5 5 3 5 5 5 5 5 5 5 5 5 5 5 5 5 5 5 5 5 5 5 5 5 5 5 5 5 5 5 5 5 5 5 5 5 5 5 5 5 5 5 5 5 5 5 5 5 5 5 5 5 5 5 5 5 5 5 5 5 5 5 5 5 5 5 5 5 5 5 5 5 5 5 5 5 5 5 5 5 5 5 5 5 5 5 5 5 5 5 5 5 5 5 5 5 5 5 5 5 5 5 5 5 5 5 5 5 5 5 5 5 5 5 5 5 5 5 5 5 5 5 5 5 5 5 5 5 5 5 5 5 5 5 5 5 5 5 5 5 5 5 5 5 5 5 5 5 5 5 5 5 5 5 5 5 5 5 5 5 5 5 5 5 5 5 5 5 5 5 5 3 5 5 5 3 5 5 3 5 5 5 5 5 5 5 5 5 5 5 3 5 5 5 5 3 5 5 5 5 5 5 5 5 5 5 5 5 5 5 5 5 5 5 5 5 5 5 5 5 5 5 5 5 5 5 5 5 5 5 5 5 5 5 5 5 5 5 5 5 5 5 5 5 5 5 5 5 5 5 5 5 5 5 3 5 5 5 5 5 5 5 5 5 5 5 5 5 5 3 5 5 3 5 3 5 5 5 5 5 5 5 5 5 5 5 5 5 3 5 5 5 5 5 5 5 5 5 5 5 5 5 5 5 5 5 5 5 5 5 5 5 5 5 5 5 5 5 5 5 5 5 5 5 5 5 5 5 5 5 5 5 5 5 5 5 5 5 5 5 5 5 5 5 5 5 5 5 5 5 5 5 5 5 5 5 5 5 5 5 5 5 5 5 5 5 5 5 5 5 5 5 5 5 5 5 5 5 5 5 5 5 5 5 5 5 5 5 5 5 5 5 5 5 5 5 5 5 5 5 5 5 5 5 5 5 5 5 5 5 5 5 5 5 5 5 5 5 5 5 5 5 5 5 5 3 5 5 3 5 3 5 5 5 5 5 5 5 5 5 5 5 5 5 5 5 5 5 5 5 5 5 5 5 5 5 5 5 5 5 5 5 5 5 5 5 5 5 5 5 5 5 5 5 5 5 5 5 3 5 5 5 5 5 3 5 5 5 5 5 5 5 
</DataArray>
</Cells>
<PointData Scalars="" Vectors="displacement," Tensors="">
<DataArray type="Float64" Name="displacement" NumberOfComponents="3" format="ascii">
-8.2137491636992528e-07 9.9280849463840412e-08 0 -1.7225118020581255e-09 -7.1129819882521386e-10 0 -1.8773738656418906e-06 -1.9740871290900636e-07 0 -8.2137491636992528e-07 9.9280849463840412e-08 0 -1.7225118020581255e-09 -7.1129819882521386e-10 0 -1.3966492640420257e-09 4.398277759247177e-10 0 -8.2137491636992528e-07 9.9280849463840412e-08 0 -1.8773738656418906e-06 -1.9740871290900636e-07 0 -1.7720561620529918e-06 5.1378859304635375e-07 0 -8.2137491636992528e-07 9.9280849463840412e-08 0 -1.7720561620529918e-06 5.1378859304635375e-07 0 -1.3966492640420257e-09 4.398277759247177e-10 0 -1.3966492640420257e-09 4.398277759247177e-10 0 -1.33533470816799e-09 1.8608831140099598e-10 0 -1.0963182532134212e-06 8.5582556976031565e-07 0 -1.33533470816799e-09 1.8608831140099598e-10 0 -1.0963182532134212e-06 8.5582556976031565e-07 0 -6.7669857005986925e-10 7.4969850590105711e-10 0 -1.7720561620529918e-06 5.1378859304635375e-07 0 -1.0963182532134212e-06 8.5582556976031565e-07 0 -2.4002719569532653e-06 1.1893977599626805e-06 0 -1.7720561620529918e-06 5.1378859304635375e-07 0 -1.3966492640420257e-09 4.398277759247177e-10 0 -1.0963182532134212e-06 8.5582556976031565e-07 0 -1.0963182532134212e-06 8.5582556976031565e-07 0 -2.4002719569532653e-06 1.1893977599626805e-06 0 -1.2205244854867367e-06 1.4170192172240727e-06 0 -2.4002719569532653e-06 1.1893977599626805e-06 0 -1.2205244854867367e-06 1.4170192172240727e-06 0 -2.3777803211760838e-06 1.6735677831172688e-06 0 -2.4002719569532653e-06 1.1893977599626805e-06 0 -3.678286184950879e-06 1.4022010035647495e-06 0 -2.3777803211760838e-06 1.6735677831172688e-06 0 -3.678286184950879e-06 1.4022010035647495e-06 0 -2.3777803211760838e-06 1.6735677831172688e-06 0 -2.8179504910088545e-06 1.8210570847376613e-06 0 -3.678286184950879e-06 1.4022010035647495e-06 0 -3.8075728293939908e-06 7.1990291904623962e-07 0 -5.3448257386340711e-06 8.9548636623798241e-07 0 -2.4002719569532653e-06 1.1893977599626805e-06 0 -3.678286184950879e-06 1.4022010035647495e-06 0 -3.8075728293939908e-06 7.1990291904623962e-07 0 -3.8075728293939908e-06 7.1990291904623962e-07 0 -4.0738497044222948e-06 1.3348563729534059e-08 0 -6.6993350902129597e-06 -8.9258213439174972e-08 0 -1.8773738656418906e-06 -1.9740871290900636e-07 0 -1.7720561620529918e-06 5.1378859304635375e-07 0 -4.0738497044222948e-06 1.3348563729534059e-08 0 -1.7720561620529918e-06 5.1378859304635375e-07 0 -3.8075728293939908e-06 7.1990291904623962e-07 0 -4.0738497044222948e-06 1.3348563729534059e-08 0 -1.7720561620529918e-06 5.1378859304635375e-07 0 -2.4002719569532653e-06 1.1893977599626805e-06 0 -3.8075728293939908e-06 7.1990291904623962e-07 0 -1.2363487348397813e-07 1.2037050938138635e-06 0 -3.9120636172451318e-10 4.8637570992676561e-10 0 3.4054270480751502e-11 6.128899295004849e-10 0 -1.2363487348397813e-07 1.2037050938138635e-06 0 -3.9120636172451318e-10 4.8637570992676561e-10 0 -4.0773784015998771e-07 1.0145065731095036e-06 0 -1.2363487348397813e-07 1.2037050938138635e-06 0 -4.0773784015998771e-07 1.0145065731095036e-06 0 -6.8341254389642859e-07 1.8047725056086067e-06 0 -4.0773784015998771e-07 1.0145065731095036e-06 0 -6.7669857005986925e-10 7.4969850590105711e-10 0 -1.2205244854867367e-06 1.4170192172240727e-06 0 -1.0963182532134212e-06 8.5582556976031565e-07 0 -6.7669857005986925e-10 7.4969850590105711e-10 0 -1.2205244854867367e-06 1.4170192172240727e-06 0 -4.0773784015998771e-07 1.0145065731095036e-06 0 -1.2205244854867367e-06 1.4170192172240727e-06 0 -6.8341254389642859e-07 1.8047725056086067e-06 0 -3.9120636172451318e-10 4.8637570992676561e-10 0 -4.0773784015998771e-07 1.0145065731095036e-06 0 -6.7669857005986925e-10 7.4969850590105711e-10 0 -1.2205244854867367e-06 1.4170192172240727e-06 0 -2.3777803211760838e-06 1.6735677831172688e-06 0 -1.637816976697632e-06 1.9000144017713053e-06 0 -2.3777803211760838e-06 1.6735677831172688e-06 0 -1.637816976697632e-06 1.9000144017713053e-06 0 -2.8179504910088545e-06 1.8210570847376613e-06 0 -1.2205244854867367e-06 1.4170192172240727e-06 0 -1.637816976697632e-06 1.9000144017713053e-06 0 -6.8341254389642859e-07 1.8047725056086067e-06 0 -6.8341254389642859e-07 1.8047725056086067e-06 0 8.2506483991165625e-08 1.9620353560095629e-06 0 -9.9895306268120049e-07 2.0972629108705446e-06 0 -1.637816976697632e-06 1.9000144017713053e-06 0 -6.8341254389642859e-07 1.8047725056086067e-06 0 -9.9895306268120049e-07 2.0972629108705446e-06 0 -1.2363487348397813e-07 1.2037050938138635e-06 0 -6.8341254389642859e-07 1.8047725056086067e-06 0 8.2506483991165625e-08 1.9620353560095629e-06 0 -1.2363487348397813e-07 1.2037050938138635e-06 0 8.2506483991165625e-08 1.9620353560095629e-06 0 2.7031712640966161e-07 1.285092314097174e-06 0 8.2506483991165625e-08 1.9620353560095629e-06 0 8.9364572334809283e-08 2.0593742532991879e-06 0 -9.9895306268120049e-07 2.0972629108705446e-06 0 -1.3653609205985083e-07 1.8420033717769831e-06 0 8.9364572334809283e-08 2.0593742532991879e-06 0 -9.9895306268120049e-07 2.0972629108705446e-06 0 -1.3653609205985083e-07 1.8420033717769831e-06 0 -9.9895306268120049e-07 2.0972629108705446e-06 0 -1.9308817169305315e-06 1.7277913184649386e-06 0 -1.9308817169305315e-06 1.7277913184649386e-06 0 -2.8179504910088545e-06 1.8210570847376613e-06 0 -3.9078997750796025e-06 1.3696993184833791e-06 0 -1.637816976697632e-06 1.9000144017713053e-06 0 -9.9895306268120049e-07 2.0972629108705446e-06 0 -2.8179504910088545e-06 1.8210570847376613e-06 0 -9.9895306268120049e-07 2.0972629108705446e-06 0 -1.9308817169305315e-06 1.7277913184649386e-06 0 -2.8179504910088545e-06 1.8210570847376613e-06 0 -2.8179504910088545e-06 1.8210570847376613e-06 0 -3.9078997750796025e-06 1.3696993184833791e-06 0 -4.6577271092382071e-06 1.301519214893459e-06 0 -3.9078997750796025e-06 1.3696993184833791e-06 0 -5.558977924910405e-06 3.7370777398953486e-07 0 -2.6936723037817425e-06 1.0136958548052498e-06 0 -5.558977924910405e-06 3.7370777398953486e-07 0 -2.6936723037817425e-06 1.0136958548052498e-06 0 -4.4407914691611457e-06 -2.1774079831580345e-07 0 -2.6936723037817425e-06 1.0136958548052498e-06 0 -4.4407914691611457e-06 -2.1774079831580345e-07 0 -2.4044478150548688e-06 -2.9348061256129867e-07 0 -1.9308817169305315e-06 1.7277913184649386e-06 0 -3.9078997750796025e-06 1.3696993184833791e-06 0 -2.6936723037817425e-06 1.0136958548052498e-06 0 -1.3653609205985083e-07 1.8420033717769831e-06 0 -1.9308817169305315e-06 1.7277913184649386e-06 0 -6.9590813884424363e-07 1.0485729976086868e-06 0 -1.9308817169305315e-06 1.7277913184649386e-06 0 -2.6936723037817425e-06 1.0136958548052498e-06 0 -6.9590813884424363e-07 1.0485729976086868e-06 0 -2.6936723037817425e-06 1.0136958548052498e-06 0 -6.9590813884424363e-07 1.0485729976086868e-06 0 -2.4044478150548688e-06 -2.9348061256129867e-07 0 -6.9590813884424363e-07 1.0485729976086868e-06 0 1.1560541702513956e-06 2.8674785652745652e-07 0 1.2641527088090057e-06 1.3581783028267906e-06 0 -1.3653609205985083e-07 1.8420033717769831e-06 0 -6.9590813884424363e-07 1.0485729976086868e-06 0 1.2641527088090057e-06 1.3581783028267906e-06 0 -7.711655096231223e-06 1.4019182122827411e-07 0 -6.6993350902129597e-06 -8.9258213439174972e-08 0 -5.3448257386340711e-06 8.9548636623798241e-07 0 -7.711655096231223e-06 1.4019182122827411e-07 0 -5.3448257386340711e-06 8.9548636623798241e-07 0 -6.6755395353435674e-06 6.0801207512453662e-07 0 -7.711655096231223e-06 1.4019182122827411e-07 0 -6.6993350902129597e-06 -8.9258213439174972e-08 0 -9.7739414008253777e-06 -8.9741276883909722e-07 0 -3.8075728293939908e-06 7.1990291904623962e-07 0 -6.6993350902129597e-06 -8.9258213439174972e-08 0 -5.3448257386340711e-06 8.9548636623798241e-07 0 -3.678286184950879e-06 1.4022010035647495e-06 0 -5.3448257386340711e-06 8.9548636623798241e-07 0 -4.6577271092382071e-06 1.301519214893459e-06 0 -3.678286184950879e-06 1.4022010035647495e-06 0 -2.8179504910088545e-06 1.8210570847376613e-06 0 -4.6577271092382071e-06 1.301519214893459e-06 0 -3.9078997750796025e-06 1.3696993184833791e-06 0 -4.6577271092382071e-06 1.301519214893459e-06 0 -6.6755395353435674e-06 6.0801207512453662e-07 0 -5.3448257386340711e-06 8.9548636623798241e-07 0 -4.6577271092382071e-06 1.301519214893459e-06 0 -6.6755395353435674e-06 6.0801207512453662e-07 0 -3.9078997750796025e-06 1.3696993184833791e-06 0 -5.558977924910405e-06 3.7370777398953486e-07 0 -6.6755395353435674e-06 6.0801207512453662e-07 0 -5.558977924910405e-06 3.7370777398953486e-07 0 -6.6755395353435674e-06 6.0801207512453662e-07 0 -8.2138838914150304e-06 -4.8394037602309538e-07 0 -5.558977924910405e-06 3.7370777398953486e-07 0 -8.2138838914150304e-06 -4.8394037602309538e-07 0 -7.5701962505872824e-06 -1.3326513281248544e-06 0 -6.6755395353435674e-06 6.0801207512453662e-07 0 -8.2138838914150304e-06 -4.8394037602309538e-07 0 -9.6379947046270663e-06 -6.8206325664674249e-07 0 -8.2138838914150304e-06 -4.8394037602309538e-07 0 -9.6379947046270663e-06 -6.8206325664674249e-07 0 -1.1487895969824859e-05 -2.2196486601553507e-06 0 -7.711655096231223e-06 1.4019182122827411e-07 0 -6.6755395353435674e-06 6.0801207512453662e-07 0 -9.6379947046270663e-06 -6.8206325664674249e-07 0 -7.711655096231223e-06 1.4019182122827411e-07 0 -9.6379947046270663e-06 -6.8206325664674249e-07 0 -9.7739414008253777e-06 -8.9741276883909722e-07 0 -9.6379947046270663e-06 -6.8206325664674249e-07 0 -9.7739414008253777e-06 -8.9741276883909722e-07 0 -1.3224797595936341e-05 -2.4559100095718415e-06 0 -1.3224797595936341e-05 -2.4559100095718415e-06 0 -1.1487895969824859e-05 -2.2196486601553507e-06 0 -1.6854014037771059e-05 -4.9038769778455494e-06 0 -9.6379947046270663e-06 -6.8206325664674249e-07 0 -1.3224797595936341e-05 -2.4559100095718415e-06 0 -1.1487895969824859e-05 -2.2196486601553507e-06 0 -1.1487895969824859e-05 -2.2196486601553507e-06 0 -1.6854014037771059e-05 -4.9038769778455494e-06 0 -1.5427703390619943e-05 -5.3258264326677966e-06 0 -1.6854014037771059e-05 -4.9038769778455494e-06 0 -1.5427703390619943e-05 -5.3258264326677966e-06 0 -2.1031525519741736e-05 -8.4322260222494157e-06 0 -1.5427703390619943e-05 -5.3258264326677966e-06 0 -1.872237399857867e-05 -8.4399186701824031e-06 0 -1.3363503107520312e-05 -6.6092640183326765e-06 0 -1.872237399857867e-05 -8.4399186701824031e-06 0 -1.3363503107520312e-05 -6.6092640183326765e-06 0 -1.867299677415728e-05 -1.13228773879114e-05 0 -1.5427703390619943e-05 -5.3258264326677966e-06 0 -1.872237399857867e-05 -8.4399186701824031e-06 0 -2.1031525519741736e-05 -8.4322260222494157e-06 0 -1.872237399857867e-05 -8.4399186701824031e-06 0 -2.1031525519741736e-05 -8.4322260222494157e-06 0 -2.5599715845638293e-05 -1.3218014112781804e-05 0 -1.3363503107520312e-05 -6.6092640183326765e-06 0 -8.161327485441492e-06 -6.5271948542150271e-06 0 -1.2335303114070561e-05 -1.0397152868973165e-05 0 -1.3363503107520312e-05 -6.6092640183326765e-06 0 -8.7297999336260805e-06 -3.807243442071595e-06 0 -8.161327485441492e-06 -6.5271948542150271e-06 0 -1.5427703390619943e-05 -5.3258264326677966e-06 0 -1.3363503107520312e-05 -6.6092640183326765e-06 0 -1.1321245126061456e-05 -3.6100107089370925e-06 0 -1.3363503107520312e-05 -6.6092640183326765e-06 0 -8.7297999336260805e-06 -3.807243442071595e-06 0 -1.1321245126061456e-05 -3.6100107089370925e-06 0 -8.7297999336260805e-06 -3.807243442071595e-06 0 -1.1321245126061456e-05 -3.6100107089370925e-06 0 -7.5701962505872824e-06 -1.3326513281248544e-06 0 -1.1487895969824859e-05 -2.2196486601553507e-06 0 -1.5427703390619943e-05 -5.3258264326677966e-06 0 -1.1321245126061456e-05 -3.6100107089370925e-06 0 -1.1487895969824859e-05 -2.2196486601553507e-06 0 -1.1321245126061456e-05 -3.6100107089370925e-06 0 -7.5701962505872824e-06 -1.3326513281248544e-06 0 -8.2138838914150304e-06 -4.8394037602309538e-07 0 -1.1487895969824859e-05 -2.2196486601553507e-06 0 -7.5701962505872824e-06 -1.3326513281248544e-06 0 -5.558977924910405e-06 3.7370777398953486e-07 0 -7.5701962505872824e-06 -1.3326513281248544e-06 0 -4.4407914691611457e-06 -2.1774079831580345e-07 0 -7.5701962505872824e-06 -1.3326513281248544e-06 0 -4.4407914691611457e-06 -2.1774079831580345e-07 0 -5.0941739320342745e-06 -1.80384398671631e-06 0 -4.4407914691611457e-06 -2.1774079831580345e-07 0 -5.0941739320342745e-06 -1.80384398671631e-06 0 -2.4044478150548688e-06 -2.9348061256129867e-07 0 -5.0941739320342745e-06 -1.80384398671631e-06 0 -2.3684834080231928e-06 -2.5054466089173899e-06 0 -5.4109199286733713e-06 -3.9239816912936314e-06 0 -5.0941739320342745e-06 -1.80384398671631e-06 0 -2.4044478150548688e-06 -2.9348061256129867e-07 0 -2.3684834080231928e-06 -2.5054466089173899e-06 0 -8.7297999336260805e-06 -3.807243442071595e-06 0 -7.5701962505872824e-06 -1.3326513281248544e-06 0 -5.0941739320342745e-06 -1.80384398671631e-06 0 -6.9590813884424363e-07 1.0485729976086868e-06 0 -2.0313600909333563e-07 -7.7072703968640397e-07 0 1.1560541702513956e-06 2.8674785652745652e-07 0 -6.9590813884424363e-07 1.0485729976086868e-06 0 -2.0313600909333563e-07 -7.7072703968640397e-07 0 -2.4044478150548688e-06 -2.9348061256129867e-07 0 -2.0313600909333563e-07 -7.7072703968640397e-07 0 -2.4044478150548688e-06 -2.9348061256129867e-07 0 -2.3684834080231928e-06 -2.5054466089173899e-06 0 -2.0313600909333563e-07 -7.7072703968640397e-07 0 6.8355143088651644e-07 -3.6893522706606718e-06 0 2.2517978560230741e-06 -1.1341452480675205e-06 0 -2.0313600909333563e-07 -7.7072703968640397e-07 0 6.8355143088651644e-07 -3.6893522706606718e-06 0 -2.3684834080231928e-06 -2.5054466089173899e-06 0 6.8355143088651644e-07 -3.6893522706606718e-06 0 -2.3684834080231928e-06 -2.5054466089173899e-06 0 -3.4538850329276696e-06 -5.4954429531562769e-06 0 6.8355143088651644e-07 -3.6893522706606718e-06 0 -3.4538850329276696e-06 -5.4954429531562769e-06 0 -4.7868616832069449e-07 -7.6513724602728054e-06 0 6.8355143088651644e-07 -3.6893522706606718e-06 0 -4.7868616832069449e-07 -7.6513724602728054e-06 0 3.5795227031266539e-06 -6.3054669309637703e-06 0 -8.7297999336260805e-06 -3.807243442071595e-06 0 -5.0941739320342745e-06 -1.80384398671631e-06 0 -5.4109199286733713e-06 -3.9239816912936314e-06 0 -8.7297999336260805e-06 -3.807243442071595e-06 0 -5.4109199286733713e-06 -3.9239816912936314e-06 0 -8.161327485441492e-06 -6.5271948542150271e-06 0 -2.3684834080231928e-06 -2.5054466089173899e-06 0 -5.4109199286733713e-06 -3.9239816912936314e-06 0 -3.4538850329276696e-06 -5.4954429531562769e-06 0 -3.4538850329276696e-06 -5.4954429531562769e-06 0 -8.161327485441492e-06 -6.5271948542150271e-06 0 -5.9856818146798621e-06 -9.3791638883289023e-06 0 -5.4109199286733713e-06 -3.9239816912936314e-06 0 -3.4538850329276696e-06 -5.4954429531562769e-06 0 -8.161327485441492e-06 -6.5271948542150271e-06 0 -8.161327485441492e-06 -6.5271948542150271e-06 0 -5.9856818146798621e-06 -9.3791638883289023e-06 0 -1.2335303114070561e-05 -1.0397152868973165e-05 0 -5.9856818146798621e-06 -9.3791638883289023e-06 0 -2.373283427488422e-06 -1.2129353140142915e-05 0 -9.9573402148641675e-06 -1.5198435441511867e-05 0 -5.9856818146798621e-06 -9.3791638883289023e-06 0 -9.9573402148641675e-06 -1.5198435441511867e-05 0 -1.2335303114070561e-05 -1.0397152868973165e-05 0 -4.7868616832069449e-07 -7.6513724602728054e-06 0 3.0496589855397836e-06 -1.0425078123827444e-05 0 3.5795227031266539e-06 -6.3054669309637703e-06 0 -3.4538850329276696e-06 -5.4954429531562769e-06 0 -5.9856818146798621e-06 -9.3791638883289023e-06 0 -4.7868616832069449e-07 -7.6513724602728054e-06 0 -5.9856818146798621e-06 -9.3791638883289023e-06 0 -4.7868616832069449e-07 -7.6513724602728054e-06 0 -2.373283427488422e-06 -1.2129353140142915e-05 0 -4.7868616832069449e-07 -7.6513724602728054e-06 0 -2.373283427488422e-06 -1.2129353140142915e-05 0 3.0496589855397836e-06 -1.0425078123827444e-05 0 -2.373283427488422e-06 -1.2129353140142915e-05 0 1.2925748197703902e-06 -1.5799525414447317e-05 0 3.0496589855397836e-06 -1.0425078123827444e-05 0 -2.373283427488422e-06 -1.2129353140142915e-05 0 1.2925748197703902e-06 -1.5799525414447317e-05 0 -4.1892479534132405e-06 -1.8579787067318671e-05 0 -4.1892479534132405e-06 -1.8579787067318671e-05 0 -7.2489856150468718e-06 -2.7017162566256005e-05 0 -1.4097039655289881e-06 -2.3922594987357911e-05 0 1.2925748197703902e-06 -1.5799525414447317e-05 0 -4.1892479534132405e-06 -1.8579787067318671e-05 0 -1.4097039655289881e-06 -2.3922594987357911e-05 0 1.2925748197703902e-06 -1.5799525414447317e-05 0 4.6136681867202905e-06 -1.9999413052605356e-05 0 -1.4097039655289881e-06 -2.3922594987357911e-05 0 -9.9573402148641675e-06 -1.5198435441511867e-05 0 -4.1892479534132405e-06 -1.8579787067318671e-05 0 -1.0819431922487877e-05 -2.1679461754396235e-05 0 -2.373283427488422e-06 -1.2129353140142915e-05 0 -9.9573402148641675e-06 -1.5198435441511867e-05 0 -4.1892479534132405e-06 -1.8579787067318671e-05 0 -4.1892479534132405e-06 -1.8579787067318671e-05 0 -1.0819431922487877e-05 -2.1679461754396235e-05 0 -7.2489856150468718e-06 -2.7017162566256005e-05 0 -9.9573402148641675e-06 -1.5198435441511867e-05 0 -1.0819431922487877e-05 -2.1679461754396235e-05 0 -1.791399248553132e-05 -2.1743263519851633e-05 0 -1.0819431922487877e-05 -2.1679461754396235e-05 0 -1.791399248553132e-05 -2.1743263519851633e-05 0 -1.4823098415714934e-05 -2.6872973110244622e-05 0 -9.9573402148641675e-06 -1.5198435441511867e-05 0 -1.791399248553132e-05 -2.1743263519851633e-05 0 -1.7938493634321512e-05 -1.5749261373014542e-05 0 -1.791399248553132e-05 -2.1743263519851633e-05 0 -2.5149626814019877e-05 -2.1556295070438445e-05 0 -1.7938493634321512e-05 -1.5749261373014542e-05 0 -1.791399248553132e-05 -2.1743263519851633e-05 0 -2.5149626814019877e-05 -2.1556295070438445e-05 0 -2.5811305146403307e-05 -3.079185403628267e-05 0 -2.5149626814019877e-05 -2.1556295070438445e-05 0 -3.5009691091537712e-05 -2.7981918279093483e-05 0 -2.5811305146403307e-05 -3.079185403628267e-05 0 -2.5149626814019877e-05 -2.1556295070438445e-05 0 -3.5009691091537712e-05 -2.7981918279093483e-05 0 -3.0345510384008519e-05 -1.9754056175420548e-05 0 -2.5149626814019877e-05 -2.1556295070438445e-05 0 -3.0345510384008519e-05 -1.9754056175420548e-05 0 -2.3512032157481913e-05 -1.6149589654152271e-05 0 -2.5149626814019877e-05 -2.1556295070438445e-05 0 -2.3512032157481913e-05 -1.6149589654152271e-05 0 -1.7938493634321512e-05 -1.5749261373014542e-05 0 -2.3512032157481913e-05 -1.6149589654152271e-05 0 -2.5599715845638293e-05 -1.3218014112781804e-05 0 -1.867299677415728e-05 -1.13228773879114e-05 0 -2.3512032157481913e-05 -1.6149589654152271e-05 0 -1.867299677415728e-05 -1.13228773879114e-05 0 -1.7938493634321512e-05 -1.5749261373014542e-05 0 -3.0345510384008519e-05 -1.9754056175420548e-05 0 -2.3512032157481913e-05 -1.6149589654152271e-05 0 -2.5599715845638293e-05 -1.3218014112781804e-05 0 -1.872237399857867e-05 -8.4399186701824031e-06 0 -2.5599715845638293e-05 -1.3218014112781804e-05 0 -1.867299677415728e-05 -1.13228773879114e-05 0 -1.3363503107520312e-05 -6.6092640183326765e-06 0 -1.867299677415728e-05 -1.13228773879114e-05 0 -1.2335303114070561e-05 -1.0397152868973165e-05 0 -9.9573402148641675e-06 -1.5198435441511867e-05 0 -1.2335303114070561e-05 -1.0397152868973165e-05 0 -1.7938493634321512e-05 -1.5749261373014542e-05 0 -1.867299677415728e-05 -1.13228773879114e-05 0 -1.2335303114070561e-05 -1.0397152868973165e-05 0 -1.7938493634321512e-05 -1.5749261373014542e-05 0 9.2027772469265973e-06 -6.4474814138870831e-06 0 9.4857140038170418e-06 -3.6555688793698354e-06 0 1.0405592196966247e-05 -5.1901508962372697e-06 0 9.2027772469265973e-06 -6.4474814138870831e-06 0 8.3441066298656411e-06 -4.5087986508947217e-06 0 9.4857140038170418e-06 -3.6555688793698354e-06 0 9.2027772469265973e-06 -6.4474814138870831e-06 0 8.3441066298656411e-06 -4.5087986508947217e-06 0 7.6199055935154551e-06 -6.6651051305936715e-06 0 9.4857140038170418e-06 -3.6555688793698354e-06 0 1.0808099704511176e-05 -2.1456428545334047e-06 0 1.0405592196966247e-05 -5.1901508962372697e-06 0 1.0808099704511176e-05 -2.1456428545334047e-06 0 1.2150892053177136e-05 -2.6505699805814191e-06 0 1.2074611967998323e-05 4.3625115571356799e-08 0 1.0808099704511176e-05 -2.1456428545334047e-06 0 1.2150892053177136e-05 -2.6505699805814191e-06 0 1.0405592196966247e-05 -5.1901508962372697e-06 0 1.2150892053177136e-05 -2.6505699805814191e-06 0 1.0405592196966247e-05 -5.1901508962372697e-06 0 1.1480589333305892e-05 -5.4591963726821344e-06 0 1.0405592196966247e-05 -5.1901508962372697e-06 0 1.1480589333305892e-05 -5.4591963726821344e-06 0 1.0926348572402721e-05 -8.0574401521851708e-06 0 1.2150892053177136e-05 -2.6505699805814191e-06 0 1.1480589333305892e-05 -5.4591963726821344e-06 0 1.2713714581239053e-05 -6.1104833946415553e-06 0 1.1480589333305892e-05 -5.4591963726821344e-06 0 1.2713714581239053e-05 -6.1104833946415553e-06 0 1.0926348572402721e-05 -8.0574401521851708e-06 0 1.0926348572402721e-05 -8.0574401521851708e-06 0 9.5875453033867415e-06 -8.8366505049555316e-06 0 9.8972423939035451e-06 -1.14567650475571e-05 0 1.0405592196966247e-05 -5.1901508962372697e-06 0 1.0926348572402721e-05 -8.0574401521851708e-06 0 9.5875453033867415e-06 -8.8366505049555316e-06 0 9.2027772469265973e-06 -6.4474814138870831e-06 0 1.0405592196966247e-05 -5.1901508962372697e-06 0 9.5875453033867415e-06 -8.8366505049555316e-06 0 9.2027772469265973e-06 -6.4474814138870831e-06 0 9.5875453033867415e-06 -8.8366505049555316e-06 0 8.610826427580531e-06 -9.184112518599207e-06 0 9.5875453033867415e-06 -8.8366505049555316e-06 0 8.6986659408272885e-06 -1.2274005559813916e-05 0 9.8972423939035451e-06 -1.14567650475571e-05 0 8.6986659408272885e-06 -1.2274005559813916e-05 0 8.7261978736421702e-06 -1.2453081020948162e-05 0 1.0288588703511246e-05 -1.6993950050539329e-05 0 8.6986659408272885e-06 -1.2274005559813916e-05 0 8.7261978736421702e-06 -1.2453081020948162e-05 0 8.610826427580531e-06 -9.184112518599207e-06 0 8.7261978736421702e-06 -1.2453081020948162e-05 0 8.610826427580531e-06 -9.184112518599207e-06 0 6.9063391249516859e-06 -8.9744428458610296e-06 0 9.5875453033867415e-06 -8.8366505049555316e-06 0 8.6986659408272885e-06 -1.2274005559813916e-05 0 8.610826427580531e-06 -9.184112518599207e-06 0 4.6136681867202905e-06 -1.9999413052605356e-05 0 6.6073434653403733e-06 -1.3560101009246e-05 0 1.0288588703511246e-05 -1.6993950050539329e-05 0 1.2925748197703902e-06 -1.5799525414447317e-05 0 4.6136681867202905e-06 -1.9999413052605356e-05 0 6.6073434653403733e-06 -1.3560101009246e-05 0 8.7261978736421702e-06 -1.2453081020948162e-05 0 6.6073434653403733e-06 -1.3560101009246e-05 0 1.0288588703511246e-05 -1.6993950050539329e-05 0 8.7261978736421702e-06 -1.2453081020948162e-05 0 6.6073434653403733e-06 -1.3560101009246e-05 0 6.9063391249516859e-06 -8.9744428458610296e-06 0 1.2925748197703902e-06 -1.5799525414447317e-05 0 6.6073434653403733e-06 -1.3560101009246e-05 0 3.0496589855397836e-06 -1.0425078123827444e-05 0 6.6073434653403733e-06 -1.3560101009246e-05 0 3.0496589855397836e-06 -1.0425078123827444e-05 0 6.9063391249516859e-06 -8.9744428458610296e-06 0 3.0496589855397836e-06 -1.0425078123827444e-05 0 6.9063391249516859e-06 -8.9744428458610296e-06 0 3.5795227031266539e-06 -6.3054669309637703e-06 0 6.9063391249516859e-06 -8.9744428458610296e-06 0 3.5795227031266539e-06 -6.3054669309637703e-06 0 5.8738824680310854e-06 -4.9344140640180849e-06 0 9.2027772469265973e-06 -6.4474814138870831e-06 0 8.610826427580531e-06 -9.184112518599207e-06 0 7.6199055935154551e-06 -6.6651051305936715e-06 0 8.610826427580531e-06 -9.184112518599207e-06 0 6.9063391249516859e-06 -8.9744428458610296e-06 0 7.6199055935154551e-06 -6.6651051305936715e-06 0 6.9063391249516859e-06 -8.9744428458610296e-06 0 7.6199055935154551e-06 -6.6651051305936715e-06 0 5.8738824680310854e-06 -4.9344140640180849e-06 0 7.6199055935154551e-06 -6.6651051305936715e-06 0 5.8738824680310854e-06 -4.9344140640180849e-06 0 6.9024014216341703e-06 -2.3586252483033766e-06 0 8.3441066298656411e-06 -4.5087986508947217e-06 0 7.6199055935154551e-06 -6.6651051305936715e-06 0 6.9024014216341703e-06 -2.3586252483033766e-06 0 5.8738824680310854e-06 -4.9344140640180849e-06 0 5.4285236142998947e-06 -2.5955349267628229e-06 0 6.9024014216341703e-06 -2.3586252483033766e-06 0 5.4285236142998947e-06 -2.5955349267628229e-06 0 6.9024014216341703e-06 -2.3586252483033766e-06 0 5.6556161710119703e-06 -1.0721517020133901e-06 0 6.8355143088651644e-07 -3.6893522706606718e-06 0 3.5795227031266539e-06 -6.3054669309637703e-06 0 3.81466019204938e-06 -3.2140883375785737e-06 0 3.5795227031266539e-06 -6.3054669309637703e-06 0 5.8738824680310854e-06 -4.9344140640180849e-06 0 3.81466019204938e-06 -3.2140883375785737e-06 0 5.8738824680310854e-06 -4.9344140640180849e-06 0 5.4285236142998947e-06 -2.5955349267628229e-06 0 3.81466019204938e-06 -3.2140883375785737e-06 0 5.4285236142998947e-06 -2.5955349267628229e-06 0 3.81466019204938e-06 -3.2140883375785737e-06 0 4.2467524265413944e-06 -1.11509658865649e-06 0 6.8355143088651644e-07 -3.6893522706606718e-06 0 3.81466019204938e-06 -3.2140883375785737e-06 0 2.2517978560230741e-06 -1.1341452480675205e-06 0 3.81466019204938e-06 -3.2140883375785737e-06 0 2.2517978560230741e-06 -1.1341452480675205e-06 0 4.2467524265413944e-06 -1.11509658865649e-06 0 2.2517978560230741e-06 -1.1341452480675205e-06 0 4.2467524265413944e-06 -1.11509658865649e-06 0 2.9016061036878756e-06 5.7579136807764463e-07 0 2.2517978560230741e-06 -1.1341452480675205e-06 0 1.1560541702513956e-06 2.8674785652745652e-07 0 2.9016061036878756e-06 5.7579136807764463e-07 0 -2.0313600909333563e-07 -7.7072703968640397e-07 0 2.2517978560230741e-06 -1.1341452480675205e-06 0 1.1560541702513956e-06 2.8674785652745652e-07 0 6.9024014216341703e-06 -2.3586252483033766e-06 0 5.6556161710119703e-06 -1.0721517020133901e-06 0 6.4063021350343232e-06 -1.8275841916072909e-07 0 5.4285236142998947e-06 -2.5955349267628229e-06 0 5.6556161710119703e-06 -1.0721517020133901e-06 0 4.2467524265413944e-06 -1.11509658865649e-06 0 5.6556161710119703e-06 -1.0721517020133901e-06 0 4.2467524265413944e-06 -1.11509658865649e-06 0 4.7630982295156682e-06 1.4610294066334643e-07 0 4.2467524265413944e-06 -1.11509658865649e-06 0 4.7630982295156682e-06 1.4610294066334643e-07 0 2.9016061036878756e-06 5.7579136807764463e-07 0 5.6556161710119703e-06 -1.0721517020133901e-06 0 4.7630982295156682e-06 1.4610294066334643e-07 0 6.4063021350343232e-06 -1.8275841916072909e-07 0 4.7630982295156682e-06 1.4610294066334643e-07 0 6.4063021350343232e-06 -1.8275841916072909e-07 0 4.6887582292571532e-06 1.0475025185855011e-06 0 6.4063021350343232e-06 -1.8275841916072909e-07 0 7.9923732227367217e-06 -8.5499667620704289e-08 0 6.233165198148274e-06 7.2230101749948436e-07 0 7.9923732227367217e-06 -8.5499667620704289e-08 0 7.836149664248721e-06 6.5521079634087314e-07 0 6.233165198148274e-06 7.2230101749948436e-07 0 6.4063021350343232e-06 -1.8275841916072909e-07 0 7.9923732227367217e-06 -8.5499667620704289e-08 0 7.8272622195472789e-06 -1.2361784519426212e-06 0 6.9024014216341703e-06 -2.3586252483033766e-06 0 6.4063021350343232e-06 -1.8275841916072909e-07 0 7.8272622195472789e-06 -1.2361784519426212e-06 0 6.9024014216341703e-06 -2.3586252483033766e-06 0 7.8272622195472789e-06 -1.2361784519426212e-06 0 8.4415818213984898e-06 -2.5997751877294364e-06 0 7.8272622195472789e-06 -1.2361784519426212e-06 0 8.4415818213984898e-06 -2.5997751877294364e-06 0 9.3725121178357778e-06 -1.2851501226637699e-06 0 7.9923732227367217e-06 -8.5499667620704289e-08 0 7.8272622195472789e-06 -1.2361784519426212e-06 0 9.3725121178357778e-06 -1.2851501226637699e-06 0 9.4857140038170418e-06 -3.6555688793698354e-06 0 8.4415818213984898e-06 -2.5997751877294364e-06 0 9.3725121178357778e-06 -1.2851501226637699e-06 0 8.3441066298656411e-06 -4.5087986508947217e-06 0 9.4857140038170418e-06 -3.6555688793698354e-06 0 8.4415818213984898e-06 -2.5997751877294364e-06 0 8.3441066298656411e-06 -4.5087986508947217e-06 0 6.9024014216341703e-06 -2.3586252483033766e-06 0 8.4415818213984898e-06 -2.5997751877294364e-06 0 1.0808099704511176e-05 -2.1456428545334047e-06 0 1.0630100967489808e-05 -3.4697852259655566e-07 0 1.2074611967998323e-05 4.3625115571356799e-08 0 1.0808099704511176e-05 -2.1456428545334047e-06 0 1.0630100967489808e-05 -3.4697852259655566e-07 0 9.3725121178357778e-06 -1.2851501226637699e-06 0 9.4857140038170418e-06 -3.6555688793698354e-06 0 1.0808099704511176e-05 -2.1456428545334047e-06 0 9.3725121178357778e-06 -1.2851501226637699e-06 0 7.9923732227367217e-06 -8.5499667620704289e-08 0 9.3725121178357778e-06 -1.2851501226637699e-06 0 9.5080939945341539e-06 1.5351714742758831e-07 0 1.0630100967489808e-05 -3.4697852259655566e-07 0 9.5080939945341539e-06 1.5351714742758831e-07 0 1.1301617036924113e-05 1.1049840610127543e-06 0 1.0630100967489808e-05 -3.4697852259655566e-07 0 9.3725121178357778e-06 -1.2851501226637699e-06 0 9.5080939945341539e-06 1.5351714742758831e-07 0 9.5080939945341539e-06 1.5351714742758831e-07 0 7.836149664248721e-06 6.5521079634087314e-07 0 9.4735614881708087e-06 8.7872745209848357e-07 0 7.9923732227367217e-06 -8.5499667620704289e-08 0 9.5080939945341539e-06 1.5351714742758831e-07 0 7.836149664248721e-06 6.5521079634087314e-07 0 7.836149664248721e-06 6.5521079634087314e-07 0 7.861037885082041e-06 9.1679679482996372e-07 0 9.4735614881708087e-06 8.7872745209848357e-07 0 7.861037885082041e-06 9.1679679482996372e-07 0 6.1675021735566361e-06 9.8394916198004946e-07 0 6.5130926858918105e-06 9.4792683349966028e-07 0 6.1675021735566361e-06 9.8394916198004946e-07 0 6.5130926858918105e-06 9.4792683349966028e-07 0 5.2067687345194024e-06 1.2224049270987527e-06 0 7.836149664248721e-06 6.5521079634087314e-07 0 6.5130926858918105e-06 9.4792683349966028e-07 0 6.233165198148274e-06 7.2230101749948436e-07 0 7.836149664248721e-06 6.5521079634087314e-07 0 7.861037885082041e-06 9.1679679482996372e-07 0 6.5130926858918105e-06 9.4792683349966028e-07 0 6.4063021350343232e-06 -1.8275841916072909e-07 0 6.233165198148274e-06 7.2230101749948436e-07 0 4.6887582292571532e-06 1.0475025185855011e-06 0 5.2067687345194024e-06 1.2224049270987527e-06 0 3.7596812795063514e-06 1.5351777950671815e-06 0 4.6887582292571532e-06 1.0475025185855011e-06 0 6.233165198148274e-06 7.2230101749948436e-07 0 5.2067687345194024e-06 1.2224049270987527e-06 0 4.6887582292571532e-06 1.0475025185855011e-06 0 6.5130926858918105e-06 9.4792683349966028e-07 0 6.233165198148274e-06 7.2230101749948436e-07 0 5.2067687345194024e-06 1.2224049270987527e-06 0 5.2067687345194024e-06 1.2224049270987527e-06 0 3.62676618059488e-06 1.3562140114578875e-06 0 4.7005901172207105e-06 1.1225400622751634e-06 0 5.2067687345194024e-06 1.2224049270987527e-06 0 3.7596812795063514e-06 1.5351777950671815e-06 0 3.62676618059488e-06 1.3562140114578875e-06 0 3.7596812795063514e-06 1.5351777950671815e-06 0 3.62676618059488e-06 1.3562140114578875e-06 0 2.478379819092424e-06 1.5254813643424817e-06 0 3.62676618059488e-06 1.3562140114578875e-06 0 4.7005901172207105e-06 1.1225400622751634e-06 0 3.2777658871971709e-06 9.8371281409396783e-07 0 4.7005901172207105e-06 1.1225400622751634e-06 0 3.2777658871971709e-06 9.8371281409396783e-07 0 3.8887850054735681e-06 6.5139573004868141e-07 0 4.7005901172207105e-06 1.1225400622751634e-06 0 3.8887850054735681e-06 6.5139573004868141e-07 0 5.4694409248789249e-06 7.905814679711165e-07 0 6.1675021735566361e-06 9.8394916198004946e-07 0 4.7005901172207105e-06 1.1225400622751634e-06 0 5.4694409248789249e-06 7.905814679711165e-07 0 6.1675021735566361e-06 9.8394916198004946e-07 0 5.2067687345194024e-06 1.2224049270987527e-06 0 4.7005901172207105e-06 1.1225400622751634e-06 0 1.1560541702513956e-06 2.8674785652745652e-07 0 1.2641527088090057e-06 1.3581783028267906e-06 0 2.9016061036878756e-06 5.7579136807764463e-07 0 1.2641527088090057e-06 1.3581783028267906e-06 0 2.9016061036878756e-06 5.7579136807764463e-07 0 2.6638966764950991e-06 1.5125550624054664e-06 0 1.2641527088090057e-06 1.3581783028267906e-06 0 2.6638966764950991e-06 1.5125550624054664e-06 0 1.3037670378483195e-06 1.8989385223905687e-06 0 2.6638966764950991e-06 1.5125550624054664e-06 0 3.7873048380423645e-06 9.6084739019140799e-07 0 3.4453097488097428e-06 1.5218223263469587e-06 0 2.9016061036878756e-06 5.7579136807764463e-07 0 2.6638966764950991e-06 1.5125550624054664e-06 0 3.7873048380423645e-06 9.6084739019140799e-07 0 4.7630982295156682e-06 1.4610294066334643e-07 0 2.9016061036878756e-06 5.7579136807764463e-07 0 3.7873048380423645e-06 9.6084739019140799e-07 0 4.7630982295156682e-06 1.4610294066334643e-07 0 3.7873048380423645e-06 9.6084739019140799e-07 0 4.6887582292571532e-06 1.0475025185855011e-06 0 3.7873048380423645e-06 9.6084739019140799e-07 0 4.6887582292571532e-06 1.0475025185855011e-06 0 3.4453097488097428e-06 1.5218223263469587e-06 0 3.7596812795063514e-06 1.5351777950671815e-06 0 4.6887582292571532e-06 1.0475025185855011e-06 0 3.4453097488097428e-06 1.5218223263469587e-06 0 3.7596812795063514e-06 1.5351777950671815e-06 0 3.4453097488097428e-06 1.5218223263469587e-06 0 2.2510282808941346e-06 1.8750192676198934e-06 0 3.7596812795063514e-06 1.5351777950671815e-06 0 2.2510282808941346e-06 1.8750192676198934e-06 0 2.478379819092424e-06 1.5254813643424817e-06 0 2.6638966764950991e-06 1.5125550624054664e-06 0 3.4453097488097428e-06 1.5218223263469587e-06 0 2.2510282808941346e-06 1.8750192676198934e-06 0 2.6638966764950991e-06 1.5125550624054664e-06 0 2.2510282808941346e-06 1.8750192676198934e-06 0 1.3037670378483195e-06 1.8989385223905687e-06 0 2.2510282808941346e-06 1.8750192676198934e-06 0 1.3037670378483195e-06 1.8989385223905687e-06 0 6.9882340918093798e-07 2.0425676555773066e-06 0 8.9364572334809283e-08 2.0593742532991879e-06 0 1.3037670378483195e-06 1.8989385223905687e-06 0 6.9882340918093798e-07 2.0425676555773066e-06 0 -1.3653609205985083e-07 1.8420033717769831e-06 0 1.2641527088090057e-06 1.3581783028267906e-06 0 1.3037670378483195e-06 1.8989385223905687e-06 0 -1.3653609205985083e-07 1.8420033717769831e-06 0 8.9364572334809283e-08 2.0593742532991879e-06 0 1.3037670378483195e-06 1.8989385223905687e-06 0 8.2506483991165625e-08 1.9620353560095629e-06 0 1.016223384976838e-06 1.8140060908450441e-06 0 2.7031712640966161e-07 1.285092314097174e-06 0 8.2506483991165625e-08 1.9620353560095629e-06 0 8.9364572334809283e-08 2.0593742532991879e-06 0 6.9882340918093798e-07 2.0425676555773066e-06 0 8.2506483991165625e-08 1.9620353560095629e-06 0 6.9882340918093798e-07 2.0425676555773066e-06 0 1.016223384976838e-06 1.8140060908450441e-06 0 2.2510282808941346e-06 1.8750192676198934e-06 0 6.9882340918093798e-07 2.0425676555773066e-06 0 1.016223384976838e-06 1.8140060908450441e-06 0 1.016223384976838e-06 1.8140060908450441e-06 0 6.1156642378352026e-07 1.0864168909384578e-06 0 2.7031712640966161e-07 1.285092314097174e-06 0 1.016223384976838e-06 1.8140060908450441e-06 0 1.4888738980466078e-06 1.5583787271076329e-06 0 6.1156642378352026e-07 1.0864168909384578e-06 0 2.2510282808941346e-06 1.8750192676198934e-06 0 1.016223384976838e-06 1.8140060908450441e-06 0 1.4888738980466078e-06 1.5583787271076329e-06 0 2.2510282808941346e-06 1.8750192676198934e-06 0 1.4888738980466078e-06 1.5583787271076329e-06 0 2.478379819092424e-06 1.5254813643424817e-06 0 1.4888738980466078e-06 1.5583787271076329e-06 0 2.478379819092424e-06 1.5254813643424817e-06 0 1.0054188963612694e-06 9.8536487910599759e-07 0 1.4888738980466078e-06 1.5583787271076329e-06 0 6.1156642378352026e-07 1.0864168909384578e-06 0 1.0054188963612694e-06 9.8536487910599759e-07 0 7.0440584124844263e-10 5.132841241902888e-10 0 6.1156642378352026e-07 1.0864168909384578e-06 0 1.0054188963612694e-06 9.8536487910599759e-07 0 7.0440584124844263e-10 5.132841241902888e-10 0 6.1156642378352026e-07 1.0864168909384578e-06 0 4.4321253533468734e-10 5.1572216080207657e-10 0 6.1156642378352026e-07 1.0864168909384578e-06 0 4.4321253533468734e-10 5.1572216080207657e-10 0 2.7031712640966161e-07 1.285092314097174e-06 0 4.4321253533468734e-10 5.1572216080207657e-10 0 3.4054270480751502e-11 6.128899295004849e-10 0 2.7031712640966161e-07 1.285092314097174e-06 0 -1.2363487348397813e-07 1.2037050938138635e-06 0 3.4054270480751502e-11 6.128899295004849e-10 0 2.7031712640966161e-07 1.285092314097174e-06 0 2.0231074849491705e-06 5.4592879077706948e-07 0 3.2777658871971709e-06 9.8371281409396783e-07 0 2.0160601571805381e-06 1.0014792836360927e-06 0 2.0231074849491705e-06 5.4592879077706948e-07 0 3.2777658871971709e-06 9.8371281409396783e-07 0 3.8887850054735681e-06 6.5139573004868141e-07 0 3.62676618059488e-06 1.3562140114578875e-06 0 3.2777658871971709e-06 9.8371281409396783e-07 0 2.0160601571805381e-06 1.0014792836360927e-06 0 3.62676618059488e-06 1.3562140114578875e-06 0 2.478379819092424e-06 1.5254813643424817e-06 0 2.0160601571805381e-06 1.0014792836360927e-06 0 2.478379819092424e-06 1.5254813643424817e-06 0 2.0160601571805381e-06 1.0014792836360927e-06 0 1.0054188963612694e-06 9.8536487910599759e-07 0 2.0160601571805381e-06 1.0014792836360927e-06 0 8.3898543798903256e-07 5.8834523501213112e-07 0 1.0054188963612694e-06 9.8536487910599759e-07 0 7.0440584124844263e-10 5.132841241902888e-10 0 1.0054188963612694e-06 9.8536487910599759e-07 0 1.0604448205172891e-09 3.1155590449597286e-10 0 8.3898543798903256e-07 5.8834523501213112e-07 0 1.0054188963612694e-06 9.8536487910599759e-07 0 1.0604448205172891e-09 3.1155590449597286e-10 0 8.3898543798903256e-07 5.8834523501213112e-07 0 1.0604448205172891e-09 3.1155590449597286e-10 0 1.220810651334669e-09 2.6063557386525609e-10 0 8.3898543798903256e-07 5.8834523501213112e-07 0 1.220810651334669e-09 2.6063557386525609e-10 0 8.7686417930469649e-07 4.2056368245995368e-07 0 2.0231074849491705e-06 5.4592879077706948e-07 0 8.7686417930469649e-07 4.2056368245995368e-07 0 1.3063378063763172e-09 2.0846725707881384e-10 0 2.0231074849491705e-06 5.4592879077706948e-07 0 2.0160601571805381e-06 1.0014792836360927e-06 0 8.7686417930469649e-07 4.2056368245995368e-07 0 2.0160601571805381e-06 1.0014792836360927e-06 0 8.3898543798903256e-07 5.8834523501213112e-07 0 8.7686417930469649e-07 4.2056368245995368e-07 0 1.220810651334669e-09 2.6063557386525609e-10 0 8.7686417930469649e-07 4.2056368245995368e-07 0 1.3063378063763172e-09 2.0846725707881384e-10 0 2.0231074849491705e-06 5.4592879077706948e-07 0 1.3063378063763172e-09 2.0846725707881384e-10 0 1.3101815276627349e-06 1.1932817025428837e-07 0 1.3063378063763172e-09 2.0846725707881384e-10 0 1.3843523390379943e-09 -1.0315371704107821e-10 0 1.3101815276627349e-06 1.1932817025428837e-07 0 1.3843523390379943e-09 -1.0315371704107821e-10 0 1.3101815276627349e-06 1.1932817025428837e-07 0 9.919923844592205e-07 -1.3165204624554374e-07 0 1.3101815276627349e-06 1.1932817025428837e-07 0 2.4321168200764922e-06 -1.2610814100192654e-07 0 9.919923844592205e-07 -1.3165204624554374e-07 0 2.0231074849491705e-06 5.4592879077706948e-07 0 1.3101815276627349e-06 1.1932817025428837e-07 0 2.6856313945540759e-06 2.3427509034336424e-07 0 2.0231074849491705e-06 5.4592879077706948e-07 0 2.6856313945540759e-06 2.3427509034336424e-07 0 3.8887850054735681e-06 6.5139573004868141e-07 0 1.3101815276627349e-06 1.1932817025428837e-07 0 2.6856313945540759e-06 2.3427509034336424e-07 0 2.4321168200764922e-06 -1.2610814100192654e-07 0 2.6856313945540759e-06 2.3427509034336424e-07 0 3.8165986065092839e-06 -1.4546519997245044e-08 0 2.4321168200764922e-06 -1.2610814100192654e-07 0 2.6856313945540759e-06 2.3427509034336424e-07 0 3.8887850054735681e-06 6.5139573004868141e-07 0 3.8165986065092839e-06 -1.4546519997245044e-08 0 3.2171363241029693e-06 -5.4168637477764587e-07 0 3.8165986065092839e-06 -1.4546519997245044e-08 0 2.4321168200764922e-06 -1.2610814100192654e-07 0 3.2171363241029693e-06 -5.4168637477764587e-07 0 1.4058810235752779e-06 -4.8683345314636301e-07 0 2.3757583173175091e-06 -9.7924403796584971e-07 0 3.2171363241029693e-06 -5.4168637477764587e-07 0 2.4321168200764922e-06 -1.2610814100192654e-07 0 1.4058810235752779e-06 -4.8683345314636301e-07 0 2.4321168200764922e-06 -1.2610814100192654e-07 0 1.4058810235752779e-06 -4.8683345314636301e-07 0 9.919923844592205e-07 -1.3165204624554374e-07 0 1.3843523390379943e-09 -1.0315371704107821e-10 0 9.919923844592205e-07 -1.3165204624554374e-07 0 1.3874177025737196e-09 -1.6688044951045227e-11 0 1.4058810235752779e-06 -4.8683345314636301e-07 0 1.3874177025737196e-09 -1.6688044951045227e-11 0 1.0946144622508654e-09 -3.9358579284572826e-10 0 1.4058810235752779e-06 -4.8683345314636301e-07 0 9.919923844592205e-07 -1.3165204624554374e-07 0 1.3874177025737196e-09 -1.6688044951045227e-11 0 1.0946144622508654e-09 -3.9358579284572826e-10 0 1.08558276238674e-06 -8.6254593247839899e-07 0 8.2023372362552321e-10 -4.9018433832313145e-10 0 1.4058810235752779e-06 -4.8683345314636301e-07 0 1.08558276238674e-06 -8.6254593247839899e-07 0 2.3757583173175091e-06 -9.7924403796584971e-07 0 1.4058810235752779e-06 -4.8683345314636301e-07 0 1.0946144622508654e-09 -3.9358579284572826e-10 0 1.08558276238674e-06 -8.6254593247839899e-07 0 8.2023372362552321e-10 -4.9018433832313145e-10 0 7.1576272169004648e-07 -1.3133719487679451e-06 0 3.7721837793953982e-10 -7.14613115069043e-10 0 1.08558276238674e-06 -8.6254593247839899e-07 0 8.2023372362552321e-10 -4.9018433832313145e-10 0 7.1576272169004648e-07 -1.3133719487679451e-06 0 7.1576272169004648e-07 -1.3133719487679451e-06 0 3.7721837793953982e-10 -7.14613115069043e-10 0 1.8264847936674835e-07 -1.4100375700746515e-06 0 7.1576272169004648e-07 -1.3133719487679451e-06 0 2.2904115064861174e-06 -1.5992185974996091e-06 0 8.967286125732133e-07 -2.1017327169526976e-06 0 2.2904115064861174e-06 -1.5992185974996091e-06 0 2.0394575771277799e-06 -1.9557850348580335e-06 0 8.967286125732133e-07 -2.1017327169526976e-06 0 1.08558276238674e-06 -8.6254593247839899e-07 0 7.1576272169004648e-07 -1.3133719487679451e-06 0 2.2904115064861174e-06 -1.5992185974996091e-06 0 2.0394575771277799e-06 -1.9557850348580335e-06 0 8.967286125732133e-07 -2.1017327169526976e-06 0 1.6549678014238945e-06 -2.0994212775614543e-06 0 1.08558276238674e-06 -8.6254593247839899e-07 0 2.2904115064861174e-06 -1.5992185974996091e-06 0 2.3757583173175091e-06 -9.7924403796584971e-07 0 2.2904115064861174e-06 -1.5992185974996091e-06 0 2.3757583173175091e-06 -9.7924403796584971e-07 0 3.6846403658579318e-06 -9.0334972831034701e-07 0 3.2171363241029693e-06 -5.4168637477764587e-07 0 2.3757583173175091e-06 -9.7924403796584971e-07 0 3.6846403658579318e-06 -9.0334972831034701e-07 0 2.2904115064861174e-06 -1.5992185974996091e-06 0 3.6846403658579318e-06 -9.0334972831034701e-07 0 4.8455924200420635e-06 -9.7137365616782441e-07 0 3.6846403658579318e-06 -9.0334972831034701e-07 0 4.8455924200420635e-06 -9.7137365616782441e-07 0 5.3200360901465775e-06 -2.6913775770601981e-07 0 4.8455924200420635e-06 -9.7137365616782441e-07 0 6.8723745386558748e-06 4.0755760903702119e-08 0 5.3200360901465775e-06 -2.6913775770601981e-07 0 2.2904115064861174e-06 -1.5992185974996091e-06 0 4.8455924200420635e-06 -9.7137365616782441e-07 0 3.3617735508304372e-06 -1.6024539936419178e-06 0 2.0394575771277799e-06 -1.9557850348580335e-06 0 3.3617735508304372e-06 -1.6024539936419178e-06 0 1.6549678014238945e-06 -2.0994212775614543e-06 0 2.2904115064861174e-06 -1.5992185974996091e-06 0 2.0394575771277799e-06 -1.9557850348580335e-06 0 3.3617735508304372e-06 -1.6024539936419178e-06 0 4.8455924200420635e-06 -9.7137365616782441e-07 0 3.3617735508304372e-06 -1.6024539936419178e-06 0 4.5487383760310434e-06 -1.0706153732671037e-06 0 3.3617735508304372e-06 -1.6024539936419178e-06 0 1.6549678014238945e-06 -2.0994212775614543e-06 0 2.278191936889233e-06 -1.776584843346352e-06 0 3.3617735508304372e-06 -1.6024539936419178e-06 0 4.5487383760310434e-06 -1.0706153732671037e-06 0 2.278191936889233e-06 -1.776584843346352e-06 0 4.5487383760310434e-06 -1.0706153732671037e-06 0 5.0776020303210867e-06 -4.8005596669774064e-07 0 2.278191936889233e-06 -1.776584843346352e-06 0 4.5487383760310434e-06 -1.0706153732671037e-06 0 5.0776020303210867e-06 -4.8005596669774064e-07 0 6.9844075533668578e-06 -1.7059500605099679e-08 0 5.0776020303210867e-06 -4.8005596669774064e-07 0 6.9844075533668578e-06 -1.7059500605099679e-08 0 7.6338901817204859e-06 1.067932833245803e-06 0 5.0776020303210867e-06 -4.8005596669774064e-07 0 1.9235010992657542e-06 -8.4367790635333532e-07 0 5.0747306265983252e-06 5.7916465454251052e-07 0 5.0776020303210867e-06 -4.8005596669774064e-07 0 5.0747306265983252e-06 5.7916465454251052e-07 0 7.6338901817204859e-06 1.067932833245803e-06 0 4.8455924200420635e-06 -9.7137365616782441e-07 0 6.9844075533668578e-06 -1.7059500605099679e-08 0 6.8723745386558748e-06 4.0755760903702119e-08 0 4.8455924200420635e-06 -9.7137365616782441e-07 0 4.5487383760310434e-06 -1.0706153732671037e-06 0 6.9844075533668578e-06 -1.7059500605099679e-08 0 6.9844075533668578e-06 -1.7059500605099679e-08 0 8.7917766302379057e-06 9.1548117199380041e-07 0 6.8723745386558748e-06 4.0755760903702119e-08 0 6.9844075533668578e-06 -1.7059500605099679e-08 0 8.7917766302379057e-06 9.1548117199380041e-07 0 9.9939207796175584e-06 1.7685748172734683e-06 0 8.7917766302379057e-06 9.1548117199380041e-07 0 6.8723745386558748e-06 4.0755760903702119e-08 0 8.1878682299844063e-06 7.426256184732937e-07 0 8.7917766302379057e-06 9.1548117199380041e-07 0 8.1878682299844063e-06 7.426256184732937e-07 0 9.8784948015614817e-06 1.3676337004437795e-06 0 6.8723745386558748e-06 4.0755760903702119e-08 0 8.1878682299844063e-06 7.426256184732937e-07 0 6.4698091855738683e-06 2.913056366134844e-07 0 8.1878682299844063e-06 7.426256184732937e-07 0 6.9622310665818014e-06 7.6386342908335991e-07 0 6.4698091855738683e-06 2.913056366134844e-07 0 8.1878682299844063e-06 7.426256184732937e-07 0 8.9989005444222423e-06 1.0650421976674605e-06 0 9.8784948015614817e-06 1.3676337004437795e-06 0 8.1878682299844063e-06 7.426256184732937e-07 0 6.9622310665818014e-06 7.6386342908335991e-07 0 8.9989005444222423e-06 1.0650421976674605e-06 0 7.861037885082041e-06 9.1679679482996372e-07 0 6.9622310665818014e-06 7.6386342908335991e-07 0 8.9989005444222423e-06 1.0650421976674605e-06 0 6.1675021735566361e-06 9.8394916198004946e-07 0 6.9622310665818014e-06 7.6386342908335991e-07 0 5.4694409248789249e-06 7.905814679711165e-07 0 7.861037885082041e-06 9.1679679482996372e-07 0 6.1675021735566361e-06 9.8394916198004946e-07 0 6.9622310665818014e-06 7.6386342908335991e-07 0 6.9622310665818014e-06 7.6386342908335991e-07 0 5.082457624282314e-06 3.1978642469776147e-07 0 6.4698091855738683e-06 2.913056366134844e-07 0 6.9622310665818014e-06 7.6386342908335991e-07 0 5.4694409248789249e-06 7.905814679711165e-07 0 5.082457624282314e-06 3.1978642469776147e-07 0 3.8887850054735681e-06 6.5139573004868141e-07 0 5.4694409248789249e-06 7.905814679711165e-07 0 5.082457624282314e-06 3.1978642469776147e-07 0 3.8887850054735681e-06 6.5139573004868141e-07 0 3.8165986065092839e-06 -1.4546519997245044e-08 0 5.082457624282314e-06 3.1978642469776147e-07 0 3.8165986065092839e-06 -1.4546519997245044e-08 0 5.082457624282314e-06 3.1978642469776147e-07 0 5.3200360901465775e-06 -2.6913775770601981e-07 0 3.2171363241029693e-06 -5.4168637477764587e-07 0 3.8165986065092839e-06 -1.4546519997245044e-08 0 5.3200360901465775e-06 -2.6913775770601981e-07 0 3.2171363241029693e-06 -5.4168637477764587e-07 0 3.6846403658579318e-06 -9.0334972831034701e-07 0 5.3200360901465775e-06 -2.6913775770601981e-07 0 6.8723745386558748e-06 4.0755760903702119e-08 0 5.3200360901465775e-06 -2.6913775770601981e-07 0 6.4698091855738683e-06 2.913056366134844e-07 0 5.082457624282314e-06 3.1978642469776147e-07 0 5.3200360901465775e-06 -2.6913775770601981e-07 0 6.4698091855738683e-06 2.913056366134844e-07 0 -5.25350310756588e-06 -2.6628581685577862e-07 0 -4.7961608172725959e-06 -1.2207040308122479e-06 0 -8.8026513432934027e-06 -7.6767705119957949e-08 0 -4.7961608172725959e-06 -1.2207040308122479e-06 0 -2.1984791336615258e-06 -8.6715690359654559e-07 0 -2.8164773922684783e-06 -1.781056260599309e-06 0 -5.25350310756588e-06 -2.6628581685577862e-07 0 -2.370756128008441e-06 7.9124818396388262e-08 0 -2.1984791336615258e-06 -8.6715690359654559e-07 0 -5.25350310756588e-06 -2.6628581685577862e-07 0 -4.7961608172725959e-06 -1.2207040308122479e-06 0 -2.1984791336615258e-06 -8.6715690359654559e-07 0 -2.370756128008441e-06 7.9124818396388262e-08 0 -1.0237629403131026e-06 -2.2698905820807655e-07 0 -2.1984791336615258e-06 -8.6715690359654559e-07 0 -2.370756128008441e-06 7.9124818396388262e-08 0 -2.0423246241114036e-09 8.3567920176159114e-10 0 -1.0237629403131026e-06 -2.2698905820807655e-07 0 -2.0423246241114036e-09 8.3567920176159114e-10 0 -1.0237629403131026e-06 -2.2698905820807655e-07 0 -1.7886041745225078e-09 -6.7231418747744032e-10 0 -1.0237629403131026e-06 -2.2698905820807655e-07 0 -1.7886041745225078e-09 -6.7231418747744032e-10 0 -2.1984791336615258e-06 -8.6715690359654559e-07 0 -1.7886041745225078e-09 -6.7231418747744032e-10 0 -2.1984791336615258e-06 -8.6715690359654559e-07 0 -1.264772678596554e-06 -1.2574250857716996e-06 0 -2.1984791336615258e-06 -8.6715690359654559e-07 0 -1.264772678596554e-06 -1.2574250857716996e-06 0 -2.8164773922684783e-06 -1.781056260599309e-06 0 -1.7886041745225078e-09 -6.7231418747744032e-10 0 -1.5346133962494353e-09 -2.7997227188785016e-10 0 -1.264772678596554e-06 -1.2574250857716996e-06 0 -1.5346133962494353e-09 -2.7997227188785016e-10 0 -1.264772678596554e-06 -1.2574250857716996e-06 0 -6.426566358793957e-10 -1.0493723963628376e-09 0 -1.264772678596554e-06 -1.2574250857716996e-06 0 -2.8164773922684783e-06 -1.781056260599309e-06 0 -1.1982919960708886e-06 -1.932517969482547e-06 0 -2.8164773922684783e-06 -1.781056260599309e-06 0 -2.49508946792429e-06 -2.3364044634454618e-06 0 -1.1982919960708886e-06 -1.932517969482547e-06 0 -4.7961608172725959e-06 -1.2207040308122479e-06 0 -2.8164773922684783e-06 -1.781056260599309e-06 0 -4.3043871831311991e-06 -2.0733174968772331e-06 0 -4.7961608172725959e-06 -1.2207040308122479e-06 0 -4.3043871831311991e-06 -2.0733174968772331e-06 0 -6.6650185618982696e-06 -1.4237622691991557e-06 0 -4.3043871831311991e-06 -2.0733174968772331e-06 0 -2.49508946792429e-06 -2.3364044634454618e-06 0 -2.6932817932698702e-06 -2.4472777752883027e-06 0 -2.8164773922684783e-06 -1.781056260599309e-06 0 -4.3043871831311991e-06 -2.0733174968772331e-06 0 -2.49508946792429e-06 -2.3364044634454618e-06 0 -2.49508946792429e-06 -2.3364044634454618e-06 0 -1.3507525703847467e-06 -2.4954072603354877e-06 0 -2.6932817932698702e-06 -2.4472777752883027e-06 0 -1.3507525703847467e-06 -2.4954072603354877e-06 0 -1.1982919960708886e-06 -1.932517969482547e-06 0 -2.1248143360233899e-07 -2.2140751235339562e-06 0 -2.49508946792429e-06 -2.3364044634454618e-06 0 -1.3507525703847467e-06 -2.4954072603354877e-06 0 -1.1982919960708886e-06 -1.932517969482547e-06 0 -1.1982919960708886e-06 -1.932517969482547e-06 0 -6.426566358793957e-10 -1.0493723963628376e-09 0 -2.6963976947652912e-07 -1.3023612441030424e-06 0 -1.264772678596554e-06 -1.2574250857716996e-06 0 -1.1982919960708886e-06 -1.932517969482547e-06 0 -6.426566358793957e-10 -1.0493723963628376e-09 0 -6.426566358793957e-10 -1.0493723963628376e-09 0 -2.6963976947652912e-07 -1.3023612441030424e-06 0 -1.8492119299731454e-10 -6.2685188949060926e-10 0 -1.1982919960708886e-06 -1.932517969482547e-06 0 -2.6963976947652912e-07 -1.3023612441030424e-06 0 -2.1248143360233899e-07 -2.2140751235339562e-06 0 -2.6963976947652912e-07 -1.3023612441030424e-06 0 1.8264847936674835e-07 -1.4100375700746515e-06 0 -2.1248143360233899e-07 -2.2140751235339562e-06 0 -2.6963976947652912e-07 -1.3023612441030424e-06 0 -1.8492119299731454e-10 -6.2685188949060926e-10 0 1.8264847936674835e-07 -1.4100375700746515e-06 0 -1.8492119299731454e-10 -6.2685188949060926e-10 0 3.7721837793953982e-10 -7.14613115069043e-10 0 1.8264847936674835e-07 -1.4100375700746515e-06 0 7.1576272169004648e-07 -1.3133719487679451e-06 0 1.8264847936674835e-07 -1.4100375700746515e-06 0 8.967286125732133e-07 -2.1017327169526976e-06 0 1.8264847936674835e-07 -1.4100375700746515e-06 0 8.967286125732133e-07 -2.1017327169526976e-06 0 -2.1248143360233899e-07 -2.2140751235339562e-06 0 -1.3507525703847467e-06 -2.4954072603354877e-06 0 -2.1248143360233899e-07 -2.2140751235339562e-06 0 2.7374150060749781e-08 -2.4981117595885302e-06 0 8.967286125732133e-07 -2.1017327169526976e-06 0 -2.1248143360233899e-07 -2.2140751235339562e-06 0 2.7374150060749781e-08 -2.4981117595885302e-06 0 8.967286125732133e-07 -2.1017327169526976e-06 0 1.6549678014238945e-06 -2.0994212775614543e-06 0 2.7374150060749781e-08 -2.4981117595885302e-06 0 1.6549678014238945e-06 -2.0994212775614543e-06 0 2.7374150060749781e-08 -2.4981117595885302e-06 0 2.278191936889233e-06 -1.776584843346352e-06 0 2.7374150060749781e-08 -2.4981117595885302e-06 0 2.278191936889233e-06 -1.776584843346352e-06 0 -1.0137560607462343e-06 -2.1471308629665799e-06 0 5.0776020303210867e-06 -4.8005596669774064e-07 0 2.278191936889233e-06 -1.776584843346352e-06 0 1.9235010992657542e-06 -8.4367790635333532e-07 0 1.9235010992657542e-06 -8.4367790635333532e-07 0 -1.1742550753967662e-06 -1.0357599110349546e-06 0 -5.6877038776157474e-07 6.9424376758955633e-07 0 1.9235010992657542e-06 -8.4367790635333532e-07 0 -1.1742550753967662e-06 -1.0357599110349546e-06 0 -1.0137560607462343e-06 -2.1471308629665799e-06 0 2.278191936889233e-06 -1.776584843346352e-06 0 1.9235010992657542e-06 -8.4367790635333532e-07 0 -1.0137560607462343e-06 -2.1471308629665799e-06 0 -1.1742550753967662e-06 -1.0357599110349546e-06 0 -4.5213545718474608e-06 -1.5820502908491443e-06 0 -1.0137560607462343e-06 -2.1471308629665799e-06 0 -1.1742550753967662e-06 -1.0357599110349546e-06 0 -4.5159376000169172e-06 -4.6143089980282754e-08 0 -5.6877038776157474e-07 6.9424376758955633e-07 0 -1.1742550753967662e-06 -1.0357599110349546e-06 0 -4.5159376000169172e-06 -4.6143089980282754e-08 0 -4.5213545718474608e-06 -1.5820502908491443e-06 0 -4.5213545718474608e-06 -1.5820502908491443e-06 0 -1.0137560607462343e-06 -2.1471308629665799e-06 0 -2.6932817932698702e-06 -2.4472777752883027e-06 0 -4.5213545718474608e-06 -1.5820502908491443e-06 0 -2.6932817932698702e-06 -2.4472777752883027e-06 0 -5.3169320187824058e-06 -1.87784746608187e-06 0 2.7374150060749781e-08 -2.4981117595885302e-06 0 -1.0137560607462343e-06 -2.1471308629665799e-06 0 -2.6932817932698702e-06 -2.4472777752883027e-06 0 -1.3507525703847467e-06 -2.4954072603354877e-06 0 2.7374150060749781e-08 -2.4981117595885302e-06 0 -2.6932817932698702e-06 -2.4472777752883027e-06 0 -4.3043871831311991e-06 -2.0733174968772331e-06 0 -2.6932817932698702e-06 -2.4472777752883027e-06 0 -5.3169320187824058e-06 -1.87784746608187e-06 0 -4.3043871831311991e-06 -2.0733174968772331e-06 0 -5.3169320187824058e-06 -1.87784746608187e-06 0 -6.6650185618982696e-06 -1.4237622691991557e-06 0 -5.3169320187824058e-06 -1.87784746608187e-06 0 -8.2015783171687404e-06 -8.2239262313888723e-07 0 -6.6650185618982696e-06 -1.4237622691991557e-06 0 -4.5213545718474608e-06 -1.5820502908491443e-06 0 -5.3169320187824058e-06 -1.87784746608187e-06 0 -8.2015783171687404e-06 -8.2239262313888723e-07 0 -4.5213545718474608e-06 -1.5820502908491443e-06 0 -9.4835302456206069e-06 7.3059454021862242e-07 0 -8.2015783171687404e-06 -8.2239262313888723e-07 0 -4.5159376000169172e-06 -4.6143089980282754e-08 0 -4.5213545718474608e-06 -1.5820502908491443e-06 0 -9.4835302456206069e-06 7.3059454021862242e-07 0 -9.4835302456206069e-06 7.3059454021862242e-07 0 -8.2015783171687404e-06 -8.2239262313888723e-07 0 -1.2778745534597801e-05 1.0597073638948953e-06 0 -8.2015783171687404e-06 -8.2239262313888723e-07 0 -1.2778745534597801e-05 1.0597073638948953e-06 0 -1.004244769229927e-05 -2.841002601497262e-07 0 -9.4835302456206069e-06 7.3059454021862242e-07 0 -1.2778745534597801e-05 1.0597073638948953e-06 0 -1.582527141933067e-05 3.7730676311213488e-06 0 -1.2778745534597801e-05 1.0597073638948953e-06 0 -1.3039979061930941e-05 1.1959426970449362e-06 0 -1.7938290386059684e-05 3.637868045148146e-06 0 -1.2778745534597801e-05 1.0597073638948953e-06 0 -1.3039979061930941e-05 1.1959426970449362e-06 0 -1.004244769229927e-05 -2.841002601497262e-07 0 -1.3039979061930941e-05 1.1959426970449362e-06 0 -1.004244769229927e-05 -2.841002601497262e-07 0 -8.8026513432934027e-06 -7.6767705119957949e-08 0 -8.2015783171687404e-06 -8.2239262313888723e-07 0 -1.004244769229927e-05 -2.841002601497262e-07 0 -6.6650185618982696e-06 -1.4237622691991557e-06 0 -1.004244769229927e-05 -2.841002601497262e-07 0 -6.6650185618982696e-06 -1.4237622691991557e-06 0 -8.8026513432934027e-06 -7.6767705119957949e-08 0 -4.7961608172725959e-06 -1.2207040308122479e-06 0 -6.6650185618982696e-06 -1.4237622691991557e-06 0 -8.8026513432934027e-06 -7.6767705119957949e-08 0 -2.9544285413382836e-05 1.3898334796293651e-05 0 -2.5294672682069456e-05 1.4024789874460392e-05 0 -2.0419557882030745e-05 8.6900696719961978e-06 0 -2.9544285413382836e-05 1.3898334796293651e-05 0 -2.5294672682069456e-05 1.4024789874460392e-05 0 -3.6358035954759426e-05 2.2360313453438172e-05 0 -2.5294672682069456e-05 1.4024789874460392e-05 0 -2.0419557882030745e-05 8.6900696719961978e-06 0 -1.7110934498359494e-05 1.1562258164387917e-05 0 -2.5294672682069456e-05 1.4024789874460392e-05 0 -1.7110934498359494e-05 1.1562258164387917e-05 0 -2.454483521636833e-05 1.9173839207477531e-05 0 -2.9544285413382836e-05 1.3898334796293651e-05 0 -2.0419557882030745e-05 8.6900696719961978e-06 0 -2.3379104983441788e-05 7.7214561107999311e-06 0 -2.3379104983441788e-05 7.7214561107999311e-06 0 -1.7938290386059684e-05 3.637868045148146e-06 0 -1.582527141933067e-05 3.7730676311213488e-06 0 -1.2778745534597801e-05 1.0597073638948953e-06 0 -1.7938290386059684e-05 3.637868045148146e-06 0 -1.582527141933067e-05 3.7730676311213488e-06 0 -2.0419557882030745e-05 8.6900696719961978e-06 0 -2.3379104983441788e-05 7.7214561107999311e-06 0 -1.582527141933067e-05 3.7730676311213488e-06 0 -2.0419557882030745e-05 8.6900696719961978e-06 0 -1.582527141933067e-05 3.7730676311213488e-06 0 -1.1528981166503129e-05 5.1309409707930918e-06 0 -9.4835302456206069e-06 7.3059454021862242e-07 0 -7.4589955642332776e-06 2.005903851618488e-06 0 -1.1528981166503129e-05 5.1309409707930918e-06 0 -9.4835302456206069e-06 7.3059454021862242e-07 0 -1.582527141933067e-05 3.7730676311213488e-06 0 -1.1528981166503129e-05 5.1309409707930918e-06 0 -4.5159376000169172e-06 -4.6143089980282754e-08 0 -9.4835302456206069e-06 7.3059454021862242e-07 0 -7.4589955642332776e-06 2.005903851618488e-06 0 -1.1528981166503129e-05 5.1309409707930918e-06 0 -1.7110934498359494e-05 1.1562258164387917e-05 0 -1.0456063938415127e-05 1.0529713140920325e-05 0 -2.0419557882030745e-05 8.6900696719961978e-06 0 -1.1528981166503129e-05 5.1309409707930918e-06 0 -1.7110934498359494e-05 1.1562258164387917e-05 0 -1.7110934498359494e-05 1.1562258164387917e-05 0 -1.0456063938415127e-05 1.0529713140920325e-05 0 -1.5019729210854541e-05 1.7493415915319055e-05 0 -1.0456063938415127e-05 1.0529713140920325e-05 0 -4.2843987122516649e-06 6.5074716206474194e-06 0 -4.1688233012263784e-06 1.4483500864581603e-05 0 -4.2843987122516649e-06 6.5074716206474194e-06 0 9.8419066593206061e-07 8.2057497781350018e-06 0 -4.1688233012263784e-06 1.4483500864581603e-05 0 -4.2843987122516649e-06 6.5074716206474194e-06 0 1.527798492781292e-07 3.6609124058665316e-06 0 9.8419066593206061e-07 8.2057497781350018e-06 0 -1.1528981166503129e-05 5.1309409707930918e-06 0 -1.0456063938415127e-05 1.0529713140920325e-05 0 -4.2843987122516649e-06 6.5074716206474194e-06 0 -1.1528981166503129e-05 5.1309409707930918e-06 0 -4.2843987122516649e-06 6.5074716206474194e-06 0 -4.1728142793620192e-06 2.8561886576759248e-06 0 -7.4589955642332776e-06 2.005903851618488e-06 0 -1.1528981166503129e-05 5.1309409707930918e-06 0 -4.1728142793620192e-06 2.8561886576759248e-06 0 -4.5159376000169172e-06 -4.6143089980282754e-08 0 -7.4589955642332776e-06 2.005903851618488e-06 0 -4.1728142793620192e-06 2.8561886576759248e-06 0 -4.5159376000169172e-06 -4.6143089980282754e-08 0 -4.1728142793620192e-06 2.8561886576759248e-06 0 -5.6877038776157474e-07 6.9424376758955633e-07 0 -4.1728142793620192e-06 2.8561886576759248e-06 0 -5.6877038776157474e-07 6.9424376758955633e-07 0 1.527798492781292e-07 3.6609124058665316e-06 0 -4.2843987122516649e-06 6.5074716206474194e-06 0 -4.1728142793620192e-06 2.8561886576759248e-06 0 1.527798492781292e-07 3.6609124058665316e-06 0 -5.6877038776157474e-07 6.9424376758955633e-07 0 1.527798492781292e-07 3.6609124058665316e-06 0 3.1851430763680343e-06 1.5616441090099533e-06 0 1.527798492781292e-07 3.6609124058665316e-06 0 3.1851430763680343e-06 1.5616441090099533e-06 0 4.7950867610200634e-06 5.1261214385341203e-06 0 1.9235010992657542e-06 -8.4367790635333532e-07 0 -5.6877038776157474e-07 6.9424376758955633e-07 0 3.1851430763680343e-06 1.5616441090099533e-06 0 3.1851430763680343e-06 1.5616441090099533e-06 0 5.0747306265983252e-06 5.7916465454251052e-07 0 6.923039513336899e-06 2.6542958516661017e-06 0 1.9235010992657542e-06 -8.4367790635333532e-07 0 3.1851430763680343e-06 1.5616441090099533e-06 0 5.0747306265983252e-06 5.7916465454251052e-07 0 3.1851430763680343e-06 1.5616441090099533e-06 0 4.7950867610200634e-06 5.1261214385341203e-06 0 6.923039513336899e-06 2.6542958516661017e-06 0 4.7950867610200634e-06 5.1261214385341203e-06 0 6.923039513336899e-06 2.6542958516661017e-06 0 1.0131540084836608e-05 6.4633965871998484e-06 0 1.527798492781292e-07 3.6609124058665316e-06 0 4.7950867610200634e-06 5.1261214385341203e-06 0 9.8419066593206061e-07 8.2057497781350018e-06 0 4.7950867610200634e-06 5.1261214385341203e-06 0 9.8419066593206061e-07 8.2057497781350018e-06 0 6.2075259368207067e-06 1.0779154652301161e-05 0 4.7950867610200634e-06 5.1261214385341203e-06 0 6.2075259368207067e-06 1.0779154652301161e-05 0 1.0131540084836608e-05 6.4633965871998484e-06 0 6.2075259368207067e-06 1.0779154652301161e-05 0 1.0589605961525117e-05 1.5759630227849785e-05 0 1.3932103328582154e-05 1.1010685610735244e-05 0 6.2075259368207067e-06 1.0779154652301161e-05 0 1.0131540084836608e-05 6.4633965871998484e-06 0 1.3932103328582154e-05 1.1010685610735244e-05 0 6.2075259368207067e-06 1.0779154652301161e-05 0 3.3125271830343642e-06 1.8237260715957759e-05 0 -4.1688233012263784e-06 1.4483500864581603e-05 0 9.8419066593206061e-07 8.2057497781350018e-06 0 6.2075259368207067e-06 1.0779154652301161e-05 0 -4.1688233012263784e-06 1.4483500864581603e-05 0 6.2075259368207067e-06 1.0779154652301161e-05 0 3.3125271830343642e-06 1.8237260715957759e-05 0 1.0589605961525117e-05 1.5759630227849785e-05 0 1.0589605961525117e-05 1.5759630227849785e-05 0 8.304142819965351e-06 2.5455615684421221e-05 0 1.8195648597019793e-05 1.7712265222752695e-05 0 8.304142819965351e-06 2.5455615684421221e-05 0 1.8195648597019793e-05 1.7712265222752695e-05 0 1.7310618622510482e-05 3.4510628069681184e-05 0 8.304142819965351e-06 2.5455615684421221e-05 0 8.3867776997218758e-06 3.8692911479488086e-05 0 1.7310618622510482e-05 3.4510628069681184e-05 0 8.304142819965351e-06 2.5455615684421221e-05 0 -1.3640810489357722e-06 4.1774557861337986e-05 0 8.3867776997218758e-06 3.8692911479488086e-05 0 3.3125271830343642e-06 1.8237260715957759e-05 0 8.304142819965351e-06 2.5455615684421221e-05 0 -5.2134867141965311e-06 2.7805085881271972e-05 0 3.3125271830343642e-06 1.8237260715957759e-05 0 1.0589605961525117e-05 1.5759630227849785e-05 0 8.304142819965351e-06 2.5455615684421221e-05 0 8.304142819965351e-06 2.5455615684421221e-05 0 -5.2134867141965311e-06 2.7805085881271972e-05 0 -1.3640810489357722e-06 4.1774557861337986e-05 0 -5.2134867141965311e-06 2.7805085881271972e-05 0 -1.4863553162431449e-05 4.363370153051736e-05 0 -1.3640810489357722e-06 4.1774557861337986e-05 0 -5.2134867141965311e-06 2.7805085881271972e-05 0 -1.3496858288135143e-05 2.575208418581292e-05 0 -1.4863553162431449e-05 4.363370153051736e-05 0 -5.2134867141965311e-06 2.7805085881271972e-05 0 -4.1688233012263784e-06 1.4483500864581603e-05 0 -1.3496858288135143e-05 2.575208418581292e-05 0 -4.1688233012263784e-06 1.4483500864581603e-05 0 -1.5019729210854541e-05 1.7493415915319055e-05 0 -1.3496858288135143e-05 2.575208418581292e-05 0 3.3125271830343642e-06 1.8237260715957759e-05 0 -5.2134867141965311e-06 2.7805085881271972e-05 0 -4.1688233012263784e-06 1.4483500864581603e-05 0 -1.0456063938415127e-05 1.0529713140920325e-05 0 -4.1688233012263784e-06 1.4483500864581603e-05 0 -1.5019729210854541e-05 1.7493415915319055e-05 0 -1.7110934498359494e-05 1.1562258164387917e-05 0 -1.5019729210854541e-05 1.7493415915319055e-05 0 -2.454483521636833e-05 1.9173839207477531e-05 0 -1.5019729210854541e-05 1.7493415915319055e-05 0 -2.2423973427271415e-05 2.6896237108372875e-05 0 -2.454483521636833e-05 1.9173839207477531e-05 0 -1.5019729210854541e-05 1.7493415915319055e-05 0 -2.2423973427271415e-05 2.6896237108372875e-05 0 -1.3496858288135143e-05 2.575208418581292e-05 0 -2.2423973427271415e-05 2.6896237108372875e-05 0 -1.3496858288135143e-05 2.575208418581292e-05 0 -2.3248803323359695e-05 3.6924466900948548e-05 0 -1.3496858288135143e-05 2.575208418581292e-05 0 -2.3248803323359695e-05 3.6924466900948548e-05 0 -1.4863553162431449e-05 4.363370153051736e-05 0 -2.3248803323359695e-05 3.6924466900948548e-05 0 -3.3617475789338416e-05 3.7840872879115142e-05 0 -3.2947188806039449e-05 5.3372009122840297e-05 0 -2.3248803323359695e-05 3.6924466900948548e-05 0 -3.2947188806039449e-05 5.3372009122840297e-05 0 -1.4863553162431449e-05 4.363370153051736e-05 0 -2.2423973427271415e-05 2.6896237108372875e-05 0 -2.3248803323359695e-05 3.6924466900948548e-05 0 -3.3617475789338416e-05 3.7840872879115142e-05 0 -2.2423973427271415e-05 2.6896237108372875e-05 0 -3.3617475789338416e-05 3.7840872879115142e-05 0 -3.2073791330856185e-05 2.7484050637246051e-05 0 -3.3617475789338416e-05 3.7840872879115142e-05 0 -4.9719958681746011e-05 4.9021816314491477e-05 0 -3.2947188806039449e-05 5.3372009122840297e-05 0 -3.3617475789338416e-05 3.7840872879115142e-05 0 -4.3371435087993027e-05 3.4146727687543464e-05 0 -4.9719958681746011e-05 4.9021816314491477e-05 0 -3.3617475789338416e-05 3.7840872879115142e-05 0 -4.3371435087993027e-05 3.4146727687543464e-05 0 -3.2073791330856185e-05 2.7484050637246051e-05 0 -4.3371435087993027e-05 3.4146727687543464e-05 0 -3.2073791330856185e-05 2.7484050637246051e-05 0 -3.6358035954759426e-05 2.2360313453438172e-05 0 -3.2073791330856185e-05 2.7484050637246051e-05 0 -2.454483521636833e-05 1.9173839207477531e-05 0 -3.6358035954759426e-05 2.2360313453438172e-05 0 -2.2423973427271415e-05 2.6896237108372875e-05 0 -3.2073791330856185e-05 2.7484050637246051e-05 0 -2.454483521636833e-05 1.9173839207477531e-05 0 -2.5294672682069456e-05 1.4024789874460392e-05 0 -2.454483521636833e-05 1.9173839207477531e-05 0 -3.6358035954759426e-05 2.2360313453438172e-05 0 1.2301818578553936e-05 2.3288122657318021e-06 0 1.2127265495984853e-05 2.7425977307480752e-06 0 1.3799076307750427e-05 3.5480573709703708e-06 0 1.2127265495984853e-05 2.7425977307480752e-06 0 1.3799076307750427e-05 3.5480573709703708e-06 0 1.4477847500180015e-05 4.8094242946211109e-06 0 1.3799076307750427e-05 3.5480573709703708e-06 0 1.4477847500180015e-05 4.8094242946211109e-06 0 1.6195309194256058e-05 5.5602024021942854e-06 0 1.2301818578553936e-05 2.3288122657318021e-06 0 1.3799076307750427e-05 3.5480573709703708e-06 0 1.3320106888277742e-05 2.1571374150557093e-06 0 1.3320106888277742e-05 2.1571374150557093e-06 0 1.1301617036924113e-05 1.1049840610127543e-06 0 1.2074611967998323e-05 4.3625115571356799e-08 0 1.2301818578553936e-05 2.3288122657318021e-06 0 1.3320106888277742e-05 2.1571374150557093e-06 0 1.1301617036924113e-05 1.1049840610127543e-06 0 1.0630100967489808e-05 -3.4697852259655566e-07 0 1.1301617036924113e-05 1.1049840610127543e-06 0 1.2074611967998323e-05 4.3625115571356799e-08 0 1.2301818578553936e-05 2.3288122657318021e-06 0 1.1301617036924113e-05 1.1049840610127543e-06 0 1.0703776323540374e-05 1.6417894198066716e-06 0 1.1301617036924113e-05 1.1049840610127543e-06 0 9.4735614881708087e-06 8.7872745209848357e-07 0 1.0703776323540374e-05 1.6417894198066716e-06 0 9.5080939945341539e-06 1.5351714742758831e-07 0 1.1301617036924113e-05 1.1049840610127543e-06 0 9.4735614881708087e-06 8.7872745209848357e-07 0 7.861037885082041e-06 9.1679679482996372e-07 0 9.4735614881708087e-06 8.7872745209848357e-07 0 8.9989005444222423e-06 1.0650421976674605e-06 0 9.4735614881708087e-06 8.7872745209848357e-07 0 8.9989005444222423e-06 1.0650421976674605e-06 0 1.0703776323540374e-05 1.6417894198066716e-06 0 8.9989005444222423e-06 1.0650421976674605e-06 0 1.0703776323540374e-05 1.6417894198066716e-06 0 9.8784948015614817e-06 1.3676337004437795e-06 0 1.2301818578553936e-05 2.3288122657318021e-06 0 1.2127265495984853e-05 2.7425977307480752e-06 0 1.0703776323540374e-05 1.6417894198066716e-06 0 1.2127265495984853e-05 2.7425977307480752e-06 0 1.0703776323540374e-05 1.6417894198066716e-06 0 9.8784948015614817e-06 1.3676337004437795e-06 0 1.2127265495984853e-05 2.7425977307480752e-06 0 9.8784948015614817e-06 1.3676337004437795e-06 0 9.9939207796175584e-06 1.7685748172734683e-06 0 8.7917766302379057e-06 9.1548117199380041e-07 0 9.8784948015614817e-06 1.3676337004437795e-06 0 9.9939207796175584e-06 1.7685748172734683e-06 0 6.9844075533668578e-06 -1.7059500605099679e-08 0 9.9939207796175584e-06 1.7685748172734683e-06 0 7.6338901817204859e-06 1.067932833245803e-06 0 9.9939207796175584e-06 1.7685748172734683e-06 0 1.0267549957859331e-05 3.3925109298974054e-06 0 1.2171549609627962e-05 3.5822074359729251e-06 0 9.9939207796175584e-06 1.7685748172734683e-06 0 7.6338901817204859e-06 1.067932833245803e-06 0 1.0267549957859331e-05 3.3925109298974054e-06 0 1.2127265495984853e-05 2.7425977307480752e-06 0 9.9939207796175584e-06 1.7685748172734683e-06 0 1.2171549609627962e-05 3.5822074359729251e-06 0 5.0747306265983252e-06 5.7916465454251052e-07 0 7.6338901817204859e-06 1.067932833245803e-06 0 6.923039513336899e-06 2.6542958516661017e-06 0 7.6338901817204859e-06 1.067932833245803e-06 0 6.923039513336899e-06 2.6542958516661017e-06 0 1.0267549957859331e-05 3.3925109298974054e-06 0 6.923039513336899e-06 2.6542958516661017e-06 0 1.0267549957859331e-05 3.3925109298974054e-06 0 1.0131540084836608e-05 6.4633965871998484e-06 0 1.0267549957859331e-05 3.3925109298974054e-06 0 1.4186335767286719e-05 6.459570329129902e-06 0 1.0131540084836608e-05 6.4633965871998484e-06 0 1.4186335767286719e-05 6.459570329129902e-06 0 1.0131540084836608e-05 6.4633965871998484e-06 0 1.3932103328582154e-05 1.1010685610735244e-05 0 1.2127265495984853e-05 2.7425977307480752e-06 0 1.2171549609627962e-05 3.5822074359729251e-06 0 1.4477847500180015e-05 4.8094242946211109e-06 0 1.0267549957859331e-05 3.3925109298974054e-06 0 1.4186335767286719e-05 6.459570329129902e-06 0 1.2171549609627962e-05 3.5822074359729251e-06 0 1.4186335767286719e-05 6.459570329129902e-06 0 1.2171549609627962e-05 3.5822074359729251e-06 0 1.4477847500180015e-05 4.8094242946211109e-06 0 1.4186335767286719e-05 6.459570329129902e-06 0 1.4477847500180015e-05 4.8094242946211109e-06 0 1.7104634735542847e-05 7.5384952264535931e-06 0 1.4477847500180015e-05 4.8094242946211109e-06 0 1.7104634735542847e-05 7.5384952264535931e-06 0 1.6195309194256058e-05 5.5602024021942854e-06 0 1.4186335767286719e-05 6.459570329129902e-06 0 1.7104634735542847e-05 7.5384952264535931e-06 0 2.0386429483339295e-05 1.1793024466216763e-05 0 1.7104634735542847e-05 7.5384952264535931e-06 0 2.0386429483339295e-05 1.1793024466216763e-05 0 1.9495492236319971e-05 8.3972611466044727e-06 0 1.9495492236319971e-05 8.3972611466044727e-06 0 1.707833157972649e-05 4.9283750804573897e-06 0 1.6195309194256058e-05 5.5602024021942854e-06 0 1.7104634735542847e-05 7.5384952264535931e-06 0 1.9495492236319971e-05 8.3972611466044727e-06 0 1.6195309194256058e-05 5.5602024021942854e-06 0 1.4186335767286719e-05 6.459570329129902e-06 0 1.3932103328582154e-05 1.1010685610735244e-05 0 2.0386429483339295e-05 1.1793024466216763e-05 0 1.3932103328582154e-05 1.1010685610735244e-05 0 2.0386429483339295e-05 1.1793024466216763e-05 0 1.8195648597019793e-05 1.7712265222752695e-05 0 1.0589605961525117e-05 1.5759630227849785e-05 0 1.3932103328582154e-05 1.1010685610735244e-05 0 1.8195648597019793e-05 1.7712265222752695e-05 0 2.0386429483339295e-05 1.1793024466216763e-05 0 1.8195648597019793e-05 1.7712265222752695e-05 0 3.0758696844472621e-05 1.9187430271289383e-05 0 1.8195648597019793e-05 1.7712265222752695e-05 0 3.0758696844472621e-05 1.9187430271289383e-05 0 1.7310618622510482e-05 3.4510628069681184e-05 0 2.0386429483339295e-05 1.1793024466216763e-05 0 2.2772290346078958e-05 1.1502375615338931e-05 0 3.0758696844472621e-05 1.9187430271289383e-05 0 1.9495492236319971e-05 8.3972611466044727e-06 0 2.2772290346078958e-05 1.1502375615338931e-05 0 1.8561267000623099e-05 5.1541519935335236e-06 0 1.9495492236319971e-05 8.3972611466044727e-06 0 1.8561267000623099e-05 5.1541519935335236e-06 0 1.707833157972649e-05 4.9283750804573897e-06 0 2.0386429483339295e-05 1.1793024466216763e-05 0 1.9495492236319971e-05 8.3972611466044727e-06 0 2.2772290346078958e-05 1.1502375615338931e-05 0 2.2772290346078958e-05 1.1502375615338931e-05 0 1.8561267000623099e-05 5.1541519935335236e-06 0 2.0082931349933792e-05 2.2705713300645362e-06 0 1.8561267000623099e-05 5.1541519935335236e-06 0 1.7922685014806874e-05 -2.4987334039074531e-06 0 2.0082931349933792e-05 2.2705713300645362e-06 0 1.8561267000623099e-05 5.1541519935335236e-06 0 1.5813536968560747e-05 9.6012031986501741e-07 0 1.7922685014806874e-05 -2.4987334039074531e-06 0 1.8561267000623099e-05 5.1541519935335236e-06 0 1.5813536968560747e-05 9.6012031986501741e-07 0 1.707833157972649e-05 4.9283750804573897e-06 0 1.707833157972649e-05 4.9283750804573897e-06 0 1.5152281141274652e-05 3.4813531336762393e-06 0 1.6195309194256058e-05 5.5602024021942854e-06 0 1.5813536968560747e-05 9.6012031986501741e-07 0 1.707833157972649e-05 4.9283750804573897e-06 0 1.5152281141274652e-05 3.4813531336762393e-06 0 1.5813536968560747e-05 9.6012031986501741e-07 0 1.5152281141274652e-05 3.4813531336762393e-06 0 1.385480609836952e-05 4.08967086810926e-07 0 1.3320106888277742e-05 2.1571374150557093e-06 0 1.5152281141274652e-05 3.4813531336762393e-06 0 1.385480609836952e-05 4.08967086810926e-07 0 1.3799076307750427e-05 3.5480573709703708e-06 0 1.3320106888277742e-05 2.1571374150557093e-06 0 1.5152281141274652e-05 3.4813531336762393e-06 0 1.3799076307750427e-05 3.5480573709703708e-06 0 1.5152281141274652e-05 3.4813531336762393e-06 0 1.6195309194256058e-05 5.5602024021942854e-06 0 1.3320106888277742e-05 2.1571374150557093e-06 0 1.2074611967998323e-05 4.3625115571356799e-08 0 1.385480609836952e-05 4.08967086810926e-07 0 1.2150892053177136e-05 -2.6505699805814191e-06 0 1.2074611967998323e-05 4.3625115571356799e-08 0 1.385480609836952e-05 4.08967086810926e-07 0 1.5813536968560747e-05 9.6012031986501741e-07 0 1.3897847435876126e-05 -3.2160141012721614e-06 0 1.6168910451823581e-05 -7.1951054055989531e-06 0 1.2150892053177136e-05 -2.6505699805814191e-06 0 1.2713714581239053e-05 -6.1104833946415553e-06 0 1.3897847435876126e-05 -3.2160141012721614e-06 0 1.2150892053177136e-05 -2.6505699805814191e-06 0 1.385480609836952e-05 4.08967086810926e-07 0 1.3897847435876126e-05 -3.2160141012721614e-06 0 1.5813536968560747e-05 9.6012031986501741e-07 0 1.385480609836952e-05 4.08967086810926e-07 0 1.3897847435876126e-05 -3.2160141012721614e-06 0 1.2713714581239053e-05 -6.1104833946415553e-06 0 1.3897847435876126e-05 -3.2160141012721614e-06 0 1.4414308385506389e-05 -8.9045086148264129e-06 0 1.3897847435876126e-05 -3.2160141012721614e-06 0 1.6168910451823581e-05 -7.1951054055989531e-06 0 1.4414308385506389e-05 -8.9045086148264129e-06 0 1.6168910451823581e-05 -7.1951054055989531e-06 0 1.4414308385506389e-05 -8.9045086148264129e-06 0 1.7602071144913967e-05 -1.2267877740157942e-05 0 1.6168910451823581e-05 -7.1951054055989531e-06 0 1.7602071144913967e-05 -1.2267877740157942e-05 0 1.9588787881893458e-05 -1.1527070116617253e-05 0 1.4414308385506389e-05 -8.9045086148264129e-06 0 1.5675128584048094e-05 -1.3017695770107906e-05 0 1.7602071144913967e-05 -1.2267877740157942e-05 0 1.5675128584048094e-05 -1.3017695770107906e-05 0 1.7602071144913967e-05 -1.2267877740157942e-05 0 1.9989185546303488e-05 -1.7205131805634697e-05 0 1.7602071144913967e-05 -1.2267877740157942e-05 0 1.9989185546303488e-05 -1.7205131805634697e-05 0 1.9588787881893458e-05 -1.1527070116617253e-05 0 1.5675128584048094e-05 -1.3017695770107906e-05 0 1.9989185546303488e-05 -1.7205131805634697e-05 0 1.6809612193379382e-05 -1.6659358501869031e-05 0 2.5040420840656507e-05 -1.4879290518555403e-05 0 2.8172032402378778e-05 -1.9564400355203417e-05 0 2.4439572386796266e-05 -1.8547356001152921e-05 0 1.9588787881893458e-05 -1.1527070116617253e-05 0 2.5040420840656507e-05 -1.4879290518555403e-05 0 2.4439572386796266e-05 -1.8547356001152921e-05 0 1.9989185546303488e-05 -1.7205131805634697e-05 0 1.9588787881893458e-05 -1.1527070116617253e-05 0 2.4439572386796266e-05 -1.8547356001152921e-05 0 1.9588787881893458e-05 -1.1527070116617253e-05 0 2.1314220086308806e-05 -6.0255030947524615e-06 0 2.5040420840656507e-05 -1.4879290518555403e-05 0 1.5813536968560747e-05 9.6012031986501741e-07 0 1.6168910451823581e-05 -7.1951054055989531e-06 0 1.7922685014806874e-05 -2.4987334039074531e-06 0 1.9588787881893458e-05 -1.1527070116617253e-05 0 1.7922685014806874e-05 -2.4987334039074531e-06 0 2.1314220086308806e-05 -6.0255030947524615e-06 0 1.6168910451823581e-05 -7.1951054055989531e-06 0 1.9588787881893458e-05 -1.1527070116617253e-05 0 1.7922685014806874e-05 -2.4987334039074531e-06 0 1.7922685014806874e-05 -2.4987334039074531e-06 0 2.0082931349933792e-05 2.2705713300645362e-06 0 2.1314220086308806e-05 -6.0255030947524615e-06 0 2.2772290346078958e-05 1.1502375615338931e-05 0 2.0082931349933792e-05 2.2705713300645362e-06 0 2.3680708729793091e-05 2.5699522318240669e-06 0 2.0082931349933792e-05 2.2705713300645362e-06 0 2.3680708729793091e-05 2.5699522318240669e-06 0 2.1314220086308806e-05 -6.0255030947524615e-06 0 2.2772290346078958e-05 1.1502375615338931e-05 0 2.3680708729793091e-05 2.5699522318240669e-06 0 3.0758696844472621e-05 1.9187430271289383e-05 0 2.3680708729793091e-05 2.5699522318240669e-06 0 3.3816854412935039e-05 -5.3790702776397847e-06 0 2.7800275365285883e-05 -1.1106363015800029e-05 0 2.3680708729793091e-05 2.5699522318240669e-06 0 2.1314220086308806e-05 -6.0255030947524615e-06 0 2.7800275365285883e-05 -1.1106363015800029e-05 0 3.0758696844472621e-05 1.9187430271289383e-05 0 2.4994132972466603e-05 5.7737711946675543e-05 0 1.7310618622510482e-05 3.4510628069681184e-05 0 2.3680708729793091e-05 2.5699522318240669e-06 0 3.0758696844472621e-05 1.9187430271289383e-05 0 3.3816854412935039e-05 -5.3790702776397847e-06 0 1.2072182203557466e-05 1.6475178479457881e-05 0 4.4271749067562979e-05 2.6695525812585676e-05 0 3.0758696844472621e-05 1.9187430271289383e-05 0 4.3866170842342162e-05 5.5967799688242181e-05 0 2.4994132972466603e-05 5.7737711946675543e-05 0 2.4994132972466603e-05 5.7737711946675543e-05 0 5.0003053781163532e-05 8.1272023235339885e-05 0 2.4283339017611179e-05 7.9226669282616243e-05 0 4.4271749067562979e-05 2.6695525812585676e-05 0 4.0807797371846235e-05 3.3488446922286189e-05 0 3.3816854412935039e-05 -5.3790702776397847e-06 0 3.4214068918502424e-05 -1.4120374894823266e-05 0 2.7800275365285883e-05 -1.1106363015800029e-05 0 4.3866170842342162e-05 5.5967799688242181e-05 0 2.4994132972466603e-05 5.7737711946675543e-05 0 5.0003053781163532e-05 8.1272023235339885e-05 0 4.0807797371846235e-05 3.3488446922286189e-05 0 4.5163355579306594e-05 4.2594461018489449e-05 0 3.4214068918502424e-05 -1.4120374894823266e-05 0 3.0948348252453773e-05 -1.7765144158748415e-05 0 3.4886693942211173e-05 -1.8710577390713145e-05 0 5.0003053781163532e-05 8.1272023235339885e-05 0 3.8567084426131015e-05 9.63546094843352e-05 0 2.4283339017611179e-05 7.9226669282616243e-05 0 2.1314220086308806e-05 -6.0255030947524615e-06 0 2.7800275365285883e-05 -1.1106363015800029e-05 0 2.5040420840656507e-05 -1.4879290518555403e-05 0 3.4214068918502424e-05 -1.4120374894823266e-05 0 2.7800275365285883e-05 -1.1106363015800029e-05 0 3.0948348252453773e-05 -1.7765144158748415e-05 0 2.7800275365285883e-05 -1.1106363015800029e-05 0 3.0948348252453773e-05 -1.7765144158748415e-05 0 2.5040420840656507e-05 -1.4879290518555403e-05 0 3.0948348252453773e-05 -1.7765144158748415e-05 0 2.5040420840656507e-05 -1.4879290518555403e-05 0 2.8172032402378778e-05 -1.9564400355203417e-05 0 3.0948348252453773e-05 -1.7765144158748415e-05 0 2.8172032402378778e-05 -1.9564400355203417e-05 0 3.248227974350432e-05 -2.1901820199437749e-05 0 3.0948348252453773e-05 -1.7765144158748415e-05 0 3.248227974350432e-05 -2.1901820199437749e-05 0 3.4886693942211173e-05 -1.8710577390713145e-05 0 3.248227974350432e-05 -2.1901820199437749e-05 0 3.4886693942211173e-05 -1.8710577390713145e-05 0 3.6341580689562234e-05 -2.1355763493492398e-05 0 2.8172032402378778e-05 -1.9564400355203417e-05 0 3.248227974350432e-05 -2.1901820199437749e-05 0 2.8861112969741621e-05 -2.241960927981385e-05 0 3.8567084426131015e-05 9.63546094843352e-05 0 4.2286531446579013e-05 0.00011081443573213023 0 2.4094464659373448e-05 0.00010354499995109894 0 3.8567084426131015e-05 9.63546094843352e-05 0 5.470380181315789e-05 0.00010362949806187993 0 4.2286531446579013e-05 0.00011081443573213023 0 5.0003053781163532e-05 8.1272023235339885e-05 0 3.8567084426131015e-05 9.63546094843352e-05 0 5.470380181315789e-05 0.00010362949806187993 0 4.5163355579306594e-05 4.2594461018489449e-05 0 4.7369471664339794e-05 5.206663712171411e-05 0 5.470380181315789e-05 0.00010362949806187993 0 4.2286531446579013e-05 0.00011081443573213023 0 5.8658623236652898e-05 0.00012551941700116915 0 4.2286531446579013e-05 0.00011081443573213023 0 5.8658623236652898e-05 0.00012551941700116915 0 3.5577503757700446e-05 0.00012346904552333461 0 5.8658623236652898e-05 0.00012551941700116915 0 4.3510417245715655e-05 0.00013803497842629264 0 3.5577503757700446e-05 0.00012346904552333461 0 5.8658623236652898e-05 0.00012551941700116915 0 6.2327398181680378e-05 0.00014711265996032456 0 4.3510417245715655e-05 0.00013803497842629264 0 3.6341580689562234e-05 -2.1355763493492398e-05 0 3.8207318909501944e-05 -2.3000754247015749e-05 0 3.5501477458992235e-05 -2.3897608981187555e-05 0 4.7369471664339794e-05 5.206663712171411e-05 0 5.0186453230704564e-05 6.2045411028094027e-05 0 6.2327398181680378e-05 0.00014711265996032456 0 4.3510417245715655e-05 0.00013803497842629264 0 4.0203608582890586e-05 0.00015321142706795632 0 3.248227974350432e-05 -2.1901820199437749e-05 0 3.2365259426076933e-05 -2.4522463237324781e-05 0 3.5501477458992235e-05 -2.3897608981187555e-05 0 3.248227974350432e-05 -2.1901820199437749e-05 0 3.2365259426076933e-05 -2.4522463237324781e-05 0 2.8861112969741621e-05 -2.241960927981385e-05 0 3.248227974350432e-05 -2.1901820199437749e-05 0 3.6341580689562234e-05 -2.1355763493492398e-05 0 3.5501477458992235e-05 -2.3897608981187555e-05 0 3.2365259426076933e-05 -2.4522463237324781e-05 0 3.5501477458992235e-05 -2.3897608981187555e-05 0 3.39600757218071e-05 -2.6286016723617657e-05 0 3.5501477458992235e-05 -2.3897608981187555e-05 0 3.39600757218071e-05 -2.6286016723617657e-05 0 3.779320665880149e-05 -2.5735977931410567e-05 0 3.2365259426076933e-05 -2.4522463237324781e-05 0 3.39600757218071e-05 -2.6286016723617657e-05 0 2.8756241917838477e-05 -2.5251698791806838e-05 0 3.39600757218071e-05 -2.6286016723617657e-05 0 2.8756241917838477e-05 -2.5251698791806838e-05 0 3.2741742976058447e-05 -2.7894457109178259e-05 0 3.2365259426076933e-05 -2.4522463237324781e-05 0 2.8756241917838477e-05 -2.5251698791806838e-05 0 2.8861112969741621e-05 -2.241960927981385e-05 0 2.8756241917838477e-05 -2.5251698791806838e-05 0 2.2904327215267783e-05 -2.2060867148718098e-05 0 2.5585239625700389e-05 -2.2162205125201275e-05 0 2.8756241917838477e-05 -2.5251698791806838e-05 0 2.8861112969741621e-05 -2.241960927981385e-05 0 2.5585239625700389e-05 -2.2162205125201275e-05 0 2.8756241917838477e-05 -2.5251698791806838e-05 0 2.4430999266524427e-05 -2.4836798171376382e-05 0 2.8995856584421354e-05 -2.827965029047067e-05 0 2.4430999266524427e-05 -2.4836798171376382e-05 0 2.8995856584421354e-05 -2.827965029047067e-05 0 2.3569525465943528e-05 -2.6248134714031414e-05 0 2.4430999266524427e-05 -2.4836798171376382e-05 0 2.2904327215267783e-05 -2.2060867148718098e-05 0 2.0773434400596226e-05 -2.3017091108401629e-05 0 2.8756241917838477e-05 -2.5251698791806838e-05 0 2.4430999266524427e-05 -2.4836798171376382e-05 0 2.2904327215267783e-05 -2.2060867148718098e-05 0 1.9989185546303488e-05 -1.7205131805634697e-05 0 2.2904327215267783e-05 -2.2060867148718098e-05 0 2.5585239625700389e-05 -2.2162205125201275e-05 0 2.2904327215267783e-05 -2.2060867148718098e-05 0 1.9564753941674342e-05 -1.9955927662136944e-05 0 2.0773434400596226e-05 -2.3017091108401629e-05 0 1.9989185546303488e-05 -1.7205131805634697e-05 0 2.2904327215267783e-05 -2.2060867148718098e-05 0 1.9564753941674342e-05 -1.9955927662136944e-05 0 1.9989185546303488e-05 -1.7205131805634697e-05 0 1.6809612193379382e-05 -1.6659358501869031e-05 0 1.9564753941674342e-05 -1.9955927662136944e-05 0 1.9989185546303488e-05 -1.7205131805634697e-05 0 2.4439572386796266e-05 -1.8547356001152921e-05 0 2.5585239625700389e-05 -2.2162205125201275e-05 0 2.8172032402378778e-05 -1.9564400355203417e-05 0 2.4439572386796266e-05 -1.8547356001152921e-05 0 2.8861112969741621e-05 -2.241960927981385e-05 0 2.4439572386796266e-05 -1.8547356001152921e-05 0 2.8861112969741621e-05 -2.241960927981385e-05 0 2.5585239625700389e-05 -2.2162205125201275e-05 0 -5.9155391313733321e-05 8.6663465392007613e-05 0 -4.1395854718610456e-05 9.3841353645671583e-05 0 -4.3353068338539773e-05 7.4500105382617937e-05 0 -5.9155391313733321e-05 8.6663465392007613e-05 0 -4.1395854718610456e-05 9.3841353645671583e-05 0 -6.1871813729989103e-05 0.00010795924546490444 0 -4.1395854718610456e-05 9.3841353645671583e-05 0 -4.3353068338539773e-05 7.4500105382617937e-05 0 -2.9295113871626697e-05 7.4409550844287839e-05 0 -5.9155391313733321e-05 8.6663465392007613e-05 0 -4.3353068338539773e-05 7.4500105382617937e-05 0 -5.4790648535044389e-05 6.6604310646898031e-05 0 -5.4790648535044389e-05 6.6604310646898031e-05 0 -4.9719958681746011e-05 4.9021816314491477e-05 0 -3.2947188806039449e-05 5.3372009122840297e-05 0 -4.3353068338539773e-05 7.4500105382617937e-05 0 -3.2947188806039449e-05 5.3372009122840297e-05 0 -2.9295113871626697e-05 7.4409550844287839e-05 0 -4.3353068338539773e-05 7.4500105382617937e-05 0 -5.4790648535044389e-05 6.6604310646898031e-05 0 -3.2947188806039449e-05 5.3372009122840297e-05 0 -3.2947188806039449e-05 5.3372009122840297e-05 0 -1.9680429967540753e-05 6.1737257626912705e-05 0 -2.9295113871626697e-05 7.4409550844287839e-05 0 -3.2947188806039449e-05 5.3372009122840297e-05 0 -1.4863553162431449e-05 4.363370153051736e-05 0 -1.9680429967540753e-05 6.1737257626912705e-05 0 -1.9680429967540753e-05 6.1737257626912705e-05 0 -1.7494108455004365e-05 7.5882322130890907e-05 0 -7.1419666362994897e-06 6.4210327478290657e-05 0 -1.9680429967540753e-05 6.1737257626912705e-05 0 -1.7494108455004365e-05 7.5882322130890907e-05 0 -2.9295113871626697e-05 7.4409550844287839e-05 0 -1.7494108455004365e-05 7.5882322130890907e-05 0 -2.9295113871626697e-05 7.4409550844287839e-05 0 -2.3428501965590642e-05 9.1866643500191126e-05 0 -4.1395854718610456e-05 9.3841353645671583e-05 0 -2.9295113871626697e-05 7.4409550844287839e-05 0 -2.3428501965590642e-05 9.1866643500191126e-05 0 -1.7494108455004365e-05 7.5882322130890907e-05 0 -2.3428501965590642e-05 9.1866643500191126e-05 0 -7.6880871780585105e-06 8.8621288013076012e-05 0 -7.6880871780585105e-06 8.8621288013076012e-05 0 7.7844349949904899e-06 8.2916364930121837e-05 0 4.4653884826327065e-06 0.00010494471372689775 0 -7.6880871780585105e-06 8.8621288013076012e-05 0 -7.1419666362994897e-06 6.4210327478290657e-05 0 7.7844349949904899e-06 8.2916364930121837e-05 0 -7.1419666362994897e-06 6.4210327478290657e-05 0 9.0325054900715664e-06 5.6758909107349623e-05 0 7.7844349949904899e-06 8.2916364930121837e-05 0 -1.7494108455004365e-05 7.5882322130890907e-05 0 -7.6880871780585105e-06 8.8621288013076012e-05 0 -7.1419666362994897e-06 6.4210327478290657e-05 0 -1.4863553162431449e-05 4.363370153051736e-05 0 -1.9680429967540753e-05 6.1737257626912705e-05 0 -7.1419666362994897e-06 6.4210327478290657e-05 0 -1.4863553162431449e-05 4.363370153051736e-05 0 -7.1419666362994897e-06 6.4210327478290657e-05 0 -1.3640810489357722e-06 4.1774557861337986e-05 0 -7.1419666362994897e-06 6.4210327478290657e-05 0 -1.3640810489357722e-06 4.1774557861337986e-05 0 9.0325054900715664e-06 5.6758909107349623e-05 0 -1.3640810489357722e-06 4.1774557861337986e-05 0 9.0325054900715664e-06 5.6758909107349623e-05 0 8.3867776997218758e-06 3.8692911479488086e-05 0 9.0325054900715664e-06 5.6758909107349623e-05 0 8.3867776997218758e-06 3.8692911479488086e-05 0 1.7310618622510482e-05 3.4510628069681184e-05 0 2.4994132972466603e-05 5.7737711946675543e-05 0 9.0325054900715664e-06 5.6758909107349623e-05 0 1.7310618622510482e-05 3.4510628069681184e-05 0 2.4994132972466603e-05 5.7737711946675543e-05 0 9.0325054900715664e-06 5.6758909107349623e-05 0 2.4283339017611179e-05 7.9226669282616243e-05 0 9.0325054900715664e-06 5.6758909107349623e-05 0 7.7844349949904899e-06 8.2916364930121837e-05 0 2.4283339017611179e-05 7.9226669282616243e-05 0 7.7844349949904899e-06 8.2916364930121837e-05 0 2.4283339017611179e-05 7.9226669282616243e-05 0 2.4094464659373448e-05 0.00010354499995109894 0 3.8567084426131015e-05 9.63546094843352e-05 0 2.4283339017611179e-05 7.9226669282616243e-05 0 2.4094464659373448e-05 0.00010354499995109894 0 7.7844349949904899e-06 8.2916364930121837e-05 0 2.4094464659373448e-05 0.00010354499995109894 0 4.4653884826327065e-06 0.00010494471372689775 0 2.4094464659373448e-05 0.00010354499995109894 0 1.6846956779560403e-05 0.0001186588138237428 0 4.4653884826327065e-06 0.00010494471372689775 0 2.4094464659373448e-05 0.00010354499995109894 0 1.6846956779560403e-05 0.0001186588138237428 0 3.5577503757700446e-05 0.00012346904552333461 0 4.2286531446579013e-05 0.00011081443573213023 0 2.4094464659373448e-05 0.00010354499995109894 0 3.5577503757700446e-05 0.00012346904552333461 0 4.3510417245715655e-05 0.00013803497842629264 0 3.5577503757700446e-05 0.00012346904552333461 0 2.1071325533030713e-05 0.00013908289319391172 0 4.3510417245715655e-05 0.00013803497842629264 0 2.1071325533030713e-05 0.00013908289319391172 0 4.0203608582890586e-05 0.00015321142706795632 0 1.6846956779560403e-05 0.0001186588138237428 0 3.5577503757700446e-05 0.00012346904552333461 0 2.1071325533030713e-05 0.00013908289319391172 0 1.6846956779560403e-05 0.0001186588138237428 0 2.1071325533030713e-05 0.00013908289319391172 0 -5.229820317380927e-07 0.00012199799352964463 0 2.1071325533030713e-05 0.00013908289319391172 0 -2.5762721146742082e-06 0.00014139119236095465 0 -5.229820317380927e-07 0.00012199799352964463 0 2.1071325533030713e-05 0.00013908289319391172 0 -2.5762721146742082e-06 0.00014139119236095465 0 3.6232443180004137e-06 0.00015975679302298221 0 -2.5762721146742082e-06 0.00014139119236095465 0 -5.229820317380927e-07 0.00012199799352964463 0 -1.8738103095475474e-05 0.00014003611639181303 0 -5.229820317380927e-07 0.00012199799352964463 0 -1.4684902682939426e-05 0.0001119191544741077 0 -1.8738103095475474e-05 0.00014003611639181303 0 -5.229820317380927e-07 0.00012199799352964463 0 4.4653884826327065e-06 0.00010494471372689775 0 -1.4684902682939426e-05 0.0001119191544741077 0 1.6846956779560403e-05 0.0001186588138237428 0 -5.229820317380927e-07 0.00012199799352964463 0 4.4653884826327065e-06 0.00010494471372689775 0 -7.6880871780585105e-06 8.8621288013076012e-05 0 4.4653884826327065e-06 0.00010494471372689775 0 -1.4684902682939426e-05 0.0001119191544741077 0 -2.3428501965590642e-05 9.1866643500191126e-05 0 -7.6880871780585105e-06 8.8621288013076012e-05 0 -1.4684902682939426e-05 0.0001119191544741077 0 -2.3428501965590642e-05 9.1866643500191126e-05 0 -3.0707479645648837e-05 0.00010845533130673493 0 -1.4684902682939426e-05 0.0001119191544741077 0 -4.1395854718610456e-05 9.3841353645671583e-05 0 -2.3428501965590642e-05 9.1866643500191126e-05 0 -3.0707479645648837e-05 0.00010845533130673493 0 -3.0707479645648837e-05 0.00010845533130673493 0 -3.0212406486060182e-05 0.00012419876170859329 0 -4.5606699984202671e-05 0.00012043175151361321 0 -3.0707479645648837e-05 0.00010845533130673493 0 -1.4684902682939426e-05 0.0001119191544741077 0 -3.0212406486060182e-05 0.00012419876170859329 0 -1.4684902682939426e-05 0.0001119191544741077 0 -1.8738103095475474e-05 0.00014003611639181303 0 -3.0212406486060182e-05 0.00012419876170859329 0 -2.5762721146742082e-06 0.00014139119236095465 0 -1.8738103095475474e-05 0.00014003611639181303 0 -1.5568932483536219e-05 0.0001601861891222974 0 -1.8738103095475474e-05 0.00014003611639181303 0 -4.2050903997585162e-05 0.00014071967139369057 0 -3.0798855525869297e-05 0.00015519408474891038 0 -1.8738103095475474e-05 0.00014003611639181303 0 -3.0212406486060182e-05 0.00012419876170859329 0 -4.2050903997585162e-05 0.00014071967139369057 0 -3.0212406486060182e-05 0.00012419876170859329 0 -4.2050903997585162e-05 0.00014071967139369057 0 -4.5606699984202671e-05 0.00012043175151361321 0 -4.2050903997585162e-05 0.00014071967139369057 0 -6.3577266615034932e-05 0.00013029280872990144 0 -6.4344044476891604e-05 0.00015292984927657617 0 -4.2050903997585162e-05 0.00014071967139369057 0 -6.4344044476891604e-05 0.00015292984927657617 0 -4.6248553838116842e-05 0.00016185009611384762 0 -4.2050903997585162e-05 0.00014071967139369057 0 -6.3577266615034932e-05 0.00013029280872990144 0 -4.5606699984202671e-05 0.00012043175151361321 0 -6.3577266615034932e-05 0.00013029280872990144 0 -4.5606699984202671e-05 0.00012043175151361321 0 -6.1871813729989103e-05 0.00010795924546490444 0 -4.1395854718610456e-05 9.3841353645671583e-05 0 -3.0707479645648837e-05 0.00010845533130673493 0 -4.5606699984202671e-05 0.00012043175151361321 0 -4.1395854718610456e-05 9.3841353645671583e-05 0 -4.5606699984202671e-05 0.00012043175151361321 0 -6.1871813729989103e-05 0.00010795924546490444 0 -6.4734719296653389e-05 0.00019901265391942901 0 -3.5028836418197389e-05 0.00019912481392925051 0 -4.2952103571294598e-05 0.00022155668333124215 0 -6.4734719296653389e-05 0.00019901265391942901 0 -4.7927145273337492e-05 0.00018224743450744857 0 -3.5028836418197389e-05 0.00019912481392925051 0 -4.7927145273337492e-05 0.00018224743450744857 0 -3.1670305642047052e-05 0.00017347760134961686 0 -3.5028836418197389e-05 0.00019912481392925051 0 -6.4734719296653389e-05 0.00019901265391942901 0 -4.7927145273337492e-05 0.00018224743450744857 0 -6.4693450078565182e-05 0.00017582595658007522 0 -4.7927145273337492e-05 0.00018224743450744857 0 -6.4693450078565182e-05 0.00017582595658007522 0 -4.6248553838116842e-05 0.00016185009611384762 0 -6.4693450078565182e-05 0.00017582595658007522 0 -6.4344044476891604e-05 0.00015292984927657617 0 -4.6248553838116842e-05 0.00016185009611384762 0 -4.2050903997585162e-05 0.00014071967139369057 0 -4.6248553838116842e-05 0.00016185009611384762 0 -3.0798855525869297e-05 0.00015519408474891038 0 -4.7927145273337492e-05 0.00018224743450744857 0 -4.6248553838116842e-05 0.00016185009611384762 0 -3.1670305642047052e-05 0.00017347760134961686 0 -3.1670305642047052e-05 0.00017347760134961686 0 -3.0798855525869297e-05 0.00015519408474891038 0 -1.5568932483536219e-05 0.0001601861891222974 0 -4.6248553838116842e-05 0.00016185009611384762 0 -3.1670305642047052e-05 0.00017347760134961686 0 -3.0798855525869297e-05 0.00015519408474891038 0 -1.8738103095475474e-05 0.00014003611639181303 0 -3.0798855525869297e-05 0.00015519408474891038 0 -1.5568932483536219e-05 0.0001601861891222974 0 -3.1670305642047052e-05 0.00017347760134961686 0 -1.5568932483536219e-05 0.0001601861891222974 0 -1.4337049037298683e-05 0.00017988748828132197 0 -1.4337049037298683e-05 0.00017988748828132197 0 -3.5028836418197389e-05 0.00019912481392925051 0 -1.1901853204035143e-05 0.00020049620066823351 0 -3.1670305642047052e-05 0.00017347760134961686 0 -1.4337049037298683e-05 0.00017988748828132197 0 -3.5028836418197389e-05 0.00019912481392925051 0 -3.5028836418197389e-05 0.00019912481392925051 0 -1.1901853204035143e-05 0.00020049620066823351 0 -1.9662220239774405e-05 0.00022334366066103554 0 -1.1901853204035143e-05 0.00020049620066823351 0 3.0149461619875656e-06 0.00018652019875906912 0 6.2093816062257425e-06 0.00021135283797008573 0 3.0149461619875656e-06 0.00018652019875906912 0 2.2323043024462404e-05 0.00019481790377304155 0 6.2093816062257425e-06 0.00021135283797008573 0 3.0149461619875656e-06 0.00018652019875906912 0 1.6665496428231781e-05 0.00017365990290550297 0 2.2323043024462404e-05 0.00019481790377304155 0 -1.4337049037298683e-05 0.00017988748828132197 0 -1.1901853204035143e-05 0.00020049620066823351 0 3.0149461619875656e-06 0.00018652019875906912 0 -1.5568932483536219e-05 0.0001601861891222974 0 -1.4337049037298683e-05 0.00017988748828132197 0 3.6232443180004137e-06 0.00015975679302298221 0 -1.4337049037298683e-05 0.00017988748828132197 0 3.0149461619875656e-06 0.00018652019875906912 0 3.6232443180004137e-06 0.00015975679302298221 0 -2.5762721146742082e-06 0.00014139119236095465 0 -1.5568932483536219e-05 0.0001601861891222974 0 3.6232443180004137e-06 0.00015975679302298221 0 3.6232443180004137e-06 0.00015975679302298221 0 1.6665496428231781e-05 0.00017365990290550297 0 2.3167375181356032e-05 0.00015995011488024289 0 3.0149461619875656e-06 0.00018652019875906912 0 3.6232443180004137e-06 0.00015975679302298221 0 1.6665496428231781e-05 0.00017365990290550297 0 1.6665496428231781e-05 0.00017365990290550297 0 2.3167375181356032e-05 0.00015995011488024289 0 3.4338685691968024e-05 0.00017322200968315744 0 2.1071325533030713e-05 0.00013908289319391172 0 2.3167375181356032e-05 0.00015995011488024289 0 4.0203608582890586e-05 0.00015321142706795632 0 2.1071325533030713e-05 0.00013908289319391172 0 3.6232443180004137e-06 0.00015975679302298221 0 2.3167375181356032e-05 0.00015995011488024289 0 2.3167375181356032e-05 0.00015995011488024289 0 4.0203608582890586e-05 0.00015321142706795632 0 3.4338685691968024e-05 0.00017322200968315744 0 4.0203608582890586e-05 0.00015321142706795632 0 3.4338685691968024e-05 0.00017322200968315744 0 5.1043270976304186e-05 0.00016439317464185649 0 3.4338685691968024e-05 0.00017322200968315744 0 2.2323043024462404e-05 0.00019481790377304155 0 4.3883456710237466e-05 0.00019643666321013341 0 3.4338685691968024e-05 0.00017322200968315744 0 4.3883456710237466e-05 0.00019643666321013341 0 5.1995932927362356e-05 0.00017898077090948542 0 1.6665496428231781e-05 0.00017365990290550297 0 3.4338685691968024e-05 0.00017322200968315744 0 2.2323043024462404e-05 0.00019481790377304155 0 2.2323043024462404e-05 0.00019481790377304155 0 4.3883456710237466e-05 0.00019643666321013341 0 3.0735435599574548e-05 0.00021993098891728047 0 4.3883456710237466e-05 0.00019643666321013341 0 3.0735435599574548e-05 0.00021993098891728047 0 5.3469993868883777e-05 0.00021587567571970608 0 3.0735435599574548e-05 0.00021993098891728047 0 5.1714066846548323e-05 0.00023678966882734548 0 2.9382484608976104e-05 0.0002441277395401317 0 3.0735435599574548e-05 0.00021993098891728047 0 5.1714066846548323e-05 0.00023678966882734548 0 5.3469993868883777e-05 0.00021587567571970608 0 5.1714066846548323e-05 0.00023678966882734548 0 4.4642573002075107e-05 0.00025236682259596234 0 2.9382484608976104e-05 0.0002441277395401317 0 5.1714066846548323e-05 0.00023678966882734548 0 4.4642573002075107e-05 0.00025236682259596234 0 6.442808407796917e-05 0.0002480237844843992 0 4.4642573002075107e-05 0.00025236682259596234 0 6.442808407796917e-05 0.0002480237844843992 0 5.8702200310723481e-05 0.00026308723730066405 0 4.4642573002075107e-05 0.00025236682259596234 0 3.370543380300467e-05 0.00026638178116573946 0 5.8702200310723481e-05 0.00026308723730066405 0 4.4642573002075107e-05 0.00025236682259596234 0 3.370543380300467e-05 0.00026638178116573946 0 2.9382484608976104e-05 0.0002441277395401317 0 8.8369977407311124e-06 0.00026824016756032309 0 6.6995877979951306e-06 0.00023765163750121213 0 -1.4703692477642402e-05 0.00024690640059860602 0 2.9382484608976104e-05 0.0002441277395401317 0 8.8369977407311124e-06 0.00026824016756032309 0 6.6995877979951306e-06 0.00023765163750121213 0 3.370543380300467e-05 0.00026638178116573946 0 2.9382484608976104e-05 0.0002441277395401317 0 8.8369977407311124e-06 0.00026824016756032309 0 6.6995877979951306e-06 0.00023765163750121213 0 6.2093816062257425e-06 0.00021135283797008573 0 -1.9662220239774405e-05 0.00022334366066103554 0 3.0735435599574548e-05 0.00021993098891728047 0 2.9382484608976104e-05 0.0002441277395401317 0 6.6995877979951306e-06 0.00023765163750121213 0 3.0735435599574548e-05 0.00021993098891728047 0 6.6995877979951306e-06 0.00023765163750121213 0 6.2093816062257425e-06 0.00021135283797008573 0 2.2323043024462404e-05 0.00019481790377304155 0 3.0735435599574548e-05 0.00021993098891728047 0 6.2093816062257425e-06 0.00021135283797008573 0 -1.1901853204035143e-05 0.00020049620066823351 0 6.2093816062257425e-06 0.00021135283797008573 0 -1.9662220239774405e-05 0.00022334366066103554 0 -3.5028836418197389e-05 0.00019912481392925051 0 -1.9662220239774405e-05 0.00022334366066103554 0 -4.2952103571294598e-05 0.00022155668333124215 0 -1.9662220239774405e-05 0.00022334366066103554 0 -1.4703692477642402e-05 0.00024690640059860602 0 -3.7748834729224522e-05 0.0002428439113210915 0 -1.9662220239774405e-05 0.00022334366066103554 0 -3.7748834729224522e-05 0.0002428439113210915 0 -4.2952103571294598e-05 0.00022155668333124215 0 6.6995877979951306e-06 0.00023765163750121213 0 -1.9662220239774405e-05 0.00022334366066103554 0 -1.4703692477642402e-05 0.00024690640059860602 0 8.8369977407311124e-06 0.00026824016756032309 0 -1.4703692477642402e-05 0.00024690640059860602 0 -1.5679015482648268e-05 0.00026929280450901905 0 -1.5679015482648268e-05 0.00026929280450901905 0 -2.8254299995334073e-05 0.0002571766106563005 0 -3.992149117444822e-05 0.00026981076533993248 0 -1.4703692477642402e-05 0.00024690640059860602 0 -1.5679015482648268e-05 0.00026929280450901905 0 -2.8254299995334073e-05 0.0002571766106563005 0 -1.4703692477642402e-05 0.00024690640059860602 0 -2.8254299995334073e-05 0.0002571766106563005 0 -3.7748834729224522e-05 0.0002428439113210915 0 -2.8254299995334073e-05 0.0002571766106563005 0 -3.7748834729224522e-05 0.0002428439113210915 0 -4.8200465630098571e-05 0.00025633343025162136 0 -2.8254299995334073e-05 0.0002571766106563005 0 -4.8200465630098571e-05 0.00025633343025162136 0 -3.992149117444822e-05 0.00026981076533993248 0 -4.8200465630098571e-05 0.00025633343025162136 0 -3.992149117444822e-05 0.00026981076533993248 0 -6.3866708620461979e-05 0.00027022509161500169 0 -4.8200465630098571e-05 0.00025633343025162136 0 -6.3866708620461979e-05 0.00027022509161500169 0 -6.4256972890628156e-05 0.00024627448052850923 0 -3.7748834729224522e-05 0.0002428439113210915 0 -4.8200465630098571e-05 0.00025633343025162136 0 -6.4256972890628156e-05 0.00024627448052850923 0 -6.4256972890628156e-05 0.00024627448052850923 0 -4.2952103571294598e-05 0.00022155668333124215 0 -6.4562648559301e-05 0.00022256873307507889 0 -3.7748834729224522e-05 0.0002428439113210915 0 -6.4256972890628156e-05 0.00024627448052850923 0 -4.2952103571294598e-05 0.00022155668333124215 0 -6.4734719296653389e-05 0.00019901265391942901 0 -4.2952103571294598e-05 0.00022155668333124215 0 -6.4562648559301e-05 0.00022256873307507889 0 3.5174360608212052e-05 -2.9732643566482809e-05 0 3.6123458171765047e-05 -3.2450120098724886e-05 0 3.2350702859036076e-05 -3.0977587035561835e-05 0 3.5174360608212052e-05 -2.9732643566482809e-05 0 3.9676062189156783e-05 -3.1260795534588707e-05 0 3.9174252302477367e-05 -2.9181839634418888e-05 0 3.5174360608212052e-05 -2.9732643566482809e-05 0 3.6712925764491715e-05 -2.806301303933262e-05 0 3.9174252302477367e-05 -2.9181839634418888e-05 0 3.5174360608212052e-05 -2.9732643566482809e-05 0 3.9676062189156783e-05 -3.1260795534588707e-05 0 3.6123458171765047e-05 -3.2450120098724886e-05 0 3.6123458171765047e-05 -3.2450120098724886e-05 0 3.1954499208015298e-05 -3.3306423736702996e-05 0 3.2350702859036076e-05 -3.0977587035561835e-05 0 3.1954499208015298e-05 -3.3306423736702996e-05 0 2.8778113618913375e-05 -3.0644653844744677e-05 0 3.2350702859036076e-05 -3.0977587035561835e-05 0 3.1954499208015298e-05 -3.3306423736702996e-05 0 2.8778113618913375e-05 -3.0644653844744677e-05 0 2.8585021157297283e-05 -3.2533488602843645e-05 0 2.8778113618913375e-05 -3.0644653844744677e-05 0 3.2350702859036076e-05 -3.0977587035561835e-05 0 2.8995856584421354e-05 -2.827965029047067e-05 0 2.8778113618913375e-05 -3.0644653844744677e-05 0 2.8995856584421354e-05 -2.827965029047067e-05 0 2.6083213678679355e-05 -2.8731851082696299e-05 0 2.8995856584421354e-05 -2.827965029047067e-05 0 2.6083213678679355e-05 -2.8731851082696299e-05 0 2.3569525465943528e-05 -2.6248134714031414e-05 0 2.8756241917838477e-05 -2.5251698791806838e-05 0 2.8995856584421354e-05 -2.827965029047067e-05 0 3.2741742976058447e-05 -2.7894457109178259e-05 0 3.5174360608212052e-05 -2.9732643566482809e-05 0 2.8995856584421354e-05 -2.827965029047067e-05 0 3.2741742976058447e-05 -2.7894457109178259e-05 0 3.5174360608212052e-05 -2.9732643566482809e-05 0 3.2350702859036076e-05 -3.0977587035561835e-05 0 2.8995856584421354e-05 -2.827965029047067e-05 0 3.5174360608212052e-05 -2.9732643566482809e-05 0 3.2741742976058447e-05 -2.7894457109178259e-05 0 3.6712925764491715e-05 -2.806301303933262e-05 0 3.39600757218071e-05 -2.6286016723617657e-05 0 3.2741742976058447e-05 -2.7894457109178259e-05 0 3.6712925764491715e-05 -2.806301303933262e-05 0 3.39600757218071e-05 -2.6286016723617657e-05 0 3.779320665880149e-05 -2.5735977931410567e-05 0 3.6712925764491715e-05 -2.806301303933262e-05 0 3.8207318909501944e-05 -2.3000754247015749e-05 0 3.5501477458992235e-05 -2.3897608981187555e-05 0 3.779320665880149e-05 -2.5735977931410567e-05 0 3.779320665880149e-05 -2.5735977931410567e-05 0 4.0779902896582353e-05 -2.4175020180057154e-05 0 4.0778203356253421e-05 -2.6929185016127106e-05 0 3.779320665880149e-05 -2.5735977931410567e-05 0 3.6712925764491715e-05 -2.806301303933262e-05 0 4.0778203356253421e-05 -2.6929185016127106e-05 0 6.2327398181680378e-05 0.00014711265996032456 0 4.0203608582890586e-05 0.00015321142706795632 0 5.1043270976304186e-05 0.00016439317464185649 0 6.2327398181680378e-05 0.00014711265996032456 0 6.5885955297471252e-05 0.00016853452605907076 0 5.1043270976304186e-05 0.00016439317464185649 0 3.8207318909501944e-05 -2.3000754247015749e-05 0 3.779320665880149e-05 -2.5735977931410567e-05 0 4.0779902896582353e-05 -2.4175020180057154e-05 0 5.0186453230704564e-05 6.2045411028094027e-05 0 5.3310372451052377e-05 7.2242849960014931e-05 0 3.4338685691968024e-05 0.00017322200968315744 0 5.1043270976304186e-05 0.00016439317464185649 0 5.1995932927362356e-05 0.00017898077090948542 0 6.5885955297471252e-05 0.00016853452605907076 0 5.1043270976304186e-05 0.00016439317464185649 0 5.1995932927362356e-05 0.00017898077090948542 0 4.3883456710237466e-05 0.00019643666321013341 0 5.1995932927362356e-05 0.00017898077090948542 0 6.9650315364462679e-05 0.00019030369390236085 0 5.3310372451052377e-05 7.2242849960014931e-05 0 5.6342991484976521e-05 8.2373998699946532e-05 0 4.0779902896582353e-05 -2.4175020180057154e-05 0 4.4039134552398171e-05 -2.5279425796948288e-05 0 4.0778203356253421e-05 -2.6929185016127106e-05 0 6.5885955297471252e-05 0.00016853452605907076 0 5.1995932927362356e-05 0.00017898077090948542 0 6.9650315364462679e-05 0.00019030369390236085 0 5.6342991484976521e-05 8.2373998699946532e-05 0 6.1987571417846066e-05 9.2972508358273883e-05 0 4.3883456710237466e-05 0.00019643666321013341 0 6.9650315364462679e-05 0.00019030369390236085 0 5.3469993868883777e-05 0.00021587567571970608 0 3.6712925764491715e-05 -2.806301303933262e-05 0 3.9174252302477367e-05 -2.9181839634418888e-05 0 4.0778203356253421e-05 -2.6929185016127106e-05 0 4.4039134552398171e-05 -2.5279425796948288e-05 0 4.0778203356253421e-05 -2.6929185016127106e-05 0 4.3564726923352124e-05 -2.924407283625158e-05 0 3.9676062189156783e-05 -3.1260795534588707e-05 0 3.9174252302477367e-05 -2.9181839634418888e-05 0 4.3564726923352124e-05 -2.924407283625158e-05 0 3.9174252302477367e-05 -2.9181839634418888e-05 0 4.0778203356253421e-05 -2.6929185016127106e-05 0 4.3564726923352124e-05 -2.924407283625158e-05 0 4.3564726923352124e-05 -2.924407283625158e-05 0 4.7573311432285613e-05 -3.0400635799299951e-05 0 4.4061309537083184e-05 -3.2618739165174386e-05 0 3.9676062189156783e-05 -3.1260795534588707e-05 0 4.3564726923352124e-05 -2.924407283625158e-05 0 4.4061309537083184e-05 -3.2618739165174386e-05 0 4.4039134552398171e-05 -2.5279425796948288e-05 0 4.3564726923352124e-05 -2.924407283625158e-05 0 4.8052426831495509e-05 -2.6802935777872619e-05 0 4.3564726923352124e-05 -2.924407283625158e-05 0 4.7573311432285613e-05 -3.0400635799299951e-05 0 4.8052426831495509e-05 -2.6802935777872619e-05 0 4.7573311432285613e-05 -3.0400635799299951e-05 0 4.4061309537083184e-05 -3.2618739165174386e-05 0 4.9666755814362636e-05 -3.3598186334000183e-05 0 6.9650315364462679e-05 0.00019030369390236085 0 5.3469993868883777e-05 0.00021587567571970608 0 7.3489007831133881e-05 0.0002122706581876024 0 6.1987571417846066e-05 9.2972508358273883e-05 0 6.001082685659728e-05 0.0001024913146307099 0 4.7573311432285613e-05 -3.0400635799299951e-05 0 4.8052426831495509e-05 -2.6802935777872619e-05 0 5.2898818894634252e-05 -2.9320461119351955e-05 0 5.3469993868883777e-05 0.00021587567571970608 0 7.3489007831133881e-05 0.0002122706581876024 0 7.787678630068385e-05 0.0002348930671885598 0 5.1714066846548323e-05 0.00023678966882734548 0 5.3469993868883777e-05 0.00021587567571970608 0 7.787678630068385e-05 0.0002348930671885598 0 5.1714066846548323e-05 0.00023678966882734548 0 7.787678630068385e-05 0.0002348930671885598 0 6.442808407796917e-05 0.0002480237844843992 0 6.001082685659728e-05 0.0001024913146307099 0 8.9926301619941106e-05 0.00011237529191190023 0 7.787678630068385e-05 0.0002348930671885598 0 8.2872671421141235e-05 0.00025824824097139777 0 6.442808407796917e-05 0.0002480237844843992 0 8.2872671421141235e-05 0.00025824824097139777 0 6.442808407796917e-05 0.0002480237844843992 0 5.8702200310723481e-05 0.00026308723730066405 0 4.4061309537083184e-05 -3.2618739165174386e-05 0 4.9666755814362636e-05 -3.3598186334000183e-05 0 4.3711023488616361e-05 -3.6804028926886177e-05 0 4.7573311432285613e-05 -3.0400635799299951e-05 0 5.2898818894634252e-05 -2.9320461119351955e-05 0 4.9666755814362636e-05 -3.3598186334000183e-05 0 5.2898818894634252e-05 -2.9320461119351955e-05 0 5.8013433456169824e-05 -3.3756427857348604e-05 0 4.9666755814362636e-05 -3.3598186334000183e-05 0 5.8013433456169824e-05 -3.3756427857348604e-05 0 4.9666755814362636e-05 -3.3598186334000183e-05 0 5.2223798348228249e-05 -3.8181409758624803e-05 0 4.9666755814362636e-05 -3.3598186334000183e-05 0 5.2223798348228249e-05 -3.8181409758624803e-05 0 4.3711023488616361e-05 -3.6804028926886177e-05 0 4.3711023488616361e-05 -3.6804028926886177e-05 0 3.8526542448094889e-05 -3.6347045153163817e-05 0 4.0791194905107356e-05 -4.1377916344352503e-05 0 5.2223798348228249e-05 -3.8181409758624803e-05 0 4.6352328184670635e-05 -4.0637345366391888e-05 0 4.3711023488616361e-05 -3.6804028926886177e-05 0 4.6352328184670635e-05 -4.0637345366391888e-05 0 4.3711023488616361e-05 -3.6804028926886177e-05 0 4.0791194905107356e-05 -4.1377916344352503e-05 0 4.4061309537083184e-05 -3.2618739165174386e-05 0 4.3711023488616361e-05 -3.6804028926886177e-05 0 3.9698375715062115e-05 -3.4073123056107585e-05 0 4.3711023488616361e-05 -3.6804028926886177e-05 0 3.9698375715062115e-05 -3.4073123056107585e-05 0 3.8526542448094889e-05 -3.6347045153163817e-05 0 3.6123458171765047e-05 -3.2450120098724886e-05 0 3.9698375715062115e-05 -3.4073123056107585e-05 0 3.5131062133170434e-05 -3.512365556789961e-05 0 3.9676062189156783e-05 -3.1260795534588707e-05 0 3.6123458171765047e-05 -3.2450120098724886e-05 0 3.9698375715062115e-05 -3.4073123056107585e-05 0 3.9676062189156783e-05 -3.1260795534588707e-05 0 4.4061309537083184e-05 -3.2618739165174386e-05 0 3.9698375715062115e-05 -3.4073123056107585e-05 0 3.1954499208015298e-05 -3.3306423736702996e-05 0 3.5131062133170434e-05 -3.512365556789961e-05 0 3.245628135721656e-05 -3.6053992865351494e-05 0 3.6123458171765047e-05 -3.2450120098724886e-05 0 3.1954499208015298e-05 -3.3306423736702996e-05 0 3.5131062133170434e-05 -3.512365556789961e-05 0 3.5131062133170434e-05 -3.512365556789961e-05 0 3.8526542448094889e-05 -3.6347045153163817e-05 0 3.579972909907214e-05 -3.8168704935885562e-05 0 3.9698375715062115e-05 -3.4073123056107585e-05 0 3.5131062133170434e-05 -3.512365556789961e-05 0 3.8526542448094889e-05 -3.6347045153163817e-05 0 3.5131062133170434e-05 -3.512365556789961e-05 0 3.579972909907214e-05 -3.8168704935885562e-05 0 3.245628135721656e-05 -3.6053992865351494e-05 0 3.8526542448094889e-05 -3.6347045153163817e-05 0 3.579972909907214e-05 -3.8168704935885562e-05 0 4.0791194905107356e-05 -4.1377916344352503e-05 0 3.579972909907214e-05 -3.8168704935885562e-05 0 4.0791194905107356e-05 -4.1377916344352503e-05 0 3.6524269050301601e-05 -4.1075537086620345e-05 0 3.579972909907214e-05 -3.8168704935885562e-05 0 3.6524269050301601e-05 -4.1075537086620345e-05 0 3.347195372077347e-05 -3.8629897561730444e-05 0 3.6524269050301601e-05 -4.1075537086620345e-05 0 3.3621927971614991e-05 -4.0302128761979779e-05 0 3.347195372077347e-05 -3.8629897561730444e-05 0 3.3621927971614991e-05 -4.0302128761979779e-05 0 3.0164435737971951e-05 -3.7627421692597119e-05 0 3.347195372077347e-05 -3.8629897561730444e-05 0 3.0164435737971951e-05 -3.7627421692597119e-05 0 3.347195372077347e-05 -3.8629897561730444e-05 0 3.245628135721656e-05 -3.6053992865351494e-05 0 3.579972909907214e-05 -3.8168704935885562e-05 0 3.347195372077347e-05 -3.8629897561730444e-05 0 3.245628135721656e-05 -3.6053992865351494e-05 0 3.2502096689852036e-05 -3.9952180016409975e-05 0 2.9602606883592424e-05 -3.8961717381593618e-05 0 3.2297489887318312e-05 -4.082243696708833e-05 0 3.3621927971614991e-05 -4.0302128761979779e-05 0 3.2502096689852036e-05 -3.9952180016409975e-05 0 2.9602606883592424e-05 -3.8961717381593618e-05 0 3.3621927971614991e-05 -4.0302128761979779e-05 0 3.0164435737971951e-05 -3.7627421692597119e-05 0 2.9602606883592424e-05 -3.8961717381593618e-05 0 2.9602606883592424e-05 -3.8961717381593618e-05 0 2.7079290980412226e-05 -3.6570557991928349e-05 0 2.608042630248628e-05 -3.8222274805250239e-05 0 3.0164435737971951e-05 -3.7627421692597119e-05 0 2.9602606883592424e-05 -3.8961717381593618e-05 0 2.7079290980412226e-05 -3.6570557991928349e-05 0 2.7079290980412226e-05 -3.6570557991928349e-05 0 2.867049376787634e-05 -3.4846630810422958e-05 0 2.5483326032863569e-05 -3.4217578042883702e-05 0 2.7079290980412226e-05 -3.6570557991928349e-05 0 2.5483326032863569e-05 -3.4217578042883702e-05 0 2.3700962924490134e-05 -3.5295138648204408e-05 0 2.7079290980412226e-05 -3.6570557991928349e-05 0 2.3700962924490134e-05 -3.5295138648204408e-05 0 2.608042630248628e-05 -3.8222274805250239e-05 0 3.0164435737971951e-05 -3.7627421692597119e-05 0 3.245628135721656e-05 -3.6053992865351494e-05 0 2.867049376787634e-05 -3.4846630810422958e-05 0 3.0164435737971951e-05 -3.7627421692597119e-05 0 2.7079290980412226e-05 -3.6570557991928349e-05 0 2.867049376787634e-05 -3.4846630810422958e-05 0 3.1954499208015298e-05 -3.3306423736702996e-05 0 3.245628135721656e-05 -3.6053992865351494e-05 0 2.867049376787634e-05 -3.4846630810422958e-05 0 3.1954499208015298e-05 -3.3306423736702996e-05 0 2.867049376787634e-05 -3.4846630810422958e-05 0 2.8585021157297283e-05 -3.2533488602843645e-05 0 2.8778113618913375e-05 -3.0644653844744677e-05 0 2.8585021157297283e-05 -3.2533488602843645e-05 0 2.6160352658199162e-05 -3.0831839258133133e-05 0 2.8585021157297283e-05 -3.2533488602843645e-05 0 2.6160352658199162e-05 -3.0831839258133133e-05 0 2.6518817782612701e-05 -3.2980441381670199e-05 0 2.6160352658199162e-05 -3.0831839258133133e-05 0 2.6518817782612701e-05 -3.2980441381670199e-05 0 2.3996280636630903e-05 -3.1478567500211435e-05 0 2.867049376787634e-05 -3.4846630810422958e-05 0 2.8585021157297283e-05 -3.2533488602843645e-05 0 2.6518817782612701e-05 -3.2980441381670199e-05 0 2.6518817782612701e-05 -3.2980441381670199e-05 0 2.5483326032863569e-05 -3.4217578042883702e-05 0 2.3996280636630903e-05 -3.1478567500211435e-05 0 2.867049376787634e-05 -3.4846630810422958e-05 0 2.6518817782612701e-05 -3.2980441381670199e-05 0 2.5483326032863569e-05 -3.4217578042883702e-05 0 2.5483326032863569e-05 -3.4217578042883702e-05 0 2.3700962924490134e-05 -3.5295138648204408e-05 0 2.1501981460117719e-05 -3.1609969704293089e-05 0 2.3700962924490134e-05 -3.5295138648204408e-05 0 2.1501981460117719e-05 -3.1609969704293089e-05 0 2.0979065080659703e-05 -3.3866397353498369e-05 0 2.5483326032863569e-05 -3.4217578042883702e-05 0 2.1501981460117719e-05 -3.1609969704293089e-05 0 2.3996280636630903e-05 -3.1478567500211435e-05 0 2.3996280636630903e-05 -3.1478567500211435e-05 0 2.0003845703349999e-05 -2.8826149140194076e-05 0 2.3337000728915931e-05 -2.8858795755680541e-05 0 2.1501981460117719e-05 -3.1609969704293089e-05 0 2.3996280636630903e-05 -3.1478567500211435e-05 0 2.0003845703349999e-05 -2.8826149140194076e-05 0 2.1501981460117719e-05 -3.1609969704293089e-05 0 2.0003845703349999e-05 -2.8826149140194076e-05 0 1.7224561744794276e-05 -3.0532811197718398e-05 0 2.0003845703349999e-05 -2.8826149140194076e-05 0 2.3337000728915931e-05 -2.8858795755680541e-05 0 2.0763004540258544e-05 -2.5846035157185556e-05 0 2.3337000728915931e-05 -2.8858795755680541e-05 0 2.0763004540258544e-05 -2.5846035157185556e-05 0 2.3569525465943528e-05 -2.6248134714031414e-05 0 2.3337000728915931e-05 -2.8858795755680541e-05 0 2.6083213678679355e-05 -2.8731851082696299e-05 0 2.3569525465943528e-05 -2.6248134714031414e-05 0 2.6160352658199162e-05 -3.0831839258133133e-05 0 2.3337000728915931e-05 -2.8858795755680541e-05 0 2.6083213678679355e-05 -2.8731851082696299e-05 0 2.8778113618913375e-05 -3.0644653844744677e-05 0 2.6160352658199162e-05 -3.0831839258133133e-05 0 2.6083213678679355e-05 -2.8731851082696299e-05 0 2.6160352658199162e-05 -3.0831839258133133e-05 0 2.3996280636630903e-05 -3.1478567500211435e-05 0 2.3337000728915931e-05 -2.8858795755680541e-05 0 3.3053519310371293e-05 -0.0001014921658211039 0 2.0061610169301027e-05 -9.4138698126884873e-05 0 2.3416519662548491e-05 -0.00010768107579318575 0 2.4047394840155202e-05 -6.767376924975683e-05 0 2.1228529355440793e-05 -5.8144362152809739e-05 0 3.3053519310371293e-05 -0.0001014921658211039 0 2.0061610169301027e-05 -9.4138698126884873e-05 0 3.0054479176778352e-05 -8.6572973817642543e-05 0 1.5285625802133828e-05 -3.3874739707053315e-05 0 1.7224561744794276e-05 -3.0532811197718398e-05 0 1.2654945778096757e-05 -2.9699957656451099e-05 0 1.7224561744794276e-05 -3.0532811197718398e-05 0 1.4216696151763103e-05 -2.6813843186986025e-05 0 1.2654945778096757e-05 -2.9699957656451099e-05 0 2.0003845703349999e-05 -2.8826149140194076e-05 0 1.7224561744794276e-05 -3.0532811197718398e-05 0 1.6993993711525051e-05 -2.7368378476264929e-05 0 1.7224561744794276e-05 -3.0532811197718398e-05 0 1.6993993711525051e-05 -2.7368378476264929e-05 0 1.4216696151763103e-05 -2.6813843186986025e-05 0 2.1501981460117719e-05 -3.1609969704293089e-05 0 1.7224561744794276e-05 -3.0532811197718398e-05 0 2.0979065080659703e-05 -3.3866397353498369e-05 0 1.5285625802133828e-05 -3.3874739707053315e-05 0 1.7224561744794276e-05 -3.0532811197718398e-05 0 1.8480787954110687e-05 -3.4415782756706561e-05 0 1.7224561744794276e-05 -3.0532811197718398e-05 0 1.8480787954110687e-05 -3.4415782756706561e-05 0 2.0979065080659703e-05 -3.3866397353498369e-05 0 1.8480787954110687e-05 -3.4415782756706561e-05 0 2.0979065080659703e-05 -3.3866397353498369e-05 0 2.2114909193020925e-05 -3.7185137424854039e-05 0 2.3700962924490134e-05 -3.5295138648204408e-05 0 2.0979065080659703e-05 -3.3866397353498369e-05 0 2.2114909193020925e-05 -3.7185137424854039e-05 0 1.8480787954110687e-05 -3.4415782756706561e-05 0 2.2114909193020925e-05 -3.7185137424854039e-05 0 1.8530962818809832e-05 -3.7655813651555465e-05 0 2.2114909193020925e-05 -3.7185137424854039e-05 0 1.8530962818809832e-05 -3.7655813651555465e-05 0 2.2501812887896922e-05 -4.0794304081297112e-05 0 3.6256113221886049e-05 -0.00011709174542836275 0 2.3416519662548491e-05 -0.00010768107579318575 0 1.7294654707086218e-05 -0.00012055688890533855 0 3.6256113221886049e-05 -0.00011709174542836275 0 2.5476366587974269e-05 -0.00013546663313278206 0 1.7294654707086218e-05 -0.00012055688890533855 0 2.7085601666939993e-05 -7.7412436880717458e-05 0 3.1364241748530109e-05 -8.707810447997145e-05 0 1.5285625802133828e-05 -3.3874739707053315e-05 0 1.8480787954110687e-05 -3.4415782756706561e-05 0 1.8530962818809832e-05 -3.7655813651555465e-05 0 3.3053519310371293e-05 -0.0001014921658211039 0 3.6256113221886049e-05 -0.00011709174542836275 0 2.3416519662548491e-05 -0.00010768107579318575 0 2.4047394840155202e-05 -6.767376924975683e-05 0 2.7085601666939993e-05 -7.7412436880717458e-05 0 3.6256113221886049e-05 -0.00011709174542836275 0 2.5476366587974269e-05 -0.00013546663313278206 0 3.9817677115555962e-05 -0.00013321663173541942 0 3.1364241748530109e-05 -8.707810447997145e-05 0 3.3730467626378e-05 -9.6098988976393889e-05 0 2.2501812887896922e-05 -4.0794304081297112e-05 0 2.5190630539570265e-05 -3.9927568713830165e-05 0 2.7373584573121175e-05 -4.2909762314134782e-05 0 2.5476366587974269e-05 -0.00013546663313278206 0 3.9817677115555962e-05 -0.00013321663173541942 0 4.3972498027208129e-05 -0.00014991608876087654 0 2.5476366587974269e-05 -0.00013546663313278206 0 4.3972498027208129e-05 -0.00014991608876087654 0 2.5447856989297793e-05 -0.00015110546737749007 0 2.3700962924490134e-05 -3.5295138648204408e-05 0 2.2114909193020925e-05 -3.7185137424854039e-05 0 2.608042630248628e-05 -3.8222274805250239e-05 0 2.2114909193020925e-05 -3.7185137424854039e-05 0 2.5190630539570265e-05 -3.9927568713830165e-05 0 2.608042630248628e-05 -3.8222274805250239e-05 0 2.2114909193020925e-05 -3.7185137424854039e-05 0 2.2501812887896922e-05 -4.0794304081297112e-05 0 2.5190630539570265e-05 -3.9927568713830165e-05 0 2.5190630539570265e-05 -3.9927568713830165e-05 0 2.608042630248628e-05 -3.8222274805250239e-05 0 2.8547078450454117e-05 -4.0583656477934162e-05 0 2.9602606883592424e-05 -3.8961717381593618e-05 0 2.608042630248628e-05 -3.8222274805250239e-05 0 2.8547078450454117e-05 -4.0583656477934162e-05 0 2.5190630539570265e-05 -3.9927568713830165e-05 0 2.8547078450454117e-05 -4.0583656477934162e-05 0 2.7373584573121175e-05 -4.2909762314134782e-05 0 2.8547078450454117e-05 -4.0583656477934162e-05 0 2.7373584573121175e-05 -4.2909762314134782e-05 0 3.2845596575805901e-05 -4.3559208250510194e-05 0 2.8547078450454117e-05 -4.0583656477934162e-05 0 3.2297489887318312e-05 -4.082243696708833e-05 0 3.2845596575805901e-05 -4.3559208250510194e-05 0 2.9602606883592424e-05 -3.8961717381593618e-05 0 2.8547078450454117e-05 -4.0583656477934162e-05 0 3.2297489887318312e-05 -4.082243696708833e-05 0 4.3972498027208129e-05 -0.00014991608876087654 0 3.5133244404349234e-05 -0.00015944334772215519 0 2.5447856989297793e-05 -0.00015110546737749007 0 3.3730467626378e-05 -9.6098988976393889e-05 0 4.6843618861316161e-05 -0.0001056507081137534 0 4.3972498027208129e-05 -0.00014991608876087654 0 4.9362716821218586e-05 -0.0001670035030612654 0 3.5133244404349234e-05 -0.00015944334772215519 0 4.9362716821218586e-05 -0.0001670035030612654 0 3.5133244404349234e-05 -0.00015944334772215519 0 3.1875615026910546e-05 -0.00017024682488323329 0 3.5133244404349234e-05 -0.00015944334772215519 0 2.1192997501986443e-05 -0.00016225373326820422 0 3.1875615026910546e-05 -0.00017024682488323329 0 2.1192997501986443e-05 -0.00016225373326820422 0 3.1875615026910546e-05 -0.00017024682488323329 0 1.3978762341399079e-05 -0.0001720293861802932 0 2.1192997501986443e-05 -0.00016225373326820422 0 2.5447856989297793e-05 -0.00015110546737749007 0 1.0221177158301135e-05 -0.00015614190697940233 0 3.5133244404349234e-05 -0.00015944334772215519 0 2.1192997501986443e-05 -0.00016225373326820422 0 2.5447856989297793e-05 -0.00015110546737749007 0 2.1192997501986443e-05 -0.00016225373326820422 0 1.0221177158301135e-05 -0.00015614190697940233 0 1.3978762341399079e-05 -0.0001720293861802932 0 1.0221177158301135e-05 -0.00015614190697940233 0 -3.3274999288005538e-06 -0.00017283346687218331 0 -5.3664448832497234e-06 -0.00015119849088620602 0 -3.3274999288005538e-06 -0.00017283346687218331 0 -5.3664448832497234e-06 -0.00015119849088620602 0 -1.9729541503778443e-05 -0.00015757609014655223 0 1.0221177158301135e-05 -0.00015614190697940233 0 1.3978762341399079e-05 -0.0001720293861802932 0 -3.3274999288005538e-06 -0.00017283346687218331 0 1.0221177158301135e-05 -0.00015614190697940233 0 -5.3664448832497234e-06 -0.00015119849088620602 0 1.0428116977727524e-05 -0.00013893817432579928 0 -5.3664448832497234e-06 -0.00015119849088620602 0 -7.9726044263785181e-06 -0.00013230403730509193 0 1.0428116977727524e-05 -0.00013893817432579928 0 -5.3664448832497234e-06 -0.00015119849088620602 0 -7.9726044263785181e-06 -0.00013230403730509193 0 -2.3290261193949389e-05 -0.0001403871053889668 0 -7.9726044263785181e-06 -0.00013230403730509193 0 1.0428116977727524e-05 -0.00013893817432579928 0 2.6596869897459737e-06 -0.00012331497058654545 0 2.5476366587974269e-05 -0.00013546663313278206 0 1.0428116977727524e-05 -0.00013893817432579928 0 1.7294654707086218e-05 -0.00012055688890533855 0 2.5476366587974269e-05 -0.00013546663313278206 0 2.5447856989297793e-05 -0.00015110546737749007 0 1.0428116977727524e-05 -0.00013893817432579928 0 2.5447856989297793e-05 -0.00015110546737749007 0 1.0221177158301135e-05 -0.00015614190697940233 0 1.0428116977727524e-05 -0.00013893817432579928 0 -5.3892220623474911e-05 -0.00015714756511055398 0 -4.2714136521527838e-05 -0.00016415823670512839 0 -3.547658620698314e-05 -0.00015464175208054775 0 -5.3892220623474911e-05 -0.00015714756511055398 0 -5.357944462988497e-05 -0.00017389498417268883 0 -4.2714136521527838e-05 -0.00016415823670512839 0 -5.357944462988497e-05 -0.00017389498417268883 0 -3.6918048176740546e-05 -0.00017355690486001624 0 -4.2714136521527838e-05 -0.00016415823670512839 0 -3.6918048176740546e-05 -0.00017355690486001624 0 -4.2714136521527838e-05 -0.00016415823670512839 0 -2.8911278502173043e-05 -0.00016474338541395096 0 -4.2714136521527838e-05 -0.00016415823670512839 0 -3.547658620698314e-05 -0.00015464175208054775 0 -2.8911278502173043e-05 -0.00016474338541395096 0 -3.547658620698314e-05 -0.00015464175208054775 0 -2.8911278502173043e-05 -0.00016474338541395096 0 -1.9729541503778443e-05 -0.00015757609014655223 0 -2.8911278502173043e-05 -0.00016474338541395096 0 -2.0131258589295648e-05 -0.0001732864991973652 0 -1.9729541503778443e-05 -0.00015757609014655223 0 -3.6918048176740546e-05 -0.00017355690486001624 0 -2.8911278502173043e-05 -0.00016474338541395096 0 -2.0131258589295648e-05 -0.0001732864991973652 0 -3.3274999288005538e-06 -0.00017283346687218331 0 -2.0131258589295648e-05 -0.0001732864991973652 0 -1.9729541503778443e-05 -0.00015757609014655223 0 -5.3664448832497234e-06 -0.00015119849088620602 0 -1.9729541503778443e-05 -0.00015757609014655223 0 -2.3290261193949389e-05 -0.0001403871053889668 0 -7.9726044263785181e-06 -0.00013230403730509193 0 -2.3290261193949389e-05 -0.0001403871053889668 0 -2.023317957116133e-05 -0.00012156849256301709 0 -2.3290261193949389e-05 -0.0001403871053889668 0 -3.921229777995908e-05 -0.00013991756384786066 0 -3.4580301186422534e-05 -0.00012465316912044401 0 -3.547658620698314e-05 -0.00015464175208054775 0 -1.9729541503778443e-05 -0.00015757609014655223 0 -2.3290261193949389e-05 -0.0001403871053889668 0 -3.547658620698314e-05 -0.00015464175208054775 0 -2.3290261193949389e-05 -0.0001403871053889668 0 -3.921229777995908e-05 -0.00013991756384786066 0 -5.3892220623474911e-05 -0.00015714756511055398 0 -3.547658620698314e-05 -0.00015464175208054775 0 -3.921229777995908e-05 -0.00013991756384786066 0 -3.921229777995908e-05 -0.00013991756384786066 0 -5.3969725423644993e-05 -0.00014039634880392719 0 -5.3679654374690121e-05 -0.00012364540955995824 0 -5.3892220623474911e-05 -0.00015714756511055398 0 -3.921229777995908e-05 -0.00013991756384786066 0 -5.3969725423644993e-05 -0.00014039634880392719 0 -5.3679654374690121e-05 -0.00012364540955995824 0 -4.1919063356729669e-05 -0.00011291282414076604 0 -5.2849950525601108e-05 -0.00010737463311278884 0 -3.921229777995908e-05 -0.00013991756384786066 0 -5.3679654374690121e-05 -0.00012364540955995824 0 -3.4580301186422534e-05 -0.00012465316912044401 0 -3.4580301186422534e-05 -0.00012465316912044401 0 -4.1919063356729669e-05 -0.00011291282414076604 0 -3.0165197857947294e-05 -0.0001069859561772492 0 -5.3679654374690121e-05 -0.00012364540955995824 0 -3.4580301186422534e-05 -0.00012465316912044401 0 -4.1919063356729669e-05 -0.00011291282414076604 0 -3.4580301186422534e-05 -0.00012465316912044401 0 -2.023317957116133e-05 -0.00012156849256301709 0 -3.0165197857947294e-05 -0.0001069859561772492 0 -2.3290261193949389e-05 -0.0001403871053889668 0 -3.4580301186422534e-05 -0.00012465316912044401 0 -2.023317957116133e-05 -0.00012156849256301709 0 -2.023317957116133e-05 -0.00012156849256301709 0 -1.8427420722856437e-05 -0.00010621011492580763 0 -3.0165197857947294e-05 -0.0001069859561772492 0 -2.023317957116133e-05 -0.00012156849256301709 0 -1.8427420722856437e-05 -0.00010621011492580763 0 -8.4012691815869373e-06 -0.00011436226646878726 0 -1.8427420722856437e-05 -0.00010621011492580763 0 -2.3630057045993792e-05 -9.6207920364817963e-05 0 -3.0165197857947294e-05 -0.0001069859561772492 0 -2.3630057045993792e-05 -9.6207920364817963e-05 0 -1.1133959296050319e-05 -9.6458882073810671e-05 0 -2.1847004248699048e-05 -8.2510677533417101e-05 0 -1.8427420722856437e-05 -0.00010621011492580763 0 -2.3630057045993792e-05 -9.6207920364817963e-05 0 -1.1133959296050319e-05 -9.6458882073810671e-05 0 -2.3630057045993792e-05 -9.6207920364817963e-05 0 -3.0165197857947294e-05 -0.0001069859561772492 0 -3.5763976148669569e-05 -9.1617157851730616e-05 0 -4.1919063356729669e-05 -0.00011291282414076604 0 -3.0165197857947294e-05 -0.0001069859561772492 0 -4.2582517940412096e-05 -0.0001017792602168454 0 -3.0165197857947294e-05 -0.0001069859561772492 0 -4.2582517940412096e-05 -0.0001017792602168454 0 -3.5763976148669569e-05 -9.1617157851730616e-05 0 -4.2582517940412096e-05 -0.0001017792602168454 0 -3.5763976148669569e-05 -9.1617157851730616e-05 0 -5.1378955155862743e-05 -9.154092224876681e-05 0 -4.2582517940412096e-05 -0.0001017792602168454 0 -5.2849950525601108e-05 -0.00010737463311278884 0 -5.1378955155862743e-05 -9.154092224876681e-05 0 -4.1919063356729669e-05 -0.00011291282414076604 0 -4.2582517940412096e-05 -0.0001017792602168454 0 -5.2849950525601108e-05 -0.00010737463311278884 0 2.1291597698229221e-06 -0.00010910052180277953 0 1.7294654707086218e-05 -0.00012055688890533855 0 1.2281839647349927e-05 -0.00010310720006245213 0 2.1291597698229221e-06 -0.00010910052180277953 0 1.7294654707086218e-05 -0.00012055688890533855 0 2.6596869897459737e-06 -0.00012331497058654545 0 2.3416519662548491e-05 -0.00010768107579318575 0 1.7294654707086218e-05 -0.00012055688890533855 0 1.2281839647349927e-05 -0.00010310720006245213 0 1.0428116977727524e-05 -0.00013893817432579928 0 1.7294654707086218e-05 -0.00012055688890533855 0 2.6596869897459737e-06 -0.00012331497058654545 0 -7.9726044263785181e-06 -0.00013230403730509193 0 2.6596869897459737e-06 -0.00012331497058654545 0 -8.4012691815869373e-06 -0.00011436226646878726 0 -7.9726044263785181e-06 -0.00013230403730509193 0 -2.023317957116133e-05 -0.00012156849256301709 0 -8.4012691815869373e-06 -0.00011436226646878726 0 2.1291597698229221e-06 -0.00010910052180277953 0 2.6596869897459737e-06 -0.00012331497058654545 0 -8.4012691815869373e-06 -0.00011436226646878726 0 2.1291597698229221e-06 -0.00010910052180277953 0 -1.1133959296050319e-05 -9.6458882073810671e-05 0 9.9952842101355337e-07 -9.411259847209146e-05 0 2.1291597698229221e-06 -0.00010910052180277953 0 -8.4012691815869373e-06 -0.00011436226646878726 0 -1.1133959296050319e-05 -9.6458882073810671e-05 0 -1.8427420722856437e-05 -0.00010621011492580763 0 -8.4012691815869373e-06 -0.00011436226646878726 0 -1.1133959296050319e-05 -9.6458882073810671e-05 0 -1.1133959296050319e-05 -9.6458882073810671e-05 0 9.9952842101355337e-07 -9.411259847209146e-05 0 -7.0302607137887117e-06 -8.2270052934721083e-05 0 9.9952842101355337e-07 -9.411259847209146e-05 0 1.2281839647349927e-05 -0.00010310720006245213 0 1.0134135012248848e-05 -9.0665982640911538e-05 0 2.1291597698229221e-06 -0.00010910052180277953 0 9.9952842101355337e-07 -9.411259847209146e-05 0 1.2281839647349927e-05 -0.00010310720006245213 0 2.0061610169301027e-05 -9.4138698126884873e-05 0 2.3416519662548491e-05 -0.00010768107579318575 0 1.2281839647349927e-05 -0.00010310720006245213 0 2.0061610169301027e-05 -9.4138698126884873e-05 0 1.2281839647349927e-05 -0.00010310720006245213 0 1.0134135012248848e-05 -9.0665982640911538e-05 0 2.0061610169301027e-05 -9.4138698126884873e-05 0 1.0134135012248848e-05 -9.0665982640911538e-05 0 1.5399064913694055e-05 -8.0660522635181122e-05 0 1.0134135012248848e-05 -9.0665982640911538e-05 0 1.5399064913694055e-05 -8.0660522635181122e-05 0 2.1621129816781477e-06 -8.1477619579716667e-05 0 1.5399064913694055e-05 -8.0660522635181122e-05 0 7.7564573159895306e-06 -7.1965210771539226e-05 0 2.1621129816781477e-06 -8.1477619579716667e-05 0 1.5399064913694055e-05 -8.0660522635181122e-05 0 7.7564573159895306e-06 -7.1965210771539226e-05 0 1.5639251715670325e-05 -6.7273390185814151e-05 0 7.7564573159895306e-06 -7.1965210771539226e-05 0 2.1621129816781477e-06 -8.1477619579716667e-05 0 -9.7136203973621729e-07 -7.016653858010695e-05 0 9.9952842101355337e-07 -9.411259847209146e-05 0 1.0134135012248848e-05 -9.0665982640911538e-05 0 2.1621129816781477e-06 -8.1477619579716667e-05 0 9.9952842101355337e-07 -9.411259847209146e-05 0 2.1621129816781477e-06 -8.1477619579716667e-05 0 -7.0302607137887117e-06 -8.2270052934721083e-05 0 -1.1133959296050319e-05 -9.6458882073810671e-05 0 -7.0302607137887117e-06 -8.2270052934721083e-05 0 -2.1847004248699048e-05 -8.2510677533417101e-05 0 -7.0302607137887117e-06 -8.2270052934721083e-05 0 -1.1584289743542455e-05 -6.9736652683844726e-05 0 -2.1847004248699048e-05 -8.2510677533417101e-05 0 2.1621129816781477e-06 -8.1477619579716667e-05 0 -7.0302607137887117e-06 -8.2270052934721083e-05 0 -9.7136203973621729e-07 -7.016653858010695e-05 0 -7.0302607137887117e-06 -8.2270052934721083e-05 0 -1.1584289743542455e-05 -6.9736652683844726e-05 0 -9.7136203973621729e-07 -7.016653858010695e-05 0 -1.1584289743542455e-05 -6.9736652683844726e-05 0 -2.3015360799747634e-06 -5.6948183120417299e-05 0 -9.7136203973621729e-07 -7.016653858010695e-05 0 -1.1584289743542455e-05 -6.9736652683844726e-05 0 -1.8592957006482176e-05 -6.1283492006575105e-05 0 -1.0978907297671823e-05 -5.2839125424172194e-05 0 -1.1584289743542455e-05 -6.9736652683844726e-05 0 -2.3015360799747634e-06 -5.6948183120417299e-05 0 -1.0978907297671823e-05 -5.2839125424172194e-05 0 -2.3015360799747634e-06 -5.6948183120417299e-05 0 6.7273295652020067e-06 -6.0514173759983741e-05 0 5.9466048914980503e-06 -4.5238869629210951e-05 0 6.7273295652020067e-06 -6.0514173759983741e-05 0 5.9466048914980503e-06 -4.5238869629210951e-05 0 1.4346072691515945e-05 -5.2712145900770265e-05 0 7.7564573159895306e-06 -7.1965210771539226e-05 0 6.7273295652020067e-06 -6.0514173759983741e-05 0 1.5639251715670325e-05 -6.7273390185814151e-05 0 -2.3015360799747634e-06 -5.6948183120417299e-05 0 6.7273295652020067e-06 -6.0514173759983741e-05 0 -9.7136203973621729e-07 -7.016653858010695e-05 0 7.7564573159895306e-06 -7.1965210771539226e-05 0 6.7273295652020067e-06 -6.0514173759983741e-05 0 -9.7136203973621729e-07 -7.016653858010695e-05 0 -4.9220529464881667e-05 -7.6541007658853286e-05 0 -4.2459273825503289e-05 -8.4000201439278719e-05 0 -3.3680096641412472e-05 -7.5846866932524431e-05 0 -4.9220529464881667e-05 -7.6541007658853286e-05 0 -3.3680096641412472e-05 -7.5846866932524431e-05 0 -3.7796325703887853e-05 -6.547071541571382e-05 0 -3.5763976148669569e-05 -9.1617157851730616e-05 0 -5.1378955155862743e-05 -9.154092224876681e-05 0 -4.2459273825503289e-05 -8.4000201439278719e-05 0 -4.9220529464881667e-05 -7.6541007658853286e-05 0 -5.1378955155862743e-05 -9.154092224876681e-05 0 -4.2459273825503289e-05 -8.4000201439278719e-05 0 -3.5763976148669569e-05 -9.1617157851730616e-05 0 -4.2459273825503289e-05 -8.4000201439278719e-05 0 -3.3680096641412472e-05 -7.5846866932524431e-05 0 -3.3680096641412472e-05 -7.5846866932524431e-05 0 -2.1847004248699048e-05 -8.2510677533417101e-05 0 -2.2222399705336512e-05 -7.0115488742539009e-05 0 -3.5763976148669569e-05 -9.1617157851730616e-05 0 -3.3680096641412472e-05 -7.5846866932524431e-05 0 -2.1847004248699048e-05 -8.2510677533417101e-05 0 -2.3630057045993792e-05 -9.6207920364817963e-05 0 -3.5763976148669569e-05 -9.1617157851730616e-05 0 -2.1847004248699048e-05 -8.2510677533417101e-05 0 -1.1584289743542455e-05 -6.9736652683844726e-05 0 -2.1847004248699048e-05 -8.2510677533417101e-05 0 -2.2222399705336512e-05 -7.0115488742539009e-05 0 -2.2222399705336512e-05 -7.0115488742539009e-05 0 -1.8592957006482176e-05 -6.1283492006575105e-05 0 -2.812265864916375e-05 -6.2116244873571046e-05 0 -1.1584289743542455e-05 -6.9736652683844726e-05 0 -2.2222399705336512e-05 -7.0115488742539009e-05 0 -1.8592957006482176e-05 -6.1283492006575105e-05 0 -1.8592957006482176e-05 -6.1283492006575105e-05 0 -2.0359576516816839e-05 -5.2387943114517707e-05 0 -1.0978907297671823e-05 -5.2839125424172194e-05 0 -1.8592957006482176e-05 -6.1283492006575105e-05 0 -2.812265864916375e-05 -6.2116244873571046e-05 0 -2.0359576516816839e-05 -5.2387943114517707e-05 0 -2.812265864916375e-05 -6.2116244873571046e-05 0 -3.3116029107075392e-05 -5.3296772556278308e-05 0 -2.0359576516816839e-05 -5.2387943114517707e-05 0 -3.3680096641412472e-05 -7.5846866932524431e-05 0 -2.2222399705336512e-05 -7.0115488742539009e-05 0 -2.812265864916375e-05 -6.2116244873571046e-05 0 -3.3680096641412472e-05 -7.5846866932524431e-05 0 -2.812265864916375e-05 -6.2116244873571046e-05 0 -3.7796325703887853e-05 -6.547071541571382e-05 0 -2.812265864916375e-05 -6.2116244873571046e-05 0 -3.7796325703887853e-05 -6.547071541571382e-05 0 -3.3116029107075392e-05 -5.3296772556278308e-05 0 -3.7796325703887853e-05 -6.547071541571382e-05 0 -4.6533903948864874e-05 -6.2455350588330066e-05 0 -3.3116029107075392e-05 -5.3296772556278308e-05 0 -4.9220529464881667e-05 -7.6541007658853286e-05 0 -3.7796325703887853e-05 -6.547071541571382e-05 0 -4.6533903948864874e-05 -6.2455350588330066e-05 0 -4.3277240217070708e-05 -4.9535013042109153e-05 0 -3.3105807809451047e-05 -4.2319303973051841e-05 0 -3.9170481962073312e-05 -3.7916569612982366e-05 0 -4.6533903948864874e-05 -6.2455350588330066e-05 0 -4.3277240217070708e-05 -4.9535013042109153e-05 0 -3.3116029107075392e-05 -5.3296772556278308e-05 0 -4.3277240217070708e-05 -4.9535013042109153e-05 0 -3.3116029107075392e-05 -5.3296772556278308e-05 0 -3.3105807809451047e-05 -4.2319303973051841e-05 0 -3.3116029107075392e-05 -5.3296772556278308e-05 0 -3.3105807809451047e-05 -4.2319303973051841e-05 0 -2.4615142243469479e-05 -4.2015812871270563e-05 0 -3.3116029107075392e-05 -5.3296772556278308e-05 0 -2.4615142243469479e-05 -4.2015812871270563e-05 0 -2.0359576516816839e-05 -5.2387943114517707e-05 0 -2.0359576516816839e-05 -5.2387943114517707e-05 0 -1.7247556153392527e-05 -4.3465984325030384e-05 0 -1.0978907297671823e-05 -5.2839125424172194e-05 0 -2.4615142243469479e-05 -4.2015812871270563e-05 0 -2.0359576516816839e-05 -5.2387943114517707e-05 0 -1.7247556153392527e-05 -4.3465984325030384e-05 0 -1.7247556153392527e-05 -4.3465984325030384e-05 0 -1.8426298393207363e-05 -3.5443084953678253e-05 0 -1.0549856341635555e-05 -3.7212786198403379e-05 0 -2.4615142243469479e-05 -4.2015812871270563e-05 0 -1.7247556153392527e-05 -4.3465984325030384e-05 0 -1.8426298393207363e-05 -3.5443084953678253e-05 0 -1.8426298393207363e-05 -3.5443084953678253e-05 0 -1.4823098415714934e-05 -2.6872973110244622e-05 0 -2.5811305146403307e-05 -3.079185403628267e-05 0 -1.791399248553132e-05 -2.1743263519851633e-05 0 -1.4823098415714934e-05 -2.6872973110244622e-05 0 -2.5811305146403307e-05 -3.079185403628267e-05 0 -2.4615142243469479e-05 -4.2015812871270563e-05 0 -1.8426298393207363e-05 -3.5443084953678253e-05 0 -2.5811305146403307e-05 -3.079185403628267e-05 0 -3.3105807809451047e-05 -4.2319303973051841e-05 0 -2.5811305146403307e-05 -3.079185403628267e-05 0 -3.9170481962073312e-05 -3.7916569612982366e-05 0 -3.3105807809451047e-05 -4.2319303973051841e-05 0 -2.4615142243469479e-05 -4.2015812871270563e-05 0 -2.5811305146403307e-05 -3.079185403628267e-05 0 -3.5009691091537712e-05 -2.7981918279093483e-05 0 -2.5811305146403307e-05 -3.079185403628267e-05 0 -3.9170481962073312e-05 -3.7916569612982366e-05 0 5.9466048914980503e-06 -4.5238869629210951e-05 0 -3.9863923514217813e-06 -4.4850934789133184e-05 0 -1.4863296563575727e-06 -3.4098736926363245e-05 0 5.9466048914980503e-06 -4.5238869629210951e-05 0 -1.4863296563575727e-06 -3.4098736926363245e-05 0 6.4132385676164194e-06 -3.0483285910832125e-05 0 -2.3015360799747634e-06 -5.6948183120417299e-05 0 5.9466048914980503e-06 -4.5238869629210951e-05 0 -3.9863923514217813e-06 -4.4850934789133184e-05 0 -2.3015360799747634e-06 -5.6948183120417299e-05 0 -3.9863923514217813e-06 -4.4850934789133184e-05 0 -1.0978907297671823e-05 -5.2839125424172194e-05 0 -1.7247556153392527e-05 -4.3465984325030384e-05 0 -1.0978907297671823e-05 -5.2839125424172194e-05 0 -1.0549856341635555e-05 -3.7212786198403379e-05 0 -3.9863923514217813e-06 -4.4850934789133184e-05 0 -1.0978907297671823e-05 -5.2839125424172194e-05 0 -1.0549856341635555e-05 -3.7212786198403379e-05 0 -3.9863923514217813e-06 -4.4850934789133184e-05 0 -1.0549856341635555e-05 -3.7212786198403379e-05 0 -1.4863296563575727e-06 -3.4098736926363245e-05 0 -1.0549856341635555e-05 -3.7212786198403379e-05 0 -7.2489856150468718e-06 -2.7017162566256005e-05 0 -1.4863296563575727e-06 -3.4098736926363245e-05 0 -1.8426298393207363e-05 -3.5443084953678253e-05 0 -1.4823098415714934e-05 -2.6872973110244622e-05 0 -1.0549856341635555e-05 -3.7212786198403379e-05 0 -1.0819431922487877e-05 -2.1679461754396235e-05 0 -1.4823098415714934e-05 -2.6872973110244622e-05 0 -7.2489856150468718e-06 -2.7017162566256005e-05 0 -1.4823098415714934e-05 -2.6872973110244622e-05 0 -1.0549856341635555e-05 -3.7212786198403379e-05 0 -7.2489856150468718e-06 -2.7017162566256005e-05 0 -7.2489856150468718e-06 -2.7017162566256005e-05 0 -1.4097039655289881e-06 -2.3922594987357911e-05 0 -1.4863296563575727e-06 -3.4098736926363245e-05 0 -1.4097039655289881e-06 -2.3922594987357911e-05 0 -1.4863296563575727e-06 -3.4098736926363245e-05 0 6.4132385676164194e-06 -3.0483285910832125e-05 0 4.6136681867202905e-06 -1.9999413052605356e-05 0 -1.4097039655289881e-06 -2.3922594987357911e-05 0 6.4132385676164194e-06 -3.0483285910832125e-05 0 4.6136681867202905e-06 -1.9999413052605356e-05 0 1.0288588703511246e-05 -1.6993950050539329e-05 0 6.4132385676164194e-06 -3.0483285910832125e-05 0 1.0288588703511246e-05 -1.6993950050539329e-05 0 8.864539404127718e-06 -1.379674850428944e-05 0 8.6723842982917933e-06 -1.3422290627505304e-05 0 1.0288588703511246e-05 -1.6993950050539329e-05 0 1.6605882040447928e-05 -3.295284858057837e-05 0 6.4132385676164194e-06 -3.0483285910832125e-05 0 8.8242608771198304e-06 -1.6514734225999286e-05 0 1.3175445141558212e-05 -2.3695263544653873e-05 0 1.6605882040447928e-05 -3.295284858057837e-05 0 6.4132385676164194e-06 -3.0483285910832125e-05 0 1.2849564583720228e-05 -4.0247361744124147e-05 0 5.9466048914980503e-06 -4.5238869629210951e-05 0 6.4132385676164194e-06 -3.0483285910832125e-05 0 1.2849564583720228e-05 -4.0247361744124147e-05 0 1.3175445141558212e-05 -2.3695263544653873e-05 0 1.4656262847785743e-05 -3.1031098757279943e-05 0 1.6605882040447928e-05 -3.295284858057837e-05 0 1.2849564583720228e-05 -4.0247361744124147e-05 0 2.0864194269077254e-05 -4.5527795901829631e-05 0 1.4656262847785743e-05 -3.1031098757279943e-05 0 1.6693573819692653e-05 -3.9654146769012718e-05 0 1.2849564583720228e-05 -4.0247361744124147e-05 0 2.0864194269077254e-05 -4.5527795901829631e-05 0 1.4346072691515945e-05 -5.2712145900770265e-05 0 5.9466048914980503e-06 -4.5238869629210951e-05 0 1.2849564583720228e-05 -4.0247361744124147e-05 0 1.4346072691515945e-05 -5.2712145900770265e-05 0 1.0636870722111457e-05 -1.7372298066437162e-05 0 9.8683600771421763e-06 -1.3882018446001024e-05 0 1.1961949295491947e-05 -1.618958936268696e-05 0 8.754418648729842e-06 -1.6675375795634213e-05 0 1.0636870722111457e-05 -1.7372298066437162e-05 0 9.2750626696177779e-06 -2.0717496571754743e-05 0 8.754418648729842e-06 -1.6675375795634213e-05 0 1.0636870722111457e-05 -1.7372298066437162e-05 0 9.8683600771421763e-06 -1.3882018446001024e-05 0 8.864539404127718e-06 -1.379674850428944e-05 0 8.754418648729842e-06 -1.6675375795634213e-05 0 9.8683600771421763e-06 -1.3882018446001024e-05 0 9.8683600771421763e-06 -1.3882018446001024e-05 0 8.6723842982917933e-06 -1.3422290627505304e-05 0 9.8972423939035451e-06 -1.14567650475571e-05 0 8.864539404127718e-06 -1.379674850428944e-05 0 9.8683600771421763e-06 -1.3882018446001024e-05 0 8.6723842982917933e-06 -1.3422290627505304e-05 0 8.6986659408272885e-06 -1.2274005559813916e-05 0 1.0288588703511246e-05 -1.6993950050539329e-05 0 8.6723842982917933e-06 -1.3422290627505304e-05 0 8.6986659408272885e-06 -1.2274005559813916e-05 0 8.6723842982917933e-06 -1.3422290627505304e-05 0 9.8972423939035451e-06 -1.14567650475571e-05 0 9.8683600771421763e-06 -1.3882018446001024e-05 0 9.8972423939035451e-06 -1.14567650475571e-05 0 1.2159592248018143e-05 -1.3844295845485269e-05 0 9.8972423939035451e-06 -1.14567650475571e-05 0 1.255407357745316e-05 -1.0664128968452727e-05 0 1.2159592248018143e-05 -1.3844295845485269e-05 0 1.0926348572402721e-05 -8.0574401521851708e-06 0 9.8972423939035451e-06 -1.14567650475571e-05 0 1.255407357745316e-05 -1.0664128968452727e-05 0 1.2713714581239053e-05 -6.1104833946415553e-06 0 1.4414308385506389e-05 -8.9045086148264129e-06 0 1.255407357745316e-05 -1.0664128968452727e-05 0 1.2713714581239053e-05 -6.1104833946415553e-06 0 1.0926348572402721e-05 -8.0574401521851708e-06 0 1.255407357745316e-05 -1.0664128968452727e-05 0 1.4414308385506389e-05 -8.9045086148264129e-06 0 1.5675128584048094e-05 -1.3017695770107906e-05 0 1.255407357745316e-05 -1.0664128968452727e-05 0 1.5675128584048094e-05 -1.3017695770107906e-05 0 1.42184390366867e-05 -1.3710594071276029e-05 0 1.6809612193379382e-05 -1.6659358501869031e-05 0 1.5675128584048094e-05 -1.3017695770107906e-05 0 1.255407357745316e-05 -1.0664128968452727e-05 0 1.42184390366867e-05 -1.3710594071276029e-05 0 1.42184390366867e-05 -1.3710594071276029e-05 0 1.4895137728670651e-05 -1.6367768156900597e-05 0 1.2159592248018143e-05 -1.3844295845485269e-05 0 1.255407357745316e-05 -1.0664128968452727e-05 0 1.42184390366867e-05 -1.3710594071276029e-05 0 1.2159592248018143e-05 -1.3844295845485269e-05 0 1.42184390366867e-05 -1.3710594071276029e-05 0 1.4895137728670651e-05 -1.6367768156900597e-05 0 1.6809612193379382e-05 -1.6659358501869031e-05 0 9.8683600771421763e-06 -1.3882018446001024e-05 0 1.2159592248018143e-05 -1.3844295845485269e-05 0 1.1961949295491947e-05 -1.618958936268696e-05 0 1.4895137728670651e-05 -1.6367768156900597e-05 0 1.2159592248018143e-05 -1.3844295845485269e-05 0 1.4442927341381038e-05 -1.8439688630241203e-05 0 1.2159592248018143e-05 -1.3844295845485269e-05 0 1.1961949295491947e-05 -1.618958936268696e-05 0 1.4442927341381038e-05 -1.8439688630241203e-05 0 1.1961949295491947e-05 -1.618958936268696e-05 0 1.4442927341381038e-05 -1.8439688630241203e-05 0 1.255108808591083e-05 -1.9991471301116547e-05 0 1.4442927341381038e-05 -1.8439688630241203e-05 0 1.7315319621636682e-05 -1.9548219217102363e-05 0 1.7554361806534946e-05 -2.232900395954385e-05 0 1.4442927341381038e-05 -1.8439688630241203e-05 0 1.5002032022089158e-05 -2.1897984492310154e-05 0 1.7554361806534946e-05 -2.232900395954385e-05 0 1.4442927341381038e-05 -1.8439688630241203e-05 0 1.5002032022089158e-05 -2.1897984492310154e-05 0 1.255108808591083e-05 -1.9991471301116547e-05 0 1.6809612193379382e-05 -1.6659358501869031e-05 0 1.9564753941674342e-05 -1.9955927662136944e-05 0 1.7315319621636682e-05 -1.9548219217102363e-05 0 1.4895137728670651e-05 -1.6367768156900597e-05 0 1.6809612193379382e-05 -1.6659358501869031e-05 0 1.7315319621636682e-05 -1.9548219217102363e-05 0 1.4895137728670651e-05 -1.6367768156900597e-05 0 1.4442927341381038e-05 -1.8439688630241203e-05 0 1.7315319621636682e-05 -1.9548219217102363e-05 0 1.7315319621636682e-05 -1.9548219217102363e-05 0 2.0773434400596226e-05 -2.3017091108401629e-05 0 1.7554361806534946e-05 -2.232900395954385e-05 0 1.9564753941674342e-05 -1.9955927662136944e-05 0 1.7315319621636682e-05 -1.9548219217102363e-05 0 2.0773434400596226e-05 -2.3017091108401629e-05 0 2.4430999266524427e-05 -2.4836798171376382e-05 0 2.0773434400596226e-05 -2.3017091108401629e-05 0 2.3569525465943528e-05 -2.6248134714031414e-05 0 2.0773434400596226e-05 -2.3017091108401629e-05 0 2.0763004540258544e-05 -2.5846035157185556e-05 0 1.7554361806534946e-05 -2.232900395954385e-05 0 2.0773434400596226e-05 -2.3017091108401629e-05 0 2.0763004540258544e-05 -2.5846035157185556e-05 0 2.3569525465943528e-05 -2.6248134714031414e-05 0 1.5002032022089158e-05 -2.1897984492310154e-05 0 1.7771976907870136e-05 -2.5364589509428387e-05 0 1.5269013016210467e-05 -2.4877011431735372e-05 0 2.0763004540258544e-05 -2.5846035157185556e-05 0 1.7554361806534946e-05 -2.232900395954385e-05 0 1.7771976907870136e-05 -2.5364589509428387e-05 0 1.5002032022089158e-05 -2.1897984492310154e-05 0 1.7554361806534946e-05 -2.232900395954385e-05 0 1.7771976907870136e-05 -2.5364589509428387e-05 0 2.0003845703349999e-05 -2.8826149140194076e-05 0 2.0763004540258544e-05 -2.5846035157185556e-05 0 1.7771976907870136e-05 -2.5364589509428387e-05 0 1.7771976907870136e-05 -2.5364589509428387e-05 0 1.6993993711525051e-05 -2.7368378476264929e-05 0 1.5269013016210467e-05 -2.4877011431735372e-05 0 2.0003845703349999e-05 -2.8826149140194076e-05 0 1.7771976907870136e-05 -2.5364589509428387e-05 0 1.6993993711525051e-05 -2.7368378476264929e-05 0 1.6993993711525051e-05 -2.7368378476264929e-05 0 1.5269013016210467e-05 -2.4877011431735372e-05 0 1.4216696151763103e-05 -2.6813843186986025e-05 0 1.5269013016210467e-05 -2.4877011431735372e-05 0 1.259086596319319e-05 -2.3217801719035135e-05 0 1.4216696151763103e-05 -2.6813843186986025e-05 0 1.5002032022089158e-05 -2.1897984492310154e-05 0 1.5269013016210467e-05 -2.4877011431735372e-05 0 1.259086596319319e-05 -2.3217801719035135e-05 0 1.259086596319319e-05 -2.3217801719035135e-05 0 1.4216696151763103e-05 -2.6813843186986025e-05 0 1.060656011393875e-05 -2.5274958016092297e-05 0 1.5399064913694055e-05 -8.0660522635181122e-05 0 3.0054479176778352e-05 -8.6572973817642543e-05 0 2.7185078451070264e-05 -7.2254758187098936e-05 0 2.1228529355440793e-05 -5.8144362152809739e-05 0 1.8798462570134583e-05 -4.8771614948510595e-05 0 1.4216696151763103e-05 -2.6813843186986025e-05 0 1.2654945778096757e-05 -2.9699957656451099e-05 0 1.060656011393875e-05 -2.5274958016092297e-05 0 2.0061610169301027e-05 -9.4138698126884873e-05 0 1.5399064913694055e-05 -8.0660522635181122e-05 0 3.0054479176778352e-05 -8.6572973817642543e-05 0 1.5399064913694055e-05 -8.0660522635181122e-05 0 2.7185078451070264e-05 -7.2254758187098936e-05 0 1.5639251715670325e-05 -6.7273390185814151e-05 0 2.7185078451070264e-05 -7.2254758187098936e-05 0 1.5639251715670325e-05 -6.7273390185814151e-05 0 2.4178139281788886e-05 -5.8585331029875646e-05 0 1.259086596319319e-05 -2.3217801719035135e-05 0 1.060656011393875e-05 -2.5274958016092297e-05 0 9.2750626696177779e-06 -2.0717496571754743e-05 0 1.8798462570134583e-05 -4.8771614948510595e-05 0 1.6693573819692653e-05 -3.9654146769012718e-05 0 1.5639251715670325e-05 -6.7273390185814151e-05 0 1.4346072691515945e-05 -5.2712145900770265e-05 0 2.4178139281788886e-05 -5.8585331029875646e-05 0 6.7273295652020067e-06 -6.0514173759983741e-05 0 1.5639251715670325e-05 -6.7273390185814151e-05 0 1.4346072691515945e-05 -5.2712145900770265e-05 0 2.0864194269077254e-05 -4.5527795901829631e-05 0 1.4346072691515945e-05 -5.2712145900770265e-05 0 2.4178139281788886e-05 -5.8585331029875646e-05 0 1.0636870722111457e-05 -1.7372298066437162e-05 0 9.2750626696177779e-06 -2.0717496571754743e-05 0 1.255108808591083e-05 -1.9991471301116547e-05 0 1.0636870722111457e-05 -1.7372298066437162e-05 0 1.1961949295491947e-05 -1.618958936268696e-05 0 1.255108808591083e-05 -1.9991471301116547e-05 0 1.5002032022089158e-05 -2.1897984492310154e-05 0 1.259086596319319e-05 -2.3217801719035135e-05 0 1.255108808591083e-05 -1.9991471301116547e-05 0 1.259086596319319e-05 -2.3217801719035135e-05 0 9.2750626696177779e-06 -2.0717496571754743e-05 0 1.255108808591083e-05 -1.9991471301116547e-05 0 
</DataArray>
</PointData>
<CellData Scalars="region_id,von_mises_stress,cross_section_updated,displacement_divergence," Vectors="" Tensors="stress,">
<DataArray type="Float64" Name="region_id" format="ascii">
1 1 1 1 1 1 1 1 1 1 1 1 1 1 1 1 1 1 1 1 1 1 1 1 1 1 1 1 1 1 1 1 1 1 1 1 1 1 1 1 1 1 1 1 1 1 1 1 1 1 1 1 1 1 1 1 1 1 1 1 1 1 1 1 1 1 1 1 1 1 1 1 1 1 1 1 1 1 1 1 1 1 1 1 1 1 1 1 1 1 1 1 1 1 1 1 1 1 1 1 1 1 1 1 1 1 1 1 1 1 1 1 1 1 1 1 1 1 1 1 1 1 1 1 1 1 1 1 1 1 1 1 1 1 1 1 1 1 1 1 1 1 1 1 1 1 1 1 1 1 1 1 1 1 1 1 1 1 1 1 1 1 1 1 1 1 1 1 1 1 1 1 1 1 1 1 1 1 1 1 1 1 1 1 1 1 1 1 1 1 1 1 1 1 1 1 1 1 1 1 1 1 1 1 1 1 1 1 1 1 1 1 1 1 1 1 1 1 1 1 1 1 1 1 1 1 1 1 1 1 1 1 1 1 1 1 1 1 1 1 1 1 1 1 1 1 1 1 1 1 1 1 1 1 1 1 1 1 1 1 1 1 1 1 1 1 1 1 1 1 1 1 1 1 1 1 1 1 1 1 1 1 1 1 1 1 1 1 1 1 1 1 1 1 1 1 1 1 1 1 1 1 1 1 1 1 1 1 1 1 1 1 1 1 1 1 1 1 1 1 1 1 1 1 1 1 1 1 1 1 1 1 1 1 1 1 1 1 1 1 1 1 1 1 1 1 1 1 1 1 1 1 1 1 1 1 1 1 1 1 1 1 1 1 1 1 1 1 1 1 1 1 1 1 1 1 1 1 1 1 1 1 1 1 1 1 1 1 1 1 1 1 1 1 1 1 1 1 1 1 1 1 1 1 1 1 1 1 1 1 1 1 1 1 1 1 1 1 1 1 1 1 1 1 1 1 1 1 1 1 1 1 1 1 1 1 1 1 1 1 1 1 1 1 1 1 1 1 1 1 1 1 1 1 1 1 1 1 1 1 1 1 1 1 1 1 1 1 1 1 1 1 1 1 1 1 1 1 1 1 1 1 1 1 1 1 1 1 1 1 1 1 1 1 1 1 1 1 1 1 1 1 1 1 1 1 1 1 1 1 1 1 1 1 1 1 1 1 1 1 1 1 1 1 1 1 1 1 1 1 1 1 1 1 1 1 1 1 3 1 1 3 1 1 3 1 1 1 1 1 1 1 1 1 1 1 1 1 3 1 1 1 1 1 3 1 1 1 1 1 1 1 1 1 1 1 1 1 1 1 1 1 1 1 1 1 1 1 1 1 1 1 1 1 1 1 1 1 1 1 1 1 1 1 1 1 1 1 1 1 1 1 1 1 1 1 1 1 1 1 1 1 1 1 1 1 1 1 1 1 1 1 1 1 1 1 1 1 1 1 1 1 1 1 1 1 1 1 1 1 1 1 1 1 1 1 1 1 1 1 1 1 1 1 1 1 1 1 1 1 1 1 1 1 1 1 1 1 1 1 1 1 1 1 1 1 1 1 1 1 1 1 1 1 1 1 1 1 1 1 1 1 1 1 1 1 1 1 1 1 1 1 1 1 1 1 1 1 1 1 1 1 1 1 1 1 1 1 1 1 1 1 1 3 1 1 1 3 1 1 3 1 1 1 1 1 1 1 1 1 1 1 3 1 1 1 1 3 1 1 1 1 1 1 1 1 1 1 1 1 1 1 1 1 1 1 1 1 1 1 1 1 1 1 1 1 1 1 1 1 1 1 1 1 1 1 1 1 1 1 1 1 1 1 1 1 1 1 1 1 1 1 1 1 1 1 2 1 1 1 1 1 1 1 1 1 1 1 1 1 1 2 1 1 2 1 2 1 1 1 1 1 1 1 1 1 1 1 1 1 2 1 1 1 1 1 1 1 1 1 1 1 1 1 1 1 1 1 1 1 1 1 1 1 1 1 1 1 1 1 1 1 1 1 1 1 1 1 1 1 1 1 1 1 1 1 1 1 1 1 1 1 1 1 1 1 1 1 1 1 1 1 1 1 1 1 1 1 1 1 1 1 1 1 1 1 1 1 1 1 1 1 1 1 1 1 1 1 1 1 1 1 1 1 1 1 1 1 1 1 1 1 1 1 1 1 1 1 1 1 1 1 1 1 1 1 1 1 1 1 1 1 1 1 1 1 1 1 1 1 1 1 1 1 1 1 1 2 1 1 2 1 2 1 1 1 1 1 1 1 1 1 1 1 1 1 1 1 1 1 1 1 1 1 1 1 1 1 1 1 1 1 1 1 1 1 1 1 1 1 1 1 1 1 1 1 1 1 1 1 2 1 1 1 1 1 2 1 1 1 1 1 1 1 
</DataArray>
<DataArray type="Float64" Name="stress" NumberOfComponents="9" format="ascii">
-0.0417326084663385 0.000821844752062259 0 0.000821844752062259 -0.0051561387530253003 0 0 0 -0.011722186804840953 -0.038171578933343636 0.0015461367128954573 0 0.0015461367128954573 -0.012699302290319979 0 0 0 -0.012717720305915902 -0.040781262601520471 0.0028854285613765214 0 0.0028854285613765214 0.0019941499839131824 0 0 0 -0.0096967781544018208 -0.037659953519436011 0.0033078979437237569 0 0.0033078979437237569 -0.0060203431937070964 0 0 0 -0.010920074178285775 -0.029655929710204941 0.0077245744396858221 0 0.0077245744396858221 -0.0098907230119781361 0 0 0 -0.0098866631805457714 -0.029649847902297053 0.0077291445706866848 0 0.0077291445706866848 -0.0098712589499497325 0 0 0 -0.0098802767130616968 -0.034004565048238282 0.0074285364311768411 0 0.0074285364311768411 -0.0025603820619926965 0 0 0 -0.0091412367775577479 -0.036513149113809561 0.0068798272478496269 0 0.0068798272478496269 -0.0035784306937095833 0 0 0 -0.010022894951879788 -0.032778477759072416 0.0089762548467699245 0 0.0089762548467699245 -0.0027529891089101352 0 0 0 -0.0088828667169956396 -0.025240507545495727 0.009212296935987789 0 0.009212296935987789 -0.00076905770116566033 0 0 0 -0.0065023913116653486 -0.037574439284898252 0.009516992923731378 0 0.009516992923731378 -0.0015315142424152106 0 0 0 -0.0097764883818283639 -0.0247664471823872 0.010622394762659353 0 0.010622394762659353 0.00062007551012593573 0 0 0 -0.0060365929180653151 -0.046684870085839894 0.0075220364513142231 0 0.0075220364513142231 -0.00067574064177988551 0 0 0 -0.011840152681904947 -0.036308212594356515 0.0080170292646745012 0 0.0080170292646745012 0.00056249879006106326 0 0 0 -0.0089364284510738568 -0.056614013784778469 0.0028306948024667974 0 0.0028306948024667974 -0.0018109766633596679 0 0 0 -0.014606247612034533 -0.046912337906092803 0.0036802361486324149 0 0.0036802361486324149 -0.00016256003609364751 0 0 0 -0.011768724485546615 -0.042286473648034922 0.0054770338904297717 0 0.0054770338904297717 0.0024955346762098448 0 0 0 -0.0099477347429562692 -0.0429898534088149 0.0076658675721172978 0 0.0076658675721172978 -0.00094107138999097867 0 0 0 -0.010982731199701473 -0.0033602344474544712 0.010920889264783759 0 0.010920889264783759 -0.0011173791791339197 0 0 0 -0.0011194034066470974 -0.008607545174491615 0.013737911282999397 0 0.013737911282999397 -0.0018591066276647944 0 0 0 -0.0026166629505391011 -0.0098255224992834476 0.0099044337119343715 0 0.0099044337119343715 -0.00090536491363400924 0 0 0 -0.0026827218532293634 -0.01969269049421335 0.012145363230443969 0 0.012145363230443969 -0.001450131668623976 0 0 0 -0.0052857055407093288 -0.020902927777891878 0.011121258966226222 0 0.011121258966226222 -0.0044888404183345172 0 0 0 -0.0063479420490565978 -0.012385107077340902 0.012161511332853231 0 0.012161511332853231 -0.0025262273559770732 0 0 0 -0.003727833608329496 -0.012691801025397067 0.010533344626191321 0 0.010533344626191321 -0.0042362178947797828 0 0 0 -0.0042320047300442127 -0.021926012309639063 0.012158173491817277 0 0.012158173491817277 -0.00096510147250754297 0 0 0 -0.0057227784455366505 -0.023012786185933776 0.0090759690886631061 0 0.0090759690886631061 -0.00096611199715917855 0 0 0 -0.0059947245457732407 -0.019180990951689854 0.010031824248735669 0 0.010031824248735669 -0.0022560893611092842 0 0 0 -0.0053592700781997845 -0.0074262103816912731 0.0095866055561926889 0 0.0095866055561926889 -0.00029835348894697265 0 0 0 -0.0019311409676595597 -0.0081166271360887613 0.010984837387369405 0 0.010984837387369405 -0.0017504778174181404 0 0 0 -0.002466776238376725 -0.0029379540253404862 0.012982754202264845 0 0.012982754202264845 -0.0015918502353539921 0 0 0 -0.0011324510651736161 0.0013330038191232112 0.0091471972907939576 0 0.0091471972907939576 0.00040132823333581535 0 0 0 0.00043358301311475708 0.00055403558196060257 0.011336394970296622 0 0.011336394970296622 -0.0011281056818344126 0 0 0 -0.00014351752496845338 0.00058971815412253367 0.0081289113420429798 0 0.0081289113420429798 0.00022824369816651369 0 0 0 0.00020449046307225924 -0.008912461977850044 0.012032953243854949 0 0.012032953243854949 -0.00071586614236855695 0 0 0 -0.0024070820300546511 -0.022972367668925693 0.012186762334527697 0 0.012186762334527697 -0.00059923338405069165 0 0 0 -0.0058929002632440953 -0.01844095541439067 0.012112696269639124 0 0.012112696269639124 -0.00097362198907303965 0 0 0 -0.0048536443508659256 -0.011102739621651734 0.0094448888993769776 0 0.0094448888993769776 0.00066083372259577444 0 0 0 -0.0026104764747639925 -0.022972994561766151 0.0099712415984117998 0 0.0099712415984117998 0.0011547975605830305 0 0 0 -0.0054545492502957819 -0.025689139151896811 0.012283378430496514 0 0.012283378430496514 2.9008884529949791e-05 0 0 0 -0.0064150325668417205 -0.017225627954480953 0.0093754449240921051 0 0.0093754449240921051 0.00070277283985622011 0 0 0 -0.004130713778656191 -0.011690048752517387 0.012555758225731543 0 0.012555758225731543 0.0018635774850777852 0 0 0 -0.0024566178168599039 -0.011987343278253284 0.0093637658926384176 0 0.0093637658926384176 0.0020719672656414802 0 0 0 -0.0024788440031529493 -0.0010812630585598673 0.0084172625744479337 0 0.0084172625744479337 0.001492841468432855 0 0 0 0.00010289460246824345 -0.0109085569784956 0.012326965779991315 0 0.012326965779991315 0.00011677692547536547 0 0 0 -0.002697945013255057 -0.0073369553677276591 0.0074986733460458213 0 0.0074986733460458213 0.0031321774586378359 0 0 0 -0.001051194477272453 0.00889748486117844 0.0073552566248289708 0 0.0073552566248289708 0.0015463495721930731 0 0 0 0.0026109586083428796 0.00017047343681763846 0.0099846111090790678 0 0.0099846111090790678 0.0015939475202168679 0 0 0 0.00044110523925862746 -0.054508358124308827 0.003294698251569389 0 0.003294698251569389 -0.0019342428924962948 0 0 0 -0.014110650254201279 -0.043446884450841522 0.0093042740414888154 0 0.0093042740414888154 -4.311296755516586e-05 0 0 0 -0.010872499354599167 -0.06568438389631244 0.0049254181613201864 0 0.0049254181613201864 -0.00027834780916916393 0 0 0 -0.016490682926370397 -0.045384788408036565 0.0067467660554302389 0 0.0067467660554302389 0.0016431023449823626 0 0 0 -0.010935421515763554 -0.033894263680200251 0.0091323767165164861 0 0.0091323767165164861 0.0010323920107865314 0 0 0 -0.0082154679173534247 -0.034903596003590297 0.010020807553778838 0 0.010020807553778838 -0.00063468247071549536 0 0 0 -0.0088845696185764437 -0.035558169324360407 0.011553243954408664 0 0.011553243954408664 -0.00048633117710785399 0 0 0 -0.009011125125367064 -0.040967020038490301 0.0075096735980322181 0 0.0075096735980322181 0.0011847399887526628 0 0 0 -0.0099455700124344033 -0.027859769130733795 0.0092672745041193338 0 0.0092672745041193338 0.00030319687982894965 0 0 0 -0.0068891430627262083 -0.042357171145735339 0.010686212997616254 0 0.010686212997616254 -0.00019729500518966998 0 0 0 -0.010638616537731257 -0.032275931489162128 0.0082209144102009767 0 0.0082209144102009767 0.00027123235683806229 0 0 0 -0.00800117478308102 -0.041422288094500791 0.0082624813981915131 0 0.0082624813981915131 0.0012230632744939761 0 0 0 -0.010049806205001698 -0.057539967463708673 0.0060793839047588345 0 0.0060793839047588345 -3.081010621294733e-05 0 0 0 -0.01439269439248041 -0.055652618504063722 0.0064063227042165443 0 0.0064063227042165443 -0.00049476551409984287 0 0 0 -0.014036846004540891 -0.054186423950248391 0.0040908501828641631 0 0.0040908501828641631 0.00086455327957614056 0 0 0 -0.013330467667668057 -0.073691653234509713 0.0047731587397654637 0 0.0047731587397654637 -0.00022016321578356701 0 0 0 -0.01847795411257333 -0.077416398581920037 0.003970977579602894 0 0.003970977579602894 2.0656532338528266e-05 0 0 0 -0.019348935512395391 -0.056408444662692236 0.0053311335778610455 0 0.0053311335778610455 0.0020248860126605914 0 0 0 -0.013595889662507904 -0.063724860749165085 0.0033531310102889733 0 0.0033531310102889733 0.0016418314007764778 0 0 0 -0.015520757337097138 -0.088389977899820935 0.002496325243129302 0 0.002496325243129302 0.0021908011474398303 0 0 0 -0.021549794188095286 -0.065984838003822419 0.0075854225397581666 0 0.0075854225397581666 0.0031924708804294544 0 0 0 -0.015698091780848231 -0.063126481278137692 0.0008698446919723074 0 0.0008698446919723074 0.00095501545679259336 0 0 0 -0.015542866455336292 -0.069572990158789261 0.0028391414937942623 0 0.0028391414937942623 0.0037735461111908508 0 0 0 -0.016449861011899602 -0.097340711028839649 -0.00068580380006143249 0 -0.00068580380006143249 0.00034204777171259471 0 0 0 -0.02424966581428175 -0.037328325498534466 0.0026024498918873068 0 0.0026024498918873068 0.006236390181076315 0 0 0 -0.0077729838293645395 -0.031232937636994682 0.010412952134327295 0 0.010412952134327295 0.0045399666527515675 0 0 0 -0.0066732427460607785 -0.048701312809197206 0.0069423662369619416 0 0.0069423662369619416 0.00094835480798860505 0 0 0 -0.011938239500302154 -0.047857208031545077 0.0072833585878050305 0 0.0072833585878050305 0.0034486964598738762 0 0 0 -0.011102127892917805 -0.031730907977466367 0.01144102855425509 0 0.01144102855425509 0.0031063199727734275 0 0 0 -0.007156147001173228 -0.057532629339136263 0.010755556933015283 0 0.010755556933015283 0.0036475573129478994 0 0 0 -0.01347126800654707 -0.046939637099018348 0.0065617331229933275 0 0.0065617331229933275 0.00045213580548005006 0 0 0 -0.011621875323384568 -0.042818372782854254 0.011131979309368155 0 0.011131979309368155 0.0018793995700610473 0 0 0 -0.01023474330319829 -0.02960400961754648 0.011451321993513819 0 0.011451321993513819 0.0017105576512744776 0 0 0 -0.0069733629915680042 -0.018069070416092303 0.010752041601092742 0 0.010752041601092742 0.0021224865614467986 0 0 0 -0.0039866459636613803 -0.017740873014986728 0.0084240616149029845 0 0.0084240616149029845 0.0030225971487003352 0 0 0 -0.0036795689665716034 -0.015412609350265363 0.0076495182956507271 0 0.0076495182956507271 0.0057430803429613098 0 0 0 -0.0024173822518260106 -0.0062548129350493368 0.01032306162728264 0 0.01032306162728264 0.0029703762040982906 0 0 0 -0.00082110918273776111 -0.031109145296190889 0.0085863615788801008 0 0.0085863615788801008 0.0032219674934868617 0 0 0 -0.006971794450676019 0.0031664722954694536 0.0064505872096350071 0 0.0064505872096350071 0.0052522905030113424 0 0 0 0.0021046906996201988 0.00031609593649725666 0.0106322840662553 0 0.0106322840662553 0.0016071372858105053 0 0 0 0.00048080830557694102 -0.0039103683459502606 0.0060952557267191544 0 0.0060952557267191544 0.0065620091593668814 0 0 0 0.00066291020335415389 0.011167170148054876 0.0021763715175177533 0 0.0021763715175177533 0.0089016900349467992 0 0 0 0.005017215045750421 0.0076345575139557878 0.008686043059215949 0 0.008686043059215949 0.0052925800627967312 0 0 0 0.003231784394188128 -0.0013139307547406151 0.0060726091237557206 0 0.0060726091237557206 0.010961194942120792 0 0 0 0.0024118160468450459 0.013994764985602964 0.0037104837322282092 0 0.0037104837322282092 0.01138001304595232 0 0 0 0.0063436945078888286 0.013951292113638769 0.0025079117563742495 0 0.0025079117563742495 0.017703641781947499 0 0 0 0.007913733473896567 -0.016732567589443942 0.010919791730701255 0 0.010919791730701255 0.0044130286228044047 0 0 0 -0.0030798847416598843 -0.024564932400662192 0.0053063588263727174 0 0.0053063588263727174 0.0053508520522139794 0 0 0 -0.0048035200871120558 -0.0020333391104617078 0.007076240505407734 0 0.007076240505407734 0.0059428931839340116 0 0 0 0.00097738851836806986 -0.0094757595044938758 0.0034565931640502812 0 0.0034565931640502812 0.0094926381078526897 0 0 0 4.2196508396961235e-06 -0.014879089586967577 0.0098920773939691134 0 0.0098920773939691134 0.0096552208435883025 0 0 0 -0.0013059671858448169 -0.023017767331424369 0.0087335282799146235 0 0.0087335282799146235 0.011720016488917601 0 0 0 -0.0028244377106266816 -0.011381476998855486 0.0038252260013549449 0 0.0038252260013549449 0.022957387615809899 0 0 0 0.0028939776542385859 -0.020561239215589319 -0.0015207562259243051 0 -0.0015207562259243051 0.012428525836359672 0 0 0 -0.0020331783448074153 0.033485740946570704 -0.0016321424629795189 0 -0.0016321424629795189 0.021513126582126715 0 0 0 0.013749716882174377 -0.0040198776954019771 0.0067218946510332125 0 0.0067218946510332125 0.01673663648983964 0 0 0 0.0031791896986094054 0.0092788816822980472 0.00084274612195339715 0 0.00084274612195339715 0.017830713485807836 0 0 0 0.0067773987920264692 0.013445902916547015 0.0029112746898262848 0 0.0029112746898262848 0.029116259126686195 0 0 0 0.010640540510808302 0.02730792141399431 -0.0054315295748815495 0 -0.0054315295748815495 0.031304039191979827 0 0 0 0.014652990151493531 0.010127409163865675 -0.0011277075002149861 0 -0.0011277075002149861 0.042916245482290893 0 0 0 0.013260913661539142 0.0084771564884624784 -0.011093456516166597 0 -0.011093456516166597 0.040731645054946974 0 0 0 0.012302200385852391 0.016807854835312823 -0.015904642901641702 0 -0.015904642901641702 0.035850949051440734 0 0 0 0.013164700971688391 0.03074250061107614 -0.0081174634028172432 0 -0.0081174634028172432 0.064583783534180372 0 0 0 0.023831571036314114 -0.016604130546209767 -0.0060267182020909416 0 -0.0060267182020909416 0.026802838300409415 0 0 0 0.0025496769385499329 0.0018751881631637254 -0.0045296040157042083 0 -0.0045296040157042083 0.021355792268306834 0 0 0 0.0058077451078676415 0.0012439777698220328 -0.01507290028737901 0 -0.01507290028737901 0.025736651441406327 0 0 0 0.0067451573028070727 -0.020933847833774222 -0.0026226214834543966 0 -0.0026226214834543966 0.014435737409807525 0 0 0 -0.0016245276059916325 -0.024604157114481232 -0.012081628448185389 0 -0.012081628448185389 0.016316344494600427 0 0 0 -0.0020719531549702047 -0.041000022254036622 -0.0061146055918161885 0 -0.0061146055918161885 0.011625469696551372 0 0 0 -0.0073436381393713057 -0.048962438357687169 0.0017341758808641083 0 0.0017341758808641083 0.0068868882838164225 0 0 0 -0.010518887518467673 -0.057336451589826171 -0.0099125954549069972 0 -0.0099125954549069972 0.0096465357228822379 0 0 0 -0.011922478966735983 -0.066617084522559517 0.00018904582737691578 0 0.00018904582737691578 0.004226757170214035 0 0 0 -0.015597581838086363 -0.097849245836664045 -0.0014934032169710565 0 -0.0014934032169710565 0.0049598277726818352 0 0 0 -0.023222354515995525 -0.072106814924789805 0.0016353454569892345 0 0.0016353454569892345 0.0041260710638387765 0 0 0 -0.016995185965237788 -0.069634624815071891 -0.0032503287314863162 0 -0.0032503287314863162 0.0046591628041230959 0 0 0 -0.016243865502737237 -0.075223674885897734 -0.0015573694485015166 0 -0.0015573694485015166 0.0012035693581047557 0 0 0 -0.018505026381948231 -0.062713807903314406 0.0061687071102858176 0 0.0061687071102858176 0.0039645997152088497 0 0 0 -0.014687302047026396 -0.10050286346691553 0.0025245058075579196 0 0.0025245058075579196 0.0022222600558324257 0 0 0 -0.024570150852770756 -0.074000062863657221 0.0065868553756601445 0 0.0065868553756601445 0.0031641707304944644 0 0 0 -0.017708973033290706 -0.048038004314657608 0.0085881448768603888 0 0.0085881448768603888 0.0063993967374864347 0 0 0 -0.010409651894292785 -0.034687985620872788 0.0054338853068128801 0 0.0054338853068128801 0.01067620569448291 0 0 0 -0.00600294498159748 -0.050550840873145389 -0.00094121916125403104 0 -0.00094121916125403104 0.0066420005392923039 0 0 0 -0.010977210083463293 0.029856541481602848 -0.0096026276712298519 0 -0.0096026276712298519 0.052748113656766918 0 0 0 0.020651163784592461 0.030079370209217735 -0.010854071947443901 0 -0.010854071947443901 0.043917426955850811 0 0 0 0.018499199291267143 0.028886324250190165 -0.011232307472675875 0 -0.011232307472675875 0.03884390455911943 0 0 0 0.016932557202327406 0.026842183339758813 -0.0077881084814221194 0 -0.0077881084814221194 0.047146658256563376 0 0 0 0.01849721039908055 0.031131491790513607 -0.0026369548275408244 0 -0.0026369548275408244 0.053678775783670717 0 0 0 0.021202566893546066 0.03307173649631772 -0.0038267482062825688 0 -0.0038267482062825688 0.05990799716481069 0 0 0 0.023244933415282113 0.029164288830355666 -0.0096899257542426287 0 -0.0096899257542426287 0.059311270173112544 0 0 0 0.022118889750867048 0.028408398665402144 -0.0087139766678894434 0 -0.0087139766678894434 0.055965168662430106 0 0 0 0.021093391831958068 0.033753673358260294 -0.0093325049213612288 0 -0.0093325049213612288 0.057868230245813904 0 0 0 0.022905475901018518 0.032405036843597204 -0.008232060214330858 0 -0.008232060214330858 0.053802299165392697 0 0 0 0.021551834002247458 0.024753570669348947 -0.0066916629296274732 0 -0.0066916629296274732 0.051569328277833879 0 0 0 0.019080724736795708 0.02870421165121162 -0.0099904130973328693 0 -0.0099904130973328693 0.056803923592360583 0 0 0 0.021377033810893058 0.025892202737715472 -0.011770678300630763 0 -0.011770678300630763 0.053088417823431107 0 0 0 0.01974515514028664 0.02734709569461985 -0.013952435524409413 0 -0.013952435524409413 0.056856956848409301 0 0 0 0.021051013135757274 0.029860654141737622 -0.0077931449090050259 0 -0.0077931449090050259 0.06754788088187183 0 0 0 0.024352133755902367 0.064660113014954265 -0.043005056923981669 0 -0.043005056923981669 0.1023651313140729 0 0 0 0.041756311082256775 0.023350392186366802 -0.023445981610821606 0 -0.023445981610821606 0.065118526177487035 0 0 0 0.022117229590963482 0.0586286556325692 -0.02912413766754543 0 -0.02912413766754543 0.056737559952090774 0 0 0 0.028841553896164988 0.023434319513109779 -0.013956040353179572 0 -0.013956040353179572 0.057303903694236324 0 0 0 0.0201845558018365 0.065773690083349184 -0.0047847525425247089 0 -0.0047847525425247089 0.094294914823716047 0 0 0 0.040017151226766301 0.04944242525222671 -0.01657163340088362 0 -0.01657163340088362 0.052147093148264601 0 0 0 0.025397379600122824 0.092287652996705549 -0.021975376286642062 0 -0.021975376286642062 0.064804524077702971 0 0 0 0.039273044268602106 0.045927048223811336 -0.015376118458847621 0 -0.015376118458847621 0.048652540092085556 0 0 0 0.023644897078974238 0.033806067830460869 -0.0018418438023930367 0 -0.0018418438023930367 0.050041124160765268 0 0 0 0.020961797997806543 0.058281044452161014 -0.010482949178267136 0 -0.010482949178267136 0.038384937439044559 0 0 0 0.024166495472801412 0.03075611180706966 -0.0049046028275319745 0 -0.0049046028275319745 0.030613339482310903 0 0 0 0.015342362822345131 0.039825926965452389 -0.0062449879997222499 0 -0.0062449879997222499 0.023000078055034706 0 0 0 0.015706501255121776 0.035205333995426843 -0.019217555448852265 0 -0.019217555448852265 0.049500608608281274 0 0 0 0.021176485650927026 0.030965487599079584 -0.017538977773298617 0 -0.017538977773298617 0.038188383355664254 0 0 0 0.017288467738685975 0.040200131698215576 -0.016343734117229232 0 -0.016343734117229232 0.040919903204448473 0 0 0 0.020280008725666009 0.029306795654615268 -0.0097049106835491276 0 -0.0097049106835491276 0.023221113772715317 0 0 0 0.013131977356832655 0.032105307660218754 -0.01150084816756887 0 -0.01150084816756887 0.03872164712361971 0 0 0 0.017706738695959619 0.030093656626145257 -0.0087890141646533651 0 -0.0087890141646533651 0.02510050171158934 0 0 0 0.013798539584433653 0.027868817706772527 -0.0017622650922092063 0 -0.0017622650922092063 0.021806776017157869 0 0 0 0.012418898430982601 0.026603165740544367 -0.0017023425944386883 0 -0.0017023425944386883 0.013811602343651516 0 0 0 0.010103692021048966 0.025313953272543786 -0.0039012391781849398 0 -0.0039012391781849398 0.020998613410012933 0 0 0 0.011578141670639171 0.030437153609349472 -0.0047753531852787242 0 -0.0047753531852787242 0.016802784217409342 0 0 0 0.011809984456689709 0.024331303243994885 1.9872691009161988e-05 0 1.9872691009161988e-05 0.017206666218558816 0 0 0 0.010384492365638412 0.016236391418299922 0.0045984150478631299 0 0.0045984150478631299 0.011582799093975416 0 0 0 0.0069547976280688352 0.022501695316047586 -0.0010979741542101532 0 -0.0010979741542101532 0.010758480326388778 0 0 0 0.0083150439106090962 0.018867877688897781 0.0049378405399889075 0 0.0049378405399889075 0.0087187915516716702 0 0 0 0.0068966673101423619 0.015752331187427561 0.0031828260194554326 0 0.0031828260194554326 0.0055763924334832227 0 0 0 0.0053321809052276972 0.010839490956247075 0.0082006441661826544 0 0.0082006441661826544 0.0044828884326871942 0 0 0 0.003830594847233566 0.027555376188954171 -0.0023649620419179894 0 -0.0023649620419179894 0.015714775476417499 0 0 0 0.010817537916342925 0.026854421006629995 -0.0030072258124709851 0 -0.0030072258124709851 0.014255495795819334 0 0 0 0.010277479200612328 0.023740949983573227 0.0017063193116484006 0 0.0017063193116484006 0.012189677402760755 0 0 0 0.0089826568465834894 0.022183074280160146 0.00081631046724143889 0 0.00081631046724143889 0.010081907367095039 0 0 0 0.008066245411813798 0.026550026205114128 -0.0012074897448270238 0 -0.0012074897448270238 0.017345718094459284 0 0 0 0.010973936074893354 0.027117791359286925 0.0034320154967810053 0 0.0034320154967810053 0.011176841155770643 0 0 0 0.0095736581287643972 0.031559723191575656 0.0029747960785446613 0 0.0029747960785446613 0.017718646843695188 0 0 0 0.012319592508817714 0.032713219166368837 0.0018982113969928716 0 0.0018982113969928716 0.017257159671240835 0 0 0 0.012492594709402421 0.029948563677084664 -0.0023583352154960355 0 -0.0023583352154960355 0.020994639269140136 0 0 0 0.012735800736556196 0.029760294297661388 -0.0021650203977527913 0 -0.0021650203977527913 0.025320810674487881 0 0 0 0.013770276243037316 0.027845040869006979 -0.0040124867407560216 0 -0.0040124867407560216 0.023054373857492205 0 0 0 0.012724853681624786 0.03208324040632244 -0.0043311529656733516 0 -0.0043311529656733516 0.03590624799348896 0 0 0 0.016997372099952869 0.031808756726050005 -0.0001487422656937052 0 -0.0001487422656937052 0.027620706473776686 0 0 0 0.014857365799956685 0.027836334268919037 -0.0060687356557109755 0 -0.0060687356557109755 0.033573322583689891 0 0 0 0.01535241421315222 0.030458247396469851 -0.0074133165508456014 0 -0.0074133165508456014 0.042499086272673764 0 0 0 0.018239333417285924 0.028130406365040432 -0.0093130997323076347 0 -0.0093130997323076347 0.030486405329989807 0 0 0 0.014654202923757548 0.036865176554809448 0.0012458229700020508 0 0.0012458229700020508 0.057320403917763829 0 0 0 0.023546395118143326 0.029693167146746399 -0.0023183032914347234 0 -0.0023183032914347234 0.040013270389019188 0 0 0 0.017426609383941409 0.032537256158852119 -0.0038454434794638181 0 -0.0038454434794638181 0.048163764590120575 0 0 0 0.020175255187243175 0.032805116723583883 -0.00043832484599300446 0 -0.00043832484599300446 0.030459696430971021 0 0 0 0.015816203288638725 0.0359010534411138 0.0023555746675646616 0 0.0023555746675646616 0.040398377771859617 0 0 0 0.019074857803243361 0.035603786187754657 0.0024300622357778063 0 0.0024300622357778063 0.039479462448098517 0 0 0 0.018770812158963281 0.036561016311836225 0.0034433943001189052 0 0.0034433943001189052 0.024167360681985273 0 0 0 0.015182094248455376 0.035992727416769628 0.0043086870745861856 0 0.0043086870745861856 0.024570606108451316 0 0 0 0.015140833381305233 0.04006636385178073 0.0066535416484660402 0 0.0066535416484660402 0.019882717992053017 0 0 0 0.01498727046095844 0.038441503457931736 0.0063159830062531827 0 0.0063159830062531827 0.01267885967215707 0 0 0 0.012780090782522204 0.035078357607404791 0.0040240037919860271 0 0.0040240037919860271 0.0073297092606181904 0 0 0 0.010602016717005726 0.034639096163373635 0.0053244771851804588 0 0.0053244771851804588 0.013742374166240807 0 0 0 0.012095367582403619 0.036347588811729614 0.0037861694076937596 0 0.0037861694076937596 0.01481566155436639 0 0 0 0.012790812591524002 0.028914804409890214 0.0012977382265168657 0 0.0012977382265168657 0.012439257120260307 0 0 0 0.010338515382537624 0.028004125885538165 0.0048246681466575748 0 0.0048246681466575748 0.0076045333616552822 0 0 0 0.0089021648117983548 0.031694458643024705 0.004869477365742809 0 0.004869477365742809 0.0079736401346039709 0 0 0 0.0099170246944071741 0.032618362888449347 0.0045021193023169551 0 0.0045021193023169551 0.012363655990031457 0 0 0 0.011245504719620211 0.032716658927362134 0.0045621994322941513 0 0.0045621994322941513 0.0052975474572148629 0 0 0 0.0095035515961442441 0.032136445683390205 0.0061389247702144205 0 0.0061389247702144205 0.0036697153705734231 0 0 0 0.0089515402634909053 0.027076507099631955 0.0057341386184100503 0 0.0057341386184100503 0.0039901012145468241 0 0 0 0.0077666520785446974 0.035733163003591244 0.0058200424968820278 0 0.0058200424968820278 0.0031169674738223078 0 0 0 0.0097125326193533822 0.035617578186647209 0.0042660542298053779 0 0.0042660542298053779 0.0033311194766200286 0 0 0 0.0097371744158168145 0.039426785290282707 0.0053879634695382225 0 0.0053879634695382225 0.0049265559989970821 0 0 0 0.01108833532231995 0.037471072374285826 0.0041260469695898055 0 0.0041260469695898055 0.0049275567207895457 0 0 0 0.01059965727376885 0.035586487831972928 0.0057303574625457362 0 0.0057303574625457362 0.0071402065251549331 0 0 0 0.010681673589281959 0.0099519974012742644 0.00713510882412699 0 0.00713510882412699 0.0057638737750661563 0 0 0 0.0039289677940851069 0.01728217315497008 0.0057663850301079428 0 0.0057663850301079428 0.0027935185122058906 0 0 0 0.0050189229167939969 0.0098495706775063897 0.007941648726619243 0 0.007941648726619243 0.0027117177817541152 0 0 0 0.0031403221148151228 0.02164001770668178 0.004784471819661882 0 0.004784471819661882 0.0020275285492708725 0 0 0 0.005916886563988164 0.01851509532746386 0.0059092076217887295 0 0.0059092076217887295 0.0072065983771693529 0 0 0 0.006430423426158305 0.022713217567907604 0.0050133439311681391 0 0.0050133439311681391 0.0060137209995215508 0 0 0 0.0071817346418572856 0.024996043558653855 0.0021395131303454389 0 0.0021395131303454389 0.0067303118125609102 0 0 0 0.0079315888428036965 0.024539244365835617 0.0063191223120293155 0 0.0063191223120293155 0.0084585494090360404 0 0 0 0.0082494484437179091 0.026633360807937063 0.0044484912573475874 0 0.0044484912573475874 0.0031897616927551234 0 0 0 0.0074557806251730405 0.022699945228279256 0.0050517352306468765 0 0.0050517352306468765 0.0039649355212024555 0 0 0 0.0066662201873704269 0.026444196303310852 0.0071869487321763095 0 0.0071869487321763095 0.002005644834789988 0 0 0 0.0071124602845252065 0.019606897378831725 0.0076457025212866986 0 0.0076457025212866986 0.0041734655350872101 0 0 0 0.0059450907284797358 0.018399366317726901 0.007036384268902773 0 0.007036384268902773 0.0013747689241301805 0 0 0 0.0049435338104642651 0.010656201903209149 0.007740841523718265 0 0.007740841523718265 0.0015563262023048155 0 0 0 0.0030531320263784915 0.0091154616652067266 0.0099641996677153066 0 0.0099641996677153066 0.00034956415605764263 0 0 0 0.0023662564553160962 0.0095696849866555769 0.0081277033747988899 0 0.0081277033747988899 0.0010760130921529318 0 0 0 0.0026614245197021311 0.0022418142048309005 0.01036959751452679 0 0.01036959751452679 0.00049152995596293131 0 0 0 0.00068333604019846228 0.0064196751225516682 0.011637619895634749 0 0.011637619895634749 -0.00012869778949397702 0 0 0 0.0015727443332644241 0.0012302242824342689 0.009797342086009464 0 0.009797342086009464 0.0012464874839593354 0 0 0 0.00061917794159840195 0.0073109655903607733 0.0081967817806399591 0 0.0081967817806399591 -5.6512687900994729e-05 0 0 0 0.001813613225614942 0.014181786061504808 0.0098759055331423297 0 0.0098759055331423297 0.00083684861633976509 0 0 0 0.003754658669461142 0.012947516127782449 0.0085681661699905931 0 0.0085681661699905931 0.0011625836308947514 0 0 0 0.0035275249396692996 0.015254167149125536 0.010415401824341074 0 0.010415401824341074 0.0011077473227789078 0 0 0 0.0040904786179761111 0.01952532991825736 0.0068490191163214165 0 0.0068490191163214165 0.0011282219998082002 0 0 0 0.0051633879795163901 0.020639620681123478 0.0076864927409159498 0 0.0076864927409159498 0.0027483943496816945 0 0 0 0.0058470037577012905 0.025535223216192657 0.0081945509184575393 0 0.0081945509184575393 0.001200642987072259 0 0 0 0.0066839665508162307 0.020646771705519713 0.0073844413750301522 0 0.0073844413750301522 0.0040536446210470076 0 0 0 0.0061751040816416794 0.017847705801352944 0.01093099573520636 0 0.01093099573520636 0.0024568836588551995 0 0 0 0.0050761473650520359 0.015804987869198022 0.0093655110820789044 0 0.0093655110820789044 0.0052682772782849602 0 0 0 0.0052683162868707471 0.0099219940617313023 0.012770424871158082 0 0.012770424871158082 0.00088875801632154472 0 0 0 0.0027026880195132105 0.0065192766406268745 0.010340086098215047 0 0.010340086098215047 0.0021710193011434033 0 0 0 0.0021725739854425701 0.0010709234012906983 0.013834234162497943 0 0.013834234162497943 -0.0011506189430019291 0 0 0 -1.9923885427809013e-05 0.034648288010407424 0.0044198049238121945 0 0.0044198049238121945 0.0037117726340357357 0 0 0 0.0095900151611107935 0.035817567701959728 0.0050691425459618421 0 0.0050691425459618421 0.0029972430068992365 0 0 0 0.009703702677214739 0.031442009066870516 0.0056537889144734812 0 0.0056537889144734812 0.0032384287800115898 0 0 0 0.0086701094617205286 0.031259889563802601 0.0062937856314782652 0 0.0062937856314782652 0.0018596311727303652 0 0 0 0.0082798801841332398 0.026550451934110198 0.0065372097034278433 0 0.0065372097034278433 0.0036358340646622401 0 0 0 0.0075465714996931109 0.0295298840705885 0.0064957846156035066 0 0.0064957846156035066 0.0037124613903275379 0 0 0 0.0083105863652290085 0.023827207004816504 0.0077918454965867062 0 0.0077918454965867062 0.0079380987995853729 0 0 0 0.0079413264511004715 0.023967210785985182 0.0089183083315847508 0 0.0089183083315847508 0.0050279287671345669 0 0 0 0.0072487848882799369 0.028350393579880083 0.0066342170702685544 0 0.0066342170702685544 0.009449044892906577 0 0 0 0.0094498596181966654 0.028666427251882145 0.0065613514347098514 0 0.0065613514347098514 0.0053475231357056705 0 0 0 0.0085034875968969543 0.03406032652277597 0.0042467166961860222 0 0.0042467166961860222 0.0062080445755697518 0 0 0 0.010067092774586431 0.03177750178172508 0.0055031666604534457 0 0.0055031666604534457 0.0033453195286564951 0 0 0 0.008780705327595395 0.030786297272130177 0.0051223409362830905 0 0.0051223409362830905 0.0058431900064148754 0 0 0 0.0091573718196362626 0.031318215290363438 0.0050118740300443779 0 0.0050118740300443779 0.010438292172696371 0 0 0 0.010439126865764953 0.033074777732769074 0.0027870321818531528 0 0.0027870321818531528 0.0051361627108226955 0 0 0 0.009552735110897945 0.035231280714927871 0.0010714973236040284 0 0.0010714973236040284 0.011737112324194688 0 0 0 0.011742098259780639 0.032478325438054366 7.8853395145233847e-06 0 7.8853395145233847e-06 0.0040534500526737084 0 0 0 0.0091329438726820162 0.037311865234735543 2.1468785744997894e-06 0 2.1468785744997894e-06 0.0053542812172667244 0 0 0 0.010666536613000568 0.037166972775618659 0.001836701143491984 0 0.001836701143491984 0.0039775509775219469 0 0 0 0.01028613093828515 0.038123313828348153 0.0026734683504136664 0 0.0026734683504136664 0.0032869939219744701 0 0 0 0.010352576937580654 0.036435093375169141 0.0010943762219748315 0 0.0010943762219748315 0.0020268621514738976 0 0 0 0.0096154888816607602 0.040233342273618806 0.001396932684274161 0 0.001396932684274161 0.0033070558413482486 0 0 0 0.010885099528741766 0.038009730422095371 0.0024134687107020512 0 0.0024134687107020512 0.0014133689668906579 0 0 0 0.0098557748472465033 0.038841398152172329 -0.0002999653349249887 0 -0.0002999653349249887 -0.00018084058481477976 0 0 0 0.0096651393918393922 0.035678386116621309 -0.0039317162548023026 0 -0.0039317162548023026 -0.0011827187696802112 0 0 0 0.0086239168367352754 0.037486309060730548 -0.0015003801868183463 0 -0.0015003801868183463 0.0023415325780630752 0 0 0 0.0099569604096984097 0.036090877328014484 -0.0013557798876400527 0 -0.0013557798876400527 0.0027269868919050908 0 0 0 0.009704466054979894 0.034574964318114236 -0.0015308980430593527 0 -0.0015308980430593527 0.011526832707042679 0 0 0 0.011525449256289228 0.033659842393566668 -0.0038906784398895851 0 -0.0038906784398895851 0.011211906979233749 0 0 0 0.011217937343200106 0.031594691467069752 -0.0035851187991910471 0 -0.0035851187991910471 0.0044007626294409342 0 0 0 0.0089988635241276694 0.027908218897627061 -0.00739678652347625 0 -0.00739678652347625 0.0093006788635721597 0 0 0 0.0093022244402998031 0.033596245086924999 -0.0043968542671261983 0 -0.0043968542671261983 0.0038709940974502436 0 0 0 0.0093668097960938092 0.027185187533354409 -0.0076533267057331631 0 -0.0076533267057331631 0.0012418217542702961 0 0 0 0.0071067523219061762 0.017263284742853758 -0.010567625967094173 0 -0.010567625967094173 0.0057496404337139748 0 0 0 0.0057532312941419349 0.019184139617092276 -0.012338454782613462 0 -0.012338454782613462 -0.0012143073011624157 0 0 0 0.0044924580789824625 0.0090202125640964966 -0.015658403466651379 0 -0.015658403466651379 -0.0027716713115092592 0 0 0 0.001562135313146808 0.018608865074052565 -0.012102244012591917 0 -0.012102244012591917 -0.0044676186650929803 0 0 0 0.0035353116022398979 0.021881711040342151 -0.0084593050937781175 0 -0.0084593050937781175 -0.0017358265709021097 0 0 0 0.0050364711173600096 0.026948847871618675 -0.0074122211297741238 0 -0.0074122211297741238 0.0005937471714282808 0 0 0 0.0068856487607617386 0.014709962442011087 -0.010547919435151232 0 -0.010547919435151232 -0.00089746881649858945 0 0 0 0.003453123406378128 0.027129500508777691 -0.0079439154302597507 0 -0.0079439154302597507 -0.0016693100387470509 0 0 0 0.0063650476175076583 0.03491877076758737 -0.0048275742424089569 0 -0.0048275742424089569 -0.0028077499766536573 0 0 0 0.0080277551977334296 0.036494627361441295 -0.0024699513030006816 0 -0.0024699513030006816 0.00069091641545608248 0 0 0 0.0092963859442243418 0.037440867001678119 -0.0030686142668318759 0 -0.0030686142668318759 -0.00020841680971414069 0 0 0 0.0093081125479910001 0.037294745345881293 -0.0029954786157676862 0 -0.0029954786157676862 -0.00088081962003775955 0 0 0 0.0091034814314608793 0.0453017003454982 -0.00037146583411769296 0 -0.00037146583411769296 0.00074156084200975494 0 0 0 0.011510815296876984 0.030735945543275609 -0.0081078037275498244 0 -0.0081078037275498244 -0.0032096666329045551 0 0 0 0.0068815697275927644 0.023666573565813885 -0.01129653407597038 0 -0.01129653407597038 -0.0028942874822855541 0 0 0 0.005193071520882081 0.030015218888187034 -0.0073742198977730673 0 -0.0073742198977730673 -0.0031332613253367975 0 0 0 0.0067204893907125574 0.032678032550345647 -0.0043097986454419535 0 -0.0043097986454419535 -4.217935199364066e-05 0 0 0 0.0081589632995880037 0.018891561721286445 -0.010312462076854278 0 -0.010312462076854278 -0.0036505307361762319 0 0 0 0.0038102577462775537 0.030942932943869912 -0.011196699424034319 0 -0.011196699424034319 -0.0027375313660205555 0 0 0 0.0070513503944623392 0.03656458575321056 -0.0075149994245705199 0 -0.0075149994245705199 0.00062428782830591112 0 0 0 0.0092972183953791213 0.035190078430752704 -0.0063464281670531772 0 -0.0063464281670531772 0.0017034352287970348 0 0 0 0.0092233784148874377 0.049700922067734264 -0.0014620831468952784 0 -0.0014620831468952784 0.0062291131079622135 0 0 0 0.013982508793924129 0.037541132860492564 -0.0092348193586957554 0 -0.0092348193586957554 0.0046286688970383722 0 0 0 0.01054245043938273 0.037561046615894531 -0.0092186320318409162 0 -0.0092186320318409162 0.006711677968550156 0 0 0 0.011068181146111161 0.042484112397946992 0.00044802524547785973 0 0.00044802524547785973 0.0039482686446452898 0 0 0 0.011608095260648068 0.043418046041741314 -0.0049168465604864037 0 -0.0049168465604864037 0.00096123126426699078 0 0 0 0.011094819326502076 0.049511313719920916 0.00060501369864266125 0 0.00060501369864266125 0.0045003210482470442 0 0 0 0.013502908692041984 0.056852211630571317 0.0054304465930242671 0 0.0054304465930242671 0.012526543477642572 0 0 0 0.017344688777053478 0.048617084256572872 0.0057208521353425759 0 0.0057208521353425759 0.011100324397120342 0 0 0 0.014929352163423301 0.051561773624893739 0.0042012974103580528 0 0.0042012974103580528 0.013414914188389773 0 0 0 0.016244171953320886 0.04661242817138072 0.0028178437535517457 0 0.0028178437535517457 0.0051163089472348123 0 0 0 0.012932184279653884 0.046240879103043669 0.0063562771402489292 0 0.0063562771402489292 0.0089230284231814304 0 0 0 0.013790976881556283 0.048701705638048071 0.0083038825825227109 0 0.0083038825825227109 0.017995344976189712 0 0 0 0.016674262653559445 0.045015536172335689 0.0047899999297436264 0 0.0047899999297436264 0.010959753566664829 0 0 0 0.013993822434750126 0.04408585130587437 0.0077200913863086119 0 0.0077200913863086119 0.016442088523866687 0 0 0 0.015131984957435269 0.039866844625486494 0.0056592922872850098 0 0.0056592922872850098 0.0087797335500716667 0 0 0 0.012161644543889544 0.039434884718641781 0.0047137847002379036 0 0.0047137847002379036 0.00884434340549114 0 0 0 0.012069807031033233 0.042061234644552609 0.0035299637467694637 0 0.0035299637467694637 0.0051486737535285775 0 0 0 0.011802477099520295 0.043249856318960257 0.0047137633892763882 0 0.0047137633892763882 0.0053029434547883642 0 0 0 0.012138199943437157 0.038725766087219185 0.003173679296087608 0 0.003173679296087608 0.002760624832623142 0 0 0 0.010371597729960583 0.042300119472627448 0.0029429808607422323 0 0.0029429808607422323 0.0029471717855291857 0 0 0 0.011311822814539168 0.039871610783496665 0.0013639309791331805 0 0.0013639309791331805 0.0014717488052777535 0 0 0 0.0103358398971936 0.041412841959286031 0.00092173147352403407 0 0.00092173147352403407 0.0015199091384461205 0 0 0 0.010733187774433038 0.040714088639908066 -0.0020975905685581466 0 -0.0020975905685581466 -0.00010736015748151386 0 0 0 0.010151682120606638 0.042651218602124216 0.0027105325389203535 0 0.0027105325389203535 0.0043192280844816574 0 0 0 0.011742611671651471 0.045131940429319062 0.0027332535840158688 0 0.0027332535840158688 0.0026200875061704442 0 0 0 0.011938006983872377 -0.076513173518814814 -0.0042950748534564013 0 -0.0042950748534564013 -0.0023940334708283714 0 0 0 -0.019726801747410792 -0.054529420047333743 -0.012189021248407629 0 -0.012189021248407629 -0.0011792808160942941 0 0 0 -0.013927175215857016 -0.061497757821934909 -0.0056635324234466881 0 -0.0056635324234466881 2.5332251036985776e-06 0 0 0 -0.015373806149207803 -0.053307163024195935 -0.0088020947590524042 0 -0.0088020947590524042 0.0045457939478190821 0 0 0 -0.012190342269094216 -0.050885653602145635 -0.0054074121728687153 0 -0.0054074121728687153 0.0035451502282083831 0 0 0 -0.011835125843484312 -0.05247673026873844 -0.0026172613366398549 0 -0.0026172613366398549 -0.0058325073902488478 0 0 0 -0.014577309414746822 -0.047577916939434375 -0.003527339879080744 0 -0.003527339879080744 -0.015827135120841159 0 0 0 -0.015851263015068884 -0.046586012170030722 -0.0059157623365222092 0 -0.0059157623365222092 -0.0070850178585132838 0 0 0 -0.013417757507136001 -0.045193526879876419 -0.010987273959413534 0 -0.010987273959413534 -0.0043276046905966585 0 0 0 -0.012380282892618263 -0.039454313118761263 -0.011186500935312187 0 -0.011186500935312187 -0.0024654218078051463 0 0 0 -0.010479933731641607 -0.034213798908424936 -0.011350618373909325 0 -0.011350618373909325 -0.011412969597007522 0 0 0 -0.011406692126358114 -0.034204993057044338 -0.011355425832680864 0 -0.011355425832680864 -0.011385250483025956 0 0 0 -0.011397560885017572 -0.037949113079135559 -0.013552528828712624 0 -0.013552528828712624 -0.0042299022879324494 0 0 0 -0.010544753841767006 -0.025341840829638425 -0.013805026567796502 0 -0.013805026567796502 -0.0010403460858730632 0 0 0 -0.0065955467288778737 -0.042533209574306882 -0.012704901078827466 0 -0.012704901078827466 0.00138158366381241 0 0 0 -0.010287906477623617 -0.060459088531140362 -0.012373907899814875 0 -0.012373907899814875 -0.0011936626804613104 0 0 0 -0.015413187802900411 -0.023870454407023366 -0.016680340507801861 0 -0.016680340507801861 0.00029474967393375989 0 0 0 -0.0058939261832724049 -0.044795576644629506 -0.014933766435091636 0 -0.014933766435091636 -0.0031167057425509487 0 0 0 -0.011978070596795114 -0.020663492448084731 -0.01357226485989246 0 -0.01357226485989246 -0.0022035725488884187 0 0 0 -0.0057167662492432865 -0.016390763389373949 -0.014121171352716665 0 -0.014121171352716665 -0.004459658037366622 0 0 0 -0.0052126053566851419 -0.021095096431737067 -0.01780893110616568 0 -0.01780893110616568 -0.0029152938235116571 0 0 0 -0.0060025975638121863 -0.019142483854048424 -0.016620207661539394 0 -0.016620207661539394 -0.0017213153250190752 0 0 0 -0.0052159497947668731 -0.020575856054122241 -0.015864367450835786 0 -0.015864367450835786 -0.0056113900806772079 0 0 0 -0.0065468115336998634 -0.0083948473111428359 -0.01352249175775682 0 -0.01352249175775682 -0.0028072962078609467 0 0 0 -0.0028005358797509455 -0.0074141751868775901 -0.01627892774805809 0 -0.01627892774805809 -0.0042350213008011325 0 0 0 -0.0029122991219196776 -0.0031284777168612177 -0.012570626363209011 0 -0.012570626363209011 -0.0012048942460019599 0 0 0 -0.0010833429907157921 -0.0038050594671788143 -0.017602082134155119 0 -0.017602082134155119 -0.0031804638209567207 0 0 0 -0.0017463808220338842 0.0049695439695929119 -0.012793178769780127 0 -0.012793178769780127 0.0016583868960099875 0 0 0 0.0016569827164007248 0.0126413527379199 -0.010327579261419346 0 -0.010327579261419346 6.058033146346016e-05 0 0 0 0.0031754832673458397 0.0058067505252281625 -0.016409955245662494 0 -0.016409955245662494 -0.0040405204203983885 0 0 0 0.00044155752620744435 0.0010558415853367514 -0.015529859329788722 0 -0.015529859329788722 -0.0041213730372816823 0 0 0 -0.0007663828629862323 0.0019372232930698575 -0.012150182364263873 0 -0.012150182364263873 -0.0031440877220740484 0 0 0 -0.00030171610725104967 0.012762640530262159 -0.015286218994253049 0 -0.015286218994253049 -0.006169263297259836 0 0 0 0.0016483443082505808 0.019441145198778292 -0.01140478294895041 0 -0.01140478294895041 -0.0027411833248578094 0 0 0 0.0041749904684801175 0.0028488517824193978 -0.017360668365732849 0 -0.017360668365732849 -0.0046743163386954098 0 0 0 -0.00045636613906900256 0.019777960211028615 -0.014102021089329848 0 -0.014102021089329848 -0.0011266109100134085 0 0 0 0.0046628373252538035 0.0059152963779190559 -0.013205948808799835 0 -0.013205948808799835 0.0043967368306746923 0 0 0 0.0025780083021484362 -0.0014792208040353989 -0.019098536954415577 0 -0.019098536954415577 -0.00054996324400558017 0 0 0 -0.00050729601201024432 0.017671212591424713 -0.012202772254204391 0 -0.012202772254204391 0.0013200186771430977 0 0 0 0.0047478078171419493 -0.0013950435337771062 -0.017395010047337563 0 -0.017395010047337563 0.00019935307004959046 0 0 0 -0.00029892261593188196 0.0031880580031008049 -0.02039004820923155 0 -0.02039004820923155 0.0040763059537551865 0 0 0 0.0018160909892139983 -0.022432350565114497 -0.016739234056710829 0 -0.016739234056710829 -0.0020503628585607017 0 0 0 -0.0061206783559187971 -0.021724266103420917 -0.019255502573104901 0 -0.019255502573104901 -0.0014496707784425328 0 0 0 -0.0057934842204658624 -0.023511985466444434 -0.015677689232524536 0 -0.015677689232524536 0.00025426128173682699 0 0 0 -0.0058144310461769044 -0.0010396291348395668 -0.014908684058153248 0 -0.014908684058153248 -0.00047564946932350527 0 0 0 -0.0003788196510407689 -0.014523939210136432 -0.017626867688060967 0 -0.017626867688060967 -0.0040224140454398968 0 0 0 -0.0046365883138940779 -0.039439039218470251 -0.016234844546991423 0 -0.016234844546991423 -0.0017951680961219123 0 0 0 -0.010308551828648038 -0.037746261817663954 -0.015449085283860041 0 -0.015449085283860041 0.0024634867526338242 0 0 0 -0.0088206937662575393 -0.051719334814052213 -0.013290783792778028 0 -0.013290783792778028 0.0020822448770037791 0 0 0 -0.012409272484262105 -0.03918952589984593 -0.020796711148632005 0 -0.020796711148632005 0.0024469403361931062 0 0 0 -0.0091856463909132033 -0.047233272468524622 -0.014204511989722987 0 -0.014204511989722987 -0.00079000588308995173 0 0 0 -0.012005819587903642 -0.025087392455601144 -0.022717960554851108 0 -0.022717960554851108 0.0037304665032337377 0 0 0 -0.0053392314880918489 -0.047968722525106769 -0.018173811261453562 0 -0.018173811261453562 0.0051598193055773234 0 0 0 -0.010702225804882361 -0.077053285791365528 -0.012002756100681163 0 -0.012002756100681163 -0.0012783623422669048 0 0 0 -0.019582912033408104 -0.080007363007513127 -0.013208931883748137 0 -0.013208931883748137 0.002751858136234818 0 0 0 -0.019313876217819572 -0.10368058026799723 -0.0081952169228596203 0 -0.0081952169228596203 0.0024501839389435009 0 0 0 -0.025307599082263446 -0.073825087282718402 -0.0067271391867012855 0 -0.0067271391867012855 0.0024297814929422554 0 0 0 -0.017848826447444042 -0.090108890190569363 -0.0079087223515640175 0 -0.0079087223515640175 0.00086230341996553818 0 0 0 -0.022311646692650955 -0.054560239988748031 -0.015682679607779713 0 -0.015682679607779713 0.00087404776994294033 0 0 0 -0.013421548054701256 -0.073956679818827226 -0.0055060548426261431 0 -0.0055060548426261431 -0.0025370564256017416 0 0 0 -0.019123434061107256 -0.057871520256394186 -0.010865216566004721 0 -0.010865216566004721 0.0036542911588938699 0 0 0 -0.013554307274375083 -0.096413795523781529 -0.0061024362305459601 0 -0.0061024362305459601 0.012245184047227436 0 0 0 -0.021042152869138502 -0.14240836521244285 0.0017413467466324273 0 0.0017413467466324273 0.0088549390089594504 0 0 0 -0.033388356550870836 -0.090690638561717551 -0.013640378923551418 0 -0.013640378923551418 0.013368399418780041 0 0 0 -0.019330559785734391 -0.08265076600599737 0.00037972449478515524 0 0.00037972449478515524 0.012456056722490443 0 0 0 -0.017548677320876737 -0.12869167636705461 -0.0046088893935921985 0 -0.0046088893935921985 0.0084965184134212224 0 0 0 -0.030048789488408369 -0.11463544229697029 -0.0068885040490159633 0 -0.0068885040490159633 0.0043058073400947944 0 0 0 -0.027582408739218869 -0.07754927149022571 -0.0080833445202008782 0 -0.0080833445202008782 0.0049994809245498956 0 0 0 -0.018137447641418961 -0.085156046713738873 -0.0061520064243283969 0 -0.0061520064243283969 0.0066612113026620276 0 0 0 -0.019623708852769234 -0.081521454313158659 -0.015700036023799342 0 -0.015700036023799342 0.0099828040342882507 0 0 0 -0.017884662569717616 -0.04606164065190807 -0.015575536816932044 0 -0.015575536816932044 0.010237196265512699 0 0 0 -0.0089561110965988427 -0.048354805343668081 -0.016974563822143303 0 -0.016974563822143303 0.0045334209281885224 0 0 0 -0.010955346103869872 -0.030825644637737494 -0.015352996120649241 0 -0.015352996120649241 -0.00016699207667139788 0 0 0 -0.0077481591786022304 -0.042622144637353129 -0.021091475893693146 0 -0.021091475893693146 0.017786352065954525 0 0 0 -0.0062089481428496546 -0.058144902738173479 -0.0085510626680574686 0 -0.0085510626680574686 0.0099093696515198393 0 0 0 -0.012058883271663393 -0.041909577536542363 -0.0027656927760312811 0 -0.0027656927760312811 0.019435926897783506 0 0 0 -0.005618412659689727 0.00017410552342668473 -0.014816379440585475 0 -0.014816379440585475 0.023768686147894874 0 0 0 0.0059856979178303932 0.00666697232394136 -0.010780822829298667 0 -0.010780822829298667 0.041631485575475136 0 0 0 0.01207461447485414 0.022031013343835434 -0.02002221413169844 0 -0.02002221413169844 0.02095263068207201 0 0 0 0.010745911006476858 -0.031327480567812656 -0.011444588192775391 0 -0.011444588192775391 0.021788861701371565 0 0 0 -0.0023846547166102641 -0.0092346175591782268 -0.019747790173843947 0 -0.019747790173843947 0.013658946152514909 0 0 0 0.0011060821483341709 -0.033972719836698174 -0.022224933449943373 0 -0.022224933449943373 0.009907346093966235 0 0 0 -0.0060163434356829901 -0.013920316712362543 -0.024038524004030799 0 -0.024038524004030799 0.0045982595176665558 0 0 0 -0.0023305142986739975 -0.0088482999757089117 -0.016224752038898324 0 -0.016224752038898324 0.0088412314274795949 0 0 0 -1.767137057327034e-06 0.011976398472047275 -0.021317217658312335 0 -0.021317217658312335 0.010799272082061412 0 0 0 0.0056939176385271753 -0.0071807523144375232 -0.014708305382458466 0 -0.014708305382458466 0.01685459916859891 0 0 0 0.0024184617135403416 0.013945987382567453 -0.013250665958371216 0 -0.013250665958371216 0.012649260123048421 0 0 0 0.0066488118764039712 0.037283747660234699 -0.018135073143165308 0 -0.018135073143165308 0.015199150761812649 0 0 0 0.013120724605511835 0.024161073253978593 -0.018278812835848916 0 -0.018278812835848916 0.0065871797245360894 0 0 0 0.0076870632446286707 0.045427638050416233 -0.014033974843056601 0 -0.014033974843056601 0.011301516837097764 0 0 0 0.014182288721878496 0.025116796135227822 -0.010807966845716298 0 -0.010807966845716298 0.007547390830902282 0 0 0 0.0081660467415325261 0.039442277751961456 -0.0080540050691027838 0 -0.0080540050691027838 0.021113924706848766 0 0 0 0.015139050614702554 0.063116389970826303 -0.015054573549441265 0 -0.015054573549441265 0.028105110793060814 0 0 0 0.022805375190971783 0.025523867158978253 -0.011505055630053329 0 -0.011505055630053329 0.029911424070627052 0 0 0 0.013858822807401333 0.055823070195680169 -0.016988050420590026 0 -0.016988050420590026 0.034899473347636267 0 0 0 0.022680635885829109 0.055823078024225918 -0.0054518906643860436 0 -0.0054518906643860436 0.045223914816042654 0 0 0 0.025261748210067138 0.087868871040212709 -7.1364235721405045e-05 0 -7.1364235721405045e-05 0.076557752863994744 0 0 0 0.041106655976051898 0.091875808009751869 -0.015905722656690907 0 -0.015905722656690907 0.061680116667300389 0 0 0 0.038388981169263071 0.044093364309822816 -0.0061313389848327224 0 -0.0061313389848327224 0.053496208390362121 0 0 0 0.024397393175046231 0.027699804495478611 -0.020491277742714947 0 -0.020491277742714947 0.054689129196766162 0 0 0 0.02059723342306119 0.071495408661301968 -0.021960330654108615 0 -0.021960330654108615 0.10040017509905386 0 0 0 0.042973895940088935 0.09909681386088709 -0.012362844013925983 0 -0.012362844013925983 0.16855188183752912 0 0 0 0.066912173924604079 0.10325689962765566 0.022177571325544543 0 0.022177571325544543 0.14968600668771057 0 0 0 0.063235726578841578 0.092226816814019008 0.019350982786408739 0 0.019350982786408739 0.17849125576133495 0 0 0 0.06767951814383838 0.075217692671801062 0.017290610272780615 0 0.017290610272780615 0.12372085804545607 0 0 0 0.049734637679314297 0.049616366970892167 -0.005877474257838744 0 -0.005877474257838744 0.095923200902245043 0 0 0 0.036384891968284316 0.066025313977420189 0.0058399229765583316 0 0.0058399229765583316 0.099964542817905608 0 0 0 0.041497464198831421 0.03716106179226341 0.030695424430304319 0 0.030695424430304319 0.10724879087764053 0 0 0 0.036102463167475944 0.016504969962183036 0.017688205172089855 0 0.017688205172089855 0.069300963202822641 0 0 0 0.021451483291251405 -0.0060064200630502718 0.024912790463734735 0 0.024912790463734735 0.076202649600789818 0 0 0 0.017549057384434935 0.0037415425650505485 -0.0018251520514553626 0 -0.0018251520514553626 0.044510648652450913 0 0 0 0.012063047804375393 -0.021073214830323005 0.0062595168544833657 0 0.0062595168544833657 0.041760310232528568 0 0 0 0.0051717738505513769 0.017822648344976266 0.0015909802956746016 0 0.0015909802956746016 0.087677780387025506 0 0 0 0.026375107183000401 -0.023844660741429255 -0.014690488151972381 0 -0.014690488151972381 0.043183240675735701 0 0 0 0.004834644983576622 -0.058154539966632363 -0.012423578984330996 0 -0.012423578984330996 0.022979141173640527 0 0 0 -0.0087938496982479519 -0.057710707684547474 0.0054080980452860666 0 0.0054080980452860666 0.024384819219589848 0 0 0 -0.0083314721162394134 -0.03476958363858379 -0.0068722236326889119 0 -0.0068722236326889119 0.037899640458498918 0 0 0 0.00078251420497879587 -0.045357715664593005 0.018842690541273133 0 0.018842690541273133 0.04015878245252201 0 0 0 -0.0012997333030177402 -0.020838836261013988 0.014345025675890355 0 0.014345025675890355 0.034325292128988161 0 0 0 0.0033716139669935363 -0.058561527165009314 0.025099011331768895 0 0.025099011331768895 0.027615122028323072 0 0 0 -0.0077366012841715605 -0.044398370473492543 0.016826869486577023 0 0.016826869486577023 0.048314033677082868 0 0 0 0.00097891580089759511 -0.055253776827207113 0.0053780554656727916 0 0.0053780554656727916 0.025225601320472579 0 0 0 -0.0075070438766836611 -0.084378944289127122 0.012693577208851919 0 0.012693577208851919 0.024609269593105609 0 0 0 -0.014942418674005337 -0.076877145781682116 0.0048317654792117137 0 0.0048317654792117137 0.019957024260632394 0 0 0 -0.014230030380262437 -0.12843664815462838 0.0067829746310179018 0 0.0067829746310179018 0.020995565534791427 0 0 0 -0.026860270654959273 -0.093812036387954684 0.00040701279555749315 0 0.00040701279555749315 0.015985343057686119 0 0 0 -0.019456673332567176 -0.14435073600321316 -0.0013540411441560207 0 -0.0013540411441560207 0.015805336515445023 0 0 0 -0.032136349871942055 -0.10076352590891297 0.0050477975683628912 0 0.0050477975683628912 0.012005472610963352 0 0 0 -0.022189513324487375 -0.079105465022601656 -0.0071582678957587409 0 -0.0071582678957587409 0.019107903403382545 0 0 0 -0.014999390404804837 -0.10292180713596488 -0.010646821125009559 0 -0.010646821125009559 0.013958780001709692 0 0 0 -0.022240756783563742 0.061274707470362851 0.016015403968624595 0 0.016015403968624595 0.044042794295225465 0 0 0 0.026329375441397081 0.065877305594018554 0.018062645976962076 0 0.018062645976962076 0.055707206342895013 0 0 0 0.030396127984228388 0.073297178884223685 0.019108176066400945 0 0.019108176066400945 0.05810543164658552 0 0 0 0.032850652632702315 0.055868846587725923 0.014016180250348101 0 0.014016180250348101 0.061475608215241596 0 0 0 0.029336113700741896 0.044076381701371722 0.0081632380548285408 0 0.0081632380548285408 0.061671559557417668 0 0 0 0.026436985314697348 0.047969261873025346 0.010116551021772476 0 0.010116551021772476 0.042838272265782198 0 0 0 0.022701883534701876 0.03649564202850332 0.004403132634534534 0 0.004403132634534534 0.043128140871971934 0 0 0 0.01990594572511882 0.05161618790023477 0.012730656934034121 0 0.012730656934034121 0.044150340478169452 0 0 0 0.02394163209460105 0.042196461155794854 0.0065468278221017832 0 0.0065468278221017832 0.028188428547915024 0 0 0 0.017596222425927479 0.041888257417020444 0.0079669729764985965 0 0.0079669729764985965 0.034946433776488511 0 0 0 0.019208672798377232 0.040658620193958848 0.0050830727627822246 0 0.0050830727627822246 0.016999473415840374 0 0 0 0.014414523402449798 0.046795496754296811 0.010087511553073053 0 0.010087511553073053 0.028326323964355658 0 0 0 0.018780455179663105 0.048776543335624568 0.0077111301241541358 0 0.0077111301241541358 0.018478387299905977 0 0 0 0.016813732658882634 0.051054838854485786 0.0097129282820367507 0 0.0097129282820367507 0.034717940794704513 0 0 0 0.021443194912297597 0.055993308817432474 0.013128320136603353 0 0.013128320136603353 0.030157816837753565 0 0 0 0.021537781413796517 0.058299930154673385 0.0076209452846389223 0 0.0076209452846389223 0.020496891298330374 0 0 0 0.019699205363250941 0.051465034864111539 0.0072612373344805737 0 0.0072612373344805737 0.018727347498502064 0 0 0 0.017548095590653415 0.049502413897680009 -0.0019124796562471702 0 -0.0019124796562471702 0.010588758452182052 0 0 0 0.01502279308746551 0.064865750479428344 0.0023127523805675232 0 0.0023127523805675232 0.025928063528535786 0 0 0 0.022698453501991036 0.060952057079296143 0.0054377145656013016 0 0.0054377145656013016 0.019205085780119875 0 0 0 0.020039285714853999 0.064371618641316394 0.012964580350789658 0 0.012964580350789658 0.03380329481032987 0 0 0 0.024543728362911577 0.047418403943081319 -0.0035879496025999734 0 -0.0035879496025999734 0.012643176664298199 0 0 0 0.01501539515184488 0.058353823063238379 -0.0075834722559075668 0 -0.0075834722559075668 0.018231420180211913 0 0 0 0.019146310810862592 0.067131167223793656 0.0021457701405228138 0 0.0021457701405228138 0.030114859491041576 0 0 0 0.024311506678708811 0.078649484981972051 -0.0040020951258070876 0 -0.0040020951258070876 0.043446408735171999 0 0 0 0.030523973429286019 0.096295286005021768 0.010338488809178731 0 0.010338488809178731 0.058421274528504166 0 0 0 0.038679140133381473 0.075322902864753724 0.012814052016036526 0 0.012814052016036526 0.037257820245566661 0 0 0 0.028145180777580107 0.085354958536654951 0.011554901652773005 0 0.011554901652773005 0.037248927372683524 0 0 0 0.030650971477334608 0.077078687410396543 0.013879196472757999 0 0.013879196472757999 0.052062451906628823 0 0 0 0.032285284829256355 0.099927436490949803 0.016560099874499259 0 0.016560099874499259 0.058191575540766254 0 0 0 0.039529753007929033 0.087732887874926835 0.02680121187143357 0 0.02680121187143357 0.089571961221834528 0 0 0 0.044326212274190327 0.12868210355316936 0.031730648509401674 0 0.031730648509401674 0.089972982986448347 0 0 0 0.054663771634904462 0.11292149723396602 0.028440780390630097 0 0.028440780390630097 0.12757704738905098 0 0 0 0.060124636155754252 0.089387559435590153 0.030208100229154801 0 0.030208100229154801 0.12714706734741379 0 0 0 0.054133656695751008 0.10085650739483273 0.024349808094980489 0 0.024349808094980489 0.094009404932404561 0 0 0 0.048716478081809331 0.12685811516511206 -0.003071431830178134 0 -0.003071431830178134 0.082713336092825385 0 0 0 0.052392862814484374 0.13538351619056666 0.012621067127044555 0 0.012621067127044555 0.11677524312975651 0 0 0 0.063039689830080806 0.14012847769979014 -0.017327166354659362 0 -0.017327166354659362 0.10549108935732288 0 0 0 0.061404891764278255 0.23683378400169364 -0.010680280270194603 0 -0.010680280270194603 0.16051919357114897 0 0 0 0.099338244393210651 0.16569201909797646 -0.0050265449980809174 0 -0.0050265449980809174 0.30891116041629074 0 0 0 0.11865079487856681 0.22440037461469287 0.087849645527160167 0 0.087849645527160167 0.22893883787580949 0 0 0 0.11333480312262557 0.12419179221433758 0.050234393406025826 0 0.050234393406025826 0.19859083901841668 0 0 0 0.080695657808188562 0.070773240795903122 0.018986365335844677 0 0.018986365335844677 0.12344817078596093 0 0 0 0.048555352895465989 0.12071151451600198 0.032566095060401618 0 0.032566095060401618 0.13141766844305106 0 0 0 0.063032295739763239 0.076772250034020453 -0.019716068953646561 0 -0.019716068953646561 0.22201886291494258 0 0 0 0.074697778237240733 0.061183294237361463 -0.021374402504473894 0 -0.021374402504473894 0.13177195491048591 0 0 0 0.048238812286961835 0.061587033121434265 -0.02175263453062052 0 -0.02175263453062052 0.13822158055055739 0 0 0 0.049952153417997913 0.073505212702524178 0.018211552965790578 0 0.018211552965790578 0.13130509272970545 0 0 0 0.051202576358057444 0.06738602385499734 0.017266663376994236 0 0.017266663376994236 0.083993206320940636 0 0 0 0.037844807543984491 0.06296696311977279 0.012053916572893116 0 0.012053916572893116 0.1179259271266343 0 0 0 0.045223222561601759 0.047062404604236573 0.002942418644869463 0 0.002942418644869463 0.080575307781304006 0 0 0 0.031909428096385146 0.054181757388045627 0.011514047283535998 0 0.011514047283535998 0.092060724519267431 0 0 0 0.03656062047682828 0.055252174838651608 0.013655843666753709 0 0.013655843666753709 0.060959788288870748 0 0 0 0.029052990781880589 0.068015442892833039 0.021504566461189086 0 0.021504566461189086 0.087810491826740111 0 0 0 0.038956483679893301 0.040058607953561018 0.0046101305867150581 0 0.0046101305867150581 0.05843923521244572 0 0 0 0.024624460791501684 0.041263592741562653 0.002981467243835972 0 0.002981467243835972 0.074672730179464561 0 0 0 0.028984080730256812 0.054251870142660884 -0.020855004755224265 0 -0.020855004755224265 0.087722852717537103 0 0 0 0.035493680715049492 0.039137045847265572 -0.0081109378298975295 0 -0.0081109378298975295 0.0734506842427428 0 0 0 0.028146932522502111 0.036545993019539563 -0.0065127098084438902 0 -0.0065127098084438902 0.068730235545444746 0 0 0 0.026319057141246091 0.049483658239414974 -0.00028123697597478778 0 -0.00028123697597478778 0.099822835981964314 0 0 0 0.037326623555344815 0.047911013529964491 -0.01821742794145019 0 -0.01821742794145019 0.065804972463099159 0 0 0 0.028428996498265909 0.045713607816492099 -0.018511745683992196 0 -0.018511745683992196 0.056262509560114832 0 0 0 0.025494029344151729 0.066007841628619848 -0.028638180305363373 0 -0.028638180305363373 0.06248064982517839 0 0 0 0.032122122863449523 0.059745288295402529 -0.02711296836022788 0 -0.02711296836022788 0.038918990209505622 0 0 0 0.024666069626227069 0.050056977562880065 -0.018122583093413955 0 -0.018122583093413955 0.031891975878079293 0 0 0 0.020487238360239843 0.067276668226846664 -0.023220291149304823 0 -0.023220291149304823 0.037020302827733595 0 0 0 0.026074242763645054 0.068948659654909913 -0.02295480796205809 0 -0.02295480796205809 0.042050033595258052 0 0 0 0.027749673312542009 0.059256496985207574 -0.016871276352415865 0 -0.016871276352415865 0.0181859159804722 0 0 0 0.01936060324141993 0.08290675274154119 -0.011609382148659739 0 -0.011609382148659739 0.03068436972063926 0 0 0 0.028397780615545126 0.076363166753425499 -0.016298715159440202 0 -0.016298715159440202 0.018840575046743996 0 0 0 0.023800935450042374 0.081828678802711774 -0.021592141230512313 0 -0.021592141230512313 0.025764763733310825 0 0 0 0.026898360634005636 0.10009139243638135 -0.04120365736699802 0 -0.04120365736699802 0.059474227951255093 0 0 0 0.039891405096909097 0.053751785949671366 -0.021480576753985712 0 -0.021480576753985712 0.088672756341608885 0 0 0 0.035606135572820059 0.071588761800033013 -0.033824698693188222 0 -0.033824698693188222 0.069041453344724169 0 0 0 0.035157553786189281 0.071932370047964239 -0.036865343564822184 0 -0.036865343564822184 0.078740664187143858 0 0 0 0.037668258558777021 0.077092531642743503 -0.045785156448689919 0 -0.045785156448689919 0.11763834480353105 0 0 0 0.048682719111568587 0.055723469051846254 -0.041825023041732315 0 -0.041825023041732315 0.15153968477129257 0 0 0 0.051815788455784689 0.088633360124284299 -0.039114137504822129 0 -0.039114137504822129 0.14800707351571152 0 0 0 0.059160108409998968 0.11522718347744317 -0.012148879502876516 0 -0.012148879502876516 0.37523008462740015 0 0 0 0.12261431702621084 0.091895042929991094 -0.015983830677922944 0 -0.015983830677922944 -0.0074823725483756931 0 0 0 0.021103167595403864 0.12395146450424903 -0.064113020560533709 0 -0.064113020560533709 0.095885220582318104 0 0 0 0.05495917127164178 0.20028374562929988 0.12317878774042126 0 0.12317878774042126 0.25987803857389713 0 0 0 0.11504044605079922 0.12038658361107471 -0.092702961783900639 0 -0.092702961783900639 0.16543766645162883 0 0 0 0.07145606251567585 0.0069074766013243298 0.0010866944216057339 0 0.0010866944216057339 0.018661657524676634 0 0 0 0.0063922835315002409 0.30624514089367277 0.11188497220430402 0 0.11188497220430402 0.079857086817366918 0 0 0 0.096525556927759826 0.16798204155595708 0.031868513397542042 0 0.031868513397542042 0.052145738526332419 0 0 0 0.055031945020572404 0.015590791968907315 0.0026381734980844293 0 0.0026381734980844293 0.0469940688152478 0 0 0 0.01564621519603878 0.025678651282881132 0.0026164114196899901 0 0.0026164114196899901 0.051614225492330745 0 0 0 0.019323219193802949 0.14663097388919732 0.024740635083622009 0 0.024740635083622009 0.047132413583023974 0 0 0 0.048440846868055228 0.021877780755254674 0.0036334573861304094 0 0.0036334573861304094 0.065354586540486551 0 0 0 0.021808091823935307 0.033745885409819557 0.0089688871734162345 0 0.0089688871734162345 0.05818965471209897 0 0 0 0.022983885030479614 0.11942498288960934 0.018779183335291716 0 0.018779183335291716 0.033984059370508746 0 0 0 0.038352260565029439 0.083625067488048987 -0.021639778587236619 0 -0.021639778587236619 0.010831077544393442 0 0 0 0.023614036258110649 0.070384235984210911 0.0049368710421855422 0 0.0049368710421855422 0.034878157976007018 0 0 0 0.026315598490054506 0.073904171178353739 -0.0084423329803029797 0 -0.0084423329803029797 0.039503084943151467 0 0 0 0.028351814030376288 0.079274449082395421 -0.0021942666079754758 0 -0.0021942666079754758 0.026351199986903273 0 0 0 0.02640641226732468 0.062421099759778512 0.0079538658917394645 0 0.0079538658917394645 0.036930837760248747 0 0 0 0.024837984380006797 0.066887235417229046 0.0049031332584800399 0 0.0049031332584800399 0.055940202982192488 0 0 0 0.030706859599855446 0.053451304816314091 0.01020912838652227 0 0.01020912838652227 0.067241162618474348 0 0 0 0.030173116858697099 0.076364565382350647 0.00246651183784935 0 0.00246651183784935 0.037985297006398522 0 0 0 0.028587465597187278 0.11004729400469582 0.017716506089423448 0 0.017716506089423448 0.044296943197796423 0 0 0 0.038586059300623088 0.11489195183424084 0.011754390322366914 0 0.011754390322366914 0.062166525866099498 0 0 0 0.044264619425085083 0.12066567308786103 0.010801938662596267 0 0.010801938662596267 0.061149145215944944 0 0 0 0.045453704575951326 0.026974472380766258 0.0042891924506295361 0 0.0042891924506295361 0.080782225712856648 0 0 0 0.026939174523405728 0.1064625617239095 0.007501053451948958 0 0.007501053451948958 0.066279114068047207 0 0 0 0.043185418947989385 0.11059104463310976 0.0092547579757656928 0 0.0092547579757656928 0.068813586295269236 0 0 0 0.044851157732094693 0.099806522332033354 0.01278082902953015 0 0.01278082902953015 0.066920019575061218 0 0 0 0.041681635476773837 0.10490242861813193 0.0057211447732937867 0 0.0057211447732937867 0.079905689372637312 0 0 0 0.046202029497692365 0.067877185525225814 0.010659956857850632 0 0.010659956857850632 0.084224310499536603 0 0 0 0.03802537400619066 0.031766467027792934 0.0047235423731779459 0 0.0047235423731779459 0.095119114263131493 0 0 0 0.031721395322731105 0.10310275841393224 0.0068684179767160014 0 0.0068684179767160014 0.082146496010999659 0 0 0 0.046312313606233002 0.06752699582839225 0.0096589122782130832 0 0.0096589122782130832 0.054883839307876547 0 0 0 0.030602708784067206 0.070230200933491777 0.0093228860798200419 0 0.0093228860798200419 0.035955928096186196 0 0 0 0.026546532257419458 0.073758321199422772 0.0073151311804554309 0 0.0073151311804554309 0.071575680332917946 0 0 0 0.036333500383085138 0.077068587256268237 0.0093248229434329533 0 0.0093248229434329533 0.057582478841155083 0 0 0 0.033662766524355833 0.076387539146601097 0.013170614029436534 0 0.013170614029436534 0.064396443837885398 0 0 0 0.035195995746121617 0.070503666665436365 0.010957143680370554 0 0.010957143680370554 0.034722807342998374 0 0 0 0.02630661850210872 0.071687344984407347 0.0094943854681947826 0 0.0094943854681947826 0.037737936898151025 0 0 0 0.0273563204706396 0.073250024948434883 0.0067168710360820671 0 0.0067168710360820671 0.034728910762782901 0 0 0 0.026994733927804403 0.070442581698728524 0.000742054130191655 0 0.000742054130191655 0.016416709542544927 0 0 0 0.021714822810318363 0.070618961854705647 0.0036927189662780968 0 0.0036927189662780968 0.020490203391381412 0 0 0 0.02277729131152173 0.064166797319690966 0.0048700188372420017 0 0.0048700188372420017 0.016870773098129836 0 0 0 0.020259392604455202 0.067195623618201805 0.00266614442070022 0 0.00266614442070022 0.020602221931926401 0 0 0 0.02194946138753201 0.064435098440758176 -0.0042707372199870877 0 -0.0042707372199870877 0.01411139319800736 0 0 0 0.019636622909691342 0.069192855808782691 0.00017113012056896304 0 0.00017113012056896304 0.019147504671374001 0 0 0 0.02208509012003913 0.072209164050835606 -0.0076334709188792538 0 -0.0076334709188792538 0.015642525282629105 0 0 0 0.021962922333366192 0.062466788455828898 -0.007971504706478505 0 -0.007971504706478505 0.010032925840504414 0 0 0 0.018124928574083349 0.07107096834506374 -0.012353092830304897 0 -0.012353092830304897 0.017818866863079874 0 0 0 0.022222458802035883 0.061645878499855464 -0.013483215066629639 0 -0.013483215066629639 0.018187280538852574 0 0 0 0.019958289759677023 0.071247049937906745 -0.0071085984795694057 0 -0.0071085984795694057 0.015133160654560315 0 0 0 0.021595052648116772 0.07167758545552419 0.00062082166541035932 0 0.00062082166541035932 0.018586146857309555 0 0 0 0.022565933078208505 0.077433136721693829 -0.0033767749957205884 0 -0.0033767749957205884 0.023706503158391512 0 0 0 0.025284909970021308 -0.044840316633094734 0.011027723492780694 0 0.011027723492780694 0.018584798905116329 0 0 0 -0.0065638794319945459 -0.051628730575674298 0.012197201694718718 0 0.012197201694718718 0.018964842914552138 0 0 0 -0.0081659719152805677 -0.028917807554909247 0.031505071099011933 0 0.031505071099011933 0.029888090762183239 0 0 0 0.00024257080181844248 -0.086810254624781202 0.014571240281446962 0 0.014571240281446962 0.018912773963684737 0 0 0 -0.016974370165274089 -0.1006317000218645 0.012573043130459927 0 0.012573043130459927 0.022629050547612772 0 0 0 -0.01950066236856296 -0.050655855769276781 0.017270281848339675 0 0.017270281848339675 0.019627022692109364 0 0 0 -0.0077572082692919375 -0.050522795724225189 0.017366871789230243 0 0.017366871789230243 0.021105176872031062 0 0 0 -0.0073544047130485457 -0.028042090551686494 0.037199907438872581 0 0.037199907438872581 0.035351611051940512 0 0 0 0.0018273801250634492 -0.006252752325066252 0.038918823180949969 0 0.038918823180949969 0.038818173668110689 0 0 0 0.0081413553357610746 0.013601203907835258 0.046531648460479719 0 0.046531648460479719 0.056951842659148211 0 0 0 0.017638261641745867 -0.0034929189583047249 0.032742804959873084 0 0.032742804959873084 0.026956517867334107 0 0 0 0.0058658997272574842 0.0077069082594790339 0.044622822248591598 0 0.044622822248591598 0.035664152850020225 0 0 0 0.010842765277374794 -0.017014463533730484 0.027097411800427795 0 0.027097411800427795 0.020237003838265544 0 0 0 0.00080563507613395924 0.015711065778992284 0.038597640312593773 0 0.038597640312593773 0.025267038921030327 0 0 0 0.010244526175005597 0.074401937844892491 0.051416665629566483 0 0.051416665629566483 0.043954273443004177 0 0 0 0.029589052821974243 0.045647537705145402 0.047582679053424268 0 0.047582679053424268 0.037849159971158119 0 0 0 0.020874174419075797 0.091160394335795217 0.067994487597388575 0 0.067994487597388575 0.072632903452140185 0 0 0 0.040948324446983889 0.045791331296138826 0.050765202145419575 0 0.050765202145419575 0.041652507381549242 0 0 0 0.021860959669421975 -0.0010798057344849621 0.034377605856038967 0 0.034377605856038967 0.04432694109192159 0 0 0 0.010811783839359213 0.033446606444867466 0.055536958669856723 0 0.055536958669856723 0.083036597137674195 0 0 0 0.029120800895635457 0.041995698152269612 0.047284043304720913 0 0.047284043304720913 0.068755966453214468 0 0 0 0.027687916151371061 0.079644687714588214 0.069982918436903963 0 0.069982918436903963 0.12914908116101675 0 0 0 0.052198442218901298 0.098982650274168582 0.072762576221248723 0 0.072762576221248723 0.18948982390784641 0 0 0 0.072118118545503707 0.12977030288174329 0.088803830501670289 0 0.088803830501670289 0.089896918180154314 0 0 0 0.054916805265474433 0.13535669232487751 0.069864385584141431 0 0.069864385584141431 0.085666825204115504 0 0 0 0.055255879382248338 0.098728281948780694 0.049952937879640058 0 0.049952937879640058 0.045793998126543833 0 0 0 0.03613057001883091 0.11425876420758366 0.049645815738038279 0 0.049645815738038279 0.050832613389987735 0 0 0 0.041272844399392966 0.13048364966516746 0.024333337044499914 0 0.024333337044499914 0.040818783360780486 0 0 0 0.042825608256486958 0.087516215465265335 0.037213905747894183 0 0.037213905747894183 0.033665596951123256 0 0 0 0.030295453104097092 0.082651200129929325 0.034312925732887467 0 0.034312925732887467 0.032421499884998983 0 0 0 0.028768175003732077 0.10614452838551025 0.023655788182326609 0 0.023655788182326609 0.044537074658738796 0 0 0 0.037670400761062317 0.0981664620902305 0.017600773527207014 0 0.017600773527207014 0.042069265730115157 0 0 0 0.03505893195508647 0.097795739328731091 0.013274053559420296 0 0.013274053559420296 0.053183348525595253 0 0 0 0.037744771963581725 0.089015723374260197 0.01420119858829727 0 0.01420119858829727 0.050257243527120257 0 0 0 0.034818241725345166 0.079974428964062982 0.022068070266689777 0 0.022068070266689777 0.036253127627774551 0 0 0 0.029056889147959397 0.07989829949024585 0.02726925406012895 0 0.02726925406012895 0.03278173512862903 0 0 0 0.028170008654718748 0.054992053229574941 0.022881984702517899 0 0.022881984702517899 0.029680301034613166 0 0 0 0.021168088566047169 0.056292399355464498 0.020745956929286935 0 0.020745956929286935 0.030463043102077092 0 0 0 0.021688860614385366 0.052970598922233769 0.024702418299588191 0 0.024702418299588191 0.02652209543546391 0 0 0 0.01987317358942442 0.027933010703105055 0.029763625225628809 0 0.029763625225628809 0.021731732854234576 0 0 0 0.012416185889334796 0.058138241612311736 0.035409962980694099 0 0.035409962980694099 0.03020070108221562 0 0 0 0.022084735673631783 0.067171309444828353 0.028887685952378339 0 0.028887685952378339 0.02814668586726532 0 0 0 0.023829498828023488 0.039498019608743218 0.036167874224495522 0 0.036167874224495522 0.024609540962678533 0 0 0 0.01602689014285541 0.031422846160005818 0.042733222666506809 0 0.042733222666506809 0.029003651536998687 0 0 0 0.015106624424251175 0.0093919930023660392 0.028263210194713562 0 0.028263210194713562 0.01859979250742283 0 0 0 0.0069979463774473283 0.0026383714866219446 0.032759412176989633 0 0.032759412176989633 0.026215013889080346 0 0 0 0.007213346343925682 0.0064777075632718173 0.019976298704492156 0 0.019976298704492156 0.019932625235160817 0 0 0 0.0066025831996081585 0.0068377952352116633 0.029169783933137738 0 0.029169783933137738 0.018382095221649131 0 0 0 0.006304972614215143 0.029876212792997237 0.026564917963993573 0 0.026564917963993573 0.021750574923426136 0 0 0 0.012906696929105621 0.030292815394266065 0.022519620448604005 0 0.022519620448604005 0.018598445038693234 0 0 0 0.012222815108239943 0.016943038594938398 0.016916597608759298 0 0.016916597608759298 0.018652406824257058 0 0 0 0.0088988613547987799 0.0090622593536170415 0.017795587386639555 0 0.017795587386639555 0.016025480410482906 0 0 0 0.0062719349410248482 7.1370266642833968e-05 0.020594833710462557 0 0.020594833710462557 0.018603123701438129 0 0 0 0.0046686234920203518 -0.01129553696899277 0.0064603559883460449 0 0.0064603559883460449 0.015187172252188352 0 0 0 0.00097290882079914542 0.0049846785171411279 0.0059577471029448326 0 0.0059577471029448326 0.017426561034014743 0 0 0 0.0056028098877889398 -0.0067291140079431822 0.0085919168975046034 0 0.0085919168975046034 0.018698169843903711 0 0 0 0.0029922639589903266 -0.031166391958871664 0.0089444318044177296 0 0.0089444318044177296 0.015649808767075113 0 0 0 -0.0038791457979492905 -0.021436167206715928 0.023318461738355389 0 0.023318461738355389 0.016982249304316799 0 0 0 -0.0011134794755996991 -0.017291050758466708 0.011580436673395464 0 0.011580436673395464 0.018379573133864735 0 0 0 0.00027213059384956217 0.01674976059067923 0.0034656715494436607 0 0.0034656715494436607 0.017062310848654505 0 0 0 0.0084530178598334338 0.010442620728331242 0.0016616796990356342 0 0.0016616796990356342 0.014835957655570553 0 0 0 0.0063196445959754488 0.020446809660860765 0.0060487488495104547 0 0.0060487488495104547 0.017475583892113455 0 0 0 0.0094805983882437772 0.0041250319140675451 0.0030486434195806655 0 0.0030486434195806655 0.015016325699866329 0 0 0 0.0047853394034833574 0.0087736118279833075 0.0028007121002970869 0 0.0028007121002970869 0.015570126492415515 0 0 0 0.00608593458009965 -0.0026400997296829321 0.0043661501887391997 0 0.0043661501887391997 0.014441659318214839 0 0 0 0.0029503898971332543 0.0015151948335296872 0.010782171522917494 0 0.010782171522917494 0.014734158124124264 0 0 0 0.0040623382394131546 0.0077853431616585755 0.0066274253027911734 0 0.0066274253027911734 0.015399769336956304 0 0 0 0.0057962781246538864 0.017299346535809335 0.01304500348389373 0 0.01304500348389373 0.017084568642339093 0 0 0 0.0085959787945371069 0.018742735535616228 0.0096609894760961712 0 0.0096609894760961712 0.019369720727331341 0 0 0 0.0095281140657372809 0.027749115094470866 0.013499503906793331 0 0.013499503906793331 0.019932369373309555 0 0 0 0.011920371116945327 0.034063235251746926 0.0088975563747828446 0 0.0088975563747828446 0.022833580944176202 0 0 0 0.014224204048980615 0.032486342392453293 0.004836142784605757 0 0.004836142784605757 0.023975473180621876 0 0 0 0.014115453893268848 0.02003127684415873 0.0084149872388221691 0 0.0084149872388221691 0.019560849545817716 0 0 0 0.0098980315974942501 0.029907895269740775 0.0065489320611282764 0 0.0065489320611282764 0.023519350709408249 0 0 0 0.013356811494787374 0.051654742801073628 0.004540751098947915 0 0.004540751098947915 0.035388826243814009 0 0 0 0.021760892261221798 0.05506672961467507 0.0066575021838546355 0 0.0066575021838546355 0.044857890791619059 0 0 0 0.024981155101573393 0.067207797848699569 0.0058122026949960492 0 0.0058122026949960492 0.044965421044014242 0 0 0 0.028043304723178508 0.034598763709876135 0.0099802793244279653 0 0.0099802793244279653 0.027457933574870808 0 0 0 0.015514174321186402 0.034159586340964943 0.01568177635930313 0 0.01568177635930313 0.022620600393048917 0 0 0 0.014195046683503465 0.050287377372980002 0.0099607984717422493 0 0.0099607984717422493 0.03028700114058358 0 0 0 0.020143594628390826 0.050723193690703328 0.014082457658402658 0 0.014082457658402658 0.028131766163248528 0 0 0 0.019713739963488131 0.064288581972784975 0.014796369549661348 0 0.014796369549661348 0.037120673452789354 0 0 0 0.02535231385639336 0.052154425526830028 0.01089576247242155 0 0.01089576247242155 0.03693918774446292 0 0 0 0.022273403317823348 0.077766765477643274 0.0072232527436002503 0 0.0072232527436002503 0.05416139425494304 0 0 0 0.032982039933146412 0.078054274900960952 0.013409367367624714 0 0.013409367367624714 0.052687664379885035 0 0 0 0.032685484820211608 0.073853090260817655 0.014203881113030281 0 0.014203881113030281 0.04022877366805 0 0 0 0.028520465982217136 0.084998744344391364 0.010630305300279419 0 0.010630305300279419 0.056707169461372109 0 0 0 0.035426478451440646 0.09380311438175748 0.0058466338437150878 0 0.0058466338437150878 0.075862240586194396 0 0 0 0.04241633874198758 0.086367927974246861 0.002369638207906144 0 0.002369638207906144 0.069251851181755697 0 0 0 0.038904944789000639 0.093835032612971769 0.0081840307931100309 0 0.0081840307931100309 0.081039387226494064 0 0 0 0.043718604959866347 0.071502094799027471 0.010373610522175669 0 0.010373610522175669 0.052375887314424413 0 0 0 0.030969495528363027 0.081041934422882766 0.0065371347851332917 0 0.0065371347851332917 0.069396943439052117 0 0 0 0.03760971946548386 0.097790079689123122 -0.0026298975381424672 0 -0.0026298975381424672 0.089925818313048467 0 0 0 0.046928974500542786 0.086165285416669679 -0.0034069136484746743 0 -0.0034069136484746743 0.089355979002927022 0 0 0 0.043880316104899508 0.10648792730193213 0.0026283188086899667 0 0.0026283188086899667 0.09195904118688869 0 0 0 0.049611742122205538 0.10053694005820413 0.0007363837494904768 0 0.0007363837494904768 0.091304491360287621 0 0 0 0.047960357854622604 0.11025583559527696 -0.0051838573079530104 0 -0.0051838573079530104 0.11585770612401802 0 0 0 0.056528385429823302 0.12494535568143963 0.0033993913560346201 0 0.0033993913560346201 0.11921795511434319 0 0 0 0.061040827698946393 0.099414520675824125 -0.0070594823526692885 0 -0.0070594823526692885 0.10342177601371283 0 0 0 0.050709074172384128 0.083822099178013421 -0.00029833571609638732 0 -0.00029833571609638732 0.092200608644170678 0 0 0 0.044005676955546136 0.048960529411785192 0.0017122488683633159 0 0.0017122488683633159 0.038700472971746613 0 0 0 0.021915250595883062 0.056203633674061004 0.00068074529369499537 0 0.00068074529369499537 0.060429785758596921 0 0 0 0.029158354858164648 0.073638764435878912 -0.004660731737347934 0 -0.004660731737347934 0.064191831229736707 0 0 0 0.034457648916404349 0.050415562019272109 0.0017565482968503326 0 0.0017565482968503326 0.036525869435256375 0 0 0 0.021735357863632121 0.077065091913883998 -0.0019929890712138132 0 -0.0019929890712138132 0.061895640731985502 0 0 0 0.03474018316146732 0.056911529490524804 0.0016691364542740228 0 0.0016691364542740228 0.056150610287718283 0 0 0 0.028265534944560522 0.073181173818790635 -0.00030612526603313039 0 -0.00030612526603313039 0.056257073495733501 0 0 0 0.0323595618286312 0.036154190271320052 0.0025613143587661646 0 0.0025613143587661646 0.03305592484915687 0 0 0 0.017302528780119064 0.020015082319358557 0.0010677410351589423 0 0.0010677410351589423 0.020519300166385257 0 0 0 0.010133595621435676 0.029827107789520912 0.00060434994150238008 0 0.00060434994150238008 0.024544519654375208 0 0 0 0.013592906860973919 0.020674026563987091 0.003664636644003183 0 0.003664636644003183 0.021456454069914699 0 0 0 0.010532620158475225 0.033670016364605315 0.0012240096769180475 0 0.0012240096769180475 0.03610733651740361 0 0 0 0.017444338220502065 0.036104248888983559 -0.0025769211810668935 0 -0.0025769211810668935 0.034491004535170511 0 0 0 0.01764881335603885 0.025390728938366802 -0.00090836165413543668 0 -0.00090836165413543668 0.019513407372245162 0 0 0 0.011226034077653324 0.031589891141816651 0.0017494385645752675 0 0.0017494385645752675 0.023847163267179283 0 0 0 0.013859263602248539 0.024241100707910634 0.0023588520199031571 0 0.0023588520199031571 0.023874147623792474 0 0 0 0.012028812082925944 0.020472115133232105 0.00019801238342975758 0 0.00019801238342975758 0.018230337396857976 0 0 0 0.0096756131325226313 0.018069293846558809 0.0014566630952490556 0 0.0014566630952490556 0.017655599544585177 0 0 0 0.0089312233477861214 0.016669639141994264 0.00064189649575330243 0 0.00064189649575330243 0.014395506915469092 0 0 0 0.0077662865143657278 0.013189337669142098 0.0011720550113270001 0 0.0011720550113270001 0.014591099716892764 0 0 0 0.0069451093465087155 0.016362053010379185 0.0020118820689134509 0 0.0020118820689134509 0.015957315817201945 0 0 0 0.0080798422068950604 0.011942965512939496 0.0020019661183818815 0 0.0020019661183818815 0.016265653743839259 0 0 0 0.0070521548141944113 0.017294156131729244 0.00028680637743017101 0 0.00028680637743017101 0.016753590768372573 0 0 0 0.0085119367250254818 0.0087628274676054829 0.00082816873901103705 0 0.00082816873901103705 0.015275955212247894 0 0 0 0.0060096956699633441 0.069483320523418046 0.013383673831833059 0 0.013383673831833059 0.041112963120784163 0 0 0 0.027649070911050622 0.08312295080942822 0.013622879174795988 0 0.013622879174795988 0.066289008101704239 0 0 0 0.037352989727783115 0.080793413415970627 0.017230690788660907 0 0.017230690788660907 0.06047674599688696 0 0 0 0.035317539853214452 0.077464466249374975 0.017692124896501862 0 0.017692124896501862 0.058345894644987073 0 0 0 0.033952590223590484 0.067828190215389564 0.014482506895377334 0 0.014482506895377334 0.040909882039498968 0 0 0 0.027184518063722147 0.059701980132491894 0.0099734728146275986 0 0.0099734728146275986 0.030370951779584265 0 0 0 0.022518232978019026 0.06069826449036303 0.007640442631818567 0 0.007640442631818567 0.030451866184506793 0 0 0 0.022787532668717525 0.06485160027129451 0.010118583535317111 0 0.010118583535317111 0.031295234945492384 0 0 0 0.024036708804196796 0.059581632027200043 0.0068535572835197456 0 0.0068535572835197456 0.021670261872404062 0 0 0 0.020312973474901075 0.060180889046170374 0.0029494954077948776 0 0.0029494954077948776 0.020266350349385925 0 0 0 0.020111809848889092 0.070627292679224268 0.0091493308189332379 0 0.0091493308189332379 0.033266540228173547 0 0 0 0.025973458226849461 0.070010309871171766 0.012693251340890888 0 0.012693251340890888 0.032792479989695811 0 0 0 0.025700697465216887 0.0669888835382067 0.011473019550895441 0 0.011473019550895441 0.039080327214700866 0 0 0 0.026517302688226864 0.07700189354417708 0.013072034632994787 0 0.013072034632994787 0.05374997613916932 0 0 0 0.032687967420836572 0.074895631149691583 0.015066935314065721 0 0.015066935314065721 0.049400950103745955 0 0 0 0.031074145313359419 0.081508866967759191 0.010842201585409855 0 0.010842201585409855 0.068574087080311041 0 0 0 0.037520738512017565 0.082726151441633006 0.0068222942589034885 0 0.0068222942589034885 0.088241678041787397 0 0 0 0.042741957370855094 0.096047924186239642 0.007145477138093298 0 0.007145477138093298 0.10219809335195562 0 0 0 0.049561504384548816 0.086847930333291135 0.01572292001200884 0 0.01572292001200884 0.077747983735061699 0 0 0 0.041148978517088208 0.10164500050104097 0.0094847795353674158 0 0.0094847795353674158 0.080600691878415565 0 0 0 0.045561423094863995 0.10908328916097876 0.0033545817459842363 0 0.0033545817459842363 0.099502212072321683 0 0 0 0.052146375308324888 0.086955132158602927 0.010604589190757824 0 0.010604589190757824 0.096220021302662051 0 0 0 0.045793788365316251 0.036357270105935167 0.0050041926787620997 0 0.0050041926787620997 0.10887187948770324 0 0 0 0.036307287398409605 0.097945812462734816 0.004934530366674128 0 0.004934530366674128 0.077653574769848799 0 0 0 0.043899846808145737 0.10578715812023853 0.0065228123112119896 0 0.0065228123112119896 0.10287493468356113 0 0 0 0.052165523200949915 0.10542641249140017 0.0010751925765583037 0 0.0010751925765583037 0.10595187158469077 0 0 0 0.052844571019022624 0.040902049450657889 0.0051527725112148013 0 0.0051527725112148013 0.12251206073380251 0 0 0 0.040853527546115098 0.10614340293044847 0.011408414283028245 0 0.011408414283028245 0.10983938281913375 0 0 0 0.053995696437395546 0.11627377614487688 0.0037004709825187998 0 0.0037004709825187998 0.1079022841471815 0 0 0 0.056044015073014375 0.045601141284867294 0.0051895642584369062 0 0.0051895642584369062 0.13644217073889822 0 0 0 0.045510828005941376 0.11040220041094229 0.0070665068511484019 0 0.0070665068511484019 0.10627134321346532 0 0 0 0.054168385906101846 0.089387097040729946 0.012731964942384846 0 0.012731964942384846 0.083519715756418478 0 0 0 0.043226703199287175 0.10669657599506308 0.0093712515268696006 0 0.0093712515268696006 0.11517346739837209 0 0 0 0.055467510848358742 0.092472396208183677 0.019009449555650038 0 0.019009449555650038 0.083826733075425763 0 0 0 0.044074782320902367 0.10144589760175651 0.014225299901372224 0 0.014225299901372224 0.087584261058501922 0 0 0 0.047257539665064602 0.10997836011589196 0.018362043504167855 0 0.018362043504167855 0.10335761420168788 0 0 0 0.053333993579394945 0.099208632876791242 0.01225652543026251 0 0.01225652543026251 0.088239177093419233 0 0 0 0.046861952492552622 0.12557344092557135 0.012527490344054842 0 0.012527490344054842 0.11986961691448572 0 0 0 0.061360764460014289 0.124720897038189 0.0068461432205789846 0 0.0068461432205789846 0.12874672976802792 0 0 0 0.063366906701554204 0.12098110170004532 0.0073230775575370832 0 0.0073230775575370832 0.10937146017067373 0 0 0 0.057588140467679835 0.12400083337845103 -0.0010685397767919991 0 -0.0010685397767919991 0.12632618226839654 0 0 0 0.062581753911711946 0.050281270357868738 0.0051176052907483064 0 0.0051176052907483064 0.15097032272552605 0 0 0 0.050312898270848699 0.14804217603008296 0.010494032351912375 0 0.010494032351912375 0.13395743604936944 0 0 0 0.070499903019863142 0.13717986251129397 0.0041758264122355726 0 0.0041758264122355726 0.13072176548268449 0 0 0 0.066975406998494566 0.11943683776483827 -0.0017132003393011686 0 -0.0017132003393011686 0.12798997821937252 0 0 0 0.061856703996052476 0.13569574928721101 0.0069359373864266161 0 0.0069359373864266161 0.13572532475941967 0 0 0 0.06785526851165774 0.056339791107986058 0.0050627923553516248 0 0.0050627923553516248 0.16710478293910422 0 0 0 0.055861143511772557 0.15599024844346898 -0.00030758472929237612 0 -0.00030758472929237612 0.14823409762113471 0 0 0 0.076056086516150589 0.13665490460765883 -0.0034331971962577867 0 -0.0034331971962577867 0.14878355656036746 0 0 0 0.07135961529200685 0.10287218447425855 0.016927968632784618 0 0.016927968632784618 0.092494193533542379 0 0 0 0.048841594501950247 0.13253431658265619 0.011800800973700565 0 0.011800800973700565 0.1402197730236886 0 0 0 0.068188522401586238 0.15679555001628989 0.0027775584302457096 0 0.0027775584302457096 0.14305131811059368 0 0 0 0.074961717031720887 0.13403570779902962 0.0094765624800435266 0 0.0094765624800435266 0.13907818315998977 0 0 0 0.068278472739754847 0.11767184674524495 0.0023145258195191795 0 0.0023145258195191795 0.096834318893353588 0 0 0 0.053626541409649675 0.072220039157152971 0.0095757599177923314 0 0.0095757599177923314 0.054472722942505991 0 0 0 0.031673190524914741 0.096726036482862154 0.0099195128989544856 0 0.0099195128989544856 0.084635305126515514 0 0 0 0.045340335402344445 0.082983129175421999 0.0073999862393789419 0 0.0073999862393789419 0.04345989058826627 0 0 0 0.031610754940922081 0.088656559394809403 0.0092392036332829552 0 0.0092392036332829552 0.076068580911844763 0 0 0 0.041181285076663438 0.079046719117390973 0.012838640142681365 0 0.012838640142681365 0.049956717494564318 0 0 0 0.03225085915298892 0.072164068141006732 0.015846171990065952 0 0.015846171990065952 0.048425170786472904 0 0 0 0.030147309731869854 0.077357563855321748 0.012924064558967163 0 0.012924064558967163 0.058931302808299849 0 0 0 0.034072216665905403 0.088655549510688936 0.019220011292735956 0 0.019220011292735956 0.072289249517293652 0 0 0 0.040236199756995716 0.062603288511236088 0.011500127557166895 0 0.011500127557166895 0.035465491482241873 0 0 0 0.024517194998369518 0.063434814639630063 0.01142011827212136 0 0.01142011827212136 0.039524804994962318 0 0 0 0.025739904908648123 0.064209887365193147 0.012495290823784228 0 0.012495290823784228 0.040376561583722159 0 0 0 0.026146612237228861 0.068191810949971232 0.0099317439446130473 0 0.0099317439446130473 0.047860718593626103 0 0 0 0.029013132385899358 0.057340893390651904 0.0076237371121758435 0 0.0076237371121758435 0.031735093221301636 0 0 0 0.022268996652988315 0.062121359372910384 0.0042018702799299645 0 0.0042018702799299645 0.029027607082615148 0 0 0 0.022787241613881487 0.060329941163743128 0.0065047724040138977 0 0.0065047724040138977 0.013659222889645051 0 0 0 0.018497291013347128 0.056802758098928929 0.0024915371472494785 0 0.0024915371472494785 0.020962757547681399 0 0 0 0.01944137891165254 0.057805874897707166 0.00022260339526736228 0 0.00022260339526736228 0.0027692473735272394 0 0 0 0.015143780567808629 0.06141517630239457 0.0046860177744433573 0 0.0046860177744433573 0.021716078895000601 0 0 0 0.020782813799348765 0.055033387655254201 0.0023417820183745941 0 0.0023417820183745941 0.026889307431501697 0 0 0 0.020480673771689023 0.058327608656102203 0.0065984509958539328 0 0.0065984509958539328 0.023255047576045407 0 0 0 0.020395664058036944 0.09125434227928475 -0.0079493391553572997 0 -0.0079493391553572997 0.048983595707623007 0 0 0 0.035059484496726967 0.081527328299168755 -0.00064293395852471624 0 -0.00064293395852471624 0.019710202860877601 0 0 0 0.025309382790011603 0.066800003965061305 -0.0028019265051122677 0 -0.0028019265051122677 0.032551343501521446 0 0 0 0.024837836866645702 0.080353877229850601 -0.0001496595033150111 0 -0.0001496595033150111 0.055967188926564493 0 0 0 0.034080266539103732 0.074290853208097779 -0.0010489330599406377 0 -0.0010489330599406377 0.035838561783409939 0 0 0 0.027532353747876964 0.066741207467886671 0.00076358530590631135 0 0.00076358530590631135 0.037143878734291313 0 0 0 0.025971271550544489 0.069177586182863793 0.00031115772708686928 0 0.00031115772708686928 0.046731066580360414 0 0 0 0.028977163190806066 0.082196171377656002 -0.0055316376456689409 0 -0.0055316376456689409 0.052633868647563475 0 0 0 0.033707510006304786 0.063149233230323634 0.0049245348252826004 0 0.0049245348252826004 0.031278179031238862 0 0 0 0.023606853065390579 0.061970336398771003 0.0020106317612191282 0 0.0020106317612191282 0.037837278493144444 0 0 0 0.024951903722978952 0.055355678007431464 0.0065478718607286379 0 0.0065478718607286379 0.030532245440073935 0 0 0 0.02147198086187635 0.06052373221245945 0.0068348029518695563 0 0.0068348029518695563 0.032088044334140475 0 0 0 0.023152944136650047 0.058157565026439373 0.0059913010806018352 0 0.0059913010806018352 0.02524991448592806 0 0 0 0.0208518698780919 0.061142187048687513 0.0043189696789066312 0 0.0043189696789066312 0.031300233914465014 0 0 0 0.023110605240788118 0.058422987466169973 0.002734945348929263 0 0.002734945348929263 0.028477731739573908 0 0 0 0.021725179801436012 0.05714989803999454 0.0050354044243394736 0 0.0050354044243394736 0.030100708283690158 0 0 0 0.021812651580921161 0.062971482912586113 0.00016920477174670046 0 0.00016920477174670046 0.034147556709855365 0 0 0 0.024279759905610293 0.06094069119018275 0.0014910248128655323 0 0.0014910248128655323 0.03588557850767371 0 0 0 0.024206567424464198 0.069834407471451643 -0.0039881127651792414 0 -0.0039881127651792414 0.045648775074708797 0 0 0 0.028870795636540152 0.073075728167315057 -0.0027729050884209155 0 -0.0027729050884209155 0.054339338344593147 0 0 0 0.03185376662797712 0.063248100214240155 -0.00010516532860560535 0 -0.00010516532860560535 0.035832414960644599 0 0 0 0.024770128793721147 0.058402909228827987 -0.0011581274064354774 0 -0.0011581274064354774 0.026732643900075792 0 0 0 0.021283888282225966 0.062702671763835316 -0.0039208616965163423 0 -0.0039208616965163423 0.037488983464626785 0 0 0 0.025047913807115511 0.06488174201304045 -0.0038905325296941448 0 -0.0038905325296941448 0.044453743109637234 0 0 0 0.027333871280669414 0.060171364178825029 -0.0037445821944583901 0 -0.0037445821944583901 0.028131020132244819 0 0 0 0.022075596077767476 0.055971869355339599 -0.0024851476614878507 0 -0.0024851476614878507 0.016346901918734114 0 0 0 0.0180796928185184 0.062005205425610686 0.00045129622059664198 0 0.00045129622059664198 0.021813058289047182 0 0 0 0.020954565928664425 0.057776895754574453 0.0026871849571558637 0 0.0026871849571558637 0.020580785517708478 0 0 0 0.01958942031807076 0.062289032586374353 0.0052185699113719841 0 0.0052185699113719841 0.026648956814314541 0 0 0 0.022234497350172237 0.061314602743373012 0.0007104735256497352 0 0.0007104735256497352 0.028575827652920216 0 0 0 0.022472607599073255 0.077451547144789079 -0.011457003821359724 0 -0.011457003821359724 0.071271300882228772 0 0 0 0.037180712006754546 0.024965741226681559 -0.007109720638159395 0 -0.007109720638159395 0.074716816289022936 0 0 0 0.024920639378926121 0.085419347967904791 -0.0091926986863037907 0 -0.0091926986863037907 0.064319475353765698 0 0 0 0.037434705830417581 0.077833599924332822 -0.0095146771872056946 0 -0.0095146771872056946 0.065137278234625617 0 0 0 0.035742719539739634 0.067431843976909545 -0.0067380522241931445 0 -0.0067380522241931445 0.060588398788582021 0 0 0 0.032005060691372933 0.062962269543856808 -0.0092298973167456166 0 -0.0092298973167456166 0.041786586108027796 0 0 0 0.026187213912971151 0.064031034381096613 -0.0085269579536164375 0 -0.0085269579536164375 0.044603403446213608 0 0 0 0.027158609456827493 0.071561593549400421 -0.0058188103738478492 0 -0.0058188103738478492 0.047653394648622172 0 0 0 0.029803747049505697 0.082385636975223053 -0.0043370528403312569 0 -0.0043370528403312569 0.071551478015974834 0 0 0 0.038484278747799472 0.077451770146619914 -0.0076027329862368986 0 -0.0076027329862368986 0.065578734674260897 0 0 0 0.035757626205220105 0.089244037968347081 -0.005021148026207789 0 -0.005021148026207789 0.066410456253349293 0 0 0 0.038913623555424118 0.082807672519067677 -0.0083142663433017905 0 -0.0083142663433017905 0.063754076024117534 0 0 0 0.036640437135796344 0.096305922836917968 -0.0066159550418261326 0 -0.0066159550418261326 0.087406420593976186 0 0 0 0.045928085857723511 0.11498460416227227 -0.0087959869511508582 0 -0.0087959869511508582 0.090819408065243468 0 0 0 0.051451003056878913 0.084399342137995714 -0.007645174448421721 0 -0.007645174448421721 0.076666013295212387 0 0 0 0.040266338858302109 0.0885713413153012 -0.014523768206785248 0 -0.014523768206785248 0.077566233483536973 0 0 0 0.041534393699709682 0.034474339248144074 -0.0070855282669410793 0 -0.0070855282669410793 0.10314918477921046 0 0 0 0.03440588100683864 0.095820312782658956 -0.0093531222356369459 0 -0.0093531222356369459 0.079759369280713033 0 0 0 0.043894920515842928 0.093739856089125828 -0.0096559656269075908 0 -0.0096559656269075908 0.076253557930432869 0 0 0 0.04249835350488973 0.029483588542014418 -0.0071765181233104259 0 -0.0071765181233104259 0.088256320389128992 0 0 0 0.029434977232785854 0.10785079765206729 -0.0051372331030508089 0 -0.0051372331030508089 0.095612303761328121 0 0 0 0.050865775353348797 0.039942520241241154 -0.006855122612320564 0 -0.006855122612320564 0.11967612226754122 0 0 0 0.039904660627195589 0.13892496771356164 -0.0076005647787346642 0 -0.0076005647787346642 0.10498151528633315 0 0 0 0.060976620749973703 0.12219023904392096 -0.0098383654292555356 0 -0.0098383654292555356 0.10066217878602375 0 0 0 0.055713104457486173 0.10761146323584758 -0.004662146354123875 0 -0.004662146354123875 0.096819889019843508 0 0 0 0.051107838063922717 0.089076212014566419 -0.0018956148962865904 0 -0.0018956148962865904 0.067999789131239746 0 0 0 0.039269000286451611 0.10366069059234378 -0.0094276430813347856 0 -0.0094276430813347856 0.077961882907594759 0 0 0 0.04540564337498465 0.11324213760260426 -0.0040185052298772339 0 -0.0040185052298772339 0.10027553139188328 0 0 0 0.053379417248621885 0.11382834669655609 -0.00043862848348158456 0 -0.00043862848348158456 0.082937614327121004 0 0 0 0.049191490255919318 0.098965762561860876 -0.0087453044655825818 0 -0.0087453044655825818 0.063517634972331205 0 0 0 0.040620849383548013 0.12739892133217262 -0.0093253723111013931 0 -0.0093253723111013931 0.10829510952815058 0 0 0 0.058923507715080814 0.15436140701955947 -0.0021694887416081055 0 -0.0021694887416081055 0.11287545288685635 0 0 0 0.066809214976603901 0.13100772036254837 -0.0107184445646267 0 -0.0107184445646267 0.10205369416725862 0 0 0 0.058265353632451722 0.11417507095192747 0.0023929410888791636 0 0.0023929410888791636 0.068117253405359554 0 0 0 0.045573081089321732 0.12800564887456811 -0.011165622848802403 0 -0.011165622848802403 0.10527538621195687 0 0 0 0.058320258771631273 0.046404839881137909 -0.0066996204929987979 0 -0.0066996204929987979 0.13837527796437768 0 0 0 0.046195029461378899 0.15481496344213141 -0.0027529763655318408 0 -0.0027529763655318408 0.1194708875097259 0 0 0 0.068571462737964328 0.13428741204008987 0.0026123234810400131 0 0.0026123234810400131 0.1139533362151699 0 0 0 0.062060187063814887 0.11954796838547291 -0.0059128978705533797 0 -0.0059128978705533797 0.087373869943733862 0 0 0 0.051730459582301519 0.095411693729866132 0.0045938876857083422 0 0.0045938876857083422 0.069831872247138271 0 0 0 0.041310891494251267 0.092770164724358839 -0.0066161357333701654 0 -0.0066161357333701654 0.0663592333544889 0 0 0 0.039782349519711824 0.10499542074735527 0.00035782901143788237 0 0.00035782901143788237 0.083659586647621687 0 0 0 0.047163751848744356 0.074655952105878498 -0.0028634077222782217 0 -0.0028634077222782217 0.061394396295777476 0 0 0 0.034012587100413771 0.046744699380700805 -0.005690339787273957 0 -0.005690339787273957 0.037036609094699635 0 0 0 0.020945327118850221 0.043317838005728637 -0.0067670742021100835 0 -0.0067670742021100835 0.026756024969834868 0 0 0 0.01751846574389071 0.066808431517004552 -3.1328236029165568e-05 0 -3.1328236029165568e-05 0.039423198599279452 0 0 0 0.026557907529070945 0.067634151166973022 -0.0083831059461938473 0 -0.0083831059461938473 0.04409303153850086 0 0 0 0.027931795676368387 0.043199222498096157 -0.012209090746695274 0 -0.012209090746695274 0.037915213584456264 0 0 0 0.020278609020638161 0.038800032853006927 -0.010699714349416634 0 -0.010699714349416634 0.02530737549651052 0 0 0 0.016026852087379417 0.054458920936700017 -0.010976727716379697 0 -0.010976727716379697 0.038518564638094999 0 0 0 0.023244371393698615 0.079354111208361458 -0.008381781032381741 0 -0.008381781032381741 0.064320223543666732 0 0 0 0.035918583688007058 0.094882853774686859 -0.012147494547628368 0 -0.012147494547628368 0.06829650136378751 0 0 0 0.040794838784618426 0.074402140475386624 -0.005362732083975752 0 -0.005362732083975752 0.061638164808458851 0 0 0 0.034010076320961313 0.013190652524631252 -0.0028724171433291978 0 -0.0028724171433291978 0.01359459282156239 0 0 0 0.006696311336548133 0.010455890266833245 -0.0016188108860517693 0 -0.0016188108860517693 0.011350007210798374 0 0 0 0.0054514743694074053 0.013499390135693129 -0.00097629464996362714 0 -0.00097629464996362714 0.011712155382262241 0 0 0 0.006302886379488842 0.015505024240596965 -0.0021223756088927237 0 -0.0021223756088927237 0.013356618344622539 0 0 0 0.0072154106463049317 0.014108429088679708 -0.0026392670376631511 0 -0.0026392670376631511 0.012985505796844876 0 0 0 0.0067734837213813126 0.019308133814270212 -0.0054307285876008526 0 -0.0054307285876008526 0.015325408112437877 0 0 0 0.0086583854816768557 0.027908285884026052 -0.0040773748609916893 0 -0.0040773748609916893 0.016706785549663206 0 0 0 0.011153767858422148 0.020255306885194058 -0.0010725032162230974 0 -0.0010725032162230974 0.012520423098304256 0 0 0 0.0081939324958741899 0.029442026195070085 -0.0014583808006816135 0 -0.0014583808006816135 0.019478698335596574 0 0 0 0.01223018113266683 0.024790181570529146 -0.0082287555269902057 0 -0.0082287555269902057 0.021455889662829852 0 0 0 0.011561517808339694 0.019324614128305995 -0.011974071525113095 0 -0.011974071525113095 0.020702914350376744 0 0 0 0.010006882119670713 0.0051988347800588364 -0.0075554448690560161 0 -0.0075554448690560161 0.013132671143272712 0 0 0 0.0045828764808326095 0.022404710822059554 -0.0062073551337167299 0 -0.0062073551337167299 0.016670892094334366 0 0 0 0.0097689007290984453 0.013924304937236842 -0.0085874277514372821 0 -0.0085874277514372821 0.01617801736435398 0 0 0 0.0075255805753977612 0.0090954597968451456 -0.0029570557684679422 0 -0.0029570557684679422 0.012247245030101939 0 0 0 0.0053356762067367225 -0.0027576929628000866 -0.0036688843638219559 0 -0.0036688843638219559 0.010291468244663066 0 0 0 0.0018834438204656336 0.0060641270082342213 -0.0036705596537280893 0 -0.0036705596537280893 0.013232073813830514 0 0 0 0.0048240502055161283 -0.013998515449886839 -0.0048922886202773519 0 -0.0048922886202773519 0.011105499991896473 0 0 0 -0.00072325386449734186 0.0058603372794407971 -0.0068641290760865781 0 -0.0068641290760865781 0.013284606380280728 0 0 0 0.0047862359149303257 0.0036466531852229478 -0.010469733356007205 0 -0.010469733356007205 0.011721731258965917 0 0 0 0.003842096111047244 -0.0079694031533927429 -0.0046844289440588494 0 -0.0046844289440588494 0.0082806876101015336 0 0 0 7.7821114177353823e-05 0.0031109716429782441 -0.011829483566100363 0 -0.011829483566100363 0.013524819951758027 0 0 0 0.0041589478986838735 0.017663689480820532 -0.013188027329402385 0 -0.013188027329402385 0.017454176407097677 0 0 0 0.0087794664719795801 0.014203260693889774 -0.01670193759453506 0 -0.01670193759453506 0.015581090439499068 0 0 0 0.0074460877833473216 0.01622005228907164 -0.015671377294740302 0 -0.015671377294740302 0.020629288775418253 0 0 0 0.0092123352661226399 0.0024210685574472812 -0.012816339611633643 0 -0.012816339611633643 0.011938097325880914 0 0 0 0.0035897914708318268 0.0013636951229268959 -0.016372043538601666 0 -0.016372043538601666 0.013923404858122934 0 0 0 0.0038217749952623795 0.013959864505286301 -0.019524146640974738 0 -0.019524146640974738 0.018571032569072443 0 0 0 0.0081327242685896861 -0.0044792495643555252 -0.016114817893686406 0 -0.016114817893686406 0.010501052178291337 0 0 0 0.0015054506534839529 -0.011419165517492003 -0.0096158248674260705 0 -0.0096158248674260705 0.010455896054099245 0 0 0 -0.00024081736584824487 -0.015594528804070196 -0.0075821654022250051 0 -0.0075821654022250051 0.0073342351533776107 0 0 0 -0.0020650734126731463 -0.017493899914397315 -0.0082693305325066691 0 -0.0082693305325066691 0.010407188439071735 0 0 0 -0.0017716778688314783 -0.028947674955351832 -0.0043827095187141119 0 -0.0043827095187141119 0.0073006787969518427 0 0 0 -0.0054117490396001222 -0.013446114090374994 -0.0038194234658905923 0 -0.0038194234658905923 0.0095102718268131881 0 0 0 -0.00098396056589056258 0.06198174482046237 -0.015629859056969009 0 -0.015629859056969009 0.044020948544830851 0 0 0 0.026500673341323444 0.051758953629724269 -0.014625453942445521 0 -0.014625453942445521 0.0455973389880584 0 0 0 0.024339073154445612 0.067151253492687468 -0.016653688092082786 0 -0.016653688092082786 0.059291159608497956 0 0 0 0.031610603275296301 0.063529560875513313 -0.017335748998214107 0 -0.017335748998214107 0.048833656014864335 0 0 0 0.028090804222594357 0.034261678570162934 -0.015556685610102483 0 -0.015556685610102483 0.031415897446116281 0 0 0 0.016419394004069554 0.031619143208034939 -0.014996258837103871 0 -0.014996258837103871 0.023217200999109178 0 0 0 0.013709086051786112 0.046576835292012841 -0.017490851592602025 0 -0.017490851592602025 0.031574081755483707 0 0 0 0.019537729261874137 0.038680516994883285 -0.019993727238789338 0 -0.019993727238789338 0.026228647576951758 0 0 0 0.016227291142958844 0.028060005928379927 -0.01804660279553516 0 -0.01804660279553516 0.02716797446054986 0 0 0 0.013806995097232544 0.024985973473473311 -0.016286371795291021 0 -0.016286371795291021 0.019267661073948394 0 0 0 0.011063408636855621 0.024050879515004064 -0.016685694347048918 0 -0.016685694347048918 0.022625923835164818 0 0 0 0.011669200837542082 0.053799277356616937 -0.017782000247524965 0 -0.017782000247524965 0.035583656905242567 0 0 0 0.022345733565464876 0.042995892063882879 -0.017276802523900688 0 -0.017276802523900688 0.038858349524586888 0 0 0 0.020463560397117053 0.071862634251846025 -0.012281697647784334 0 -0.012281697647784334 0.053506828712555965 0 0 0 0.031342365741100497 0.057451172159829311 -0.016716822873486969 0 -0.016716822873486969 0.047081569119706401 0 0 0 0.026133185319884178 0.065181862398581703 -0.012980074947935072 0 -0.012980074947935072 0.044201853579229899 0 0 0 0.027345928994452873 0.051380724187106153 -0.019549832678389722 0 -0.019549832678389722 0.033870285069720341 0 0 0 0.021312752314206596 0.053011874510623946 -0.015520457499531681 0 -0.015520457499531681 0.034414001844228048 0 0 0 0.021856469088713082 0.059502868779834128 -0.017672029907363496 0 -0.017672029907363496 0.033294025092290624 0 0 0 0.023199223468031271 0.037288518218088207 -0.022472813051506391 0 -0.022472813051506391 0.024272180328802628 0 0 0 0.015390174636722764 0.042537285500554495 -0.016466541840145399 0 -0.016466541840145399 0.033435482542990336 0 0 0 0.018993192010886145 0.036163012370812431 -0.02213494965446744 0 -0.02213494965446744 0.023065173011738604 0 0 0 0.014807046345637787 0.017032018561444429 -0.021915482582943874 0 -0.021915482582943874 0.016355555555187085 0 0 0 0.0083468935291578505 0.012080112478587535 -0.017299637039934312 0 -0.017299637039934312 0.014474602736222586 0 0 0 0.0066386788037025024 0.034266045581985899 -0.018206875926180199 0 -0.018206875926180199 0.022820164036239404 0 0 0 0.014271552404556492 0.02066255267018946 -0.024854212051294955 0 -0.024854212051294955 0.015757877975796752 0 0 0 0.0091051076614966364 0.029893792811742315 -0.019425711306725879 0 -0.019425711306725879 0.017935119343861272 0 0 0 0.011957228038900869 0.010151820411122059 -0.021178650555740863 0 -0.021178650555740863 0.011474476055252536 0 0 0 0.005406574116593732 0.011413667733840505 -0.024315253271825432 0 -0.024315253271825432 0.017103861863103864 0 0 0 0.0071293823992360505 0.05320452655547693 -0.022120079035014228 0 -0.022120079035014228 0.023508658406195648 0 0 0 0.019178296240418127 0.05630859356331408 -0.017532817229625838 0 -0.017532817229625838 0.028197693786279565 0 0 0 0.0211265718373983 0.052537098539713445 -0.016657523135380742 0 -0.016657523135380742 0.033358491886025909 0 0 0 0.021473897606434811 0.031084812617248769 -0.023946847384005099 0 -0.023946847384005099 0.020563089972009174 0 0 0 0.0129119756473145 0.04975248797366516 -0.018827887009667595 0 -0.018827887009667595 0.025882613848191571 0 0 0 0.018908775455464211 -0.031551681178063617 -0.0087567589237841359 0 -0.0087567589237841359 0.0082507679325320993 0 0 0 -0.0058252283113828796 -0.041120812282553765 -0.0052293983205559114 0 -0.0052293983205559114 0.0048932972008201431 0 0 0 -0.0090568787704334332 -0.030043382482472542 -0.0047522631331244902 0 -0.0047522631331244902 0.0057601828487104101 0 0 0 -0.0060707999084406439 -0.043287705069074978 -0.0060341465827532439 0 -0.0060341465827532439 0.0082761290151998068 0 0 0 -0.0087528940134686817 -0.019349575937440688 -0.0073978640769712944 0 -0.0073978640769712944 0.0050144505907470105 0 0 0 -0.003583781336673364 -0.0057962517189426022 -0.014757018549088396 0 -0.014757018549088396 0.0098356160634531786 0 0 0 0.0010098410861275608 -0.019379120080960766 -0.01508174519320294 0 -0.01508174519320294 0.0094206139823476143 0 0 0 -0.0024896265246532323 0.00079560346670304316 -0.01491736489351192 0 -0.01491736489351192 0.010404039824814637 0 0 0 0.0027999108228793368 -0.0037047092931143943 -0.021804603722525129 0 -0.021804603722525129 0.012339263848011317 0 0 0 0.0021586386387242307 -0.0085814038602198828 -0.019738942016141847 0 -0.019738942016141847 0.010289210053475939 0 0 0 0.00042695154831395854 -0.0050483650775116958 -0.017199187396384596 0 -0.017199187396384596 0.011720854713633218 0 0 0 0.0016681224090303818 -0.007050250458418561 -0.02342795694560415 0 -0.02342795694560415 0.013647589217265832 0 0 0 0.001649334689711901 -0.016119640607419636 -0.014088130797054954 0 -0.014088130797054954 0.0082204460951272526 0 0 0 -0.0019747986280732356 -0.027022361975416798 -0.017430517815673063 0 -0.017430517815673063 0.0087640572726979116 0 0 0 -0.0045645761756796244 -0.025571448716227962 -0.013997039890202401 0 -0.013997039890202401 0.0071897386175804323 0 0 0 -0.0045954275246618548 -0.025885407286004969 -0.01453686812866456 0 -0.01453686812866456 0.0083228391097769361 0 0 0 -0.004390642044057036 -0.046015076498939406 -0.0096792011740050032 0 -0.0096792011740050032 0.0061943005959813613 0 0 0 -0.0099551939757393793 -0.043329192791796867 -0.0054675753770547231 0 -0.0054675753770547231 0.0056863273337087739 0 0 0 -0.0094107163645220093 -0.055190764428351857 -0.0083718212749858134 0 -0.0083718212749858134 0.0063717397395657294 0 0 0 -0.012204756172196574 -0.085953442855691259 -0.0061278995991690954 0 -0.0061278995991690954 0.0049721997520670858 0 0 0 -0.02024531077590605 -0.067562270281939008 -0.0066476405977279329 0 -0.0066476405977279329 0.0057396679884613722 0 0 0 -0.01545565057336945 -0.055753937056739006 -0.0037612331408816146 0 -0.0037612331408816146 0.0044519907630998778 0 0 0 -0.012825486573409789 -0.047091105293431912 -0.015641517580911063 0 -0.015641517580911063 0.0093204639684418833 0 0 0 -0.0094426603312474655 -0.035972768745931138 -0.01132433174517028 0 -0.01132433174517028 0.0057356309280320872 0 0 0 -0.0075592844544747906 -0.012453235862327772 -0.016621899285117564 0 -0.016621899285117564 0.010198574220188439 0 0 0 -0.00056366541053481933 -0.016884335054137778 -0.021914508059845905 0 -0.021914508059845905 0.013881635459042752 0 0 0 -0.00075067489877378435 -0.015174654210481198 -0.020532312629162885 0 -0.020532312629162885 0.021174324972482506 0 0 0 0.0014999176905003408 -0.025560149812614771 -0.012573067872426902 0 -0.012573067872426902 0.0057306876064942558 0 0 0 -0.0049573655515300769 -0.027049502457466679 -0.015435515487827428 0 -0.015435515487827428 0.011209671706310598 0 0 0 -0.0039599576877890619 -0.044617936572041828 -0.0045388577147164322 0 -0.0045388577147164322 0.012360521135791558 0 0 0 -0.0080643538590625674 -0.042716641772414465 -0.015350109612787655 0 -0.015350109612787655 0.010666466818662679 0 0 0 -0.0080125437384379605 -0.058311694326672825 -0.0076097417374508813 0 -0.0076097417374508813 0.0051825430773524417 0 0 0 -0.013282287812330096 -0.054676823794435038 -0.0047127339757262465 0 -0.0047127339757262465 0.0049133070520423067 0 0 0 -0.012440879185598252 -0.086974066715088283 -0.0041182482663855713 0 -0.0041182482663855713 0.005368415568370255 0 0 0 -0.020401412786679507 0.032675822089962524 -0.022370995628361534 0 -0.022370995628361534 0.022930913744008533 0 0 0 0.013901683958492804 0.062104071168596148 -0.036779336472501867 0 -0.036779336472501867 0.039290538289681765 0 0 0 0.025348652364569485 0.031608189635349448 -0.026558823309487056 0 -0.026558823309487056 0.023419549191151967 0 0 0 0.013756934706625423 0.028233527538789049 -0.021260459627240887 0 -0.021260459627240887 0.016297576829257476 0 0 0 0.011132776092011687 0.0035567100812703423 -0.022711723229757258 0 -0.022711723229757258 0.013625448014080721 0 0 0 0.0042955395238377658 0.0053868896057993054 -0.023631082013161081 0 -0.023631082013161081 0.01935662090355017 0 0 0 0.0061858776273372995 0.024420211746331077 -0.029668414188834008 0 -0.029668414188834008 0.025676108573484457 0 0 0 0.01252408007995387 0.0041107003547687926 -0.017420784657411106 0 -0.017420784657411106 0.025212214657972853 0 0 0 0.007330728753185467 -0.022808435923385773 -0.011504243058488448 0 -0.011504243058488448 0.012365148362030509 0 0 0 -0.0026108218903387881 -0.01436544796080419 -0.008253719029232387 0 -0.008253719029232387 0.018229524344742232 0 0 0 0.00096601909598453828 -0.0020375832212055078 -0.023313745485421422 0 -0.023313745485421422 0.027626004821007411 0 0 0 0.0063971053999504479 0.028347087595087139 -0.02653280168893335 0 -0.02653280168893335 0.03568821034514949 0 0 0 0.016008824485059137 0.029575994314608084 -0.023925246326897184 0 -0.023925246326897184 0.037106753199642961 0 0 0 0.01667068687856274 0.053592999920025419 -0.033519474087362444 0 -0.033519474087362444 0.053872901065029372 0 0 0 0.026866475246263705 0.071696470199628312 -0.048653362286042612 0 -0.048653362286042612 0.10339857447350298 0 0 0 0.04377376116828284 -0.011318461319442641 0.015076166325196344 0 0.015076166325196344 0.05718377120221807 0 0 0 0.011466327470693843 0.15101458524930517 -0.050589523387924655 0 -0.050589523387924655 0.048736982183967381 0 0 0 0.049937891858318123 0.0039356484376043095 -0.0016057127618132792 0 -0.0016057127618132792 0.011528469519888868 0 0 0 0.0038660294893732954 0.078820940289816982 -0.022783016421186575 0 -0.022783016421186575 0.014551526134828463 0 0 0 0.023343116606161368 0.074484448129039205 -0.0194258708824597 0 -0.0194258708824597 0.025879714153178357 0 0 0 0.025091040570554335 0.0096372436614463319 -0.0040289103330345341 0 -0.0040289103330345341 0.02881695865114043 0 0 0 0.0096135505781466922 0.10070610786698658 -0.013470560230273765 0 -0.013470560230273765 0.029586340968681846 0 0 0 0.032573112208917121 0.013392946376189034 -0.0054715548305975673 0 -0.0054715548305975673 0.040048451226365057 0 0 0 0.013360349400638521 0.075980010795378472 -0.011641450922168506 0 -0.011641450922168506 0.030699273798303062 0 0 0 0.02666982114842037 0.07146181046084199 -0.019719569172671259 0 -0.019719569172671259 0.025182374038766442 0 0 0 0.024161046124902108 0.035088779484366034 -0.010564502650471812 0 -0.010564502650471812 0.023429154766398175 0 0 0 0.014629483562691059 0.02175290270787629 -0.014817800194681902 0 -0.014817800194681902 0.031937490786800915 0 0 0 0.013422598373669298 0.035763337682244462 -0.011109794410849805 0 -0.011109794410849805 0.027504600038601668 0 0 0 0.015816984430211567 0.0047918223563822721 -0.015043171272840158 0 -0.015043171272840158 0.021423195414610852 0 0 0 0.0065537544427482636 0.034229099830858215 -0.0020255435325377685 0 -0.0020255435325377685 0.043373202414203504 0 0 0 0.01940057556126544 0.02971112212175047 -0.00074023100350778526 0 -0.00074023100350778526 0.012913472386462344 0 0 0 0.010656148627053184 0.013970273029336889 -0.0049694745889074798 0 -0.0049694745889074798 0.1049554296815262 0 0 0 0.029731425677715768 0.025444067909697082 0.0027183010217613698 0 0.0027183010217613698 0.041442046350242956 0 0 0 0.016721528564985003 0.0370016020877071 -0.005793983104155756 0 -0.005793983104155756 0.020147251072556605 0 0 0 0.01428721329006595 0.0430640373303691 -0.0078836739927449773 0 -0.0078836739927449773 0.040699119794703281 0 0 0 0.020940789281268087 0.033388291073799647 -0.010671844006376566 0 -0.010671844006376566 0.039728467195820266 0 0 0 0.018279189567404971 0.04006983110387629 -0.014937828424633301 0 -0.014937828424633301 0.043030260199879683 0 0 0 0.020775022825939002 0.040166662224382352 -0.013818556984527663 0 -0.013818556984527663 0.057078155124807309 0 0 0 0.024311204337297415 0.053513444262142329 -0.020354765510985598 0 -0.020354765510985598 0.045948785550643051 0 0 0 0.024865557453196352 0.058435772670423894 -0.019222877744317218 0 -0.019222877744317218 0.029358187126892657 0 0 0 0.021948489949329145 0.048906452286379964 -0.013708572059320828 0 -0.013708572059320828 0.027596922105147137 0 0 0 0.019125843597881775 0.051472186690087879 -0.014646966668562557 0 -0.014646966668562557 0.024439747118140509 0 0 0 0.018977983452057118 0.047067751849801803 -0.012519112805290717 0 -0.012519112805290717 0.022697835448927339 0 0 0 0.017441396824682251 0.050502099401699502 -0.014618654053062202 0 -0.014618654053062202 0.016468603873297183 0 0 0 0.016742675818749192 0.040189077729623851 -0.012941579880416137 0 -0.012941579880416137 0.023912740226153154 0 0 0 0.016025454488944244 0.049029278254938885 -0.012651083142997996 0 -0.012651083142997996 0.018172625435409706 0 0 0 0.016800475922587127 0.048574213761365642 -0.013496987197879631 0 -0.013496987197879631 0.017312614676908866 0 0 0 0.016471707109568634 0.044929487161360526 -0.013540604243864149 0 -0.013540604243864149 0.02109939222655266 0 0 0 0.016507219846978297 0.052456368625881357 -0.012476238620227037 0 -0.012476238620227037 0.015017664761773575 0 0 0 0.016868508346913759 0.052493232734024675 -0.011697001118370132 0 -0.011697001118370132 0.020163073759833394 0 0 0 0.018164076623464559 0.050566454855053733 -0.012809108788942355 0 -0.012809108788942355 0.023126886975185501 0 0 0 0.018423335457559781 0.059736694031307325 -0.01240796353380906 0 -0.01240796353380906 0.014330847673950209 0 0 0 0.018516885426314411 0.05565423691071239 -0.013822788208852105 0 -0.013822788208852105 0.017965092473180122 0 0 0 0.018404832345973121 0.054402848884654201 -0.012963559280302073 0 -0.012963559280302073 0.015892616996363351 0 0 0 0.017573866470254371 0.058749706672867399 -0.010120065896854685 0 -0.010120065896854685 0.01521297374631736 0 0 0 0.018490670104796186 0.059937306317378411 -0.010795243685489508 0 -0.010795243685489508 0.014149995633332593 0 0 0 0.018521825487677709 0.058771697467056822 -0.0023463218100814309 0 -0.0023463218100814309 0.010781498513866117 0 0 0 0.017388298995230783 0.055577302308411042 -0.0072979250292961872 0 -0.0072979250292961872 0.013360040126386807 0 0 0 0.017234335608699497 0.062044108947139964 -0.0042241660072859233 0 -0.0042241660072859233 0.018812418757448657 0 0 0 0.020214131926147128 0.054025928323687966 -0.010080314330085022 0 -0.010080314330085022 0.03024776237856297 0 0 0 0.021068422675562748 0.058138889980567043 -0.0077650187326510772 0 -0.0077650187326510772 0.023571794709398519 0 0 0 0.020427671172491363 0.052354255666926933 -0.010619331163243845 0 -0.010619331163243845 0.019678557632647059 0 0 0 0.018008203324893488 0.056274477342630552 -0.0063319979118201808 0 -0.0063319979118201808 0.02227481093826833 0 0 0 0.0196373220702247 0.056073614433172436 -0.009153785157983374 0 -0.009153785157983374 0.029975113510753548 0 0 0 0.021512181985981538 0.060556896334803823 -0.0064699730163922473 0 -0.0064699730163922473 0.035115211725524453 0 0 0 0.023918027015082111 0.060171898849704808 -0.0085944308214004686 0 -0.0085944308214004686 0.044261627917779212 0 0 0 0.026108381691871019 0.053250630488015926 -0.011774912756676081 0 -0.011774912756676081 0.03886546041502692 0 0 0 0.023029022725760684 0.053910381326283119 -0.010109030869458704 0 -0.010109030869458704 0.033244391255141337 0 0 0 0.021788693145356086 0.057256011808873242 -0.0079504069761454389 0 -0.0079504069761454389 0.051379618903002355 0 0 0 0.027158907677968858 0.078802338416977757 -0.0091674340300341717 0 -0.0091674340300341717 0.052765368805615886 0 0 0 0.032891926805648397 0.020828884869286961 -0.0068705923247970131 0 -0.0068705923247970131 0.062331130333601291 0 0 0 0.020790003800722063 0.062094694850721402 -0.010053874344092689 0 -0.010053874344092689 0.05518740204605177 0 0 0 0.029320524224193303 0.069069766416268497 -0.012973069952644606 0 -0.012973069952644606 0.057373310162440294 0 0 0 0.031610769144677087 0.067053761992596383 -0.011814685922232671 0 -0.011814685922232671 0.047840715896784847 0 0 0 0.028723619472345363 0.078711987247218757 -0.0083420246246877494 0 -0.0083420246246877494 0.043691854907647154 0 0 0 0.030600960538716554 0.043439691479134741 -0.011342531437728703 0 -0.011342531437728703 0.045103238000861995 0 0 0 0.022135732369999196 0.017020044255836114 -0.006369258735296506 0 -0.006369258735296506 0.050925419887480061 0 0 0 0.016986366035829044 0.069707958671282766 -0.010758109009035829 0 -0.010758109009035829 0.0400929209065084 0 0 0 0.027450219894447736 0.064340050365445323 -0.016507688508119733 0 -0.016507688508119733 0.028885392590850767 0 0 0 0.023306360739073995 0.082346881105708869 -0.0091790205356588328 0 -0.0091790205356588328 0.034948162503582125 0 0 0 0.029323760902322804 0.038642484877973837 -0.011579938607864132 0 -0.011579938607864132 0.034275195628597488 0 0 0 0.018229420126642831 0.042918011947110736 -0.014980634419457017 0 -0.014980634419457017 0.022295244194095537 0 0 0 0.016303314035301504 0.044582255994326386 -0.013465084554224904 0 -0.013465084554224904 0.028958043721406243 0 0 0 0.018385074928933154 0.048572809957740881 -0.011138898026920391 0 -0.011138898026920391 0.037420807338969186 0 0 0 0.021498404324177545 
</DataArray>
<DataArray type="Float64" Name="von_mises_stress" format="ascii">
0.033805540261823246 0.025603509212966138 0.038617438313728991 0.030047850050386606 0.023869453419297734 0.023879558853124407 0.031474817761278799 0.032495788191019996 0.031571700157659525 0.027313352602584738 0.036628111092774397 0.029296807272343996 0.04356101820212336 0.035948088219651814 0.049899004266587402 0.042641430422964283 0.041146352564856992 0.040286375034923931 0.019047921955000643 0.024641298897798265 0.019004402819313083 0.02683396059921388 0.02476712072739114 0.023032627924945575 0.020109365371302545 0.028385446595918074 0.025447951767564436 0.023355373887646885 0.01781973853959784 0.019961984749813179 0.022545446591370755 0.015869866527707499 0.0196897016095012 0.01408465168211852 0.022148545610795406 0.029252276072198522 0.026316171814868804 0.019447843318968237 0.027652158127170964 0.031462106630861068 0.022843606658691739 0.024834487172247198 0.020431181130704017 0.014748933033536223 0.023543781643744432 0.015874425100872312 0.014479153892181533 0.017343346265364098 0.048007330217467836 0.042318262284303854 0.059608590178297199 0.043759077708013384 0.035108379126580817 0.035509916297277892 0.037472097444706406 0.040008475484138231 0.029999531883462681 0.042294881175714047 0.032576947446664617 0.040862866962111714 0.052900886219765388 0.051009288540164205 0.050008640297089235 0.066770718173688945 0.070136013736542643 0.053206689163595111 0.058984978621700497 0.081466230416745222 0.063310117984650319 0.057651359523037571 0.065799436834055036 0.088010785122199842 0.038783383724411022 0.036463631143863556 0.046216101416537439 0.047503905707513311 0.036798453520263161 0.057756233478388389 0.044144332762407 0.044440195774768411 0.034314395084784823 0.025855111132953391 0.023447280012477874 0.022738987053406802 0.019600997687918533 0.033966920855230065 0.011511860283402198 0.018455829996171354 0.013933732271736219 0.0065750685068110193 0.015520957001308965 0.015147793057369557 0.0093098455610305022 0.0095945889778611161 0.026505912995521824 0.027906303172996073 0.014102837962537113 0.017484113008551128 0.027326075953610498 0.033791067097548498 0.0306045811246584 0.02876309026017463 0.017451475652164785 0.021651408986024752 0.010144662037791376 0.017967128628011423 0.017753630020924015 0.031400602607183824 0.036066639589460117 0.034701036398837454 0.040305678716011081 0.039097168154378421 0.019491082398912594 0.034307323036728787 0.031008534156040102 0.041207472826060805 0.047362179299874803 0.049588603099054024 0.061660072921389197 0.063305048799550082 0.092050245632919872 0.068230851452261182 0.066597539265078914 0.068779029850989368 0.060534149168585107 0.09239669882478467 0.070067873713585818 0.050519328230115686 0.040841756417997283 0.050758473709974855 0.033107702996778995 0.028970189313001767 0.027195049937421736 0.028867186734048231 0.029183804528605046 0.03353203841081296 0.038112460301581344 0.035245751894148962 0.034958284583001667 0.031798806913598737 0.032213704488313392 0.03672326230742317 0.036881476932549596 0.040991224112207 0.042900711365959035 0.091422894189615148 0.058709000746814566 0.058130573693490666 0.043035927193311362 0.047750907410261438 0.038397531334624542 0.059645748183135422 0.035692120193396307 0.02544124469467255 0.034793497662169014 0.01753763871256676 0.024000535425159151 0.04134795054178312 0.035508675110193004 0.0348284401296272 0.02197228587114065 0.027261127670891162 0.02099615921122671 0.013824146812360209 0.015280594686898682 0.01391685972187935 0.018636248241977585 0.012079288307748421 0.01131580372953654 0.013273429123075478 0.014069960541788542 0.011682704941898603 0.015707639792043395 0.015457947207697024 0.015868411619670536 0.013765777293003066 0.013300078340889093 0.013723732483341874 0.017820677347399866 0.017944418089227178 0.018602200768568014 0.01546012377358604 0.014780534797764738 0.015080945546098923 0.018871906543830905 0.015295833255668285 0.01925798680396669 0.024622782559817914 0.02188858587356713 0.02954490129497974 0.019992216067061756 0.025190157856710884 0.01596416047717953 0.019891350905841196 0.019527535593939899 0.019526108255122371 0.019564964344128504 0.025748044496946006 0.027942637769900705 0.027174826435998455 0.023640068348231839 0.023544172138026922 0.017762883147121142 0.021475295990227506 0.024320582461528399 0.022247662229805124 0.026769651459814012 0.028301153971506829 0.023636804439533639 0.031524817715660645 0.030515926722036082 0.033207544280342456 0.030947307369529942 0.028626951125706561 0.013465563722127061 0.016804285501295438 0.015403982746253823 0.019803291559806164 0.015556931800583901 0.018333931760829359 0.018079556632871842 0.019539418689637357 0.022959913822482417 0.01960227077793229 0.025563174410573462 0.019732144302090318 0.019757234740335902 0.015848952677870946 0.019002255498290148 0.016104928239791122 0.018037467316603824 0.020998500091436209 0.016980792547553004 0.015670376183931044 0.020982457162695214 0.018353400835181811 0.022187038924539292 0.020523838549757732 0.021248669361708057 0.026272728242678435 0.020204473106566666 0.023704120528455021 0.019343222392911436 0.023616843391731389 0.018429669712056722 0.024038717506146202 0.029468176143228816 0.031291065001347013 0.027706465691142539 0.028908009680449626 0.024061709365647145 0.026373395390796833 0.020845888184463163 0.023668034464026926 0.022119766993570895 0.024683836131048624 0.027152575794482697 0.027825295266753633 0.025083690691311111 0.022612173837302799 0.026457173890183993 0.023564871151035602 0.026256256508175577 0.029660418057049165 0.030693292303368896 0.032230343416956062 0.031368700743519336 0.033867427224139136 0.033452668732288388 0.035153039614021546 0.033760967252301106 0.032128818344716398 0.03057045906586911 0.023200844921790753 0.023434730800211356 0.025964805012907953 0.022590908386972124 0.028432851033367887 0.027037378358847931 0.021622831221261091 0.028088557392056408 0.029022120151907034 0.029176779035187714 0.02565904580140824 0.027077273215271726 0.022986818121650252 0.029186637781297514 0.03466740613763717 0.032652014609657741 0.03432188177234681 0.034681729641640534 0.040275518045387461 0.033298556804775441 0.030641679831921925 0.032131271999449422 0.030417938382100669 0.026733277682007828 0.035729540067839516 0.034994895058328729 0.032356121762724004 0.040240181960742409 0.034342563097988478 0.033033571150473527 0.035342729036906557 0.03933900096561168 0.041266436287125265 0.043161106592331272 0.037103914298180787 0.037526164017804883 0.03850335119829984 0.036822062749416191 0.03452614765210494 0.033682437723236182 0.031319476645561159 0.031125467415800738 0.030235334523379301 0.034620561253327319 0.035971804801509411 0.033285211421780897 0.036268879403356713 0.034904477642383275 0.036212354981623715 0.036960104435677418 0.035523738705101442 0.038991938467203155 0.06756274788862425 0.052672202758856174 0.056296492459127129 0.053770424341677316 0.049495705138595997 0.043183454776566155 0.032321402021098698 0.038148019113524737 0.042046993578186753 0.038876419342026784 0.030108646609274849 0.030121370652919838 0.038922279337532527 0.032529363617375844 0.045127224076169134 0.05771655026362485 0.036158089833787418 0.045993179111576035 0.028997879554258105 0.027058402612006194 0.035148032321896491 0.032916908650224716 0.031078073243140332 0.024079698850451095 0.028479329637976687 0.021863455892259385 0.030542467518836065 0.022404568322187405 0.021184127311295646 0.029677961947383182 0.027280388533491361 0.021502014284444339 0.031185497419156816 0.02786897094974624 0.030770687875016366 0.030758638927129392 0.023055734556759775 0.033093312471721356 0.025880220013540955 0.030162146040508465 0.035371628782427389 0.034491124091644773 0.038133738462614204 0.034565926731062346 0.025829994970244376 0.032192062185550159 0.04426931835939913 0.044793361750453162 0.053431098884521966 0.051788822866390923 0.048653642668562418 0.046900707184723979 0.056766022868178466 0.071568625622776105 0.077674126788304376 0.096383419974125695 0.06939342598155572 0.08301970727504486 0.056768807154197645 0.065438731683171825 0.058111506102483002 0.097002947183431193 0.13521952381822117 0.095147584794539192 0.084216206545528263 0.12280922572995122 0.10730055631205852 0.075071371219453162 0.082591998102182609 0.085668585376821066 0.056437339112259642 0.05551846915891101 0.038368504961023606 0.064109218983142049 0.061954149795527602 0.053637364925349922 0.033345645216116722 0.0375681065204789 0.036318231804973226 0.050146103905158355 0.039550417349699114 0.054425495206372833 0.044678702476280217 0.032006520901876757 0.037372867485027439 0.032986744146939639 0.023920875205100847 0.039046038378072308 0.03595924412065752 0.040809787733789273 0.025468289370508355 0.025994965675754308 0.046036376313901776 0.024568351114768169 0.041334495209905377 0.02848827747711976 0.042257880802202732 0.054004858546664057 0.027826657265664901 0.047225429073169595 0.062611007352530945 0.092486559057975704 0.084208298952350186 0.10623118116049186 0.071657850821499822 0.055097519236874989 0.05184840476586363 0.088398147129266483 0.059070691706834828 0.085080310015876348 0.037444634739007922 0.055725495084242446 0.066053346155040008 0.063563824576867892 0.074009279137036005 0.072193577652564817 0.064053936644113268 0.080942163640604692 0.053953849366284952 0.086715323089809462 0.085422955338918499 0.070716503588765828 0.098058552186079104 0.085470310654632634 0.13269133445814418 0.097060071683803067 0.14239284019501594 0.100530843788526 0.087253099735778328 0.10526404609241062 0.041053862518956215 0.044500284544978619 0.048452290392172574 0.038386772792909224 0.033630674569332428 0.029019900422189153 0.022077181361866469 0.033184556401534344 0.0241945994060042 0.02440354016310094 0.026553865834495816 0.030229322228822957 0.033905307603277278 0.030708373681204864 0.038490763585955962 0.040423970897458229 0.035636070101485125 0.037045397589358917 0.040845732468861327 0.042395594117114278 0.042514144109292343 0.034220893659235509 0.041790714062641114 0.040404425798433667 0.043694458264501898 0.053782520329776699 0.048697678325726017 0.055458741284687418 0.045712087348746606 0.06075955614854206 0.064204864387291394 0.084453697995536398 0.078757188264355515 0.082081520904066563 0.064708552824033885 0.065075988612278646 0.06864093071832679 0.074639562683733701 0.12074033913117567 0.17186506747776112 0.18977066815808696 0.13503216526341805 0.074297070520275926 0.085092233767874351 0.15022770088625526 0.086224402113587603 0.091210686615732284 0.078245162204110055 0.050333799108127915 0.068894095295791463 0.043434100582376768 0.053014252210036097 0.037788293300932932 0.056558197712398138 0.030389300340324433 0.041277987170097195 0.058350878713339938 0.043274485355915562 0.039960080532650225 0.057393716734494303 0.045210366167835213 0.041969741636139909 0.059174299339964792 0.056027271660201411 0.04065078663714853 0.054625979480888334 0.053790947729152695 0.049938435329917368 0.05706268633525613 0.062008590480134032 0.066929480972393235 0.089004853125913705 0.059721420389317506 0.068361179762775948 0.074369503313671523 0.09945763428134137 0.1217309902478229 0.10360306012245359 0.25725121576802334 0.092836928225524487 0.12626454078230318 0.24782444449416402 0.18002690434931126 0.012166535247518526 0.29207976209766773 0.12703880602372458 0.031706596722049313 0.029973557235393498 0.10773943263990278 0.043964455958157268 0.034895632617277628 0.089464979905642505 0.077049896101493889 0.041365927918937846 0.043648830086101334 0.053032025680622229 0.035972663350609668 0.033240209281633189 0.036955595271337828 0.044047933118526006 0.075318252833052921 0.06677448252169943 0.071223224539020885 0.054335682370091176 0.05696323303249104 0.059813000295560699 0.055123035618089032 0.051975472599458138 0.04457863255124235 0.063901102593527659 0.05114420386022369 0.036555390836629884 0.042971052155615988 0.038525700817941912 0.040973407653337422 0.043208715710203779 0.044859977600322218 0.043396083556050465 0.044463152249442035 0.051597302345734578 0.049440700221450973 0.046468049986002236 0.046166141748502379 0.048370146066798438 0.048644032933286403 0.055290307092465782 0.050804824172945337 0.055483998745730338 0.048582012085567811 0.054584972691977138 0.05122892965534126 0.053277085748389796 0.058523290494246913 0.065196531721067014 0.07464159439022891 0.096478554368133684 0.11067714103059886 0.068262174292282277 0.069331355241344594 0.084669414257811049 0.078318882381486377 0.090642978819111 0.062817662816918238 0.081715114874605407 0.056957985329073493 0.068137884445218747 0.097477319212917496 0.085285850038813643 0.12571383076154621 0.090675609740497584 0.072171209744513479 0.10929527785947503 0.089504451979705649 0.13876425230149558 0.16500867212655812 0.16693301513345069 0.13981459686425293 0.10436874484795271 0.11006691692490778 0.098184559808248237 0.085131402300142781 0.07906962501567194 0.077100303521468447 0.067220993563755604 0.0587023710267024 0.054258611306622968 0.061147085995551527 0.0684789311870906 0.049993572033844094 0.047560041997816056 0.052442482212192658 0.053297501976853977 0.069532090525236206 0.064911718105996413 0.065935246133639963 0.075571055549457047 0.050089780233369956 0.060732719140947106 0.037101586783707993 0.05188771251863461 0.048303073587624604 0.042111350585415083 0.030657707223299163 0.032027344486018683 0.039392981430974382 0.025537336702019013 0.015936626389842133 0.026745594489241416 0.043576069589196409 0.052339973781837239 0.036833254707543853 0.010371085505016 0.0079181754908050992 0.014361927818338848 0.011821478907151359 0.0097578185680707932 0.016874076925414698 0.022278330347645172 0.014451634959922761 0.024175231049116633 0.019263539224254229 0.027104080873666409 0.023117230825836794 0.017992694094213727 0.017623082493589969 0.018376073381726987 0.027089236325856476 0.02889966104955765 0.035479776418988335 0.024036454029489115 0.032235304050467567 0.031676934987700203 0.036964277792840873 0.043047751549142171 0.032029439746976252 0.040770715736501185 0.045720597267839731 0.047608966546335334 0.04684394789962712 0.046293643068932994 0.041834917811788934 0.047276293269956728 0.039450017726697366 0.040551174497534551 0.047638877884553635 0.044361455312707805 0.051384487294206055 0.048638989405031946 0.057442242332067753 0.061524406286357004 0.052277745247768702 0.044602871909443523 0.023833278537720326 0.029410800253997147 0.036323962340026612 0.025027481640718555 0.0373012135094321 0.028420639748887769 0.035528034825826948 0.018062611449891575 0.010310220642703221 0.014380269000984868 0.012316002484652431 0.017699009355449116 0.018257987271476494 0.012426036592189348 0.015691499917975343 0.01270770866860736 0.0098744261487284293 0.009287664390945187 0.0080888848177479798 0.0073368511851187581 0.0088062317487465746 0.0087046377119894998 0.0085392621864705687 0.0083659821413821223 0.043652000897093646 0.046524515827167316 0.049473164116619395 0.048641053320167722 0.043722688921999688 0.038088229344299999 0.037155540553402949 0.04158657005368846 0.04039164052087952 0.040317009616444868 0.044414194390377693 0.046719983784485143 0.041014918160974759 0.044571585451959182 0.046196582097124558 0.043427493851196833 0.044601813774945924 0.051360341539244909 0.049969749300750363 0.051748174817920239 0.053121105904360519 0.049988214778089082 0.073055604724566112 0.048052851138470624 0.053434481715270613 0.052879333239543115 0.082120699965626348 0.057586770908101409 0.056873310882014874 0.091329620997597491 0.055649066252667953 0.048792174431082885 0.058258038854307428 0.055522288966821098 0.054630222887977177 0.062360921284239701 0.05231593025474926 0.065271415369521343 0.064561051670415065 0.059819429532524795 0.062641493357237246 0.10106270990910089 0.073820020293022676 0.067596582637087371 0.062369256482575589 0.068910520264367905 0.11135091160495197 0.076353981742496344 0.072373222756975331 0.057671021679564026 0.071496510255428192 0.076053148822729552 0.070359331060722632 0.05672326646185219 0.038916602583655049 0.049604188950159896 0.048322706963465398 0.045506370912356132 0.046575541908363965 0.045659776828105209 0.043779625453299643 0.054111644816701901 0.03937253703752866 0.038504109256805877 0.039724838239458424 0.038048593291834978 0.034088342088345047 0.03733125838230001 0.04585523879647431 0.036877767227557194 0.050012553660327919 0.040985550970883841 0.032093251096419903 0.038329690639738928 0.052524807891044821 0.059226874791149284 0.038989723957658172 0.040094447072860105 0.043246564273336001 0.036513799235818947 0.034897723789369964 0.043398624206111895 0.03730763612463215 0.032734214249706906 0.032431804500612664 0.035814015066763578 0.036805877810486276 0.035467833271942875 0.034160825092319345 0.033175317059450357 0.034823938219905357 0.032610525526320246 0.036331069097853434 0.036069636593255822 0.034311912044357455 0.034774731590251816 0.03391629422055939 0.033249460201334277 0.03604629474147554 0.039025718473517143 0.040635715284467425 0.037987777507308189 0.039099035013067392 0.036199488339081765 0.042483417210913969 0.051274357646942173 0.044595714998989455 0.04086595997114318 0.034578208596174477 0.035744235377016334 0.035196473349800715 0.037663516587019497 0.040317540141029194 0.039468205012493575 0.044507698448337421 0.042687028035793294 0.047959383951734783 0.057595845351026034 0.042913603942514152 0.049484944049350069 0.069796522741885025 0.048812622992275297 0.048116016404744666 0.060096594149725797 0.052714667253980128 0.08063154176206605 0.068960659110560929 0.061171262412183534 0.052579097491252294 0.043428057200040719 0.053137889963910792 0.054990062703347178 0.056000517034915036 0.05312176359488445 0.063297584367444648 0.075950013447764059 0.066092800820193212 0.060704827971118917 0.064519490191170897 0.092803860922407597 0.075244168652914861 0.064668736651064124 0.059643163817683142 0.047546257671583908 0.047298076718865129 0.050657842194498474 0.036240240610315895 0.024627868189317462 0.0254950340275788 0.035606019619810747 0.037505370823966808 0.029653806451189244 0.027144990352050848 0.03305053214037075 0.040870781099860858 0.051352014017995613 0.036947953714523529 0.0083495689753710339 0.006178980715848696 0.0067068238750762005 0.0083088700429643555 0.0082293979580287443 0.013241701406462112 0.016382512078929396 0.010745354325982018 0.01517922530117208 0.018578053544324437 0.023058569774580061 0.015474699283840687 0.015351960872312985 0.016783191708771447 0.0078836723456811482 0.013101143240721919 0.010110641965570943 0.023344919221551574 0.014338643133649936 0.01981193621499365 0.016244591933562758 0.022769344948737381 0.024472109591366472 0.02989535403065928 0.028917543892802239 0.023949794641304211 0.030611225465150903 0.035009502472730512 0.030816156949491018 0.025225760557759283 0.023896200267450294 0.028144935127292665 0.032747042891809373 0.020975674149232279 0.04095248249015826 0.035532749856006636 0.043331305398459037 0.04304247990781096 0.031649672251542915 0.030258004765104984 0.038318722490082543 0.039734860683492766 0.034179957886152371 0.030702785736042192 0.031191830817274089 0.041192074824037125 0.036428841103917038 0.041079993662741204 0.040024322309331985 0.03979154994564494 0.042787648837352366 0.038206932548907634 0.044612593605824598 0.043347528692287959 0.035161263573582131 0.042635450707203343 0.038870026547021722 0.030760438376176685 0.036005615593673691 0.044205660621610555 0.037179395974445348 0.037096479957395963 0.042997749363601789 0.049970833243860258 0.044285416248794743 0.039615801447295422 0.044385849091606304 0.042992300997342046 0.038107111958645294 0.04185738378241486 0.032650085666134129 0.04669012387711604 0.024944598791577937 0.028941234185299976 0.036202815719751986 0.027288539053062808 0.040299364224222388 0.037896369687402322 0.033183185847084788 0.0443917585851719 0.032305664877879371 0.04350637955038833 0.037601075487794733 0.039126620524081626 0.04923952665973659 0.044498714968920113 0.056583342841973694 0.081994697582409903 0.066342528794461592 0.054087882548225628 0.056655396131114942 0.041791831766625993 0.034842627645451714 0.046381129886325784 0.047517507873582422 0.035116363139956482 0.042758273886870618 0.050613693535445703 0.053929543523649627 0.058084269084673172 0.053708871056965625 0.082839894228242436 0.042022179644773415 0.071351635668604627 0.048535110111333525 0.039834787858161851 0.04052102403278883 0.043126723012039181 0.05290255136493948 0.036029796387277754 0.036493081393626843 0.031656421007970073 0.048285209793773154 0.049078205144542884 0.045140871540651557 0.063972898011004767 0.098850183174197109 0.065823749013550523 0.13422825239009223 0.00811907158631716 0.072111142006642051 0.059442987973244987 0.020420891519419622 0.073477149852718873 0.028305469913307697 0.051532595083667594 0.057936862631451203 0.025510940290185514 0.030276428631567577 0.025915529178843592 0.030484334181335369 0.021246217803553701 0.018078111263336655 0.08465677027956181 0.022220001901945563 0.022757131746685286 0.025083226044649805 0.026569567359558451 0.033280487269178941 0.037126690558472702 0.043636721125056253 0.047163786777099793 0.035639090819717396 0.039393265231315103 0.034925728317817921 0.04231006317594431 0.030950897125543293 0.038425323326125624 0.039380055971907593 0.035333231742862077 0.042458904536559823 0.039042573807894707 0.037367586319671284 0.048487275502251098 0.044466841372067328 0.043878022521798996 0.045505355922492871 0.047592312854507247 0.045234533453237379 0.04235002210958453 0.04317263186779445 0.034245693551183107 0.038656685759403051 0.03825417495614318 0.03705253024371695 0.034999973353584998 0.034396411958389744 0.03306195485517148 0.033188573899871295 0.033190917787203393 0.030872838786020207 0.042923737360351731 0.043193363594999944 0.034622497442833348 0.040084257191321401 0.038995673877046083 0.045442206837032026 0.02963149078389888 0.035670994857962338 0.041934629448239946 0.047994503424646354 0.05289258077728317 0.02736606665526024 0.035468721202039789 0.032634697687610292 0.030457871036154587 
</DataArray>
<DataArray type="Float64" Name="cross_section_updated" format="ascii">
1 1 1 1 1 1 1 1 1 1 1 1 1 1 1 1 1 1 1 1 1 1 1 1 1 1 1 1 1 1 1 1 1 1 1 1 1 1 1 1 1 1 1 1 1 1 1 1 1 1 1 1 1 1 1 1 1 1 1 1 1 1 1 1 1 1 1 1 1 1 1 1 1 1 1 1 1 1 1 1 1 1 1 1 1 1 1 1 1 1 1 1 1 1 1 1 1 1 1 1 1 1 1 1 1 1 1 1 1 1 1 1 1 1 1 1 1 1 1 1 1 1 1 1 1 1 1 1 1 1 1 1 1 1 1 1 1 1 1 1 1 1 1 1 1 1 1 1 1 1 1 1 1 1 1 1 1 1 1 1 1 1 1 1 1 1 1 1 1 1 1 1 1 1 1 1 1 1 1 1 1 1 1 1 1 1 1 1 1 1 1 1 1 1 1 1 1 1 1 1 1 1 1 1 1 1 1 1 1 1 1 1 1 1 1 1 1 1 1 1 1 1 1 1 1 1 1 1 1 1 1 1 1 1 1 1 1 1 1 1 1 1 1 1 1 1 1 1 1 1 1 1 1 1 1 1 1 1 1 1 1 1 1 1 1 1 1 1 1 1 1 1 1 1 1 1 1 1 1 1 1 1 1 1 1 1 1 1 1 1 1 1 1 1 1 1 1 1 1 1 1 1 1 1 1 1 1 1 1 1 1 1 1 1 1 1 1 1 1 1 1 1 1 1 1 1 1 1 1 1 1 1 1 1 1 1 1 1 1 1 1 1 1 1 1 1 1 1 1 1 1 1 1 1 1 1 1 1 1 1 1 1 1 1 1 1 1 1 1 1 1 1 1 1 1 1 1 1 1 1 1 1 1 1 1 1 1 1 1 1 1 1 1 1 1 1 1 1 1 1 1 1 1 1 1 1 1 1 1 1 1 1 1 1 1 1 1 1 1 1 1 1 1 1 1 1 1 1 1 1 1 1 1 1 1 1 1 1 1 1 1 1 1 1 1 1 1 1 1 1 1 1 1 1 1 1 1 1 1 1 1 1 1 1 1 1 1 1 1 1 1 1 1 1 1 1 1 1 1 1 1 1 1 1 1 1 1 1 1 1 1 1 1 1 1 1 1 1 1 1 1 1 1 1 1 1 1 1 1 1 1 1 1 1 1 1 1 1 1 1 1 1 1 1 1 1 1 1 1 1 1 1 1 1 1 1 1 1 0.0020306734349829409 1 1 0.0020783696340480225 1 1 0.0021088662367913782 1 1 1 1 1 1 1 1 1 1 1 1 1 0.0021346076279736273 1 1 1 1 1 0.002158494297351001 1 1 1 1 1 1 1 1 1 1 1 1 1 1 1 1 1 1 1 1 1 1 1 1 1 1 1 1 1 1 1 1 1 1 1 1 1 1 1 1 1 1 1 1 1 1 1 1 1 1 1 1 1 1 1 1 1 1 1 1 1 1 1 1 1 1 1 1 1 1 1 1 1 1 1 1 1 1 1 1 1 1 1 1 1 1 1 1 1 1 1 1 1 1 1 1 1 1 1 1 1 1 1 1 1 1 1 1 1 1 1 1 1 1 1 1 1 1 1 1 1 1 1 1 1 1 1 1 1 1 1 1 1 1 1 1 1 1 1 1 1 1 1 1 1 1 1 1 1 1 1 1 1 1 1 1 1 1 1 1 1 1 1 1 1 1 1 1 0.0021814114802232343 1 1 1 0.0022041463329692187 1 1 0.002227328356832392 1 1 1 1 1 1 1 1 1 1 1 0.0022516435611366933 1 1 1 1 0.0022781090985683292 1 1 1 1 1 1 1 1 1 1 1 1 1 1 1 1 1 1 1 1 1 1 1 1 1 1 1 1 1 1 1 1 1 1 1 1 1 1 1 1 1 1 1 1 1 1 1 1 1 1 1 1 1 1 1 1 1 1 0.0010622452211376211 1 1 1 1 1 1 1 1 1 1 1 1 1 1 0.0010859291297154647 1 1 0.001073526678945429 1 0.001099714327050432 1 1 1 1 1 1 1 1 1 1 1 1 1 0.0011152253106287485 1 1 1 1 1 1 1 1 1 1 1 1 1 1 1 1 1 1 1 1 1 1 1 1 1 1 1 1 1 1 1 1 1 1 1 1 1 1 1 1 1 1 1 1 1 1 1 1 1 1 1 1 1 1 1 1 1 1 1 1 1 1 1 1 1 1 1 1 1 1 1 1 1 1 1 1 1 1 1 1 1 1 1 1 1 1 1 1 1 1 1 1 1 1 1 1 1 1 1 1 1 1 1 1 1 1 1 1 1 1 1 1 1 1 1 1 1 1 1 1 1 1 1 1 1 1 1 1 1 1 1 1 1 1 1 1 0.0010095780500381445 1 1 0.0010240042600912422 1 0.0010333601272821582 1 1 1 1 1 1 1 1 1 1 1 1 1 1 1 1 1 1 1 1 1 1 1 1 1 1 1 1 1 1 1 1 1 1 1 1 1 1 1 1 1 1 1 1 1 1 1 0.0010519264081660989 1 1 1 1 1 0.0010424238173145639 1 1 1 1 1 1 1 
</DataArray>
<DataArray type="Float64" Name="displacement_divergence" format="ascii">
-2.9305467012102382e-05 -3.1794300764789763e-05 -2.4241945386004548e-05 -2.7300185445714438e-05 -2.4716657951364424e-05 -2.4700691782654246e-05 -2.2853091943894365e-05 -2.5057237379699465e-05 -2.2207166792489115e-05 -1.6255978279163375e-05 -2.4441220954570909e-05 -1.5091482295163284e-05 -2.960038170476237e-05 -2.234107112768466e-05 -3.6515619030086324e-05 -2.9421811213866533e-05 -2.4869336857390674e-05 -2.7456827999253684e-05 -2.798508516617744e-06 -6.5416573763477544e-06 -6.7068046330734039e-06 -1.3214263851773325e-05 -1.5869855122641503e-05 -9.3195840208237367e-06 -1.0580011825110534e-05 -1.4306946113841624e-05 -1.4986811364433109e-05 -1.3398175195499468e-05 -4.8278524191488993e-06 -6.1669405959418136e-06 -2.8311276629340508e-06 1.0839575327868993e-06 -3.5879381242112939e-07 5.1122615768063861e-07 -6.0177050751366322e-06 -1.473225065811022e-05 -1.213411087716483e-05 -6.5261911869099737e-06 -1.3636373125739442e-05 -1.6037581417104287e-05 -1.032678444664047e-05 -6.1415445421497618e-06 -6.1971100078823846e-06 2.5723650617061056e-07 -6.7448625331376411e-06 -2.6279861931811307e-06 6.527396520857202e-06 1.1027630981465659e-06 -3.5276625635503195e-05 -2.718124838649793e-05 -4.1226707315925998e-05 -2.733855378940886e-05 -2.0538669793383546e-05 -2.22114240464411e-05 -2.2527812813417663e-05 -2.4863925031086007e-05 -1.7222857656815514e-05 -2.6596541344328143e-05 -2.0002936957702528e-05 -2.5124515512504255e-05 -3.5981735981200991e-05 -3.5092115011352196e-05 -3.332616916917016e-05 -4.619488528143331e-05 -4.8372338780988421e-05 -3.3989724156269742e-05 -3.8801893342742876e-05 -5.3874485470238235e-05 -3.924522945212056e-05 -3.8857166138340753e-05 -4.1124652529749006e-05 -6.0624164535704351e-05 -1.9432459573411336e-05 -1.6683106865151957e-05 -2.9845598750755373e-05 -2.7755319732294535e-05 -1.7890367502933091e-05 -3.3678170016367682e-05 -2.9054688308461436e-05 -2.5586858257995755e-05 -1.7433407478920025e-05 -9.966614909153458e-06 -9.1989224164290062e-06 -6.0434556295650588e-06 -2.0527729568444044e-06 -1.7429486126690032e-05 5.2617267490504936e-06 1.2020207639423501e-06 1.6572755083853804e-06 1.2543037614376046e-05 8.0794609854703249e-06 6.0295401171126217e-06 1.5859236269722047e-05 1.978433368474139e-05 -7.6997118541496777e-06 -1.2008800217780119e-05 2.4434712959201676e-06 1.0549127099204666e-08 -3.2649179646120129e-06 -7.061094276566743e-06 7.2349441355965319e-06 -5.0829458620185676e-06 3.4374292205435948e-05 7.9479742465235264e-06 1.6943496980066147e-05 2.6601351277020721e-05 3.6632475378733784e-05 3.3152284153847855e-05 3.075550096463093e-05 3.291175242922095e-05 5.9578927590785234e-05 6.3741923463747391e-06 1.451936276966915e-05 1.6862893257017726e-05 -4.061319014979066e-06 -5.1798828874255481e-06 -1.8359095348428282e-05 -2.6297218796169139e-05 -2.980619741684007e-05 -3.8993954595215887e-05 -5.8055886289988881e-05 -4.2487964913094292e-05 -4.0609663756843099e-05 -4.6262565954870681e-05 -3.6718255117566053e-05 -6.1425377131927076e-05 -4.4272432583226847e-05 -2.602412973573193e-05 -1.5007362453993672e-05 -2.7443025208658126e-05 5.162790946148114e-05 4.6247998228167856e-05 4.2331393005818534e-05 4.6243025997701371e-05 5.3006417233865195e-05 5.8112333538205229e-05 5.5297224377167585e-05 5.2733479579895176e-05 5.7263689752546404e-05 5.3879585005618617e-05 4.7701811841989301e-05 5.3442584527232614e-05 4.9362887850716605e-05 5.2627532839393237e-05 6.0880334389755956e-05 0.00010439077770564199 5.5293073977408659e-05 7.2103884740412494e-05 5.0461389504591277e-05 0.00010004287806691584 6.3493449000307227e-05 9.8182610671505377e-05 5.9112242697435573e-05 5.2404494994516318e-05 6.0416238682003509e-05 3.8355907055862808e-05 3.9266253137804405e-05 5.2941214127317582e-05 4.3221169346714926e-05 5.0700021814165057e-05 3.2829943392081617e-05 4.4266846739899007e-05 3.449634896108414e-05 3.104724607745653e-05 2.5259230052622429e-05 2.8945354176597974e-05 2.9524961141724271e-05 2.5961230914096069e-05 1.7386994070172104e-05 2.0787609776522732e-05 1.724166827535591e-05 1.3330452263069247e-05 9.5764871180839213e-06 2.7043844790857289e-05 2.5693698001530811e-05 2.2456642116458739e-05 2.0165613529534493e-05 2.7434840187233387e-05 2.3934145321910977e-05 3.0798981272044271e-05 3.1231486773506065e-05 3.1839501841390497e-05 3.4425690607593271e-05 3.1812134204061953e-05 4.2493430249882137e-05 3.7143414499891712e-05 3.8381035532880577e-05 4.5598333543214816e-05 3.6635507309393893e-05 5.8865987795358326e-05 4.3566523459853503e-05 5.0438137968107907e-05 3.9540508221596803e-05 4.7687144508108427e-05 4.692703039740823e-05 3.7955235621138457e-05 3.7852083453263095e-05 3.7468176152396151e-05 3.1950226956305499e-05 2.6505041792514339e-05 3.0238418956009063e-05 3.1977031478810033e-05 2.5846288456344073e-05 2.22554120294959e-05 2.4792561736017913e-05 2.8113761799050501e-05 2.3758878990360626e-05 2.2378850658727254e-05 1.9416630196361755e-05 2.4281331548383457e-05 2.4342936039542018e-05 2.7720838305799902e-05 2.6499143184422101e-05 2.6704183973204896e-05 9.8224194852127607e-06 1.2547307291985e-05 7.8508052870377951e-06 1.4792216409970412e-05 1.6076058565395758e-05 1.7954336604643218e-05 1.9828972107009222e-05 2.0623621109294776e-05 1.8639451562932624e-05 1.666555046842605e-05 1.7781150711313016e-05 1.4862726821199339e-05 1.2358834526160672e-05 7.6328300659462325e-06 5.9156411382902448e-06 6.6535612992553377e-06 1.7083401004961508e-06 3.9318608331610575e-06 1.5479448539960184e-06 4.5340330640373624e-06 9.3866466736528535e-06 8.8188123491732462e-06 1.0226196544940279e-05 1.2908469948790981e-05 1.4617509394253228e-05 1.6709916377040566e-05 1.5437760204104204e-05 1.2690368412630083e-05 1.3170790717176862e-05 6.7567200487830302e-06 5.4314349636064249e-06 -4.9809713569518602e-08 2.3975037902776993e-05 2.4259256693036848e-05 2.1675273654301325e-05 2.0699700460333101e-05 1.8866428749232774e-05 2.0776465913072519e-05 1.9853316127751172e-05 1.8121962220699842e-05 2.3624649045491664e-05 2.1258718992242383e-05 2.5167731936466078e-05 2.1951763318988479e-05 2.2893429549090646e-05 2.6097817164412381e-05 2.3881837777244859e-05 2.9355245649451595e-05 2.2832359681705041e-05 2.6666341532501416e-05 2.5715327345712877e-05 2.5881442343951647e-05 2.4038722204151906e-05 2.7212748821854414e-05 2.4639437118116269e-05 2.4162848479598471e-05 2.1559792091838183e-05 2.4892401024246018e-05 2.4261165137449739e-05 2.881362314072307e-05 2.8044843358000261e-05 2.2497158810319179e-05 2.3255561100749515e-05 2.341702449023452e-05 1.7766880804765444e-05 1.4383078235354836e-05 1.1231145197456168e-05 3.9053382828670207e-06 8.8382790055997439e-06 1.2591177793400033e-05 1.7214121901904344e-05 8.6328085159453102e-06 1.5912619043769146e-05 2.0069387994333555e-05 2.3240964860560861e-05 2.3270281369977487e-05 2.2758703578652212e-05 2.8777038242192476e-05 1.7203924318981914e-05 1.2982678802205219e-05 1.6801223476781379e-05 2.0397408248970008e-05 9.5256443656938858e-06 1.7628375986155832e-05 2.3243045988447812e-05 2.3058446037218599e-05 3.495627198481032e-05 2.6356126098456807e-05 2.7670452865277933e-05 2.9020238151620169e-05 2.7737048316255184e-05 3.3757271730104958e-05 4.3361721942633666e-05 3.7323380408558259e-05 4.061042988330222e-05 3.2330460699134675e-05 3.4477442203890722e-05 4.168565663389862e-05 3.4984556086875314e-05 3.7829962393588175e-05 3.0404111359723847e-05 3.0174517577583046e-05 2.9506192748800731e-05 3.0345499858592867e-05 2.5928994324901471e-05 2.8279557036347907e-05 2.5839599742984023e-05 2.6832969436082594e-05 2.5379205301516593e-05 2.9356529179128649e-05 2.9845017459680962e-05 -4.9317004368527e-05 -3.4817938039642533e-05 -3.8434515373019534e-05 -3.0475855672735523e-05 -2.9587814608710788e-05 -3.6443273536867056e-05 -3.9628157537672212e-05 -3.3544393767840006e-05 -3.0950707231545666e-05 -2.6199834329104015e-05 -2.8516730315895283e-05 -2.8493902212543935e-05 -2.6361884604417516e-05 -1.6488866822194676e-05 -2.5719766194059047e-05 -3.8532969507251027e-05 -1.4734815458181013e-05 -2.9945176491987785e-05 -1.4291915623108202e-05 -1.3031513391712847e-05 -1.5006493909530455e-05 -1.3039874486917194e-05 -1.6367028834249669e-05 -7.0013396993773637e-06 -7.2807478047991949e-06 -2.7083574767894869e-06 -4.3659520550847148e-06 4.142456791001812e-06 7.938708168364601e-06 1.1038938155186008e-06 -1.9159571574655719e-06 -7.5429026812763217e-07 4.1208607706264558e-06 1.0437476171200303e-05 -1.1409153476725021e-06 1.1657093313134513e-05 6.4450207553710937e-06 -1.2682400300256038e-06 1.1869519542854882e-05 -7.4730653982970152e-07 4.5402274730349937e-06 -1.530169588979698e-05 -1.4483710551164653e-05 -1.4536077615442242e-05 -9.4704912760191899e-07 -1.1591470784735192e-05 -2.5771379571620098e-05 -2.2051734415643832e-05 -3.1023181210655257e-05 -2.2964115977283013e-05 -3.0014548969759121e-05 -1.3348078720229626e-05 -2.6755564512205885e-05 -4.8957280083520191e-05 -4.8284690544548952e-05 -6.3268997705658546e-05 -4.4622066118610038e-05 -5.5779116731627432e-05 -3.355387013675318e-05 -4.7808585152768105e-05 -3.3885768185937717e-05 -5.2605382172846404e-05 -8.3470891377176971e-05 -4.832639946433597e-05 -4.3871693302191692e-05 -7.5121973721020889e-05 -6.8956021848047197e-05 -4.5343619103547443e-05 -4.905927213192302e-05 -4.4711656424294016e-05 -2.2390277741497099e-05 -2.7388365259674655e-05 -1.9370397946505581e-05 -1.552237035712411e-05 -3.0147208179158477e-05 -1.4046031649224239e-05 1.4964244794575982e-05 3.0186536187135299e-05 2.6864777516192142e-05 -5.961636791525644e-06 2.7652053708354345e-06 -1.5040858589207535e-05 -5.826285746684989e-06 -4.4178426433135192e-09 1.4234794096317931e-05 6.0461542838508616e-06 1.6622029691009923e-05 3.2801811513779596e-05 1.9217658111571677e-05 3.5455721804696253e-05 2.0415116853831316e-05 3.7847626536756401e-05 5.7013437977429407e-05 3.4647057018503331e-05 5.6701589714572731e-05 6.3154370525167838e-05 0.00010276663994012965 9.5972452923157741e-05 6.0993482937615642e-05 5.1493083557653015e-05 0.00010743473985022243 0.0001672804348115101 0.00015808931644710396 0.00016919879535959607 0.00012433659419828569 9.0962229920710821e-05 0.00010374366049707847 9.0256157918689909e-05 5.3628708228128496e-05 4.3872643461087286e-05 3.0157619510938374e-05 1.2929434626378501e-05 6.5937767957501101e-05 1.2086612458941492e-05 -2.1984624245619888e-05 -2.0828680290598564e-05 1.9562855124469159e-06 -3.2493332575444129e-06 8.4290349174838452e-06 -1.9341503210428936e-05 2.4472895022439401e-06 -1.8767609691709057e-05 -3.7356046685013493e-05 -3.5575075950656067e-05 -6.7150676637397946e-05 -4.8641683331417909e-05 -8.0340874679854919e-05 -5.5473783311218354e-05 -3.7498476012012141e-05 -5.5601891958909468e-05 6.5823438603492633e-05 7.5990319960570906e-05 8.2126631581755786e-05 7.3340284251854719e-05 6.6092463286743363e-05 5.6754708836754706e-05 4.9764864312797033e-05 5.9854080236502704e-05 4.3990556064818679e-05 4.8021681995943145e-05 3.6036308506124474e-05 4.6951137949157778e-05 4.2034331647206582e-05 5.3607987280743965e-05 5.3844453534491268e-05 4.9248013408127324e-05 4.3870238976633551e-05 3.7556982718663787e-05 5.6746133754977582e-05 5.0098214287135041e-05 6.1359320907278906e-05 3.7538487879612197e-05 4.7865777027156475e-05 6.0778766696772028e-05 7.6309933573215089e-05 9.6697850333453701e-05 7.0362951943950291e-05 7.6627428693336523e-05 8.0713212073140879e-05 9.882438251982273e-05 0.00011081553068547582 0.00013665942908726113 0.00015031159038938555 0.00013533414173937745 0.00012179119520452328 0.00013098215703621091 0.00015759922457520204 0.00015351222941069554 0.00024834561098302662 0.00029662698719641693 0.00028333700780656387 0.00020173914452047129 0.00012138838223866495 0.00015758073934940808 0.00018674444559310167 0.00012059703071740457 0.00012488038354499477 0.00012800644089514348 9.4612018859961222e-05 0.00011305805640400443 7.9773570240962872e-05 9.1401551192070679e-05 7.2632476954701515e-05 9.7391209199733291e-05 6.1561151978754209e-05 7.2460201825642076e-05 8.8734201787623728e-05 7.036733130625527e-05 6.5797642853115216e-05 9.3316558888362021e-05 7.1072491245664738e-05 6.3735073360379307e-05 8.0305307158623864e-05 6.1665174065567705e-05 5.1218095900599646e-05 6.5185606909112708e-05 6.9374183281355076e-05 4.8401508103549902e-05 7.0994451538862837e-05 5.9502338625105916e-05 6.7245901585014122e-05 9.9728512742272812e-05 8.9015338932050137e-05 8.7893884465473267e-05 9.4170646396942511e-05 0.00012170679777892147 0.0001295394711394618 0.00014790027102499749 0.00030653579256552713 5.2757918988509731e-05 0.00013739792817910444 0.00028760111512699823 0.00017864015628918964 0.015980708828750599 0.00024131389231939952 0.00013757986255143097 0.039115537990096948 4.8308047984507425e-05 0.00012110211717013847 0.054520229559838262 5.745971257619932e-05 9.5880651412573415e-05 5.9035090645276583e-05 6.5788996225136213e-05 7.0879535075940787e-05 6.6016030668311653e-05 6.2094960950017102e-05 7.6767148999638628e-05 7.5432792146742792e-05 7.146866399296818e-05 9.6465148251557737e-05 0.00011066154856271279 0.00011363426143987847 0.067347936308514322 0.0001079635473699729 0.0001121278943302371 0.00010420408869193411 0.0001155050737442309 9.5063435015476597e-05 0.079303488306827749 0.00011578078401558315 7.6506771960168046e-05 6.6366330643548614e-05 9.0833750957712968e-05 8.4156916310889658e-05 8.7989989365304161e-05 6.576654625527179e-05 6.8390801176598955e-05 6.748683481951084e-05 5.4287057025795954e-05 5.6943228278804226e-05 5.0648481511138044e-05 5.487365346883025e-05 4.9091557274228521e-05 5.5212725300097799e-05 5.4907305833415431e-05 4.5312321435208409e-05 5.5556147005089804e-05 4.9895724399192448e-05 5.3987631620292008e-05 5.641483269552117e-05 6.3212274925053416e-05 -1.6409698579986716e-05 -2.0414929788201467e-05 6.0642700454608886e-07 -4.2435925413184948e-05 -4.8751655921407556e-05 -1.9393020673229766e-05 -1.8386011782621438e-05 4.5684503126587313e-06 2.0353388339402546e-05 4.4095654104364711e-05 1.4664749318143294e-05 2.7106913193436662e-05 2.0140876903344297e-06 2.5611315437514253e-05 7.3972632054935682e-05 5.2185436047689658e-05 0.00010237081111745972 5.4652399173554756e-05 2.7029459598397997e-05 7.2802002239088647e-05 6.9219790378427775e-05 0.00013049610554725336 0.00018029529636375951 0.00013729201316368597 0.00013813969845562056 9.0326425047077561e-05 0.00010318211099848227 0.00010706402064121706 7.5738632760242747e-05 7.1920437509330037e-05 9.4176001902655619e-05 8.7647329887716044e-05 9.436192990895393e-05 8.7045604313362661e-05 7.2642222869898142e-05 7.0425021636796783e-05 5.2920221415117443e-05 5.4222151535963746e-05 4.9682933973560928e-05 3.1040464723337043e-05 5.521183918407932e-05 5.9573747070058641e-05 4.0067225357138516e-05 3.7766561060627812e-05 1.7494865943618303e-05 1.8033365859813902e-05 1.6506457999020552e-05 1.5762431535537992e-05 3.2266742322763567e-05 3.0557037770599811e-05 2.2247153386996344e-05 1.5679837352562502e-05 1.1671558730050498e-05 2.432272051997161e-06 1.4007024719472037e-05 7.4806598974754522e-06 -9.6978644948727405e-06 -2.7836986889995773e-06 6.803264846234891e-07 2.1132544649583125e-05 1.5799111489938743e-05 2.3701495970609955e-05 1.1963348508709122e-05 1.5214836450249281e-05 7.3759747428328928e-06 1.0155845598533442e-05 1.449069531163534e-05 2.1489946986343045e-05 2.3820285164343011e-05 2.9800927792362434e-05 3.5560510122451677e-05 3.5288634733172345e-05 2.4745078993734576e-05 3.3392028736969274e-05 5.4402230653054651e-05 6.24528877539339e-05 7.0108261807946999e-05 3.8785435802967012e-05 3.5487616708758992e-05 5.0358986570977603e-05 4.9284349908720188e-05 6.3380784640984598e-05 5.5683508294558301e-05 8.2455099832866308e-05 8.1713712050528534e-05 7.1301164955542024e-05 8.8566196128601199e-05 0.00010604084685496805 9.7262361972501755e-05 0.00010929651239966528 7.7423738820906656e-05 9.4024298663709818e-05 0.00011732243625135665 0.00010970079026224877 0.00012402935530551277 0.00011990089463655845 0.00014132096357455815 0.00015260206924736517 0.00012677268543096094 0.00011001419238886641 5.4788126489706789e-05 7.2895887145410856e-05 8.6144122291010455e-05 5.4338394659079851e-05 8.6850457903668403e-05 7.0663837361401027e-05 8.0898904571578487e-05 4.3256321950298215e-05 2.5333989053588808e-05 3.39822671524357e-05 2.6331550396187925e-05 4.3610845551256532e-05 4.4122033390097716e-05 2.8065085194131992e-05 3.4648159005622875e-05 3.0072030207314426e-05 2.4189032831307099e-05 2.2328058369464813e-05 1.9415716285915187e-05 1.7362773366270262e-05 2.0199605517238171e-05 1.7630387035486375e-05 2.1279841812562933e-05 1.5024239174908811e-05 6.9122677277626363e-05 9.3382474319457769e-05 8.8293849633036211e-05 8.488147555897618e-05 6.796129515930548e-05 5.6295582445047639e-05 5.6968831671793839e-05 6.0091772010491902e-05 5.0782433687252535e-05 5.0279524622222642e-05 6.493364556712383e-05 6.4251743663042149e-05 6.6293256720567287e-05 8.1719918552091548e-05 7.7685363283398669e-05 9.3801846280043783e-05 0.0001068548934271378 0.00012390376096137195 0.00010287244629272055 0.00011390355773716054 0.00013036593827081295 0.00011448447091329071 0.090768218496023997 0.00010974961702036462 0.00013041380800237444 0.00013211142754755711 0.10213381886528776 0.000134989241093489 0.00014011003768253649 0.11377707001485343 0.00013542096476525431 0.00010806675799821799 0.00013866877712089703 0.00011018695580225577 0.00011814384916266184 0.00013333498394848707 0.00011715488123138174 0.00015340191115003574 0.00015841726675388558 0.00014397035116919929 0.00015645438477927993 0.12578224567712173 0.00017624975754965757 0.00016743851749623616 0.00015464175999013209 0.00016963817127914425 0.1396528587794314 0.0001901402162903798 0.00017839903823001647 0.00012210398625487554 0.00017047130600396539 0.0001874042925793021 0.00017069618184938681 0.00013406635352412432 7.9182976312286945e-05 0.00011335083850586112 7.9026887352305402e-05 0.00010295321269165869 8.0627147882472326e-05 7.5368274329674673e-05 8.5180541664763181e-05 0.00010059049939248907 6.1292987495923908e-05 6.4349762271620448e-05 6.5366530593072162e-05 7.2532830964748307e-05 5.5672491632470728e-05 5.6968104034703555e-05 4.6243227533367863e-05 4.8603447279131195e-05 3.7859451419521776e-05 5.1957034498372086e-05 5.1201684429222512e-05 5.0989160145092509e-05 8.7648711241817136e-05 6.3273456975029e-05 6.2094592166614089e-05 8.5200666347759425e-05 6.88308843696922e-05 6.4928178876361002e-05 7.2442907977015116e-05 8.4268775015762043e-05 5.901713266347658e-05 6.2379759307447206e-05 5.3679952154690866e-05 5.788236034162496e-05 5.2129674695229849e-05 5.7776513101970252e-05 5.4312949503589948e-05 5.4531628952303023e-05 6.0699399764025806e-05 6.0516418561160383e-05 7.2176989091350267e-05 7.9634416569942688e-05 6.1925321984303045e-05 5.3209720705564806e-05 6.2619784517788736e-05 6.8334678201673505e-05 5.5188990194418702e-05 4.5199232046295806e-05 5.2386414821661033e-05 4.8973550795176944e-05 5.5586243375430627e-05 5.6181518997683327e-05 9.2951780016886122e-05 0.062301598447315309 9.3586764576044073e-05 8.9356798849348992e-05 8.0012651728432254e-05 6.5468034782427891e-05 6.7896523642068849e-05 7.4509367623764222e-05 9.621069686949874e-05 8.9394065513050298e-05 9.7284058888560395e-05 9.1601092839490835e-05 0.00011482021464430869 0.00012862750764219719 0.00010066584714575524 0.00010383598424927392 0.086014702517096614 0.00010973730128960725 0.0001062458837622249 0.073587443081964618 0.00012716443838337249 0.099761651567988996 0.000152441551874934 0.00013928276114371529 0.00012776959515980665 9.8172500716129022e-05 0.00011351410843746159 0.00013344854312155444 0.00012297872563979837 0.00010155212345886995 0.00014730876928770219 0.00016702303744150983 0.00014566338408112929 0.0001139327027233044 0.0001458006469290782 0.11548757365344722 0.00017142865684491044 0.00015515046765953756 0.00012932614895575423 0.0001032772287356278 9.945587379927949e-05 0.00011790937962185985 8.5031467751034255e-05 5.2363317797125136e-05 4.3796164359727243e-05 6.6394768822677398e-05 6.982948919092148e-05 5.0696522551595992e-05 4.0067130218448405e-05 5.8110928484246625e-05 8.9796459220017866e-05 0.00010198709696154643 8.5025190802403791e-05 1.6740778341370853e-05 1.3628685923519276e-05 1.5757215948721794e-05 1.8038526615762017e-05 1.6933709303454305e-05 2.1645963704192226e-05 2.7884419646055907e-05 2.0484831239686325e-05 3.0575452831666524e-05 2.8903794520849114e-05 2.5017205299177189e-05 1.1457191202082171e-05 2.4422251822745779e-05 1.8813951438493865e-05 1.3339190516841197e-05 4.7086095511634771e-06 1.2060125513789401e-05 -1.8081346612438057e-06 1.1965589787325814e-05 9.6052402776183182e-06 1.9455278544319807e-07 1.0397369746709963e-05 2.1948666179949245e-05 1.8615219458367749e-05 2.303083816530653e-05 8.9744786770798793e-06 9.554437488156674e-06 2.0331810671474129e-05 3.7636266337097088e-06 -6.0204341461971012e-07 -5.1626835316829307e-06 -4.4291946720786089e-06 -1.3529372599000128e-05 -2.4599014147265105e-06 6.6251683353307994e-05 6.0847682886114134e-05 7.9026508188240457e-05 7.0227010556486204e-05 4.1048485010174076e-05 3.4272715129465099e-05 4.884432315468458e-05 4.0568227857396737e-05 3.4517487743081676e-05 2.765852159213847e-05 2.9173002093855349e-05 5.5864333913662433e-05 5.1158900992792893e-05 7.835591435275107e-05 6.5332963299710375e-05 6.8364822486132381e-05 5.3281880785516645e-05 5.4641172721782644e-05 5.7998058670077988e-05 3.8475436591806382e-05 4.748298002721558e-05 3.7017615864094397e-05 2.0867233822895008e-05 1.65966970092561e-05 3.5678881011391478e-05 2.2762769153741305e-05 2.9893070097252025e-05 1.3516435291484265e-05 1.782345599808991e-05 4.794574060104531e-05 5.2816429593495993e-05 5.3684744016087044e-05 3.2279939118286141e-05 4.7271938638660492e-05 -1.4563070778457303e-05 -2.2642196926083849e-05 -1.5176999771101835e-05 -2.188223503367219e-05 -8.9594533416832104e-06 2.5246027153189021e-06 -6.2240663116332542e-06 6.9997770571987973e-06 5.3965965968103251e-06 1.0673788707850004e-06 4.1703060225761244e-06 4.1233367242795096e-06 -4.9369965701828841e-06 -1.1411440439199234e-05 -1.1488568811654498e-05 -1.0976605110142113e-05 -2.4887984939348364e-05 -2.3526790911305095e-05 -3.0511890430491052e-05 -5.0613276939765091e-05 -3.8639126433423661e-05 -3.2063716433524574e-05 -2.3606650828118629e-05 -1.8898211136186924e-05 -1.4091635263371784e-06 -1.8766872469347558e-06 3.7497942262507871e-06 -1.2393413878825121e-05 -9.8998942194725116e-06 -2.0160884647656477e-05 -2.0031359346094979e-05 -3.3205719530825131e-05 -3.1102197963995573e-05 -5.1003531966698759e-05 3.4754209896231912e-05 6.3371630911423799e-05 3.439233676656348e-05 2.7831940230029113e-05 1.0738848809594488e-05 1.5464694068343461e-05 3.131020019988477e-05 1.832682188296342e-05 -6.5270547258468878e-06 2.415047739961259e-06 1.5992763499876215e-05 4.0022061212647843e-05 4.1676717196406903e-05 6.7166188115659375e-05 0.00010943440292070708 2.8665818676734569e-05 0.00012484472964579543 0.0096650737234332332 5.8357791515403578e-05 6.2727601426385959e-05 0.024033876445366729 8.143278052229262e-05 0.033400873501596297 6.6674552871050989e-05 6.0402615312255448e-05 3.6573708906727622e-05 3.3556495934173192e-05 3.9542461075528894e-05 1.6384386106870689e-05 4.8501438903163598e-05 2.6640371567632947e-05 7.4328564194289375e-05 4.180382141246255e-05 3.5718033225164901e-05 5.2351973203170233e-05 4.5697973918512494e-05 5.1937557064847458e-05 6.0778010843243512e-05 6.2163893632990991e-05 5.4871224873322847e-05 4.781460899470441e-05 4.7444958630142716e-05 4.3603492061705586e-05 4.1856689546872943e-05 4.0063636222360588e-05 4.2001189806467804e-05 4.11792677739216e-05 4.1268049617445744e-05 4.2171270867284358e-05 4.5410191558661417e-05 4.6058338643899461e-05 4.6292213565786011e-05 4.6012080864932764e-05 4.3934666175635898e-05 4.6226675261990435e-05 4.6304563719194204e-05 4.3470747488076849e-05 4.3085839021748723e-05 5.0535329815367823e-05 5.2671056688906944e-05 5.1069177931228611e-05 4.5020508312233748e-05 4.9093305175561741e-05 5.3780454964953749e-05 5.9795067537705103e-05 6.5270954229677456e-05 5.7572556814401861e-05 5.4471732863390146e-05 6.7897269194922244e-05 8.222981701412114e-05 0.051975009501805169 7.3301310560483371e-05 7.9026922861692717e-05 7.1809048680863529e-05 7.650240134679119e-05 5.5339330924997996e-05 0.04246591508957262 6.8625549736119583e-05 5.8265901847684583e-05 7.3309402255806923e-05 4.5573550316607041e-05 4.0758285088253872e-05 4.596268732233291e-05 5.3746010810443764e-05 
</DataArray>
</CellData>
</Piece>
</UnstructuredGrid>
</VTKFile>
