<?xml version="1.0"?>
<VTKFile type="UnstructuredGrid" version="0.1" byte_order="LittleEndian">
<UnstructuredGrid>
<Piece NumberOfPoints="3142" NumberOfCells="1054">
<Points>
<DataArray type="Float64" NumberOfComponents="3" format="ascii">
0.02576622439977887 0.024532886826226379 0 0 0 0 0.049999999999899652 0 0 0.02576622439977887 0.024532886826226379 0 0 0 0 0 0.050000000000207989 0 0.02576622439977887 0.024532886826226379 0 0.049999999999899652 0 0 0.053064897599215843 0.048131547304697528 0 0.02576622439977887 0.024532886826226379 0 0.053064897599215843 0.048131547304697528 0 0 0.050000000000207989 0 0 0.050000000000207989 0 0 0.10000000000041601 0 0.044310582753132287 0.101412518374475 0 0 0.10000000000041601 0 0.044310582753132287 0.101412518374475 0 0 0.15000000000062411 0 0.053064897599215843 0.048131547304697528 0 0.044310582753132287 0.101412518374475 0 0.083411279318303222 0.089699755330707398 0 0.053064897599215843 0.048131547304697528 0 0 0.050000000000207989 0 0.044310582753132287 0.101412518374475 0 0.044310582753132287 0.101412518374475 0 0.083411279318303222 0.089699755330707398 0 0.065374659239632718 0.1448908038746782 0 0.083411279318303222 0.089699755330707398 0 0.065374659239632718 0.1448908038746782 0 0.1053400320299198 0.12877248826361379 0 0.083411279318303222 0.089699755330707398 0 0.12372429750337779 0.095814237875728972 0 0.1053400320299198 0.12877248826361379 0 0.12372429750337779 0.095814237875728972 0 0.1053400320299198 0.12877248826361379 0 0.14332333627550789 0.14578431753966009 0 0.12372429750337779 0.095814237875728972 0 0.10266856499169109 0.044518360900210059 0 0.14618258501891079 0.062070108745602003 0 0.083411279318303222 0.089699755330707398 0 0.12372429750337779 0.095814237875728972 0 0.10266856499169109 0.044518360900210059 0 0.10266856499169109 0.044518360900210059 0 0.099999999999814668 0 0 0.14999999999970359 0 0 0.049999999999899652 0 0 0.053064897599215843 0.048131547304697528 0 0.099999999999814668 0 0 0.053064897599215843 0.048131547304697528 0 0.10266856499169109 0.044518360900210059 0 0.099999999999814668 0 0 0.053064897599215843 0.048131547304697528 0 0.083411279318303222 0.089699755330707398 0 0.10266856499169109 0.044518360900210059 0 0.044081577119474857 0.2271058242433576 0 0 0.20000000000083221 0 0 0.25000000000104028 0 0.044081577119474857 0.2271058242433576 0 0 0.20000000000083221 0 0.038512288486115001 0.1844147282893184 0 0.044081577119474857 0.2271058242433576 0 0.038512288486115001 0.1844147282893184 0 0.083105206071467416 0.20007701332709979 0 0.038512288486115001 0.1844147282893184 0 0 0.15000000000062411 0 0.065374659239632718 0.1448908038746782 0 0.044310582753132287 0.101412518374475 0 0 0.15000000000062411 0 0.065374659239632718 0.1448908038746782 0 0.038512288486115001 0.1844147282893184 0 0.065374659239632718 0.1448908038746782 0 0.083105206071467416 0.20007701332709979 0 0 0.20000000000083221 0 0.038512288486115001 0.1844147282893184 0 0 0.15000000000062411 0 0.065374659239632718 0.1448908038746782 0 0.1053400320299198 0.12877248826361379 0 0.106902708054812 0.16453234188234539 0 0.1053400320299198 0.12877248826361379 0 0.106902708054812 0.16453234188234539 0 0.14332333627550789 0.14578431753966009 0 0.065374659239632718 0.1448908038746782 0 0.106902708054812 0.16453234188234539 0 0.083105206071467416 0.20007701332709979 0 0.083105206071467416 0.20007701332709979 0 0.095326043202144745 0.24554465089224409 0 0.13737030665753211 0.20313708640667491 0 0.106902708054812 0.16453234188234539 0 0.083105206071467416 0.20007701332709979 0 0.13737030665753211 0.20313708640667491 0 0.044081577119474857 0.2271058242433576 0 0.083105206071467416 0.20007701332709979 0 0.095326043202144745 0.24554465089224409 0 0.044081577119474857 0.2271058242433576 0 0.095326043202144745 0.24554465089224409 0 0.049706944316556423 0.27522722923869108 0 0.095326043202144745 0.24554465089224409 0 0.14377654328998779 0.2442024734791064 0 0.13737030665753211 0.20313708640667491 0 0.17933913398461551 0.2350063570234002 0 0.14377654328998779 0.2442024734791064 0 0.13737030665753211 0.20313708640667491 0 0.17933913398461551 0.2350063570234002 0 0.13737030665753211 0.20313708640667491 0 0.18124454140915969 0.18790916706335251 0 0.18124454140915969 0.18790916706335251 0 0.14332333627550789 0.14578431753966009 0 0.18652628422869419 0.14162325200928061 0 0.106902708054812 0.16453234188234539 0 0.13737030665753211 0.20313708640667491 0 0.14332333627550789 0.14578431753966009 0 0.13737030665753211 0.20313708640667491 0 0.18124454140915969 0.18790916706335251 0 0.14332333627550789 0.14578431753966009 0 0.14332333627550789 0.14578431753966009 0 0.18652628422869419 0.14162325200928061 0 0.16141998738593399 0.10404039647458049 0 0.18652628422869419 0.14162325200928061 0 0.22985637510995899 0.1298347970200906 0 0.2185883431182947 0.18019736283949719 0 0.22985637510995899 0.1298347970200906 0 0.2185883431182947 0.18019736283949719 0 0.25557216766470708 0.15874861286892261 0 0.2185883431182947 0.18019736283949719 0 0.25557216766470708 0.15874861286892261 0 0.26429849586623999 0.19346700179430079 0 0.18124454140915969 0.18790916706335251 0 0.18652628422869419 0.14162325200928061 0 0.2185883431182947 0.18019736283949719 0 0.17933913398461551 0.2350063570234002 0 0.18124454140915969 0.18790916706335251 0 0.224700362040408 0.22206622194729711 0 0.18124454140915969 0.18790916706335251 0 0.2185883431182947 0.18019736283949719 0 0.224700362040408 0.22206622194729711 0 0.2185883431182947 0.18019736283949719 0 0.224700362040408 0.22206622194729711 0 0.26429849586623999 0.19346700179430079 0 0.224700362040408 0.22206622194729711 0 0.25195515620380449 0.25883339815888678 0 0.21049769590865089 0.26857363548218488 0 0.17933913398461551 0.2350063570234002 0 0.224700362040408 0.22206622194729711 0 0.21049769590865089 0.26857363548218488 0 0.184418230509967 0.038773194583122873 0 0.14999999999970359 0 0 0.14618258501891079 0.062070108745602003 0 0.184418230509967 0.038773194583122873 0 0.14618258501891079 0.062070108745602003 0 0.19922788606653311 0.085920220746880993 0 0.184418230509967 0.038773194583122873 0 0.14999999999970359 0 0 0.19999999999955789 0 0 0.10266856499169109 0.044518360900210059 0 0.14999999999970359 0 0 0.14618258501891079 0.062070108745602003 0 0.12372429750337779 0.095814237875728972 0 0.14618258501891079 0.062070108745602003 0 0.16141998738593399 0.10404039647458049 0 0.12372429750337779 0.095814237875728972 0 0.14332333627550789 0.14578431753966009 0 0.16141998738593399 0.10404039647458049 0 0.18652628422869419 0.14162325200928061 0 0.16141998738593399 0.10404039647458049 0 0.19922788606653311 0.085920220746880993 0 0.14618258501891079 0.062070108745602003 0 0.16141998738593399 0.10404039647458049 0 0.19922788606653311 0.085920220746880993 0 0.18652628422869419 0.14162325200928061 0 0.22985637510995899 0.1298347970200906 0 0.19922788606653311 0.085920220746880993 0 0.22985637510995899 0.1298347970200906 0 0.19922788606653311 0.085920220746880993 0 0.24218496799700481 0.089025544070598317 0 0.22985637510995899 0.1298347970200906 0 0.24218496799700481 0.089025544070598317 0 0.27474541102162192 0.11822029332053539 0 0.19922788606653311 0.085920220746880993 0 0.24218496799700481 0.089025544070598317 0 0.22668068146512929 0.045875643423131329 0 0.24218496799700481 0.089025544070598317 0 0.22668068146512929 0.045875643423131329 0 0.27499999999933927 0.060310814194988557 0 0.184418230509967 0.038773194583122873 0 0.19922788606653311 0.085920220746880993 0 0.22668068146512929 0.045875643423131329 0 0.184418230509967 0.038773194583122873 0 0.22668068146512929 0.045875643423131329 0 0.19999999999955789 0 0 0.22668068146512929 0.045875643423131329 0 0.19999999999955789 0 0 0.24999999999941211 0 0 0.24999999999941211 0 0 0.27499999999933927 0.060310814194988557 0 0.29999999999926641 0 0 0.22668068146512929 0.045875643423131329 0 0.24999999999941211 0 0 0.27499999999933927 0.060310814194988557 0 0.27499999999933927 0.060310814194988557 0 0.29999999999926641 0 0 0.32541448401678508 0.046215317981507749 0 0.29999999999926641 0 0 0.32541448401678508 0.046215317981507749 0 0.34999999999912063 0 0 0.32541448401678508 0.046215317981507749 0 0.3615861437013822 0.03582617922508851 0 0.35312867752657662 0.084946736076730367 0 0.3615861437013822 0.03582617922508851 0 0.35312867752657662 0.084946736076730367 0 0.39591832466117061 0.056982757562006353 0 0.32541448401678508 0.046215317981507749 0 0.3615861437013822 0.03582617922508851 0 0.34999999999912063 0 0 0.3615861437013822 0.03582617922508851 0 0.34999999999912063 0 0 0.3999999999989749 0 0 0.35312867752657662 0.084946736076730367 0 0.36246644853392812 0.1399454205365751 0 0.39823268594401579 0.1116623613130045 0 0.35312867752657662 0.084946736076730367 0 0.32215584939770009 0.1218492143506909 0 0.36246644853392812 0.1399454205365751 0 0.32541448401678508 0.046215317981507749 0 0.35312867752657662 0.084946736076730367 0 0.3096713403101819 0.085471541595262421 0 0.35312867752657662 0.084946736076730367 0 0.32215584939770009 0.1218492143506909 0 0.3096713403101819 0.085471541595262421 0 0.32215584939770009 0.1218492143506909 0 0.3096713403101819 0.085471541595262421 0 0.27474541102162192 0.11822029332053539 0 0.27499999999933927 0.060310814194988557 0 0.32541448401678508 0.046215317981507749 0 0.3096713403101819 0.085471541595262421 0 0.27499999999933927 0.060310814194988557 0 0.3096713403101819 0.085471541595262421 0 0.27474541102162192 0.11822029332053539 0 0.24218496799700481 0.089025544070598317 0 0.27499999999933927 0.060310814194988557 0 0.27474541102162192 0.11822029332053539 0 0.22985637510995899 0.1298347970200906 0 0.27474541102162192 0.11822029332053539 0 0.25557216766470708 0.15874861286892261 0 0.27474541102162192 0.11822029332053539 0 0.25557216766470708 0.15874861286892261 0 0.29336099386129338 0.15892013001050981 0 0.25557216766470708 0.15874861286892261 0 0.29336099386129338 0.15892013001050981 0 0.26429849586623999 0.19346700179430079 0 0.29336099386129338 0.15892013001050981 0 0.31255190597181792 0.19850845631528771 0 0.33084213324567391 0.16272720141332131 0 0.29336099386129338 0.15892013001050981 0 0.26429849586623999 0.19346700179430079 0 0.31255190597181792 0.19850845631528771 0 0.32215584939770009 0.1218492143506909 0 0.27474541102162192 0.11822029332053539 0 0.29336099386129338 0.15892013001050981 0 0.224700362040408 0.22206622194729711 0 0.28040350263641872 0.23054717217092141 0 0.25195515620380449 0.25883339815888678 0 0.224700362040408 0.22206622194729711 0 0.28040350263641872 0.23054717217092141 0 0.26429849586623999 0.19346700179430079 0 0.28040350263641872 0.23054717217092141 0 0.26429849586623999 0.19346700179430079 0 0.31255190597181792 0.19850845631528771 0 0.28040350263641872 0.23054717217092141 0 0.33758650185219202 0.23837101504325639 0 0.29132859388405002 0.27203693976649962 0 0.28040350263641872 0.23054717217092141 0 0.33758650185219202 0.23837101504325639 0 0.31255190597181792 0.19850845631528771 0 0.33758650185219202 0.23837101504325639 0 0.31255190597181792 0.19850845631528771 0 0.3572130504031617 0.1874703368446563 0 0.33758650185219202 0.23837101504325639 0 0.3572130504031617 0.1874703368446563 0 0.38831533174504851 0.2189834941785925 0 0.33758650185219202 0.23837101504325639 0 0.38831533174504851 0.2189834941785925 0 0.3786248352540974 0.27082301512024259 0 0.32215584939770009 0.1218492143506909 0 0.29336099386129338 0.15892013001050981 0 0.33084213324567391 0.16272720141332131 0 0.32215584939770009 0.1218492143506909 0 0.33084213324567391 0.16272720141332131 0 0.36246644853392812 0.1399454205365751 0 0.31255190597181792 0.19850845631528771 0 0.33084213324567391 0.16272720141332131 0 0.3572130504031617 0.1874703368446563 0 0.3572130504031617 0.1874703368446563 0 0.36246644853392812 0.1399454205365751 0 0.39801143831225599 0.16651381068160659 0 0.33084213324567391 0.16272720141332131 0 0.3572130504031617 0.1874703368446563 0 0.36246644853392812 0.1399454205365751 0 0.36246644853392812 0.1399454205365751 0 0.39801143831225599 0.16651381068160659 0 0.39823268594401579 0.1116623613130045 0 0.39801143831225599 0.16651381068160659 0 0.42905200079338551 0.19982395548231649 0 0.44288491854585582 0.14116182884956319 0 0.39801143831225599 0.16651381068160659 0 0.44288491854585582 0.14116182884956319 0 0.39823268594401579 0.1116623613130045 0 0.38831533174504851 0.2189834941785925 0 0.42377727103934271 0.25099357235810238 0 0.3786248352540974 0.27082301512024259 0 0.3572130504031617 0.1874703368446563 0 0.39801143831225599 0.16651381068160659 0 0.38831533174504851 0.2189834941785925 0 0.39801143831225599 0.16651381068160659 0 0.38831533174504851 0.2189834941785925 0 0.42905200079338551 0.19982395548231649 0 0.38831533174504851 0.2189834941785925 0 0.42905200079338551 0.19982395548231649 0 0.42377727103934271 0.25099357235810238 0 0.42905200079338551 0.19982395548231649 0 0.46429753744194407 0.22870891180733599 0 0.42377727103934271 0.25099357235810238 0 0.42905200079338551 0.19982395548231649 0 0.46429753744194407 0.22870891180733599 0 0.47357141910802508 0.1873585799078378 0 0.47357141910802508 0.1873585799078378 0 0.51729576145820033 0.1683240575987815 0 0.50760557329222289 0.20700468884612061 0 0.46429753744194407 0.22870891180733599 0 0.47357141910802508 0.1873585799078378 0 0.50760557329222289 0.20700468884612061 0 0.46429753744194407 0.22870891180733599 0 0.49695729691142171 0.25014895411178018 0 0.50760557329222289 0.20700468884612061 0 0.44288491854585582 0.14116182884956319 0 0.47357141910802508 0.1873585799078378 0 0.48466639505193998 0.1421439844745814 0 0.42905200079338551 0.19982395548231649 0 0.44288491854585582 0.14116182884956319 0 0.47357141910802508 0.1873585799078378 0 0.47357141910802508 0.1873585799078378 0 0.48466639505193998 0.1421439844745814 0 0.51729576145820033 0.1683240575987815 0 0.44288491854585582 0.14116182884956319 0 0.48466639505193998 0.1421439844745814 0 0.47881186583059909 0.093591717165689425 0 0.48466639505193998 0.1421439844745814 0 0.47881186583059909 0.093591717165689425 0 0.51076801031701946 0.1202837388510348 0 0.44288491854585582 0.14116182884956319 0 0.47881186583059909 0.093591717165689425 0 0.43698630808430822 0.080423614171545449 0 0.47881186583059909 0.093591717165689425 0 0.47040171442036788 0.044141676406503738 0 0.43698630808430822 0.080423614171545449 0 0.47881186583059909 0.093591717165689425 0 0.47040171442036788 0.044141676406503738 0 0.52375890611712683 0.059318771819432882 0 0.47040171442036788 0.044141676406503738 0 0.49999999999869432 0 0 0.52375890611712683 0.059318771819432882 0 0.47040171442036788 0.044141676406503738 0 0.49999999999869432 0 0 0.44999999999882923 0 0 0.47040171442036788 0.044141676406503738 0 0.44999999999882923 0 0 0.4320097814748517 0.037406712692169303 0 0.47040171442036788 0.044141676406503738 0 0.4320097814748517 0.037406712692169303 0 0.43698630808430822 0.080423614171545449 0 0.4320097814748517 0.037406712692169303 0 0.3999999999989749 0 0 0.39591832466117061 0.056982757562006353 0 0.4320097814748517 0.037406712692169303 0 0.39591832466117061 0.056982757562006353 0 0.43698630808430822 0.080423614171545449 0 0.44999999999882923 0 0 0.4320097814748517 0.037406712692169303 0 0.3999999999989749 0 0 0.3615861437013822 0.03582617922508851 0 0.3999999999989749 0 0 0.39591832466117061 0.056982757562006353 0 0.35312867752657662 0.084946736076730367 0 0.39591832466117061 0.056982757562006353 0 0.39823268594401579 0.1116623613130045 0 0.44288491854585582 0.14116182884956319 0 0.39823268594401579 0.1116623613130045 0 0.43698630808430822 0.080423614171545449 0 0.39591832466117061 0.056982757562006353 0 0.39823268594401579 0.1116623613130045 0 0.43698630808430822 0.080423614171545449 0 0.42161023666869668 0.39493916313643851 0 0.38707855792647411 0.42299362914874578 0 0.43249999999999988 0.43937499999999979 0 0.42161023666869668 0.39493916313643851 0 0.38083244760691543 0.38531983672244652 0 0.38707855792647411 0.42299362914874578 0 0.42161023666869668 0.39493916313643851 0 0.38083244760691543 0.38531983672244652 0 0.40076539126862748 0.34589349467022118 0 0.38707855792647411 0.42299362914874578 0 0.3908716102680424 0.47010282357248828 0 0.43249999999999988 0.43937499999999979 0 0.3908716102680424 0.47010282357248828 0 0.43507373378304309 0.49699695397193322 0 0.38244435121258652 0.51653317813019495 0 0.3908716102680424 0.47010282357248828 0 0.43507373378304309 0.49699695397193322 0 0.43249999999999988 0.43937499999999979 0 0.43507373378304309 0.49699695397193322 0 0.43249999999999988 0.43937499999999979 0 0.46111841286828259 0.46690301029591341 0 0.43249999999999988 0.43937499999999979 0 0.46111841286828259 0.46690301029591341 0 0.48858720058566618 0.43964267759203868 0 0.43507373378304309 0.49699695397193322 0 0.46111841286828259 0.46690301029591341 0 0.49102375406324739 0.49123754822244059 0 0.46111841286828259 0.46690301029591341 0 0.49102375406324739 0.49123754822244059 0 0.48858720058566618 0.43964267759203868 0 0.48858720058566618 0.43964267759203868 0 0.46655310992796922 0.39650496622958609 0 0.52289427570932567 0.3932284363388488 0 0.43249999999999988 0.43937499999999979 0 0.48858720058566618 0.43964267759203868 0 0.46655310992796922 0.39650496622958609 0 0.42161023666869668 0.39493916313643851 0 0.43249999999999988 0.43937499999999979 0 0.46655310992796922 0.39650496622958609 0 0.42161023666869668 0.39493916313643851 0 0.46655310992796922 0.39650496622958609 0 0.4409427642593301 0.35743108089689513 0 0.46655310992796922 0.39650496622958609 0 0.49077833859261139 0.35229981449445641 0 0.52289427570932567 0.3932284363388488 0 0.49077833859261139 0.35229981449445641 0 0.46226845272279993 0.31901800744800313 0 0.5 0.29999999999999999 0 0.49077833859261139 0.35229981449445641 0 0.46226845272279993 0.31901800744800313 0 0.4409427642593301 0.35743108089689513 0 0.46226845272279993 0.31901800744800313 0 0.4409427642593301 0.35743108089689513 0 0.41914690343363781 0.30688979866601612 0 0.46655310992796922 0.39650496622958609 0 0.49077833859261139 0.35229981449445641 0 0.4409427642593301 0.35743108089689513 0 0.49695729691142171 0.25014895411178018 0 0.4604742573284204 0.27846934318264788 0 0.5 0.29999999999999999 0 0.46429753744194407 0.22870891180733599 0 0.49695729691142171 0.25014895411178018 0 0.4604742573284204 0.27846934318264788 0 0.46226845272279993 0.31901800744800313 0 0.4604742573284204 0.27846934318264788 0 0.5 0.29999999999999999 0 0.46226845272279993 0.31901800744800313 0 0.4604742573284204 0.27846934318264788 0 0.41914690343363781 0.30688979866601612 0 0.46429753744194407 0.22870891180733599 0 0.4604742573284204 0.27846934318264788 0 0.42377727103934271 0.25099357235810238 0 0.4604742573284204 0.27846934318264788 0 0.42377727103934271 0.25099357235810238 0 0.41914690343363781 0.30688979866601612 0 0.42377727103934271 0.25099357235810238 0 0.41914690343363781 0.30688979866601612 0 0.3786248352540974 0.27082301512024259 0 0.41914690343363781 0.30688979866601612 0 0.3786248352540974 0.27082301512024259 0 0.36575549820117997 0.31677992835137742 0 0.42161023666869668 0.39493916313643851 0 0.4409427642593301 0.35743108089689513 0 0.40076539126862748 0.34589349467022118 0 0.4409427642593301 0.35743108089689513 0 0.41914690343363781 0.30688979866601612 0 0.40076539126862748 0.34589349467022118 0 0.41914690343363781 0.30688979866601612 0 0.40076539126862748 0.34589349467022118 0 0.36575549820117997 0.31677992835137742 0 0.40076539126862748 0.34589349467022118 0 0.36575549820117997 0.31677992835137742 0 0.33277555741076909 0.36432196682010132 0 0.38083244760691543 0.38531983672244652 0 0.40076539126862748 0.34589349467022118 0 0.33277555741076909 0.36432196682010132 0 0.36575549820117997 0.31677992835137742 0 0.32752639306529541 0.32610012995269699 0 0.33277555741076909 0.36432196682010132 0 0.32752639306529541 0.32610012995269699 0 0.33277555741076909 0.36432196682010132 0 0.29644548887253103 0.34914008784168082 0 0.33758650185219202 0.23837101504325639 0 0.3786248352540974 0.27082301512024259 0 0.33402499257867951 0.28911035184473982 0 0.3786248352540974 0.27082301512024259 0 0.36575549820117997 0.31677992835137742 0 0.33402499257867951 0.28911035184473982 0 0.36575549820117997 0.31677992835137742 0 0.32752639306529541 0.32610012995269699 0 0.33402499257867951 0.28911035184473982 0 0.32752639306529541 0.32610012995269699 0 0.33402499257867951 0.28911035184473982 0 0.29348325746214782 0.31350119524708198 0 0.33758650185219202 0.23837101504325639 0 0.33402499257867951 0.28911035184473982 0 0.29132859388405002 0.27203693976649962 0 0.33402499257867951 0.28911035184473982 0 0.29132859388405002 0.27203693976649962 0 0.29348325746214782 0.31350119524708198 0 0.29132859388405002 0.27203693976649962 0 0.29348325746214782 0.31350119524708198 0 0.24432083401701241 0.3006253385567515 0 0.29132859388405002 0.27203693976649962 0 0.25195515620380449 0.25883339815888678 0 0.24432083401701241 0.3006253385567515 0 0.28040350263641872 0.23054717217092141 0 0.29132859388405002 0.27203693976649962 0 0.25195515620380449 0.25883339815888678 0 0.33277555741076909 0.36432196682010132 0 0.29644548887253103 0.34914008784168082 0 0.27866744612395528 0.38416094670951489 0 0.32752639306529541 0.32610012995269699 0 0.29644548887253103 0.34914008784168082 0 0.29348325746214782 0.31350119524708198 0 0.29644548887253103 0.34914008784168082 0 0.29348325746214782 0.31350119524708198 0 0.25966125648670141 0.34351016742083729 0 0.29348325746214782 0.31350119524708198 0 0.25966125648670141 0.34351016742083729 0 0.24432083401701241 0.3006253385567515 0 0.29644548887253103 0.34914008784168082 0 0.25966125648670141 0.34351016742083729 0 0.27866744612395528 0.38416094670951489 0 0.25966125648670141 0.34351016742083729 0 0.27866744612395528 0.38416094670951489 0 0.22033343844674469 0.36963382230740238 0 0.27866744612395528 0.38416094670951489 0 0.29124338931648802 0.43334555462578611 0 0.24049127783545701 0.41270748208749802 0 0.29124338931648802 0.43334555462578611 0 0.25982634974572738 0.46097799597715272 0 0.24049127783545701 0.41270748208749802 0 0.27866744612395528 0.38416094670951489 0 0.29124338931648802 0.43334555462578611 0 0.31778888742534622 0.40581751814196781 0 0.33277555741076909 0.36432196682010132 0 0.27866744612395528 0.38416094670951489 0 0.31778888742534622 0.40581751814196781 0 0.33277555741076909 0.36432196682010132 0 0.31778888742534622 0.40581751814196781 0 0.35221190152536241 0.40457127605439203 0 0.31778888742534622 0.40581751814196781 0 0.35221190152536241 0.40457127605439203 0 0.34258405725730701 0.4444034294386992 0 0.29124338931648802 0.43334555462578611 0 0.31778888742534622 0.40581751814196781 0 0.34258405725730701 0.4444034294386992 0 0.38707855792647411 0.42299362914874578 0 0.35221190152536241 0.40457127605439203 0 0.34258405725730701 0.4444034294386992 0 0.38083244760691543 0.38531983672244652 0 0.38707855792647411 0.42299362914874578 0 0.35221190152536241 0.40457127605439203 0 0.38083244760691543 0.38531983672244652 0 0.33277555741076909 0.36432196682010132 0 0.35221190152536241 0.40457127605439203 0 0.3908716102680424 0.47010282357248828 0 0.35024835142131061 0.48654922671676981 0 0.38244435121258652 0.51653317813019495 0 0.3908716102680424 0.47010282357248828 0 0.35024835142131061 0.48654922671676981 0 0.34258405725730701 0.4444034294386992 0 0.38707855792647411 0.42299362914874578 0 0.3908716102680424 0.47010282357248828 0 0.34258405725730701 0.4444034294386992 0 0.29124338931648802 0.43334555462578611 0 0.34258405725730701 0.4444034294386992 0 0.31068898841644388 0.47541502461811092 0 0.35024835142131061 0.48654922671676981 0 0.31068898841644388 0.47541502461811092 0 0.33190227185843768 0.52715113583864037 0 0.35024835142131061 0.48654922671676981 0 0.34258405725730701 0.4444034294386992 0 0.31068898841644388 0.47541502461811092 0 0.31068898841644388 0.47541502461811092 0 0.25982634974572738 0.46097799597715272 0 0.28307294598219601 0.50789252727458634 0 0.29124338931648802 0.43334555462578611 0 0.31068898841644388 0.47541502461811092 0 0.25982634974572738 0.46097799597715272 0 0.25982634974572738 0.46097799597715272 0 0.23975172658309729 0.49475499200540818 0 0.28307294598219601 0.50789252727458634 0 0.23975172658309729 0.49475499200540818 0 0.19604738184454831 0.47787523520405789 0 0.22278230690790279 0.44824268025881547 0 0.19604738184454831 0.47787523520405789 0 0.22278230690790279 0.44824268025881547 0 0.191953871957803 0.42546416763755879 0 0.25982634974572738 0.46097799597715272 0 0.22278230690790279 0.44824268025881547 0 0.24049127783545701 0.41270748208749802 0 0.25982634974572738 0.46097799597715272 0 0.23975172658309729 0.49475499200540818 0 0.22278230690790279 0.44824268025881547 0 0.27866744612395528 0.38416094670951489 0 0.24049127783545701 0.41270748208749802 0 0.22033343844674469 0.36963382230740238 0 0.191953871957803 0.42546416763755879 0 0.1650278706801647 0.38791388161335733 0 0.22033343844674469 0.36963382230740238 0 0.24049127783545701 0.41270748208749802 0 0.191953871957803 0.42546416763755879 0 0.22033343844674469 0.36963382230740238 0 0.22278230690790279 0.44824268025881547 0 0.24049127783545701 0.41270748208749802 0 0.191953871957803 0.42546416763755879 0 0.191953871957803 0.42546416763755879 0 0.13773355295499351 0.42497777642586831 0 0.15801167086041079 0.46008690540259539 0 0.191953871957803 0.42546416763755879 0 0.1650278706801647 0.38791388161335733 0 0.13773355295499351 0.42497777642586831 0 0.1650278706801647 0.38791388161335733 0 0.13773355295499351 0.42497777642586831 0 0.1117088112799664 0.38831403004970022 0 0.13773355295499351 0.42497777642586831 0 0.15801167086041079 0.46008690540259539 0 0.113541300460994 0.46208784312094731 0 0.15801167086041079 0.46008690540259539 0 0.113541300460994 0.46208784312094731 0 0.1216098864341134 0.50637075089503902 0 0.15801167086041079 0.46008690540259539 0 0.1216098864341134 0.50637075089503902 0 0.16618607197337229 0.50652878253548905 0 0.19604738184454831 0.47787523520405789 0 0.15801167086041079 0.46008690540259539 0 0.16618607197337229 0.50652878253548905 0 0.19604738184454831 0.47787523520405789 0 0.191953871957803 0.42546416763755879 0 0.15801167086041079 0.46008690540259539 0 0.25195515620380449 0.25883339815888678 0 0.21049769590865089 0.26857363548218488 0 0.24432083401701241 0.3006253385567515 0 0.21049769590865089 0.26857363548218488 0 0.24432083401701241 0.3006253385567515 0 0.19670163708476801 0.31472518408333222 0 0.21049769590865089 0.26857363548218488 0 0.19670163708476801 0.31472518408333222 0 0.168349569971391 0.28054490850913671 0 0.19670163708476801 0.31472518408333222 0 0.22615676742807109 0.33458786033114157 0 0.18434624290945251 0.35208838264196463 0 0.24432083401701241 0.3006253385567515 0 0.19670163708476801 0.31472518408333222 0 0.22615676742807109 0.33458786033114157 0 0.25966125648670141 0.34351016742083729 0 0.24432083401701241 0.3006253385567515 0 0.22615676742807109 0.33458786033114157 0 0.25966125648670141 0.34351016742083729 0 0.22615676742807109 0.33458786033114157 0 0.22033343844674469 0.36963382230740238 0 0.22615676742807109 0.33458786033114157 0 0.22033343844674469 0.36963382230740238 0 0.18434624290945251 0.35208838264196463 0 0.1650278706801647 0.38791388161335733 0 0.22033343844674469 0.36963382230740238 0 0.18434624290945251 0.35208838264196463 0 0.1650278706801647 0.38791388161335733 0 0.18434624290945251 0.35208838264196463 0 0.14223753364722069 0.3341983344262433 0 0.1650278706801647 0.38791388161335733 0 0.14223753364722069 0.3341983344262433 0 0.1117088112799664 0.38831403004970022 0 0.19670163708476801 0.31472518408333222 0 0.18434624290945251 0.35208838264196463 0 0.14223753364722069 0.3341983344262433 0 0.19670163708476801 0.31472518408333222 0 0.14223753364722069 0.3341983344262433 0 0.168349569971391 0.28054490850913671 0 0.14223753364722069 0.3341983344262433 0 0.168349569971391 0.28054490850913671 0 0.1247745017231483 0.27198077544791172 0 0.14377654328998779 0.2442024734791064 0 0.168349569971391 0.28054490850913671 0 0.1247745017231483 0.27198077544791172 0 0.17933913398461551 0.2350063570234002 0 0.21049769590865089 0.26857363548218488 0 0.168349569971391 0.28054490850913671 0 0.17933913398461551 0.2350063570234002 0 0.14377654328998779 0.2442024734791064 0 0.168349569971391 0.28054490850913671 0 0.095326043202144745 0.24554465089224409 0 0.093851963071650835 0.30582068233324772 0 0.049706944316556423 0.27522722923869108 0 0.095326043202144745 0.24554465089224409 0 0.14377654328998779 0.2442024734791064 0 0.1247745017231483 0.27198077544791172 0 0.095326043202144745 0.24554465089224409 0 0.1247745017231483 0.27198077544791172 0 0.093851963071650835 0.30582068233324772 0 0.14223753364722069 0.3341983344262433 0 0.1247745017231483 0.27198077544791172 0 0.093851963071650835 0.30582068233324772 0 0.093851963071650835 0.30582068233324772 0 0.046389130980076937 0.32668781832131749 0 0.049706944316556423 0.27522722923869108 0 0.093851963071650835 0.30582068233324772 0 0.087545339447545459 0.35122518864182262 0 0.046389130980076937 0.32668781832131749 0 0.14223753364722069 0.3341983344262433 0 0.093851963071650835 0.30582068233324772 0 0.087545339447545459 0.35122518864182262 0 0.14223753364722069 0.3341983344262433 0 0.087545339447545459 0.35122518864182262 0 0.1117088112799664 0.38831403004970022 0 0.087545339447545459 0.35122518864182262 0 0.1117088112799664 0.38831403004970022 0 0.050583896093752537 0.38543522283434112 0 0.087545339447545459 0.35122518864182262 0 0.046389130980076937 0.32668781832131749 0 0.050583896093752537 0.38543522283434112 0 0 0.35000000000145642 0 0.046389130980076937 0.32668781832131749 0 0.050583896093752537 0.38543522283434112 0 0 0.35000000000145642 0 0.046389130980076937 0.32668781832131749 0 0 0.30000000000124832 0 0.046389130980076937 0.32668781832131749 0 0 0.30000000000124832 0 0.049706944316556423 0.27522722923869108 0 0 0.30000000000124832 0 0 0.25000000000104028 0 0.049706944316556423 0.27522722923869108 0 0.044081577119474857 0.2271058242433576 0 0 0.25000000000104028 0 0.049706944316556423 0.27522722923869108 0 0.068743045408989428 0.48853989837882689 0 0.113541300460994 0.46208784312094731 0 0.078358742472063481 0.43365249433908948 0 0.068743045408989428 0.48853989837882689 0 0.113541300460994 0.46208784312094731 0 0.1216098864341134 0.50637075089503902 0 0.13773355295499351 0.42497777642586831 0 0.113541300460994 0.46208784312094731 0 0.078358742472063481 0.43365249433908948 0 0.13773355295499351 0.42497777642586831 0 0.1117088112799664 0.38831403004970022 0 0.078358742472063481 0.43365249433908948 0 0.1117088112799664 0.38831403004970022 0 0.078358742472063481 0.43365249433908948 0 0.050583896093752537 0.38543522283434112 0 0.078358742472063481 0.43365249433908948 0 0.035463093262830522 0.42673416072819947 0 0.050583896093752537 0.38543522283434112 0 0 0.35000000000145642 0 0.050583896093752537 0.38543522283434112 0 0 0.40000000000166441 0 0.035463093262830522 0.42673416072819947 0 0.050583896093752537 0.38543522283434112 0 0 0.40000000000166441 0 0.035463093262830522 0.42673416072819947 0 0 0.40000000000166441 0 0 0.45000000000187229 0 0.035463093262830522 0.42673416072819947 0 0 0.45000000000187229 0 0.033550201249889847 0.46247875832467239 0 0.068743045408989428 0.48853989837882689 0 0.033550201249889847 0.46247875832467239 0 0 0.50000000000205869 0 0.068743045408989428 0.48853989837882689 0 0.078358742472063481 0.43365249433908948 0 0.033550201249889847 0.46247875832467239 0 0.078358742472063481 0.43365249433908948 0 0.035463093262830522 0.42673416072819947 0 0.033550201249889847 0.46247875832467239 0 0 0.45000000000187229 0 0.033550201249889847 0.46247875832467239 0 0 0.50000000000205869 0 0.068743045408989428 0.48853989837882689 0 0 0.50000000000205869 0 0.044576108720083309 0.53509043209532614 0 0 0.50000000000205869 0 0 0.55000000000173355 0 0.044576108720083309 0.53509043209532614 0 0 0.55000000000173355 0 0.044576108720083309 0.53509043209532614 0 0.034381862692950467 0.57372682250960894 0 0.044576108720083309 0.53509043209532614 0 0.077693244765132896 0.56932317963405099 0 0.034381862692950467 0.57372682250960894 0 0.068743045408989428 0.48853989837882689 0 0.044576108720083309 0.53509043209532614 0 0.085622222639554768 0.53333248912060549 0 0.068743045408989428 0.48853989837882689 0 0.085622222639554768 0.53333248912060549 0 0.1216098864341134 0.50637075089503902 0 0.044576108720083309 0.53509043209532614 0 0.085622222639554768 0.53333248912060549 0 0.077693244765132896 0.56932317963405099 0 0.085622222639554768 0.53333248912060549 0 0.1154888278694548 0.56733818459978413 0 0.077693244765132896 0.56932317963405099 0 0.085622222639554768 0.53333248912060549 0 0.1216098864341134 0.50637075089503902 0 0.1154888278694548 0.56733818459978413 0 0.1024350934457823 0.60772393977513839 0 0.1154888278694548 0.56733818459978413 0 0.077693244765132896 0.56932317963405099 0 0.1024350934457823 0.60772393977513839 0 0.050069554451969707 0.61308520079857043 0 0.086179601630648681 0.64647209519980475 0 0.1024350934457823 0.60772393977513839 0 0.077693244765132896 0.56932317963405099 0 0.050069554451969707 0.61308520079857043 0 0.077693244765132896 0.56932317963405099 0 0.050069554451969707 0.61308520079857043 0 0.034381862692950467 0.57372682250960894 0 0 0.55000000000173355 0 0.034381862692950467 0.57372682250960894 0 0 0.60000000000138687 0 0.050069554451969707 0.61308520079857043 0 0 0.60000000000138687 0 0 0.65000000000104008 0 0.050069554451969707 0.61308520079857043 0 0.034381862692950467 0.57372682250960894 0 0 0.60000000000138687 0 0 0.65000000000104008 0 0.046634677244967337 0.671418230738282 0 0 0.7000000000006934 0 0.050069554451969707 0.61308520079857043 0 0.046634677244967337 0.671418230738282 0 0.086179601630648681 0.64647209519980475 0 0.050069554451969707 0.61308520079857043 0 0 0.65000000000104008 0 0.046634677244967337 0.671418230738282 0 0 0.7000000000006934 0 0.049706944316475897 0.72477277076253799 0 0 0.75000000000034661 0 0.046634677244967337 0.671418230738282 0 0 0.7000000000006934 0 0.049706944316475897 0.72477277076253799 0 0.049706944316475897 0.72477277076253799 0 0 0.75000000000034661 0 0.04408157711937423 0.7728941757575627 0 0.049706944316475897 0.72477277076253799 0 0.1020579365089687 0.69352219419301997 0 0.090953281884486245 0.7564451946902494 0 0.1020579365089687 0.69352219419301997 0 0.1215415378367805 0.72939333680004137 0 0.090953281884486245 0.7564451946902494 0 0.046634677244967337 0.671418230738282 0 0.049706944316475897 0.72477277076253799 0 0.1020579365089687 0.69352219419301997 0 0.1215415378367805 0.72939333680004137 0 0.090953281884486245 0.7564451946902494 0 0.14335651144331049 0.75565258250209677 0 0.046634677244967337 0.671418230738282 0 0.1020579365089687 0.69352219419301997 0 0.086179601630648681 0.64647209519980475 0 0.1020579365089687 0.69352219419301997 0 0.086179601630648681 0.64647209519980475 0 0.1241190223511371 0.64391885572885044 0 0.1024350934457823 0.60772393977513839 0 0.086179601630648681 0.64647209519980475 0 0.1241190223511371 0.64391885572885044 0 0.1020579365089687 0.69352219419301997 0 0.1241190223511371 0.64391885572885044 0 0.16500388252850301 0.66612077714085194 0 0.1241190223511371 0.64391885572885044 0 0.16500388252850301 0.66612077714085194 0 0.15720202157091859 0.60665697304410315 0 0.16500388252850301 0.66612077714085194 0 0.19914261668318661 0.62286739485272158 0 0.15720202157091859 0.60665697304410315 0 0.1020579365089687 0.69352219419301997 0 0.16500388252850301 0.66612077714085194 0 0.15332765547575641 0.71200081858233666 0 0.1215415378367805 0.72939333680004137 0 0.15332765547575641 0.71200081858233666 0 0.14335651144331049 0.75565258250209677 0 0.1020579365089687 0.69352219419301997 0 0.1215415378367805 0.72939333680004137 0 0.15332765547575641 0.71200081858233666 0 0.16500388252850301 0.66612077714085194 0 0.15332765547575641 0.71200081858233666 0 0.19068556247388771 0.71028988922845504 0 0.15332765547575641 0.71200081858233666 0 0.14335651144331049 0.75565258250209677 0 0.18269480424590959 0.75905448272264375 0 0.15332765547575641 0.71200081858233666 0 0.19068556247388771 0.71028988922845504 0 0.18269480424590959 0.75905448272264375 0 0.19068556247388771 0.71028988922845504 0 0.2248999640082178 0.72584299459689172 0 0.18269480424590959 0.75905448272264375 0 0.19068556247388771 0.71028988922845504 0 0.2248999640082178 0.72584299459689172 0 0.2236846579037573 0.67380363126050236 0 0.2248999640082178 0.72584299459689172 0 0.2236846579037573 0.67380363126050236 0 0.26439878998046262 0.7048065392091396 0 0.2248999640082178 0.72584299459689172 0 0.22556077506376701 0.77837424984191617 0 0.25676291524611189 0.7436741304886243 0 0.2248999640082178 0.72584299459689172 0 0.25676291524611189 0.7436741304886243 0 0.26439878998046262 0.7048065392091396 0 0.16500388252850301 0.66612077714085194 0 0.2236846579037573 0.67380363126050236 0 0.19914261668318661 0.62286739485272158 0 0.16500388252850301 0.66612077714085194 0 0.19068556247388771 0.71028988922845504 0 0.2236846579037573 0.67380363126050236 0 0.2236846579037573 0.67380363126050236 0 0.2459498854893499 0.63248470766216769 0 0.19914261668318661 0.62286739485272158 0 0.2236846579037573 0.67380363126050236 0 0.2459498854893499 0.63248470766216769 0 0.27820712747429932 0.65530134213254643 0 0.2459498854893499 0.63248470766216769 0 0.19914261668318661 0.62286739485272158 0 0.22549374774072969 0.58452645269293457 0 0.2459498854893499 0.63248470766216769 0 0.22549374774072969 0.58452645269293457 0 0.26573297623774761 0.59828298563722948 0 0.19914261668318661 0.62286739485272158 0 0.22549374774072969 0.58452645269293457 0 0.18381867841758909 0.57774125163628387 0 0.22549374774072969 0.58452645269293457 0 0.20050006573841939 0.53248514016039872 0 0.18381867841758909 0.57774125163628387 0 0.22549374774072969 0.58452645269293457 0 0.25115337790845271 0.54719303014923271 0 0.26573297623774761 0.59828298563722948 0 0.22549374774072969 0.58452645269293457 0 0.20050006573841939 0.53248514016039872 0 0.25115337790845271 0.54719303014923271 0 0.23975172658309729 0.49475499200540818 0 0.20050006573841939 0.53248514016039872 0 0.25115337790845271 0.54719303014923271 0 0.19604738184454831 0.47787523520405789 0 0.20050006573841939 0.53248514016039872 0 0.16618607197337229 0.50652878253548905 0 0.23975172658309729 0.49475499200540818 0 0.19604738184454831 0.47787523520405789 0 0.20050006573841939 0.53248514016039872 0 0.20050006573841939 0.53248514016039872 0 0.14934928745814749 0.55042914607228977 0 0.18381867841758909 0.57774125163628387 0 0.20050006573841939 0.53248514016039872 0 0.16618607197337229 0.50652878253548905 0 0.14934928745814749 0.55042914607228977 0 0.1216098864341134 0.50637075089503902 0 0.16618607197337229 0.50652878253548905 0 0.14934928745814749 0.55042914607228977 0 0.1216098864341134 0.50637075089503902 0 0.1154888278694548 0.56733818459978413 0 0.14934928745814749 0.55042914607228977 0 0.1154888278694548 0.56733818459978413 0 0.14934928745814749 0.55042914607228977 0 0.15720202157091859 0.60665697304410315 0 0.1024350934457823 0.60772393977513839 0 0.1154888278694548 0.56733818459978413 0 0.15720202157091859 0.60665697304410315 0 0.1024350934457823 0.60772393977513839 0 0.1241190223511371 0.64391885572885044 0 0.15720202157091859 0.60665697304410315 0 0.19914261668318661 0.62286739485272158 0 0.15720202157091859 0.60665697304410315 0 0.18381867841758909 0.57774125163628387 0 0.14934928745814749 0.55042914607228977 0 0.15720202157091859 0.60665697304410315 0 0.18381867841758909 0.57774125163628387 0 0.10000000000041601 1 0 0.10266856499240549 0.95548163909968886 0 0.15000000000062411 1 0 0.10266856499240549 0.95548163909968886 0 0.053064897599294662 0.95186845269532028 0 0.083411279318375747 0.91030024466934134 0 0.10000000000041601 1 0 0.050000000000207989 1 0 0.053064897599294662 0.95186845269532028 0 0.10000000000041601 1 0 0.10266856499240549 0.95548163909968886 0 0.053064897599294662 0.95186845269532028 0 0.050000000000207989 1 0 0.025766224399875661 0.97546711317377799 0 0.053064897599294662 0.95186845269532028 0 0.050000000000207989 1 0 0 1 0 0.025766224399875661 0.97546711317377799 0 0 1 0 0.025766224399875661 0.97546711317377799 0 0 0.94999999999979179 0 0.025766224399875661 0.97546711317377799 0 0 0.94999999999979179 0 0.053064897599294662 0.95186845269532028 0 0 0.94999999999979179 0 0.053064897599294662 0.95186845269532028 0 0.0443105827531413 0.89858748162559932 0 0.053064897599294662 0.95186845269532028 0 0.0443105827531413 0.89858748162559932 0 0.083411279318375747 0.91030024466934134 0 0 0.94999999999979179 0 0 0.89999999999958358 0 0.0443105827531413 0.89858748162559932 0 0 0.89999999999958358 0 0.0443105827531413 0.89858748162559932 0 0 0.84999999999965292 0 0.0443105827531413 0.89858748162559932 0 0.083411279318375747 0.91030024466934134 0 0.065374659239661639 0.8551091961254178 0 0.083411279318375747 0.91030024466934134 0 0.10562472963403439 0.87143394428979881 0 0.065374659239661639 0.8551091961254178 0 0.10266856499240549 0.95548163909968886 0 0.083411279318375747 0.91030024466934134 0 0.1241151115713819 0.9045666525468371 0 0.10266856499240549 0.95548163909968886 0 0.1241151115713819 0.9045666525468371 0 0.14617343800780541 0.93808063414349496 0 0.1241151115713819 0.9045666525468371 0 0.10562472963403439 0.87143394428979881 0 0.14474682429600511 0.85524784522713515 0 0.083411279318375747 0.91030024466934134 0 0.1241151115713819 0.9045666525468371 0 0.10562472963403439 0.87143394428979881 0 0.10562472963403439 0.87143394428979881 0 0.1074251789111534 0.83564394292147814 0 0.14474682429600511 0.85524784522713515 0 0.1074251789111534 0.83564394292147814 0 0.065374659239661639 0.8551091961254178 0 0.083105206071452636 0.79992298667296435 0 0.10562472963403439 0.87143394428979881 0 0.1074251789111534 0.83564394292147814 0 0.065374659239661639 0.8551091961254178 0 0.065374659239661639 0.8551091961254178 0 0 0.84999999999965292 0 0.038512288486097702 0.8155852717111195 0 0.0443105827531413 0.89858748162559932 0 0.065374659239661639 0.8551091961254178 0 0 0.84999999999965292 0 0 0.84999999999965292 0 0.038512288486097702 0.8155852717111195 0 0 0.79999999999999982 0 0.065374659239661639 0.8551091961254178 0 0.038512288486097702 0.8155852717111195 0 0.083105206071452636 0.79992298667296435 0 0.038512288486097702 0.8155852717111195 0 0.04408157711937423 0.7728941757575627 0 0.083105206071452636 0.79992298667296435 0 0.038512288486097702 0.8155852717111195 0 0 0.79999999999999982 0 0.04408157711937423 0.7728941757575627 0 0 0.79999999999999982 0 0 0.75000000000034661 0 0.04408157711937423 0.7728941757575627 0 0.049706944316475897 0.72477277076253799 0 0.04408157711937423 0.7728941757575627 0 0.090953281884486245 0.7564451946902494 0 0.04408157711937423 0.7728941757575627 0 0.090953281884486245 0.7564451946902494 0 0.083105206071452636 0.79992298667296435 0 0.1074251789111534 0.83564394292147814 0 0.083105206071452636 0.79992298667296435 0 0.1382744753146134 0.79650574229207483 0 0.090953281884486245 0.7564451946902494 0 0.083105206071452636 0.79992298667296435 0 0.1382744753146134 0.79650574229207483 0 0.090953281884486245 0.7564451946902494 0 0.14335651144331049 0.75565258250209677 0 0.1382744753146134 0.79650574229207483 0 0.14335651144331049 0.75565258250209677 0 0.1382744753146134 0.79650574229207483 0 0.18269480424590959 0.75905448272264375 0 0.1382744753146134 0.79650574229207483 0 0.18269480424590959 0.75905448272264375 0 0.17777405986036951 0.81832336108265358 0 0.2248999640082178 0.72584299459689172 0 0.18269480424590959 0.75905448272264375 0 0.22556077506376701 0.77837424984191617 0 0.22556077506376701 0.77837424984191617 0 0.21858834311891909 0.81980263716112767 0 0.26104540868854792 0.81401944968719064 0 0.22556077506376701 0.77837424984191617 0 0.21858834311891909 0.81980263716112767 0 0.17777405986036951 0.81832336108265358 0 0.18269480424590959 0.75905448272264375 0 0.22556077506376701 0.77837424984191617 0 0.17777405986036951 0.81832336108265358 0 0.21858834311891909 0.81980263716112767 0 0.19741632902693801 0.86755867406447229 0 0.17777405986036951 0.81832336108265358 0 0.21858834311891909 0.81980263716112767 0 0.2401283238295133 0.85648409884788523 0 0.26104540868854792 0.81401944968719064 0 0.21858834311891909 0.81980263716112767 0 0.2401283238295133 0.85648409884788523 0 0.19741632902693801 0.86755867406447229 0 0.19741632902693801 0.86755867406447229 0 0.17777405986036951 0.81832336108265358 0 0.14474682429600511 0.85524784522713515 0 0.19741632902693801 0.86755867406447229 0 0.14474682429600511 0.85524784522713515 0 0.16206583317966519 0.89685560785156404 0 0.1382744753146134 0.79650574229207483 0 0.17777405986036951 0.81832336108265358 0 0.14474682429600511 0.85524784522713515 0 0.1074251789111534 0.83564394292147814 0 0.1382744753146134 0.79650574229207483 0 0.14474682429600511 0.85524784522713515 0 0.1241151115713819 0.9045666525468371 0 0.14474682429600511 0.85524784522713515 0 0.16206583317966519 0.89685560785156404 0 0.1241151115713819 0.9045666525468371 0 0.16206583317966519 0.89685560785156404 0 0.14617343800780541 0.93808063414349496 0 0.16206583317966519 0.89685560785156404 0 0.19901705110390991 0.9175543425573498 0 0.14617343800780541 0.93808063414349496 0 0.19741632902693801 0.86755867406447229 0 0.16206583317966519 0.89685560785156404 0 0.19901705110390991 0.9175543425573498 0 0.19741632902693801 0.86755867406447229 0 0.24536017905392571 0.90704567837671446 0 0.19901705110390991 0.9175543425573498 0 0.2401283238295133 0.85648409884788523 0 0.19741632902693801 0.86755867406447229 0 0.24536017905392571 0.90704567837671446 0 0.24536017905392571 0.90704567837671446 0 0.19901705110390991 0.9175543425573498 0 0.22850979588452081 0.95594428570238643 0 0.19901705110390991 0.9175543425573498 0 0.22850979588452081 0.95594428570238643 0 0.18474005699953849 0.96231585248064622 0 0.24536017905392571 0.90704567837671446 0 0.22850979588452081 0.95594428570238643 0 0.27609987656793722 0.94991445621608572 0 0.22850979588452081 0.95594428570238643 0 0.20000000000083221 1 0 0.25000000000104028 1 0 0.22850979588452081 0.95594428570238643 0 0.20000000000083221 1 0 0.18474005699953849 0.96231585248064622 0 0.20000000000083221 1 0 0.18474005699953849 0.96231585248064622 0 0.15000000000062411 1 0 0.19901705110390991 0.9175543425573498 0 0.18474005699953849 0.96231585248064622 0 0.14617343800780541 0.93808063414349496 0 0.18474005699953849 0.96231585248064622 0 0.14617343800780541 0.93808063414349496 0 0.15000000000062411 1 0 0.10266856499240549 0.95548163909968886 0 0.14617343800780541 0.93808063414349496 0 0.15000000000062411 1 0 0.35000000000145642 1 0 0.36184234618600131 0.96443954459096326 0 0.32544832635163229 0.95485394099568932 0 0.35000000000145642 1 0 0.36184234618600131 0.96443954459096326 0 0.40000000000166441 1 0 0.36184234618600131 0.96443954459096326 0 0.32544832635163229 0.95485394099568932 0 0.35752321586431363 0.9185439911803448 0 0.36184234618600131 0.96443954459096326 0 0.35752321586431363 0.9185439911803448 0 0.39641108128798319 0.94356127926187128 0 0.35000000000145642 1 0 0.32544832635163229 0.95485394099568932 0 0.30000000000124832 1 0 0.30000000000124832 1 0 0.25000000000104028 1 0 0.27609987656793722 0.94991445621608572 0 0.22850979588452081 0.95594428570238643 0 0.25000000000104028 1 0 0.27609987656793722 0.94991445621608572 0 0.32544832635163229 0.95485394099568932 0 0.30000000000124832 1 0 0.27609987656793722 0.94991445621608572 0 0.32544832635163229 0.95485394099568932 0 0.27609987656793722 0.94991445621608572 0 0.30864387279288652 0.89906554525974958 0 0.24536017905392571 0.90704567837671446 0 0.27270076654418179 0.87751467830216623 0 0.30864387279288652 0.89906554525974958 0 0.24536017905392571 0.90704567837671446 0 0.27609987656793722 0.94991445621608572 0 0.30864387279288652 0.89906554525974958 0 0.2401283238295133 0.85648409884788523 0 0.24536017905392571 0.90704567837671446 0 0.27270076654418179 0.87751467830216623 0 0.30864387279288652 0.89906554525974958 0 0.35752321586431363 0.9185439911803448 0 0.35864759629805099 0.87963482415279515 0 0.32544832635163229 0.95485394099568932 0 0.30864387279288652 0.89906554525974958 0 0.35752321586431363 0.9185439911803448 0 0.35752321586431363 0.9185439911803448 0 0.35864759629805099 0.87963482415279515 0 0.39767323751400468 0.89584229130535065 0 0.35864759629805099 0.87963482415279515 0 0.33403534827021109 0.84402799729020661 0 0.39536230704883951 0.84069429572832477 0 0.33403534827021109 0.84402799729020661 0 0.35642984951668422 0.80994399665655703 0 0.39536230704883951 0.84069429572832477 0 0.33403534827021109 0.84402799729020661 0 0.30857225866488791 0.81101973481716805 0 0.35642984951668422 0.80994399665655703 0 0.30864387279288652 0.89906554525974958 0 0.35864759629805099 0.87963482415279515 0 0.33403534827021109 0.84402799729020661 0 0.30864387279288652 0.89906554525974958 0 0.33403534827021109 0.84402799729020661 0 0.29209212897034281 0.84715728365233667 0 0.27270076654418179 0.87751467830216623 0 0.30864387279288652 0.89906554525974958 0 0.29209212897034281 0.84715728365233667 0 0.2401283238295133 0.85648409884788523 0 0.27270076654418179 0.87751467830216623 0 0.29209212897034281 0.84715728365233667 0 0.2401283238295133 0.85648409884788523 0 0.29209212897034281 0.84715728365233667 0 0.26104540868854792 0.81401944968719064 0 0.29209212897034281 0.84715728365233667 0 0.26104540868854792 0.81401944968719064 0 0.30857225866488791 0.81101973481716805 0 0.33403534827021109 0.84402799729020661 0 0.29209212897034281 0.84715728365233667 0 0.30857225866488791 0.81101973481716805 0 0.26104540868854792 0.81401944968719064 0 0.30857225866488791 0.81101973481716805 0 0.2792923945214143 0.77665808831789485 0 0.30857225866488791 0.81101973481716805 0 0.2792923945214143 0.77665808831789485 0 0.33123028043633618 0.77629643437932982 0 0.22556077506376701 0.77837424984191617 0 0.26104540868854792 0.81401944968719064 0 0.2792923945214143 0.77665808831789485 0 0.2792923945214143 0.77665808831789485 0 0.25676291524611189 0.7436741304886243 0 0.29904318922293632 0.74132814928635593 0 0.22556077506376701 0.77837424984191617 0 0.2792923945214143 0.77665808831789485 0 0.25676291524611189 0.7436741304886243 0 0.2792923945214143 0.77665808831789485 0 0.33123028043633618 0.77629643437932982 0 0.29904318922293632 0.74132814928635593 0 0.33123028043633618 0.77629643437932982 0 0.29904318922293632 0.74132814928635593 0 0.35415581127540569 0.73730480045900215 0 0.30857225866488791 0.81101973481716805 0 0.33123028043633618 0.77629643437932982 0 0.35642984951668422 0.80994399665655703 0 0.33123028043633618 0.77629643437932982 0 0.35642984951668422 0.80994399665655703 0 0.38586766253264881 0.78219501014812498 0 0.33123028043633618 0.77629643437932982 0 0.38586766253264881 0.78219501014812498 0 0.35415581127540569 0.73730480045900215 0 0.38586766253264881 0.78219501014812498 0 0.42676259796334498 0.76772545931379299 0 0.40326160981139969 0.73346192995102844 0 0.38586766253264881 0.78219501014812498 0 0.35415581127540569 0.73730480045900215 0 0.40326160981139969 0.73346192995102844 0 0.38586766253264881 0.78219501014812498 0 0.42609163930740518 0.80361684430568059 0 0.39536230704883951 0.84069429572832477 0 0.35642984951668422 0.80994399665655703 0 0.38586766253264881 0.78219501014812498 0 0.39536230704883951 0.84069429572832477 0 0.38586766253264881 0.78219501014812498 0 0.42609163930740518 0.80361684430568059 0 0.42676259796334498 0.76772545931379299 0 0.42676259796334498 0.76772545931379299 0 0.4656888918609538 0.78493261229743638 0 0.45582236402875981 0.73896743678908217 0 0.4656888918609538 0.78493261229743638 0 0.45582236402875981 0.73896743678908217 0 0.50945740445113552 0.75476055527778108 0 0.4656888918609538 0.78493261229743638 0 0.50731287292894423 0.78963574450233831 0 0.50945740445113552 0.75476055527778108 0 0.4656888918609538 0.78493261229743638 0 0.50627822638148745 0.8263979829520941 0 0.50731287292894423 0.78963574450233831 0 0.42609163930740518 0.80361684430568059 0 0.4656888918609538 0.78493261229743638 0 0.45677673713123867 0.84253684404072415 0 0.42609163930740518 0.80361684430568059 0 0.42676259796334498 0.76772545931379299 0 0.4656888918609538 0.78493261229743638 0 0.4656888918609538 0.78493261229743638 0 0.45677673713123867 0.84253684404072415 0 0.50627822638148745 0.8263979829520941 0 0.45677673713123867 0.84253684404072415 0 0.50202631463681879 0.87892870825713787 0 0.50627822638148745 0.8263979829520941 0 0.45677673713123867 0.84253684404072415 0 0.44003836461056539 0.88093474584252718 0 0.50202631463681879 0.87892870825713787 0 0.45677673713123867 0.84253684404072415 0 0.39536230704883951 0.84069429572832477 0 0.44003836461056539 0.88093474584252718 0 0.39536230704883951 0.84069429572832477 0 0.39767323751400468 0.89584229130535065 0 0.44003836461056539 0.88093474584252718 0 0.42609163930740518 0.80361684430568059 0 0.45677673713123867 0.84253684404072415 0 0.39536230704883951 0.84069429572832477 0 0.35864759629805099 0.87963482415279515 0 0.39536230704883951 0.84069429572832477 0 0.39767323751400468 0.89584229130535065 0 0.35752321586431363 0.9185439911803448 0 0.39767323751400468 0.89584229130535065 0 0.39641108128798319 0.94356127926187128 0 0.39767323751400468 0.89584229130535065 0 0.4367309254023824 0.92065556789053882 0 0.39641108128798319 0.94356127926187128 0 0.39767323751400468 0.89584229130535065 0 0.4367309254023824 0.92065556789053882 0 0.44003836461056539 0.88093474584252718 0 0.4367309254023824 0.92065556789053882 0 0.44003836461056539 0.88093474584252718 0 0.47401147028110507 0.91529957330468115 0 0.44003836461056539 0.88093474584252718 0 0.47401147028110507 0.91529957330468115 0 0.50202631463681879 0.87892870825713787 0 0.47401147028110507 0.91529957330468115 0 0.47135117303824892 0.95556877749289892 0 0.52122150208832174 0.94089974453840242 0 0.47401147028110507 0.91529957330468115 0 0.52122150208832174 0.94089974453840242 0 0.50202631463681879 0.87892870825713787 0 0.4367309254023824 0.92065556789053882 0 0.47401147028110507 0.91529957330468115 0 0.47135117303824892 0.95556877749289892 0 0.4367309254023824 0.92065556789053882 0 0.47135117303824892 0.95556877749289892 0 0.4308986359464303 0.96395712492906194 0 0.47135117303824892 0.95556877749289892 0 0.50000000000205869 1 0 0.52122150208832174 0.94089974453840242 0 0.47135117303824892 0.95556877749289892 0 0.45000000000187229 1 0 0.50000000000205869 1 0 0.47135117303824892 0.95556877749289892 0 0.45000000000187229 1 0 0.4308986359464303 0.96395712492906194 0 0.45000000000187229 1 0 0.4308986359464303 0.96395712492906194 0 0.40000000000166441 1 0 0.4308986359464303 0.96395712492906194 0 0.39641108128798319 0.94356127926187128 0 0.40000000000166441 1 0 0.4367309254023824 0.92065556789053882 0 0.4308986359464303 0.96395712492906194 0 0.39641108128798319 0.94356127926187128 0 0.36184234618600131 0.96443954459096326 0 0.39641108128798319 0.94356127926187128 0 0.40000000000166441 1 0 0.33122374654748771 0.57588941099433744 0 0.31502927232353312 0.6134992213375432 0 0.35765792684946668 0.6000687869219653 0 0.31502927232353312 0.6134992213375432 0 0.35765792684946668 0.6000687869219653 0 0.35864735590330371 0.63903383440414463 0 0.35765792684946668 0.6000687869219653 0 0.35864735590330371 0.63903383440414463 0 0.39743091024207589 0.6239520004230239 0 0.33122374654748771 0.57588941099433744 0 0.35765792684946668 0.6000687869219653 0 0.37272913873093971 0.56192925302619479 0 0.37272913873093971 0.56192925302619479 0 0.33190227185843768 0.52715113583864037 0 0.38244435121258652 0.51653317813019495 0 0.33122374654748771 0.57588941099433744 0 0.37272913873093971 0.56192925302619479 0 0.33190227185843768 0.52715113583864037 0 0.35024835142131061 0.48654922671676981 0 0.33190227185843768 0.52715113583864037 0 0.38244435121258652 0.51653317813019495 0 0.33122374654748771 0.57588941099433744 0 0.33190227185843768 0.52715113583864037 0 0.29110487519241501 0.56588143995431495 0 0.33190227185843768 0.52715113583864037 0 0.28307294598219601 0.50789252727458634 0 0.29110487519241501 0.56588143995431495 0 0.31068898841644388 0.47541502461811092 0 0.33190227185843768 0.52715113583864037 0 0.28307294598219601 0.50789252727458634 0 0.23975172658309729 0.49475499200540818 0 0.28307294598219601 0.50789252727458634 0 0.25115337790845271 0.54719303014923271 0 0.28307294598219601 0.50789252727458634 0 0.25115337790845271 0.54719303014923271 0 0.29110487519241501 0.56588143995431495 0 0.25115337790845271 0.54719303014923271 0 0.29110487519241501 0.56588143995431495 0 0.26573297623774761 0.59828298563722948 0 0.33122374654748771 0.57588941099433744 0 0.31502927232353312 0.6134992213375432 0 0.29110487519241501 0.56588143995431495 0 0.31502927232353312 0.6134992213375432 0 0.29110487519241501 0.56588143995431495 0 0.26573297623774761 0.59828298563722948 0 0.31502927232353312 0.6134992213375432 0 0.26573297623774761 0.59828298563722948 0 0.27820712747429932 0.65530134213254643 0 0.2459498854893499 0.63248470766216769 0 0.26573297623774761 0.59828298563722948 0 0.27820712747429932 0.65530134213254643 0 0.2236846579037573 0.67380363126050236 0 0.27820712747429932 0.65530134213254643 0 0.26439878998046262 0.7048065392091396 0 0.27820712747429932 0.65530134213254643 0 0.31378396441836959 0.70157213313026345 0 0.32263089806001177 0.66003674931826484 0 0.27820712747429932 0.65530134213254643 0 0.26439878998046262 0.7048065392091396 0 0.31378396441836959 0.70157213313026345 0 0.31502927232353312 0.6134992213375432 0 0.27820712747429932 0.65530134213254643 0 0.32263089806001177 0.66003674931826484 0 0.25676291524611189 0.7436741304886243 0 0.26439878998046262 0.7048065392091396 0 0.29904318922293632 0.74132814928635593 0 0.26439878998046262 0.7048065392091396 0 0.29904318922293632 0.74132814928635593 0 0.31378396441836959 0.70157213313026345 0 0.29904318922293632 0.74132814928635593 0 0.31378396441836959 0.70157213313026345 0 0.35415581127540569 0.73730480045900215 0 0.31378396441836959 0.70157213313026345 0 0.36622285152418499 0.69092437780804039 0 0.35415581127540569 0.73730480045900215 0 0.36622285152418499 0.69092437780804039 0 0.35415581127540569 0.73730480045900215 0 0.40326160981139969 0.73346192995102844 0 0.31502927232353312 0.6134992213375432 0 0.32263089806001177 0.66003674931826484 0 0.35864735590330371 0.63903383440414463 0 0.31378396441836959 0.70157213313026345 0 0.36622285152418499 0.69092437780804039 0 0.32263089806001177 0.66003674931826484 0 0.36622285152418499 0.69092437780804039 0 0.32263089806001177 0.66003674931826484 0 0.35864735590330371 0.63903383440414463 0 0.36622285152418499 0.69092437780804039 0 0.35864735590330371 0.63903383440414463 0 0.3977710372045391 0.65868194622830212 0 0.35864735590330371 0.63903383440414463 0 0.3977710372045391 0.65868194622830212 0 0.39743091024207589 0.6239520004230239 0 0.36622285152418499 0.69092437780804039 0 0.3977710372045391 0.65868194622830212 0 0.43323420005758778 0.6913544522562407 0 0.3977710372045391 0.65868194622830212 0 0.43323420005758778 0.6913544522562407 0 0.43846182030517877 0.64845797726506715 0 0.43846182030517877 0.64845797726506715 0 0.43545892161006339 0.61093128915313821 0 0.39743091024207589 0.6239520004230239 0 0.3977710372045391 0.65868194622830212 0 0.43846182030517877 0.64845797726506715 0 0.39743091024207589 0.6239520004230239 0 0.36622285152418499 0.69092437780804039 0 0.40326160981139969 0.73346192995102844 0 0.43323420005758778 0.6913544522562407 0 0.40326160981139969 0.73346192995102844 0 0.43323420005758778 0.6913544522562407 0 0.45582236402875981 0.73896743678908217 0 0.42676259796334498 0.76772545931379299 0 0.40326160981139969 0.73346192995102844 0 0.45582236402875981 0.73896743678908217 0 0.43323420005758778 0.6913544522562407 0 0.45582236402875981 0.73896743678908217 0 0.5 0.69999999999999996 0 0.45582236402875981 0.73896743678908217 0 0.5 0.69999999999999996 0 0.50945740445113552 0.75476055527778108 0 0.43323420005758778 0.6913544522562407 0 0.47913475093885149 0.66010775372412711 0 0.5 0.69999999999999996 0 0.43846182030517877 0.64845797726506715 0 0.47913475093885149 0.66010775372412711 0 0.47095389620662098 0.61892551373708504 0 0.43846182030517877 0.64845797726506715 0 0.47095389620662098 0.61892551373708504 0 0.43545892161006339 0.61093128915313821 0 0.43323420005758778 0.6913544522562407 0 0.43846182030517877 0.64845797726506715 0 0.47913475093885149 0.66010775372412711 0 0.47913475093885149 0.66010775372412711 0 0.47095389620662098 0.61892551373708504 0 0.50715858906372158 0.63295939104129484 0 0.47095389620662098 0.61892551373708504 0 0.5166924242153631 0.59825134841919447 0 0.50715858906372158 0.63295939104129484 0 0.47095389620662098 0.61892551373708504 0 0.46666084890304671 0.57634471035397938 0 0.5166924242153631 0.59825134841919447 0 0.47095389620662098 0.61892551373708504 0 0.46666084890304671 0.57634471035397938 0 0.43545892161006339 0.61093128915313821 0 0.43545892161006339 0.61093128915313821 0 0.4089290844030305 0.58728915500154233 0 0.39743091024207589 0.6239520004230239 0 0.46666084890304671 0.57634471035397938 0 0.43545892161006339 0.61093128915313821 0 0.4089290844030305 0.58728915500154233 0 0.46666084890304671 0.57634471035397938 0 0.4089290844030305 0.58728915500154233 0 0.42644501560315817 0.54603747078095544 0 0.37272913873093971 0.56192925302619479 0 0.4089290844030305 0.58728915500154233 0 0.42644501560315817 0.54603747078095544 0 0.35765792684946668 0.6000687869219653 0 0.37272913873093971 0.56192925302619479 0 0.4089290844030305 0.58728915500154233 0 0.35765792684946668 0.6000687869219653 0 0.4089290844030305 0.58728915500154233 0 0.39743091024207589 0.6239520004230239 0 0.37272913873093971 0.56192925302619479 0 0.38244435121258652 0.51653317813019495 0 0.42644501560315817 0.54603747078095544 0 0.43507373378304309 0.49699695397193322 0 0.38244435121258652 0.51653317813019495 0 0.42644501560315817 0.54603747078095544 0 0.46666084890304671 0.57634471035397938 0 0.47793794143994173 0.52940715638744962 0 0.53245488764484505 0.55078124999999989 0 0.43507373378304309 0.49699695397193322 0 0.49102375406324739 0.49123754822244059 0 0.47793794143994173 0.52940715638744962 0 0.43507373378304309 0.49699695397193322 0 0.42644501560315817 0.54603747078095544 0 0.47793794143994173 0.52940715638744962 0 0.46666084890304671 0.57634471035397938 0 0.42644501560315817 0.54603747078095544 0 0.47793794143994173 0.52940715638744962 0 0.49102375406324739 0.49123754822244059 0 0.47793794143994173 0.52940715638744962 0 0.53330375813596242 0.50827942741749099 0 0.47793794143994173 0.52940715638744962 0 0.53245488764484505 0.55078124999999989 0 0.53330375813596242 0.50827942741749099 0 0.53245488764484505 0.55078124999999989 0 0.53330375813596242 0.50827942741749099 0 0.57435499076887508 0.54267261987897775 0 0.53245488764484505 0.55078124999999989 0 0.57435499076887508 0.54267261987897775 0 0.57412547362576272 0.58273804879550706 0 0.53330375813596242 0.50827942741749099 0 0.57611405284611883 0.50165903596042916 0 0.57435499076887508 0.54267261987897775 0 0.57611405284611883 0.50165903596042916 0 0.57435499076887508 0.54267261987897775 0 0.62042975506801734 0.54295974692364424 0 0.57435499076887508 0.54267261987897775 0 0.62042975506801734 0.54295974692364424 0 0.57412547362576272 0.58273804879550706 0 0.57611405284611883 0.50165903596042916 0 0.62042975506801734 0.54295974692364424 0 0.61547661924074692 0.48539576058873962 0 0.5991018319127801 0.62925360607495295 0 0.6405463747586706 0.63290524857395714 0 0.63065402604362242 0.59661356661633302 0 0.57412547362576272 0.58273804879550706 0 0.5991018319127801 0.62925360607495295 0 0.63065402604362242 0.59661356661633302 0 0.62042975506801734 0.54295974692364424 0 0.57412547362576272 0.58273804879550706 0 0.63065402604362242 0.59661356661633302 0 0.57412547362576272 0.58273804879550706 0 0.5498280205245758 0.6290146943450976 0 0.5991018319127801 0.62925360607495295 0 0.46666084890304671 0.57634471035397938 0 0.53245488764484505 0.55078124999999989 0 0.5166924242153631 0.59825134841919447 0 0.57412547362576272 0.58273804879550706 0 0.5166924242153631 0.59825134841919447 0 0.5498280205245758 0.6290146943450976 0 0.53245488764484505 0.55078124999999989 0 0.57412547362576272 0.58273804879550706 0 0.5166924242153631 0.59825134841919447 0 0.5166924242153631 0.59825134841919447 0 0.50715858906372158 0.63295939104129484 0 0.5498280205245758 0.6290146943450976 0 0.47913475093885149 0.66010775372412711 0 0.50715858906372158 0.63295939104129484 0 0.52584555706968406 0.66664215091846768 0 0.50715858906372158 0.63295939104129484 0 0.52584555706968406 0.66664215091846768 0 0.5498280205245758 0.6290146943450976 0 0.47913475093885149 0.66010775372412711 0 0.52584555706968406 0.66664215091846768 0 0.5 0.69999999999999996 0 0.52584555706968406 0.66664215091846768 0 0.54999999999999993 0.69999999999999996 0 0.57484956128872922 0.66573805030881994 0 0.52584555706968406 0.66664215091846768 0 0.5498280205245758 0.6290146943450976 0 0.57484956128872922 0.66573805030881994 0 0.5 0.69999999999999996 0 0.55363780716230748 0.74348740161571747 0 0.50945740445113552 0.75476055527778108 0 0.52584555706968406 0.66664215091846768 0 0.5 0.69999999999999996 0 0.54999999999999993 0.69999999999999996 0 0.5 0.69999999999999996 0 0.54999999999999993 0.69999999999999996 0 0.5 0.69999999999999996 0 0.54999999999999993 0.69999999999999996 0 0.55363780716230748 0.74348740161571747 0 0.55363780716230748 0.74348740161571747 0 0.59999999999999976 0.69999999999999996 0 0.59636844454254345 0.75937156204589151 0 0.54999999999999993 0.69999999999999996 0 0.59999999999999976 0.69999999999999996 0 0.54999999999999993 0.69999999999999996 0 0.59999999999999976 0.69999999999999996 0 0.57484956128872922 0.66573805030881994 0 0.54999999999999993 0.69999999999999996 0 0.55363780716230748 0.74348740161571747 0 0.59999999999999976 0.69999999999999996 0 0.59999999999999976 0.69999999999999996 0 0.6499999999999998 0.69999999999999996 0 0.59999999999999976 0.69999999999999996 0 0.62460753523532009 0.66851202781000296 0 0.6499999999999998 0.69999999999999996 0 0.59999999999999976 0.69999999999999996 0 0.63221990677827677 0.73442891067859706 0 0.59636844454254345 0.75937156204589151 0 0.5498280205245758 0.6290146943450976 0 0.57484956128872922 0.66573805030881994 0 0.5991018319127801 0.62925360607495295 0 0.59999999999999976 0.69999999999999996 0 0.57484956128872922 0.66573805030881994 0 0.62460753523532009 0.66851202781000296 0 0.57484956128872922 0.66573805030881994 0 0.62460753523532009 0.66851202781000296 0 0.5991018319127801 0.62925360607495295 0 0.62460753523532009 0.66851202781000296 0 0.5991018319127801 0.62925360607495295 0 0.6405463747586706 0.63290524857395714 0 0.62460753523532009 0.66851202781000296 0 0.6405463747586706 0.63290524857395714 0 0.675261390228442 0.65996937624687813 0 0.62460753523532009 0.66851202781000296 0 0.675261390228442 0.65996937624687813 0 0.6499999999999998 0.69999999999999996 0 0.675261390228442 0.65996937624687813 0 0.6499999999999998 0.69999999999999996 0 0.69999999999999984 0.69999999999999996 0 0.6405463747586706 0.63290524857395714 0 0.675261390228442 0.65996937624687813 0 0.67529834988829951 0.61613270668143583 0 0.63221990677827677 0.73442891067859706 0 0.66427993341343905 0.73232764502436276 0 0.64753070846764316 0.77332939069435502 0 0.63221990677827677 0.73442891067859706 0 0.6499999999999998 0.69999999999999996 0 0.66427993341343905 0.73232764502436276 0 0.59999999999999976 0.69999999999999996 0 0.63221990677827677 0.73442891067859706 0 0.6499999999999998 0.69999999999999996 0 0.6499999999999998 0.69999999999999996 0 0.69999999999999984 0.69999999999999996 0 0.6499999999999998 0.69999999999999996 0 0.66427993341343905 0.73232764502436276 0 0.69999999999999984 0.69999999999999996 0 0.66427993341343905 0.73232764502436276 0 0.69999999999999984 0.69999999999999996 0 0.6916490518212759 0.75387992374886192 0 0.69999999999999984 0.69999999999999996 0 0.72501250972655151 0.74067302935308721 0 0.6916490518212759 0.75387992374886192 0 0.69999999999999984 0.69999999999999996 0 0.74999999999999989 0.69999999999999996 0 0.72501250972655151 0.74067302935308721 0 0.69999999999999984 0.69999999999999996 0 0.74999999999999989 0.69999999999999996 0 0.72500000000000064 0.67022701834392062 0 0.69999999999999984 0.69999999999999996 0 0.74999999999999989 0.69999999999999996 0 0.74999999999999989 0.69999999999999996 0 0.72501250972655151 0.74067302935308721 0 0.75841349681148107 0.75422312624214749 0 0.675261390228442 0.65996937624687813 0 0.71406021706547751 0.63292083137662503 0 0.72500000000000064 0.67022701834392062 0 0.675261390228442 0.65996937624687813 0 0.71406021706547751 0.63292083137662503 0 0.67529834988829951 0.61613270668143583 0 0.675261390228442 0.65996937624687813 0 0.69999999999999984 0.69999999999999996 0 0.72500000000000064 0.67022701834392062 0 0.71406021706547751 0.63292083137662503 0 0.72500000000000064 0.67022701834392062 0 0.74994237037456724 0.62775548192980357 0 0.72500000000000064 0.67022701834392062 0 0.74994237037456724 0.62775548192980357 0 0.7750489929959945 0.66593931409600093 0 0.71406021706547751 0.63292083137662503 0 0.74994237037456724 0.62775548192980357 0 0.71809016091162536 0.58185040402320831 0 0.74994237037456724 0.62775548192980357 0 0.71809016091162536 0.58185040402320831 0 0.77293540622714185 0.59448302402785813 0 0.71406021706547751 0.63292083137662503 0 0.71809016091162536 0.58185040402320831 0 0.67529834988829951 0.61613270668143583 0 0.71809016091162536 0.58185040402320831 0 0.67569444444444449 0.53500863336860327 0 0.67323294229744413 0.57556450033612505 0 0.71809016091162536 0.58185040402320831 0 0.67529834988829951 0.61613270668143583 0 0.67323294229744413 0.57556450033612505 0 0.71809016091162536 0.58185040402320831 0 0.7152569930854884 0.5237994455134295 0 0.77151014687832564 0.54436834383023036 0 0.7152569930854884 0.5237994455134295 0 0.77151014687832564 0.54436834383023036 0 0.73947346780852752 0.49062440112282169 0 0.7152569930854884 0.5237994455134295 0 0.67569444444444449 0.53500863336860327 0 0.69385896817107129 0.48377516041410151 0 0.71809016091162536 0.58185040402320831 0 0.7152569930854884 0.5237994455134295 0 0.67569444444444449 0.53500863336860327 0 0.62042975506801734 0.54295974692364424 0 0.67569444444444449 0.53500863336860327 0 0.67323294229744413 0.57556450033612505 0 0.67569444444444449 0.53500863336860327 0 0.6541250972820879 0.49999999999999989 0 0.69385896817107129 0.48377516041410151 0 0.62042975506801734 0.54295974692364424 0 0.67569444444444449 0.53500863336860327 0 0.6541250972820879 0.49999999999999989 0 0.62042975506801734 0.54295974692364424 0 0.61547661924074692 0.48539576058873962 0 0.6541250972820879 0.49999999999999989 0 0.62042975506801734 0.54295974692364424 0 0.63065402604362242 0.59661356661633302 0 0.67323294229744413 0.57556450033612505 0 0.6405463747586706 0.63290524857395714 0 0.63065402604362242 0.59661356661633302 0 0.67529834988829951 0.61613270668143583 0 0.63065402604362242 0.59661356661633302 0 0.67529834988829951 0.61613270668143583 0 0.67323294229744413 0.57556450033612505 0 0.60000000000138687 1 0 0.62065498684670595 0.95224934003983619 0 0.57382506491224949 0.9629411906298494 0 0.60000000000138687 1 0 0.62065498684670595 0.95224934003983619 0 0.65000000000104008 1 0 0.62065498684670595 0.95224934003983619 0 0.57382506491224949 0.9629411906298494 0 0.57724883562309992 0.92155686857100794 0 0.60000000000138687 1 0 0.57382506491224949 0.9629411906298494 0 0.55000000000173355 1 0 0.55000000000173355 1 0 0.50000000000205869 1 0 0.52122150208832174 0.94089974453840242 0 0.57382506491224949 0.9629411906298494 0 0.52122150208832174 0.94089974453840242 0 0.57724883562309992 0.92155686857100794 0 0.57382506491224949 0.9629411906298494 0 0.55000000000173355 1 0 0.52122150208832174 0.94089974453840242 0 0.52122150208832174 0.94089974453840242 0 0.54783390826260769 0.89287767010860219 0 0.57724883562309992 0.92155686857100794 0 0.52122150208832174 0.94089974453840242 0 0.50202631463681879 0.87892870825713787 0 0.54783390826260769 0.89287767010860219 0 0.54783390826260769 0.89287767010860219 0 0.5832743223239254 0.88483152652961872 0 0.55899371797446828 0.85003102233514438 0 0.54783390826260769 0.89287767010860219 0 0.5832743223239254 0.88483152652961872 0 0.57724883562309992 0.92155686857100794 0 0.5832743223239254 0.88483152652961872 0 0.57724883562309992 0.92155686857100794 0 0.61885627562261258 0.90282959257498208 0 0.62065498684670595 0.95224934003983619 0 0.57724883562309992 0.92155686857100794 0 0.61885627562261258 0.90282959257498208 0 0.5832743223239254 0.88483152652961872 0 0.61885627562261258 0.90282959257498208 0 0.61343887413683884 0.856862479058357 0 0.61343887413683884 0.856862479058357 0 0.60294066490120068 0.80851322453934582 0 0.65005442820240822 0.82644988530054031 0 0.61343887413683884 0.856862479058357 0 0.55899371797446828 0.85003102233514438 0 0.60294066490120068 0.80851322453934582 0 0.55899371797446828 0.85003102233514438 0 0.54782696902220018 0.79245182748204157 0 0.60294066490120068 0.80851322453934582 0 0.5832743223239254 0.88483152652961872 0 0.61343887413683884 0.856862479058357 0 0.55899371797446828 0.85003102233514438 0 0.50202631463681879 0.87892870825713787 0 0.54783390826260769 0.89287767010860219 0 0.55899371797446828 0.85003102233514438 0 0.50202631463681879 0.87892870825713787 0 0.55899371797446828 0.85003102233514438 0 0.50627822638148745 0.8263979829520941 0 0.55899371797446828 0.85003102233514438 0 0.50627822638148745 0.8263979829520941 0 0.54782696902220018 0.79245182748204157 0 0.50627822638148745 0.8263979829520941 0 0.54782696902220018 0.79245182748204157 0 0.50731287292894423 0.78963574450233831 0 0.54782696902220018 0.79245182748204157 0 0.50731287292894423 0.78963574450233831 0 0.50945740445113552 0.75476055527778108 0 0.55363780716230748 0.74348740161571747 0 0.54782696902220018 0.79245182748204157 0 0.50945740445113552 0.75476055527778108 0 0.55363780716230748 0.74348740161571747 0 0.54782696902220018 0.79245182748204157 0 0.59636844454254345 0.75937156204589151 0 0.54782696902220018 0.79245182748204157 0 0.60294066490120068 0.80851322453934582 0 0.59636844454254345 0.75937156204589151 0 0.60294066490120068 0.80851322453934582 0 0.59636844454254345 0.75937156204589151 0 0.64753070846764316 0.77332939069435502 0 0.63221990677827677 0.73442891067859706 0 0.59636844454254345 0.75937156204589151 0 0.64753070846764316 0.77332939069435502 0 0.60294066490120068 0.80851322453934582 0 0.64753070846764316 0.77332939069435502 0 0.65005442820240822 0.82644988530054031 0 0.64753070846764316 0.77332939069435502 0 0.68024162096458085 0.79868546898116533 0 0.65005442820240822 0.82644988530054031 0 0.64753070846764316 0.77332939069435502 0 0.68024162096458085 0.79868546898116533 0 0.6916490518212759 0.75387992374886192 0 0.66427993341343905 0.73232764502436276 0 0.64753070846764316 0.77332939069435502 0 0.6916490518212759 0.75387992374886192 0 0.72501250972655151 0.74067302935308721 0 0.6916490518212759 0.75387992374886192 0 0.72500000000000064 0.7952620967744265 0 0.72501250972655151 0.74067302935308721 0 0.72500000000000064 0.7952620967744265 0 0.75841349681148107 0.75422312624214749 0 0.68024162096458085 0.79868546898116533 0 0.6916490518212759 0.75387992374886192 0 0.72500000000000064 0.7952620967744265 0 0.68024162096458085 0.79868546898116533 0 0.72500000000000064 0.7952620967744265 0 0.68697391633157634 0.84450604838764298 0 0.72500000000000064 0.7952620967744265 0 0.72863726579783861 0.85390518901155588 0 0.68697391633157634 0.84450604838764298 0 0.72500000000000064 0.7952620967744265 0 0.72863726579783861 0.85390518901155588 0 0.76901770135486491 0.84293557325473656 0 0.72863726579783861 0.85390518901155588 0 0.68697391633157634 0.84450604838764298 0 0.7250000000005199 0.89375000000045834 0 0.68697391633157634 0.84450604838764298 0 0.66412543161245952 0.88015090885499059 0 0.7250000000005199 0.89375000000045834 0 0.68697391633157634 0.84450604838764298 0 0.65005442820240822 0.82644988530054031 0 0.66412543161245952 0.88015090885499059 0 0.68024162096458085 0.79868546898116533 0 0.68697391633157634 0.84450604838764298 0 0.65005442820240822 0.82644988530054031 0 0.61343887413683884 0.856862479058357 0 0.65005442820240822 0.82644988530054031 0 0.66412543161245952 0.88015090885499059 0 0.61885627562261258 0.90282959257498208 0 0.61343887413683884 0.856862479058357 0 0.66412543161245952 0.88015090885499059 0 0.61885627562261258 0.90282959257498208 0 0.65507451745379841 0.92229208810758578 0 0.66412543161245952 0.88015090885499059 0 0.62065498684670595 0.95224934003983619 0 0.61885627562261258 0.90282959257498208 0 0.65507451745379841 0.92229208810758578 0 0.65507451745379841 0.92229208810758578 0 0.68987011941058407 0.92105047536677087 0 0.68015064798562208 0.95924320340003011 0 0.65507451745379841 0.92229208810758578 0 0.66412543161245952 0.88015090885499059 0 0.68987011941058407 0.92105047536677087 0 0.66412543161245952 0.88015090885499059 0 0.7250000000005199 0.89375000000045834 0 0.68987011941058407 0.92105047536677087 0 0.72863726579783861 0.85390518901155588 0 0.7250000000005199 0.89375000000045834 0 0.76891166905518427 0.88835469571185499 0 0.7250000000005199 0.89375000000045834 0 0.7250000000005199 0.94981617647078953 0 0.75729602384198635 0.92353652857884294 0 0.7250000000005199 0.89375000000045834 0 0.68987011941058407 0.92105047536677087 0 0.7250000000005199 0.94981617647078953 0 0.68987011941058407 0.92105047536677087 0 0.7250000000005199 0.94981617647078953 0 0.68015064798562208 0.95924320340003011 0 0.7250000000005199 0.94981617647078953 0 0.7000000000006934 1 0 0.75000000000034661 1 0 0.7250000000005199 0.94981617647078953 0 0.75000000000034661 1 0 0.770759834363826 0.95919399014344442 0 0.7250000000005199 0.94981617647078953 0 0.7000000000006934 1 0 0.68015064798562208 0.95924320340003011 0 0.7000000000006934 1 0 0.68015064798562208 0.95924320340003011 0 0.65000000000104008 1 0 0.62065498684670595 0.95224934003983619 0 0.65507451745379841 0.92229208810758578 0 0.68015064798562208 0.95924320340003011 0 0.62065498684670595 0.95224934003983619 0 0.68015064798562208 0.95924320340003011 0 0.65000000000104008 1 0 0.84999999999965292 1 0 0.85170973911348691 0.93569607295217616 0 0.89898474358632463 0.95391965591118966 0 0.84999999999965292 1 0 0.81486180804382891 0.96321394949790495 0 0.85170973911348691 0.93569607295217616 0 0.81486180804382891 0.96321394949790495 0 0.79680861578988083 0.92656778056766709 0 0.85170973911348691 0.93569607295217616 0 0.84999999999965292 1 0 0.81486180804382891 0.96321394949790495 0 0.79999999999999982 1 0 0.81486180804382891 0.96321394949790495 0 0.79999999999999982 1 0 0.770759834363826 0.95919399014344442 0 0.79999999999999982 1 0 0.75000000000034661 1 0 0.770759834363826 0.95919399014344442 0 0.7250000000005199 0.94981617647078953 0 0.770759834363826 0.95919399014344442 0 0.75729602384198635 0.92353652857884294 0 0.81486180804382891 0.96321394949790495 0 0.770759834363826 0.95919399014344442 0 0.79680861578988083 0.92656778056766709 0 0.79680861578988083 0.92656778056766709 0 0.75729602384198635 0.92353652857884294 0 0.76891166905518427 0.88835469571185499 0 0.770759834363826 0.95919399014344442 0 0.79680861578988083 0.92656778056766709 0 0.75729602384198635 0.92353652857884294 0 0.7250000000005199 0.89375000000045834 0 0.75729602384198635 0.92353652857884294 0 0.76891166905518427 0.88835469571185499 0 0.79680861578988083 0.92656778056766709 0 0.76891166905518427 0.88835469571185499 0 0.81159157511211755 0.88795995483179491 0 0.81159157511211755 0.88795995483179491 0 0.85170973911348691 0.93569607295217616 0 0.85600844944837662 0.88483418979512773 0 0.79680861578988083 0.92656778056766709 0 0.81159157511211755 0.88795995483179491 0 0.85170973911348691 0.93569607295217616 0 0.85170973911348691 0.93569607295217616 0 0.85600844944837662 0.88483418979512773 0 0.90416666666660628 0.9041666666666166 0 0.85600844944837662 0.88483418979512773 0 0.82709327591091286 0.84937141670920724 0 0.88088768115933802 0.84674609810493673 0 0.82709327591091286 0.84937141670920724 0 0.84725310900444062 0.80779732082917555 0 0.88088768115933802 0.84674609810493673 0 0.82709327591091286 0.84937141670920724 0 0.80041942726660109 0.81543261647703358 0 0.84725310900444062 0.80779732082917555 0 0.81159157511211755 0.88795995483179491 0 0.85600844944837662 0.88483418979512773 0 0.82709327591091286 0.84937141670920724 0 0.76891166905518427 0.88835469571185499 0 0.81159157511211755 0.88795995483179491 0 0.76901770135486491 0.84293557325473656 0 0.81159157511211755 0.88795995483179491 0 0.82709327591091286 0.84937141670920724 0 0.76901770135486491 0.84293557325473656 0 0.72863726579783861 0.85390518901155588 0 0.76891166905518427 0.88835469571185499 0 0.76901770135486491 0.84293557325473656 0 0.76901770135486491 0.84293557325473656 0 0.80041942726660109 0.81543261647703358 0 0.77094201086366854 0.79647480515688507 0 0.82709327591091286 0.84937141670920724 0 0.76901770135486491 0.84293557325473656 0 0.80041942726660109 0.81543261647703358 0 0.80041942726660109 0.81543261647703358 0 0.77094201086366854 0.79647480515688507 0 0.80185942888539485 0.77452061303608133 0 0.72500000000000064 0.7952620967744265 0 0.77094201086366854 0.79647480515688507 0 0.75841349681148107 0.75422312624214749 0 0.72500000000000064 0.7952620967744265 0 0.76901770135486491 0.84293557325473656 0 0.77094201086366854 0.79647480515688507 0 0.77094201086366854 0.79647480515688507 0 0.75841349681148107 0.75422312624214749 0 0.80185942888539485 0.77452061303608133 0 0.75841349681148107 0.75422312624214749 0 0.80185942888539485 0.77452061303608133 0 0.78578450296893509 0.73292684821144505 0 0.80185942888539485 0.77452061303608133 0 0.84725310900444062 0.80779732082917555 0 0.85491058998424563 0.76004753345552634 0 0.80185942888539485 0.77452061303608133 0 0.85491058998424563 0.76004753345552634 0 0.81864958914779962 0.73589050177899629 0 0.80041942726660109 0.81543261647703358 0 0.80185942888539485 0.77452061303608133 0 0.84725310900444062 0.80779732082917555 0 0.84725310900444062 0.80779732082917555 0 0.85491058998424563 0.76004753345552634 0 0.90299850604011456 0.79563452813489832 0 0.85491058998424563 0.76004753345552634 0 0.90299850604011456 0.79563452813489832 0 0.89999166460796554 0.74528934923809909 0 0.90299850604011456 0.79563452813489832 0 0.94399509803918602 0.75600490196082126 0 0.95386563387742829 0.80414874155775029 0 0.90299850604011456 0.79563452813489832 0 0.94399509803918602 0.75600490196082126 0 0.89999166460796554 0.74528934923809909 0 0.94399509803918602 0.75600490196082126 0 0.97435614836745565 0.77499999999987745 0 0.95386563387742829 0.80414874155775029 0 0.94399509803918602 0.75600490196082126 0 0.97435614836745565 0.77499999999987745 0 0.97166519676947294 0.73337114490064459 0 0.97435614836745565 0.77499999999987745 0 0.97166519676947294 0.73337114490064459 0 1 0.74999999999993494 0 0.97435614836745565 0.77499999999987745 0 1 0.7999999999998193 0 1 0.74999999999993494 0 0.97435614836745565 0.77499999999987745 0 1 0.7999999999998193 0 0.95386563387742829 0.80414874155775029 0 1 0.84999999999982645 0 0.93677536231884972 0.85000000000000286 0 0.95391631417670719 0.89584263333814784 0 0.95386563387742829 0.80414874155775029 0 1 0.84999999999982645 0 0.93677536231884972 0.85000000000000286 0 1 0.7999999999998193 0 0.95386563387742829 0.80414874155775029 0 1 0.84999999999982645 0 0.93677536231884972 0.85000000000000286 0 0.88088768115933802 0.84674609810493673 0 0.90416666666660628 0.9041666666666166 0 0.90299850604011456 0.79563452813489832 0 0.95386563387742829 0.80414874155775029 0 0.93677536231884972 0.85000000000000286 0 0.90299850604011456 0.79563452813489832 0 0.93677536231884972 0.85000000000000286 0 0.88088768115933802 0.84674609810493673 0 0.84725310900444062 0.80779732082917555 0 0.90299850604011456 0.79563452813489832 0 0.88088768115933802 0.84674609810493673 0 0.85600844944837662 0.88483418979512773 0 0.88088768115933802 0.84674609810493673 0 0.90416666666660628 0.9041666666666166 0 0.85170973911348691 0.93569607295217616 0 0.90416666666660628 0.9041666666666166 0 0.89898474358632463 0.95391965591118966 0 0.90416666666660628 0.9041666666666166 0 0.95391631417670719 0.89584263333814784 0 0.94399509803919068 0.9439950980391687 0 0.90416666666660628 0.9041666666666166 0 0.94399509803919068 0.9439950980391687 0 0.89898474358632463 0.95391965591118966 0 0.93677536231884972 0.85000000000000286 0 0.90416666666660628 0.9041666666666166 0 0.95391631417670719 0.89584263333814784 0 1 0.84999999999982645 0 0.95391631417670719 0.89584263333814784 0 1 0.8999999999998336 0 1 0.8999999999998336 0 0.97435614836744289 0.92499999999990257 0 1 0.94999999999997109 0 0.95391631417670719 0.89584263333814784 0 1 0.8999999999998336 0 0.97435614836744289 0.92499999999990257 0 0.95391631417670719 0.89584263333814784 0 0.97435614836744289 0.92499999999990257 0 0.94399509803919068 0.9439950980391687 0 0.97435614836744289 0.92499999999990257 0 0.94399509803919068 0.9439950980391687 0 0.97166519676946206 0.96662885509935492 0 0.97435614836744289 0.92499999999990257 0 0.97166519676946206 0.96662885509935492 0 1 0.94999999999997109 0 0.97166519676946206 0.96662885509935492 0 1 0.94999999999997109 0 1 1 0 0.97166519676946206 0.96662885509935492 0 1 1 0 0.94999999999979179 1 0 0.94399509803919068 0.9439950980391687 0 0.97166519676946206 0.96662885509935492 0 0.94999999999979179 1 0 0.94999999999979179 1 0 0.89898474358632463 0.95391965591118966 0 0.89999999999958358 1 0 0.94399509803919068 0.9439950980391687 0 0.94999999999979179 1 0 0.89898474358632463 0.95391965591118966 0 0.84999999999965292 1 0 0.89898474358632463 0.95391965591118966 0 0.89999999999958358 1 0 0.81723410853263523 0.59419663659258926 0 0.86956835336234861 0.571283299838105 0 0.82862096804812391 0.55037090955459045 0 0.81723410853263523 0.59419663659258926 0 0.87159648282691515 0.61285406320581504 0 0.83758014339878906 0.63222013025741819 0 0.81723410853263523 0.59419663659258926 0 0.79884539758237771 0.62875045078114233 0 0.83758014339878906 0.63222013025741819 0 0.81723410853263523 0.59419663659258926 0 0.87159648282691515 0.61285406320581504 0 0.86956835336234861 0.571283299838105 0 0.86956835336234861 0.571283299838105 0 0.86907294890112186 0.52008116128001669 0 0.82862096804812391 0.55037090955459045 0 0.86907294890112186 0.52008116128001669 0 0.81441713509985358 0.51161854125224959 0 0.82862096804812391 0.55037090955459045 0 0.86907294890112186 0.52008116128001669 0 0.81441713509985358 0.51161854125224959 0 0.84723782639812573 0.48638347960178252 0 0.81441713509985358 0.51161854125224959 0 0.82862096804812391 0.55037090955459045 0 0.77151014687832564 0.54436834383023036 0 0.81441713509985358 0.51161854125224959 0 0.77151014687832564 0.54436834383023036 0 0.77846603114747959 0.49850927265137401 0 0.77151014687832564 0.54436834383023036 0 0.77846603114747959 0.49850927265137401 0 0.73947346780852752 0.49062440112282169 0 0.71809016091162536 0.58185040402320831 0 0.77151014687832564 0.54436834383023036 0 0.77293540622714185 0.59448302402785813 0 0.81723410853263523 0.59419663659258926 0 0.77151014687832564 0.54436834383023036 0 0.77293540622714185 0.59448302402785813 0 0.81723410853263523 0.59419663659258926 0 0.82862096804812391 0.55037090955459045 0 0.77151014687832564 0.54436834383023036 0 0.81723410853263523 0.59419663659258926 0 0.77293540622714185 0.59448302402785813 0 0.79884539758237771 0.62875045078114233 0 0.74994237037456724 0.62775548192980357 0 0.77293540622714185 0.59448302402785813 0 0.79884539758237771 0.62875045078114233 0 0.74994237037456724 0.62775548192980357 0 0.7750489929959945 0.66593931409600093 0 0.79884539758237771 0.62875045078114233 0 0.74999999999999989 0.69999999999999996 0 0.72500000000000064 0.67022701834392062 0 0.7750489929959945 0.66593931409600093 0 0.7750489929959945 0.66593931409600093 0 0.79999999999999982 0.69999999999999996 0 0.82457059160610424 0.66831947184359608 0 0.7750489929959945 0.66593931409600093 0 0.79884539758237771 0.62875045078114233 0 0.82457059160610424 0.66831947184359608 0 0.74999999999999989 0.69999999999999996 0 0.75841349681148107 0.75422312624214749 0 0.78578450296893509 0.73292684821144505 0 0.74999999999999989 0.69999999999999996 0 0.79999999999999982 0.69999999999999996 0 0.78578450296893509 0.73292684821144505 0 0.74999999999999989 0.69999999999999996 0 0.7750489929959945 0.66593931409600093 0 0.79999999999999982 0.69999999999999996 0 0.74999999999999989 0.69999999999999996 0 0.79999999999999982 0.69999999999999996 0 0.80185942888539485 0.77452061303608133 0 0.78578450296893509 0.73292684821144505 0 0.81864958914779962 0.73589050177899629 0 0.79999999999999982 0.69999999999999996 0 0.78578450296893509 0.73292684821144505 0 0.81864958914779962 0.73589050177899629 0 0.85491058998424563 0.76004753345552634 0 0.81864958914779962 0.73589050177899629 0 0.84999999999999987 0.69999999999999996 0 0.79999999999999982 0.69999999999999996 0 0.84999999999999987 0.69999999999999996 0 0.79999999999999982 0.69999999999999996 0 0.84999999999999987 0.69999999999999996 0 0.82457059160610424 0.66831947184359608 0 0.79999999999999982 0.69999999999999996 0 0.81864958914779962 0.73589050177899629 0 0.84999999999999987 0.69999999999999996 0 0.84999999999999987 0.69999999999999996 0 0.89999999999999991 0.69999999999999996 0 0.85491058998424563 0.76004753345552634 0 0.84999999999999987 0.69999999999999996 0 0.89999166460796554 0.74528934923809909 0 0.79884539758237771 0.62875045078114233 0 0.83758014339878906 0.63222013025741819 0 0.82457059160610424 0.66831947184359608 0 0.84999999999999987 0.69999999999999996 0 0.82457059160610424 0.66831947184359608 0 0.87712158428786946 0.65709029563313581 0 0.87159648282691515 0.61285406320581504 0 0.83758014339878906 0.63222013025741819 0 0.87712158428786946 0.65709029563313581 0 0.83758014339878906 0.63222013025741819 0 0.82457059160610424 0.66831947184359608 0 0.87712158428786946 0.65709029563313581 0 0.87712158428786946 0.65709029563313581 0 0.92057473616084773 0.66770436535372446 0 0.91750694127105259 0.63017627779935648 0 0.87159648282691515 0.61285406320581504 0 0.87712158428786946 0.65709029563313581 0 0.91750694127105259 0.63017627779935648 0 0.84999999999999987 0.69999999999999996 0 0.87712158428786946 0.65709029563313581 0 0.89999999999999991 0.69999999999999996 0 0.87712158428786946 0.65709029563313581 0 0.92057473616084773 0.66770436535372446 0 0.89999999999999991 0.69999999999999996 0 0.92057473616084773 0.66770436535372446 0 0.91750694127105259 0.63017627779935648 0 0.9578014258160763 0.65787212321113708 0 0.84999999999999987 0.69999999999999996 0 0.89999166460796554 0.74528934923809909 0 0.89999999999999991 0.69999999999999996 0 0.89999999999999991 0.69999999999999996 0 0.94999999999999996 0.69999999999999996 0 0.92057473616084773 0.66770436535372446 0 0.89999999999999991 0.69999999999999996 0 0.94999999999999996 0.69999999999999996 0 0.89999166460796554 0.74528934923809909 0 0.89999999999999991 0.69999999999999996 0 0.94999999999999996 0.69999999999999996 0 0.94399509803918602 0.75600490196082126 0 0.89999166460796554 0.74528934923809909 0 0.94999999999999996 0.69999999999999996 0 0.94399509803918602 0.75600490196082126 0 0.94999999999999996 0.69999999999999996 0 0.97166519676947294 0.73337114490064459 0 0.94999999999999996 0.69999999999999996 0 1 0.69999999999999996 0 0.94999999999999996 0.69999999999999996 0 1 0.69999999999999996 0 0.97166519676947294 0.73337114490064459 0 1 0.69999999999999996 0 0.97166519676947294 0.73337114490064459 0 1 0.74999999999993494 0 0.91750694127105259 0.63017627779935648 0 0.9578014258160763 0.65787212321113708 0 0.95867599106212187 0.60011091146651041 0 0.92057473616084773 0.66770436535372446 0 0.94999999999999996 0.69999999999999996 0 0.9578014258160763 0.65787212321113708 0 0.94999999999999996 0.69999999999999996 0 1 0.69999999999999996 0 0.9578014258160763 0.65787212321113708 0 1 0.69999999999999996 0 0.9578014258160763 0.65787212321113708 0 1 0.64999999999986979 0 0.9578014258160763 0.65787212321113708 0 1 0.64999999999986979 0 0.95867599106212187 0.60011091146651041 0 0.95867599106212187 0.60011091146651041 0 0.93732437411268477 0.55911392101136159 0 1 0.54999999999963112 0 1 0.64999999999986979 0 1 0.59999999999973963 0 0.95867599106212187 0.60011091146651041 0 1 0.59999999999973963 0 0.95867599106212187 0.60011091146651041 0 1 0.54999999999963112 0 0.91750694127105259 0.63017627779935648 0 0.95867599106212187 0.60011091146651041 0 0.91143117093204207 0.58709913730335972 0 0.95867599106212187 0.60011091146651041 0 0.91143117093204207 0.58709913730335972 0 0.93732437411268477 0.55911392101136159 0 0.86956835336234861 0.571283299838105 0 0.91143117093204207 0.58709913730335972 0 0.90900154012161016 0.53607784105648792 0 0.87159648282691515 0.61285406320581504 0 0.86956835336234861 0.571283299838105 0 0.91143117093204207 0.58709913730335972 0 0.87159648282691515 0.61285406320581504 0 0.91750694127105259 0.63017627779935648 0 0.91143117093204207 0.58709913730335972 0 0.86907294890112186 0.52008116128001669 0 0.90900154012161016 0.53607784105648792 0 0.91696753777131557 0.497780560203536 0 0.86956835336234861 0.571283299838105 0 0.86907294890112186 0.52008116128001669 0 0.90900154012161016 0.53607784105648792 0 0.90900154012161016 0.53607784105648792 0 0.93732437411268477 0.55911392101136159 0 0.95631871884947484 0.51827533208233789 0 0.91143117093204207 0.58709913730335972 0 0.90900154012161016 0.53607784105648792 0 0.93732437411268477 0.55911392101136159 0 0.90900154012161016 0.53607784105648792 0 0.95631871884947484 0.51827533208233789 0 0.91696753777131557 0.497780560203536 0 0.93732437411268477 0.55911392101136159 0 0.95631871884947484 0.51827533208233789 0 1 0.54999999999963112 0 0.95631871884947484 0.51827533208233789 0 1 0.54999999999963112 0 1 0.49999999999950101 0 0.95631871884947484 0.51827533208233789 0 1 0.49999999999950101 0 0.96228564064454991 0.48206450662049471 0 1 0.49999999999950101 0 1 0.44999999999963131 0 0.96228564064454991 0.48206450662049471 0 1 0.44999999999963131 0 0.93814194660195893 0.44426664081746747 0 0.96228564064454991 0.48206450662049471 0 0.93814194660195893 0.44426664081746747 0 0.96228564064454991 0.48206450662049471 0 0.91696753777131557 0.497780560203536 0 0.95631871884947484 0.51827533208233789 0 0.96228564064454991 0.48206450662049471 0 0.91696753777131557 0.497780560203536 0 1 0.39999999999978308 0 0.95871855522754235 0.40006508612975411 0 1 0.34999999999993492 0 1 0.44999999999963131 0 1 0.39999999999978308 0 0.95871855522754235 0.40006508612975411 0 1 0.44999999999963131 0 0.93814194660195893 0.44426664081746747 0 0.95871855522754235 0.40006508612975411 0 0.95871855522754235 0.40006508612975411 0 0.90594285160987287 0.4141265964174129 0 0.91750694127107502 0.36982372220068471 0 0.93814194660195893 0.44426664081746747 0 0.95871855522754235 0.40006508612975411 0 0.90594285160987287 0.4141265964174129 0 0.90594285160987287 0.4141265964174129 0 0.88594198078881503 0.46167788676578442 0 0.86411095495256451 0.42388805655111889 0 0.90594285160987287 0.4141265964174129 0 0.86411095495256451 0.42388805655111889 0 0.86844634540301924 0.38530937474099819 0 0.90594285160987287 0.4141265964174129 0 0.86844634540301924 0.38530937474099819 0 0.91750694127107502 0.36982372220068471 0 0.93814194660195893 0.44426664081746747 0 0.91696753777131557 0.497780560203536 0 0.88594198078881503 0.46167788676578442 0 0.93814194660195893 0.44426664081746747 0 0.90594285160987287 0.4141265964174129 0 0.88594198078881503 0.46167788676578442 0 0.86907294890112186 0.52008116128001669 0 0.91696753777131557 0.497780560203536 0 0.88594198078881503 0.46167788676578442 0 0.86907294890112186 0.52008116128001669 0 0.88594198078881503 0.46167788676578442 0 0.84723782639812573 0.48638347960178252 0 0.81441713509985358 0.51161854125224959 0 0.84723782639812573 0.48638347960178252 0 0.81400510706333218 0.47357325943904899 0 0.84723782639812573 0.48638347960178252 0 0.81400510706333218 0.47357325943904899 0 0.84925632466077294 0.45359738909549091 0 0.81400510706333218 0.47357325943904899 0 0.84925632466077294 0.45359738909549091 0 0.81973119833356312 0.43505687159469048 0 0.88594198078881503 0.46167788676578442 0 0.84723782639812573 0.48638347960178252 0 0.84925632466077294 0.45359738909549091 0 0.84925632466077294 0.45359738909549091 0 0.86411095495256451 0.42388805655111889 0 0.81973119833356312 0.43505687159469048 0 0.88594198078881503 0.46167788676578442 0 0.84925632466077294 0.45359738909549091 0 0.86411095495256451 0.42388805655111889 0 0.86411095495256451 0.42388805655111889 0 0.86844634540301924 0.38530937474099819 0 0.81308179852519835 0.39754945808726527 0 0.86844634540301924 0.38530937474099819 0 0.81308179852519835 0.39754945808726527 0 0.83573492347052902 0.36590755630746369 0 0.86411095495256451 0.42388805655111889 0 0.81308179852519835 0.39754945808726527 0 0.81973119833356312 0.43505687159469048 0 0.81973119833356312 0.43505687159469048 0 0.77354604466818633 0.40378688774472771 0 0.77972660463949339 0.45529290596363098 0 0.81308179852519835 0.39754945808726527 0 0.81973119833356312 0.43505687159469048 0 0.77354604466818633 0.40378688774472771 0 0.81308179852519835 0.39754945808726527 0 0.77354604466818633 0.40378688774472771 0 0.78145581580700685 0.34881365920033602 0 0.77354604466818633 0.40378688774472771 0 0.77972660463949339 0.45529290596363098 0 0.73483647259922602 0.44789725365921768 0 0.77972660463949339 0.45529290596363098 0 0.73483647259922602 0.44789725365921768 0 0.73947346780852752 0.49062440112282169 0 0.77972660463949339 0.45529290596363098 0 0.77846603114747959 0.49850927265137401 0 0.73947346780852752 0.49062440112282169 0 0.81400510706333218 0.47357325943904899 0 0.77972660463949339 0.45529290596363098 0 0.77846603114747959 0.49850927265137401 0 0.81441713509985358 0.51161854125224959 0 0.81400510706333218 0.47357325943904899 0 0.77846603114747959 0.49850927265137401 0 0.81400510706333218 0.47357325943904899 0 0.81973119833356312 0.43505687159469048 0 0.77972660463949339 0.45529290596363098 0 0.79999999999999982 0.29999999999999999 0 0.77075983436335049 0.25919399014334171 0 0.81486180804364938 0.26321394949780091 0 0.79999999999999982 0.29999999999999999 0 0.74999999999999989 0.29999999999999999 0 0.79999999999999982 0.29999999999999999 0 0.77075983436335049 0.25919399014334171 0 0.74999999999999989 0.29999999999999999 0 0.79999999999999982 0.29999999999999999 0 0.78145581580700685 0.34881365920033602 0 0.74999999999999989 0.29999999999999999 0 0.78145581580700685 0.34881365920033602 0 0.73090396928863699 0.33699297293167962 0 0.74999999999999989 0.29999999999999999 0 0.77354604466818633 0.40378688774472771 0 0.78145581580700685 0.34881365920033602 0 0.74764719760526988 0.3719647154012321 0 0.78145581580700685 0.34881365920033602 0 0.74764719760526988 0.3719647154012321 0 0.73090396928863699 0.33699297293167962 0 0.81308179852519835 0.39754945808726527 0 0.78145581580700685 0.34881365920033602 0 0.83573492347052902 0.36590755630746369 0 0.79999999999999982 0.29999999999999999 0 0.78145581580700685 0.34881365920033602 0 0.82500000000000062 0.33010209762754811 0 0.78145581580700685 0.34881365920033602 0 0.82500000000000062 0.33010209762754811 0 0.83573492347052902 0.36590755630746369 0 0.82500000000000062 0.33010209762754811 0 0.83573492347052902 0.36590755630746369 0 0.87430060258887643 0.34056085888204451 0 0.86844634540301924 0.38530937474099819 0 0.83573492347052902 0.36590755630746369 0 0.87430060258887643 0.34056085888204451 0 0.82500000000000062 0.33010209762754811 0 0.87430060258887643 0.34056085888204451 0 0.84999999999999987 0.29999999999999999 0 0.87430060258887643 0.34056085888204451 0 0.84999999999999987 0.29999999999999999 0 0.89999999999999991 0.29999999999999999 0 0.84999999999999987 0.29999999999999999 0 0.81486180804364938 0.26321394949780091 0 0.8517097391133297 0.2356960729520409 0 0.84999999999999987 0.29999999999999999 0 0.89898474358614167 0.25391965591104898 0 0.8517097391133297 0.2356960729520409 0 0.84999999999999987 0.29999999999999999 0 0.89999999999999991 0.29999999999999999 0 0.79999999999999982 0.29999999999999999 0 0.82500000000000062 0.33010209762754811 0 0.84999999999999987 0.29999999999999999 0 0.79999999999999982 0.29999999999999999 0 0.84999999999999987 0.29999999999999999 0 0.81486180804364938 0.26321394949780091 0 0.79999999999999982 0.29999999999999999 0 0.84999999999999987 0.29999999999999999 0 0.84999999999999987 0.29999999999999999 0 0.89898474358614167 0.25391965591104898 0 0.89999999999999991 0.29999999999999999 0 0.89999999999999991 0.29999999999999999 0 0.94999999999999996 0.29999999999999999 0 0.89999999999999991 0.29999999999999999 0 0.92012390126144183 0.33123581297173937 0 0.94999999999999996 0.29999999999999999 0 0.89898474358614167 0.25391965591104898 0 0.89999999999999991 0.29999999999999999 0 0.94999999999999996 0.29999999999999999 0 0.89898474358614167 0.25391965591104898 0 0.94999999999999996 0.29999999999999999 0 0.94399509803921056 0.24399509803922639 0 0.86844634540301924 0.38530937474099819 0 0.87430060258887643 0.34056085888204451 0 0.91750694127107502 0.36982372220068471 0 0.87430060258887643 0.34056085888204451 0 0.92012390126144183 0.33123581297173937 0 0.91750694127107502 0.36982372220068471 0 0.87430060258887643 0.34056085888204451 0 0.89999999999999991 0.29999999999999999 0 0.92012390126144183 0.33123581297173937 0 0.92012390126144183 0.33123581297173937 0 0.91750694127107502 0.36982372220068471 0 0.95780851984364423 0.34215720972155339 0 0.95871855522754235 0.40006508612975411 0 0.91750694127107502 0.36982372220068471 0 0.95780851984364423 0.34215720972155339 0 0.92012390126144183 0.33123581297173937 0 0.95780851984364423 0.34215720972155339 0 0.94999999999999996 0.29999999999999999 0 0.95780851984364423 0.34215720972155339 0 0.94999999999999996 0.29999999999999999 0 1 0.29999999999999999 0 0.95780851984364423 0.34215720972155339 0 1 0.34999999999993492 0 1 0.29999999999999999 0 0.95871855522754235 0.40006508612975411 0 0.95780851984364423 0.34215720972155339 0 1 0.34999999999993492 0 0.94999999999999996 0.29999999999999999 0 0.97166519676951801 0.26662885509932011 0 0.94399509803921056 0.24399509803922639 0 0.94999999999999996 0.29999999999999999 0 1 0.29999999999999999 0 0.94999999999999996 0.29999999999999999 0 1 0.29999999999999999 0 0.97166519676951801 0.26662885509932011 0 1 0.29999999999999999 0 0.97166519676951801 0.26662885509932011 0 1 0.24999999999987299 0 0.97166519676951801 0.26662885509932011 0 0.97435614836740092 0.22499999999981049 0 1 0.24999999999987299 0 0.97435614836740092 0.22499999999981049 0 1 0.24999999999987299 0 1 0.19999999999974799 0 0.97435614836740092 0.22499999999981049 0 0.94399509803921056 0.24399509803922639 0 0.95391631417672862 0.19584263333809451 0 0.97166519676951801 0.26662885509932011 0 0.97435614836740092 0.22499999999981049 0 0.94399509803921056 0.24399509803922639 0 0.97435614836740092 0.22499999999981049 0 0.95391631417672862 0.19584263333809451 0 1 0.19999999999974799 0 0.95391631417672862 0.19584263333809451 0 1 0.14999999999961891 0 0.93677536231883773 0.14999999999999089 0 1 0.14999999999961891 0 0.93677536231883773 0.14999999999999089 0 0.95386563387744361 0.1041487415577465 0 0.95391631417672862 0.19584263333809451 0 1 0.19999999999974799 0 1 0.14999999999961891 0 0.95391631417672862 0.19584263333809451 0 0.93677536231883773 0.14999999999999089 0 0.90416666666668166 0.20416666666667119 0 0.93677536231883773 0.14999999999999089 0 0.88088768115941807 0.14674609810479519 0 0.90416666666668166 0.20416666666667119 0 0.93677536231883773 0.14999999999999089 0 0.88088768115941807 0.14674609810479519 0 0.90299850604006393 0.09563452813493091 0 0.88088768115941807 0.14674609810479519 0 0.90416666666668166 0.20416666666667119 0 0.85600844944842547 0.1848341897950983 0 0.89898474358614167 0.25391965591104898 0 0.90416666666668166 0.20416666666667119 0 0.8517097391133297 0.2356960729520409 0 0.89898474358614167 0.25391965591104898 0 0.94399509803921056 0.24399509803922639 0 0.90416666666668166 0.20416666666667119 0 0.94399509803921056 0.24399509803922639 0 0.95391631417672862 0.19584263333809451 0 0.90416666666668166 0.20416666666667119 0 0.94999999999986839 0 0 0.97166519676946894 0.033371144900598393 0 0.94399509803922566 0.056004901960802607 0 0.94999999999986839 0 0 1 0 0 0.97166519676946894 0.033371144900598393 0 1 0 0 1 0.049999999999896842 0 0.97166519676946894 0.033371144900598393 0 1 0.049999999999896842 0 0.97166519676946894 0.033371144900598393 0 0.97435614836748241 0.074999999999825387 0 0.97166519676946894 0.033371144900598393 0 0.94399509803922566 0.056004901960802607 0 0.97435614836748241 0.074999999999825387 0 0.94399509803922566 0.056004901960802607 0 0.97435614836748241 0.074999999999825387 0 0.95386563387744361 0.1041487415577465 0 0.97435614836748241 0.074999999999825387 0 1 0.099999999999753911 0 0.95386563387744361 0.1041487415577465 0 1 0.049999999999896842 0 0.97435614836748241 0.074999999999825387 0 1 0.099999999999753911 0 1 0.14999999999961891 0 1 0.099999999999753911 0 0.95386563387744361 0.1041487415577465 0 0.93677536231883773 0.14999999999999089 0 0.95386563387744361 0.1041487415577465 0 0.90299850604006393 0.09563452813493091 0 0.88088768115941807 0.14674609810479519 0 0.90299850604006393 0.09563452813493091 0 0.84725310900442086 0.10779732082922661 0 0.90299850604006393 0.09563452813493091 0 0.899991664607802 0.045289349238254978 0 0.85491058998398861 0.060047533455626502 0 0.94399509803922566 0.056004901960802607 0 0.95386563387744361 0.1041487415577465 0 0.90299850604006393 0.09563452813493091 0 0.94399509803922566 0.056004901960802607 0 0.90299850604006393 0.09563452813493091 0 0.899991664607802 0.045289349238254978 0 0.94999999999986839 0 0 0.94399509803922566 0.056004901960802607 0 0.899991664607802 0.045289349238254978 0 0.899991664607802 0.045289349238254978 0 0.89999999999973679 0 0 0.84999999999960507 0 0 0.94999999999986839 0 0 0.899991664607802 0.045289349238254978 0 0.89999999999973679 0 0 0.84999999999960507 0 0 0.81864958914740749 0.035890501779055867 0 0.79999999999947335 0 0 0.899991664607802 0.045289349238254978 0 0.84999999999960507 0 0 0.85491058998398861 0.060047533455626502 0 0.85491058998398861 0.060047533455626502 0 0.81864958914740749 0.035890501779055867 0 0.80185942888501827 0.074520613036224564 0 0.84999999999960507 0 0 0.85491058998398861 0.060047533455626502 0 0.81864958914740749 0.035890501779055867 0 0.85491058998398861 0.060047533455626502 0 0.84725310900442086 0.10779732082922661 0 0.80185942888501827 0.074520613036224564 0 0.90299850604006393 0.09563452813493091 0 0.85491058998398861 0.060047533455626502 0 0.84725310900442086 0.10779732082922661 0 0.84725310900442086 0.10779732082922661 0 0.80076557130237269 0.1154587552654202 0 0.80185942888501827 0.074520613036224564 0 0.84725310900442086 0.10779732082922661 0 0.80076557130237269 0.1154587552654202 0 0.82709327591102189 0.14937141670914489 0 0.80076557130237269 0.1154587552654202 0 0.76878382444651716 0.097147941686331368 0 0.80185942888501827 0.074520613036224564 0 0.76878382444651716 0.097147941686331368 0 0.77144070960558853 0.14311854477243749 0 0.72525833953073282 0.1032114801687094 0 0.80076557130237269 0.1154587552654202 0 0.76878382444651716 0.097147941686331368 0 0.77144070960558853 0.14311854477243749 0 0.76878382444651716 0.097147941686331368 0 0.80185942888501827 0.074520613036224564 0 0.7527966693318906 0.053051678021508272 0 0.81864958914740749 0.035890501779055867 0 0.80185942888501827 0.074520613036224564 0 0.78393852574753176 0.032039079577822822 0 0.80185942888501827 0.074520613036224564 0 0.78393852574753176 0.032039079577822822 0 0.7527966693318906 0.053051678021508272 0 0.78393852574753176 0.032039079577822822 0 0.7527966693318906 0.053051678021508272 0 0.74999999999934175 0 0 0.78393852574753176 0.032039079577822822 0 0.79999999999947335 0 0 0.74999999999934175 0 0 0.81864958914740749 0.035890501779055867 0 0.78393852574753176 0.032039079577822822 0 0.79999999999947335 0 0 0.81283102246527783 0.1881007222486438 0 0.8517097391133297 0.2356960729520409 0 0.79680861578956375 0.22656778056752541 0 0.81283102246527783 0.1881007222486438 0 0.8517097391133297 0.2356960729520409 0 0.85600844944842547 0.1848341897950983 0 0.81486180804364938 0.26321394949780091 0 0.8517097391133297 0.2356960729520409 0 0.79680861578956375 0.22656778056752541 0 0.90416666666668166 0.20416666666667119 0 0.8517097391133297 0.2356960729520409 0 0.85600844944842547 0.1848341897950983 0 0.88088768115941807 0.14674609810479519 0 0.85600844944842547 0.1848341897950983 0 0.82709327591102189 0.14937141670914489 0 0.88088768115941807 0.14674609810479519 0 0.84725310900442086 0.10779732082922661 0 0.82709327591102189 0.14937141670914489 0 0.81283102246527783 0.1881007222486438 0 0.85600844944842547 0.1848341897950983 0 0.82709327591102189 0.14937141670914489 0 0.81283102246527783 0.1881007222486438 0 0.77144070960558853 0.14311854477243749 0 0.76587607630038135 0.18880039518954719 0 0.81283102246527783 0.1881007222486438 0 0.82709327591102189 0.14937141670914489 0 0.77144070960558853 0.14311854477243749 0 0.80076557130237269 0.1154587552654202 0 0.82709327591102189 0.14937141670914489 0 0.77144070960558853 0.14311854477243749 0 0.77144070960558853 0.14311854477243749 0 0.76587607630038135 0.18880039518954719 0 0.72634814642510737 0.16106886917518889 0 0.76587607630038135 0.18880039518954719 0 0.79680861578956375 0.22656778056752541 0 0.75668890529066124 0.2244279804069782 0 0.81283102246527783 0.1881007222486438 0 0.76587607630038135 0.18880039518954719 0 0.79680861578956375 0.22656778056752541 0 0.77075983436335049 0.25919399014334171 0 0.81486180804364938 0.26321394949780091 0 0.79680861578956375 0.22656778056752541 0 0.77075983436335049 0.25919399014334171 0 0.79680861578956375 0.22656778056752541 0 0.75668890529066124 0.2244279804069782 0 0.77075983436335049 0.25919399014334171 0 0.75668890529066124 0.2244279804069782 0 0.72500000000000064 0.2498161764706 0 0.75668890529066124 0.2244279804069782 0 0.72500000000000064 0.2498161764706 0 0.72500000000001008 0.19776155966387679 0 0.72500000000000064 0.2498161764706 0 0.69397719155551807 0.2245125647000914 0 0.72500000000001008 0.19776155966387679 0 0.72500000000000064 0.2498161764706 0 0.69397719155551807 0.2245125647000914 0 0.67933712972090698 0.25920070958121938 0 0.69397719155551807 0.2245125647000914 0 0.72500000000001008 0.19776155966387679 0 0.6865991819015953 0.189116534044597 0 0.76587607630038135 0.18880039518954719 0 0.75668890529066124 0.2244279804069782 0 0.72500000000001008 0.19776155966387679 0 0.76587607630038135 0.18880039518954719 0 0.72500000000001008 0.19776155966387679 0 0.72634814642510737 0.16106886917518889 0 0.77144070960558853 0.14311854477243749 0 0.72634814642510737 0.16106886917518889 0 0.72525833953073282 0.1032114801687094 0 0.72634814642510737 0.16106886917518889 0 0.68391457121233579 0.14440470121196541 0 0.72525833953073282 0.1032114801687094 0 0.72500000000001008 0.19776155966387679 0 0.72634814642510737 0.16106886917518889 0 0.6865991819015953 0.189116534044597 0 0.72634814642510737 0.16106886917518889 0 0.68391457121233579 0.14440470121196541 0 0.6865991819015953 0.189116534044597 0 0.68391457121233579 0.14440470121196541 0 0.64011864159029941 0.18789607982138171 0 0.6865991819015953 0.189116534044597 0 0.68391457121233579 0.14440470121196541 0 0.65290632656860115 0.11434202593454081 0 0.6236733212988993 0.14864538214901801 0 0.68391457121233579 0.14440470121196541 0 0.64011864159029941 0.18789607982138171 0 0.6236733212988993 0.14864538214901801 0 0.64011864159029941 0.18789607982138171 0 0.65394964615507722 0.22666784374016369 0 0.59814117807200873 0.23398510860739519 0 0.65394964615507722 0.22666784374016369 0 0.59814117807200873 0.23398510860739519 0 0.62657463266645097 0.26524202571255862 0 0.69397719155551807 0.2245125647000914 0 0.65394964615507722 0.22666784374016369 0 0.67933712972090698 0.25920070958121938 0 0.64011864159029941 0.18789607982138171 0 0.65394964615507722 0.22666784374016369 0 0.6865991819015953 0.189116534044597 0 0.69397719155551807 0.2245125647000914 0 0.65394964615507722 0.22666784374016369 0 0.6865991819015953 0.189116534044597 0 0.69999999999921003 0 0 0.72683645290270404 0.027797073151180601 0 0.7010294155333181 0.056779085686491267 0 0.69999999999921003 0 0 0.7010294155333181 0.056779085686491267 0 0.66369801598854572 0.036327466368102787 0 0.7527966693318906 0.053051678021508272 0 0.74999999999934175 0 0 0.72683645290270404 0.027797073151180601 0 0.69999999999921003 0 0 0.74999999999934175 0 0 0.72683645290270404 0.027797073151180601 0 0.7527966693318906 0.053051678021508272 0 0.72683645290270404 0.027797073151180601 0 0.7010294155333181 0.056779085686491267 0 0.7010294155333181 0.056779085686491267 0 0.72525833953073282 0.1032114801687094 0 0.68330259535470161 0.10038702501083881 0 0.7527966693318906 0.053051678021508272 0 0.7010294155333181 0.056779085686491267 0 0.72525833953073282 0.1032114801687094 0 0.76878382444651716 0.097147941686331368 0 0.7527966693318906 0.053051678021508272 0 0.72525833953073282 0.1032114801687094 0 0.68391457121233579 0.14440470121196541 0 0.72525833953073282 0.1032114801687094 0 0.68330259535470161 0.10038702501083881 0 0.68330259535470161 0.10038702501083881 0 0.65290632656860115 0.11434202593454081 0 0.65408113592120842 0.073941773121567966 0 0.68391457121233579 0.14440470121196541 0 0.68330259535470161 0.10038702501083881 0 0.65290632656860115 0.11434202593454081 0 0.65290632656860115 0.11434202593454081 0 0.61956000905586006 0.1043312481793135 0 0.6236733212988993 0.14864538214901801 0 0.65290632656860115 0.11434202593454081 0 0.65408113592120842 0.073941773121567966 0 0.61956000905586006 0.1043312481793135 0 0.65408113592120842 0.073941773121567966 0 0.61940220174112337 0.047251958781050582 0 0.61956000905586006 0.1043312481793135 0 0.7010294155333181 0.056779085686491267 0 0.68330259535470161 0.10038702501083881 0 0.65408113592120842 0.073941773121567966 0 0.7010294155333181 0.056779085686491267 0 0.65408113592120842 0.073941773121567966 0 0.66369801598854572 0.036327466368102787 0 0.65408113592120842 0.073941773121567966 0 0.66369801598854572 0.036327466368102787 0 0.61940220174112337 0.047251958781050582 0 0.66369801598854572 0.036327466368102787 0 0.64999999999907843 0 0 0.61940220174112337 0.047251958781050582 0 0.69999999999921003 0 0 0.66369801598854572 0.036327466368102787 0 0.64999999999907843 0 0 0.59999999999894682 0 0 0.57396793757665954 0.037011367187645222 0 0.5499999999988151 0 0 0.64999999999907843 0 0 0.59999999999894682 0 0 0.61940220174112337 0.047251958781050582 0 0.59999999999894682 0 0 0.61940220174112337 0.047251958781050582 0 0.57396793757665954 0.037011367187645222 0 0.61940220174112337 0.047251958781050582 0 0.57396793757665954 0.037011367187645222 0 0.57667858002728545 0.078486105337742612 0 0.61940220174112337 0.047251958781050582 0 0.57667858002728545 0.078486105337742612 0 0.61956000905586006 0.1043312481793135 0 0.61956000905586006 0.1043312481793135 0 0.58516465772821369 0.11653801664834119 0 0.6236733212988993 0.14864538214901801 0 0.57667858002728545 0.078486105337742612 0 0.61956000905586006 0.1043312481793135 0 0.58516465772821369 0.11653801664834119 0 0.58516465772821369 0.11653801664834119 0 0.54979595918804436 0.1060565713905809 0 0.56202748619534593 0.15054058349222879 0 0.57667858002728545 0.078486105337742612 0 0.58516465772821369 0.11653801664834119 0 0.54979595918804436 0.1060565713905809 0 0.54979595918804436 0.1060565713905809 0 0.51076801031701946 0.1202837388510348 0 0.52375890611712683 0.059318771819432882 0 0.47881186583059909 0.093591717165689425 0 0.51076801031701946 0.1202837388510348 0 0.52375890611712683 0.059318771819432882 0 0.57667858002728545 0.078486105337742612 0 0.54979595918804436 0.1060565713905809 0 0.52375890611712683 0.059318771819432882 0 0.57396793757665954 0.037011367187645222 0 0.52375890611712683 0.059318771819432882 0 0.5499999999988151 0 0 0.57396793757665954 0.037011367187645222 0 0.57667858002728545 0.078486105337742612 0 0.52375890611712683 0.059318771819432882 0 0.49999999999869432 0 0 0.52375890611712683 0.059318771819432882 0 0.5499999999988151 0 0 0.59814117807200873 0.23398510860739519 0 0.59443395090188023 0.18455690917515069 0 0.55306006949600994 0.20198184231352201 0 0.59814117807200873 0.23398510860739519 0 0.55306006949600994 0.20198184231352201 0 0.54248833945060504 0.2520322959927106 0 0.64011864159029941 0.18789607982138171 0 0.59814117807200873 0.23398510860739519 0 0.59443395090188023 0.18455690917515069 0 0.64011864159029941 0.18789607982138171 0 0.59443395090188023 0.18455690917515069 0 0.6236733212988993 0.14864538214901801 0 0.58516465772821369 0.11653801664834119 0 0.6236733212988993 0.14864538214901801 0 0.56202748619534593 0.15054058349222879 0 0.59443395090188023 0.18455690917515069 0 0.6236733212988993 0.14864538214901801 0 0.56202748619534593 0.15054058349222879 0 0.59443395090188023 0.18455690917515069 0 0.56202748619534593 0.15054058349222879 0 0.55306006949600994 0.20198184231352201 0 0.56202748619534593 0.15054058349222879 0 0.51729576145820033 0.1683240575987815 0 0.55306006949600994 0.20198184231352201 0 0.54979595918804436 0.1060565713905809 0 0.51076801031701946 0.1202837388510348 0 0.56202748619534593 0.15054058349222879 0 0.48466639505193998 0.1421439844745814 0 0.51076801031701946 0.1202837388510348 0 0.51729576145820033 0.1683240575987815 0 0.51076801031701946 0.1202837388510348 0 0.56202748619534593 0.15054058349222879 0 0.51729576145820033 0.1683240575987815 0 0.51729576145820033 0.1683240575987815 0 0.50760557329222289 0.20700468884612061 0 0.55306006949600994 0.20198184231352201 0 0.50760557329222289 0.20700468884612061 0 0.55306006949600994 0.20198184231352201 0 0.54248833945060504 0.2520322959927106 0 0.49695729691142171 0.25014895411178018 0 0.50760557329222289 0.20700468884612061 0 0.54248833945060504 0.2520322959927106 0 0.49695729691142171 0.25014895411178018 0 0.5 0.29999999999999999 0 0.54248833945060504 0.2520322959927106 0 0.5 0.29999999999999999 0 0.54999999999999993 0.29999999999999999 0 0.52752007115234678 0.33170632466418198 0 0.5 0.29999999999999999 0 0.54999999999999993 0.29999999999999999 0 0.54248833945060504 0.2520322959927106 0 0.5 0.29999999999999999 0 0.54999999999999993 0.29999999999999999 0 0.54999999999999993 0.29999999999999999 0 0.54248833945060504 0.2520322959927106 0 0.5794309697024993 0.27124795968204829 0 0.59814117807200873 0.23398510860739519 0 0.54248833945060504 0.2520322959927106 0 0.5794309697024993 0.27124795968204829 0 0.54999999999999993 0.29999999999999999 0 0.59999999999999976 0.29999999999999999 0 0.54999999999999993 0.29999999999999999 0 0.5794309697024993 0.27124795968204829 0 0.59999999999999976 0.29999999999999999 0 0.59999999999999976 0.29999999999999999 0 0.6499999999999998 0.29999999999999999 0 0.5794309697024993 0.27124795968204829 0 0.59999999999999976 0.29999999999999999 0 0.62657463266645097 0.26524202571255862 0 0.59814117807200873 0.23398510860739519 0 0.5794309697024993 0.27124795968204829 0 0.62657463266645097 0.26524202571255862 0 0.61959173890754571 0.33832250091341232 0 0.56836770495988642 0.3523062350852913 0 0.6084546825910605 0.37989672713932537 0 0.59999999999999976 0.29999999999999999 0 0.61959173890754571 0.33832250091341232 0 0.6499999999999998 0.29999999999999999 0 0.59999999999999976 0.29999999999999999 0 0.61959173890754571 0.33832250091341232 0 0.56836770495988642 0.3523062350852913 0 0.54999999999999993 0.29999999999999999 0 0.59999999999999976 0.29999999999999999 0 0.56836770495988642 0.3523062350852913 0 0.56836770495988642 0.3523062350852913 0 0.52752007115234678 0.33170632466418198 0 0.52289427570932567 0.3932284363388488 0 0.54999999999999993 0.29999999999999999 0 0.56836770495988642 0.3523062350852913 0 0.52752007115234678 0.33170632466418198 0 0.49077833859261139 0.35229981449445641 0 0.5 0.29999999999999999 0 0.52752007115234678 0.33170632466418198 0 0.49077833859261139 0.35229981449445641 0 0.52752007115234678 0.33170632466418198 0 0.52289427570932567 0.3932284363388488 0 0.56836770495988642 0.3523062350852913 0 0.52289427570932567 0.3932284363388488 0 0.57744073070774993 0.41535148636609359 0 0.52289427570932567 0.3932284363388488 0 0.53823865529665704 0.45873898050322898 0 0.57744073070774993 0.41535148636609359 0 0.48858720058566618 0.43964267759203868 0 0.52289427570932567 0.3932284363388488 0 0.53823865529665704 0.45873898050322898 0 0.49102375406324739 0.49123754822244059 0 0.53330375813596242 0.50827942741749099 0 0.53823865529665704 0.45873898050322898 0 0.49102375406324739 0.49123754822244059 0 0.48858720058566618 0.43964267759203868 0 0.53823865529665704 0.45873898050322898 0 0.53330375813596242 0.50827942741749099 0 0.57611405284611883 0.50165903596042916 0 0.53823865529665704 0.45873898050322898 0 0.57611405284611883 0.50165903596042916 0 0.57975577671020095 0.46172033326338591 0 0.61547661924074692 0.48539576058873962 0 0.57611405284611883 0.50165903596042916 0 0.53823865529665704 0.45873898050322898 0 0.57975577671020095 0.46172033326338591 0 0.57975577671020095 0.46172033326338591 0 0.61209567303293111 0.44669033081290321 0 0.57744073070774993 0.41535148636609359 0 0.53823865529665704 0.45873898050322898 0 0.57975577671020095 0.46172033326338591 0 0.57744073070774993 0.41535148636609359 0 0.57975577671020095 0.46172033326338591 0 0.61209567303293111 0.44669033081290321 0 0.61547661924074692 0.48539576058873962 0 0.56836770495988642 0.3523062350852913 0 0.57744073070774993 0.41535148636609359 0 0.6084546825910605 0.37989672713932537 0 0.61209567303293111 0.44669033081290321 0 0.57744073070774993 0.41535148636609359 0 0.63912439215427275 0.41063340167983359 0 0.57744073070774993 0.41535148636609359 0 0.6084546825910605 0.37989672713932537 0 0.63912439215427275 0.41063340167983359 0 0.6084546825910605 0.37989672713932537 0 0.63912439215427275 0.41063340167983359 0 0.65481233915350323 0.35652751921065562 0 0.63912439215427275 0.41063340167983359 0 0.65178832218679827 0.45929119821019959 0 0.6879972333610942 0.43038561374960838 0 0.63912439215427275 0.41063340167983359 0 0.68128176404677243 0.38629093627004979 0 0.6879972333610942 0.43038561374960838 0 0.63912439215427275 0.41063340167983359 0 0.68128176404677243 0.38629093627004979 0 0.65481233915350323 0.35652751921065562 0 0.61547661924074692 0.48539576058873962 0 0.6541250972820879 0.49999999999999989 0 0.65178832218679827 0.45929119821019959 0 0.61209567303293111 0.44669033081290321 0 0.61547661924074692 0.48539576058873962 0 0.65178832218679827 0.45929119821019959 0 0.61209567303293111 0.44669033081290321 0 0.63912439215427275 0.41063340167983359 0 0.65178832218679827 0.45929119821019959 0 0.65178832218679827 0.45929119821019959 0 0.69385896817107129 0.48377516041410151 0 0.6879972333610942 0.43038561374960838 0 0.6541250972820879 0.49999999999999989 0 0.65178832218679827 0.45929119821019959 0 0.69385896817107129 0.48377516041410151 0 0.7152569930854884 0.5237994455134295 0 0.69385896817107129 0.48377516041410151 0 0.73947346780852752 0.49062440112282169 0 0.69385896817107129 0.48377516041410151 0 0.73483647259922602 0.44789725365921768 0 0.6879972333610942 0.43038561374960838 0 0.69385896817107129 0.48377516041410151 0 0.73483647259922602 0.44789725365921768 0 0.73947346780852752 0.49062440112282169 0 0.68128176404677243 0.38629093627004979 0 0.72622533758026719 0.40265885511101601 0 0.71508799138962864 0.36622814920737751 0 0.73483647259922602 0.44789725365921768 0 0.6879972333610942 0.43038561374960838 0 0.72622533758026719 0.40265885511101601 0 0.68128176404677243 0.38629093627004979 0 0.6879972333610942 0.43038561374960838 0 0.72622533758026719 0.40265885511101601 0 0.77354604466818633 0.40378688774472771 0 0.73483647259922602 0.44789725365921768 0 0.72622533758026719 0.40265885511101601 0 0.72622533758026719 0.40265885511101601 0 0.74764719760526988 0.3719647154012321 0 0.71508799138962864 0.36622814920737751 0 0.77354604466818633 0.40378688774472771 0 0.72622533758026719 0.40265885511101601 0 0.74764719760526988 0.3719647154012321 0 0.74764719760526988 0.3719647154012321 0 0.71508799138962864 0.36622814920737751 0 0.73090396928863699 0.33699297293167962 0 0.71508799138962864 0.36622814920737751 0 0.68887083591306764 0.33632058575757479 0 0.73090396928863699 0.33699297293167962 0 0.68128176404677243 0.38629093627004979 0 0.71508799138962864 0.36622814920737751 0 0.68887083591306764 0.33632058575757479 0 0.68887083591306764 0.33632058575757479 0 0.73090396928863699 0.33699297293167962 0 0.69999999999999984 0.29999999999999999 0 0.72500000000000064 0.2498161764706 0 0.74999999999999989 0.29999999999999999 0 0.69999999999999984 0.29999999999999999 0 0.74999999999999989 0.29999999999999999 0 0.69999999999999984 0.29999999999999999 0 0.73090396928863699 0.33699297293167962 0 0.74999999999999989 0.29999999999999999 0 0.69999999999999984 0.29999999999999999 0 0.77075983436335049 0.25919399014334171 0 0.72500000000000064 0.2498161764706 0 0.74999999999999989 0.29999999999999999 0 0.72500000000000064 0.2498161764706 0 0.69999999999999984 0.29999999999999999 0 0.67933712972090698 0.25920070958121938 0 0.69999999999999984 0.29999999999999999 0 0.67933712972090698 0.25920070958121938 0 0.6499999999999998 0.29999999999999999 0 0.68887083591306764 0.33632058575757479 0 0.69999999999999984 0.29999999999999999 0 0.6499999999999998 0.29999999999999999 0 0.69999999999999984 0.29999999999999999 0 0.6499999999999998 0.29999999999999999 0 0.67933712972090698 0.25920070958121938 0 0.62657463266645097 0.26524202571255862 0 0.6499999999999998 0.29999999999999999 0 0.65394964615507722 0.22666784374016369 0 0.67933712972090698 0.25920070958121938 0 0.62657463266645097 0.26524202571255862 0 0.59999999999999976 0.29999999999999999 0 0.62657463266645097 0.26524202571255862 0 0.6499999999999998 0.29999999999999999 0 0.61959173890754571 0.33832250091341232 0 0.6499999999999998 0.29999999999999999 0 0.65481233915350323 0.35652751921065562 0 0.61959173890754571 0.33832250091341232 0 0.6084546825910605 0.37989672713932537 0 0.65481233915350323 0.35652751921065562 0 0.68128176404677243 0.38629093627004979 0 0.68887083591306764 0.33632058575757479 0 0.65481233915350323 0.35652751921065562 0 0.68887083591306764 0.33632058575757479 0 0.6499999999999998 0.29999999999999999 0 0.65481233915350323 0.35652751921065562 0 
</DataArray>
</Points>
<Cells>
<DataArray type="UInt32" Name="connectivity" format="ascii">
0 1 2 3 4 5 6 7 8 9 10 11 12 13 14 15 16 17 18 19 20 21 22 23 24 25 26 27 28 29 30 31 32 33 34 35 36 37 38 39 40 41 42 43 44 45 46 47 48 49 50 51 52 53 54 55 56 57 58 59 60 61 62 63 64 65 66 67 68 69 70 71 72 73 74 75 76 77 78 79 80 81 82 83 84 85 86 87 88 89 90 91 92 93 94 95 96 97 98 99 100 101 102 103 104 105 106 107 108 109 110 111 112 113 114 115 116 117 118 119 120 121 122 123 124 125 126 127 128 129 130 131 132 133 134 135 136 137 138 139 140 141 142 143 144 145 146 147 148 149 150 151 152 153 154 155 156 157 158 159 160 161 162 163 164 165 166 167 168 169 170 171 172 173 174 175 176 177 178 179 180 181 182 183 184 185 186 187 188 189 190 191 192 193 194 195 196 197 198 199 200 201 202 203 204 205 206 207 208 209 210 211 212 213 214 215 216 217 218 219 220 221 222 223 224 225 226 227 228 229 230 231 232 233 234 235 236 237 238 239 240 241 242 243 244 245 246 247 248 249 250 251 252 253 254 255 256 257 258 259 260 261 262 263 264 265 266 267 268 269 270 271 272 273 274 275 276 277 278 279 280 281 282 283 284 285 286 287 288 289 290 291 292 293 294 295 296 297 298 299 300 301 302 303 304 305 306 307 308 309 310 311 312 313 314 315 316 317 318 319 320 321 322 323 324 325 326 327 328 329 330 331 332 333 334 335 336 337 338 339 340 341 342 343 344 345 346 347 348 349 350 351 352 353 354 355 356 357 358 359 360 361 362 363 364 365 366 367 368 369 370 371 372 373 374 375 376 377 378 379 380 381 382 383 384 385 386 387 388 389 390 391 392 393 394 395 396 397 398 399 400 401 402 403 404 405 406 407 408 409 410 411 412 413 414 415 416 417 418 419 420 421 422 423 424 425 426 427 428 429 430 431 432 433 434 435 436 437 438 439 440 441 442 443 444 445 446 447 448 449 450 451 452 453 454 455 456 457 458 459 460 461 462 463 464 465 466 467 468 469 470 471 472 473 474 475 476 477 478 479 480 481 482 483 484 485 486 487 488 489 490 491 492 493 494 495 496 497 498 499 500 501 502 503 504 505 506 507 508 509 510 511 512 513 514 515 516 517 518 519 520 521 522 523 524 525 526 527 528 529 530 531 532 533 534 535 536 537 538 539 540 541 542 543 544 545 546 547 548 549 550 551 552 553 554 555 556 557 558 559 560 561 562 563 564 565 566 567 568 569 570 571 572 573 574 575 576 577 578 579 580 581 582 583 584 585 586 587 588 589 590 591 592 593 594 595 596 597 598 599 600 601 602 603 604 605 606 607 608 609 610 611 612 613 614 615 616 617 618 619 620 621 622 623 624 625 626 627 628 629 630 631 632 633 634 635 636 637 638 639 640 641 642 643 644 645 646 647 648 649 650 651 652 653 654 655 656 657 658 659 660 661 662 663 664 665 666 667 668 669 670 671 672 673 674 675 676 677 678 679 680 681 682 683 684 685 686 687 688 689 690 691 692 693 694 695 696 697 698 699 700 701 702 703 704 705 706 707 708 709 710 711 712 713 714 715 716 717 718 719 720 721 722 723 724 725 726 727 728 729 730 731 732 733 734 735 736 737 738 739 740 741 742 743 744 745 746 747 748 749 750 751 752 753 754 755 756 757 758 759 760 761 762 763 764 765 766 767 768 769 770 771 772 773 774 775 776 777 778 779 780 781 782 783 784 785 786 787 788 789 790 791 792 793 794 795 796 797 798 799 800 801 802 803 804 805 806 807 808 809 810 811 812 813 814 815 816 817 818 819 820 821 822 823 824 825 826 827 828 829 830 831 832 833 834 835 836 837 838 839 840 841 842 843 844 845 846 847 848 849 850 851 852 853 854 855 856 857 858 859 860 861 862 863 864 865 866 867 868 869 870 871 872 873 874 875 876 877 878 879 880 881 882 883 884 885 886 887 888 889 890 891 892 893 894 895 896 897 898 899 900 901 902 903 904 905 906 907 908 909 910 911 912 913 914 915 916 917 918 919 920 921 922 923 924 925 926 927 928 929 930 931 932 933 934 935 936 937 938 939 940 941 942 943 944 945 946 947 948 949 950 951 952 953 954 955 956 957 958 959 960 961 962 963 964 965 966 967 968 969 970 971 972 973 974 975 976 977 978 979 980 981 982 983 984 985 986 987 988 989 990 991 992 993 994 995 996 997 998 999 1000 1001 1002 1003 1004 1005 1006 1007 1008 1009 1010 1011 1012 1013 1014 1015 1016 1017 1018 1019 1020 1021 1022 1023 1024 1025 1026 1027 1028 1029 1030 1031 1032 1033 1034 1035 1036 1037 1038 1039 1040 1041 1042 1043 1044 1045 1046 1047 1048 1049 1050 1051 1052 1053 1054 1055 1056 1057 1058 1059 1060 1061 1062 1063 1064 1065 1066 1067 1068 1069 1070 1071 1072 1073 1074 1075 1076 1077 1078 1079 1080 1081 1082 1083 1084 1085 1086 1087 1088 1089 1090 1091 1092 1093 1094 1095 1096 1097 1098 1099 1100 1101 1102 1103 1104 1105 1106 1107 1108 1109 1110 1111 1112 1113 1114 1115 1116 1117 1118 1119 1120 1121 1122 1123 1124 1125 1126 1127 1128 1129 1130 1131 1132 1133 1134 1135 1136 1137 1138 1139 1140 1141 1142 1143 1144 1145 1146 1147 1148 1149 1150 1151 1152 1153 1154 1155 1156 1157 1158 1159 1160 1161 1162 1163 1164 1165 1166 1167 1168 1169 1170 1171 1172 1173 1174 1175 1176 1177 1178 1179 1180 1181 1182 1183 1184 1185 1186 1187 1188 1189 1190 1191 1192 1193 1194 1195 1196 1197 1198 1199 1200 1201 1202 1203 1204 1205 1206 1207 1208 1209 1210 1211 1212 1213 1214 1215 1216 1217 1218 1219 1220 1221 1222 1223 1224 1225 1226 1227 1228 1229 1230 1231 1232 1233 1234 1235 1236 1237 1238 1239 1240 1241 1242 1243 1244 1245 1246 1247 1248 1249 1250 1251 1252 1253 1254 1255 1256 1257 1258 1259 1260 1261 1262 1263 1264 1265 1266 1267 1268 1269 1270 1271 1272 1273 1274 1275 1276 1277 1278 1279 1280 1281 1282 1283 1284 1285 1286 1287 1288 1289 1290 1291 1292 1293 1294 1295 1296 1297 1298 1299 1300 1301 1302 1303 1304 1305 1306 1307 1308 1309 1310 1311 1312 1313 1314 1315 1316 1317 1318 1319 1320 1321 1322 1323 1324 1325 1326 1327 1328 1329 1330 1331 1332 1333 1334 1335 1336 1337 1338 1339 1340 1341 1342 1343 1344 1345 1346 1347 1348 1349 1350 1351 1352 1353 1354 1355 1356 1357 1358 1359 1360 1361 1362 1363 1364 1365 1366 1367 1368 1369 1370 1371 1372 1373 1374 1375 1376 1377 1378 1379 1380 1381 1382 1383 1384 1385 1386 1387 1388 1389 1390 1391 1392 1393 1394 1395 1396 1397 1398 1399 1400 1401 1402 1403 1404 1405 1406 1407 1408 1409 1410 1411 1412 1413 1414 1415 1416 1417 1418 1419 1420 1421 1422 1423 1424 1425 1426 1427 1428 1429 1430 1431 1432 1433 1434 1435 1436 1437 1438 1439 1440 1441 1442 1443 1444 1445 1446 1447 1448 1449 1450 1451 1452 1453 1454 1455 1456 1457 1458 1459 1460 1461 1462 1463 1464 1465 1466 1467 1468 1469 1470 1471 1472 1473 1474 1475 1476 1477 1478 1479 1480 1481 1482 1483 1484 1485 1486 1487 1488 1489 1490 1491 1492 1493 1494 1495 1496 1497 1498 1499 1500 1501 1502 1503 1504 1505 1506 1507 1508 1509 1510 1511 1512 1513 1514 1515 1516 1517 1518 1519 1520 1521 1522 1523 1524 1525 1526 1527 1528 1529 1530 1531 1532 1533 1534 1535 1536 1537 1538 1539 1540 1541 1542 1543 1544 1545 1546 1547 1548 1549 1550 1551 1552 1553 1554 1555 1556 1557 1558 1559 1560 1561 1562 1563 1564 1565 1566 1567 1568 1569 1570 1571 1572 1573 1574 1575 1576 1577 1578 1579 1580 1581 1582 1583 1584 1585 1586 1587 1588 1589 1590 1591 1592 1593 1594 1595 1596 1597 1598 1599 1600 1601 1602 1603 1604 1605 1606 1607 1608 1609 1610 1611 1612 1613 1614 1615 1616 1617 1618 1619 1620 1621 1622 1623 1624 1625 1626 1627 1628 1629 1630 1631 1632 1633 1634 1635 1636 1637 1638 1639 1640 1641 1642 1643 1644 1645 1646 1647 1648 1649 1650 1651 1652 1653 1654 1655 1656 1657 1658 1659 1660 1661 1662 1663 1664 1665 1666 1667 1668 1669 1670 1671 1672 1673 1674 1675 1676 1677 1678 1679 1680 1681 1682 1683 1684 1685 1686 1687 1688 1689 1690 1691 1692 1693 1694 1695 1696 1697 1698 1699 1700 1701 1702 1703 1704 1705 1706 1707 1708 1709 1710 1711 1712 1713 1714 1715 1716 1717 1718 1719 1720 1721 1722 1723 1724 1725 1726 1727 1728 1729 1730 1731 1732 1733 1734 1735 1736 1737 1738 1739 1740 1741 1742 1743 1744 1745 1746 1747 1748 1749 1750 1751 1752 1753 1754 1755 1756 1757 1758 1759 1760 1761 1762 1763 1764 1765 1766 1767 1768 1769 1770 1771 1772 1773 1774 1775 1776 1777 1778 1779 1780 1781 1782 1783 1784 1785 1786 1787 1788 1789 1790 1791 1792 1793 1794 1795 1796 1797 1798 1799 1800 1801 1802 1803 1804 1805 1806 1807 1808 1809 1810 1811 1812 1813 1814 1815 1816 1817 1818 1819 1820 1821 1822 1823 1824 1825 1826 1827 1828 1829 1830 1831 1832 1833 1834 1835 1836 1837 1838 1839 1840 1841 1842 1843 1844 1845 1846 1847 1848 1849 1850 1851 1852 1853 1854 1855 1856 1857 1858 1859 1860 1861 1862 1863 1864 1865 1866 1867 1868 1869 1870 1871 1872 1873 1874 1875 1876 1877 1878 1879 1880 1881 1882 1883 1884 1885 1886 1887 1888 1889 1890 1891 1892 1893 1894 1895 1896 1897 1898 1899 1900 1901 1902 1903 1904 1905 1906 1907 1908 1909 1910 1911 1912 1913 1914 1915 1916 1917 1918 1919 1920 1921 1922 1923 1924 1925 1926 1927 1928 1929 1930 1931 1932 1933 1934 1935 1936 1937 1938 1939 1940 1941 1942 1943 1944 1945 1946 1947 1948 1949 1950 1951 1952 1953 1954 1955 1956 1957 1958 1959 1960 1961 1962 1963 1964 1965 1966 1967 1968 1969 1970 1971 1972 1973 1974 1975 1976 1977 1978 1979 1980 1981 1982 1983 1984 1985 1986 1987 1988 1989 1990 1991 1992 1993 1994 1995 1996 1997 1998 1999 2000 2001 2002 2003 2004 2005 2006 2007 2008 2009 2010 2011 2012 2013 2014 2015 2016 2017 2018 2019 2020 2021 2022 2023 2024 2025 2026 2027 2028 2029 2030 2031 2032 2033 2034 2035 2036 2037 2038 2039 2040 2041 2042 2043 2044 2045 2046 2047 2048 2049 2050 2051 2052 2053 2054 2055 2056 2057 2058 2059 2060 2061 2062 2063 2064 2065 2066 2067 2068 2069 2070 2071 2072 2073 2074 2075 2076 2077 2078 2079 2080 2081 2082 2083 2084 2085 2086 2087 2088 2089 2090 2091 2092 2093 2094 2095 2096 2097 2098 2099 2100 2101 2102 2103 2104 2105 2106 2107 2108 2109 2110 2111 2112 2113 2114 2115 2116 2117 2118 2119 2120 2121 2122 2123 2124 2125 2126 2127 2128 2129 2130 2131 2132 2133 2134 2135 2136 2137 2138 2139 2140 2141 2142 2143 2144 2145 2146 2147 2148 2149 2150 2151 2152 2153 2154 2155 2156 2157 2158 2159 2160 2161 2162 2163 2164 2165 2166 2167 2168 2169 2170 2171 2172 2173 2174 2175 2176 2177 2178 2179 2180 2181 2182 2183 2184 2185 2186 2187 2188 2189 2190 2191 2192 2193 2194 2195 2196 2197 2198 2199 2200 2201 2202 2203 2204 2205 2206 2207 2208 2209 2210 2211 2212 2213 2214 2215 2216 2217 2218 2219 2220 2221 2222 2223 2224 2225 2226 2227 2228 2229 2230 2231 2232 2233 2234 2235 2236 2237 2238 2239 2240 2241 2242 2243 2244 2245 2246 2247 2248 2249 2250 2251 2252 2253 2254 2255 2256 2257 2258 2259 2260 2261 2262 2263 2264 2265 2266 2267 2268 2269 2270 2271 2272 2273 2274 2275 2276 2277 2278 2279 2280 2281 2282 2283 2284 2285 2286 2287 2288 2289 2290 2291 2292 2293 2294 2295 2296 2297 2298 2299 2300 2301 2302 2303 2304 2305 2306 2307 2308 2309 2310 2311 2312 2313 2314 2315 2316 2317 2318 2319 2320 2321 2322 2323 2324 2325 2326 2327 2328 2329 2330 2331 2332 2333 2334 2335 2336 2337 2338 2339 2340 2341 2342 2343 2344 2345 2346 2347 2348 2349 2350 2351 2352 2353 2354 2355 2356 2357 2358 2359 2360 2361 2362 2363 2364 2365 2366 2367 2368 2369 2370 2371 2372 2373 2374 2375 2376 2377 2378 2379 2380 2381 2382 2383 2384 2385 2386 2387 2388 2389 2390 2391 2392 2393 2394 2395 2396 2397 2398 2399 2400 2401 2402 2403 2404 2405 2406 2407 2408 2409 2410 2411 2412 2413 2414 2415 2416 2417 2418 2419 2420 2421 2422 2423 2424 2425 2426 2427 2428 2429 2430 2431 2432 2433 2434 2435 2436 2437 2438 2439 2440 2441 2442 2443 2444 2445 2446 2447 2448 2449 2450 2451 2452 2453 2454 2455 2456 2457 2458 2459 2460 2461 2462 2463 2464 2465 2466 2467 2468 2469 2470 2471 2472 2473 2474 2475 2476 2477 2478 2479 2480 2481 2482 2483 2484 2485 2486 2487 2488 2489 2490 2491 2492 2493 2494 2495 2496 2497 2498 2499 2500 2501 2502 2503 2504 2505 2506 2507 2508 2509 2510 2511 2512 2513 2514 2515 2516 2517 2518 2519 2520 2521 2522 2523 2524 2525 2526 2527 2528 2529 2530 2531 2532 2533 2534 2535 2536 2537 2538 2539 2540 2541 2542 2543 2544 2545 2546 2547 2548 2549 2550 2551 2552 2553 2554 2555 2556 2557 2558 2559 2560 2561 2562 2563 2564 2565 2566 2567 2568 2569 2570 2571 2572 2573 2574 2575 2576 2577 2578 2579 2580 2581 2582 2583 2584 2585 2586 2587 2588 2589 2590 2591 2592 2593 2594 2595 2596 2597 2598 2599 2600 2601 2602 2603 2604 2605 2606 2607 2608 2609 2610 2611 2612 2613 2614 2615 2616 2617 2618 2619 2620 2621 2622 2623 2624 2625 2626 2627 2628 2629 2630 2631 2632 2633 2634 2635 2636 2637 2638 2639 2640 2641 2642 2643 2644 2645 2646 2647 2648 2649 2650 2651 2652 2653 2654 2655 2656 2657 2658 2659 2660 2661 2662 2663 2664 2665 2666 2667 2668 2669 2670 2671 2672 2673 2674 2675 2676 2677 2678 2679 2680 2681 2682 2683 2684 2685 2686 2687 2688 2689 2690 2691 2692 2693 2694 2695 2696 2697 2698 2699 2700 2701 2702 2703 2704 2705 2706 2707 2708 2709 2710 2711 2712 2713 2714 2715 2716 2717 2718 2719 2720 2721 2722 2723 2724 2725 2726 2727 2728 2729 2730 2731 2732 2733 2734 2735 2736 2737 2738 2739 2740 2741 2742 2743 2744 2745 2746 2747 2748 2749 2750 2751 2752 2753 2754 2755 2756 2757 2758 2759 2760 2761 2762 2763 2764 2765 2766 2767 2768 2769 2770 2771 2772 2773 2774 2775 2776 2777 2778 2779 2780 2781 2782 2783 2784 2785 2786 2787 2788 2789 2790 2791 2792 2793 2794 2795 2796 2797 2798 2799 2800 2801 2802 2803 2804 2805 2806 2807 2808 2809 2810 2811 2812 2813 2814 2815 2816 2817 2818 2819 2820 2821 2822 2823 2824 2825 2826 2827 2828 2829 2830 2831 2832 2833 2834 2835 2836 2837 2838 2839 2840 2841 2842 2843 2844 2845 2846 2847 2848 2849 2850 2851 2852 2853 2854 2855 2856 2857 2858 2859 2860 2861 2862 2863 2864 2865 2866 2867 2868 2869 2870 2871 2872 2873 2874 2875 2876 2877 2878 2879 2880 2881 2882 2883 2884 2885 2886 2887 2888 2889 2890 2891 2892 2893 2894 2895 2896 2897 2898 2899 2900 2901 2902 2903 2904 2905 2906 2907 2908 2909 2910 2911 2912 2913 2914 2915 2916 2917 2918 2919 2920 2921 2922 2923 2924 2925 2926 2927 2928 2929 2930 2931 2932 2933 2934 2935 2936 2937 2938 2939 2940 2941 2942 2943 2944 2945 2946 2947 2948 2949 2950 2951 2952 2953 2954 2955 2956 2957 2958 2959 2960 2961 2962 2963 2964 2965 2966 2967 2968 2969 2970 2971 2972 2973 2974 2975 2976 2977 2978 2979 2980 2981 2982 2983 2984 2985 2986 2987 2988 2989 2990 2991 2992 2993 2994 2995 2996 2997 2998 2999 3000 3001 3002 3003 3004 3005 3006 3007 3008 3009 3010 3011 3012 3013 3014 3015 3016 3017 3018 3019 3020 3021 3022 3023 3024 3025 3026 3027 3028 3029 3030 3031 3032 3033 3034 3035 3036 3037 3038 3039 3040 3041 3042 3043 3044 3045 3046 3047 3048 3049 3050 3051 3052 3053 3054 3055 3056 3057 3058 3059 3060 3061 3062 3063 3064 3065 3066 3067 3068 3069 3070 3071 3072 3073 3074 3075 3076 3077 3078 3079 3080 3081 3082 3083 3084 3085 3086 3087 3088 3089 3090 3091 3092 3093 3094 3095 3096 3097 3098 3099 3100 3101 3102 3103 3104 3105 3106 3107 3108 3109 3110 3111 3112 3113 3114 3115 3116 3117 3118 3119 3120 3121 3122 3123 3124 3125 3126 3127 3128 3129 3130 3131 3132 3133 3134 3135 3136 3137 3138 3139 3140 3141 
</DataArray>
<DataArray type="UInt32" Name="offsets" format="ascii">
3 6 9 12 15 18 21 24 27 30 33 36 39 42 45 48 51 54 57 60 63 66 69 72 75 78 81 84 87 90 93 96 99 102 105 108 111 114 117 120 123 126 129 132 135 138 141 144 147 150 153 156 159 162 165 168 171 174 177 180 183 186 189 192 195 198 201 204 207 210 213 216 219 222 225 228 231 234 237 240 243 246 249 252 255 258 261 264 267 270 273 276 279 282 285 288 291 294 297 300 303 306 309 312 315 318 321 324 327 330 333 336 339 342 345 348 351 354 357 360 363 366 369 372 375 378 381 384 387 390 393 396 399 402 405 408 411 414 417 420 423 426 429 432 435 438 441 444 447 450 453 456 459 462 465 468 471 474 477 480 483 486 489 492 495 498 501 504 507 510 513 516 519 522 525 528 531 534 537 540 543 546 549 552 555 558 561 564 567 570 573 576 579 582 585 588 591 594 597 600 603 606 609 612 615 618 621 624 627 630 633 636 639 642 645 648 651 654 657 660 663 666 669 672 675 678 681 684 687 690 693 696 699 702 705 708 711 714 717 720 723 726 729 732 735 738 741 744 747 750 753 756 759 762 765 768 771 774 777 780 783 786 789 792 795 798 801 804 807 810 813 816 819 822 825 828 831 834 837 840 843 846 849 852 855 858 861 864 867 870 873 876 879 882 885 888 891 894 897 900 903 906 909 912 915 918 921 924 927 930 933 936 939 942 945 948 951 954 957 960 963 966 969 972 975 978 981 984 987 990 993 996 999 1002 1005 1008 1011 1014 1017 1020 1023 1026 1029 1032 1035 1038 1041 1044 1047 1050 1053 1056 1059 1062 1065 1068 1071 1074 1077 1080 1083 1086 1089 1092 1095 1098 1101 1104 1107 1110 1113 1116 1119 1122 1125 1128 1131 1134 1137 1140 1143 1146 1149 1152 1155 1158 1161 1164 1167 1170 1173 1176 1179 1182 1185 1188 1191 1194 1197 1200 1203 1206 1209 1212 1215 1218 1221 1224 1227 1230 1233 1236 1239 1242 1245 1248 1251 1254 1257 1260 1263 1266 1269 1272 1275 1278 1281 1284 1287 1290 1293 1296 1299 1302 1305 1308 1311 1314 1317 1320 1323 1326 1329 1332 1335 1338 1341 1344 1347 1350 1353 1356 1359 1362 1365 1368 1371 1374 1377 1380 1383 1386 1389 1392 1395 1398 1401 1404 1407 1410 1413 1416 1419 1422 1425 1428 1431 1434 1437 1440 1443 1446 1449 1452 1455 1458 1461 1464 1467 1470 1473 1476 1479 1482 1485 1488 1491 1494 1497 1500 1503 1506 1509 1512 1515 1518 1521 1524 1527 1530 1533 1536 1539 1542 1545 1548 1551 1554 1557 1560 1563 1566 1569 1572 1575 1578 1581 1584 1587 1590 1593 1596 1599 1602 1605 1608 1611 1614 1616 1619 1622 1624 1627 1630 1632 1635 1638 1641 1644 1647 1650 1653 1656 1659 1662 1665 1668 1671 1673 1676 1679 1682 1685 1688 1690 1693 1696 1699 1702 1705 1708 1711 1714 1717 1720 1723 1726 1729 1732 1735 1738 1741 1744 1747 1750 1753 1756 1759 1762 1765 1768 1771 1774 1777 1780 1783 1786 1789 1792 1795 1798 1801 1804 1807 1810 1813 1816 1819 1822 1825 1828 1831 1834 1837 1840 1843 1846 1849 1852 1855 1858 1861 1864 1867 1870 1873 1876 1879 1882 1885 1888 1891 1894 1897 1900 1903 1906 1909 1912 1915 1918 1921 1924 1927 1930 1933 1936 1939 1942 1945 1948 1951 1954 1957 1960 1963 1966 1969 1972 1975 1978 1981 1984 1987 1990 1993 1996 1999 2002 2005 2008 2011 2014 2017 2020 2023 2026 2029 2032 2035 2038 2041 2044 2047 2050 2053 2056 2059 2062 2065 2068 2071 2074 2077 2080 2083 2086 2089 2092 2095 2098 2101 2104 2107 2110 2113 2116 2119 2122 2125 2128 2131 2134 2137 2140 2143 2146 2149 2152 2155 2158 2161 2164 2167 2170 2173 2176 2179 2182 2185 2188 2191 2194 2196 2199 2202 2205 2207 2210 2213 2215 2218 2221 2224 2227 2230 2233 2236 2239 2242 2245 2248 2250 2253 2256 2259 2262 2264 2267 2270 2273 2276 2279 2282 2285 2288 2291 2294 2297 2300 2303 2306 2309 2312 2315 2318 2321 2324 2327 2330 2333 2336 2339 2342 2345 2348 2351 2354 2357 2360 2363 2366 2369 2372 2375 2378 2381 2384 2387 2390 2393 2396 2399 2402 2405 2408 2411 2414 2417 2420 2423 2426 2429 2432 2435 2438 2440 2443 2446 2449 2452 2455 2458 2461 2464 2467 2470 2473 2476 2479 2482 2484 2487 2490 2492 2495 2497 2500 2503 2506 2509 2512 2515 2518 2521 2524 2527 2530 2533 2536 2538 2541 2544 2547 2550 2553 2556 2559 2562 2565 2568 2571 2574 2577 2580 2583 2586 2589 2592 2595 2598 2601 2604 2607 2610 2613 2616 2619 2622 2625 2628 2631 2634 2637 2640 2643 2646 2649 2652 2655 2658 2661 2664 2667 2670 2673 2676 2679 2682 2685 2688 2691 2694 2697 2700 2703 2706 2709 2712 2715 2718 2721 2724 2727 2730 2733 2736 2739 2742 2745 2748 2751 2754 2757 2760 2763 2766 2769 2772 2775 2778 2781 2784 2787 2790 2793 2796 2799 2802 2805 2808 2811 2814 2817 2820 2823 2826 2829 2832 2835 2838 2841 2844 2847 2850 2853 2856 2859 2862 2865 2868 2871 2874 2877 2880 2883 2886 2889 2892 2895 2898 2901 2904 2907 2910 2913 2916 2919 2922 2925 2928 2931 2934 2937 2940 2943 2946 2948 2951 2954 2956 2959 2961 2964 2967 2970 2973 2976 2979 2982 2985 2988 2991 2994 2997 3000 3003 3006 3009 3012 3015 3018 3021 3024 3027 3030 3033 3036 3039 3042 3045 3048 3051 3054 3057 3060 3063 3066 3069 3072 3075 3078 3081 3084 3087 3090 3093 3096 3099 3102 3104 3107 3110 3113 3116 3119 3121 3124 3127 3130 3133 3136 3139 3142 
</DataArray>
<DataArray type="UInt32" Name="types" format="ascii">
5 5 5 5 5 5 5 5 5 5 5 5 5 5 5 5 5 5 5 5 5 5 5 5 5 5 5 5 5 5 5 5 5 5 5 5 5 5 5 5 5 5 5 5 5 5 5 5 5 5 5 5 5 5 5 5 5 5 5 5 5 5 5 5 5 5 5 5 5 5 5 5 5 5 5 5 5 5 5 5 5 5 5 5 5 5 5 5 5 5 5 5 5 5 5 5 5 5 5 5 5 5 5 5 5 5 5 5 5 5 5 5 5 5 5 5 5 5 5 5 5 5 5 5 5 5 5 5 5 5 5 5 5 5 5 5 5 5 5 5 5 5 5 5 5 5 5 5 5 5 5 5 5 5 5 5 5 5 5 5 5 5 5 5 5 5 5 5 5 5 5 5 5 5 5 5 5 5 5 5 5 5 5 5 5 5 5 5 5 5 5 5 5 5 5 5 5 5 5 5 5 5 5 5 5 5 5 5 5 5 5 5 5 5 5 5 5 5 5 5 5 5 5 5 5 5 5 5 5 5 5 5 5 5 5 5 5 5 5 5 5 5 5 5 5 5 5 5 5 5 5 5 5 5 5 5 5 5 5 5 5 5 5 5 5 5 5 5 5 5 5 5 5 5 5 5 5 5 5 5 5 5 5 5 5 5 5 5 5 5 5 5 5 5 5 5 5 5 5 5 5 5 5 5 5 5 5 5 5 5 5 5 5 5 5 5 5 5 5 5 5 5 5 5 5 5 5 5 5 5 5 5 5 5 5 5 5 5 5 5 5 5 5 5 5 5 5 5 5 5 5 5 5 5 5 5 5 5 5 5 5 5 5 5 5 5 5 5 5 5 5 5 5 5 5 5 5 5 5 5 5 5 5 5 5 5 5 5 5 5 5 5 5 5 5 5 5 5 5 5 5 5 5 5 5 5 5 5 5 5 5 5 5 5 5 5 5 5 5 5 5 5 5 5 5 5 5 5 5 5 5 5 5 5 5 5 5 5 5 5 5 5 5 5 5 5 5 5 5 5 5 5 5 5 5 5 5 5 5 5 5 5 5 5 5 5 5 5 5 5 5 5 5 5 5 5 5 5 5 5 5 5 5 5 5 5 5 5 5 5 5 5 5 5 5 5 5 5 5 5 5 5 5 5 5 5 5 5 5 5 5 5 5 5 5 5 5 5 5 5 5 5 5 5 5 5 5 5 5 5 5 5 5 5 5 5 5 5 3 5 5 3 5 5 3 5 5 5 5 5 5 5 5 5 5 5 5 5 3 5 5 5 5 5 3 5 5 5 5 5 5 5 5 5 5 5 5 5 5 5 5 5 5 5 5 5 5 5 5 5 5 5 5 5 5 5 5 5 5 5 5 5 5 5 5 5 5 5 5 5 5 5 5 5 5 5 5 5 5 5 5 5 5 5 5 5 5 5 5 5 5 5 5 5 5 5 5 5 5 5 5 5 5 5 5 5 5 5 5 5 5 5 5 5 5 5 5 5 5 5 5 5 5 5 5 5 5 5 5 5 5 5 5 5 5 5 5 5 5 5 5 5 5 5 5 5 5 5 5 5 5 5 5 5 5 5 5 5 5 5 5 5 5 5 5 5 5 5 5 5 5 5 5 5 5 5 5 5 5 5 5 5 5 5 5 5 5 5 5 5 5 5 5 3 5 5 5 3 5 5 3 5 5 5 5 5 5 5 5 5 5 5 3 5 5 5 5 3 5 5 5 5 5 5 5 5 5 5 5 5 5 5 5 5 5 5 5 5 5 5 5 5 5 5 5 5 5 5 5 5 5 5 5 5 5 5 5 5 5 5 5 5 5 5 5 5 5 5 5 5 5 5 5 5 5 5 3 5 5 5 5 5 5 5 5 5 5 5 5 5 5 3 5 5 3 5 3 5 5 5 5 5 5 5 5 5 5 5 5 5 3 5 5 5 5 5 5 5 5 5 5 5 5 5 5 5 5 5 5 5 5 5 5 5 5 5 5 5 5 5 5 5 5 5 5 5 5 5 5 5 5 5 5 5 5 5 5 5 5 5 5 5 5 5 5 5 5 5 5 5 5 5 5 5 5 5 5 5 5 5 5 5 5 5 5 5 5 5 5 5 5 5 5 5 5 5 5 5 5 5 5 5 5 5 5 5 5 5 5 5 5 5 5 5 5 5 5 5 5 5 5 5 5 5 5 5 5 5 5 5 5 5 5 5 5 5 5 5 5 5 5 5 5 5 5 5 5 3 5 5 3 5 3 5 5 5 5 5 5 5 5 5 5 5 5 5 5 5 5 5 5 5 5 5 5 5 5 5 5 5 5 5 5 5 5 5 5 5 5 5 5 5 5 5 5 5 5 5 5 5 3 5 5 5 5 5 3 5 5 5 5 5 5 5 
</DataArray>
</Cells>
<PointData Scalars="" Vectors="displacement," Tensors="">
<DataArray type="Float64" Name="displacement" NumberOfComponents="3" format="ascii">
-3.4440452843881632e-07 8.6984345314633023e-08 0 -6.4851228341694331e-10 -2.6713008215759809e-10 0 -7.5345301673501093e-07 1.8181905665912441e-08 0 -3.4440452843881632e-07 8.6984345314633023e-08 0 -6.4851228341694331e-10 -2.6713008215759809e-10 0 -6.1324615032814817e-10 1.9557121527777853e-10 0 -3.4440452843881632e-07 8.6984345314633023e-08 0 -7.5345301673501093e-07 1.8181905665912441e-08 0 -7.8027518588473973e-07 3.3122739360567589e-07 0 -3.4440452843881632e-07 8.6984345314633023e-08 0 -7.8027518588473973e-07 3.3122739360567589e-07 0 -6.1324615032814817e-10 1.9557121527777853e-10 0 -6.1324615032814817e-10 1.9557121527777853e-10 0 -6.1272149023717744e-10 1.2672440586392072e-10 0 -5.0110784694924128e-07 4.7123660576834676e-07 0 -6.1272149023717744e-10 1.2672440586392072e-10 0 -5.0110784694924128e-07 4.7123660576834676e-07 0 -3.2469719343465756e-10 3.618371323563024e-10 0 -7.8027518588473973e-07 3.3122739360567589e-07 0 -5.0110784694924128e-07 4.7123660576834676e-07 0 -1.0938735414362701e-06 7.1498431840731666e-07 0 -7.8027518588473973e-07 3.3122739360567589e-07 0 -6.1324615032814817e-10 1.9557121527777853e-10 0 -5.0110784694924128e-07 4.7123660576834676e-07 0 -5.0110784694924128e-07 4.7123660576834676e-07 0 -1.0938735414362701e-06 7.1498431840731666e-07 0 -5.8316264720591774e-07 7.8355878121279308e-07 0 -1.0938735414362701e-06 7.1498431840731666e-07 0 -5.8316264720591774e-07 7.8355878121279308e-07 0 -1.1204758779266845e-06 1.0044350855202249e-06 0 -1.0938735414362701e-06 7.1498431840731666e-07 0 -1.6901402077082303e-06 9.301368601309644e-07 0 -1.1204758779266845e-06 1.0044350855202249e-06 0 -1.6901402077082303e-06 9.301368601309644e-07 0 -1.1204758779266845e-06 1.0044350855202249e-06 0 -1.3586948189383408e-06 1.1890330309170611e-06 0 -1.6901402077082303e-06 9.301368601309644e-07 0 -1.6750160906815295e-06 5.55631098979976e-07 0 -2.4051891904269883e-06 7.644009679727724e-07 0 -1.0938735414362701e-06 7.1498431840731666e-07 0 -1.6901402077082303e-06 9.301368601309644e-07 0 -1.6750160906815295e-06 5.55631098979976e-07 0 -1.6750160906815295e-06 5.55631098979976e-07 0 -1.7023476044670655e-06 2.3421354991345548e-07 0 -2.8712190908769452e-06 3.3052808276233078e-07 0 -7.5345301673501093e-07 1.8181905665912441e-08 0 -7.8027518588473973e-07 3.3122739360567589e-07 0 -1.7023476044670655e-06 2.3421354991345548e-07 0 -7.8027518588473973e-07 3.3122739360567589e-07 0 -1.6750160906815295e-06 5.55631098979976e-07 0 -1.7023476044670655e-06 2.3421354991345548e-07 0 -7.8027518588473973e-07 3.3122739360567589e-07 0 -1.0938735414362701e-06 7.1498431840731666e-07 0 -1.6750160906815295e-06 5.55631098979976e-07 0 -8.4117334468059334e-08 6.522372510182218e-07 0 -2.0517948895081128e-10 2.5999856706793695e-10 0 -1.4103864363774307e-11 3.1888045107297421e-10 0 -8.4117334468059334e-08 6.522372510182218e-07 0 -2.0517948895081128e-10 2.5999856706793695e-10 0 -2.0588202000738333e-07 5.4642591356846546e-07 0 -8.4117334468059334e-08 6.522372510182218e-07 0 -2.0588202000738333e-07 5.4642591356846546e-07 0 -3.6470886654058506e-07 1.0192023501377059e-06 0 -2.0588202000738333e-07 5.4642591356846546e-07 0 -3.2469719343465756e-10 3.618371323563024e-10 0 -5.8316264720591774e-07 7.8355878121279308e-07 0 -5.0110784694924128e-07 4.7123660576834676e-07 0 -3.2469719343465756e-10 3.618371323563024e-10 0 -5.8316264720591774e-07 7.8355878121279308e-07 0 -2.0588202000738333e-07 5.4642591356846546e-07 0 -5.8316264720591774e-07 7.8355878121279308e-07 0 -3.6470886654058506e-07 1.0192023501377059e-06 0 -2.0517948895081128e-10 2.5999856706793695e-10 0 -2.0588202000738333e-07 5.4642591356846546e-07 0 -3.2469719343465756e-10 3.618371323563024e-10 0 -5.8316264720591774e-07 7.8355878121279308e-07 0 -1.1204758779266845e-06 1.0044350855202249e-06 0 -8.0531332211875676e-07 1.1201096054732738e-06 0 -1.1204758779266845e-06 1.0044350855202249e-06 0 -8.0531332211875676e-07 1.1201096054732738e-06 0 -1.3586948189383408e-06 1.1890330309170611e-06 0 -5.8316264720591774e-07 7.8355878121279308e-07 0 -8.0531332211875676e-07 1.1201096054732738e-06 0 -3.6470886654058506e-07 1.0192023501377059e-06 0 -3.6470886654058506e-07 1.0192023501377059e-06 0 -2.8903089507108834e-08 1.1312315910991937e-06 0 -5.520476091196094e-07 1.3050563817293458e-06 0 -8.0531332211875676e-07 1.1201096054732738e-06 0 -3.6470886654058506e-07 1.0192023501377059e-06 0 -5.520476091196094e-07 1.3050563817293458e-06 0 -8.4117334468059334e-08 6.522372510182218e-07 0 -3.6470886654058506e-07 1.0192023501377059e-06 0 -2.8903089507108834e-08 1.1312315910991937e-06 0 -8.4117334468059334e-08 6.522372510182218e-07 0 -2.8903089507108834e-08 1.1312315910991937e-06 0 9.2163560615714148e-08 7.092422398882026e-07 0 -2.8903089507108834e-08 1.1312315910991937e-06 0 -6.3689802398923434e-08 1.3099931503082146e-06 0 -5.520476091196094e-07 1.3050563817293458e-06 0 -1.9697073688229262e-07 1.3160814136955149e-06 0 -6.3689802398923434e-08 1.3099931503082146e-06 0 -5.520476091196094e-07 1.3050563817293458e-06 0 -1.9697073688229262e-07 1.3160814136955149e-06 0 -5.520476091196094e-07 1.3050563817293458e-06 0 -1.0086903100631533e-06 1.2723177705997666e-06 0 -1.0086903100631533e-06 1.2723177705997666e-06 0 -1.3586948189383408e-06 1.1890330309170611e-06 0 -1.8849161465946604e-06 1.1244272461069226e-06 0 -8.0531332211875676e-07 1.1201096054732738e-06 0 -5.520476091196094e-07 1.3050563817293458e-06 0 -1.3586948189383408e-06 1.1890330309170611e-06 0 -5.520476091196094e-07 1.3050563817293458e-06 0 -1.0086903100631533e-06 1.2723177705997666e-06 0 -1.3586948189383408e-06 1.1890330309170611e-06 0 -1.3586948189383408e-06 1.1890330309170611e-06 0 -1.8849161465946604e-06 1.1244272461069226e-06 0 -2.163951454570925e-06 1.0053809009000344e-06 0 -1.8849161465946604e-06 1.1244272461069226e-06 0 -2.6630378635756652e-06 8.2998468779436405e-07 0 -1.3874467406764634e-06 1.0744186013495043e-06 0 -2.6630378635756652e-06 8.2998468779436405e-07 0 -1.3874467406764634e-06 1.0744186013495043e-06 0 -2.2067025233239413e-06 6.571552562475487e-07 0 -1.3874467406764634e-06 1.0744186013495043e-06 0 -2.2067025233239413e-06 6.571552562475487e-07 0 -1.3062529558675284e-06 6.4275100612264884e-07 0 -1.0086903100631533e-06 1.2723177705997666e-06 0 -1.8849161465946604e-06 1.1244272461069226e-06 0 -1.3874467406764634e-06 1.0744186013495043e-06 0 -1.9697073688229262e-07 1.3160814136955149e-06 0 -1.0086903100631533e-06 1.2723177705997666e-06 0 -4.9289432088234947e-07 1.1020935219224652e-06 0 -1.0086903100631533e-06 1.2723177705997666e-06 0 -1.3874467406764634e-06 1.0744186013495043e-06 0 -4.9289432088234947e-07 1.1020935219224652e-06 0 -1.3874467406764634e-06 1.0744186013495043e-06 0 -4.9289432088234947e-07 1.1020935219224652e-06 0 -1.3062529558675284e-06 6.4275100612264884e-07 0 -4.9289432088234947e-07 1.1020935219224652e-06 0 3.3284657785773043e-07 8.2717054657387137e-07 0 4.229502980435559e-07 1.1828816797024261e-06 0 -1.9697073688229262e-07 1.3160814136955149e-06 0 -4.9289432088234947e-07 1.1020935219224652e-06 0 4.229502980435559e-07 1.1828816797024261e-06 0 -3.4363866698867966e-06 5.4882725266514936e-07 0 -2.8712190908769452e-06 3.3052808276233078e-07 0 -2.4051891904269883e-06 7.644009679727724e-07 0 -3.4363866698867966e-06 5.4882725266514936e-07 0 -2.4051891904269883e-06 7.644009679727724e-07 0 -3.0791300065951962e-06 8.1671095264590759e-07 0 -3.4363866698867966e-06 5.4882725266514936e-07 0 -2.8712190908769452e-06 3.3052808276233078e-07 0 -4.2597217755268113e-06 1.3243419303044116e-07 0 -1.6750160906815295e-06 5.55631098979976e-07 0 -2.8712190908769452e-06 3.3052808276233078e-07 0 -2.4051891904269883e-06 7.644009679727724e-07 0 -1.6901402077082303e-06 9.301368601309644e-07 0 -2.4051891904269883e-06 7.644009679727724e-07 0 -2.163951454570925e-06 1.0053809009000344e-06 0 -1.6901402077082303e-06 9.301368601309644e-07 0 -1.3586948189383408e-06 1.1890330309170611e-06 0 -2.163951454570925e-06 1.0053809009000344e-06 0 -1.8849161465946604e-06 1.1244272461069226e-06 0 -2.163951454570925e-06 1.0053809009000344e-06 0 -3.0791300065951962e-06 8.1671095264590759e-07 0 -2.4051891904269883e-06 7.644009679727724e-07 0 -2.163951454570925e-06 1.0053809009000344e-06 0 -3.0791300065951962e-06 8.1671095264590759e-07 0 -1.8849161465946604e-06 1.1244272461069226e-06 0 -2.6630378635756652e-06 8.2998468779436405e-07 0 -3.0791300065951962e-06 8.1671095264590759e-07 0 -2.6630378635756652e-06 8.2998468779436405e-07 0 -3.0791300065951962e-06 8.1671095264590759e-07 0 -3.8203416805201749e-06 4.8960501514962183e-07 0 -2.6630378635756652e-06 8.2998468779436405e-07 0 -3.8203416805201749e-06 4.8960501514962183e-07 0 -3.6137812713453264e-06 2.3870878715039556e-07 0 -3.0791300065951962e-06 8.1671095264590759e-07 0 -3.8203416805201749e-06 4.8960501514962183e-07 0 -4.3538846458049185e-06 3.3052504019214698e-07 0 -3.8203416805201749e-06 4.8960501514962183e-07 0 -4.3538846458049185e-06 3.3052504019214698e-07 0 -5.2871797564237289e-06 -1.6265375675972877e-07 0 -3.4363866698867966e-06 5.4882725266514936e-07 0 -3.0791300065951962e-06 8.1671095264590759e-07 0 -4.3538846458049185e-06 3.3052504019214698e-07 0 -3.4363866698867966e-06 5.4882725266514936e-07 0 -4.3538846458049185e-06 3.3052504019214698e-07 0 -4.2597217755268113e-06 1.3243419303044116e-07 0 -4.3538846458049185e-06 3.3052504019214698e-07 0 -4.2597217755268113e-06 1.3243419303044116e-07 0 -5.8463462383607916e-06 -3.8425820003087579e-07 0 -5.8463462383607916e-06 -3.8425820003087579e-07 0 -5.2871797564237289e-06 -1.6265375675972877e-07 0 -7.5462794777346758e-06 -1.2797201446733146e-06 0 -4.3538846458049185e-06 3.3052504019214698e-07 0 -5.8463462383607916e-06 -3.8425820003087579e-07 0 -5.2871797564237289e-06 -1.6265375675972877e-07 0 -5.2871797564237289e-06 -1.6265375675972877e-07 0 -7.5462794777346758e-06 -1.2797201446733146e-06 0 -7.113280891570428e-06 -1.3328152427294857e-06 0 -7.5462794777346758e-06 -1.2797201446733146e-06 0 -7.113280891570428e-06 -1.3328152427294857e-06 0 -9.5361065813179509e-06 -2.6397263819142812e-06 0 -7.113280891570428e-06 -1.3328152427294857e-06 0 -8.6616805450145229e-06 -2.5613322953843779e-06 0 -6.3234911849517405e-06 -1.7651693795699296e-06 0 -8.6616805450145229e-06 -2.5613322953843779e-06 0 -6.3234911849517405e-06 -1.7651693795699296e-06 0 -8.8067760399863497e-06 -3.6674797030532316e-06 0 -7.113280891570428e-06 -1.3328152427294857e-06 0 -8.6616805450145229e-06 -2.5613322953843779e-06 0 -9.5361065813179509e-06 -2.6397263819142812e-06 0 -8.6616805450145229e-06 -2.5613322953843779e-06 0 -9.5361065813179509e-06 -2.6397263819142812e-06 0 -1.1769719410753283e-05 -4.5381379423032628e-06 0 -6.3234911849517405e-06 -1.7651693795699296e-06 0 -4.0243162502376622e-06 -1.7096913610516087e-06 0 -5.9775977747862252e-06 -3.2422384831510167e-06 0 -6.3234911849517405e-06 -1.7651693795699296e-06 0 -4.2061202041322018e-06 -6.6775406482665112e-07 0 -4.0243162502376622e-06 -1.7096913610516087e-06 0 -7.113280891570428e-06 -1.3328152427294857e-06 0 -6.3234911849517405e-06 -1.7651693795699296e-06 0 -5.3136008269633616e-06 -6.3077800652495397e-07 0 -6.3234911849517405e-06 -1.7651693795699296e-06 0 -4.2061202041322018e-06 -6.6775406482665112e-07 0 -5.3136008269633616e-06 -6.3077800652495397e-07 0 -4.2061202041322018e-06 -6.6775406482665112e-07 0 -5.3136008269633616e-06 -6.3077800652495397e-07 0 -3.6137812713453264e-06 2.3870878715039556e-07 0 -5.2871797564237289e-06 -1.6265375675972877e-07 0 -7.113280891570428e-06 -1.3328152427294857e-06 0 -5.3136008269633616e-06 -6.3077800652495397e-07 0 -5.2871797564237289e-06 -1.6265375675972877e-07 0 -5.3136008269633616e-06 -6.3077800652495397e-07 0 -3.6137812713453264e-06 2.3870878715039556e-07 0 -3.8203416805201749e-06 4.8960501514962183e-07 0 -5.2871797564237289e-06 -1.6265375675972877e-07 0 -3.6137812713453264e-06 2.3870878715039556e-07 0 -2.6630378635756652e-06 8.2998468779436405e-07 0 -3.6137812713453264e-06 2.3870878715039556e-07 0 -2.2067025233239413e-06 6.571552562475487e-07 0 -3.6137812713453264e-06 2.3870878715039556e-07 0 -2.2067025233239413e-06 6.571552562475487e-07 0 -2.5485457848110581e-06 9.1228086480173008e-08 0 -2.2067025233239413e-06 6.571552562475487e-07 0 -2.5485457848110581e-06 9.1228086480173008e-08 0 -1.3062529558675284e-06 6.4275100612264884e-07 0 -2.5485457848110581e-06 9.1228086480173008e-08 0 -1.3436722136513663e-06 -1.8116814047340844e-07 0 -2.7401838691986596e-06 -7.0833427972874353e-07 0 -2.5485457848110581e-06 9.1228086480173008e-08 0 -1.3062529558675284e-06 6.4275100612264884e-07 0 -1.3436722136513663e-06 -1.8116814047340844e-07 0 -4.2061202041322018e-06 -6.6775406482665112e-07 0 -3.6137812713453264e-06 2.3870878715039556e-07 0 -2.5485457848110581e-06 9.1228086480173008e-08 0 -4.9289432088234947e-07 1.1020935219224652e-06 0 -3.2107164979331068e-07 4.5970720658099293e-07 0 3.3284657785773043e-07 8.2717054657387137e-07 0 -4.9289432088234947e-07 1.1020935219224652e-06 0 -3.2107164979331068e-07 4.5970720658099293e-07 0 -1.3062529558675284e-06 6.4275100612264884e-07 0 -3.2107164979331068e-07 4.5970720658099293e-07 0 -1.3062529558675284e-06 6.4275100612264884e-07 0 -1.3436722136513663e-06 -1.8116814047340844e-07 0 -3.2107164979331068e-07 4.5970720658099293e-07 0 2.4087950701612323e-08 -6.825640796731866e-07 0 8.0078750988155592e-07 2.8796118881557156e-07 0 -3.2107164979331068e-07 4.5970720658099293e-07 0 2.4087950701612323e-08 -6.825640796731866e-07 0 -1.3436722136513663e-06 -1.8116814047340844e-07 0 2.4087950701612323e-08 -6.825640796731866e-07 0 -1.3436722136513663e-06 -1.8116814047340844e-07 0 -1.8858201353783549e-06 -1.3367737169876144e-06 0 2.4087950701612323e-08 -6.825640796731866e-07 0 -1.8858201353783549e-06 -1.3367737169876144e-06 0 -5.5963884558134062e-07 -2.256655887024066e-06 0 2.4087950701612323e-08 -6.825640796731866e-07 0 -5.5963884558134062e-07 -2.256655887024066e-06 0 1.2980341349072655e-06 -1.8184211517319125e-06 0 -4.2061202041322018e-06 -6.6775406482665112e-07 0 -2.5485457848110581e-06 9.1228086480173008e-08 0 -2.7401838691986596e-06 -7.0833427972874353e-07 0 -4.2061202041322018e-06 -6.6775406482665112e-07 0 -2.7401838691986596e-06 -7.0833427972874353e-07 0 -4.0243162502376622e-06 -1.7096913610516087e-06 0 -1.3436722136513663e-06 -1.8116814047340844e-07 0 -2.7401838691986596e-06 -7.0833427972874353e-07 0 -1.8858201353783549e-06 -1.3367737169876144e-06 0 -1.8858201353783549e-06 -1.3367737169876144e-06 0 -4.0243162502376622e-06 -1.7096913610516087e-06 0 -3.0859965274182191e-06 -2.8580397183732411e-06 0 -2.7401838691986596e-06 -7.0833427972874353e-07 0 -1.8858201353783549e-06 -1.3367737169876144e-06 0 -4.0243162502376622e-06 -1.7096913610516087e-06 0 -4.0243162502376622e-06 -1.7096913610516087e-06 0 -3.0859965274182191e-06 -2.8580397183732411e-06 0 -5.9775977747862252e-06 -3.2422384831510167e-06 0 -3.0859965274182191e-06 -2.8580397183732411e-06 0 -1.4528479438164064e-06 -4.0361267790594618e-06 0 -4.9845665880360057e-06 -5.1834579970092687e-06 0 -3.0859965274182191e-06 -2.8580397183732411e-06 0 -4.9845665880360057e-06 -5.1834579970092687e-06 0 -5.9775977747862252e-06 -3.2422384831510167e-06 0 -5.5963884558134062e-07 -2.256655887024066e-06 0 9.912194641761492e-07 -3.5028022858911285e-06 0 1.2980341349072655e-06 -1.8184211517319125e-06 0 -1.8858201353783549e-06 -1.3367737169876144e-06 0 -3.0859965274182191e-06 -2.8580397183732411e-06 0 -5.5963884558134062e-07 -2.256655887024066e-06 0 -3.0859965274182191e-06 -2.8580397183732411e-06 0 -5.5963884558134062e-07 -2.256655887024066e-06 0 -1.4528479438164064e-06 -4.0361267790594618e-06 0 -5.5963884558134062e-07 -2.256655887024066e-06 0 -1.4528479438164064e-06 -4.0361267790594618e-06 0 9.912194641761492e-07 -3.5028022858911285e-06 0 -1.4528479438164064e-06 -4.0361267790594618e-06 0 1.8679183764068822e-07 -5.654736383860055e-06 0 9.912194641761492e-07 -3.5028022858911285e-06 0 -1.4528479438164064e-06 -4.0361267790594618e-06 0 1.8679183764068822e-07 -5.654736383860055e-06 0 -2.3402557796477931e-06 -6.655991435477762e-06 0 -2.3402557796477931e-06 -6.655991435477762e-06 0 -3.8805684651822756e-06 -1.0152874132158595e-05 0 -1.0823936996312048e-06 -8.9371933602955885e-06 0 1.8679183764068822e-07 -5.654736383860055e-06 0 -2.3402557796477931e-06 -6.655991435477762e-06 0 -1.0823936996312048e-06 -8.9371933602955885e-06 0 1.8679183764068822e-07 -5.654736383860055e-06 0 1.6600432080529641e-06 -7.5319283625984483e-06 0 -1.0823936996312048e-06 -8.9371933602955885e-06 0 -4.9845665880360057e-06 -5.1834579970092687e-06 0 -2.3402557796477931e-06 -6.655991435477762e-06 0 -5.4844854411446374e-06 -7.8818759590049615e-06 0 -1.4528479438164064e-06 -4.0361267790594618e-06 0 -4.9845665880360057e-06 -5.1834579970092687e-06 0 -2.3402557796477931e-06 -6.655991435477762e-06 0 -2.3402557796477931e-06 -6.655991435477762e-06 0 -5.4844854411446374e-06 -7.8818759590049615e-06 0 -3.8805684651822756e-06 -1.0152874132158595e-05 0 -4.9845665880360057e-06 -5.1834579970092687e-06 0 -5.4844854411446374e-06 -7.8818759590049615e-06 0 -8.7834240710382463e-06 -7.8958111787316344e-06 0 -5.4844854411446374e-06 -7.8818759590049615e-06 0 -8.7834240710382463e-06 -7.8958111787316344e-06 0 -7.4627781586171657e-06 -1.0065556117359881e-05 0 -4.9845665880360057e-06 -5.1834579970092687e-06 0 -8.7834240710382463e-06 -7.8958111787316344e-06 0 -8.6364805810444489e-06 -5.4289298153300507e-06 0 -8.7834240710382463e-06 -7.8958111787316344e-06 0 -1.2043111213011988e-05 -7.8840952948169333e-06 0 -8.6364805810444489e-06 -5.4289298153300507e-06 0 -8.7834240710382463e-06 -7.8958111787316344e-06 0 -1.2043111213011988e-05 -7.8840952948169333e-06 0 -1.2682394127195222e-05 -1.1798835184689969e-05 0 -1.2043111213011988e-05 -7.8840952948169333e-06 0 -1.6627975864453205e-05 -1.0705196562716419e-05 0 -1.2682394127195222e-05 -1.1798835184689969e-05 0 -1.2043111213011988e-05 -7.8840952948169333e-06 0 -1.6627975864453205e-05 -1.0705196562716419e-05 0 -1.4160396095429735e-05 -7.2246134400555957e-06 0 -1.2043111213011988e-05 -7.8840952948169333e-06 0 -1.4160396095429735e-05 -7.2246134400555957e-06 0 -1.1093955821717111e-05 -5.6568985379676785e-06 0 -1.2043111213011988e-05 -7.8840952948169333e-06 0 -1.1093955821717111e-05 -5.6568985379676785e-06 0 -8.6364805810444489e-06 -5.4289298153300507e-06 0 -1.1093955821717111e-05 -5.6568985379676785e-06 0 -1.1769719410753283e-05 -4.5381379423032628e-06 0 -8.8067760399863497e-06 -3.6674797030532316e-06 0 -1.1093955821717111e-05 -5.6568985379676785e-06 0 -8.8067760399863497e-06 -3.6674797030532316e-06 0 -8.6364805810444489e-06 -5.4289298153300507e-06 0 -1.4160396095429735e-05 -7.2246134400555957e-06 0 -1.1093955821717111e-05 -5.6568985379676785e-06 0 -1.1769719410753283e-05 -4.5381379423032628e-06 0 -8.6616805450145229e-06 -2.5613322953843779e-06 0 -1.1769719410753283e-05 -4.5381379423032628e-06 0 -8.8067760399863497e-06 -3.6674797030532316e-06 0 -6.3234911849517405e-06 -1.7651693795699296e-06 0 -8.8067760399863497e-06 -3.6674797030532316e-06 0 -5.9775977747862252e-06 -3.2422384831510167e-06 0 -4.9845665880360057e-06 -5.1834579970092687e-06 0 -5.9775977747862252e-06 -3.2422384831510167e-06 0 -8.6364805810444489e-06 -5.4289298153300507e-06 0 -8.8067760399863497e-06 -3.6674797030532316e-06 0 -5.9775977747862252e-06 -3.2422384831510167e-06 0 -8.6364805810444489e-06 -5.4289298153300507e-06 0 3.8927778252916264e-06 -2.1631911556178911e-06 0 4.1807901266445351e-06 -9.2417487678413387e-07 0 4.5012354188971101e-06 -1.6957823894474455e-06 0 3.8927778252916264e-06 -2.1631911556178911e-06 0 3.586836640667069e-06 -1.2514205916781509e-06 0 4.1807901266445351e-06 -9.2417487678413387e-07 0 3.8927778252916264e-06 -2.1631911556178911e-06 0 3.586836640667069e-06 -1.2514205916781509e-06 0 3.1448946600187807e-06 -2.1390161646648598e-06 0 4.1807901266445351e-06 -9.2417487678413387e-07 0 4.9182949151440857e-06 -3.0893857699349858e-07 0 4.5012354188971101e-06 -1.6957823894474455e-06 0 4.9182949151440857e-06 -3.0893857699349858e-07 0 5.4528782986106427e-06 -6.2863781297349237e-07 0 5.6905533226080232e-06 6.0950027635288038e-07 0 4.9182949151440857e-06 -3.0893857699349858e-07 0 5.4528782986106427e-06 -6.2863781297349237e-07 0 4.5012354188971101e-06 -1.6957823894474455e-06 0 5.4528782986106427e-06 -6.2863781297349237e-07 0 4.5012354188971101e-06 -1.6957823894474455e-06 0 4.9367454391232203e-06 -1.975457501582601e-06 0 4.5012354188971101e-06 -1.6957823894474455e-06 0 4.9367454391232203e-06 -1.975457501582601e-06 0 4.4995447276686741e-06 -3.2389328908224196e-06 0 5.4528782986106427e-06 -6.2863781297349237e-07 0 4.9367454391232203e-06 -1.975457501582601e-06 0 5.3689852664510581e-06 -2.4336493829123702e-06 0 4.9367454391232203e-06 -1.975457501582601e-06 0 5.3689852664510581e-06 -2.4336493829123702e-06 0 4.4995447276686741e-06 -3.2389328908224196e-06 0 4.4995447276686741e-06 -3.2389328908224196e-06 0 3.917185716655865e-06 -3.3795221572836161e-06 0 3.8154537321222332e-06 -4.9350243040165869e-06 0 4.5012354188971101e-06 -1.6957823894474455e-06 0 4.4995447276686741e-06 -3.2389328908224196e-06 0 3.917185716655865e-06 -3.3795221572836161e-06 0 3.8927778252916264e-06 -2.1631911556178911e-06 0 4.5012354188971101e-06 -1.6957823894474455e-06 0 3.917185716655865e-06 -3.3795221572836161e-06 0 3.8927778252916264e-06 -2.1631911556178911e-06 0 3.917185716655865e-06 -3.3795221572836161e-06 0 3.4929759092973831e-06 -3.3326791627668442e-06 0 3.917185716655865e-06 -3.3795221572836161e-06 0 3.3480816111079493e-06 -4.8863684493395312e-06 0 3.8154537321222332e-06 -4.9350243040165869e-06 0 3.3480816111079493e-06 -4.8863684493395312e-06 0 3.3996284310837156e-06 -4.6870952169739032e-06 0 3.9182429868487667e-06 -6.6334764736860151e-06 0 3.3480816111079493e-06 -4.8863684493395312e-06 0 3.3996284310837156e-06 -4.6870952169739032e-06 0 3.4929759092973831e-06 -3.3326791627668442e-06 0 3.3996284310837156e-06 -4.6870952169739032e-06 0 3.4929759092973831e-06 -3.3326791627668442e-06 0 2.7266921369245868e-06 -3.0649751285829728e-06 0 3.917185716655865e-06 -3.3795221572836161e-06 0 3.3480816111079493e-06 -4.8863684493395312e-06 0 3.4929759092973831e-06 -3.3326791627668442e-06 0 1.6600432080529641e-06 -7.5319283625984483e-06 0 2.4915818184956209e-06 -4.9826422774003487e-06 0 3.9182429868487667e-06 -6.6334764736860151e-06 0 1.8679183764068822e-07 -5.654736383860055e-06 0 1.6600432080529641e-06 -7.5319283625984483e-06 0 2.4915818184956209e-06 -4.9826422774003487e-06 0 3.3996284310837156e-06 -4.6870952169739032e-06 0 2.4915818184956209e-06 -4.9826422774003487e-06 0 3.9182429868487667e-06 -6.6334764736860151e-06 0 3.3996284310837156e-06 -4.6870952169739032e-06 0 2.4915818184956209e-06 -4.9826422774003487e-06 0 2.7266921369245868e-06 -3.0649751285829728e-06 0 1.8679183764068822e-07 -5.654736383860055e-06 0 2.4915818184956209e-06 -4.9826422774003487e-06 0 9.912194641761492e-07 -3.5028022858911285e-06 0 2.4915818184956209e-06 -4.9826422774003487e-06 0 9.912194641761492e-07 -3.5028022858911285e-06 0 2.7266921369245868e-06 -3.0649751285829728e-06 0 9.912194641761492e-07 -3.5028022858911285e-06 0 2.7266921369245868e-06 -3.0649751285829728e-06 0 1.2980341349072655e-06 -1.8184211517319125e-06 0 2.7266921369245868e-06 -3.0649751285829728e-06 0 1.2980341349072655e-06 -1.8184211517319125e-06 0 2.3860726769801479e-06 -1.3285335895689569e-06 0 3.8927778252916264e-06 -2.1631911556178911e-06 0 3.4929759092973831e-06 -3.3326791627668442e-06 0 3.1448946600187807e-06 -2.1390161646648598e-06 0 3.4929759092973831e-06 -3.3326791627668442e-06 0 2.7266921369245868e-06 -3.0649751285829728e-06 0 3.1448946600187807e-06 -2.1390161646648598e-06 0 2.7266921369245868e-06 -3.0649751285829728e-06 0 3.1448946600187807e-06 -2.1390161646648598e-06 0 2.3860726769801479e-06 -1.3285335895689569e-06 0 3.1448946600187807e-06 -2.1390161646648598e-06 0 2.3860726769801479e-06 -1.3285335895689569e-06 0 2.9783503264248787e-06 -2.865956126271909e-07 0 3.586836640667069e-06 -1.2514205916781509e-06 0 3.1448946600187807e-06 -2.1390161646648598e-06 0 2.9783503264248787e-06 -2.865956126271909e-07 0 2.3860726769801479e-06 -1.3285335895689569e-06 0 2.2563912381119645e-06 -3.4906263135544874e-07 0 2.9783503264248787e-06 -2.865956126271909e-07 0 2.2563912381119645e-06 -3.4906263135544874e-07 0 2.9783503264248787e-06 -2.865956126271909e-07 0 2.4266697054172549e-06 2.4524666273127564e-07 0 2.4087950701612323e-08 -6.825640796731866e-07 0 1.2980341349072655e-06 -1.8184211517319125e-06 0 1.4768311474460605e-06 -5.6159252592129491e-07 0 1.2980341349072655e-06 -1.8184211517319125e-06 0 2.3860726769801479e-06 -1.3285335895689569e-06 0 1.4768311474460605e-06 -5.6159252592129491e-07 0 2.3860726769801479e-06 -1.3285335895689569e-06 0 2.2563912381119645e-06 -3.4906263135544874e-07 0 1.4768311474460605e-06 -5.6159252592129491e-07 0 2.2563912381119645e-06 -3.4906263135544874e-07 0 1.4768311474460605e-06 -5.6159252592129491e-07 0 1.7429643291733573e-06 2.587171266259064e-07 0 2.4087950701612323e-08 -6.825640796731866e-07 0 1.4768311474460605e-06 -5.6159252592129491e-07 0 8.0078750988155592e-07 2.8796118881557156e-07 0 1.4768311474460605e-06 -5.6159252592129491e-07 0 8.0078750988155592e-07 2.8796118881557156e-07 0 1.7429643291733573e-06 2.587171266259064e-07 0 8.0078750988155592e-07 2.8796118881557156e-07 0 1.7429643291733573e-06 2.587171266259064e-07 0 1.16098730007321e-06 9.0866443990459778e-07 0 8.0078750988155592e-07 2.8796118881557156e-07 0 3.3284657785773043e-07 8.2717054657387137e-07 0 1.16098730007321e-06 9.0866443990459778e-07 0 -3.2107164979331068e-07 4.5970720658099293e-07 0 8.0078750988155592e-07 2.8796118881557156e-07 0 3.3284657785773043e-07 8.2717054657387137e-07 0 2.9783503264248787e-06 -2.865956126271909e-07 0 2.4266697054172549e-06 2.4524666273127564e-07 0 2.844515702232065e-06 5.7442860286083847e-07 0 2.2563912381119645e-06 -3.4906263135544874e-07 0 2.4266697054172549e-06 2.4524666273127564e-07 0 1.7429643291733573e-06 2.587171266259064e-07 0 2.4266697054172549e-06 2.4524666273127564e-07 0 1.7429643291733573e-06 2.587171266259064e-07 0 2.0431516992617328e-06 7.1927758519487469e-07 0 1.7429643291733573e-06 2.587171266259064e-07 0 2.0431516992617328e-06 7.1927758519487469e-07 0 1.16098730007321e-06 9.0866443990459778e-07 0 2.4266697054172549e-06 2.4524666273127564e-07 0 2.0431516992617328e-06 7.1927758519487469e-07 0 2.844515702232065e-06 5.7442860286083847e-07 0 2.0431516992617328e-06 7.1927758519487469e-07 0 2.844515702232065e-06 5.7442860286083847e-07 0 2.069343997887655e-06 1.0103431715689953e-06 0 2.844515702232065e-06 5.7442860286083847e-07 0 3.6695244835375857e-06 5.8204714555862164e-07 0 2.836057557754201e-06 8.6704474813814062e-07 0 3.6695244835375857e-06 5.8204714555862164e-07 0 3.6753526489174694e-06 8.1022246576298097e-07 0 2.836057557754201e-06 8.6704474813814062e-07 0 2.844515702232065e-06 5.7442860286083847e-07 0 3.6695244835375857e-06 5.8204714555862164e-07 0 3.5034984972166608e-06 1.4145778245861691e-07 0 2.9783503264248787e-06 -2.865956126271909e-07 0 2.844515702232065e-06 5.7442860286083847e-07 0 3.5034984972166608e-06 1.4145778245861691e-07 0 2.9783503264248787e-06 -2.865956126271909e-07 0 3.5034984972166608e-06 1.4145778245861691e-07 0 3.7310631363984424e-06 -4.3431622352841388e-07 0 3.5034984972166608e-06 1.4145778245861691e-07 0 3.7310631363984424e-06 -4.3431622352841388e-07 0 4.2833115010695874e-06 1.0093833619856606e-07 0 3.6695244835375857e-06 5.8204714555862164e-07 0 3.5034984972166608e-06 1.4145778245861691e-07 0 4.2833115010695874e-06 1.0093833619856606e-07 0 4.1807901266445351e-06 -9.2417487678413387e-07 0 3.7310631363984424e-06 -4.3431622352841388e-07 0 4.2833115010695874e-06 1.0093833619856606e-07 0 3.586836640667069e-06 -1.2514205916781509e-06 0 4.1807901266445351e-06 -9.2417487678413387e-07 0 3.7310631363984424e-06 -4.3431622352841388e-07 0 3.586836640667069e-06 -1.2514205916781509e-06 0 2.9783503264248787e-06 -2.865956126271909e-07 0 3.7310631363984424e-06 -4.3431622352841388e-07 0 4.9182949151440857e-06 -3.0893857699349858e-07 0 4.987068280818035e-06 4.6495129487886442e-07 0 5.6905533226080232e-06 6.0950027635288038e-07 0 4.9182949151440857e-06 -3.0893857699349858e-07 0 4.987068280818035e-06 4.6495129487886442e-07 0 4.2833115010695874e-06 1.0093833619856606e-07 0 4.1807901266445351e-06 -9.2417487678413387e-07 0 4.9182949151440857e-06 -3.0893857699349858e-07 0 4.2833115010695874e-06 1.0093833619856606e-07 0 3.6695244835375857e-06 5.8204714555862164e-07 0 4.2833115010695874e-06 1.0093833619856606e-07 0 4.4742693623989865e-06 6.5848591329966518e-07 0 4.987068280818035e-06 4.6495129487886442e-07 0 4.4742693623989865e-06 6.5848591329966518e-07 0 5.4639498510657552e-06 1.0123955302981136e-06 0 4.987068280818035e-06 4.6495129487886442e-07 0 4.2833115010695874e-06 1.0093833619856606e-07 0 4.4742693623989865e-06 6.5848591329966518e-07 0 4.4742693623989865e-06 6.5848591329966518e-07 0 3.6753526489174694e-06 8.1022246576298097e-07 0 4.5616064096553701e-06 8.6226460824239238e-07 0 3.6695244835375857e-06 5.8204714555862164e-07 0 4.4742693623989865e-06 6.5848591329966518e-07 0 3.6753526489174694e-06 8.1022246576298097e-07 0 3.6753526489174694e-06 8.1022246576298097e-07 0 3.7607011813719599e-06 8.1937127731792909e-07 0 4.5616064096553701e-06 8.6226460824239238e-07 0 3.7607011813719599e-06 8.1937127731792909e-07 0 2.9190315812277871e-06 7.9179750729804045e-07 0 3.0352294189188948e-06 8.8183618957278714e-07 0 2.9190315812277871e-06 7.9179750729804045e-07 0 3.0352294189188948e-06 8.8183618957278714e-07 0 2.3904907188446187e-06 9.6788226364339078e-07 0 3.6753526489174694e-06 8.1022246576298097e-07 0 3.0352294189188948e-06 8.8183618957278714e-07 0 2.836057557754201e-06 8.6704474813814062e-07 0 3.6753526489174694e-06 8.1022246576298097e-07 0 3.7607011813719599e-06 8.1937127731792909e-07 0 3.0352294189188948e-06 8.8183618957278714e-07 0 2.844515702232065e-06 5.7442860286083847e-07 0 2.836057557754201e-06 8.6704474813814062e-07 0 2.069343997887655e-06 1.0103431715689953e-06 0 2.3904907188446187e-06 9.6788226364339078e-07 0 1.6801256379337288e-06 1.0837656685778898e-06 0 2.069343997887655e-06 1.0103431715689953e-06 0 2.836057557754201e-06 8.6704474813814062e-07 0 2.3904907188446187e-06 9.6788226364339078e-07 0 2.069343997887655e-06 1.0103431715689953e-06 0 3.0352294189188948e-06 8.8183618957278714e-07 0 2.836057557754201e-06 8.6704474813814062e-07 0 2.3904907188446187e-06 9.6788226364339078e-07 0 2.3904907188446187e-06 9.6788226364339078e-07 0 1.6587883176902268e-06 9.1106383842075648e-07 0 2.1968222029364713e-06 8.0924557116383465e-07 0 2.3904907188446187e-06 9.6788226364339078e-07 0 1.6801256379337288e-06 1.0837656685778898e-06 0 1.6587883176902268e-06 9.1106383842075648e-07 0 1.6801256379337288e-06 1.0837656685778898e-06 0 1.6587883176902268e-06 9.1106383842075648e-07 0 1.1055112180752681e-06 9.5551087112452056e-07 0 1.6587883176902268e-06 9.1106383842075648e-07 0 2.1968222029364713e-06 8.0924557116383465e-07 0 1.5243062012760945e-06 6.5801357954283114e-07 0 2.1968222029364713e-06 8.0924557116383465e-07 0 1.5243062012760945e-06 6.5801357954283114e-07 0 1.8474697778267887e-06 4.6702802581204467e-07 0 2.1968222029364713e-06 8.0924557116383465e-07 0 1.8474697778267887e-06 4.6702802581204467e-07 0 2.6171172660737063e-06 5.9740060464044877e-07 0 2.9190315812277871e-06 7.9179750729804045e-07 0 2.1968222029364713e-06 8.0924557116383465e-07 0 2.6171172660737063e-06 5.9740060464044877e-07 0 2.9190315812277871e-06 7.9179750729804045e-07 0 2.3904907188446187e-06 9.6788226364339078e-07 0 2.1968222029364713e-06 8.0924557116383465e-07 0 3.3284657785773043e-07 8.2717054657387137e-07 0 4.229502980435559e-07 1.1828816797024261e-06 0 1.16098730007321e-06 9.0866443990459778e-07 0 4.229502980435559e-07 1.1828816797024261e-06 0 1.16098730007321e-06 9.0866443990459778e-07 0 1.0991894388854832e-06 1.1949990151868251e-06 0 4.229502980435559e-07 1.1828816797024261e-06 0 1.0991894388854832e-06 1.1949990151868251e-06 0 4.8010551321966376e-07 1.3034332700920969e-06 0 1.0991894388854832e-06 1.1949990151868251e-06 0 1.6113712530462681e-06 1.0111931694671813e-06 0 1.4970105242007187e-06 1.1484945411312438e-06 0 1.16098730007321e-06 9.0866443990459778e-07 0 1.0991894388854832e-06 1.1949990151868251e-06 0 1.6113712530462681e-06 1.0111931694671813e-06 0 2.0431516992617328e-06 7.1927758519487469e-07 0 1.16098730007321e-06 9.0866443990459778e-07 0 1.6113712530462681e-06 1.0111931694671813e-06 0 2.0431516992617328e-06 7.1927758519487469e-07 0 1.6113712530462681e-06 1.0111931694671813e-06 0 2.069343997887655e-06 1.0103431715689953e-06 0 1.6113712530462681e-06 1.0111931694671813e-06 0 2.069343997887655e-06 1.0103431715689953e-06 0 1.4970105242007187e-06 1.1484945411312438e-06 0 1.6801256379337288e-06 1.0837656685778898e-06 0 2.069343997887655e-06 1.0103431715689953e-06 0 1.4970105242007187e-06 1.1484945411312438e-06 0 1.6801256379337288e-06 1.0837656685778898e-06 0 1.4970105242007187e-06 1.1484945411312438e-06 0 9.5477706480725752e-07 1.2106265482073283e-06 0 1.6801256379337288e-06 1.0837656685778898e-06 0 9.5477706480725752e-07 1.2106265482073283e-06 0 1.1055112180752681e-06 9.5551087112452056e-07 0 1.0991894388854832e-06 1.1949990151868251e-06 0 1.4970105242007187e-06 1.1484945411312438e-06 0 9.5477706480725752e-07 1.2106265482073283e-06 0 1.0991894388854832e-06 1.1949990151868251e-06 0 9.5477706480725752e-07 1.2106265482073283e-06 0 4.8010551321966376e-07 1.3034332700920969e-06 0 9.5477706480725752e-07 1.2106265482073283e-06 0 4.8010551321966376e-07 1.3034332700920969e-06 0 2.3318128663555593e-07 1.2498184080732164e-06 0 -6.3689802398923434e-08 1.3099931503082146e-06 0 4.8010551321966376e-07 1.3034332700920969e-06 0 2.3318128663555593e-07 1.2498184080732164e-06 0 -1.9697073688229262e-07 1.3160814136955149e-06 0 4.229502980435559e-07 1.1828816797024261e-06 0 4.8010551321966376e-07 1.3034332700920969e-06 0 -1.9697073688229262e-07 1.3160814136955149e-06 0 -6.3689802398923434e-08 1.3099931503082146e-06 0 4.8010551321966376e-07 1.3034332700920969e-06 0 -2.8903089507108834e-08 1.1312315910991937e-06 0 4.0811847425785319e-07 1.0635827786293767e-06 0 9.2163560615714148e-08 7.092422398882026e-07 0 -2.8903089507108834e-08 1.1312315910991937e-06 0 -6.3689802398923434e-08 1.3099931503082146e-06 0 2.3318128663555593e-07 1.2498184080732164e-06 0 -2.8903089507108834e-08 1.1312315910991937e-06 0 2.3318128663555593e-07 1.2498184080732164e-06 0 4.0811847425785319e-07 1.0635827786293767e-06 0 9.5477706480725752e-07 1.2106265482073283e-06 0 2.3318128663555593e-07 1.2498184080732164e-06 0 4.0811847425785319e-07 1.0635827786293767e-06 0 4.0811847425785319e-07 1.0635827786293767e-06 0 2.5447944555804101e-07 6.115209158893767e-07 0 9.2163560615714148e-08 7.092422398882026e-07 0 4.0811847425785319e-07 1.0635827786293767e-06 0 6.4031304715076671e-07 9.2602681248734514e-07 0 2.5447944555804101e-07 6.115209158893767e-07 0 9.5477706480725752e-07 1.2106265482073283e-06 0 4.0811847425785319e-07 1.0635827786293767e-06 0 6.4031304715076671e-07 9.2602681248734514e-07 0 9.5477706480725752e-07 1.2106265482073283e-06 0 6.4031304715076671e-07 9.2602681248734514e-07 0 1.1055112180752681e-06 9.5551087112452056e-07 0 6.4031304715076671e-07 9.2602681248734514e-07 0 1.1055112180752681e-06 9.5551087112452056e-07 0 4.4216460503414963e-07 5.7106830301110643e-07 0 6.4031304715076671e-07 9.2602681248734514e-07 0 2.5447944555804101e-07 6.115209158893767e-07 0 4.4216460503414963e-07 5.7106830301110643e-07 0 2.9655013706133404e-10 2.7980367819298731e-10 0 2.5447944555804101e-07 6.115209158893767e-07 0 4.4216460503414963e-07 5.7106830301110643e-07 0 2.9655013706133404e-10 2.7980367819298731e-10 0 2.5447944555804101e-07 6.115209158893767e-07 0 1.7356119892443624e-10 2.7863928414600612e-10 0 2.5447944555804101e-07 6.115209158893767e-07 0 1.7356119892443624e-10 2.7863928414600612e-10 0 9.2163560615714148e-08 7.092422398882026e-07 0 1.7356119892443624e-10 2.7863928414600612e-10 0 -1.4103864363774307e-11 3.1888045107297421e-10 0 9.2163560615714148e-08 7.092422398882026e-07 0 -8.4117334468059334e-08 6.522372510182218e-07 0 -1.4103864363774307e-11 3.1888045107297421e-10 0 9.2163560615714148e-08 7.092422398882026e-07 0 9.4550642169619701e-07 3.5897120087365117e-07 0 1.5243062012760945e-06 6.5801357954283114e-07 0 9.1944261264525173e-07 6.2083556070337963e-07 0 9.4550642169619701e-07 3.5897120087365117e-07 0 1.5243062012760945e-06 6.5801357954283114e-07 0 1.8474697778267887e-06 4.6702802581204467e-07 0 1.6587883176902268e-06 9.1106383842075648e-07 0 1.5243062012760945e-06 6.5801357954283114e-07 0 9.1944261264525173e-07 6.2083556070337963e-07 0 1.6587883176902268e-06 9.1106383842075648e-07 0 1.1055112180752681e-06 9.5551087112452056e-07 0 9.1944261264525173e-07 6.2083556070337963e-07 0 1.1055112180752681e-06 9.5551087112452056e-07 0 9.1944261264525173e-07 6.2083556070337963e-07 0 4.4216460503414963e-07 5.7106830301110643e-07 0 9.1944261264525173e-07 6.2083556070337963e-07 0 3.7926031241085925e-07 3.4772159092357793e-07 0 4.4216460503414963e-07 5.7106830301110643e-07 0 2.9655013706133404e-10 2.7980367819298731e-10 0 4.4216460503414963e-07 5.7106830301110643e-07 0 4.7049917335755868e-10 1.8331519463908876e-10 0 3.7926031241085925e-07 3.4772159092357793e-07 0 4.4216460503414963e-07 5.7106830301110643e-07 0 4.7049917335755868e-10 1.8331519463908876e-10 0 3.7926031241085925e-07 3.4772159092357793e-07 0 4.7049917335755868e-10 1.8331519463908876e-10 0 5.5484104011967856e-10 1.5419080555603629e-10 0 3.7926031241085925e-07 3.4772159092357793e-07 0 5.5484104011967856e-10 1.5419080555603629e-10 0 4.0139952125701943e-07 2.5780264523904694e-07 0 9.4550642169619701e-07 3.5897120087365117e-07 0 4.0139952125701943e-07 2.5780264523904694e-07 0 5.9893989516747755e-10 1.2846455591200019e-10 0 9.4550642169619701e-07 3.5897120087365117e-07 0 9.1944261264525173e-07 6.2083556070337963e-07 0 4.0139952125701943e-07 2.5780264523904694e-07 0 9.1944261264525173e-07 6.2083556070337963e-07 0 3.7926031241085925e-07 3.4772159092357793e-07 0 4.0139952125701943e-07 2.5780264523904694e-07 0 5.5484104011967856e-10 1.5419080555603629e-10 0 4.0139952125701943e-07 2.5780264523904694e-07 0 5.9893989516747755e-10 1.2846455591200019e-10 0 9.4550642169619701e-07 3.5897120087365117e-07 0 5.9893989516747755e-10 1.2846455591200019e-10 0 6.160898367093074e-07 1.0085364930678469e-07 0 5.9893989516747755e-10 1.2846455591200019e-10 0 6.4718026245984298e-10 -4.2652641933750442e-11 0 6.160898367093074e-07 1.0085364930678469e-07 0 6.4718026245984298e-10 -4.2652641933750442e-11 0 6.160898367093074e-07 1.0085364930678469e-07 0 4.7057067183847088e-07 -4.9080327647696179e-08 0 6.160898367093074e-07 1.0085364930678469e-07 0 1.1669793558233344e-06 -2.3855843478318716e-08 0 4.7057067183847088e-07 -4.9080327647696179e-08 0 9.4550642169619701e-07 3.5897120087365117e-07 0 6.160898367093074e-07 1.0085364930678469e-07 0 1.2766636718968821e-06 1.9263309852314193e-07 0 9.4550642169619701e-07 3.5897120087365117e-07 0 1.2766636718968821e-06 1.9263309852314193e-07 0 1.8474697778267887e-06 4.6702802581204467e-07 0 6.160898367093074e-07 1.0085364930678469e-07 0 1.2766636718968821e-06 1.9263309852314193e-07 0 1.1669793558233344e-06 -2.3855843478318716e-08 0 1.2766636718968821e-06 1.9263309852314193e-07 0 1.8483919746226635e-06 5.2510050274108651e-08 0 1.1669793558233344e-06 -2.3855843478318716e-08 0 1.2766636718968821e-06 1.9263309852314193e-07 0 1.8474697778267887e-06 4.6702802581204467e-07 0 1.8483919746226635e-06 5.2510050274108651e-08 0 1.5711816456527076e-06 -2.74090904804642e-07 0 1.8483919746226635e-06 5.2510050274108651e-08 0 1.1669793558233344e-06 -2.3855843478318716e-08 0 1.5711816456527076e-06 -2.74090904804642e-07 0 6.7506833648558506e-07 -2.4454804608405411e-07 0 1.1583720546889487e-06 -5.3859824562983846e-07 0 1.5711816456527076e-06 -2.74090904804642e-07 0 1.1669793558233344e-06 -2.3855843478318716e-08 0 6.7506833648558506e-07 -2.4454804608405411e-07 0 1.1669793558233344e-06 -2.3855843478318716e-08 0 6.7506833648558506e-07 -2.4454804608405411e-07 0 4.7057067183847088e-07 -4.9080327647696179e-08 0 6.4718026245984298e-10 -4.2652641933750442e-11 0 4.7057067183847088e-07 -4.9080327647696179e-08 0 6.5918291190001487e-10 4.925405371006119e-12 0 6.7506833648558506e-07 -2.4454804608405411e-07 0 6.5918291190001487e-10 4.925405371006119e-12 0 5.1527843317411591e-10 -2.0614241621401408e-10 0 6.7506833648558506e-07 -2.4454804608405411e-07 0 4.7057067183847088e-07 -4.9080327647696179e-08 0 6.5918291190001487e-10 4.925405371006119e-12 0 5.1527843317411591e-10 -2.0614241621401408e-10 0 5.2393916543583673e-07 -4.6628750269995083e-07 0 3.819063369701432e-10 -2.6120055390487618e-10 0 6.7506833648558506e-07 -2.4454804608405411e-07 0 5.2393916543583673e-07 -4.6628750269995083e-07 0 1.1583720546889487e-06 -5.3859824562983846e-07 0 6.7506833648558506e-07 -2.4454804608405411e-07 0 5.1527843317411591e-10 -2.0614241621401408e-10 0 5.2393916543583673e-07 -4.6628750269995083e-07 0 3.819063369701432e-10 -2.6120055390487618e-10 0 3.4114534850894427e-07 -7.3085628139059567e-07 0 1.6907067106302953e-10 -3.8654849835332655e-10 0 5.2393916543583673e-07 -4.6628750269995083e-07 0 3.819063369701432e-10 -2.6120055390487618e-10 0 3.4114534850894427e-07 -7.3085628139059567e-07 0 3.4114534850894427e-07 -7.3085628139059567e-07 0 1.6907067106302953e-10 -3.8654849835332655e-10 0 8.0239782488557195e-08 -7.91239785947311e-07 0 3.4114534850894427e-07 -7.3085628139059567e-07 0 1.1243937348326966e-06 -9.3020213053208916e-07 0 4.3202200978099541e-07 -1.235337478692246e-06 0 1.1243937348326966e-06 -9.3020213053208916e-07 0 1.0071094555693965e-06 -1.2074010384230002e-06 0 4.3202200978099541e-07 -1.235337478692246e-06 0 5.2393916543583673e-07 -4.6628750269995083e-07 0 3.4114534850894427e-07 -7.3085628139059567e-07 0 1.1243937348326966e-06 -9.3020213053208916e-07 0 1.0071094555693965e-06 -1.2074010384230002e-06 0 4.3202200978099541e-07 -1.235337478692246e-06 0 8.2422648243766088e-07 -1.3841163159078163e-06 0 5.2393916543583673e-07 -4.6628750269995083e-07 0 1.1243937348326966e-06 -9.3020213053208916e-07 0 1.1583720546889487e-06 -5.3859824562983846e-07 0 1.1243937348326966e-06 -9.3020213053208916e-07 0 1.1583720546889487e-06 -5.3859824562983846e-07 0 1.8164064296849308e-06 -5.208609836303438e-07 0 1.5711816456527076e-06 -2.74090904804642e-07 0 1.1583720546889487e-06 -5.3859824562983846e-07 0 1.8164064296849308e-06 -5.208609836303438e-07 0 1.1243937348326966e-06 -9.3020213053208916e-07 0 1.8164064296849308e-06 -5.208609836303438e-07 0 2.4251086646073179e-06 -6.5520495371835833e-07 0 1.8164064296849308e-06 -5.208609836303438e-07 0 2.4251086646073179e-06 -6.5520495371835833e-07 0 2.6299388168133551e-06 -1.4040501541383491e-07 0 2.4251086646073179e-06 -6.5520495371835833e-07 0 3.4377851329947206e-06 -4.2846863186349008e-08 0 2.6299388168133551e-06 -1.4040501541383491e-07 0 1.1243937348326966e-06 -9.3020213053208916e-07 0 2.4251086646073179e-06 -6.5520495371835833e-07 0 1.6826661368551759e-06 -1.0644832534390956e-06 0 1.0071094555693965e-06 -1.2074010384230002e-06 0 1.6826661368551759e-06 -1.0644832534390956e-06 0 8.2422648243766088e-07 -1.3841163159078163e-06 0 1.1243937348326966e-06 -9.3020213053208916e-07 0 1.0071094555693965e-06 -1.2074010384230002e-06 0 1.6826661368551759e-06 -1.0644832534390956e-06 0 2.4251086646073179e-06 -6.5520495371835833e-07 0 1.6826661368551759e-06 -1.0644832534390956e-06 0 2.3007802557375896e-06 -8.942629350672763e-07 0 1.6826661368551759e-06 -1.0644832534390956e-06 0 8.2422648243766088e-07 -1.3841163159078163e-06 0 1.1505894490471473e-06 -1.3734395563206445e-06 0 1.6826661368551759e-06 -1.0644832534390956e-06 0 2.3007802557375896e-06 -8.942629350672763e-07 0 1.1505894490471473e-06 -1.3734395563206445e-06 0 2.3007802557375896e-06 -8.942629350672763e-07 0 2.5946351068185063e-06 -7.6712889656079302e-07 0 1.1505894490471473e-06 -1.3734395563206445e-06 0 2.3007802557375896e-06 -8.942629350672763e-07 0 2.5946351068185063e-06 -7.6712889656079302e-07 0 3.5464681880043064e-06 -2.9725586586464354e-07 0 2.5946351068185063e-06 -7.6712889656079302e-07 0 3.5464681880043064e-06 -2.9725586586464354e-07 0 3.9133326436929164e-06 -6.0757897362098479e-09 0 2.5946351068185063e-06 -7.6712889656079302e-07 0 9.8247739187276936e-07 -1.1556357862999896e-06 0 2.6019570075860615e-06 -4.3795964391412427e-07 0 2.5946351068185063e-06 -7.6712889656079302e-07 0 2.6019570075860615e-06 -4.3795964391412427e-07 0 3.9133326436929164e-06 -6.0757897362098479e-09 0 2.4251086646073179e-06 -6.5520495371835833e-07 0 3.5464681880043064e-06 -2.9725586586464354e-07 0 3.4377851329947206e-06 -4.2846863186349008e-08 0 2.4251086646073179e-06 -6.5520495371835833e-07 0 2.3007802557375896e-06 -8.942629350672763e-07 0 3.5464681880043064e-06 -2.9725586586464354e-07 0 3.5464681880043064e-06 -2.9725586586464354e-07 0 4.4421350770266649e-06 3.407286991649909e-07 0 3.4377851329947206e-06 -4.2846863186349008e-08 0 3.5464681880043064e-06 -2.9725586586464354e-07 0 4.4421350770266649e-06 3.407286991649909e-07 0 5.0912617427691315e-06 6.1537037293061886e-07 0 4.4421350770266649e-06 3.407286991649909e-07 0 3.4377851329947206e-06 -4.2846863186349008e-08 0 4.0688428851461542e-06 4.4932539872139747e-07 0 4.4421350770266649e-06 3.407286991649909e-07 0 4.0688428851461542e-06 4.4932539872139747e-07 0 4.9522829326828876e-06 7.306757639600082e-07 0 3.4377851329947206e-06 -4.2846863186349008e-08 0 4.0688428851461542e-06 4.4932539872139747e-07 0 3.1886012299203483e-06 2.1727414714240688e-07 0 4.0688428851461542e-06 4.4932539872139747e-07 0 3.3813499646449835e-06 5.8320829675323199e-07 0 3.1886012299203483e-06 2.1727414714240688e-07 0 4.0688428851461542e-06 4.4932539872139747e-07 0 4.4190407341324524e-06 7.6817881548152683e-07 0 4.9522829326828876e-06 7.306757639600082e-07 0 4.0688428851461542e-06 4.4932539872139747e-07 0 3.3813499646449835e-06 5.8320829675323199e-07 0 4.4190407341324524e-06 7.6817881548152683e-07 0 3.7607011813719599e-06 8.1937127731792909e-07 0 3.3813499646449835e-06 5.8320829675323199e-07 0 4.4190407341324524e-06 7.6817881548152683e-07 0 2.9190315812277871e-06 7.9179750729804045e-07 0 3.3813499646449835e-06 5.8320829675323199e-07 0 2.6171172660737063e-06 5.9740060464044877e-07 0 3.7607011813719599e-06 8.1937127731792909e-07 0 2.9190315812277871e-06 7.9179750729804045e-07 0 3.3813499646449835e-06 5.8320829675323199e-07 0 3.3813499646449835e-06 5.8320829675323199e-07 0 2.4650619749268652e-06 2.6591024193028141e-07 0 3.1886012299203483e-06 2.1727414714240688e-07 0 3.3813499646449835e-06 5.8320829675323199e-07 0 2.6171172660737063e-06 5.9740060464044877e-07 0 2.4650619749268652e-06 2.6591024193028141e-07 0 1.8474697778267887e-06 4.6702802581204467e-07 0 2.6171172660737063e-06 5.9740060464044877e-07 0 2.4650619749268652e-06 2.6591024193028141e-07 0 1.8474697778267887e-06 4.6702802581204467e-07 0 1.8483919746226635e-06 5.2510050274108651e-08 0 2.4650619749268652e-06 2.6591024193028141e-07 0 1.8483919746226635e-06 5.2510050274108651e-08 0 2.4650619749268652e-06 2.6591024193028141e-07 0 2.6299388168133551e-06 -1.4040501541383491e-07 0 1.5711816456527076e-06 -2.74090904804642e-07 0 1.8483919746226635e-06 5.2510050274108651e-08 0 2.6299388168133551e-06 -1.4040501541383491e-07 0 1.5711816456527076e-06 -2.74090904804642e-07 0 1.8164064296849308e-06 -5.208609836303438e-07 0 2.6299388168133551e-06 -1.4040501541383491e-07 0 3.4377851329947206e-06 -4.2846863186349008e-08 0 2.6299388168133551e-06 -1.4040501541383491e-07 0 3.1886012299203483e-06 2.1727414714240688e-07 0 2.4650619749268652e-06 2.6591024193028141e-07 0 2.6299388168133551e-06 -1.4040501541383491e-07 0 3.1886012299203483e-06 2.1727414714240688e-07 0 -2.3018284600119758e-06 -5.1346109275377635e-07 0 -2.2290106562460595e-06 -9.6845623277348526e-07 0 -3.9992071526986271e-06 -6.6509929739069817e-07 0 -2.2290106562460595e-06 -9.6845623277348526e-07 0 -1.0191274255455586e-06 -5.8125679110170813e-07 0 -1.35045190637549e-06 -1.1381533223940756e-06 0 -2.3018284600119758e-06 -5.1346109275377635e-07 0 -9.823564963156183e-07 -1.4475927311225123e-07 0 -1.0191274255455586e-06 -5.8125679110170813e-07 0 -2.3018284600119758e-06 -5.1346109275377635e-07 0 -2.2290106562460595e-06 -9.6845623277348526e-07 0 -1.0191274255455586e-06 -5.8125679110170813e-07 0 -9.823564963156183e-07 -1.4475927311225123e-07 0 -4.4684633565345495e-07 -1.8067041307568184e-07 0 -1.0191274255455586e-06 -5.8125679110170813e-07 0 -9.823564963156183e-07 -1.4475927311225123e-07 0 -7.5976832097162818e-10 3.1040600736210901e-10 0 -4.4684633565345495e-07 -1.8067041307568184e-07 0 -7.5976832097162818e-10 3.1040600736210901e-10 0 -4.4684633565345495e-07 -1.8067041307568184e-07 0 -8.3203428426771399e-10 -3.2365753487575946e-10 0 -4.4684633565345495e-07 -1.8067041307568184e-07 0 -8.3203428426771399e-10 -3.2365753487575946e-10 0 -1.0191274255455586e-06 -5.8125679110170813e-07 0 -8.3203428426771399e-10 -3.2365753487575946e-10 0 -1.0191274255455586e-06 -5.8125679110170813e-07 0 -6.0722629139134728e-07 -7.3704510803605453e-07 0 -1.0191274255455586e-06 -5.8125679110170813e-07 0 -6.0722629139134728e-07 -7.3704510803605453e-07 0 -1.35045190637549e-06 -1.1381533223940756e-06 0 -8.3203428426771399e-10 -3.2365753487575946e-10 0 -7.3852153621736374e-10 -2.0009046292251437e-10 0 -6.0722629139134728e-07 -7.3704510803605453e-07 0 -7.3852153621736374e-10 -2.0009046292251437e-10 0 -6.0722629139134728e-07 -7.3704510803605453e-07 0 -3.2046230038456351e-10 -5.4066122997235136e-10 0 -6.0722629139134728e-07 -7.3704510803605453e-07 0 -1.35045190637549e-06 -1.1381533223940756e-06 0 -5.9313418177823004e-07 -1.13272584749386e-06 0 -1.35045190637549e-06 -1.1381533223940756e-06 0 -1.2230402253889623e-06 -1.4944511928720238e-06 0 -5.9313418177823004e-07 -1.13272584749386e-06 0 -2.2290106562460595e-06 -9.6845623277348526e-07 0 -1.35045190637549e-06 -1.1381533223940756e-06 0 -2.0848281851436136e-06 -1.4681613119396477e-06 0 -2.2290106562460595e-06 -9.6845623277348526e-07 0 -2.0848281851436136e-06 -1.4681613119396477e-06 0 -3.1845744879769901e-06 -1.2754621331982647e-06 0 -2.0848281851436136e-06 -1.4681613119396477e-06 0 -1.2230402253889623e-06 -1.4944511928720238e-06 0 -1.3377135276038565e-06 -1.7165767942564974e-06 0 -1.35045190637549e-06 -1.1381533223940756e-06 0 -2.0848281851436136e-06 -1.4681613119396477e-06 0 -1.2230402253889623e-06 -1.4944511928720238e-06 0 -1.2230402253889623e-06 -1.4944511928720238e-06 0 -6.7671400027510432e-07 -1.559670204539968e-06 0 -1.3377135276038565e-06 -1.7165767942564974e-06 0 -6.7671400027510432e-07 -1.559670204539968e-06 0 -5.9313418177823004e-07 -1.13272584749386e-06 0 -1.1719167213037254e-07 -1.3072772142872787e-06 0 -1.2230402253889623e-06 -1.4944511928720238e-06 0 -6.7671400027510432e-07 -1.559670204539968e-06 0 -5.9313418177823004e-07 -1.13272584749386e-06 0 -5.9313418177823004e-07 -1.13272584749386e-06 0 -3.2046230038456351e-10 -5.4066122997235136e-10 0 -1.3798588157105473e-07 -7.3767002204542578e-07 0 -6.0722629139134728e-07 -7.3704510803605453e-07 0 -5.9313418177823004e-07 -1.13272584749386e-06 0 -3.2046230038456351e-10 -5.4066122997235136e-10 0 -3.2046230038456351e-10 -5.4066122997235136e-10 0 -1.3798588157105473e-07 -7.3767002204542578e-07 0 -1.0190347514565402e-10 -3.5303530294392857e-10 0 -5.9313418177823004e-07 -1.13272584749386e-06 0 -1.3798588157105473e-07 -7.3767002204542578e-07 0 -1.1719167213037254e-07 -1.3072772142872787e-06 0 -1.3798588157105473e-07 -7.3767002204542578e-07 0 8.0239782488557195e-08 -7.91239785947311e-07 0 -1.1719167213037254e-07 -1.3072772142872787e-06 0 -1.3798588157105473e-07 -7.3767002204542578e-07 0 -1.0190347514565402e-10 -3.5303530294392857e-10 0 8.0239782488557195e-08 -7.91239785947311e-07 0 -1.0190347514565402e-10 -3.5303530294392857e-10 0 1.6907067106302953e-10 -3.8654849835332655e-10 0 8.0239782488557195e-08 -7.91239785947311e-07 0 3.4114534850894427e-07 -7.3085628139059567e-07 0 8.0239782488557195e-08 -7.91239785947311e-07 0 4.3202200978099541e-07 -1.235337478692246e-06 0 8.0239782488557195e-08 -7.91239785947311e-07 0 4.3202200978099541e-07 -1.235337478692246e-06 0 -1.1719167213037254e-07 -1.3072772142872787e-06 0 -6.7671400027510432e-07 -1.559670204539968e-06 0 -1.1719167213037254e-07 -1.3072772142872787e-06 0 3.0516907664556338e-09 -1.6375850083611963e-06 0 4.3202200978099541e-07 -1.235337478692246e-06 0 -1.1719167213037254e-07 -1.3072772142872787e-06 0 3.0516907664556338e-09 -1.6375850083611963e-06 0 4.3202200978099541e-07 -1.235337478692246e-06 0 8.2422648243766088e-07 -1.3841163159078163e-06 0 3.0516907664556338e-09 -1.6375850083611963e-06 0 8.2422648243766088e-07 -1.3841163159078163e-06 0 3.0516907664556338e-09 -1.6375850083611963e-06 0 1.1505894490471473e-06 -1.3734395563206445e-06 0 3.0516907664556338e-09 -1.6375850083611963e-06 0 1.1505894490471473e-06 -1.3734395563206445e-06 0 -5.0983624840984818e-07 -1.6782485575635987e-06 0 2.5946351068185063e-06 -7.6712889656079302e-07 0 1.1505894490471473e-06 -1.3734395563206445e-06 0 9.8247739187276936e-07 -1.1556357862999896e-06 0 9.8247739187276936e-07 -1.1556357862999896e-06 0 -5.9323823958128917e-07 -1.3382260658861732e-06 0 -3.0301351395569552e-07 -7.1572042776518317e-07 0 9.8247739187276936e-07 -1.1556357862999896e-06 0 -5.9323823958128917e-07 -1.3382260658861732e-06 0 -5.0983624840984818e-07 -1.6782485575635987e-06 0 1.1505894490471473e-06 -1.3734395563206445e-06 0 9.8247739187276936e-07 -1.1556357862999896e-06 0 -5.0983624840984818e-07 -1.6782485575635987e-06 0 -5.9323823958128917e-07 -1.3382260658861732e-06 0 -2.2570202549033087e-06 -1.5846743580235255e-06 0 -5.0983624840984818e-07 -1.6782485575635987e-06 0 -5.9323823958128917e-07 -1.3382260658861732e-06 0 -2.2889372409315747e-06 -1.0726217791768218e-06 0 -3.0301351395569552e-07 -7.1572042776518317e-07 0 -5.9323823958128917e-07 -1.3382260658861732e-06 0 -2.2889372409315747e-06 -1.0726217791768218e-06 0 -2.2570202549033087e-06 -1.5846743580235255e-06 0 -2.2570202549033087e-06 -1.5846743580235255e-06 0 -5.0983624840984818e-07 -1.6782485575635987e-06 0 -1.3377135276038565e-06 -1.7165767942564974e-06 0 -2.2570202549033087e-06 -1.5846743580235255e-06 0 -1.3377135276038565e-06 -1.7165767942564974e-06 0 -2.6024453649982157e-06 -1.5640890699542729e-06 0 3.0516907664556338e-09 -1.6375850083611963e-06 0 -5.0983624840984818e-07 -1.6782485575635987e-06 0 -1.3377135276038565e-06 -1.7165767942564974e-06 0 -6.7671400027510432e-07 -1.559670204539968e-06 0 3.0516907664556338e-09 -1.6375850083611963e-06 0 -1.3377135276038565e-06 -1.7165767942564974e-06 0 -2.0848281851436136e-06 -1.4681613119396477e-06 0 -1.3377135276038565e-06 -1.7165767942564974e-06 0 -2.6024453649982157e-06 -1.5640890699542729e-06 0 -2.0848281851436136e-06 -1.4681613119396477e-06 0 -2.6024453649982157e-06 -1.5640890699542729e-06 0 -3.1845744879769901e-06 -1.2754621331982647e-06 0 -2.6024453649982157e-06 -1.5640890699542729e-06 0 -4.019808794134344e-06 -1.2741683543752193e-06 0 -3.1845744879769901e-06 -1.2754621331982647e-06 0 -2.2570202549033087e-06 -1.5846743580235255e-06 0 -2.6024453649982157e-06 -1.5640890699542729e-06 0 -4.019808794134344e-06 -1.2741683543752193e-06 0 -2.2570202549033087e-06 -1.5846743580235255e-06 0 -4.7398068515244272e-06 -8.1331645442828716e-07 0 -4.019808794134344e-06 -1.2741683543752193e-06 0 -2.2889372409315747e-06 -1.0726217791768218e-06 0 -2.2570202549033087e-06 -1.5846743580235255e-06 0 -4.7398068515244272e-06 -8.1331645442828716e-07 0 -4.7398068515244272e-06 -8.1331645442828716e-07 0 -4.019808794134344e-06 -1.2741683543752193e-06 0 -6.2144782725417186e-06 -5.7664233785561949e-07 0 -4.019808794134344e-06 -1.2741683543752193e-06 0 -6.2144782725417186e-06 -5.7664233785561949e-07 0 -4.7801729517663186e-06 -9.5153419329429658e-07 0 -4.7398068515244272e-06 -8.1331645442828716e-07 0 -6.2144782725417186e-06 -5.7664233785561949e-07 0 -7.8700327197977346e-06 4.0363343798229272e-07 0 -6.2144782725417186e-06 -5.7664233785561949e-07 0 -6.0766038661565586e-06 -3.4328881441195896e-07 0 -8.5651971424822334e-06 5.0597867685685879e-07 0 -6.2144782725417186e-06 -5.7664233785561949e-07 0 -6.0766038661565586e-06 -3.4328881441195896e-07 0 -4.7801729517663186e-06 -9.5153419329429658e-07 0 -6.0766038661565586e-06 -3.4328881441195896e-07 0 -4.7801729517663186e-06 -9.5153419329429658e-07 0 -3.9992071526986271e-06 -6.6509929739069817e-07 0 -4.019808794134344e-06 -1.2741683543752193e-06 0 -4.7801729517663186e-06 -9.5153419329429658e-07 0 -3.1845744879769901e-06 -1.2754621331982647e-06 0 -4.7801729517663186e-06 -9.5153419329429658e-07 0 -3.1845744879769901e-06 -1.2754621331982647e-06 0 -3.9992071526986271e-06 -6.6509929739069817e-07 0 -2.2290106562460595e-06 -9.6845623277348526e-07 0 -3.1845744879769901e-06 -1.2754621331982647e-06 0 -3.9992071526986271e-06 -6.6509929739069817e-07 0 -1.4797024846550936e-05 4.7888577736055744e-06 0 -1.2974922677825338e-05 4.7701283987181579e-06 0 -1.0348392678995768e-05 2.434915858172067e-06 0 -1.4797024846550936e-05 4.7888577736055744e-06 0 -1.2974922677825338e-05 4.7701283987181579e-06 0 -1.8669696327707944e-05 8.5826458737748408e-06 0 -1.2974922677825338e-05 4.7701283987181579e-06 0 -1.0348392678995768e-05 2.434915858172067e-06 0 -8.9514010276520273e-06 3.639810746298212e-06 0 -1.2974922677825338e-05 4.7701283987181579e-06 0 -8.9514010276520273e-06 3.639810746298212e-06 0 -1.2945757927396502e-05 7.0857172557229903e-06 0 -1.4797024846550936e-05 4.7888577736055744e-06 0 -1.0348392678995768e-05 2.434915858172067e-06 0 -1.1432202686708195e-05 2.1337508507836516e-06 0 -1.1432202686708195e-05 2.1337508507836516e-06 0 -8.5651971424822334e-06 5.0597867685685879e-07 0 -7.8700327197977346e-06 4.0363343798229272e-07 0 -6.2144782725417186e-06 -5.7664233785561949e-07 0 -8.5651971424822334e-06 5.0597867685685879e-07 0 -7.8700327197977346e-06 4.0363343798229272e-07 0 -1.0348392678995768e-05 2.434915858172067e-06 0 -1.1432202686708195e-05 2.1337508507836516e-06 0 -7.8700327197977346e-06 4.0363343798229272e-07 0 -1.0348392678995768e-05 2.434915858172067e-06 0 -7.8700327197977346e-06 4.0363343798229272e-07 0 -5.9434594235030137e-06 8.8654238730501119e-07 0 -4.7398068515244272e-06 -8.1331645442828716e-07 0 -3.808589405615753e-06 -3.4143137122647994e-07 0 -5.9434594235030137e-06 8.8654238730501119e-07 0 -4.7398068515244272e-06 -8.1331645442828716e-07 0 -7.8700327197977346e-06 4.0363343798229272e-07 0 -5.9434594235030137e-06 8.8654238730501119e-07 0 -2.2889372409315747e-06 -1.0726217791768218e-06 0 -4.7398068515244272e-06 -8.1331645442828716e-07 0 -3.808589405615753e-06 -3.4143137122647994e-07 0 -5.9434594235030137e-06 8.8654238730501119e-07 0 -8.9514010276520273e-06 3.639810746298212e-06 0 -5.5921089423134367e-06 3.2227770070221986e-06 0 -1.0348392678995768e-05 2.434915858172067e-06 0 -5.9434594235030137e-06 8.8654238730501119e-07 0 -8.9514010276520273e-06 3.639810746298212e-06 0 -8.9514010276520273e-06 3.639810746298212e-06 0 -5.5921089423134367e-06 3.2227770070221986e-06 0 -8.1569261040969468e-06 6.3504343981017751e-06 0 -5.5921089423134367e-06 3.2227770070221986e-06 0 -2.3325167570695781e-06 1.5466588239553513e-06 0 -2.5307249752162698e-06 5.1043010350553138e-06 0 -2.3325167570695781e-06 1.5466588239553513e-06 0 3.2727479850256533e-07 2.4243210069011177e-06 0 -2.5307249752162698e-06 5.1043010350553138e-06 0 -2.3325167570695781e-06 1.5466588239553513e-06 0 1.8659075539496625e-08 4.6738531629638308e-07 0 3.2727479850256533e-07 2.4243210069011177e-06 0 -5.9434594235030137e-06 8.8654238730501119e-07 0 -5.5921089423134367e-06 3.2227770070221986e-06 0 -2.3325167570695781e-06 1.5466588239553513e-06 0 -5.9434594235030137e-06 8.8654238730501119e-07 0 -2.3325167570695781e-06 1.5466588239553513e-06 0 -2.1745455949763267e-06 3.253255357576261e-08 0 -3.808589405615753e-06 -3.4143137122647994e-07 0 -5.9434594235030137e-06 8.8654238730501119e-07 0 -2.1745455949763267e-06 3.253255357576261e-08 0 -2.2889372409315747e-06 -1.0726217791768218e-06 0 -3.808589405615753e-06 -3.4143137122647994e-07 0 -2.1745455949763267e-06 3.253255357576261e-08 0 -2.2889372409315747e-06 -1.0726217791768218e-06 0 -2.1745455949763267e-06 3.253255357576261e-08 0 -3.0301351395569552e-07 -7.1572042776518317e-07 0 -2.1745455949763267e-06 3.253255357576261e-08 0 -3.0301351395569552e-07 -7.1572042776518317e-07 0 1.8659075539496625e-08 4.6738531629638308e-07 0 -2.3325167570695781e-06 1.5466588239553513e-06 0 -2.1745455949763267e-06 3.253255357576261e-08 0 1.8659075539496625e-08 4.6738531629638308e-07 0 -3.0301351395569552e-07 -7.1572042776518317e-07 0 1.8659075539496625e-08 4.6738531629638308e-07 0 1.6234907391750218e-06 -2.2359777966570806e-07 0 1.8659075539496625e-08 4.6738531629638308e-07 0 1.6234907391750218e-06 -2.2359777966570806e-07 0 2.3907092821884685e-06 1.2689506718693452e-06 0 9.8247739187276936e-07 -1.1556357862999896e-06 0 -3.0301351395569552e-07 -7.1572042776518317e-07 0 1.6234907391750218e-06 -2.2359777966570806e-07 0 1.6234907391750218e-06 -2.2359777966570806e-07 0 2.6019570075860615e-06 -4.3795964391412427e-07 0 3.5437027008119384e-06 4.3479552933454316e-07 0 9.8247739187276936e-07 -1.1556357862999896e-06 0 1.6234907391750218e-06 -2.2359777966570806e-07 0 2.6019570075860615e-06 -4.3795964391412427e-07 0 1.6234907391750218e-06 -2.2359777966570806e-07 0 2.3907092821884685e-06 1.2689506718693452e-06 0 3.5437027008119384e-06 4.3479552933454316e-07 0 2.3907092821884685e-06 1.2689506718693452e-06 0 3.5437027008119384e-06 4.3479552933454316e-07 0 5.1057794829674863e-06 2.1433069606421494e-06 0 1.8659075539496625e-08 4.6738531629638308e-07 0 2.3907092821884685e-06 1.2689506718693452e-06 0 3.2727479850256533e-07 2.4243210069011177e-06 0 2.3907092821884685e-06 1.2689506718693452e-06 0 3.2727479850256533e-07 2.4243210069011177e-06 0 2.9257222291987269e-06 3.7522251719942038e-06 0 2.3907092821884685e-06 1.2689506718693452e-06 0 2.9257222291987269e-06 3.7522251719942038e-06 0 5.1057794829674863e-06 2.1433069606421494e-06 0 2.9257222291987269e-06 3.7522251719942038e-06 0 4.9031891561203151e-06 6.2360919806219793e-06 0 6.8207974120954499e-06 4.2924524391140978e-06 0 2.9257222291987269e-06 3.7522251719942038e-06 0 5.1057794829674863e-06 2.1433069606421494e-06 0 6.8207974120954499e-06 4.2924524391140978e-06 0 2.9257222291987269e-06 3.7522251719942038e-06 0 1.1472002931940236e-06 7.1124303853368382e-06 0 -2.5307249752162698e-06 5.1043010350553138e-06 0 3.2727479850256533e-07 2.4243210069011177e-06 0 2.9257222291987269e-06 3.7522251719942038e-06 0 -2.5307249752162698e-06 5.1043010350553138e-06 0 2.9257222291987269e-06 3.7522251719942038e-06 0 1.1472002931940236e-06 7.1124303853368382e-06 0 4.9031891561203151e-06 6.2360919806219793e-06 0 4.9031891561203151e-06 6.2360919806219793e-06 0 3.3674419097123941e-06 1.0821160611040039e-05 0 8.5084597087292427e-06 7.4942251021882065e-06 0 3.3674419097123941e-06 1.0821160611040039e-05 0 8.5084597087292427e-06 7.4942251021882065e-06 0 7.5027366952553304e-06 1.5800622378148016e-05 0 3.3674419097123941e-06 1.0821160611040039e-05 0 2.9681038870011454e-06 1.7450160935081173e-05 0 7.5027366952553304e-06 1.5800622378148016e-05 0 3.3674419097123941e-06 1.0821160611040039e-05 0 -2.0648801422524909e-06 1.8534398472029281e-05 0 2.9681038870011454e-06 1.7450160935081173e-05 0 1.1472002931940236e-06 7.1124303853368382e-06 0 3.3674419097123941e-06 1.0821160611040039e-05 0 -3.5416585904063812e-06 1.144834414201112e-05 0 1.1472002931940236e-06 7.1124303853368382e-06 0 4.9031891561203151e-06 6.2360919806219793e-06 0 3.3674419097123941e-06 1.0821160611040039e-05 0 3.3674419097123941e-06 1.0821160611040039e-05 0 -3.5416585904063812e-06 1.144834414201112e-05 0 -2.0648801422524909e-06 1.8534398472029281e-05 0 -3.5416585904063812e-06 1.144834414201112e-05 0 -9.0346475208268781e-06 1.9021443906888125e-05 0 -2.0648801422524909e-06 1.8534398472029281e-05 0 -3.5416585904063812e-06 1.144834414201112e-05 0 -7.692915103545058e-06 1.0257697397421974e-05 0 -9.0346475208268781e-06 1.9021443906888125e-05 0 -3.5416585904063812e-06 1.144834414201112e-05 0 -2.5307249752162698e-06 5.1043010350553138e-06 0 -7.692915103545058e-06 1.0257697397421974e-05 0 -2.5307249752162698e-06 5.1043010350553138e-06 0 -8.1569261040969468e-06 6.3504343981017751e-06 0 -7.692915103545058e-06 1.0257697397421974e-05 0 1.1472002931940236e-06 7.1124303853368382e-06 0 -3.5416585904063812e-06 1.144834414201112e-05 0 -2.5307249752162698e-06 5.1043010350553138e-06 0 -5.5921089423134367e-06 3.2227770070221986e-06 0 -2.5307249752162698e-06 5.1043010350553138e-06 0 -8.1569261040969468e-06 6.3504343981017751e-06 0 -8.9514010276520273e-06 3.639810746298212e-06 0 -8.1569261040969468e-06 6.3504343981017751e-06 0 -1.2945757927396502e-05 7.0857172557229903e-06 0 -8.1569261040969468e-06 6.3504343981017751e-06 0 -1.2247674368908905e-05 1.070901852173654e-05 0 -1.2945757927396502e-05 7.0857172557229903e-06 0 -8.1569261040969468e-06 6.3504343981017751e-06 0 -1.2247674368908905e-05 1.070901852173654e-05 0 -7.692915103545058e-06 1.0257697397421974e-05 0 -1.2247674368908905e-05 1.070901852173654e-05 0 -7.692915103545058e-06 1.0257697397421974e-05 0 -1.3056392279542928e-05 1.5567588476382253e-05 0 -7.692915103545058e-06 1.0257697397421974e-05 0 -1.3056392279542928e-05 1.5567588476382253e-05 0 -9.0346475208268781e-06 1.9021443906888125e-05 0 -1.3056392279542928e-05 1.5567588476382253e-05 0 -1.8289979192583192e-05 1.5932814433994508e-05 0 -1.8632049570253593e-05 2.3633678762428559e-05 0 -1.3056392279542928e-05 1.5567588476382253e-05 0 -1.8632049570253593e-05 2.3633678762428559e-05 0 -9.0346475208268781e-06 1.9021443906888125e-05 0 -1.2247674368908905e-05 1.070901852173654e-05 0 -1.3056392279542928e-05 1.5567588476382253e-05 0 -1.8289979192583192e-05 1.5932814433994508e-05 0 -1.2247674368908905e-05 1.070901852173654e-05 0 -1.8289979192583192e-05 1.5932814433994508e-05 0 -1.7014952188140239e-05 1.095660171412956e-05 0 -1.8289979192583192e-05 1.5932814433994508e-05 0 -2.679627710323296e-05 2.1390930687570847e-05 0 -1.8632049570253593e-05 2.3633678762428559e-05 0 -1.8289979192583192e-05 1.5932814433994508e-05 0 -2.281097780616381e-05 1.4134908402846562e-05 0 -2.679627710323296e-05 2.1390930687570847e-05 0 -1.8289979192583192e-05 1.5932814433994508e-05 0 -2.281097780616381e-05 1.4134908402846562e-05 0 -1.7014952188140239e-05 1.095660171412956e-05 0 -2.281097780616381e-05 1.4134908402846562e-05 0 -1.7014952188140239e-05 1.095660171412956e-05 0 -1.8669696327707944e-05 8.5826458737748408e-06 0 -1.7014952188140239e-05 1.095660171412956e-05 0 -1.2945757927396502e-05 7.0857172557229903e-06 0 -1.8669696327707944e-05 8.5826458737748408e-06 0 -1.2247674368908905e-05 1.070901852173654e-05 0 -1.7014952188140239e-05 1.095660171412956e-05 0 -1.2945757927396502e-05 7.0857172557229903e-06 0 -1.2974922677825338e-05 4.7701283987181579e-06 0 -1.2945757927396502e-05 7.0857172557229903e-06 0 -1.8669696327707944e-05 8.5826458737748408e-06 0 6.0896131559485046e-06 1.3893798155873546e-06 0 6.1043360525193558e-06 1.3602926330544155e-06 0 6.8464757090068833e-06 1.8767791818601115e-06 0 6.1043360525193558e-06 1.3602926330544155e-06 0 6.8464757090068833e-06 1.8767791818601115e-06 0 7.26156465042711e-06 2.2097413021219659e-06 0 6.8464757090068833e-06 1.8767791818601115e-06 0 7.26156465042711e-06 2.2097413021219659e-06 0 7.9406492365858352e-06 2.7072158348410882e-06 0 6.0896131559485046e-06 1.3893798155873546e-06 0 6.8464757090068833e-06 1.8767791818601115e-06 0 6.4662138964202906e-06 1.4384264920390571e-06 0 6.4662138964202906e-06 1.4384264920390571e-06 0 5.4639498510657552e-06 1.0123955302981136e-06 0 5.6905533226080232e-06 6.0950027635288038e-07 0 6.0896131559485046e-06 1.3893798155873546e-06 0 6.4662138964202906e-06 1.4384264920390571e-06 0 5.4639498510657552e-06 1.0123955302981136e-06 0 4.987068280818035e-06 4.6495129487886442e-07 0 5.4639498510657552e-06 1.0123955302981136e-06 0 5.6905533226080232e-06 6.0950027635288038e-07 0 6.0896131559485046e-06 1.3893798155873546e-06 0 5.4639498510657552e-06 1.0123955302981136e-06 0 5.2996727008213601e-06 1.0441217138027892e-06 0 5.4639498510657552e-06 1.0123955302981136e-06 0 4.5616064096553701e-06 8.6226460824239238e-07 0 5.2996727008213601e-06 1.0441217138027892e-06 0 4.4742693623989865e-06 6.5848591329966518e-07 0 5.4639498510657552e-06 1.0123955302981136e-06 0 4.5616064096553701e-06 8.6226460824239238e-07 0 3.7607011813719599e-06 8.1937127731792909e-07 0 4.5616064096553701e-06 8.6226460824239238e-07 0 4.4190407341324524e-06 7.6817881548152683e-07 0 4.5616064096553701e-06 8.6226460824239238e-07 0 4.4190407341324524e-06 7.6817881548152683e-07 0 5.2996727008213601e-06 1.0441217138027892e-06 0 4.4190407341324524e-06 7.6817881548152683e-07 0 5.2996727008213601e-06 1.0441217138027892e-06 0 4.9522829326828876e-06 7.306757639600082e-07 0 6.0896131559485046e-06 1.3893798155873546e-06 0 6.1043360525193558e-06 1.3602926330544155e-06 0 5.2996727008213601e-06 1.0441217138027892e-06 0 6.1043360525193558e-06 1.3602926330544155e-06 0 5.2996727008213601e-06 1.0441217138027892e-06 0 4.9522829326828876e-06 7.306757639600082e-07 0 6.1043360525193558e-06 1.3602926330544155e-06 0 4.9522829326828876e-06 7.306757639600082e-07 0 5.0912617427691315e-06 6.1537037293061886e-07 0 4.4421350770266649e-06 3.407286991649909e-07 0 4.9522829326828876e-06 7.306757639600082e-07 0 5.0912617427691315e-06 6.1537037293061886e-07 0 3.5464681880043064e-06 -2.9725586586464354e-07 0 5.0912617427691315e-06 6.1537037293061886e-07 0 3.9133326436929164e-06 -6.0757897362098479e-09 0 5.0912617427691315e-06 6.1537037293061886e-07 0 5.251316981109892e-06 1.0414040661146311e-06 0 6.1887195599190757e-06 1.4476494495104973e-06 0 5.0912617427691315e-06 6.1537037293061886e-07 0 3.9133326436929164e-06 -6.0757897362098479e-09 0 5.251316981109892e-06 1.0414040661146311e-06 0 6.1043360525193558e-06 1.3602926330544155e-06 0 5.0912617427691315e-06 6.1537037293061886e-07 0 6.1887195599190757e-06 1.4476494495104973e-06 0 2.6019570075860615e-06 -4.3795964391412427e-07 0 3.9133326436929164e-06 -6.0757897362098479e-09 0 3.5437027008119384e-06 4.3479552933454316e-07 0 3.9133326436929164e-06 -6.0757897362098479e-09 0 3.5437027008119384e-06 4.3479552933454316e-07 0 5.251316981109892e-06 1.0414040661146311e-06 0 3.5437027008119384e-06 4.3479552933454316e-07 0 5.251316981109892e-06 1.0414040661146311e-06 0 5.1057794829674863e-06 2.1433069606421494e-06 0 5.251316981109892e-06 1.0414040661146311e-06 0 7.1463793196475177e-06 2.5484709596128326e-06 0 5.1057794829674863e-06 2.1433069606421494e-06 0 7.1463793196475177e-06 2.5484709596128326e-06 0 5.1057794829674863e-06 2.1433069606421494e-06 0 6.8207974120954499e-06 4.2924524391140978e-06 0 6.1043360525193558e-06 1.3602926330544155e-06 0 6.1887195599190757e-06 1.4476494495104973e-06 0 7.26156465042711e-06 2.2097413021219659e-06 0 5.251316981109892e-06 1.0414040661146311e-06 0 7.1463793196475177e-06 2.5484709596128326e-06 0 6.1887195599190757e-06 1.4476494495104973e-06 0 7.1463793196475177e-06 2.5484709596128326e-06 0 6.1887195599190757e-06 1.4476494495104973e-06 0 7.26156465042711e-06 2.2097413021219659e-06 0 7.1463793196475177e-06 2.5484709596128326e-06 0 7.26156465042711e-06 2.2097413021219659e-06 0 8.4402112552345502e-06 3.3697736450517994e-06 0 7.26156465042711e-06 2.2097413021219659e-06 0 8.4402112552345502e-06 3.3697736450517994e-06 0 7.9406492365858352e-06 2.7072158348410882e-06 0 7.1463793196475177e-06 2.5484709596128326e-06 0 8.4402112552345502e-06 3.3697736450517994e-06 0 9.8561847409573208e-06 5.0972352251114529e-06 0 8.4402112552345502e-06 3.3697736450517994e-06 0 9.8561847409573208e-06 5.0972352251114529e-06 0 9.329699555164188e-06 3.8506501984755914e-06 0 9.329699555164188e-06 3.8506501984755914e-06 0 8.1020341050809213e-06 2.4801688665268222e-06 0 7.9406492365858352e-06 2.7072158348410882e-06 0 8.4402112552345502e-06 3.3697736450517994e-06 0 9.329699555164188e-06 3.8506501984755914e-06 0 7.9406492365858352e-06 2.7072158348410882e-06 0 7.1463793196475177e-06 2.5484709596128326e-06 0 6.8207974120954499e-06 4.2924524391140978e-06 0 9.8561847409573208e-06 5.0972352251114529e-06 0 6.8207974120954499e-06 4.2924524391140978e-06 0 9.8561847409573208e-06 5.0972352251114529e-06 0 8.5084597087292427e-06 7.4942251021882065e-06 0 4.9031891561203151e-06 6.2360919806219793e-06 0 6.8207974120954499e-06 4.2924524391140978e-06 0 8.5084597087292427e-06 7.4942251021882065e-06 0 9.8561847409573208e-06 5.0972352251114529e-06 0 8.5084597087292427e-06 7.4942251021882065e-06 0 1.4337860799953503e-05 8.6401964553821917e-06 0 8.5084597087292427e-06 7.4942251021882065e-06 0 1.4337860799953503e-05 8.6401964553821917e-06 0 7.5027366952553304e-06 1.5800622378148016e-05 0 9.8561847409573208e-06 5.0972352251114529e-06 0 1.0549497420621984e-05 5.1955414585092607e-06 0 1.4337860799953503e-05 8.6401964553821917e-06 0 9.329699555164188e-06 3.8506501984755914e-06 0 1.0549497420621984e-05 5.1955414585092607e-06 0 8.5284754099893012e-06 2.4543292320341161e-06 0 9.329699555164188e-06 3.8506501984755914e-06 0 8.5284754099893012e-06 2.4543292320341161e-06 0 8.1020341050809213e-06 2.4801688665268222e-06 0 9.8561847409573208e-06 5.0972352251114529e-06 0 9.329699555164188e-06 3.8506501984755914e-06 0 1.0549497420621984e-05 5.1955414585092607e-06 0 1.0549497420621984e-05 5.1955414585092607e-06 0 8.5284754099893012e-06 2.4543292320341161e-06 0 8.9233110525653314e-06 7.1511612979327335e-07 0 8.5284754099893012e-06 2.4543292320341161e-06 0 7.746958333933316e-06 -1.3533504780089988e-06 0 8.9233110525653314e-06 7.1511612979327335e-07 0 8.5284754099893012e-06 2.4543292320341161e-06 0 7.1715438901077956e-06 7.3927890385109201e-07 0 7.746958333933316e-06 -1.3533504780089988e-06 0 8.5284754099893012e-06 2.4543292320341161e-06 0 7.1715438901077956e-06 7.3927890385109201e-07 0 8.1020341050809213e-06 2.4801688665268222e-06 0 8.1020341050809213e-06 2.4801688665268222e-06 0 7.2830385252551715e-06 1.9639185153498465e-06 0 7.9406492365858352e-06 2.7072158348410882e-06 0 7.1715438901077956e-06 7.3927890385109201e-07 0 8.1020341050809213e-06 2.4801688665268222e-06 0 7.2830385252551715e-06 1.9639185153498465e-06 0 7.1715438901077956e-06 7.3927890385109201e-07 0 7.2830385252551715e-06 1.9639185153498465e-06 0 6.4421853052884743e-06 6.8652367673407086e-07 0 6.4662138964202906e-06 1.4384264920390571e-06 0 7.2830385252551715e-06 1.9639185153498465e-06 0 6.4421853052884743e-06 6.8652367673407086e-07 0 6.8464757090068833e-06 1.8767791818601115e-06 0 6.4662138964202906e-06 1.4384264920390571e-06 0 7.2830385252551715e-06 1.9639185153498465e-06 0 6.8464757090068833e-06 1.8767791818601115e-06 0 7.2830385252551715e-06 1.9639185153498465e-06 0 7.9406492365858352e-06 2.7072158348410882e-06 0 6.4662138964202906e-06 1.4384264920390571e-06 0 5.6905533226080232e-06 6.0950027635288038e-07 0 6.4421853052884743e-06 6.8652367673407086e-07 0 5.4528782986106427e-06 -6.2863781297349237e-07 0 5.6905533226080232e-06 6.0950027635288038e-07 0 6.4421853052884743e-06 6.8652367673407086e-07 0 7.1715438901077956e-06 7.3927890385109201e-07 0 6.0791269361460846e-06 -1.1020094045343948e-06 0 6.7244442364980455e-06 -3.3919769754890035e-06 0 5.4528782986106427e-06 -6.2863781297349237e-07 0 5.3689852664510581e-06 -2.4336493829123702e-06 0 6.0791269361460846e-06 -1.1020094045343948e-06 0 5.4528782986106427e-06 -6.2863781297349237e-07 0 6.4421853052884743e-06 6.8652367673407086e-07 0 6.0791269361460846e-06 -1.1020094045343948e-06 0 7.1715438901077956e-06 7.3927890385109201e-07 0 6.4421853052884743e-06 6.8652367673407086e-07 0 6.0791269361460846e-06 -1.1020094045343948e-06 0 5.3689852664510581e-06 -2.4336493829123702e-06 0 6.0791269361460846e-06 -1.1020094045343948e-06 0 5.8615647783339934e-06 -4.0435325730705949e-06 0 6.0791269361460846e-06 -1.1020094045343948e-06 0 6.7244442364980455e-06 -3.3919769754890035e-06 0 5.8615647783339934e-06 -4.0435325730705949e-06 0 6.7244442364980455e-06 -3.3919769754890035e-06 0 5.8615647783339934e-06 -4.0435325730705949e-06 0 7.0167999970545356e-06 -6.0861206067241154e-06 0 6.7244442364980455e-06 -3.3919769754890035e-06 0 7.0167999970545356e-06 -6.0861206067241154e-06 0 7.9971572567187483e-06 -5.9957977757041549e-06 0 5.8615647783339934e-06 -4.0435325730705949e-06 0 6.092084972264125e-06 -6.2863154104780256e-06 0 7.0167999970545356e-06 -6.0861206067241154e-06 0 6.092084972264125e-06 -6.2863154104780256e-06 0 7.0167999970545356e-06 -6.0861206067241154e-06 0 7.704252395310343e-06 -8.7641990903808452e-06 0 7.0167999970545356e-06 -6.0861206067241154e-06 0 7.704252395310343e-06 -8.7641990903808452e-06 0 7.9971572567187483e-06 -5.9957977757041549e-06 0 6.092084972264125e-06 -6.2863154104780256e-06 0 7.704252395310343e-06 -8.7641990903808452e-06 0 6.2635136278731841e-06 -8.2576945235958244e-06 0 1.0493764336465426e-05 -8.274198143568587e-06 0 1.1622809413093306e-05 -1.0877362097130825e-05 0 9.8148574147413009e-06 -9.922600228799329e-06 0 7.9971572567187483e-06 -5.9957977757041549e-06 0 1.0493764336465426e-05 -8.274198143568587e-06 0 9.8148574147413009e-06 -9.922600228799329e-06 0 7.704252395310343e-06 -8.7641990903808452e-06 0 7.9971572567187483e-06 -5.9957977757041549e-06 0 9.8148574147413009e-06 -9.922600228799329e-06 0 7.9971572567187483e-06 -5.9957977757041549e-06 0 9.1232959355703324e-06 -3.6016863614965902e-06 0 1.0493764336465426e-05 -8.274198143568587e-06 0 7.1715438901077956e-06 7.3927890385109201e-07 0 6.7244442364980455e-06 -3.3919769754890035e-06 0 7.746958333933316e-06 -1.3533504780089988e-06 0 7.9971572567187483e-06 -5.9957977757041549e-06 0 7.746958333933316e-06 -1.3533504780089988e-06 0 9.1232959355703324e-06 -3.6016863614965902e-06 0 6.7244442364980455e-06 -3.3919769754890035e-06 0 7.9971572567187483e-06 -5.9957977757041549e-06 0 7.746958333933316e-06 -1.3533504780089988e-06 0 7.746958333933316e-06 -1.3533504780089988e-06 0 8.9233110525653314e-06 7.1511612979327335e-07 0 9.1232959355703324e-06 -3.6016863614965902e-06 0 1.0549497420621984e-05 5.1955414585092607e-06 0 8.9233110525653314e-06 7.1511612979327335e-07 0 1.0559594653114701e-05 4.1892387316482363e-07 0 8.9233110525653314e-06 7.1511612979327335e-07 0 1.0559594653114701e-05 4.1892387316482363e-07 0 9.1232959355703324e-06 -3.6016863614965902e-06 0 1.0549497420621984e-05 5.1955414585092607e-06 0 1.0559594653114701e-05 4.1892387316482363e-07 0 1.4337860799953503e-05 8.6401964553821917e-06 0 1.0559594653114701e-05 4.1892387316482363e-07 0 1.5526731581499851e-05 -3.7890090544106268e-06 0 1.2195495518509653e-05 -6.6416060060920776e-06 0 1.0559594653114701e-05 4.1892387316482363e-07 0 9.1232959355703324e-06 -3.6016863614965902e-06 0 1.2195495518509653e-05 -6.6416060060920776e-06 0 1.4337860799953503e-05 8.6401964553821917e-06 0 1.109786628051464e-05 2.778187350597868e-05 0 7.5027366952553304e-06 1.5800622378148016e-05 0 1.0559594653114701e-05 4.1892387316482363e-07 0 1.4337860799953503e-05 8.6401964553821917e-06 0 1.5526731581499851e-05 -3.7890090544106268e-06 0 5.6720947456858148e-06 6.010455774842493e-06 0 2.0686993752218123e-05 1.3436804225983114e-05 0 1.4337860799953503e-05 8.6401964553821917e-06 0 2.0765643292786006e-05 2.7151073415269847e-05 0 1.109786628051464e-05 2.778187350597868e-05 0 1.109786628051464e-05 2.778187350597868e-05 0 2.3709517285780568e-05 4.0253103042041529e-05 0 1.0349334240141448e-05 3.8666771615923621e-05 0 2.0686993752218123e-05 1.3436804225983114e-05 0 1.8891991348823292e-05 1.5293211495252427e-05 0 1.5526731581499851e-05 -3.7890090544106268e-06 0 1.5306782001922e-05 -8.4094294322204424e-06 0 1.2195495518509653e-05 -6.6416060060920776e-06 0 2.0765643292786006e-05 2.7151073415269847e-05 0 1.109786628051464e-05 2.778187350597868e-05 0 2.3709517285780568e-05 4.0253103042041529e-05 0 1.8891991348823292e-05 1.5293211495252427e-05 0 2.0662208884067805e-05 2.0904990362647361e-05 0 1.5306782001922e-05 -8.4094294322204424e-06 0 1.3297648230459024e-05 -1.0254028053862322e-05 0 1.513611572341745e-05 -1.0966060777809372e-05 0 2.3709517285780568e-05 4.0253103042041529e-05 0 1.7511939615278642e-05 4.7944078947878827e-05 0 1.0349334240141448e-05 3.8666771615923621e-05 0 9.1232959355703324e-06 -3.6016863614965902e-06 0 1.2195495518509653e-05 -6.6416060060920776e-06 0 1.0493764336465426e-05 -8.274198143568587e-06 0 1.5306782001922e-05 -8.4094294322204424e-06 0 1.2195495518509653e-05 -6.6416060060920776e-06 0 1.3297648230459024e-05 -1.0254028053862322e-05 0 1.2195495518509653e-05 -6.6416060060920776e-06 0 1.3297648230459024e-05 -1.0254028053862322e-05 0 1.0493764336465426e-05 -8.274198143568587e-06 0 1.3297648230459024e-05 -1.0254028053862322e-05 0 1.0493764336465426e-05 -8.274198143568587e-06 0 1.1622809413093306e-05 -1.0877362097130825e-05 0 1.3297648230459024e-05 -1.0254028053862322e-05 0 1.1622809413093306e-05 -1.0877362097130825e-05 0 1.3473425676685356e-05 -1.2537584358648886e-05 0 1.3297648230459024e-05 -1.0254028053862322e-05 0 1.3473425676685356e-05 -1.2537584358648886e-05 0 1.513611572341745e-05 -1.0966060777809372e-05 0 1.3473425676685356e-05 -1.2537584358648886e-05 0 1.513611572341745e-05 -1.0966060777809372e-05 0 1.5328417947085479e-05 -1.2579620540005498e-05 0 1.1622809413093306e-05 -1.0877362097130825e-05 0 1.3473425676685356e-05 -1.2537584358648886e-05 0 1.1540740586843022e-05 -1.228340503711199e-05 0 1.7511939615278642e-05 4.7944078947878827e-05 0 1.9195964415484838e-05 5.5662492822602643e-05 0 9.7172008236508136e-06 5.123239173355945e-05 0 1.7511939615278642e-05 4.7944078947878827e-05 0 2.592091078142507e-05 5.1992579729618158e-05 0 1.9195964415484838e-05 5.5662492822602643e-05 0 2.3709517285780568e-05 4.0253103042041529e-05 0 1.7511939615278642e-05 4.7944078947878827e-05 0 2.592091078142507e-05 5.1992579729618158e-05 0 2.0662208884067805e-05 2.0904990362647361e-05 0 2.1392157664690058e-05 2.5463289044491873e-05 0 2.592091078142507e-05 5.1992579729618158e-05 0 1.9195964415484838e-05 5.5662492822602643e-05 0 2.7699751526651074e-05 6.3832734201460311e-05 0 1.9195964415484838e-05 5.5662492822602643e-05 0 2.7699751526651074e-05 6.3832734201460311e-05 0 1.536410147717409e-05 6.2182425485894315e-05 0 2.7699751526651074e-05 6.3832734201460311e-05 0 1.929464765759998e-05 7.031495324101335e-05 0 1.536410147717409e-05 6.2182425485894315e-05 0 2.7699751526651074e-05 6.3832734201460311e-05 0 2.9288257470936662e-05 7.5688295888479907e-05 0 1.929464765759998e-05 7.031495324101335e-05 0 1.5328417947085479e-05 -1.2579620540005498e-05 0 1.5659084192250695e-05 -1.3705357360992608e-05 0 1.4442381764143042e-05 -1.3921000733136968e-05 0 2.1392157664690058e-05 2.5463289044491873e-05 0 2.2339146989591208e-05 3.0814951637213482e-05 0 2.9288257470936662e-05 7.5688295888479907e-05 0 1.929464765759998e-05 7.031495324101335e-05 0 1.7147059816352121e-05 7.8430017706842089e-05 0 1.3473425676685356e-05 -1.2537584358648886e-05 0 1.2876699751465458e-05 -1.3738017143930702e-05 0 1.4442381764143042e-05 -1.3921000733136968e-05 0 1.3473425676685356e-05 -1.2537584358648886e-05 0 1.2876699751465458e-05 -1.3738017143930702e-05 0 1.1540740586843022e-05 -1.228340503711199e-05 0 1.3473425676685356e-05 -1.2537584358648886e-05 0 1.5328417947085479e-05 -1.2579620540005498e-05 0 1.4442381764143042e-05 -1.3921000733136968e-05 0 1.2876699751465458e-05 -1.3738017143930702e-05 0 1.4442381764143042e-05 -1.3921000733136968e-05 0 1.3199793849631169e-05 -1.4734516680200248e-05 0 1.4442381764143042e-05 -1.3921000733136968e-05 0 1.3199793849631169e-05 -1.4734516680200248e-05 0 1.4961085070488087e-05 -1.509826819674402e-05 0 1.2876699751465458e-05 -1.3738017143930702e-05 0 1.3199793849631169e-05 -1.4734516680200248e-05 0 1.0901426400619597e-05 -1.349846043600628e-05 0 1.3199793849631169e-05 -1.4734516680200248e-05 0 1.0901426400619597e-05 -1.349846043600628e-05 0 1.2202440628696139e-05 -1.5180084816005585e-05 0 1.2876699751465458e-05 -1.3738017143930702e-05 0 1.0901426400619597e-05 -1.349846043600628e-05 0 1.1540740586843022e-05 -1.228340503711199e-05 0 1.0901426400619597e-05 -1.349846043600628e-05 0 8.5187031535650186e-06 -1.139343432910293e-05 0 9.8842455291027701e-06 -1.1732122525341632e-05 0 1.0901426400619597e-05 -1.349846043600628e-05 0 1.1540740586843022e-05 -1.228340503711199e-05 0 9.8842455291027701e-06 -1.1732122525341632e-05 0 1.0901426400619597e-05 -1.349846043600628e-05 0 8.7934107762922252e-06 -1.283659442758436e-05 0 1.0278536101089847e-05 -1.4787460334501391e-05 0 8.7934107762922252e-06 -1.283659442758436e-05 0 1.0278536101089847e-05 -1.4787460334501391e-05 0 8.103616965058127e-06 -1.3403369214819124e-05 0 8.7934107762922252e-06 -1.283659442758436e-05 0 8.5187031535650186e-06 -1.139343432910293e-05 0 7.3208623445957287e-06 -1.1712292060970773e-05 0 1.0901426400619597e-05 -1.349846043600628e-05 0 8.7934107762922252e-06 -1.283659442758436e-05 0 8.5187031535650186e-06 -1.139343432910293e-05 0 7.704252395310343e-06 -8.7641990903808452e-06 0 8.5187031535650186e-06 -1.139343432910293e-05 0 9.8842455291027701e-06 -1.1732122525341632e-05 0 8.5187031535650186e-06 -1.139343432910293e-05 0 7.1664864909303156e-06 -1.0105565206617839e-05 0 7.3208623445957287e-06 -1.1712292060970773e-05 0 7.704252395310343e-06 -8.7641990903808452e-06 0 8.5187031535650186e-06 -1.139343432910293e-05 0 7.1664864909303156e-06 -1.0105565206617839e-05 0 7.704252395310343e-06 -8.7641990903808452e-06 0 6.2635136278731841e-06 -8.2576945235958244e-06 0 7.1664864909303156e-06 -1.0105565206617839e-05 0 7.704252395310343e-06 -8.7641990903808452e-06 0 9.8148574147413009e-06 -9.922600228799329e-06 0 9.8842455291027701e-06 -1.1732122525341632e-05 0 1.1622809413093306e-05 -1.0877362097130825e-05 0 9.8148574147413009e-06 -9.922600228799329e-06 0 1.1540740586843022e-05 -1.228340503711199e-05 0 9.8148574147413009e-06 -9.922600228799329e-06 0 1.1540740586843022e-05 -1.228340503711199e-05 0 9.8842455291027701e-06 -1.1732122525341632e-05 0 -3.3436363904699848e-05 4.0561881286946455e-05 0 -2.4481727634468694e-05 4.4425260102744135e-05 0 -2.4773001115695682e-05 3.4337374395427109e-05 0 -3.3436363904699848e-05 4.0561881286946455e-05 0 -2.4481727634468694e-05 4.4425260102744135e-05 0 -3.576516503980144e-05 5.1769264520146549e-05 0 -2.4481727634468694e-05 4.4425260102744135e-05 0 -2.4773001115695682e-05 3.4337374395427109e-05 0 -1.7515734906522845e-05 3.4435785318407815e-05 0 -3.3436363904699848e-05 4.0561881286946455e-05 0 -2.4773001115695682e-05 3.4337374395427109e-05 0 -3.024027493128842e-05 3.0233857826924606e-05 0 -3.024027493128842e-05 3.0233857826924606e-05 0 -2.679627710323296e-05 2.1390930687570847e-05 0 -1.8632049570253593e-05 2.3633678762428559e-05 0 -2.4773001115695682e-05 3.4337374395427109e-05 0 -1.8632049570253593e-05 2.3633678762428559e-05 0 -1.7515734906522845e-05 3.4435785318407815e-05 0 -2.4773001115695682e-05 3.4337374395427109e-05 0 -3.024027493128842e-05 3.0233857826924606e-05 0 -1.8632049570253593e-05 2.3633678762428559e-05 0 -1.8632049570253593e-05 2.3633678762428559e-05 0 -1.2107712466048026e-05 2.8099015975881049e-05 0 -1.7515734906522845e-05 3.4435785318407815e-05 0 -1.8632049570253593e-05 2.3633678762428559e-05 0 -9.0346475208268781e-06 1.9021443906888125e-05 0 -1.2107712466048026e-05 2.8099015975881049e-05 0 -1.2107712466048026e-05 2.8099015975881049e-05 0 -1.1430803118741257e-05 3.5426313954944584e-05 0 -5.7011612558107066e-06 2.9696158687780552e-05 0 -1.2107712466048026e-05 2.8099015975881049e-05 0 -1.1430803118741257e-05 3.5426313954944584e-05 0 -1.7515734906522845e-05 3.4435785318407815e-05 0 -1.1430803118741257e-05 3.5426313954944584e-05 0 -1.7515734906522845e-05 3.4435785318407815e-05 0 -1.5024185660644785e-05 4.3632962085977534e-05 0 -2.4481727634468694e-05 4.4425260102744135e-05 0 -1.7515734906522845e-05 3.4435785318407815e-05 0 -1.5024185660644785e-05 4.3632962085977534e-05 0 -1.1430803118741257e-05 3.5426313954944584e-05 0 -1.5024185660644785e-05 4.3632962085977534e-05 0 -6.6704238637201935e-06 4.2301649178205319e-05 0 -6.6704238637201935e-06 4.2301649178205319e-05 0 1.6002878995064992e-06 3.9894002077721094e-05 0 -7.1155126579021887e-07 5.1246758152984407e-05 0 -6.6704238637201935e-06 4.2301649178205319e-05 0 -5.7011612558107066e-06 2.9696158687780552e-05 0 1.6002878995064992e-06 3.9894002077721094e-05 0 -5.7011612558107066e-06 2.9696158687780552e-05 0 2.8737294270546258e-06 2.6594456235314698e-05 0 1.6002878995064992e-06 3.9894002077721094e-05 0 -1.1430803118741257e-05 3.5426313954944584e-05 0 -6.6704238637201935e-06 4.2301649178205319e-05 0 -5.7011612558107066e-06 2.9696158687780552e-05 0 -9.0346475208268781e-06 1.9021443906888125e-05 0 -1.2107712466048026e-05 2.8099015975881049e-05 0 -5.7011612558107066e-06 2.9696158687780552e-05 0 -9.0346475208268781e-06 1.9021443906888125e-05 0 -5.7011612558107066e-06 2.9696158687780552e-05 0 -2.0648801422524909e-06 1.8534398472029281e-05 0 -5.7011612558107066e-06 2.9696158687780552e-05 0 -2.0648801422524909e-06 1.8534398472029281e-05 0 2.8737294270546258e-06 2.6594456235314698e-05 0 -2.0648801422524909e-06 1.8534398472029281e-05 0 2.8737294270546258e-06 2.6594456235314698e-05 0 2.9681038870011454e-06 1.7450160935081173e-05 0 2.8737294270546258e-06 2.6594456235314698e-05 0 2.9681038870011454e-06 1.7450160935081173e-05 0 7.5027366952553304e-06 1.5800622378148016e-05 0 1.109786628051464e-05 2.778187350597868e-05 0 2.8737294270546258e-06 2.6594456235314698e-05 0 7.5027366952553304e-06 1.5800622378148016e-05 0 1.109786628051464e-05 2.778187350597868e-05 0 2.8737294270546258e-06 2.6594456235314698e-05 0 1.0349334240141448e-05 3.8666771615923621e-05 0 2.8737294270546258e-06 2.6594456235314698e-05 0 1.6002878995064992e-06 3.9894002077721094e-05 0 1.0349334240141448e-05 3.8666771615923621e-05 0 1.6002878995064992e-06 3.9894002077721094e-05 0 1.0349334240141448e-05 3.8666771615923621e-05 0 9.7172008236508136e-06 5.123239173355945e-05 0 1.7511939615278642e-05 4.7944078947878827e-05 0 1.0349334240141448e-05 3.8666771615923621e-05 0 9.7172008236508136e-06 5.123239173355945e-05 0 1.6002878995064992e-06 3.9894002077721094e-05 0 9.7172008236508136e-06 5.123239173355945e-05 0 -7.1155126579021887e-07 5.1246758152984407e-05 0 9.7172008236508136e-06 5.123239173355945e-05 0 5.5058000737774098e-06 5.8938445480805596e-05 0 -7.1155126579021887e-07 5.1246758152984407e-05 0 9.7172008236508136e-06 5.123239173355945e-05 0 5.5058000737774098e-06 5.8938445480805596e-05 0 1.536410147717409e-05 6.2182425485894315e-05 0 1.9195964415484838e-05 5.5662492822602643e-05 0 9.7172008236508136e-06 5.123239173355945e-05 0 1.536410147717409e-05 6.2182425485894315e-05 0 1.929464765759998e-05 7.031495324101335e-05 0 1.536410147717409e-05 6.2182425485894315e-05 0 7.2386504871245345e-06 7.0001936118337397e-05 0 1.929464765759998e-05 7.031495324101335e-05 0 7.2386504871245345e-06 7.0001936118337397e-05 0 1.7147059816352121e-05 7.8430017706842089e-05 0 5.5058000737774098e-06 5.8938445480805596e-05 0 1.536410147717409e-05 6.2182425485894315e-05 0 7.2386504871245345e-06 7.0001936118337397e-05 0 5.5058000737774098e-06 5.8938445480805596e-05 0 7.2386504871245345e-06 7.0001936118337397e-05 0 -3.8074725037101036e-06 6.0127105569219757e-05 0 7.2386504871245345e-06 7.0001936118337397e-05 0 -5.4062371129125687e-06 7.0502448623475917e-05 0 -3.8074725037101036e-06 6.0127105569219757e-05 0 7.2386504871245345e-06 7.0001936118337397e-05 0 -5.4062371129125687e-06 7.0502448623475917e-05 0 -2.5946753412408544e-06 8.0621341065024543e-05 0 -5.4062371129125687e-06 7.0502448623475917e-05 0 -3.8074725037101036e-06 6.0127105569219757e-05 0 -1.3948952611935787e-05 6.9405530124181807e-05 0 -3.8074725037101036e-06 6.0127105569219757e-05 0 -1.1018443820833336e-05 5.4391760972075597e-05 0 -1.3948952611935787e-05 6.9405530124181807e-05 0 -3.8074725037101036e-06 6.0127105569219757e-05 0 -7.1155126579021887e-07 5.1246758152984407e-05 0 -1.1018443820833336e-05 5.4391760972075597e-05 0 5.5058000737774098e-06 5.8938445480805596e-05 0 -3.8074725037101036e-06 6.0127105569219757e-05 0 -7.1155126579021887e-07 5.1246758152984407e-05 0 -6.6704238637201935e-06 4.2301649178205319e-05 0 -7.1155126579021887e-07 5.1246758152984407e-05 0 -1.1018443820833336e-05 5.4391760972075597e-05 0 -1.5024185660644785e-05 4.3632962085977534e-05 0 -6.6704238637201935e-06 4.2301649178205319e-05 0 -1.1018443820833336e-05 5.4391760972075597e-05 0 -1.5024185660644785e-05 4.3632962085977534e-05 0 -1.9360063581056196e-05 5.2288074689643316e-05 0 -1.1018443820833336e-05 5.4391760972075597e-05 0 -2.4481727634468694e-05 4.4425260102744135e-05 0 -1.5024185660644785e-05 4.3632962085977534e-05 0 -1.9360063581056196e-05 5.2288074689643316e-05 0 -1.9360063581056196e-05 5.2288074689643316e-05 0 -1.9580512333663753e-05 6.0704976650691994e-05 0 -2.7614694712441203e-05 5.8519239469312794e-05 0 -1.9360063581056196e-05 5.2288074689643316e-05 0 -1.1018443820833336e-05 5.4391760972075597e-05 0 -1.9580512333663753e-05 6.0704976650691994e-05 0 -1.1018443820833336e-05 5.4391760972075597e-05 0 -1.3948952611935787e-05 6.9405530124181807e-05 0 -1.9580512333663753e-05 6.0704976650691994e-05 0 -5.4062371129125687e-06 7.0502448623475917e-05 0 -1.3948952611935787e-05 6.9405530124181807e-05 0 -1.2808026160952245e-05 8.0412229986881551e-05 0 -1.3948952611935787e-05 6.9405530124181807e-05 0 -2.6354342404713116e-05 6.9485165957868626e-05 0 -2.0776092780506387e-05 7.7467850837694945e-05 0 -1.3948952611935787e-05 6.9405530124181807e-05 0 -1.9580512333663753e-05 6.0704976650691994e-05 0 -2.6354342404713116e-05 6.9485165957868626e-05 0 -1.9580512333663753e-05 6.0704976650691994e-05 0 -2.6354342404713116e-05 6.9485165957868626e-05 0 -2.7614694712441203e-05 5.8519239469312794e-05 0 -2.6354342404713116e-05 6.9485165957868626e-05 0 -3.7529852267172945e-05 6.3720249160569367e-05 0 -3.8691512302314983e-05 7.5978572934686669e-05 0 -2.6354342404713116e-05 6.9485165957868626e-05 0 -3.8691512302314983e-05 7.5978572934686669e-05 0 -2.9208707267157996e-05 8.095047557840488e-05 0 -2.6354342404713116e-05 6.9485165957868626e-05 0 -3.7529852267172945e-05 6.3720249160569367e-05 0 -2.7614694712441203e-05 5.8519239469312794e-05 0 -3.7529852267172945e-05 6.3720249160569367e-05 0 -2.7614694712441203e-05 5.8519239469312794e-05 0 -3.576516503980144e-05 5.1769264520146549e-05 0 -2.4481727634468694e-05 4.4425260102744135e-05 0 -1.9360063581056196e-05 5.2288074689643316e-05 0 -2.7614694712441203e-05 5.8519239469312794e-05 0 -2.4481727634468694e-05 4.4425260102744135e-05 0 -2.7614694712441203e-05 5.8519239469312794e-05 0 -3.576516503980144e-05 5.1769264520146549e-05 0 -4.0026808755579528e-05 0.00010109051680469107 0 -2.4110323215666198e-05 0.00010140610328480962 0 -2.8777753235519055e-05 0.00011351652830071944 0 -4.0026808755579528e-05 0.00010109051680469107 0 -3.0631054308973509e-05 9.2074237859928625e-05 0 -2.4110323215666198e-05 0.00010140610328480962 0 -3.0631054308973509e-05 9.2074237859928625e-05 0 -2.1718597196274513e-05 8.7435947234752365e-05 0 -2.4110323215666198e-05 0.00010140610328480962 0 -4.0026808755579528e-05 0.00010109051680469107 0 -3.0631054308973509e-05 9.2074237859928625e-05 0 -3.9515295456535441e-05 8.8455889743510252e-05 0 -3.0631054308973509e-05 9.2074237859928625e-05 0 -3.9515295456535441e-05 8.8455889743510252e-05 0 -2.9208707267157996e-05 8.095047557840488e-05 0 -3.9515295456535441e-05 8.8455889743510252e-05 0 -3.8691512302314983e-05 7.5978572934686669e-05 0 -2.9208707267157996e-05 8.095047557840488e-05 0 -2.6354342404713116e-05 6.9485165957868626e-05 0 -2.9208707267157996e-05 8.095047557840488e-05 0 -2.0776092780506387e-05 7.7467850837694945e-05 0 -3.0631054308973509e-05 9.2074237859928625e-05 0 -2.9208707267157996e-05 8.095047557840488e-05 0 -2.1718597196274513e-05 8.7435947234752365e-05 0 -2.1718597196274513e-05 8.7435947234752365e-05 0 -2.0776092780506387e-05 7.7467850837694945e-05 0 -1.2808026160952245e-05 8.0412229986881551e-05 0 -2.9208707267157996e-05 8.095047557840488e-05 0 -2.1718597196274513e-05 8.7435947234752365e-05 0 -2.0776092780506387e-05 7.7467850837694945e-05 0 -1.3948952611935787e-05 6.9405530124181807e-05 0 -2.0776092780506387e-05 7.7467850837694945e-05 0 -1.2808026160952245e-05 8.0412229986881551e-05 0 -2.1718597196274513e-05 8.7435947234752365e-05 0 -1.2808026160952245e-05 8.0412229986881551e-05 0 -1.2669374757744988e-05 9.1192324321187301e-05 0 -1.2669374757744988e-05 9.1192324321187301e-05 0 -2.4110323215666198e-05 0.00010140610328480962 0 -1.1894835593810119e-05 0.00010252274951421255 0 -2.1718597196274513e-05 8.7435947234752365e-05 0 -1.2669374757744988e-05 9.1192324321187301e-05 0 -2.4110323215666198e-05 0.00010140610328480962 0 -2.4110323215666198e-05 0.00010140610328480962 0 -1.1894835593810119e-05 0.00010252274951421255 0 -1.6524890069831257e-05 0.0001148087227548221 0 -1.1894835593810119e-05 0.00010252274951421255 0 -3.6281347603503095e-06 9.524034558120012e-05 0 -2.6029874766424425e-06 0.00010892583981185152 0 -3.6281347603503095e-06 9.524034558120012e-05 0 6.4255805912615658e-06 0.00010045940527682716 0 -2.6029874766424425e-06 0.00010892583981185152 0 -3.6281347603503095e-06 9.524034558120012e-05 0 3.9908887572500644e-06 8.8648041529356786e-05 0 6.4255805912615658e-06 0.00010045940527682716 0 -1.2669374757744988e-05 9.1192324321187301e-05 0 -1.1894835593810119e-05 0.00010252274951421255 0 -3.6281347603503095e-06 9.524034558120012e-05 0 -1.2808026160952245e-05 8.0412229986881551e-05 0 -1.2669374757744988e-05 9.1192324321187301e-05 0 -2.5946753412408544e-06 8.0621341065024543e-05 0 -1.2669374757744988e-05 9.1192324321187301e-05 0 -3.6281347603503095e-06 9.524034558120012e-05 0 -2.5946753412408544e-06 8.0621341065024543e-05 0 -5.4062371129125687e-06 7.0502448623475917e-05 0 -1.2808026160952245e-05 8.0412229986881551e-05 0 -2.5946753412408544e-06 8.0621341065024543e-05 0 -2.5946753412408544e-06 8.0621341065024543e-05 0 3.9908887572500644e-06 8.8648041529356786e-05 0 7.8283118889080583e-06 8.1413733531568252e-05 0 -3.6281347603503095e-06 9.524034558120012e-05 0 -2.5946753412408544e-06 8.0621341065024543e-05 0 3.9908887572500644e-06 8.8648041529356786e-05 0 3.9908887572500644e-06 8.8648041529356786e-05 0 7.8283118889080583e-06 8.1413733531568252e-05 0 1.3463391566959587e-05 8.9136444680543278e-05 0 7.2386504871245345e-06 7.0001936118337397e-05 0 7.8283118889080583e-06 8.1413733531568252e-05 0 1.7147059816352121e-05 7.8430017706842089e-05 0 7.2386504871245345e-06 7.0001936118337397e-05 0 -2.5946753412408544e-06 8.0621341065024543e-05 0 7.8283118889080583e-06 8.1413733531568252e-05 0 7.8283118889080583e-06 8.1413733531568252e-05 0 1.7147059816352121e-05 7.8430017706842089e-05 0 1.3463391566959587e-05 8.9136444680543278e-05 0 1.7147059816352121e-05 7.8430017706842089e-05 0 1.3463391566959587e-05 8.9136444680543278e-05 0 2.2749658729384965e-05 8.4979589423773191e-05 0 1.3463391566959587e-05 8.9136444680543278e-05 0 6.4255805912615658e-06 0.00010045940527682716 0 1.7953041611592887e-05 0.00010233751109106286 0 1.3463391566959587e-05 8.9136444680543278e-05 0 1.7953041611592887e-05 0.00010233751109106286 0 2.2861497663181712e-05 9.3082340904802313e-05 0 3.9908887572500644e-06 8.8648041529356786e-05 0 1.3463391566959587e-05 8.9136444680543278e-05 0 6.4255805912615658e-06 0.00010045940527682716 0 6.4255805912615658e-06 0.00010045940527682716 0 1.7953041611592887e-05 0.00010233751109106286 0 1.0175014312600647e-05 0.00011459376241896073 0 1.7953041611592887e-05 0.00010233751109106286 0 1.0175014312600647e-05 0.00011459376241896073 0 2.2616744427850453e-05 0.00011350971027791767 0 1.0175014312600647e-05 0.00011459376241896073 0 2.1045788030847366e-05 0.00012488531731357516 0 8.6862741549108291e-06 0.00012772178100813205 0 1.0175014312600647e-05 0.00011459376241896073 0 2.1045788030847366e-05 0.00012488531731357516 0 2.2616744427850453e-05 0.00011350971027791767 0 2.1045788030847366e-05 0.00012488531731357516 0 1.6666343970137806e-05 0.0001330031063323079 0 8.6862741549108291e-06 0.00012772178100813205 0 2.1045788030847366e-05 0.00012488531731357516 0 1.6666343970137806e-05 0.0001330031063323079 0 2.7792985415816665e-05 0.00013173023982174605 0 1.6666343970137806e-05 0.0001330031063323079 0 2.7792985415816665e-05 0.00013173023982174605 0 2.4126451480861654e-05 0.00013979922287843052 0 1.6666343970137806e-05 0.0001330031063323079 0 1.029373553487312e-05 0.00013987666207115597 0 2.4126451480861654e-05 0.00013979922287843052 0 1.6666343970137806e-05 0.0001330031063323079 0 1.029373553487312e-05 0.00013987666207115597 0 8.6862741549108291e-06 0.00012772178100813205 0 -2.7391910443287116e-06 0.00013958611688750917 0 -3.0575352956673635e-06 0.00012326798614763337 0 -1.4402292964543013e-05 0.00012759493962721054 0 8.6862741549108291e-06 0.00012772178100813205 0 -2.7391910443287116e-06 0.00013958611688750917 0 -3.0575352956673635e-06 0.00012326798614763337 0 1.029373553487312e-05 0.00013987666207115597 0 8.6862741549108291e-06 0.00012772178100813205 0 -2.7391910443287116e-06 0.00013958611688750917 0 -3.0575352956673635e-06 0.00012326798614763337 0 -2.6029874766424425e-06 0.00010892583981185152 0 -1.6524890069831257e-05 0.0001148087227548221 0 1.0175014312600647e-05 0.00011459376241896073 0 8.6862741549108291e-06 0.00012772178100813205 0 -3.0575352956673635e-06 0.00012326798614763337 0 1.0175014312600647e-05 0.00011459376241896073 0 -3.0575352956673635e-06 0.00012326798614763337 0 -2.6029874766424425e-06 0.00010892583981185152 0 6.4255805912615658e-06 0.00010045940527682716 0 1.0175014312600647e-05 0.00011459376241896073 0 -2.6029874766424425e-06 0.00010892583981185152 0 -1.1894835593810119e-05 0.00010252274951421255 0 -2.6029874766424425e-06 0.00010892583981185152 0 -1.6524890069831257e-05 0.0001148087227548221 0 -2.4110323215666198e-05 0.00010140610328480962 0 -1.6524890069831257e-05 0.0001148087227548221 0 -2.8777753235519055e-05 0.00011351652830071944 0 -1.6524890069831257e-05 0.0001148087227548221 0 -1.4402292964543013e-05 0.00012759493962721054 0 -2.6376081067812219e-05 0.0001250016417539485 0 -1.6524890069831257e-05 0.0001148087227548221 0 -2.6376081067812219e-05 0.0001250016417539485 0 -2.8777753235519055e-05 0.00011351652830071944 0 -3.0575352956673635e-06 0.00012326798614763337 0 -1.6524890069831257e-05 0.0001148087227548221 0 -1.4402292964543013e-05 0.00012759493962721054 0 -2.7391910443287116e-06 0.00013958611688750917 0 -1.4402292964543013e-05 0.00012759493962721054 0 -1.5309245299202763e-05 0.00013934697754000895 0 -1.5309245299202763e-05 0.00013934697754000895 0 -2.1630615594210462e-05 0.00013275256911968975 0 -2.7876719145494059e-05 0.00013920976008762899 0 -1.4402292964543013e-05 0.00012759493962721054 0 -1.5309245299202763e-05 0.00013934697754000895 0 -2.1630615594210462e-05 0.00013275256911968975 0 -1.4402292964543013e-05 0.00012759493962721054 0 -2.1630615594210462e-05 0.00013275256911968975 0 -2.6376081067812219e-05 0.0001250016417539485 0 -2.1630615594210462e-05 0.00013275256911968975 0 -2.6376081067812219e-05 0.0001250016417539485 0 -3.2064467583728569e-05 0.00013204180704773176 0 -2.1630615594210462e-05 0.00013275256911968975 0 -3.2064467583728569e-05 0.00013204180704773176 0 -2.7876719145494059e-05 0.00013920976008762899 0 -3.2064467583728569e-05 0.00013204180704773176 0 -2.7876719145494059e-05 0.00013920976008762899 0 -4.045469526693848e-05 0.00013920030291737797 0 -3.2064467583728569e-05 0.00013204180704773176 0 -4.045469526693848e-05 0.00013920030291737797 0 -4.0442327866559311e-05 0.00012656019090664589 0 -2.6376081067812219e-05 0.0001250016417539485 0 -3.2064467583728569e-05 0.00013204180704773176 0 -4.0442327866559311e-05 0.00012656019090664589 0 -4.0442327866559311e-05 0.00012656019090664589 0 -2.8777753235519055e-05 0.00011351652830071944 0 -4.031438676750336e-05 0.00011384662251731306 0 -2.6376081067812219e-05 0.0001250016417539485 0 -4.0442327866559311e-05 0.00012656019090664589 0 -2.8777753235519055e-05 0.00011351652830071944 0 -4.0026808755579528e-05 0.00010109051680469107 0 -2.8777753235519055e-05 0.00011351652830071944 0 -4.031438676750336e-05 0.00011384662251731306 0 1.278824520127498e-05 -1.6210166883599942e-05 0 1.243068282461153e-05 -1.7334344644186522e-05 0 1.1141518985805341e-05 -1.6256078570576262e-05 0 1.278824520127498e-05 -1.6210166883599942e-05 0 1.4351316164980762e-05 -1.7505267026185125e-05 0 1.4666660599610671e-05 -1.667374706191527e-05 0 1.278824520127498e-05 -1.6210166883599942e-05 0 1.3936022551014223e-05 -1.5870070877538805e-05 0 1.4666660599610671e-05 -1.667374706191527e-05 0 1.278824520127498e-05 -1.6210166883599942e-05 0 1.4351316164980762e-05 -1.7505267026185125e-05 0 1.243068282461153e-05 -1.7334344644186522e-05 0 1.243068282461153e-05 -1.7334344644186522e-05 0 1.0321866513486572e-05 -1.7001801088524413e-05 0 1.1141518985805341e-05 -1.6256078570576262e-05 0 1.0321866513486572e-05 -1.7001801088524413e-05 0 9.5883524890286647e-06 -1.5684740727696273e-05 0 1.1141518985805341e-05 -1.6256078570576262e-05 0 1.0321866513486572e-05 -1.7001801088524413e-05 0 9.5883524890286647e-06 -1.5684740727696273e-05 0 9.0720715503088336e-06 -1.6295357772976605e-05 0 9.5883524890286647e-06 -1.5684740727696273e-05 0 1.1141518985805341e-05 -1.6256078570576262e-05 0 1.0278536101089847e-05 -1.4787460334501391e-05 0 9.5883524890286647e-06 -1.5684740727696273e-05 0 1.0278536101089847e-05 -1.4787460334501391e-05 0 8.806574523516733e-06 -1.4680422507299555e-05 0 1.0278536101089847e-05 -1.4787460334501391e-05 0 8.806574523516733e-06 -1.4680422507299555e-05 0 8.103616965058127e-06 -1.3403369214819124e-05 0 1.0901426400619597e-05 -1.349846043600628e-05 0 1.0278536101089847e-05 -1.4787460334501391e-05 0 1.2202440628696139e-05 -1.5180084816005585e-05 0 1.278824520127498e-05 -1.6210166883599942e-05 0 1.0278536101089847e-05 -1.4787460334501391e-05 0 1.2202440628696139e-05 -1.5180084816005585e-05 0 1.278824520127498e-05 -1.6210166883599942e-05 0 1.1141518985805341e-05 -1.6256078570576262e-05 0 1.0278536101089847e-05 -1.4787460334501391e-05 0 1.278824520127498e-05 -1.6210166883599942e-05 0 1.2202440628696139e-05 -1.5180084816005585e-05 0 1.3936022551014223e-05 -1.5870070877538805e-05 0 1.3199793849631169e-05 -1.4734516680200248e-05 0 1.2202440628696139e-05 -1.5180084816005585e-05 0 1.3936022551014223e-05 -1.5870070877538805e-05 0 1.3199793849631169e-05 -1.4734516680200248e-05 0 1.4961085070488087e-05 -1.509826819674402e-05 0 1.3936022551014223e-05 -1.5870070877538805e-05 0 1.5659084192250695e-05 -1.3705357360992608e-05 0 1.4442381764143042e-05 -1.3921000733136968e-05 0 1.4961085070488087e-05 -1.509826819674402e-05 0 1.4961085070488087e-05 -1.509826819674402e-05 0 1.6362918719227105e-05 -1.4602092015177186e-05 0 1.58602241769302e-05 -1.6032941712477111e-05 0 1.4961085070488087e-05 -1.509826819674402e-05 0 1.3936022551014223e-05 -1.5870070877538805e-05 0 1.58602241769302e-05 -1.6032941712477111e-05 0 2.9288257470936662e-05 7.5688295888479907e-05 0 1.7147059816352121e-05 7.8430017706842089e-05 0 2.2749658729384965e-05 8.4979589423773191e-05 0 2.9288257470936662e-05 7.5688295888479907e-05 0 3.0747094213185737e-05 8.7549192704720438e-05 0 2.2749658729384965e-05 8.4979589423773191e-05 0 1.5659084192250695e-05 -1.3705357360992608e-05 0 1.4961085070488087e-05 -1.509826819674402e-05 0 1.6362918719227105e-05 -1.4602092015177186e-05 0 2.2339146989591208e-05 3.0814951637213482e-05 0 2.3439700983042737e-05 3.6927957110645466e-05 0 1.3463391566959587e-05 8.9136444680543278e-05 0 2.2749658729384965e-05 8.4979589423773191e-05 0 2.2861497663181712e-05 9.3082340904802313e-05 0 3.0747094213185737e-05 8.7549192704720438e-05 0 2.2749658729384965e-05 8.4979589423773191e-05 0 2.2861497663181712e-05 9.3082340904802313e-05 0 1.7953041611592887e-05 0.00010233751109106286 0 2.2861497663181712e-05 9.3082340904802313e-05 0 3.2232212870253358e-05 9.9856499797848833e-05 0 2.3439700983042737e-05 3.6927957110645466e-05 0 2.4369369018708877e-05 4.1325586093632409e-05 0 1.6362918719227105e-05 -1.4602092015177186e-05 0 1.7420013406172083e-05 -1.5529575100643126e-05 0 1.58602241769302e-05 -1.6032941712477111e-05 0 3.0747094213185737e-05 8.7549192704720438e-05 0 2.2861497663181712e-05 9.3082340904802313e-05 0 3.2232212870253358e-05 9.9856499797848833e-05 0 2.4369369018708877e-05 4.1325586093632409e-05 0 2.699881679636755e-05 4.8896446788454833e-05 0 1.7953041611592887e-05 0.00010233751109106286 0 3.2232212870253358e-05 9.9856499797848833e-05 0 2.2616744427850453e-05 0.00011350971027791767 0 1.3936022551014223e-05 -1.5870070877538805e-05 0 1.4666660599610671e-05 -1.667374706191527e-05 0 1.58602241769302e-05 -1.6032941712477111e-05 0 1.7420013406172083e-05 -1.5529575100643126e-05 0 1.58602241769302e-05 -1.6032941712477111e-05 0 1.6553372730154239e-05 -1.7392102132182806e-05 0 1.4351316164980762e-05 -1.7505267026185125e-05 0 1.4666660599610671e-05 -1.667374706191527e-05 0 1.6553372730154239e-05 -1.7392102132182806e-05 0 1.4666660599610671e-05 -1.667374706191527e-05 0 1.58602241769302e-05 -1.6032941712477111e-05 0 1.6553372730154239e-05 -1.7392102132182806e-05 0 1.6553372730154239e-05 -1.7392102132182806e-05 0 1.8197831765968393e-05 -1.8473980840585392e-05 0 1.6048949383865698e-05 -1.8812491030977308e-05 0 1.4351316164980762e-05 -1.7505267026185125e-05 0 1.6553372730154239e-05 -1.7392102132182806e-05 0 1.6048949383865698e-05 -1.8812491030977308e-05 0 1.7420013406172083e-05 -1.5529575100643126e-05 0 1.6553372730154239e-05 -1.7392102132182806e-05 0 1.9007405233969471e-05 -1.6638316866979943e-05 0 1.6553372730154239e-05 -1.7392102132182806e-05 0 1.8197831765968393e-05 -1.8473980840585392e-05 0 1.9007405233969471e-05 -1.6638316866979943e-05 0 1.8197831765968393e-05 -1.8473980840585392e-05 0 1.6048949383865698e-05 -1.8812491030977308e-05 0 1.8728062772770317e-05 -2.0348035238628986e-05 0 3.2232212870253358e-05 9.9856499797848833e-05 0 2.2616744427850453e-05 0.00011350971027791767 0 3.375898466786188e-05 0.00011199286363175982 0 2.699881679636755e-05 4.8896446788454833e-05 0 2.4748269392835954e-05 5.2086744727241392e-05 0 1.8197831765968393e-05 -1.8473980840585392e-05 0 1.9007405233969471e-05 -1.6638316866979943e-05 0 2.1187275333015199e-05 -1.8502087857360306e-05 0 2.2616744427850453e-05 0.00011350971027791767 0 3.375898466786188e-05 0.00011199286363175982 0 3.5632238081737071e-05 0.00012482019303978689 0 2.1045788030847366e-05 0.00012488531731357516 0 2.2616744427850453e-05 0.00011350971027791767 0 3.5632238081737071e-05 0.00012482019303978689 0 2.1045788030847366e-05 0.00012488531731357516 0 3.5632238081737071e-05 0.00012482019303978689 0 2.7792985415816665e-05 0.00013173023982174605 0 2.4748269392835954e-05 5.2086744727241392e-05 0 4.3287244261159822e-05 5.8941681457076109e-05 0 3.5632238081737071e-05 0.00012482019303978689 0 3.8235350500570579e-05 0.00013813906510389665 0 2.7792985415816665e-05 0.00013173023982174605 0 3.8235350500570579e-05 0.00013813906510389665 0 2.7792985415816665e-05 0.00013173023982174605 0 2.4126451480861654e-05 0.00013979922287843052 0 1.6048949383865698e-05 -1.8812491030977308e-05 0 1.8728062772770317e-05 -2.0348035238628986e-05 0 1.4997371158027863e-05 -2.0478073817490257e-05 0 1.8197831765968393e-05 -1.8473980840585392e-05 0 2.1187275333015199e-05 -1.8502087857360306e-05 0 1.8728062772770317e-05 -2.0348035238628986e-05 0 2.1187275333015199e-05 -1.8502087857360306e-05 0 2.3743516582589523e-05 -2.1745602113836149e-05 0 1.8728062772770317e-05 -2.0348035238628986e-05 0 2.3743516582589523e-05 -2.1745602113836149e-05 0 1.8728062772770317e-05 -2.0348035238628986e-05 0 1.9463064878311531e-05 -2.3109106699601938e-05 0 1.8728062772770317e-05 -2.0348035238628986e-05 0 1.9463064878311531e-05 -2.3109106699601938e-05 0 1.4997371158027863e-05 -2.0478073817490257e-05 0 1.4997371158027863e-05 -2.0478073817490257e-05 0 1.2587498589936998e-05 -1.9157596519232593e-05 0 1.282028952424563e-05 -2.1553000790910142e-05 0 1.9463064878311531e-05 -2.3109106699601938e-05 0 1.5804674947403014e-05 -2.2749770902044327e-05 0 1.4997371158027863e-05 -2.0478073817490257e-05 0 1.5804674947403014e-05 -2.2749770902044327e-05 0 1.4997371158027863e-05 -2.0478073817490257e-05 0 1.282028952424563e-05 -2.1553000790910142e-05 0 1.6048949383865698e-05 -1.8812491030977308e-05 0 1.4997371158027863e-05 -2.0478073817490257e-05 0 1.363765628041664e-05 -1.8544262956030594e-05 0 1.4997371158027863e-05 -2.0478073817490257e-05 0 1.363765628041664e-05 -1.8544262956030594e-05 0 1.2587498589936998e-05 -1.9157596519232593e-05 0 1.243068282461153e-05 -1.7334344644186522e-05 0 1.363765628041664e-05 -1.8544262956030594e-05 0 1.1289036593959128e-05 -1.8080843730599147e-05 0 1.4351316164980762e-05 -1.7505267026185125e-05 0 1.243068282461153e-05 -1.7334344644186522e-05 0 1.363765628041664e-05 -1.8544262956030594e-05 0 1.4351316164980762e-05 -1.7505267026185125e-05 0 1.6048949383865698e-05 -1.8812491030977308e-05 0 1.363765628041664e-05 -1.8544262956030594e-05 0 1.0321866513486572e-05 -1.7001801088524413e-05 0 1.1289036593959128e-05 -1.8080843730599147e-05 0 9.8961954609442116e-06 -1.7855957210174294e-05 0 1.243068282461153e-05 -1.7334344644186522e-05 0 1.0321866513486572e-05 -1.7001801088524413e-05 0 1.1289036593959128e-05 -1.8080843730599147e-05 0 1.1289036593959128e-05 -1.8080843730599147e-05 0 1.2587498589936998e-05 -1.9157596519232593e-05 0 1.0955414512124553e-05 -1.9161542571809196e-05 0 1.363765628041664e-05 -1.8544262956030594e-05 0 1.1289036593959128e-05 -1.8080843730599147e-05 0 1.2587498589936998e-05 -1.9157596519232593e-05 0 1.1289036593959128e-05 -1.8080843730599147e-05 0 1.0955414512124553e-05 -1.9161542571809196e-05 0 9.8961954609442116e-06 -1.7855957210174294e-05 0 1.2587498589936998e-05 -1.9157596519232593e-05 0 1.0955414512124553e-05 -1.9161542571809196e-05 0 1.282028952424563e-05 -2.1553000790910142e-05 0 1.0955414512124553e-05 -1.9161542571809196e-05 0 1.282028952424563e-05 -2.1553000790910142e-05 0 1.0865460829676085e-05 -2.0018850889815411e-05 0 1.0955414512124553e-05 -1.9161542571809196e-05 0 1.0865460829676085e-05 -2.0018850889815411e-05 0 9.8520772770764817e-06 -1.8552278034349614e-05 0 1.0865460829676085e-05 -2.0018850889815411e-05 0 9.656939523851491e-06 -1.8216522644802951e-05 0 9.8520772770764817e-06 -1.8552278034349614e-05 0 9.656939523851491e-06 -1.8216522644802951e-05 0 8.7621183376989592e-06 -1.7460730638389572e-05 0 9.8520772770764817e-06 -1.8552278034349614e-05 0 8.7621183376989592e-06 -1.7460730638389572e-05 0 9.8520772770764817e-06 -1.8552278034349614e-05 0 9.8961954609442116e-06 -1.7855957210174294e-05 0 1.0955414512124553e-05 -1.9161542571809196e-05 0 9.8520772770764817e-06 -1.8552278034349614e-05 0 9.8961954609442116e-06 -1.7855957210174294e-05 0 9.7582054445176149e-06 -1.6429197179084063e-05 0 8.679977245181793e-06 -1.6778000928566829e-05 0 1.0862913099159345e-05 -1.5178239692190454e-05 0 9.656939523851491e-06 -1.8216522644802951e-05 0 9.7582054445176149e-06 -1.6429197179084063e-05 0 8.679977245181793e-06 -1.6778000928566829e-05 0 9.656939523851491e-06 -1.8216522644802951e-05 0 8.7621183376989592e-06 -1.7460730638389572e-05 0 8.679977245181793e-06 -1.6778000928566829e-05 0 8.679977245181793e-06 -1.6778000928566829e-05 0 7.9566486625359566e-06 -1.680475276170186e-05 0 7.9431674936589825e-06 -1.6576082351323852e-05 0 8.7621183376989592e-06 -1.7460730638389572e-05 0 8.679977245181793e-06 -1.6778000928566829e-05 0 7.9566486625359566e-06 -1.680475276170186e-05 0 7.9566486625359566e-06 -1.680475276170186e-05 0 8.6403832294769324e-06 -1.6919587351033873e-05 0 7.6733201307703416e-06 -1.6325736389553556e-05 0 7.9566486625359566e-06 -1.680475276170186e-05 0 7.6733201307703416e-06 -1.6325736389553556e-05 0 7.1280636744930313e-06 -1.6311526664900327e-05 0 7.9566486625359566e-06 -1.680475276170186e-05 0 7.1280636744930313e-06 -1.6311526664900327e-05 0 7.9431674936589825e-06 -1.6576082351323852e-05 0 8.7621183376989592e-06 -1.7460730638389572e-05 0 9.8961954609442116e-06 -1.7855957210174294e-05 0 8.6403832294769324e-06 -1.6919587351033873e-05 0 8.7621183376989592e-06 -1.7460730638389572e-05 0 7.9566486625359566e-06 -1.680475276170186e-05 0 8.6403832294769324e-06 -1.6919587351033873e-05 0 1.0321866513486572e-05 -1.7001801088524413e-05 0 9.8961954609442116e-06 -1.7855957210174294e-05 0 8.6403832294769324e-06 -1.6919587351033873e-05 0 1.0321866513486572e-05 -1.7001801088524413e-05 0 8.6403832294769324e-06 -1.6919587351033873e-05 0 9.0720715503088336e-06 -1.6295357772976605e-05 0 9.5883524890286647e-06 -1.5684740727696273e-05 0 9.0720715503088336e-06 -1.6295357772976605e-05 0 8.4125997753571924e-06 -1.5477253942433834e-05 0 9.0720715503088336e-06 -1.6295357772976605e-05 0 8.4125997753571924e-06 -1.5477253942433834e-05 0 8.179175526942801e-06 -1.6171367475404593e-05 0 8.4125997753571924e-06 -1.5477253942433834e-05 0 8.179175526942801e-06 -1.6171367475404593e-05 0 7.4705978071547151e-06 -1.5479990516316109e-05 0 8.6403832294769324e-06 -1.6919587351033873e-05 0 9.0720715503088336e-06 -1.6295357772976605e-05 0 8.179175526942801e-06 -1.6171367475404593e-05 0 8.179175526942801e-06 -1.6171367475404593e-05 0 7.6733201307703416e-06 -1.6325736389553556e-05 0 7.4705978071547151e-06 -1.5479990516316109e-05 0 8.6403832294769324e-06 -1.6919587351033873e-05 0 8.179175526942801e-06 -1.6171367475404593e-05 0 7.6733201307703416e-06 -1.6325736389553556e-05 0 7.6733201307703416e-06 -1.6325736389553556e-05 0 7.1280636744930313e-06 -1.6311526664900327e-05 0 6.6166468729000988e-06 -1.5280005556760634e-05 0 7.1280636744930313e-06 -1.6311526664900327e-05 0 6.6166468729000988e-06 -1.5280005556760634e-05 0 6.4096325086925004e-06 -1.5817073883483405e-05 0 7.6733201307703416e-06 -1.6325736389553556e-05 0 6.6166468729000988e-06 -1.5280005556760634e-05 0 7.4705978071547151e-06 -1.5479990516316109e-05 0 7.4705978071547151e-06 -1.5479990516316109e-05 0 6.3062475948917024e-06 -1.4234312953832045e-05 0 7.5784139578561282e-06 -1.4497174031296632e-05 0 6.6166468729000988e-06 -1.5280005556760634e-05 0 7.4705978071547151e-06 -1.5479990516316109e-05 0 6.3062475948917024e-06 -1.4234312953832045e-05 0 6.6166468729000988e-06 -1.5280005556760634e-05 0 6.3062475948917024e-06 -1.4234312953832045e-05 0 5.2977166439431005e-06 -1.4649970823548108e-05 0 6.3062475948917024e-06 -1.4234312953832045e-05 0 7.5784139578561282e-06 -1.4497174031296632e-05 0 6.9268996977159628e-06 -1.30510563394281e-05 0 7.5784139578561282e-06 -1.4497174031296632e-05 0 6.9268996977159628e-06 -1.30510563394281e-05 0 8.103616965058127e-06 -1.3403369214819124e-05 0 7.5784139578561282e-06 -1.4497174031296632e-05 0 8.806574523516733e-06 -1.4680422507299555e-05 0 8.103616965058127e-06 -1.3403369214819124e-05 0 8.4125997753571924e-06 -1.5477253942433834e-05 0 7.5784139578561282e-06 -1.4497174031296632e-05 0 8.806574523516733e-06 -1.4680422507299555e-05 0 9.5883524890286647e-06 -1.5684740727696273e-05 0 8.4125997753571924e-06 -1.5477253942433834e-05 0 8.806574523516733e-06 -1.4680422507299555e-05 0 8.4125997753571924e-06 -1.5477253942433834e-05 0 7.4705978071547151e-06 -1.5479990516316109e-05 0 7.5784139578561282e-06 -1.4497174031296632e-05 0 1.5085708650296586e-05 -4.6828175400320414e-05 0 8.4227033067223308e-06 -4.2592933719840481e-05 0 9.8761340920347019e-06 -4.9922668027394477e-05 0 9.8232609269062672e-06 -3.13869100983627e-05 0 8.6010049521515728e-06 -2.6555629948857745e-05 0 1.5085708650296586e-05 -4.6828175400320414e-05 0 8.4227033067223308e-06 -4.2592933719840481e-05 0 1.3661829549295792e-05 -3.8873763815321422e-05 0 4.7274584385224019e-06 -1.5843177394710287e-05 0 5.2977166439431005e-06 -1.4649970823548108e-05 0 3.6933179768713566e-06 -1.4245103778753405e-05 0 5.2977166439431005e-06 -1.4649970823548108e-05 0 4.3366390909498545e-06 -1.3088534704347757e-05 0 3.6933179768713566e-06 -1.4245103778753405e-05 0 6.3062475948917024e-06 -1.4234312953832045e-05 0 5.2977166439431005e-06 -1.4649970823548108e-05 0 5.3328751270998943e-06 -1.3457320340148466e-05 0 5.2977166439431005e-06 -1.4649970823548108e-05 0 5.3328751270998943e-06 -1.3457320340148466e-05 0 4.3366390909498545e-06 -1.3088534704347757e-05 0 6.6166468729000988e-06 -1.5280005556760634e-05 0 5.2977166439431005e-06 -1.4649970823548108e-05 0 6.4096325086925004e-06 -1.5817073883483405e-05 0 4.7274584385224019e-06 -1.5843177394710287e-05 0 5.2977166439431005e-06 -1.4649970823548108e-05 0 5.7401340796862373e-06 -1.5897268527798457e-05 0 5.2977166439431005e-06 -1.4649970823548108e-05 0 5.7401340796862373e-06 -1.5897268527798457e-05 0 6.4096325086925004e-06 -1.5817073883483405e-05 0 5.7401340796862373e-06 -1.5897268527798457e-05 0 6.4096325086925004e-06 -1.5817073883483405e-05 0 6.9350191907316756e-06 -1.650478458689076e-05 0 7.1280636744930313e-06 -1.6311526664900327e-05 0 6.4096325086925004e-06 -1.5817073883483405e-05 0 6.9350191907316756e-06 -1.650478458689076e-05 0 5.7401340796862373e-06 -1.5897268527798457e-05 0 6.9350191907316756e-06 -1.650478458689076e-05 0 6.0728585184185169e-06 -1.6939467563862761e-05 0 6.9350191907316756e-06 -1.650478458689076e-05 0 6.0728585184185169e-06 -1.6939467563862761e-05 0 7.8363881011424633e-06 -1.7436807411511684e-05 0 1.6496238538914091e-05 -5.5456457998191664e-05 0 9.8761340920347019e-06 -4.9922668027394477e-05 0 6.3075998750342905e-06 -5.6643493828620194e-05 0 1.6496238538914091e-05 -5.5456457998191664e-05 0 1.0173022971681764e-05 -6.5223592062659528e-05 0 6.3075998750342905e-06 -5.6643493828620194e-05 0 1.1043870412671391e-05 -3.5994391247739137e-05 0 1.3046222161459625e-05 -4.1382839612158564e-05 0 4.7274584385224019e-06 -1.5843177394710287e-05 0 5.7401340796862373e-06 -1.5897268527798457e-05 0 6.0728585184185169e-06 -1.6939467563862761e-05 0 1.5085708650296586e-05 -4.6828175400320414e-05 0 1.6496238538914091e-05 -5.5456457998191664e-05 0 9.8761340920347019e-06 -4.9922668027394477e-05 0 9.8232609269062672e-06 -3.13869100983627e-05 0 1.1043870412671391e-05 -3.5994391247739137e-05 0 1.6496238538914091e-05 -5.5456457998191664e-05 0 1.0173022971681764e-05 -6.5223592062659528e-05 0 1.8068015690069134e-05 -6.4464397629901646e-05 0 1.3046222161459625e-05 -4.1382839612158564e-05 0 1.3569673896243448e-05 -4.4935867144386138e-05 0 7.8363881011424633e-06 -1.7436807411511684e-05 0 8.2921403366013481e-06 -1.6659659274212694e-05 0 1.0211222330834652e-05 -1.699758356630869e-05 0 1.0173022971681764e-05 -6.5223592062659528e-05 0 1.8068015690069134e-05 -6.4464397629901646e-05 0 1.9953247549575355e-05 -7.4105734556159452e-05 0 1.0173022971681764e-05 -6.5223592062659528e-05 0 1.9953247549575355e-05 -7.4105734556159452e-05 0 9.6977081384330786e-06 -7.3806365047775067e-05 0 7.1280636744930313e-06 -1.6311526664900327e-05 0 6.9350191907316756e-06 -1.650478458689076e-05 0 7.9431674936589825e-06 -1.6576082351323852e-05 0 6.9350191907316756e-06 -1.650478458689076e-05 0 8.2921403366013481e-06 -1.6659659274212694e-05 0 7.9431674936589825e-06 -1.6576082351323852e-05 0 6.9350191907316756e-06 -1.650478458689076e-05 0 7.8363881011424633e-06 -1.7436807411511684e-05 0 8.2921403366013481e-06 -1.6659659274212694e-05 0 8.2921403366013481e-06 -1.6659659274212694e-05 0 7.9431674936589825e-06 -1.6576082351323852e-05 0 9.4281549387616245e-06 -1.6095287710085263e-05 0 8.679977245181793e-06 -1.6778000928566829e-05 0 7.9431674936589825e-06 -1.6576082351323852e-05 0 9.4281549387616245e-06 -1.6095287710085263e-05 0 8.2921403366013481e-06 -1.6659659274212694e-05 0 9.4281549387616245e-06 -1.6095287710085263e-05 0 1.0211222330834652e-05 -1.699758356630869e-05 0 9.4281549387616245e-06 -1.6095287710085263e-05 0 1.0211222330834652e-05 -1.699758356630869e-05 0 1.3210462843703472e-05 -1.5500299325369962e-05 0 9.4281549387616245e-06 -1.6095287710085263e-05 0 1.0862913099159345e-05 -1.5178239692190454e-05 0 1.3210462843703472e-05 -1.5500299325369962e-05 0 8.679977245181793e-06 -1.6778000928566829e-05 0 9.4281549387616245e-06 -1.6095287710085263e-05 0 1.0862913099159345e-05 -1.5178239692190454e-05 0 1.9953247549575355e-05 -7.4105734556159452e-05 0 1.4811827538873455e-05 -7.9060946856471096e-05 0 9.6977081384330786e-06 -7.3806365047775067e-05 0 1.3569673896243448e-05 -4.4935867144386138e-05 0 2.2087889809824818e-05 -5.0423737720639861e-05 0 1.9953247549575355e-05 -7.4105734556159452e-05 0 2.30591384923757e-05 -8.408565595995605e-05 0 1.4811827538873455e-05 -7.9060946856471096e-05 0 2.30591384923757e-05 -8.408565595995605e-05 0 1.4811827538873455e-05 -7.9060946856471096e-05 0 1.2672906465418885e-05 -8.4743126975859946e-05 0 1.4811827538873455e-05 -7.9060946856471096e-05 0 7.0672747788711834e-06 -7.948950791233022e-05 0 1.2672906465418885e-05 -8.4743126975859946e-05 0 7.0672747788711834e-06 -7.948950791233022e-05 0 1.2672906465418885e-05 -8.4743126975859946e-05 0 2.9697581102645066e-06 -8.3959474868080934e-05 0 7.0672747788711834e-06 -7.948950791233022e-05 0 9.6977081384330786e-06 -7.3806365047775067e-05 0 1.5440819627705477e-06 -7.5485696620240564e-05 0 1.4811827538873455e-05 -7.9060946856471096e-05 0 7.0672747788711834e-06 -7.948950791233022e-05 0 9.6977081384330786e-06 -7.3806365047775067e-05 0 7.0672747788711834e-06 -7.948950791233022e-05 0 1.5440819627705477e-06 -7.5485696620240564e-05 0 2.9697581102645066e-06 -8.3959474868080934e-05 0 1.5440819627705477e-06 -7.5485696620240564e-05 0 -5.6493691071267605e-06 -8.316062196825733e-05 0 -6.0688155658013006e-06 -7.2064258697078238e-05 0 -5.6493691071267605e-06 -8.316062196825733e-05 0 -6.0688155658013006e-06 -7.2064258697078238e-05 0 -1.3224032810326824e-05 -7.4817998658442832e-05 0 1.5440819627705477e-06 -7.5485696620240564e-05 0 2.9697581102645066e-06 -8.3959474868080934e-05 0 -5.6493691071267605e-06 -8.316062196825733e-05 0 1.5440819627705477e-06 -7.5485696620240564e-05 0 -6.0688155658013006e-06 -7.2064258697078238e-05 0 2.2021671885330889e-06 -6.626510801537654e-05 0 -6.0688155658013006e-06 -7.2064258697078238e-05 0 -6.8075434518934281e-06 -6.1980730665498442e-05 0 2.2021671885330889e-06 -6.626510801537654e-05 0 -6.0688155658013006e-06 -7.2064258697078238e-05 0 -6.8075434518934281e-06 -6.1980730665498442e-05 0 -1.4596782523777619e-05 -6.5863057475042334e-05 0 -6.8075434518934281e-06 -6.1980730665498442e-05 0 2.2021671885330889e-06 -6.626510801537654e-05 0 -1.2164167694536e-06 -5.7543239605273754e-05 0 1.0173022971681764e-05 -6.5223592062659528e-05 0 2.2021671885330889e-06 -6.626510801537654e-05 0 6.3075998750342905e-06 -5.6643493828620194e-05 0 1.0173022971681764e-05 -6.5223592062659528e-05 0 9.6977081384330786e-06 -7.3806365047775067e-05 0 2.2021671885330889e-06 -6.626510801537654e-05 0 9.6977081384330786e-06 -7.3806365047775067e-05 0 1.5440819627705477e-06 -7.5485696620240564e-05 0 2.2021671885330889e-06 -6.626510801537654e-05 0 -3.0098688308010115e-05 -7.4042633813491674e-05 0 -2.4618218394076512e-05 -7.7675920405822891e-05 0 -2.0880920700207958e-05 -7.2974586858386942e-05 0 -3.0098688308010115e-05 -7.4042633813491674e-05 0 -3.0120255215174768e-05 -8.2393417419878334e-05 0 -2.4618218394076512e-05 -7.7675920405822891e-05 0 -3.0120255215174768e-05 -8.2393417419878334e-05 0 -2.1877210181006748e-05 -8.2410578892337189e-05 0 -2.4618218394076512e-05 -7.7675920405822891e-05 0 -2.1877210181006748e-05 -8.2410578892337189e-05 0 -2.4618218394076512e-05 -7.7675920405822891e-05 0 -1.7832843416635805e-05 -7.8189074175551423e-05 0 -2.4618218394076512e-05 -7.7675920405822891e-05 0 -2.0880920700207958e-05 -7.2974586858386942e-05 0 -1.7832843416635805e-05 -7.8189074175551423e-05 0 -2.0880920700207958e-05 -7.2974586858386942e-05 0 -1.7832843416635805e-05 -7.8189074175551423e-05 0 -1.3224032810326824e-05 -7.4817998658442832e-05 0 -1.7832843416635805e-05 -7.8189074175551423e-05 0 -1.3704352633470579e-05 -8.2653503079833511e-05 0 -1.3224032810326824e-05 -7.4817998658442832e-05 0 -2.1877210181006748e-05 -8.2410578892337189e-05 0 -1.7832843416635805e-05 -7.8189074175551423e-05 0 -1.3704352633470579e-05 -8.2653503079833511e-05 0 -5.6493691071267605e-06 -8.316062196825733e-05 0 -1.3704352633470579e-05 -8.2653503079833511e-05 0 -1.3224032810326824e-05 -7.4817998658442832e-05 0 -6.0688155658013006e-06 -7.2064258697078238e-05 0 -1.3224032810326824e-05 -7.4817998658442832e-05 0 -1.4596782523777619e-05 -6.5863057475042334e-05 0 -6.8075434518934281e-06 -6.1980730665498442e-05 0 -1.4596782523777619e-05 -6.5863057475042334e-05 0 -1.2582038375219314e-05 -5.6074557692140473e-05 0 -1.4596782523777619e-05 -6.5863057475042334e-05 0 -2.2448472407490658e-05 -6.539606724158007e-05 0 -1.9773250369857152e-05 -5.7529503821606719e-05 0 -2.0880920700207958e-05 -7.2974586858386942e-05 0 -1.3224032810326824e-05 -7.4817998658442832e-05 0 -1.4596782523777619e-05 -6.5863057475042334e-05 0 -2.0880920700207958e-05 -7.2974586858386942e-05 0 -1.4596782523777619e-05 -6.5863057475042334e-05 0 -2.2448472407490658e-05 -6.539606724158007e-05 0 -3.0098688308010115e-05 -7.4042633813491674e-05 0 -2.0880920700207958e-05 -7.2974586858386942e-05 0 -2.2448472407490658e-05 -6.539606724158007e-05 0 -2.2448472407490658e-05 -6.539606724158007e-05 0 -2.9874241123123169e-05 -6.5509134704243974e-05 0 -2.9372082746837664e-05 -5.6895353415719951e-05 0 -3.0098688308010115e-05 -7.4042633813491674e-05 0 -2.2448472407490658e-05 -6.539606724158007e-05 0 -2.9874241123123169e-05 -6.5509134704243974e-05 0 -2.9372082746837664e-05 -5.6895353415719951e-05 0 -2.3145349745881371e-05 -5.1414631744917493e-05 0 -2.848156784135258e-05 -4.8560906718276364e-05 0 -2.2448472407490658e-05 -6.539606724158007e-05 0 -2.9372082746837664e-05 -5.6895353415719951e-05 0 -1.9773250369857152e-05 -5.7529503821606719e-05 0 -1.9773250369857152e-05 -5.7529503821606719e-05 0 -2.3145349745881371e-05 -5.1414631744917493e-05 0 -1.7103246626754665e-05 -4.8402134231515546e-05 0 -2.9372082746837664e-05 -5.6895353415719951e-05 0 -1.9773250369857152e-05 -5.7529503821606719e-05 0 -2.3145349745881371e-05 -5.1414631744917493e-05 0 -1.9773250369857152e-05 -5.7529503821606719e-05 0 -1.2582038375219314e-05 -5.6074557692140473e-05 0 -1.7103246626754665e-05 -4.8402134231515546e-05 0 -1.4596782523777619e-05 -6.5863057475042334e-05 0 -1.9773250369857152e-05 -5.7529503821606719e-05 0 -1.2582038375219314e-05 -5.6074557692140473e-05 0 -1.2582038375219314e-05 -5.6074557692140473e-05 0 -1.1253794080017142e-05 -4.8093482729185464e-05 0 -1.7103246626754665e-05 -4.8402134231515546e-05 0 -1.2582038375219314e-05 -5.6074557692140473e-05 0 -1.1253794080017142e-05 -4.8093482729185464e-05 0 -6.4953640273223974e-06 -5.2490003426189549e-05 0 -1.1253794080017142e-05 -4.8093482729185464e-05 0 -1.3548403880394311e-05 -4.2908018798441268e-05 0 -1.7103246626754665e-05 -4.8402134231515546e-05 0 -1.3548403880394311e-05 -4.2908018798441268e-05 0 -7.3616383962492927e-06 -4.3110726765440112e-05 0 -1.2283867129292757e-05 -3.5977316374095498e-05 0 -1.1253794080017142e-05 -4.8093482729185464e-05 0 -1.3548403880394311e-05 -4.2908018798441268e-05 0 -7.3616383962492927e-06 -4.3110726765440112e-05 0 -1.3548403880394311e-05 -4.2908018798441268e-05 0 -1.7103246626754665e-05 -4.8402134231515546e-05 0 -1.9421972438998062e-05 -4.054459891617731e-05 0 -2.3145349745881371e-05 -5.1414631744917493e-05 0 -1.7103246626754665e-05 -4.8402134231515546e-05 0 -2.3139791347613255e-05 -4.571051679796756e-05 0 -1.7103246626754665e-05 -4.8402134231515546e-05 0 -2.3139791347613255e-05 -4.571051679796756e-05 0 -1.9421972438998062e-05 -4.054459891617731e-05 0 -2.3139791347613255e-05 -4.571051679796756e-05 0 -1.9421972438998062e-05 -4.054459891617731e-05 0 -2.7173011370298206e-05 -4.0536525450439249e-05 0 -2.3139791347613255e-05 -4.571051679796756e-05 0 -2.848156784135258e-05 -4.8560906718276364e-05 0 -2.7173011370298206e-05 -4.0536525450439249e-05 0 -2.3145349745881371e-05 -5.1414631744917493e-05 0 -2.3139791347613255e-05 -4.571051679796756e-05 0 -2.848156784135258e-05 -4.8560906718276364e-05 0 -1.0782640199228703e-06 -4.9955187414117488e-05 0 6.3075998750342905e-06 -5.6643493828620194e-05 0 4.2354575335690473e-06 -4.708752421152171e-05 0 -1.0782640199228703e-06 -4.9955187414117488e-05 0 6.3075998750342905e-06 -5.6643493828620194e-05 0 -1.2164167694536e-06 -5.7543239605273754e-05 0 9.8761340920347019e-06 -4.9922668027394477e-05 0 6.3075998750342905e-06 -5.6643493828620194e-05 0 4.2354575335690473e-06 -4.708752421152171e-05 0 2.2021671885330889e-06 -6.626510801537654e-05 0 6.3075998750342905e-06 -5.6643493828620194e-05 0 -1.2164167694536e-06 -5.7543239605273754e-05 0 -6.8075434518934281e-06 -6.1980730665498442e-05 0 -1.2164167694536e-06 -5.7543239605273754e-05 0 -6.4953640273223974e-06 -5.2490003426189549e-05 0 -6.8075434518934281e-06 -6.1980730665498442e-05 0 -1.2582038375219314e-05 -5.6074557692140473e-05 0 -6.4953640273223974e-06 -5.2490003426189549e-05 0 -1.0782640199228703e-06 -4.9955187414117488e-05 0 -1.2164167694536e-06 -5.7543239605273754e-05 0 -6.4953640273223974e-06 -5.2490003426189549e-05 0 -1.0782640199228703e-06 -4.9955187414117488e-05 0 -7.3616383962492927e-06 -4.3110726765440112e-05 0 -1.2396789387267428e-06 -4.2092023964366837e-05 0 -1.0782640199228703e-06 -4.9955187414117488e-05 0 -6.4953640273223974e-06 -5.2490003426189549e-05 0 -7.3616383962492927e-06 -4.3110726765440112e-05 0 -1.1253794080017142e-05 -4.8093482729185464e-05 0 -6.4953640273223974e-06 -5.2490003426189549e-05 0 -7.3616383962492927e-06 -4.3110726765440112e-05 0 -7.3616383962492927e-06 -4.3110726765440112e-05 0 -1.2396789387267428e-06 -4.2092023964366837e-05 0 -4.9488937753338057e-06 -3.5934649669718432e-05 0 -1.2396789387267428e-06 -4.2092023964366837e-05 0 4.2354575335690473e-06 -4.708752421152171e-05 0 3.4413698749258303e-06 -4.0515036695046877e-05 0 -1.0782640199228703e-06 -4.9955187414117488e-05 0 -1.2396789387267428e-06 -4.2092023964366837e-05 0 4.2354575335690473e-06 -4.708752421152171e-05 0 8.4227033067223308e-06 -4.2592933719840481e-05 0 9.8761340920347019e-06 -4.9922668027394477e-05 0 4.2354575335690473e-06 -4.708752421152171e-05 0 8.4227033067223308e-06 -4.2592933719840481e-05 0 4.2354575335690473e-06 -4.708752421152171e-05 0 3.4413698749258303e-06 -4.0515036695046877e-05 0 8.4227033067223308e-06 -4.2592933719840481e-05 0 3.4413698749258303e-06 -4.0515036695046877e-05 0 6.2727410610423007e-06 -3.5497516959340037e-05 0 3.4413698749258303e-06 -4.0515036695046877e-05 0 6.2727410610423007e-06 -3.5497516959340037e-05 0 -3.5957580158467228e-07 -3.5653160500466818e-05 0 6.2727410610423007e-06 -3.5497516959340037e-05 0 2.6019644084850817e-06 -3.0981652332895797e-05 0 -3.5957580158467228e-07 -3.5653160500466818e-05 0 6.2727410610423007e-06 -3.5497516959340037e-05 0 2.6019644084850817e-06 -3.0981652332895797e-05 0 6.5426167990844563e-06 -2.8801020680806291e-05 0 2.6019644084850817e-06 -3.0981652332895797e-05 0 -3.5957580158467228e-07 -3.5653160500466818e-05 0 -1.6710713100142506e-06 -2.9973294731583417e-05 0 -1.2396789387267428e-06 -4.2092023964366837e-05 0 3.4413698749258303e-06 -4.0515036695046877e-05 0 -3.5957580158467228e-07 -3.5653160500466818e-05 0 -1.2396789387267428e-06 -4.2092023964366837e-05 0 -3.5957580158467228e-07 -3.5653160500466818e-05 0 -4.9488937753338057e-06 -3.5934649669718432e-05 0 -7.3616383962492927e-06 -4.3110726765440112e-05 0 -4.9488937753338057e-06 -3.5934649669718432e-05 0 -1.2283867129292757e-05 -3.5977316374095498e-05 0 -4.9488937753338057e-06 -3.5934649669718432e-05 0 -6.8866076683070746e-06 -2.9688777420171706e-05 0 -1.2283867129292757e-05 -3.5977316374095498e-05 0 -3.5957580158467228e-07 -3.5653160500466818e-05 0 -4.9488937753338057e-06 -3.5934649669718432e-05 0 -1.6710713100142506e-06 -2.9973294731583417e-05 0 -4.9488937753338057e-06 -3.5934649669718432e-05 0 -6.8866076683070746e-06 -2.9688777420171706e-05 0 -1.6710713100142506e-06 -2.9973294731583417e-05 0 -6.8866076683070746e-06 -2.9688777420171706e-05 0 -2.0469050448656265e-06 -2.3592774526235462e-05 0 -1.6710713100142506e-06 -2.9973294731583417e-05 0 -6.8866076683070746e-06 -2.9688777420171706e-05 0 -1.0107236995187974e-05 -2.563350538712961e-05 0 -6.1871011150194203e-06 -2.1627452753911275e-05 0 -6.8866076683070746e-06 -2.9688777420171706e-05 0 -2.0469050448656265e-06 -2.3592774526235462e-05 0 -6.1871011150194203e-06 -2.1627452753911275e-05 0 -2.0469050448656265e-06 -2.3592774526235462e-05 0 2.2741736014230096e-06 -2.5376927550223558e-05 0 2.1060354357480755e-06 -1.8230865117367372e-05 0 2.2741736014230096e-06 -2.5376927550223558e-05 0 2.1060354357480755e-06 -1.8230865117367372e-05 0 5.9937968928708162e-06 -2.1791438016587673e-05 0 2.6019644084850817e-06 -3.0981652332895797e-05 0 2.2741736014230096e-06 -2.5376927550223558e-05 0 6.5426167990844563e-06 -2.8801020680806291e-05 0 -2.0469050448656265e-06 -2.3592774526235462e-05 0 2.2741736014230096e-06 -2.5376927550223558e-05 0 -1.6710713100142506e-06 -2.9973294731583417e-05 0 2.6019644084850817e-06 -3.0981652332895797e-05 0 2.2741736014230096e-06 -2.5376927550223558e-05 0 -1.6710713100142506e-06 -2.9973294731583417e-05 0 -2.5482342521824324e-05 -3.3103588334770114e-05 0 -2.2476288996422438e-05 -3.6753125537860108e-05 0 -1.7893922699380514e-05 -3.2693483220227578e-05 0 -2.5482342521824324e-05 -3.3103588334770114e-05 0 -1.7893922699380514e-05 -3.2693483220227578e-05 0 -1.952526673817778e-05 -2.769731900000815e-05 0 -1.9421972438998062e-05 -4.054459891617731e-05 0 -2.7173011370298206e-05 -4.0536525450439249e-05 0 -2.2476288996422438e-05 -3.6753125537860108e-05 0 -2.5482342521824324e-05 -3.3103588334770114e-05 0 -2.7173011370298206e-05 -4.0536525450439249e-05 0 -2.2476288996422438e-05 -3.6753125537860108e-05 0 -1.9421972438998062e-05 -4.054459891617731e-05 0 -2.2476288996422438e-05 -3.6753125537860108e-05 0 -1.7893922699380514e-05 -3.2693483220227578e-05 0 -1.7893922699380514e-05 -3.2693483220227578e-05 0 -1.2283867129292757e-05 -3.5977316374095498e-05 0 -1.2117503764901889e-05 -2.9880122441237767e-05 0 -1.9421972438998062e-05 -4.054459891617731e-05 0 -1.7893922699380514e-05 -3.2693483220227578e-05 0 -1.2283867129292757e-05 -3.5977316374095498e-05 0 -1.3548403880394311e-05 -4.2908018798441268e-05 0 -1.9421972438998062e-05 -4.054459891617731e-05 0 -1.2283867129292757e-05 -3.5977316374095498e-05 0 -6.8866076683070746e-06 -2.9688777420171706e-05 0 -1.2283867129292757e-05 -3.5977316374095498e-05 0 -1.2117503764901889e-05 -2.9880122441237767e-05 0 -1.2117503764901889e-05 -2.9880122441237767e-05 0 -1.0107236995187974e-05 -2.563350538712961e-05 0 -1.4749782001774896e-05 -2.6046759507375572e-05 0 -6.8866076683070746e-06 -2.9688777420171706e-05 0 -1.2117503764901889e-05 -2.9880122441237767e-05 0 -1.0107236995187974e-05 -2.563350538712961e-05 0 -1.0107236995187974e-05 -2.563350538712961e-05 0 -1.0727283367640317e-05 -2.1450745068610256e-05 0 -6.1871011150194203e-06 -2.1627452753911275e-05 0 -1.0107236995187974e-05 -2.563350538712961e-05 0 -1.4749782001774896e-05 -2.6046759507375572e-05 0 -1.0727283367640317e-05 -2.1450745068610256e-05 0 -1.4749782001774896e-05 -2.6046759507375572e-05 0 -1.6850875410843587e-05 -2.1935982013786297e-05 0 -1.0727283367640317e-05 -2.1450745068610256e-05 0 -1.7893922699380514e-05 -3.2693483220227578e-05 0 -1.2117503764901889e-05 -2.9880122441237767e-05 0 -1.4749782001774896e-05 -2.6046759507375572e-05 0 -1.7893922699380514e-05 -3.2693483220227578e-05 0 -1.4749782001774896e-05 -2.6046759507375572e-05 0 -1.952526673817778e-05 -2.769731900000815e-05 0 -1.4749782001774896e-05 -2.6046759507375572e-05 0 -1.952526673817778e-05 -2.769731900000815e-05 0 -1.6850875410843587e-05 -2.1935982013786297e-05 0 -1.952526673817778e-05 -2.769731900000815e-05 0 -2.3547910148487087e-05 -2.6330584569324472e-05 0 -1.6850875410843587e-05 -2.1935982013786297e-05 0 -2.5482342521824324e-05 -3.3103588334770114e-05 0 -1.952526673817778e-05 -2.769731900000815e-05 0 -2.3547910148487087e-05 -2.6330584569324472e-05 0 -2.1416917897858181e-05 -2.0297280160250239e-05 0 -1.6436352208037851e-05 -1.6939058703793798e-05 0 -1.8964294341070245e-05 -1.5063183234888271e-05 0 -2.3547910148487087e-05 -2.6330584569324472e-05 0 -2.1416917897858181e-05 -2.0297280160250239e-05 0 -1.6850875410843587e-05 -2.1935982013786297e-05 0 -2.1416917897858181e-05 -2.0297280160250239e-05 0 -1.6850875410843587e-05 -2.1935982013786297e-05 0 -1.6436352208037851e-05 -1.6939058703793798e-05 0 -1.6850875410843587e-05 -2.1935982013786297e-05 0 -1.6436352208037851e-05 -1.6939058703793798e-05 0 -1.2465615847292213e-05 -1.6735784813295018e-05 0 -1.6850875410843587e-05 -2.1935982013786297e-05 0 -1.2465615847292213e-05 -1.6735784813295018e-05 0 -1.0727283367640317e-05 -2.1450745068610256e-05 0 -1.0727283367640317e-05 -2.1450745068610256e-05 0 -8.9945055842693818e-06 -1.736345598217819e-05 0 -6.1871011150194203e-06 -2.1627452753911275e-05 0 -1.2465615847292213e-05 -1.6735784813295018e-05 0 -1.0727283367640317e-05 -2.1450745068610256e-05 0 -8.9945055842693818e-06 -1.736345598217819e-05 0 -8.9945055842693818e-06 -1.736345598217819e-05 0 -9.3583945866779047e-06 -1.378615833900482e-05 0 -5.6355334965987312e-06 -1.4542542342310126e-05 0 -1.2465615847292213e-05 -1.6735784813295018e-05 0 -8.9945055842693818e-06 -1.736345598217819e-05 0 -9.3583945866779047e-06 -1.378615833900482e-05 0 -9.3583945866779047e-06 -1.378615833900482e-05 0 -7.4627781586171657e-06 -1.0065556117359881e-05 0 -1.2682394127195222e-05 -1.1798835184689969e-05 0 -8.7834240710382463e-06 -7.8958111787316344e-06 0 -7.4627781586171657e-06 -1.0065556117359881e-05 0 -1.2682394127195222e-05 -1.1798835184689969e-05 0 -1.2465615847292213e-05 -1.6735784813295018e-05 0 -9.3583945866779047e-06 -1.378615833900482e-05 0 -1.2682394127195222e-05 -1.1798835184689969e-05 0 -1.6436352208037851e-05 -1.6939058703793798e-05 0 -1.2682394127195222e-05 -1.1798835184689969e-05 0 -1.8964294341070245e-05 -1.5063183234888271e-05 0 -1.6436352208037851e-05 -1.6939058703793798e-05 0 -1.2465615847292213e-05 -1.6735784813295018e-05 0 -1.2682394127195222e-05 -1.1798835184689969e-05 0 -1.6627975864453205e-05 -1.0705196562716419e-05 0 -1.2682394127195222e-05 -1.1798835184689969e-05 0 -1.8964294341070245e-05 -1.5063183234888271e-05 0 2.1060354357480755e-06 -1.8230865117367372e-05 0 -2.6310268174747574e-06 -1.7995355478802874e-05 0 -1.2527578646187874e-06 -1.3236486801611538e-05 0 2.1060354357480755e-06 -1.8230865117367372e-05 0 -1.2527578646187874e-06 -1.3236486801611538e-05 0 2.4812406780635754e-06 -1.1800754005430304e-05 0 -2.0469050448656265e-06 -2.3592774526235462e-05 0 2.1060354357480755e-06 -1.8230865117367372e-05 0 -2.6310268174747574e-06 -1.7995355478802874e-05 0 -2.0469050448656265e-06 -2.3592774526235462e-05 0 -2.6310268174747574e-06 -1.7995355478802874e-05 0 -6.1871011150194203e-06 -2.1627452753911275e-05 0 -8.9945055842693818e-06 -1.736345598217819e-05 0 -6.1871011150194203e-06 -2.1627452753911275e-05 0 -5.6355334965987312e-06 -1.4542542342310126e-05 0 -2.6310268174747574e-06 -1.7995355478802874e-05 0 -6.1871011150194203e-06 -2.1627452753911275e-05 0 -5.6355334965987312e-06 -1.4542542342310126e-05 0 -2.6310268174747574e-06 -1.7995355478802874e-05 0 -5.6355334965987312e-06 -1.4542542342310126e-05 0 -1.2527578646187874e-06 -1.3236486801611538e-05 0 -5.6355334965987312e-06 -1.4542542342310126e-05 0 -3.8805684651822756e-06 -1.0152874132158595e-05 0 -1.2527578646187874e-06 -1.3236486801611538e-05 0 -9.3583945866779047e-06 -1.378615833900482e-05 0 -7.4627781586171657e-06 -1.0065556117359881e-05 0 -5.6355334965987312e-06 -1.4542542342310126e-05 0 -5.4844854411446374e-06 -7.8818759590049615e-06 0 -7.4627781586171657e-06 -1.0065556117359881e-05 0 -3.8805684651822756e-06 -1.0152874132158595e-05 0 -7.4627781586171657e-06 -1.0065556117359881e-05 0 -5.6355334965987312e-06 -1.4542542342310126e-05 0 -3.8805684651822756e-06 -1.0152874132158595e-05 0 -3.8805684651822756e-06 -1.0152874132158595e-05 0 -1.0823936996312048e-06 -8.9371933602955885e-06 0 -1.2527578646187874e-06 -1.3236486801611538e-05 0 -1.0823936996312048e-06 -8.9371933602955885e-06 0 -1.2527578646187874e-06 -1.3236486801611538e-05 0 2.4812406780635754e-06 -1.1800754005430304e-05 0 1.6600432080529641e-06 -7.5319283625984483e-06 0 -1.0823936996312048e-06 -8.9371933602955885e-06 0 2.4812406780635754e-06 -1.1800754005430304e-05 0 1.6600432080529641e-06 -7.5319283625984483e-06 0 3.9182429868487667e-06 -6.6334764736860151e-06 0 2.4812406780635754e-06 -1.1800754005430304e-05 0 3.9182429868487667e-06 -6.6334764736860151e-06 0 2.7988770860753102e-06 -6.2035365059921557e-06 0 3.1443012538734734e-06 -5.6698405478556898e-06 0 3.9182429868487667e-06 -6.6334764736860151e-06 0 6.7999422102867261e-06 -1.3015298230903474e-05 0 2.4812406780635754e-06 -1.1800754005430304e-05 0 3.6070421546708681e-06 -6.5506483615802752e-06 0 4.9026121057709605e-06 -9.6751837470774592e-06 0 6.7999422102867261e-06 -1.3015298230903474e-05 0 2.4812406780635754e-06 -1.1800754005430304e-05 0 5.2962505960863079e-06 -1.6095939556189165e-05 0 2.1060354357480755e-06 -1.8230865117367372e-05 0 2.4812406780635754e-06 -1.1800754005430304e-05 0 5.2962505960863079e-06 -1.6095939556189165e-05 0 4.9026121057709605e-06 -9.6751837470774592e-06 0 5.6809163195575354e-06 -1.3241310264593017e-05 0 6.7999422102867261e-06 -1.3015298230903474e-05 0 5.2962505960863079e-06 -1.6095939556189165e-05 0 8.968813020359052e-06 -1.8583624393720296e-05 0 5.6809163195575354e-06 -1.3241310264593017e-05 0 6.5799819608400046e-06 -1.7432735708054819e-05 0 5.2962505960863079e-06 -1.6095939556189165e-05 0 8.968813020359052e-06 -1.8583624393720296e-05 0 5.9937968928708162e-06 -2.1791438016587673e-05 0 2.1060354357480755e-06 -1.8230865117367372e-05 0 5.2962505960863079e-06 -1.6095939556189165e-05 0 5.9937968928708162e-06 -2.1791438016587673e-05 0 3.3911563403545496e-06 -8.4569064698044441e-06 0 3.463054115844292e-06 -6.4454816708437873e-06 0 4.1476007007086298e-06 -7.877303282462545e-06 0 2.4696896358120514e-06 -7.9442387753532668e-06 0 3.3911563403545496e-06 -8.4569064698044441e-06 0 2.5045183727316853e-06 -1.0083947526043051e-05 0 2.4696896358120514e-06 -7.9442387753532668e-06 0 3.3911563403545496e-06 -8.4569064698044441e-06 0 3.463054115844292e-06 -6.4454816708437873e-06 0 2.7988770860753102e-06 -6.2035365059921557e-06 0 2.4696896358120514e-06 -7.9442387753532668e-06 0 3.463054115844292e-06 -6.4454816708437873e-06 0 3.463054115844292e-06 -6.4454816708437873e-06 0 3.1443012538734734e-06 -5.6698405478556898e-06 0 3.8154537321222332e-06 -4.9350243040165869e-06 0 2.7988770860753102e-06 -6.2035365059921557e-06 0 3.463054115844292e-06 -6.4454816708437873e-06 0 3.1443012538734734e-06 -5.6698405478556898e-06 0 3.3480816111079493e-06 -4.8863684493395312e-06 0 3.9182429868487667e-06 -6.6334764736860151e-06 0 3.1443012538734734e-06 -5.6698405478556898e-06 0 3.3480816111079493e-06 -4.8863684493395312e-06 0 3.1443012538734734e-06 -5.6698405478556898e-06 0 3.8154537321222332e-06 -4.9350243040165869e-06 0 3.463054115844292e-06 -6.4454816708437873e-06 0 3.8154537321222332e-06 -4.9350243040165869e-06 0 4.4873352778060732e-06 -6.5746546004771764e-06 0 3.8154537321222332e-06 -4.9350243040165869e-06 0 4.9547496594265065e-06 -4.8040747233188937e-06 0 4.4873352778060732e-06 -6.5746546004771764e-06 0 4.4995447276686741e-06 -3.2389328908224196e-06 0 3.8154537321222332e-06 -4.9350243040165869e-06 0 4.9547496594265065e-06 -4.8040747233188937e-06 0 5.3689852664510581e-06 -2.4336493829123702e-06 0 5.8615647783339934e-06 -4.0435325730705949e-06 0 4.9547496594265065e-06 -4.8040747233188937e-06 0 5.3689852664510581e-06 -2.4336493829123702e-06 0 4.4995447276686741e-06 -3.2389328908224196e-06 0 4.9547496594265065e-06 -4.8040747233188937e-06 0 5.8615647783339934e-06 -4.0435325730705949e-06 0 6.092084972264125e-06 -6.2863154104780256e-06 0 4.9547496594265065e-06 -4.8040747233188937e-06 0 6.092084972264125e-06 -6.2863154104780256e-06 0 5.3929233906911501e-06 -6.5679823409986708e-06 0 6.2635136278731841e-06 -8.2576945235958244e-06 0 6.092084972264125e-06 -6.2863154104780256e-06 0 4.9547496594265065e-06 -4.8040747233188937e-06 0 5.3929233906911501e-06 -6.5679823409986708e-06 0 5.3929233906911501e-06 -6.5679823409986708e-06 0 5.4389212409530583e-06 -8.0381322626412671e-06 0 4.4873352778060732e-06 -6.5746546004771764e-06 0 4.9547496594265065e-06 -4.8040747233188937e-06 0 5.3929233906911501e-06 -6.5679823409986708e-06 0 4.4873352778060732e-06 -6.5746546004771764e-06 0 5.3929233906911501e-06 -6.5679823409986708e-06 0 5.4389212409530583e-06 -8.0381322626412671e-06 0 6.2635136278731841e-06 -8.2576945235958244e-06 0 3.463054115844292e-06 -6.4454816708437873e-06 0 4.4873352778060732e-06 -6.5746546004771764e-06 0 4.1476007007086298e-06 -7.877303282462545e-06 0 5.4389212409530583e-06 -8.0381322626412671e-06 0 4.4873352778060732e-06 -6.5746546004771764e-06 0 5.0276133179047911e-06 -9.1619191415810673e-06 0 4.4873352778060732e-06 -6.5746546004771764e-06 0 4.1476007007086298e-06 -7.877303282462545e-06 0 5.0276133179047911e-06 -9.1619191415810673e-06 0 4.1476007007086298e-06 -7.877303282462545e-06 0 5.0276133179047911e-06 -9.1619191415810673e-06 0 4.0577026931808971e-06 -9.8892154087988691e-06 0 5.0276133179047911e-06 -9.1619191415810673e-06 0 6.1753504876995559e-06 -9.8069175779496338e-06 0 5.9743800948322344e-06 -1.1242153552229541e-05 0 5.0276133179047911e-06 -9.1619191415810673e-06 0 4.9471924946650639e-06 -1.0934237395587147e-05 0 5.9743800948322344e-06 -1.1242153552229541e-05 0 5.0276133179047911e-06 -9.1619191415810673e-06 0 4.9471924946650639e-06 -1.0934237395587147e-05 0 4.0577026931808971e-06 -9.8892154087988691e-06 0 6.2635136278731841e-06 -8.2576945235958244e-06 0 7.1664864909303156e-06 -1.0105565206617839e-05 0 6.1753504876995559e-06 -9.8069175779496338e-06 0 5.4389212409530583e-06 -8.0381322626412671e-06 0 6.2635136278731841e-06 -8.2576945235958244e-06 0 6.1753504876995559e-06 -9.8069175779496338e-06 0 5.4389212409530583e-06 -8.0381322626412671e-06 0 5.0276133179047911e-06 -9.1619191415810673e-06 0 6.1753504876995559e-06 -9.8069175779496338e-06 0 6.1753504876995559e-06 -9.8069175779496338e-06 0 7.3208623445957287e-06 -1.1712292060970773e-05 0 5.9743800948322344e-06 -1.1242153552229541e-05 0 7.1664864909303156e-06 -1.0105565206617839e-05 0 6.1753504876995559e-06 -9.8069175779496338e-06 0 7.3208623445957287e-06 -1.1712292060970773e-05 0 8.7934107762922252e-06 -1.283659442758436e-05 0 7.3208623445957287e-06 -1.1712292060970773e-05 0 8.103616965058127e-06 -1.3403369214819124e-05 0 7.3208623445957287e-06 -1.1712292060970773e-05 0 6.9268996977159628e-06 -1.30510563394281e-05 0 5.9743800948322344e-06 -1.1242153552229541e-05 0 7.3208623445957287e-06 -1.1712292060970773e-05 0 6.9268996977159628e-06 -1.30510563394281e-05 0 8.103616965058127e-06 -1.3403369214819124e-05 0 4.9471924946650639e-06 -1.0934237395587147e-05 0 5.7725016322537501e-06 -1.2671091360664108e-05 0 4.8345012613180857e-06 -1.2315904193756297e-05 0 6.9268996977159628e-06 -1.30510563394281e-05 0 5.9743800948322344e-06 -1.1242153552229541e-05 0 5.7725016322537501e-06 -1.2671091360664108e-05 0 4.9471924946650639e-06 -1.0934237395587147e-05 0 5.9743800948322344e-06 -1.1242153552229541e-05 0 5.7725016322537501e-06 -1.2671091360664108e-05 0 6.3062475948917024e-06 -1.4234312953832045e-05 0 6.9268996977159628e-06 -1.30510563394281e-05 0 5.7725016322537501e-06 -1.2671091360664108e-05 0 5.7725016322537501e-06 -1.2671091360664108e-05 0 5.3328751270998943e-06 -1.3457320340148466e-05 0 4.8345012613180857e-06 -1.2315904193756297e-05 0 6.3062475948917024e-06 -1.4234312953832045e-05 0 5.7725016322537501e-06 -1.2671091360664108e-05 0 5.3328751270998943e-06 -1.3457320340148466e-05 0 5.3328751270998943e-06 -1.3457320340148466e-05 0 4.8345012613180857e-06 -1.2315904193756297e-05 0 4.3366390909498545e-06 -1.3088534704347757e-05 0 4.8345012613180857e-06 -1.2315904193756297e-05 0 3.8539287049036118e-06 -1.1430467468595128e-05 0 4.3366390909498545e-06 -1.3088534704347757e-05 0 4.9471924946650639e-06 -1.0934237395587147e-05 0 4.8345012613180857e-06 -1.2315904193756297e-05 0 3.8539287049036118e-06 -1.1430467468595128e-05 0 3.8539287049036118e-06 -1.1430467468595128e-05 0 4.3366390909498545e-06 -1.3088534704347757e-05 0 2.9229291756606599e-06 -1.2295052115276431e-05 0 6.2727410610423007e-06 -3.5497516959340037e-05 0 1.3661829549295792e-05 -3.8873763815321422e-05 0 1.2246986326923867e-05 -3.1508986334613171e-05 0 8.6010049521515728e-06 -2.6555629948857745e-05 0 7.5387108437456981e-06 -2.1909722290508352e-05 0 4.3366390909498545e-06 -1.3088534704347757e-05 0 3.6933179768713566e-06 -1.4245103778753405e-05 0 2.9229291756606599e-06 -1.2295052115276431e-05 0 8.4227033067223308e-06 -4.2592933719840481e-05 0 6.2727410610423007e-06 -3.5497516959340037e-05 0 1.3661829549295792e-05 -3.8873763815321422e-05 0 6.2727410610423007e-06 -3.5497516959340037e-05 0 1.2246986326923867e-05 -3.1508986334613171e-05 0 6.5426167990844563e-06 -2.8801020680806291e-05 0 1.2246986326923867e-05 -3.1508986334613171e-05 0 6.5426167990844563e-06 -2.8801020680806291e-05 0 1.0696354309501449e-05 -2.475173229348251e-05 0 3.8539287049036118e-06 -1.1430467468595128e-05 0 2.9229291756606599e-06 -1.2295052115276431e-05 0 2.5045183727316853e-06 -1.0083947526043051e-05 0 7.5387108437456981e-06 -2.1909722290508352e-05 0 6.5799819608400046e-06 -1.7432735708054819e-05 0 6.5426167990844563e-06 -2.8801020680806291e-05 0 5.9937968928708162e-06 -2.1791438016587673e-05 0 1.0696354309501449e-05 -2.475173229348251e-05 0 2.2741736014230096e-06 -2.5376927550223558e-05 0 6.5426167990844563e-06 -2.8801020680806291e-05 0 5.9937968928708162e-06 -2.1791438016587673e-05 0 8.968813020359052e-06 -1.8583624393720296e-05 0 5.9937968928708162e-06 -2.1791438016587673e-05 0 1.0696354309501449e-05 -2.475173229348251e-05 0 3.3911563403545496e-06 -8.4569064698044441e-06 0 2.5045183727316853e-06 -1.0083947526043051e-05 0 4.0577026931808971e-06 -9.8892154087988691e-06 0 3.3911563403545496e-06 -8.4569064698044441e-06 0 4.1476007007086298e-06 -7.877303282462545e-06 0 4.0577026931808971e-06 -9.8892154087988691e-06 0 4.9471924946650639e-06 -1.0934237395587147e-05 0 3.8539287049036118e-06 -1.1430467468595128e-05 0 4.0577026931808971e-06 -9.8892154087988691e-06 0 3.8539287049036118e-06 -1.1430467468595128e-05 0 2.5045183727316853e-06 -1.0083947526043051e-05 0 4.0577026931808971e-06 -9.8892154087988691e-06 0 
</DataArray>
</PointData>
<CellData Scalars="region_id,von_mises_stress,cross_section_updated,displacement_divergence," Vectors="" Tensors="stress,">
<DataArray type="Float64" Name="region_id" format="ascii">
1 1 1 1 1 1 1 1 1 1 1 1 1 1 1 1 1 1 1 1 1 1 1 1 1 1 1 1 1 1 1 1 1 1 1 1 1 1 1 1 1 1 1 1 1 1 1 1 1 1 1 1 1 1 1 1 1 1 1 1 1 1 1 1 1 1 1 1 1 1 1 1 1 1 1 1 1 1 1 1 1 1 1 1 1 1 1 1 1 1 1 1 1 1 1 1 1 1 1 1 1 1 1 1 1 1 1 1 1 1 1 1 1 1 1 1 1 1 1 1 1 1 1 1 1 1 1 1 1 1 1 1 1 1 1 1 1 1 1 1 1 1 1 1 1 1 1 1 1 1 1 1 1 1 1 1 1 1 1 1 1 1 1 1 1 1 1 1 1 1 1 1 1 1 1 1 1 1 1 1 1 1 1 1 1 1 1 1 1 1 1 1 1 1 1 1 1 1 1 1 1 1 1 1 1 1 1 1 1 1 1 1 1 1 1 1 1 1 1 1 1 1 1 1 1 1 1 1 1 1 1 1 1 1 1 1 1 1 1 1 1 1 1 1 1 1 1 1 1 1 1 1 1 1 1 1 1 1 1 1 1 1 1 1 1 1 1 1 1 1 1 1 1 1 1 1 1 1 1 1 1 1 1 1 1 1 1 1 1 1 1 1 1 1 1 1 1 1 1 1 1 1 1 1 1 1 1 1 1 1 1 1 1 1 1 1 1 1 1 1 1 1 1 1 1 1 1 1 1 1 1 1 1 1 1 1 1 1 1 1 1 1 1 1 1 1 1 1 1 1 1 1 1 1 1 1 1 1 1 1 1 1 1 1 1 1 1 1 1 1 1 1 1 1 1 1 1 1 1 1 1 1 1 1 1 1 1 1 1 1 1 1 1 1 1 1 1 1 1 1 1 1 1 1 1 1 1 1 1 1 1 1 1 1 1 1 1 1 1 1 1 1 1 1 1 1 1 1 1 1 1 1 1 1 1 1 1 1 1 1 1 1 1 1 1 1 1 1 1 1 1 1 1 1 1 1 1 1 1 1 1 1 1 1 1 1 1 1 1 1 1 1 1 1 1 1 1 1 1 1 1 1 1 1 1 1 1 1 1 1 1 1 1 1 1 1 1 1 1 1 1 1 1 1 1 1 1 1 1 1 1 1 1 1 1 1 1 1 1 1 1 1 1 1 1 1 1 1 1 1 1 1 1 1 1 1 1 1 3 1 1 3 1 1 3 1 1 1 1 1 1 1 1 1 1 1 1 1 3 1 1 1 1 1 3 1 1 1 1 1 1 1 1 1 1 1 1 1 1 1 1 1 1 1 1 1 1 1 1 1 1 1 1 1 1 1 1 1 1 1 1 1 1 1 1 1 1 1 1 1 1 1 1 1 1 1 1 1 1 1 1 1 1 1 1 1 1 1 1 1 1 1 1 1 1 1 1 1 1 1 1 1 1 1 1 1 1 1 1 1 1 1 1 1 1 1 1 1 1 1 1 1 1 1 1 1 1 1 1 1 1 1 1 1 1 1 1 1 1 1 1 1 1 1 1 1 1 1 1 1 1 1 1 1 1 1 1 1 1 1 1 1 1 1 1 1 1 1 1 1 1 1 1 1 1 1 1 1 1 1 1 1 1 1 1 1 1 1 1 1 1 1 1 3 1 1 1 3 1 1 3 1 1 1 1 1 1 1 1 1 1 1 3 1 1 1 1 3 1 1 1 1 1 1 1 1 1 1 1 1 1 1 1 1 1 1 1 1 1 1 1 1 1 1 1 1 1 1 1 1 1 1 1 1 1 1 1 1 1 1 1 1 1 1 1 1 1 1 1 1 1 1 1 1 1 1 2 1 1 1 1 1 1 1 1 1 1 1 1 1 1 2 1 1 2 1 2 1 1 1 1 1 1 1 1 1 1 1 1 1 2 1 1 1 1 1 1 1 1 1 1 1 1 1 1 1 1 1 1 1 1 1 1 1 1 1 1 1 1 1 1 1 1 1 1 1 1 1 1 1 1 1 1 1 1 1 1 1 1 1 1 1 1 1 1 1 1 1 1 1 1 1 1 1 1 1 1 1 1 1 1 1 1 1 1 1 1 1 1 1 1 1 1 1 1 1 1 1 1 1 1 1 1 1 1 1 1 1 1 1 1 1 1 1 1 1 1 1 1 1 1 1 1 1 1 1 1 1 1 1 1 1 1 1 1 1 1 1 1 1 1 1 1 1 1 1 1 2 1 1 2 1 2 1 1 1 1 1 1 1 1 1 1 1 1 1 1 1 1 1 1 1 1 1 1 1 1 1 1 1 1 1 1 1 1 1 1 1 1 1 1 1 1 1 1 1 1 1 1 1 2 1 1 1 1 1 2 1 1 1 1 1 1 1 
</DataArray>
<DataArray type="Float64" Name="stress" NumberOfComponents="9" format="ascii">
-0.016799715979676923 0.00086797354361049859 0 0.00086797354361049859 -0.0022196596540320608 0 0 0 -0.0047548439084272465 -0.016006714867684908 0.001351266985445171 0 0.001351266985445171 -0.005325700661549723 0 0 0 -0.0053331038823086589 -0.017152494636102262 0.0016018142203515274 0 0.0016018142203515274 0.00098108181467675918 0 0 0 -0.0040428532053563768 -0.01648661388074114 0.0019712215344613406 0 0.0019712215344613406 -0.0022839138659530404 0 0 0 -0.0046926319366735443 -0.013554743272531722 0.0042528196380963541 0 0.0042528196380963541 -0.004519716489444733 0 0 0 -0.0045186149404941147 -0.013552531551926846 0.004255042119002659 0 0.004255042119002659 -0.0045124947791437978 0 0 0 -0.0045162565827676603 -0.01561635351502447 0.0041101645121147546 0 0.0041101645121147546 -0.001108328809917057 0 0 0 -0.0041811705812353816 -0.016041463157469217 0.0036838063421491059 0 0.0036838063421491059 -0.0014282416289252871 0 0 0 -0.0043674261965986269 -0.015024607682594405 0.0048354545683832626 0 0.0048354545683832626 -0.0011301795686449734 0 0 0 -0.0040386968128098468 -0.012019728527865587 0.0050161879294819073 0 0.0050161879294819073 -0.00026102898087247695 0 0 0 -0.0030701893771845172 -0.017335810258261954 0.0051739028502604473 0 0.0051739028502604473 -0.00063378131697382906 0 0 0 -0.0044923978938089405 -0.011865205953232006 0.0056444185321390204 0 0.0056444185321390204 0.00028251259731736783 0 0 0 -0.002895673338978659 -0.021404877904744917 0.0040487020753152778 0 0.0040487020753152778 -0.00031958096875095779 0 0 0 -0.0054311147183739739 -0.016690510834327054 0.0042681993817339243 0 0.0042681993817339243 0.00024923213081278969 0 0 0 -0.0041103196758785661 -0.025211147820279924 0.001576616959622015 0 0.001576616959622015 -0.00082566833044131439 0 0 0 -0.0065092040376803079 -0.020281938398262565 0.0019887320081604328 0 0.0019887320081604328 -0.00011656157983298935 0 0 0 -0.0050996249945238874 -0.018730426423760292 0.0026862774433853891 0 0.0026862774433853891 0.0011362586046957382 0 0 0 -0.00439854195476614 -0.018926598710219112 0.0041096598779707099 0 0.0041096598779707099 -0.00030358214047547342 0 0 0 -0.0048075452126736468 -0.0022866269767612846 0.0059173362889568207 0 0.0059173362889568207 -0.0007609528453949877 0 0 0 -0.00076189495553906806 -0.0045328726734179675 0.0071176577261129938 0 0.0071176577261129938 -0.0008742096208632158 0 0 0 -0.0013517705735702958 -0.005279934846488709 0.0054699898362820729 0 0.0054699898362820729 -0.00053540140495106012 0 0 0 -0.0014538340628599405 -0.0094480268737681724 0.0063355443811975191 0 0.0063355443811975191 -0.00073575909511861166 0 0 0 -0.0025459464922216951 -0.0099470489504312858 0.00577090635690312 0 0.00577090635690312 -0.0018980514089343391 0 0 0 -0.0029612750898414053 -0.0063088957720488755 0.0064047983588745704 0 0.0064047983588745704 -0.0010645205831303056 0 0 0 -0.0018433540887947955 -0.0064083150971195211 0.0056732669061762111 0 0.0056732669061762111 -0.002138277588432649 0 0 0 -0.0021366481713880428 -0.010485896719220801 0.0063803955233741952 0 0.0063803955233741952 -0.00035779751797192921 0 0 0 -0.0027109235592981829 -0.011274446156435492 0.0050992320940298208 0 0.0050992320940298208 -0.00046991745203354279 0 0 0 -0.0029360909021172591 -0.0094329194537277686 0.0055477420267053381 0 0.0055477420267053381 -0.0010485425291033024 0 0 0 -0.0026203654957077677 -0.0042882948176264264 0.0054596705751096004 0 0.0054596705751096004 -0.000294288003357129 0 0 0 -0.0011456457052458863 -0.0045351736321359451 0.0059791699036650459 0 0.0059791699036650459 -0.000804646706572789 0 0 0 -0.0013349550846771833 -0.002120478988754471 0.0068889125226616506 0 0.0068889125226616506 -0.00076401242228632191 0 0 0 -0.00072112285276019691 -0.0002630744585265278 0.0052021333237372265 0 0.0052021333237372265 1.4662021720318608e-05 0 0 0 -6.2103109201551432e-05 -0.00064560935015610388 0.006251825568153551 0 0.006251825568153551 -0.00069882943993955504 0 0 0 -0.00033610969752391473 -0.00073985250784186843 0.0048749989143203123 0 0.0048749989143203123 -0.00015074102593635313 0 0 0 -0.00022264838344455799 -0.0050221711570878512 0.0066494653407341182 0 0.0066494653407341182 -0.00070143301813868977 0 0 0 -0.0014309010438066372 -0.011343164287812096 0.0066139550915136069 0 0.0066139550915136069 -0.00051906006005215596 0 0 0 -0.0029655560869660605 -0.009145951610623218 0.0065167294300212241 0 0.0065167294300212241 -0.00054765479417222956 0 0 0 -0.0024234016011988628 -0.006072244890660084 0.0053695590523796105 0 0.0053695590523796105 0.00012870095401289888 0 0 0 -0.0014858859841617956 -0.011360593545915412 0.0054008699866260144 0 0.0054008699866260144 0.00038877884998674353 0 0 0 -0.0027429536739821654 -0.012721751569858903 0.0067447057905463265 0 0.0067447057905463265 -0.00045482808696525878 0 0 0 -0.0032941449142060413 -0.0092198784417664333 0.0054717701544889424 0 0.0054717701544889424 -0.00021836935609000074 0 0 0 -0.0023595619494641111 -0.0066016642711825679 0.0069754526924942564 0 0.0069754526924942564 5.3190945002026119e-05 0 0 0 -0.0016371183315451385 -0.0065990120128561792 0.0053803064121443643 0 0.0053803064121443643 0.00063014159081359929 0 0 0 -0.0014922176055106426 -0.0016522540113749311 0.0050659542478580753 0 0.0050659542478580753 0.0002460365698500229 0 0 0 -0.00035155436038122705 -0.0061180257203277792 0.0068663213447653967 0 0.0068663213447653967 -0.00055388777991500701 0 0 0 -0.0016679783750606966 -0.0046944899896991781 0.0047913728460578925 0 0.0047913728460578925 0.00070698110566739126 0 0 0 -0.0009968772210079478 0.0027908793313924504 0.0046783437993387442 0 0.0046783437993387442 -8.4541998552570968e-05 0 0 0 0.00067658433320996834 -0.0010611446398604268 0.0059058253166674526 0 0.0059058253166674526 -7.297149497965949e-06 0 0 0 -0.00026711044733959688 -0.025159287738511574 0.0018577940721976882 0 0.0018577940721976882 -0.0010243679806587573 0 0 0 -0.0065459139297925836 -0.020011856107808337 0.004657751701796874 0 0.004657751701796874 2.0336471779937304e-06 0 0 0 -0.0050024556151575883 -0.029665248108656846 0.0024451312220487749 0 0.0024451312220487749 -0.00013157250812017391 0 0 0 -0.0074492051541942593 -0.02035146382525143 0.0032998906093837576 0 0.0032998906093837576 0.00079886360961453629 0 0 0 -0.0048881500539092234 -0.015836303176088626 0.0048021709759039901 0 0.0048021709759039901 0.00053315508291763847 0 0 0 -0.0038257870232927434 -0.016470704809844153 0.005436624427136081 0 0.005436624427136081 -0.00035977770120510129 0 0 0 -0.0042076206277623165 -0.016798459755631285 0.006097017671969903 0 0.006097017671969903 -0.00034667138160300072 0 0 0 -0.0042862827843085649 -0.01935277408927491 0.0041899336317419494 0 0.0041899336317419494 0.00041189634478977326 0 0 0 -0.004735219436121282 -0.013817648533942524 0.0051395115265969859 0 0.0051395115265969859 -8.5755856884157239e-05 0 0 0 -0.0034758510977066677 -0.020306095498397937 0.005843780868432443 0 0.005843780868432443 -0.00046339016799830379 0 0 0 -0.005192371416599062 -0.016126781599932125 0.0047498707050571548 0 0.0047498707050571548 -0.00032888596538510921 0 0 0 -0.004113916891329312 -0.019721408772816241 0.0043873484348596883 0 0.0043873484348596883 0.00045981575762748909 0 0 0 -0.0048153982537971866 -0.027635804815917219 0.0035834606282879634 0 0.0035834606282879634 -0.00042431684514128258 0 0 0 -0.0070150304152646276 -0.026032008354073898 0.0034951265969774027 0 0.0034951265969774027 -0.00045173930700614972 0 0 0 -0.0066209369152700091 -0.025168609125489644 0.0020758325317296162 0 0.0020758325317296162 0.00026678874127666593 0 0 0 -0.0062254550960532447 -0.033947775729648862 0.0024275160171746122 0 0.0024275160171746122 -0.00029936156727571918 0 0 0 -0.0085617843242311413 -0.036359157953512682 0.0021821116280531447 0 0.0021821116280531447 -0.00028174654029241783 0 0 0 -0.009160226123451274 -0.026638660723323639 0.0027271406895731593 0 0.0027271406895731593 0.00074449356656855741 0 0 0 -0.0064735417891887727 -0.030922257314211849 0.0019955769798545211 0 0.0019955769798545211 0.00043098030584748197 0 0 0 -0.0076228192520910931 -0.042232296258486055 0.0016214948857679011 0 0.0016214948857679011 0.00065204585424268741 0 0 0 -0.010395062601060849 -0.032421229717321365 0.0045962662736502707 0 0.0045962662736502707 0.00081915697084638389 0 0 0 -0.0079005181866187504 -0.032553080443420389 0.0016874802852702916 0 0.0016874802852702916 -0.00057015514697096245 0 0 0 -0.0082808088975978352 -0.034484205580873388 0.0017993266652185005 0 0.0017993266652185005 0.001361201953562402 0 0 0 -0.0082807509068277482 -0.047819884074022531 0.00035447335126691931 0 0.00035447335126691931 -0.00050843113778966526 0 0 0 -0.012082078802953046 -0.019882751583598476 0.0031827125523729988 0 0.0031827125523729988 0.0011624665285190142 0 0 0 -0.0046800712637698784 -0.016182476720828273 0.0063815485357794841 0 0.0063815485357794841 0.00083783173197048491 0 0 0 -0.0038361612472144428 -0.024374077104795167 0.0042756367635668679 0 0.0042756367635668679 -0.00017686240246075381 0 0 0 -0.0061377348768139779 -0.024168217896716426 0.0049010630764004613 0 0.0049010630764004613 0.00038050617682402164 0 0 0 -0.0059469279299731066 -0.015990919857973827 0.0064453404029535463 0 0.0064453404029535463 0.00074413495129869653 0 0 0 -0.0038116962266687804 -0.027768330355610167 0.0059051179163329137 0 0.0059051179163329137 0.0010457747773279444 0 0 0 -0.0066806388945705487 -0.023255878776278473 0.0041316227149242281 0 0.0041316227149242281 -0.00044566654061678219 0 0 0 -0.0059253863292238187 -0.020638928717600653 0.0059783138896906812 0 0.0059783138896906812 0.00044825507809759333 0 0 0 -0.0050476684098757652 -0.014811960776645681 0.0064713449198478771 0 0.0064713449198478771 3.7939425269934574e-05 0 0 0 -0.0036935053378439383 -0.0097276314187027344 0.0061531580613989317 0 0.0061531580613989317 0.00020592921559737186 0 0 0 -0.0023804255507763375 -0.0096679548938720279 0.0053001911453256535 0 0.0053001911453256535 0.00035399492188315992 0 0 0 -0.0023284899929972196 -0.0088991824449613129 0.0051664385753978082 0 0.0051664385753978082 0.00091586733954533706 0 0 0 -0.0019958287763539931 -0.0044111588958723382 0.0060904840373690611 0 0.0060904840373690611 9.8693751682281481e-05 0 0 0 -0.0010781162860475123 -0.015904909900414686 0.0054074641209097196 0 0.0054074641209097196 0.00035936355437721961 0 0 0 -0.0038863865865093662 3.0190873919672123e-05 0.004408881079516729 0 0.004408881079516729 0.0012981376757480872 0 0 0 0.00033208213741693984 -0.0012033115505126635 0.0061886335030732114 0 0.0061886335030732114 -0.00031841948641253559 0 0 0 -0.00038043275923129935 -0.0034251982089266459 0.0043354042039872908 0 0.0043354042039872908 0.0016289781536155141 0 0 0 -0.00044905501382778296 0.0033735393963789584 0.0025065688222199508 0 0.0025065688222199508 0.0023644149998046475 0 0 0 0.0014344885990459015 0.0017466722376079744 0.0053677799380977467 0 0.0053677799380977467 0.00054381682004972336 0 0 0 0.00057262226441442488 -0.0025292696393772298 0.0044846543012949103 0 0.0044846543012949103 0.0025473954000771876 0 0 0 4.5314401749896663e-06 0.004404422249465861 0.0032688671881962346 0 0.0032688671881962346 0.0025792248069886406 0 0 0 0.0017459117641136258 0.0039713724928551186 0.0025352714465117759 0 0.0025352714465117759 0.0043716693938423354 0 0 0 0.0020857604716743618 -0.0092909728948884478 0.0064251436068487227 0 0.0064251436068487227 0.00076259770902428053 0 0 0 -0.0021320937964660423 -0.013383242594882265 0.0042010820897033091 0 0.0042010820897033091 0.00084478376467837617 0 0 0 -0.0031346147075509692 -0.002734408524072778 0.0048487057073366771 0 0.0048487057073366771 0.00092792643837717043 0 0 0 -0.00045162052142390299 -0.0064403147464320047 0.0035999093698463498 0 0.0035999093698463498 0.0020657901759851757 0 0 0 -0.0010936311426117127 -0.0087896241155629926 0.0063006852886145857 0 0.0063006852886145857 0.002107679822904579 0 0 0 -0.0016704860731646069 -0.012818488974169241 0.0060940568263466235 0 0.0060940568263466235 0.0030374374514494512 0 0 0 -0.0024452628806799458 -0.0080987356370404336 0.0043636024687722236 0 0.0043636024687722236 0.0063311514906535665 0 0 0 -0.00044189603659671589 -0.012341344932596855 0.0018770180411159399 0 0.0018770180411159399 0.003151118965869365 0 0 0 -0.002297556491681868 0.012335794306414034 0.00042405177297751874 0 0.00042405177297751874 0.0058321211538722786 0 0 0 0.0045419788650715789 -0.0041915129757123526 0.0049996553298259153 0 0.0049996553298259153 0.0039899639271312598 0 0 0 -5.0387262145273198e-05 0.0024300827403578185 0.002543201720672135 0 0.002543201720672135 0.0047694101066558907 0 0 0 0.001799873211753426 0.0031674095260013461 0.0028264608799023483 0 0.0028264608799023483 0.0076919612033549689 0 0 0 0.0027148426823390796 0.010260127568257678 -0.0007030282818848016 0 -0.0007030282818848016 0.0090153031337454614 0 0 0 0.0048188576755007796 0.0010889633982666472 0.0019525344528604702 0 0.0019525344528604702 0.012900535513456185 0 0 0 0.0034973747279307063 8.3446300830958275e-05 -0.0012474595454946974 0 -0.0012474595454946974 0.013668319465485468 0 0 0 0.0034379414415791065 0.0050380911316760049 -0.0041089228980131509 0 -0.0041089228980131509 0.010350344035163078 0 0 0 0.003847108791709769 0.0098205404858456927 -0.001432554252457037 0 -0.001432554252457037 0.020150390651594324 0 0 0 0.0074927327843599956 -0.011746106071588366 0.00054990391928046167 0 0.00054990391928046167 0.0080313272166805394 0 0 0 -0.00092869471372696716 -0.0015187041036326902 0.00091337619918906154 0 0.00091337619918906154 0.0059825905220102921 0 0 0 0.0011159716045944044 -0.0033036642772406588 -0.0032589064269720469 0 -0.0032589064269720469 0.0078409715728905566 0 0 0 0.0011343268239124779 -0.01308195324261259 0.0019246884534252395 0 0.0019246884534252395 0.0042768359965714431 0 0 0 -0.0022012793115102902 -0.016815854431303883 -0.0023015968872127091 0 -0.0023015968872127091 0.0044462849586649617 0 0 0 -0.0030923923681597347 -0.02374975067587929 8.8313800906514306e-05 0 8.8313800906514306e-05 0.0028327254857384021 0 0 0 -0.0052292562975352272 -0.026628243546873258 0.0032164908705075018 0 0.0032164908705075018 0.0021619511765404754 0 0 0 -0.0061165730925831982 -0.033606951049535247 -0.0022465513245927965 0 -0.0022465513245927965 0.0025186670454098586 0 0 0 -0.0077720710010313471 -0.036905849793572171 0.0014397644472591425 0 0.0014397644472591425 0.00087936185209419593 0 0 0 -0.0090066219853694868 -0.052328516063639065 0.00046546994735907621 0 0.00046546994735907621 0.00093955702701083166 0 0 0 -0.012847239759157074 -0.038105322619194679 0.0017416127050933483 0 0.0017416127050933483 0.0010794209291953988 0 0 0 -0.0092564754224998373 -0.037653328614468136 0.00042726153517381495 0 0.00042726153517381495 0.00052580478247638007 0 0 0 -0.0092818809579979303 -0.039192460393262213 0.00025960418828606738 0 0.00025960418828606738 -0.00048922474153512141 0 0 0 -0.009920421283699337 -0.032173104010238665 0.004596505608932995 0 0.004596505608932995 0.00099508039929163683 0 0 0 -0.0077945059027367605 -0.050948417899539598 0.002100371810707137 0 0.002100371810707137 0.00015805412111975781 0 0 0 -0.012697590944604958 -0.036713115518488097 0.0038538461758561536 0 0.0038538461758561536 0.0010136208919640927 0 0 0 -0.0089248736566309925 -0.024523185156171919 0.0057694305448666595 0 0.0057694305448666595 0.0018508617494761292 0 0 0 -0.0056680808516739456 -0.018885432736643323 0.005052791744652483 0 0.005052791744652483 0.0031235302964122136 0 0 0 -0.003940475610057774 -0.027285631921255916 0.0017361340011938509 0 0.0017361340011938509 0.0013899537815366273 0 0 0 -0.0064739195349298242 0.0092282174403187627 -0.003868880944818986 0 -0.003868880944818986 0.02025508696638214 0 0 0 0.0073708261016752225 0.0098842161666569568 -0.0041156681696997623 0 -0.0041156681696997623 0.017052408868943551 0 0 0 0.0067341562589001321 0.0092144918903074788 -0.0045271621859732806 0 -0.0045271621859732806 0.013753165942360132 0 0 0 0.0057419144581669045 0.0076847882917312135 -0.0027233227146374467 0 -0.0027233227146374467 0.018411263630201891 0 0 0 0.0065240129804832805 0.008786060853001933 -0.00015863856815997567 0 -0.00015863856815997567 0.020669032441370534 0 0 0 0.0073637733235931173 0.010270952502802216 -0.0010384815256192434 0 -0.0010384815256192434 0.02408412304777563 0 0 0 0.0085887688876444684 0.0070850638374694123 -0.0049114643030111274 0 -0.0049114643030111274 0.023489427538467431 0 0 0 0.0076436228439842012 0.0072868100743384082 -0.0046683532764852827 0 -0.0046683532764852827 0.022200190392096898 0 0 0 0.0073717501166088231 0.0077424316566816476 -0.0051821471102755836 0 -0.0051821471102755836 0.022292707305046365 0 0 0 0.007508784740431991 0.0077188224945508484 -0.0049306961189915927 0 -0.0049306961189915927 0.020689235594829325 0 0 0 0.0071020145223450286 0.0055547983927023287 -0.0050487482746650846 0 -0.0050487482746650846 0.019835937338227326 0 0 0 0.0063476839327324189 0.0068281645176029269 -0.0056191281162425088 0 -0.0056191281162425088 0.020787866886050096 0 0 0 0.0069040078509132567 0.0069994805681960785 -0.0055959996973292993 0 -0.0055959996973292993 0.020785336625394387 0 0 0 0.0069462042983976123 0.0069729570830698376 -0.0067630430671892288 0 -0.0067630430671892288 0.020379041909693418 0 0 0 0.0068379997481908122 0.0065225593752743297 -0.0056775950456115325 0 -0.0056775950456115325 0.023061236922402278 0 0 0 0.0073959490744191572 0.021538128032342799 -0.018976778694093848 0 -0.018976778694093848 0.035639371077203441 0 0 0 0.014294374777386556 0.0042338015461729703 -0.011340191490501535 0 -0.011340191490501535 0.021720083927373859 0 0 0 0.0064884713683867057 0.020461653190406742 -0.012607586424694932 0 -0.012607586424694932 0.020083297983670874 0 0 0 0.010136237793519404 0.0051958904500718668 -0.0069462266360827522 0 -0.0069462266360827522 0.02095237524662176 0 0 0 0.0065370664241734024 0.02268585763859722 -0.0035117973659156906 0 -0.0035117973659156906 0.030260034187092083 0 0 0 0.013236472956422302 0.020258008371419389 -0.0063060202102106638 0 -0.0063060202102106638 0.015983512030392763 0 0 0 0.0090603801004530346 0.033128291324411085 -0.010222184596310357 0 -0.010222184596310357 0.021029350150368893 0 0 0 0.013539410368694998 0.014935690596196175 -0.0072761116360541139 0 -0.0072761116360541139 0.014648984333196939 0 0 0 0.007396168732348286 0.010979074343701208 -0.00037048792326176139 0 -0.00037048792326176139 0.014157850022313663 0 0 0 0.0062842310915037199 0.021622416803601444 -0.0044276082890604643 0 -0.0044276082890604643 0.011719427014324595 0 0 0 0.0083354609544815141 0.010486810970264829 -0.0014026990994774717 0 -0.0014026990994774717 0.0087453824135927602 0 0 0 0.0048080483459643913 0.014279923237389934 -0.0021459517557142083 0 -0.0021459517557142083 0.0065063721038231687 0 0 0 0.0051965738353032774 0.011384739913988418 -0.0082016753083874981 0 -0.0082016753083874981 0.018537147476506474 0 0 0 0.0074804718476237236 0.0093338106125507424 -0.0076531310395895752 0 -0.0076531310395895752 0.012260997619479387 0 0 0 0.0053987020580075328 0.014686281997305161 -0.0063094206121381072 0 -0.0063094206121381072 0.014727671240863192 0 0 0 0.0073534883095420882 0.010096200862801125 -0.0035212978101333333 0 -0.0035212978101333333 0.0073272788612998565 0 0 0 0.0043558699310252448 0.01168135428377747 -0.0040306559776711239 0 -0.0040306559776711239 0.014694502460641587 0 0 0 0.0065939641861047626 0.01128020250588457 -0.0026318199312715756 0 -0.0026318199312715756 0.0090785058893383258 0 0 0 0.0050896770988057239 0.010829718848677327 0.00062849420085348343 0 0.00062849420085348343 0.0077343839629270246 0 0 0 0.0046410257029010846 0.0097192682148438993 0.00047263353413135468 0 0.00047263353413135468 0.0036858217438105866 0 0 0 0.0033512724896636228 0.0089764419723331428 -0.0005678974229664244 0 -0.0005678974229664244 0.0063281796213115254 0 0 0 0.003826155398411169 0.011214413614219742 -0.0010653600229869795 0 -0.0010653600229869795 0.0051248557430793092 0 0 0 0.0040848173393247629 0.0091849050128757891 0.0014065631441541305 0 0.0014065631441541305 0.0056747411025477069 0 0 0 0.0037149115288558719 0.0055020843335416231 0.0034596803990410629 0 0.0034596803990410629 0.0028586267478579392 0 0 0 0.0020901777703498897 0.0084029949345249318 0.00093311598272384131 0 0.00093311598272384131 0.0031590298124833703 0 0 0 0.0028905061867520753 0.00715407019639907 0.0036787830557224307 0 0.0036787830557224307 0.0023649076769957375 0 0 0 0.0023797444683487014 0.0057166836908803306 0.0028789096793078398 0 0.0028789096793078398 0.0013510587770450798 0 0 0 0.0017669356169813539 0.0034741233521082679 0.0050908662758373073 0 0.0050908662758373073 0.00053400320446895817 0 0 0 0.0010020316391443069 0.01074662925259098 0.00035403684883729717 0 0.00035403684883729717 0.005314152535001981 0 0 0 0.0040151954468982381 0.010338575929128974 8.9699063460427827e-05 0 8.9699063460427827e-05 0.0046633143481868179 0 0 0 0.0037504725693289476 0.0093845914611240585 0.0022237699232984954 0 0.0022237699232984954 0.0038770874332155615 0 0 0 0.0033154197235849025 0.008678630085136042 0.0018855348690223284 0 0.0018855348690223284 0.003261168797646985 0 0 0 0.0029849497206957572 0.010636697359582128 0.0010758751920267563 0 0.0010758751920267563 0.0063740429153979275 0 0 0 0.0042526850687450149 0.011348685025189782 0.0031304979170538316 0 0.0031304979170538316 0.0036991249650756997 0 0 0 0.0037619524975663729 0.013568726362598021 0.003078595343852358 0 0.003078595343852358 0.0064165591231567214 0 0 0 0.0049963213714386886 0.013918122139720445 0.0027104801490254226 0 0.0027104801490254226 0.0060055316296570155 0 0 0 0.0049809134423443677 0.01195720674161199 0.00061210287415813867 0 0.00061210287415813867 0.0076943311392610007 0 0 0 0.0049128844702182439 0.011945653283009448 0.00065381944381947069 0 0.00065381944381947069 0.009598676434926498 0 0 0 0.0053860824294839843 0.010327716573191483 -0.00053087877898940709 0 -0.00053087877898940709 0.0080626341911910811 0 0 0 0.004597587691095641 0.012401771219912174 -0.00031380088956707439 0 -0.00031380088956707439 0.014243511417501627 0 0 0 0.0066613206593534582 0.012896370418491888 0.0015704310436429354 0 0.0015704310436429354 0.010453698032112768 0 0 0 0.0058375171126511683 0.009492103695743697 -0.0014781985126977584 0 -0.0014781985126977584 0.012662297546068166 0 0 0 0.0055386003104529666 0.01083775280391212 -0.0021972099641123597 0 -0.0021972099641123597 0.016490710571317426 0 0 0 0.0068321158438073952 0.0098840656550744158 -0.0029841225649794084 0 -0.0029841225649794084 0.011439833304592126 0 0 0 0.0053309747399166293 0.013575845027552883 0.0022809287753978945 0 0.0022809287753978945 0.023317692165780987 0 0 0 0.0092233842983334702 0.010172401157346257 0.00054108571062663139 0 0.00054108571062663139 0.015413738295661363 0 0 0 0.0063965348632519133 0.011783967299343312 -0.00035206678989898276 0 -0.00035206678989898276 0.019243749298363689 0 0 0 0.0077569291494267497 0.013172989526731568 0.0017061367698417518 0 0.0017061367698417518 0.011674441342318577 0 0 0 0.0062118577172625361 0.014281208918401494 0.0031637912398133406 0 0.0031637912398133406 0.015427893025446676 0 0 0 0.0074272754859620411 0.014466696151720835 0.00295848736830839 0 0.00295848736830839 0.015532171618288133 0 0 0 0.0074997169425022351 0.015650588041325249 0.0036350849513060975 0 0.0036350849513060975 0.0084286206638061675 0 0 0 0.0060198021762828506 0.015667141227606447 0.0038534143425470874 0 0.0038534143425470874 0.0091461439452836836 0 0 0 0.0062033212932225369 0.018309321125964242 0.0048880114177894552 0 0.0048880114177894552 0.0068797362034724759 0 0 0 0.0062972643323591804 0.017753306661428884 0.0045261329701169247 0 0.0045261329701169247 0.0039644998647884074 0 0 0 0.0054294516315543211 0.015810768643441536 0.0034564109203570276 0 0.0034564109203570276 0.0017138856756592699 0 0 0 0.0043811635797752014 0.015542129589094986 0.0041457699929618192 0 0.0041457699929618192 0.0046824348613058488 0 0 0 0.0050561411126002036 0.01606080384689193 0.003577288231405934 0 0.003577288231405934 0.004575870722097657 0 0 0 0.0051591686422474007 0.012105815379411626 0.002235306495091776 0 0.002235306495091776 0.004240897501347908 0 0 0 0.0040866782201898844 0.012202704350018054 0.0037262959685482296 0 0.0037262959685482296 0.0022273245530642725 0 0 0 0.0036075072257705813 0.013969674980601806 0.0037585617371781346 0 0.0037585617371781346 0.0024200918676102433 0 0 0 0.0040974417120530106 0.014425303574597804 0.0037796856079223874 0 0.0037796856079223874 0.0040485487735593389 0 0 0 0.0046184630870392861 0.014703075547751913 0.0034596034067311716 0 0.0034596034067311716 0.0011425641169721598 0 0 0 0.0039614099161810199 0.014548919509506854 0.0041533240850229729 0 0.0041533240850229729 0.00072979373083693552 0 0 0 0.0038196783100859473 0.011837245839180038 0.0039140353633966242 0 0.0039140353633966242 0.00084789399706730953 0 0 0 0.0031712849590618368 0.016597749690415498 0.0038442307881363571 0 0.0038442307881363571 0.00047549662911135562 0 0 0 0.004268311579881715 0.016433655745673646 0.0030743675718673666 0 0.0030743675718673666 0.00025935328830683363 0 0 0 0.0041732522584951174 0.01866169297753624 0.0035829436103075596 0 0.0035829436103075596 0.00080246689724980391 0 0 0 0.0048660399686965118 0.017341497244949967 0.0032178435255999457 0 0.0032178435255999457 0.0005722922129210023 0 0 0 0.0044784473644677433 0.016394988196057166 0.0040329224117061323 0 0.0040329224117061323 0.0017851323760713334 0 0 0 0.0045450301430321255 0.0032721563810571529 0.0047213402235390632 0 0.0047213402235390632 0.0015171445035806197 0 0 0 0.0011973252211594423 0.0067467879140001887 0.0039957719985185053 0 0.0039957719985185053 0.00045270515938188385 0 0 0 0.0017998732683455199 0.0034202533368622003 0.0050100114132921956 0 0.0050100114132921956 0.00044951678451638291 0 0 0 0.00096744253034464472 0.0089346884413859379 0.0035966320939785834 0 0.0035966320939785834 9.2898711313061516e-05 0 0 0 0.0022568967881747507 0.0073551523489624338 0.0041994898700940557 0 0.0041994898700940557 0.0022019970206591383 0 0 0 0.0023892873424053943 0.0092527190209490441 0.003724351275092859 0 0.003724351275092859 0.0015521325672380112 0 0 0 0.0027012128970467673 0.010246526565444718 0.0024909302663229105 0 0.0024909302663229105 0.001911925315240405 0 0 0 0.0030396129701712807 0.010336919794178209 0.004397107326161118 0 0.004397107326161118 0.0027922906157319309 0 0 0 0.0032823026024775366 0.01151587626715393 0.0033982637146574906 0 0.0033982637146574906 0.00056417503501330485 0 0 0 0.0030200128255418093 0.0096050628363275568 0.003692839752826426 0 0.003692839752826426 0.00094317683005966553 0 0 0 0.002637059916596806 0.011663842153387486 0.0045131510856671626 0 0.0045131510856671626 0.00029162880660900566 0 0 0 0.0029888677399991224 0.0081815944148219428 0.0048957450314076056 0 0.0048957450314076056 0.0011067625964614174 0 0 0 0.0023220892528208379 0.0075422737764227338 0.0044707673536773145 0 0.0044707673536773145 0.00010000641972666979 0 0 0 0.0019105700490373509 0.0038890822419564396 0.0048099978935045688 0 0.0048099978935045688 0.000195345526281622 0 0 0 0.0010211069420595145 0.0033052538916719439 0.0057189745398852892 0 0.0057189745398852892 -0.00014369236260397197 0 0 0 0.00079039038226699429 0.0032778043459140245 0.0049822476954708358 0 0.0049822476954708358 -1.5888968802571513e-05 0 0 0 0.00081547884427786259 2.3250846108631776e-05 0.0059996600995897431 0 0.0059996600995897431 -0.00026122863485684295 0 0 0 -5.9494447187053226e-05 0.0021521928350381079 0.0063837664032497425 0 0.0063837664032497425 -0.00025389445197797995 0 0 0 0.00047457459576503113 -0.0003702748739664273 0.0056370509894599933 0 0.0056370509894599933 0.00026542666593930286 0 0 0 -2.6212052006781977e-05 0.0024069175032800589 0.0048935383821855603 0 0.0048935383821855603 -0.00026632575113684151 0 0 0 0.00053514793803580412 0.0057481340401220344 0.0056669891605811377 0 0.0056669891605811377 2.2604332648614237e-05 0 0 0 0.0014426845931926635 0.0051814560578724951 0.0049616594340981812 0 0.0049616594340981812 0.00031663162995633487 0 0 0 0.0013745219219572077 0.006283524959751827 0.0058603205962022243 0 0.0058603205962022243 0.00015571711556061196 0 0 0 0.0016098105188281078 0.0082439007310141608 0.0042531263250386621 0 0.0042531263250386621 0.00017618727707748721 0 0 0 0.002105022002022912 0.0087688144463718837 0.0047381753103103944 0 0.0047381753103103944 0.00062147810462894262 0 0 0 0.0023475731377502057 0.011340822321985458 0.0048382633517188335 0 0.0048382633517188335 0.00014594316593071095 0 0 0 0.0028716913719790431 0.0088470847727464188 0.0044192014056630667 0 0.0044192014056630667 0.001573975652799495 0 0 0 0.002605265106386478 0.0075781313109417716 0.0060369321706667508 0 0.0060369321706667508 0.00084819675352936982 0 0 0 0.0021065820161177856 0.0065767284610121178 0.0052715431325002799 0 0.0052715431325002799 0.0021922676607437088 0 0 0 0.0021922490304389563 0.0038387288896907972 0.0068562924913433002 0 0.0068562924913433002 0.00020021595024364083 0 0 0 0.0010097362099836093 0.0022226989468356736 0.0057064882002880154 0 0.0057064882002880154 0.00074004117071745416 0 0 0 0.000740685029388282 -0.00021128187213642971 0.0072745157278439358 0 0.0072745157278439358 -0.00061768981769966952 0 0 0 -0.00020724292245902567 0.016061512505807781 0.0029430617821006324 0 0.0029430617821006324 0.0010690041289350607 0 0 0 0.0042826291586857126 0.016669945735419987 0.0032764149787720223 0 0.0032764149787720223 0.00023179609245470301 0 0 0 0.0042254354569686726 0.014207511880049135 0.0037073383907418973 0 0.0037073383907418973 0.00045345773447150878 0 0 0 0.003665242403630161 0.014238878290471416 0.0039730514697829877 0 0.0039730514697829877 0.00022146383257478502 0 0 0 0.0036150855307615494 0.01174567973050103 0.0040655032672081478 0 0.0040655032672081478 0.0010746391198598604 0 0 0 0.0032050797125902229 0.013385147309089858 0.0039003533380150448 0 0.0039003533380150448 0.0013626693382297293 0 0 0 0.0036869541618298968 0.010478723992275795 0.0045155308756163757 0 0.0045155308756163757 0.0034908495764427879 0 0 0 0.0034923933921796454 0.010554287381786842 0.0050985425300858313 0 0.0050985425300858313 0.0019967118535230326 0 0 0 0.0031377498088274685 0.012815729140509531 0.0039208499489241508 0 0.0039208499489241508 0.0042712883932027384 0 0 0 0.0042717543834280662 0.012960853729058856 0.00387248070379974 0 0.00387248070379974 0.0021191658333220313 0 0 0 0.0037700048905952217 0.015838743231123144 0.0026718785955195433 0 0.0026718785955195433 0.0025220477171002051 0 0 0 0.0045901977370558364 0.014537932930324033 0.003395885112688415 0 0.003395885112688415 0.00081687196163790499 0 0 0 0.0038387012229904854 0.014000864512462465 0.0031987715395954365 0 0.0031987715395954365 0.0023669503488889833 0 0 0 0.0040919537153378625 0.014336531114552657 0.0030722255721385146 0 0.0030722255721385146 0.0047782948781918142 0 0 0 0.004778706498186118 0.015266243639117764 0.001907130245581774 0 0.001907130245581774 0.001778380927957808 0 0 0 0.0042611561417688938 0.016566888606087456 0.00090531261281478245 0 0.00090531261281478245 0.0055186457018084195 0 0 0 0.0055213835769739698 0.015073006131003649 0.00036939266876859239 0 0.00036939266876859239 0.0011830133154250282 0 0 0 0.0040640048616071688 0.017822743478856644 0.00027290148022204169 0 0.00027290148022204169 0.0018558862634536946 0 0 0 0.0049196574355775862 0.017585847294550244 0.0013406030298961475 0 0.0013406030298961475 0.001079283438247986 0 0 0 0.0046662826831995593 0.017971636878266542 0.0019523133150520684 0 0.0019523133150520684 0.00051152888981850862 0 0 0 0.0046207914420212616 0.01710792756392995 0.00099995700209043795 0 0.00099995700209043795 -0.00024416701578604293 0 0 0 0.0042159401370359794 0.019439525142425775 0.0010638665015339009 0 0.0010638665015339009 0.00046895116539087038 0 0 0 0.0049771190769541604 0.017986505049152224 0.0017900385712263833 0 0.0017900385712263833 -0.00096368493367130804 0 0 0 0.0042557050288702268 0.018543281215698582 0.0002275111345717246 0 0.0002275111345717246 -0.0018853923372753173 0 0 0 0.004164472219605816 0.017137153183703815 -0.0019801161136390397 0 -0.0019801161136390397 -0.0021595867804778818 0 0 0 0.0037443916008064832 0.018168707088745073 -0.00064963542662192894 0 -0.00064963542662192894 -0.00010072768671018795 0 0 0 0.0045169948505087223 0.017154281244769407 -0.00043657671805806927 0 -0.00043657671805806927 0.00038900170161317114 0 0 0 0.0043858207365956451 0.016401509326845271 -0.00057067296780977811 0 -0.00057067296780977811 0.0054681847739575986 0 0 0 0.005467423525200717 0.016162549098502971 -0.0019544159442459381 0 -0.0019544159442459381 0.0053830135859738119 0 0 0 0.0053863906711191963 0.014875611532150435 -0.0016785713074934916 0 -0.0016785713074934916 0.0013631576711131588 0 0 0 0.0040596923008158984 0.013469733658059499 -0.0039985881593663673 0 -0.0039985881593663673 0.0044887366457490897 0 0 0 0.0044896175759521467 0.016333949690954613 -0.0024396760026056206 0 -0.0024396760026056206 0.0011142570256993604 0 0 0 0.0043620516791634933 0.012794649711237208 -0.0039641397696221639 0 -0.0039641397696221639 -0.00029424272396538602 0 0 0 0.0031251017468179568 0.0082280822453276448 -0.0058804223416202926 0 -0.0058804223416202926 0.0027400199922942964 0 0 0 0.0027420255594054854 0.0088855314735111404 -0.0066086628774397454 0 -0.0066086628774397454 -0.0015542622150034203 0 0 0 0.0018328173146269309 0.0039764989677949763 -0.0084842775725412212 0 -0.0084842775725412212 -0.0020453871506685636 0 0 0 0.00048277795428160273 0.0087890007723609269 -0.0067359101759343247 0 -0.0067359101759343247 -0.0036532871390595988 0 0 0 0.001283928408325332 0.01067424405567181 -0.0052425995642667329 0 -0.0052425995642667329 -0.0023674678662248243 0 0 0 0.0020766940473617478 0.013151768179617645 -0.00427523259571937 0 -0.00427523259571937 -0.00050347108320019447 0 0 0 0.0031620742741043607 0.0070182202773608308 -0.0063692007412436821 0 -0.0063692007412436821 -0.0022651707130421986 0 0 0 0.0011882623910796555 0.012880732755442737 -0.0043583437775799629 0 -0.0043583437775799629 -0.0024834208706827447 0 0 0 0.0025993279711899967 0.016976960044931023 -0.0026080107605998726 0 -0.0026080107605998726 -0.0031864160340832805 0 0 0 0.0034476360027119349 0.017803411218782629 -0.0013868748749011105 0 -0.0013868748749011105 -0.001343199810194178 0 0 0 0.0041150528521471143 0.018583251496797019 -0.0019763032210267906 0 -0.0019763032210267906 -0.0021512565627961116 0 0 0 0.0041079987335002274 0.018110337832777251 -0.0017152736177693916 0 -0.0017152736177693916 -0.0034110183990561692 0 0 0 0.0036748298584302723 0.022255237362794427 -0.00012622728255076232 0 -0.00012622728255076232 -0.0026523530250968843 0 0 0 0.0049007210844243931 0.014867056690543666 -0.004695330710649764 0 -0.004695330710649764 -0.0044114284928358713 0 0 0 0.002613907049426949 0.011511965121560094 -0.0065467601399033896 0 -0.0065467601399033896 -0.0038368299764623068 0 0 0 0.0019187837862744452 0.01486977958291625 -0.0044852009221033919 0 -0.0044852009221033919 -0.0034058542089573374 0 0 0 0.0028659813434897289 0.016048181575787523 -0.0031663160709982348 0 -0.0031663160709982348 -0.0030266529596096325 0 0 0 0.0032553821540444719 0.0089160931199287197 -0.0066156834493522722 0 -0.0066156834493522722 -0.0046223187136183626 0 0 0 0.0010734436015775923 0.015039608415683331 -0.0067582798550415366 0 -0.0067582798550415366 -0.0047450225052701848 0 0 0 0.0025736464776032839 0.018134866217781768 -0.0052105136738110911 0 -0.0052105136738110911 -0.0031053781450765192 0 0 0 0.0037573720181763096 0.016815909241520349 -0.004314175649475927 0 -0.004314175649475927 -0.0042227245440288599 0 0 0 0.0031482961743728713 0.024279673586611435 -0.0018218901189140805 0 -0.0018218901189140805 -0.0018936605349430078 0 0 0 0.00559650326291711 0.018001540167520532 -0.0065351280042125559 0 -0.0065351280042125559 -0.0020837929163083128 0 0 0 0.0039794368128030473 0.017388748177059633 -0.0061788183434761078 0 -0.0061788183434761078 -0.0029317474976032045 0 0 0 0.0036142501698641083 0.020730396032522518 -0.00013650486890138429 0 -0.00013650486890138429 -0.0021222948803541145 0 0 0 0.0046520252880420986 0.021420657358495576 -0.0030814967913052435 0 -0.0030814967913052435 -0.0032035614233144583 0 0 0 0.0045542739837952798 0.024023522776755717 0.00045117466311201911 0 0.00045117466311201911 -0.0025795474450593151 0 0 0 0.0053609938329240991 0.027662688573036928 0.0024914045986593322 0 0.0024914045986593322 0.00083946554824873218 0 0 0 0.0071255385303214177 0.023593197428472896 0.0031967179438228358 0 0.0031967179438228358 0.0011304413592433601 0 0 0 0.0061809096969290631 0.024647916983575151 0.0028964382829668655 0 0.0028964382829668655 0.001664032710275095 0 0 0 0.0065779874234625571 0.022445936116419915 0.0020561150505293301 0 0.0020561150505293301 -0.0011613600669550909 0 0 0 0.0053211440123662034 0.022419153203240356 0.0039285983401292079 0 0.0039285983401292079 0.0014017280838299405 0 0 0 0.0059552203217675768 0.0232392719087854 0.0050596030800646747 0 0.0050596030800646747 0.0045203777939371095 0 0 0 0.0069399124256806291 0.021207149144441436 0.0036118457781588705 0 0.0036118457781588705 0.0017063730475891607 0 0 0 0.005728380548007647 0.020814912626648634 0.0051386056629059576 0 0.0051386056629059576 0.004922803058790455 0 0 0 0.0064344289213597739 0.018679176495393801 0.0038901658559984476 0 0.0038901658559984476 0.0019226589173311805 0 0 0 0.0051504588531812445 0.018211314217762727 0.0037177748855248601 0 0.0037177748855248601 0.0018070419746928652 0 0 0 0.0050045890481138968 0.01996512632955667 0.0026234089405374143 0 0.0026234089405374143 -0.00044962069511346198 0 0 0 0.0048788764086107987 0.020762790620494943 0.0032171830573298919 0 0.0032171830573298919 0.00054661653959839612 0 0 0 0.0053273517900233359 0.018137430874547451 0.002440560835759839 0 0.002440560835759839 -0.00080277318229876691 0 0 0 0.0043336644230621722 0.020420912763501779 0.0020005793840620935 0 0.0020005793840620935 -0.00011754319198966864 0 0 0 0.0050758423928780284 0.019041158273632293 0.0011526371019052986 0 0.0011526371019052986 -0.0017360520554410026 0 0 0 0.0043262765545478239 0.020246270079506742 0.00067143192171583745 0 0.00067143192171583745 -0.0010851493910311919 0 0 0 0.0047902801721188869 0.019813530664361482 -0.0009877934942846341 0 -0.0009877934942846341 -0.0021257886894314104 0 0 0 0.0044219354937325202 0.020640244851966621 0.0016276824439283139 0 0.0016276824439283139 -0.0011672969834793535 0 0 0 0.0048682369671218147 0.0220266112665174 0.0019409966235637388 0 0.0019409966235637388 -0.0010885259336524333 0 0 0 0.0052345213332162409 -0.036721648676432093 -0.0026813457754054546 0 -0.0026813457754054546 -0.0015327096978027055 0 0 0 -0.0095635895935586961 -0.025528926272909206 -0.0070709767474239661 0 -0.0070709767474239661 -0.00071243709498772928 0 0 0 -0.0065603408419742382 -0.028227613471061692 -0.0033161932549739858 0 -0.0033161932549739858 -0.00023663473696955949 0 0 0 -0.0071160620520078132 -0.025115573712898139 -0.0046389762299243751 0 -0.0046389762299243751 0.0019855699108773648 0 0 0 -0.0057825009505051888 -0.022339899354856557 -0.0031347524478741173 0 -0.0031347524478741173 0.0017355384505009751 0 0 0 -0.0051510902260888964 -0.021826395478399756 -0.002134829468078732 0 -0.002134829468078732 -0.0026569958438032153 0 0 0 -0.0061208478305507432 -0.020768686311242568 -0.0028041744522093793 0 -0.0028041744522093793 -0.0069093687481798383 0 0 0 -0.006919513764855602 -0.021453992900956835 -0.003648614795237484 0 -0.003648614795237484 -0.002733000911546022 0 0 0 -0.0060467484531257117 -0.020932947903957437 -0.0062877124783532294 0 -0.0062877124783532294 -0.0019108500311960444 0 0 0 -0.0057109494837883704 -0.019128364876622346 -0.0066226920490934874 0 -0.0066226920490934874 -0.0012049165522407639 0 0 0 -0.0050833203572157775 -0.01642569903980088 -0.0066524187648901905 0 -0.0066524187648901905 -0.0054778691108019516 0 0 0 -0.0054758920376507076 -0.016422234235991047 -0.0066548967717094606 0 -0.0066548967717094606 -0.005466812568966607 0 0 0 -0.005472261701239412 -0.01837420218558003 -0.0078654966339204158 0 -0.0078654966339204158 -0.0022769978458069863 0 0 0 -0.0051628000078467549 -0.012641537220327209 -0.0080946774103246907 0 -0.0080946774103246907 -0.00072332417162116261 0 0 0 -0.0033412153479870929 -0.020803599094321772 -0.0072954954546682171 0 -0.0072954954546682171 0.00032207701686228288 0 0 0 -0.0051203805193648705 -0.030041162085127388 -0.0073191320472474394 0 -0.0073191320472474394 -0.0012368529581294231 0 0 0 -0.0078195037608142018 -0.012061252354209535 -0.0096592901162155919 0 -0.0096592901162155919 -0.0005869766744561293 0 0 0 -0.0031620572571664195 -0.022176407743941397 -0.0088770823379754095 0 -0.0088770823379754095 -0.00213297409690031 0 0 0 -0.0060773454602104267 -0.010704175124908111 -0.0083073212734094161 0 -0.0083073212734094161 -0.0018941312100428671 0 0 0 -0.0031495765837377438 -0.0084759921884520351 -0.0084352798764712744 0 -0.0084352798764712744 -0.0029495098735061523 0 0 0 -0.0028563755154895464 -0.010586349630003251 -0.010105056817397 0 -0.010105056817397 -0.0020964896119793569 0 0 0 -0.0031707098104956518 -0.009601516964848086 -0.0092471759529237311 0 -0.0092471759529237311 -0.0012008851404865378 0 0 0 -0.0027006005263336547 -0.010181498568337222 -0.008766841005314557 0 -0.008766841005314557 -0.0026637775848016984 0 0 0 -0.0032113190382847289 -0.0042956894092963374 -0.0076591329751614359 0 -0.0076591329751614359 -0.0014358991562087452 0 0 0 -0.0014328971413762705 -0.0038907923645706737 -0.0090793809228799701 0 -0.0090793809228799701 -0.0024283236161611738 0 0 0 -0.0015797789951829616 -0.0018439995954151391 -0.0072873708336983322 0 -0.0072873708336983322 -0.0010747324765644772 0 0 0 -0.00072968301799490533 -0.0021951595485561835 -0.0095865317870841658 0 -0.0095865317870841658 -0.0019908417378192295 0 0 0 -0.0010465003215938545 0.0021833511525669105 -0.0071785769352199318 0 -0.0071785769352199318 0.00072849866569104054 0 0 0 0.00072796245456448769 0.0060252189671131584 -0.0060312576083244047 0 -0.0060312576083244047 -0.00061929648287472943 0 0 0 0.0013514806210596063 0.0024989455301926335 -0.0091101893151470433 0 -0.0091101893151470433 -0.002998984031729969 0 0 0 -0.00012500962538433517 0.00024506494888182611 -0.0090474259612298887 0 -0.0090474259612298887 -0.0029780017841917299 0 0 0 -0.00068323420882747486 0.00058895085643579162 -0.0074142122345696761 0 -0.0074142122345696761 -0.0027543939392473491 0 0 0 -0.00054136077070288981 0.0060046681980256041 -0.0088576924465734227 0 -0.0088576924465734227 -0.0050063638483759526 0 0 0 0.000249576087412412 0.0094713608188395811 -0.007226519103482089 0 -0.007226519103482089 -0.0033548225896680274 0 0 0 0.0015291345572928912 0.00085683456936932502 -0.010434301158139363 0 -0.010434301158139363 -0.0050466975395501781 0 0 0 -0.001047465742545212 0.0089589374140601145 -0.0089410326847938065 0 -0.0089410326847938065 -0.0050160114316960824 0 0 0 0.00098573149559100758 0.001238395426635691 -0.0093432154033477911 0 -0.0093432154033477911 -0.0017048070769048124 0 0 0 -0.00011660291256727993 -0.0019878818369247183 -0.011882672616615568 0 -0.011882672616615568 -0.0038488050307187941 0 0 0 -0.0014591717169108774 0.008248555314938167 -0.0080745853691190049 0 -0.0080745853691190049 -0.0021045463471745449 0 0 0 0.0015360022419409081 -0.0014996440299644039 -0.010718620365967005 0 -0.010718620365967005 -0.0020400849836504399 0 0 0 -0.00088493225340371094 9.1794254904235817e-05 -0.012812547174460721 0 -0.012812547174460721 -0.0013214655619451319 0 0 0 -0.00030741782676022272 -0.013191236290626799 -0.011081888295754998 0 -0.011081888295754998 -0.0042110257334034042 0 0 0 -0.0043505655060075516 -0.01172441148269548 -0.011673751057163223 0 -0.011673751057163223 -0.0028477049297908376 0 0 0 -0.0036430291031215832 -0.012595819141188904 -0.0095196116564060882 0 -0.0095196116564060882 -0.0010998208705071191 0 0 0 -0.0034239100029240018 -0.0010067359852451441 -0.0092342435677430952 0 -0.0092342435677430952 -0.0017340685094101374 0 0 0 -0.0006852011236638221 -0.0076622543179714116 -0.010347253736075711 0 -0.010347253736075711 -0.0035521080744999808 0 0 0 -0.0028035905981178477 -0.020184488319849515 -0.009774274904898057 0 -0.009774274904898057 -0.0020890244673923176 0 0 0 -0.0055683781968104574 -0.018877956870856631 -0.0088898798282042776 0 -0.0088898798282042776 0.00068229608587194041 0 0 0 -0.0045489151962461727 -0.026750322011023661 -0.00821866281979103 0 -0.00821866281979103 -0.00012170037471023742 0 0 0 -0.0067180055964334755 -0.020308825598049012 -0.012082158172078366 0 -0.012082158172078366 -0.00029677254463794656 0 0 0 -0.005151399535671738 -0.025694293848318544 -0.0092960061369611931 0 -0.0092960061369611931 -0.0023249805582270661 0 0 0 -0.0070048186016363999 -0.014046619354742572 -0.013664352897001762 0 -0.013664352897001762 -0.00064336997327392106 0 0 0 -0.0036724973320041258 -0.02553852019159147 -0.01061750863142358 0 -0.01061750863142358 0.0010526409176605436 0 0 0 -0.0061214698184827322 -0.040180262067399136 -0.0074770336989572004 0 -0.0074770336989572004 -0.0022747823677844517 0 0 0 -0.010613761108795906 -0.043452595236198835 -0.008755891266367723 0 -0.008755891266367723 -0.001168687191263347 0 0 0 -0.011155320606865551 -0.053210830663116784 -0.0048375981174401984 0 -0.0048375981174401984 -0.00036252230516981877 0 0 0 -0.013393338242071652 -0.038022549657019088 -0.0038597361738083591 0 -0.0038597361738083591 9.0428790590572211e-05 0 0 0 -0.0094830302166071332 -0.044443794450883811 -0.0044567146557579736 0 -0.0044567146557579736 -0.00037799369189715076 0 0 0 -0.011205447035695234 -0.027392436778119113 -0.0087679380516467245 0 -0.0087679380516467245 -0.00034568771063952022 0 0 0 -0.0069345311221896558 -0.037444939142897607 -0.0034935709286055914 0 -0.0034935709286055914 -0.0021183170236411912 0 0 0 -0.0098908140416346987 -0.027865939294058353 -0.0058213213851367228 0 -0.0058213213851367228 0.0014262196040430667 0 0 0 -0.0066099299225038238 -0.056678942487412218 -0.0041361568575031607 0 -0.0041361568575031607 0.0025782250143142962 0 0 0 -0.013525179368274493 -0.08262617777079391 -0.00046293944989227176 0 -0.00046293944989227176 -2.7558519364187517e-05 0 0 0 -0.020663434072539535 -0.05276710592132975 -0.0095146855305810688 0 -0.0095146855305810688 0.002743896053642586 0 0 0 -0.0125058024669218 -0.052226633446086489 -0.0022280825814830901 0 -0.0022280825814830901 0.001085768571504598 0 0 0 -0.012785216218645475 -0.071450861686772962 -0.0035355429838194331 0 -0.0035355429838194331 0.00099603316872026032 0 0 0 -0.017613707129513198 -0.061204834996938295 -0.0044817494786547098 0 -0.0044817494786547098 -0.00012615016111686833 0 0 0 -0.015332746289513791 -0.041483746625145923 -0.0047754848110431892 0 -0.0047754848110431892 0.00076471517758845437 0 0 0 -0.010179757861889373 -0.048058242350655894 -0.0039705240657462084 0 -0.0039705240657462084 0.00067257487752979839 0 0 0 -0.011846416868281522 -0.046027580449173426 -0.010494921915628123 0 -0.010494921915628123 0.0015460433784473503 0 0 0 -0.011120384267681513 -0.027217509161889759 -0.011003336453903405 0 -0.011003336453903405 0.0016626722066173626 0 0 0 -0.0063887092388181018 -0.027716335720752067 -0.010615915974469618 0 -0.010615915974469618 -0.00031085384862047753 0 0 0 -0.0070067973923431349 -0.018546002358966005 -0.010505250228480938 0 -0.010505250228480938 -0.0029750118538221667 0 0 0 -0.0053802535531970504 -0.027306602897139279 -0.014259160127203512 0 -0.014259160127203512 0.0039168082970797574 0 0 0 -0.0058474486500148873 -0.036107159745764957 -0.0068883705533915526 0 -0.0068883705533915526 0.0010405075542843853 0 0 0 -0.0087666630478701359 -0.030261674097038466 -0.0049579333749789761 0 -0.0049579333749789761 0.0036509325511548075 0 0 0 -0.0066526853864708919 -0.0068045055383533972 -0.011079713640937121 0 -0.011079713640937121 0.0049017610082848079 0 0 0 -0.00047568613251714603 -0.004171591655127798 -0.0097683279238306511 0 -0.0097683279238306511 0.012287909727857163 0 0 0 0.0020290795181823404 0.0061713274960346707 -0.013595739358228876 0 -0.013595739358228876 0.0032662869275099302 0 0 0 0.0023594036058861515 -0.022342880601820908 -0.0098968425457588924 0 -0.0098968425457588924 0.0049781992591896862 0 0 0 -0.004341170335657802 -0.0088333210546998071 -0.013314984662770112 0 -0.013314984662770112 0.0022039452111885611 0 0 0 -0.001657343960877815 -0.020784458312153503 -0.014524022542461641 0 -0.014524022542461641 0.00040236090038160797 0 0 0 -0.005095524352942968 -0.0095388501032861121 -0.015073815676776793 0 -0.015073815676776793 -0.0016537606745558597 0 0 0 -0.0027981526944604925 -0.0072429410010919617 -0.01137483098532391 0 -0.01137483098532391 9.3901548716829319e-06 0 0 0 -0.001808387711555069 0.003349255161195564 -0.013784759403204843 0 -0.013784759403204843 0.0003686018452226953 0 0 0 0.00092946425160456451 -0.0084695171981032467 -0.011265867916205586 0 -0.011265867916205586 0.0020680231837094838 0 0 0 -0.001600373503598439 0.0039319534033040796 -0.0099864278821318094 0 -0.0099864278821318094 0.00019440299251870241 0 0 0 0.0010315890989556946 0.015492811904705866 -0.012093910811685222 0 -0.012093910811685222 0.00052187516789095265 0 0 0 0.0040036717681492077 0.010625221397692007 -0.011707481857307999 0 -0.011707481857307999 -0.0015512921087562151 0 0 0 0.0022684823222339501 0.020920377838292599 -0.0092017381352591538 0 -0.0092017381352591538 -0.00083770502315662614 0 0 0 0.0050206682037839939 0.010803533741481221 -0.007930904234977958 0 -0.007930904234977958 -0.0019828339375635873 0 0 0 0.0022051749509794084 0.016307400670069402 -0.0070214899293286398 0 -0.0070214899293286398 0.0026833540843496564 0 0 0 0.0047476886886047643 0.027409664985765241 -0.0098650342692431156 0 -0.0098650342692431156 0.0044587372765137745 0 0 0 0.0079671005655697555 0.007444160332886255 -0.0096345448415101516 0 -0.0096345448415101516 0.0063765420703715547 0 0 0 0.0034551756008144533 0.021557587535125575 -0.011713207805313392 0 -0.011713207805313392 0.0075323946423051374 0 0 0 0.0072724955443576843 0.021148402998583601 -0.0060194300824557689 0 -0.0060194300824557689 0.011361017175794463 0 0 0 0.0081273550435945127 0.032421673667757903 -0.0026792785136845829 0 -0.0026792785136845829 0.023739938963999938 0 0 0 0.014040403157939474 0.037259077080570538 -0.010107562168293706 0 -0.010107562168293706 0.017396586317601256 0 0 0 0.013663915849542956 0.011353580681904028 -0.0065103444231419706 0 -0.0065103444231419706 0.014939998848312805 0 0 0 0.0065733948825542135 0.0058388617858049566 -0.01412137739211923 0 -0.01412137739211923 0.016555342597348255 0 0 0 0.0055985510957883046 0.02397256514249263 -0.013838723898881924 0 -0.013838723898881924 0.035427629233137331 0 0 0 0.014850048593907483 0.034055574590369647 -0.0077708644033744126 0 -0.0077708644033744126 0.066853861417238536 0 0 0 0.025227359001902039 0.034877958333283943 0.010988707005759435 0 0.010988707005759435 0.056188197956528407 0 0 0 0.022766539072453101 0.028753986212961463 0.0092558199583996741 0 0.0092558199583996741 0.070062004184089477 0 0 0 0.024703997599262728 0.020575041695424151 0.007476354626954923 0 0.007476354626954923 0.042983971678377086 0 0 0 0.015889753343450302 0.010272115130170817 -0.0053795981667652606 0 -0.0053795981667652606 0.032626249876041347 0 0 0 0.010724591251553034 0.018661182755440077 0.00063834252820624271 0 0.00063834252820624271 0.034380599546205495 0 0 0 0.01326044557541139 0.0021996170695557475 0.013215714054771344 0 0.013215714054771344 0.037842116563651065 0 0 0 0.010010433408301708 -0.0079763448900814632 0.0065348563207421329 0 0.0065348563207421329 0.020193067392293373 0 0 0 0.003054180625552988 -0.018180417430531774 0.0092617431869877337 0 0.0092617431869877337 0.027069978997631666 0 0 0 0.0022223903917749713 -0.010119678630294018 -0.0043660742579395726 0 -0.0043660742579395726 0.01139030600865637 0 0 0 0.0003176568445905914 -0.02211699238010718 -0.00090644606553302864 0 -0.00090644606553302864 0.012317515965021186 0 0 0 -0.0024498691037714952 -0.0035134039538813611 -0.0030889814658853904 0 -0.0030889814658853904 0.031564181402884056 0 0 0 0.0070126943622506738 -0.020687412779814889 -0.011604616548120929 0 -0.011604616548120929 0.013987970910674288 0 0 0 -0.0016748604672851483 -0.038037343574735552 -0.0095860527026193978 0 -0.0095860527026193978 0.0059399122957238537 0 0 0 -0.0080243578197529419 -0.04114155948987195 -0.00051952945606175555 0 -0.00051952945606175555 0.0055467401805136818 0 0 0 -0.0088987048273395583 -0.028495093801341603 -0.00722399424033323 0 -0.00722399424033323 0.011426104900049472 0 0 0 -0.0042672472253230259 -0.037361701930095921 0.0062675101087678042 0 0.0062675101087678042 0.011528010841323579 0 0 0 -0.0064584227721930839 -0.025325399350094063 0.0045358138138864856 0 0.0045358138138864856 0.00680235247165345 0 0 0 -0.0046307617196101603 -0.047316157466630801 0.010878343622402364 0 0.010878343622402364 0.0051909063248756424 0 0 0 -0.010531312785438795 -0.038876581420578163 0.005869904303034551 0 0.005869904303034551 0.01460928475276374 0 0 0 -0.0060668241669536438 -0.041762052942717232 9.2667071640781251e-05 0 9.2667071640781251e-05 0.0051178425218496582 0 0 0 -0.0091610526052169072 -0.057921565582184462 0.0040569478492720051 0 0.0040569478492720051 0.0051479559717624301 0 0 0 -0.013193402402605484 -0.055895137977573853 0.0011854315531143189 0 0.0011854315531143189 0.0022388347507006356 0 0 0 -0.013414075806718287 -0.083938428406007307 0.0020261778885568293 0 0.0020261778885568293 0.0032438697934530081 0 0 0 -0.020173639653138578 -0.061845898819706813 -0.0010113197529991874 0 -0.0010113197529991874 0.0014780466730431596 0 0 0 -0.015091963036665906 -0.087658162800491685 -0.0023477929569366701 0 -0.0023477929569366701 0.0020675262185985699 0 0 0 -0.021397659145473251 -0.064276748179499993 0.0010967150261851008 0 0.0010967150261851008 6.0600914766367753e-05 0 0 0 -0.016054036816183365 -0.0510555689234648 -0.0063458442025958739 0 -0.0063458442025958739 0.00356608962747057 0 0 0 -0.011872369823998568 -0.061234257055008609 -0.0071140774550347008 0 -0.0071140774550347008 0.0024580171749558899 0 0 0 -0.014694059970013176 0.026397902234556798 0.0091446022080388586 0 0.0091446022080388586 0.014283114900055655 0 0 0 0.010170254283653112 0.027989864515613534 0.0099281466865512695 0 0.0099281466865512695 0.018046875861408511 0 0 0 0.011509185094255508 0.028984206065939943 0.0104401684506438 0 0.0104401684506438 0.018343074545781331 0 0 0 0.011831820152930309 0.022715686665727652 0.0085819144386619899 0 0.0085819144386619899 0.022285146889419856 0 0 0 0.011250208388786881 0.017076954326857553 0.0058261809832618793 0 0.0058261809832618793 0.024181044230852759 0 0 0 0.010314499639427576 0.019260247445771064 0.0067302390454572428 0 0.0067302390454572428 0.014727057705177536 0 0 0 0.0084968262877371491 0.013583009545556968 0.0038150493345524526 0 0.0038150493345524526 0.016173159542184731 0 0 0 0.0074390422719354254 0.022847708934236193 0.0078876787150293556 0 0.0078876787150293556 0.015965232649923489 0 0 0 0.009703235396039931 0.018231623246202276 0.0050798525303247018 0 0.0050798525303247018 0.0091351483014580816 0 0 0 0.0068416928869150899 0.018315712672704227 0.005692049182321671 0 0.005692049182321671 0.013205464313228176 0 0 0 0.0078802942464830973 0.018349685890997575 0.0042057247590181037 0 0.0042057247590181037 0.0047558759229440195 0 0 0 0.005776390453485403 0.021576252593058218 0.0064646992396510906 0 0.0064646992396510906 0.0096778305133122591 0 0 0 0.007813520776592614 0.022515821247252987 0.0052612642076832038 0 0.0052612642076832038 0.0041753140078800398 0 0 0 0.0066727838137832498 0.022289487441840655 0.0063819359291254138 0 0.0063819359291254138 0.010254162924251287 0 0 0 0.0081359125915229959 0.025888770796357555 0.0075175724141862254 0 0.0075175724141862254 0.0089107864822046186 0 0 0 0.0086998893196405403 0.027040569190272458 0.0045989577963206785 0 0.0045989577963206785 0.0035039123532685391 0 0 0 0.0076361203858852532 0.024282962218033506 0.0037761275112541065 0 0.0037761275112541065 0.0031917525975921658 0 0 0 0.0068686787039064136 0.023368530832241934 -0.0015077397700836361 0 -0.0015077397700836361 -0.0014996949629852783 0 0 0 0.0054672089673141657 0.029545151981327039 0.00096636385152960684 0 0.00096636385152960684 0.0038092878946417164 0 0 0 0.0083386099689921802 0.028507347370508217 0.001691351974393334 0 0.001691351974393334 0.0022912565954455386 0 0 0 0.0076996509914884327 0.029452788648327559 0.0066407629359715864 0 0.0066407629359715864 0.0085332357861364616 0 0 0 0.0094965061086160086 0.021898320451459959 -0.0037763976096513666 0 -0.0037763976096513666 -0.00031027853705216683 0 0 0 0.0053970104786019452 0.026829661335125779 -0.0052046883024519357 0 -0.0052046883024519357 0.00086014337317057502 0 0 0 0.0069224511770740911 0.029543386753790979 -0.0010511297811083148 0 -0.0010511297811083148 0.0057212328122563348 0 0 0 0.0088161548915118293 0.033935253778808169 -0.0032217865916419229 0 -0.0032217865916419229 0.0098946326504918622 0 0 0 0.010957471607325006 0.039645899312105201 0.0033365708384364839 0 0.0033365708384364839 0.016101872862315431 0 0 0 0.013936943043605163 0.033218203445669947 0.0070127282939343293 0 0.0070127282939343293 0.0095347934920122866 0 0 0 0.010688249234420563 0.038048948300033698 0.0049677094316675522 0 0.0049677094316675522 0.008603323232762479 0 0 0 0.011663067883199046 0.032776874639294434 0.0067817381844727537 0 0.0067817381844727537 0.014305796978775556 0 0 0 0.011770667904517494 0.041404430015424189 0.0085268483887058627 0 0.0085268483887058627 0.016332787069507988 0 0 0 0.014434304271233048 0.035170625155796956 0.013731036549006297 0 0.013731036549006297 0.031862100222295714 0 0 0 0.016758181344523171 0.053197836687674693 0.01496099070408961 0 0.01496099070408961 0.030180437331158314 0 0 0 0.020844568504708259 0.043463264308286113 0.014053051235811055 0 0.014053051235811055 0.048049281868641311 0 0 0 0.022878136544231854 0.032444482998008693 0.015148463290738844 0 0.015148463290738844 0.049226854724831577 0 0 0 0.020417834430710064 0.038059665405785342 0.012282306101946664 0 0.012282306101946664 0.032862703494356979 0 0 0 0.017730592225035587 0.052027520038337799 -0.0020486159462152417 0 -0.0020486159462152417 0.025795661427115119 0 0 0 0.019455795366363229 0.053315459365243859 0.0050946899535219067 0 0.0050946899535219067 0.041841604532270885 0 0 0 0.023789265974378682 0.055532850523749663 -0.0099188898937191683 0 -0.0099188898937191683 0.035685988665814961 0 0 0 0.022804709797391159 0.10123518611235473 -0.005797914281315833 0 -0.005797914281315833 0.062348396041768839 0 0 0 0.040895895538530902 0.066594098477552169 -0.00219722804627423 0 -0.00219722804627423 0.13908877012882037 0 0 0 0.051420717151593132 0.095713936733107033 0.043652441755506734 0 0.043652441755506734 0.098945041878424789 0 0 0 0.048664744652882938 0.045720009898292641 0.024225660499332405 0 0.024225660499332405 0.083094877968526146 0 0 0 0.032203721966704686 0.020577593084588789 0.0092873739860244407 0 0.0092873739860244407 0.046592271959600418 0 0 0 0.01679246626104729 0.043487994362334248 0.015719533164632336 0 0.015719533164632336 0.048601457927652546 0 0 0 0.023022363072496707 0.022428824950833939 -0.011671177655997589 0 -0.011671177655997589 0.095428253626694534 0 0 0 0.029464269644382104 0.014353483562308738 -0.012381987998812741 0 -0.012381987998812741 0.049515769854309735 0 0 0 0.015967313354154623 0.015541194910772185 -0.012032908837406184 0 -0.012032908837406184 0.05483314093087871 0 0 0 0.017593583960412728 0.022454603638094397 0.0085364750996287687 0 0.0085364750996287687 0.051525917678260258 0 0 0 0.018495130329088678 0.022207671424206796 0.0090694463700848396 0 0.0090694463700848396 0.02939198601682199 0 0 0 0.012899914360257182 0.019640696749298386 0.0065094381658269869 0 0.0065094381658269869 0.046689582066412376 0 0 0 0.016582569703927685 0.012075007373863827 0.0018362953364952366 0 0.0018362953364952366 0.029498174109947015 0 0 0 0.01039329537095271 0.019109138250735333 0.0070253242520165703 0 0.0070253242520165703 0.036894707010622252 0 0 0 0.014000961315339389 0.020039752506277299 0.0079419948126385302 0 0.0079419948126385302 0.021073638460722379 0 0 0 0.01027834774174991 0.025932679058088846 0.011872081796510362 0 0.011872081796510362 0.032720289684851994 0 0 0 0.014663242185735212 0.012421372600260317 0.0035850517884950823 0 0.0035850517884950823 0.021522830952415223 0 0 0 0.0084860508881688841 0.013521382875855432 0.0024855159721058019 0 0.0024855159721058019 0.030387900746080776 0 0 0 0.010977320905484051 0.013625744723415614 -0.011430116242904393 0 -0.011430116242904393 0.032945385557561477 0 0 0 0.01164278257024428 0.010396681943339963 -0.0043864159959033193 0 -0.0043864159959033193 0.029811042511924568 0 0 0 0.010051931113816134 0.0081003780941144837 -0.0030279447831243044 0 -0.0030279447831243044 0.026117732510792555 0 0 0 0.0085545276512267576 0.013998744485058076 -0.00021003978487861303 0 -0.00021003978487861303 0.04037978368446675 0 0 0 0.01359463204238121 0.012049831474693691 -0.010381357680864303 0 -0.010381357680864303 0.024478148319284319 0 0 0 0.0091319949484945026 0.010367981019469754 -0.010905189494956112 0 -0.010905189494956112 0.018793092091152541 0 0 0 0.0072902682776555712 0.018778579050577875 -0.016419849596338763 0 -0.016419849596338763 0.021299891295917847 0 0 0 0.010019617586623907 0.014826142785626689 -0.01575909454833269 0 -0.01575909454833269 0.0069560578839011344 0 0 0 0.0054455501673819628 0.011777490463270965 -0.011619675273407872 0 -0.011619675273407872 0.0067544451359622393 0 0 0 0.0046329838998083045 0.018686133399453381 -0.013983686285438099 0 -0.013983686285438099 0.0087754785089904468 0 0 0 0.0068654029771109551 0.018489364320433903 -0.013433238980932337 0 -0.013433238980932337 0.0082125553906272075 0 0 0 0.0066754799277652724 0.015295627573777087 -0.011226597980568291 0 -0.011226597980568291 0.00047405224964769399 0 0 0 0.0039424199558561884 0.024333101638450816 -0.0074186622920918623 0 -0.0074186622920918623 -0.0019296976873890981 0 0 0 0.0056008509877654433 0.020852697009825609 -0.0096917838316663424 0 -0.0096917838316663424 -0.0074015998372163883 0 0 0 0.0033627742931523 0.024819349842402055 -0.012990150790483247 0 -0.012990150790483247 -0.0010738206341902035 0 0 0 0.005936382302052956 0.033926346792975043 -0.022399010311214676 0 -0.022399010311214676 0.013379028725104783 0 0 0 0.01182634387951996 0.012315686729830657 -0.012317558902505077 0 -0.012317558902505077 0.031165200843280616 0 0 0 0.010870221893277816 0.019614743405018585 -0.01875412479963625 0 -0.01875412479963625 0.018090058511039356 0 0 0 0.0094262004790144835 0.020489237015346759 -0.020320815230200309 0 -0.020320815230200309 0.025701078325121529 0 0 0 0.011547578835117077 0.022682817669143318 -0.024821831403357874 0 -0.024821831403357874 0.042371912580879176 0 0 0 0.01626368256250561 0.012229272531116071 -0.022797260438547056 0 -0.022797260438547056 0.059514131395714459 0 0 0 0.017935850981707639 0.028486041267324319 -0.021308087217331316 0 -0.021308087217331316 0.057521719235723294 0 0 0 0.021501940125761898 0.043429325386321826 -0.008410126505878841 0 -0.008410126505878841 0.17540865030117397 0 0 0 0.054709493921873964 0.034173220282659615 -0.00855611876698531 0 -0.00855611876698531 -0.01157285480462536 0 0 0 0.0056500913695085656 0.047471307906790564 -0.033457643842561585 0 -0.033457643842561585 0.032036784307565319 0 0 0 0.019877023053588953 0.089073942159266423 0.063475543327004946 0 0.063475543327004946 0.11543101375920845 0 0 0 0.051126238979618724 0.050074788597105652 -0.046758704650914265 0 -0.046758704650914265 0.074136635772350565 0 0 0 0.031052856092364061 0.0034543658231248231 0.00058330195873774072 0 0.00058330195873774072 0.0094021439329564013 0 0 0 0.0032141274390203064 0.14768114906233015 0.054860588718592798 0 0.054860588718592798 0.031665367645709708 0 0 0 0.044836629177009979 0.073237164365139495 0.01508377022884691 0 0.01508377022884691 0.01279643025927002 0 0 0 0.021508398656102379 0.0079171814367127707 0.0013790159576686271 0 0.0013790159576686271 0.023866424463955579 0 0 0 0.007945901475167088 0.0012157449258192177 0.0006518116055619777 0 0.0006518116055619777 0.017724007870440317 0 0 0 0.0047349381990648698 0.067687031290218025 0.013921296750530332 0 0.013921296750530332 0.014653158319001297 0 0 0 0.020585047402304775 0.01120460251901482 0.0019636472651257788 0 0.0019636472651257788 0.033500513634788807 0 0 0 0.011176279038450908 0.0033525766570683402 0.0040025125292490193 0 0.0040025125292490193 0.020980371795496333 0 0 0 0.0060832371131411822 0.049631342758461788 0.011436876012118846 0 0.011436876012118846 0.0044108347604432385 0 0 0 0.013510544379726264 0.025706961036537156 -0.01192695088983254 0 -0.01192695088983254 -0.010874442612233082 0 0 0 0.0037081296060760341 0.022087425181158117 0.0020126664302032582 0 0.0020126664302032582 0.0092483021631001028 0 0 0 0.0078339318360645602 0.021267196067196431 -0.0052949521631131639 0 -0.0052949521631131639 0.0034771911368126629 0 0 0 0.0061860968010022804 0.022582717714101884 -0.0019708800886332478 0 -0.0019708800886332478 -0.0033605911808776978 0 0 0 0.0048055316333060344 0.013643820195441879 0.0027955253305513711 0 0.0027955253305513711 0.0014627121355943185 0 0 0 0.0037766330827590164 0.018905771248714065 0.0023565984960693051 0 0.0023565984960693051 0.019204973551263049 0 0 0 0.0095276861999942786 0.012172550794211923 0.0046765237036817814 0 0.0046765237036817814 0.024210310067881907 0 0 0 0.0090957152155234644 0.020375758832447341 0.00033152754735926715 0 0.00033152754735926715 0.00056811912058235547 0 0 0 0.0052359694882573998 0.042097269826140371 0.009841559322335422 0 0.009841559322335422 0.0034003717414587964 0 0 0 0.011374410391899792 0.048148651106791562 0.0065939129870361546 0 0.0065939129870361546 0.023490268967261141 0 0 0 0.017909730018513148 0.054538247903062442 0.005355410445681219 0 0.005355410445681219 0.022085559987939485 0 0 0 0.01915595197275044 0.013954618295624267 0.0023520792532120776 0 0.0023520792532120776 0.041817138164912983 0 0 0 0.013942939115134311 0.04626040246240562 0.0052253147648633202 0 0.0052253147648633202 0.024935399692752491 0 0 0 0.017798950538789521 0.045323246907225945 0.0041691142060785169 0 0.0041691142060785169 0.021090241898034101 0 0 0 0.016603372201315025 0.037796985852373177 0.0089249543510921958 0 0.0089249543510921958 0.020725006657142275 0 0 0 0.014630498127378933 0.043547608857706921 0.0043692628775614025 0 0.0043692628775614025 0.028978446138843594 0 0 0 0.018131513749137573 0.018395295460152644 0.0051192517499274491 0 0.0051192517499274491 0.034023246689884212 0 0 0 0.013104635537509263 0.016603328542891461 0.0026428639865669276 0 0.0026428639865669276 0.049749378311880706 0 0 0 0.016588176713693042 0.039478253146616848 0.0036330883846291684 0 0.0036330883846291684 0.027804079944112603 0 0 0 0.016820583272682377 0.015211358029250777 0.0040248379691383979 0 0.0040248379691383979 0.0087617091222863541 0 0 0 0.0059932667878843104 0.016107031522483925 0.0036393922227203057 0 0.0036393922227203057 -0.00084735012787562347 0 0 0 0.0038149203486520789 0.021047090807210997 0.0030728652909473853 0 0.0030728652909473853 0.026744599135452407 0 0 0 0.011947922485665827 0.018566746540574962 0.0041643854276043335 0 0.0041643854276043335 0.0095037841289416503 0 0 0 0.0070176326673791409 0.018511949154421378 0.0056700945805316927 0 0.0056700945805316927 0.012168830550773085 0 0 0 0.0076701949262986263 0.01490288977401362 0.0044267929002603946 0 0.0044267929002603946 -0.002457671174788234 0 0 0 0.0031113046498063707 0.014719041943500599 0.0043556747392128059 0 0.0043556747392128059 -0.00226848579933564 0 0 0 0.0031126390360412259 0.017594991477650701 0.0022827158122609853 0 0.0022827158122609853 -0.0020273420672620446 0 0 0 0.0038919123525971711 0.017107246337620965 -0.0012532163777689009 0 -0.0012532163777689009 -0.0056581316139327487 0 0 0 0.0028622786809220646 0.01582407622281326 0.00088842798888211227 0 0.00088842798888211227 -0.0071706554490751362 0 0 0 0.0021633551934345518 0.01207944667820892 0.0018382133856034849 0 0.0018382133856034849 -0.0065178546191809392 0 0 0 0.0013903980147569944 0.015206514337304022 -0.00027245509780462335 0 -0.00027245509780462335 -0.001860989586414119 0 0 0 0.0033363811877224758 0.015116108822479518 -0.0039454241290220633 0 -0.0039454241290220633 -0.0029171941583318595 0 0 0 0.0030497286660369077 0.016600601814644539 -0.0014732218630978539 0 -0.0014732218630978539 -0.0045890696447131243 0 0 0 0.0030028830424828502 0.019169814085921111 -0.0057347622882972307 0 -0.0057347622882972307 -0.0057036053816745813 0 0 0 0.0033665521760616324 0.015052600676586869 -0.0061449636057954726 0 -0.0061449636057954726 -0.0051014586840225362 0 0 0 0.0024877854981410763 0.019623676681080782 -0.0085694374204358017 0 -0.0085694374204358017 -0.00078318877471272863 0 0 0 0.0047101219765920133 0.015311222523947912 -0.0088762962139460888 0 -0.0088762962139460888 -6.1475771877733676e-05 0 0 0 0.0038124366880175342 0.01818197301733426 -0.0051706667534771045 0 -0.0051706667534771045 -0.0070916464408941962 0 0 0 0.0027725816441100219 0.017592208884040644 -0.00095287642926353278 0 -0.00095287642926353278 -0.0085393482548027921 0 0 0 0.0022632151573094839 0.021077691465358067 -0.0033034557576841622 0 -0.0033034557576841622 -0.0048619609210053261 0 0 0 0.0040539326360881645 -0.04327968095887802 0.005372420908087816 0 0.005372420908087816 9.8668729505702046e-05 0 0 0 -0.010795253057343135 -0.049471309696825422 0.0065886880768593059 0 0.0065886880768593059 0.00062934355705912548 0 0 0 -0.012210491534941553 -0.035066105080806542 0.016317959447623487 0 0.016317959447623487 0.0051015911865091024 0 0 0 -0.00749112847357436 -0.067879084174546023 0.0071742260717828077 0 0.0071742260717828077 0.00091244177611105037 0 0 0 -0.016741660599608715 -0.072432940557918726 0.0055933523673841468 0 0.0055933523673841468 0.0031170393232269333 0 0 0 -0.017328975308672917 -0.044585705579567869 0.0075209585499047826 0 0.0075209585499047826 4.1240610202053496e-05 0 0 0 -0.011136116242341509 -0.045592275654961517 0.0086006259173834476 0 0.0086006259173834476 0.0016811401221112354 0 0 0 -0.010977783883212661 -0.033180798324803196 0.017746893659512375 0 0.017746893659512375 0.0072204877159831593 0 0 0 -0.006490077652205023 -0.020641376704214773 0.018290973360487073 0 0.018290973360487073 0.0084826156193379409 0 0 0 -0.0030396902712191837 -0.011889429218230441 0.022846538803843186 0 0.022846538803843186 0.014827037016981737 0 0 0 0.00073440194968782402 -0.020192090362876225 0.01581824588990545 0 0.01581824588990545 0.00096940928294464435 0 0 0 -0.004805670269982909 -0.015022398566785611 0.02290942594903872 0 0.02290942594903872 0.0056984242321850564 0 0 0 -0.0023309935836500761 -0.027852697477847799 0.013660666288738521 0 0.013660666288738521 -0.00090242614941860033 0 0 0 -0.007188780906816572 -0.010809616239049358 0.019634263766632937 0 0.019634263766632937 -0.0015837360371151465 0 0 0 -0.0030983380690410844 0.01990215103989669 0.026860091541166142 0 0.026860091541166142 0.0036987473178517472 0 0 0 0.0059002245894370781 0.0043212687834955354 0.023883433419179409 0 0.023883433419179409 0.00091957718931157117 0 0 0 0.0013102114932017628 0.028808690841094775 0.034413034915675433 0 0.034413034915675433 0.017595141555262761 0 0 0 0.011600958099089426 0.0051232272625102715 0.025708499056545486 0 0.025708499056545486 0.0053542705676038471 0 0 0 0.0026193744575285505 -0.01865107325072482 0.01575900671051253 0 0.01575900671051253 0.0079537291753476458 0 0 0 -0.0026743360188443144 -0.0008036374915204314 0.02675558222326517 0 0.02675558222326517 0.026916178248674094 0 0 0 0.006528135189288381 0.0026985480456430122 0.02279825708028442 0 0.02279825708028442 0.015858804466868937 0 0 0 0.0046393381281280011 0.022917516907403707 0.034606125123019332 0 0.034606125123019332 0.045799812005094975 0 0 0 0.017179332228124705 0.032382654207895073 0.036743358044045424 0 0.036743358044045424 0.075772378019389075 0 0 0 0.027038758056821016 0.050935250757601108 0.044011518798469873 0 0.044011518798469873 0.025704181480239022 0 0 0 0.019159858059460026 0.053915589590150977 0.035899180278976872 0 0.035899180278976872 0.024080754275352709 0 0 0 0.01949908596637593 0.032896368325473491 0.024592993906002641 0 0.024592993906002641 0.0028633340377391958 0 0 0 0.0089399255908031439 0.041835848252413092 0.025907413595771867 0 0.025907413595771867 0.0052285913406815154 0 0 0 0.011766109898273695 0.051441782657648982 0.012111903833553261 0 0.012111903833553261 0.0026457767881853389 0 0 0 0.013521889861458525 0.026821175467848957 0.019093535080573099 0 0.019093535080573099 -0.0032020334147782048 0 0 0 0.0059047855132676741 0.024661082691794456 0.018756736498050763 0 0.018756736498050763 -0.0038750255149127 0 0 0 0.0051965142942204112 0.037749404180036195 0.012995377214235049 0 0.012995377214235049 0.0015162177843244251 0 0 0 0.0098164054910900855 0.034920851348507531 0.010572320977187966 0 0.010572320977187966 0.0029783479103685506 0 0 0 0.0094747998147191037 0.034195780685970789 0.0082658242102565394 0 0.0082658242102565394 0.0053412941950778947 0 0 0 0.0098842687202621571 0.028082675412972765 0.0097671916534121106 0 0.0097671916534121106 0.0033045102054540115 0 0 0 0.0078467964046067765 0.022923180958063755 0.01284114489377397 0 0.01284114489377397 -0.0026597563418573889 0 0 0 0.0050658561540516678 0.02339012077406466 0.015910439692558814 0 0.015910439692558814 -0.0031482977239307708 0 0 0 0.0050604557625334445 0.0096964591242138798 0.013735460317240267 0 0.013735460317240267 -0.004243940052399392 0 0 0 0.0013631297679535803 0.01028486512171442 0.012967321902921269 0 0.012967321902921269 -0.0039226086600716858 0 0 0 0.0015905641154107253 0.0098714071295024075 0.014633071026603106 0 0.014633071026603106 -0.0017231272624238514 0 0 0 0.0020370699667695558 -0.0040763808710843619 0.017292173654085807 0 0.017292173654085807 -0.0039795749919026013 0 0 0 -0.0020139889657467269 0.011733069781244554 0.01923803807348537 0 0.01923803807348537 -0.0015462059177799858 0 0 0 0.002546715965866142 0.016053569275362431 0.015907498829670241 0 0.015907498829670241 -0.0054508527176942434 0 0 0 0.0026506791394170087 0.0014875817842877614 0.019174327830888682 0 0.019174327830888682 -0.0042758982194753825 0 0 0 -0.00069707910879690527 -0.002536967312729406 0.022665871341606747 0 0.022665871341606747 0.00011400630948282808 0 0 0 -0.00060574025081167743 -0.013854514884367453 0.015111827273846745 0 0.015111827273846745 -0.0032742985866620611 0 0 0 -0.0042822033677573645 -0.017665910337824525 0.017682448164489495 0 0.017682448164489495 0.0020906520569430598 0 0 0 -0.0038938145702203386 -0.015014635408313937 0.011255087819675942 0 0.011255087819675942 -0.00034429822789605602 0 0 0 -0.0038397334090524149 -0.015383095178454209 0.016449640445924563 0 0.016449640445924563 -0.0029419904429133781 0 0 0 -0.0045812714053419246 -0.0023314375302524448 0.015411096792224077 0 0.015411096792224077 -0.0018791484704090422 0 0 0 -0.001052646500165455 -0.0023178541643292527 0.01425794809497094 0 0.01425794809497094 -0.0057872446719633708 0 0 0 -0.0020262747090731004 -0.0082183075041866189 0.010825926315773504 0 0.010825926315773504 -0.0012243532196177826 0 0 0 -0.0023606651809510723 -0.013404045230731632 0.011003463271733627 0 0.011003463271733627 -0.0029529324617996178 0 0 0 -0.0040892444231327985 -0.018319292475963977 0.012369316937719921 0 0.012369316937719921 -0.0004785863088694331 0 0 0 -0.0046994696962083804 -0.024976553974299598 0.0043603792813484699 0 0.0043603792813484699 -0.00058341967329311739 0 0 0 -0.0063899934118982205 -0.013993940695462725 0.004130323385404755 0 0.004130323385404755 0.00076940449686713208 0 0 0 -0.0033061340496490232 -0.021977216944595035 0.0052129137030155759 0 0.0052129137030155759 0.00092973088155245964 0 0 0 -0.0052618715157606855 -0.037871045372698253 0.0051729031910672796 0 0.0051729031910672796 -0.00067315356553476757 0 0 0 -0.009636049734558394 -0.031002622621542408 0.012783911856726171 0 0.012783911856726171 -0.0012101438230573969 0 0 0 -0.008053191611149868 -0.028638966480659334 0.0064127010997610603 0 0.0064127010997610603 -9.7318489303166444e-05 0 0 0 -0.0071840712424905417 -0.00318446581069564 0.0031346145089296007 0 0.0031346145089296007 0.00094822034070386751 0 0 0 -0.00055906136749783036 -0.0089064845511859225 0.0027644478662864902 0 0.0027644478662864902 -0.00098177460692672192 0 0 0 -0.0024720647895282166 -0.0035590069569898519 0.0050862738071868474 0 0.0050862738071868474 0.00022354280800884752 0 0 0 -0.0008338660372450013 -0.010785320023835254 0.0028193207226338002 0 0.0028193207226338002 0.00038089106754268798 0 0 0 -0.0026011072390730305 -0.010482679802729322 0.0025667428764843958 0 0.0025667428764843958 0.0001475641568311481 0 0 0 -0.0025837789114746545 -0.017725626746288081 0.0035107885646636339 0 0.0035107885646636339 -0.0004547583683898182 0 0 0 -0.0045450962786693916 -0.016766681649633353 0.0076311053920516958 0 0.0076311053920516958 -0.0020478540345707508 0 0 0 -0.0047036339210509981 -0.011699753815576863 0.0056021128882185051 0 0.0056021128882185051 -0.0013166141805349696 0 0 0 -0.0032540919990281525 -0.0077375828008097169 0.0094951113503575491 0 0.0094951113503575491 -0.0029939219578536402 0 0 0 -0.0026828761896657838 -0.0060635154078894082 0.0071267978378706243 0 0.0071267978378706243 0.00062889016734146708 0 0 0 -0.0013586563101370963 -0.0026968850603205086 0.0093674284015524689 0 0.0093674284015524689 -0.001937173175138085 0 0 0 -0.0011585145588645096 0.0010676786197336696 0.0074406781568328029 0 0.0074406781568328029 -0.00026783980855249467 0 0 0 0.00019995970279529374 0.00048868913087773969 0.0059762732401887897 0 0.0059762732401887897 -0.00026065616453152529 0 0 0 5.7008241586498087e-05 -0.0051301010166058258 0.0073588573260475743 0 0.0073588573260475743 -0.001572391473028123 0 0 0 -0.0016756231224084317 0.00016192156219672904 0.0060486579654889239 0 0.0060486579654889239 -0.00035114595427684914 0 0 0 -4.7306098019964105e-05 0.0080640180494071512 0.0060696680667545744 0 0.0060696680667545744 0.00055540852080637748 0 0 0 0.0021548566425533267 0.0080268571263961697 0.0064287737354080665 0 0.0064287737354080665 0.00030200067198182801 0 0 0 0.0020822144495944439 0.014958864530861482 0.0065646080859729228 0 0.0065646080859729228 0.0012311454717914838 0 0 0 0.0040475025006633247 0.00017364736771496858 0.0084044083792098323 0 0.0084044083792098323 -0.0026060760657671267 0 0 0 -0.00060810717451298402 -0.00020313407460792465 0.011070690238622571 0 0.011070690238622571 -0.0043498047808387952 0 0 0 -0.0011382347138616522 0.0079379471364506293 0.0083873000083964921 0 0.0083873000083964921 -0.0012144237303965966 0 0 0 0.0016808808515135776 0.0086454799866211296 0.0098589953427801191 0 0.0098589953427801191 -0.0014078529423215969 0 0 0 0.0018094067610748832 0.013793664588903964 0.01038571342540151 0 0.01038571342540151 -0.002561124222024258 0 0 0 0.0028081350917199543 0.007733505279196029 0.0086279338457279087 0 0.0086279338457279087 -0.001627109553955286 0 0 0 0.0015265989313102413 0.02068122048319887 0.0066418956146777619 0 0.0066418956146777619 0.0034519051512358345 0 0 0 0.0060332814086085929 0.021340374627585645 0.0089389627941984622 0 0.0089389627941984622 0.0038485707151947324 0 0 0 0.0062972363356951222 0.019779578070031167 0.010004238828741352 0 0.010004238828741352 -0.00061710967261507932 0 0 0 0.004790617099354022 0.024286007251435815 0.0083704284889676295 0 0.0083704284889676295 0.005056406890080356 0 0 0 0.0073356035353789872 0.030876350247204476 0.0045140629119545528 0 0.0045140629119545528 0.016410204122999872 0 0 0 0.01182163859255092 0.023791258268334614 0.004293402850206185 0 0.004293402850206185 0.0085694542973691057 0 0 0 0.0080901781414257634 0.027582895193442258 0.0065658636295574668 0 0.0065658636295574668 0.016465553093377494 0 0 0 0.011012112071704827 0.015953881340814394 0.0082666432923029776 0 0.0082666432923029776 0.0020338953666627496 0 0 0 0.0044969441768692581 0.018690186700805966 0.0059450997402015204 0 0.0059450997402015204 0.0076991630283115287 0 0 0 0.0065973374322794709 0.02918076671082015 0.00061459710067579554 0 0.00061459710067579554 0.016769166289836601 0 0 0 0.011487483250164132 0.019514710508416577 -0.0010343520542660523 0 -0.0010343520542660523 0.013136192611625575 0 0 0 0.0081627257800104269 0.032281413159745198 0.0033594768819295018 0 0.0033594768819295018 0.017355187518901527 0 0 0 0.01240915016966182 0.024414225508568199 0.0015452020066194505 0 0.0015452020066194505 0.013153352775043814 0 0 0 0.0093918945709030588 0.034275670941404268 -0.0040487479790199954 0 -0.0040487479790199954 0.026202050204100491 0 0 0 0.01511943028637619 0.039310001317209686 0.0032892138644156077 0 0.0032892138644156077 0.026594772986146153 0 0 0 0.016476193575839126 0.026064187556659624 -0.004050033811344278 0 -0.004050033811344278 0.010340098630367223 0 0 0 0.0091010715467565451 0.014813700997035717 -0.00089831203598134124 0 -0.00089831203598134124 0.0095180051024130741 0 0 0 0.0060829265248623088 0.0051950315026303429 0.0034972824322585389 0 0.0034972824322585389 -0.00052732054904236492 0 0 0 0.0011669277383972165 0.0056684617063443854 0.0015384055649723116 0 0.0015384055649723116 0.00089297006214295038 0 0 0 0.0016403579421219172 0.011358882717673602 0.00091434655127659026 0 0.00091434655127659026 -0.0024120030119068048 0 0 0 0.0022367199264416993 0.006703409526424009 0.0047119376045344774 0 0.0047119376045344774 0.00050173947396858765 0 0 0 0.0018012872500980937 0.015012433374695822 0.002750776106225844 0 0.002750776106225844 0.0040612342470081053 0 0 0 0.004768416905426065 0.0075653265794499713 0.0037301821236758181 0 0.0037301821236758181 0.002649127216099334 0 0 0 0.0025536134488871598 0.016313025857234598 0.0037328458708800749 0 0.0037328458708800749 0.0040163239256059136 0 0 0 0.0050823374457102943 0.0012366208776402043 0.0050216712972792621 0 0.0050216712972792621 -0.00082981164815354447 0 0 0 0.00010170230737160946 -0.0041063932533099701 0.0037012513588574603 0 0.0037012513588574603 -0.00064208308306046291 0 0 0 -0.001187119084092525 0.00094308993846548006 0.0033667624337971047 0 0.0033667624337971047 -0.000682137264897964 0 0 0 6.5238168391879015e-05 -0.00091204046306536668 0.0035711314848348996 0 0.0035711314848348996 0.00035551693248647709 0 0 0 -0.00013913088264461138 0.00077750354535455202 0.0035307560674346927 0 0.0035307560674346927 -0.0014590217625971569 0 0 0 -0.00017037955431065122 0.0016859243011857483 0.0016182133630857631 0 0.0016182133630857631 -0.004539664646276087 0 0 0 -0.00071343508627252916 0.00066330809257419965 0.0012514656704434302 0 0.0012514656704434302 -0.0027062029532394227 0 0 0 -0.00051072371516625026 0.0026351594572933124 0.0021121829619973609 0 0.0021121829619973609 -0.0012631865565762013 0 0 0 0.00034299322517927777 0.00042437771103021049 0.0023589431849149189 0 0.0023589431849149189 -0.0013968646248021521 0 0 0 -0.00024312172844287439 -0.0008751303308172087 0.0016980312232975914 0 0.0016980312232975914 -0.00092682360598672631 0 0 0 -0.0004504884842007062 0.0005758880330826166 0.00077631588918158911 0 0.00077631588918158911 -0.00060765220624348082 0 0 0 -7.9410432902715655e-06 0.00011922343639247934 0.00052117154349362593 0 0.00052117154349362593 -0.00016201181989039526 0 0 0 -1.0697095874423468e-05 -0.00035202534091283155 0.00063625103001774264 0 0.00063625103001774264 -0.00026456239847494345 0 0 0 -0.0001541469348471658 6.5968635419855204e-05 0.0011180806605203264 0 0.0011180806605203264 0.00066308956290095367 0 0 0 0.00018226454958014671 -0.0024460807998327727 0.0015874573122349744 0 0.0015874573122349744 0.00084998794004853551 0 0 0 -0.00039902321494600379 -0.0021862886394805603 0.0017271770661452246 0 0.0017271770661452246 -0.00023938299470782631 0 0 0 -0.00060641790854720767 -0.0062848642725497061 0.00195589325837775 0 0.00195589325837775 -0.0004496000544982337 0 0 0 -0.0016836160817619295 0.010977962015399467 0.0066695829435551995 0 0.0066695829435551995 -0.0017971863431891499 0 0 0 0.0022951939180526071 0.017614795680246847 0.0070444596393896691 0 0.0070444596393896691 0.0065977994294303954 0 0 0 0.0060531487774193315 0.017739294253817775 0.0082565990784206622 0 0.0082565990784206622 0.0046921631085845017 0 0 0 0.0056078643406005796 0.014539181829044789 0.0091070580599811671 0 0.0091070580599811671 0.0016468842621210067 0 0 0 0.0040465165227914768 0.010092840203866787 0.0071816709615685759 0 0.0071816709615685759 -0.0033247049701106415 0 0 0 0.0016920338084390292 0.0066722067865083445 0.0056594455603273322 0 0.0056594455603273322 -0.0044602839020477791 0 0 0 0.00055298072111512053 0.0078625579859477601 0.0033527437338853744 0 0.0033527437338853744 -0.0037219247816285828 0 0 0 0.0010351583010798082 0.011389407627316286 0.0043163288143110295 0 0.0043163288143110295 -0.0021032836810584293 0 0 0 0.0023215309865644712 0.0089275056239787598 0.0031502770641002736 0 0.0031502770641002736 -0.0036662208485117032 0 0 0 0.0013153211938667642 0.010599089724869466 0.000990716413674958 0 0.000990716413674958 -0.0040237220340871085 0 0 0 0.0016438419226955832 0.015169272659728839 0.0035668368923360699 0 0.0035668368923360699 -0.0024192291482607597 0 0 0 0.0031875108778670197 0.013294860655895802 0.0058829992990182822 0 0.0058829992990182822 -0.0032183900199898585 0 0 0 0.0025191176589764441 0.010844106788791618 0.0061033879760751808 0 0.0061033879760751808 -0.0022349105111939965 0 0 0 0.0021522990693994097 0.015165737181668165 0.0068496084866452311 0 0.0068496084866452311 0.0023448665295777715 0 0 0 0.0043776509278114772 0.016046339554320263 0.0066607752387519703 0 0.0066607752387519703 0.0025559204527487722 0 0 0 0.0046505650017672623 0.019497147569130291 0.0053520136142466423 0 0.0053520136142466423 0.01270649960862455 0 0 0 0.0080509117944387032 0.025594443117554752 0.0034560816296468344 0 0.0034560816296468344 0.035393084149615339 0 0 0 0.015246881816792499 0.031894412265879329 0.0034338031534620339 0 0.0034338031534620339 0.042023146596555649 0 0 0 0.018479389715608752 0.022962438703706289 0.0074935933161183188 0 0.0074935933161183188 0.016632907077483439 0 0 0 0.0098988364452974459 0.03742477021574131 0.0081938599045583427 0 0.0081938599045583427 0.025261502351248799 0 0 0 0.015671568141747416 0.044761786170004481 0.0027717841039423493 0 0.0027717841039423493 0.040919807006073228 0 0 0 0.021420398294019538 0.027974187556064803 0.005164171946803478 0 0.005164171946803478 0.038877152941704129 0 0 0 0.016712835124442257 0.019180907092779847 0.002850238921051915 0 0.002850238921051915 0.057472285822758651 0 0 0 0.019163298228884622 0.031192369473209525 0.0053701573687339188 0 0.0053701573687339188 0.015542870474530179 0 0 0 0.011683809986935023 0.040163465735872983 0.0046845973122831008 0 0.0046845973122831008 0.042547422672113422 0 0 0 0.020677722101996643 0.03791037325738833 0.00041629890806066383 0 0.00041629890806066383 0.03570084466976331 0 0 0 0.018402804481787882 0.021776047994694951 0.00295481852766789 0 0.00295481852766789 0.065268645229802205 0 0 0 0.021761173306124294 0.037681601770017253 0.0054860234263283819 0 0.0054860234263283819 0.045390745345573413 0 0 0 0.02076808677889766 0.046148399236507709 0.0043997706026801531 0 0.0043997706026801531 0.043397603657196138 0 0 0 0.022386500723425962 0.024464832286386986 0.003016944775355948 0 0.003016944775355948 0.073226212201390792 0 0 0 0.024422761121944445 0.038124011680629191 0.0058797080652486233 0 0.0058797080652486233 0.034576686052916361 0 0 0 0.018175174433386357 0.022465470691753753 0.0067899247542663899 0 0.0067899247542663899 0.018104601612866866 0 0 0 0.010142518076155183 0.036800440237177628 0.0055241310447757819 0 0.0055241310447757819 0.045635822016405814 0 0 0 0.020609065563395895 0.023460218635525498 0.010437438296326318 0 0.010437438296326318 0.013408145935725868 0 0 0 0.0092170911428128 0.029987433081308128 0.006823972563964914 0 0.006823972563964914 0.01973845940868732 0 0 0 0.012431473122498836 0.033724794873351727 0.011047019960847046 0 0.011047019960847046 0.023274374697391131 0 0 0 0.014249792392685673 0.025480628970232764 0.0066000248703813325 0 0.0066000248703813325 0.015338247772929567 0 0 0 0.010204719185790582 0.049853349378892603 0.007235441812763671 0 0.007235441812763671 0.047966971157645422 0 0 0 0.024455080134134513 0.047123527248424862 0.0035983833395811862 0 0.0035983833395811862 0.053531522203723259 0 0 0 0.025163762363037023 0.039638599421121731 0.0031860135575700055 0 0.0031860135575700055 0.026927890894647283 0 0 0 0.016641622578942267 0.05005733169002935 -0.0013162062568463639 0 -0.0013162062568463639 0.052458600023142399 0 0 0 0.025628982928292854 0.027141333001903949 0.0029451766017717321 0 0.0029451766017717321 0.081568034039537843 0 0 0 0.027177341760360449 0.065553743116755783 0.0062267879503866697 0 0.0062267879503866697 0.057149543011340953 0 0 0 0.030675821532024181 0.058373907844386098 0.0042120284887169346 0 0.0042120284887169346 0.055233505045146944 0 0 0 0.028401853222383287 0.043679529618498192 -0.0023561658968209165 0 -0.0023561658968209165 0.044582577138665425 0 0 0 0.022065526689290849 0.052652950943045812 0.0061484710908055185 0 0.0061484710908055185 0.04992268859484239 0 0 0 0.025643909884472099 0.030765630208327774 0.0029485191605089717 0 0.0029485191605089717 0.091110396233410593 0 0 0 0.030469006610434592 0.076126337574982328 -0.00093339716336249268 0 -0.00093339716336249268 0.061779817919600966 0 0 0 0.034476538873646101 0.056723080580168617 -0.0067564253244754013 0 -0.0067564253244754013 0.054324392716824654 0 0 0 0.027761868324248429 0.026903223429360759 0.010268902329595361 0 0.010268902329595361 0.010735284926618627 0 0 0 0.0094096270889948985 0.051931505530516786 0.0093551443933835021 0 0.0093551443933835021 0.055997612572510125 0 0 0 0.026982279525756714 0.074071690700595161 0.0011888727381985243 0 0.0011888727381985243 0.058615632129029094 0 0 0 0.033171830707406091 0.050973664412315961 0.01010632474935455 0 0.01010632474935455 0.046079319300366461 0 0 0 0.02426324592817064 0.035965750387109752 -6.3603457005404623e-05 0 -6.3603457005404623e-05 0.013337061909682923 0 0 0 0.012325703074198197 0.0091031665468319645 0.0051851380639801048 0 0.0051851380639801048 -0.0091661862006010286 0 0 0 -1.5754913442272978e-05 0.020804108340535199 0.0072702780741519812 0 0.0072702780741519812 -0.00073112756769733167 0 0 0 0.0050182451932094529 0.01406121800826185 0.0018602609749098168 0 0.0018602609749098168 -0.020844023034719883 0 0 0 -0.0016957012566145291 0.016495814958136873 0.0052853481339615871 0 0.0052853481339615871 0.0049952963983589393 0 0 0 0.00537277783912396 0.01255322131153519 0.0054785320352431985 0 0.0054785320352431985 -0.0093786518774322536 0 0 0 0.00079364235852574794 0.01084116542567104 0.0078161076015769923 0 0.0078161076015769923 -0.0047571966274590483 0 0 0 0.0015209921995530118 0.012807390518813775 0.0071095672496509499 0 0.0071095672496509499 0.001333366796151491 0 0 0 0.0035351893287412818 0.019163957427836054 0.010408628754086033 0 0.010408628754086033 0.0038973642151641785 0 0 0 0.0057653304107500858 0.0064475732615578152 0.0061793827990870992 0 0.0061793827990870992 -0.0091672895940482224 0 0 0 -0.00067992908312261569 0.0067994781588208023 0.0066374961759584628 0 0.0066374961759584628 -0.0044081774381183429 0 0 0 0.00059782518017563566 0.0065113125746465439 0.0067304934398282751 0 0.0067304934398282751 -0.011439028393793682 0 0 0 -0.0012319289547867429 0.0074665504770069658 0.0055007822885687063 0 0.0055007822885687063 -0.0055810234805975314 0 0 0 0.00047138174910237203 0.004025111377071483 0.0042761803884839855 0 0.0042761803884839855 -0.010951361521867931 0 0 0 -0.0017315625361991327 0.0046751543691650188 0.0014958715801260958 0 0.0014958715801260958 -0.018667546067001245 0 0 0 -0.0034980979244590704 0.0048842423021260017 0.0026532018510843497 0 0.0026532018510843497 -0.031100450455893769 0 0 0 -0.006554052038441921 0.0051581129316399243 0.0014884577359008527 0 0.0014884577359008527 -0.021261882126155651 0 0 0 -0.0040259422986289317 0.0040319073092682234 0.00097058211819905926 0 0.00097058211819905926 -0.037105700123943264 0 0 0 -0.0082684482036687601 0.0060820229066662346 0.0042750545341998514 0 0.0042750545341998514 -0.02186628355044995 0 0 0 -0.0039460651609459774 0.0026251058547913514 0.001335477945236474 0 0.001335477945236474 -0.015772157906136536 0 0 0 -0.0032867630128362718 0.0039973512283249767 0.0038645372514226062 0 0.0038645372514226062 -0.020566894813009676 0 0 0 -0.004142385896171167 0.021293284604741003 -0.0054736767471334864 0 -0.0054736767471334864 -0.01958933151889769 0 0 0 0.00042598827146084206 0.01704031045632631 0.0025470918351232497 0 0.0025470918351232497 -0.032449506450009977 0 0 0 -0.0038522989984209094 0.0083389330550652785 -0.00084136928505458737 0 -0.00084136928505458737 -0.018830458368627123 0 0 0 -0.0026228813283904751 0.015618691052682904 0.0012954860080087865 0 0.0012954860080087865 -0.00055923388921413908 0 0 0 0.0037648642908671981 0.012508527275915879 0.0021142814027556855 0 0.0021142814027556855 -0.014351548585477769 0 0 0 -0.00046075532739049685 0.010269373377249535 0.0023122355814270135 0 0.0023122355814270135 -0.0051298958254713256 0 0 0 0.0012848693879445316 0.011730878185213123 0.001379299967756091 0 0.001379299967756091 0.0020972354684761774 0 0 0 0.0034570284134223528 0.018989228279924664 -0.0010377528353151255 0 -0.0010377528353151255 -0.0013064166832829072 0 0 0 0.0044207028991604391 0.0077024708851103074 0.0042786019419152888 0 0.0042786019419152888 -0.01154879211830187 0 0 0 -0.00096158030829791852 0.0067972617524882789 0.0019483725932504803 0 0.0019483725932504803 -0.006140721945881833 0 0 0 0.00016413495165160108 0.0032327208093532733 0.0035744338851518911 0 0.0035744338851518911 -0.007005607275046899 0 0 0 -0.00094322161642337865 0.0076537659334989169 0.0041894320374727123 0 0.0041894320374727123 -0.0053819149079056272 0 0 0 0.0005679627563983311 0.0074741346503740258 0.0032832804126376458 0 0.0032832804126376458 -0.0030646959196484191 0 0 0 0.0011023596826813808 0.0088855708326535943 0.0020693117023997259 0 0.0020693117023997259 -0.0025576976218999459 0 0 0 0.001581968302688419 0.0082363078340389195 0.0016696700971183115 0 0.0016696700971183115 -0.00058152449804305117 0 0 0 0.0019136958339989463 0.0057943278828459788 0.0033330187474253925 0 0.0033330187474253925 -0.0033699520125121118 0 0 0 0.00060609396758345979 0.010170280015258951 0.00071445600564398748 0 0.00071445600564398748 -0.0018964727735820419 0 0 0 0.0020684518104192168 0.007733421631954146 0.00063878129742667156 0 0.00063878129742667156 -0.0022280804636152229 0 0 0 0.0013763352920847238 0.014202350195137837 -0.0014525621964620178 0 -0.0014525621964620178 0.002040974501248384 0 0 0 0.0040608311740965696 0.016958399242224892 -0.00081897686971494493 0 -0.00081897686971494493 0.01025881338303769 0 0 0 0.0068043031563156664 0.011081448589772808 0.00059690918102330015 0 0.00059690918102330015 0.0016991750243287029 0 0 0 0.0031951559035253707 0.010272936039464942 -0.00080188002750429532 0 -0.00080188002750429532 0.0012567174035172934 0 0 0 0.0028824133607455726 0.013107901716848312 -0.0023015554082692347 0 -0.0023015554082692347 0.0037022115745349859 0 0 0 0.00420252832284582 0.014731149304026928 -0.0023660679373593597 0 -0.0023660679373593597 0.0090092575369236094 0 0 0 0.0059351017102376447 0.012280812204654276 -0.0034342956114957607 0 -0.0034342956114957607 0.0027465994966719975 0 0 0 0.0037568529253315611 0.010255065657979207 -0.0019919960881909504 0 -0.0019919960881909504 -0.0017400417093172416 0 0 0 0.0021287559871654982 0.012585068778940252 -0.0011726935900340796 0 -0.0011726935900340796 -0.0013144244055542879 0 0 0 0.0028176610933464703 0.0088487287817991256 0.0011021835118718432 0 0.0011021835118718432 -0.0023800459419828224 0 0 0 0.0016171707099540689 0.010553251356265638 0.0018960872593015432 0 0.0018960872593015432 -0.0019985812374881473 0 0 0 0.0021386675296943798 0.011006874831888711 -0.00020551401181034823 0 -0.00020551401181034823 -0.00046175883007040786 0 0 0 0.0026362790004545306 0.029751529685648648 -0.0073048982077879021 0 -0.0073048982077879021 0.027381336424572522 0 0 0 0.01428321652755532 0.01115206575182974 -0.0041040025980357666 0 -0.0041040025980357666 0.033377972873104921 0 0 0 0.011132509656233667 0.038256071169771838 -0.0064837490827794886 0 -0.0064837490827794886 0.023639951045264396 0 0 0 0.015474005553759079 0.029740183419731003 -0.0049687107895145244 0 -0.0049687107895145244 0.023035560713526054 0 0 0 0.013193936033314285 0.021470711891466682 -0.0039240105246099374 0 -0.0039240105246099374 0.021738239069369003 0 0 0 0.010802237740208942 0.016441337480526494 -0.0052814456565141443 0 -0.0052814456565141443 0.0084212534792220545 0 0 0 0.0062156477399371302 0.018600046946341708 -0.0040706039504783825 0 -0.0040706039504783825 0.011296121843883011 0 0 0 0.0074740421975561938 0.018557566969718539 -0.0018406262065835954 0 -0.0018406262065835954 0.0075608236354096081 0 0 0 0.0065295976512820403 0.028253502135619474 -0.0012420625843987398 0 -0.0012420625843987398 0.026706476907444293 0 0 0 0.013739994760765956 0.023178952071479048 -0.0042627717852083136 0 -0.0042627717852083136 0.017957701375221347 0 0 0 0.010284163361675092 0.028511125385353386 -0.00058354875223545766 0 -0.00058354875223545766 0.0162634953069688 0 0 0 0.011193655173080574 0.022477157518304328 -0.0038938067556146955 0 -0.0038938067556146955 0.0098098879444326048 0 0 0 0.0080717613656842435 0.035413719362573176 -0.0036021359624527072 0 -0.0036021359624527072 0.033921765731306119 0 0 0 0.017333871273469859 0.048995142075835219 -0.0039287786015926862 0 -0.0039287786015926862 0.034119532933173213 0 0 0 0.020778668752252094 0.031853997718383376 -0.0051983390200716073 0 -0.0051983390200716073 0.025429666183769184 0 0 0 0.014320915975538195 0.029971097564916394 -0.011082482849233188 0 -0.011082482849233188 0.024385917885453745 0 0 0 0.013589253862592576 0.017156972572514691 -0.004174109108799803 0 -0.004174109108799803 0.051342767205621621 0 0 0 0.017124934944534084 0.0388546454251186 -0.0042526879919536076 0 -0.0042526879919536076 0.030458331162004582 0 0 0 0.017328244146780775 0.039614195120951878 -0.0078200701720516977 0 -0.0078200701720516977 0.028568672491335212 0 0 0 0.017045716903071773 0.013929692315646173 -0.004193185895648965 0 -0.004193185895648965 0.041710957939849538 0 0 0 0.013910162563873927 0.045900557597122082 -0.0038081449450723115 0 -0.0038081449450723115 0.03710793511744348 0 0 0 0.020752123178641391 0.02083971108328295 -0.004023154781791289 0 -0.004023154781791289 0.062485632338822712 0 0 0 0.020831335855526417 0.064684250302962348 -0.0028899657982698057 0 -0.0028899657982698057 0.042063360208587086 0 0 0 0.02668690262788731 0.05353511224060209 -0.0089305723512439483 0 -0.0089305723512439483 0.039950497713408258 0 0 0 0.023371402488502502 0.040854060281513171 -0.0029745485588050791 0 -0.0029745485588050791 0.029352649138348008 0 0 0 0.017551677354965212 0.024007787812435576 0.0010256803914404922 0 0.0010256803914404922 0.012022780200349956 0 0 0 0.0090076420031964081 0.034583187351148681 -0.0040454786381331279 0 -0.0040454786381331279 0.013622419610113568 0 0 0 0.012051401740315604 0.044138847704922213 -0.00099252250073353365 0 -0.00099252250073353365 0.040228979654636621 0 0 0 0.021091956839889736 0.039809664662991573 0.0028830557886396768 0 0.0028830557886396768 0.016598116686982071 0 0 0 0.014101945337493425 0.028474803486274625 -0.003823831750093043 0 -0.003823831750093043 -0.0031476427826285236 0 0 0 0.0063317901759115253 0.052927009034046263 -0.0065031833966315983 0 -0.0065031833966315983 0.038640642140999271 0 0 0 0.022891912793761376 0.078324358893681917 0.0001040537734642577 0 0.0001040537734642577 0.043021683857441553 0 0 0 0.03033651068778084 0.053856544794956565 -0.010565174489646108 0 -0.010565174489646108 0.024822787106157262 0 0 0 0.019669832975278453 0.038950345491241455 0.004201217684905667 0 0.004201217684905667 5.5690912284670283e-06 0 0 0 0.009738978645617468 0.052669305101021746 -0.0097455806336855799 0 -0.0097455806336855799 0.035113299093483707 0 0 0 0.021945651048626336 0.025343138706813317 -0.0039620431380926139 0 -0.0039620431380926139 0.075484250301970757 0 0 0 0.025206847252196019 0.082103281783352799 -0.0020809988590561033 0 -0.0020809988590561033 0.047532825010836888 0 0 0 0.032409026698547394 0.060963781200372269 0.0059618060244922555 0 0.0059618060244922555 0.034347308739371751 0 0 0 0.02382777248493595 0.040916305761176053 -0.00554513773258547 0 -0.00554513773258547 0.010680447260440651 0 0 0 0.012899188255404204 0.02901678555772913 0.0017895740119636683 0 0.0017895740119636683 -0.0070456497800006623 0 0 0 0.0054927839444320892 0.024893132967125142 -0.006376955767306236 0 -0.006376955767306236 0.0037769226847004234 0 0 0 0.0071675139129563359 0.036457807994742658 -0.0001278992077202723 0 -0.0001278992077202723 0.010145975959335807 0 0 0 0.011650945988519595 0.01414577156350616 -0.0016014100943649856 0 -0.0016014100943649856 -0.0048673127828016138 0 0 0 0.0023196146951761643 0.0043567239536906888 -0.004768662513816635 0 -0.004768662513816635 -0.0081593474715970782 0 0 0 -0.00095065587947662511 0.0058174299146994679 -0.0067925423468494905 0 -0.0067925423468494905 -0.0037772295884759277 0 0 0 0.00051005008155602383 0.012071728793268122 -0.0040216639461585837 0 -0.0040216639461585837 -0.013018285598437318 0 0 0 -0.00023663920129213256 0.014432875747132479 -0.010094684742132043 0 -0.010094684742132043 -0.00054393477914971289 0 0 0 0.0034722352419956914 0.0044163231946209303 -0.010050054582803582 0 -0.010050054582803582 -0.00013115353906401062 0 0 0 0.0010712924138892577 0.0042692139479179048 -0.010430251234267326 0 -0.010430251234267326 -0.0007554180221214235 0 0 0 0.00087844898144917583 0.01089468624644227 -0.011001331666861125 0 -0.011001331666861125 0.0021150075632393461 0 0 0 0.0032524234524203555 0.023863038798730578 -0.0080135703204952669 0 -0.0080135703204952669 0.010036777188704687 0 0 0 0.0084749539968588736 0.030856050688337078 -0.011037443703286423 0 -0.011037443703286423 0.011457203592016629 0 0 0 0.010578313570088427 0.017399966363315575 -0.0053444793601021834 0 -0.0053444793601021834 0.0021414305442951642 0 0 0 0.0048853492269025772 -0.00019831464018188472 -0.0018417361697625756 0 -0.0018417361697625756 0.00093127642713741743 0 0 0 0.00018324044673884154 -0.0006957140404030282 -0.0010031331654670732 0 -0.0010031331654670732 -0.00070686006267406398 0 0 0 -0.00035064352576941182 -0.00015591831195721528 -0.00081383720209093902 0 -0.00081383720209093902 -0.00041808418310857007 0 0 0 -0.00014350062376650185 0.00071084900570583809 -0.0012967622727720896 0 -0.0012967622727720896 -0.0014543932850923369 0 0 0 -0.00018588606984659695 -0.0024903560668584346 -0.0031388516168897596 0 -0.0031388516168897596 -0.0021915776687260191 0 0 0 -0.0011704834338961412 -0.00018512283984650768 -0.0042833429963626268 0 -0.0042833429963626268 -0.0038271985176310253 0 0 0 -0.0010030803393694665 0.0032797179324650649 -0.0036917887272870376 0 -0.0036917887272870376 -0.003166729120106071 0 0 0 2.8247203089692974e-05 2.4891607888544165e-05 -0.0023599556796016774 0 -0.0023599556796016774 -0.0051740854639739098 0 0 0 -0.0012872984640212026 0.00083418122858302613 -0.003861341387220607 0 -0.003861341387220607 -0.01054047587687669 0 0 0 -0.0024265736620733328 -0.0011144852923935522 -0.007525164866619749 0 -0.007525164866619749 -0.0059538089863839794 0 0 0 -0.0017670735696944107 -0.0038326416131854169 -0.0098312527232487512 0 -0.0098312527232487512 -0.0012816625307573437 0 0 0 -0.0012785760359856901 -0.0093038336607823117 -0.0070750313477996318 0 -0.0070750313477996318 -0.0019022697965906665 0 0 0 -0.0028015258643431899 -0.00045461607117558422 -0.006680358128431596 0 -0.006680358128431596 -0.0025776869293657745 0 0 0 -0.00075807575013542294 -0.0024572568929186467 -0.0065501839114598948 0 -0.0065501839114598948 0.00027449876497298575 0 0 0 -0.00054568953198641523 -0.0049762407527771738 -0.0032984695960454058 0 -0.0032984695960454058 -0.001030467686921499 0 0 0 -0.0015016771099245832 -0.011065860807082146 -0.0033258678711564071 0 -0.0033258678711564071 -0.0010594463390585867 0 0 0 -0.0030313267865352666 -0.0044006740076530937 -0.0026832015405224841 0 -0.0026832015405224841 0.0011625978097675738 0 0 0 -0.00080951904947146325 -0.018530880523228155 -0.003501501812827601 0 -0.003501501812827601 0.0014003123812107443 0 0 0 -0.0042826420355041583 -0.0067489142760627785 -0.0051612615064870471 0 -0.0051612615064870471 0.0016038559871069946 0 0 0 -0.0012862645722388488 -0.008972178078352322 -0.0073695749739039473 0 -0.0073695749739039473 0.00088681334096252229 0 0 0 -0.002021341184347436 -0.015766093304424154 -0.0039556895839709671 0 -0.0039556895839709671 -0.0016116401473690867 0 0 0 -0.0043444333629483398 -0.010394096246997712 -0.0088700091907790712 0 -0.0088700091907790712 -0.00025287136501234153 0 0 0 -0.0026617419030026054 -0.0031243658165732158 -0.010005623063213231 0 -0.010005623063213231 0.0015129105058375725 0 0 0 -0.00040286382768384144 -0.0048690094438575415 -0.011377209457074711 0 -0.011377209457074711 0.0015398920263389737 0 0 0 -0.00083227935437962808 -0.0045042095989423769 -0.010834591216849904 0 -0.010834591216849904 0.0019417098202501037 0 0 0 -0.00064062494467298503 -0.010626462267096293 -0.0085305574446503107 0 -0.0085305574446503107 -0.0001727243079698848 0 0 0 -0.0026997966437666276 -0.010364360140682517 -0.0093596297244669113 0 -0.0093596297244669113 0.001617355535692977 0 0 0 -0.002186751151247425 -0.0045319208183067228 -0.012071185970104564 0 -0.012071185970104564 0.0039625383710566453 0 0 0 -0.00014234561181253325 -0.013600850837246548 -0.0098105232140031917 0 -0.0098105232140031917 0.0011293099953909591 0 0 0 -0.003117885210463911 -0.017548115824153665 -0.0063514968508388003 0 -0.0063514968508388003 0.00082431377967051578 0 0 0 -0.0041809505111207179 -0.019894934077714449 -0.0050362752586451953 0 -0.0050362752586451953 -0.0011361587385585459 0 0 0 -0.0052577732040682557 -0.02078569410711345 -0.0052489558760663579 0 -0.0052489558760663579 0.0019219813216347914 0 0 0 -0.0047159281963696231 -0.028000487731163731 -0.0027522167372140971 0 -0.0027522167372140971 -0.00025384904623210192 0 0 0 -0.0070635841943489652 -0.018716320121445751 -0.0028631671891228977 0 -0.0028631671891228977 0.00041540655175698049 0 0 0 -0.0045752283924221926 0.017348838451029358 -0.012193550520294971 0 -0.012193550520294971 0.0078274824194711767 0 0 0 0.0062940802176251753 0.010793933183943505 -0.010766014157925663 0 -0.010766014157925663 0.006643377239187398 0 0 0 0.0043593276057826147 0.019533571555619189 -0.011269204182796366 0 -0.011269204182796366 0.016249257454748145 0 0 0 0.0089457072525918058 0.014387330073873772 -0.013262072380608059 0 -0.013262072380608059 0.0072544023740990227 0 0 0 0.0054104331119931293 0.0022090430119052762 -0.01145977318243907 0 -0.01145977318243907 0.0021291966583869559 0 0 0 0.0010845599175730025 0.0019235173604539857 -0.011728225581710772 0 -0.011728225581710772 0.0013727043675206829 0 0 0 0.00082405543199370879 0.0094135830073011073 -0.013206796593599079 0 -0.013206796593599079 0.0039410610680368219 0 0 0 0.0033386610188345101 0.0072951104484322848 -0.013102938995828428 0 -0.013102938995828428 0.0044630694007044003 0 0 0 0.0029395449622842129 0.0011285413071087658 -0.01163204471120749 0 -0.01163204471120749 0.0038450132218790789 0 0 0 0.0012433886322469889 0.00026205626870845489 -0.011278445169023654 0 -0.011278445169023654 0.0014849485743159141 0 0 0 0.00043675121075614776 0.0010247301073035148 -0.0095716403769329217 0 -0.0095716403769329217 0.0036088458134658358 0 0 0 0.0011583939801922821 0.015930814688925821 -0.011715047679541735 0 -0.011715047679541735 0.0074345149927483867 0 0 0 0.0058413324204185657 0.0085671455805405583 -0.010779800443474211 0 -0.010779800443474211 0.0080043156041527119 0 0 0 0.0041428652961733037 0.025667817160237805 -0.0089877484081760314 0 -0.0089877484081760314 0.013593297246542679 0 0 0 0.0098152786016951765 0.017574933068744414 -0.010369151026808798 0 -0.010369151026808798 0.012983822215956953 0 0 0 0.0076396888211754388 0.024360186513958881 -0.0080881534122873577 0 -0.0080881534122873577 0.011596491109694684 0 0 0 0.008989169405913322 0.016470400354687997 -0.011412224780095487 0 -0.011412224780095487 0.0086794716387353921 0 0 0 0.0062874679983558335 0.01847973447319845 -0.0082376009336745937 0 -0.0082376009336745937 0.0093492496782404677 0 0 0 0.0069572460378597434 0.023336819197704001 -0.0099087687105239297 0 -0.0099087687105239297 0.0089121255285259382 0 0 0 0.0080622361815575194 0.0097658602815338114 -0.011707278153005957 0 -0.011707278153005957 0.0058772547574177381 0 0 0 0.0039107787597378318 0.010795204854830195 -0.0093195168319323285 0 -0.0093195168319323285 0.0077176897236733155 0 0 0 0.0046282236446259367 0.0078835952079585603 -0.012725052383045179 0 -0.012725052383045179 0.0046537249576463768 0 0 0 0.0031343300414011788 -0.0021373966122290033 -0.012332663766851992 0 -0.012332663766851992 0.0032419269184508215 0 0 0 0.00027613257655545453 -0.0035689401216362215 -0.0086901707122626209 0 -0.0086901707122626209 0.0025822147796443762 0 0 0 -0.0002466813354979891 0.0080228125919320353 -0.0092466397619916929 0 -0.0092466397619916929 0.0050409231312433939 0 0 0 0.0032659339307938712 0.00083628600352719795 -0.012612113496936597 0 -0.012612113496936597 0.0029818662323310985 0 0 0 0.00095453805896456023 0.0067898131066141398 -0.0083906511621200108 0 -0.0083906511621200108 0.0042705482750504675 0 0 0 0.0027650903454161102 -0.0033855715017598043 -0.0090268594691415016 0 -0.0090268594691415016 0.0019865516575440223 0 0 0 -0.00034975496105393855 -0.0025501045799307676 -0.010489097303607225 0 -0.010489097303607225 0.0053624734588403333 0 0 0 0.00070309221972736369 0.020075753198401686 -0.0090584289670413293 0 -0.0090584289670413293 0.0063464280941992468 0 0 0 0.0066055453231502193 0.021631610187175798 -0.0076269637817488189 0 -0.0076269637817488189 0.0096564807595476143 0 0 0 0.0078220227366808115 0.019108693323178605 -0.0080134297238569074 0 -0.0080134297238569074 0.010482238992773896 0 0 0 0.0073977330789882223 0.0074420359805594388 -0.01110400593447064 0 -0.01110400593447064 0.0056596771105986154 0 0 0 0.003275428272789524 0.017707845347867568 -0.0089166513204797342 0 -0.0089166513204797342 0.0066394032058780805 0 0 0 0.006086812138436426 -0.028359191049993265 -0.0048330940702397407 0 -0.0048330940702397407 0.0010789879786268219 0 0 0 -0.0068200507678416733 -0.031879473897537876 -0.0019933290512222923 0 -0.0019933290512222923 -0.00023072061039641073 0 0 0 -0.0080275486269835508 -0.027780259091207515 -0.0025297324283707345 0 -0.0025297324283707345 -0.00077485794893661364 0 0 0 -0.0071387792600360322 -0.035684369964383178 -0.0031484366645048202 0 -0.0031484366645048202 0.0011496964088941741 0 0 0 -0.008633668388872251 -0.021101906310063617 -0.0041668940897398865 0 -0.0041668940897398865 -0.0013041894657567221 0 0 0 -0.0056015239439550502 -0.01292932162077029 -0.0073262590436995456 0 -0.0073262590436995456 0.0013381810776534886 0 0 0 -0.002897785135779235 -0.020832664579827576 -0.0079144089005642633 0 -0.0079144089005642633 0.0017076484265612368 0 0 0 -0.0047812540383165847 -0.010416762410058178 -0.0087454441146217476 0 -0.0087454441146217476 0.00072469541804764948 0 0 0 -0.0024230167480026321 -0.011822390373217473 -0.0107002803262497 0 -0.0107002803262497 0.0028575054826759372 0 0 0 -0.0022412212226354256 -0.013771048478926518 -0.008927888275178486 0 -0.008927888275178486 0.0020761212022393227 0 0 0 -0.0029237318191717709 -0.011304852474940589 -0.0071372594904613451 0 -0.0071372594904613451 0.0028978232762361441 0 0 0 -0.0021017572996761807 -0.011864477298396459 -0.0096728551819526068 0 -0.0096728551819526068 0.0044449736009146701 0 0 0 -0.0018548759243704194 -0.016309470246674417 -0.0051749420139273195 0 -0.0051749420139273195 0.0015229922427948267 0 0 0 -0.0036966195009698558 -0.022893380991230311 -0.0072017815349096487 0 -0.0072017815349096487 0.0018063687986288879 0 0 0 -0.0052717530481503627 -0.022868674412034759 -0.0059911903722782989 0 -0.0059911903722782989 0.0011017048461133272 0 0 0 -0.0054417423914803337 -0.023822809340166062 -0.0069261849694896988 0 -0.0069261849694896988 0.0011009052527926055 0 0 0 -0.0056804760218433503 -0.032687299381639841 -0.0032957566199181831 0 -0.0032957566199181831 0.0012029338779329102 0 0 0 -0.0078710913759266823 -0.032123587348866334 -0.002139081804788473 0 -0.002139081804788473 0.00043809257478505392 0 0 0 -0.0079213736935203616 -0.0410442251536835 -0.0040555562487276098 0 -0.0040555562487276098 0.00067099643220647209 0 0 0 -0.010093307180369215 -0.05202036810827225 -0.0018458433473115543 0 -0.0018458433473115543 0.00090680330919773455 0 0 0 -0.012778391199768646 -0.04519708968084804 -0.0026136288509942818 0 -0.0026136288509942818 0.00079223499734670799 0 0 0 -0.011101213670875382 -0.03624737327898267 -0.00078754903953842659 0 -0.00078754903953842659 0.00023576902565058955 0 0 0 -0.0090029010633330131 -0.032485845274872693 -0.0059886648365132106 0 -0.0059886648365132106 0.0022592690515835789 0 0 0 -0.0075566440558222647 -0.025466956215241407 -0.0031680858635279169 0 -0.0031680858635279169 0.00091878920642535222 0 0 0 -0.0061370417522040033 -0.013557431925566604 -0.0050795105232867704 0 -0.0050795105232867704 0.002753418373511729 0 0 0 -0.0027010033880137119 -0.016311941173196731 -0.0082403080733735867 0 -0.0082403080733735867 0.0044530783265526175 0 0 0 -0.0029647157116610146 -0.014254053934789013 -0.0066381836010567657 0 -0.0066381836010567657 0.0077990536538424249 0 0 0 -0.001613750070236647 -0.018919378347458743 -0.0031389761394221005 0 -0.0031389761394221005 0.00061623349973069508 0 0 0 -0.0045757862119319981 -0.01906666501963851 -0.0042071439844628133 0 -0.0042071439844628133 0.0030314266959749481 0 0 0 -0.004008809580915873 -0.026009169934139875 0.00094328925443971229 0 0.00094328925443971229 0.003973403252297586 0 0 0 -0.0055089416704605793 -0.027831048285445345 -0.0045362722575011949 0 -0.0045362722575011949 0.0033520760223265667 0 0 0 -0.0061197430657796842 -0.036544954916690936 -0.0025395171364673355 0 -0.0025395171364673355 0.00075165339474370096 0 0 0 -0.0089483253804867879 -0.03307956286914808 0.00016567534905380377 0 0.00016567534905380377 0.00098948876953296183 0 0 0 -0.0080225185249037795 -0.049482287170905692 -0.00077182431275137076 0 -0.00077182431275137076 0.0010775209904122507 0 0 0 -0.012101191545123381 0.009698585593749318 -0.0072478600636030344 0 -0.0072478600636030344 0.007226354312282298 0 0 0 0.0042312349765079114 0.024319510624221163 -0.014194999863720144 0 -0.014194999863720144 0.013008965288972718 0 0 0 0.0093321189782984842 0.0087551645841478787 -0.010978720640842793 0 -0.010978720640842793 0.0076642034253966984 0 0 0 0.004104842002386172 0.0068053413107495575 -0.0077325357283443211 0 -0.0077325357283443211 0.0036591128085036173 0 0 0 0.0026161135298132798 -0.0053002010380262532 -0.0080406721138355508 0 -0.0080406721138355508 0.003416627978638842 0 0 0 -0.00047089326484686667 -0.0041622160269483011 -0.0082388983759025675 0 -0.0082388983759025675 0.0068881038545607343 0 0 0 0.00068147195690307361 0.0056328437339547843 -0.010764606533082574 0 -0.010764606533082574 0.0080230844228507125 0 0 0 0.0034139820392013742 -0.0033529880637907378 -0.0041599561801109949 0 -0.0041599561801109949 0.0083746902885910024 0 0 0 0.0012554255562000488 -0.016352319403877824 -0.0016305823465156341 0 -0.0016305823465156341 0.0034775958632440873 0 0 0 -0.0032186808851584203 -0.010944676189177868 -0.00011405250207084661 0 -0.00011405250207084661 0.0054979012584893128 0 0 0 -0.0013616937326721285 -0.0065458470998031454 -0.007194571576134734 0 -0.007194571576134734 0.0094730399598444981 0 0 0 0.00073179821501034858 0.0084215168727668419 -0.0081085013001045564 0 -0.0081085013001045564 0.011291153840772269 0 0 0 0.0049281676783847692 0.0090903508434419661 -0.0072089327319540854 0 -0.0072089327319540854 0.012539998757161108 0 0 0 0.0054075874001507651 0.022035761105594739 -0.010725668904417715 0 -0.010725668904417715 0.017304001917257644 0 0 0 0.0098349407557130862 0.028965922471061167 -0.020172435660641447 0 -0.020172435660641447 0.035047663899779674 0 0 0 0.016003396592710217 -0.017693155913132114 0.0014482306224095909 0 0.0014482306224095909 0.018559949910104956 0 0 0 0.00021669849924321749 0.067027824147005532 -0.018651317031351859 0 -0.018651317031351859 0.016654722140986955 0 0 0 0.020920636571998136 0.0013934460238086673 -0.00082520930792626124 0 -0.00082520930792626124 0.0040974215945555918 0 0 0 0.0013727169045910648 0.035270143831681797 -0.010884758842125669 0 -0.010884758842125669 0.0034967862956981066 0 0 0 0.0096917325318450036 0.029787288528794142 -0.0070388144077537518 0 -0.0070388144077537518 0.0090111542389345045 0 0 0 0.0096996106919322034 0.0035089087697865481 -0.0021285667138918087 0 -0.0021285667138918087 0.010476914839677299 0 0 0 0.0034964559023659622 0.049312454668204414 -0.0058664877466120813 0 -0.0058664877466120813 0.0091296321599839136 0 0 0 0.014610521707047103 0.0050830116525520793 -0.0029717232678110475 0 -0.0029717232678110475 0.015191494756614155 0 0 0 0.0050686266022915575 0.034133971067734512 -0.0053840991408513617 0 -0.0053840991408513617 0.011285896382369542 0 0 0 0.011354966862526003 0.031512460175324775 -0.0087472744328614405 0 -0.0087472744328614405 0.0066666535830485762 0 0 0 0.0095447784395933516 0.0060905433896087519 -0.007613705890941104 0 -0.007613705890941104 0.0059687272162242677 0 0 0 0.0030148176514582514 0.004235924667284334 -0.0076420922378826056 0 -0.0076420922378826056 0.010478734838996431 0 0 0 0.0036786648765701896 0.0077849181835510893 -0.0063731806998110138 0 -0.0063731806998110138 0.008863563121511861 0 0 0 0.0041621203262657523 -0.0048606398018780778 -0.0079217038012946907 0 -0.0079217038012946907 0.0064860774112143749 0 0 0 0.00040635940233407775 0.0067141287800787271 -0.0052089781501315369 0 -0.0052089781501315369 0.013045514641316716 0 0 0 0.0049399108553488703 0.0030340317847566099 -0.0032559235468485881 0 -0.0032559235468485881 0.0036587957243113672 0 0 0 0.0016732068772669882 -0.0023632548916057133 -0.0064271252521132388 0 -0.0064271252521132388 0.034302256874966811 0 0 0 0.0079847504958402721 0.0050300698171057215 -0.0017276755920234699 0 -0.0017276755920234699 0.013191974831744196 0 0 0 0.0045555111622124916 0.0082672119721329679 -0.0062675234987561966 0 -0.0062675234987561966 0.0053351292696527663 0 0 0 0.003400585310446437 0.010975444438694009 -0.007232761154177314 0 -0.007232761154177314 0.014312914540267188 0 0 0 0.0063220897447403036 0.0073942111090795036 -0.0074942177832769685 0 -0.0074942177832769685 0.013463418267340127 0 0 0 0.0052144073441048981 0.0093740563658539118 -0.0095369044052545943 0 -0.0095369044052545943 0.014978334294665274 0 0 0 0.0060880976651297991 0.010248993082471777 -0.0085990300016496324 0 -0.0085990300016496324 0.02198991278598407 0 0 0 0.0080597264671139549 0.014129454596965171 -0.012664630879368264 0 -0.012664630879368264 0.015687789822680695 0 0 0 0.0074543111049114597 0.015483168717457736 -0.012164589362440373 0 -0.012164589362440373 0.0079163891630134216 0 0 0 0.0058498894701177733 0.012346878448917534 -0.0097459829444074761 0 -0.0097459829444074761 0.0074839309558979439 0 0 0 0.0049577023512038798 0.013256565484673979 -0.010138106624983663 0 -0.010138106624983663 0.0069349079577764872 0 0 0 0.0050478683606126271 0.011930719823815175 -0.0094311869634251949 0 -0.0094311869634251949 0.0064017034008206075 0 0 0 0.0045831058061589491 0.012403977392103249 -0.010346232719692351 0 -0.010346232719692351 0.0023902811833118875 0 0 0 0.0036985646438537911 0.0092234686040227193 -0.0091097046387784986 0 -0.0091097046387784986 0.0067344746095601149 0 0 0 0.0039894858033956981 0.012144025962236613 -0.0091601066664431172 0 -0.0091601066664431172 0.003737076132097672 0 0 0 0.0039702755235835746 0.012228598971594777 -0.0093837819208705472 0 -0.0093837819208705472 0.0041341378699087661 0 0 0 0.0040906842103758875 0.01037708137705956 -0.0090226590392885123 0 -0.0090226590392885123 0.0045313581979568862 0 0 0 0.0037271098937541186 0.012220992016870789 -0.0083417458337979589 0 -0.0083417458337979589 0.0014775755549472219 0 0 0 0.003424641892954515 0.012518961876525764 -0.0082677847842284533 0 -0.0082677847842284533 0.003603897565563563 0 0 0 0.0040307148605223247 0.012771076707758497 -0.0081221315689789381 0 -0.0081221315689789381 0.0058616575005315807 0 0 0 0.004658183552072509 0.01549584227034749 -0.0090091169411714508 0 -0.0090091169411714508 0.0001589134343505938 0 0 0 0.0039136889261745245 0.013819167252107174 -0.0094942921580407763 0 -0.0094942921580407763 0.0026534354010301665 0 0 0 0.0041181506632843434 0.013751072193668439 -0.0094158434532844587 0 -0.0094158434532844587 0.0026560337723365302 0 0 0 0.004101776491501237 0.014451188050085273 -0.007663514232840056 0 -0.007663514232840056 0.00044904970312770187 0 0 0 0.0037250594383032437 0.014252368289701788 -0.0075466718423457119 0 -0.0075466718423457119 -0.00047603822660475387 0 0 0 0.0034440825157742551 0.011584894424386483 -0.0022781782740422807 0 -0.0022781782740422807 -0.0057298759817863976 0 0 0 0.0014637546106500143 0.011744211067669874 -0.0051472599964915849 0 -0.0051472599964915849 -0.001163830352704176 0 0 0 0.0026450951787414384 0.014171933232169504 -0.0041301702529711326 0 -0.0041301702529711326 0.00014564350017015615 0 0 0 0.0035793941830849219 0.013063916072739074 -0.0067340991008105963 0 -0.0067340991008105963 0.0068328913174759975 0 0 0 0.0049742018475537608 0.01349593195260386 -0.005956740194063892 0 -0.005956740194063892 0.0032951698660581563 0 0 0 0.0041977754546655005 0.012086708529009307 -0.0066079776462461409 0 -0.0066079776462461409 0.0027894541655878319 0 0 0 0.0037190406736492786 0.012015347061865744 -0.0038025829035033126 0 -0.0038025829035033126 0.0017430912951275079 0 0 0 0.0034396095892483131 0.014069181580488574 -0.0051877441983415318 0 -0.0051877441983415318 0.0057806018760088729 0 0 0 0.004962445864124379 0.013917792456906303 -0.0045052131679051656 0 -0.0045052131679051656 0.0073248673821015853 0 0 0 0.0053106649597519651 0.016207775106609673 -0.0052597102168435404 0 -0.0052597102168435404 0.012670165820664714 0 0 0 0.0072194852318186176 0.015356184103454518 -0.00659377878120182 0 -0.00659377878120182 0.010499155440508445 0 0 0 0.0064638348859907546 0.014364699444682133 -0.0059809888164668867 0 -0.0059809888164668867 0.0091533696867427961 0 0 0 0.0058795172828562253 0.017888014672250582 -0.0042494687859053314 0 -0.0042494687859053314 0.018400072491737141 0 0 0 0.0090720217909969481 0.036396401221156893 -0.0056606845910783243 0 -0.0056606845910783243 0.018639237431667621 0 0 0 0.013758909663206143 0.0087940139097826917 -0.0038956810060043231 0 -0.0038956810060043231 0.026314054906410096 0 0 0 0.0087770172040481983 0.022942113611009909 -0.0054628287458807767 0 -0.0054628287458807767 0.019521457555545213 0 0 0 0.010615892791638742 0.026904215761345884 -0.0077671644763990244 0 -0.0077671644763990244 0.020808686008726651 0 0 0 0.011928225442518092 0.027668822220611788 -0.006333922912774681 0 -0.006333922912774681 0.016853933488477801 0 0 0 0.011130688927272425 0.038043806555917006 -0.0044144300866257313 0 -0.0044144300866257313 0.014890970552715932 0 0 0 0.013233694277158273 0.014143442140441567 -0.006410045279065385 0 -0.006410045279065385 0.015652035033870318 0 0 0 0.0074488692935779782 0.0067993532905449763 -0.0035389945102662218 0 -0.0035389945102662218 0.020336701223128965 0 0 0 0.0067840136284184858 0.030467385217462728 -0.0053174251811726816 0 -0.0053174251811726816 0.01448065937679921 0 0 0 0.011237011148565457 0.027427736037334838 -0.0080105878250665286 0 -0.0080105878250665286 0.0075977945342226572 0 0 0 0.0087563826428893043 0.040649776681486144 -0.0045414278909182426 0 -0.0045414278909182426 0.011386687539345297 0 0 0 0.013009116055207853 0.0088179873180714435 -0.0069380785058391625 0 -0.0069380785058391625 0.010645894562009872 0 0 0 0.0048659704700203255 0.011105440029625109 -0.008646097645964218 0 -0.008646097645964218 0.0065570596411120424 0 0 0 0.0044156249176842896 0.01057256999721682 -0.008085211578796464 0 -0.008085211578796464 0.0071088825987071433 0 0 0 0.0044203631489809977 0.014565858387280972 -0.0057965254756615625 0 -0.0057965254756615625 0.012264948960495847 0 0 0 0.0067077018369442049 
</DataArray>
<DataArray type="Float64" Name="von_mises_stress" format="ascii">
0.0135757948811465 0.010930819400717594 0.016451809462846544 0.013600200487103392 0.01165766217263629 0.011662093399763375 0.01503411553807992 0.014830555676165161 0.015206817025754514 0.013733635648318277 0.017598516386753124 0.0146505496576564 0.020300622717724752 0.016934092078359844 0.02226691733891922 0.018516294358147389 0.01835781335974605 0.018272738260244895 0.010361990704465621 0.012800382795094664 0.010428755826694822 0.013558278605516182 0.012540693831101119 0.012128061827506165 0.010714385321549391 0.014367019270579123 0.013197746551022687 0.01232566316375493 0.01013412947778068 0.010930285753151692 0.012011301618179687 0.0090137829635691478 0.010833792633057568 0.0084620744974331103 0.012194065331097223 0.01509631256342673 0.013737692448910438 0.010841731754444457 0.014091408675789514 0.016130177250118876 0.012496347979656423 0.013485781426689434 0.011325427189160242 0.0089340863069791547 0.012939898823150374 0.0095784885519140037 0.0085040875079520489 0.010273296058410663 0.022137613905044665 0.019761714304987733 0.026974157139133908 0.019800608778589687 0.016875679463744582 0.017350683158229813 0.018245248672239551 0.01918516569250369 0.015256111379384507 0.020608487609829321 0.016486001855910207 0.01965695568673868 0.025359081807871518 0.023900777368381993 0.023171170271111933 0.03066177562678837 0.032777725467360914 0.025031909365179895 0.028413438506146246 0.038668400048422716 0.030894783685537726 0.029056758216063294 0.0322793044520443 0.04272158431605827 0.019607854259123075 0.018819053991353214 0.023057404410147815 0.023651788513133213 0.018686969028075519 0.027783658503084955 0.021830035698617942 0.02159170344350423 0.017454699908641926 0.013901698038187724 0.012846305023647467 0.012502439636681167 0.011300371689974381 0.017355718038034734 0.0077220944364306612 0.010753118545994344 0.0087032961152115132 0.0046551228080673772 0.0093729518571205178 0.0089255693982195298 0.0061321444249371089 0.0048737438252741579 0.014289819679712882 0.014649253636425883 0.0089885107352295265 0.0097128490775256135 0.014524112843290474 0.017491417852044805 0.014611111645322432 0.013995023552908121 0.0072727130484828246 0.011189040278825488 0.0051717992951689487 0.0068330586136435062 0.0050858948570228586 0.011327123607987691 0.012445862424254788 0.0093067186152615642 0.011930089394955695 0.017179342462287948 0.0067786596508101343 0.011238340260765773 0.015554889277115959 0.019092246170400767 0.023608039913763128 0.02626987611535591 0.03247062177205004 0.034031304249307961 0.047893812380495081 0.03530389605844933 0.034350191288885501 0.034958150392785957 0.030809645510377303 0.046188387207446224 0.034520859505031358 0.025567144729383189 0.021340461607489866 0.025839331057589322 0.013799553810732652 0.011606130876883955 0.010483551193765749 0.012292483885847066 0.012657188332116525 0.014835937551126237 0.018237866550293132 0.016927195606494142 0.017196763805388034 0.015797076151080079 0.016423332972290164 0.016986585720133261 0.016874026265682709 0.017854042341335388 0.018882563662627087 0.037865780470603017 0.025636451459951061 0.024077051054314669 0.019330896014708238 0.015975872161941098 0.014666003186503438 0.024628907609651706 0.014614731058054565 0.0068907042765216659 0.014207144677332166 0.0055941445504786953 0.0092812057061003716 0.017208358234038615 0.014535595820903659 0.013171994552963629 0.0078690796441996738 0.0099512925276290035 0.0070936480329591911 0.0054689997255179187 0.0062612324594963674 0.0045680365247779625 0.0069211808913552456 0.0053830070881183004 0.0067466961920389663 0.005620633414321498 0.0079665284958877099 0.0065023407297386876 0.0092324458072135483 0.0062154382961426141 0.0061843858036457 0.0069697142281379123 0.0064488227734262301 0.0059317383424486196 0.009350891136942532 0.0095792273846049929 0.009685371602053728 0.0062361466390880443 0.0058671584925433359 0.0050824460704659187 0.0068711433646934531 0.0067786689932015226 0.0066909567861593291 0.0092264809338359708 0.007546493481117674 0.013109401794075543 0.0078992208947237831 0.010113261764018425 0.0070002942314939783 0.0092832811819283014 0.0091299028045411738 0.010723672675565885 0.010720081880286012 0.014467552092813134 0.015281851283965409 0.014285534841907423 0.012867653890268126 0.012803740118089033 0.0088364825681878367 0.01137106436925535 0.012618004602279055 0.012039354273432086 0.013766442475013154 0.014476409196456881 0.012107454612825922 0.016046747260110593 0.015555619155169304 0.017361012840873387 0.016187177632827586 0.015150465466386697 0.0084033801664574817 0.0089916479950021468 0.009102502122002306 0.010125897717926073 0.0088618337205040049 0.0096634984438523901 0.0089416235261508582 0.010557852100108588 0.011563731499739308 0.010204728473265302 0.012924177182198814 0.010716202250764388 0.010254465742339141 0.0089824087408233912 0.010376230000275221 0.0091252229441857857 0.010394806393213465 0.011261642133600293 0.009779202727260794 0.0088026251273309319 0.011091073216656642 0.0096691980572178125 0.01156650699687871 0.010368913565091294 0.011074580468347563 0.013132668335363432 0.010249342255432276 0.012154848919283803 0.010128725447296458 0.012327809606827845 0.0099944655992029834 0.012606449239041039 0.014591340961116568 0.015897124359574057 0.014019542780967771 0.014414929358227633 0.012052419557771898 0.01294746623457242 0.010487595554285288 0.011948010539312963 0.010914333659983552 0.012139106416884262 0.013247169717066281 0.013803346324530383 0.012204567684686392 0.010939454084033299 0.01286509694373492 0.011157607397592303 0.012713159074714904 0.014684408464080359 0.015215644294194915 0.016168729808406283 0.015703352603336551 0.017264969095514025 0.017235313018364791 0.01817955280438472 0.017465857490103494 0.016492377218068035 0.015185953043715535 0.010978292774678905 0.011296956179019909 0.012722960091516479 0.01134092228543691 0.014512506174447635 0.013616122875198085 0.011569179978969613 0.01470117218407458 0.015600618790763594 0.015933418534811748 0.014640078419544157 0.014306667132881024 0.013702121476886478 0.015517245239987324 0.018363350880687173 0.017252491447702915 0.018735870548596389 0.019227777973103502 0.022121390356985564 0.018754090080153038 0.01757700399463915 0.017862363333756997 0.017707658506077008 0.016429258349143893 0.020909816151693517 0.020830919042695677 0.019942822946539023 0.02355973819606081 0.021131139705602344 0.020911434695003273 0.020331781807994356 0.022449774874256145 0.023667349651506596 0.024678098793219538 0.021149284129443949 0.021555328458195133 0.021423718764971095 0.02032401099248151 0.019691594199599295 0.018898699287598564 0.01760786869295048 0.016808124778445177 0.016380982043436347 0.018895017345303827 0.019129865352887652 0.017484225925018228 0.018818667843125535 0.018613751300756348 0.01911991995472068 0.019582671466211347 0.019705949412840113 0.020962700043242518 0.032275798382800008 0.025591557392802937 0.025908510572982171 0.025472565789794011 0.022152511785018779 0.018075859052925872 0.01468095249984352 0.018421644672182335 0.020557263539887419 0.019958902666806243 0.015894673793258839 0.015900457514798436 0.020164141600449267 0.017727604994444323 0.022816917009454513 0.029053741395098576 0.019714170399144238 0.023971781840756629 0.0165881659086272 0.015637366336814812 0.01924703127485038 0.017797527744104893 0.016830691316543179 0.013571070268409976 0.015855765091346029 0.012660710376411354 0.016638246523094303 0.01251851734826441 0.01200278692874528 0.016482496703497124 0.015931907542108884 0.013175286201024256 0.018065728734341754 0.016804440579049007 0.018811163573230493 0.019679234218438996 0.016382840083206597 0.020695897757534696 0.016683708372431782 0.018592165824900496 0.02222783341884663 0.021162119484113295 0.02193622555727932 0.019562992106375496 0.016021236620049513 0.01848586152942553 0.023731846631034902 0.023339561721266014 0.027921022053596329 0.027655636966464604 0.026793810417238651 0.026615149396938553 0.030099572226317522 0.036850903206353557 0.041175049885965438 0.048417934157981249 0.034986710286825581 0.040515368161184805 0.028763916827451833 0.032717288834396799 0.02808696230052795 0.053551963389210699 0.074461529484391997 0.052336281132482565 0.048062604656751363 0.065453474331526013 0.055617494099447398 0.03886827278373764 0.044369496137349182 0.046384591917739977 0.032087139199373289 0.030829913284197607 0.02327809666551682 0.03708557203639596 0.035414195134349076 0.031313738201624336 0.021709075239122438 0.022216305820409003 0.02379976086003241 0.029538437510955355 0.02501957580939685 0.03155102283812241 0.027131538698498967 0.020757597075436715 0.02403301686951222 0.021600934077973147 0.017627460506522617 0.024958247812563901 0.022968282853609516 0.025184989392421895 0.017781420678207698 0.017597030840294979 0.027395076325106123 0.017066530341798076 0.024738965812553311 0.015703477528575063 0.016589090059402841 0.028090566740152065 0.013416783155960196 0.026752867013878204 0.02989094596496495 0.040303527848327546 0.034945172497970099 0.046336404351423138 0.028227504389784913 0.024012863052911511 0.019036462607053502 0.039711017345245937 0.027066176345072107 0.042402564336582932 0.020107170326138738 0.029962782176607219 0.031632752765985532 0.03617448284127394 0.042315089661886712 0.041410683099353265 0.037014108885019666 0.044183812474127067 0.029279841236017443 0.050335548471134473 0.04780927833891202 0.041620236609978441 0.056628312320737971 0.052142326976541468 0.078229513400427275 0.056905862666381625 0.080699570411958535 0.058015612691752858 0.049994065330895808 0.058397560222579449 0.021549509853918115 0.022412338096595534 0.023492734621297869 0.018645481448943957 0.015686718183990995 0.014949808249912089 0.010199745680781584 0.017785543667221373 0.013648547873809598 0.013374725709886796 0.015000826677307989 0.017105772467051011 0.019489725533284239 0.017234186069845409 0.021480659270849072 0.023178486453647291 0.020581193029591265 0.022372565838252863 0.023855502902094938 0.024152209040568657 0.023467074686713909 0.021019696967346777 0.025199177936159937 0.022509119759154452 0.024179940213491451 0.025364884828867416 0.026123776073636269 0.029331641449845233 0.023074012953587755 0.029965163609299645 0.029234747972798809 0.03877293217624974 0.033639969480417538 0.036284318701546879 0.028057001622195279 0.030119781869602676 0.027249473046526713 0.033326136339521244 0.053920854346293991 0.08124150201107215 0.089959404267308821 0.062011193835033382 0.032377855202665062 0.035929806601332617 0.072618728917283965 0.040523891213930505 0.043609627932089709 0.034562118602397329 0.021257543249532697 0.03083555774367612 0.018596009913187998 0.024110937401437674 0.017195114632864966 0.025930742246646814 0.013141470874950606 0.018772173875306226 0.028415373469782186 0.021010742542792577 0.018551390441061123 0.026587888077694063 0.022859536047907913 0.021521021298965774 0.030232348245880915 0.028655800055933132 0.021105410170484021 0.026597556554976351 0.025790063244539231 0.023630732173948066 0.026716664344964041 0.029863510178920846 0.032315861361133597 0.044290558905471421 0.028979417397421995 0.033848904627639183 0.037316559852051907 0.04902675450176798 0.059646738463478392 0.049565513394591927 0.12755087636883294 0.042674026959811352 0.062705711294995192 0.12337887798026809 0.089205597472922046 0.0061549481762488353 0.14537579596648906 0.062329634525978742 0.01611291935510498 0.01510252541606742 0.055808560704872889 0.022567846247542 0.017835931837077455 0.045919625062552892 0.038002052805691751 0.01404119925058139 0.018966827763958048 0.023227950761211442 0.012206243821803487 0.010368443241585389 0.016031917957104142 0.017944415600465377 0.039281465381025109 0.030120165206754423 0.035254424882484398 0.028164559142802071 0.027198918927087107 0.027717240250014329 0.025915347985205034 0.023349915243131292 0.020821295174352272 0.033468152896528651 0.020609336603500235 0.01075712262138632 0.016427946840018907 0.013979504850859092 0.012762305903683938 0.013618302870728911 0.017161337655092385 0.01682368280669725 0.017876138747218131 0.020039987975884653 0.020090203634205848 0.016476195059900802 0.01516010891815584 0.017317620272669143 0.018769125897526426 0.02395853534906088 0.020593940646890279 0.023554641590158298 0.020691555441873958 0.02381095280305482 0.022803284241356393 0.023533423127350111 0.040179436582396554 0.046496076475298465 0.045442571174812971 0.063118121730487059 0.068373969845233487 0.042277426389972728 0.044927785577778219 0.047023140547286409 0.040608792557940657 0.045844950956928365 0.033310688619261335 0.043611618820335499 0.034003791329644512 0.035070647112486336 0.048950167743736679 0.041492775986893216 0.061495210470642783 0.044605850844105357 0.035819723404088261 0.052597445069794857 0.041360600790699739 0.065426147033107951 0.078697640483322978 0.081581840285459006 0.070100326934525878 0.050703606171033984 0.056188006048947373 0.049078750905607739 0.042480590171092486 0.041148284978485328 0.039845127065628476 0.034501251984307826 0.030448421317841475 0.028429463862111724 0.031799574144805873 0.03623879452240749 0.026713251019788248 0.025658788740941803 0.027337792117918369 0.030018677338234118 0.035341851412729407 0.033361681325880681 0.033591125895069837 0.039330177194280634 0.028060558957836903 0.035297450749602201 0.023583652237912839 0.030803341951329197 0.026716421948259621 0.024959978840218042 0.019845939868930521 0.021491157494443986 0.026829146787557913 0.023326797658614541 0.015019204609739758 0.022422241050038198 0.034797882161597418 0.034940419959212904 0.028034770167573626 0.006526813548040241 0.0087257315518730529 0.0094359227602082065 0.011141125144404636 0.010544761041633852 0.016773400970426639 0.018955431816461227 0.01362341046455518 0.017162341971913055 0.013704412009358262 0.016279470881115969 0.012940972347071426 0.0103716881095901 0.013219645576983909 0.010486107768122211 0.012547925376788111 0.013155913790698779 0.016941139789981755 0.014767097945238894 0.019541552747974606 0.016634006856219682 0.01925293347957726 0.02306694801105234 0.017069565436085597 0.019783371723001455 0.022557543218576392 0.025203631662388919 0.023266638047601776 0.018916486690114472 0.017161829551663784 0.018528215764423542 0.019249913974790797 0.015497078595179986 0.015768047722178564 0.010017677505085996 0.018839836029140532 0.013801306908956604 0.018073786726494571 0.020619881472002055 0.017817773551702432 0.00777535754194493 0.0079128792693971099 0.0051860234822234978 0.012236787781509759 0.0099346483231207774 0.011635492215390017 0.0081480353342918126 0.01345508185020795 0.008880568605152692 0.007176915793077155 0.0059992121543092445 0.0062835757305618987 0.0064171082666212792 0.0061182760149246359 0.003670768475676941 0.0049899319815267977 0.004386415365441567 0.0029757140531814891 0.0016907506507862114 0.00093503674427003393 0.0011153226985242768 0.0020126968246234498 0.0039833821727381195 0.0034871185419335158 0.0063125945375989622 0.016159246168442228 0.016629627168022153 0.019069167544195451 0.019744576924016616 0.017105994875522629 0.013760197001749026 0.011638058475872265 0.014064889920602005 0.012265980043712533 0.012884748391303397 0.016743468838127586 0.017739520341598723 0.015642312674078188 0.016828436650947722 0.017065142566975826 0.013613743228653802 0.018447518271680126 0.02130268295092403 0.017219059593612664 0.023621491957231941 0.022202532003199309 0.021177366791827124 0.038617040908288339 0.020166985409028022 0.022308450983148376 0.018516064365089058 0.043800068857765155 0.023794452264338843 0.023767720041012484 0.049061504833868542 0.021059143045562032 0.015982577757462209 0.023975604959717962 0.022080721181051133 0.019313788459626603 0.025516171238477322 0.017662621571934215 0.027527706336340541 0.026511447032357041 0.020701865439152159 0.025814076196450035 0.054647318691645679 0.033321128818825027 0.029449709943243786 0.022453365947973092 0.027867758320213838 0.06070881113572283 0.036682589782707477 0.03019908044871315 0.024514155577738967 0.031670167478669048 0.035829846742198905 0.030217287491521846 0.023151204053544362 0.018192969955521464 0.023055984122632371 0.030447315228727369 0.014555682799441 0.021246837509604013 0.019185142830971742 0.016213430183435507 0.023088077953939305 0.017259332993791371 0.015057726235668607 0.01946990833164872 0.014787745188041672 0.015035841191327922 0.020678753158283963 0.032175264147745665 0.023374491113755523 0.036611751988098296 0.025616997861405238 0.016431609797766342 0.022682921837808193 0.036655232958451557 0.043257770644011533 0.02371993014396705 0.014680020323171467 0.023552507498814233 0.013983680076415107 0.0093415070866359161 0.018212861123906066 0.018270256863035614 0.011702947244314595 0.010855271589809144 0.013432175376002392 0.01080995837234174 0.01065645678300303 0.0083869691618743258 0.0098327214600006253 0.010724491931755103 0.008805797321883406 0.011564793759692814 0.009053952109211583 0.0087919403945674168 0.0084383938273905265 0.0099951473969236183 0.0087507313299688867 0.010847719203352271 0.011151129891796804 0.012528438765250735 0.010041100683428242 0.011555116424486634 0.01028221005181063 0.019191358730496249 0.023344260402566874 0.022930003925067711 0.016788632553162909 0.012764622755135752 0.013059731698473237 0.012065705439904687 0.011978966272396618 0.013971777972363533 0.013443354494054059 0.01545389386126526 0.015198135199346549 0.01846777431174625 0.025377584391363051 0.017807606431836868 0.024010992751061756 0.034957608233884399 0.020184094742764457 0.023780656737107476 0.028724381389017162 0.023068142052236385 0.042229005963170085 0.033481711131783651 0.030395626917886259 0.020828274990309818 0.013857271767928078 0.022887754681520597 0.021431081335460869 0.025057590944159439 0.028878036041481051 0.028354700906197423 0.043070239270393565 0.036796608259652044 0.035851361226638838 0.031586399538624417 0.050676195692636462 0.044268205762111407 0.034723473177596907 0.030729303108364754 0.031861463129603071 0.022534211829696855 0.025593514722366775 0.016858148993140955 0.01366064442313766 0.01441246557405537 0.022819048127191315 0.022045249779940691 0.017879265009239188 0.018603152686267187 0.02077205387008985 0.020195318905011053 0.027561071459516657 0.01685746726129762 0.0033416366353752345 0.0017725327925043109 0.0014349681569778398 0.0029318145303913472 0.0055672391080294438 0.0081237791866056834 0.0084885935010728161 0.0062158934763908496 0.012151347656270311 0.013804751289738976 0.017218477508600869 0.014110425706278587 0.011740392046985558 0.011602127891812817 0.0068243375492426997 0.010838329264943929 0.0067428871856589669 0.018789941606759775 0.011571383489747544 0.015489270800334859 0.014699590117780732 0.017895513143577749 0.017794044697054225 0.020489531169726471 0.01958922940540293 0.017537406046952597 0.01937165504666501 0.022164785858148277 0.021475416969168305 0.019790515684935894 0.019174335025670015 0.0221725840770313 0.025495593370434996 0.017889748964841249 0.023529888103614598 0.019484487565969513 0.021658730487372182 0.02439425078010134 0.019878638182073312 0.020336185469659034 0.023598018104802405 0.023015588151131521 0.020322249445600092 0.019568401240404164 0.016768989701722341 0.022360423123078187 0.019131471685480923 0.021166579358379345 0.019918118597940845 0.019981085649932132 0.021812216870768012 0.017734198439793198 0.022706928125803532 0.0209240582931421 0.017002469249598959 0.022437222324466786 0.021864649029753516 0.015968581110128267 0.016547994249191421 0.021944475372483126 0.014953756279281024 0.016316239903504639 0.019429732211685119 0.020764619209888126 0.018526968529249798 0.017412162653198841 0.019570587014815434 0.019169040218789835 0.027686536001134403 0.028767938882559647 0.024842092825327681 0.033493872937202372 0.019427513575996924 0.017946882691889925 0.024327418229939581 0.018122319121696682 0.0225861810960746 0.0208810767224871 0.017564902553646032 0.021991625412544475 0.01823465407147137 0.025316922834175887 0.023837574495331255 0.0253392498776688 0.030918458036140496 0.029524099032533876 0.03816198688835528 0.047691433196470991 0.041593191757137209 0.032881266434556432 0.032712572753110562 0.02428845933107137 0.016859198642871866 0.023149235339466733 0.022350733759544023 0.018350134352421707 0.020866599600265399 0.026593868529065492 0.028783241380517764 0.033803812101991251 0.030577252298328132 0.04544718501846931 0.013419453102229509 0.028062944158688975 0.019476634611271627 0.01391561862485801 0.015848226893657443 0.017195491283651963 0.019067524032065148 0.012515815164869756 0.017699024200014974 0.014306012672411014 0.018662118478141216 0.015089941315783036 0.01393101532330851 0.021415838502666092 0.038789571640533337 0.031496901997176613 0.05817538113215226 0.003067715081491697 0.034735044140674548 0.023800272884951557 0.0078887530121166827 0.03908591560320554 0.011349910403771377 0.02464602870130652 0.02799344216754875 0.013527963891061789 0.014763698917312421 0.011834194036109361 0.016881537102575166 0.011656239297361305 0.0059072398942339255 0.034582508184461944 0.0089257935727782133 0.011655786743358215 0.014326944911245058 0.014943440070720699 0.018261394207797332 0.019752874176831869 0.023207039589045613 0.022827505875635101 0.018090537775341996 0.019073466077779926 0.017628790043618978 0.020248915000965727 0.016417139553564032 0.017902328179314236 0.018167003388545409 0.016844756934812313 0.017522787755314032 0.016760794633705115 0.015981576674787411 0.020862060415507696 0.019516380080840542 0.019368113030820405 0.018360537239558737 0.018585288293319763 0.015574460567512896 0.014541063747251018 0.014544400448556748 0.013780646147563169 0.014216583286649868 0.014479522549992577 0.011590912528505304 0.012525548039697828 0.011031500131941591 0.012020841538883812 0.013780709809517892 0.012737891251380629 0.011690688032419095 0.022845684376361832 0.018782409320809067 0.014525850727973681 0.01873861538218986 0.018220025743860765 0.025211755282680177 0.013433487431802353 0.014867452005220265 0.020069305009229831 0.023750846804075135 0.029552615654265844 0.013061179209550874 0.016102129674154163 0.014988308676649555 0.012237770419730331 
</DataArray>
<DataArray type="Float64" Name="cross_section_updated" format="ascii">
1 1 1 1 1 1 1 1 1 1 1 1 1 1 1 1 1 1 1 1 1 1 1 1 1 1 1 1 1 1 1 1 1 1 1 1 1 1 1 1 1 1 1 1 1 1 1 1 1 1 1 1 1 1 1 1 1 1 1 1 1 1 1 1 1 1 1 1 1 1 1 1 1 1 1 1 1 1 1 1 1 1 1 1 1 1 1 1 1 1 1 1 1 1 1 1 1 1 1 1 1 1 1 1 1 1 1 1 1 1 1 1 1 1 1 1 1 1 1 1 1 1 1 1 1 1 1 1 1 1 1 1 1 1 1 1 1 1 1 1 1 1 1 1 1 1 1 1 1 1 1 1 1 1 1 1 1 1 1 1 1 1 1 1 1 1 1 1 1 1 1 1 1 1 1 1 1 1 1 1 1 1 1 1 1 1 1 1 1 1 1 1 1 1 1 1 1 1 1 1 1 1 1 1 1 1 1 1 1 1 1 1 1 1 1 1 1 1 1 1 1 1 1 1 1 1 1 1 1 1 1 1 1 1 1 1 1 1 1 1 1 1 1 1 1 1 1 1 1 1 1 1 1 1 1 1 1 1 1 1 1 1 1 1 1 1 1 1 1 1 1 1 1 1 1 1 1 1 1 1 1 1 1 1 1 1 1 1 1 1 1 1 1 1 1 1 1 1 1 1 1 1 1 1 1 1 1 1 1 1 1 1 1 1 1 1 1 1 1 1 1 1 1 1 1 1 1 1 1 1 1 1 1 1 1 1 1 1 1 1 1 1 1 1 1 1 1 1 1 1 1 1 1 1 1 1 1 1 1 1 1 1 1 1 1 1 1 1 1 1 1 1 1 1 1 1 1 1 1 1 1 1 1 1 1 1 1 1 1 1 1 1 1 1 1 1 1 1 1 1 1 1 1 1 1 1 1 1 1 1 1 1 1 1 1 1 1 1 1 1 1 1 1 1 1 1 1 1 1 1 1 1 1 1 1 1 1 1 1 1 1 1 1 1 1 1 1 1 1 1 1 1 1 1 1 1 1 1 1 1 1 1 1 1 1 1 1 1 1 1 1 1 1 1 1 1 1 1 1 1 1 1 1 1 1 1 1 1 1 1 1 1 1 1 1 1 1 1 1 1 1 1 1 1 1 1 1 1 1 1 1 1 1 1 1 1 1 1 1 1 1 1 1 1 1 1 1 1 1 1 1 1 1 1 1 1 1 1 0.0020154700412348403 1 1 0.0020398013074719714 1 1 0.002055810586490845 1 1 1 1 1 1 1 1 1 1 1 1 1 0.0020696854976244464 1 1 1 1 1 0.002082903003995469 1 1 1 1 1 1 1 1 1 1 1 1 1 1 1 1 1 1 1 1 1 1 1 1 1 1 1 1 1 1 1 1 1 1 1 1 1 1 1 1 1 1 1 1 1 1 1 1 1 1 1 1 1 1 1 1 1 1 1 1 1 1 1 1 1 1 1 1 1 1 1 1 1 1 1 1 1 1 1 1 1 1 1 1 1 1 1 1 1 1 1 1 1 1 1 1 1 1 1 1 1 1 1 1 1 1 1 1 1 1 1 1 1 1 1 1 1 1 1 1 1 1 1 1 1 1 1 1 1 1 1 1 1 1 1 1 1 1 1 1 1 1 1 1 1 1 1 1 1 1 1 1 1 1 1 1 1 1 1 1 1 1 1 1 1 1 1 1 0.0020957724689846854 1 1 1 0.0021087686798091946 1 1 0.0021220086276986156 1 1 1 1 1 1 1 1 1 1 1 0.0021359767306979435 1 1 1 1 0.0021516034740574402 1 1 1 1 1 1 1 1 1 1 1 1 1 1 1 1 1 1 1 1 1 1 1 1 1 1 1 1 1 1 1 1 1 1 1 1 1 1 1 1 1 1 1 1 1 1 1 1 1 1 1 1 1 1 1 1 1 1 0.0010278068290210892 1 1 1 1 1 1 1 1 1 1 1 1 1 1 0.0010427722903263595 1 1 0.0010347509942199697 1 0.0010520678706041203 1 1 1 1 1 1 1 1 1 1 1 1 1 0.0010628467538122183 1 1 1 1 1 1 1 1 1 1 1 1 1 1 1 1 1 1 1 1 1 1 1 1 1 1 1 1 1 1 1 1 1 1 1 1 1 1 1 1 1 1 1 1 1 1 1 1 1 1 1 1 1 1 1 1 1 1 1 1 1 1 1 1 1 1 1 1 1 1 1 1 1 1 1 1 1 1 1 1 1 1 1 1 1 1 1 1 1 1 1 1 1 1 1 1 1 1 1 1 1 1 1 1 1 1 1 1 1 1 1 1 1 1 1 1 1 1 1 1 1 1 1 1 1 1 1 1 1 1 1 1 1 1 1 1 0.0010034058808624559 1 1 0.0010087255736716391 1 0.0010126535851929033 1 1 1 1 1 1 1 1 1 1 1 1 1 1 1 1 1 1 1 1 1 1 1 1 1 1 1 1 1 1 1 1 1 1 1 1 1 1 1 1 1 1 1 1 1 1 1 0.0010219212971279525 1 1 1 1 1 0.0010169408594933882 1 1 1 1 1 1 1 
</DataArray>
<DataArray type="Float64" Name="displacement_divergence" format="ascii">
-1.1887109771068115e-05 -1.3332759705771646e-05 -1.0107133013390937e-05 -1.1731579841683864e-05 -1.1296537351235285e-05 -1.1290641456919152e-05 -1.0452926453088451e-05 -1.091856549149657e-05 -1.0096742032024621e-05 -7.6754734429612863e-06 -1.1230994734522352e-05 -7.2391833474466522e-06 -1.3577786795934928e-05 -1.0275799189696418e-05 -1.6273010094200776e-05 -1.274906248630972e-05 -1.0996354886915347e-05 -1.2018863031684116e-05 -1.9047373888476702e-06 -3.3794264339257391e-06 -3.6345851571498492e-06 -6.3648662305542411e-06 -7.4031877246035098e-06 -4.6083852219869885e-06 -5.3416204284701073e-06 -6.7773088982454492e-06 -7.3402272552931521e-06 -6.5509137392694185e-06 -2.8641142631147196e-06 -3.3373877116929564e-06 -1.8028071319004939e-06 -1.5525777300387777e-07 -8.4027424380978222e-07 -5.5662095861140013e-07 -3.5772526095165935e-06 -7.4138902174151595e-06 -6.058504002997159e-06 -3.7147149604044941e-06 -6.8573841849554167e-06 -8.2353622855151098e-06 -5.8989048736602806e-06 -4.0927958288628459e-06 -3.7305440137766102e-06 -8.7888590095306565e-07 -4.1699459376517391e-06 -2.4921930525198557e-06 1.691460833024926e-06 -6.6777611834899681e-07 -1.6364784824481473e-05 -1.2506139037893968e-05 -1.8623012885485642e-05 -1.2220375134773058e-05 -9.5644675582318591e-06 -1.0519051569405788e-05 -1.0715706960771421e-05 -1.1838048590303208e-05 -8.6896277442666727e-06 -1.2980928541497653e-05 -1.0284792228323265e-05 -1.2038495634492972e-05 -1.7537576038161556e-05 -1.6552342288175011e-05 -1.5563637740133133e-05 -2.1404460810577847e-05 -2.2900565308628177e-05 -1.6183854472971932e-05 -1.9057048130227753e-05 -2.5987656502652138e-05 -1.975129546654683e-05 -2.070202224399463e-05 -2.0701877267069308e-05 -3.0205197007382602e-05 -1.170017815942467e-05 -9.5904031180361151e-06 -1.5344337192034915e-05 -1.4867319824932766e-05 -9.5292405666719361e-06 -1.6701597236426358e-05 -1.4813465823059539e-05 -1.2619171024689423e-05 -9.2337633446098438e-06 -5.95106387694086e-06 -5.8212249824930414e-06 -4.9895719408849901e-06 -2.6952907151187864e-06 -9.7159664662734095e-06 8.3020534354234812e-07 -9.510818980782458e-07 -1.122637534569458e-06 3.5862214976147541e-06 1.4315556610360616e-06 1.1328600437486363e-08 4.3647794102840624e-06 5.214401179185915e-06 -5.3302344911650953e-06 -7.836536768877404e-06 -1.1290513035597676e-06 -2.7340778565292744e-06 -4.1762151829115033e-06 -6.1131572016998595e-06 -1.1047400914917886e-06 -5.7438912292046826e-06 1.1354947162678946e-05 -1.2596815536318733e-07 4.49968302938357e-06 6.7871067058476909e-06 1.204714418875195e-05 8.7434368198267777e-06 8.5948536039477858e-06 9.6177719792744164e-06 1.8731831960900014e-05 -2.3217367843174016e-06 2.7899290114860085e-06 2.8358170597811975e-06 -5.5031982787757136e-06 -7.7309809203993663e-06 -1.3073140743838054e-05 -1.5291432731458027e-05 -1.9430177502578427e-05 -2.251655496342378e-05 -3.2118099397892633e-05 -2.314118855624954e-05 -2.3204702394994872e-05 -2.4801053209248356e-05 -1.9486264756841921e-05 -3.1743977361512364e-05 -2.2312184141577541e-05 -1.4170202129184838e-05 -9.8511890251444523e-06 -1.6184798837324556e-05 1.8427065254188038e-05 1.6835390647250324e-05 1.435478614541727e-05 1.6310032451208185e-05 1.8409433308982797e-05 2.1471922219111164e-05 1.9109057109960515e-05 1.8429375291522078e-05 1.8771961851079999e-05 1.7755036305862588e-05 1.5869209831831049e-05 1.726001962728315e-05 1.7365510745994055e-05 1.7094999370477034e-05 1.8489872686047889e-05 3.5735936943466398e-05 1.6221178420966762e-05 2.5340594483798504e-05 1.6342666060433486e-05 3.3091182391055803e-05 2.2650950251132591e-05 3.3848525921737514e-05 1.8490421830870714e-05 1.5710577728759293e-05 2.0838652386203788e-05 1.2020120864910999e-05 1.2991434588258177e-05 1.87011796190593e-05 1.3496755145018833e-05 1.8383720773855216e-05 1.0889674827563111e-05 1.6484910465261906e-05 1.2724192747014315e-05 1.1602564257252725e-05 8.3781812241590569e-06 9.5653884960279103e-06 1.0212043348311914e-05 9.2872788221396872e-06 5.2254444258747289e-06 7.2262654668801846e-06 5.9493611708717542e-06 4.417339042453382e-06 2.5050790978607657e-06 1.0037988617245597e-05 9.376181423322364e-06 8.28854930896226e-06 7.4623743017393943e-06 1.0631712671862532e-05 9.4048812439159308e-06 1.249080342859671e-05 1.245228360586092e-05 1.2282211175545629e-05 1.346520607370996e-05 1.1493969227739076e-05 1.6653301648383617e-05 1.4593792781627925e-05 1.3846500776132417e-05 1.7080289609518485e-05 1.332743684979159e-05 2.3058460745833666e-05 1.5991337158129771e-05 1.9392322873566872e-05 1.5529644293156339e-05 1.8568188714905121e-05 1.8749292356255605e-05 1.5049505440707142e-05 1.5508303233056348e-05 1.5743160830897968e-05 1.3573629078885785e-05 1.0952908949437997e-05 1.2640352781500523e-05 1.2897921605618503e-05 1.0216695550474721e-05 9.018768064426444e-06 1.0243604280132521e-05 1.1546157717598216e-05 9.9035247904525422e-06 9.5491957752148614e-06 7.9282123976545953e-06 1.0670778949704283e-05 1.0433130646237792e-05 1.2165099921741298e-05 1.1196118411169375e-05 1.13625753575803e-05 2.9933130528986098e-06 4.4996831708637983e-06 2.418606325861607e-06 5.6422419704368796e-06 5.9732183560134822e-06 6.7530322426169147e-06 7.599032425428197e-06 8.2057565061938416e-06 7.5500320638545221e-06 6.5926497914920119e-06 7.4721693499978064e-06 5.8052231320520989e-06 4.7764251225933745e-06 2.5527673551487904e-06 1.9759759556674818e-06 2.0386971106946631e-06 -1.4873611796763306e-07 1.1864364894125774e-06 -6.5530130016951962e-08 1.3378698450895095e-06 3.6067114829816532e-06 3.436304804893018e-06 4.0245262970702751e-06 5.2625550050572861e-06 5.8689328443755151e-06 7.1792284299476091e-06 6.5131627659661953e-06 5.2664550402944641e-06 5.4806225760973921e-06 2.5243405249590215e-06 1.8517125734707049e-06 -5.1810730614756181e-07 1.0706572896714283e-05 1.0563588642421685e-05 9.1631060090754093e-06 9.0377138269038721e-06 8.0126992814755563e-06 9.2173854045747432e-06 8.7309834804491156e-06 7.8443745220686668e-06 1.0679385958570168e-05 9.4250122264880566e-06 1.147549434263959e-05 9.5967530574762159e-06 1.0229884288344653e-05 1.1946766245465295e-05 1.0652890354422231e-05 1.3803458942434921e-05 1.0160012154017922e-05 1.229914358894396e-05 1.1665706707998896e-05 1.1551978605053156e-05 1.0539850342589943e-05 1.2442797692385404e-05 1.0639262572175571e-05 1.0411180549014545e-05 9.3609790020162093e-06 1.1292487126271809e-05 1.0964551841489109e-05 1.3668558813001794e-05 1.3465976677797989e-05 1.0149230752039747e-05 1.1224043939880366e-05 1.0905129197908732e-05 7.812754367044892e-06 6.8550638985137144e-06 4.5820432865673249e-06 1.2069448857040067e-06 3.2098210208133327e-06 5.1917351184043679e-06 7.9051856852609037e-06 2.9706559776991487e-06 6.4983199279749926e-06 8.6190900067798443e-06 1.028763213036778e-05 1.026999683375057e-05 9.1870746460756792e-06 1.2251802711060966e-05 6.534767623567377e-06 4.7969594656861134e-06 7.1649533587243127e-06 8.1384553851111802e-06 2.683609003943979e-06 6.4341161940081942e-06 9.3934300454407758e-06 7.8707404359321794e-06 1.3991258157292781e-05 9.948592032007618e-06 9.0356254246602667e-06 1.1630063220105246e-05 1.13856849594882e-05 1.3402484582310249e-05 1.7813846325803537e-05 1.5452274242322652e-05 1.6444968558656408e-05 1.3302860030915498e-05 1.4888050804418932e-05 1.7349781064201586e-05 1.4320951370019131e-05 1.6086072303399441e-05 1.2876147132953102e-05 1.2511472620284743e-05 1.2197191021526996e-05 1.3318379475058332e-05 1.0834161057655438e-05 1.2689605982195067e-05 1.081569138636956e-05 1.1975700430297218e-05 1.1054838734331295e-05 1.2170592417804536e-05 1.3086303333040623e-05 -2.3908973983896752e-05 -1.6400852104935598e-05 -1.7790155130019539e-05 -1.4456252376262983e-05 -1.2877725565222242e-05 -1.5302119576376856e-05 -1.7298784412139002e-05 -1.5116871132814283e-05 -1.4277373709470922e-05 -1.2708300893039452e-05 -1.3689730094126767e-05 -1.3680654253098534e-05 -1.2907000019616887e-05 -8.3530383699677369e-06 -1.2800951298412185e-05 -1.9548759402035504e-05 -7.9051431429160483e-06 -1.5193363650526069e-05 -7.8739414593443594e-06 -7.1409387887238652e-06 -7.926774526239121e-06 -6.7515013158341346e-06 -8.0282975957118216e-06 -3.5822428534406766e-06 -3.9494474879574037e-06 -1.8242075449872598e-06 -2.6162508039846362e-06 1.8199061364112192e-06 3.378701552649017e-06 -3.1252406346083306e-07 -1.7080855220686829e-06 -1.3534019267572289e-06 6.2394021853102619e-07 3.8228363932322211e-06 -2.6186643563630314e-06 2.464328738977516e-06 -2.9150728141820402e-07 -3.6479292922771926e-06 3.840005604852266e-06 -2.2123306335092782e-06 -7.6854456690056079e-07 -1.0876413765018874e-05 -9.1075727578039529e-06 -8.5597750073099999e-06 -1.7130028091595572e-06 -7.008976495294616e-06 -1.3920945492026149e-05 -1.1372287990615431e-05 -1.679501399108368e-05 -1.2878498839179337e-05 -1.7512046504091001e-05 -9.181243330010303e-06 -1.5303674546206834e-05 -2.6534402771989731e-05 -2.7888301517163902e-05 -3.3483345605179096e-05 -2.3707575541517831e-05 -2.8013617589238086e-05 -1.7336327805474125e-05 -2.4727035104086757e-05 -1.652482480625956e-05 -3.3812948420686246e-05 -5.1658585181348832e-05 -3.1264506167304499e-05 -3.1963040546613747e-05 -4.4034267823782925e-05 -3.8331865723784485e-05 -2.5449394654723425e-05 -2.9616042170703852e-05 -2.7800960669203822e-05 -1.5971773097045244e-05 -1.7516993480857835e-05 -1.3450633882992596e-05 -1.4618621625037226e-05 -2.1916657619675368e-05 -1.6631713466177252e-05 -1.189215331292861e-06 5.0726987954558686e-06 5.8985090147153772e-06 -1.0852925839144496e-05 -4.1433599021945394e-06 -1.2738810882357457e-05 -6.9953817361512375e-06 -4.5209692788876763e-06 2.3236606290114118e-06 -4.0009337589961014e-06 2.5789727473892393e-06 1.0009179420373017e-05 5.6712058055848777e-06 1.2551670509459996e-05 5.512937377448524e-06 1.1869221721511916e-05 1.9917751413924381e-05 8.6379390020361392e-06 1.8181238860894186e-05 2.031838760898628e-05 3.510100789484869e-05 3.4159789623857405e-05 1.6433487206385529e-05 1.3996377739470758e-05 3.7125121484768772e-05 6.3068397504755105e-05 5.6916347681132753e-05 6.1759993998156723e-05 3.9724383358625702e-05 2.6811478128882581e-05 3.3151113938528427e-05 2.5026083520754258e-05 7.6354515638824005e-06 5.5559759794374553e-06 7.9414211147648284e-07 -6.1246727594287469e-06 1.7531735905626712e-05 -4.1871511682128545e-06 -2.0060894549382371e-05 -2.2246762068348926e-05 -1.0668118063307584e-05 -1.6146056930482725e-05 -1.1576904299025431e-05 -2.6328281963596998e-05 -1.5167060417384053e-05 -2.290263151304221e-05 -3.2983506006513836e-05 -3.3535189516795686e-05 -5.043409913284638e-05 -3.7729907591664709e-05 -5.3494147863683171e-05 -4.0135092040458433e-05 -2.9680924559996461e-05 -3.6735149925032899e-05 2.5425635709132797e-05 2.8772962735638784e-05 2.957955038232575e-05 2.8125520971967212e-05 2.5786249098568934e-05 2.1242065719342861e-05 1.859760567983855e-05 2.4258088490099814e-05 1.7104232217287714e-05 1.9700735616207767e-05 1.4440976133713492e-05 1.9533801941481534e-05 1.668195953445815e-05 2.0339781478807484e-05 2.1749723299101363e-05 1.9090300964713107e-05 1.7171696759766063e-05 1.3668022418285405e-05 2.0846524922480466e-05 1.9249127478721106e-05 2.3741265271540023e-05 1.3492526196504872e-05 1.7306127942685248e-05 2.2040387228779561e-05 2.7393679018312552e-05 3.4842357609012894e-05 2.6720623086051404e-05 2.9157669707997607e-05 2.9426669761293754e-05 3.6085760678082661e-05 4.1895453361307918e-05 5.2111421261770641e-05 5.7195341360579611e-05 5.1044586076775159e-05 4.4326480562588958e-05 4.8639488415908079e-05 5.9473164935946727e-05 5.7011774493477801e-05 0.00010223973884632727 0.00012855179287898282 0.00012166186163220734 8.0509304916761746e-05 4.1981165652618226e-05 5.7555907681241787e-05 7.3660674110955217e-05 3.991828338538652e-05 4.3983959901031798e-05 4.6237825822721673e-05 3.2249785900642953e-05 4.1456424259819222e-05 2.5983238427381769e-05 3.5002403288348498e-05 2.5695869354374808e-05 3.6658105464338042e-05 2.1215127220422215e-05 2.7443302263710116e-05 2.9106956425610689e-05 2.5129827784540362e-05 2.1386319128066927e-05 3.398658010595301e-05 2.2829987371236229e-05 1.8225670694138921e-05 2.504904396655979e-05 1.3613875418454923e-05 1.1582459749520787e-05 1.7163507442777361e-05 1.6688699819413221e-05 9.856049889640496e-06 1.4002127469413597e-05 8.4069357328807342e-06 1.4840955755132413e-05 2.9565859698799893e-05 2.7175554733194543e-05 2.3565501197536201e-05 2.8868947087792681e-05 4.0659206406264047e-05 4.4839627454269066e-05 5.3754850314404758e-05 0.0001367737348046849 1.4125228423771439e-05 4.9692557633972389e-05 0.00012781559744904681 7.7632140230910168e-05 0.0080353185975507637 0.00011209157294252495 5.3770996640255969e-05 0.019864753687917715 1.1837345497662166e-05 5.1462618505762113e-05 0.027940697596127263 1.5208092782852969e-05 3.3776360949315694e-05 9.2703240151901102e-06 1.9584829590161412e-05 1.546524200250567e-05 1.2013829083265103e-05 9.4415827068975789e-06 2.3819215499985651e-05 2.2739288038808652e-05 1.3089923720643469e-05 2.8436025979749341e-05 4.4774325046282887e-05 4.7889879931876131e-05 0.03485734778783578 4.4497376346973989e-05 4.1508430503287745e-05 3.6576245318447275e-05 4.5328784372843881e-05 3.2761588843773133e-05 0.041470441784232606 4.2051458181706098e-05 1.4983166969710724e-05 9.5373008716302362e-06 2.9869806214164596e-05 1.754408166844789e-05 1.9175487315746585e-05 7.7782616245158399e-06 7.7815975901031331e-06 9.7297808814928919e-06 7.1556967023051225e-06 5.4083879835862712e-06 3.4759950368924217e-06 8.3409529693061874e-06 7.6243216650923149e-06 7.5072076062071188e-06 8.41638044015412e-06 6.2194637453527092e-06 1.1775304941480055e-05 9.5310917200438091e-06 6.9314541102750776e-06 5.6580378932736213e-06 1.0134831590220481e-05 -2.6988132643357757e-05 -3.0526228837353864e-05 -1.8727821183935913e-05 -4.1854151499021738e-05 -4.3322438271682228e-05 -2.7840290605853622e-05 -2.7444459708031601e-05 -1.6225194130512638e-05 -7.5992256780480871e-06 1.8360048742195861e-06 -1.2014175674957082e-05 -5.8274839591252402e-06 -1.7971952267041677e-05 -7.7458451726026677e-06 1.4750561473592886e-05 3.2755287330043853e-06 2.9002395247723525e-05 6.5484361438213545e-06 -6.6858400471105214e-06 1.6320337973220976e-05 1.1598345320320007e-05 4.2948330570311748e-05 6.7596895142052449e-05 4.7899645148650035e-05 4.874771491593972e-05 2.2349813977007933e-05 2.941527474568424e-05 3.3804724653646459e-05 1.4761963783169012e-05 1.2991285735550846e-05 2.4541013727725439e-05 2.368699953679749e-05 2.4710671800655306e-05 1.9616991011516586e-05 1.2664640385129052e-05 1.2651139406333724e-05 3.4078244198837768e-06 3.9764102885268035e-06 5.0926749169241583e-06 -5.0349724143668086e-06 6.3667899146651989e-06 6.6266978485423267e-06 -1.7426977719923109e-06 -1.51435062702916e-06 -1.0705508419393351e-05 -9.7345364255509297e-06 -9.5993335226310633e-06 -1.145317851335495e-05 -2.6316162504134467e-06 -5.0656867726824853e-06 -5.9016629523778284e-06 -1.0223111057832161e-05 -1.174867424052063e-05 -1.597498352974569e-05 -8.2653351241226015e-06 -1.3154678789401345e-05 -2.409012433639572e-05 -2.0132979027874792e-05 -1.7960178106226623e-05 -1.3976534187445271e-06 -6.1801619738205849e-06 -2.0846650931130323e-06 -6.5027680976824896e-06 -6.459447278686528e-06 -1.1362740696673271e-05 -1.1759084802627669e-05 -8.1352299975698608e-06 -6.7071904741649799e-06 -3.3966407753424199e-06 -2.8962863971616903e-06 4.9989925698826036e-07 1.4252060396647073e-07 -4.1890578060214002e-06 -1.1826524504997857e-07 5.3871416063827962e-06 5.205536123986448e-06 1.0118756251658017e-05 -1.5202679362821825e-06 -2.845586784654304e-06 4.2022021287838962e-06 4.5235169026868697e-06 7.0203377293001981e-06 3.8164973282751521e-06 1.5083203521522055e-05 1.5743090839237745e-05 1.1976542748384778e-05 1.8339008838448015e-05 2.9554096481377787e-05 2.0225445353564808e-05 2.7530280179262172e-05 1.1242360442173557e-05 1.6493343580698688e-05 2.8718708125410365e-05 2.0406814450025807e-05 3.1022875424154515e-05 2.3479736427258445e-05 3.7798575715940544e-05 4.1190483939597844e-05 2.2752678866891536e-05 1.5207316312155876e-05 2.9173193459922087e-06 4.1008948553048104e-06 5.5917998161045084e-06 4.5032181252456158e-06 1.192104226356485e-05 6.3840336222177607e-06 1.2705843614275666e-05 2.5425576842888487e-07 -2.9677977102316247e-06 1.6309542097935059e-07 -3.4782720661173661e-07 -4.2594888577602089e-07 -1.7835877156812362e-06 -1.2768092879159032e-06 8.5748306294809035e-07 -6.0780432110767169e-07 -1.1262212105023379e-06 -1.9852608225423042e-08 -2.6742739686353573e-08 -3.8536733711763693e-07 4.556613739498637e-07 -9.9755803736499213e-07 -1.5160447713677286e-06 -4.2090402044047195e-06 5.7379847951314722e-06 1.5132871943548238e-05 1.4019660851501522e-05 1.0116291306978657e-05 4.2300845210976617e-06 1.3824518027878035e-06 2.5878957526995205e-06 5.8038274664112393e-06 3.2883029846668692e-06 4.109604806738929e-06 7.9687771946675254e-06 6.2977941474411645e-06 5.3807476734985454e-06 1.0944127319528817e-05 1.1626412504418197e-05 2.0127279486096747e-05 3.8117204541981254e-05 4.6198474289021909e-05 2.4747091113243617e-05 3.9178920354368736e-05 5.3550995735048967e-05 4.1782087811105664e-05 0.047908245572211558 2.9209524967337272e-05 5.1694305254991121e-05 4.6007011204470113e-05 0.054402933265310718 5.1920216947244136e-05 5.5966251808564843e-05 0.061056902804861105 4.5437936083466063e-05 2.5356295190387954e-05 5.1522663908489707e-05 2.3042727857032106e-05 3.1078682806247229e-05 3.5624480981714252e-05 2.5511797964476485e-05 6.1137700335336362e-05 6.2909405907592576e-05 4.1604056447355657e-05 6.4072457320732152e-05 0.067943354400901115 7.6689553830060518e-05 7.1004633055958051e-05 5.5163816723227243e-05 6.4109774711180534e-05 0.076172516526086462 8.6191347184115877e-05 6.9404670810620933e-05 2.3524067722487097e-05 6.7455698814391726e-05 8.2929576768515196e-05 6.0658114820426442e-05 3.0814257685495439e-05 -3.9387283605729064e-08 1.2545612983023643e-05 -4.2392531415362273e-06 1.3431944597809802e-05 1.9841058963143005e-06 3.8024804988825056e-06 8.8379733218531926e-06 1.4413326026875106e-05 -1.6998227078066368e-06 1.4945629504391304e-06 -3.0798223869668638e-06 1.1784543727559675e-06 -4.3289063404978274e-06 -8.7452448111477248e-06 -1.6385130096104787e-05 -1.0064855746572295e-05 -2.0671120509171807e-05 -9.8651629023648437e-06 -8.2169075320906188e-06 -1.0355964740427998e-05 1.0649706786520965e-06 -9.6307474960523563e-06 -6.5572033209762375e-06 9.412160727167941e-06 -1.1518883184762215e-06 3.212173469861328e-06 8.6425710335557302e-06 1.1051757247901035e-05 -2.4039507707447649e-06 4.1033737912903306e-07 -2.3580540410585138e-06 1.4199068909957117e-06 2.7558992067035193e-06 3.9549207567211083e-06 4.7842395849974849e-06 1.5152349189586365e-06 5.1711295260480853e-06 3.4408382302118659e-06 1.0152077935241438e-05 1.7010757890789218e-05 7.9878897588134918e-06 7.2060334018640097e-06 1.0506320807114567e-05 1.4837754275594153e-05 9.3921323133289072e-06 5.3218899679136262e-06 7.0441527333662585e-06 4.0429267748851873e-06 5.3466688242359474e-06 6.5906975011364075e-06 3.5708041318888162e-05 0.027831274140584162 3.8685013884397538e-05 3.2984840083285713e-05 2.7005594350522333e-05 1.5539119349842836e-05 1.868510549389048e-05 1.632399412820513e-05 3.4349986901914797e-05 2.5710408404187662e-05 2.7984137932701456e-05 2.0179403414210617e-05 4.3334678183674599e-05 5.1946671880630241e-05 3.5802289938845428e-05 3.3973134656481354e-05 0.04281233736133519 4.332061036695198e-05 4.2614292257679492e-05 0.034775406409684809 5.1880307946603138e-05 0.052078339638816022 6.6717256569718371e-05 5.8428506221256296e-05 4.3879193387413211e-05 2.251910500799101e-05 3.0128504350788977e-05 5.2729892099724228e-05 3.525486334373366e-05 1.5829475439778774e-05 5.7229781984403396e-05 7.584127671945217e-05 4.9174582438196225e-05 2.4347446614043737e-05 5.486412762156583e-05 0.063017118130490046 8.1022566746369058e-05 5.9569431212340125e-05 3.2247970638510327e-05 1.3731959861080058e-05 1.7918784782390562e-05 2.9127364971299054e-05 5.7990367379400724e-06 -2.3766396986914847e-06 1.275125203889808e-06 -5.9159800323035742e-07 8.6805881049893544e-06 2.6782310347231355e-06 2.1961224536226447e-06 8.1310586310509494e-06 2.1187384992147292e-05 2.6445783925221119e-05 1.2213373067256734e-05 4.581011168471559e-07 -8.7660881442326935e-07 -3.5875155941612452e-07 -4.6471517461672655e-07 -2.9262085847398586e-06 -2.5077008484232499e-06 7.0618007724440601e-08 -3.2182461600532061e-06 -6.0664341551834271e-06 -4.4176839242360331e-06 -3.1964400899639435e-06 -7.0038146608580063e-06 -1.8951893753387287e-06 -1.3642238299660728e-06 -3.7541927748118114e-06 -7.5783169663382786e-06 -2.0237976236785627e-06 -1.0706605088760539e-05 -3.2156614305973476e-06 -5.0533529608685207e-06 -1.0861083407370749e-05 -6.6543547575062837e-06 -1.0071595692095429e-06 -2.0806983859489054e-06 -1.601562361682558e-06 -6.7494916094164911e-06 -5.4668778781183488e-06 -3.5586402953125072e-07 -7.7947130261599119e-06 -1.0452376277801873e-05 -1.3144433010170398e-05 -1.1789820490924014e-05 -1.7658960485872355e-05 -1.1438070981055568e-05 1.5735200544062813e-05 1.0898319014456632e-05 2.2364268131479562e-05 1.3526082779982988e-05 2.7113997939326277e-06 2.0601385799844194e-06 8.3466525470862491e-06 7.3488624057102244e-06 3.1084715806173682e-06 1.0918780268903911e-06 2.8959849504807595e-06 1.4603331051046354e-05 1.0357163240433225e-05 2.4538196504237742e-05 1.9099222052938606e-05 2.2472923514783633e-05 1.5718669995889675e-05 1.7393115094649402e-05 2.0155590453893677e-05 9.7769468993447097e-06 1.157055911156469e-05 7.8358251035031898e-06 6.903314413886797e-07 -6.1670333874482529e-07 8.1648348269847614e-06 2.3863451474114656e-06 6.9127258635403666e-06 -8.7438740263475747e-07 1.7577305493184309e-06 1.6513863307875582e-05 1.955505684170212e-05 1.849433269747046e-05 8.1885706819736657e-06 1.5217030346091186e-05 -1.7050126919604283e-05 -2.0068871567458868e-05 -1.7846948150090062e-05 -2.158417097218048e-05 -1.4003809859887656e-05 -7.2444628394480832e-06 -1.1953135095791418e-05 -6.0575418700063981e-06 -5.6030530565886029e-06 -7.3093295479294664e-06 -5.2543932491901602e-06 -4.6371898109259183e-06 -9.2415487524247042e-06 -1.3179382620375965e-05 -1.3604355978700687e-05 -1.4201190054608371e-05 -1.9677728439816748e-05 -1.9803434233800813e-05 -2.5233267950922999e-05 -3.1945977999421621e-05 -2.7753034177188413e-05 -2.2507252658332549e-05 -1.8891610139555625e-05 -1.5342604380509997e-05 -6.7525084700341496e-06 -7.4117892791526968e-06 -4.0343751755916391e-06 -1.1439465529829919e-05 -1.0022023952289662e-05 -1.3772354176151436e-05 -1.5299357664449222e-05 -2.2370813451216939e-05 -2.0056296312259498e-05 -3.0252978862808404e-05 1.0578087441269763e-05 2.3330297445746184e-05 1.0262105005965434e-05 6.5402838245331866e-06 -1.1772331621170474e-06 1.7036798922577892e-06 8.5349550980034084e-06 3.1385638905000721e-06 -8.0467022128960638e-06 -3.4042343316802908e-06 1.8294955375258476e-06 1.2320419195961923e-05 1.3518968500376944e-05 2.4587351889282768e-05 4.0008491481775532e-05 5.4174624810804698e-07 5.2301591429995377e-05 0.0034317922614776611 2.4229331329612483e-05 2.424902672983043e-05 0.0087411397559149055 3.6526304267617716e-05 0.012671566505728893 2.8387417156315023e-05 2.3861946098983357e-05 7.5370441286456763e-06 9.1966621914254707e-06 1.0405300815664363e-05 1.0158985058351803e-06 1.2349777138372155e-05 4.1830171931674529e-06 1.9961876239600664e-05 1.1388777905531217e-05 8.5014632761160969e-06 1.5805224361850755e-05 1.3036018360262267e-05 1.52202441628245e-05 2.0149316167784912e-05 1.8635777762278667e-05 1.4624723675294461e-05 1.2394255878009689e-05 1.2619670901531577e-05 1.1457764515397341e-05 9.2464116096343965e-06 9.973714508489234e-06 9.9256888089588834e-06 1.0226710525939686e-05 9.3177747343852933e-06 8.5616047323862929e-06 1.0076787151305837e-05 1.1645458880181237e-05 9.7842223154363101e-06 1.0295376658210859e-05 1.0254441228753065e-05 9.3126485957581104e-06 8.6102062894356617e-06 3.6593865266250651e-06 6.6127379468536047e-06 8.9484854577121659e-06 1.2435504618884478e-05 1.0494438636663665e-05 9.2976016841232021e-06 8.5990239731207469e-06 1.2406114660310885e-05 1.3276662399379867e-05 1.8048713079546529e-05 1.6159587214976967e-05 1.4698793207140623e-05 2.2680054477492361e-05 3.4397274158015276e-05 0.021942543010120497 2.6539731979096894e-05 2.9820563606295161e-05 2.7826722318181017e-05 3.308423569289555e-05 1.8622173233944983e-05 0.016960034071046209 2.809252787141375e-05 2.1890956607223389e-05 3.2522790138019627e-05 1.2164926175050797e-05 1.1039062294210697e-05 1.1050907872452418e-05 1.6769254592360514e-05 
</DataArray>
</CellData>
</Piece>
</UnstructuredGrid>
</VTKFile>
