<?xml version="1.0"?>
<VTKFile type="UnstructuredGrid" version="0.1" byte_order="LittleEndian">
<UnstructuredGrid>
<Piece NumberOfPoints="3142" NumberOfCells="1054">
<Points>
<DataArray type="Float64" NumberOfComponents="3" format="ascii">
0.02576622439977887 0.024532886826226379 0 0 0 0 0.049999999999899652 0 0 0.02576622439977887 0.024532886826226379 0 0 0 0 0 0.050000000000207989 0 0.02576622439977887 0.024532886826226379 0 0.049999999999899652 0 0 0.053064897599215843 0.048131547304697528 0 0.02576622439977887 0.024532886826226379 0 0.053064897599215843 0.048131547304697528 0 0 0.050000000000207989 0 0 0.050000000000207989 0 0 0.10000000000041601 0 0.044310582753132287 0.101412518374475 0 0 0.10000000000041601 0 0.044310582753132287 0.101412518374475 0 0 0.15000000000062411 0 0.053064897599215843 0.048131547304697528 0 0.044310582753132287 0.101412518374475 0 0.083411279318303222 0.089699755330707398 0 0.053064897599215843 0.048131547304697528 0 0 0.050000000000207989 0 0.044310582753132287 0.101412518374475 0 0.044310582753132287 0.101412518374475 0 0.083411279318303222 0.089699755330707398 0 0.065374659239632718 0.1448908038746782 0 0.083411279318303222 0.089699755330707398 0 0.065374659239632718 0.1448908038746782 0 0.1053400320299198 0.12877248826361379 0 0.083411279318303222 0.089699755330707398 0 0.12372429750337779 0.095814237875728972 0 0.1053400320299198 0.12877248826361379 0 0.12372429750337779 0.095814237875728972 0 0.1053400320299198 0.12877248826361379 0 0.14332333627550789 0.14578431753966009 0 0.12372429750337779 0.095814237875728972 0 0.10266856499169109 0.044518360900210059 0 0.14618258501891079 0.062070108745602003 0 0.083411279318303222 0.089699755330707398 0 0.12372429750337779 0.095814237875728972 0 0.10266856499169109 0.044518360900210059 0 0.10266856499169109 0.044518360900210059 0 0.099999999999814668 0 0 0.14999999999970359 0 0 0.049999999999899652 0 0 0.053064897599215843 0.048131547304697528 0 0.099999999999814668 0 0 0.053064897599215843 0.048131547304697528 0 0.10266856499169109 0.044518360900210059 0 0.099999999999814668 0 0 0.053064897599215843 0.048131547304697528 0 0.083411279318303222 0.089699755330707398 0 0.10266856499169109 0.044518360900210059 0 0.044081577119474857 0.2271058242433576 0 0 0.20000000000083221 0 0 0.25000000000104028 0 0.044081577119474857 0.2271058242433576 0 0 0.20000000000083221 0 0.038512288486115001 0.1844147282893184 0 0.044081577119474857 0.2271058242433576 0 0.038512288486115001 0.1844147282893184 0 0.083105206071467416 0.20007701332709979 0 0.038512288486115001 0.1844147282893184 0 0 0.15000000000062411 0 0.065374659239632718 0.1448908038746782 0 0.044310582753132287 0.101412518374475 0 0 0.15000000000062411 0 0.065374659239632718 0.1448908038746782 0 0.038512288486115001 0.1844147282893184 0 0.065374659239632718 0.1448908038746782 0 0.083105206071467416 0.20007701332709979 0 0 0.20000000000083221 0 0.038512288486115001 0.1844147282893184 0 0 0.15000000000062411 0 0.065374659239632718 0.1448908038746782 0 0.1053400320299198 0.12877248826361379 0 0.106902708054812 0.16453234188234539 0 0.1053400320299198 0.12877248826361379 0 0.106902708054812 0.16453234188234539 0 0.14332333627550789 0.14578431753966009 0 0.065374659239632718 0.1448908038746782 0 0.106902708054812 0.16453234188234539 0 0.083105206071467416 0.20007701332709979 0 0.083105206071467416 0.20007701332709979 0 0.095326043202144745 0.24554465089224409 0 0.13737030665753211 0.20313708640667491 0 0.106902708054812 0.16453234188234539 0 0.083105206071467416 0.20007701332709979 0 0.13737030665753211 0.20313708640667491 0 0.044081577119474857 0.2271058242433576 0 0.083105206071467416 0.20007701332709979 0 0.095326043202144745 0.24554465089224409 0 0.044081577119474857 0.2271058242433576 0 0.095326043202144745 0.24554465089224409 0 0.049706944316556423 0.27522722923869108 0 0.095326043202144745 0.24554465089224409 0 0.14377654328998779 0.2442024734791064 0 0.13737030665753211 0.20313708640667491 0 0.17933913398461551 0.2350063570234002 0 0.14377654328998779 0.2442024734791064 0 0.13737030665753211 0.20313708640667491 0 0.17933913398461551 0.2350063570234002 0 0.13737030665753211 0.20313708640667491 0 0.18124454140915969 0.18790916706335251 0 0.18124454140915969 0.18790916706335251 0 0.14332333627550789 0.14578431753966009 0 0.18652628422869419 0.14162325200928061 0 0.106902708054812 0.16453234188234539 0 0.13737030665753211 0.20313708640667491 0 0.14332333627550789 0.14578431753966009 0 0.13737030665753211 0.20313708640667491 0 0.18124454140915969 0.18790916706335251 0 0.14332333627550789 0.14578431753966009 0 0.14332333627550789 0.14578431753966009 0 0.18652628422869419 0.14162325200928061 0 0.16141998738593399 0.10404039647458049 0 0.18652628422869419 0.14162325200928061 0 0.22985637510995899 0.1298347970200906 0 0.2185883431182947 0.18019736283949719 0 0.22985637510995899 0.1298347970200906 0 0.2185883431182947 0.18019736283949719 0 0.25557216766470708 0.15874861286892261 0 0.2185883431182947 0.18019736283949719 0 0.25557216766470708 0.15874861286892261 0 0.26429849586623999 0.19346700179430079 0 0.18124454140915969 0.18790916706335251 0 0.18652628422869419 0.14162325200928061 0 0.2185883431182947 0.18019736283949719 0 0.17933913398461551 0.2350063570234002 0 0.18124454140915969 0.18790916706335251 0 0.224700362040408 0.22206622194729711 0 0.18124454140915969 0.18790916706335251 0 0.2185883431182947 0.18019736283949719 0 0.224700362040408 0.22206622194729711 0 0.2185883431182947 0.18019736283949719 0 0.224700362040408 0.22206622194729711 0 0.26429849586623999 0.19346700179430079 0 0.224700362040408 0.22206622194729711 0 0.25195515620380449 0.25883339815888678 0 0.21049769590865089 0.26857363548218488 0 0.17933913398461551 0.2350063570234002 0 0.224700362040408 0.22206622194729711 0 0.21049769590865089 0.26857363548218488 0 0.184418230509967 0.038773194583122873 0 0.14999999999970359 0 0 0.14618258501891079 0.062070108745602003 0 0.184418230509967 0.038773194583122873 0 0.14618258501891079 0.062070108745602003 0 0.19922788606653311 0.085920220746880993 0 0.184418230509967 0.038773194583122873 0 0.14999999999970359 0 0 0.19999999999955789 0 0 0.10266856499169109 0.044518360900210059 0 0.14999999999970359 0 0 0.14618258501891079 0.062070108745602003 0 0.12372429750337779 0.095814237875728972 0 0.14618258501891079 0.062070108745602003 0 0.16141998738593399 0.10404039647458049 0 0.12372429750337779 0.095814237875728972 0 0.14332333627550789 0.14578431753966009 0 0.16141998738593399 0.10404039647458049 0 0.18652628422869419 0.14162325200928061 0 0.16141998738593399 0.10404039647458049 0 0.19922788606653311 0.085920220746880993 0 0.14618258501891079 0.062070108745602003 0 0.16141998738593399 0.10404039647458049 0 0.19922788606653311 0.085920220746880993 0 0.18652628422869419 0.14162325200928061 0 0.22985637510995899 0.1298347970200906 0 0.19922788606653311 0.085920220746880993 0 0.22985637510995899 0.1298347970200906 0 0.19922788606653311 0.085920220746880993 0 0.24218496799700481 0.089025544070598317 0 0.22985637510995899 0.1298347970200906 0 0.24218496799700481 0.089025544070598317 0 0.27474541102162192 0.11822029332053539 0 0.19922788606653311 0.085920220746880993 0 0.24218496799700481 0.089025544070598317 0 0.22668068146512929 0.045875643423131329 0 0.24218496799700481 0.089025544070598317 0 0.22668068146512929 0.045875643423131329 0 0.27499999999933927 0.060310814194988557 0 0.184418230509967 0.038773194583122873 0 0.19922788606653311 0.085920220746880993 0 0.22668068146512929 0.045875643423131329 0 0.184418230509967 0.038773194583122873 0 0.22668068146512929 0.045875643423131329 0 0.19999999999955789 0 0 0.22668068146512929 0.045875643423131329 0 0.19999999999955789 0 0 0.24999999999941211 0 0 0.24999999999941211 0 0 0.27499999999933927 0.060310814194988557 0 0.29999999999926641 0 0 0.22668068146512929 0.045875643423131329 0 0.24999999999941211 0 0 0.27499999999933927 0.060310814194988557 0 0.27499999999933927 0.060310814194988557 0 0.29999999999926641 0 0 0.32541448401678508 0.046215317981507749 0 0.29999999999926641 0 0 0.32541448401678508 0.046215317981507749 0 0.34999999999912063 0 0 0.32541448401678508 0.046215317981507749 0 0.3615861437013822 0.03582617922508851 0 0.35312867752657662 0.084946736076730367 0 0.3615861437013822 0.03582617922508851 0 0.35312867752657662 0.084946736076730367 0 0.39591832466117061 0.056982757562006353 0 0.32541448401678508 0.046215317981507749 0 0.3615861437013822 0.03582617922508851 0 0.34999999999912063 0 0 0.3615861437013822 0.03582617922508851 0 0.34999999999912063 0 0 0.3999999999989749 0 0 0.35312867752657662 0.084946736076730367 0 0.36246644853392812 0.1399454205365751 0 0.39823268594401579 0.1116623613130045 0 0.35312867752657662 0.084946736076730367 0 0.32215584939770009 0.1218492143506909 0 0.36246644853392812 0.1399454205365751 0 0.32541448401678508 0.046215317981507749 0 0.35312867752657662 0.084946736076730367 0 0.3096713403101819 0.085471541595262421 0 0.35312867752657662 0.084946736076730367 0 0.32215584939770009 0.1218492143506909 0 0.3096713403101819 0.085471541595262421 0 0.32215584939770009 0.1218492143506909 0 0.3096713403101819 0.085471541595262421 0 0.27474541102162192 0.11822029332053539 0 0.27499999999933927 0.060310814194988557 0 0.32541448401678508 0.046215317981507749 0 0.3096713403101819 0.085471541595262421 0 0.27499999999933927 0.060310814194988557 0 0.3096713403101819 0.085471541595262421 0 0.27474541102162192 0.11822029332053539 0 0.24218496799700481 0.089025544070598317 0 0.27499999999933927 0.060310814194988557 0 0.27474541102162192 0.11822029332053539 0 0.22985637510995899 0.1298347970200906 0 0.27474541102162192 0.11822029332053539 0 0.25557216766470708 0.15874861286892261 0 0.27474541102162192 0.11822029332053539 0 0.25557216766470708 0.15874861286892261 0 0.29336099386129338 0.15892013001050981 0 0.25557216766470708 0.15874861286892261 0 0.29336099386129338 0.15892013001050981 0 0.26429849586623999 0.19346700179430079 0 0.29336099386129338 0.15892013001050981 0 0.31255190597181792 0.19850845631528771 0 0.33084213324567391 0.16272720141332131 0 0.29336099386129338 0.15892013001050981 0 0.26429849586623999 0.19346700179430079 0 0.31255190597181792 0.19850845631528771 0 0.32215584939770009 0.1218492143506909 0 0.27474541102162192 0.11822029332053539 0 0.29336099386129338 0.15892013001050981 0 0.224700362040408 0.22206622194729711 0 0.28040350263641872 0.23054717217092141 0 0.25195515620380449 0.25883339815888678 0 0.224700362040408 0.22206622194729711 0 0.28040350263641872 0.23054717217092141 0 0.26429849586623999 0.19346700179430079 0 0.28040350263641872 0.23054717217092141 0 0.26429849586623999 0.19346700179430079 0 0.31255190597181792 0.19850845631528771 0 0.28040350263641872 0.23054717217092141 0 0.33758650185219202 0.23837101504325639 0 0.29132859388405002 0.27203693976649962 0 0.28040350263641872 0.23054717217092141 0 0.33758650185219202 0.23837101504325639 0 0.31255190597181792 0.19850845631528771 0 0.33758650185219202 0.23837101504325639 0 0.31255190597181792 0.19850845631528771 0 0.3572130504031617 0.1874703368446563 0 0.33758650185219202 0.23837101504325639 0 0.3572130504031617 0.1874703368446563 0 0.38831533174504851 0.2189834941785925 0 0.33758650185219202 0.23837101504325639 0 0.38831533174504851 0.2189834941785925 0 0.3786248352540974 0.27082301512024259 0 0.32215584939770009 0.1218492143506909 0 0.29336099386129338 0.15892013001050981 0 0.33084213324567391 0.16272720141332131 0 0.32215584939770009 0.1218492143506909 0 0.33084213324567391 0.16272720141332131 0 0.36246644853392812 0.1399454205365751 0 0.31255190597181792 0.19850845631528771 0 0.33084213324567391 0.16272720141332131 0 0.3572130504031617 0.1874703368446563 0 0.3572130504031617 0.1874703368446563 0 0.36246644853392812 0.1399454205365751 0 0.39801143831225599 0.16651381068160659 0 0.33084213324567391 0.16272720141332131 0 0.3572130504031617 0.1874703368446563 0 0.36246644853392812 0.1399454205365751 0 0.36246644853392812 0.1399454205365751 0 0.39801143831225599 0.16651381068160659 0 0.39823268594401579 0.1116623613130045 0 0.39801143831225599 0.16651381068160659 0 0.42905200079338551 0.19982395548231649 0 0.44288491854585582 0.14116182884956319 0 0.39801143831225599 0.16651381068160659 0 0.44288491854585582 0.14116182884956319 0 0.39823268594401579 0.1116623613130045 0 0.38831533174504851 0.2189834941785925 0 0.42377727103934271 0.25099357235810238 0 0.3786248352540974 0.27082301512024259 0 0.3572130504031617 0.1874703368446563 0 0.39801143831225599 0.16651381068160659 0 0.38831533174504851 0.2189834941785925 0 0.39801143831225599 0.16651381068160659 0 0.38831533174504851 0.2189834941785925 0 0.42905200079338551 0.19982395548231649 0 0.38831533174504851 0.2189834941785925 0 0.42905200079338551 0.19982395548231649 0 0.42377727103934271 0.25099357235810238 0 0.42905200079338551 0.19982395548231649 0 0.46429753744194407 0.22870891180733599 0 0.42377727103934271 0.25099357235810238 0 0.42905200079338551 0.19982395548231649 0 0.46429753744194407 0.22870891180733599 0 0.47357141910802508 0.1873585799078378 0 0.47357141910802508 0.1873585799078378 0 0.51729576145820033 0.1683240575987815 0 0.50760557329222289 0.20700468884612061 0 0.46429753744194407 0.22870891180733599 0 0.47357141910802508 0.1873585799078378 0 0.50760557329222289 0.20700468884612061 0 0.46429753744194407 0.22870891180733599 0 0.49695729691142171 0.25014895411178018 0 0.50760557329222289 0.20700468884612061 0 0.44288491854585582 0.14116182884956319 0 0.47357141910802508 0.1873585799078378 0 0.48466639505193998 0.1421439844745814 0 0.42905200079338551 0.19982395548231649 0 0.44288491854585582 0.14116182884956319 0 0.47357141910802508 0.1873585799078378 0 0.47357141910802508 0.1873585799078378 0 0.48466639505193998 0.1421439844745814 0 0.51729576145820033 0.1683240575987815 0 0.44288491854585582 0.14116182884956319 0 0.48466639505193998 0.1421439844745814 0 0.47881186583059909 0.093591717165689425 0 0.48466639505193998 0.1421439844745814 0 0.47881186583059909 0.093591717165689425 0 0.51076801031701946 0.1202837388510348 0 0.44288491854585582 0.14116182884956319 0 0.47881186583059909 0.093591717165689425 0 0.43698630808430822 0.080423614171545449 0 0.47881186583059909 0.093591717165689425 0 0.47040171442036788 0.044141676406503738 0 0.43698630808430822 0.080423614171545449 0 0.47881186583059909 0.093591717165689425 0 0.47040171442036788 0.044141676406503738 0 0.52375890611712683 0.059318771819432882 0 0.47040171442036788 0.044141676406503738 0 0.49999999999869432 0 0 0.52375890611712683 0.059318771819432882 0 0.47040171442036788 0.044141676406503738 0 0.49999999999869432 0 0 0.44999999999882923 0 0 0.47040171442036788 0.044141676406503738 0 0.44999999999882923 0 0 0.4320097814748517 0.037406712692169303 0 0.47040171442036788 0.044141676406503738 0 0.4320097814748517 0.037406712692169303 0 0.43698630808430822 0.080423614171545449 0 0.4320097814748517 0.037406712692169303 0 0.3999999999989749 0 0 0.39591832466117061 0.056982757562006353 0 0.4320097814748517 0.037406712692169303 0 0.39591832466117061 0.056982757562006353 0 0.43698630808430822 0.080423614171545449 0 0.44999999999882923 0 0 0.4320097814748517 0.037406712692169303 0 0.3999999999989749 0 0 0.3615861437013822 0.03582617922508851 0 0.3999999999989749 0 0 0.39591832466117061 0.056982757562006353 0 0.35312867752657662 0.084946736076730367 0 0.39591832466117061 0.056982757562006353 0 0.39823268594401579 0.1116623613130045 0 0.44288491854585582 0.14116182884956319 0 0.39823268594401579 0.1116623613130045 0 0.43698630808430822 0.080423614171545449 0 0.39591832466117061 0.056982757562006353 0 0.39823268594401579 0.1116623613130045 0 0.43698630808430822 0.080423614171545449 0 0.42161023666869668 0.39493916313643851 0 0.38707855792647411 0.42299362914874578 0 0.43249999999999988 0.43937499999999979 0 0.42161023666869668 0.39493916313643851 0 0.38083244760691543 0.38531983672244652 0 0.38707855792647411 0.42299362914874578 0 0.42161023666869668 0.39493916313643851 0 0.38083244760691543 0.38531983672244652 0 0.40076539126862748 0.34589349467022118 0 0.38707855792647411 0.42299362914874578 0 0.3908716102680424 0.47010282357248828 0 0.43249999999999988 0.43937499999999979 0 0.3908716102680424 0.47010282357248828 0 0.43507373378304309 0.49699695397193322 0 0.38244435121258652 0.51653317813019495 0 0.3908716102680424 0.47010282357248828 0 0.43507373378304309 0.49699695397193322 0 0.43249999999999988 0.43937499999999979 0 0.43507373378304309 0.49699695397193322 0 0.43249999999999988 0.43937499999999979 0 0.46111841286828259 0.46690301029591341 0 0.43249999999999988 0.43937499999999979 0 0.46111841286828259 0.46690301029591341 0 0.48858720058566618 0.43964267759203868 0 0.43507373378304309 0.49699695397193322 0 0.46111841286828259 0.46690301029591341 0 0.49102375406324739 0.49123754822244059 0 0.46111841286828259 0.46690301029591341 0 0.49102375406324739 0.49123754822244059 0 0.48858720058566618 0.43964267759203868 0 0.48858720058566618 0.43964267759203868 0 0.46655310992796922 0.39650496622958609 0 0.52289427570932567 0.3932284363388488 0 0.43249999999999988 0.43937499999999979 0 0.48858720058566618 0.43964267759203868 0 0.46655310992796922 0.39650496622958609 0 0.42161023666869668 0.39493916313643851 0 0.43249999999999988 0.43937499999999979 0 0.46655310992796922 0.39650496622958609 0 0.42161023666869668 0.39493916313643851 0 0.46655310992796922 0.39650496622958609 0 0.4409427642593301 0.35743108089689513 0 0.46655310992796922 0.39650496622958609 0 0.49077833859261139 0.35229981449445641 0 0.52289427570932567 0.3932284363388488 0 0.49077833859261139 0.35229981449445641 0 0.46226845272279993 0.31901800744800313 0 0.5 0.29999999999999999 0 0.49077833859261139 0.35229981449445641 0 0.46226845272279993 0.31901800744800313 0 0.4409427642593301 0.35743108089689513 0 0.46226845272279993 0.31901800744800313 0 0.4409427642593301 0.35743108089689513 0 0.41914690343363781 0.30688979866601612 0 0.46655310992796922 0.39650496622958609 0 0.49077833859261139 0.35229981449445641 0 0.4409427642593301 0.35743108089689513 0 0.49695729691142171 0.25014895411178018 0 0.4604742573284204 0.27846934318264788 0 0.5 0.29999999999999999 0 0.46429753744194407 0.22870891180733599 0 0.49695729691142171 0.25014895411178018 0 0.4604742573284204 0.27846934318264788 0 0.46226845272279993 0.31901800744800313 0 0.4604742573284204 0.27846934318264788 0 0.5 0.29999999999999999 0 0.46226845272279993 0.31901800744800313 0 0.4604742573284204 0.27846934318264788 0 0.41914690343363781 0.30688979866601612 0 0.46429753744194407 0.22870891180733599 0 0.4604742573284204 0.27846934318264788 0 0.42377727103934271 0.25099357235810238 0 0.4604742573284204 0.27846934318264788 0 0.42377727103934271 0.25099357235810238 0 0.41914690343363781 0.30688979866601612 0 0.42377727103934271 0.25099357235810238 0 0.41914690343363781 0.30688979866601612 0 0.3786248352540974 0.27082301512024259 0 0.41914690343363781 0.30688979866601612 0 0.3786248352540974 0.27082301512024259 0 0.36575549820117997 0.31677992835137742 0 0.42161023666869668 0.39493916313643851 0 0.4409427642593301 0.35743108089689513 0 0.40076539126862748 0.34589349467022118 0 0.4409427642593301 0.35743108089689513 0 0.41914690343363781 0.30688979866601612 0 0.40076539126862748 0.34589349467022118 0 0.41914690343363781 0.30688979866601612 0 0.40076539126862748 0.34589349467022118 0 0.36575549820117997 0.31677992835137742 0 0.40076539126862748 0.34589349467022118 0 0.36575549820117997 0.31677992835137742 0 0.33277555741076909 0.36432196682010132 0 0.38083244760691543 0.38531983672244652 0 0.40076539126862748 0.34589349467022118 0 0.33277555741076909 0.36432196682010132 0 0.36575549820117997 0.31677992835137742 0 0.32752639306529541 0.32610012995269699 0 0.33277555741076909 0.36432196682010132 0 0.32752639306529541 0.32610012995269699 0 0.33277555741076909 0.36432196682010132 0 0.29644548887253103 0.34914008784168082 0 0.33758650185219202 0.23837101504325639 0 0.3786248352540974 0.27082301512024259 0 0.33402499257867951 0.28911035184473982 0 0.3786248352540974 0.27082301512024259 0 0.36575549820117997 0.31677992835137742 0 0.33402499257867951 0.28911035184473982 0 0.36575549820117997 0.31677992835137742 0 0.32752639306529541 0.32610012995269699 0 0.33402499257867951 0.28911035184473982 0 0.32752639306529541 0.32610012995269699 0 0.33402499257867951 0.28911035184473982 0 0.29348325746214782 0.31350119524708198 0 0.33758650185219202 0.23837101504325639 0 0.33402499257867951 0.28911035184473982 0 0.29132859388405002 0.27203693976649962 0 0.33402499257867951 0.28911035184473982 0 0.29132859388405002 0.27203693976649962 0 0.29348325746214782 0.31350119524708198 0 0.29132859388405002 0.27203693976649962 0 0.29348325746214782 0.31350119524708198 0 0.24432083401701241 0.3006253385567515 0 0.29132859388405002 0.27203693976649962 0 0.25195515620380449 0.25883339815888678 0 0.24432083401701241 0.3006253385567515 0 0.28040350263641872 0.23054717217092141 0 0.29132859388405002 0.27203693976649962 0 0.25195515620380449 0.25883339815888678 0 0.33277555741076909 0.36432196682010132 0 0.29644548887253103 0.34914008784168082 0 0.27866744612395528 0.38416094670951489 0 0.32752639306529541 0.32610012995269699 0 0.29644548887253103 0.34914008784168082 0 0.29348325746214782 0.31350119524708198 0 0.29644548887253103 0.34914008784168082 0 0.29348325746214782 0.31350119524708198 0 0.25966125648670141 0.34351016742083729 0 0.29348325746214782 0.31350119524708198 0 0.25966125648670141 0.34351016742083729 0 0.24432083401701241 0.3006253385567515 0 0.29644548887253103 0.34914008784168082 0 0.25966125648670141 0.34351016742083729 0 0.27866744612395528 0.38416094670951489 0 0.25966125648670141 0.34351016742083729 0 0.27866744612395528 0.38416094670951489 0 0.22033343844674469 0.36963382230740238 0 0.27866744612395528 0.38416094670951489 0 0.29124338931648802 0.43334555462578611 0 0.24049127783545701 0.41270748208749802 0 0.29124338931648802 0.43334555462578611 0 0.25982634974572738 0.46097799597715272 0 0.24049127783545701 0.41270748208749802 0 0.27866744612395528 0.38416094670951489 0 0.29124338931648802 0.43334555462578611 0 0.31778888742534622 0.40581751814196781 0 0.33277555741076909 0.36432196682010132 0 0.27866744612395528 0.38416094670951489 0 0.31778888742534622 0.40581751814196781 0 0.33277555741076909 0.36432196682010132 0 0.31778888742534622 0.40581751814196781 0 0.35221190152536241 0.40457127605439203 0 0.31778888742534622 0.40581751814196781 0 0.35221190152536241 0.40457127605439203 0 0.34258405725730701 0.4444034294386992 0 0.29124338931648802 0.43334555462578611 0 0.31778888742534622 0.40581751814196781 0 0.34258405725730701 0.4444034294386992 0 0.38707855792647411 0.42299362914874578 0 0.35221190152536241 0.40457127605439203 0 0.34258405725730701 0.4444034294386992 0 0.38083244760691543 0.38531983672244652 0 0.38707855792647411 0.42299362914874578 0 0.35221190152536241 0.40457127605439203 0 0.38083244760691543 0.38531983672244652 0 0.33277555741076909 0.36432196682010132 0 0.35221190152536241 0.40457127605439203 0 0.3908716102680424 0.47010282357248828 0 0.35024835142131061 0.48654922671676981 0 0.38244435121258652 0.51653317813019495 0 0.3908716102680424 0.47010282357248828 0 0.35024835142131061 0.48654922671676981 0 0.34258405725730701 0.4444034294386992 0 0.38707855792647411 0.42299362914874578 0 0.3908716102680424 0.47010282357248828 0 0.34258405725730701 0.4444034294386992 0 0.29124338931648802 0.43334555462578611 0 0.34258405725730701 0.4444034294386992 0 0.31068898841644388 0.47541502461811092 0 0.35024835142131061 0.48654922671676981 0 0.31068898841644388 0.47541502461811092 0 0.33190227185843768 0.52715113583864037 0 0.35024835142131061 0.48654922671676981 0 0.34258405725730701 0.4444034294386992 0 0.31068898841644388 0.47541502461811092 0 0.31068898841644388 0.47541502461811092 0 0.25982634974572738 0.46097799597715272 0 0.28307294598219601 0.50789252727458634 0 0.29124338931648802 0.43334555462578611 0 0.31068898841644388 0.47541502461811092 0 0.25982634974572738 0.46097799597715272 0 0.25982634974572738 0.46097799597715272 0 0.23975172658309729 0.49475499200540818 0 0.28307294598219601 0.50789252727458634 0 0.23975172658309729 0.49475499200540818 0 0.19604738184454831 0.47787523520405789 0 0.22278230690790279 0.44824268025881547 0 0.19604738184454831 0.47787523520405789 0 0.22278230690790279 0.44824268025881547 0 0.191953871957803 0.42546416763755879 0 0.25982634974572738 0.46097799597715272 0 0.22278230690790279 0.44824268025881547 0 0.24049127783545701 0.41270748208749802 0 0.25982634974572738 0.46097799597715272 0 0.23975172658309729 0.49475499200540818 0 0.22278230690790279 0.44824268025881547 0 0.27866744612395528 0.38416094670951489 0 0.24049127783545701 0.41270748208749802 0 0.22033343844674469 0.36963382230740238 0 0.191953871957803 0.42546416763755879 0 0.1650278706801647 0.38791388161335733 0 0.22033343844674469 0.36963382230740238 0 0.24049127783545701 0.41270748208749802 0 0.191953871957803 0.42546416763755879 0 0.22033343844674469 0.36963382230740238 0 0.22278230690790279 0.44824268025881547 0 0.24049127783545701 0.41270748208749802 0 0.191953871957803 0.42546416763755879 0 0.191953871957803 0.42546416763755879 0 0.13773355295499351 0.42497777642586831 0 0.15801167086041079 0.46008690540259539 0 0.191953871957803 0.42546416763755879 0 0.1650278706801647 0.38791388161335733 0 0.13773355295499351 0.42497777642586831 0 0.1650278706801647 0.38791388161335733 0 0.13773355295499351 0.42497777642586831 0 0.1117088112799664 0.38831403004970022 0 0.13773355295499351 0.42497777642586831 0 0.15801167086041079 0.46008690540259539 0 0.113541300460994 0.46208784312094731 0 0.15801167086041079 0.46008690540259539 0 0.113541300460994 0.46208784312094731 0 0.1216098864341134 0.50637075089503902 0 0.15801167086041079 0.46008690540259539 0 0.1216098864341134 0.50637075089503902 0 0.16618607197337229 0.50652878253548905 0 0.19604738184454831 0.47787523520405789 0 0.15801167086041079 0.46008690540259539 0 0.16618607197337229 0.50652878253548905 0 0.19604738184454831 0.47787523520405789 0 0.191953871957803 0.42546416763755879 0 0.15801167086041079 0.46008690540259539 0 0.25195515620380449 0.25883339815888678 0 0.21049769590865089 0.26857363548218488 0 0.24432083401701241 0.3006253385567515 0 0.21049769590865089 0.26857363548218488 0 0.24432083401701241 0.3006253385567515 0 0.19670163708476801 0.31472518408333222 0 0.21049769590865089 0.26857363548218488 0 0.19670163708476801 0.31472518408333222 0 0.168349569971391 0.28054490850913671 0 0.19670163708476801 0.31472518408333222 0 0.22615676742807109 0.33458786033114157 0 0.18434624290945251 0.35208838264196463 0 0.24432083401701241 0.3006253385567515 0 0.19670163708476801 0.31472518408333222 0 0.22615676742807109 0.33458786033114157 0 0.25966125648670141 0.34351016742083729 0 0.24432083401701241 0.3006253385567515 0 0.22615676742807109 0.33458786033114157 0 0.25966125648670141 0.34351016742083729 0 0.22615676742807109 0.33458786033114157 0 0.22033343844674469 0.36963382230740238 0 0.22615676742807109 0.33458786033114157 0 0.22033343844674469 0.36963382230740238 0 0.18434624290945251 0.35208838264196463 0 0.1650278706801647 0.38791388161335733 0 0.22033343844674469 0.36963382230740238 0 0.18434624290945251 0.35208838264196463 0 0.1650278706801647 0.38791388161335733 0 0.18434624290945251 0.35208838264196463 0 0.14223753364722069 0.3341983344262433 0 0.1650278706801647 0.38791388161335733 0 0.14223753364722069 0.3341983344262433 0 0.1117088112799664 0.38831403004970022 0 0.19670163708476801 0.31472518408333222 0 0.18434624290945251 0.35208838264196463 0 0.14223753364722069 0.3341983344262433 0 0.19670163708476801 0.31472518408333222 0 0.14223753364722069 0.3341983344262433 0 0.168349569971391 0.28054490850913671 0 0.14223753364722069 0.3341983344262433 0 0.168349569971391 0.28054490850913671 0 0.1247745017231483 0.27198077544791172 0 0.14377654328998779 0.2442024734791064 0 0.168349569971391 0.28054490850913671 0 0.1247745017231483 0.27198077544791172 0 0.17933913398461551 0.2350063570234002 0 0.21049769590865089 0.26857363548218488 0 0.168349569971391 0.28054490850913671 0 0.17933913398461551 0.2350063570234002 0 0.14377654328998779 0.2442024734791064 0 0.168349569971391 0.28054490850913671 0 0.095326043202144745 0.24554465089224409 0 0.093851963071650835 0.30582068233324772 0 0.049706944316556423 0.27522722923869108 0 0.095326043202144745 0.24554465089224409 0 0.14377654328998779 0.2442024734791064 0 0.1247745017231483 0.27198077544791172 0 0.095326043202144745 0.24554465089224409 0 0.1247745017231483 0.27198077544791172 0 0.093851963071650835 0.30582068233324772 0 0.14223753364722069 0.3341983344262433 0 0.1247745017231483 0.27198077544791172 0 0.093851963071650835 0.30582068233324772 0 0.093851963071650835 0.30582068233324772 0 0.046389130980076937 0.32668781832131749 0 0.049706944316556423 0.27522722923869108 0 0.093851963071650835 0.30582068233324772 0 0.087545339447545459 0.35122518864182262 0 0.046389130980076937 0.32668781832131749 0 0.14223753364722069 0.3341983344262433 0 0.093851963071650835 0.30582068233324772 0 0.087545339447545459 0.35122518864182262 0 0.14223753364722069 0.3341983344262433 0 0.087545339447545459 0.35122518864182262 0 0.1117088112799664 0.38831403004970022 0 0.087545339447545459 0.35122518864182262 0 0.1117088112799664 0.38831403004970022 0 0.050583896093752537 0.38543522283434112 0 0.087545339447545459 0.35122518864182262 0 0.046389130980076937 0.32668781832131749 0 0.050583896093752537 0.38543522283434112 0 0 0.35000000000145642 0 0.046389130980076937 0.32668781832131749 0 0.050583896093752537 0.38543522283434112 0 0 0.35000000000145642 0 0.046389130980076937 0.32668781832131749 0 0 0.30000000000124832 0 0.046389130980076937 0.32668781832131749 0 0 0.30000000000124832 0 0.049706944316556423 0.27522722923869108 0 0 0.30000000000124832 0 0 0.25000000000104028 0 0.049706944316556423 0.27522722923869108 0 0.044081577119474857 0.2271058242433576 0 0 0.25000000000104028 0 0.049706944316556423 0.27522722923869108 0 0.068743045408989428 0.48853989837882689 0 0.113541300460994 0.46208784312094731 0 0.078358742472063481 0.43365249433908948 0 0.068743045408989428 0.48853989837882689 0 0.113541300460994 0.46208784312094731 0 0.1216098864341134 0.50637075089503902 0 0.13773355295499351 0.42497777642586831 0 0.113541300460994 0.46208784312094731 0 0.078358742472063481 0.43365249433908948 0 0.13773355295499351 0.42497777642586831 0 0.1117088112799664 0.38831403004970022 0 0.078358742472063481 0.43365249433908948 0 0.1117088112799664 0.38831403004970022 0 0.078358742472063481 0.43365249433908948 0 0.050583896093752537 0.38543522283434112 0 0.078358742472063481 0.43365249433908948 0 0.035463093262830522 0.42673416072819947 0 0.050583896093752537 0.38543522283434112 0 0 0.35000000000145642 0 0.050583896093752537 0.38543522283434112 0 0 0.40000000000166441 0 0.035463093262830522 0.42673416072819947 0 0.050583896093752537 0.38543522283434112 0 0 0.40000000000166441 0 0.035463093262830522 0.42673416072819947 0 0 0.40000000000166441 0 0 0.45000000000187229 0 0.035463093262830522 0.42673416072819947 0 0 0.45000000000187229 0 0.033550201249889847 0.46247875832467239 0 0.068743045408989428 0.48853989837882689 0 0.033550201249889847 0.46247875832467239 0 0 0.50000000000205869 0 0.068743045408989428 0.48853989837882689 0 0.078358742472063481 0.43365249433908948 0 0.033550201249889847 0.46247875832467239 0 0.078358742472063481 0.43365249433908948 0 0.035463093262830522 0.42673416072819947 0 0.033550201249889847 0.46247875832467239 0 0 0.45000000000187229 0 0.033550201249889847 0.46247875832467239 0 0 0.50000000000205869 0 0.068743045408989428 0.48853989837882689 0 0 0.50000000000205869 0 0.044576108720083309 0.53509043209532614 0 0 0.50000000000205869 0 0 0.55000000000173355 0 0.044576108720083309 0.53509043209532614 0 0 0.55000000000173355 0 0.044576108720083309 0.53509043209532614 0 0.034381862692950467 0.57372682250960894 0 0.044576108720083309 0.53509043209532614 0 0.077693244765132896 0.56932317963405099 0 0.034381862692950467 0.57372682250960894 0 0.068743045408989428 0.48853989837882689 0 0.044576108720083309 0.53509043209532614 0 0.085622222639554768 0.53333248912060549 0 0.068743045408989428 0.48853989837882689 0 0.085622222639554768 0.53333248912060549 0 0.1216098864341134 0.50637075089503902 0 0.044576108720083309 0.53509043209532614 0 0.085622222639554768 0.53333248912060549 0 0.077693244765132896 0.56932317963405099 0 0.085622222639554768 0.53333248912060549 0 0.1154888278694548 0.56733818459978413 0 0.077693244765132896 0.56932317963405099 0 0.085622222639554768 0.53333248912060549 0 0.1216098864341134 0.50637075089503902 0 0.1154888278694548 0.56733818459978413 0 0.1024350934457823 0.60772393977513839 0 0.1154888278694548 0.56733818459978413 0 0.077693244765132896 0.56932317963405099 0 0.1024350934457823 0.60772393977513839 0 0.050069554451969707 0.61308520079857043 0 0.086179601630648681 0.64647209519980475 0 0.1024350934457823 0.60772393977513839 0 0.077693244765132896 0.56932317963405099 0 0.050069554451969707 0.61308520079857043 0 0.077693244765132896 0.56932317963405099 0 0.050069554451969707 0.61308520079857043 0 0.034381862692950467 0.57372682250960894 0 0 0.55000000000173355 0 0.034381862692950467 0.57372682250960894 0 0 0.60000000000138687 0 0.050069554451969707 0.61308520079857043 0 0 0.60000000000138687 0 0 0.65000000000104008 0 0.050069554451969707 0.61308520079857043 0 0.034381862692950467 0.57372682250960894 0 0 0.60000000000138687 0 0 0.65000000000104008 0 0.046634677244967337 0.671418230738282 0 0 0.7000000000006934 0 0.050069554451969707 0.61308520079857043 0 0.046634677244967337 0.671418230738282 0 0.086179601630648681 0.64647209519980475 0 0.050069554451969707 0.61308520079857043 0 0 0.65000000000104008 0 0.046634677244967337 0.671418230738282 0 0 0.7000000000006934 0 0.049706944316475897 0.72477277076253799 0 0 0.75000000000034661 0 0.046634677244967337 0.671418230738282 0 0 0.7000000000006934 0 0.049706944316475897 0.72477277076253799 0 0.049706944316475897 0.72477277076253799 0 0 0.75000000000034661 0 0.04408157711937423 0.7728941757575627 0 0.049706944316475897 0.72477277076253799 0 0.1020579365089687 0.69352219419301997 0 0.090953281884486245 0.7564451946902494 0 0.1020579365089687 0.69352219419301997 0 0.1215415378367805 0.72939333680004137 0 0.090953281884486245 0.7564451946902494 0 0.046634677244967337 0.671418230738282 0 0.049706944316475897 0.72477277076253799 0 0.1020579365089687 0.69352219419301997 0 0.1215415378367805 0.72939333680004137 0 0.090953281884486245 0.7564451946902494 0 0.14335651144331049 0.75565258250209677 0 0.046634677244967337 0.671418230738282 0 0.1020579365089687 0.69352219419301997 0 0.086179601630648681 0.64647209519980475 0 0.1020579365089687 0.69352219419301997 0 0.086179601630648681 0.64647209519980475 0 0.1241190223511371 0.64391885572885044 0 0.1024350934457823 0.60772393977513839 0 0.086179601630648681 0.64647209519980475 0 0.1241190223511371 0.64391885572885044 0 0.1020579365089687 0.69352219419301997 0 0.1241190223511371 0.64391885572885044 0 0.16500388252850301 0.66612077714085194 0 0.1241190223511371 0.64391885572885044 0 0.16500388252850301 0.66612077714085194 0 0.15720202157091859 0.60665697304410315 0 0.16500388252850301 0.66612077714085194 0 0.19914261668318661 0.62286739485272158 0 0.15720202157091859 0.60665697304410315 0 0.1020579365089687 0.69352219419301997 0 0.16500388252850301 0.66612077714085194 0 0.15332765547575641 0.71200081858233666 0 0.1215415378367805 0.72939333680004137 0 0.15332765547575641 0.71200081858233666 0 0.14335651144331049 0.75565258250209677 0 0.1020579365089687 0.69352219419301997 0 0.1215415378367805 0.72939333680004137 0 0.15332765547575641 0.71200081858233666 0 0.16500388252850301 0.66612077714085194 0 0.15332765547575641 0.71200081858233666 0 0.19068556247388771 0.71028988922845504 0 0.15332765547575641 0.71200081858233666 0 0.14335651144331049 0.75565258250209677 0 0.18269480424590959 0.75905448272264375 0 0.15332765547575641 0.71200081858233666 0 0.19068556247388771 0.71028988922845504 0 0.18269480424590959 0.75905448272264375 0 0.19068556247388771 0.71028988922845504 0 0.2248999640082178 0.72584299459689172 0 0.18269480424590959 0.75905448272264375 0 0.19068556247388771 0.71028988922845504 0 0.2248999640082178 0.72584299459689172 0 0.2236846579037573 0.67380363126050236 0 0.2248999640082178 0.72584299459689172 0 0.2236846579037573 0.67380363126050236 0 0.26439878998046262 0.7048065392091396 0 0.2248999640082178 0.72584299459689172 0 0.22556077506376701 0.77837424984191617 0 0.25676291524611189 0.7436741304886243 0 0.2248999640082178 0.72584299459689172 0 0.25676291524611189 0.7436741304886243 0 0.26439878998046262 0.7048065392091396 0 0.16500388252850301 0.66612077714085194 0 0.2236846579037573 0.67380363126050236 0 0.19914261668318661 0.62286739485272158 0 0.16500388252850301 0.66612077714085194 0 0.19068556247388771 0.71028988922845504 0 0.2236846579037573 0.67380363126050236 0 0.2236846579037573 0.67380363126050236 0 0.2459498854893499 0.63248470766216769 0 0.19914261668318661 0.62286739485272158 0 0.2236846579037573 0.67380363126050236 0 0.2459498854893499 0.63248470766216769 0 0.27820712747429932 0.65530134213254643 0 0.2459498854893499 0.63248470766216769 0 0.19914261668318661 0.62286739485272158 0 0.22549374774072969 0.58452645269293457 0 0.2459498854893499 0.63248470766216769 0 0.22549374774072969 0.58452645269293457 0 0.26573297623774761 0.59828298563722948 0 0.19914261668318661 0.62286739485272158 0 0.22549374774072969 0.58452645269293457 0 0.18381867841758909 0.57774125163628387 0 0.22549374774072969 0.58452645269293457 0 0.20050006573841939 0.53248514016039872 0 0.18381867841758909 0.57774125163628387 0 0.22549374774072969 0.58452645269293457 0 0.25115337790845271 0.54719303014923271 0 0.26573297623774761 0.59828298563722948 0 0.22549374774072969 0.58452645269293457 0 0.20050006573841939 0.53248514016039872 0 0.25115337790845271 0.54719303014923271 0 0.23975172658309729 0.49475499200540818 0 0.20050006573841939 0.53248514016039872 0 0.25115337790845271 0.54719303014923271 0 0.19604738184454831 0.47787523520405789 0 0.20050006573841939 0.53248514016039872 0 0.16618607197337229 0.50652878253548905 0 0.23975172658309729 0.49475499200540818 0 0.19604738184454831 0.47787523520405789 0 0.20050006573841939 0.53248514016039872 0 0.20050006573841939 0.53248514016039872 0 0.14934928745814749 0.55042914607228977 0 0.18381867841758909 0.57774125163628387 0 0.20050006573841939 0.53248514016039872 0 0.16618607197337229 0.50652878253548905 0 0.14934928745814749 0.55042914607228977 0 0.1216098864341134 0.50637075089503902 0 0.16618607197337229 0.50652878253548905 0 0.14934928745814749 0.55042914607228977 0 0.1216098864341134 0.50637075089503902 0 0.1154888278694548 0.56733818459978413 0 0.14934928745814749 0.55042914607228977 0 0.1154888278694548 0.56733818459978413 0 0.14934928745814749 0.55042914607228977 0 0.15720202157091859 0.60665697304410315 0 0.1024350934457823 0.60772393977513839 0 0.1154888278694548 0.56733818459978413 0 0.15720202157091859 0.60665697304410315 0 0.1024350934457823 0.60772393977513839 0 0.1241190223511371 0.64391885572885044 0 0.15720202157091859 0.60665697304410315 0 0.19914261668318661 0.62286739485272158 0 0.15720202157091859 0.60665697304410315 0 0.18381867841758909 0.57774125163628387 0 0.14934928745814749 0.55042914607228977 0 0.15720202157091859 0.60665697304410315 0 0.18381867841758909 0.57774125163628387 0 0.10000000000041601 1 0 0.10266856499240549 0.95548163909968886 0 0.15000000000062411 1 0 0.10266856499240549 0.95548163909968886 0 0.053064897599294662 0.95186845269532028 0 0.083411279318375747 0.91030024466934134 0 0.10000000000041601 1 0 0.050000000000207989 1 0 0.053064897599294662 0.95186845269532028 0 0.10000000000041601 1 0 0.10266856499240549 0.95548163909968886 0 0.053064897599294662 0.95186845269532028 0 0.050000000000207989 1 0 0.025766224399875661 0.97546711317377799 0 0.053064897599294662 0.95186845269532028 0 0.050000000000207989 1 0 0 1 0 0.025766224399875661 0.97546711317377799 0 0 1 0 0.025766224399875661 0.97546711317377799 0 0 0.94999999999979179 0 0.025766224399875661 0.97546711317377799 0 0 0.94999999999979179 0 0.053064897599294662 0.95186845269532028 0 0 0.94999999999979179 0 0.053064897599294662 0.95186845269532028 0 0.0443105827531413 0.89858748162559932 0 0.053064897599294662 0.95186845269532028 0 0.0443105827531413 0.89858748162559932 0 0.083411279318375747 0.91030024466934134 0 0 0.94999999999979179 0 0 0.89999999999958358 0 0.0443105827531413 0.89858748162559932 0 0 0.89999999999958358 0 0.0443105827531413 0.89858748162559932 0 0 0.84999999999965292 0 0.0443105827531413 0.89858748162559932 0 0.083411279318375747 0.91030024466934134 0 0.065374659239661639 0.8551091961254178 0 0.083411279318375747 0.91030024466934134 0 0.10562472963403439 0.87143394428979881 0 0.065374659239661639 0.8551091961254178 0 0.10266856499240549 0.95548163909968886 0 0.083411279318375747 0.91030024466934134 0 0.1241151115713819 0.9045666525468371 0 0.10266856499240549 0.95548163909968886 0 0.1241151115713819 0.9045666525468371 0 0.14617343800780541 0.93808063414349496 0 0.1241151115713819 0.9045666525468371 0 0.10562472963403439 0.87143394428979881 0 0.14474682429600511 0.85524784522713515 0 0.083411279318375747 0.91030024466934134 0 0.1241151115713819 0.9045666525468371 0 0.10562472963403439 0.87143394428979881 0 0.10562472963403439 0.87143394428979881 0 0.1074251789111534 0.83564394292147814 0 0.14474682429600511 0.85524784522713515 0 0.1074251789111534 0.83564394292147814 0 0.065374659239661639 0.8551091961254178 0 0.083105206071452636 0.79992298667296435 0 0.10562472963403439 0.87143394428979881 0 0.1074251789111534 0.83564394292147814 0 0.065374659239661639 0.8551091961254178 0 0.065374659239661639 0.8551091961254178 0 0 0.84999999999965292 0 0.038512288486097702 0.8155852717111195 0 0.0443105827531413 0.89858748162559932 0 0.065374659239661639 0.8551091961254178 0 0 0.84999999999965292 0 0 0.84999999999965292 0 0.038512288486097702 0.8155852717111195 0 0 0.79999999999999982 0 0.065374659239661639 0.8551091961254178 0 0.038512288486097702 0.8155852717111195 0 0.083105206071452636 0.79992298667296435 0 0.038512288486097702 0.8155852717111195 0 0.04408157711937423 0.7728941757575627 0 0.083105206071452636 0.79992298667296435 0 0.038512288486097702 0.8155852717111195 0 0 0.79999999999999982 0 0.04408157711937423 0.7728941757575627 0 0 0.79999999999999982 0 0 0.75000000000034661 0 0.04408157711937423 0.7728941757575627 0 0.049706944316475897 0.72477277076253799 0 0.04408157711937423 0.7728941757575627 0 0.090953281884486245 0.7564451946902494 0 0.04408157711937423 0.7728941757575627 0 0.090953281884486245 0.7564451946902494 0 0.083105206071452636 0.79992298667296435 0 0.1074251789111534 0.83564394292147814 0 0.083105206071452636 0.79992298667296435 0 0.1382744753146134 0.79650574229207483 0 0.090953281884486245 0.7564451946902494 0 0.083105206071452636 0.79992298667296435 0 0.1382744753146134 0.79650574229207483 0 0.090953281884486245 0.7564451946902494 0 0.14335651144331049 0.75565258250209677 0 0.1382744753146134 0.79650574229207483 0 0.14335651144331049 0.75565258250209677 0 0.1382744753146134 0.79650574229207483 0 0.18269480424590959 0.75905448272264375 0 0.1382744753146134 0.79650574229207483 0 0.18269480424590959 0.75905448272264375 0 0.17777405986036951 0.81832336108265358 0 0.2248999640082178 0.72584299459689172 0 0.18269480424590959 0.75905448272264375 0 0.22556077506376701 0.77837424984191617 0 0.22556077506376701 0.77837424984191617 0 0.21858834311891909 0.81980263716112767 0 0.26104540868854792 0.81401944968719064 0 0.22556077506376701 0.77837424984191617 0 0.21858834311891909 0.81980263716112767 0 0.17777405986036951 0.81832336108265358 0 0.18269480424590959 0.75905448272264375 0 0.22556077506376701 0.77837424984191617 0 0.17777405986036951 0.81832336108265358 0 0.21858834311891909 0.81980263716112767 0 0.19741632902693801 0.86755867406447229 0 0.17777405986036951 0.81832336108265358 0 0.21858834311891909 0.81980263716112767 0 0.2401283238295133 0.85648409884788523 0 0.26104540868854792 0.81401944968719064 0 0.21858834311891909 0.81980263716112767 0 0.2401283238295133 0.85648409884788523 0 0.19741632902693801 0.86755867406447229 0 0.19741632902693801 0.86755867406447229 0 0.17777405986036951 0.81832336108265358 0 0.14474682429600511 0.85524784522713515 0 0.19741632902693801 0.86755867406447229 0 0.14474682429600511 0.85524784522713515 0 0.16206583317966519 0.89685560785156404 0 0.1382744753146134 0.79650574229207483 0 0.17777405986036951 0.81832336108265358 0 0.14474682429600511 0.85524784522713515 0 0.1074251789111534 0.83564394292147814 0 0.1382744753146134 0.79650574229207483 0 0.14474682429600511 0.85524784522713515 0 0.1241151115713819 0.9045666525468371 0 0.14474682429600511 0.85524784522713515 0 0.16206583317966519 0.89685560785156404 0 0.1241151115713819 0.9045666525468371 0 0.16206583317966519 0.89685560785156404 0 0.14617343800780541 0.93808063414349496 0 0.16206583317966519 0.89685560785156404 0 0.19901705110390991 0.9175543425573498 0 0.14617343800780541 0.93808063414349496 0 0.19741632902693801 0.86755867406447229 0 0.16206583317966519 0.89685560785156404 0 0.19901705110390991 0.9175543425573498 0 0.19741632902693801 0.86755867406447229 0 0.24536017905392571 0.90704567837671446 0 0.19901705110390991 0.9175543425573498 0 0.2401283238295133 0.85648409884788523 0 0.19741632902693801 0.86755867406447229 0 0.24536017905392571 0.90704567837671446 0 0.24536017905392571 0.90704567837671446 0 0.19901705110390991 0.9175543425573498 0 0.22850979588452081 0.95594428570238643 0 0.19901705110390991 0.9175543425573498 0 0.22850979588452081 0.95594428570238643 0 0.18474005699953849 0.96231585248064622 0 0.24536017905392571 0.90704567837671446 0 0.22850979588452081 0.95594428570238643 0 0.27609987656793722 0.94991445621608572 0 0.22850979588452081 0.95594428570238643 0 0.20000000000083221 1 0 0.25000000000104028 1 0 0.22850979588452081 0.95594428570238643 0 0.20000000000083221 1 0 0.18474005699953849 0.96231585248064622 0 0.20000000000083221 1 0 0.18474005699953849 0.96231585248064622 0 0.15000000000062411 1 0 0.19901705110390991 0.9175543425573498 0 0.18474005699953849 0.96231585248064622 0 0.14617343800780541 0.93808063414349496 0 0.18474005699953849 0.96231585248064622 0 0.14617343800780541 0.93808063414349496 0 0.15000000000062411 1 0 0.10266856499240549 0.95548163909968886 0 0.14617343800780541 0.93808063414349496 0 0.15000000000062411 1 0 0.35000000000145642 1 0 0.36184234618600131 0.96443954459096326 0 0.32544832635163229 0.95485394099568932 0 0.35000000000145642 1 0 0.36184234618600131 0.96443954459096326 0 0.40000000000166441 1 0 0.36184234618600131 0.96443954459096326 0 0.32544832635163229 0.95485394099568932 0 0.35752321586431363 0.9185439911803448 0 0.36184234618600131 0.96443954459096326 0 0.35752321586431363 0.9185439911803448 0 0.39641108128798319 0.94356127926187128 0 0.35000000000145642 1 0 0.32544832635163229 0.95485394099568932 0 0.30000000000124832 1 0 0.30000000000124832 1 0 0.25000000000104028 1 0 0.27609987656793722 0.94991445621608572 0 0.22850979588452081 0.95594428570238643 0 0.25000000000104028 1 0 0.27609987656793722 0.94991445621608572 0 0.32544832635163229 0.95485394099568932 0 0.30000000000124832 1 0 0.27609987656793722 0.94991445621608572 0 0.32544832635163229 0.95485394099568932 0 0.27609987656793722 0.94991445621608572 0 0.30864387279288652 0.89906554525974958 0 0.24536017905392571 0.90704567837671446 0 0.27270076654418179 0.87751467830216623 0 0.30864387279288652 0.89906554525974958 0 0.24536017905392571 0.90704567837671446 0 0.27609987656793722 0.94991445621608572 0 0.30864387279288652 0.89906554525974958 0 0.2401283238295133 0.85648409884788523 0 0.24536017905392571 0.90704567837671446 0 0.27270076654418179 0.87751467830216623 0 0.30864387279288652 0.89906554525974958 0 0.35752321586431363 0.9185439911803448 0 0.35864759629805099 0.87963482415279515 0 0.32544832635163229 0.95485394099568932 0 0.30864387279288652 0.89906554525974958 0 0.35752321586431363 0.9185439911803448 0 0.35752321586431363 0.9185439911803448 0 0.35864759629805099 0.87963482415279515 0 0.39767323751400468 0.89584229130535065 0 0.35864759629805099 0.87963482415279515 0 0.33403534827021109 0.84402799729020661 0 0.39536230704883951 0.84069429572832477 0 0.33403534827021109 0.84402799729020661 0 0.35642984951668422 0.80994399665655703 0 0.39536230704883951 0.84069429572832477 0 0.33403534827021109 0.84402799729020661 0 0.30857225866488791 0.81101973481716805 0 0.35642984951668422 0.80994399665655703 0 0.30864387279288652 0.89906554525974958 0 0.35864759629805099 0.87963482415279515 0 0.33403534827021109 0.84402799729020661 0 0.30864387279288652 0.89906554525974958 0 0.33403534827021109 0.84402799729020661 0 0.29209212897034281 0.84715728365233667 0 0.27270076654418179 0.87751467830216623 0 0.30864387279288652 0.89906554525974958 0 0.29209212897034281 0.84715728365233667 0 0.2401283238295133 0.85648409884788523 0 0.27270076654418179 0.87751467830216623 0 0.29209212897034281 0.84715728365233667 0 0.2401283238295133 0.85648409884788523 0 0.29209212897034281 0.84715728365233667 0 0.26104540868854792 0.81401944968719064 0 0.29209212897034281 0.84715728365233667 0 0.26104540868854792 0.81401944968719064 0 0.30857225866488791 0.81101973481716805 0 0.33403534827021109 0.84402799729020661 0 0.29209212897034281 0.84715728365233667 0 0.30857225866488791 0.81101973481716805 0 0.26104540868854792 0.81401944968719064 0 0.30857225866488791 0.81101973481716805 0 0.2792923945214143 0.77665808831789485 0 0.30857225866488791 0.81101973481716805 0 0.2792923945214143 0.77665808831789485 0 0.33123028043633618 0.77629643437932982 0 0.22556077506376701 0.77837424984191617 0 0.26104540868854792 0.81401944968719064 0 0.2792923945214143 0.77665808831789485 0 0.2792923945214143 0.77665808831789485 0 0.25676291524611189 0.7436741304886243 0 0.29904318922293632 0.74132814928635593 0 0.22556077506376701 0.77837424984191617 0 0.2792923945214143 0.77665808831789485 0 0.25676291524611189 0.7436741304886243 0 0.2792923945214143 0.77665808831789485 0 0.33123028043633618 0.77629643437932982 0 0.29904318922293632 0.74132814928635593 0 0.33123028043633618 0.77629643437932982 0 0.29904318922293632 0.74132814928635593 0 0.35415581127540569 0.73730480045900215 0 0.30857225866488791 0.81101973481716805 0 0.33123028043633618 0.77629643437932982 0 0.35642984951668422 0.80994399665655703 0 0.33123028043633618 0.77629643437932982 0 0.35642984951668422 0.80994399665655703 0 0.38586766253264881 0.78219501014812498 0 0.33123028043633618 0.77629643437932982 0 0.38586766253264881 0.78219501014812498 0 0.35415581127540569 0.73730480045900215 0 0.38586766253264881 0.78219501014812498 0 0.42676259796334498 0.76772545931379299 0 0.40326160981139969 0.73346192995102844 0 0.38586766253264881 0.78219501014812498 0 0.35415581127540569 0.73730480045900215 0 0.40326160981139969 0.73346192995102844 0 0.38586766253264881 0.78219501014812498 0 0.42609163930740518 0.80361684430568059 0 0.39536230704883951 0.84069429572832477 0 0.35642984951668422 0.80994399665655703 0 0.38586766253264881 0.78219501014812498 0 0.39536230704883951 0.84069429572832477 0 0.38586766253264881 0.78219501014812498 0 0.42609163930740518 0.80361684430568059 0 0.42676259796334498 0.76772545931379299 0 0.42676259796334498 0.76772545931379299 0 0.4656888918609538 0.78493261229743638 0 0.45582236402875981 0.73896743678908217 0 0.4656888918609538 0.78493261229743638 0 0.45582236402875981 0.73896743678908217 0 0.50945740445113552 0.75476055527778108 0 0.4656888918609538 0.78493261229743638 0 0.50731287292894423 0.78963574450233831 0 0.50945740445113552 0.75476055527778108 0 0.4656888918609538 0.78493261229743638 0 0.50627822638148745 0.8263979829520941 0 0.50731287292894423 0.78963574450233831 0 0.42609163930740518 0.80361684430568059 0 0.4656888918609538 0.78493261229743638 0 0.45677673713123867 0.84253684404072415 0 0.42609163930740518 0.80361684430568059 0 0.42676259796334498 0.76772545931379299 0 0.4656888918609538 0.78493261229743638 0 0.4656888918609538 0.78493261229743638 0 0.45677673713123867 0.84253684404072415 0 0.50627822638148745 0.8263979829520941 0 0.45677673713123867 0.84253684404072415 0 0.50202631463681879 0.87892870825713787 0 0.50627822638148745 0.8263979829520941 0 0.45677673713123867 0.84253684404072415 0 0.44003836461056539 0.88093474584252718 0 0.50202631463681879 0.87892870825713787 0 0.45677673713123867 0.84253684404072415 0 0.39536230704883951 0.84069429572832477 0 0.44003836461056539 0.88093474584252718 0 0.39536230704883951 0.84069429572832477 0 0.39767323751400468 0.89584229130535065 0 0.44003836461056539 0.88093474584252718 0 0.42609163930740518 0.80361684430568059 0 0.45677673713123867 0.84253684404072415 0 0.39536230704883951 0.84069429572832477 0 0.35864759629805099 0.87963482415279515 0 0.39536230704883951 0.84069429572832477 0 0.39767323751400468 0.89584229130535065 0 0.35752321586431363 0.9185439911803448 0 0.39767323751400468 0.89584229130535065 0 0.39641108128798319 0.94356127926187128 0 0.39767323751400468 0.89584229130535065 0 0.4367309254023824 0.92065556789053882 0 0.39641108128798319 0.94356127926187128 0 0.39767323751400468 0.89584229130535065 0 0.4367309254023824 0.92065556789053882 0 0.44003836461056539 0.88093474584252718 0 0.4367309254023824 0.92065556789053882 0 0.44003836461056539 0.88093474584252718 0 0.47401147028110507 0.91529957330468115 0 0.44003836461056539 0.88093474584252718 0 0.47401147028110507 0.91529957330468115 0 0.50202631463681879 0.87892870825713787 0 0.47401147028110507 0.91529957330468115 0 0.47135117303824892 0.95556877749289892 0 0.52122150208832174 0.94089974453840242 0 0.47401147028110507 0.91529957330468115 0 0.52122150208832174 0.94089974453840242 0 0.50202631463681879 0.87892870825713787 0 0.4367309254023824 0.92065556789053882 0 0.47401147028110507 0.91529957330468115 0 0.47135117303824892 0.95556877749289892 0 0.4367309254023824 0.92065556789053882 0 0.47135117303824892 0.95556877749289892 0 0.4308986359464303 0.96395712492906194 0 0.47135117303824892 0.95556877749289892 0 0.50000000000205869 1 0 0.52122150208832174 0.94089974453840242 0 0.47135117303824892 0.95556877749289892 0 0.45000000000187229 1 0 0.50000000000205869 1 0 0.47135117303824892 0.95556877749289892 0 0.45000000000187229 1 0 0.4308986359464303 0.96395712492906194 0 0.45000000000187229 1 0 0.4308986359464303 0.96395712492906194 0 0.40000000000166441 1 0 0.4308986359464303 0.96395712492906194 0 0.39641108128798319 0.94356127926187128 0 0.40000000000166441 1 0 0.4367309254023824 0.92065556789053882 0 0.4308986359464303 0.96395712492906194 0 0.39641108128798319 0.94356127926187128 0 0.36184234618600131 0.96443954459096326 0 0.39641108128798319 0.94356127926187128 0 0.40000000000166441 1 0 0.33122374654748771 0.57588941099433744 0 0.31502927232353312 0.6134992213375432 0 0.35765792684946668 0.6000687869219653 0 0.31502927232353312 0.6134992213375432 0 0.35765792684946668 0.6000687869219653 0 0.35864735590330371 0.63903383440414463 0 0.35765792684946668 0.6000687869219653 0 0.35864735590330371 0.63903383440414463 0 0.39743091024207589 0.6239520004230239 0 0.33122374654748771 0.57588941099433744 0 0.35765792684946668 0.6000687869219653 0 0.37272913873093971 0.56192925302619479 0 0.37272913873093971 0.56192925302619479 0 0.33190227185843768 0.52715113583864037 0 0.38244435121258652 0.51653317813019495 0 0.33122374654748771 0.57588941099433744 0 0.37272913873093971 0.56192925302619479 0 0.33190227185843768 0.52715113583864037 0 0.35024835142131061 0.48654922671676981 0 0.33190227185843768 0.52715113583864037 0 0.38244435121258652 0.51653317813019495 0 0.33122374654748771 0.57588941099433744 0 0.33190227185843768 0.52715113583864037 0 0.29110487519241501 0.56588143995431495 0 0.33190227185843768 0.52715113583864037 0 0.28307294598219601 0.50789252727458634 0 0.29110487519241501 0.56588143995431495 0 0.31068898841644388 0.47541502461811092 0 0.33190227185843768 0.52715113583864037 0 0.28307294598219601 0.50789252727458634 0 0.23975172658309729 0.49475499200540818 0 0.28307294598219601 0.50789252727458634 0 0.25115337790845271 0.54719303014923271 0 0.28307294598219601 0.50789252727458634 0 0.25115337790845271 0.54719303014923271 0 0.29110487519241501 0.56588143995431495 0 0.25115337790845271 0.54719303014923271 0 0.29110487519241501 0.56588143995431495 0 0.26573297623774761 0.59828298563722948 0 0.33122374654748771 0.57588941099433744 0 0.31502927232353312 0.6134992213375432 0 0.29110487519241501 0.56588143995431495 0 0.31502927232353312 0.6134992213375432 0 0.29110487519241501 0.56588143995431495 0 0.26573297623774761 0.59828298563722948 0 0.31502927232353312 0.6134992213375432 0 0.26573297623774761 0.59828298563722948 0 0.27820712747429932 0.65530134213254643 0 0.2459498854893499 0.63248470766216769 0 0.26573297623774761 0.59828298563722948 0 0.27820712747429932 0.65530134213254643 0 0.2236846579037573 0.67380363126050236 0 0.27820712747429932 0.65530134213254643 0 0.26439878998046262 0.7048065392091396 0 0.27820712747429932 0.65530134213254643 0 0.31378396441836959 0.70157213313026345 0 0.32263089806001177 0.66003674931826484 0 0.27820712747429932 0.65530134213254643 0 0.26439878998046262 0.7048065392091396 0 0.31378396441836959 0.70157213313026345 0 0.31502927232353312 0.6134992213375432 0 0.27820712747429932 0.65530134213254643 0 0.32263089806001177 0.66003674931826484 0 0.25676291524611189 0.7436741304886243 0 0.26439878998046262 0.7048065392091396 0 0.29904318922293632 0.74132814928635593 0 0.26439878998046262 0.7048065392091396 0 0.29904318922293632 0.74132814928635593 0 0.31378396441836959 0.70157213313026345 0 0.29904318922293632 0.74132814928635593 0 0.31378396441836959 0.70157213313026345 0 0.35415581127540569 0.73730480045900215 0 0.31378396441836959 0.70157213313026345 0 0.36622285152418499 0.69092437780804039 0 0.35415581127540569 0.73730480045900215 0 0.36622285152418499 0.69092437780804039 0 0.35415581127540569 0.73730480045900215 0 0.40326160981139969 0.73346192995102844 0 0.31502927232353312 0.6134992213375432 0 0.32263089806001177 0.66003674931826484 0 0.35864735590330371 0.63903383440414463 0 0.31378396441836959 0.70157213313026345 0 0.36622285152418499 0.69092437780804039 0 0.32263089806001177 0.66003674931826484 0 0.36622285152418499 0.69092437780804039 0 0.32263089806001177 0.66003674931826484 0 0.35864735590330371 0.63903383440414463 0 0.36622285152418499 0.69092437780804039 0 0.35864735590330371 0.63903383440414463 0 0.3977710372045391 0.65868194622830212 0 0.35864735590330371 0.63903383440414463 0 0.3977710372045391 0.65868194622830212 0 0.39743091024207589 0.6239520004230239 0 0.36622285152418499 0.69092437780804039 0 0.3977710372045391 0.65868194622830212 0 0.43323420005758778 0.6913544522562407 0 0.3977710372045391 0.65868194622830212 0 0.43323420005758778 0.6913544522562407 0 0.43846182030517877 0.64845797726506715 0 0.43846182030517877 0.64845797726506715 0 0.43545892161006339 0.61093128915313821 0 0.39743091024207589 0.6239520004230239 0 0.3977710372045391 0.65868194622830212 0 0.43846182030517877 0.64845797726506715 0 0.39743091024207589 0.6239520004230239 0 0.36622285152418499 0.69092437780804039 0 0.40326160981139969 0.73346192995102844 0 0.43323420005758778 0.6913544522562407 0 0.40326160981139969 0.73346192995102844 0 0.43323420005758778 0.6913544522562407 0 0.45582236402875981 0.73896743678908217 0 0.42676259796334498 0.76772545931379299 0 0.40326160981139969 0.73346192995102844 0 0.45582236402875981 0.73896743678908217 0 0.43323420005758778 0.6913544522562407 0 0.45582236402875981 0.73896743678908217 0 0.5 0.69999999999999996 0 0.45582236402875981 0.73896743678908217 0 0.5 0.69999999999999996 0 0.50945740445113552 0.75476055527778108 0 0.43323420005758778 0.6913544522562407 0 0.47913475093885149 0.66010775372412711 0 0.5 0.69999999999999996 0 0.43846182030517877 0.64845797726506715 0 0.47913475093885149 0.66010775372412711 0 0.47095389620662098 0.61892551373708504 0 0.43846182030517877 0.64845797726506715 0 0.47095389620662098 0.61892551373708504 0 0.43545892161006339 0.61093128915313821 0 0.43323420005758778 0.6913544522562407 0 0.43846182030517877 0.64845797726506715 0 0.47913475093885149 0.66010775372412711 0 0.47913475093885149 0.66010775372412711 0 0.47095389620662098 0.61892551373708504 0 0.50715858906372158 0.63295939104129484 0 0.47095389620662098 0.61892551373708504 0 0.5166924242153631 0.59825134841919447 0 0.50715858906372158 0.63295939104129484 0 0.47095389620662098 0.61892551373708504 0 0.46666084890304671 0.57634471035397938 0 0.5166924242153631 0.59825134841919447 0 0.47095389620662098 0.61892551373708504 0 0.46666084890304671 0.57634471035397938 0 0.43545892161006339 0.61093128915313821 0 0.43545892161006339 0.61093128915313821 0 0.4089290844030305 0.58728915500154233 0 0.39743091024207589 0.6239520004230239 0 0.46666084890304671 0.57634471035397938 0 0.43545892161006339 0.61093128915313821 0 0.4089290844030305 0.58728915500154233 0 0.46666084890304671 0.57634471035397938 0 0.4089290844030305 0.58728915500154233 0 0.42644501560315817 0.54603747078095544 0 0.37272913873093971 0.56192925302619479 0 0.4089290844030305 0.58728915500154233 0 0.42644501560315817 0.54603747078095544 0 0.35765792684946668 0.6000687869219653 0 0.37272913873093971 0.56192925302619479 0 0.4089290844030305 0.58728915500154233 0 0.35765792684946668 0.6000687869219653 0 0.4089290844030305 0.58728915500154233 0 0.39743091024207589 0.6239520004230239 0 0.37272913873093971 0.56192925302619479 0 0.38244435121258652 0.51653317813019495 0 0.42644501560315817 0.54603747078095544 0 0.43507373378304309 0.49699695397193322 0 0.38244435121258652 0.51653317813019495 0 0.42644501560315817 0.54603747078095544 0 0.46666084890304671 0.57634471035397938 0 0.47793794143994173 0.52940715638744962 0 0.53245488764484505 0.55078124999999989 0 0.43507373378304309 0.49699695397193322 0 0.49102375406324739 0.49123754822244059 0 0.47793794143994173 0.52940715638744962 0 0.43507373378304309 0.49699695397193322 0 0.42644501560315817 0.54603747078095544 0 0.47793794143994173 0.52940715638744962 0 0.46666084890304671 0.57634471035397938 0 0.42644501560315817 0.54603747078095544 0 0.47793794143994173 0.52940715638744962 0 0.49102375406324739 0.49123754822244059 0 0.47793794143994173 0.52940715638744962 0 0.53330375813596242 0.50827942741749099 0 0.47793794143994173 0.52940715638744962 0 0.53245488764484505 0.55078124999999989 0 0.53330375813596242 0.50827942741749099 0 0.53245488764484505 0.55078124999999989 0 0.53330375813596242 0.50827942741749099 0 0.57435499076887508 0.54267261987897775 0 0.53245488764484505 0.55078124999999989 0 0.57435499076887508 0.54267261987897775 0 0.57412547362576272 0.58273804879550706 0 0.53330375813596242 0.50827942741749099 0 0.57611405284611883 0.50165903596042916 0 0.57435499076887508 0.54267261987897775 0 0.57611405284611883 0.50165903596042916 0 0.57435499076887508 0.54267261987897775 0 0.62042975506801734 0.54295974692364424 0 0.57435499076887508 0.54267261987897775 0 0.62042975506801734 0.54295974692364424 0 0.57412547362576272 0.58273804879550706 0 0.57611405284611883 0.50165903596042916 0 0.62042975506801734 0.54295974692364424 0 0.61547661924074692 0.48539576058873962 0 0.5991018319127801 0.62925360607495295 0 0.6405463747586706 0.63290524857395714 0 0.63065402604362242 0.59661356661633302 0 0.57412547362576272 0.58273804879550706 0 0.5991018319127801 0.62925360607495295 0 0.63065402604362242 0.59661356661633302 0 0.62042975506801734 0.54295974692364424 0 0.57412547362576272 0.58273804879550706 0 0.63065402604362242 0.59661356661633302 0 0.57412547362576272 0.58273804879550706 0 0.5498280205245758 0.6290146943450976 0 0.5991018319127801 0.62925360607495295 0 0.46666084890304671 0.57634471035397938 0 0.53245488764484505 0.55078124999999989 0 0.5166924242153631 0.59825134841919447 0 0.57412547362576272 0.58273804879550706 0 0.5166924242153631 0.59825134841919447 0 0.5498280205245758 0.6290146943450976 0 0.53245488764484505 0.55078124999999989 0 0.57412547362576272 0.58273804879550706 0 0.5166924242153631 0.59825134841919447 0 0.5166924242153631 0.59825134841919447 0 0.50715858906372158 0.63295939104129484 0 0.5498280205245758 0.6290146943450976 0 0.47913475093885149 0.66010775372412711 0 0.50715858906372158 0.63295939104129484 0 0.52584555706968406 0.66664215091846768 0 0.50715858906372158 0.63295939104129484 0 0.52584555706968406 0.66664215091846768 0 0.5498280205245758 0.6290146943450976 0 0.47913475093885149 0.66010775372412711 0 0.52584555706968406 0.66664215091846768 0 0.5 0.69999999999999996 0 0.52584555706968406 0.66664215091846768 0 0.54999999999999993 0.69999999999999996 0 0.57484956128872922 0.66573805030881994 0 0.52584555706968406 0.66664215091846768 0 0.5498280205245758 0.6290146943450976 0 0.57484956128872922 0.66573805030881994 0 0.5 0.69999999999999996 0 0.55363780716230748 0.74348740161571747 0 0.50945740445113552 0.75476055527778108 0 0.52584555706968406 0.66664215091846768 0 0.5 0.69999999999999996 0 0.54999999999999993 0.69999999999999996 0 0.5 0.69999999999999996 0 0.54999999999999993 0.69999999999999996 0 0.5 0.69999999999999996 0 0.54999999999999993 0.69999999999999996 0 0.55363780716230748 0.74348740161571747 0 0.55363780716230748 0.74348740161571747 0 0.59999999999999976 0.69999999999999996 0 0.59636844454254345 0.75937156204589151 0 0.54999999999999993 0.69999999999999996 0 0.59999999999999976 0.69999999999999996 0 0.54999999999999993 0.69999999999999996 0 0.59999999999999976 0.69999999999999996 0 0.57484956128872922 0.66573805030881994 0 0.54999999999999993 0.69999999999999996 0 0.55363780716230748 0.74348740161571747 0 0.59999999999999976 0.69999999999999996 0 0.59999999999999976 0.69999999999999996 0 0.6499999999999998 0.69999999999999996 0 0.59999999999999976 0.69999999999999996 0 0.62460753523532009 0.66851202781000296 0 0.6499999999999998 0.69999999999999996 0 0.59999999999999976 0.69999999999999996 0 0.63221990677827677 0.73442891067859706 0 0.59636844454254345 0.75937156204589151 0 0.5498280205245758 0.6290146943450976 0 0.57484956128872922 0.66573805030881994 0 0.5991018319127801 0.62925360607495295 0 0.59999999999999976 0.69999999999999996 0 0.57484956128872922 0.66573805030881994 0 0.62460753523532009 0.66851202781000296 0 0.57484956128872922 0.66573805030881994 0 0.62460753523532009 0.66851202781000296 0 0.5991018319127801 0.62925360607495295 0 0.62460753523532009 0.66851202781000296 0 0.5991018319127801 0.62925360607495295 0 0.6405463747586706 0.63290524857395714 0 0.62460753523532009 0.66851202781000296 0 0.6405463747586706 0.63290524857395714 0 0.675261390228442 0.65996937624687813 0 0.62460753523532009 0.66851202781000296 0 0.675261390228442 0.65996937624687813 0 0.6499999999999998 0.69999999999999996 0 0.675261390228442 0.65996937624687813 0 0.6499999999999998 0.69999999999999996 0 0.69999999999999984 0.69999999999999996 0 0.6405463747586706 0.63290524857395714 0 0.675261390228442 0.65996937624687813 0 0.67529834988829951 0.61613270668143583 0 0.63221990677827677 0.73442891067859706 0 0.66427993341343905 0.73232764502436276 0 0.64753070846764316 0.77332939069435502 0 0.63221990677827677 0.73442891067859706 0 0.6499999999999998 0.69999999999999996 0 0.66427993341343905 0.73232764502436276 0 0.59999999999999976 0.69999999999999996 0 0.63221990677827677 0.73442891067859706 0 0.6499999999999998 0.69999999999999996 0 0.6499999999999998 0.69999999999999996 0 0.69999999999999984 0.69999999999999996 0 0.6499999999999998 0.69999999999999996 0 0.66427993341343905 0.73232764502436276 0 0.69999999999999984 0.69999999999999996 0 0.66427993341343905 0.73232764502436276 0 0.69999999999999984 0.69999999999999996 0 0.6916490518212759 0.75387992374886192 0 0.69999999999999984 0.69999999999999996 0 0.72501250972655151 0.74067302935308721 0 0.6916490518212759 0.75387992374886192 0 0.69999999999999984 0.69999999999999996 0 0.74999999999999989 0.69999999999999996 0 0.72501250972655151 0.74067302935308721 0 0.69999999999999984 0.69999999999999996 0 0.74999999999999989 0.69999999999999996 0 0.72500000000000064 0.67022701834392062 0 0.69999999999999984 0.69999999999999996 0 0.74999999999999989 0.69999999999999996 0 0.74999999999999989 0.69999999999999996 0 0.72501250972655151 0.74067302935308721 0 0.75841349681148107 0.75422312624214749 0 0.675261390228442 0.65996937624687813 0 0.71406021706547751 0.63292083137662503 0 0.72500000000000064 0.67022701834392062 0 0.675261390228442 0.65996937624687813 0 0.71406021706547751 0.63292083137662503 0 0.67529834988829951 0.61613270668143583 0 0.675261390228442 0.65996937624687813 0 0.69999999999999984 0.69999999999999996 0 0.72500000000000064 0.67022701834392062 0 0.71406021706547751 0.63292083137662503 0 0.72500000000000064 0.67022701834392062 0 0.74994237037456724 0.62775548192980357 0 0.72500000000000064 0.67022701834392062 0 0.74994237037456724 0.62775548192980357 0 0.7750489929959945 0.66593931409600093 0 0.71406021706547751 0.63292083137662503 0 0.74994237037456724 0.62775548192980357 0 0.71809016091162536 0.58185040402320831 0 0.74994237037456724 0.62775548192980357 0 0.71809016091162536 0.58185040402320831 0 0.77293540622714185 0.59448302402785813 0 0.71406021706547751 0.63292083137662503 0 0.71809016091162536 0.58185040402320831 0 0.67529834988829951 0.61613270668143583 0 0.71809016091162536 0.58185040402320831 0 0.67569444444444449 0.53500863336860327 0 0.67323294229744413 0.57556450033612505 0 0.71809016091162536 0.58185040402320831 0 0.67529834988829951 0.61613270668143583 0 0.67323294229744413 0.57556450033612505 0 0.71809016091162536 0.58185040402320831 0 0.7152569930854884 0.5237994455134295 0 0.77151014687832564 0.54436834383023036 0 0.7152569930854884 0.5237994455134295 0 0.77151014687832564 0.54436834383023036 0 0.73947346780852752 0.49062440112282169 0 0.7152569930854884 0.5237994455134295 0 0.67569444444444449 0.53500863336860327 0 0.69385896817107129 0.48377516041410151 0 0.71809016091162536 0.58185040402320831 0 0.7152569930854884 0.5237994455134295 0 0.67569444444444449 0.53500863336860327 0 0.62042975506801734 0.54295974692364424 0 0.67569444444444449 0.53500863336860327 0 0.67323294229744413 0.57556450033612505 0 0.67569444444444449 0.53500863336860327 0 0.6541250972820879 0.49999999999999989 0 0.69385896817107129 0.48377516041410151 0 0.62042975506801734 0.54295974692364424 0 0.67569444444444449 0.53500863336860327 0 0.6541250972820879 0.49999999999999989 0 0.62042975506801734 0.54295974692364424 0 0.61547661924074692 0.48539576058873962 0 0.6541250972820879 0.49999999999999989 0 0.62042975506801734 0.54295974692364424 0 0.63065402604362242 0.59661356661633302 0 0.67323294229744413 0.57556450033612505 0 0.6405463747586706 0.63290524857395714 0 0.63065402604362242 0.59661356661633302 0 0.67529834988829951 0.61613270668143583 0 0.63065402604362242 0.59661356661633302 0 0.67529834988829951 0.61613270668143583 0 0.67323294229744413 0.57556450033612505 0 0.60000000000138687 1 0 0.62065498684670595 0.95224934003983619 0 0.57382506491224949 0.9629411906298494 0 0.60000000000138687 1 0 0.62065498684670595 0.95224934003983619 0 0.65000000000104008 1 0 0.62065498684670595 0.95224934003983619 0 0.57382506491224949 0.9629411906298494 0 0.57724883562309992 0.92155686857100794 0 0.60000000000138687 1 0 0.57382506491224949 0.9629411906298494 0 0.55000000000173355 1 0 0.55000000000173355 1 0 0.50000000000205869 1 0 0.52122150208832174 0.94089974453840242 0 0.57382506491224949 0.9629411906298494 0 0.52122150208832174 0.94089974453840242 0 0.57724883562309992 0.92155686857100794 0 0.57382506491224949 0.9629411906298494 0 0.55000000000173355 1 0 0.52122150208832174 0.94089974453840242 0 0.52122150208832174 0.94089974453840242 0 0.54783390826260769 0.89287767010860219 0 0.57724883562309992 0.92155686857100794 0 0.52122150208832174 0.94089974453840242 0 0.50202631463681879 0.87892870825713787 0 0.54783390826260769 0.89287767010860219 0 0.54783390826260769 0.89287767010860219 0 0.5832743223239254 0.88483152652961872 0 0.55899371797446828 0.85003102233514438 0 0.54783390826260769 0.89287767010860219 0 0.5832743223239254 0.88483152652961872 0 0.57724883562309992 0.92155686857100794 0 0.5832743223239254 0.88483152652961872 0 0.57724883562309992 0.92155686857100794 0 0.61885627562261258 0.90282959257498208 0 0.62065498684670595 0.95224934003983619 0 0.57724883562309992 0.92155686857100794 0 0.61885627562261258 0.90282959257498208 0 0.5832743223239254 0.88483152652961872 0 0.61885627562261258 0.90282959257498208 0 0.61343887413683884 0.856862479058357 0 0.61343887413683884 0.856862479058357 0 0.60294066490120068 0.80851322453934582 0 0.65005442820240822 0.82644988530054031 0 0.61343887413683884 0.856862479058357 0 0.55899371797446828 0.85003102233514438 0 0.60294066490120068 0.80851322453934582 0 0.55899371797446828 0.85003102233514438 0 0.54782696902220018 0.79245182748204157 0 0.60294066490120068 0.80851322453934582 0 0.5832743223239254 0.88483152652961872 0 0.61343887413683884 0.856862479058357 0 0.55899371797446828 0.85003102233514438 0 0.50202631463681879 0.87892870825713787 0 0.54783390826260769 0.89287767010860219 0 0.55899371797446828 0.85003102233514438 0 0.50202631463681879 0.87892870825713787 0 0.55899371797446828 0.85003102233514438 0 0.50627822638148745 0.8263979829520941 0 0.55899371797446828 0.85003102233514438 0 0.50627822638148745 0.8263979829520941 0 0.54782696902220018 0.79245182748204157 0 0.50627822638148745 0.8263979829520941 0 0.54782696902220018 0.79245182748204157 0 0.50731287292894423 0.78963574450233831 0 0.54782696902220018 0.79245182748204157 0 0.50731287292894423 0.78963574450233831 0 0.50945740445113552 0.75476055527778108 0 0.55363780716230748 0.74348740161571747 0 0.54782696902220018 0.79245182748204157 0 0.50945740445113552 0.75476055527778108 0 0.55363780716230748 0.74348740161571747 0 0.54782696902220018 0.79245182748204157 0 0.59636844454254345 0.75937156204589151 0 0.54782696902220018 0.79245182748204157 0 0.60294066490120068 0.80851322453934582 0 0.59636844454254345 0.75937156204589151 0 0.60294066490120068 0.80851322453934582 0 0.59636844454254345 0.75937156204589151 0 0.64753070846764316 0.77332939069435502 0 0.63221990677827677 0.73442891067859706 0 0.59636844454254345 0.75937156204589151 0 0.64753070846764316 0.77332939069435502 0 0.60294066490120068 0.80851322453934582 0 0.64753070846764316 0.77332939069435502 0 0.65005442820240822 0.82644988530054031 0 0.64753070846764316 0.77332939069435502 0 0.68024162096458085 0.79868546898116533 0 0.65005442820240822 0.82644988530054031 0 0.64753070846764316 0.77332939069435502 0 0.68024162096458085 0.79868546898116533 0 0.6916490518212759 0.75387992374886192 0 0.66427993341343905 0.73232764502436276 0 0.64753070846764316 0.77332939069435502 0 0.6916490518212759 0.75387992374886192 0 0.72501250972655151 0.74067302935308721 0 0.6916490518212759 0.75387992374886192 0 0.72500000000000064 0.7952620967744265 0 0.72501250972655151 0.74067302935308721 0 0.72500000000000064 0.7952620967744265 0 0.75841349681148107 0.75422312624214749 0 0.68024162096458085 0.79868546898116533 0 0.6916490518212759 0.75387992374886192 0 0.72500000000000064 0.7952620967744265 0 0.68024162096458085 0.79868546898116533 0 0.72500000000000064 0.7952620967744265 0 0.68697391633157634 0.84450604838764298 0 0.72500000000000064 0.7952620967744265 0 0.72863726579783861 0.85390518901155588 0 0.68697391633157634 0.84450604838764298 0 0.72500000000000064 0.7952620967744265 0 0.72863726579783861 0.85390518901155588 0 0.76901770135486491 0.84293557325473656 0 0.72863726579783861 0.85390518901155588 0 0.68697391633157634 0.84450604838764298 0 0.7250000000005199 0.89375000000045834 0 0.68697391633157634 0.84450604838764298 0 0.66412543161245952 0.88015090885499059 0 0.7250000000005199 0.89375000000045834 0 0.68697391633157634 0.84450604838764298 0 0.65005442820240822 0.82644988530054031 0 0.66412543161245952 0.88015090885499059 0 0.68024162096458085 0.79868546898116533 0 0.68697391633157634 0.84450604838764298 0 0.65005442820240822 0.82644988530054031 0 0.61343887413683884 0.856862479058357 0 0.65005442820240822 0.82644988530054031 0 0.66412543161245952 0.88015090885499059 0 0.61885627562261258 0.90282959257498208 0 0.61343887413683884 0.856862479058357 0 0.66412543161245952 0.88015090885499059 0 0.61885627562261258 0.90282959257498208 0 0.65507451745379841 0.92229208810758578 0 0.66412543161245952 0.88015090885499059 0 0.62065498684670595 0.95224934003983619 0 0.61885627562261258 0.90282959257498208 0 0.65507451745379841 0.92229208810758578 0 0.65507451745379841 0.92229208810758578 0 0.68987011941058407 0.92105047536677087 0 0.68015064798562208 0.95924320340003011 0 0.65507451745379841 0.92229208810758578 0 0.66412543161245952 0.88015090885499059 0 0.68987011941058407 0.92105047536677087 0 0.66412543161245952 0.88015090885499059 0 0.7250000000005199 0.89375000000045834 0 0.68987011941058407 0.92105047536677087 0 0.72863726579783861 0.85390518901155588 0 0.7250000000005199 0.89375000000045834 0 0.76891166905518427 0.88835469571185499 0 0.7250000000005199 0.89375000000045834 0 0.7250000000005199 0.94981617647078953 0 0.75729602384198635 0.92353652857884294 0 0.7250000000005199 0.89375000000045834 0 0.68987011941058407 0.92105047536677087 0 0.7250000000005199 0.94981617647078953 0 0.68987011941058407 0.92105047536677087 0 0.7250000000005199 0.94981617647078953 0 0.68015064798562208 0.95924320340003011 0 0.7250000000005199 0.94981617647078953 0 0.7000000000006934 1 0 0.75000000000034661 1 0 0.7250000000005199 0.94981617647078953 0 0.75000000000034661 1 0 0.770759834363826 0.95919399014344442 0 0.7250000000005199 0.94981617647078953 0 0.7000000000006934 1 0 0.68015064798562208 0.95924320340003011 0 0.7000000000006934 1 0 0.68015064798562208 0.95924320340003011 0 0.65000000000104008 1 0 0.62065498684670595 0.95224934003983619 0 0.65507451745379841 0.92229208810758578 0 0.68015064798562208 0.95924320340003011 0 0.62065498684670595 0.95224934003983619 0 0.68015064798562208 0.95924320340003011 0 0.65000000000104008 1 0 0.84999999999965292 1 0 0.85170973911348691 0.93569607295217616 0 0.89898474358632463 0.95391965591118966 0 0.84999999999965292 1 0 0.81486180804382891 0.96321394949790495 0 0.85170973911348691 0.93569607295217616 0 0.81486180804382891 0.96321394949790495 0 0.79680861578988083 0.92656778056766709 0 0.85170973911348691 0.93569607295217616 0 0.84999999999965292 1 0 0.81486180804382891 0.96321394949790495 0 0.79999999999999982 1 0 0.81486180804382891 0.96321394949790495 0 0.79999999999999982 1 0 0.770759834363826 0.95919399014344442 0 0.79999999999999982 1 0 0.75000000000034661 1 0 0.770759834363826 0.95919399014344442 0 0.7250000000005199 0.94981617647078953 0 0.770759834363826 0.95919399014344442 0 0.75729602384198635 0.92353652857884294 0 0.81486180804382891 0.96321394949790495 0 0.770759834363826 0.95919399014344442 0 0.79680861578988083 0.92656778056766709 0 0.79680861578988083 0.92656778056766709 0 0.75729602384198635 0.92353652857884294 0 0.76891166905518427 0.88835469571185499 0 0.770759834363826 0.95919399014344442 0 0.79680861578988083 0.92656778056766709 0 0.75729602384198635 0.92353652857884294 0 0.7250000000005199 0.89375000000045834 0 0.75729602384198635 0.92353652857884294 0 0.76891166905518427 0.88835469571185499 0 0.79680861578988083 0.92656778056766709 0 0.76891166905518427 0.88835469571185499 0 0.81159157511211755 0.88795995483179491 0 0.81159157511211755 0.88795995483179491 0 0.85170973911348691 0.93569607295217616 0 0.85600844944837662 0.88483418979512773 0 0.79680861578988083 0.92656778056766709 0 0.81159157511211755 0.88795995483179491 0 0.85170973911348691 0.93569607295217616 0 0.85170973911348691 0.93569607295217616 0 0.85600844944837662 0.88483418979512773 0 0.90416666666660628 0.9041666666666166 0 0.85600844944837662 0.88483418979512773 0 0.82709327591091286 0.84937141670920724 0 0.88088768115933802 0.84674609810493673 0 0.82709327591091286 0.84937141670920724 0 0.84725310900444062 0.80779732082917555 0 0.88088768115933802 0.84674609810493673 0 0.82709327591091286 0.84937141670920724 0 0.80041942726660109 0.81543261647703358 0 0.84725310900444062 0.80779732082917555 0 0.81159157511211755 0.88795995483179491 0 0.85600844944837662 0.88483418979512773 0 0.82709327591091286 0.84937141670920724 0 0.76891166905518427 0.88835469571185499 0 0.81159157511211755 0.88795995483179491 0 0.76901770135486491 0.84293557325473656 0 0.81159157511211755 0.88795995483179491 0 0.82709327591091286 0.84937141670920724 0 0.76901770135486491 0.84293557325473656 0 0.72863726579783861 0.85390518901155588 0 0.76891166905518427 0.88835469571185499 0 0.76901770135486491 0.84293557325473656 0 0.76901770135486491 0.84293557325473656 0 0.80041942726660109 0.81543261647703358 0 0.77094201086366854 0.79647480515688507 0 0.82709327591091286 0.84937141670920724 0 0.76901770135486491 0.84293557325473656 0 0.80041942726660109 0.81543261647703358 0 0.80041942726660109 0.81543261647703358 0 0.77094201086366854 0.79647480515688507 0 0.80185942888539485 0.77452061303608133 0 0.72500000000000064 0.7952620967744265 0 0.77094201086366854 0.79647480515688507 0 0.75841349681148107 0.75422312624214749 0 0.72500000000000064 0.7952620967744265 0 0.76901770135486491 0.84293557325473656 0 0.77094201086366854 0.79647480515688507 0 0.77094201086366854 0.79647480515688507 0 0.75841349681148107 0.75422312624214749 0 0.80185942888539485 0.77452061303608133 0 0.75841349681148107 0.75422312624214749 0 0.80185942888539485 0.77452061303608133 0 0.78578450296893509 0.73292684821144505 0 0.80185942888539485 0.77452061303608133 0 0.84725310900444062 0.80779732082917555 0 0.85491058998424563 0.76004753345552634 0 0.80185942888539485 0.77452061303608133 0 0.85491058998424563 0.76004753345552634 0 0.81864958914779962 0.73589050177899629 0 0.80041942726660109 0.81543261647703358 0 0.80185942888539485 0.77452061303608133 0 0.84725310900444062 0.80779732082917555 0 0.84725310900444062 0.80779732082917555 0 0.85491058998424563 0.76004753345552634 0 0.90299850604011456 0.79563452813489832 0 0.85491058998424563 0.76004753345552634 0 0.90299850604011456 0.79563452813489832 0 0.89999166460796554 0.74528934923809909 0 0.90299850604011456 0.79563452813489832 0 0.94399509803918602 0.75600490196082126 0 0.95386563387742829 0.80414874155775029 0 0.90299850604011456 0.79563452813489832 0 0.94399509803918602 0.75600490196082126 0 0.89999166460796554 0.74528934923809909 0 0.94399509803918602 0.75600490196082126 0 0.97435614836745565 0.77499999999987745 0 0.95386563387742829 0.80414874155775029 0 0.94399509803918602 0.75600490196082126 0 0.97435614836745565 0.77499999999987745 0 0.97166519676947294 0.73337114490064459 0 0.97435614836745565 0.77499999999987745 0 0.97166519676947294 0.73337114490064459 0 1 0.74999999999993494 0 0.97435614836745565 0.77499999999987745 0 1 0.7999999999998193 0 1 0.74999999999993494 0 0.97435614836745565 0.77499999999987745 0 1 0.7999999999998193 0 0.95386563387742829 0.80414874155775029 0 1 0.84999999999982645 0 0.93677536231884972 0.85000000000000286 0 0.95391631417670719 0.89584263333814784 0 0.95386563387742829 0.80414874155775029 0 1 0.84999999999982645 0 0.93677536231884972 0.85000000000000286 0 1 0.7999999999998193 0 0.95386563387742829 0.80414874155775029 0 1 0.84999999999982645 0 0.93677536231884972 0.85000000000000286 0 0.88088768115933802 0.84674609810493673 0 0.90416666666660628 0.9041666666666166 0 0.90299850604011456 0.79563452813489832 0 0.95386563387742829 0.80414874155775029 0 0.93677536231884972 0.85000000000000286 0 0.90299850604011456 0.79563452813489832 0 0.93677536231884972 0.85000000000000286 0 0.88088768115933802 0.84674609810493673 0 0.84725310900444062 0.80779732082917555 0 0.90299850604011456 0.79563452813489832 0 0.88088768115933802 0.84674609810493673 0 0.85600844944837662 0.88483418979512773 0 0.88088768115933802 0.84674609810493673 0 0.90416666666660628 0.9041666666666166 0 0.85170973911348691 0.93569607295217616 0 0.90416666666660628 0.9041666666666166 0 0.89898474358632463 0.95391965591118966 0 0.90416666666660628 0.9041666666666166 0 0.95391631417670719 0.89584263333814784 0 0.94399509803919068 0.9439950980391687 0 0.90416666666660628 0.9041666666666166 0 0.94399509803919068 0.9439950980391687 0 0.89898474358632463 0.95391965591118966 0 0.93677536231884972 0.85000000000000286 0 0.90416666666660628 0.9041666666666166 0 0.95391631417670719 0.89584263333814784 0 1 0.84999999999982645 0 0.95391631417670719 0.89584263333814784 0 1 0.8999999999998336 0 1 0.8999999999998336 0 0.97435614836744289 0.92499999999990257 0 1 0.94999999999997109 0 0.95391631417670719 0.89584263333814784 0 1 0.8999999999998336 0 0.97435614836744289 0.92499999999990257 0 0.95391631417670719 0.89584263333814784 0 0.97435614836744289 0.92499999999990257 0 0.94399509803919068 0.9439950980391687 0 0.97435614836744289 0.92499999999990257 0 0.94399509803919068 0.9439950980391687 0 0.97166519676946206 0.96662885509935492 0 0.97435614836744289 0.92499999999990257 0 0.97166519676946206 0.96662885509935492 0 1 0.94999999999997109 0 0.97166519676946206 0.96662885509935492 0 1 0.94999999999997109 0 1 1 0 0.97166519676946206 0.96662885509935492 0 1 1 0 0.94999999999979179 1 0 0.94399509803919068 0.9439950980391687 0 0.97166519676946206 0.96662885509935492 0 0.94999999999979179 1 0 0.94999999999979179 1 0 0.89898474358632463 0.95391965591118966 0 0.89999999999958358 1 0 0.94399509803919068 0.9439950980391687 0 0.94999999999979179 1 0 0.89898474358632463 0.95391965591118966 0 0.84999999999965292 1 0 0.89898474358632463 0.95391965591118966 0 0.89999999999958358 1 0 0.81723410853263523 0.59419663659258926 0 0.86956835336234861 0.571283299838105 0 0.82862096804812391 0.55037090955459045 0 0.81723410853263523 0.59419663659258926 0 0.87159648282691515 0.61285406320581504 0 0.83758014339878906 0.63222013025741819 0 0.81723410853263523 0.59419663659258926 0 0.79884539758237771 0.62875045078114233 0 0.83758014339878906 0.63222013025741819 0 0.81723410853263523 0.59419663659258926 0 0.87159648282691515 0.61285406320581504 0 0.86956835336234861 0.571283299838105 0 0.86956835336234861 0.571283299838105 0 0.86907294890112186 0.52008116128001669 0 0.82862096804812391 0.55037090955459045 0 0.86907294890112186 0.52008116128001669 0 0.81441713509985358 0.51161854125224959 0 0.82862096804812391 0.55037090955459045 0 0.86907294890112186 0.52008116128001669 0 0.81441713509985358 0.51161854125224959 0 0.84723782639812573 0.48638347960178252 0 0.81441713509985358 0.51161854125224959 0 0.82862096804812391 0.55037090955459045 0 0.77151014687832564 0.54436834383023036 0 0.81441713509985358 0.51161854125224959 0 0.77151014687832564 0.54436834383023036 0 0.77846603114747959 0.49850927265137401 0 0.77151014687832564 0.54436834383023036 0 0.77846603114747959 0.49850927265137401 0 0.73947346780852752 0.49062440112282169 0 0.71809016091162536 0.58185040402320831 0 0.77151014687832564 0.54436834383023036 0 0.77293540622714185 0.59448302402785813 0 0.81723410853263523 0.59419663659258926 0 0.77151014687832564 0.54436834383023036 0 0.77293540622714185 0.59448302402785813 0 0.81723410853263523 0.59419663659258926 0 0.82862096804812391 0.55037090955459045 0 0.77151014687832564 0.54436834383023036 0 0.81723410853263523 0.59419663659258926 0 0.77293540622714185 0.59448302402785813 0 0.79884539758237771 0.62875045078114233 0 0.74994237037456724 0.62775548192980357 0 0.77293540622714185 0.59448302402785813 0 0.79884539758237771 0.62875045078114233 0 0.74994237037456724 0.62775548192980357 0 0.7750489929959945 0.66593931409600093 0 0.79884539758237771 0.62875045078114233 0 0.74999999999999989 0.69999999999999996 0 0.72500000000000064 0.67022701834392062 0 0.7750489929959945 0.66593931409600093 0 0.7750489929959945 0.66593931409600093 0 0.79999999999999982 0.69999999999999996 0 0.82457059160610424 0.66831947184359608 0 0.7750489929959945 0.66593931409600093 0 0.79884539758237771 0.62875045078114233 0 0.82457059160610424 0.66831947184359608 0 0.74999999999999989 0.69999999999999996 0 0.75841349681148107 0.75422312624214749 0 0.78578450296893509 0.73292684821144505 0 0.74999999999999989 0.69999999999999996 0 0.79999999999999982 0.69999999999999996 0 0.78578450296893509 0.73292684821144505 0 0.74999999999999989 0.69999999999999996 0 0.7750489929959945 0.66593931409600093 0 0.79999999999999982 0.69999999999999996 0 0.74999999999999989 0.69999999999999996 0 0.79999999999999982 0.69999999999999996 0 0.80185942888539485 0.77452061303608133 0 0.78578450296893509 0.73292684821144505 0 0.81864958914779962 0.73589050177899629 0 0.79999999999999982 0.69999999999999996 0 0.78578450296893509 0.73292684821144505 0 0.81864958914779962 0.73589050177899629 0 0.85491058998424563 0.76004753345552634 0 0.81864958914779962 0.73589050177899629 0 0.84999999999999987 0.69999999999999996 0 0.79999999999999982 0.69999999999999996 0 0.84999999999999987 0.69999999999999996 0 0.79999999999999982 0.69999999999999996 0 0.84999999999999987 0.69999999999999996 0 0.82457059160610424 0.66831947184359608 0 0.79999999999999982 0.69999999999999996 0 0.81864958914779962 0.73589050177899629 0 0.84999999999999987 0.69999999999999996 0 0.84999999999999987 0.69999999999999996 0 0.89999999999999991 0.69999999999999996 0 0.85491058998424563 0.76004753345552634 0 0.84999999999999987 0.69999999999999996 0 0.89999166460796554 0.74528934923809909 0 0.79884539758237771 0.62875045078114233 0 0.83758014339878906 0.63222013025741819 0 0.82457059160610424 0.66831947184359608 0 0.84999999999999987 0.69999999999999996 0 0.82457059160610424 0.66831947184359608 0 0.87712158428786946 0.65709029563313581 0 0.87159648282691515 0.61285406320581504 0 0.83758014339878906 0.63222013025741819 0 0.87712158428786946 0.65709029563313581 0 0.83758014339878906 0.63222013025741819 0 0.82457059160610424 0.66831947184359608 0 0.87712158428786946 0.65709029563313581 0 0.87712158428786946 0.65709029563313581 0 0.92057473616084773 0.66770436535372446 0 0.91750694127105259 0.63017627779935648 0 0.87159648282691515 0.61285406320581504 0 0.87712158428786946 0.65709029563313581 0 0.91750694127105259 0.63017627779935648 0 0.84999999999999987 0.69999999999999996 0 0.87712158428786946 0.65709029563313581 0 0.89999999999999991 0.69999999999999996 0 0.87712158428786946 0.65709029563313581 0 0.92057473616084773 0.66770436535372446 0 0.89999999999999991 0.69999999999999996 0 0.92057473616084773 0.66770436535372446 0 0.91750694127105259 0.63017627779935648 0 0.9578014258160763 0.65787212321113708 0 0.84999999999999987 0.69999999999999996 0 0.89999166460796554 0.74528934923809909 0 0.89999999999999991 0.69999999999999996 0 0.89999999999999991 0.69999999999999996 0 0.94999999999999996 0.69999999999999996 0 0.92057473616084773 0.66770436535372446 0 0.89999999999999991 0.69999999999999996 0 0.94999999999999996 0.69999999999999996 0 0.89999166460796554 0.74528934923809909 0 0.89999999999999991 0.69999999999999996 0 0.94999999999999996 0.69999999999999996 0 0.94399509803918602 0.75600490196082126 0 0.89999166460796554 0.74528934923809909 0 0.94999999999999996 0.69999999999999996 0 0.94399509803918602 0.75600490196082126 0 0.94999999999999996 0.69999999999999996 0 0.97166519676947294 0.73337114490064459 0 0.94999999999999996 0.69999999999999996 0 1 0.69999999999999996 0 0.94999999999999996 0.69999999999999996 0 1 0.69999999999999996 0 0.97166519676947294 0.73337114490064459 0 1 0.69999999999999996 0 0.97166519676947294 0.73337114490064459 0 1 0.74999999999993494 0 0.91750694127105259 0.63017627779935648 0 0.9578014258160763 0.65787212321113708 0 0.95867599106212187 0.60011091146651041 0 0.92057473616084773 0.66770436535372446 0 0.94999999999999996 0.69999999999999996 0 0.9578014258160763 0.65787212321113708 0 0.94999999999999996 0.69999999999999996 0 1 0.69999999999999996 0 0.9578014258160763 0.65787212321113708 0 1 0.69999999999999996 0 0.9578014258160763 0.65787212321113708 0 1 0.64999999999986979 0 0.9578014258160763 0.65787212321113708 0 1 0.64999999999986979 0 0.95867599106212187 0.60011091146651041 0 0.95867599106212187 0.60011091146651041 0 0.93732437411268477 0.55911392101136159 0 1 0.54999999999963112 0 1 0.64999999999986979 0 1 0.59999999999973963 0 0.95867599106212187 0.60011091146651041 0 1 0.59999999999973963 0 0.95867599106212187 0.60011091146651041 0 1 0.54999999999963112 0 0.91750694127105259 0.63017627779935648 0 0.95867599106212187 0.60011091146651041 0 0.91143117093204207 0.58709913730335972 0 0.95867599106212187 0.60011091146651041 0 0.91143117093204207 0.58709913730335972 0 0.93732437411268477 0.55911392101136159 0 0.86956835336234861 0.571283299838105 0 0.91143117093204207 0.58709913730335972 0 0.90900154012161016 0.53607784105648792 0 0.87159648282691515 0.61285406320581504 0 0.86956835336234861 0.571283299838105 0 0.91143117093204207 0.58709913730335972 0 0.87159648282691515 0.61285406320581504 0 0.91750694127105259 0.63017627779935648 0 0.91143117093204207 0.58709913730335972 0 0.86907294890112186 0.52008116128001669 0 0.90900154012161016 0.53607784105648792 0 0.91696753777131557 0.497780560203536 0 0.86956835336234861 0.571283299838105 0 0.86907294890112186 0.52008116128001669 0 0.90900154012161016 0.53607784105648792 0 0.90900154012161016 0.53607784105648792 0 0.93732437411268477 0.55911392101136159 0 0.95631871884947484 0.51827533208233789 0 0.91143117093204207 0.58709913730335972 0 0.90900154012161016 0.53607784105648792 0 0.93732437411268477 0.55911392101136159 0 0.90900154012161016 0.53607784105648792 0 0.95631871884947484 0.51827533208233789 0 0.91696753777131557 0.497780560203536 0 0.93732437411268477 0.55911392101136159 0 0.95631871884947484 0.51827533208233789 0 1 0.54999999999963112 0 0.95631871884947484 0.51827533208233789 0 1 0.54999999999963112 0 1 0.49999999999950101 0 0.95631871884947484 0.51827533208233789 0 1 0.49999999999950101 0 0.96228564064454991 0.48206450662049471 0 1 0.49999999999950101 0 1 0.44999999999963131 0 0.96228564064454991 0.48206450662049471 0 1 0.44999999999963131 0 0.93814194660195893 0.44426664081746747 0 0.96228564064454991 0.48206450662049471 0 0.93814194660195893 0.44426664081746747 0 0.96228564064454991 0.48206450662049471 0 0.91696753777131557 0.497780560203536 0 0.95631871884947484 0.51827533208233789 0 0.96228564064454991 0.48206450662049471 0 0.91696753777131557 0.497780560203536 0 1 0.39999999999978308 0 0.95871855522754235 0.40006508612975411 0 1 0.34999999999993492 0 1 0.44999999999963131 0 1 0.39999999999978308 0 0.95871855522754235 0.40006508612975411 0 1 0.44999999999963131 0 0.93814194660195893 0.44426664081746747 0 0.95871855522754235 0.40006508612975411 0 0.95871855522754235 0.40006508612975411 0 0.90594285160987287 0.4141265964174129 0 0.91750694127107502 0.36982372220068471 0 0.93814194660195893 0.44426664081746747 0 0.95871855522754235 0.40006508612975411 0 0.90594285160987287 0.4141265964174129 0 0.90594285160987287 0.4141265964174129 0 0.88594198078881503 0.46167788676578442 0 0.86411095495256451 0.42388805655111889 0 0.90594285160987287 0.4141265964174129 0 0.86411095495256451 0.42388805655111889 0 0.86844634540301924 0.38530937474099819 0 0.90594285160987287 0.4141265964174129 0 0.86844634540301924 0.38530937474099819 0 0.91750694127107502 0.36982372220068471 0 0.93814194660195893 0.44426664081746747 0 0.91696753777131557 0.497780560203536 0 0.88594198078881503 0.46167788676578442 0 0.93814194660195893 0.44426664081746747 0 0.90594285160987287 0.4141265964174129 0 0.88594198078881503 0.46167788676578442 0 0.86907294890112186 0.52008116128001669 0 0.91696753777131557 0.497780560203536 0 0.88594198078881503 0.46167788676578442 0 0.86907294890112186 0.52008116128001669 0 0.88594198078881503 0.46167788676578442 0 0.84723782639812573 0.48638347960178252 0 0.81441713509985358 0.51161854125224959 0 0.84723782639812573 0.48638347960178252 0 0.81400510706333218 0.47357325943904899 0 0.84723782639812573 0.48638347960178252 0 0.81400510706333218 0.47357325943904899 0 0.84925632466077294 0.45359738909549091 0 0.81400510706333218 0.47357325943904899 0 0.84925632466077294 0.45359738909549091 0 0.81973119833356312 0.43505687159469048 0 0.88594198078881503 0.46167788676578442 0 0.84723782639812573 0.48638347960178252 0 0.84925632466077294 0.45359738909549091 0 0.84925632466077294 0.45359738909549091 0 0.86411095495256451 0.42388805655111889 0 0.81973119833356312 0.43505687159469048 0 0.88594198078881503 0.46167788676578442 0 0.84925632466077294 0.45359738909549091 0 0.86411095495256451 0.42388805655111889 0 0.86411095495256451 0.42388805655111889 0 0.86844634540301924 0.38530937474099819 0 0.81308179852519835 0.39754945808726527 0 0.86844634540301924 0.38530937474099819 0 0.81308179852519835 0.39754945808726527 0 0.83573492347052902 0.36590755630746369 0 0.86411095495256451 0.42388805655111889 0 0.81308179852519835 0.39754945808726527 0 0.81973119833356312 0.43505687159469048 0 0.81973119833356312 0.43505687159469048 0 0.77354604466818633 0.40378688774472771 0 0.77972660463949339 0.45529290596363098 0 0.81308179852519835 0.39754945808726527 0 0.81973119833356312 0.43505687159469048 0 0.77354604466818633 0.40378688774472771 0 0.81308179852519835 0.39754945808726527 0 0.77354604466818633 0.40378688774472771 0 0.78145581580700685 0.34881365920033602 0 0.77354604466818633 0.40378688774472771 0 0.77972660463949339 0.45529290596363098 0 0.73483647259922602 0.44789725365921768 0 0.77972660463949339 0.45529290596363098 0 0.73483647259922602 0.44789725365921768 0 0.73947346780852752 0.49062440112282169 0 0.77972660463949339 0.45529290596363098 0 0.77846603114747959 0.49850927265137401 0 0.73947346780852752 0.49062440112282169 0 0.81400510706333218 0.47357325943904899 0 0.77972660463949339 0.45529290596363098 0 0.77846603114747959 0.49850927265137401 0 0.81441713509985358 0.51161854125224959 0 0.81400510706333218 0.47357325943904899 0 0.77846603114747959 0.49850927265137401 0 0.81400510706333218 0.47357325943904899 0 0.81973119833356312 0.43505687159469048 0 0.77972660463949339 0.45529290596363098 0 0.79999999999999982 0.29999999999999999 0 0.77075983436335049 0.25919399014334171 0 0.81486180804364938 0.26321394949780091 0 0.79999999999999982 0.29999999999999999 0 0.74999999999999989 0.29999999999999999 0 0.79999999999999982 0.29999999999999999 0 0.77075983436335049 0.25919399014334171 0 0.74999999999999989 0.29999999999999999 0 0.79999999999999982 0.29999999999999999 0 0.78145581580700685 0.34881365920033602 0 0.74999999999999989 0.29999999999999999 0 0.78145581580700685 0.34881365920033602 0 0.73090396928863699 0.33699297293167962 0 0.74999999999999989 0.29999999999999999 0 0.77354604466818633 0.40378688774472771 0 0.78145581580700685 0.34881365920033602 0 0.74764719760526988 0.3719647154012321 0 0.78145581580700685 0.34881365920033602 0 0.74764719760526988 0.3719647154012321 0 0.73090396928863699 0.33699297293167962 0 0.81308179852519835 0.39754945808726527 0 0.78145581580700685 0.34881365920033602 0 0.83573492347052902 0.36590755630746369 0 0.79999999999999982 0.29999999999999999 0 0.78145581580700685 0.34881365920033602 0 0.82500000000000062 0.33010209762754811 0 0.78145581580700685 0.34881365920033602 0 0.82500000000000062 0.33010209762754811 0 0.83573492347052902 0.36590755630746369 0 0.82500000000000062 0.33010209762754811 0 0.83573492347052902 0.36590755630746369 0 0.87430060258887643 0.34056085888204451 0 0.86844634540301924 0.38530937474099819 0 0.83573492347052902 0.36590755630746369 0 0.87430060258887643 0.34056085888204451 0 0.82500000000000062 0.33010209762754811 0 0.87430060258887643 0.34056085888204451 0 0.84999999999999987 0.29999999999999999 0 0.87430060258887643 0.34056085888204451 0 0.84999999999999987 0.29999999999999999 0 0.89999999999999991 0.29999999999999999 0 0.84999999999999987 0.29999999999999999 0 0.81486180804364938 0.26321394949780091 0 0.8517097391133297 0.2356960729520409 0 0.84999999999999987 0.29999999999999999 0 0.89898474358614167 0.25391965591104898 0 0.8517097391133297 0.2356960729520409 0 0.84999999999999987 0.29999999999999999 0 0.89999999999999991 0.29999999999999999 0 0.79999999999999982 0.29999999999999999 0 0.82500000000000062 0.33010209762754811 0 0.84999999999999987 0.29999999999999999 0 0.79999999999999982 0.29999999999999999 0 0.84999999999999987 0.29999999999999999 0 0.81486180804364938 0.26321394949780091 0 0.79999999999999982 0.29999999999999999 0 0.84999999999999987 0.29999999999999999 0 0.84999999999999987 0.29999999999999999 0 0.89898474358614167 0.25391965591104898 0 0.89999999999999991 0.29999999999999999 0 0.89999999999999991 0.29999999999999999 0 0.94999999999999996 0.29999999999999999 0 0.89999999999999991 0.29999999999999999 0 0.92012390126144183 0.33123581297173937 0 0.94999999999999996 0.29999999999999999 0 0.89898474358614167 0.25391965591104898 0 0.89999999999999991 0.29999999999999999 0 0.94999999999999996 0.29999999999999999 0 0.89898474358614167 0.25391965591104898 0 0.94999999999999996 0.29999999999999999 0 0.94399509803921056 0.24399509803922639 0 0.86844634540301924 0.38530937474099819 0 0.87430060258887643 0.34056085888204451 0 0.91750694127107502 0.36982372220068471 0 0.87430060258887643 0.34056085888204451 0 0.92012390126144183 0.33123581297173937 0 0.91750694127107502 0.36982372220068471 0 0.87430060258887643 0.34056085888204451 0 0.89999999999999991 0.29999999999999999 0 0.92012390126144183 0.33123581297173937 0 0.92012390126144183 0.33123581297173937 0 0.91750694127107502 0.36982372220068471 0 0.95780851984364423 0.34215720972155339 0 0.95871855522754235 0.40006508612975411 0 0.91750694127107502 0.36982372220068471 0 0.95780851984364423 0.34215720972155339 0 0.92012390126144183 0.33123581297173937 0 0.95780851984364423 0.34215720972155339 0 0.94999999999999996 0.29999999999999999 0 0.95780851984364423 0.34215720972155339 0 0.94999999999999996 0.29999999999999999 0 1 0.29999999999999999 0 0.95780851984364423 0.34215720972155339 0 1 0.34999999999993492 0 1 0.29999999999999999 0 0.95871855522754235 0.40006508612975411 0 0.95780851984364423 0.34215720972155339 0 1 0.34999999999993492 0 0.94999999999999996 0.29999999999999999 0 0.97166519676951801 0.26662885509932011 0 0.94399509803921056 0.24399509803922639 0 0.94999999999999996 0.29999999999999999 0 1 0.29999999999999999 0 0.94999999999999996 0.29999999999999999 0 1 0.29999999999999999 0 0.97166519676951801 0.26662885509932011 0 1 0.29999999999999999 0 0.97166519676951801 0.26662885509932011 0 1 0.24999999999987299 0 0.97166519676951801 0.26662885509932011 0 0.97435614836740092 0.22499999999981049 0 1 0.24999999999987299 0 0.97435614836740092 0.22499999999981049 0 1 0.24999999999987299 0 1 0.19999999999974799 0 0.97435614836740092 0.22499999999981049 0 0.94399509803921056 0.24399509803922639 0 0.95391631417672862 0.19584263333809451 0 0.97166519676951801 0.26662885509932011 0 0.97435614836740092 0.22499999999981049 0 0.94399509803921056 0.24399509803922639 0 0.97435614836740092 0.22499999999981049 0 0.95391631417672862 0.19584263333809451 0 1 0.19999999999974799 0 0.95391631417672862 0.19584263333809451 0 1 0.14999999999961891 0 0.93677536231883773 0.14999999999999089 0 1 0.14999999999961891 0 0.93677536231883773 0.14999999999999089 0 0.95386563387744361 0.1041487415577465 0 0.95391631417672862 0.19584263333809451 0 1 0.19999999999974799 0 1 0.14999999999961891 0 0.95391631417672862 0.19584263333809451 0 0.93677536231883773 0.14999999999999089 0 0.90416666666668166 0.20416666666667119 0 0.93677536231883773 0.14999999999999089 0 0.88088768115941807 0.14674609810479519 0 0.90416666666668166 0.20416666666667119 0 0.93677536231883773 0.14999999999999089 0 0.88088768115941807 0.14674609810479519 0 0.90299850604006393 0.09563452813493091 0 0.88088768115941807 0.14674609810479519 0 0.90416666666668166 0.20416666666667119 0 0.85600844944842547 0.1848341897950983 0 0.89898474358614167 0.25391965591104898 0 0.90416666666668166 0.20416666666667119 0 0.8517097391133297 0.2356960729520409 0 0.89898474358614167 0.25391965591104898 0 0.94399509803921056 0.24399509803922639 0 0.90416666666668166 0.20416666666667119 0 0.94399509803921056 0.24399509803922639 0 0.95391631417672862 0.19584263333809451 0 0.90416666666668166 0.20416666666667119 0 0.94999999999986839 0 0 0.97166519676946894 0.033371144900598393 0 0.94399509803922566 0.056004901960802607 0 0.94999999999986839 0 0 1 0 0 0.97166519676946894 0.033371144900598393 0 1 0 0 1 0.049999999999896842 0 0.97166519676946894 0.033371144900598393 0 1 0.049999999999896842 0 0.97166519676946894 0.033371144900598393 0 0.97435614836748241 0.074999999999825387 0 0.97166519676946894 0.033371144900598393 0 0.94399509803922566 0.056004901960802607 0 0.97435614836748241 0.074999999999825387 0 0.94399509803922566 0.056004901960802607 0 0.97435614836748241 0.074999999999825387 0 0.95386563387744361 0.1041487415577465 0 0.97435614836748241 0.074999999999825387 0 1 0.099999999999753911 0 0.95386563387744361 0.1041487415577465 0 1 0.049999999999896842 0 0.97435614836748241 0.074999999999825387 0 1 0.099999999999753911 0 1 0.14999999999961891 0 1 0.099999999999753911 0 0.95386563387744361 0.1041487415577465 0 0.93677536231883773 0.14999999999999089 0 0.95386563387744361 0.1041487415577465 0 0.90299850604006393 0.09563452813493091 0 0.88088768115941807 0.14674609810479519 0 0.90299850604006393 0.09563452813493091 0 0.84725310900442086 0.10779732082922661 0 0.90299850604006393 0.09563452813493091 0 0.899991664607802 0.045289349238254978 0 0.85491058998398861 0.060047533455626502 0 0.94399509803922566 0.056004901960802607 0 0.95386563387744361 0.1041487415577465 0 0.90299850604006393 0.09563452813493091 0 0.94399509803922566 0.056004901960802607 0 0.90299850604006393 0.09563452813493091 0 0.899991664607802 0.045289349238254978 0 0.94999999999986839 0 0 0.94399509803922566 0.056004901960802607 0 0.899991664607802 0.045289349238254978 0 0.899991664607802 0.045289349238254978 0 0.89999999999973679 0 0 0.84999999999960507 0 0 0.94999999999986839 0 0 0.899991664607802 0.045289349238254978 0 0.89999999999973679 0 0 0.84999999999960507 0 0 0.81864958914740749 0.035890501779055867 0 0.79999999999947335 0 0 0.899991664607802 0.045289349238254978 0 0.84999999999960507 0 0 0.85491058998398861 0.060047533455626502 0 0.85491058998398861 0.060047533455626502 0 0.81864958914740749 0.035890501779055867 0 0.80185942888501827 0.074520613036224564 0 0.84999999999960507 0 0 0.85491058998398861 0.060047533455626502 0 0.81864958914740749 0.035890501779055867 0 0.85491058998398861 0.060047533455626502 0 0.84725310900442086 0.10779732082922661 0 0.80185942888501827 0.074520613036224564 0 0.90299850604006393 0.09563452813493091 0 0.85491058998398861 0.060047533455626502 0 0.84725310900442086 0.10779732082922661 0 0.84725310900442086 0.10779732082922661 0 0.80076557130237269 0.1154587552654202 0 0.80185942888501827 0.074520613036224564 0 0.84725310900442086 0.10779732082922661 0 0.80076557130237269 0.1154587552654202 0 0.82709327591102189 0.14937141670914489 0 0.80076557130237269 0.1154587552654202 0 0.76878382444651716 0.097147941686331368 0 0.80185942888501827 0.074520613036224564 0 0.76878382444651716 0.097147941686331368 0 0.77144070960558853 0.14311854477243749 0 0.72525833953073282 0.1032114801687094 0 0.80076557130237269 0.1154587552654202 0 0.76878382444651716 0.097147941686331368 0 0.77144070960558853 0.14311854477243749 0 0.76878382444651716 0.097147941686331368 0 0.80185942888501827 0.074520613036224564 0 0.7527966693318906 0.053051678021508272 0 0.81864958914740749 0.035890501779055867 0 0.80185942888501827 0.074520613036224564 0 0.78393852574753176 0.032039079577822822 0 0.80185942888501827 0.074520613036224564 0 0.78393852574753176 0.032039079577822822 0 0.7527966693318906 0.053051678021508272 0 0.78393852574753176 0.032039079577822822 0 0.7527966693318906 0.053051678021508272 0 0.74999999999934175 0 0 0.78393852574753176 0.032039079577822822 0 0.79999999999947335 0 0 0.74999999999934175 0 0 0.81864958914740749 0.035890501779055867 0 0.78393852574753176 0.032039079577822822 0 0.79999999999947335 0 0 0.81283102246527783 0.1881007222486438 0 0.8517097391133297 0.2356960729520409 0 0.79680861578956375 0.22656778056752541 0 0.81283102246527783 0.1881007222486438 0 0.8517097391133297 0.2356960729520409 0 0.85600844944842547 0.1848341897950983 0 0.81486180804364938 0.26321394949780091 0 0.8517097391133297 0.2356960729520409 0 0.79680861578956375 0.22656778056752541 0 0.90416666666668166 0.20416666666667119 0 0.8517097391133297 0.2356960729520409 0 0.85600844944842547 0.1848341897950983 0 0.88088768115941807 0.14674609810479519 0 0.85600844944842547 0.1848341897950983 0 0.82709327591102189 0.14937141670914489 0 0.88088768115941807 0.14674609810479519 0 0.84725310900442086 0.10779732082922661 0 0.82709327591102189 0.14937141670914489 0 0.81283102246527783 0.1881007222486438 0 0.85600844944842547 0.1848341897950983 0 0.82709327591102189 0.14937141670914489 0 0.81283102246527783 0.1881007222486438 0 0.77144070960558853 0.14311854477243749 0 0.76587607630038135 0.18880039518954719 0 0.81283102246527783 0.1881007222486438 0 0.82709327591102189 0.14937141670914489 0 0.77144070960558853 0.14311854477243749 0 0.80076557130237269 0.1154587552654202 0 0.82709327591102189 0.14937141670914489 0 0.77144070960558853 0.14311854477243749 0 0.77144070960558853 0.14311854477243749 0 0.76587607630038135 0.18880039518954719 0 0.72634814642510737 0.16106886917518889 0 0.76587607630038135 0.18880039518954719 0 0.79680861578956375 0.22656778056752541 0 0.75668890529066124 0.2244279804069782 0 0.81283102246527783 0.1881007222486438 0 0.76587607630038135 0.18880039518954719 0 0.79680861578956375 0.22656778056752541 0 0.77075983436335049 0.25919399014334171 0 0.81486180804364938 0.26321394949780091 0 0.79680861578956375 0.22656778056752541 0 0.77075983436335049 0.25919399014334171 0 0.79680861578956375 0.22656778056752541 0 0.75668890529066124 0.2244279804069782 0 0.77075983436335049 0.25919399014334171 0 0.75668890529066124 0.2244279804069782 0 0.72500000000000064 0.2498161764706 0 0.75668890529066124 0.2244279804069782 0 0.72500000000000064 0.2498161764706 0 0.72500000000001008 0.19776155966387679 0 0.72500000000000064 0.2498161764706 0 0.69397719155551807 0.2245125647000914 0 0.72500000000001008 0.19776155966387679 0 0.72500000000000064 0.2498161764706 0 0.69397719155551807 0.2245125647000914 0 0.67933712972090698 0.25920070958121938 0 0.69397719155551807 0.2245125647000914 0 0.72500000000001008 0.19776155966387679 0 0.6865991819015953 0.189116534044597 0 0.76587607630038135 0.18880039518954719 0 0.75668890529066124 0.2244279804069782 0 0.72500000000001008 0.19776155966387679 0 0.76587607630038135 0.18880039518954719 0 0.72500000000001008 0.19776155966387679 0 0.72634814642510737 0.16106886917518889 0 0.77144070960558853 0.14311854477243749 0 0.72634814642510737 0.16106886917518889 0 0.72525833953073282 0.1032114801687094 0 0.72634814642510737 0.16106886917518889 0 0.68391457121233579 0.14440470121196541 0 0.72525833953073282 0.1032114801687094 0 0.72500000000001008 0.19776155966387679 0 0.72634814642510737 0.16106886917518889 0 0.6865991819015953 0.189116534044597 0 0.72634814642510737 0.16106886917518889 0 0.68391457121233579 0.14440470121196541 0 0.6865991819015953 0.189116534044597 0 0.68391457121233579 0.14440470121196541 0 0.64011864159029941 0.18789607982138171 0 0.6865991819015953 0.189116534044597 0 0.68391457121233579 0.14440470121196541 0 0.65290632656860115 0.11434202593454081 0 0.6236733212988993 0.14864538214901801 0 0.68391457121233579 0.14440470121196541 0 0.64011864159029941 0.18789607982138171 0 0.6236733212988993 0.14864538214901801 0 0.64011864159029941 0.18789607982138171 0 0.65394964615507722 0.22666784374016369 0 0.59814117807200873 0.23398510860739519 0 0.65394964615507722 0.22666784374016369 0 0.59814117807200873 0.23398510860739519 0 0.62657463266645097 0.26524202571255862 0 0.69397719155551807 0.2245125647000914 0 0.65394964615507722 0.22666784374016369 0 0.67933712972090698 0.25920070958121938 0 0.64011864159029941 0.18789607982138171 0 0.65394964615507722 0.22666784374016369 0 0.6865991819015953 0.189116534044597 0 0.69397719155551807 0.2245125647000914 0 0.65394964615507722 0.22666784374016369 0 0.6865991819015953 0.189116534044597 0 0.69999999999921003 0 0 0.72683645290270404 0.027797073151180601 0 0.7010294155333181 0.056779085686491267 0 0.69999999999921003 0 0 0.7010294155333181 0.056779085686491267 0 0.66369801598854572 0.036327466368102787 0 0.7527966693318906 0.053051678021508272 0 0.74999999999934175 0 0 0.72683645290270404 0.027797073151180601 0 0.69999999999921003 0 0 0.74999999999934175 0 0 0.72683645290270404 0.027797073151180601 0 0.7527966693318906 0.053051678021508272 0 0.72683645290270404 0.027797073151180601 0 0.7010294155333181 0.056779085686491267 0 0.7010294155333181 0.056779085686491267 0 0.72525833953073282 0.1032114801687094 0 0.68330259535470161 0.10038702501083881 0 0.7527966693318906 0.053051678021508272 0 0.7010294155333181 0.056779085686491267 0 0.72525833953073282 0.1032114801687094 0 0.76878382444651716 0.097147941686331368 0 0.7527966693318906 0.053051678021508272 0 0.72525833953073282 0.1032114801687094 0 0.68391457121233579 0.14440470121196541 0 0.72525833953073282 0.1032114801687094 0 0.68330259535470161 0.10038702501083881 0 0.68330259535470161 0.10038702501083881 0 0.65290632656860115 0.11434202593454081 0 0.65408113592120842 0.073941773121567966 0 0.68391457121233579 0.14440470121196541 0 0.68330259535470161 0.10038702501083881 0 0.65290632656860115 0.11434202593454081 0 0.65290632656860115 0.11434202593454081 0 0.61956000905586006 0.1043312481793135 0 0.6236733212988993 0.14864538214901801 0 0.65290632656860115 0.11434202593454081 0 0.65408113592120842 0.073941773121567966 0 0.61956000905586006 0.1043312481793135 0 0.65408113592120842 0.073941773121567966 0 0.61940220174112337 0.047251958781050582 0 0.61956000905586006 0.1043312481793135 0 0.7010294155333181 0.056779085686491267 0 0.68330259535470161 0.10038702501083881 0 0.65408113592120842 0.073941773121567966 0 0.7010294155333181 0.056779085686491267 0 0.65408113592120842 0.073941773121567966 0 0.66369801598854572 0.036327466368102787 0 0.65408113592120842 0.073941773121567966 0 0.66369801598854572 0.036327466368102787 0 0.61940220174112337 0.047251958781050582 0 0.66369801598854572 0.036327466368102787 0 0.64999999999907843 0 0 0.61940220174112337 0.047251958781050582 0 0.69999999999921003 0 0 0.66369801598854572 0.036327466368102787 0 0.64999999999907843 0 0 0.59999999999894682 0 0 0.57396793757665954 0.037011367187645222 0 0.5499999999988151 0 0 0.64999999999907843 0 0 0.59999999999894682 0 0 0.61940220174112337 0.047251958781050582 0 0.59999999999894682 0 0 0.61940220174112337 0.047251958781050582 0 0.57396793757665954 0.037011367187645222 0 0.61940220174112337 0.047251958781050582 0 0.57396793757665954 0.037011367187645222 0 0.57667858002728545 0.078486105337742612 0 0.61940220174112337 0.047251958781050582 0 0.57667858002728545 0.078486105337742612 0 0.61956000905586006 0.1043312481793135 0 0.61956000905586006 0.1043312481793135 0 0.58516465772821369 0.11653801664834119 0 0.6236733212988993 0.14864538214901801 0 0.57667858002728545 0.078486105337742612 0 0.61956000905586006 0.1043312481793135 0 0.58516465772821369 0.11653801664834119 0 0.58516465772821369 0.11653801664834119 0 0.54979595918804436 0.1060565713905809 0 0.56202748619534593 0.15054058349222879 0 0.57667858002728545 0.078486105337742612 0 0.58516465772821369 0.11653801664834119 0 0.54979595918804436 0.1060565713905809 0 0.54979595918804436 0.1060565713905809 0 0.51076801031701946 0.1202837388510348 0 0.52375890611712683 0.059318771819432882 0 0.47881186583059909 0.093591717165689425 0 0.51076801031701946 0.1202837388510348 0 0.52375890611712683 0.059318771819432882 0 0.57667858002728545 0.078486105337742612 0 0.54979595918804436 0.1060565713905809 0 0.52375890611712683 0.059318771819432882 0 0.57396793757665954 0.037011367187645222 0 0.52375890611712683 0.059318771819432882 0 0.5499999999988151 0 0 0.57396793757665954 0.037011367187645222 0 0.57667858002728545 0.078486105337742612 0 0.52375890611712683 0.059318771819432882 0 0.49999999999869432 0 0 0.52375890611712683 0.059318771819432882 0 0.5499999999988151 0 0 0.59814117807200873 0.23398510860739519 0 0.59443395090188023 0.18455690917515069 0 0.55306006949600994 0.20198184231352201 0 0.59814117807200873 0.23398510860739519 0 0.55306006949600994 0.20198184231352201 0 0.54248833945060504 0.2520322959927106 0 0.64011864159029941 0.18789607982138171 0 0.59814117807200873 0.23398510860739519 0 0.59443395090188023 0.18455690917515069 0 0.64011864159029941 0.18789607982138171 0 0.59443395090188023 0.18455690917515069 0 0.6236733212988993 0.14864538214901801 0 0.58516465772821369 0.11653801664834119 0 0.6236733212988993 0.14864538214901801 0 0.56202748619534593 0.15054058349222879 0 0.59443395090188023 0.18455690917515069 0 0.6236733212988993 0.14864538214901801 0 0.56202748619534593 0.15054058349222879 0 0.59443395090188023 0.18455690917515069 0 0.56202748619534593 0.15054058349222879 0 0.55306006949600994 0.20198184231352201 0 0.56202748619534593 0.15054058349222879 0 0.51729576145820033 0.1683240575987815 0 0.55306006949600994 0.20198184231352201 0 0.54979595918804436 0.1060565713905809 0 0.51076801031701946 0.1202837388510348 0 0.56202748619534593 0.15054058349222879 0 0.48466639505193998 0.1421439844745814 0 0.51076801031701946 0.1202837388510348 0 0.51729576145820033 0.1683240575987815 0 0.51076801031701946 0.1202837388510348 0 0.56202748619534593 0.15054058349222879 0 0.51729576145820033 0.1683240575987815 0 0.51729576145820033 0.1683240575987815 0 0.50760557329222289 0.20700468884612061 0 0.55306006949600994 0.20198184231352201 0 0.50760557329222289 0.20700468884612061 0 0.55306006949600994 0.20198184231352201 0 0.54248833945060504 0.2520322959927106 0 0.49695729691142171 0.25014895411178018 0 0.50760557329222289 0.20700468884612061 0 0.54248833945060504 0.2520322959927106 0 0.49695729691142171 0.25014895411178018 0 0.5 0.29999999999999999 0 0.54248833945060504 0.2520322959927106 0 0.5 0.29999999999999999 0 0.54999999999999993 0.29999999999999999 0 0.52752007115234678 0.33170632466418198 0 0.5 0.29999999999999999 0 0.54999999999999993 0.29999999999999999 0 0.54248833945060504 0.2520322959927106 0 0.5 0.29999999999999999 0 0.54999999999999993 0.29999999999999999 0 0.54999999999999993 0.29999999999999999 0 0.54248833945060504 0.2520322959927106 0 0.5794309697024993 0.27124795968204829 0 0.59814117807200873 0.23398510860739519 0 0.54248833945060504 0.2520322959927106 0 0.5794309697024993 0.27124795968204829 0 0.54999999999999993 0.29999999999999999 0 0.59999999999999976 0.29999999999999999 0 0.54999999999999993 0.29999999999999999 0 0.5794309697024993 0.27124795968204829 0 0.59999999999999976 0.29999999999999999 0 0.59999999999999976 0.29999999999999999 0 0.6499999999999998 0.29999999999999999 0 0.5794309697024993 0.27124795968204829 0 0.59999999999999976 0.29999999999999999 0 0.62657463266645097 0.26524202571255862 0 0.59814117807200873 0.23398510860739519 0 0.5794309697024993 0.27124795968204829 0 0.62657463266645097 0.26524202571255862 0 0.61959173890754571 0.33832250091341232 0 0.56836770495988642 0.3523062350852913 0 0.6084546825910605 0.37989672713932537 0 0.59999999999999976 0.29999999999999999 0 0.61959173890754571 0.33832250091341232 0 0.6499999999999998 0.29999999999999999 0 0.59999999999999976 0.29999999999999999 0 0.61959173890754571 0.33832250091341232 0 0.56836770495988642 0.3523062350852913 0 0.54999999999999993 0.29999999999999999 0 0.59999999999999976 0.29999999999999999 0 0.56836770495988642 0.3523062350852913 0 0.56836770495988642 0.3523062350852913 0 0.52752007115234678 0.33170632466418198 0 0.52289427570932567 0.3932284363388488 0 0.54999999999999993 0.29999999999999999 0 0.56836770495988642 0.3523062350852913 0 0.52752007115234678 0.33170632466418198 0 0.49077833859261139 0.35229981449445641 0 0.5 0.29999999999999999 0 0.52752007115234678 0.33170632466418198 0 0.49077833859261139 0.35229981449445641 0 0.52752007115234678 0.33170632466418198 0 0.52289427570932567 0.3932284363388488 0 0.56836770495988642 0.3523062350852913 0 0.52289427570932567 0.3932284363388488 0 0.57744073070774993 0.41535148636609359 0 0.52289427570932567 0.3932284363388488 0 0.53823865529665704 0.45873898050322898 0 0.57744073070774993 0.41535148636609359 0 0.48858720058566618 0.43964267759203868 0 0.52289427570932567 0.3932284363388488 0 0.53823865529665704 0.45873898050322898 0 0.49102375406324739 0.49123754822244059 0 0.53330375813596242 0.50827942741749099 0 0.53823865529665704 0.45873898050322898 0 0.49102375406324739 0.49123754822244059 0 0.48858720058566618 0.43964267759203868 0 0.53823865529665704 0.45873898050322898 0 0.53330375813596242 0.50827942741749099 0 0.57611405284611883 0.50165903596042916 0 0.53823865529665704 0.45873898050322898 0 0.57611405284611883 0.50165903596042916 0 0.57975577671020095 0.46172033326338591 0 0.61547661924074692 0.48539576058873962 0 0.57611405284611883 0.50165903596042916 0 0.53823865529665704 0.45873898050322898 0 0.57975577671020095 0.46172033326338591 0 0.57975577671020095 0.46172033326338591 0 0.61209567303293111 0.44669033081290321 0 0.57744073070774993 0.41535148636609359 0 0.53823865529665704 0.45873898050322898 0 0.57975577671020095 0.46172033326338591 0 0.57744073070774993 0.41535148636609359 0 0.57975577671020095 0.46172033326338591 0 0.61209567303293111 0.44669033081290321 0 0.61547661924074692 0.48539576058873962 0 0.56836770495988642 0.3523062350852913 0 0.57744073070774993 0.41535148636609359 0 0.6084546825910605 0.37989672713932537 0 0.61209567303293111 0.44669033081290321 0 0.57744073070774993 0.41535148636609359 0 0.63912439215427275 0.41063340167983359 0 0.57744073070774993 0.41535148636609359 0 0.6084546825910605 0.37989672713932537 0 0.63912439215427275 0.41063340167983359 0 0.6084546825910605 0.37989672713932537 0 0.63912439215427275 0.41063340167983359 0 0.65481233915350323 0.35652751921065562 0 0.63912439215427275 0.41063340167983359 0 0.65178832218679827 0.45929119821019959 0 0.6879972333610942 0.43038561374960838 0 0.63912439215427275 0.41063340167983359 0 0.68128176404677243 0.38629093627004979 0 0.6879972333610942 0.43038561374960838 0 0.63912439215427275 0.41063340167983359 0 0.68128176404677243 0.38629093627004979 0 0.65481233915350323 0.35652751921065562 0 0.61547661924074692 0.48539576058873962 0 0.6541250972820879 0.49999999999999989 0 0.65178832218679827 0.45929119821019959 0 0.61209567303293111 0.44669033081290321 0 0.61547661924074692 0.48539576058873962 0 0.65178832218679827 0.45929119821019959 0 0.61209567303293111 0.44669033081290321 0 0.63912439215427275 0.41063340167983359 0 0.65178832218679827 0.45929119821019959 0 0.65178832218679827 0.45929119821019959 0 0.69385896817107129 0.48377516041410151 0 0.6879972333610942 0.43038561374960838 0 0.6541250972820879 0.49999999999999989 0 0.65178832218679827 0.45929119821019959 0 0.69385896817107129 0.48377516041410151 0 0.7152569930854884 0.5237994455134295 0 0.69385896817107129 0.48377516041410151 0 0.73947346780852752 0.49062440112282169 0 0.69385896817107129 0.48377516041410151 0 0.73483647259922602 0.44789725365921768 0 0.6879972333610942 0.43038561374960838 0 0.69385896817107129 0.48377516041410151 0 0.73483647259922602 0.44789725365921768 0 0.73947346780852752 0.49062440112282169 0 0.68128176404677243 0.38629093627004979 0 0.72622533758026719 0.40265885511101601 0 0.71508799138962864 0.36622814920737751 0 0.73483647259922602 0.44789725365921768 0 0.6879972333610942 0.43038561374960838 0 0.72622533758026719 0.40265885511101601 0 0.68128176404677243 0.38629093627004979 0 0.6879972333610942 0.43038561374960838 0 0.72622533758026719 0.40265885511101601 0 0.77354604466818633 0.40378688774472771 0 0.73483647259922602 0.44789725365921768 0 0.72622533758026719 0.40265885511101601 0 0.72622533758026719 0.40265885511101601 0 0.74764719760526988 0.3719647154012321 0 0.71508799138962864 0.36622814920737751 0 0.77354604466818633 0.40378688774472771 0 0.72622533758026719 0.40265885511101601 0 0.74764719760526988 0.3719647154012321 0 0.74764719760526988 0.3719647154012321 0 0.71508799138962864 0.36622814920737751 0 0.73090396928863699 0.33699297293167962 0 0.71508799138962864 0.36622814920737751 0 0.68887083591306764 0.33632058575757479 0 0.73090396928863699 0.33699297293167962 0 0.68128176404677243 0.38629093627004979 0 0.71508799138962864 0.36622814920737751 0 0.68887083591306764 0.33632058575757479 0 0.68887083591306764 0.33632058575757479 0 0.73090396928863699 0.33699297293167962 0 0.69999999999999984 0.29999999999999999 0 0.72500000000000064 0.2498161764706 0 0.74999999999999989 0.29999999999999999 0 0.69999999999999984 0.29999999999999999 0 0.74999999999999989 0.29999999999999999 0 0.69999999999999984 0.29999999999999999 0 0.73090396928863699 0.33699297293167962 0 0.74999999999999989 0.29999999999999999 0 0.69999999999999984 0.29999999999999999 0 0.77075983436335049 0.25919399014334171 0 0.72500000000000064 0.2498161764706 0 0.74999999999999989 0.29999999999999999 0 0.72500000000000064 0.2498161764706 0 0.69999999999999984 0.29999999999999999 0 0.67933712972090698 0.25920070958121938 0 0.69999999999999984 0.29999999999999999 0 0.67933712972090698 0.25920070958121938 0 0.6499999999999998 0.29999999999999999 0 0.68887083591306764 0.33632058575757479 0 0.69999999999999984 0.29999999999999999 0 0.6499999999999998 0.29999999999999999 0 0.69999999999999984 0.29999999999999999 0 0.6499999999999998 0.29999999999999999 0 0.67933712972090698 0.25920070958121938 0 0.62657463266645097 0.26524202571255862 0 0.6499999999999998 0.29999999999999999 0 0.65394964615507722 0.22666784374016369 0 0.67933712972090698 0.25920070958121938 0 0.62657463266645097 0.26524202571255862 0 0.59999999999999976 0.29999999999999999 0 0.62657463266645097 0.26524202571255862 0 0.6499999999999998 0.29999999999999999 0 0.61959173890754571 0.33832250091341232 0 0.6499999999999998 0.29999999999999999 0 0.65481233915350323 0.35652751921065562 0 0.61959173890754571 0.33832250091341232 0 0.6084546825910605 0.37989672713932537 0 0.65481233915350323 0.35652751921065562 0 0.68128176404677243 0.38629093627004979 0 0.68887083591306764 0.33632058575757479 0 0.65481233915350323 0.35652751921065562 0 0.68887083591306764 0.33632058575757479 0 0.6499999999999998 0.29999999999999999 0 0.65481233915350323 0.35652751921065562 0 
</DataArray>
</Points>
<Cells>
<DataArray type="UInt32" Name="connectivity" format="ascii">
0 1 2 3 4 5 6 7 8 9 10 11 12 13 14 15 16 17 18 19 20 21 22 23 24 25 26 27 28 29 30 31 32 33 34 35 36 37 38 39 40 41 42 43 44 45 46 47 48 49 50 51 52 53 54 55 56 57 58 59 60 61 62 63 64 65 66 67 68 69 70 71 72 73 74 75 76 77 78 79 80 81 82 83 84 85 86 87 88 89 90 91 92 93 94 95 96 97 98 99 100 101 102 103 104 105 106 107 108 109 110 111 112 113 114 115 116 117 118 119 120 121 122 123 124 125 126 127 128 129 130 131 132 133 134 135 136 137 138 139 140 141 142 143 144 145 146 147 148 149 150 151 152 153 154 155 156 157 158 159 160 161 162 163 164 165 166 167 168 169 170 171 172 173 174 175 176 177 178 179 180 181 182 183 184 185 186 187 188 189 190 191 192 193 194 195 196 197 198 199 200 201 202 203 204 205 206 207 208 209 210 211 212 213 214 215 216 217 218 219 220 221 222 223 224 225 226 227 228 229 230 231 232 233 234 235 236 237 238 239 240 241 242 243 244 245 246 247 248 249 250 251 252 253 254 255 256 257 258 259 260 261 262 263 264 265 266 267 268 269 270 271 272 273 274 275 276 277 278 279 280 281 282 283 284 285 286 287 288 289 290 291 292 293 294 295 296 297 298 299 300 301 302 303 304 305 306 307 308 309 310 311 312 313 314 315 316 317 318 319 320 321 322 323 324 325 326 327 328 329 330 331 332 333 334 335 336 337 338 339 340 341 342 343 344 345 346 347 348 349 350 351 352 353 354 355 356 357 358 359 360 361 362 363 364 365 366 367 368 369 370 371 372 373 374 375 376 377 378 379 380 381 382 383 384 385 386 387 388 389 390 391 392 393 394 395 396 397 398 399 400 401 402 403 404 405 406 407 408 409 410 411 412 413 414 415 416 417 418 419 420 421 422 423 424 425 426 427 428 429 430 431 432 433 434 435 436 437 438 439 440 441 442 443 444 445 446 447 448 449 450 451 452 453 454 455 456 457 458 459 460 461 462 463 464 465 466 467 468 469 470 471 472 473 474 475 476 477 478 479 480 481 482 483 484 485 486 487 488 489 490 491 492 493 494 495 496 497 498 499 500 501 502 503 504 505 506 507 508 509 510 511 512 513 514 515 516 517 518 519 520 521 522 523 524 525 526 527 528 529 530 531 532 533 534 535 536 537 538 539 540 541 542 543 544 545 546 547 548 549 550 551 552 553 554 555 556 557 558 559 560 561 562 563 564 565 566 567 568 569 570 571 572 573 574 575 576 577 578 579 580 581 582 583 584 585 586 587 588 589 590 591 592 593 594 595 596 597 598 599 600 601 602 603 604 605 606 607 608 609 610 611 612 613 614 615 616 617 618 619 620 621 622 623 624 625 626 627 628 629 630 631 632 633 634 635 636 637 638 639 640 641 642 643 644 645 646 647 648 649 650 651 652 653 654 655 656 657 658 659 660 661 662 663 664 665 666 667 668 669 670 671 672 673 674 675 676 677 678 679 680 681 682 683 684 685 686 687 688 689 690 691 692 693 694 695 696 697 698 699 700 701 702 703 704 705 706 707 708 709 710 711 712 713 714 715 716 717 718 719 720 721 722 723 724 725 726 727 728 729 730 731 732 733 734 735 736 737 738 739 740 741 742 743 744 745 746 747 748 749 750 751 752 753 754 755 756 757 758 759 760 761 762 763 764 765 766 767 768 769 770 771 772 773 774 775 776 777 778 779 780 781 782 783 784 785 786 787 788 789 790 791 792 793 794 795 796 797 798 799 800 801 802 803 804 805 806 807 808 809 810 811 812 813 814 815 816 817 818 819 820 821 822 823 824 825 826 827 828 829 830 831 832 833 834 835 836 837 838 839 840 841 842 843 844 845 846 847 848 849 850 851 852 853 854 855 856 857 858 859 860 861 862 863 864 865 866 867 868 869 870 871 872 873 874 875 876 877 878 879 880 881 882 883 884 885 886 887 888 889 890 891 892 893 894 895 896 897 898 899 900 901 902 903 904 905 906 907 908 909 910 911 912 913 914 915 916 917 918 919 920 921 922 923 924 925 926 927 928 929 930 931 932 933 934 935 936 937 938 939 940 941 942 943 944 945 946 947 948 949 950 951 952 953 954 955 956 957 958 959 960 961 962 963 964 965 966 967 968 969 970 971 972 973 974 975 976 977 978 979 980 981 982 983 984 985 986 987 988 989 990 991 992 993 994 995 996 997 998 999 1000 1001 1002 1003 1004 1005 1006 1007 1008 1009 1010 1011 1012 1013 1014 1015 1016 1017 1018 1019 1020 1021 1022 1023 1024 1025 1026 1027 1028 1029 1030 1031 1032 1033 1034 1035 1036 1037 1038 1039 1040 1041 1042 1043 1044 1045 1046 1047 1048 1049 1050 1051 1052 1053 1054 1055 1056 1057 1058 1059 1060 1061 1062 1063 1064 1065 1066 1067 1068 1069 1070 1071 1072 1073 1074 1075 1076 1077 1078 1079 1080 1081 1082 1083 1084 1085 1086 1087 1088 1089 1090 1091 1092 1093 1094 1095 1096 1097 1098 1099 1100 1101 1102 1103 1104 1105 1106 1107 1108 1109 1110 1111 1112 1113 1114 1115 1116 1117 1118 1119 1120 1121 1122 1123 1124 1125 1126 1127 1128 1129 1130 1131 1132 1133 1134 1135 1136 1137 1138 1139 1140 1141 1142 1143 1144 1145 1146 1147 1148 1149 1150 1151 1152 1153 1154 1155 1156 1157 1158 1159 1160 1161 1162 1163 1164 1165 1166 1167 1168 1169 1170 1171 1172 1173 1174 1175 1176 1177 1178 1179 1180 1181 1182 1183 1184 1185 1186 1187 1188 1189 1190 1191 1192 1193 1194 1195 1196 1197 1198 1199 1200 1201 1202 1203 1204 1205 1206 1207 1208 1209 1210 1211 1212 1213 1214 1215 1216 1217 1218 1219 1220 1221 1222 1223 1224 1225 1226 1227 1228 1229 1230 1231 1232 1233 1234 1235 1236 1237 1238 1239 1240 1241 1242 1243 1244 1245 1246 1247 1248 1249 1250 1251 1252 1253 1254 1255 1256 1257 1258 1259 1260 1261 1262 1263 1264 1265 1266 1267 1268 1269 1270 1271 1272 1273 1274 1275 1276 1277 1278 1279 1280 1281 1282 1283 1284 1285 1286 1287 1288 1289 1290 1291 1292 1293 1294 1295 1296 1297 1298 1299 1300 1301 1302 1303 1304 1305 1306 1307 1308 1309 1310 1311 1312 1313 1314 1315 1316 1317 1318 1319 1320 1321 1322 1323 1324 1325 1326 1327 1328 1329 1330 1331 1332 1333 1334 1335 1336 1337 1338 1339 1340 1341 1342 1343 1344 1345 1346 1347 1348 1349 1350 1351 1352 1353 1354 1355 1356 1357 1358 1359 1360 1361 1362 1363 1364 1365 1366 1367 1368 1369 1370 1371 1372 1373 1374 1375 1376 1377 1378 1379 1380 1381 1382 1383 1384 1385 1386 1387 1388 1389 1390 1391 1392 1393 1394 1395 1396 1397 1398 1399 1400 1401 1402 1403 1404 1405 1406 1407 1408 1409 1410 1411 1412 1413 1414 1415 1416 1417 1418 1419 1420 1421 1422 1423 1424 1425 1426 1427 1428 1429 1430 1431 1432 1433 1434 1435 1436 1437 1438 1439 1440 1441 1442 1443 1444 1445 1446 1447 1448 1449 1450 1451 1452 1453 1454 1455 1456 1457 1458 1459 1460 1461 1462 1463 1464 1465 1466 1467 1468 1469 1470 1471 1472 1473 1474 1475 1476 1477 1478 1479 1480 1481 1482 1483 1484 1485 1486 1487 1488 1489 1490 1491 1492 1493 1494 1495 1496 1497 1498 1499 1500 1501 1502 1503 1504 1505 1506 1507 1508 1509 1510 1511 1512 1513 1514 1515 1516 1517 1518 1519 1520 1521 1522 1523 1524 1525 1526 1527 1528 1529 1530 1531 1532 1533 1534 1535 1536 1537 1538 1539 1540 1541 1542 1543 1544 1545 1546 1547 1548 1549 1550 1551 1552 1553 1554 1555 1556 1557 1558 1559 1560 1561 1562 1563 1564 1565 1566 1567 1568 1569 1570 1571 1572 1573 1574 1575 1576 1577 1578 1579 1580 1581 1582 1583 1584 1585 1586 1587 1588 1589 1590 1591 1592 1593 1594 1595 1596 1597 1598 1599 1600 1601 1602 1603 1604 1605 1606 1607 1608 1609 1610 1611 1612 1613 1614 1615 1616 1617 1618 1619 1620 1621 1622 1623 1624 1625 1626 1627 1628 1629 1630 1631 1632 1633 1634 1635 1636 1637 1638 1639 1640 1641 1642 1643 1644 1645 1646 1647 1648 1649 1650 1651 1652 1653 1654 1655 1656 1657 1658 1659 1660 1661 1662 1663 1664 1665 1666 1667 1668 1669 1670 1671 1672 1673 1674 1675 1676 1677 1678 1679 1680 1681 1682 1683 1684 1685 1686 1687 1688 1689 1690 1691 1692 1693 1694 1695 1696 1697 1698 1699 1700 1701 1702 1703 1704 1705 1706 1707 1708 1709 1710 1711 1712 1713 1714 1715 1716 1717 1718 1719 1720 1721 1722 1723 1724 1725 1726 1727 1728 1729 1730 1731 1732 1733 1734 1735 1736 1737 1738 1739 1740 1741 1742 1743 1744 1745 1746 1747 1748 1749 1750 1751 1752 1753 1754 1755 1756 1757 1758 1759 1760 1761 1762 1763 1764 1765 1766 1767 1768 1769 1770 1771 1772 1773 1774 1775 1776 1777 1778 1779 1780 1781 1782 1783 1784 1785 1786 1787 1788 1789 1790 1791 1792 1793 1794 1795 1796 1797 1798 1799 1800 1801 1802 1803 1804 1805 1806 1807 1808 1809 1810 1811 1812 1813 1814 1815 1816 1817 1818 1819 1820 1821 1822 1823 1824 1825 1826 1827 1828 1829 1830 1831 1832 1833 1834 1835 1836 1837 1838 1839 1840 1841 1842 1843 1844 1845 1846 1847 1848 1849 1850 1851 1852 1853 1854 1855 1856 1857 1858 1859 1860 1861 1862 1863 1864 1865 1866 1867 1868 1869 1870 1871 1872 1873 1874 1875 1876 1877 1878 1879 1880 1881 1882 1883 1884 1885 1886 1887 1888 1889 1890 1891 1892 1893 1894 1895 1896 1897 1898 1899 1900 1901 1902 1903 1904 1905 1906 1907 1908 1909 1910 1911 1912 1913 1914 1915 1916 1917 1918 1919 1920 1921 1922 1923 1924 1925 1926 1927 1928 1929 1930 1931 1932 1933 1934 1935 1936 1937 1938 1939 1940 1941 1942 1943 1944 1945 1946 1947 1948 1949 1950 1951 1952 1953 1954 1955 1956 1957 1958 1959 1960 1961 1962 1963 1964 1965 1966 1967 1968 1969 1970 1971 1972 1973 1974 1975 1976 1977 1978 1979 1980 1981 1982 1983 1984 1985 1986 1987 1988 1989 1990 1991 1992 1993 1994 1995 1996 1997 1998 1999 2000 2001 2002 2003 2004 2005 2006 2007 2008 2009 2010 2011 2012 2013 2014 2015 2016 2017 2018 2019 2020 2021 2022 2023 2024 2025 2026 2027 2028 2029 2030 2031 2032 2033 2034 2035 2036 2037 2038 2039 2040 2041 2042 2043 2044 2045 2046 2047 2048 2049 2050 2051 2052 2053 2054 2055 2056 2057 2058 2059 2060 2061 2062 2063 2064 2065 2066 2067 2068 2069 2070 2071 2072 2073 2074 2075 2076 2077 2078 2079 2080 2081 2082 2083 2084 2085 2086 2087 2088 2089 2090 2091 2092 2093 2094 2095 2096 2097 2098 2099 2100 2101 2102 2103 2104 2105 2106 2107 2108 2109 2110 2111 2112 2113 2114 2115 2116 2117 2118 2119 2120 2121 2122 2123 2124 2125 2126 2127 2128 2129 2130 2131 2132 2133 2134 2135 2136 2137 2138 2139 2140 2141 2142 2143 2144 2145 2146 2147 2148 2149 2150 2151 2152 2153 2154 2155 2156 2157 2158 2159 2160 2161 2162 2163 2164 2165 2166 2167 2168 2169 2170 2171 2172 2173 2174 2175 2176 2177 2178 2179 2180 2181 2182 2183 2184 2185 2186 2187 2188 2189 2190 2191 2192 2193 2194 2195 2196 2197 2198 2199 2200 2201 2202 2203 2204 2205 2206 2207 2208 2209 2210 2211 2212 2213 2214 2215 2216 2217 2218 2219 2220 2221 2222 2223 2224 2225 2226 2227 2228 2229 2230 2231 2232 2233 2234 2235 2236 2237 2238 2239 2240 2241 2242 2243 2244 2245 2246 2247 2248 2249 2250 2251 2252 2253 2254 2255 2256 2257 2258 2259 2260 2261 2262 2263 2264 2265 2266 2267 2268 2269 2270 2271 2272 2273 2274 2275 2276 2277 2278 2279 2280 2281 2282 2283 2284 2285 2286 2287 2288 2289 2290 2291 2292 2293 2294 2295 2296 2297 2298 2299 2300 2301 2302 2303 2304 2305 2306 2307 2308 2309 2310 2311 2312 2313 2314 2315 2316 2317 2318 2319 2320 2321 2322 2323 2324 2325 2326 2327 2328 2329 2330 2331 2332 2333 2334 2335 2336 2337 2338 2339 2340 2341 2342 2343 2344 2345 2346 2347 2348 2349 2350 2351 2352 2353 2354 2355 2356 2357 2358 2359 2360 2361 2362 2363 2364 2365 2366 2367 2368 2369 2370 2371 2372 2373 2374 2375 2376 2377 2378 2379 2380 2381 2382 2383 2384 2385 2386 2387 2388 2389 2390 2391 2392 2393 2394 2395 2396 2397 2398 2399 2400 2401 2402 2403 2404 2405 2406 2407 2408 2409 2410 2411 2412 2413 2414 2415 2416 2417 2418 2419 2420 2421 2422 2423 2424 2425 2426 2427 2428 2429 2430 2431 2432 2433 2434 2435 2436 2437 2438 2439 2440 2441 2442 2443 2444 2445 2446 2447 2448 2449 2450 2451 2452 2453 2454 2455 2456 2457 2458 2459 2460 2461 2462 2463 2464 2465 2466 2467 2468 2469 2470 2471 2472 2473 2474 2475 2476 2477 2478 2479 2480 2481 2482 2483 2484 2485 2486 2487 2488 2489 2490 2491 2492 2493 2494 2495 2496 2497 2498 2499 2500 2501 2502 2503 2504 2505 2506 2507 2508 2509 2510 2511 2512 2513 2514 2515 2516 2517 2518 2519 2520 2521 2522 2523 2524 2525 2526 2527 2528 2529 2530 2531 2532 2533 2534 2535 2536 2537 2538 2539 2540 2541 2542 2543 2544 2545 2546 2547 2548 2549 2550 2551 2552 2553 2554 2555 2556 2557 2558 2559 2560 2561 2562 2563 2564 2565 2566 2567 2568 2569 2570 2571 2572 2573 2574 2575 2576 2577 2578 2579 2580 2581 2582 2583 2584 2585 2586 2587 2588 2589 2590 2591 2592 2593 2594 2595 2596 2597 2598 2599 2600 2601 2602 2603 2604 2605 2606 2607 2608 2609 2610 2611 2612 2613 2614 2615 2616 2617 2618 2619 2620 2621 2622 2623 2624 2625 2626 2627 2628 2629 2630 2631 2632 2633 2634 2635 2636 2637 2638 2639 2640 2641 2642 2643 2644 2645 2646 2647 2648 2649 2650 2651 2652 2653 2654 2655 2656 2657 2658 2659 2660 2661 2662 2663 2664 2665 2666 2667 2668 2669 2670 2671 2672 2673 2674 2675 2676 2677 2678 2679 2680 2681 2682 2683 2684 2685 2686 2687 2688 2689 2690 2691 2692 2693 2694 2695 2696 2697 2698 2699 2700 2701 2702 2703 2704 2705 2706 2707 2708 2709 2710 2711 2712 2713 2714 2715 2716 2717 2718 2719 2720 2721 2722 2723 2724 2725 2726 2727 2728 2729 2730 2731 2732 2733 2734 2735 2736 2737 2738 2739 2740 2741 2742 2743 2744 2745 2746 2747 2748 2749 2750 2751 2752 2753 2754 2755 2756 2757 2758 2759 2760 2761 2762 2763 2764 2765 2766 2767 2768 2769 2770 2771 2772 2773 2774 2775 2776 2777 2778 2779 2780 2781 2782 2783 2784 2785 2786 2787 2788 2789 2790 2791 2792 2793 2794 2795 2796 2797 2798 2799 2800 2801 2802 2803 2804 2805 2806 2807 2808 2809 2810 2811 2812 2813 2814 2815 2816 2817 2818 2819 2820 2821 2822 2823 2824 2825 2826 2827 2828 2829 2830 2831 2832 2833 2834 2835 2836 2837 2838 2839 2840 2841 2842 2843 2844 2845 2846 2847 2848 2849 2850 2851 2852 2853 2854 2855 2856 2857 2858 2859 2860 2861 2862 2863 2864 2865 2866 2867 2868 2869 2870 2871 2872 2873 2874 2875 2876 2877 2878 2879 2880 2881 2882 2883 2884 2885 2886 2887 2888 2889 2890 2891 2892 2893 2894 2895 2896 2897 2898 2899 2900 2901 2902 2903 2904 2905 2906 2907 2908 2909 2910 2911 2912 2913 2914 2915 2916 2917 2918 2919 2920 2921 2922 2923 2924 2925 2926 2927 2928 2929 2930 2931 2932 2933 2934 2935 2936 2937 2938 2939 2940 2941 2942 2943 2944 2945 2946 2947 2948 2949 2950 2951 2952 2953 2954 2955 2956 2957 2958 2959 2960 2961 2962 2963 2964 2965 2966 2967 2968 2969 2970 2971 2972 2973 2974 2975 2976 2977 2978 2979 2980 2981 2982 2983 2984 2985 2986 2987 2988 2989 2990 2991 2992 2993 2994 2995 2996 2997 2998 2999 3000 3001 3002 3003 3004 3005 3006 3007 3008 3009 3010 3011 3012 3013 3014 3015 3016 3017 3018 3019 3020 3021 3022 3023 3024 3025 3026 3027 3028 3029 3030 3031 3032 3033 3034 3035 3036 3037 3038 3039 3040 3041 3042 3043 3044 3045 3046 3047 3048 3049 3050 3051 3052 3053 3054 3055 3056 3057 3058 3059 3060 3061 3062 3063 3064 3065 3066 3067 3068 3069 3070 3071 3072 3073 3074 3075 3076 3077 3078 3079 3080 3081 3082 3083 3084 3085 3086 3087 3088 3089 3090 3091 3092 3093 3094 3095 3096 3097 3098 3099 3100 3101 3102 3103 3104 3105 3106 3107 3108 3109 3110 3111 3112 3113 3114 3115 3116 3117 3118 3119 3120 3121 3122 3123 3124 3125 3126 3127 3128 3129 3130 3131 3132 3133 3134 3135 3136 3137 3138 3139 3140 3141 
</DataArray>
<DataArray type="UInt32" Name="offsets" format="ascii">
3 6 9 12 15 18 21 24 27 30 33 36 39 42 45 48 51 54 57 60 63 66 69 72 75 78 81 84 87 90 93 96 99 102 105 108 111 114 117 120 123 126 129 132 135 138 141 144 147 150 153 156 159 162 165 168 171 174 177 180 183 186 189 192 195 198 201 204 207 210 213 216 219 222 225 228 231 234 237 240 243 246 249 252 255 258 261 264 267 270 273 276 279 282 285 288 291 294 297 300 303 306 309 312 315 318 321 324 327 330 333 336 339 342 345 348 351 354 357 360 363 366 369 372 375 378 381 384 387 390 393 396 399 402 405 408 411 414 417 420 423 426 429 432 435 438 441 444 447 450 453 456 459 462 465 468 471 474 477 480 483 486 489 492 495 498 501 504 507 510 513 516 519 522 525 528 531 534 537 540 543 546 549 552 555 558 561 564 567 570 573 576 579 582 585 588 591 594 597 600 603 606 609 612 615 618 621 624 627 630 633 636 639 642 645 648 651 654 657 660 663 666 669 672 675 678 681 684 687 690 693 696 699 702 705 708 711 714 717 720 723 726 729 732 735 738 741 744 747 750 753 756 759 762 765 768 771 774 777 780 783 786 789 792 795 798 801 804 807 810 813 816 819 822 825 828 831 834 837 840 843 846 849 852 855 858 861 864 867 870 873 876 879 882 885 888 891 894 897 900 903 906 909 912 915 918 921 924 927 930 933 936 939 942 945 948 951 954 957 960 963 966 969 972 975 978 981 984 987 990 993 996 999 1002 1005 1008 1011 1014 1017 1020 1023 1026 1029 1032 1035 1038 1041 1044 1047 1050 1053 1056 1059 1062 1065 1068 1071 1074 1077 1080 1083 1086 1089 1092 1095 1098 1101 1104 1107 1110 1113 1116 1119 1122 1125 1128 1131 1134 1137 1140 1143 1146 1149 1152 1155 1158 1161 1164 1167 1170 1173 1176 1179 1182 1185 1188 1191 1194 1197 1200 1203 1206 1209 1212 1215 1218 1221 1224 1227 1230 1233 1236 1239 1242 1245 1248 1251 1254 1257 1260 1263 1266 1269 1272 1275 1278 1281 1284 1287 1290 1293 1296 1299 1302 1305 1308 1311 1314 1317 1320 1323 1326 1329 1332 1335 1338 1341 1344 1347 1350 1353 1356 1359 1362 1365 1368 1371 1374 1377 1380 1383 1386 1389 1392 1395 1398 1401 1404 1407 1410 1413 1416 1419 1422 1425 1428 1431 1434 1437 1440 1443 1446 1449 1452 1455 1458 1461 1464 1467 1470 1473 1476 1479 1482 1485 1488 1491 1494 1497 1500 1503 1506 1509 1512 1515 1518 1521 1524 1527 1530 1533 1536 1539 1542 1545 1548 1551 1554 1557 1560 1563 1566 1569 1572 1575 1578 1581 1584 1587 1590 1593 1596 1599 1602 1605 1608 1611 1614 1616 1619 1622 1624 1627 1630 1632 1635 1638 1641 1644 1647 1650 1653 1656 1659 1662 1665 1668 1671 1673 1676 1679 1682 1685 1688 1690 1693 1696 1699 1702 1705 1708 1711 1714 1717 1720 1723 1726 1729 1732 1735 1738 1741 1744 1747 1750 1753 1756 1759 1762 1765 1768 1771 1774 1777 1780 1783 1786 1789 1792 1795 1798 1801 1804 1807 1810 1813 1816 1819 1822 1825 1828 1831 1834 1837 1840 1843 1846 1849 1852 1855 1858 1861 1864 1867 1870 1873 1876 1879 1882 1885 1888 1891 1894 1897 1900 1903 1906 1909 1912 1915 1918 1921 1924 1927 1930 1933 1936 1939 1942 1945 1948 1951 1954 1957 1960 1963 1966 1969 1972 1975 1978 1981 1984 1987 1990 1993 1996 1999 2002 2005 2008 2011 2014 2017 2020 2023 2026 2029 2032 2035 2038 2041 2044 2047 2050 2053 2056 2059 2062 2065 2068 2071 2074 2077 2080 2083 2086 2089 2092 2095 2098 2101 2104 2107 2110 2113 2116 2119 2122 2125 2128 2131 2134 2137 2140 2143 2146 2149 2152 2155 2158 2161 2164 2167 2170 2173 2176 2179 2182 2185 2188 2191 2194 2196 2199 2202 2205 2207 2210 2213 2215 2218 2221 2224 2227 2230 2233 2236 2239 2242 2245 2248 2250 2253 2256 2259 2262 2264 2267 2270 2273 2276 2279 2282 2285 2288 2291 2294 2297 2300 2303 2306 2309 2312 2315 2318 2321 2324 2327 2330 2333 2336 2339 2342 2345 2348 2351 2354 2357 2360 2363 2366 2369 2372 2375 2378 2381 2384 2387 2390 2393 2396 2399 2402 2405 2408 2411 2414 2417 2420 2423 2426 2429 2432 2435 2438 2440 2443 2446 2449 2452 2455 2458 2461 2464 2467 2470 2473 2476 2479 2482 2484 2487 2490 2492 2495 2497 2500 2503 2506 2509 2512 2515 2518 2521 2524 2527 2530 2533 2536 2538 2541 2544 2547 2550 2553 2556 2559 2562 2565 2568 2571 2574 2577 2580 2583 2586 2589 2592 2595 2598 2601 2604 2607 2610 2613 2616 2619 2622 2625 2628 2631 2634 2637 2640 2643 2646 2649 2652 2655 2658 2661 2664 2667 2670 2673 2676 2679 2682 2685 2688 2691 2694 2697 2700 2703 2706 2709 2712 2715 2718 2721 2724 2727 2730 2733 2736 2739 2742 2745 2748 2751 2754 2757 2760 2763 2766 2769 2772 2775 2778 2781 2784 2787 2790 2793 2796 2799 2802 2805 2808 2811 2814 2817 2820 2823 2826 2829 2832 2835 2838 2841 2844 2847 2850 2853 2856 2859 2862 2865 2868 2871 2874 2877 2880 2883 2886 2889 2892 2895 2898 2901 2904 2907 2910 2913 2916 2919 2922 2925 2928 2931 2934 2937 2940 2943 2946 2948 2951 2954 2956 2959 2961 2964 2967 2970 2973 2976 2979 2982 2985 2988 2991 2994 2997 3000 3003 3006 3009 3012 3015 3018 3021 3024 3027 3030 3033 3036 3039 3042 3045 3048 3051 3054 3057 3060 3063 3066 3069 3072 3075 3078 3081 3084 3087 3090 3093 3096 3099 3102 3104 3107 3110 3113 3116 3119 3121 3124 3127 3130 3133 3136 3139 3142 
</DataArray>
<DataArray type="UInt32" Name="types" format="ascii">
5 5 5 5 5 5 5 5 5 5 5 5 5 5 5 5 5 5 5 5 5 5 5 5 5 5 5 5 5 5 5 5 5 5 5 5 5 5 5 5 5 5 5 5 5 5 5 5 5 5 5 5 5 5 5 5 5 5 5 5 5 5 5 5 5 5 5 5 5 5 5 5 5 5 5 5 5 5 5 5 5 5 5 5 5 5 5 5 5 5 5 5 5 5 5 5 5 5 5 5 5 5 5 5 5 5 5 5 5 5 5 5 5 5 5 5 5 5 5 5 5 5 5 5 5 5 5 5 5 5 5 5 5 5 5 5 5 5 5 5 5 5 5 5 5 5 5 5 5 5 5 5 5 5 5 5 5 5 5 5 5 5 5 5 5 5 5 5 5 5 5 5 5 5 5 5 5 5 5 5 5 5 5 5 5 5 5 5 5 5 5 5 5 5 5 5 5 5 5 5 5 5 5 5 5 5 5 5 5 5 5 5 5 5 5 5 5 5 5 5 5 5 5 5 5 5 5 5 5 5 5 5 5 5 5 5 5 5 5 5 5 5 5 5 5 5 5 5 5 5 5 5 5 5 5 5 5 5 5 5 5 5 5 5 5 5 5 5 5 5 5 5 5 5 5 5 5 5 5 5 5 5 5 5 5 5 5 5 5 5 5 5 5 5 5 5 5 5 5 5 5 5 5 5 5 5 5 5 5 5 5 5 5 5 5 5 5 5 5 5 5 5 5 5 5 5 5 5 5 5 5 5 5 5 5 5 5 5 5 5 5 5 5 5 5 5 5 5 5 5 5 5 5 5 5 5 5 5 5 5 5 5 5 5 5 5 5 5 5 5 5 5 5 5 5 5 5 5 5 5 5 5 5 5 5 5 5 5 5 5 5 5 5 5 5 5 5 5 5 5 5 5 5 5 5 5 5 5 5 5 5 5 5 5 5 5 5 5 5 5 5 5 5 5 5 5 5 5 5 5 5 5 5 5 5 5 5 5 5 5 5 5 5 5 5 5 5 5 5 5 5 5 5 5 5 5 5 5 5 5 5 5 5 5 5 5 5 5 5 5 5 5 5 5 5 5 5 5 5 5 5 5 5 5 5 5 5 5 5 5 5 5 5 5 5 5 5 5 5 5 5 5 5 5 5 5 5 5 5 5 5 5 5 5 5 5 5 5 5 5 5 5 5 5 5 5 5 5 5 5 5 5 5 5 5 5 5 5 3 5 5 3 5 5 3 5 5 5 5 5 5 5 5 5 5 5 5 5 3 5 5 5 5 5 3 5 5 5 5 5 5 5 5 5 5 5 5 5 5 5 5 5 5 5 5 5 5 5 5 5 5 5 5 5 5 5 5 5 5 5 5 5 5 5 5 5 5 5 5 5 5 5 5 5 5 5 5 5 5 5 5 5 5 5 5 5 5 5 5 5 5 5 5 5 5 5 5 5 5 5 5 5 5 5 5 5 5 5 5 5 5 5 5 5 5 5 5 5 5 5 5 5 5 5 5 5 5 5 5 5 5 5 5 5 5 5 5 5 5 5 5 5 5 5 5 5 5 5 5 5 5 5 5 5 5 5 5 5 5 5 5 5 5 5 5 5 5 5 5 5 5 5 5 5 5 5 5 5 5 5 5 5 5 5 5 5 5 5 5 5 5 5 5 3 5 5 5 3 5 5 3 5 5 5 5 5 5 5 5 5 5 5 3 5 5 5 5 3 5 5 5 5 5 5 5 5 5 5 5 5 5 5 5 5 5 5 5 5 5 5 5 5 5 5 5 5 5 5 5 5 5 5 5 5 5 5 5 5 5 5 5 5 5 5 5 5 5 5 5 5 5 5 5 5 5 5 3 5 5 5 5 5 5 5 5 5 5 5 5 5 5 3 5 5 3 5 3 5 5 5 5 5 5 5 5 5 5 5 5 5 3 5 5 5 5 5 5 5 5 5 5 5 5 5 5 5 5 5 5 5 5 5 5 5 5 5 5 5 5 5 5 5 5 5 5 5 5 5 5 5 5 5 5 5 5 5 5 5 5 5 5 5 5 5 5 5 5 5 5 5 5 5 5 5 5 5 5 5 5 5 5 5 5 5 5 5 5 5 5 5 5 5 5 5 5 5 5 5 5 5 5 5 5 5 5 5 5 5 5 5 5 5 5 5 5 5 5 5 5 5 5 5 5 5 5 5 5 5 5 5 5 5 5 5 5 5 5 5 5 5 5 5 5 5 5 5 5 3 5 5 3 5 3 5 5 5 5 5 5 5 5 5 5 5 5 5 5 5 5 5 5 5 5 5 5 5 5 5 5 5 5 5 5 5 5 5 5 5 5 5 5 5 5 5 5 5 5 5 5 5 3 5 5 5 5 5 3 5 5 5 5 5 5 5 
</DataArray>
</Cells>
<PointData Scalars="" Vectors="displacement," Tensors="">
<DataArray type="Float64" Name="displacement" NumberOfComponents="3" format="ascii">
-7.2651184752118005e-07 1.0808823848447211e-07 0 -1.4906795723253743e-09 -6.1523439057458185e-10 0 -1.645869336718081e-06 -1.2955786424626028e-07 0 -7.2651184752118005e-07 1.0808823848447211e-07 0 -1.4906795723253743e-09 -6.1523439057458185e-10 0 -1.2476207496863291e-09 3.9441608606795619e-10 0 -7.2651184752118005e-07 1.0808823848447211e-07 0 -1.645869336718081e-06 -1.2955786424626028e-07 0 -1.583694062914788e-06 5.0590417554635669e-07 0 -7.2651184752118005e-07 1.0808823848447211e-07 0 -1.583694062914788e-06 5.0590417554635669e-07 0 -1.2476207496863291e-09 3.9441608606795619e-10 0 -1.2476207496863291e-09 3.9441608606795619e-10 0 -1.2036038441824293e-09 1.8595030006461292e-10 0 -9.8742398087425682e-07 8.0661306456042177e-07 0 -1.2036038441824293e-09 1.8595030006461292e-10 0 -9.8742398087425682e-07 8.0661306456042177e-07 0 -6.1549084200286641e-10 6.8422536279582791e-10 0 -1.583694062914788e-06 5.0590417554635669e-07 0 -9.8742398087425682e-07 8.0661306456042177e-07 0 -2.1607511122775967e-06 1.1472612956479723e-06 0 -1.583694062914788e-06 5.0590417554635669e-07 0 -1.2476207496863291e-09 3.9441608606795619e-10 0 -9.8742398087425682e-07 8.0661306456042177e-07 0 -9.8742398087425682e-07 8.0661306456042177e-07 0 -2.1607511122775967e-06 1.1472612956479723e-06 0 -1.1094836688857506e-06 1.3361668268138743e-06 0 -2.1607511122775967e-06 1.1472612956479723e-06 0 -1.1094836688857506e-06 1.3361668268138743e-06 0 -2.155441657183458e-06 1.6124576973046741e-06 0 -2.1607511122775967e-06 1.1472612956479723e-06 0 -3.3172992212618497e-06 1.3901056283984396e-06 0 -2.155441657183458e-06 1.6124576973046741e-06 0 -3.3172992212618497e-06 1.3901056283984396e-06 0 -2.155441657183458e-06 1.6124576973046741e-06 0 -2.5669364380729382e-06 1.7952814437712177e-06 0 -3.3172992212618497e-06 1.3901056283984396e-06 0 -3.4025929575328621e-06 7.4886651737387328e-07 0 -4.7998410521288553e-06 9.6260650544280647e-07 0 -2.1607511122775967e-06 1.1472612956479723e-06 0 -3.3172992212618497e-06 1.3901056283984396e-06 0 -3.4025929575328621e-06 7.4886651737387328e-07 0 -3.4025929575328621e-06 7.4886651737387328e-07 0 -3.6016693682261303e-06 1.1318225685045842e-07 0 -5.955353927320397e-06 8.3349178430884507e-08 0 -1.645869336718081e-06 -1.2955786424626028e-07 0 -1.583694062914788e-06 5.0590417554635669e-07 0 -3.6016693682261303e-06 1.1318225685045842e-07 0 -1.583694062914788e-06 5.0590417554635669e-07 0 -3.4025929575328621e-06 7.4886651737387328e-07 0 -3.6016693682261303e-06 1.1318225685045842e-07 0 -1.583694062914788e-06 5.0590417554635669e-07 0 -2.1607511122775967e-06 1.1472612956479723e-06 0 -3.4025929575328621e-06 7.4886651737387328e-07 0 -1.2208468112929336e-07 1.128168159553092e-06 0 -3.6261878715450657e-10 4.5455677651560937e-10 0 1.9182748873187683e-11 5.6870856380422917e-10 0 -1.2208468112929336e-07 1.128168159553092e-06 0 -3.6261878715450657e-10 4.5455677651560937e-10 0 -3.7489935436828727e-07 9.4993615627954912e-07 0 -1.2208468112929336e-07 1.128168159553092e-06 0 -3.7489935436828727e-07 9.4993615627954912e-07 0 -6.3610618463571085e-07 1.7096762104417707e-06 0 -3.7489935436828727e-07 9.4993615627954912e-07 0 -6.1549084200286641e-10 6.8422536279582791e-10 0 -1.1094836688857506e-06 1.3361668268138743e-06 0 -9.8742398087425682e-07 8.0661306456042177e-07 0 -6.1549084200286641e-10 6.8422536279582791e-10 0 -1.1094836688857506e-06 1.3361668268138743e-06 0 -3.7489935436828727e-07 9.4993615627954912e-07 0 -1.1094836688857506e-06 1.3361668268138743e-06 0 -6.3610618463571085e-07 1.7096762104417707e-06 0 -3.6261878715450657e-10 4.5455677651560937e-10 0 -3.7489935436828727e-07 9.4993615627954912e-07 0 -6.1549084200286641e-10 6.8422536279582791e-10 0 -1.1094836688857506e-06 1.3361668268138743e-06 0 -2.155441657183458e-06 1.6124576973046741e-06 0 -1.4978648009718126e-06 1.820932361104249e-06 0 -2.155441657183458e-06 1.6124576973046741e-06 0 -1.4978648009718126e-06 1.820932361104249e-06 0 -2.5669364380729382e-06 1.7952814437712177e-06 0 -1.1094836688857506e-06 1.3361668268138743e-06 0 -1.4978648009718126e-06 1.820932361104249e-06 0 -6.3610618463571085e-07 1.7096762104417707e-06 0 -6.3610618463571085e-07 1.7096762104417707e-06 0 4.8485563725040203e-08 1.8673521361052025e-06 0 -9.3735839544137529e-07 2.038012931058379e-06 0 -1.4978648009718126e-06 1.820932361104249e-06 0 -6.3610618463571085e-07 1.7096762104417707e-06 0 -9.3735839544137529e-07 2.038012931058379e-06 0 -1.2208468112929336e-07 1.128168159553092e-06 0 -6.3610618463571085e-07 1.7096762104417707e-06 0 4.8485563725040203e-08 1.8673521361052025e-06 0 -1.2208468112929336e-07 1.128168159553092e-06 0 4.8485563725040203e-08 1.8673521361052025e-06 0 2.3132459662207312e-07 1.2091481460635352e-06 0 4.8485563725040203e-08 1.8673521361052025e-06 0 3.9737761781921407e-08 2.0118414678881519e-06 0 -9.3735839544137529e-07 2.038012931058379e-06 0 -1.7584013711727276e-07 1.8608088970006241e-06 0 3.9737761781921407e-08 2.0118414678881519e-06 0 -9.3735839544137529e-07 2.038012931058379e-06 0 -1.7584013711727276e-07 1.8608088970006241e-06 0 -9.3735839544137529e-07 2.038012931058379e-06 0 -1.7896033995401278e-06 1.7632862529943102e-06 0 -1.7896033995401278e-06 1.7632862529943102e-06 0 -2.5669364380729382e-06 1.7952814437712177e-06 0 -3.5608029604504631e-06 1.4488589280542847e-06 0 -1.4978648009718126e-06 1.820932361104249e-06 0 -9.3735839544137529e-07 2.038012931058379e-06 0 -2.5669364380729382e-06 1.7952814437712177e-06 0 -9.3735839544137529e-07 2.038012931058379e-06 0 -1.7896033995401278e-06 1.7632862529943102e-06 0 -2.5669364380729382e-06 1.7952814437712177e-06 0 -2.5669364380729382e-06 1.7952814437712177e-06 0 -3.5608029604504631e-06 1.4488589280542847e-06 0 -4.2107356296145636e-06 1.3512091591957715e-06 0 -3.5608029604504631e-06 1.4488589280542847e-06 0 -5.0594997643076474e-06 6.1910793039567884e-07 0 -2.4898154096572706e-06 1.1739330780671644e-06 0 -5.0594997643076474e-06 6.1910793039567884e-07 0 -2.4898154096572706e-06 1.1739330780671644e-06 0 -4.0745217203033688e-06 1.2509849746378802e-07 0 -2.4898154096572706e-06 1.1739330780671644e-06 0 -4.0745217203033688e-06 1.2509849746378802e-07 0 -2.251414054124248e-06 6.3730712860390926e-08 0 -1.7896033995401278e-06 1.7632862529943102e-06 0 -3.5608029604504631e-06 1.4488589280542847e-06 0 -2.4898154096572706e-06 1.1739330780671644e-06 0 -1.7584013711727276e-07 1.8608088970006241e-06 0 -1.7896033995401278e-06 1.7632862529943102e-06 0 -6.9669986479765704e-07 1.2085408503017293e-06 0 -1.7896033995401278e-06 1.7632862529943102e-06 0 -2.4898154096572706e-06 1.1739330780671644e-06 0 -6.9669986479765704e-07 1.2085408503017293e-06 0 -2.4898154096572706e-06 1.1739330780671644e-06 0 -6.9669986479765704e-07 1.2085408503017293e-06 0 -2.251414054124248e-06 6.3730712860390926e-08 0 -6.9669986479765704e-07 1.2085408503017293e-06 0 9.620948975126257e-07 5.5042377692141791e-07 0 1.0772377979185556e-06 1.4600956640020572e-06 0 -1.7584013711727276e-07 1.8608088970006241e-06 0 -6.9669986479765704e-07 1.2085408503017293e-06 0 1.0772377979185556e-06 1.4600956640020572e-06 0 -6.9122555710105368e-06 3.3821298906342021e-07 0 -5.955353927320397e-06 8.3349178430884507e-08 0 -4.7998410521288553e-06 9.6260650544280647e-07 0 -6.9122555710105368e-06 3.3821298906342021e-07 0 -4.7998410521288553e-06 9.6260650544280647e-07 0 -6.0270317625595532e-06 7.8141617796788207e-07 0 -6.9122555710105368e-06 3.3821298906342021e-07 0 -5.955353927320397e-06 8.3349178430884507e-08 0 -8.721198017162507e-06 -5.7110382807954925e-07 0 -3.4025929575328621e-06 7.4886651737387328e-07 0 -5.955353927320397e-06 8.3349178430884507e-08 0 -4.7998410521288553e-06 9.6260650544280647e-07 0 -3.3172992212618497e-06 1.3901056283984396e-06 0 -4.7998410521288553e-06 9.6260650544280647e-07 0 -4.2107356296145636e-06 1.3512091591957715e-06 0 -3.3172992212618497e-06 1.3901056283984396e-06 0 -2.5669364380729382e-06 1.7952814437712177e-06 0 -4.2107356296145636e-06 1.3512091591957715e-06 0 -3.5608029604504631e-06 1.4488589280542847e-06 0 -4.2107356296145636e-06 1.3512091591957715e-06 0 -6.0270317625595532e-06 7.8141617796788207e-07 0 -4.7998410521288553e-06 9.6260650544280647e-07 0 -4.2107356296145636e-06 1.3512091591957715e-06 0 -6.0270317625595532e-06 7.8141617796788207e-07 0 -3.5608029604504631e-06 1.4488589280542847e-06 0 -5.0594997643076474e-06 6.1910793039567884e-07 0 -6.0270317625595532e-06 7.8141617796788207e-07 0 -5.0594997643076474e-06 6.1910793039567884e-07 0 -6.0270317625595532e-06 7.8141617796788207e-07 0 -7.4306026235835722e-06 -1.3092609436444814e-07 0 -5.0594997643076474e-06 6.1910793039567884e-07 0 -7.4306026235835722e-06 -1.3092609436444814e-07 0 -6.8876075586594402e-06 -8.4094164829461284e-07 0 -6.0270317625595532e-06 7.8141617796788207e-07 0 -7.4306026235835722e-06 -1.3092609436444814e-07 0 -8.6654525122196161e-06 -3.3621819266345903e-07 0 -7.4306026235835722e-06 -1.3092609436444814e-07 0 -8.6654525122196161e-06 -3.3621819266345903e-07 0 -1.0371857591902511e-05 -1.6358883677704109e-06 0 -6.9122555710105368e-06 3.3821298906342021e-07 0 -6.0270317625595532e-06 7.8141617796788207e-07 0 -8.6654525122196161e-06 -3.3621819266345903e-07 0 -6.9122555710105368e-06 3.3821298906342021e-07 0 -8.6654525122196161e-06 -3.3621819266345903e-07 0 -8.721198017162507e-06 -5.7110382807954925e-07 0 -8.6654525122196161e-06 -3.3621819266345903e-07 0 -8.721198017162507e-06 -5.7110382807954925e-07 0 -1.1838923906287792e-05 -1.8927338648708216e-06 0 -1.1838923906287792e-05 -1.8927338648708216e-06 0 -1.0371857591902511e-05 -1.6358883677704109e-06 0 -1.5132264168847924e-05 -4.0066921869876594e-06 0 -8.6654525122196161e-06 -3.3621819266345903e-07 0 -1.1838923906287792e-05 -1.8927338648708216e-06 0 -1.0371857591902511e-05 -1.6358883677704109e-06 0 -1.0371857591902511e-05 -1.6358883677704109e-06 0 -1.5132264168847924e-05 -4.0066921869876594e-06 0 -1.3938383212142633e-05 -4.3345742623727707e-06 0 -1.5132264168847924e-05 -4.0066921869876594e-06 0 -1.3938383212142633e-05 -4.3345742623727707e-06 0 -1.893779871800154e-05 -7.0851684522103097e-06 0 -1.3938383212142633e-05 -4.3345742623727707e-06 0 -1.693006226026459e-05 -7.0646140246402935e-06 0 -1.214319696178986e-05 -5.4353488374488482e-06 0 -1.693006226026459e-05 -7.0646140246402935e-06 0 -1.214319696178986e-05 -5.4353488374488482e-06 0 -1.6957154801805784e-05 -9.5868300612318506e-06 0 -1.3938383212142633e-05 -4.3345742623727707e-06 0 -1.693006226026459e-05 -7.0646140246402935e-06 0 -1.893779871800154e-05 -7.0851684522103097e-06 0 -1.693006226026459e-05 -7.0646140246402935e-06 0 -1.893779871800154e-05 -7.0851684522103097e-06 0 -2.3122474289170411e-05 -1.1287082603243558e-05 0 -1.214319696178986e-05 -5.4353488374488482e-06 0 -7.4888376152947649e-06 -5.3592403623649543e-06 0 -1.1276096655779936e-05 -8.7591927892927091e-06 0 -1.214319696178986e-05 -5.4353488374488482e-06 0 -7.9628159026578334e-06 -2.9827160251259104e-06 0 -7.4888376152947649e-06 -5.3592403623649543e-06 0 -1.3938383212142633e-05 -4.3345742623727707e-06 0 -1.214319696178986e-05 -5.4353488374488482e-06 0 -1.0266143384812563e-05 -2.8235199298353667e-06 0 -1.214319696178986e-05 -5.4353488374488482e-06 0 -7.9628159026578334e-06 -2.9827160251259104e-06 0 -1.0266143384812563e-05 -2.8235199298353667e-06 0 -7.9628159026578334e-06 -2.9827160251259104e-06 0 -1.0266143384812563e-05 -2.8235199298353667e-06 0 -6.8876075586594402e-06 -8.4094164829461284e-07 0 -1.0371857591902511e-05 -1.6358883677704109e-06 0 -1.3938383212142633e-05 -4.3345742623727707e-06 0 -1.0266143384812563e-05 -2.8235199298353667e-06 0 -1.0371857591902511e-05 -1.6358883677704109e-06 0 -1.0266143384812563e-05 -2.8235199298353667e-06 0 -6.8876075586594402e-06 -8.4094164829461284e-07 0 -7.4306026235835722e-06 -1.3092609436444814e-07 0 -1.0371857591902511e-05 -1.6358883677704109e-06 0 -6.8876075586594402e-06 -8.4094164829461284e-07 0 -5.0594997643076474e-06 6.1910793039567884e-07 0 -6.8876075586594402e-06 -8.4094164829461284e-07 0 -4.0745217203033688e-06 1.2509849746378802e-07 0 -6.8876075586594402e-06 -8.4094164829461284e-07 0 -4.0745217203033688e-06 1.2509849746378802e-07 0 -4.6835955977979605e-06 -1.2402306102940215e-06 0 -4.0745217203033688e-06 1.2509849746378802e-07 0 -4.6835955977979605e-06 -1.2402306102940215e-06 0 -2.251414054124248e-06 6.3730712860390926e-08 0 -4.6835955977979605e-06 -1.2402306102940215e-06 0 -2.2453782857396254e-06 -1.8548447297056457e-06 0 -4.9929355655756633e-06 -3.0851287093400145e-06 0 -4.6835955977979605e-06 -1.2402306102940215e-06 0 -2.251414054124248e-06 6.3730712860390926e-08 0 -2.2453782857396254e-06 -1.8548447297056457e-06 0 -7.9628159026578334e-06 -2.9827160251259104e-06 0 -6.8876075586594402e-06 -8.4094164829461284e-07 0 -4.6835955977979605e-06 -1.2402306102940215e-06 0 -6.9669986479765704e-07 1.2085408503017293e-06 0 -2.7728231124044616e-07 -3.537002101410778e-07 0 9.620948975126257e-07 5.5042377692141791e-07 0 -6.9669986479765704e-07 1.2085408503017293e-06 0 -2.7728231124044616e-07 -3.537002101410778e-07 0 -2.251414054124248e-06 6.3730712860390926e-08 0 -2.7728231124044616e-07 -3.537002101410778e-07 0 -2.251414054124248e-06 6.3730712860390926e-08 0 -2.2453782857396254e-06 -1.8548447297056457e-06 0 -2.7728231124044616e-07 -3.537002101410778e-07 0 4.8906083820181972e-07 -2.9078328764177179e-06 0 1.9323969112533232e-06 -6.8563391347580544e-07 0 -2.7728231124044616e-07 -3.537002101410778e-07 0 4.8906083820181972e-07 -2.9078328764177179e-06 0 -2.2453782857396254e-06 -1.8548447297056457e-06 0 4.8906083820181972e-07 -2.9078328764177179e-06 0 -2.2453782857396254e-06 -1.8548447297056457e-06 0 -3.2509378928736237e-06 -4.4685281377926123e-06 0 4.8906083820181972e-07 -2.9078328764177179e-06 0 -3.2509378928736237e-06 -4.4685281377926123e-06 0 -5.9441481440552648e-07 -6.3895903660988443e-06 0 4.8906083820181972e-07 -2.9078328764177179e-06 0 -5.9441481440552648e-07 -6.3895903660988443e-06 0 3.0647653493187604e-06 -5.244661135011502e-06 0 -7.9628159026578334e-06 -2.9827160251259104e-06 0 -4.6835955977979605e-06 -1.2402306102940215e-06 0 -4.9929355655756633e-06 -3.0851287093400145e-06 0 -7.9628159026578334e-06 -2.9827160251259104e-06 0 -4.9929355655756633e-06 -3.0851287093400145e-06 0 -7.4888376152947649e-06 -5.3592403623649543e-06 0 -2.2453782857396254e-06 -1.8548447297056457e-06 0 -4.9929355655756633e-06 -3.0851287093400145e-06 0 -3.2509378928736237e-06 -4.4685281377926123e-06 0 -3.2509378928736237e-06 -4.4685281377926123e-06 0 -7.4888376152947649e-06 -5.3592403623649543e-06 0 -5.5616383401767309e-06 -7.8764489299646431e-06 0 -4.9929355655756633e-06 -3.0851287093400145e-06 0 -3.2509378928736237e-06 -4.4685281377926123e-06 0 -7.4888376152947649e-06 -5.3592403623649543e-06 0 -7.4888376152947649e-06 -5.3592403623649543e-06 0 -5.5616383401767309e-06 -7.8764489299646431e-06 0 -1.1276096655779936e-05 -8.7591927892927091e-06 0 -5.5616383401767309e-06 -7.8764489299646431e-06 0 -2.3312722031455746e-06 -1.0334024316095586e-05 0 -9.1875957511738555e-06 -1.3006165342777154e-05 0 -5.5616383401767309e-06 -7.8764489299646431e-06 0 -9.1875957511738555e-06 -1.3006165342777154e-05 0 -1.1276096655779936e-05 -8.7591927892927091e-06 0 -5.9441481440552648e-07 -6.3895903660988443e-06 0 2.5428549900984043e-06 -8.8855069435473334e-06 0 3.0647653493187604e-06 -5.244661135011502e-06 0 -3.2509378928736237e-06 -4.4685281377926123e-06 0 -5.5616383401767309e-06 -7.8764489299646431e-06 0 -5.9441481440552648e-07 -6.3895903660988443e-06 0 -5.5616383401767309e-06 -7.8764489299646431e-06 0 -5.9441481440552648e-07 -6.3895903660988443e-06 0 -2.3312722031455746e-06 -1.0334024316095586e-05 0 -5.9441481440552648e-07 -6.3895903660988443e-06 0 -2.3312722031455746e-06 -1.0334024316095586e-05 0 2.5428549900984043e-06 -8.8855069435473334e-06 0 -2.3312722031455746e-06 -1.0334024316095586e-05 0 9.3315624201294446e-07 -1.3633007426117633e-05 0 2.5428549900984043e-06 -8.8855069435473334e-06 0 -2.3312722031455746e-06 -1.0334024316095586e-05 0 9.3315624201294446e-07 -1.3633007426117633e-05 0 -4.0127785202010788e-06 -1.6046208710110028e-05 0 -4.0127785202010788e-06 -1.6046208710110028e-05 0 -6.839539740754515e-06 -2.3545657895106251e-05 0 -1.540057961417375e-06 -2.0829817850576237e-05 0 9.3315624201294446e-07 -1.3633007426117633e-05 0 -4.0127785202010788e-06 -1.6046208710110028e-05 0 -1.540057961417375e-06 -2.0829817850576237e-05 0 9.3315624201294446e-07 -1.3633007426117633e-05 0 3.8835167569326777e-06 -1.7417492734457127e-05 0 -1.540057961417375e-06 -2.0829817850576237e-05 0 -9.1875957511738555e-06 -1.3006165342777154e-05 0 -4.0127785202010788e-06 -1.6046208710110028e-05 0 -1.0022573418538795e-05 -1.8767253219935605e-05 0 -2.3312722031455746e-06 -1.0334024316095586e-05 0 -9.1875957511738555e-06 -1.3006165342777154e-05 0 -4.0127785202010788e-06 -1.6046208710110028e-05 0 -4.0127785202010788e-06 -1.6046208710110028e-05 0 -1.0022573418538795e-05 -1.8767253219935605e-05 0 -6.839539740754515e-06 -2.3545657895106251e-05 0 -9.1875957511738555e-06 -1.3006165342777154e-05 0 -1.0022573418538795e-05 -1.8767253219935605e-05 0 -1.6421908242979696e-05 -1.8804507077095352e-05 0 -1.0022573418538795e-05 -1.8767253219935605e-05 0 -1.6421908242979696e-05 -1.8804507077095352e-05 0 -1.3688647749609833e-05 -2.3384600217594504e-05 0 -9.1875957511738555e-06 -1.3006165342777154e-05 0 -1.6421908242979696e-05 -1.8804507077095352e-05 0 -1.6370005225584428e-05 -1.3487915283687595e-05 0 -1.6421908242979696e-05 -1.8804507077095352e-05 0 -2.2914958172566224e-05 -1.8646112152266861e-05 0 -1.6370005225584428e-05 -1.3487915283687595e-05 0 -1.6421908242979696e-05 -1.8804507077095352e-05 0 -2.2914958172566224e-05 -1.8646112152266861e-05 0 -2.3650408387499896e-05 -2.6876470085282446e-05 0 -2.2914958172566224e-05 -1.8646112152266861e-05 0 -3.1836751784986448e-05 -2.4385887936433647e-05 0 -2.3650408387499896e-05 -2.6876470085282446e-05 0 -2.2914958172566224e-05 -1.8646112152266861e-05 0 -3.1836751784986448e-05 -2.4385887936433647e-05 0 -2.7496377601141543e-05 -1.7067736917760223e-05 0 -2.2914958172566224e-05 -1.8646112152266861e-05 0 -2.7496377601141543e-05 -1.7067736917760223e-05 0 -2.1354290027239318e-05 -1.3855692604027594e-05 0 -2.2914958172566224e-05 -1.8646112152266861e-05 0 -2.1354290027239318e-05 -1.3855692604027594e-05 0 -1.6370005225584428e-05 -1.3487915283687595e-05 0 -2.1354290027239318e-05 -1.3855692604027594e-05 0 -2.3122474289170411e-05 -1.1287082603243558e-05 0 -1.6957154801805784e-05 -9.5868300612318506e-06 0 -2.1354290027239318e-05 -1.3855692604027594e-05 0 -1.6957154801805784e-05 -9.5868300612318506e-06 0 -1.6370005225584428e-05 -1.3487915283687595e-05 0 -2.7496377601141543e-05 -1.7067736917760223e-05 0 -2.1354290027239318e-05 -1.3855692604027594e-05 0 -2.3122474289170411e-05 -1.1287082603243558e-05 0 -1.693006226026459e-05 -7.0646140246402935e-06 0 -2.3122474289170411e-05 -1.1287082603243558e-05 0 -1.6957154801805784e-05 -9.5868300612318506e-06 0 -1.214319696178986e-05 -5.4353488374488482e-06 0 -1.6957154801805784e-05 -9.5868300612318506e-06 0 -1.1276096655779936e-05 -8.7591927892927091e-06 0 -9.1875957511738555e-06 -1.3006165342777154e-05 0 -1.1276096655779936e-05 -8.7591927892927091e-06 0 -1.6370005225584428e-05 -1.3487915283687595e-05 0 -1.6957154801805784e-05 -9.5868300612318506e-06 0 -1.1276096655779936e-05 -8.7591927892927091e-06 0 -1.6370005225584428e-05 -1.3487915283687595e-05 0 8.0900254340385089e-06 -5.4896351519931885e-06 0 8.4151296657742911e-06 -2.999464441175752e-06 0 9.1723764537154172e-06 -4.414487163126971e-06 0 8.0900254340385089e-06 -5.4896351519931885e-06 0 7.3753444422214834e-06 -3.7349319357107664e-06 0 8.4151296657742911e-06 -2.999464441175752e-06 0 8.0900254340385089e-06 -5.4896351519931885e-06 0 7.3753444422214834e-06 -3.7349319357107664e-06 0 6.6814775609736485e-06 -5.6328545687669225e-06 0 8.4151296657742911e-06 -2.999464441175752e-06 0 9.6313897603952806e-06 -1.6865134285020753e-06 0 9.1723764537154172e-06 -4.414487163126971e-06 0 9.6313897603952806e-06 -1.6865134285020753e-06 0 1.0767258948863558e-05 -2.2031423570707225e-06 0 1.0821693933975505e-05 2.3264613176363255e-07 0 9.6313897603952806e-06 -1.6865134285020753e-06 0 1.0767258948863558e-05 -2.2031423570707225e-06 0 9.1723764537154172e-06 -4.414487163126971e-06 0 1.0767258948863558e-05 -2.2031423570707225e-06 0 9.1723764537154172e-06 -4.414487163126971e-06 0 1.0088196094254967e-05 -4.7315540780277024e-06 0 9.1723764537154172e-06 -4.414487163126971e-06 0 1.0088196094254967e-05 -4.7315540780277024e-06 0 9.5210078716011717e-06 -7.0693362223858791e-06 0 1.0767258948863558e-05 -2.2031423570707225e-06 0 1.0088196094254967e-05 -4.7315540780277024e-06 0 1.1127457323525458e-05 -5.4090066270654153e-06 0 1.0088196094254967e-05 -4.7315540780277024e-06 0 1.1127457323525458e-05 -5.4090066270654153e-06 0 9.5210078716011717e-06 -7.0693362223858791e-06 0 9.5210078716011717e-06 -7.0693362223858791e-06 0 8.3513885919709522e-06 -7.6731277912945913e-06 0 8.508830210230021e-06 -1.0120275054429789e-05 0 9.1723764537154172e-06 -4.414487163126971e-06 0 9.5210078716011717e-06 -7.0693362223858791e-06 0 8.3513885919709522e-06 -7.6731277912945913e-06 0 8.0900254340385089e-06 -5.4896351519931885e-06 0 9.1723764537154172e-06 -4.414487163126971e-06 0 8.3513885919709522e-06 -7.6731277912945913e-06 0 8.0900254340385089e-06 -5.4896351519931885e-06 0 8.3513885919709522e-06 -7.6731277912945913e-06 0 7.5076730672416796e-06 -7.9125405356536835e-06 0 8.3513885919709522e-06 -7.6731277912945913e-06 0 7.4860421422861249e-06 -1.0720289341824836e-05 0 8.508830210230021e-06 -1.0120275054429789e-05 0 7.4860421422861249e-06 -1.0720289341824836e-05 0 7.5593206160556721e-06 -1.08017484629481e-05 0 8.8853868605473678e-06 -1.4848425352795523e-05 0 7.4860421422861249e-06 -1.0720289341824836e-05 0 7.5593206160556721e-06 -1.08017484629481e-05 0 7.5076730672416796e-06 -7.9125405356536835e-06 0 7.5593206160556721e-06 -1.08017484629481e-05 0 7.5076730672416796e-06 -7.9125405356536835e-06 0 6.0046325924432478e-06 -7.6606504440534677e-06 0 8.3513885919709522e-06 -7.6731277912945913e-06 0 7.4860421422861249e-06 -1.0720289341824836e-05 0 7.5076730672416796e-06 -7.9125405356536835e-06 0 3.8835167569326777e-06 -1.7417492734457127e-05 0 5.679270805483183e-06 -1.1729684698968832e-05 0 8.8853868605473678e-06 -1.4848425352795523e-05 0 9.3315624201294446e-07 -1.3633007426117633e-05 0 3.8835167569326777e-06 -1.7417492734457127e-05 0 5.679270805483183e-06 -1.1729684698968832e-05 0 7.5593206160556721e-06 -1.08017484629481e-05 0 5.679270805483183e-06 -1.1729684698968832e-05 0 8.8853868605473678e-06 -1.4848425352795523e-05 0 7.5593206160556721e-06 -1.08017484629481e-05 0 5.679270805483183e-06 -1.1729684698968832e-05 0 6.0046325924432478e-06 -7.6606504440534677e-06 0 9.3315624201294446e-07 -1.3633007426117633e-05 0 5.679270805483183e-06 -1.1729684698968832e-05 0 2.5428549900984043e-06 -8.8855069435473334e-06 0 5.679270805483183e-06 -1.1729684698968832e-05 0 2.5428549900984043e-06 -8.8855069435473334e-06 0 6.0046325924432478e-06 -7.6606504440534677e-06 0 2.5428549900984043e-06 -8.8855069435473334e-06 0 6.0046325924432478e-06 -7.6606504440534677e-06 0 3.0647653493187604e-06 -5.244661135011502e-06 0 6.0046325924432478e-06 -7.6606504440534677e-06 0 3.0647653493187604e-06 -5.244661135011502e-06 0 5.145758465360877e-06 -4.0649364720293675e-06 0 8.0900254340385089e-06 -5.4896351519931885e-06 0 7.5076730672416796e-06 -7.9125405356536835e-06 0 6.6814775609736485e-06 -5.6328545687669225e-06 0 7.5076730672416796e-06 -7.9125405356536835e-06 0 6.0046325924432478e-06 -7.6606504440534677e-06 0 6.6814775609736485e-06 -5.6328545687669225e-06 0 6.0046325924432478e-06 -7.6606504440534677e-06 0 6.6814775609736485e-06 -5.6328545687669225e-06 0 5.145758465360877e-06 -4.0649364720293675e-06 0 6.6814775609736485e-06 -5.6328545687669225e-06 0 5.145758465360877e-06 -4.0649364720293675e-06 0 6.1218866988711188e-06 -1.8028225758667105e-06 0 7.3753444422214834e-06 -3.7349319357107664e-06 0 6.6814775609736485e-06 -5.6328545687669225e-06 0 6.1218866988711188e-06 -1.8028225758667105e-06 0 5.145758465360877e-06 -4.0649364720293675e-06 0 4.7834487255531882e-06 -1.9940534304241246e-06 0 6.1218866988711188e-06 -1.8028225758667105e-06 0 4.7834487255531882e-06 -1.9940534304241246e-06 0 6.1218866988711188e-06 -1.8028225758667105e-06 0 5.0175973122410381e-06 -6.643543149423246e-07 0 4.8906083820181972e-07 -2.9078328764177179e-06 0 3.0647653493187604e-06 -5.244661135011502e-06 0 3.3163026711382163e-06 -2.5204533845144337e-06 0 3.0647653493187604e-06 -5.244661135011502e-06 0 5.145758465360877e-06 -4.0649364720293675e-06 0 3.3163026711382163e-06 -2.5204533845144337e-06 0 5.145758465360877e-06 -4.0649364720293675e-06 0 4.7834487255531882e-06 -1.9940534304241246e-06 0 3.3163026711382163e-06 -2.5204533845144337e-06 0 4.7834487255531882e-06 -1.9940534304241246e-06 0 3.3163026711382163e-06 -2.5204533845144337e-06 0 3.7380805388649754e-06 -6.8669941490920116e-07 0 4.8906083820181972e-07 -2.9078328764177179e-06 0 3.3163026711382163e-06 -2.5204533845144337e-06 0 1.9323969112533232e-06 -6.8563391347580544e-07 0 3.3163026711382163e-06 -2.5204533845144337e-06 0 1.9323969112533232e-06 -6.8563391347580544e-07 0 3.7380805388649754e-06 -6.8669941490920116e-07 0 1.9323969112533232e-06 -6.8563391347580544e-07 0 3.7380805388649754e-06 -6.8669941490920116e-07 0 2.5457374834299473e-06 7.8771827947502192e-07 0 1.9323969112533232e-06 -6.8563391347580544e-07 0 9.620948975126257e-07 5.5042377692141791e-07 0 2.5457374834299473e-06 7.8771827947502192e-07 0 -2.7728231124044616e-07 -3.537002101410778e-07 0 1.9323969112533232e-06 -6.8563391347580544e-07 0 9.620948975126257e-07 5.5042377692141791e-07 0 6.1218866988711188e-06 -1.8028225758667105e-06 0 5.0175973122410381e-06 -6.643543149423246e-07 0 5.7210810000271498e-06 1.0266018676421895e-07 0 4.7834487255531882e-06 -1.9940534304241246e-06 0 5.0175973122410381e-06 -6.643543149423246e-07 0 3.7380805388649754e-06 -6.8669941490920116e-07 0 5.0175973122410381e-06 -6.643543149423246e-07 0 3.7380805388649754e-06 -6.8669941490920116e-07 0 4.2298873264964036e-06 4.0039037879626809e-07 0 3.7380805388649754e-06 -6.8669941490920116e-07 0 4.2298873264964036e-06 4.0039037879626809e-07 0 2.5457374834299473e-06 7.8771827947502192e-07 0 5.0175973122410381e-06 -6.643543149423246e-07 0 4.2298873264964036e-06 4.0039037879626809e-07 0 5.7210810000271498e-06 1.0266018676421895e-07 0 4.2298873264964036e-06 4.0039037879626809e-07 0 5.7210810000271498e-06 1.0266018676421895e-07 0 4.1880592547612687e-06 1.1621775591848458e-06 0 5.7210810000271498e-06 1.0266018676421895e-07 0 7.1743640436759776e-06 1.6973798040474341e-07 0 5.5951635856762869e-06 8.6818894617156508e-07 0 7.1743640436759776e-06 1.6973798040474341e-07 0 7.0665446998848475e-06 7.9244272276992309e-07 0 5.5951635856762869e-06 8.6818894617156508e-07 0 5.7210810000271498e-06 1.0266018676421895e-07 0 7.1743640436759776e-06 1.6973798040474341e-07 0 6.9888932391991771e-06 -8.307827211865597e-07 0 6.1218866988711188e-06 -1.8028225758667105e-06 0 5.7210810000271498e-06 1.0266018676421895e-07 0 6.9888932391991771e-06 -8.307827211865597e-07 0 6.1218866988711188e-06 -1.8028225758667105e-06 0 6.9888932391991771e-06 -8.307827211865597e-07 0 7.5087976971134486e-06 -2.0405963457974931e-06 0 6.9888932391991771e-06 -8.307827211865597e-07 0 7.5087976971134486e-06 -2.0405963457974931e-06 0 8.3863199484002819e-06 -8.9069336326688395e-07 0 7.1743640436759776e-06 1.6973798040474341e-07 0 6.9888932391991771e-06 -8.307827211865597e-07 0 8.3863199484002819e-06 -8.9069336326688395e-07 0 8.4151296657742911e-06 -2.999464441175752e-06 0 7.5087976971134486e-06 -2.0405963457974931e-06 0 8.3863199484002819e-06 -8.9069336326688395e-07 0 7.3753444422214834e-06 -3.7349319357107664e-06 0 8.4151296657742911e-06 -2.999464441175752e-06 0 7.5087976971134486e-06 -2.0405963457974931e-06 0 7.3753444422214834e-06 -3.7349319357107664e-06 0 6.1218866988711188e-06 -1.8028225758667105e-06 0 7.5087976971134486e-06 -2.0405963457974931e-06 0 9.6313897603952806e-06 -1.6865134285020753e-06 0 9.5442613132885214e-06 -8.4101799556313617e-08 0 1.0821693933975505e-05 2.3264613176363255e-07 0 9.6313897603952806e-06 -1.6865134285020753e-06 0 9.5442613132885214e-06 -8.4101799556313617e-08 0 8.3863199484002819e-06 -8.9069336326688395e-07 0 8.4151296657742911e-06 -2.999464441175752e-06 0 9.6313897603952806e-06 -1.6865134285020753e-06 0 8.3863199484002819e-06 -8.9069336326688395e-07 0 7.1743640436759776e-06 1.6973798040474341e-07 0 8.3863199484002819e-06 -8.9069336326688395e-07 0 8.5614707853097806e-06 3.6334139500886748e-07 0 9.5442613132885214e-06 -8.4101799556313617e-08 0 8.5614707853097806e-06 3.6334139500886748e-07 0 1.0206390105610281e-05 1.1726938651601749e-06 0 9.5442613132885214e-06 -8.4101799556313617e-08 0 8.3863199484002819e-06 -8.9069336326688395e-07 0 8.5614707853097806e-06 3.6334139500886748e-07 0 8.5614707853097806e-06 3.6334139500886748e-07 0 7.0665446998848475e-06 7.9244272276992309e-07 0 8.5726019648376298e-06 9.6612043087095903e-07 0 7.1743640436759776e-06 1.6973798040474341e-07 0 8.5614707853097806e-06 3.6334139500886748e-07 0 7.0665446998848475e-06 7.9244272276992309e-07 0 7.0665446998848475e-06 7.9244272276992309e-07 0 7.1166112811483361e-06 9.8299128023579859e-07 0 8.5726019648376298e-06 9.6612043087095903e-07 0 7.1166112811483361e-06 9.8299128023579859e-07 0 5.5786104884313687e-06 1.0236035772001357e-06 0 5.8724320840123368e-06 1.0342181034670407e-06 0 5.5786104884313687e-06 1.0236035772001357e-06 0 5.8724320840123368e-06 1.0342181034670407e-06 0 4.685062086790497e-06 1.2676378176758351e-06 0 7.0665446998848475e-06 7.9244272276992309e-07 0 5.8724320840123368e-06 1.0342181034670407e-06 0 5.5951635856762869e-06 8.6818894617156508e-07 0 7.0665446998848475e-06 7.9244272276992309e-07 0 7.1166112811483361e-06 9.8299128023579859e-07 0 5.8724320840123368e-06 1.0342181034670407e-06 0 5.7210810000271498e-06 1.0266018676421895e-07 0 5.5951635856762869e-06 8.6818894617156508e-07 0 4.1880592547612687e-06 1.1621775591848458e-06 0 4.685062086790497e-06 1.2676378176758351e-06 0 3.3679231927842939e-06 1.5399813717948457e-06 0 4.1880592547612687e-06 1.1621775591848458e-06 0 5.5951635856762869e-06 8.6818894617156508e-07 0 4.685062086790497e-06 1.2676378176758351e-06 0 4.1880592547612687e-06 1.1621775591848458e-06 0 5.8724320840123368e-06 1.0342181034670407e-06 0 5.5951635856762869e-06 8.6818894617156508e-07 0 4.685062086790497e-06 1.2676378176758351e-06 0 4.685062086790497e-06 1.2676378176758351e-06 0 3.2630445648753465e-06 1.3405134349090224e-06 0 4.2445999946431629e-06 1.1309200070470987e-06 0 4.685062086790497e-06 1.2676378176758351e-06 0 3.3679231927842939e-06 1.5399813717948457e-06 0 3.2630445648753465e-06 1.3405134349090224e-06 0 3.3679231927842939e-06 1.5399813717948457e-06 0 3.2630445648753465e-06 1.3405134349090224e-06 0 2.2201535890645757e-06 1.4803701413211304e-06 0 3.2630445648753465e-06 1.3405134349090224e-06 0 4.2445999946431629e-06 1.1309200070470987e-06 0 2.9583586331718635e-06 9.7054325751425908e-07 0 4.2445999946431629e-06 1.1309200070470987e-06 0 2.9583586331718635e-06 9.7054325751425908e-07 0 3.5232638496597674e-06 6.5455294584128671e-07 0 4.2445999946431629e-06 1.1309200070470987e-06 0 3.5232638496597674e-06 6.5455294584128671e-07 0 4.9590956427255555e-06 8.0637814773569624e-07 0 5.5786104884313687e-06 1.0236035772001357e-06 0 4.2445999946431629e-06 1.1309200070470987e-06 0 4.9590956427255555e-06 8.0637814773569624e-07 0 5.5786104884313687e-06 1.0236035772001357e-06 0 4.685062086790497e-06 1.2676378176758351e-06 0 4.2445999946431629e-06 1.1309200070470987e-06 0 9.620948975126257e-07 5.5042377692141791e-07 0 1.0772377979185556e-06 1.4600956640020572e-06 0 2.5457374834299473e-06 7.8771827947502192e-07 0 1.0772377979185556e-06 1.4600956640020572e-06 0 2.5457374834299473e-06 7.8771827947502192e-07 0 2.3516600288203007e-06 1.5726522554214344e-06 0 1.0772377979185556e-06 1.4600956640020572e-06 0 2.3516600288203007e-06 1.5726522554214344e-06 0 1.1288970820651268e-06 1.8939822313889038e-06 0 2.3516600288203007e-06 1.5726522554214344e-06 0 3.360328679173575e-06 1.1025991971333122e-06 0 3.0700792794836486e-06 1.5583907963043043e-06 0 2.5457374834299473e-06 7.8771827947502192e-07 0 2.3516600288203007e-06 1.5726522554214344e-06 0 3.360328679173575e-06 1.1025991971333122e-06 0 4.2298873264964036e-06 4.0039037879626809e-07 0 2.5457374834299473e-06 7.8771827947502192e-07 0 3.360328679173575e-06 1.1025991971333122e-06 0 4.2298873264964036e-06 4.0039037879626809e-07 0 3.360328679173575e-06 1.1025991971333122e-06 0 4.1880592547612687e-06 1.1621775591848458e-06 0 3.360328679173575e-06 1.1025991971333122e-06 0 4.1880592547612687e-06 1.1621775591848458e-06 0 3.0700792794836486e-06 1.5583907963043043e-06 0 3.3679231927842939e-06 1.5399813717948457e-06 0 4.1880592547612687e-06 1.1621775591848458e-06 0 3.0700792794836486e-06 1.5583907963043043e-06 0 3.3679231927842939e-06 1.5399813717948457e-06 0 3.0700792794836486e-06 1.5583907963043043e-06 0 1.9979633684686103e-06 1.8362156943308861e-06 0 3.3679231927842939e-06 1.5399813717948457e-06 0 1.9979633684686103e-06 1.8362156943308861e-06 0 2.2201535890645757e-06 1.4803701413211304e-06 0 2.3516600288203007e-06 1.5726522554214344e-06 0 3.0700792794836486e-06 1.5583907963043043e-06 0 1.9979633684686103e-06 1.8362156943308861e-06 0 2.3516600288203007e-06 1.5726522554214344e-06 0 1.9979633684686103e-06 1.8362156943308861e-06 0 1.1288970820651268e-06 1.8939822313889038e-06 0 1.9979633684686103e-06 1.8362156943308861e-06 0 1.1288970820651268e-06 1.8939822313889038e-06 0 5.9595079006305662e-07 1.9736447651381639e-06 0 3.9737761781921407e-08 2.0118414678881519e-06 0 1.1288970820651268e-06 1.8939822313889038e-06 0 5.9595079006305662e-07 1.9736447651381639e-06 0 -1.7584013711727276e-07 1.8608088970006241e-06 0 1.0772377979185556e-06 1.4600956640020572e-06 0 1.1288970820651268e-06 1.8939822313889038e-06 0 -1.7584013711727276e-07 1.8608088970006241e-06 0 3.9737761781921407e-08 2.0118414678881519e-06 0 1.1288970820651268e-06 1.8939822313889038e-06 0 4.8485563725040203e-08 1.8673521361052025e-06 0 8.9339627367574322e-07 1.7324040552173344e-06 0 2.3132459662207312e-07 1.2091481460635352e-06 0 4.8485563725040203e-08 1.8673521361052025e-06 0 3.9737761781921407e-08 2.0118414678881519e-06 0 5.9595079006305662e-07 1.9736447651381639e-06 0 4.8485563725040203e-08 1.8673521361052025e-06 0 5.9595079006305662e-07 1.9736447651381639e-06 0 8.9339627367574322e-07 1.7324040552173344e-06 0 1.9979633684686103e-06 1.8362156943308861e-06 0 5.9595079006305662e-07 1.9736447651381639e-06 0 8.9339627367574322e-07 1.7324040552173344e-06 0 8.9339627367574322e-07 1.7324040552173344e-06 0 5.4111362557347643e-07 1.0265381180154315e-06 0 2.3132459662207312e-07 1.2091481460635352e-06 0 8.9339627367574322e-07 1.7324040552173344e-06 0 1.3250593393848939e-06 1.4923680756093871e-06 0 5.4111362557347643e-07 1.0265381180154315e-06 0 1.9979633684686103e-06 1.8362156943308861e-06 0 8.9339627367574322e-07 1.7324040552173344e-06 0 1.3250593393848939e-06 1.4923680756093871e-06 0 1.9979633684686103e-06 1.8362156943308861e-06 0 1.3250593393848939e-06 1.4923680756093871e-06 0 2.2201535890645757e-06 1.4803701413211304e-06 0 1.3250593393848939e-06 1.4923680756093871e-06 0 2.2201535890645757e-06 1.4803701413211304e-06 0 8.9854595381636135e-07 9.3714503851441264e-07 0 1.3250593393848939e-06 1.4923680756093871e-06 0 5.4111362557347643e-07 1.0265381180154315e-06 0 8.9854595381636135e-07 9.3714503851441264e-07 0 6.245729317284195e-10 4.8099209767911986e-10 0 5.4111362557347643e-07 1.0265381180154315e-06 0 8.9854595381636135e-07 9.3714503851441264e-07 0 6.245729317284195e-10 4.8099209767911986e-10 0 5.4111362557347643e-07 1.0265381180154315e-06 0 3.879946837509183e-10 4.82478092071732e-10 0 5.4111362557347643e-07 1.0265381180154315e-06 0 3.879946837509183e-10 4.82478092071732e-10 0 2.3132459662207312e-07 1.2091481460635352e-06 0 3.879946837509183e-10 4.82478092071732e-10 0 1.9182748873187683e-11 5.6870856380422917e-10 0 2.3132459662207312e-07 1.2091481460635352e-06 0 -1.2208468112929336e-07 1.128168159553092e-06 0 1.9182748873187683e-11 5.6870856380422917e-10 0 2.3132459662207312e-07 1.2091481460635352e-06 0 1.8281885059217637e-06 5.3569688409920263e-07 0 2.9583586331718635e-06 9.7054325751425908e-07 0 1.813532905112906e-06 9.684732436555918e-07 0 1.8281885059217637e-06 5.3569688409920263e-07 0 2.9583586331718635e-06 9.7054325751425908e-07 0 3.5232638496597674e-06 6.5455294584128671e-07 0 3.2630445648753465e-06 1.3405134349090224e-06 0 2.9583586331718635e-06 9.7054325751425908e-07 0 1.813532905112906e-06 9.684732436555918e-07 0 3.2630445648753465e-06 1.3405134349090224e-06 0 2.2201535890645757e-06 1.4803701413211304e-06 0 1.813532905112906e-06 9.684732436555918e-07 0 2.2201535890645757e-06 1.4803701413211304e-06 0 1.813532905112906e-06 9.684732436555918e-07 0 8.9854595381636135e-07 9.3714503851441264e-07 0 1.813532905112906e-06 9.684732436555918e-07 0 7.535857174374861e-07 5.619829354500157e-07 0 8.9854595381636135e-07 9.3714503851441264e-07 0 6.245729317284195e-10 4.8099209767911986e-10 0 8.9854595381636135e-07 9.3714503851441264e-07 0 9.4949775679419994e-10 2.9709436833493866e-10 0 7.535857174374861e-07 5.619829354500157e-07 0 8.9854595381636135e-07 9.3714503851441264e-07 0 9.4949775679419994e-10 2.9709436833493866e-10 0 7.535857174374861e-07 5.619829354500157e-07 0 9.4949775679419994e-10 2.9709436833493866e-10 0 1.0976869283583436e-09 2.4894097892686881e-10 0 7.535857174374861e-07 5.619829354500157e-07 0 1.0976869283583436e-09 2.4894097892686881e-10 0 7.8938360748726899e-07 4.0522119135245634e-07 0 1.8281885059217637e-06 5.3569688409920263e-07 0 7.8938360748726899e-07 4.0522119135245634e-07 0 1.17669842528949e-09 2.0077762769272182e-10 0 1.8281885059217637e-06 5.3569688409920263e-07 0 1.813532905112906e-06 9.684732436555918e-07 0 7.8938360748726899e-07 4.0522119135245634e-07 0 1.813532905112906e-06 9.684732436555918e-07 0 7.535857174374861e-07 5.619829354500157e-07 0 7.8938360748726899e-07 4.0522119135245634e-07 0 1.0976869283583436e-09 2.4894097892686881e-10 0 7.8938360748726899e-07 4.0522119135245634e-07 0 1.17669842528949e-09 2.0077762769272182e-10 0 1.8281885059217637e-06 5.3569688409920263e-07 0 1.17669842528949e-09 2.0077762769272182e-10 0 1.1852693439307973e-06 1.2564580427825275e-07 0 1.17669842528949e-09 2.0077762769272182e-10 0 1.2512590172467656e-09 -9.129103232957174e-11 0 1.1852693439307973e-06 1.2564580427825275e-07 0 1.2512590172467656e-09 -9.129103232957174e-11 0 1.1852693439307973e-06 1.2564580427825275e-07 0 8.9884040370596787e-07 -1.1464267379045029e-07 0 1.1852693439307973e-06 1.2564580427825275e-07 0 2.2079314722901082e-06 -1.0098824388632581e-07 0 8.9884040370596787e-07 -1.1464267379045029e-07 0 1.8281885059217637e-06 5.3569688409920263e-07 0 1.1852693439307973e-06 1.2564580427825275e-07 0 2.4340054719670964e-06 2.4483162155049455e-07 0 1.8281885059217637e-06 5.3569688409920263e-07 0 2.4340054719670964e-06 2.4483162155049455e-07 0 3.5232638496597674e-06 6.5455294584128671e-07 0 1.1852693439307973e-06 1.2564580427825275e-07 0 2.4340054719670964e-06 2.4483162155049455e-07 0 2.2079314722901082e-06 -1.0098824388632581e-07 0 2.4340054719670964e-06 2.4483162155049455e-07 0 3.4697295357108644e-06 9.3586446343721128e-09 0 2.2079314722901082e-06 -1.0098824388632581e-07 0 2.4340054719670964e-06 2.4483162155049455e-07 0 3.5232638496597674e-06 6.5455294584128671e-07 0 3.4697295357108644e-06 9.3586446343721128e-09 0 2.9290154550319752e-06 -5.0023161578316212e-07 0 3.4697295357108644e-06 9.3586446343721128e-09 0 2.2079314722901082e-06 -1.0098824388632581e-07 0 2.9290154550319752e-06 -5.0023161578316212e-07 0 1.2763696374847032e-06 -4.4836999426374839e-07 0 2.1616178681565217e-06 -9.2052273388119802e-07 0 2.9290154550319752e-06 -5.0023161578316212e-07 0 2.2079314722901082e-06 -1.0098824388632581e-07 0 1.2763696374847032e-06 -4.4836999426374839e-07 0 2.2079314722901082e-06 -1.0098824388632581e-07 0 1.2763696374847032e-06 -4.4836999426374839e-07 0 8.9884040370596787e-07 -1.1464267379045029e-07 0 1.2512590172467656e-09 -9.129103232957174e-11 0 8.9884040370596787e-07 -1.1464267379045029e-07 0 1.2579209740375597e-09 -1.0441570935641927e-11 0 1.2763696374847032e-06 -4.4836999426374839e-07 0 1.2579209740375597e-09 -1.0441570935641927e-11 0 9.9007987629599424e-10 -3.6555635635484706e-10 0 1.2763696374847032e-06 -4.4836999426374839e-07 0 8.9884040370596787e-07 -1.1464267379045029e-07 0 1.2579209740375597e-09 -1.0441570935641927e-11 0 9.9007987629599424e-10 -3.6555635635484706e-10 0 9.8592561290811832e-07 -8.0722557496834892e-07 0 7.396188793240903e-10 -4.5701313973780353e-10 0 1.2763696374847032e-06 -4.4836999426374839e-07 0 9.8592561290811832e-07 -8.0722557496834892e-07 0 2.1616178681565217e-06 -9.2052273388119802e-07 0 1.2763696374847032e-06 -4.4836999426374839e-07 0 9.9007987629599424e-10 -3.6555635635484706e-10 0 9.8592561290811832e-07 -8.0722557496834892e-07 0 7.396188793240903e-10 -4.5701313973780353e-10 0 6.4704511693847426e-07 -1.2373112873393866e-06 0 3.3639310668173572e-10 -6.6836637373208331e-10 0 9.8592561290811832e-07 -8.0722557496834892e-07 0 7.396188793240903e-10 -4.5701313973780353e-10 0 6.4704511693847426e-07 -1.2373112873393866e-06 0 6.4704511693847426e-07 -1.2373112873393866e-06 0 3.3639310668173572e-10 -6.6836637373208331e-10 0 1.6047466249472426e-07 -1.3310194379193299e-06 0 6.4704511693847426e-07 -1.2373112873393866e-06 0 2.0841282902618153e-06 -1.5236740002573962e-06 0 8.0830066908404753e-07 -2.00733862277346e-06 0 2.0841282902618153e-06 -1.5236740002573962e-06 0 1.8529367075828647e-06 -1.8917320596501111e-06 0 8.0830066908404753e-07 -2.00733862277346e-06 0 9.8592561290811832e-07 -8.0722557496834892e-07 0 6.4704511693847426e-07 -1.2373112873393866e-06 0 2.0841282902618153e-06 -1.5236740002573962e-06 0 1.8529367075828647e-06 -1.8917320596501111e-06 0 8.0830066908404753e-07 -2.00733862277346e-06 0 1.498963245480926e-06 -2.0673301655768685e-06 0 9.8592561290811832e-07 -8.0722557496834892e-07 0 2.0841282902618153e-06 -1.5236740002573962e-06 0 2.1616178681565217e-06 -9.2052273388119802e-07 0 2.0841282902618153e-06 -1.5236740002573962e-06 0 2.1616178681565217e-06 -9.2052273388119802e-07 0 3.3579977753617343e-06 -8.5990465260158266e-07 0 2.9290154550319752e-06 -5.0023161578316212e-07 0 2.1616178681565217e-06 -9.2052273388119802e-07 0 3.3579977753617343e-06 -8.5990465260158266e-07 0 2.0841282902618153e-06 -1.5236740002573962e-06 0 3.3579977753617343e-06 -8.5990465260158266e-07 0 4.4235264507245707e-06 -9.6362095172130028e-07 0 3.3579977753617343e-06 -8.5990465260158266e-07 0 4.4235264507245707e-06 -9.6362095172130028e-07 0 4.8507350007528775e-06 -2.5195725060696747e-07 0 4.4235264507245707e-06 -9.6362095172130028e-07 0 6.2723195005629712e-06 7.674744148773031e-09 0 4.8507350007528775e-06 -2.5195725060696747e-07 0 2.0841282902618153e-06 -1.5236740002573962e-06 0 4.4235264507245707e-06 -9.6362095172130028e-07 0 3.064072211012676e-06 -1.581456703301168e-06 0 1.8529367075828647e-06 -1.8917320596501111e-06 0 3.064072211012676e-06 -1.581456703301168e-06 0 1.498963245480926e-06 -2.0673301655768685e-06 0 2.0841282902618153e-06 -1.5236740002573962e-06 0 1.8529367075828647e-06 -1.8917320596501111e-06 0 3.064072211012676e-06 -1.581456703301168e-06 0 4.4235264507245707e-06 -9.6362095172130028e-07 0 3.064072211012676e-06 -1.581456703301168e-06 0 4.1491557280591893e-06 -1.1315842901261584e-06 0 3.064072211012676e-06 -1.581456703301168e-06 0 1.498963245480926e-06 -2.0673301655768685e-06 0 2.0645232409633288e-06 -1.8311058964739246e-06 0 3.064072211012676e-06 -1.581456703301168e-06 0 4.1491557280591893e-06 -1.1315842901261584e-06 0 2.0645232409633288e-06 -1.8311058964739246e-06 0 4.1491557280591893e-06 -1.1315842901261584e-06 0 4.6271559485465694e-06 -6.5485049148329111e-07 0 2.0645232409633288e-06 -1.8311058964739246e-06 0 4.1491557280591893e-06 -1.1315842901261584e-06 0 4.6271559485465694e-06 -6.5485049148329111e-07 0 6.3793586236714267e-06 -1.3624867561742672e-07 0 4.6271559485465694e-06 -6.5485049148329111e-07 0 6.3793586236714267e-06 -1.3624867561742672e-07 0 6.9576884824546973e-06 7.6190352488885598e-07 0 4.6271559485465694e-06 -6.5485049148329111e-07 0 1.7243877782980041e-06 -1.0727108840613563e-06 0 4.6063012993082438e-06 2.4070446507412949e-07 0 4.6271559485465694e-06 -6.5485049148329111e-07 0 4.6063012993082438e-06 2.4070446507412949e-07 0 6.9576884824546973e-06 7.6190352488885598e-07 0 4.4235264507245707e-06 -9.6362095172130028e-07 0 6.3793586236714267e-06 -1.3624867561742672e-07 0 6.2723195005629712e-06 7.674744148773031e-09 0 4.4235264507245707e-06 -9.6362095172130028e-07 0 4.1491557280591893e-06 -1.1315842901261584e-06 0 6.3793586236714267e-06 -1.3624867561742672e-07 0 6.3793586236714267e-06 -1.3624867561742672e-07 0 8.023146194933127e-06 7.8500125106357966e-07 0 6.2723195005629712e-06 7.674744148773031e-09 0 6.3793586236714267e-06 -1.3624867561742672e-07 0 8.023146194933127e-06 7.8500125106357966e-07 0 9.1136251084836654e-06 1.5066026745052535e-06 0 8.023146194933127e-06 7.8500125106357966e-07 0 6.2723195005629712e-06 7.674744148773031e-09 0 7.4613739257200454e-06 7.0677559725803667e-07 0 8.023146194933127e-06 7.8500125106357966e-07 0 7.4613739257200454e-06 7.0677559725803667e-07 0 8.999811606279629e-06 1.2626449083073419e-06 0 6.2723195005629712e-06 7.674744148773031e-09 0 7.4613739257200454e-06 7.0677559725803667e-07 0 5.893777334298073e-06 2.9323296471651739e-07 0 7.4613739257200454e-06 7.0677559725803667e-07 0 6.3252815065303831e-06 7.7958614993500575e-07 0 5.893777334298073e-06 2.9323296471651739e-07 0 7.4613739257200454e-06 7.0677559725803667e-07 0 8.1788117767635366e-06 1.0642995753130441e-06 0 8.999811606279629e-06 1.2626449083073419e-06 0 7.4613739257200454e-06 7.0677559725803667e-07 0 6.3252815065303831e-06 7.7958614993500575e-07 0 8.1788117767635366e-06 1.0642995753130441e-06 0 7.1166112811483361e-06 9.8299128023579859e-07 0 6.3252815065303831e-06 7.7958614993500575e-07 0 8.1788117767635366e-06 1.0642995753130441e-06 0 5.5786104884313687e-06 1.0236035772001357e-06 0 6.3252815065303831e-06 7.7958614993500575e-07 0 4.9590956427255555e-06 8.0637814773569624e-07 0 7.1166112811483361e-06 9.8299128023579859e-07 0 5.5786104884313687e-06 1.0236035772001357e-06 0 6.3252815065303831e-06 7.7958614993500575e-07 0 6.3252815065303831e-06 7.7958614993500575e-07 0 4.6201663105962479e-06 3.3494142219609811e-07 0 5.893777334298073e-06 2.9323296471651739e-07 0 6.3252815065303831e-06 7.7958614993500575e-07 0 4.9590956427255555e-06 8.0637814773569624e-07 0 4.6201663105962479e-06 3.3494142219609811e-07 0 3.5232638496597674e-06 6.5455294584128671e-07 0 4.9590956427255555e-06 8.0637814773569624e-07 0 4.6201663105962479e-06 3.3494142219609811e-07 0 3.5232638496597674e-06 6.5455294584128671e-07 0 3.4697295357108644e-06 9.3586446343721128e-09 0 4.6201663105962479e-06 3.3494142219609811e-07 0 3.4697295357108644e-06 9.3586446343721128e-09 0 4.6201663105962479e-06 3.3494142219609811e-07 0 4.8507350007528775e-06 -2.5195725060696747e-07 0 2.9290154550319752e-06 -5.0023161578316212e-07 0 3.4697295357108644e-06 9.3586446343721128e-09 0 4.8507350007528775e-06 -2.5195725060696747e-07 0 2.9290154550319752e-06 -5.0023161578316212e-07 0 3.3579977753617343e-06 -8.5990465260158266e-07 0 4.8507350007528775e-06 -2.5195725060696747e-07 0 6.2723195005629712e-06 7.674744148773031e-09 0 4.8507350007528775e-06 -2.5195725060696747e-07 0 5.893777334298073e-06 2.9323296471651739e-07 0 4.6201663105962479e-06 3.3494142219609811e-07 0 4.8507350007528775e-06 -2.5195725060696747e-07 0 5.893777334298073e-06 2.9323296471651739e-07 0 -4.6804640485893354e-06 -4.2036301437687573e-07 0 -4.3321733516940082e-06 -1.2823165336397211e-06 0 -7.9102386597214601e-06 -3.5937700601827365e-07 0 -4.3321733516940082e-06 -1.2823165336397211e-06 0 -1.9841639304323347e-06 -8.6251177731997914e-07 0 -2.5639500248136026e-06 -1.743996155405245e-06 0 -4.6804640485893354e-06 -4.2036301437687573e-07 0 -2.0855378239882404e-06 -1.2659480259716989e-08 0 -1.9841639304323347e-06 -8.6251177731997914e-07 0 -4.6804640485893354e-06 -4.2036301437687573e-07 0 -4.3321733516940082e-06 -1.2823165336397211e-06 0 -1.9841639304323347e-06 -8.6251177731997914e-07 0 -2.0855378239882404e-06 -1.2659480259716989e-08 0 -9.1112154927566748e-07 -2.3903521447776994e-07 0 -1.9841639304323347e-06 -8.6251177731997914e-07 0 -2.0855378239882404e-06 -1.2659480259716989e-08 0 -1.7561084408145352e-09 7.1821264449797265e-10 0 -9.1112154927566748e-07 -2.3903521447776994e-07 0 -1.7561084408145352e-09 7.1821264449797265e-10 0 -9.1112154927566748e-07 -2.3903521447776994e-07 0 -1.6150759972160899e-09 -6.1156196166567359e-10 0 -9.1112154927566748e-07 -2.3903521447776994e-07 0 -1.6150759972160899e-09 -6.1156196166567359e-10 0 -1.9841639304323347e-06 -8.6251177731997914e-07 0 -1.6150759972160899e-09 -6.1156196166567359e-10 0 -1.9841639304323347e-06 -8.6251177731997914e-07 0 -1.151470849031158e-06 -1.2016748184097238e-06 0 -1.9841639304323347e-06 -8.6251177731997914e-07 0 -1.151470849031158e-06 -1.2016748184097238e-06 0 -2.5639500248136026e-06 -1.743996155405245e-06 0 -1.6150759972160899e-09 -6.1156196166567359e-10 0 -1.3970245707973995e-09 -2.8346426672612627e-10 0 -1.151470849031158e-06 -1.2016748184097238e-06 0 -1.3970245707973995e-09 -2.8346426672612627e-10 0 -1.151470849031158e-06 -1.2016748184097238e-06 0 -5.9056766377795697e-10 -9.6964866382402297e-10 0 -1.151470849031158e-06 -1.2016748184097238e-06 0 -2.5639500248136026e-06 -1.743996155405245e-06 0 -1.10060286142515e-06 -1.8456891948993295e-06 0 -2.5639500248136026e-06 -1.743996155405245e-06 0 -2.2864950440183606e-06 -2.2856221396280886e-06 0 -1.10060286142515e-06 -1.8456891948993295e-06 0 -4.3321733516940082e-06 -1.2823165336397211e-06 0 -2.5639500248136026e-06 -1.743996155405245e-06 0 -3.9294884014431524e-06 -2.0920719361301531e-06 0 -4.3321733516940082e-06 -1.2823165336397211e-06 0 -3.9294884014431524e-06 -2.0920719361301531e-06 0 -6.0622847374493082e-06 -1.5575000857427766e-06 0 -3.9294884014431524e-06 -2.0920719361301531e-06 0 -2.2864950440183606e-06 -2.2856221396280886e-06 0 -2.481351973073837e-06 -2.4564605818384997e-06 0 -2.5639500248136026e-06 -1.743996155405245e-06 0 -3.9294884014431524e-06 -2.0920719361301531e-06 0 -2.2864950440183606e-06 -2.2856221396280886e-06 0 -2.2864950440183606e-06 -2.2856221396280886e-06 0 -1.2484721624664083e-06 -2.4236633833130613e-06 0 -2.481351973073837e-06 -2.4564605818384997e-06 0 -1.2484721624664083e-06 -2.4236633833130613e-06 0 -1.10060286142515e-06 -1.8456891948993295e-06 0 -2.0571634273653192e-07 -2.1175260531042139e-06 0 -2.2864950440183606e-06 -2.2856221396280886e-06 0 -1.2484721624664083e-06 -2.4236633833130613e-06 0 -1.10060286142515e-06 -1.8456891948993295e-06 0 -1.10060286142515e-06 -1.8456891948993295e-06 0 -5.9056766377795697e-10 -9.6964866382402297e-10 0 -2.5073386647814429e-07 -1.2324079015907922e-06 0 -1.151470849031158e-06 -1.2016748184097238e-06 0 -1.10060286142515e-06 -1.8456891948993295e-06 0 -5.9056766377795697e-10 -9.6964866382402297e-10 0 -5.9056766377795697e-10 -9.6964866382402297e-10 0 -2.5073386647814429e-07 -1.2324079015907922e-06 0 -1.7550878099117859e-10 -5.9228613981515863e-10 0 -1.10060286142515e-06 -1.8456891948993295e-06 0 -2.5073386647814429e-07 -1.2324079015907922e-06 0 -2.0571634273653192e-07 -2.1175260531042139e-06 0 -2.5073386647814429e-07 -1.2324079015907922e-06 0 1.6047466249472426e-07 -1.3310194379193299e-06 0 -2.0571634273653192e-07 -2.1175260531042139e-06 0 -2.5073386647814429e-07 -1.2324079015907922e-06 0 -1.7550878099117859e-10 -5.9228613981515863e-10 0 1.6047466249472426e-07 -1.3310194379193299e-06 0 -1.7550878099117859e-10 -5.9228613981515863e-10 0 3.3639310668173572e-10 -6.6836637373208331e-10 0 1.6047466249472426e-07 -1.3310194379193299e-06 0 6.4704511693847426e-07 -1.2373112873393866e-06 0 1.6047466249472426e-07 -1.3310194379193299e-06 0 8.0830066908404753e-07 -2.00733862277346e-06 0 1.6047466249472426e-07 -1.3310194379193299e-06 0 8.0830066908404753e-07 -2.00733862277346e-06 0 -2.0571634273653192e-07 -2.1175260531042139e-06 0 -1.2484721624664083e-06 -2.4236633833130613e-06 0 -2.0571634273653192e-07 -2.1175260531042139e-06 0 5.3552109924816678e-09 -2.4564468214724155e-06 0 8.0830066908404753e-07 -2.00733862277346e-06 0 -2.0571634273653192e-07 -2.1175260531042139e-06 0 5.3552109924816678e-09 -2.4564468214724155e-06 0 8.0830066908404753e-07 -2.00733862277346e-06 0 1.498963245480926e-06 -2.0673301655768685e-06 0 5.3552109924816678e-09 -2.4564468214724155e-06 0 1.498963245480926e-06 -2.0673301655768685e-06 0 5.3552109924816678e-09 -2.4564468214724155e-06 0 2.0645232409633288e-06 -1.8311058964739246e-06 0 5.3552109924816678e-09 -2.4564468214724155e-06 0 2.0645232409633288e-06 -1.8311058964739246e-06 0 -9.5616403107950094e-07 -2.222943566963612e-06 0 4.6271559485465694e-06 -6.5485049148329111e-07 0 2.0645232409633288e-06 -1.8311058964739246e-06 0 1.7243877782980041e-06 -1.0727108840613563e-06 0 1.7243877782980041e-06 -1.0727108840613563e-06 0 -1.1197468980354256e-06 -1.2883236793195337e-06 0 -5.9320286977553767e-07 2.1083734263114944e-07 0 1.7243877782980041e-06 -1.0727108840613563e-06 0 -1.1197468980354256e-06 -1.2883236793195337e-06 0 -9.5616403107950094e-07 -2.222943566963612e-06 0 2.0645232409633288e-06 -1.8311058964739246e-06 0 1.7243877782980041e-06 -1.0727108840613563e-06 0 -9.5616403107950094e-07 -2.222943566963612e-06 0 -1.1197468980354256e-06 -1.2883236793195337e-06 0 -4.1721163744031163e-06 -1.7867775249230755e-06 0 -9.5616403107950094e-07 -2.222943566963612e-06 0 -1.1197468980354256e-06 -1.2883236793195337e-06 0 -4.1985503312444192e-06 -4.7508813155200713e-07 0 -5.9320286977553767e-07 2.1083734263114944e-07 0 -1.1197468980354256e-06 -1.2883236793195337e-06 0 -4.1985503312444192e-06 -4.7508813155200713e-07 0 -4.1721163744031163e-06 -1.7867775249230755e-06 0 -4.1721163744031163e-06 -1.7867775249230755e-06 0 -9.5616403107950094e-07 -2.222943566963612e-06 0 -2.481351973073837e-06 -2.4564605818384997e-06 0 -4.1721163744031163e-06 -1.7867775249230755e-06 0 -2.481351973073837e-06 -2.4564605818384997e-06 0 -4.8697459980335378e-06 -1.9937588656717095e-06 0 5.3552109924816678e-09 -2.4564468214724155e-06 0 -9.5616403107950094e-07 -2.222943566963612e-06 0 -2.481351973073837e-06 -2.4564605818384997e-06 0 -1.2484721624664083e-06 -2.4236633833130613e-06 0 5.3552109924816678e-09 -2.4564468214724155e-06 0 -2.481351973073837e-06 -2.4564605818384997e-06 0 -3.9294884014431524e-06 -2.0920719361301531e-06 0 -2.481351973073837e-06 -2.4564605818384997e-06 0 -4.8697459980335378e-06 -1.9937588656717095e-06 0 -3.9294884014431524e-06 -2.0920719361301531e-06 0 -4.8697459980335378e-06 -1.9937588656717095e-06 0 -6.0622847374493082e-06 -1.5575000857427766e-06 0 -4.8697459980335378e-06 -1.9937588656717095e-06 0 -7.5119957582867777e-06 -1.1288544424287071e-06 0 -6.0622847374493082e-06 -1.5575000857427766e-06 0 -4.1721163744031163e-06 -1.7867775249230755e-06 0 -4.8697459980335378e-06 -1.9937588656717095e-06 0 -7.5119957582867777e-06 -1.1288544424287071e-06 0 -4.1721163744031163e-06 -1.7867775249230755e-06 0 -8.7355222210606404e-06 1.7281794880772046e-07 0 -7.5119957582867777e-06 -1.1288544424287071e-06 0 -4.1985503312444192e-06 -4.7508813155200713e-07 0 -4.1721163744031163e-06 -1.7867775249230755e-06 0 -8.7355222210606404e-06 1.7281794880772046e-07 0 -8.7355222210606404e-06 1.7281794880772046e-07 0 -7.5119957582867777e-06 -1.1288544424287071e-06 0 -1.1676065458535615e-05 4.8637887287249203e-07 0 -7.5119957582867777e-06 -1.1288544424287071e-06 0 -1.1676065458535615e-05 4.8637887287249203e-07 0 -9.1263507989163067e-06 -6.230172497240101e-07 0 -8.7355222210606404e-06 1.7281794880772046e-07 0 -1.1676065458535615e-05 4.8637887287249203e-07 0 -1.4542014525462404e-05 2.8285525285395944e-06 0 -1.1676065458535615e-05 4.8637887287249203e-07 0 -1.179175491009388e-05 6.6795815701426948e-07 0 -1.6319377604109985e-05 2.7489958427155211e-06 0 -1.1676065458535615e-05 4.8637887287249203e-07 0 -1.179175491009388e-05 6.6795815701426948e-07 0 -9.1263507989163067e-06 -6.230172497240101e-07 0 -1.179175491009388e-05 6.6795815701426948e-07 0 -9.1263507989163067e-06 -6.230172497240101e-07 0 -7.9102386597214601e-06 -3.5937700601827365e-07 0 -7.5119957582867777e-06 -1.1288544424287071e-06 0 -9.1263507989163067e-06 -6.230172497240101e-07 0 -6.0622847374493082e-06 -1.5575000857427766e-06 0 -9.1263507989163067e-06 -6.230172497240101e-07 0 -6.0622847374493082e-06 -1.5575000857427766e-06 0 -7.9102386597214601e-06 -3.5937700601827365e-07 0 -4.3321733516940082e-06 -1.2823165336397211e-06 0 -6.0622847374493082e-06 -1.5575000857427766e-06 0 -7.9102386597214601e-06 -3.5937700601827365e-07 0 -2.7187549399894393e-05 1.1824235927345684e-05 0 -2.3412725336392222e-05 1.1944049078360599e-05 0 -1.8850315188270676e-05 7.1756303738267079e-06 0 -2.7187549399894393e-05 1.1824235927345684e-05 0 -2.3412725336392222e-05 1.1944049078360599e-05 0 -3.3645039247025694e-05 1.9431982215250903e-05 0 -2.3412725336392222e-05 1.1944049078360599e-05 0 -1.8850315188270676e-05 7.1756303738267079e-06 0 -1.5939698114918871e-05 9.7613476127279159e-06 0 -2.3412725336392222e-05 1.1944049078360599e-05 0 -1.5939698114918871e-05 9.7613476127279159e-06 0 -2.2876818135855628e-05 1.6605537208674119e-05 0 -2.7187549399894393e-05 1.1824235927345684e-05 0 -1.8850315188270676e-05 7.1756303738267079e-06 0 -2.1392810030504513e-05 6.3258532841226023e-06 0 -2.1392810030504513e-05 6.3258532841226023e-06 0 -1.6319377604109985e-05 2.7489958427155211e-06 0 -1.4542014525462404e-05 2.8285525285395944e-06 0 -1.1676065458535615e-05 4.8637887287249203e-07 0 -1.6319377604109985e-05 2.7489958427155211e-06 0 -1.4542014525462404e-05 2.8285525285395944e-06 0 -1.8850315188270676e-05 7.1756303738267079e-06 0 -2.1392810030504513e-05 6.3258532841226023e-06 0 -1.4542014525462404e-05 2.8285525285395944e-06 0 -1.8850315188270676e-05 7.1756303738267079e-06 0 -1.4542014525462404e-05 2.8285525285395944e-06 0 -1.0713651735838814e-05 4.0292981404310637e-06 0 -8.7355222210606404e-06 1.7281794880772046e-07 0 -6.9282975869854209e-06 1.2934449365830356e-06 0 -1.0713651735838814e-05 4.0292981404310637e-06 0 -8.7355222210606404e-06 1.7281794880772046e-07 0 -1.4542014525462404e-05 2.8285525285395944e-06 0 -1.0713651735838814e-05 4.0292981404310637e-06 0 -4.1985503312444192e-06 -4.7508813155200713e-07 0 -8.7355222210606404e-06 1.7281794880772046e-07 0 -6.9282975869854209e-06 1.2934449365830356e-06 0 -1.0713651735838814e-05 4.0292981404310637e-06 0 -1.5939698114918871e-05 9.7613476127279159e-06 0 -9.8428593576890538e-06 8.8800175989973256e-06 0 -1.8850315188270676e-05 7.1756303738267079e-06 0 -1.0713651735838814e-05 4.0292981404310637e-06 0 -1.5939698114918871e-05 9.7613476127279159e-06 0 -1.5939698114918871e-05 9.7613476127279159e-06 0 -9.8428593576890538e-06 8.8800175989973256e-06 0 -1.4152352996090091e-05 1.5150255876463625e-05 0 -9.8428593576890538e-06 8.8800175989973256e-06 0 -4.1143695267036147e-06 5.3173084111452272e-06 0 -4.1661562484517402e-06 1.2523121204168218e-05 0 -4.1143695267036147e-06 5.3173084111452272e-06 0 6.8448449606844847e-07 6.912747388208699e-06 0 -4.1661562484517402e-06 1.2523121204168218e-05 0 -4.1143695267036147e-06 5.3173084111452272e-06 0 1.4300671750318212e-08 2.8320197475238508e-06 0 6.8448449606844847e-07 6.912747388208699e-06 0 -1.0713651735838814e-05 4.0292981404310637e-06 0 -9.8428593576890538e-06 8.8800175989973256e-06 0 -4.1143695267036147e-06 5.3173084111452272e-06 0 -1.0713651735838814e-05 4.0292981404310637e-06 0 -4.1143695267036147e-06 5.3173084111452272e-06 0 -3.9394298893330604e-06 2.0665666552558786e-06 0 -6.9282975869854209e-06 1.2934449365830356e-06 0 -1.0713651735838814e-05 4.0292981404310637e-06 0 -3.9394298893330604e-06 2.0665666552558786e-06 0 -4.1985503312444192e-06 -4.7508813155200713e-07 0 -6.9282975869854209e-06 1.2934449365830356e-06 0 -3.9394298893330604e-06 2.0665666552558786e-06 0 -4.1985503312444192e-06 -4.7508813155200713e-07 0 -3.9394298893330604e-06 2.0665666552558786e-06 0 -5.9320286977553767e-07 2.1083734263114944e-07 0 -3.9394298893330604e-06 2.0665666552558786e-06 0 -5.9320286977553767e-07 2.1083734263114944e-07 0 1.4300671750318212e-08 2.8320197475238508e-06 0 -4.1143695267036147e-06 5.3173084111452272e-06 0 -3.9394298893330604e-06 2.0665666552558786e-06 0 1.4300671750318212e-08 2.8320197475238508e-06 0 -5.9320286977553767e-07 2.1083734263114944e-07 0 1.4300671750318212e-08 2.8320197475238508e-06 0 2.8464708130978752e-06 1.0372637313260918e-06 0 1.4300671750318212e-08 2.8320197475238508e-06 0 2.8464708130978752e-06 1.0372637313260918e-06 0 4.2524304911039003e-06 4.2167398239945962e-06 0 1.7243877782980041e-06 -1.0727108840613563e-06 0 -5.9320286977553767e-07 2.1083734263114944e-07 0 2.8464708130978752e-06 1.0372637313260918e-06 0 2.8464708130978752e-06 1.0372637313260918e-06 0 4.6063012993082438e-06 2.4070446507412949e-07 0 6.265963987531136e-06 2.0886151439595022e-06 0 1.7243877782980041e-06 -1.0727108840613563e-06 0 2.8464708130978752e-06 1.0372637313260918e-06 0 4.6063012993082438e-06 2.4070446507412949e-07 0 2.8464708130978752e-06 1.0372637313260918e-06 0 4.2524304911039003e-06 4.2167398239945962e-06 0 6.265963987531136e-06 2.0886151439595022e-06 0 4.2524304911039003e-06 4.2167398239945962e-06 0 6.265963987531136e-06 2.0886151439595022e-06 0 9.1149496041701923e-06 5.5250381226106596e-06 0 1.4300671750318212e-08 2.8320197475238508e-06 0 4.2524304911039003e-06 4.2167398239945962e-06 0 6.8448449606844847e-07 6.912747388208699e-06 0 4.2524304911039003e-06 4.2167398239945962e-06 0 6.8448449606844847e-07 6.912747388208699e-06 0 5.4120581388023119e-06 9.3124887306703814e-06 0 4.2524304911039003e-06 4.2167398239945962e-06 0 5.4120581388023119e-06 9.3124887306703814e-06 0 9.1149496041701923e-06 5.5250381226106596e-06 0 5.4120581388023119e-06 9.3124887306703814e-06 0 9.2982208467909126e-06 1.3911195518412659e-05 0 1.2458440197515819e-05 9.6698089442950813e-06 0 5.4120581388023119e-06 9.3124887306703814e-06 0 9.1149496041701923e-06 5.5250381226106596e-06 0 1.2458440197515819e-05 9.6698089442950813e-06 0 5.4120581388023119e-06 9.3124887306703814e-06 0 2.6096136025333292e-06 1.6063274251744095e-05 0 -4.1661562484517402e-06 1.2523121204168218e-05 0 6.8448449606844847e-07 6.912747388208699e-06 0 5.4120581388023119e-06 9.3124887306703814e-06 0 -4.1661562484517402e-06 1.2523121204168218e-05 0 5.4120581388023119e-06 9.3124887306703814e-06 0 2.6096136025333292e-06 1.6063274251744095e-05 0 9.2982208467909126e-06 1.3911195518412659e-05 0 9.2982208467909126e-06 1.3911195518412659e-05 0 7.0521949786034434e-06 2.2764407571313387e-05 0 1.6177059014995139e-05 1.5793775785126768e-05 0 7.0521949786034434e-06 2.2764407571313387e-05 0 1.6177059014995139e-05 1.5793775785126768e-05 0 1.5192400595595439e-05 3.1226210318740629e-05 0 7.0521949786034434e-06 2.2764407571313387e-05 0 6.9855971347182489e-06 3.4947686704288149e-05 0 1.5192400595595439e-05 3.1226210318740629e-05 0 7.0521949786034434e-06 2.2764407571313387e-05 0 -1.9962035644527267e-06 3.7622356969565974e-05 0 6.9855971347182489e-06 3.4947686704288149e-05 0 2.6096136025333292e-06 1.6063274251744095e-05 0 7.0521949786034434e-06 2.2764407571313387e-05 0 -5.3470883441521568e-06 2.4701596452980399e-05 0 2.6096136025333292e-06 1.6063274251744095e-05 0 9.2982208467909126e-06 1.3911195518412659e-05 0 7.0521949786034434e-06 2.2764407571313387e-05 0 7.0521949786034434e-06 2.2764407571313387e-05 0 -5.3470883441521568e-06 2.4701596452980399e-05 0 -1.9962035644527267e-06 3.7622356969565974e-05 0 -5.3470883441521568e-06 2.4701596452980399e-05 0 -1.4420347913902114e-05 3.9112234741119454e-05 0 -1.9962035644527267e-06 3.7622356969565974e-05 0 -5.3470883441521568e-06 2.4701596452980399e-05 0 -1.2904213560995315e-05 2.270187841111827e-05 0 -1.4420347913902114e-05 3.9112234741119454e-05 0 -5.3470883441521568e-06 2.4701596452980399e-05 0 -4.1661562484517402e-06 1.2523121204168218e-05 0 -1.2904213560995315e-05 2.270187841111827e-05 0 -4.1661562484517402e-06 1.2523121204168218e-05 0 -1.4152352996090091e-05 1.5150255876463625e-05 0 -1.2904213560995315e-05 2.270187841111827e-05 0 2.6096136025333292e-06 1.6063274251744095e-05 0 -5.3470883441521568e-06 2.4701596452980399e-05 0 -4.1661562484517402e-06 1.2523121204168218e-05 0 -9.8428593576890538e-06 8.8800175989973256e-06 0 -4.1661562484517402e-06 1.2523121204168218e-05 0 -1.4152352996090091e-05 1.5150255876463625e-05 0 -1.5939698114918871e-05 9.7613476127279159e-06 0 -1.4152352996090091e-05 1.5150255876463625e-05 0 -2.2876818135855628e-05 1.6605537208674119e-05 0 -1.4152352996090091e-05 1.5150255876463625e-05 0 -2.1097904580896155e-05 2.3657437771837417e-05 0 -2.2876818135855628e-05 1.6605537208674119e-05 0 -1.4152352996090091e-05 1.5150255876463625e-05 0 -2.1097904580896155e-05 2.3657437771837417e-05 0 -1.2904213560995315e-05 2.270187841111827e-05 0 -2.1097904580896155e-05 2.3657437771837417e-05 0 -1.2904213560995315e-05 2.270187841111827e-05 0 -2.201934354621223e-05 3.2841195734797517e-05 0 -1.2904213560995315e-05 2.270187841111827e-05 0 -2.201934354621223e-05 3.2841195734797517e-05 0 -1.4420347913902114e-05 3.9112234741119454e-05 0 -2.201934354621223e-05 3.2841195734797517e-05 0 -3.1531908284002907e-05 3.3584241004498065e-05 0 -3.1179425296021274e-05 4.7866585581112448e-05 0 -2.201934354621223e-05 3.2841195734797517e-05 0 -3.1179425296021274e-05 4.7866585581112448e-05 0 -1.4420347913902114e-05 3.9112234741119454e-05 0 -2.1097904580896155e-05 2.3657437771837417e-05 0 -2.201934354621223e-05 3.2841195734797517e-05 0 -3.1531908284002907e-05 3.3584241004498065e-05 0 -2.1097904580896155e-05 2.3657437771837417e-05 0 -3.1531908284002907e-05 3.3584241004498065e-05 0 -2.9911861173570889e-05 2.4120249431480037e-05 0 -3.1531908284002907e-05 3.3584241004498065e-05 0 -4.6480837569500059e-05 4.3738738067990541e-05 0 -3.1179425296021274e-05 4.7866585581112448e-05 0 -3.1531908284002907e-05 3.3584241004498065e-05 0 -4.034248692362476e-05 3.0137704736895579e-05 0 -4.6480837569500059e-05 4.3738738067990541e-05 0 -3.1531908284002907e-05 3.3584241004498065e-05 0 -4.034248692362476e-05 3.0137704736895579e-05 0 -2.9911861173570889e-05 2.4120249431480037e-05 0 -4.034248692362476e-05 3.0137704736895579e-05 0 -2.9911861173570889e-05 2.4120249431480037e-05 0 -3.3645039247025694e-05 1.9431982215250903e-05 0 -2.9911861173570889e-05 2.4120249431480037e-05 0 -2.2876818135855628e-05 1.6605537208674119e-05 0 -3.3645039247025694e-05 1.9431982215250903e-05 0 -2.1097904580896155e-05 2.3657437771837417e-05 0 -2.9911861173570889e-05 2.4120249431480037e-05 0 -2.2876818135855628e-05 1.6605537208674119e-05 0 -2.3412725336392222e-05 1.1944049078360599e-05 0 -2.2876818135855628e-05 1.6605537208674119e-05 0 -3.3645039247025694e-05 1.9431982215250903e-05 0 1.1144758871639296e-05 2.1961062086975173e-06 0 1.1022376541019695e-05 2.4888873246576904e-06 0 1.2476400260235518e-05 3.2530128454308716e-06 0 1.1022376541019695e-05 2.4888873246576904e-06 0 1.2476400260235518e-05 3.2530128454308716e-06 0 1.3101444995575943e-05 4.3014424538705048e-06 0 1.2476400260235518e-05 3.2530128454308716e-06 0 1.3101444995575943e-05 4.3014424538705048e-06 0 1.4568402426850214e-05 5.0078379059415113e-06 0 1.1144758871639296e-05 2.1961062086975173e-06 0 1.2476400260235518e-05 3.2530128454308716e-06 0 1.1996314827663871e-05 2.0711159356928563e-06 0 1.1996314827663871e-05 2.0711159356928563e-06 0 1.0206390105610281e-05 1.1726938651601749e-06 0 1.0821693933975505e-05 2.3264613176363255e-07 0 1.1144758871639296e-05 2.1961062086975173e-06 0 1.1996314827663871e-05 2.0711159356928563e-06 0 1.0206390105610281e-05 1.1726938651601749e-06 0 9.5442613132885214e-06 -8.4101799556313617e-08 0 1.0206390105610281e-05 1.1726938651601749e-06 0 1.0821693933975505e-05 2.3264613176363255e-07 0 1.1144758871639296e-05 2.1961062086975173e-06 0 1.0206390105610281e-05 1.1726938651601749e-06 0 9.7231799474485079e-06 1.5790347064011329e-06 0 1.0206390105610281e-05 1.1726938651601749e-06 0 8.5726019648376298e-06 9.6612043087095903e-07 0 9.7231799474485079e-06 1.5790347064011329e-06 0 8.5614707853097806e-06 3.6334139500886748e-07 0 1.0206390105610281e-05 1.1726938651601749e-06 0 8.5726019648376298e-06 9.6612043087095903e-07 0 7.1166112811483361e-06 9.8299128023579859e-07 0 8.5726019648376298e-06 9.6612043087095903e-07 0 8.1788117767635366e-06 1.0642995753130441e-06 0 8.5726019648376298e-06 9.6612043087095903e-07 0 8.1788117767635366e-06 1.0642995753130441e-06 0 9.7231799474485079e-06 1.5790347064011329e-06 0 8.1788117767635366e-06 1.0642995753130441e-06 0 9.7231799474485079e-06 1.5790347064011329e-06 0 8.999811606279629e-06 1.2626449083073419e-06 0 1.1144758871639296e-05 2.1961062086975173e-06 0 1.1022376541019695e-05 2.4888873246576904e-06 0 9.7231799474485079e-06 1.5790347064011329e-06 0 1.1022376541019695e-05 2.4888873246576904e-06 0 9.7231799474485079e-06 1.5790347064011329e-06 0 8.999811606279629e-06 1.2626449083073419e-06 0 1.1022376541019695e-05 2.4888873246576904e-06 0 8.999811606279629e-06 1.2626449083073419e-06 0 9.1136251084836654e-06 1.5066026745052535e-06 0 8.023146194933127e-06 7.8500125106357966e-07 0 8.999811606279629e-06 1.2626449083073419e-06 0 9.1136251084836654e-06 1.5066026745052535e-06 0 6.3793586236714267e-06 -1.3624867561742672e-07 0 9.1136251084836654e-06 1.5066026745052535e-06 0 6.9576884824546973e-06 7.6190352488885598e-07 0 9.1136251084836654e-06 1.5066026745052535e-06 0 9.3248510921374831e-06 2.8534451423930111e-06 0 1.10590187614604e-05 3.1353514132408046e-06 0 9.1136251084836654e-06 1.5066026745052535e-06 0 6.9576884824546973e-06 7.6190352488885598e-07 0 9.3248510921374831e-06 2.8534451423930111e-06 0 1.1022376541019695e-05 2.4888873246576904e-06 0 9.1136251084836654e-06 1.5066026745052535e-06 0 1.10590187614604e-05 3.1353514132408046e-06 0 4.6063012993082438e-06 2.4070446507412949e-07 0 6.9576884824546973e-06 7.6190352488885598e-07 0 6.265963987531136e-06 2.0886151439595022e-06 0 6.9576884824546973e-06 7.6190352488885598e-07 0 6.265963987531136e-06 2.0886151439595022e-06 0 9.3248510921374831e-06 2.8534451423930111e-06 0 6.265963987531136e-06 2.0886151439595022e-06 0 9.3248510921374831e-06 2.8534451423930111e-06 0 9.1149496041701923e-06 5.5250381226106596e-06 0 9.3248510921374831e-06 2.8534451423930111e-06 0 1.2813907274768772e-05 5.653341899455598e-06 0 9.1149496041701923e-06 5.5250381226106596e-06 0 1.2813907274768772e-05 5.653341899455598e-06 0 9.1149496041701923e-06 5.5250381226106596e-06 0 1.2458440197515819e-05 9.6698089442950813e-06 0 1.1022376541019695e-05 2.4888873246576904e-06 0 1.10590187614604e-05 3.1353514132408046e-06 0 1.3101444995575943e-05 4.3014424538705048e-06 0 9.3248510921374831e-06 2.8534451423930111e-06 0 1.2813907274768772e-05 5.653341899455598e-06 0 1.10590187614604e-05 3.1353514132408046e-06 0 1.2813907274768772e-05 5.653341899455598e-06 0 1.10590187614604e-05 3.1353514132408046e-06 0 1.3101444995575943e-05 4.3014424538705048e-06 0 1.2813907274768772e-05 5.653341899455598e-06 0 1.3101444995575943e-05 4.3014424538705048e-06 0 1.5396998562420193e-05 6.7176207066863696e-06 0 1.3101444995575943e-05 4.3014424538705048e-06 0 1.5396998562420193e-05 6.7176207066863696e-06 0 1.4568402426850214e-05 5.0078379059415113e-06 0 1.2813907274768772e-05 5.653341899455598e-06 0 1.5396998562420193e-05 6.7176207066863696e-06 0 1.8276855909327292e-05 1.0496165148231969e-05 0 1.5396998562420193e-05 6.7176207066863696e-06 0 1.8276855909327292e-05 1.0496165148231969e-05 0 1.7447306308030532e-05 7.4930566142164981e-06 0 1.7447306308030532e-05 7.4930566142164981e-06 0 1.5253466029049196e-05 4.4277394211782875e-06 0 1.4568402426850214e-05 5.0078379059415113e-06 0 1.5396998562420193e-05 6.7176207066863696e-06 0 1.7447306308030532e-05 7.4930566142164981e-06 0 1.4568402426850214e-05 5.0078379059415113e-06 0 1.2813907274768772e-05 5.653341899455598e-06 0 1.2458440197515819e-05 9.6698089442950813e-06 0 1.8276855909327292e-05 1.0496165148231969e-05 0 1.2458440197515819e-05 9.6698089442950813e-06 0 1.8276855909327292e-05 1.0496165148231969e-05 0 1.6177059014995139e-05 1.5793775785126768e-05 0 9.2982208467909126e-06 1.3911195518412659e-05 0 1.2458440197515819e-05 9.6698089442950813e-06 0 1.6177059014995139e-05 1.5793775785126768e-05 0 1.8276855909327292e-05 1.0496165148231969e-05 0 1.6177059014995139e-05 1.5793775785126768e-05 0 2.7582519887423684e-05 1.7228129667820747e-05 0 1.6177059014995139e-05 1.5793775785126768e-05 0 2.7582519887423684e-05 1.7228129667820747e-05 0 1.5192400595595439e-05 3.1226210318740629e-05 0 1.8276855909327292e-05 1.0496165148231969e-05 0 2.0301495480592286e-05 1.0261813996738017e-05 0 2.7582519887423684e-05 1.7228129667820747e-05 0 1.7447306308030532e-05 7.4930566142164981e-06 0 2.0301495480592286e-05 1.0261813996738017e-05 0 1.648330746191691e-05 4.5579130889930251e-06 0 1.7447306308030532e-05 7.4930566142164981e-06 0 1.648330746191691e-05 4.5579130889930251e-06 0 1.5253466029049196e-05 4.4277394211782875e-06 0 1.8276855909327292e-05 1.0496165148231969e-05 0 1.7447306308030532e-05 7.4930566142164981e-06 0 2.0301495480592286e-05 1.0261813996738017e-05 0 2.0301495480592286e-05 1.0261813996738017e-05 0 1.648330746191691e-05 4.5579130889930251e-06 0 1.7747824684715971e-05 1.7924509853386185e-06 0 1.648330746191691e-05 4.5579130889930251e-06 0 1.5751262094799987e-05 -2.488297618860688e-06 0 1.7747824684715971e-05 1.7924509853386185e-06 0 1.648330746191691e-05 4.5579130889930251e-06 0 1.4002236564160211e-05 8.5711983204149748e-07 0 1.5751262094799987e-05 -2.488297618860688e-06 0 1.648330746191691e-05 4.5579130889930251e-06 0 1.4002236564160211e-05 8.5711983204149748e-07 0 1.5253466029049196e-05 4.4277394211782875e-06 0 1.5253466029049196e-05 4.4277394211782875e-06 0 1.3581902444321883e-05 3.2020785711620769e-06 0 1.4568402426850214e-05 5.0078379059415113e-06 0 1.4002236564160211e-05 8.5711983204149748e-07 0 1.5253466029049196e-05 4.4277394211782875e-06 0 1.3581902444321883e-05 3.2020785711620769e-06 0 1.4002236564160211e-05 8.5711983204149748e-07 0 1.3581902444321883e-05 3.2020785711620769e-06 0 1.2345851269537316e-05 4.8623012380745068e-07 0 1.1996314827663871e-05 2.0711159356928563e-06 0 1.3581902444321883e-05 3.2020785711620769e-06 0 1.2345851269537316e-05 4.8623012380745068e-07 0 1.2476400260235518e-05 3.2530128454308716e-06 0 1.1996314827663871e-05 2.0711159356928563e-06 0 1.3581902444321883e-05 3.2020785711620769e-06 0 1.2476400260235518e-05 3.2530128454308716e-06 0 1.3581902444321883e-05 3.2020785711620769e-06 0 1.4568402426850214e-05 5.0078379059415113e-06 0 1.1996314827663871e-05 2.0711159356928563e-06 0 1.0821693933975505e-05 2.3264613176363255e-07 0 1.2345851269537316e-05 4.8623012380745068e-07 0 1.0767258948863558e-05 -2.2031423570707225e-06 0 1.0821693933975505e-05 2.3264613176363255e-07 0 1.2345851269537316e-05 4.8623012380745068e-07 0 1.4002236564160211e-05 8.5711983204149748e-07 0 1.2233951961072858e-05 -2.8427109651691378e-06 0 1.4121230330439504e-05 -6.6520588927723532e-06 0 1.0767258948863558e-05 -2.2031423570707225e-06 0 1.1127457323525458e-05 -5.4090066270654153e-06 0 1.2233951961072858e-05 -2.8427109651691378e-06 0 1.0767258948863558e-05 -2.2031423570707225e-06 0 1.2345851269537316e-05 4.8623012380745068e-07 0 1.2233951961072858e-05 -2.8427109651691378e-06 0 1.4002236564160211e-05 8.5711983204149748e-07 0 1.2345851269537316e-05 4.8623012380745068e-07 0 1.2233951961072858e-05 -2.8427109651691378e-06 0 1.1127457323525458e-05 -5.4090066270654153e-06 0 1.2233951961072858e-05 -2.8427109651691378e-06 0 1.2540787973781299e-05 -8.0784025484935567e-06 0 1.2233951961072858e-05 -2.8427109651691378e-06 0 1.4121230330439504e-05 -6.6520588927723532e-06 0 1.2540787973781299e-05 -8.0784025484935567e-06 0 1.4121230330439504e-05 -6.6520588927723532e-06 0 1.2540787973781299e-05 -8.0784025484935567e-06 0 1.5294726419721809e-05 -1.1350711562031317e-05 0 1.4121230330439504e-05 -6.6520588927723532e-06 0 1.5294726419721809e-05 -1.1350711562031317e-05 0 1.7094073688424539e-05 -1.0829110446426189e-05 0 1.2540787973781299e-05 -8.0784025484935567e-06 0 1.3553149319096406e-05 -1.1896682331058065e-05 0 1.5294726419721809e-05 -1.1350711562031317e-05 0 1.3553149319096406e-05 -1.1896682331058065e-05 0 1.5294726419721809e-05 -1.1350711562031317e-05 0 1.7311847198162946e-05 -1.5947605071276735e-05 0 1.5294726419721809e-05 -1.1350711562031317e-05 0 1.7311847198162946e-05 -1.5947605071276735e-05 0 1.7094073688424539e-05 -1.0829110446426189e-05 0 1.3553149319096406e-05 -1.1896682331058065e-05 0 1.7311847198162946e-05 -1.5947605071276735e-05 0 1.4456840438076549e-05 -1.5237112818533676e-05 0 2.2002624702108203e-05 -1.4130045120056077e-05 0 2.4726102301143942e-05 -1.8508870907600949e-05 0 2.1337071179996965e-05 -1.7420791215374945e-05 0 1.7094073688424539e-05 -1.0829110446426189e-05 0 2.2002624702108203e-05 -1.4130045120056077e-05 0 2.1337071179996965e-05 -1.7420791215374945e-05 0 1.7311847198162946e-05 -1.5947605071276735e-05 0 1.7094073688424539e-05 -1.0829110446426189e-05 0 2.1337071179996965e-05 -1.7420791215374945e-05 0 1.7094073688424539e-05 -1.0829110446426189e-05 0 1.8743745494591057e-05 -5.9062191034652174e-06 0 2.2002624702108203e-05 -1.4130045120056077e-05 0 1.4002236564160211e-05 8.5711983204149748e-07 0 1.4121230330439504e-05 -6.6520588927723532e-06 0 1.5751262094799987e-05 -2.488297618860688e-06 0 1.7094073688424539e-05 -1.0829110446426189e-05 0 1.5751262094799987e-05 -2.488297618860688e-06 0 1.8743745494591057e-05 -5.9062191034652174e-06 0 1.4121230330439504e-05 -6.6520588927723532e-06 0 1.7094073688424539e-05 -1.0829110446426189e-05 0 1.5751262094799987e-05 -2.488297618860688e-06 0 1.5751262094799987e-05 -2.488297618860688e-06 0 1.7747824684715971e-05 1.7924509853386185e-06 0 1.8743745494591057e-05 -5.9062191034652174e-06 0 2.0301495480592286e-05 1.0261813996738017e-05 0 1.7747824684715971e-05 1.7924509853386185e-06 0 2.0989628882306821e-05 1.9402062609420691e-06 0 1.7747824684715971e-05 1.7924509853386185e-06 0 2.0989628882306821e-05 1.9402062609420691e-06 0 1.8743745494591057e-05 -5.9062191034652174e-06 0 2.0301495480592286e-05 1.0261813996738017e-05 0 2.0989628882306821e-05 1.9402062609420691e-06 0 2.7582519887423684e-05 1.7228129667820747e-05 0 2.0989628882306821e-05 1.9402062609420691e-06 0 3.027028670616124e-05 -5.4282491017296309e-06 0 2.4631125233611098e-05 -1.071906033336314e-05 0 2.0989628882306821e-05 1.9402062609420691e-06 0 1.8743745494591057e-05 -5.9062191034652174e-06 0 2.4631125233611098e-05 -1.071906033336314e-05 0 2.7582519887423684e-05 1.7228129667820747e-05 0 2.2183348785405635e-05 5.2681806538909897e-05 0 1.5192400595595439e-05 3.1226210318740629e-05 0 2.0989628882306821e-05 1.9402062609420691e-06 0 2.7582519887423684e-05 1.7228129667820747e-05 0 3.027028670616124e-05 -5.4282491017296309e-06 0 1.0486016458722535e-05 1.4352123003808511e-05 0 3.9904007062289267e-05 2.4365034608814148e-05 0 2.7582519887423684e-05 1.7228129667820747e-05 0 3.9597305748503095e-05 5.109652708818551e-05 0 2.2183348785405635e-05 5.2681806538909897e-05 0 2.2183348785405635e-05 5.2681806538909897e-05 0 4.519020589499015e-05 7.4494663649340881e-05 0 2.1407665954058165e-05 7.2503749494891802e-05 0 3.9904007062289267e-05 2.4365034608814148e-05 0 3.6639319155425137e-05 3.0327565771069205e-05 0 3.027028670616124e-05 -5.4282491017296309e-06 0 3.0477006841693512e-05 -1.3536386825572835e-05 0 2.4631125233611098e-05 -1.071906033336314e-05 0 3.9597305748503095e-05 5.109652708818551e-05 0 2.2183348785405635e-05 5.2681806538909897e-05 0 4.519020589499015e-05 7.4494663649340881e-05 0 3.6639319155425137e-05 3.0327565771069205e-05 0 4.050486808507762e-05 3.8861818420056883e-05 0 3.0477006841693512e-05 -1.3536386825572835e-05 0 2.7354928736318861e-05 -1.6921131039460379e-05 0 3.0906354062635241e-05 -1.7820449350694388e-05 0 4.519020589499015e-05 7.4494663649340881e-05 0 3.4525641670406417e-05 8.8440985644899927e-05 0 2.1407665954058165e-05 7.2503749494891802e-05 0 1.8743745494591057e-05 -5.9062191034652174e-06 0 2.4631125233611098e-05 -1.071906033336314e-05 0 2.2002624702108203e-05 -1.4130045120056077e-05 0 3.0477006841693512e-05 -1.3536386825572835e-05 0 2.4631125233611098e-05 -1.071906033336314e-05 0 2.7354928736318861e-05 -1.6921131039460379e-05 0 2.4631125233611098e-05 -1.071906033336314e-05 0 2.7354928736318861e-05 -1.6921131039460379e-05 0 2.2002624702108203e-05 -1.4130045120056077e-05 0 2.7354928736318861e-05 -1.6921131039460379e-05 0 2.2002624702108203e-05 -1.4130045120056077e-05 0 2.4726102301143942e-05 -1.8508870907600949e-05 0 2.7354928736318861e-05 -1.6921131039460379e-05 0 2.4726102301143942e-05 -1.8508870907600949e-05 0 2.8561638230258472e-05 -2.0776535597022217e-05 0 2.7354928736318861e-05 -1.6921131039460379e-05 0 2.8561638230258472e-05 -2.0776535597022217e-05 0 3.0906354062635241e-05 -1.7820449350694388e-05 0 2.8561638230258472e-05 -2.0776535597022217e-05 0 3.0906354062635241e-05 -1.7820449350694388e-05 0 3.2043770786870573e-05 -2.0301504382763662e-05 0 2.4726102301143942e-05 -1.8508870907600949e-05 0 2.8561638230258472e-05 -2.0776535597022217e-05 0 2.5220933055868079e-05 -2.1110358620231563e-05 0 3.4525641670406417e-05 8.8440985644899927e-05 0 3.7880438410019683e-05 0.00010187388460974641 0 2.1060209561866376e-05 9.4988357467415958e-05 0 3.4525641670406417e-05 8.8440985644899927e-05 0 4.944639516901722e-05 9.5220044495638402e-05 0 3.7880438410019683e-05 0.00010187388460974641 0 4.519020589499015e-05 7.4494663649340881e-05 0 3.4525641670406417e-05 8.8440985644899927e-05 0 4.944639516901722e-05 9.5220044495638402e-05 0 4.050486808507762e-05 3.8861818420056883e-05 0 4.2387427714582745e-05 4.7616175346507956e-05 0 4.944639516901722e-05 9.5220044495638402e-05 0 3.7880438410019683e-05 0.00010187388460974641 0 5.2994738309288307e-05 0.00011558769680911428 0 3.7880438410019683e-05 0.00010187388460974641 0 5.2994738309288307e-05 0.00011558769680911428 0 3.1563430407232779e-05 0.0001135802773364493 0 5.2994738309288307e-05 0.00011558769680911428 0 3.8826667575464205e-05 0.00012719055538829501 0 3.1563430407232779e-05 0.0001135802773364493 0 5.2994738309288307e-05 0.00011558769680911428 0 5.6270255470002725e-05 0.00013571607284602671 0 3.8826667575464205e-05 0.00012719055538829501 0 3.2043770786870573e-05 -2.0301504382763662e-05 0 3.3546739143158192e-05 -2.1849133087988784e-05 0 3.1139312877599162e-05 -2.2668770455049318e-05 0 4.2387427714582745e-05 4.7616175346507956e-05 0 4.4816401166281732e-05 5.6913855997225056e-05 0 5.6270255470002725e-05 0.00013571607284602671 0 3.8826667575464205e-05 0.00012719055538829501 0 3.5631663899072624e-05 0.00014129551947977641 0 2.8561638230258472e-05 -2.0776535597022217e-05 0 2.8285816019971275e-05 -2.3141494138205167e-05 0 3.1139312877599162e-05 -2.2668770455049318e-05 0 2.8561638230258472e-05 -2.0776535597022217e-05 0 2.8285816019971275e-05 -2.3141494138205167e-05 0 2.5220933055868079e-05 -2.1110358620231563e-05 0 2.8561638230258472e-05 -2.0776535597022217e-05 0 3.2043770786870573e-05 -2.0301504382763662e-05 0 3.1139312877599162e-05 -2.2668770455049318e-05 0 2.8285816019971275e-05 -2.3141494138205167e-05 0 3.1139312877599162e-05 -2.2668770455049318e-05 0 2.9593651268816077e-05 -2.4768368202445093e-05 0 3.1139312877599162e-05 -2.2668770455049318e-05 0 2.9593651268816077e-05 -2.4768368202445093e-05 0 3.3038414628447358e-05 -2.4382028797340466e-05 0 2.8285816019971275e-05 -2.3141494138205167e-05 0 2.9593651268816077e-05 -2.4768368202445093e-05 0 2.494010918402113e-05 -2.3594106100566272e-05 0 2.9593651268816077e-05 -2.4768368202445093e-05 0 2.494010918402113e-05 -2.3594106100566272e-05 0 2.83550926960554e-05 -2.6101012948250809e-05 0 2.8285816019971275e-05 -2.3141494138205167e-05 0 2.494010918402113e-05 -2.3594106100566272e-05 0 2.5220933055868079e-05 -2.1110358620231563e-05 0 2.494010918402113e-05 -2.3594106100566272e-05 0 1.9766311904867277e-05 -2.0427323677284481e-05 0 2.2225070660831537e-05 -2.0695953918068492e-05 0 2.494010918402113e-05 -2.3594106100566272e-05 0 2.5220933055868079e-05 -2.1110358620231563e-05 0 2.2225070660831537e-05 -2.0695953918068492e-05 0 2.494010918402113e-05 -2.3594106100566272e-05 0 2.0997513456631348e-05 -2.2943348339969185e-05 0 2.4908585034320738e-05 -2.6193541915552608e-05 0 2.0997513456631348e-05 -2.2943348339969185e-05 0 2.4908585034320738e-05 -2.6193541915552608e-05 0 2.0112402889025422e-05 -2.4091292976429199e-05 0 2.0997513456631348e-05 -2.2943348339969185e-05 0 1.9766311904867277e-05 -2.0427323677284481e-05 0 1.7765046155471132e-05 -2.1111438547561694e-05 0 2.494010918402113e-05 -2.3594106100566272e-05 0 2.0997513456631348e-05 -2.2943348339969185e-05 0 1.9766311904867277e-05 -2.0427323677284481e-05 0 1.7311847198162946e-05 -1.5947605071276735e-05 0 1.9766311904867277e-05 -2.0427323677284481e-05 0 2.2225070660831537e-05 -2.0695953918068492e-05 0 1.9766311904867277e-05 -2.0427323677284481e-05 0 1.6815773606376266e-05 -1.8343903717907756e-05 0 1.7765046155471132e-05 -2.1111438547561694e-05 0 1.7311847198162946e-05 -1.5947605071276735e-05 0 1.9766311904867277e-05 -2.0427323677284481e-05 0 1.6815773606376266e-05 -1.8343903717907756e-05 0 1.7311847198162946e-05 -1.5947605071276735e-05 0 1.4456840438076549e-05 -1.5237112818533676e-05 0 1.6815773606376266e-05 -1.8343903717907756e-05 0 1.7311847198162946e-05 -1.5947605071276735e-05 0 2.1337071179996965e-05 -1.7420791215374945e-05 0 2.2225070660831537e-05 -2.0695953918068492e-05 0 2.4726102301143942e-05 -1.8508870907600949e-05 0 2.1337071179996965e-05 -1.7420791215374945e-05 0 2.5220933055868079e-05 -2.1110358620231563e-05 0 2.1337071179996965e-05 -1.7420791215374945e-05 0 2.5220933055868079e-05 -2.1110358620231563e-05 0 2.2225070660831537e-05 -2.0695953918068492e-05 0 -5.5842528701252806e-05 7.841850135070762e-05 0 -3.9529266358841695e-05 8.5197227419628842e-05 0 -4.1070608893854152e-05 6.7279802800498215e-05 0 -5.5842528701252806e-05 7.841850135070762e-05 0 -3.9529266358841695e-05 8.5197227419628842e-05 0 -5.8687022406459205e-05 9.8147704115872535e-05 0 -3.9529266358841695e-05 8.5197227419628842e-05 0 -4.1070608893854152e-05 6.7279802800498215e-05 0 -2.8097851482035134e-05 6.7329879011880298e-05 0 -5.5842528701252806e-05 7.841850135070762e-05 0 -4.1070608893854152e-05 6.7279802800498215e-05 0 -5.1470296167507572e-05 5.9902711678141979e-05 0 -5.1470296167507572e-05 5.9902711678141979e-05 0 -4.6480837569500059e-05 4.3738738067990541e-05 0 -3.1179425296021274e-05 4.7866585581112448e-05 0 -4.1070608893854152e-05 6.7279802800498215e-05 0 -3.1179425296021274e-05 4.7866585581112448e-05 0 -2.8097851482035134e-05 6.7329879011880298e-05 0 -4.1070608893854152e-05 6.7279802800498215e-05 0 -5.1470296167507572e-05 5.9902711678141979e-05 0 -3.1179425296021274e-05 4.7866585581112448e-05 0 -3.1179425296021274e-05 4.7866585581112448e-05 0 -1.9071272274314955e-05 5.5745136964699167e-05 0 -2.8097851482035134e-05 6.7329879011880298e-05 0 -3.1179425296021274e-05 4.7866585581112448e-05 0 -1.4420347913902114e-05 3.9112234741119454e-05 0 -1.9071272274314955e-05 5.5745136964699167e-05 0 -1.9071272274314955e-05 5.5745136964699167e-05 0 -1.7214775717752807e-05 6.8842069358339793e-05 0 -7.5358972909911203e-06 5.8213688934063755e-05 0 -1.9071272274314955e-05 5.5745136964699167e-05 0 -1.7214775717752807e-05 6.8842069358339793e-05 0 -2.8097851482035134e-05 6.7329879011880298e-05 0 -1.7214775717752807e-05 6.8842069358339793e-05 0 -2.8097851482035134e-05 6.7329879011880298e-05 0 -2.2878855294041188e-05 8.3554367275479865e-05 0 -3.9529266358841695e-05 8.5197227419628842e-05 0 -2.8097851482035134e-05 6.7329879011880298e-05 0 -2.2878855294041188e-05 8.3554367275479865e-05 0 -1.7214775717752807e-05 6.8842069358339793e-05 0 -2.2878855294041188e-05 8.3554367275479865e-05 0 -8.26992716731377e-06 8.0758207861055233e-05 0 -8.26992716731377e-06 8.0758207861055233e-05 0 6.1060158590988188e-06 7.5714054042119887e-05 0 2.8430961146975533e-06 9.6039880534740397e-05 0 -8.26992716731377e-06 8.0758207861055233e-05 0 -7.5358972909911203e-06 5.8213688934063755e-05 0 6.1060158590988188e-06 7.5714054042119887e-05 0 -7.5358972909911203e-06 5.8213688934063755e-05 0 7.4540464227521044e-06 5.1605033264295694e-05 0 6.1060158590988188e-06 7.5714054042119887e-05 0 -1.7214775717752807e-05 6.8842069358339793e-05 0 -8.26992716731377e-06 8.0758207861055233e-05 0 -7.5358972909911203e-06 5.8213688934063755e-05 0 -1.4420347913902114e-05 3.9112234741119454e-05 0 -1.9071272274314955e-05 5.5745136964699167e-05 0 -7.5358972909911203e-06 5.8213688934063755e-05 0 -1.4420347913902114e-05 3.9112234741119454e-05 0 -7.5358972909911203e-06 5.8213688934063755e-05 0 -1.9962035644527267e-06 3.7622356969565974e-05 0 -7.5358972909911203e-06 5.8213688934063755e-05 0 -1.9962035644527267e-06 3.7622356969565974e-05 0 7.4540464227521044e-06 5.1605033264295694e-05 0 -1.9962035644527267e-06 3.7622356969565974e-05 0 7.4540464227521044e-06 5.1605033264295694e-05 0 6.9855971347182489e-06 3.4947686704288149e-05 0 7.4540464227521044e-06 5.1605033264295694e-05 0 6.9855971347182489e-06 3.4947686704288149e-05 0 1.5192400595595439e-05 3.1226210318740629e-05 0 2.2183348785405635e-05 5.2681806538909897e-05 0 7.4540464227521044e-06 5.1605033264295694e-05 0 1.5192400595595439e-05 3.1226210318740629e-05 0 2.2183348785405635e-05 5.2681806538909897e-05 0 7.4540464227521044e-06 5.1605033264295694e-05 0 2.1407665954058165e-05 7.2503749494891802e-05 0 7.4540464227521044e-06 5.1605033264295694e-05 0 6.1060158590988188e-06 7.5714054042119887e-05 0 2.1407665954058165e-05 7.2503749494891802e-05 0 6.1060158590988188e-06 7.5714054042119887e-05 0 2.1407665954058165e-05 7.2503749494891802e-05 0 2.1060209561866376e-05 9.4988357467415958e-05 0 3.4525641670406417e-05 8.8440985644899927e-05 0 2.1407665954058165e-05 7.2503749494891802e-05 0 2.1060209561866376e-05 9.4988357467415958e-05 0 6.1060158590988188e-06 7.5714054042119887e-05 0 2.1060209561866376e-05 9.4988357467415958e-05 0 2.8430961146975533e-06 9.6039880534740397e-05 0 2.1060209561866376e-05 9.4988357467415958e-05 0 1.4212899189757996e-05 0.00010891307806890311 0 2.8430961146975533e-06 9.6039880534740397e-05 0 2.1060209561866376e-05 9.4988357467415958e-05 0 1.4212899189757996e-05 0.00010891307806890311 0 3.1563430407232779e-05 0.0001135802773364493 0 3.7880438410019683e-05 0.00010187388460974641 0 2.1060209561866376e-05 9.4988357467415958e-05 0 3.1563430407232779e-05 0.0001135802773364493 0 3.8826667575464205e-05 0.00012719055538829501 0 3.1563430407232779e-05 0.0001135802773364493 0 1.7959746845521023e-05 0.00012793317796827079 0 3.8826667575464205e-05 0.00012719055538829501 0 1.7959746845521023e-05 0.00012793317796827079 0 3.5631663899072624e-05 0.00014129551947977641 0 1.4212899189757996e-05 0.00010891307806890311 0 3.1563430407232779e-05 0.0001135802773364493 0 1.7959746845521023e-05 0.00012793317796827079 0 1.4212899189757996e-05 0.00010891307806890311 0 1.7959746845521023e-05 0.00012793317796827079 0 -1.9455833299700027e-06 0.00011178265007798437 0 1.7959746845521023e-05 0.00012793317796827079 0 -4.0360776508924824e-06 0.00012977636557777225 0 -1.9455833299700027e-06 0.00011178265007798437 0 1.7959746845521023e-05 0.00012793317796827079 0 -4.0360776508924824e-06 0.00012977636557777225 0 1.5510096622430688e-06 0.00014694174353544541 0 -4.0360776508924824e-06 0.00012977636557777225 0 -1.9455833299700027e-06 0.00011178265007798437 0 -1.9040785902788557e-05 0.00012832192490744765 0 -1.9455833299700027e-06 0.00011178265007798437 0 -1.4988853355019324e-05 0.00010224560967365529 0 -1.9040785902788557e-05 0.00012832192490744765 0 -1.9455833299700027e-06 0.00011178265007798437 0 2.8430961146975533e-06 9.6039880534740397e-05 0 -1.4988853355019324e-05 0.00010224560967365529 0 1.4212899189757996e-05 0.00010891307806890311 0 -1.9455833299700027e-06 0.00011178265007798437 0 2.8430961146975533e-06 9.6039880534740397e-05 0 -8.26992716731377e-06 8.0758207861055233e-05 0 2.8430961146975533e-06 9.6039880534740397e-05 0 -1.4988853355019324e-05 0.00010224560967365529 0 -2.2878855294041188e-05 8.3554367275479865e-05 0 -8.26992716731377e-06 8.0758207861055233e-05 0 -1.4988853355019324e-05 0.00010224560967365529 0 -2.2878855294041188e-05 8.3554367275479865e-05 0 -2.9809144413986417e-05 9.8855737507247697e-05 0 -1.4988853355019324e-05 0.00010224560967365529 0 -3.9529266358841695e-05 8.5197227419628842e-05 0 -2.2878855294041188e-05 8.3554367275479865e-05 0 -2.9809144413986417e-05 9.8855737507247697e-05 0 -2.9809144413986417e-05 9.8855737507247697e-05 0 -2.9528516705834368e-05 0.00011348105687696357 0 -4.3771627437664851e-05 0.00010984589871497678 0 -2.9809144413986417e-05 9.8855737507247697e-05 0 -1.4988853355019324e-05 0.00010224560967365529 0 -2.9528516705834368e-05 0.00011348105687696357 0 -1.4988853355019324e-05 0.00010224560967365529 0 -1.9040785902788557e-05 0.00012832192490744765 0 -2.9528516705834368e-05 0.00011348105687696357 0 -4.0360776508924824e-06 0.00012977636557777225 0 -1.9040785902788557e-05 0.00012832192490744765 0 -1.6300584324327984e-05 0.00014711733746527059 0 -1.9040785902788557e-05 0.00012832192490744765 0 -4.0710613454262155e-05 0.00012874605003266985 0 -3.0411104316556967e-05 0.00014232075763885116 0 -1.9040785902788557e-05 0.00012832192490744765 0 -2.9528516705834368e-05 0.00011348105687696357 0 -4.0710613454262155e-05 0.00012874605003266985 0 -2.9528516705834368e-05 0.00011348105687696357 0 -4.0710613454262155e-05 0.00012874605003266985 0 -4.3771627437664851e-05 0.00010984589871497678 0 -4.0710613454262155e-05 0.00012874605003266985 0 -6.0588976000118944e-05 0.00011889955177593332 0 -6.1593156116159528e-05 0.00013997891755499465 0 -4.0710613454262155e-05 0.00012874605003266985 0 -6.1593156116159528e-05 0.00013997891755499465 0 -4.4854647052665233e-05 0.00014840632170353235 0 -4.0710613454262155e-05 0.00012874605003266985 0 -6.0588976000118944e-05 0.00011889955177593332 0 -4.3771627437664851e-05 0.00010984589871497678 0 -6.0588976000118944e-05 0.00011889955177593332 0 -4.3771627437664851e-05 0.00010984589871497678 0 -5.8687022406459205e-05 9.8147704115872535e-05 0 -3.9529266358841695e-05 8.5197227419628842e-05 0 -2.9809144413986417e-05 9.8855737507247697e-05 0 -4.3771627437664851e-05 0.00010984589871497678 0 -3.9529266358841695e-05 8.5197227419628842e-05 0 -4.3771627437664851e-05 0.00010984589871497678 0 -5.8687022406459205e-05 9.8147704115872535e-05 0 -6.2460590138680255e-05 0.00018296207099658139 0 -3.4795841357806153e-05 0.00018325912707203707 0 -4.2384826979807861e-05 0.00020413822568702761 0 -6.2460590138680255e-05 0.00018296207099658139 0 -4.6635837535982201e-05 0.00016742094379871685 0 -3.4795841357806153e-05 0.00018325912707203707 0 -4.6635837535982201e-05 0.00016742094379871685 0 -3.1413099541190366e-05 0.00015935715709060008 0 -3.4795841357806153e-05 0.00018325912707203707 0 -6.2460590138680255e-05 0.00018296207099658139 0 -4.6635837535982201e-05 0.00016742094379871685 0 -6.2185440626474545e-05 0.00016132951126344907 0 -4.6635837535982201e-05 0.00016742094379871685 0 -6.2185440626474545e-05 0.00016132951126344907 0 -4.4854647052665233e-05 0.00014840632170353235 0 -6.2185440626474545e-05 0.00016132951126344907 0 -6.1593156116159528e-05 0.00013997891755499465 0 -4.4854647052665233e-05 0.00014840632170353235 0 -4.0710613454262155e-05 0.00012874605003266985 0 -4.4854647052665233e-05 0.00014840632170353235 0 -3.0411104316556967e-05 0.00014232075763885116 0 -4.6635837535982201e-05 0.00016742094379871685 0 -4.4854647052665233e-05 0.00014840632170353235 0 -3.1413099541190366e-05 0.00015935715709060008 0 -3.1413099541190366e-05 0.00015935715709060008 0 -3.0411104316556967e-05 0.00014232075763885116 0 -1.6300584324327984e-05 0.00014711733746527059 0 -4.4854647052665233e-05 0.00014840632170353235 0 -3.1413099541190366e-05 0.00015935715709060008 0 -3.0411104316556967e-05 0.00014232075763885116 0 -1.9040785902788557e-05 0.00012832192490744765 0 -3.0411104316556967e-05 0.00014232075763885116 0 -1.6300584324327984e-05 0.00014711733746527059 0 -3.1413099541190366e-05 0.00015935715709060008 0 -1.6300584324327984e-05 0.00014711733746527059 0 -1.535347984748755e-05 0.00016549403922257619 0 -1.535347984748755e-05 0.00016549403922257619 0 -3.4795841357806153e-05 0.00018325912707203707 0 -1.3296898442477188e-05 0.0001847517114678564 0 -3.1413099541190366e-05 0.00015935715709060008 0 -1.535347984748755e-05 0.00016549403922257619 0 -3.4795841357806153e-05 0.00018325912707203707 0 -3.4795841357806153e-05 0.00018325912707203707 0 -1.3296898442477188e-05 0.0001847517114678564 0 -2.0745411657230641e-05 0.00020599593523162345 0 -1.3296898442477188e-05 0.0001847517114678564 0 7.2259942774216647e-07 0.00017188250280544641 0 3.4457743457704028e-06 0.00019509768724174027 0 7.2259942774216647e-07 0.00017188250280544641 0 1.8616823374612895e-05 0.00017987750644951023 0 3.4457743457704028e-06 0.00019509768724174027 0 7.2259942774216647e-07 0.00017188250280544641 0 1.3549745083954834e-05 0.00016006751709126782 0 1.8616823374612895e-05 0.00017987750644951023 0 -1.535347984748755e-05 0.00016549403922257619 0 -1.3296898442477188e-05 0.0001847517114678564 0 7.2259942774216647e-07 0.00017188250280544641 0 -1.6300584324327984e-05 0.00014711733746527059 0 -1.535347984748755e-05 0.00016549403922257619 0 1.5510096622430688e-06 0.00014694174353544541 0 -1.535347984748755e-05 0.00016549403922257619 0 7.2259942774216647e-07 0.00017188250280544641 0 1.5510096622430688e-06 0.00014694174353544541 0 -4.0360776508924824e-06 0.00012977636557777225 0 -1.6300584324327984e-05 0.00014711733746527059 0 1.5510096622430688e-06 0.00014694174353544541 0 1.5510096622430688e-06 0.00014694174353544541 0 1.3549745083954834e-05 0.00016006751709126782 0 1.9725346379074794e-05 0.00014737887268267711 0 7.2259942774216647e-07 0.00017188250280544641 0 1.5510096622430688e-06 0.00014694174353544541 0 1.3549745083954834e-05 0.00016006751709126782 0 1.3549745083954834e-05 0.00016006751709126782 0 1.9725346379074794e-05 0.00014737887268267711 0 3.0004272016192637e-05 0.00015988518740385021 0 1.7959746845521023e-05 0.00012793317796827079 0 1.9725346379074794e-05 0.00014737887268267711 0 3.5631663899072624e-05 0.00014129551947977641 0 1.7959746845521023e-05 0.00012793317796827079 0 1.5510096622430688e-06 0.00014694174353544541 0 1.9725346379074794e-05 0.00014737887268267711 0 1.9725346379074794e-05 0.00014737887268267711 0 3.5631663899072624e-05 0.00014129551947977641 0 3.0004272016192637e-05 0.00015988518740385021 0 3.5631663899072624e-05 0.00014129551947977641 0 3.0004272016192637e-05 0.00015988518740385021 0 4.5636732714468731e-05 0.00015180480329880327 0 3.0004272016192637e-05 0.00015988518740385021 0 1.8616823374612895e-05 0.00017987750644951023 0 3.8697342628472773e-05 0.00018165465903828576 0 3.0004272016192637e-05 0.00015988518740385021 0 3.8697342628472773e-05 0.00018165465903828576 0 4.6408071660525394e-05 0.00016542756355176163 0 1.3549745083954834e-05 0.00016006751709126782 0 3.0004272016192637e-05 0.00015988518740385021 0 1.8616823374612895e-05 0.00017987750644951023 0 1.8616823374612895e-05 0.00017987750644951023 0 3.8697342628472773e-05 0.00018165465903828576 0 2.6214672425494789e-05 0.00020343313041125226 0 3.8697342628472773e-05 0.00018165465903828576 0 2.6214672425494789e-05 0.00020343313041125226 0 4.7493106881157957e-05 0.00019990321606113451 0 2.6214672425494789e-05 0.00020343313041125226 0 4.5689876287494338e-05 0.00021944131525882075 0 2.4708403289672512e-05 0.00022602013383379299 0 2.6214672425494789e-05 0.00020343313041125226 0 4.5689876287494338e-05 0.00021944131525882075 0 4.7493106881157957e-05 0.00019990321606113451 0 4.5689876287494338e-05 0.00021944131525882075 0 3.8924180488515771e-05 0.00023393236738294084 0 2.4708403289672512e-05 0.00022602013383379299 0 4.5689876287494338e-05 0.00021944131525882075 0 3.8924180488515771e-05 0.00023393236738294084 0 5.754611766253705e-05 0.00023008048490251047 0 3.8924180488515771e-05 0.00023393236738294084 0 5.754611766253705e-05 0.00023008048490251047 0 5.2062295302120238e-05 0.00024417962621421099 0 3.8924180488515771e-05 0.00023393236738294084 0 2.8524960225733477e-05 0.00024688755425965005 0 5.2062295302120238e-05 0.00024417962621421099 0 3.8924180488515771e-05 0.00023393236738294084 0 2.8524960225733477e-05 0.00024688755425965005 0 2.4708403289672512e-05 0.00022602013383379299 0 5.2841148194196096e-06 0.00024821095852611824 0 3.6266577603273448e-06 0.00021965805564710291 0 -1.6365073594202577e-05 0.00022802814062327262 0 2.4708403289672512e-05 0.00022602013383379299 0 5.2841148194196096e-06 0.00024821095852611824 0 3.6266577603273448e-06 0.00021965805564710291 0 2.8524960225733477e-05 0.00024688755425965005 0 2.4708403289672512e-05 0.00022602013383379299 0 5.2841148194196096e-06 0.00024821095852611824 0 3.6266577603273448e-06 0.00021965805564710291 0 3.4457743457704028e-06 0.00019509768724174027 0 -2.0745411657230641e-05 0.00020599593523162345 0 2.6214672425494789e-05 0.00020343313041125226 0 2.4708403289672512e-05 0.00022602013383379299 0 3.6266577603273448e-06 0.00021965805564710291 0 2.6214672425494789e-05 0.00020343313041125226 0 3.6266577603273448e-06 0.00021965805564710291 0 3.4457743457704028e-06 0.00019509768724174027 0 1.8616823374612895e-05 0.00017987750644951023 0 2.6214672425494789e-05 0.00020343313041125226 0 3.4457743457704028e-06 0.00019509768724174027 0 -1.3296898442477188e-05 0.0001847517114678564 0 3.4457743457704028e-06 0.00019509768724174027 0 -2.0745411657230641e-05 0.00020599593523162345 0 -3.4795841357806153e-05 0.00018325912707203707 0 -2.0745411657230641e-05 0.00020599593523162345 0 -4.2384826979807861e-05 0.00020413822568702761 0 -2.0745411657230641e-05 0.00020599593523162345 0 -1.6365073594202577e-05 0.00022802814062327262 0 -3.7733184182065872e-05 0.00022402301859290028 0 -2.0745411657230641e-05 0.00020599593523162345 0 -3.7733184182065872e-05 0.00022402301859290028 0 -4.2384826979807861e-05 0.00020413822568702761 0 3.6266577603273448e-06 0.00021965805564710291 0 -2.0745411657230641e-05 0.00020599593523162345 0 -1.6365073594202577e-05 0.00022802814062327262 0 5.2841148194196096e-06 0.00024821095852611824 0 -1.6365073594202577e-05 0.00022802814062327262 0 -1.7476157833611483e-05 0.00024884985958737517 0 -1.7476157833611483e-05 0.00024884985958737517 0 -2.9037978888364843e-05 0.00023745211596334055 0 -3.9964527641222895e-05 0.00024909081528022982 0 -1.6365073594202577e-05 0.00022802814062327262 0 -1.7476157833611483e-05 0.00024884985958737517 0 -2.9037978888364843e-05 0.00023745211596334055 0 -1.6365073594202577e-05 0.00022802814062327262 0 -2.9037978888364843e-05 0.00023745211596334055 0 -3.7733184182065872e-05 0.00022402301859290028 0 -2.9037978888364843e-05 0.00023745211596334055 0 -3.7733184182065872e-05 0.00022402301859290028 0 -4.7555045184548846e-05 0.00023650574010564382 0 -2.9037978888364843e-05 0.00023745211596334055 0 -4.7555045184548846e-05 0.00023650574010564382 0 -3.9964527641222895e-05 0.00024909081528022982 0 -4.7555045184548846e-05 0.00023650574010564382 0 -3.9964527641222895e-05 0.00024909081528022982 0 -6.2209003046121488e-05 0.00024931309525842103 0 -4.7555045184548846e-05 0.00023650574010564382 0 -6.2209003046121488e-05 0.00024931309525842103 0 -6.241332334999912e-05 0.0002270382317945485 0 -3.7733184182065872e-05 0.00022402301859290028 0 -4.7555045184548846e-05 0.00023650574010564382 0 -6.241332334999912e-05 0.0002270382317945485 0 -6.241332334999912e-05 0.0002270382317945485 0 -4.2384826979807861e-05 0.00020413822568702761 0 -6.251087823779661e-05 0.00020494085110422659 0 -3.7733184182065872e-05 0.00022402301859290028 0 -6.241332334999912e-05 0.0002270382317945485 0 -4.2384826979807861e-05 0.00020413822568702761 0 -6.2460590138680255e-05 0.00018296207099658139 0 -4.2384826979807861e-05 0.00020413822568702761 0 -6.251087823779661e-05 0.00020494085110422659 0 3.0374516832053558e-05 -2.7784510371873053e-05 0 3.095183615780737e-05 -3.0138503195883953e-05 0 2.7693992974777094e-05 -2.8676693989753754e-05 0 3.0374516832053558e-05 -2.7784510371873053e-05 0 3.4280680918098379e-05 -2.9294363812185755e-05 0 3.4006283711351273e-05 -2.7468364287724605e-05 0 3.0374516832053558e-05 -2.7784510371873053e-05 0 3.1908964115569308e-05 -2.641955120132566e-05 0 3.4006283711351273e-05 -2.7468364287724605e-05 0 3.0374516832053558e-05 -2.7784510371873053e-05 0 3.4280680918098379e-05 -2.9294363812185755e-05 0 3.095183615780737e-05 -3.0138503195883953e-05 0 3.095183615780737e-05 -3.0138503195883953e-05 0 2.7086926603066893e-05 -3.0597802099674642e-05 0 2.7693992974777094e-05 -2.8676693989753754e-05 0 2.7086926603066893e-05 -3.0597802099674642e-05 0 2.449216967160448e-05 -2.8166264337620909e-05 0 2.7693992974777094e-05 -2.8676693989753754e-05 0 2.7086926603066893e-05 -3.0597802099674642e-05 0 2.449216967160448e-05 -2.8166264337620909e-05 0 2.4149981704284479e-05 -2.9717312390069576e-05 0 2.449216967160448e-05 -2.8166264337620909e-05 0 2.7693992974777094e-05 -2.8676693989753754e-05 0 2.4908585034320738e-05 -2.6193541915552608e-05 0 2.449216967160448e-05 -2.8166264337620909e-05 0 2.4908585034320738e-05 -2.6193541915552608e-05 0 2.2220929233489096e-05 -2.6380964020737144e-05 0 2.4908585034320738e-05 -2.6193541915552608e-05 0 2.2220929233489096e-05 -2.6380964020737144e-05 0 2.0112402889025422e-05 -2.4091292976429199e-05 0 2.494010918402113e-05 -2.3594106100566272e-05 0 2.4908585034320738e-05 -2.6193541915552608e-05 0 2.83550926960554e-05 -2.6101012948250809e-05 0 3.0374516832053558e-05 -2.7784510371873053e-05 0 2.4908585034320738e-05 -2.6193541915552608e-05 0 2.83550926960554e-05 -2.6101012948250809e-05 0 3.0374516832053558e-05 -2.7784510371873053e-05 0 2.7693992974777094e-05 -2.8676693989753754e-05 0 2.4908585034320738e-05 -2.6193541915552608e-05 0 3.0374516832053558e-05 -2.7784510371873053e-05 0 2.83550926960554e-05 -2.6101012948250809e-05 0 3.1908964115569308e-05 -2.641955120132566e-05 0 2.9593651268816077e-05 -2.4768368202445093e-05 0 2.83550926960554e-05 -2.6101012948250809e-05 0 3.1908964115569308e-05 -2.641955120132566e-05 0 2.9593651268816077e-05 -2.4768368202445093e-05 0 3.3038414628447358e-05 -2.4382028797340466e-05 0 3.1908964115569308e-05 -2.641955120132566e-05 0 3.3546739143158192e-05 -2.1849133087988784e-05 0 3.1139312877599162e-05 -2.2668770455049318e-05 0 3.3038414628447358e-05 -2.4382028797340466e-05 0 3.3038414628447358e-05 -2.4382028797340466e-05 0 3.5715914375472534e-05 -2.2952304584290738e-05 0 3.5591292470824887e-05 -2.5501007841037822e-05 0 3.3038414628447358e-05 -2.4382028797340466e-05 0 3.1908964115569308e-05 -2.641955120132566e-05 0 3.5591292470824887e-05 -2.5501007841037822e-05 0 5.6270255470002725e-05 0.00013571607284602671 0 3.5631663899072624e-05 0.00014129551947977641 0 4.5636732714468731e-05 0.00015180480329880327 0 5.6270255470002725e-05 0.00013571607284602671 0 5.9437658608788018e-05 0.00015570845719331804 0 4.5636732714468731e-05 0.00015180480329880327 0 3.3546739143158192e-05 -2.1849133087988784e-05 0 3.3038414628447358e-05 -2.4382028797340466e-05 0 3.5715914375472534e-05 -2.2952304584290738e-05 0 4.4816401166281732e-05 5.6913855997225056e-05 0 4.7537269784710978e-05 6.6466679677526483e-05 0 3.0004272016192637e-05 0.00015988518740385021 0 4.5636732714468731e-05 0.00015180480329880327 0 4.6408071660525394e-05 0.00016542756355176163 0 5.9437658608788018e-05 0.00015570845719331804 0 4.5636732714468731e-05 0.00015180480329880327 0 4.6408071660525394e-05 0.00016542756355176163 0 3.8697342628472773e-05 0.00018165465903828576 0 4.6408071660525394e-05 0.00016542756355176163 0 6.279797866042626e-05 0.00017607840053003585 0 4.7537269784710978e-05 6.6466679677526483e-05 0 5.0174010106804029e-05 7.5855048157588307e-05 0 3.5715914375472534e-05 -2.2952304584290738e-05 0 3.8544039109568085e-05 -2.399514918071407e-05 0 3.5591292470824887e-05 -2.5501007841037822e-05 0 5.9437658608788018e-05 0.00015570845719331804 0 4.6408071660525394e-05 0.00016542756355176163 0 6.279797866042626e-05 0.00017607840053003585 0 5.0174010106804029e-05 7.5855048157588307e-05 0 5.5309711442980722e-05 8.5886838709185108e-05 0 3.8697342628472773e-05 0.00018165465903828576 0 6.279797866042626e-05 0.00017607840053003585 0 4.7493106881157957e-05 0.00019990321606113451 0 3.1908964115569308e-05 -2.641955120132566e-05 0 3.4006283711351273e-05 -2.7468364287724605e-05 0 3.5591292470824887e-05 -2.5501007841037822e-05 0 3.8544039109568085e-05 -2.399514918071407e-05 0 3.5591292470824887e-05 -2.5501007841037822e-05 0 3.7947762546806129e-05 -2.7637061720695429e-05 0 3.4280680918098379e-05 -2.9294363812185755e-05 0 3.4006283711351273e-05 -2.7468364287724605e-05 0 3.7947762546806129e-05 -2.7637061720695429e-05 0 3.4006283711351273e-05 -2.7468364287724605e-05 0 3.5591292470824887e-05 -2.5501007841037822e-05 0 3.7947762546806129e-05 -2.7637061720695429e-05 0 3.7947762546806129e-05 -2.7637061720695429e-05 0 4.1543375270214336e-05 -2.8781277105022238e-05 0 3.8169848063400321e-05 -3.0674579731000291e-05 0 3.4280680918098379e-05 -2.9294363812185755e-05 0 3.7947762546806129e-05 -2.7637061720695429e-05 0 3.8169848063400321e-05 -3.0674579731000291e-05 0 3.8544039109568085e-05 -2.399514918071407e-05 0 3.7947762546806129e-05 -2.7637061720695429e-05 0 4.2125508868045324e-05 -2.5442672019286794e-05 0 3.7947762546806129e-05 -2.7637061720695429e-05 0 4.1543375270214336e-05 -2.8781277105022238e-05 0 4.2125508868045324e-05 -2.5442672019286794e-05 0 4.1543375270214336e-05 -2.8781277105022238e-05 0 3.8169848063400321e-05 -3.0674579731000291e-05 0 4.3336618676552812e-05 -3.1814563683488514e-05 0 6.279797866042626e-05 0.00017607840053003585 0 4.7493106881157957e-05 0.00019990321606113451 0 6.6246343437644957e-05 0.00019661214044494651 0 5.5309711442980722e-05 8.5886838709185108e-05 0 5.3281215960719414e-05 9.4622986062625354e-05 0 4.1543375270214336e-05 -2.8781277105022238e-05 0 4.2125508868045324e-05 -2.5442672019286794e-05 0 4.6552409049019575e-05 -2.7888625772525294e-05 0 4.7493106881157957e-05 0.00019990321606113451 0 6.6246343437644957e-05 0.00019661214044494651 0 7.0236491053825609e-05 0.00021783062579032279 0 4.5689876287494338e-05 0.00021944131525882075 0 4.7493106881157957e-05 0.00019990321606113451 0 7.0236491053825609e-05 0.00021783062579032279 0 4.5689876287494338e-05 0.00021944131525882075 0 7.0236491053825609e-05 0.00021783062579032279 0 5.754611766253705e-05 0.00023008048490251047 0 5.3281215960719414e-05 9.4622986062625354e-05 0 8.1468459366649984e-05 0.00010394822541066626 0 7.0236491053825609e-05 0.00021783062579032279 0 7.4882705521654342e-05 0.00023980464343495886 0 5.754611766253705e-05 0.00023008048490251047 0 7.4882705521654342e-05 0.00023980464343495886 0 5.754611766253705e-05 0.00023008048490251047 0 5.2062295302120238e-05 0.00024417962621421099 0 3.8169848063400321e-05 -3.0674579731000291e-05 0 4.3336618676552812e-05 -3.1814563683488514e-05 0 3.7535399876926031e-05 -3.4423596405482183e-05 0 4.1543375270214336e-05 -2.8781277105022238e-05 0 4.6552409049019575e-05 -2.7888625772525294e-05 0 4.3336618676552812e-05 -3.1814563683488514e-05 0 4.6552409049019575e-05 -2.7888625772525294e-05 0 5.1279325700310873e-05 -3.2257360576776018e-05 0 4.3336618676552812e-05 -3.1814563683488514e-05 0 5.1279325700310873e-05 -3.2257360576776018e-05 0 4.3336618676552812e-05 -3.1814563683488514e-05 0 4.5548966404783562e-05 -3.6225900752261326e-05 0 4.3336618676552812e-05 -3.1814563683488514e-05 0 4.5548966404783562e-05 -3.6225900752261326e-05 0 3.7535399876926031e-05 -3.4423596405482183e-05 0 3.7535399876926031e-05 -3.4423596405482183e-05 0 3.2759986336893639e-05 -3.3634530632812806e-05 0 3.445716635101172e-05 -3.8257913921865761e-05 0 4.5548966404783562e-05 -3.6225900752261326e-05 0 3.9793777527348011e-05 -3.8108823183289622e-05 0 3.7535399876926031e-05 -3.4423596405482183e-05 0 3.9793777527348011e-05 -3.8108823183289622e-05 0 3.7535399876926031e-05 -3.4423596405482183e-05 0 3.445716635101172e-05 -3.8257913921865761e-05 0 3.8169848063400321e-05 -3.0674579731000291e-05 0 3.7535399876926031e-05 -3.4423596405482183e-05 0 3.4040681073451935e-05 -3.1737954556747208e-05 0 3.7535399876926031e-05 -3.4423596405482183e-05 0 3.4040681073451935e-05 -3.1737954556747208e-05 0 3.2759986336893639e-05 -3.3634530632812806e-05 0 3.095183615780737e-05 -3.0138503195883953e-05 0 3.4040681073451935e-05 -3.1737954556747208e-05 0 2.9773318588451316e-05 -3.2337329457834629e-05 0 3.4280680918098379e-05 -2.9294363812185755e-05 0 3.095183615780737e-05 -3.0138503195883953e-05 0 3.4040681073451935e-05 -3.1737954556747208e-05 0 3.4280680918098379e-05 -2.9294363812185755e-05 0 3.8169848063400321e-05 -3.0674579731000291e-05 0 3.4040681073451935e-05 -3.1737954556747208e-05 0 2.7086926603066893e-05 -3.0597802099674642e-05 0 2.9773318588451316e-05 -3.2337329457834629e-05 0 2.7266153390413076e-05 -3.289897939060713e-05 0 3.095183615780737e-05 -3.0138503195883953e-05 0 2.7086926603066893e-05 -3.0597802099674642e-05 0 2.9773318588451316e-05 -3.2337329457834629e-05 0 2.9773318588451316e-05 -3.2337329457834629e-05 0 3.2759986336893639e-05 -3.3634530632812806e-05 0 3.008780346490695e-05 -3.4959458696329253e-05 0 3.4040681073451935e-05 -3.1737954556747208e-05 0 2.9773318588451316e-05 -3.2337329457834629e-05 0 3.2759986336893639e-05 -3.3634530632812806e-05 0 2.9773318588451316e-05 -3.2337329457834629e-05 0 3.008780346490695e-05 -3.4959458696329253e-05 0 2.7266153390413076e-05 -3.289897939060713e-05 0 3.2759986336893639e-05 -3.3634530632812806e-05 0 3.008780346490695e-05 -3.4959458696329253e-05 0 3.445716635101172e-05 -3.8257913921865761e-05 0 3.008780346490695e-05 -3.4959458696329253e-05 0 3.445716635101172e-05 -3.8257913921865761e-05 0 3.0526225027155051e-05 -3.7405552264269978e-05 0 3.008780346490695e-05 -3.4959458696329253e-05 0 3.0526225027155051e-05 -3.7405552264269978e-05 0 2.795666032772152e-05 -3.5040050250685533e-05 0 3.0526225027155051e-05 -3.7405552264269978e-05 0 2.7998725980033226e-05 -3.6114026610904391e-05 0 2.795666032772152e-05 -3.5040050250685533e-05 0 2.7998725980033226e-05 -3.6114026610904391e-05 0 2.5164711734542283e-05 -3.3874566246423639e-05 0 2.795666032772152e-05 -3.5040050250685533e-05 0 2.5164711734542283e-05 -3.3874566246423639e-05 0 2.795666032772152e-05 -3.5040050250685533e-05 0 2.7266153390413076e-05 -3.289897939060713e-05 0 3.008780346490695e-05 -3.4959458696329253e-05 0 2.795666032772152e-05 -3.5040050250685533e-05 0 2.7266153390413076e-05 -3.289897939060713e-05 0 2.731812493553279e-05 -3.5254172699911959e-05 0 2.4777578122658439e-05 -3.4641465788141831e-05 0 2.7615128866781997e-05 -3.5640657032639711e-05 0 2.7998725980033226e-05 -3.6114026610904391e-05 0 2.731812493553279e-05 -3.5254172699911959e-05 0 2.4777578122658439e-05 -3.4641465788141831e-05 0 2.7998725980033226e-05 -3.6114026610904391e-05 0 2.5164711734542283e-05 -3.3874566246423639e-05 0 2.4777578122658439e-05 -3.4641465788141831e-05 0 2.4777578122658439e-05 -3.4641465788141831e-05 0 2.2619153359516954e-05 -3.2821341359874418e-05 0 2.1891915878435139e-05 -3.4016846429694693e-05 0 2.5164711734542283e-05 -3.3874566246423639e-05 0 2.4777578122658439e-05 -3.4641465788141831e-05 0 2.2619153359516954e-05 -3.2821341359874418e-05 0 2.2619153359516954e-05 -3.2821341359874418e-05 0 2.4035618295746446e-05 -3.1611915664811843e-05 0 2.1336238530590994e-05 -3.0873935198853912e-05 0 2.2619153359516954e-05 -3.2821341359874418e-05 0 2.1336238530590994e-05 -3.0873935198853912e-05 0 1.981351841242629e-05 -3.1652081860944687e-05 0 2.2619153359516954e-05 -3.2821341359874418e-05 0 1.981351841242629e-05 -3.1652081860944687e-05 0 2.1891915878435139e-05 -3.4016846429694693e-05 0 2.5164711734542283e-05 -3.3874566246423639e-05 0 2.7266153390413076e-05 -3.289897939060713e-05 0 2.4035618295746446e-05 -3.1611915664811843e-05 0 2.5164711734542283e-05 -3.3874566246423639e-05 0 2.2619153359516954e-05 -3.2821341359874418e-05 0 2.4035618295746446e-05 -3.1611915664811843e-05 0 2.7086926603066893e-05 -3.0597802099674642e-05 0 2.7266153390413076e-05 -3.289897939060713e-05 0 2.4035618295746446e-05 -3.1611915664811843e-05 0 2.7086926603066893e-05 -3.0597802099674642e-05 0 2.4035618295746446e-05 -3.1611915664811843e-05 0 2.4149981704284479e-05 -2.9717312390069576e-05 0 2.449216967160448e-05 -2.8166264337620909e-05 0 2.4149981704284479e-05 -2.9717312390069576e-05 0 2.2125536672624203e-05 -2.8144071386772128e-05 0 2.4149981704284479e-05 -2.9717312390069576e-05 0 2.2125536672624203e-05 -2.8144071386772128e-05 0 2.2291363695804244e-05 -2.9941328312233279e-05 0 2.2125536672624203e-05 -2.8144071386772128e-05 0 2.2291363695804244e-05 -2.9941328312233279e-05 0 2.0172201847571937e-05 -2.8541871036700494e-05 0 2.4035618295746446e-05 -3.1611915664811843e-05 0 2.4149981704284479e-05 -2.9717312390069576e-05 0 2.2291363695804244e-05 -2.9941328312233279e-05 0 2.2291363695804244e-05 -2.9941328312233279e-05 0 2.1336238530590994e-05 -3.0873935198853912e-05 0 2.0172201847571937e-05 -2.8541871036700494e-05 0 2.4035618295746446e-05 -3.1611915664811843e-05 0 2.2291363695804244e-05 -2.9941328312233279e-05 0 2.1336238530590994e-05 -3.0873935198853912e-05 0 2.1336238530590994e-05 -3.0873935198853912e-05 0 1.981351841242629e-05 -3.1652081860944687e-05 0 1.8004610755974101e-05 -2.8512734913010666e-05 0 1.981351841242629e-05 -3.1652081860944687e-05 0 1.8004610755974101e-05 -2.8512734913010666e-05 0 1.7526758666619163e-05 -3.0385993285464365e-05 0 2.1336238530590994e-05 -3.0873935198853912e-05 0 1.8004610755974101e-05 -2.8512734913010666e-05 0 2.0172201847571937e-05 -2.8541871036700494e-05 0 2.0172201847571937e-05 -2.8541871036700494e-05 0 1.6794477259165797e-05 -2.6081355752876176e-05 0 1.9737979432612759e-05 -2.6302459144398188e-05 0 1.8004610755974101e-05 -2.8512734913010666e-05 0 2.0172201847571937e-05 -2.8541871036700494e-05 0 1.6794477259165797e-05 -2.6081355752876176e-05 0 1.8004610755974101e-05 -2.8512734913010666e-05 0 1.6794477259165797e-05 -2.6081355752876176e-05 0 1.4342259988876056e-05 -2.7454560714282861e-05 0 1.6794477259165797e-05 -2.6081355752876176e-05 0 1.9737979432612759e-05 -2.6302459144398188e-05 0 1.7604165150008228e-05 -2.3562476824610252e-05 0 1.9737979432612759e-05 -2.6302459144398188e-05 0 1.7604165150008228e-05 -2.3562476824610252e-05 0 2.0112402889025422e-05 -2.4091292976429199e-05 0 1.9737979432612759e-05 -2.6302459144398188e-05 0 2.2220929233489096e-05 -2.6380964020737144e-05 0 2.0112402889025422e-05 -2.4091292976429199e-05 0 2.2125536672624203e-05 -2.8144071386772128e-05 0 1.9737979432612759e-05 -2.6302459144398188e-05 0 2.2220929233489096e-05 -2.6380964020737144e-05 0 2.449216967160448e-05 -2.8166264337620909e-05 0 2.2125536672624203e-05 -2.8144071386772128e-05 0 2.2220929233489096e-05 -2.6380964020737144e-05 0 2.2125536672624203e-05 -2.8144071386772128e-05 0 2.0172201847571937e-05 -2.8541871036700494e-05 0 1.9737979432612759e-05 -2.6302459144398188e-05 0 2.9487636784460744e-05 -9.1638143623043206e-05 0 1.7571278803404424e-05 -8.4767752581081096e-05 0 2.05653128263319e-05 -9.7316107218925187e-05 0 2.0954403274952826e-05 -6.1012841612767431e-05 0 1.8466550305850919e-05 -5.2287216453703454e-05 0 2.9487636784460744e-05 -9.1638143623043206e-05 0 1.7571278803404424e-05 -8.4767752581081096e-05 0 2.6791329487949187e-05 -7.7845028956214228e-05 0 1.2663274369962001e-05 -3.040200381739134e-05 0 1.4342259988876056e-05 -2.7454560714282861e-05 0 1.0386578052454895e-05 -2.6713137087250724e-05 0 1.4342259988876056e-05 -2.7454560714282861e-05 0 1.1792218556221113e-05 -2.4147998485801968e-05 0 1.0386578052454895e-05 -2.6713137087250724e-05 0 1.6794477259165797e-05 -2.6081355752876176e-05 0 1.4342259988876056e-05 -2.7454560714282861e-05 0 1.4207643548151228e-05 -2.4696500638760386e-05 0 1.4342259988876056e-05 -2.7454560714282861e-05 0 1.4207643548151228e-05 -2.4696500638760386e-05 0 1.1792218556221113e-05 -2.4147998485801968e-05 0 1.8004610755974101e-05 -2.8512734913010666e-05 0 1.4342259988876056e-05 -2.7454560714282861e-05 0 1.7526758666619163e-05 -3.0385993285464365e-05 0 1.2663274369962001e-05 -3.040200381739134e-05 0 1.4342259988876056e-05 -2.7454560714282861e-05 0 1.5408653927706166e-05 -3.0833560832901463e-05 0 1.4342259988876056e-05 -2.7454560714282861e-05 0 1.5408653927706166e-05 -3.0833560832901463e-05 0 1.7526758666619163e-05 -3.0385993285464365e-05 0 1.5408653927706166e-05 -3.0833560832901463e-05 0 1.7526758666619163e-05 -3.0385993285464365e-05 0 1.8549867814221174e-05 -3.3180672744271089e-05 0 1.981351841242629e-05 -3.1652081860944687e-05 0 1.7526758666619163e-05 -3.0385993285464365e-05 0 1.8549867814221174e-05 -3.3180672744271089e-05 0 1.5408653927706166e-05 -3.0833560832901463e-05 0 1.8549867814221174e-05 -3.3180672744271089e-05 0 1.552651251748141e-05 -3.3676522111610762e-05 0 1.8549867814221174e-05 -3.3180672744271089e-05 0 1.552651251748141e-05 -3.3676522111610762e-05 0 1.9103692434217847e-05 -3.6298033360550613e-05 0 3.2357233955845977e-05 -0.0001061212596153268 0 2.05653128263319e-05 -9.7316107218925187e-05 0 1.4827643472235287e-05 -0.00010918270340881225 0 3.2357233955845977e-05 -0.0001061212596153268 0 2.2268281146718839e-05 -0.00012310761111512594 0 1.4827643472235287e-05 -0.00010918270340881225 0 2.3638294084811292e-05 -6.9924927418518694e-05 0 2.7525165466667689e-05 -7.879826494322464e-05 0 1.2663274369962001e-05 -3.040200381739134e-05 0 1.5408653927706166e-05 -3.0833560832901463e-05 0 1.552651251748141e-05 -3.3676522111610762e-05 0 2.9487636784460744e-05 -9.1638143623043206e-05 0 3.2357233955845977e-05 -0.0001061212596153268 0 2.05653128263319e-05 -9.7316107218925187e-05 0 2.0954403274952826e-05 -6.1012841612767431e-05 0 2.3638294084811292e-05 -6.9924927418518694e-05 0 3.2357233955845977e-05 -0.0001061212596153268 0 2.2268281146718839e-05 -0.00012310761111512594 0 3.5579942244526373e-05 -0.00012110886842960227 0 2.7525165466667689e-05 -7.879826494322464e-05 0 2.9601217254833552e-05 -8.6947141853509373e-05 0 1.9103692434217847e-05 -3.6298033360550613e-05 0 2.1335150386481268e-05 -3.5408091852594579e-05 0 2.3591555491317727e-05 -3.7878953596281561e-05 0 2.2268281146718839e-05 -0.00012310761111512594 0 3.5579942244526373e-05 -0.00012110886842960227 0 3.9378563548055323e-05 -0.00013668481884779231 0 2.2268281146718839e-05 -0.00012310761111512594 0 3.9378563548055323e-05 -0.00013668481884779231 0 2.2148080864396036e-05 -0.00013762390261467649 0 1.981351841242629e-05 -3.1652081860944687e-05 0 1.8549867814221174e-05 -3.3180672744271089e-05 0 2.1891915878435139e-05 -3.4016846429694693e-05 0 1.8549867814221174e-05 -3.3180672744271089e-05 0 2.1335150386481268e-05 -3.5408091852594579e-05 0 2.1891915878435139e-05 -3.4016846429694693e-05 0 1.8549867814221174e-05 -3.3180672744271089e-05 0 1.9103692434217847e-05 -3.6298033360550613e-05 0 2.1335150386481268e-05 -3.5408091852594579e-05 0 2.1335150386481268e-05 -3.5408091852594579e-05 0 2.1891915878435139e-05 -3.4016846429694693e-05 0 2.4281141380826866e-05 -3.5762454941783079e-05 0 2.4777578122658439e-05 -3.4641465788141831e-05 0 2.1891915878435139e-05 -3.4016846429694693e-05 0 2.4281141380826866e-05 -3.5762454941783079e-05 0 2.1335150386481268e-05 -3.5408091852594579e-05 0 2.4281141380826866e-05 -3.5762454941783079e-05 0 2.3591555491317727e-05 -3.7878953596281561e-05 0 2.4281141380826866e-05 -3.5762454941783079e-05 0 2.3591555491317727e-05 -3.7878953596281561e-05 0 2.8706710686705502e-05 -3.7985397427550223e-05 0 2.4281141380826866e-05 -3.5762454941783079e-05 0 2.7615128866781997e-05 -3.5640657032639711e-05 0 2.8706710686705502e-05 -3.7985397427550223e-05 0 2.4777578122658439e-05 -3.4641465788141831e-05 0 2.4281141380826866e-05 -3.5762454941783079e-05 0 2.7615128866781997e-05 -3.5640657032639711e-05 0 3.9378563548055323e-05 -0.00013668481884779231 0 3.1126191089406485e-05 -0.00014549177804090623 0 2.2148080864396036e-05 -0.00013762390261467649 0 2.9601217254833552e-05 -8.6947141853509373e-05 0 4.2062274297648504e-05 -9.571469884951214e-05 0 3.9378563548055323e-05 -0.00013668481884779231 0 4.4452388960729274e-05 -0.00015266903019520275 0 3.1126191089406485e-05 -0.00014549177804090623 0 4.4452388960729274e-05 -0.00015266903019520275 0 3.1126191089406485e-05 -0.00014549177804090623 0 2.8040599693155329e-05 -0.00015550999607532223 0 3.1126191089406485e-05 -0.00014549177804090623 0 1.8123396425910266e-05 -0.00014789201835619783 0 2.8040599693155329e-05 -0.00015550999607532223 0 1.8123396425910266e-05 -0.00014789201835619783 0 2.8040599693155329e-05 -0.00015550999607532223 0 1.1341089344155191e-05 -0.00015679919194503081 0 1.8123396425910266e-05 -0.00014789201835619783 0 2.2148080864396036e-05 -0.00013762390261467649 0 8.0110900228479899e-06 -0.00014204563905982636 0 3.1126191089406485e-05 -0.00014549177804090623 0 1.8123396425910266e-05 -0.00014789201835619783 0 2.2148080864396036e-05 -0.00013762390261467649 0 1.8123396425910266e-05 -0.00014789201835619783 0 8.0110900228479899e-06 -0.00014204563905982636 0 1.1341089344155191e-05 -0.00015679919194503081 0 8.0110900228479899e-06 -0.00014204563905982636 0 -4.6259291609555708e-06 -0.00015717868482081749 0 -6.2704210902868538e-06 -0.00013721640889605743 0 -4.6259291609555708e-06 -0.00015717868482081749 0 -6.2704210902868538e-06 -0.00013721640889605743 0 -1.9482395359672241e-05 -0.00014288968777082051 0 8.0110900228479899e-06 -0.00014204563905982636 0 1.1341089344155191e-05 -0.00015679919194503081 0 -4.6259291609555708e-06 -0.00015717868482081749 0 8.0110900228479899e-06 -0.00014204563905982636 0 -6.2704210902868538e-06 -0.00013721640889605743 0 8.3558208103805359e-06 -0.00012611727119309822 0 -6.2704210902868538e-06 -0.00013721640889605743 0 -8.4648465314055807e-06 -0.00011971608471514963 0 8.3558208103805359e-06 -0.00012611727119309822 0 -6.2704210902868538e-06 -0.00013721640889605743 0 -8.4648465314055807e-06 -0.00011971608471514963 0 -2.2572872757806861e-05 -0.00012700539471393056 0 -8.4648465314055807e-06 -0.00011971608471514963 0 8.3558208103805359e-06 -0.00012611727119309822 0 1.3703862391227552e-06 -0.00011154486539774756 0 2.2268281146718839e-05 -0.00012310761111512594 0 8.3558208103805359e-06 -0.00012611727119309822 0 1.4827643472235287e-05 -0.00010918270340881225 0 2.2268281146718839e-05 -0.00012310761111512594 0 2.2148080864396036e-05 -0.00013762390261467649 0 8.3558208103805359e-06 -0.00012611727119309822 0 2.2148080864396036e-05 -0.00013762390261467649 0 8.0110900228479899e-06 -0.00014204563905982636 0 8.3558208103805359e-06 -0.00012611727119309822 0 -5.0753664871478796e-05 -0.00014219689526379361 0 -4.0565722087805072e-05 -0.00014870833883410609 0 -3.3857038022115205e-05 -0.00014002305623944815 0 -5.0753664871478796e-05 -0.00014219689526379361 0 -5.0586841763490549e-05 -0.00015755171378788204 0 -4.0565722087805072e-05 -0.00014870833883410609 0 -5.0586841763490549e-05 -0.00015755171378788204 0 -3.5334022530541259e-05 -0.00015736513735939276 0 -4.0565722087805072e-05 -0.00014870833883410609 0 -3.5334022530541259e-05 -0.00015736513735939276 0 -4.0565722087805072e-05 -0.00014870833883410609 0 -2.7942192685560312e-05 -0.00014936833252304606 0 -4.0565722087805072e-05 -0.00014870833883410609 0 -3.3857038022115205e-05 -0.00014002305623944815 0 -2.7942192685560312e-05 -0.00014936833252304606 0 -3.3857038022115205e-05 -0.00014002305623944815 0 -2.7942192685560312e-05 -0.00014936833252304606 0 -1.9482395359672241e-05 -0.00014288968777082051 0 -2.7942192685560312e-05 -0.00014936833252304606 0 -1.9990613011706189e-05 -0.00015731080430776085 0 -1.9482395359672241e-05 -0.00014288968777082051 0 -3.5334022530541259e-05 -0.00015736513735939276 0 -2.7942192685560312e-05 -0.00014936833252304606 0 -1.9990613011706189e-05 -0.00015731080430776085 0 -4.6259291609555708e-06 -0.00015717868482081749 0 -1.9990613011706189e-05 -0.00015731080430776085 0 -1.9482395359672241e-05 -0.00014288968777082051 0 -6.2704210902868538e-06 -0.00013721640889605743 0 -1.9482395359672241e-05 -0.00014288968777082051 0 -2.2572872757806861e-05 -0.00012700539471393056 0 -8.4648465314055807e-06 -0.00011971608471514963 0 -2.2572872757806861e-05 -0.00012700539471393056 0 -1.9576907742974114e-05 -0.00010967167429171728 0 -2.2572872757806861e-05 -0.00012700539471393056 0 -3.7137737104346039e-05 -0.000126443647080245 0 -3.2735171709795516e-05 -0.00011240831321154978 0 -3.3857038022115205e-05 -0.00014002305623944815 0 -1.9482395359672241e-05 -0.00014288968777082051 0 -2.2572872757806861e-05 -0.00012700539471393056 0 -3.3857038022115205e-05 -0.00014002305623944815 0 -2.2572872757806861e-05 -0.00012700539471393056 0 -3.7137737104346039e-05 -0.000126443647080245 0 -5.0753664871478796e-05 -0.00014219689526379361 0 -3.3857038022115205e-05 -0.00014002305623944815 0 -3.7137737104346039e-05 -0.000126443647080245 0 -3.7137737104346039e-05 -0.000126443647080245 0 -5.06762869235535e-05 -0.00012679460996646555 0 -5.0239077111164626e-05 -0.00011137919853089065 0 -5.0753664871478796e-05 -0.00014219689526379361 0 -3.7137737104346039e-05 -0.000126443647080245 0 -5.06762869235535e-05 -0.00012679460996646555 0 -5.0239077111164626e-05 -0.00011137919853089065 0 -3.93316371719371e-05 -0.00010155943097713574 0 -4.9279218747282793e-05 -9.6430928313952547e-05 0 -3.7137737104346039e-05 -0.000126443647080245 0 -5.0239077111164626e-05 -0.00011137919853089065 0 -3.2735171709795516e-05 -0.00011240831321154978 0 -3.2735171709795516e-05 -0.00011240831321154978 0 -3.93316371719371e-05 -0.00010155943097713574 0 -2.8505499145974159e-05 -9.6163555708447826e-05 0 -5.0239077111164626e-05 -0.00011137919853089065 0 -3.2735171709795516e-05 -0.00011240831321154978 0 -3.93316371719371e-05 -0.00010155943097713574 0 -3.2735171709795516e-05 -0.00011240831321154978 0 -1.9576907742974114e-05 -0.00010967167429171728 0 -2.8505499145974159e-05 -9.6163555708447826e-05 0 -2.2572872757806861e-05 -0.00012700539471393056 0 -3.2735171709795516e-05 -0.00011240831321154978 0 -1.9576907742974114e-05 -0.00010967167429171728 0 -1.9576907742974114e-05 -0.00010967167429171728 0 -1.7764791356996827e-05 -9.553106242139427e-05 0 -2.8505499145974159e-05 -9.6163555708447826e-05 0 -1.9576907742974114e-05 -0.00010967167429171728 0 -1.7764791356996827e-05 -9.553106242139427e-05 0 -8.6749894478947924e-06 -0.00010313740917337316 0 -1.7764791356996827e-05 -9.553106242139427e-05 0 -2.241374106758147e-05 -8.6296136388437519e-05 0 -2.8505499145974159e-05 -9.6163555708447826e-05 0 -2.241374106758147e-05 -8.6296136388437519e-05 0 -1.1001161264318355e-05 -8.6609112900523969e-05 0 -2.0642193028089596e-05 -7.3738419105129918e-05 0 -1.7764791356996827e-05 -9.553106242139427e-05 0 -2.241374106758147e-05 -8.6296136388437519e-05 0 -1.1001161264318355e-05 -8.6609112900523969e-05 0 -2.241374106758147e-05 -8.6296136388437519e-05 0 -2.8505499145974159e-05 -9.6163555708447826e-05 0 -3.3446384923100817e-05 -8.2023819030058873e-05 0 -3.93316371719371e-05 -0.00010155943097713574 0 -2.8505499145974159e-05 -9.6163555708447826e-05 0 -3.9805354619316634e-05 -9.1326542347367157e-05 0 -2.8505499145974159e-05 -9.6163555708447826e-05 0 -3.9805354619316634e-05 -9.1326542347367157e-05 0 -3.3446384923100817e-05 -8.2023819030058873e-05 0 -3.9805354619316634e-05 -9.1326542347367157e-05 0 -3.3446384923100817e-05 -8.2023819030058873e-05 0 -4.7713272040231042e-05 -8.1914866839480379e-05 0 -3.9805354619316634e-05 -9.1326542347367157e-05 0 -4.9279218747282793e-05 -9.6430928313952547e-05 0 -4.7713272040231042e-05 -8.1914866839480379e-05 0 -3.93316371719371e-05 -0.00010155943097713574 0 -3.9805354619316634e-05 -9.1326542347367157e-05 0 -4.9279218747282793e-05 -9.6430928313952547e-05 0 1.0121015439366846e-06 -9.839702987744103e-05 0 1.4827643472235287e-05 -0.00010918270340881225 0 1.0368288456551474e-05 -9.2975349090768455e-05 0 1.0121015439366846e-06 -9.839702987744103e-05 0 1.4827643472235287e-05 -0.00010918270340881225 0 1.3703862391227552e-06 -0.00011154486539774756 0 2.05653128263319e-05 -9.7316107218925187e-05 0 1.4827643472235287e-05 -0.00010918270340881225 0 1.0368288456551474e-05 -9.2975349090768455e-05 0 8.3558208103805359e-06 -0.00012611727119309822 0 1.4827643472235287e-05 -0.00010918270340881225 0 1.3703862391227552e-06 -0.00011154486539774756 0 -8.4648465314055807e-06 -0.00011971608471514963 0 1.3703862391227552e-06 -0.00011154486539774756 0 -8.6749894478947924e-06 -0.00010313740917337316 0 -8.4648465314055807e-06 -0.00011971608471514963 0 -1.9576907742974114e-05 -0.00010967167429171728 0 -8.6749894478947924e-06 -0.00010313740917337316 0 1.0121015439366846e-06 -9.839702987744103e-05 0 1.3703862391227552e-06 -0.00011154486539774756 0 -8.6749894478947924e-06 -0.00010313740917337316 0 1.0121015439366846e-06 -9.839702987744103e-05 0 -1.1001161264318355e-05 -8.6609112900523969e-05 0 1.1349288578554475e-07 -8.4563046212515948e-05 0 1.0121015439366846e-06 -9.839702987744103e-05 0 -8.6749894478947924e-06 -0.00010313740917337316 0 -1.1001161264318355e-05 -8.6609112900523969e-05 0 -1.7764791356996827e-05 -9.553106242139427e-05 0 -8.6749894478947924e-06 -0.00010313740917337316 0 -1.1001161264318355e-05 -8.6609112900523969e-05 0 -1.1001161264318355e-05 -8.6609112900523969e-05 0 1.1349288578554475e-07 -8.4563046212515948e-05 0 -7.1179072905341085e-06 -7.3612580706849278e-05 0 1.1349288578554475e-07 -8.4563046212515948e-05 0 1.0368288456551474e-05 -9.2975349090768455e-05 0 8.4984495427644762e-06 -8.1478906374101256e-05 0 1.0121015439366846e-06 -9.839702987744103e-05 0 1.1349288578554475e-07 -8.4563046212515948e-05 0 1.0368288456551474e-05 -9.2975349090768455e-05 0 1.7571278803404424e-05 -8.4767752581081096e-05 0 2.05653128263319e-05 -9.7316107218925187e-05 0 1.0368288456551474e-05 -9.2975349090768455e-05 0 1.7571278803404424e-05 -8.4767752581081096e-05 0 1.0368288456551474e-05 -9.2975349090768455e-05 0 8.4984495427644762e-06 -8.1478906374101256e-05 0 1.7571278803404424e-05 -8.4767752581081096e-05 0 8.4984495427644762e-06 -8.1478906374101256e-05 0 1.3381209446996289e-05 -7.2319515578044325e-05 0 8.4984495427644762e-06 -8.1478906374101256e-05 0 1.3381209446996289e-05 -7.2319515578044325e-05 0 1.2815542770214164e-06 -7.2961404828216625e-05 0 1.3381209446996289e-05 -7.2319515578044325e-05 0 6.4570239766548436e-06 -6.4288859294545721e-05 0 1.2815542770214164e-06 -7.2961404828216625e-05 0 1.3381209446996289e-05 -7.2319515578044325e-05 0 6.4570239766548436e-06 -6.4288859294545721e-05 0 1.3671833236455524e-05 -6.0048230081628491e-05 0 6.4570239766548436e-06 -6.4288859294545721e-05 0 1.2815542770214164e-06 -7.2961404828216625e-05 0 -1.4867647631685556e-06 -6.2579572777386283e-05 0 1.1349288578554475e-07 -8.4563046212515948e-05 0 8.4984495427644762e-06 -8.1478906374101256e-05 0 1.2815542770214164e-06 -7.2961404828216625e-05 0 1.1349288578554475e-07 -8.4563046212515948e-05 0 1.2815542770214164e-06 -7.2961404828216625e-05 0 -7.1179072905341085e-06 -7.3612580706849278e-05 0 -1.1001161264318355e-05 -8.6609112900523969e-05 0 -7.1179072905341085e-06 -7.3612580706849278e-05 0 -2.0642193028089596e-05 -7.3738419105129918e-05 0 -7.1179072905341085e-06 -7.3612580706849278e-05 0 -1.1155506046620822e-05 -6.2117151478750118e-05 0 -2.0642193028089596e-05 -7.3738419105129918e-05 0 1.2815542770214164e-06 -7.2961404828216625e-05 0 -7.1179072905341085e-06 -7.3612580706849278e-05 0 -1.4867647631685556e-06 -6.2579572777386283e-05 0 -7.1179072905341085e-06 -7.3612580706849278e-05 0 -1.1155506046620822e-05 -6.2117151478750118e-05 0 -1.4867647631685556e-06 -6.2579572777386283e-05 0 -1.1155506046620822e-05 -6.2117151478750118e-05 0 -2.5902383677098608e-06 -5.0531335041274009e-05 0 -1.4867647631685556e-06 -6.2579572777386283e-05 0 -1.1155506046620822e-05 -6.2117151478750118e-05 0 -1.7456027008016829e-05 -5.4394410279610654e-05 0 -1.0447170600535706e-05 -4.675604769571585e-05 0 -1.1155506046620822e-05 -6.2117151478750118e-05 0 -2.5902383677098608e-06 -5.0531335041274009e-05 0 -1.0447170600535706e-05 -4.675604769571585e-05 0 -2.5902383677098608e-06 -5.0531335041274009e-05 0 5.5941676673605424e-06 -5.382854479027775e-05 0 4.9783980033227874e-06 -3.9973159484227973e-05 0 5.5941676673605424e-06 -5.382854479027775e-05 0 4.9783980033227874e-06 -3.9973159484227973e-05 0 1.255033273733214e-05 -4.6779594089809682e-05 0 6.4570239766548436e-06 -6.4288859294545721e-05 0 5.5941676673605424e-06 -5.382854479027775e-05 0 1.3671833236455524e-05 -6.0048230081628491e-05 0 -2.5902383677098608e-06 -5.0531335041274009e-05 0 5.5941676673605424e-06 -5.382854479027775e-05 0 -1.4867647631685556e-06 -6.2579572777386283e-05 0 6.4570239766548436e-06 -6.4288859294545721e-05 0 5.5941676673605424e-06 -5.382854479027775e-05 0 -1.4867647631685556e-06 -6.2579572777386283e-05 0 -4.5512377255932765e-05 -6.8216157696100182e-05 0 -3.9462961651826613e-05 -7.5036423311985729e-05 0 -3.1355465550579973e-05 -6.7606803820568215e-05 0 -4.5512377255932765e-05 -6.8216157696100182e-05 0 -3.1355465550579973e-05 -6.7606803820568215e-05 0 -3.4963121636871667e-05 -5.8154397515762656e-05 0 -3.3446384923100817e-05 -8.2023819030058873e-05 0 -4.7713272040231042e-05 -8.1914866839480379e-05 0 -3.9462961651826613e-05 -7.5036423311985729e-05 0 -4.5512377255932765e-05 -6.8216157696100182e-05 0 -4.7713272040231042e-05 -8.1914866839480379e-05 0 -3.9462961651826613e-05 -7.5036423311985729e-05 0 -3.3446384923100817e-05 -8.2023819030058873e-05 0 -3.9462961651826613e-05 -7.5036423311985729e-05 0 -3.1355465550579973e-05 -6.7606803820568215e-05 0 -3.1355465550579973e-05 -6.7606803820568215e-05 0 -2.0642193028089596e-05 -7.3738419105129918e-05 0 -2.0851489526771926e-05 -6.2417381572480652e-05 0 -3.3446384923100817e-05 -8.2023819030058873e-05 0 -3.1355465550579973e-05 -6.7606803820568215e-05 0 -2.0642193028089596e-05 -7.3738419105129918e-05 0 -2.241374106758147e-05 -8.6296136388437519e-05 0 -3.3446384923100817e-05 -8.2023819030058873e-05 0 -2.0642193028089596e-05 -7.3738419105129918e-05 0 -1.1155506046620822e-05 -6.2117151478750118e-05 0 -2.0642193028089596e-05 -7.3738419105129918e-05 0 -2.0851489526771926e-05 -6.2417381572480652e-05 0 -2.0851489526771926e-05 -6.2417381572480652e-05 0 -1.7456027008016829e-05 -5.4394410279610654e-05 0 -2.6130537181789514e-05 -5.5120783289690082e-05 0 -1.1155506046620822e-05 -6.2117151478750118e-05 0 -2.0851489526771926e-05 -6.2417381572480652e-05 0 -1.7456027008016829e-05 -5.4394410279610654e-05 0 -1.7456027008016829e-05 -5.4394410279610654e-05 0 -1.8968978963785879e-05 -4.6319392684771779e-05 0 -1.0447170600535706e-05 -4.675604769571585e-05 0 -1.7456027008016829e-05 -5.4394410279610654e-05 0 -2.6130537181789514e-05 -5.5120783289690082e-05 0 -1.8968978963785879e-05 -4.6319392684771779e-05 0 -2.6130537181789514e-05 -5.5120783289690082e-05 0 -3.0550518052284099e-05 -4.7121035087320661e-05 0 -1.8968978963785879e-05 -4.6319392684771779e-05 0 -3.1355465550579973e-05 -6.7606803820568215e-05 0 -2.0851489526771926e-05 -6.2417381572480652e-05 0 -2.6130537181789514e-05 -5.5120783289690082e-05 0 -3.1355465550579973e-05 -6.7606803820568215e-05 0 -2.6130537181789514e-05 -5.5120783289690082e-05 0 -3.4963121636871667e-05 -5.8154397515762656e-05 0 -2.6130537181789514e-05 -5.5120783289690082e-05 0 -3.4963121636871667e-05 -5.8154397515762656e-05 0 -3.0550518052284099e-05 -4.7121035087320661e-05 0 -3.4963121636871667e-05 -5.8154397515762656e-05 0 -4.2838218079464947e-05 -5.5414658980450945e-05 0 -3.0550518052284099e-05 -4.7121035087320661e-05 0 -4.5512377255932765e-05 -6.8216157696100182e-05 0 -3.4963121636871667e-05 -5.8154397515762656e-05 0 -4.2838218079464947e-05 -5.5414658980450945e-05 0 -3.9670303395171824e-05 -4.3727573688924833e-05 0 -3.0384194074971706e-05 -3.7221381311855966e-05 0 -3.5755655563632431e-05 -3.3278787184273029e-05 0 -4.2838218079464947e-05 -5.5414658980450945e-05 0 -3.9670303395171824e-05 -4.3727573688924833e-05 0 -3.0550518052284099e-05 -4.7121035087320661e-05 0 -3.9670303395171824e-05 -4.3727573688924833e-05 0 -3.0550518052284099e-05 -4.7121035087320661e-05 0 -3.0384194074971706e-05 -3.7221381311855966e-05 0 -3.0550518052284099e-05 -4.7121035087320661e-05 0 -3.0384194074971706e-05 -3.7221381311855966e-05 0 -2.2710602340750517e-05 -3.6949006763345975e-05 0 -3.0550518052284099e-05 -4.7121035087320661e-05 0 -2.2710602340750517e-05 -3.6949006763345975e-05 0 -1.8968978963785879e-05 -4.6319392684771779e-05 0 -1.8968978963785879e-05 -4.6319392684771779e-05 0 -1.6050150254998033e-05 -3.8271521597829869e-05 0 -1.0447170600535706e-05 -4.675604769571585e-05 0 -2.2710602340750517e-05 -3.6949006763345975e-05 0 -1.8968978963785879e-05 -4.6319392684771779e-05 0 -1.6050150254998033e-05 -3.8271521597829869e-05 0 -1.6050150254998033e-05 -3.8271521597829869e-05 0 -1.70344390641683e-05 -3.1051208304193262e-05 0 -9.9145365266383319e-06 -3.265978709016749e-05 0 -2.2710602340750517e-05 -3.6949006763345975e-05 0 -1.6050150254998033e-05 -3.8271521597829869e-05 0 -1.70344390641683e-05 -3.1051208304193262e-05 0 -1.70344390641683e-05 -3.1051208304193262e-05 0 -1.3688647749609833e-05 -2.3384600217594504e-05 0 -2.3650408387499896e-05 -2.6876470085282446e-05 0 -1.6421908242979696e-05 -1.8804507077095352e-05 0 -1.3688647749609833e-05 -2.3384600217594504e-05 0 -2.3650408387499896e-05 -2.6876470085282446e-05 0 -2.2710602340750517e-05 -3.6949006763345975e-05 0 -1.70344390641683e-05 -3.1051208304193262e-05 0 -2.3650408387499896e-05 -2.6876470085282446e-05 0 -3.0384194074971706e-05 -3.7221381311855966e-05 0 -2.3650408387499896e-05 -2.6876470085282446e-05 0 -3.5755655563632431e-05 -3.3278787184273029e-05 0 -3.0384194074971706e-05 -3.7221381311855966e-05 0 -2.2710602340750517e-05 -3.6949006763345975e-05 0 -2.3650408387499896e-05 -2.6876470085282446e-05 0 -3.1836751784986448e-05 -2.4385887936433647e-05 0 -2.3650408387499896e-05 -2.6876470085282446e-05 0 -3.5755655563632431e-05 -3.3278787184273029e-05 0 4.9783980033227874e-06 -3.9973159484227973e-05 0 -4.0249952674794218e-06 -3.95736985034705e-05 0 -1.6789366249446906e-06 -2.9915979398511677e-05 0 4.9783980033227874e-06 -3.9973159484227973e-05 0 -1.6789366249446906e-06 -2.9915979398511677e-05 0 5.4766143577173044e-06 -2.6735213878822714e-05 0 -2.5902383677098608e-06 -5.0531335041274009e-05 0 4.9783980033227874e-06 -3.9973159484227973e-05 0 -4.0249952674794218e-06 -3.95736985034705e-05 0 -2.5902383677098608e-06 -5.0531335041274009e-05 0 -4.0249952674794218e-06 -3.95736985034705e-05 0 -1.0447170600535706e-05 -4.675604769571585e-05 0 -1.6050150254998033e-05 -3.8271521597829869e-05 0 -1.0447170600535706e-05 -4.675604769571585e-05 0 -9.9145365266383319e-06 -3.265978709016749e-05 0 -4.0249952674794218e-06 -3.95736985034705e-05 0 -1.0447170600535706e-05 -4.675604769571585e-05 0 -9.9145365266383319e-06 -3.265978709016749e-05 0 -4.0249952674794218e-06 -3.95736985034705e-05 0 -9.9145365266383319e-06 -3.265978709016749e-05 0 -1.6789366249446906e-06 -2.9915979398511677e-05 0 -9.9145365266383319e-06 -3.265978709016749e-05 0 -6.839539740754515e-06 -2.3545657895106251e-05 0 -1.6789366249446906e-06 -2.9915979398511677e-05 0 -1.70344390641683e-05 -3.1051208304193262e-05 0 -1.3688647749609833e-05 -2.3384600217594504e-05 0 -9.9145365266383319e-06 -3.265978709016749e-05 0 -1.0022573418538795e-05 -1.8767253219935605e-05 0 -1.3688647749609833e-05 -2.3384600217594504e-05 0 -6.839539740754515e-06 -2.3545657895106251e-05 0 -1.3688647749609833e-05 -2.3384600217594504e-05 0 -9.9145365266383319e-06 -3.265978709016749e-05 0 -6.839539740754515e-06 -2.3545657895106251e-05 0 -6.839539740754515e-06 -2.3545657895106251e-05 0 -1.540057961417375e-06 -2.0829817850576237e-05 0 -1.6789366249446906e-06 -2.9915979398511677e-05 0 -1.540057961417375e-06 -2.0829817850576237e-05 0 -1.6789366249446906e-06 -2.9915979398511677e-05 0 5.4766143577173044e-06 -2.6735213878822714e-05 0 3.8835167569326777e-06 -1.7417492734457127e-05 0 -1.540057961417375e-06 -2.0829817850576237e-05 0 5.4766143577173044e-06 -2.6735213878822714e-05 0 3.8835167569326777e-06 -1.7417492734457127e-05 0 8.8853868605473678e-06 -1.4848425352795523e-05 0 5.4766143577173044e-06 -2.6735213878822714e-05 0 8.8853868605473678e-06 -1.4848425352795523e-05 0 7.4202158315353012e-06 -1.2236245719746756e-05 0 7.3799645679256431e-06 -1.1803168454698785e-05 0 8.8853868605473678e-06 -1.4848425352795523e-05 0 1.45669113504339e-05 -2.8992041459386261e-05 0 5.4766143577173044e-06 -2.6735213878822714e-05 0 7.6771211325610295e-06 -1.4442522364579279e-05 0 1.1359290646698663e-05 -2.0892202827438661e-05 0 1.45669113504339e-05 -2.8992041459386261e-05 0 5.4766143577173044e-06 -2.6735213878822714e-05 0 1.122436292394014e-05 -3.5511934938148316e-05 0 4.9783980033227874e-06 -3.9973159484227973e-05 0 5.4766143577173044e-06 -2.6735213878822714e-05 0 1.122436292394014e-05 -3.5511934938148316e-05 0 1.1359290646698663e-05 -2.0892202827438661e-05 0 1.2693345731080023e-05 -2.7550661193933283e-05 0 1.45669113504339e-05 -2.8992041459386261e-05 0 1.122436292394014e-05 -3.5511934938148316e-05 0 1.8450881376213693e-05 -4.0301936750280263e-05 0 1.2693345731080023e-05 -2.7550661193933283e-05 0 1.4479003731028131e-05 -3.5401424893960512e-05 0 1.122436292394014e-05 -3.5511934938148316e-05 0 1.8450881376213693e-05 -4.0301936750280263e-05 0 1.255033273733214e-05 -4.6779594089809682e-05 0 4.9783980033227874e-06 -3.9973159484227973e-05 0 1.122436292394014e-05 -3.5511934938148316e-05 0 1.255033273733214e-05 -4.6779594089809682e-05 0 8.8767659820901386e-06 -1.5600205446854072e-05 0 8.350646022120994e-06 -1.2365924015058252e-05 0 1.0120633499588499e-05 -1.456057421256172e-05 0 7.195633619316722e-06 -1.4929394171442309e-05 0 8.8767659820901386e-06 -1.5600205446854072e-05 0 7.5534661571188096e-06 -1.8631029069246232e-05 0 7.195633619316722e-06 -1.4929394171442309e-05 0 8.8767659820901386e-06 -1.5600205446854072e-05 0 8.350646022120994e-06 -1.2365924015058252e-05 0 7.4202158315353012e-06 -1.2236245719746756e-05 0 7.195633619316722e-06 -1.4929394171442309e-05 0 8.350646022120994e-06 -1.2365924015058252e-05 0 8.350646022120994e-06 -1.2365924015058252e-05 0 7.3799645679256431e-06 -1.1803168454698785e-05 0 8.508830210230021e-06 -1.0120275054429789e-05 0 7.4202158315353012e-06 -1.2236245719746756e-05 0 8.350646022120994e-06 -1.2365924015058252e-05 0 7.3799645679256431e-06 -1.1803168454698785e-05 0 7.4860421422861249e-06 -1.0720289341824836e-05 0 8.8853868605473678e-06 -1.4848425352795523e-05 0 7.3799645679256431e-06 -1.1803168454698785e-05 0 7.4860421422861249e-06 -1.0720289341824836e-05 0 7.3799645679256431e-06 -1.1803168454698785e-05 0 8.508830210230021e-06 -1.0120275054429789e-05 0 8.350646022120994e-06 -1.2365924015058252e-05 0 8.508830210230021e-06 -1.0120275054429789e-05 0 1.0395812316675464e-05 -1.2443718880433569e-05 0 8.508830210230021e-06 -1.0120275054429789e-05 0 1.0858707297189396e-05 -9.5615709805754058e-06 0 1.0395812316675464e-05 -1.2443718880433569e-05 0 9.5210078716011717e-06 -7.0693362223858791e-06 0 8.508830210230021e-06 -1.0120275054429789e-05 0 1.0858707297189396e-05 -9.5615709805754058e-06 0 1.1127457323525458e-05 -5.4090066270654153e-06 0 1.2540787973781299e-05 -8.0784025484935567e-06 0 1.0858707297189396e-05 -9.5615709805754058e-06 0 1.1127457323525458e-05 -5.4090066270654153e-06 0 9.5210078716011717e-06 -7.0693362223858791e-06 0 1.0858707297189396e-05 -9.5615709805754058e-06 0 1.2540787973781299e-05 -8.0784025484935567e-06 0 1.3553149319096406e-05 -1.1896682331058065e-05 0 1.0858707297189396e-05 -9.5615709805754058e-06 0 1.3553149319096406e-05 -1.1896682331058065e-05 0 1.2237348769940867e-05 -1.2425612332327949e-05 0 1.4456840438076549e-05 -1.5237112818533676e-05 0 1.3553149319096406e-05 -1.1896682331058065e-05 0 1.0858707297189396e-05 -9.5615709805754058e-06 0 1.2237348769940867e-05 -1.2425612332327949e-05 0 1.2237348769940867e-05 -1.2425612332327949e-05 0 1.2749442181025583e-05 -1.4858906702651556e-05 0 1.0395812316675464e-05 -1.2443718880433569e-05 0 1.0858707297189396e-05 -9.5615709805754058e-06 0 1.2237348769940867e-05 -1.2425612332327949e-05 0 1.0395812316675464e-05 -1.2443718880433569e-05 0 1.2237348769940867e-05 -1.2425612332327949e-05 0 1.2749442181025583e-05 -1.4858906702651556e-05 0 1.4456840438076549e-05 -1.5237112818533676e-05 0 8.350646022120994e-06 -1.2365924015058252e-05 0 1.0395812316675464e-05 -1.2443718880433569e-05 0 1.0120633499588499e-05 -1.456057421256172e-05 0 1.2749442181025583e-05 -1.4858906702651556e-05 0 1.0395812316675464e-05 -1.2443718880433569e-05 0 1.2259667285119833e-05 -1.6696514948661153e-05 0 1.0395812316675464e-05 -1.2443718880433569e-05 0 1.0120633499588499e-05 -1.456057421256172e-05 0 1.2259667285119833e-05 -1.6696514948661153e-05 0 1.0120633499588499e-05 -1.456057421256172e-05 0 1.2259667285119833e-05 -1.6696514948661153e-05 0 1.0504129621125934e-05 -1.8018843991153078e-05 0 1.2259667285119833e-05 -1.6696514948661153e-05 0 1.4797047111462772e-05 -1.7838123609804959e-05 0 1.4891663512695525e-05 -2.0310159294563055e-05 0 1.2259667285119833e-05 -1.6696514948661153e-05 0 1.2625443495364353e-05 -1.9808123271347066e-05 0 1.4891663512695525e-05 -2.0310159294563055e-05 0 1.2259667285119833e-05 -1.6696514948661153e-05 0 1.2625443495364353e-05 -1.9808123271347066e-05 0 1.0504129621125934e-05 -1.8018843991153078e-05 0 1.4456840438076549e-05 -1.5237112818533676e-05 0 1.6815773606376266e-05 -1.8343903717907756e-05 0 1.4797047111462772e-05 -1.7838123609804959e-05 0 1.2749442181025583e-05 -1.4858906702651556e-05 0 1.4456840438076549e-05 -1.5237112818533676e-05 0 1.4797047111462772e-05 -1.7838123609804959e-05 0 1.2749442181025583e-05 -1.4858906702651556e-05 0 1.2259667285119833e-05 -1.6696514948661153e-05 0 1.4797047111462772e-05 -1.7838123609804959e-05 0 1.4797047111462772e-05 -1.7838123609804959e-05 0 1.7765046155471132e-05 -2.1111438547561694e-05 0 1.4891663512695525e-05 -2.0310159294563055e-05 0 1.6815773606376266e-05 -1.8343903717907756e-05 0 1.4797047111462772e-05 -1.7838123609804959e-05 0 1.7765046155471132e-05 -2.1111438547561694e-05 0 2.0997513456631348e-05 -2.2943348339969185e-05 0 1.7765046155471132e-05 -2.1111438547561694e-05 0 2.0112402889025422e-05 -2.4091292976429199e-05 0 1.7765046155471132e-05 -2.1111438547561694e-05 0 1.7604165150008228e-05 -2.3562476824610252e-05 0 1.4891663512695525e-05 -2.0310159294563055e-05 0 1.7765046155471132e-05 -2.1111438547561694e-05 0 1.7604165150008228e-05 -2.3562476824610252e-05 0 2.0112402889025422e-05 -2.4091292976429199e-05 0 1.2625443495364353e-05 -1.9808123271347066e-05 0 1.4960505337529157e-05 -2.2983061576281088e-05 0 1.2763895711153998e-05 -2.2457054513623001e-05 0 1.7604165150008228e-05 -2.3562476824610252e-05 0 1.4891663512695525e-05 -2.0310159294563055e-05 0 1.4960505337529157e-05 -2.2983061576281088e-05 0 1.2625443495364353e-05 -1.9808123271347066e-05 0 1.4891663512695525e-05 -2.0310159294563055e-05 0 1.4960505337529157e-05 -2.2983061576281088e-05 0 1.6794477259165797e-05 -2.6081355752876176e-05 0 1.7604165150008228e-05 -2.3562476824610252e-05 0 1.4960505337529157e-05 -2.2983061576281088e-05 0 1.4960505337529157e-05 -2.2983061576281088e-05 0 1.4207643548151228e-05 -2.4696500638760386e-05 0 1.2763895711153998e-05 -2.2457054513623001e-05 0 1.6794477259165797e-05 -2.6081355752876176e-05 0 1.4960505337529157e-05 -2.2983061576281088e-05 0 1.4207643548151228e-05 -2.4696500638760386e-05 0 1.4207643548151228e-05 -2.4696500638760386e-05 0 1.2763895711153998e-05 -2.2457054513623001e-05 0 1.1792218556221113e-05 -2.4147998485801968e-05 0 1.2763895711153998e-05 -2.2457054513623001e-05 0 1.0443873733520378e-05 -2.0918587531606447e-05 0 1.1792218556221113e-05 -2.4147998485801968e-05 0 1.2625443495364353e-05 -1.9808123271347066e-05 0 1.2763895711153998e-05 -2.2457054513623001e-05 0 1.0443873733520378e-05 -2.0918587531606447e-05 0 1.0443873733520378e-05 -2.0918587531606447e-05 0 1.1792218556221113e-05 -2.4147998485801968e-05 0 8.6439027497108886e-06 -2.275676399277134e-05 0 1.3381209446996289e-05 -7.2319515578044325e-05 0 2.6791329487949187e-05 -7.7845028956214228e-05 0 2.4203895851252229e-05 -6.4669315150675481e-05 0 1.8466550305850919e-05 -5.2287216453703454e-05 0 1.633241439038843e-05 -4.3718344367350551e-05 0 1.1792218556221113e-05 -2.4147998485801968e-05 0 1.0386578052454895e-05 -2.6713137087250724e-05 0 8.6439027497108886e-06 -2.275676399277134e-05 0 1.7571278803404424e-05 -8.4767752581081096e-05 0 1.3381209446996289e-05 -7.2319515578044325e-05 0 2.6791329487949187e-05 -7.7845028956214228e-05 0 1.3381209446996289e-05 -7.2319515578044325e-05 0 2.4203895851252229e-05 -6.4669315150675481e-05 0 1.3671833236455524e-05 -6.0048230081628491e-05 0 2.4203895851252229e-05 -6.4669315150675481e-05 0 1.3671833236455524e-05 -6.0048230081628491e-05 0 2.1472602710400157e-05 -5.2163995109015373e-05 0 1.0443873733520378e-05 -2.0918587531606447e-05 0 8.6439027497108886e-06 -2.275676399277134e-05 0 7.5534661571188096e-06 -1.8631029069246232e-05 0 1.633241439038843e-05 -4.3718344367350551e-05 0 1.4479003731028131e-05 -3.5401424893960512e-05 0 1.3671833236455524e-05 -6.0048230081628491e-05 0 1.255033273733214e-05 -4.6779594089809682e-05 0 2.1472602710400157e-05 -5.2163995109015373e-05 0 5.5941676673605424e-06 -5.382854479027775e-05 0 1.3671833236455524e-05 -6.0048230081628491e-05 0 1.255033273733214e-05 -4.6779594089809682e-05 0 1.8450881376213693e-05 -4.0301936750280263e-05 0 1.255033273733214e-05 -4.6779594089809682e-05 0 2.1472602710400157e-05 -5.2163995109015373e-05 0 8.8767659820901386e-06 -1.5600205446854072e-05 0 7.5534661571188096e-06 -1.8631029069246232e-05 0 1.0504129621125934e-05 -1.8018843991153078e-05 0 8.8767659820901386e-06 -1.5600205446854072e-05 0 1.0120633499588499e-05 -1.456057421256172e-05 0 1.0504129621125934e-05 -1.8018843991153078e-05 0 1.2625443495364353e-05 -1.9808123271347066e-05 0 1.0443873733520378e-05 -2.0918587531606447e-05 0 1.0504129621125934e-05 -1.8018843991153078e-05 0 1.0443873733520378e-05 -2.0918587531606447e-05 0 7.5534661571188096e-06 -1.8631029069246232e-05 0 1.0504129621125934e-05 -1.8018843991153078e-05 0 
</DataArray>
</PointData>
<CellData Scalars="region_id,von_mises_stress,cross_section_updated,displacement_divergence," Vectors="" Tensors="stress,">
<DataArray type="Float64" Name="region_id" format="ascii">
1 1 1 1 1 1 1 1 1 1 1 1 1 1 1 1 1 1 1 1 1 1 1 1 1 1 1 1 1 1 1 1 1 1 1 1 1 1 1 1 1 1 1 1 1 1 1 1 1 1 1 1 1 1 1 1 1 1 1 1 1 1 1 1 1 1 1 1 1 1 1 1 1 1 1 1 1 1 1 1 1 1 1 1 1 1 1 1 1 1 1 1 1 1 1 1 1 1 1 1 1 1 1 1 1 1 1 1 1 1 1 1 1 1 1 1 1 1 1 1 1 1 1 1 1 1 1 1 1 1 1 1 1 1 1 1 1 1 1 1 1 1 1 1 1 1 1 1 1 1 1 1 1 1 1 1 1 1 1 1 1 1 1 1 1 1 1 1 1 1 1 1 1 1 1 1 1 1 1 1 1 1 1 1 1 1 1 1 1 1 1 1 1 1 1 1 1 1 1 1 1 1 1 1 1 1 1 1 1 1 1 1 1 1 1 1 1 1 1 1 1 1 1 1 1 1 1 1 1 1 1 1 1 1 1 1 1 1 1 1 1 1 1 1 1 1 1 1 1 1 1 1 1 1 1 1 1 1 1 1 1 1 1 1 1 1 1 1 1 1 1 1 1 1 1 1 1 1 1 1 1 1 1 1 1 1 1 1 1 1 1 1 1 1 1 1 1 1 1 1 1 1 1 1 1 1 1 1 1 1 1 1 1 1 1 1 1 1 1 1 1 1 1 1 1 1 1 1 1 1 1 1 1 1 1 1 1 1 1 1 1 1 1 1 1 1 1 1 1 1 1 1 1 1 1 1 1 1 1 1 1 1 1 1 1 1 1 1 1 1 1 1 1 1 1 1 1 1 1 1 1 1 1 1 1 1 1 1 1 1 1 1 1 1 1 1 1 1 1 1 1 1 1 1 1 1 1 1 1 1 1 1 1 1 1 1 1 1 1 1 1 1 1 1 1 1 1 1 1 1 1 1 1 1 1 1 1 1 1 1 1 1 1 1 1 1 1 1 1 1 1 1 1 1 1 1 1 1 1 1 1 1 1 1 1 1 1 1 1 1 1 1 1 1 1 1 1 1 1 1 1 1 1 1 1 1 1 1 1 1 1 1 1 1 1 1 1 1 1 1 1 1 1 1 1 1 1 1 1 1 1 1 1 1 1 1 1 1 1 1 1 1 1 1 1 1 1 1 1 1 1 1 1 1 1 1 1 1 3 1 1 3 1 1 3 1 1 1 1 1 1 1 1 1 1 1 1 1 3 1 1 1 1 1 3 1 1 1 1 1 1 1 1 1 1 1 1 1 1 1 1 1 1 1 1 1 1 1 1 1 1 1 1 1 1 1 1 1 1 1 1 1 1 1 1 1 1 1 1 1 1 1 1 1 1 1 1 1 1 1 1 1 1 1 1 1 1 1 1 1 1 1 1 1 1 1 1 1 1 1 1 1 1 1 1 1 1 1 1 1 1 1 1 1 1 1 1 1 1 1 1 1 1 1 1 1 1 1 1 1 1 1 1 1 1 1 1 1 1 1 1 1 1 1 1 1 1 1 1 1 1 1 1 1 1 1 1 1 1 1 1 1 1 1 1 1 1 1 1 1 1 1 1 1 1 1 1 1 1 1 1 1 1 1 1 1 1 1 1 1 1 1 1 3 1 1 1 3 1 1 3 1 1 1 1 1 1 1 1 1 1 1 3 1 1 1 1 3 1 1 1 1 1 1 1 1 1 1 1 1 1 1 1 1 1 1 1 1 1 1 1 1 1 1 1 1 1 1 1 1 1 1 1 1 1 1 1 1 1 1 1 1 1 1 1 1 1 1 1 1 1 1 1 1 1 1 2 1 1 1 1 1 1 1 1 1 1 1 1 1 1 2 1 1 2 1 2 1 1 1 1 1 1 1 1 1 1 1 1 1 2 1 1 1 1 1 1 1 1 1 1 1 1 1 1 1 1 1 1 1 1 1 1 1 1 1 1 1 1 1 1 1 1 1 1 1 1 1 1 1 1 1 1 1 1 1 1 1 1 1 1 1 1 1 1 1 1 1 1 1 1 1 1 1 1 1 1 1 1 1 1 1 1 1 1 1 1 1 1 1 1 1 1 1 1 1 1 1 1 1 1 1 1 1 1 1 1 1 1 1 1 1 1 1 1 1 1 1 1 1 1 1 1 1 1 1 1 1 1 1 1 1 1 1 1 1 1 1 1 1 1 1 1 1 1 1 1 2 1 1 2 1 2 1 1 1 1 1 1 1 1 1 1 1 1 1 1 1 1 1 1 1 1 1 1 1 1 1 1 1 1 1 1 1 1 1 1 1 1 1 1 1 1 1 1 1 1 1 1 1 2 1 1 1 1 1 2 1 1 1 1 1 1 1 
</DataArray>
<DataArray type="Float64" Name="stress" NumberOfComponents="9" format="ascii">
-0.036609316759759467 0.00096361627768191765 0 0.00096361627768191765 -0.0045877162217388325 0 0 0 -0.010299258245374577 -0.033763596071538914 0.0016817882595442585 0 0.0016817882595442585 -0.011232992813678021 0 0 0 -0.011249147221304235 -0.036097384639641454 0.0027306451446130128 0 0.0027306451446130128 0.0018232143207945889 0 0 0 -0.008568542579711718 -0.033615633433168958 0.003187391986843219 0 0.003187391986843219 -0.0052220381142128649 0 0 0 -0.0097094178868454579 -0.026710094271297478 0.007280175178766635 0 0.007280175178766635 -0.0089078120272005519 0 0 0 -0.0089044765746245091 -0.02670485661295785 0.0072843477134970445 0 0.0072843477134970445 -0.0088909890029810635 0 0 0 -0.0088989614039847297 -0.030665818031152748 0.007010369269576322 0 0.007010369269576322 -0.0022843119549878785 0 0 0 -0.008237532496535159 -0.03261738824657149 0.0064438011391198024 0 0.0064438011391198024 -0.0031380729239787984 0 0 0 -0.0089388652926375746 -0.029546939240163175 0.0084152103595436928 0 0.0084152103595436928 -0.0024353343327522467 0 0 0 -0.0079955683932288555 -0.02293784121052132 0.0086563205160142438 0 0.0086563205160142438 -0.00066501080683236888 0 0 0 -0.005900713004338423 -0.033930010448034426 0.0089433959099171709 0 0.0089433959099171709 -0.001370485010370924 0 0 0 -0.0088251238646013426 -0.022542482180214509 0.009921709596034228 0 0.009921709596034228 0.00053502530163925671 0 0 0 -0.0055018642196438157 -0.042116574326262785 0.007052935130523511 0 0.007052935130523511 -0.00063629796080631913 0 0 0 -0.010688218071767282 -0.032757915650372151 0.0074932923834653466 0 0.0074932923834653466 0.00048750913018302117 0 0 0 -0.0080676016300472823 -0.050762463971229452 0.0026787439065981029 0 0.0026787439065981029 -0.0016515801313207574 0 0 0 -0.013103511025637555 -0.0417818135351571 0.0034549561436255402 0 0.0034549561436255402 -0.00017423858874343118 0 0 0 -0.010489013030975131 -0.037851998525075974 0.0050212724109043368 0 0.0050212724109043368 0.0022357262013905027 0 0 0 -0.0089040680809213714 -0.038430866069529897 0.0071818045402466139 0 0.0071818045402466139 -0.00080521371381927012 0 0 0 -0.0098090199458372926 -0.0033182704778357756 0.010235462532847272 0 0.010235462532847272 -0.0011036549211497697 0 0 0 -0.0011054813497463861 -0.0079890916908808614 0.012741025328834889 0 0.012741025328834889 -0.0016917240381764641 0 0 0 -0.0024202039322643309 -0.0091640136495532883 0.0093303087557735764 0 0.0093303087557735764 -0.00087219532273434281 0 0 0 -0.002509052243071908 -0.017918045434643946 0.011288490010543059 0 0.011288490010543059 -0.001340641803350192 0 0 0 -0.0048146718094985354 -0.018985399300409135 0.01032512510923359 0 0.01032512510923359 -0.0039822726511350715 0 0 0 -0.0057419179878860516 -0.011414789342740964 0.011326019113100697 0 0.011326019113100697 -0.0022486834021903795 0 0 0 -0.0034158681862328354 -0.0116695287388545 0.0098628756847779706 0 0.0098628756847779706 -0.0038947425094587886 0 0 0 -0.0038910678120783215 -0.019943789319292957 0.011319245210713234 0 0.011319245210713234 -0.00085378164137969725 0 0 0 -0.00519939274016816 -0.021047448781637328 0.0085939269120826889 0 0.0085939269120826889 -0.00090200684389403832 0 0 0 -0.0054873639063828415 -0.017551135673251481 0.0094592733688615531 0 0.0094592733688615531 -0.0020546778260481999 0 0 0 -0.0049014533748249212 -0.0070509021019922406 0.009099465581114588 0 0.009099465581114588 -0.00035571303069698891 0 0 0 -0.0018516537831723065 -0.0076453843886685035 0.010312542828767585 0 0.010312542828767585 -0.0016019031173414577 0 0 0 -0.0023118218765024873 -0.0029566011464636603 0.012106396076670863 0 0.012106396076670863 -0.0014687501214619217 0 0 0 -0.0011063378169813981 0.00085791408996296371 0.0086745377784766126 0 0.0086745377784766126 0.00028217602516925067 0 0 0 0.0002850225287830549 0.00013270903937000547 0.010668449365486733 0 0.010668449365486733 -0.0011267444052770331 0 0 0 -0.00024850884147675778 0.00011450661734323589 0.0078157435120112285 0 0.0078157435120112285 6.4023064976215238e-05 0 0 0 4.4632420579861914e-05 -0.0084300206858510043 0.011333411138970845 0 0.011333411138970845 -0.00084390378933663079 0 0 0 -0.002318481118796907 -0.021063015992428796 0.011436571800145194 0 0.011436571800145194 -0.00068129813130420741 0 0 0 -0.0054360785309332492 -0.016912831500506161 0.01134233514648969 0 0.01134233514648969 -0.00095076130426327565 0 0 0 -0.004465898201192359 -0.010418025581923309 0.0089646671176918137 0 0.0089646671176918137 0.00049126143929303229 0 0 0 -0.0024816910356575701 -0.021069274055971147 0.0093551791577674241 0 0.0093551791577674241 0.00094910328173760522 0 0 0 -0.0050300426935583863 -0.023590695896781103 0.011556545145670991 0 0.011556545145670991 -0.00021718123685356139 0 0 0 -0.0059519692834086677 -0.016133805343240427 0.0089476714088608938 0 0.0089476714088608938 0.00034805136333290938 0 0 0 -0.003946438494976885 -0.01111003060746351 0.011833718879863881 0 0.011833718879863881 0.0012869897929133065 0 0 0 -0.0024557602036375517 -0.011286751856439986 0.0089090938201880528 0 0.0089090938201880528 0.0016913515735576447 0 0 0 -0.0023988500707205823 -0.0014708762524510031 0.0080979660337003184 0 0.0080979660337003184 0.0011164336735615683 0 0 0 -8.8610644722359193e-05 -0.010324165716181851 0.01163058808528877 0 0.01163058808528877 -0.00020000318102154219 0 0 0 -0.0026310422243008471 -0.0072175928031650519 0.0073255472745173775 0 0.0073255472745173775 0.0024641108176927202 0 0 0 -0.0011883704963680834 0.0074378955825026927 0.0071633414394541468 0 0.0071633414394541468 0.00099472401396977217 0 0 0 0.0021081548991181169 -0.00034470976199257528 0.0095522023129152415 0 0.0095522023129152415 0.0010741910141167585 0 0 0 0.00018237031303104667 -0.049266971928499548 0.0031248406975981071 0 0.0031248406975981071 -0.0018371400305503376 0 0 0 -0.012776027989762474 -0.039245412489105361 0.0085706301800951082 0 0.0085706301800951082 -7.2903624490739533e-05 0 0 0 -0.0098295790283990277 -0.059103415410358094 0.0045340898473108463 0 0.0045340898473108463 -0.00029622448066336966 0 0 0 -0.014849909972755367 -0.040745346683278588 0.0061824707445533901 0 0.0061824707445533901 0.0014768122444261157 0 0 0 -0.0098171336097131207 -0.030695717451664637 0.0085096562586034086 0 0.0085096562586034086 0.00092812426724512426 0 0 0 -0.0074418982961048756 -0.031680176365545022 0.0094097744385693328 0 0.0094097744385693328 -0.00062946953141985312 0 0 0 -0.0080774114742412084 -0.032295978340112635 0.010774377783199059 0 0.010774377783199059 -0.00053153839659385478 0 0 0 -0.0082068791841766221 -0.037209024145711179 0.0071019204386626187 0 0.0071019204386626187 0.00098071504658744924 0 0 0 -0.0090570772747809308 -0.025592392820049929 0.0087415284660030505 0 0.0087415284660030505 0.00012980110364883835 0 0 0 -0.0063656479291002675 -0.038620179366137541 0.010046274895504076 0 0.010046274895504076 -0.00038576674042770142 0 0 0 -0.0097514865266413037 -0.02973312662382134 0.0078228964927315355 0 0.0078228964927315355 -1.4375150267768345e-05 0 0 0 -0.0074368754435222796 -0.037715113166978627 0.0077104266611465683 0 0.0077104266611465683 0.00099550806727866613 0 0 0 -0.0091799012749249932 -0.052504570107699169 0.005819926168941645 0 0.005819926168941645 -0.00026787055226293321 0 0 0 -0.013193110164990526 -0.050465492084142756 0.0060254867978561857 0 0.0060254867978561857 -0.00059097009025371391 0 0 0 -0.01276411554359911 -0.049059955628317706 0.0037784311752411953 0 0.0037784311752411953 0.0006718983293381095 0 0 0 -0.012097014324744901 -0.066628257303519678 0.0044188499859189826 0 0.0044188499859189826 -0.00035031500595905651 0 0 0 -0.016744643077369691 -0.070326474233706013 0.003739597958085622 0 0.003739597958085622 -0.00020564589665540006 0 0 0 -0.017633030032590351 -0.051286410207288344 0.0049279002074654188 0 0.0049279002074654188 0.001662951695512456 0 0 0 -0.012405864627943975 -0.058321661880418416 0.0031974412297812171 0 0.0031974412297812171 0.0012153097073997407 0 0 0 -0.014276588043254653 -0.080627498605959358 0.0024471514526986649 0 0.0024471514526986649 0.0016717153286632536 0 0 0 -0.01973894581932405 -0.060588463801775072 0.0072644473782431558 0 0.0072644473782431558 0.0024419325095421662 0 0 0 -0.014536632823058233 -0.058586165373734504 0.0012334560709066494 0 0.0012334560709066494 0.00025936620621738737 0 0 0 -0.014581699791879281 -0.063996956446076919 0.0027372984314941104 0 0.0027372984314941104 0.0030504474381615743 0 0 0 -0.015236627251978815 -0.089331570852795278 -0.00037234315195498746 0 -0.00037234315195498746 -0.00017547600279764486 0 0 0 -0.02237676171389822 -0.035047405282720899 0.0030464635539737828 0 0.0030464635539737828 0.0047966239173792349 0 0 0 -0.0075626953413354195 -0.029142774985334338 0.0099823899034209296 0 0.0099823899034209296 0.0034413566386978511 0 0 0 -0.0064253545866591252 -0.044937851115235627 0.0066672233409848999 0 0.0066672233409848999 0.00044416952164741397 0 0 0 -0.011123420398397064 -0.044230763518519539 0.0071649874305972291 0 0.0071649874305972291 0.0025181472441084263 0 0 0 -0.010428154068602782 -0.029350201272475285 0.010787376634775496 0 0.010787376634775496 0.0024061707453994548 0 0 0 -0.0067360076317689432 -0.052594795867115823 0.01009452070368934 0 0.01009452070368934 0.0029213687718069731 0 0 0 -0.012418356773827199 -0.043168144671202696 0.0063655826503743237 0 0.0063655826503743237 4.6493858025419693e-05 0 0 0 -0.01078041270329432 -0.039118766644260644 0.010409360705178724 0 0.010409360705178724 0.0014436246526650549 0 0 0 -0.0094187854978988877 -0.027278620837062797 0.010841278098922534 0 0.010841278098922534 0.0011761655176314688 0 0 0 -0.0065256138298578356 -0.016985588191603136 0.010196754291997831 0 0.010196754291997831 0.0015157548167791524 0 0 0 -0.0038674583437059945 -0.016721012086378405 0.0081853279302759058 0 0.0081853279302759058 0.0022364860111688373 0 0 0 -0.0036211315188023978 -0.014805501803295918 0.0075497566078239348 0 0.0075497566078239348 0.0044168709615445972 0 0 0 -0.0025971577104378293 -0.006395878844816196 0.0098552618548112328 0 0.0098552618548112328 0.0020805356177306944 0 0 0 -0.0010788358067713756 -0.028857997791075354 0.008332338603780411 0 0.008332338603780411 0.0023760468955399058 0 0 0 -0.0066204877238838639 0.0021965539224708909 0.0064089811030865942 0 0.0064089811030865942 0.0042073308677526913 0 0 0 0.0016009711975558958 -0.00034499039541831711 0.010124476808594981 0 0.010124476808594981 0.00093994269353525357 0 0 0 0.00014873807452923482 -0.0043159948695740344 0.0061180191446408225 0 0.0061180191446408225 0.0052785106598435862 0 0 0 0.00024062894756738708 0.0091725502322260073 0.0025553355560865958 0 0.0025553355560865958 0.0072192603493327935 0 0 0 0.0040979526453897011 0.0059881896776801339 0.0083706309964728266 0 0.0083706309964728266 0.0039048977496831255 0 0 0 0.0024732718568408162 -0.0021974627301807603 0.006123736913213329 0 0.006123736913213329 0.0088130915525349157 0 0 0 0.0016539072055885423 0.01143090749418112 0.003905315080762764 0 0.003905315080762764 0.009060910574004738 0 0 0 0.0051229545170464637 0.011248313754840575 0.0027570864648884599 0 0.0027570864648884599 0.014382087609257077 0 0 0 0.0064076003410244164 -0.015921309696518445 0.01039986537997048 0 0.01039986537997048 0.0033643344287046795 0 0 0 -0.0031392438169534249 -0.023235858814270455 0.0054490602288590692 0 0.0054490602288590692 0.0040724480518842671 0 0 0 -0.0047908526905965469 -0.0028123012806388174 0.0069838989625982117 0 0.0069838989625982117 0.004518383041234364 0 0 0 0.00042652044014888577 -0.0097495545249635194 0.0038200092261125723 0 0.0038200092261125723 0.007503128588579204 0 0 0 -0.00056160648409608362 -0.014455852648492008 0.0095784527815175186 0 0.0095784527815175186 0.0076900641185438656 0 0 0 -0.0016914471324870478 -0.021993081626761751 0.0085951569233099767 0 0.0085951569233099767 0.0094798434505756479 0 0 0 -0.0031283095440465536 -0.011869424223019856 0.004265892721669981 0 0.004265892721669981 0.018926912490044773 0 0 0 0.0017643720667562396 -0.02012759490107327 -0.0005485336192165291 0 -0.0005485336192165291 0.010003293395195623 0 0 0 -0.0025310753764694327 0.028470994571354998 -0.0010934145298528569 0 -0.0010934145298528569 0.017639675060555915 0 0 0 0.011527667407977733 -0.0049177328832653439 0.0067297209545357402 0 0.0067297209545357402 0.013565575034054644 0 0 0 0.0021619605376973217 0.0070577760243164325 0.001441169841785897 0 0.001441169841785897 0.01455358653854355 0 0 0 0.0054028406407149801 0.010433916519484818 0.0030880028091717082 0 0.0030880028091717082 0.024022677810062287 0 0 0 0.0086141485823867797 0.022988205435735182 -0.0044252341032716552 0 -0.0044252341032716552 0.026015793273674315 0 0 0 0.012250999677352367 0.0071469631399985051 -0.0003531491915082785 0 -0.0003531491915082785 0.03605252415645599 0 0 0 0.010799871824113627 0.005488007682951157 -0.0090425710907983958 0 -0.0090425710907983958 0.03444670630545521 0 0 0 0.009983678497101578 0.013339119255833191 -0.013576788439029042 0 -0.013576788439029042 0.029791488278165329 0 0 0 0.010782651883499673 0.025449392454147568 -0.0068134016361008909 0 -0.0068134016361008909 0.054831931155697677 0 0 0 0.020070330902461297 -0.017093853729911901 -0.0044891300929131572 0 -0.0044891300929131572 0.022242737492540243 0 0 0 0.0012872209406570717 6.9486223942358261e-05 -0.0032470447194965224 0 -0.0032470447194965224 0.017491822075356767 0 0 0 0.0043903270748247708 -0.0010153402356985197 -0.012658191214176301 0 -0.012658191214176301 0.021269048605320917 0 0 0 0.005063427092405634 -0.020800630351241994 -0.0014807747721592504 0 -0.0014807747721592504 0.011672671953271319 0 0 0 -0.0022819895994926342 -0.024743752886123481 -0.009997225254245512 0 -0.009997225254245512 0.013161327427193073 0 0 0 -0.0028956063647325656 -0.039254492538234917 -0.0046370518589619325 0 -0.0046370518589619325 0.0092252978820659415 0 0 0 -0.0075072986640422334 -0.046204126093130758 0.0022869693919035927 0 0.0022869693919035927 0.0053531550219812901 0 0 0 -0.010212742767787351 -0.054797500213509376 -0.0082762273993969016 0 -0.0082762273993969016 0.0075491593017518455 0 0 0 -0.01181208522793939 -0.062893235463896052 0.00055038351305972122 0 0.00055038351305972122 0.0028654857057213712 0 0 0 -0.015006937439543691 -0.091412950976147531 -0.0009810969752575005 0 -0.0009810969752575005 0.0035450948383811132 0 0 0 -0.021966964034441594 -0.067323229896827236 0.0017730930897854047 0 0.0017730930897854047 0.0029953478693841573 0 0 0 -0.016081970506860763 -0.06530416007008065 -0.0023295485781454212 0 -0.0023295485781454212 0.0032568683600849857 0 0 0 -0.015511822927498919 -0.069948223603636339 -0.0010926674447894885 0 -0.0010926674447894885 0.00039523109730515982 0 0 0 -0.017388248126582823 -0.058235941361497096 0.0061429112374579431 0 0.0061429112374579431 0.0029030055890895134 0 0 0 -0.013833233943101902 -0.0928674071567753 0.0026052280602178873 0 0.0026052280602178873 0.0013275904966419116 0 0 0 -0.022884954165033347 -0.068118603914783124 0.0062395815191129134 0 0.0062395815191129134 0.0023997024848844417 0 0 0 -0.016429725357474667 -0.044593944036281863 0.008380229901178593 0 0.008380229901178593 0.0051083308063133437 0 0 0 -0.0098714033074921298 -0.032861527428901846 0.0057092464327214709 0 0.0057092464327214709 0.0086146481208186354 0 0 0 -0.0060617198270207923 -0.047491399640540909 -0.00013865462577841714 0 -0.00013865462577841714 0.0051092211818167116 0 0 0 -0.010595544614681065 0.024348380279749282 -0.0086033640773537576 0 -0.0086033640773537576 0.045360046559622724 0 0 0 0.017427106709843002 0.024853208337278401 -0.0095503489247353475 0 -0.0095503489247353475 0.037875062893063222 0 0 0 0.015682067807585409 0.023768204095048987 -0.0099803717788261182 0 -0.0099803717788261182 0.033066085372499471 0 0 0 0.014208572366887121 0.021611375081556417 -0.006891789244393591 0 -0.006891789244393591 0.040576851776433429 0 0 0 0.015547056714497463 0.025038920868833719 -0.0023546059308228173 0 -0.0023546059308228173 0.046013555574263856 0 0 0 0.01776311911077439 0.026919081718218201 -0.0034978843801430314 0 -0.0034978843801430314 0.05162420735518089 0 0 0 0.019635822268349781 0.022989076808678281 -0.009088335689536306 0 -0.009088335689536306 0.050987495560178835 0 0 0 0.018494143092214275 0.022456459463761437 -0.0082299506754277621 0 -0.0082299506754277621 0.047889989300462524 0 0 0 0.017586612191055985 0.026659108653771933 -0.009007989101285932 0 -0.009007989101285932 0.049201533542808373 0 0 0 0.018965160549145064 0.025582081036011776 -0.0080468650317907509 0 -0.0080468650317907509 0.045411306472492363 0 0 0 0.01774834687712603 0.019149638431422561 -0.0065782722984805975 0 -0.0065782722984805975 0.043864501718682156 0 0 0 0.015753535037526183 0.022628736334268242 -0.009407924548612577 0 -0.009407924548612577 0.048361872950028834 0 0 0 0.01774765232107426 0.020576606674689479 -0.010688969185323575 0 -0.010688969185323575 0.045699069225174645 0 0 0 0.016568918974966023 0.02176095166198902 -0.012696333727154566 0 -0.012696333727154566 0.048702111745477339 0 0 0 0.017615765851866597 0.023520805041701426 -0.0075686473095485374 0 -0.0075686473095485374 0.057562967145608934 0 0 0 0.020270943046827604 0.054876101182359631 -0.038644009613632832 0 -0.038644009613632832 0.088560036542991827 0 0 0 0.035859034431337845 0.017911228071813286 -0.021289517246091107 0 -0.021289517246091107 0.055676700134456358 0 0 0 0.01839698205156743 0.049844820897108871 -0.026061133732108333 0 -0.026061133732108333 0.048697839109479432 0 0 0 0.024635665001647072 0.018144385184404352 -0.012677284679250486 0 -0.012677284679250486 0.049069567466102595 0 0 0 0.016803488162626737 0.056158207219681011 -0.0047958342175485474 0 -0.0047958342175485474 0.080894150307656676 0 0 0 0.034263089381834394 0.042845084661635432 -0.014723598604435097 0 -0.014723598604435097 0.044081589152964396 0 0 0 0.021731668453649974 0.079496415088653669 -0.019917545391192726 0 -0.019917545391192726 0.055327912155492223 0 0 0 0.033706081811036466 0.038538388253067261 -0.013977682427724847 0 -0.013977682427724847 0.041045234830664391 0 0 0 0.019895905770932913 0.028164358280218058 -0.001587334104922386 0 -0.001587334104922386 0.04196199822442865 0 0 0 0.017531589126161679 0.05001278120642836 -0.0093778991563838593 0 -0.0093778991563838593 0.032231354550496055 0 0 0 0.020561033939231123 0.025799599506229988 -0.0041661052597635334 0 -0.0041661052597635334 0.02546226814537883 0 0 0 0.012815466912902189 0.033849397070152186 -0.0054022804786460384 0 -0.0054022804786460384 0.018945912999968936 0 0 0 0.013198827517530279 0.029151936416143422 -0.017130668250618063 0 -0.017130668250618063 0.042563895676716923 0 0 0 0.017928958023215098 0.025363653284013514 -0.015722495752676618 0 -0.015722495752676618 0.032176777779255011 0 0 0 0.014385107765817147 0.03425161694900454 -0.014366719823152019 0 -0.014366719823152019 0.035084529491765375 0 0 0 0.017334036610192477 0.024577324704633717 -0.0084703256326788007 0 -0.0084703256326788007 0.019363246338041522 0 0 0 0.010985142760668812 0.027190101463568966 -0.0099769556437150405 0 -0.0099769556437150405 0.033361869585658607 0 0 0 0.015137992762306898 0.025732950177722258 -0.0074445392947367463 0 -0.0074445392947367463 0.021419798825437923 0 0 0 0.011788187250790044 0.024016119345021368 -0.0010966821631571673 0 -0.0010966821631571673 0.018537038312870572 0 0 0 0.010638289414472988 0.022639439397260697 -0.0010813667860135288 0 -0.0010813667860135288 0.011222713333404459 0 0 0 0.0084655381826662934 0.02139519762336152 -0.0030969773339374028 0 -0.0030969773339374028 0.017453608172507722 0 0 0 0.0097122014489673114 0.025974839050082594 -0.0039166572510341323 0 -0.0039166572510341323 0.013911521764612217 0 0 0 0.0099715902036737053 0.020870476596774233 0.00052161272979418284 0 0.00052161272979418284 0.014452499209440604 0 0 0 0.0088307439515537059 0.013622229065215924 0.0046570571027375243 0 0.0046570571027375243 0.0093324141492192869 0 0 0 0.005738660803608798 0.01928215964967166 -0.00044921769791908843 0 -0.00044921769791908843 0.0088319120617569025 0 0 0 0.0070285179278571468 0.016251562288277253 0.0049893612118889485 0 0.0049893612118889485 0.0070746820141543605 0 0 0 0.0058315610756079035 0.013475400884723647 0.0034291332314681381 0 0.0034291332314681381 0.0044347729064922771 0 0 0 0.0044775434478039793 0.0090457792450971079 0.0079232107039119946 0 0.0079232107039119946 0.0033265712629157417 0 0 0 0.0030930876270032137 0.023759299303714579 -0.0016405354639813378 0 -0.0016405354639813378 0.013194227205370786 0 0 0 0.0092383816272713429 0.023143734115985321 -0.0021810773945844415 0 -0.0021810773945844415 0.01191741155864726 0 0 0 0.00876528641865814 0.020578227810344654 0.0020584666064986171 0 0.0020584666064986171 0.010136179096998132 0 0 0 0.0076786017268356882 0.019242585273887142 0.0013110458829455347 0 0.0013110458829455347 0.0084105443352196843 0 0 0 0.0069132824022767065 0.023096414160619878 -0.00049714026217412526 0 -0.00049714026217412526 0.014832658571271109 0 0 0 0.0094822681829727466 0.02381364326586468 0.0036474221986610919 0 0.0036474221986610919 0.0093478694022678284 0 0 0 0.0082903781670331314 0.027760115724932304 0.0032476453988394983 0 0.0032476453988394983 0.015065806854330696 0 0 0 0.010706480644815754 0.028720098287750247 0.0023386893651097 0 0.0023386893651097 0.014597932559936914 0 0 0 0.010829507711921794 0.02591425303820773 -0.001562664748312171 0 -0.001562664748312171 0.017913088019006783 0 0 0 0.010956835264303622 0.025778177862403426 -0.0014098997018635396 0 -0.0014098997018635396 0.021755938354057126 0 0 0 0.011883529054115135 0.023633583778823408 -0.0032215849315286073 0 -0.0032215849315286073 0.019476881763229315 0 0 0 0.010777616385513186 0.027471048465447956 -0.0033974039795954436 0 -0.0033974039795954436 0.031080796627737203 0 0 0 0.014637961273296298 0.027454938747799758 0.00033721706126452287 0 0.00033721706126452287 0.023661210525610384 0 0 0 0.012779037318352553 0.02315614739437441 -0.0051221162498336853 0 -0.0051221162498336853 0.028737268046621047 0 0 0 0.012973353860248863 0.025565981238570748 -0.0063681588924035214 0 -0.0063681588924035214 0.036675160801794421 0 0 0 0.015560285510091311 0.023618455915384588 -0.0079902065546001416 0 -0.0079902065546001416 0.026133485537037898 0 0 0 0.01243798536310561 0.030974365830775508 0.0014308043206082521 0 0.0014308043206082521 0.049668813376367617 0 0 0 0.020160794801785793 0.024632582832668337 -0.0017186438900625846 0 -0.0017186438900625846 0.034351775367726677 0 0 0 0.014746089550098752 0.027301420724675413 -0.0031644350451528313 0 -0.0031644350451528313 0.041638640874232601 0 0 0 0.017235015399727011 0.02828069710311551 0.00018410717963968928 0 0.00018410717963968928 0.026188013551396896 0 0 0 0.013617177663628098 0.030733031083173937 0.0026652491573631964 0 0.0026652491573631964 0.034700349111272705 0 0 0 0.01635834504861166 0.03057560608399686 0.0026389172215254093 0 0.0026389172215254093 0.03401943415116266 0 0 0 0.016148760058789877 0.031987191915550869 0.0037475403213097051 0 0.0037475403213097051 0.020446324581494164 0 0 0 0.013108379124261254 0.031583492248702667 0.0044399668736678239 0 0.0044399668736678239 0.02096558181736223 0 0 0 0.013137268516516223 0.0355484830303801 0.0065603614035013641 0 0.0065603614035013641 0.016738841017564985 0 0 0 0.013071831011986272 0.034369716411958934 0.0062422248521418998 0 0.0062422248521418998 0.010510038853832507 0 0 0 0.011219938816447856 0.031281348353433283 0.004206521821819598 0 0.004206521821819598 0.0058258019044567372 0 0 0 0.0092767875644725016 0.03076070524197581 0.0053730399450413573 0 0.0053730399450413573 0.011546381682226232 0 0 0 0.010576771731050514 0.032196817464718142 0.0040435215273658207 0 0.0040435215273658207 0.012293198390531907 0 0 0 0.011122503963812492 0.02540437341981748 0.0017682749815880732 0 0.0017682749815880732 0.010490169449608192 0 0 0 0.0089736357173564128 0.024871152616196247 0.004919838387233956 0 0.004919838387233956 0.006260243744814431 0 0 0 0.0077828490902526627 0.028151388447334908 0.0049399586279574208 0 0.0049399586279574208 0.0065590982856602691 0 0 0 0.0086776216832487908 0.028986414594471641 0.0046697156129050822 0 0.0046697156129050822 0.010362961630246699 0 0 0 0.0098373440561795814 0.029245166602209573 0.0046315680435105441 0 0.0046315680435105441 0.0041798321092923058 0 0 0 0.0083562496778754707 0.028763821355812135 0.0060354011765567407 0 0.0060354011765567407 0.0028362570476252562 0 0 0 0.0079000196008593392 0.024116161119449458 0.0056714607557945464 0 0.0056714607557945464 0.0031493893104667936 0 0 0 0.0068163876074790655 0.032160910233817848 0.0056879977459864117 0 0.0056879977459864117 0.0023483085478486331 0 0 0 0.008627304695416619 0.032017439012430586 0.0042737647838170557 0 0.0042737647838170557 0.0024277333602734461 0 0 0 0.0086112930931760111 0.035574582067658372 0.005261661822649975 0 0.005261661822649975 0.0037596718782471027 0 0 0 0.0098335634864763662 0.033624289449670559 0.0042098122421702659 0 0.0042098122421702659 0.0036627006766377611 0 0 0 0.0093217475315770862 0.031910403451818253 0.0056734948307560866 0 0.0056734948307560866 0.0057259095214911848 0 0 0 0.0094090782433273561 0.0083780844861501367 0.0070120924571670604 0 0.0070120924571670604 0.0046535727270107796 0 0 0 0.0032579143032902278 0.015037960158116946 0.0057360030960031099 0 0.0057360030960031099 0.0021004049509325655 0 0 0 0.0042845912772623788 0.0083986704867596747 0.0077132263189114945 0 0.0077132263189114945 0.0020553807125808718 0 0 0 0.0026135127998351357 0.019027260784611286 0.0048573060301500375 0 0.0048573060301500375 0.0014069079692028072 0 0 0 0.0051085421884535208 0.01615322066963653 0.0059058117014303335 0 0.0059058117014303335 0.0059617848403773765 0 0 0 0.0055287513775034765 0.019873828847038973 0.005055203895421332 0 0.005055203895421332 0.0048152907311315874 0 0 0 0.0061722798945426319 0.021913944452660421 0.0024973217005746676 0 0.0024973217005746676 0.0054838442215424527 0 0 0 0.0068494471685507218 0.021655064941706763 0.0062688565767159074 0 0.0062688565767159074 0.0070906550890131367 0 0 0 0.007186430007679977 0.023624114866507884 0.004531258540335867 0 0.004531258540335867 0.0024262967656594886 0 0 0 0.006512602908041832 0.020084352048571258 0.0050975821481278466 0 0.0050975821481278466 0.0031612339665034288 0 0 0 0.0058113965037686682 0.023590609314782313 0.006956806195606886 0 0.006956806195606886 0.0014953140158819184 0 0 0 0.0062714808326660579 0.017294731689740179 0.0074395177478886604 0 0.0074395177478886604 0.0033673658065534601 0 0 0 0.0051655243740734115 0.016186439263087059 0.0068447017955182909 0 0.0068447017955182909 0.00096372352234887909 0 0 0 0.0042875406963589803 0.0091908094998718812 0.0074963910463612046 0 0.0074963910463612046 0.0011492287807415881 0 0 0 0.0025850095701533682 0.0078487766875146581 0.0094607789488407937 0 0.0094607789488407937 0.00014749340362683883 0 0 0 0.0019990675227853777 0.008150908708281529 0.0078449420255763506 0 0.0078449420255763506 0.00070629281735025418 0 0 0 0.0022143003814079475 0.0015975099886931556 0.0098677037642285626 0 0.0098677037642285626 0.00019527115261556982 0 0 0 0.00044819528532718048 0.0054677322968856917 0.010930274586510389 0 0.010930274586510389 -0.00022166817906156815 0 0 0 0.001311516029456032 0.00072875272534444688 0.0093140587832899312 0 0.0093140587832899312 0.00096590194893880765 0 0 0 0.00042366366857081797 0.0062119492323546525 0.0078638645958291706 0 0.0078638645958291706 -0.0001740063172732953 0 0 0 0.0015094857287703371 0.012461941904541706 0.0093693680607957915 0 0.0093693680607957915 0.00056468765327279645 0 0 0 0.0032566573894536278 0.011369135161048842 0.0081552921306748075 0 0.0081552921306748075 0.00094677794072439703 0 0 0 0.0030789782754433084 0.01345584019190638 0.0098348670415340927 0 0.0098348670415340927 0.00082618752199777479 0 0 0 0.0035705069284760428 0.017298551040414008 0.0066295197997494164 0 0.0066295197997494164 0.00084583181720782052 0 0 0 0.0045360957144054571 0.01830057869832212 0.0074172925521363182 0 0.0074172925521363182 0.0021810146410736822 0 0 0 0.0051203983348489489 0.022837088099148327 0.0078198407502957507 0 0.0078198407502957507 0.00088489321221381367 0 0 0 0.0059304953278405343 0.018354179079558278 0.00708143009895317 0 0.00708143009895317 0.0035224010170193248 0 0 0 0.0054691450241444008 0.0158416490856872 0.010273782629941365 0 0.010273782629941365 0.002087409311524388 0 0 0 0.0044822645993028987 0.013984281699503293 0.0088492791702413 0 0.0088492791702413 0.0046613955319540577 0 0 0 0.0046614193078643373 0.0086613564457157424 0.011930048917662231 0 0.011930048917662231 0.00070408970533844192 0 0 0 0.0023413615377635474 0.0055788765927415633 0.0097289391776255035 0 0.0097289391776255035 0.0018577859475169046 0 0 0 0.0018591656350646171 0.00068837028027820754 0.012867479051135375 0 0.012867479051135375 -0.001085324606744157 0 0 0 -9.9238581616487367e-05 0.031218446354557273 0.0043445006657952699 0 0.0043445006657952699 0.0030484759415029053 0 0 0 0.0085667305740150454 0.032278122531180557 0.0049308612041991497 0 0.0049308612041991497 0.002184005573073286 0 0 0 0.0086155320260634626 0.028186774252110722 0.0055325303568998785 0 0.0055325303568998785 0.0024577664871700024 0 0 0 0.0076611351848201829 0.028066843138469653 0.0060974841098839052 0 0.0060974841098839052 0.0013705919255835759 0 0 0 0.0073593587660133056 0.023729165367515175 0.0063227994872174804 0 0.0063227994872174804 0.0030092318905759943 0 0 0 0.0066845993145227909 0.026519415080632935 0.0062238345158878508 0 0.0062238345158878508 0.0031849150589791896 0 0 0 0.0074260825349030269 0.021294423548359476 0.0074104461474616716 0 0.0074104461474616716 0.0070942180312271626 0 0 0 0.0070971603948966604 0.021417492073960678 0.0084472952325415178 0 0.0084472952325415178 0.0043930507789782611 0 0 0 0.0064526357132347325 0.025464634865991494 0.0063369169593313901 0 0.0063369169593313901 0.0084871843496897963 0 0 0 0.0084879548039203234 0.025739662482337659 0.0062596857443361891 0 0.0062596857443361891 0.0046687876976352731 0 0 0 0.0076021125449932348 0.030741276167217765 0.0041121573092672264 0 0.0041121573092672264 0.0054472991451215954 0 0 0 0.0090471438280848408 0.028581655463789362 0.0053055070755424621 0 0.0053055070755424621 0.0026958198118422405 0 0 0 0.0078193688189079017 0.027667854654425828 0.0049601632425947569 0 0.0049601632425947569 0.0051209754683385362 0 0 0 0.0081972075306910898 0.028193765734379494 0.0048290296057013635 0 0.0048290296057013635 0.0093968944266335057 0 0 0 0.0093976650402532516 0.029803530560850305 0.0027622274827956996 0 0.0027622274827956996 0.0043707305514815676 0 0 0 0.0085435652780829693 0.031872325072879897 0.0011281063241360013 0 0.0011281063241360013 0.010617877559546119 0 0 0 0.010622550658106505 0.029293756056317934 0.00014716319789896627 0 0.00014716319789896627 0.0033593401362179251 0 0 0 0.0081632740481339637 0.033818441669693035 0.00010045452438228015 0 0.00010045452438228015 0.0045472749125610914 0 0 0 0.0095914291455635337 0.033624625617117522 0.0018447601033524034 0 0.0018447601033524034 0.0032430997296605999 0 0 0 0.0092169313366945345 0.03444299435731691 0.0026949025889707748 0 0.0026949025889707748 0.0025107240951225433 0 0 0 0.0092384296131098609 0.032907422560065215 0.001176320561909484 0 0.001176320561909484 0.001311201220778472 0 0 0 0.0085546559452109247 0.036502069576878099 0.0014116781805340196 0 0.0014116781805340196 0.0024923284657866322 0 0 0 0.0097485995106661848 0.034338706996855685 0.0024297067384031084 0 0.0024297067384031084 0.00055840911514571073 0 0 0 0.0087242790280003448 0.03514481239912394 -0.0001387595583141909 0 -0.0001387595583141909 -0.00095278463405095055 0 0 0 0.0085480069412682477 0.032321953608297621 -0.0036218726582138657 0 -0.0036218726582138657 -0.0017781724211810013 0 0 0 0.0076359452967791567 0.034030481080398967 -0.0013550648189425006 0 -0.0013550648189425006 0.0015784193024586781 0 0 0 0.0089022250957144118 0.032674349873602473 -0.0011540538636360829 0 -0.0011540538636360829 0.002070419834998284 0 0 0 0.0086861924271501908 0.031328303171845491 -0.001333088539014485 0 -0.001333088539014485 0.010444492512458249 0 0 0 0.010443198921075937 0.030559008306674088 -0.0035832939703601507 0 -0.0035832939703601507 0.010178760320135701 0 0 0 0.010184442156702448 0.028563370613481281 -0.0032583706618123883 0 -0.0032583706618123883 0.0036748415242907782 0 0 0 0.0080595530344430132 0.02534631598976745 -0.0069223547179534566 0 -0.0069223547179534566 0.0084468209185436394 0 0 0 0.0084482842270777719 0.030512721973198736 -0.0041436001448047297 0 -0.0041436001448047297 0.0031688968439073286 0 0 0 0.008420404704276515 0.024556062512963162 -0.0070928771076649907 0 -0.0070928771076649907 0.00073808123859347291 0 0 0 0.0063235359378891595 0.015605913801817339 -0.0099555539977606491 0 -0.0099555539977606491 0.0051974623982805378 0 0 0 0.0052008440500244703 0.017244949572588125 -0.01151680351780829 0 -0.01151680351780829 -0.0015305318217179245 0 0 0 0.0039286044377175502 0.0079860441308834008 -0.014652251143970538 0 -0.014652251143970538 -0.0028439903840030145 0 0 0 0.0012855134367200961 0.01671708769564742 -0.011396616486784281 0 -0.011396616486784281 -0.0047431233434150066 0 0 0 0.0029934910880580982 0.019736139873727441 -0.0081843665777462 0 -0.0081843665777462 -0.0022936436653007569 0 0 0 0.0043606240521066736 0.024452458551658968 -0.0070435390130301071 0 -0.0070435390130301071 0.00016306501534937281 0 0 0 0.0061538808917520858 0.013111886892294769 -0.010142576199086074 0 -0.010142576199086074 -0.0016718914826662282 0 0 0 0.0028599988524071335 0.024477826299982759 -0.007463884582364631 0 -0.007463884582364631 -0.0022642718711548063 0 0 0 0.0055533886072069872 0.031645601872601042 -0.0045189293091810303 0 -0.0045189293091810303 -0.0033841526799550676 0 0 0 0.0070653622981614976 0.033105433737058002 -0.002349508045795372 0 -0.002349508045795372 -0.00013510205849744626 0 0 0 0.0082425829196401436 0.033994778609488831 -0.0030157748303907324 0 -0.0030157748303907324 -0.0011347105389729068 0 0 0 0.0082150170176289849 0.033702849509222886 -0.0028603841527040071 0 -0.0028603841527040071 -0.0021286595735224238 0 0 0 0.0078935474839251177 0.040972066452678077 -0.0003435406628321373 0 -0.0003435406628321373 -0.00070312566194456663 0 0 0 0.010067235197683386 0.027708719336998283 -0.0077088428229718873 0 -0.0077088428229718873 -0.00420123874533046 0 0 0 0.005876870147916954 0.021280284709812334 -0.01073351898062137 0 -0.01073351898062137 -0.0037570900181355948 0 0 0 0.0043807986729191908 0.027186486817925872 -0.0070902476530556001 0 -0.0070902476530556001 -0.0037346206651613506 0 0 0 0.0058629665381911243 0.029408412052486999 -0.0043762776548561238 0 -0.0043762776548561238 -0.0014231285790989607 0 0 0 0.0069963208683470066 0.016738694722327495 -0.010042777022354338 0 -0.010042777022354338 -0.0046283833900757996 0 0 0 0.003027577833062926 0.027765085593638703 -0.010722109727066957 0 -0.010722109727066957 -0.0040411070726179416 0 0 0 0.0059309946302551937 0.032815099399635506 -0.0074472696539851823 0 -0.0074472696539851823 -0.001035458587859403 0 0 0 0.0079449102029440291 0.031348435654015669 -0.0062799242454038701 0 -0.0062799242454038701 -0.00064533938645558106 0 0 0 0.0076757740668900194 0.044410443093752673 -0.0017731018156644622 0 -0.0017731018156644622 0.0034216105699164663 0 0 0 0.01195801341591729 0.033233420107672509 -0.0091410399912583012 0 -0.0091410399912583012 0.0021530356530555855 0 0 0 0.0088466139401820222 0.033052241929181221 -0.0090149607792032408 0 -0.0090149607792032408 0.0034371059787723403 0 0 0 0.0091223369769883895 0.038229933918695246 0.00021853789521746872 0 0.00021853789521746872 0.0017922332775499455 0 0 0 0.010005541799061296 0.039152167938598645 -0.0047598719089762265 0 -0.0047598719089762265 -0.00080486563878957558 0 0 0 0.00958682557495227 0.044436113481352228 0.00056226625913598552 0 0.00056226625913598552 0.0019941869181914662 0 0 0 0.011607575099885919 0.050854489906057745 0.0048002389612012818 0 0.0048002389612012818 0.009041906175372507 0 0 0 0.014974099020357567 0.04364164891802829 0.0052746015902808566 0 0.0052746015902808566 0.0081726333724036343 0 0 0 0.012953570572607979 0.046089617882251459 0.0040565935014128234 0 0.0040565935014128234 0.010042030856610311 0 0 0 0.014032912184715429 0.041938387764517575 0.0027812136429951101 0 0.0027812136429951101 0.0030299165477956367 0 0 0 0.011242076078078301 0.04166450467003284 0.0060387113439125412 0 0.0060387113439125412 0.0067546039995204496 0 0 0 0.012104777167388323 0.043506826499091884 0.007821539893259323 0 0.007821539893259323 0.01443150682948072 0 0 0 0.014484583332143159 0.040282428085186832 0.0047799902127381461 0 0.0047799902127381461 0.0083471989660292949 0 0 0 0.012157406762804031 0.039476627296241927 0.0074591504799387072 0 0.0074591504799387072 0.013532795535490494 0 0 0 0.013252355707933101 0.035812906774190099 0.0055527835448848512 0 0.0055527835448848512 0.0069304497953473869 0 0 0 0.010685839142384366 0.035245154041280459 0.004790880270165639 0 0.004790880270165639 0.0069105898984133073 0 0 0 0.010538935984923437 0.03786786520361185 0.0035261126378063942 0 0.0035261126378063942 0.0033824561253484693 0 0 0 0.010312580332240077 0.039043020909642512 0.0046171755500574755 0 0.0046171755500574755 0.0038878963300569801 0 0 0 0.010732729309924869 0.034865315291035454 0.0032264803245902222 0 0.0032264803245902222 0.0015740769966048349 0 0 0 0.0091098480719100719 0.038319088170806467 0.0028904360918872627 0 0.0028904360918872627 0.0019731856739815907 0 0 0 0.010073068461197014 0.036004907664962026 0.0014054244411019115 0 0.0014054244411019115 0.00025475421245300424 0 0 0 0.0090649154693537605 0.037569315458013182 0.00090185244383586376 0 0.00090185244383586376 0.0005514077673151685 0 0 0 0.0095301808063320836 0.03689217715933546 -0.0019095997080664149 0 -0.0019095997080664149 -0.0010433853835849077 0 0 0 0.0089621979439376467 0.038459283335839187 0.0025391456511618176 0 0.0025391456511618176 0.0024690519291129566 0 0 0 0.010232083816238031 0.040853124953098487 0.0026990166290854767 0 0.0026990166290854767 0.0013013023235171797 0 0 0 0.010538606819153914 -0.069740643879019348 -0.0041903431667242464 0 -0.0041903431667242464 -0.0025163565254622986 0 0 0 -0.018064250101120401 -0.04938461805336597 -0.011628306384347829 0 -0.011628306384347829 -0.0012417692859768709 0 0 0 -0.012656596834835717 -0.055423175259604683 -0.005426009609084576 0 -0.005426009609084576 -0.00019424740503497934 0 0 0 -0.013904355666159919 -0.048365672396337808 -0.0081780789216100991 0 -0.0081780789216100991 0.0039020858685057487 0 0 0 -0.01111589663195801 -0.04537032777503059 -0.0051577496544041885 0 -0.0051577496544041885 0.0031660333314806437 0 0 0 -0.010551073610887489 -0.0462140685777978 -0.0027884557501192792 0 -0.0027884557501192792 -0.0052801759389129385 0 0 0 -0.012873561129177686 -0.042344095288998705 -0.0037129792348911637 0 -0.0037129792348911637 -0.014086329904734862 0 0 0 -0.014107606298433393 -0.041991491839532144 -0.0057347264534033182 0 -0.0057347264534033182 -0.0061760074165824706 0 0 0 -0.012041874814028649 -0.040794967487251255 -0.01044293263318377 0 -0.01044293263318377 -0.0039057079336257995 0 0 0 -0.011175168855219264 -0.036047553878535026 -0.010715249289950796 0 -0.010715249289950796 -0.0023177945437893033 0 0 0 -0.0095913371055810874 -0.031148592531083298 -0.010847014758827649 0 -0.010847014758827649 -0.01038986359451978 0 0 0 -0.010384614031400769 -0.031140928442321008 -0.010851463339030084 0 -0.010851463339030084 -0.010365670880302226 0 0 0 -0.010376649830655808 -0.034661093734532945 -0.012916694961767009 0 -0.012916694961767009 -0.0040154375345988758 0 0 0 -0.0096691328172829553 -0.023385055293237839 -0.01317089843197617 0 -0.01317089843197617 -0.0011370403889360836 0 0 0 -0.0061305239205434788 -0.038987117432730097 -0.012055869548083509 0 -0.012055869548083509 0.00095414161811610554 0 0 0 -0.009508243953653496 -0.055587459007243212 -0.011845444004814642 0 -0.011845444004814642 -0.001545398464937682 0 0 0 -0.014283214368045211 -0.022166835881855376 -0.01584495372022714 0 -0.01584495372022714 -0.00021483281370245078 0 0 0 -0.0055954171738894568 -0.041158764321864133 -0.014312708017336032 0 -0.014312708017336032 -0.0032231575279642599 0 0 0 -0.011095480462457091 -0.019323623972040703 -0.013082185121748286 0 -0.013082185121748286 -0.0024789520485270075 0 0 0 -0.0054506440051419313 -0.015298674638991674 -0.01353738940507369 0 -0.01353738940507369 -0.0044607486932640647 0 0 0 -0.0049398558330639303 -0.019518803182593841 -0.016848099825175929 0 -0.016848099825175929 -0.003049193118249258 0 0 0 -0.0056419990752107733 -0.017647786886809909 -0.015660497970582523 0 -0.015660497970582523 -0.0017580514901854027 0 0 0 -0.0048514595942488262 -0.018909209715186635 -0.014914157507815908 0 -0.014914157507815908 -0.0051297697165842955 0 0 0 -0.0060097448579427334 -0.0078061069460743614 -0.012796099481805275 0 -0.012796099481805275 -0.0026100860492036968 0 0 0 -0.0026040482488195148 -0.0069927194896968314 -0.015334488516467307 0 -0.015334488516467307 -0.0040759210850366059 0 0 0 -0.0027671601436833598 -0.0031022321979398389 -0.011963373876694629 0 -0.011963373876694629 -0.0013465343808483927 0 0 0 -0.001112191644697059 -0.0036803376740696999 -0.016489732458579594 0 -0.016489732458579594 -0.0031140603618684676 0 0 0 -0.0016985995089845423 0.0043663143530663865 -0.01207613069448376 0 -0.01207613069448376 0.0014570611626790321 0 0 0 0.0014558438789363548 0.011338937237231471 -0.009847238569128617 0 -0.009847238569128617 -0.00026254344169042779 0 0 0 0.0027690984488852599 0.0050266554846921871 -0.01543638273489821 0 -0.01543638273489821 -0.0041766734617073933 0 0 0 0.00021249550574619844 0.00063923259516634849 -0.014765569554330834 0 -0.014765569554330834 -0.0042777471288450095 0 0 0 -0.00090962863341966828 0.0014160451267041466 -0.01170378171708992 0 -0.01170378171708992 -0.0034580589199257484 0 0 0 -0.00051050344830540391 0.011306547152726335 -0.014511200530765061 0 -0.014511200530765061 -0.0065622415911545662 0 0 0 0.0011860763903929449 0.017348472044430501 -0.011058370777348725 0 -0.011058370777348725 -0.0034804705843540385 0 0 0 0.0034670003650191213 0.0020289846150577003 -0.016607835050118983 0 -0.016607835050118983 -0.0055658298397694983 0 0 0 -0.00088421130617795385 0.017190615314345743 -0.013629577121953042 0 -0.013629577121953042 -0.0030417331868174829 0 0 0 0.0035372205318820651 0.0040487792362920282 -0.013085363966347375 0 -0.013085363966347375 0.0021555253058008613 0 0 0 0.0015510761355232243 -0.0023495752535536217 -0.018383229367940446 0 -0.018383229367940446 -0.0022149838974890972 0 0 0 -0.0011411397877606803 0.015409113425027593 -0.011934500302155787 0 -0.011934500302155787 -0.00015090952531573304 0 0 0 0.0038145509749279698 -0.002109940698888273 -0.016697751660722387 0 -0.016697751660722387 -0.0010029096744941339 0 0 0 -0.0007782125933456039 0.0016083685959337915 -0.019587705908388865 0 -0.019587705908388865 0.0019539604718469281 0 0 0 0.00089058226694518016 -0.021872913396959973 -0.016354546956986609 0 -0.016354546956986609 -0.0034615333538980386 0 0 0 -0.0063336116877145063 -0.020608139045795601 -0.018469045072507319 0 -0.018469045072507319 -0.0024153595050375384 0 0 0 -0.0057558746377082848 -0.022255120326847677 -0.015032566389493584 0 -0.015032566389493584 -0.00053173158981849322 0 0 0 -0.0056967129791665322 -0.001504261707968458 -0.014370088822847588 0 -0.014370088822847588 -0.0012414808375757272 0 0 0 -0.00068643563638604715 -0.013712452753030136 -0.016800968144704179 0 -0.016800968144704179 -0.004461458006329154 0 0 0 -0.0045434776898398196 -0.036613479522063674 -0.015578359848988126 0 -0.015578359848988126 -0.0023280475843344486 0 0 0 -0.0097353817765995256 -0.03488411130996194 -0.014642076781791066 0 -0.014642076781791066 0.0017749113075069406 0 0 0 -0.0082773000006137482 -0.04812752676321265 -0.012834374404921769 0 -0.012834374404921769 0.0011562726931068634 0 0 0 -0.01174281351752645 -0.036594972083585503 -0.019745662248705664 0 -0.019745662248705664 0.0012809567858161307 0 0 0 -0.0088285038244423405 -0.044631423206550405 -0.013853946424676866 0 -0.013853946424676866 -0.001893737090007154 0 0 0 -0.011631290074139381 -0.024159160267318201 -0.021672516498889346 0 -0.021672516498889346 0.0019572794015393497 0 0 0 -0.0055504702164447112 -0.045135518651986777 -0.01722242054967027 0 -0.01722242054967027 0.0035739481609916753 0 0 0 -0.010390392622748785 -0.071782477381696352 -0.011600468492642006 0 -0.011600468492642006 -0.0022432831413077212 0 0 0 -0.018506440130751013 -0.075350227562452646 -0.01290744660581827 0 -0.01290744660581827 0.00095167576146228811 0 0 0 -0.018599637950247591 -0.09624068798515259 -0.0078417922191820824 0 -0.0078417922191820824 0.001045788460367264 0 0 0 -0.023798724881196338 -0.068616533598594404 -0.0063489029622058359 0 -0.0063489029622058359 0.001296737088836734 0 0 0 -0.016829949127439424 -0.082781376105257792 -0.0074990129929468977 0 -0.0074990129929468977 7.2911707027522189e-05 0 0 0 -0.020677116099557562 -0.050423802699708892 -0.014753820089786669 0 -0.014753820089786669 0.00010078281780973204 0 0 0 -0.012580754970474783 -0.068346548608781879 -0.0053533591415985673 0 -0.0053533591415985673 -0.0029703284589160392 0 0 0 -0.017829219266924483 -0.05284399154717441 -0.010138497346328832 0 -0.010138497346328832 0.0029340803206877562 0 0 0 -0.012477477806621671 -0.092651146537610668 -0.0058805092022558292 0 -0.0058805092022558292 0.0086009371319465955 0 0 0 -0.021012552351416022 -0.13605920951364742 0.0011972600787643894 0 0.0011972600787643894 0.0051017216737421489 0 0 0 -0.032739371959976268 -0.087036870220855142 -0.013344075550117032 0 -0.013344075550117032 0.0095191074412440124 0 0 0 -0.0193794406949028 -0.080863389913852723 -0.00027080223725059471 0 -0.00027080223725059471 0.0082376847013426596 0 0 0 -0.018156426303127523 -0.12180786898242289 -0.0046712123347057571 0 -0.0046712123347057571 0.0054397126921401501 0 0 0 -0.029092039072570686 -0.10748637015971432 -0.006730127834623875 0 -0.006730127834623875 0.0022405648087554797 0 0 0 -0.026311451337739711 -0.072848011015618885 -0.0076464816410940425 0 -0.0076464816410940425 0.0031934616311010966 0 0 0 -0.017413637346129458 -0.081091769104801897 -0.0058899522239131107 0 -0.0058899522239131107 0.0041006026003675144 0 0 0 -0.019247791626108599 -0.077641603941074444 -0.015304171425511656 0 -0.015304171425511656 0.0069641429049297904 0 0 0 -0.017669365259036163 -0.044586841322811072 -0.015389849670975547 0 -0.015389849670975547 0.0074455602787128761 0 0 0 -0.0092853202610245454 -0.046500155059622475 -0.016244122692584479 0 -0.016244122692584479 0.0023549986779634463 0 0 0 -0.01103628909541475 -0.03018166361720891 -0.015018591954431906 0 -0.015018591954431906 -0.0018353123532791442 0 0 0 -0.0080042439926220118 -0.042464573890304523 -0.02038163283922817 0 -0.02038163283922817 0.01330467094916743 0 0 0 -0.0072899757352842681 -0.056963885612012488 -0.0085678035479620912 0 -0.0085678035479620912 0.0065573091717321952 0 0 0 -0.012601644110070091 -0.042988529871741912 -0.0034081118691775825 0 -0.0034081118691775825 0.01443875493417549 0 0 0 -0.0071374437343916138 -0.0038282494288620281 -0.014403113522331715 0 -0.014403113522331715 0.01809157293312641 0 0 0 0.0035658308760660937 0.002031745835868716 -0.010949461194318388 0 -0.010949461194318388 0.034295982579258172 0 0 0 0.0090819321037817133 0.016943122098976832 -0.019235271058832673 0 -0.019235271058832673 0.015624841176912707 0 0 0 0.0081419908189723778 -0.032256673774454535 -0.011676277448794684 0 -0.011676277448794684 0.016997739261299688 0 0 0 -0.0038147336282887065 -0.011183524819410552 -0.019085700270396994 0 -0.019085700270396994 0.0099191269229855841 0 0 0 -0.00031609947410624582 -0.033462041145238403 -0.021501765112721255 0 -0.021501765112721255 0.006703541224120986 0 0 0 -0.0066896249802793472 -0.014583540470827418 -0.023010020213450402 0 -0.023010020213450402 0.002097916775272525 0 0 0 -0.0031214059238887232 -0.010011884871284182 -0.015986706913434373 0 -0.015986706913434373 0.0059534998200493601 0 0 0 -0.0010145962628087079 0.0088962132268743561 -0.020495482707405289 0 -0.020495482707405289 0.0073251633655188747 0 0 0 0.0040553441480983068 -0.0094568340401464251 -0.014653293447618359 0 -0.014653293447618359 0.012486934800662222 0 0 0 0.00075752519012894232 0.010619499371433879 -0.013234653085755405 0 -0.013234653085755405 0.0088400525599430166 0 0 0 0.0048648879828442227 0.031634780735826637 -0.017459778330001417 0 -0.017459778330001417 0.01061694182112724 0 0 0 0.01056293063923848 0.020677149108397914 -0.017595912797726161 0 -0.017595912797726161 0.0037053177920075807 0 0 0 0.0060956167251013764 0.039763710630204098 -0.013535028592547699 0 -0.013535028592547699 0.0073931457531303188 0 0 0 0.011789214095833601 0.021477297441277715 -0.010795718609906128 0 -0.010795718609906128 0.004369420061672102 0 0 0 0.0064616793757374547 0.03359185273131042 -0.008290086974600765 0 -0.008290086974600765 0.015978039502593772 0 0 0 0.012392473058476051 0.054698867769901391 -0.014381074130173442 0 -0.014381074130173442 0.021696415650405448 0 0 0 0.019098820855076699 0.020111764408025576 -0.011587864842301274 0 -0.011587864842301274 0.023766326649704073 0 0 0 0.010969522764432409 0.047127142192128803 -0.016240859758631029 0 -0.016240859758631029 0.027634667963078813 0 0 0 0.018690452538801895 0.04714521623956177 -0.0057699766234654013 0 -0.0057699766234654013 0.037061672210532109 0 0 0 0.021051722112523479 0.075269258820492846 -0.00037369545501537288 0 -0.00037369545501537288 0.065138801260964496 0 0 0 0.035102015020364363 0.079463749380055876 -0.015002342879379932 0 -0.015002342879379932 0.051499984391606635 0 0 0 0.032740933442915642 0.03512592426795054 -0.006052462968615703 0 -0.006052462968615703 0.043985351569642284 0 0 0 0.019777818959398202 0.020961590595213679 -0.019616324311312106 0 -0.019616324311312106 0.045521084691016511 0 0 0 0.016620668821557549 0.060131793864846905 -0.020500873521205901 0 -0.020500873521205901 0.086685322767008854 0 0 0 0.036704279157963926 0.085289715176052827 -0.011372038053786948 0 -0.011372038053786948 0.14961481431647727 0 0 0 0.058726132373132539 0.089742557436062159 0.020708929091772355 0 0.020708929091772355 0.13226410935142599 0 0 0 0.05550166669687203 0.079318410552746077 0.017964714756326959 0 0.017964714756326959 0.15854234198073236 0 0 0 0.059465188133369595 0.063403189672097404 0.015993695442741984 0 0.015993695442741984 0.10725381567932524 0 0 0 0.042664251337855674 0.039565815212842609 -0.0055193591280791737 0 -0.0055193591280791737 0.082012166192466651 0 0 0 0.030394495351327322 0.054846104012253365 0.0053535019970040454 0 0.0053535019970040454 0.086214086112058663 0 0 0 0.035265047531078002 0.028037467305864351 0.028310037478297134 0 0.028310037478297134 0.092485871903607519 0 0 0 0.03013083480236798 0.0087256930468350702 0.016117981922230212 0 0.016117981922230212 0.057127804639496627 0 0 0 0.01646337442158291 -0.011830505467240807 0.022548668093656132 0 0.022548668093656132 0.064568601891474675 0 0 0 0.013184524106058457 -0.0022145467742869518 -0.0021047812920369302 0 -0.0021047812920369302 0.035443388683534249 0 0 0 0.0083072104773118383 -0.024677599123115894 0.0050059205363245929 0 0.0050059205363245929 0.033997871276415716 0 0 0 0.0023300680383249242 0.01078387646705567 0.00096848827809598026 0 0.00096848827809598026 0.075272140362372203 0 0 0 0.021514004207356968 -0.026365788113832889 -0.014478796046653433 0 -0.014478796046653433 0.035616361853283263 0 0 0 0.0023126434348625796 -0.057878125495551019 -0.012259208424749604 0 -0.012259208424749604 0.017575435530166383 0 0 0 -0.010075672491346138 -0.058525115961315127 0.0042889305164198754 0 0.0042889305164198754 0.018527631941615941 0 0 0 -0.0099993710049248175 -0.037283326925680899 -0.007051707988346867 0 -0.007051707988346867 0.030317285197120403 0 0 0 -0.0017415104321401309 -0.047969004819384035 0.016783965097534326 0 0.016783965097534326 0.032126270443227981 0 0 0 -0.0039606835940389981 -0.025502003578664528 0.012874797147337164 0 0.012874797147337164 0.025951602771478788 0 0 0 0.00011239979820351631 -0.061138399774419754 0.022868282338278756 0 0.022868282338278756 0.020273599860074112 0 0 0 -0.010216199978586409 -0.047816777628303608 0.015061532545150025 0 0.015061532545150025 0.038781403072331355 0 0 0 -0.0022588436389930355 -0.057035800254907454 0.0044969382506967262 0 0.0044969382506967262 0.01838404502003943 0 0 0 -0.0096629388087170476 -0.084179093899625773 0.011203697164500287 0 0.011203697164500287 0.018246141473513555 0 0 0 -0.01648323810652802 -0.077940784737152324 0.0042385284689278047 0 0.0042385284689278047 0.013365752403108888 0 0 0 -0.016143758083510817 -0.12606127454827626 0.00589146417913744 0 0.00589146417913744 0.01467061768972644 0 0 0 -0.027847664214637385 -0.092696023300004038 0.00014479954233648229 0 0.00014479954233648229 0.010394331668419687 0 0 0 -0.020575422907896102 -0.13934669674550265 -0.0017170398942579768 0 -0.0017170398942579768 0.010596561064050325 0 0 0 -0.03218753392036304 -0.098601235753563971 0.0043457650623278804 0 0.0043457650623278804 0.0072816518580807177 0 0 0 -0.022829895973870806 -0.07809655059800244 -0.0072052508415876571 0 -0.0072052508415876571 0.013522740597832303 0 0 0 -0.016143452500042534 -0.099262420319311151 -0.010280121107193702 0 -0.010280121107193702 0.0095471309637469304 0 0 0 -0.022428822338891041 0.053106346811190946 0.014721471901593355 0 0.014721471901593355 0.036834266399753665 0 0 0 0.022485153302736156 0.057119270423632455 0.016498967857233877 0 0.016498967857233877 0.047031029073843308 0 0 0 0.02603757487436895 0.062831941001581446 0.017331990674216341 0 0.017331990674216341 0.048875558297399729 0 0 0 0.027926874824745308 0.047999827900573985 0.012965909153221294 0 0.012965909153221294 0.052657455895354803 0 0 0 0.025164320948982206 0.037421580263906885 0.0077018662000947072 0 0.0077018662000947072 0.053260118004847173 0 0 0 0.022670424567188516 0.040965291657118 0.0094804149245955802 0 0.0094804149245955802 0.03611353928341042 0 0 0 0.019269707735132108 0.03064948797407268 0.0042923758665924057 0 0.0042923758665924057 0.036792537001717897 0 0 0 0.01686050624394763 0.045085885442143973 0.011914405656361829 0 0.011914405656361829 0.037576727958934547 0 0 0 0.020665653350269642 0.036761991618503374 0.0064604521979806416 0 0.0064604521979806416 0.023518475353425338 0 0 0 0.01507011674298217 0.036582876883590035 0.007699404630932943 0 0.007699404630932943 0.029892998751060867 0 0 0 0.016618968908662726 0.035986504737117911 0.0051769423891015274 0 0.0051769423891015274 0.01386288320775405 0 0 0 0.012462346986217997 0.041449213783538143 0.0095922898256586946 0 0.0095922898256586946 0.023836233905455553 0 0 0 0.016321361922248423 0.04321828386900458 0.0074350329886995001 0 0.0074350329886995001 0.014659130648955972 0 0 0 0.014469353629490141 0.044480321456209275 0.0091899766783953719 0 0.0091899766783953719 0.028704302785473548 0 0 0 0.018296156060420711 0.049439561906928532 0.012141804181520959 0 0.012141804181520959 0.024824159805337507 0 0 0 0.018565930428066497 0.051508045330322105 0.0071098501591315734 0 0.0071098501591315734 0.015838502163314547 0 0 0 0.016836636873409166 0.0456979959517919 0.0065987742616648885 0 0.0065987742616648885 0.014456005038968253 0 0 0 0.015038500247690051 0.043949510486057296 -0.0020035970719690494 0 -0.0020035970719690494 0.0068286537733139169 0 0 0 0.012694541064842798 0.057005329158992771 0.0019412598884616002 0 0.0019412598884616002 0.020067900584564827 0 0 0 0.019268307435889396 0.053787165616588604 0.0045578265990656522 0 0.0045578265990656522 0.014419786264897743 0 0 0 0.017051737970371579 0.056595759210064087 0.011731222584509426 0 0.011731222584509426 0.027443864695270631 0 0 0 0.021009905976333697 0.041600680193517696 -0.0039726879628945583 0 -0.0039726879628945583 0.0086655100531795488 0 0 0 0.012566547561674309 0.051304075772031721 -0.0074108968582754335 0 -0.0074108968582754335 0.013236931638075294 0 0 0 0.016135251852526771 0.058426297493517534 0.0013048948313570466 0 0.0013048948313570466 0.023730464493997787 0 0 0 0.020539190496878829 0.0684779590145487 -0.0040583223814847202 0 -0.0040583223814847202 0.03535490328056079 0 0 0 0.025958215573777369 0.083595092693955653 0.009044367946348289 0 0.009044367946348289 0.048763864231620505 0 0 0 0.033089739231394036 0.065776391359898323 0.011687410504714342 0 0.011687410504714342 0.030303642572227559 0 0 0 0.024020008483031464 0.074736074923144602 0.010216138386895229 0 0.010216138386895229 0.030024386351359247 0 0 0 0.026190115318625952 0.066998780100534519 0.012440589867588042 0 0.012440589867588042 0.043296239228820546 0 0 0 0.027573754832338773 0.086937278837428592 0.014920503521335941 0 0.014920503521335941 0.048589614887140344 0 0 0 0.033881723431142249 0.075854506704966407 0.024246097440715195 0 0.024246097440715195 0.077408904462370476 0 0 0 0.038315852791834207 0.11281741417978991 0.028673251840164012 0 0.028673251840164012 0.077572392249949051 0 0 0 0.047597451607434754 0.098236046540621735 0.025635361763928548 0 0.025635361763928548 0.11233509162002783 0 0 0 0.052642784540162357 0.076698173215756157 0.027149366728473498 0 0.027149366728473498 0.11163904624060307 0 0 0 0.047084304864089786 0.087062011310341081 0.021862730213099681 0 0.021862730213099681 0.081206029670266605 0 0 0 0.042067010245151942 0.11111059869609295 -0.0030885391346326813 0 -0.0030885391346326813 0.070820421001332984 0 0 0 0.045482754924356494 0.11873815900231577 0.011445663970451839 0 0.011445663970451839 0.10242416176707791 0 0 0 0.055290580192348421 0.12286836720597966 -0.016037261785862983 0 -0.016037261785862983 0.091376104791050461 0 0 0 0.053561117999257501 0.2125341876241266 -0.010143919568735518 0 -0.010143919568735518 0.14293100863241964 0 0 0 0.088866299064136539 0.14780686646639649 -0.0044791970550627502 0 -0.0044791970550627502 0.28069775075227138 0 0 0 0.10712615430466695 0.20128078060179544 0.0805919742726105 0 0.0805919742726105 0.20655563270500654 0 0 0 0.10195910332670048 0.10850842733279231 0.045457228871372768 0 0.045457228871372768 0.17752554891694805 0 0 0 0.071508494062435091 0.059404735406440541 0.016684172293382087 0 0.016684172293382087 0.10821112737913566 0 0 0 0.04190396569639402 0.10521138024112477 0.029340566034463195 0 0.029340566034463195 0.1157777547793033 0 0 0 0.05524728375510702 0.065284085150276672 -0.019196389225968665 0 -0.019196389225968665 0.19935953870547243 0 0 0 0.066160905963937255 0.050698250184345983 -0.020632659118749425 0 -0.020632659118749425 0.11557113848020403 0 0 0 0.041567347166137483 0.051049966404450843 -0.020998329751225391 0 -0.020998329751225391 0.12152766638693084 0 0 0 0.043144408197845437 0.061851802296136481 0.015908010695635161 0 0.015908010695635161 0.11507410214722101 0 0 0 0.044231476110839378 0.056531362580699927 0.015310822447907699 0 0.015310822447907699 0.071983696694669655 0 0 0 0.032128764818842394 0.052600122164285008 0.010469741418594362 0 0.010469741418594362 0.10322140492813288 0 0 0 0.038955381773104474 0.038052032001632909 0.0021393281515981214 0 0.0021393281515981214 0.069049575483645598 0 0 0 0.026775401871319639 0.045482992587240034 0.0103841457223217 0 0.0103841457223217 0.080192021149819548 0 0 0 0.031418753434264889 0.046453216805911857 0.012352107798096163 0 0.012352107798096163 0.051686063764395489 0 0 0 0.024534820142576845 0.058035783422382428 0.019505908915256338 0 0.019505908915256338 0.075976534167863319 0 0 0 0.033503079397561433 0.032741279390765411 0.0041610438108069638 0 0.0041610438108069638 0.049841461527698049 0 0 0 0.020645685229615879 0.033996511366973813 0.0026029672134951784 0 0.0026029672134951784 0.064622306236178817 0 0 0 0.024654704400788166 0.044445594823874404 -0.020028718940171095 0 -0.020028718940171095 0.075291042518758122 0 0 0 0.029934159335658142 0.031452330322824296 -0.0079533802596256503 0 -0.0079533802596256503 0.063103870687412411 0 0 0 0.023639050252559187 0.028895466705749554 -0.0064166650286875127 0 -0.0064166650286875127 0.058787637729158848 0 0 0 0.021920776108727103 0.040448162297383919 -0.00088467401174102504 0 -0.00088467401174102504 0.086673653162971334 0 0 0 0.031780453865088799 0.038945690026860269 -0.017497023221457235 0 -0.017497023221457235 0.055706086081411796 0 0 0 0.023662944027068034 0.036625860190032215 -0.01792180297914845 0 -0.01792180297914845 0.046250337203312814 0 0 0 0.020719049348336238 0.054984315822231546 -0.027265465328206479 0 -0.027265465328206479 0.051865600691093347 0 0 0 0.026712479128331225 0.04904268884255758 -0.025848384487994369 0 -0.025848384487994369 0.02956363916753485 0 0 0 0.019651582002523121 0.040319295006766953 -0.017578353688924506 0 -0.017578353688924506 0.02362635221367998 0 0 0 0.015986411805111733 0.055815822018539935 -0.022198931687088308 0 -0.022198931687088308 0.028237714728320009 0 0 0 0.021013384186714976 0.057176148218894815 -0.021875389550399426 0 -0.021875389550399426 0.032335247788083998 0 0 0 0.022377849001744707 0.048402967336445807 -0.016354978147579566 0 -0.016354978147579566 0.010942326525574642 0 0 0 0.014836323465505119 0.070196057659196565 -0.011288092248678726 0 -0.011288092248678726 0.022106673892969941 0 0 0 0.023075682888041654 0.064095612732351703 -0.015649389424928606 0 -0.015649389424928606 0.011104148016281179 0 0 0 0.018799940187158207 0.069111401247041224 -0.020624510803333662 0 -0.020624510803333662 0.017177525631997592 0 0 0 0.021572231719759707 0.086437859849092885 -0.038718472840146345 0 -0.038718472840146345 0.048760593424882592 0 0 0 0.033799613318493855 0.043751132101670129 -0.020718151407021601 0 -0.020718151407021601 0.075591550645190561 0 0 0 0.029835670686715169 0.060200428447860749 -0.031960006631935899 0 -0.031960006631935899 0.057514962473066977 0 0 0 0.029428847730231925 0.060400311159567746 -0.034903644400998517 0 -0.034903644400998517 0.066407239923355094 0 0 0 0.031701887770730727 0.065565189742447322 -0.043130448232970547 0 -0.043130448232970547 0.10259919936021349 0 0 0 0.042041097275665212 0.046413351592688251 -0.039329667896501538 0 -0.039329667896501538 0.13484106955310093 0 0 0 0.045313605286447282 0.076553558421514165 -0.036802131153169382 0 -0.036802131153169382 0.13153190739638082 0 0 0 0.052021366454473736 0.10159637902121073 -0.01198428294902374 0 -0.01198428294902374 0.34207970291220646 0 0 0 0.11091902048335429 0.080720038927686963 -0.014999436591323093 0 -0.014999436591323093 -0.0087064499812794516 0 0 0 0.018003397236601895 0.10933035443250902 -0.05967527224598896 0 -0.05967527224598896 0.08380320834390026 0 0 0 0.048283390694102306 0.18131480819259746 0.1138904364015291 0 0.1138904364015291 0.23590766910560412 0 0 0 0.1043056193245504 0.1073939266254306 -0.085534695452919973 0 -0.085534695452919973 0.15016470347708816 0 0 0 0.064389657525629723 0.0063585093934771164 0.0010128051970742322 0 0.0010128051970742322 0.01719277678180308 0 0 0 0.0058878215438200477 0.28027109855682125 0.10273196516471568 0 0.10273196516471568 0.071867000561380401 0 0 0 0.088034524779550483 0.15139472949691213 0.029201982672144244 0 0.029201982672144244 0.045084217370174207 0 0 0 0.0491197367167715 0.01437723015671815 0.002451722058861891 0 0.002451722058861891 0.043340630496193751 0 0 0 0.014429465163227973 0.019684764395894172 0.002170190921492704 0 0.002170190921492704 0.045824204513617017 0 0 0 0.016377242227377797 0.13315270565320864 0.023267505830069646 0 0.023267505830069646 0.041512507584453184 0 0 0 0.043666303309415469 0.020199927606436314 0.0033935980371597634 0 0.0033935980371597634 0.060352387687811176 0 0 0 0.020138078823561872 0.026518014074945667 0.0080723243258201682 0 0.0080723243258201682 0.052075820084566515 0 0 0 0.019648458539878094 0.1066558014228145 0.017970716019537814 0 0.017970716019537814 0.028485983608283583 0 0 0 0.033785446257774521 0.071734541289603868 -0.020472208833961059 0 -0.020472208833961059 0.0053556809021294283 0 0 0 0.019272555547933327 0.060456013056832 0.0043288370359917672 0 0.0043288370359917672 0.030459833537675896 0 0 0 0.022728961648627019 0.062796982830540082 -0.0082635562144418168 0 -0.0082635562144418168 0.031872491166763828 0 0 0 0.023667368499325964 0.067313990353502773 -0.002439298663978573 0 -0.002439298663978573 0.019663214609024537 0 0 0 0.021744301240631814 0.051634688250541197 0.0068796132685513267 0 0.0068796132685513267 0.029349441293496703 0 0 0 0.020246032386009485 0.056813219930376246 0.0044529062736855807 0 0.0044529062736855807 0.049752748726222151 0 0 0 0.026641492164149627 0.044310859037439185 0.0093229301906964657 0 0.0093229301906964657 0.060137906761256299 0 0 0 0.026112191449673847 0.06427051848064172 0.0020154822568401176 0 0.0020154822568401176 0.029482294515346452 0 0 0 0.023438203248997008 0.09719729826653345 0.016645449810910595 0 0.016645449810910595 0.035934689881403248 0 0 0 0.03328299703698423 0.10275393555588197 0.011074065425896062 0 0.011074065425896062 0.055757449982857699 0 0 0 0.039627846384684973 0.10901399614659379 0.010035764063808572 0 0.010035764063808572 0.05464587490205064 0 0 0 0.040914967762160748 0.024938150934929196 0.0040191357182915799 0 0.0040191357182915799 0.074693968988499254 0 0 0 0.024908029980857112 0.095515035253562086 0.0072929017196268209 0 0.0072929017196268209 0.059451144783337018 0 0 0 0.038741545009224776 0.098491991976056514 0.008387384211898774 0 0.008387384211898774 0.060433680281075208 0 0 0 0.039731418064283042 0.088089253493247921 0.012431789863282194 0 0.012431789863282194 0.058875119681143229 0 0 0 0.036741093293597982 0.093694982056752751 0.0055760956677507675 0 0.0055760956677507675 0.07145184788453518 0 0 0 0.041286707485322038 0.057479263947144643 0.0098665518271126972 0 0.0098665518271126972 0.076247817039026722 0 0 0 0.033431770246542925 0.02940373607543012 0.0044418298301319619 0 0.0044418298301319619 0.088055753925381619 0 0 0 0.029364872500202942 0.091196022995595705 0.0063036930041255879 0 0.0063036930041255879 0.072941437154266708 0 0 0 0.041034365037465603 0.056189208201261498 0.0087851216453403713 0 0.0087851216453403713 0.045781698044441876 0 0 0 0.025492726561425816 0.058282879578797464 0.0082274452623166683 0 0.0082274452623166683 0.02750038518166853 0 0 0 0.021445816190116457 0.062819270194444804 0.006632861228318937 0 0.006632861228318937 0.064187454937370103 0 0 0 0.03175168128295372 0.064609976476657213 0.0085530107853752924 0 0.0085530107853752924 0.04811283173134917 0 0 0 0.028180702052001613 0.064240037492400356 0.012079908918617877 0 0.012079908918617877 0.054358458076592897 0 0 0 0.029649623892248331 0.057825182968217342 0.0098414512129839649 0 0.0098414512129839649 0.024976947604865019 0 0 0 0.020700532643270653 0.058504047448363211 0.0087371389016228651 0 0.0087371389016228651 0.027291117361283312 0 0 0 0.02144879120241161 0.060653150887257951 0.0059998203293652186 0 0.0059998203293652186 0.02509386043572661 0 0 0 0.021436752830746111 0.057727672705310651 0.00024585251178571577 0 0.00024585251178571577 0.0080893570382832847 0 0 0 0.016454257435898484 0.057855948709297916 0.0030574522392288472 0 0.0030574522392288472 0.011844850428483822 0 0 0 0.017425199784445455 0.05118875801950281 0.0044163654876926417 0 0.0044163654876926417 0.0079506894171508836 0 0 0 0.014784861859163436 0.05422306604693089 0.0022104327046417738 0 0.0022104327046417738 0.011698319791358491 0 0 0 0.016480346459572331 0.052189892716181047 -0.0043211232764916244 0 -0.0043211232764916244 0.0064936829357384873 0 0 0 0.014670893912979904 0.056412930589480249 -0.00014794265014897445 0 -0.00014794265014897445 0.0102755101515009 0 0 0 0.016672110185245261 0.059666113790173503 -0.007541954194419883 0 -0.007541954194419883 0.0074671353063305856 0 0 0 0.01678331227412605 0.050597902214562937 -0.0077954939863579265 0 -0.0077954939863579265 0.0027201765224839081 0 0 0 0.013329519684261756 0.058805715837572964 -0.012016656481227187 0 -0.012016656481227187 0.010225354469656445 0 0 0 0.017257767576807387 0.050215410433503041 -0.012972449777313849 0 -0.012972449777313849 0.010756457326884808 0 0 0 0.015242966940096952 0.058866257223377426 -0.0071085443146305105 0 -0.0071085443146305105 0.0071447978746695673 0 0 0 0.016502763774511785 0.059511047571741575 6.1174620224729859e-05 0 6.1174620224729859e-05 0.01080958037384902 0 0 0 0.017580156986397637 0.064687041013594182 -0.0035833724444817583 0 -0.0035833724444817583 0.015008501600631829 0 0 0 0.019923885653556461 -0.049584107300182534 0.010118361511775809 0 0.010118361511775809 0.011331608139860672 0 0 0 -0.0095631247900804239 -0.056779820035843476 0.011336614891422125 0 0.011336614891422125 0.011708137026940957 0 0 0 -0.011267920752225602 -0.034867873296900886 0.029184333137695584 0 0.029184333137695584 0.021475528423842816 0 0 0 -0.0033480862182645454 -0.089329121642681364 0.01338845651406867 0 0.01338845651406867 0.011835517233589776 0 0 0 -0.019373401102272869 -0.10125213888152518 0.011416607154792424 0 0.011416607154792424 0.015568933629981352 0 0 0 -0.021420801312885984 -0.054407530789353453 0.01566810490662085 0 0.01566810490662085 0.012092740554285664 0 0 0 -0.010578697558766947 -0.054560577013779921 0.016053537787244332 0 0.016053537787244332 0.013909246410521492 0 0 0 -0.010162832650814635 -0.033480823516448044 0.034175098547777782 0 0.034175098547777782 0.02636830002997248 0 0 0 -0.0017781308716188771 -0.012696822428651749 0.035819095461845585 0 0.035819095461845585 0.02968214665425567 0 0 0 0.0042463310564009038 0.005280536427914595 0.04289101665465278 0 0.04289101665465278 0.045564946013668006 0 0 0 0.012711370610395623 -0.010481767573092271 0.03010427124295284 0 0.03010427124295284 0.01806171286558822 0 0 0 0.0018949863231240149 -0.00044679304494391059 0.041311495914871488 0 0.041311495914871488 0.026112164747937261 0 0 0 0.0064163429257481919 -0.023448632930266333 0.024959486952456644 0 0.024959486952456644 0.012176717919227809 0 0 0 -0.0028179787527595757 0.0071526265288773816 0.035583401314353336 0 0.035583401314353336 0.016108797894767601 0 0 0 0.005815356105911329 0.062127177211948825 0.047705173641142573 0 0.047705173641142573 0.033095043932671153 0 0 0 0.023805555286154911 0.035320387852218249 0.043825699894268266 0 0.043825699894268266 0.027582968661948648 0 0 0 0.015725839128541752 0.078079002121070468 0.062916236567226225 0 0.062916236567226225 0.059874122991892265 0 0 0 0.034488281278240634 0.035398847132937949 0.046923284158515099 0 0.046923284158515099 0.031092188768804929 0 0 0 0.016622758975435636 -0.0080379625575888181 0.031493397697183567 0 0.031493397697183567 0.03384768805883076 0 0 0 0.0064524313753105966 0.024245399606943885 0.051290674674071279 0 0.051290674674071279 0.069818885474762893 0 0 0 0.023516071270426653 0.032373508912622473 0.043459129754350651 0 0.043459129754350651 0.05637672223490231 0 0 0 0.022187557786881196 0.067852337923060224 0.06471191831405726 0 0.06471191831405726 0.11239106815945221 0 0 0 0.045060851520628054 0.085932210139226362 0.067361679475175754 0 0.067361679475175754 0.16883490342361052 0 0 0 0.063691778390709219 0.11553056393831262 0.081667827643351287 0 0.081667827643351287 0.077715263507081675 0 0 0 0.048311456861348627 0.12031890450667906 0.064776501067641323 0 0.064776501067641323 0.07388040867619669 0 0 0 0.048549828295718939 0.08560657766144053 0.045907822444798824 0 0.045907822444798824 0.036109651036671186 0 0 0 0.030429057174527818 0.10006045595013463 0.046157721188582523 0 0.046157721188582523 0.040606770101666967 0 0 0 0.035166806512950399 0.11573496650608339 0.022442116503788356 0 0.022442116503788356 0.033007010066544051 0 0 0 0.037185494143156972 0.074634329873670802 0.034314592039635938 0 0.034314592039635938 0.024116132814444136 0 0 0 0.024687615672028707 0.070218775524847565 0.032123701435618601 0 0.032123701435618601 0.022930923539740355 0 0 0 0.02328742476614698 0.092452878252538007 0.022015123979832185 0 0.022015123979832185 0.034572153026981134 0 0 0 0.031756257819879785 0.085800240406973871 0.016780732928699971 0 0.016780732928699971 0.034081830749380204 0 0 0 0.029970517789088658 0.085148961495913555 0.012449155366975662 0 0.012449155366975662 0.042994823837493978 0 0 0 0.032035946333351828 0.076773390335370117 0.013797328215457316 0 0.013797328215457316 0.040203791040719042 0 0 0 0.02924429534402229 0.067844930615389154 0.020827931820379231 0 0.020827931820379231 0.026994861257245928 0 0 0 0.023709947968158673 0.067406685688783607 0.025629608261616824 0 0.025629608261616824 0.022668691860061152 0 0 0 0.022518844387211301 0.043799588332463016 0.021430035294556449 0 0.021430035294556449 0.019623275893803777 0 0 0 0.015855716056566674 0.04502927209514547 0.019656229099666467 0 0.019656229099666467 0.020322718595380374 0 0 0 0.016337997672631513 0.042038310249852051 0.023107872667073259 0 0.023107872667073259 0.017066890252188216 0 0 0 0.0147763001255099 0.018395540575660951 0.027831791088601565 0 0.027831791088601565 0.012685602946056251 0 0 0 0.0077702858804292729 0.046757120341008318 0.032949371600644206 0 0.032949371600644206 0.020272978501435723 0 0 0 0.016757524710611094 0.055277181631599226 0.026801960967731464 0 0.026801960967731464 0.018397299711367554 0 0 0 0.018418620335741598 0.029335949589658239 0.033426331686640276 0 0.033426331686640276 0.015212937212581101 0 0 0 0.011137221700559863 0.021677553020449755 0.039662997451461623 0 0.039662997451461623 0.019482190918575948 0 0 0 0.010289935984756401 0.0011475474246228634 0.026151474595028534 0 0.026151474595028534 0.010229555785360667 0 0 0 0.0028442758024959103 -0.0053165761655894414 0.03045951559691451 0 0.03045951559691451 0.017665320963259817 0 0 0 0.00308718619941762 -0.0015906226940249901 0.018588706442609321 0 0.018588706442609321 0.012156719182353726 0 0 0 0.0026415241220822949 -0.001458431159158835 0.027208842766625718 0 0.027208842766625718 0.010084468685578774 0 0 0 0.0021565093816051095 0.020309625406940146 0.024852439080690181 0 0.024852439080690181 0.013064471646411668 0 0 0 0.0083435242633378426 0.020619443275653265 0.021303139465669085 0 0.021303139465669085 0.0096458158685799877 0 0 0 0.0075663147860585422 0.0083135205425531686 0.015988946024120043 0 0.015988946024120043 0.010840211962164389 0 0 0 0.0047884331261795832 0.00083886823075718375 0.016732568915952983 0 0.016732568915952983 0.0083486611915661868 0 0 0 0.0022968823555807871 -0.0077518724787468685 0.019376321853713518 0 0.019376321853713518 0.011011767377292259 0 0 0 0.00081497372463634754 -0.018575158825558269 0.0061885347823251724 0 0.0061885347823251724 0.0085420509503670861 0 0 0 -0.0025082769687978512 -0.0026935958729236154 0.0056852778819380667 0 0.0056852778819380667 0.010745366638360565 0 0 0 0.0020129426913593207 -0.013984205467380439 0.0080697949889123599 0 0.0080697949889123599 0.011692826822998104 0 0 0 -0.00057284466109552845 -0.03764391697115449 0.0083743485247306237 0 0.0083743485247306237 0.0087932790816043216 0 0 0 -0.0072126594723876392 -0.027987657500927243 0.021671622952349034 0 0.021671622952349034 0.0095326367749049012 0 0 0 -0.0046137551815053079 -0.024067006402559876 0.010791006754935994 0 0.010791006754935994 0.011071873880190264 0 0 0 -0.0032487831305925141 0.0091304992293933032 0.0035420431709252131 0 0.0035420431709252131 0.01056455764393946 0 0 0 0.0049237642183333555 0.0028216426600602418 0.0019182724991797517 0 0.0019182724991797517 0.0083504144244943568 0 0 0 0.0027930142711387607 0.012166677605517373 0.005983560136627375 0 0.005983560136627375 0.010525643364841741 0 0 0 0.0056730802425895011 -0.0029223399375268855 0.003089662714165442 0 0.003089662714165442 0.0088425489687069536 0 0 0 0.001480052257794906 0.001166386966017563 0.0027870858852547808 0 0.0027870858852547808 0.0092333725412869772 0 0 0 0.0025999398768258297 -0.0099282868087862131 0.0043153164720449774 0 0.0043153164720449774 0.0081213482340656284 0 0 0 -0.00045173464368031269 -0.0061586512168025909 0.010316455482465237 0 0.010316455482465237 0.0077054528659150634 0 0 0 0.00038670041227817364 3.0376564612799584e-05 0.006530297892857001 0 0.006530297892857001 0.0085472723681663254 0 0 0 0.0021444122331948368 0.0086786621897088079 0.012552655914565697 0 0.012552655914565697 0.0091517898923880736 0 0 0 0.0044576130205240538 0.010303814533013211 0.0093024171141806722 0 0.0093024171141806722 0.01207452111202123 0 0 0 0.005594583911258777 0.018490958493681653 0.012843082009581286 0 0.012843082009581286 0.011701293817118152 0 0 0 0.0075480630777002844 0.024463517693267711 0.0086823889198721638 0 0.0086823889198721638 0.014482281906591954 0 0 0 0.0097364498999650273 0.022922157381422892 0.0051192855187454089 0 0.0051192855187454089 0.015471887354017611 0 0 0 0.0095985111838603476 0.011427512095335657 0.0083607143067105927 0 0.0083607143067105927 0.01157779608591003 0 0 0 0.0057513270453112275 0.020499686409471807 0.0066347792389007676 0 0.0066347792389007676 0.015022191689519626 0 0 0 0.0088804695247475807 0.040394505547491244 0.0048696995044041902 0 0.0048696995044041902 0.024768312963850292 0 0 0 0.016290704627835551 0.04334898201200843 0.006677357519425664 0 0.006677357519425664 0.032977611819070773 0 0 0 0.019081648457769718 0.055104434809862157 0.0059420276565655961 0 0.0059420276565655961 0.033198353042999784 0 0 0 0.022075696963215874 0.024521325474780475 0.0098438238403185663 0 0.0098438238403185663 0.017633737623101275 0 0 0 0.010538765774470438 0.024215850828455565 0.015046939761072034 0 0.015046939761072034 0.013268071701910245 0 0 0 0.0093709806325914524 0.039319325058812304 0.0097527073503801409 0 0.0097527073503801409 0.020219849966726322 0 0 0 0.014884793756384851 0.039875385460946156 0.013377819683603409 0 0.013377819683603409 0.018477449736264084 0 0 0 0.01458820879930256 0.052459652937639989 0.014279959367740735 0 0.014279959367740735 0.026234767957812544 0 0 0 0.019673605223863078 0.040950598581197983 0.010575635200750666 0 0.010575635200750666 0.026037538071940425 0 0 0 0.016747034163284713 0.065355200629010124 0.0070483535932733821 0 0.0070483535932733821 0.042236794379153508 0 0 0 0.026897998752041019 0.065946950084149858 0.012741324667736316 0 0.012741324667736316 0.041840844667237143 0 0 0 0.026946948687846639 0.061689522375842465 0.013557250184084602 0 0.013557250184084602 0.029217441622130469 0 0 0 0.022726740999493122 0.072512128932476494 0.010473466829979738 0 0.010473466829979738 0.045348032563182095 0 0 0 0.029465040373914619 0.081560826630900252 0.0055364338234101806 0 0.0055364338234101806 0.064811512349955969 0 0 0 0.036593084745214055 0.073616854738709714 0.0024833579018966878 0 0.0024833579018966878 0.056428283166900073 0 0 0 0.032511284476402613 0.081198516941385579 0.0080735072760836912 0 0.0080735072760836912 0.069277413152525114 0 0 0 0.037618982523477618 0.059225914148622931 0.010189472714674297 0 0.010189472714674297 0.040495398856639803 0 0 0 0.024930328251315852 0.068048593071763502 0.0065316857539532425 0 0.0065316857539532425 0.05644680298818372 0 0 0 0.031123849014987132 0.084813082507865234 -0.0025722088577402324 0 -0.0025722088577402324 0.076331990941282513 0 0 0 0.040286268362286881 0.072742093050148116 -0.0035499159030929484 0 -0.0035499159030929484 0.074628556483605557 0 0 0 0.036842662383438363 0.093124374297532508 0.0027340372599813367 0 0.0027340372599813367 0.078229930393288072 0 0 0 0.042838576172705478 0.086378855010431632 0.0007694426006750188 0 0.0007694426006750188 0.07626232814803835 0 0 0 0.040660295789618051 0.097028091608300393 -0.005638739335789511 0 -0.005638739335789511 0.10090356547828527 0 0 0 0.04948291427164575 0.11114964182586548 0.0035200944095912234 0 0.0035200944095912234 0.10397724749219017 0 0 0 0.053781722329513809 0.085746494022551634 -0.0073395482592468753 0 -0.0073395482592468753 0.086351296310351877 0 0 0 0.043024447583225767 0.069654848040738182 -0.00069836839258718975 0 -0.00069836839258718975 0.076188248690471028 0 0 0 0.036460774182802469 0.036947244507357313 0.0022853969558222073 0 0.0022853969558222073 0.026952560197084807 0 0 0 0.015974951176110697 0.043288570331797338 0.00063846990607374643 0 0.00063846990607374643 0.045976537670441076 0 0 0 0.022316277000559603 0.059699907512075656 -0.0040473407333204148 0 -0.0040473407333204148 0.048132593522008271 0 0 0 0.026958125258521148 0.038890439491727768 0.0023755260643059245 0 0.0023755260643059245 0.025673979163568283 0 0 0 0.016141104663824013 0.063553591483267668 -0.0013398439347149238 0 -0.0013398439347149238 0.048045593612895843 0 0 0 0.0278997962740406 0.04469258512223695 0.0019041132052035614 0 0.0019041132052035614 0.043017549175063952 0 0 0 0.021927533574325087 0.060517721456679663 0.00020402256999169088 0 0.00020402256999169088 0.043393261962063612 0 0 0 0.02597774585468593 0.025954940611439881 0.003032909466523126 0 0.003032909466523126 0.022609629466610937 0 0 0 0.012141142519512926 0.011557631496712295 0.0016877452067722842 0 0.0016877452067722842 0.012734067017455608 0 0 0 0.0060729246285420313 0.020492750506451163 0.0013780528450794138 0 0.0013780528450794138 0.015746552822114346 0 0 0 0.0090598258321417102 0.01269483063507626 0.0038387418014367292 0 0.0038387418014367292 0.01370171686806998 0 0 0 0.0065991368757865043 0.02342868589589564 0.0016543186628683593 0 0.0016543186628683593 0.024868489655541559 0 0 0 0.012074293887859522 0.025457803292183057 -0.0018136486741511249 0 -0.0018136486741511249 0.022115823737538953 0 0 0 0.011893406757430558 0.01679137922054319 -0.00024250499992595209 0 -0.00024250499992595209 0.010737514521066416 0 0 0 0.006882223435402457 0.022107805782396461 0.0021049492496306721 0 0.0021049492496306721 0.014741119619170462 0 0 0 0.0092122313503923969 0.015720990509930477 0.0025363644458655799 0 0.0025363644458655799 0.014984161366867532 0 0 0 0.0076762879692000574 0.012572078391243302 0.00074613352744745676 0 0.00074613352744745676 0.01070274445962216 0 0 0 0.0058187057127163655 0.011015628533966676 0.0013794206001027653 0 0.0013794206001027653 0.010299033532737867 0 0 0 0.0053286655166760177 0.0099313669759055756 0.00075022556325188283 0 0.00075022556325188283 0.0080524285267120632 0 0 0 0.0044959488756544097 0.0071125139744159238 0.0011627836255150292 0 0.0011627836255150292 0.0082610424751345946 0 0 0 0.003843389112387241 0.0096394748727925972 0.0019594490577830026 0 0.0019594490577830026 0.0096065504545217451 0 0 0 0.0048115063318290296 0.0054136491219898275 0.0020578491374916297 0 0.0020578491374916297 0.0099974345469560078 0 0 0 0.0038527709172366809 0.0097714551319049991 0.00074036130450783055 0 0.00074036130450783055 0.0099990957048251561 0 0 0 0.0049426377091825457 0.0018863217942146626 0.0011351030568862441 0 0.0011351030568862441 0.0088774037260943572 0 0 0 0.0026909313800771439 0.055109778530913478 0.012620707304968642 0 0.012620707304968642 0.028805917012132309 0 0 0 0.020978923885761447 0.068791839698805979 0.012954073830455923 0 0.012954073830455923 0.053212953122861562 0 0 0 0.030501198205416913 0.067042653595853041 0.016267435778036243 0 0.016267435778036243 0.047895336246555009 0 0 0 0.028734497460602026 0.0629645437555994 0.017016116051339444 0 0.017016116051339444 0.044486815344847885 0 0 0 0.026862839775111835 0.053202747466119513 0.013841440397044436 0 0.013841440397044436 0.027720360493089003 0 0 0 0.020230776989802121 0.045451212995184398 0.0096573250032271213 0 0.0096573250032271213 0.018695142627521921 0 0 0 0.016036588905676497 0.046522419306146867 0.0070919702023472253 0 0.0070919702023472253 0.018706229191369772 0 0 0 0.016307162124379104 0.051183353144893459 0.0094235026927273202 0 0.0094235026927273202 0.020128511364128243 0 0 0 0.017827966127255443 0.046231252495252284 0.0064587549485709828 0 0.0064587549485709828 0.011927976029795784 0 0 0 0.014539807131261961 0.047290295284170517 0.0028182754875401284 0 0.0028182754875401284 0.0107752884045757 0 0 0 0.014516395922186467 0.057344538933122913 0.0084020673089435227 0 0.0084020673089435227 0.022493027867443116 0 0 0 0.019959391700141493 0.0563978593828528 0.011791656614498547 0 0.011791656614498547 0.021921013436167813 0 0 0 0.019579718204755125 0.052989390681096121 0.010986404695408875 0 0.010986404695408875 0.027070882066296653 0 0 0 0.020015068186848117 0.06297619930344478 0.012410534082498341 0 0.012410534082498341 0.041626221069792635 0 0 0 0.026150605093309243 0.06172507216731446 0.013949196075093651 0 0.013949196075093651 0.038161856511612691 0 0 0 0.024971732169731808 0.068454611444465158 0.010182088063454192 0 0.010182088063454192 0.057758868023615406 0 0 0 0.03155336986702012 0.07123174861366649 0.0063900993574482756 0 0.0063900993574482756 0.079740720599660864 0 0 0 0.037743117303331852 0.083684788307017116 0.0067302039531717817 0 0.0067302039531717817 0.092603316482380738 0 0 0 0.044072026197349484 0.073966472691391338 0.014796112847909354 0 0.014796112847909354 0.066390536379242249 0 0 0 0.035089252267658411 0.089757481725641464 0.0095209805573301942 0 0.0095209805573301942 0.071150966248963443 0 0 0 0.040227111993651143 0.097645979390910354 0.0032231739649214472 0 0.0032231739649214472 0.090224137290473294 0 0 0 0.046967529170345967 0.07531550951449667 0.0099063426313751868 0 0.0099063426313751868 0.087119313675371568 0 0 0 0.040608705797467115 0.033687897618004725 0.0047209486454584107 0 0.0047209486454584107 0.10088955726243473 0 0 0 0.033644363720109864 0.085440739753406603 0.005006447355244692 0 0.005006447355244692 0.066137525393723084 0 0 0 0.037894566286782339 0.094018814567511932 0.0062333531113272223 0 0.0062333531113272223 0.093350978939997997 0 0 0 0.046842448376877566 0.093276571238751105 0.00070765975555442395 0 0.00070765975555442395 0.094569207950273793 0 0 0 0.046961444797256613 0.037936712916566112 0.0048726753262578679 0 0.0048726753262578679 0.11364138736908436 0 0 0 0.037894525071412617 0.093584629176732714 0.010778084323470133 0 0.010778084323470133 0.099753904548083416 0 0 0 0.048334633431204033 0.10428942230642058 0.0037758294687626481 0 0.0037758294687626481 0.097807783614416 0 0 0 0.050524301480209033 0.042336093049566571 0.0049177317364585572 0 0.0049177317364585572 0.1266795942631844 0 0 0 0.04225392182818774 0.097747754414051813 0.0069655255688341189 0 0.0069655255688341189 0.094665226106540712 0 0 0 0.048103245130148076 0.075707485845580791 0.012191045935717092 0 0.012191045935717092 0.071466543594259746 0 0 0 0.03679350735996012 0.093701317965872277 0.0091231520571865843 0 0.0091231520571865843 0.10421891318950893 0 0 0 0.049480057788845316 0.078406478726190443 0.018500266564376283 0 0.018500266564376283 0.070121808827596777 0 0 0 0.037132071888446749 0.087767027908954715 0.013462724626744388 0 0.013462724626744388 0.075308591681010006 0 0 0 0.040768904897491159 0.09590303229990299 0.018151948276454069 0 0.018151948276454069 0.089220597936406021 0 0 0 0.046280907559077211 0.084595697332158035 0.011803575617501505 0 0.011803575617501505 0.074340711166565224 0 0 0 0.039734102124680801 0.11258543004939384 0.012087929470746495 0 0.012087929470746495 0.10854222560563848 0 0 0 0.055281913913758057 0.11132868790514316 0.0066311885388345287 0 0.0066311885388345287 0.11704466011029691 0 0 0 0.057093337003860045 0.10683387793462104 0.0069690983044934374 0 0.0069690983044934374 0.095242342054193921 0 0 0 0.050519054997203799 0.11185809261065938 -0.0013554385409302316 0 -0.0013554385409302316 0.11487893208998212 0 0 0 0.056684256175160375 0.046728722511133892 0.0048503808362681082 0 0.0048503808362681082 0.14031599124426636 0 0 0 0.046761178438850061 0.13513010280378354 0.010204562889177565 0 0.010204562889177565 0.12206869682899874 0 0 0 0.06429969990819559 0.12486188895128794 0.0041233226130621414 0 0.0041233226130621414 0.11921621941830259 0 0 0 0.061019527092397358 0.10666480987090043 -0.0022135250190143396 0 -0.0022135250190143396 0.1149406474669501 0 0 0 0.055401364334463077 0.12271826911877154 0.006872490872116277 0 0.006872490872116277 0.12273501140472076 0 0 0 0.061363320130873145 0.052454619399200625 0.0048033480973992768 0 0.0048033480973992768 0.15555987461962231 0 0 0 0.052003623504705741 0.14421321894700778 -0.00045109471197113393 0 -0.00045109471197113393 0.13528193089998553 0 0 0 0.069873787461748105 0.12417882082013243 -0.0040672870623983393 0 -0.0040672870623983393 0.13472590623087743 0 0 0 0.064726181762752466 0.088012048964572154 0.017037960020862497 0 0.017037960020862497 0.076569460555582114 0 0 0 0.041145377380038595 0.11906269508509279 0.011938496702215362 0 0.011938496702215362 0.12728044396638194 0 0 0 0.061585784762868773 0.14425021715672606 0.0025865413020904841 0 0.0025865413020904841 0.13022798578753625 0 0 0 0.068619550736065599 0.12031670581521586 0.0099504737567697177 0 0.0099504737567697177 0.12476775901520487 0 0 0 0.061271116207605225 0.10312156049084376 0.0020526095877232767 0 0.0020526095877232767 0.080997788518237579 0 0 0 0.046029837252270361 0.056230425592554964 0.009598494351798631 0 0.009598494351798631 0.037753441618142203 0 0 0 0.023495966802674337 0.081014695526012481 0.010410408242590818 0 0.010410408242590818 0.067173910370503132 0 0 0 0.037047151474128903 0.067117079413547109 0.0070245585291776949 0 0.0070245585291776949 0.025552962227466502 0 0 0 0.023167510410253389 0.073001919014182987 0.009063367737871364 0 0.009063367737871364 0.060627020426729406 0 0 0 0.033407234860228091 0.063522840701987493 0.012334494797917026 0 0.012334494797917026 0.034073708769628785 0 0 0 0.024399137367904056 0.057076894060172273 0.015266663408419021 0 0.015266663408419021 0.033762175571822928 0 0 0 0.022709767407998793 0.062253741036580053 0.012469098519846455 0 0.012469098519846455 0.044843421667327368 0 0 0 0.026774290675976871 0.073749447885160802 0.018813151572197012 0 0.018813151572197012 0.057171349243519076 0 0 0 0.032730199282169969 0.047542207896011435 0.011083919591102886 0 0.011083919591102886 0.021364818846026035 0 0 0 0.017226756685509437 0.048390920474066824 0.011112131926608759 0 0.011112131926608759 0.026187240316322816 0 0 0 0.018644540197597401 0.048708531524459753 0.012273482936853375 0 0.012273482936853375 0.024858145868688286 0 0 0 0.018391669348287065 0.052514283486838204 0.0096797066162725431 0 0.0096797066162725431 0.032960513908451824 0 0 0 0.021368699348822493 0.042081201505744736 0.0073556712439165617 0 0.0073556712439165617 0.017659340458549 0 0 0 0.014935135491073448 0.046296987024598377 0.0038517785955515804 0 0.0038517785955515804 0.013296985195871025 0 0 0 0.014898493055117326 0.044696264024541688 0.0061951813715996895 0 0.0061951813715996895 -0.0032849606871487858 0 0 0 0.010352825834348267 0.041663565640688793 0.0023371851284748058 0 0.0023371851284748058 0.0058660187486936355 0 0 0 0.011882396097345649 0.042578968533359685 4.4981585407000146e-05 0 4.4981585407000146e-05 -0.01335955776075104 0 0 0 0.0073048526931522306 0.046427089813482147 0.0047854730043593585 0 0.0047854730043593585 0.0067346710674409671 0 0 0 0.013290440220230737 0.039918375186786564 0.0020282648568057948 0 0.0020282648568057948 0.012733039111706701 0 0 0 0.013162853574623296 0.043010456312988922 0.0063174089095825448 0 0.0063174089095825448 0.0080471446100925381 0 0 0 0.012764400230770391 0.076931156503236842 -0.008308031357023014 0 -0.008308031357023014 0.033888717932629375 0 0 0 0.027704968608966596 0.066997442586953448 -0.00050291180175715544 0 -0.00050291180175715544 0.0039889307610902289 0 0 0 0.017746593337010889 0.05196042540434731 -0.0029623227136165269 0 -0.0029623227136165269 0.017828162511566492 0 0 0 0.017447146978978423 0.066117370827906363 -8.9257274383164331e-05 0 -8.9257274383164331e-05 0.042654354614932277 0 0 0 0.02719293136070966 0.05981509950294267 -0.00094434424537498396 0 -0.00094434424537498396 0.021515675227757602 0 0 0 0.02033269368267504 0.052652387286838076 0.0009179688553730414 0 0.0009179688553730414 0.024473576362312954 0 0 0 0.019281490912287758 0.055279677170460284 0.00043975631930739945 0 0.00043975631930739945 0.034790433531500464 0 0 0 0.022517527675490201 0.068455640531820738 -0.005322618228123327 0 -0.005322618228123327 0.039561474616735093 0 0 0 0.027004278787138958 0.048507743439300574 0.0048674588553411779 0 0.0048674588553411779 0.017495706342702533 0 0 0 0.016500862445500794 0.047411702589874594 0.0018722076709416502 0 0.0018722076709416502 0.024739876888073553 0 0 0 0.018037894869487037 0.040527236510841225 0.0061765251191188697 0 0.0061765251191188697 0.017805649959861669 0 0 0 0.014583221617675723 0.046299723597739151 0.006632861453850003 0 0.006632861453850003 0.019651035009699835 0 0 0 0.016487689651859705 0.044483996267287523 0.005796475598537798 0 0.005796475598537798 0.014752334268997469 0 0 0 0.014809082634071269 0.04732247314774185 0.0040892466790868609 0 0.0040892466790868609 0.019856606371141172 0 0 0 0.016794769879720783 0.045023440609302856 0.0027440099418798436 0 0.0027440099418798436 0.018209157923321784 0 0 0 0.015808149633156243 0.043098480493247049 0.0049621311961721426 0 0.0049621311961721426 0.018606345492918397 0 0 0 0.015426206496541361 0.049453396074846057 0.0002816630562474387 0 0.0002816630562474387 0.022728442393908532 0 0 0 0.018045459617188619 0.046847181156245365 0.001250207523166097 0 0.001250207523166097 0.023900298345157278 0 0 0 0.017686869875350675 0.056604242047934406 -0.0037334389872041851 0 -0.0037334389872041851 0.033961136935121997 0 0 0 0.022641344745764073 0.060181817382464531 -0.0024339661515817707 0 -0.0024339661515817707 0.043639893108075034 0 0 0 0.025955427622634974 0.050107562906165803 0.00015226485801964063 0 0.00015226485801964063 0.025421778865456268 0 0 0 0.018882335442905518 0.045898855277501066 -0.00086890356914956501 0 -0.00086890356914956501 0.017737777767820595 0 0 0 0.015909158261330408 0.050314345315590751 -0.0036017214763119365 0 -0.0036017214763119365 0.027278364945597128 0 0 0 0.019398177565296985 0.052826939025335806 -0.0034976894961778263 0 -0.0034976894961778263 0.035214936880235248 0 0 0 0.022010468976392777 0.047902297737359961 -0.0036258942888976187 0 -0.0036258942888976187 0.019266294233656875 0 0 0 0.016792147992754195 0.043919560249493506 -0.0022211317063583688 0 -0.0022211317063583688 0.0083922090688010043 0 0 0 0.0130779423295736 0.049246248204420986 0.00026955261923231055 0 0.00026955261923231055 0.01267282747648112 0 0 0 0.015479768920225527 0.044764821806815902 0.0026505078762377177 0 0.0026505078762377177 0.011367660959620718 0 0 0 0.014033120691609169 0.04876601239736731 0.0048491825700930913 0 0.0048491825700930913 0.016206585272606822 0 0 0 0.016243149417493531 0.048239427872263055 0.00068060722921597927 0 0.00068060722921597927 0.018393409488938889 0 0 0 0.016658209340300448 0.068185071746776127 -0.011043636270043788 0 -0.011043636270043788 0.0632611033414332 0 0 0 0.032861543772052304 0.02253331480618153 -0.0067156277712711243 0 -0.0067156277712711243 0.067440721828522052 0 0 0 0.022493509158675894 0.076433845529887856 -0.0089917237415255702 0 -0.0089917237415255702 0.056737869612923486 0 0 0 0.033292928785702836 0.067582192728843374 -0.0088333187840354266 0 -0.0088333187840354266 0.057038013866075293 0 0 0 0.031155051648729684 0.057197339648564022 -0.0062769367322749597 0 -0.0062769367322749597 0.052926800155614684 0 0 0 0.027531034951044697 0.051837007260839361 -0.0085606787678179641 0 -0.0085606787678179641 0.03294718182060527 0 0 0 0.021196047270361139 0.053381147985066019 -0.0075783126605871998 0 -0.0075783126605871998 0.036569266141804224 0 0 0 0.022487603531717554 0.059496323089492889 -0.0050745182930285182 0 -0.0050745182930285182 0.037708176046578057 0 0 0 0.024301124784017775 0.071090375733107641 -0.0038018687883694113 0 -0.0038018687883694113 0.063089374892571215 0 0 0 0.033544937656419721 0.065729949094968487 -0.0072337992986393346 0 -0.0072337992986393346 0.05570555500963037 0 0 0 0.030358876026149728 0.077006488002589038 -0.0043600105252231125 0 -0.0043600105252231125 0.056167013602995919 0 0 0 0.033293375401396333 0.069996560322246937 -0.0080107833988997679 0 -0.0080107833988997679 0.05213310720330544 0 0 0 0.03053241688138808 0.084525214004369686 -0.0063401137201263696 0 -0.0063401137201263696 0.077967685814932297 0 0 0 0.040623224954825565 0.10330693288881948 -0.0083017197750925864 0 -0.0083017197750925864 0.080981283995326558 0 0 0 0.046072054221036551 0.074540645056814236 -0.0073552778283050291 0 -0.0073552778283050291 0.067340099248938579 0 0 0 0.035470186076438259 0.077880573424023769 -0.014298821481760537 0 -0.014298821481760537 0.06795887930185085 0 0 0 0.036459863181468544 0.031544399427718084 -0.0067323809499322653 0 -0.0067323809499322653 0.094384438514715452 0 0 0 0.031482209485608391 0.084739218713005382 -0.0087387518526875207 0 -0.0087387518526875207 0.070970414697773765 0 0 0 0.038927408352694759 0.083800532905258129 -0.0095716795883919598 0 -0.0095716795883919598 0.067747379747119751 0 0 0 0.037886978163094609 0.026800588841310192 -0.0068023134570186772 0 -0.0068023134570186772 0.08022999751209961 0 0 0 0.02675764658835245 0.097336759411886353 -0.0049171493246551456 0 -0.0049171493246551456 0.085756947760113889 0 0 0 0.045773426793000116 0.036773165307028462 -0.006517842588691489 0 -0.006517842588691489 0.11018662860664277 0 0 0 0.036739948478417807 0.12725329399467214 -0.0072024363200671182 0 -0.0072024363200671182 0.09453664632962433 0 0 0 0.055447485081074083 0.11126237196385133 -0.009725391707379849 0 -0.009725391707379849 0.090675352465700937 0 0 0 0.050484431107388067 0.09645909170935707 -0.0042461020747063261 0 -0.0042461020747063261 0.085658978710938083 0 0 0 0.045529517605073844 0.075804546024782732 -0.0015176380512540999 0 -0.0015176380512540999 0.056258486995641968 0 0 0 0.033015758255106172 0.090819514464748008 -0.0092156685800035276 0 -0.0092156685800035276 0.06570332419234215 0 0 0 0.039130709664272567 0.10105878364510709 -0.0037244310760748967 0 -0.0037244310760748967 0.090086671926798312 0 0 0 0.047786363892976386 0.10097393337936234 -4.7867276858737373e-05 0 -4.7867276858737373e-05 0.07070708034370185 0 0 0 0.042920253430766102 0.085297915093693111 -0.0088577675054409555 0 -0.0088577675054409555 0.049579254658196792 0 0 0 0.033719292437972476 0.11507716002728285 -0.0093311600997117994 0 -0.0093311600997117994 0.096911903087103957 0 0 0 0.052997265778596703 0.1430034136436899 -0.001888146080848474 0 -0.001888146080848474 0.10164030842625257 0 0 0 0.061160930517485668 0.11845222405624645 -0.011064767426131321 0 -0.011064767426131321 0.08950520311023813 0 0 0 0.051989356791621144 0.10093214585553051 0.0026555314820578824 0 0.0026555314820578824 0.054304701832454672 0 0 0 0.038809211921996295 0.11648846257763212 -0.011045280878755781 0 -0.011045280878755781 0.094081486594954633 0 0 0 0.0526424872931468 0.042996964972860208 -0.0063766777221202896 0 -0.0063766777221202896 0.12819338726784052 0 0 0 0.042797588060175168 0.14431748543035527 -0.0026052169699695301 0 -0.0026052169699695301 0.1082276298799334 0 0 0 0.063136278827572001 0.12320884480262895 0.0032062132792243236 0 0.0032062132792243236 0.10167688704327205 0 0 0 0.056221432961474971 0.1072852288778966 -0.0059941056498495904 0 -0.0059941056498495904 0.074348861288343726 0 0 0 0.045408522541560026 0.083662053692096894 0.0047141071453082883 0 0.0047141071453082883 0.055390196451079454 0 0 0 0.03476306253579442 0.080590664671690293 -0.0066461108286135495 0 -0.0066461108286135495 0.053981464517980804 0 0 0 0.033643032297418163 0.093531117661078203 0.00068971071877488299 0 0.00068971071877488299 0.070969060324579281 0 0 0 0.041125044496414367 0.062698761777382872 -0.002517350372820415 0 -0.002517350372820415 0.048133942616800596 0 0 0 0.027708176098545811 0.036297414761742086 -0.0055711167003249518 0 -0.0055711167003249518 0.025659277403593972 0 0 0 0.015489173041334015 0.033631226045843343 -0.0071569009131539751 0 -0.0071569009131539751 0.017660711255972572 0 0 0 0.012822984325454145 0.055177197174365089 -0.000596527106193942 0 -0.000596527106193942 0.026488247074883287 0 0 0 0.020416361062312038 0.056451769165887788 -0.0089113234509862194 0 -0.0089113234509862194 0.033243597097531996 0 0 0 0.022423841565854863 0.033632882139435494 -0.012135955189482815 0 -0.012135955189482815 0.028110359007219365 0 0 0 0.015435810286663632 0.029940610265006162 -0.011091494274221653 0 -0.011091494274221653 0.017423869898447464 0 0 0 0.011841120040863462 0.044700230111632655 -0.01132768063956302 0 -0.01132768063956302 0.029164379709653465 0 0 0 0.018466152455321627 0.068685900180026363 -0.0084012280116366744 0 -0.0084012280116366744 0.053469032308269826 0 0 0 0.030538733122074294 0.083461355507065127 -0.01220810239737638 0 -0.01220810239737638 0.057190030774773248 0 0 0 0.035162846570459649 0.063153493158356944 -0.0052388312977711404 0 -0.0052388312977711404 0.049620808725042598 0 0 0 0.028193575470849663 0.0079620803726573319 -0.0028208464636263475 0 -0.0028208464636263475 0.0086870278911188592 0 0 0 0.0041622770659438535 0.005704142442471305 -0.0015881960741159667 0 -0.0015881960741159667 0.0064357484161954304 0 0 0 0.0030349727146663508 0.0082247339706401582 -0.0010607017668546881 0 -0.0010607017668546881 0.006721875131326144 0 0 0 0.0037366522754916868 0.0099466864515900255 -0.0020411388610174219 0 -0.0020411388610174219 0.0076339667742795214 0 0 0 0.0043951633064676088 0.008060406494403427 -0.003017679002086826 0 -0.003017679002086826 0.0071807908343801685 0 0 0 0.003810299332196232 0.012668533629360601 -0.0054681841062587111 0 -0.0054681841062587111 0.0085833671690753732 0 0 0 0.005312975199608827 0.020398635498836803 -0.0043200452292291303 0 -0.0043200452292291303 0.0096717126431622447 0 0 0 0.007517587035499762 0.013531366973058789 -0.0015653805393522902 0 -0.0015653805393522902 0.0056695607591699115 0 0 0 0.0048002319330571197 0.020998646936195114 -0.0020232634526973214 0 -0.0020232634526973214 0.0098180980335304518 0 0 0 0.007704186242431613 0.016910693820921918 -0.0083534396557941593 0 -0.0083534396557941593 0.013005283255939748 0 0 0 0.0074789942692153888 0.012165411469591714 -0.011949133269994472 0 -0.011949133269994472 0.013597211103982154 0 0 0 0.0064406556433933559 -0.00055542798389410925 -0.0077898714249146073 0 -0.0077898714249146073 0.0075949355852966971 0 0 0 0.0017598769003506973 0.015250577619660644 -0.0067033097747222214 0 -0.0067033097747222214 0.010031073074151187 0 0 0 0.0063204126734529575 0.0079523478225576039 -0.0085379470000609414 0 -0.0085379470000609414 0.010523137653450476 0 0 0 0.0046188713690019645 0.0035035381975279806 -0.0032581256485271215 0 -0.0032581256485271215 0.0071210751529052763 0 0 0 0.0026561533376082275 -0.0074159940104450315 -0.0037501277217983908 0 -0.0037501277217983908 0.0057334459614794622 0 0 0 -0.00042063701224150324 0.001219990063322296 -0.0036445888065559373 0 -0.0036445888065559373 0.0086121588571739238 0 0 0 0.0024580372301239439 -0.018053897510749151 -0.0047301374720712941 0 -0.0047301374720712941 0.0072692427560281381 0 0 0 -0.0026961636886799756 0.00063554032831603102 -0.006801417036778834 0 -0.006801417036778834 0.0088573716523128176 0 0 0 0.0023732279951573787 -0.0014637396658774282 -0.010212663764979091 0 -0.010212663764979091 0.007487057842672673 0 0 0 0.0015058295441987557 -0.012486179346945181 -0.0047157883150372726 0 -0.0047157883150372726 0.0041058020005336759 0 0 0 -0.0020950943366029318 -0.0022768166260336009 -0.011625645127857798 0 -0.011625645127857798 0.0083948887460057464 0 0 0 0.0015295180299930433 0.011021321821862218 -0.013053352762780746 0 -0.013053352762780746 0.011905146435732927 0 0 0 0.0057316170643989528 0.0080747825301250575 -0.016195995240186695 0 -0.016195995240186695 0.010536634454285654 0 0 0 0.0046528542461026223 0.0097290811127381804 -0.015194920738902218 0 -0.015194920738902218 0.014453924947513297 0 0 0 0.0060457515150631469 -0.0026867181421647013 -0.012352429554380984 0 -0.012352429554380984 0.0072302282968079723 0 0 0 0.0011358775386606235 -0.0033661005619292639 -0.015416678203488243 0 -0.015416678203488243 0.0093182532043392663 0 0 0 0.0014880381606025561 0.0080898710679835339 -0.018616524090576181 0 -0.018616524090576181 0.013596570552642628 0 0 0 0.0054216104051564296 -0.008902269864597967 -0.015269536214225998 0 -0.015269536214225998 0.0066678359544452004 0 0 0 -0.00055860847753819165 -0.0155679308056762 -0.0092031376426700007 0 -0.0092031376426700007 0.0065619237304843647 0 0 0 -0.0022515017687979588 -0.019303995687262765 -0.0072903504376379269 0 -0.0072903504376379269 0.0036573711538363529 0 0 0 -0.0039116561333567001 -0.02106157648468332 -0.0078866801304934286 0 -0.0078866801304934286 0.0070843376530489444 0 0 0 -0.0034943097079085383 -0.032071963229816924 -0.0041298202746764545 0 -0.0041298202746764545 0.0040046995615977687 0 0 0 -0.0070168159170548861 -0.017413647531200338 -0.0037666990460896166 0 -0.0037666990460896166 0.0058467533995694154 0 0 0 -0.0028917235329080082 0.052498440289084125 -0.015557066469357173 0 -0.015557066469357173 0.035437788539498527 0 0 0 0.021984057207145691 0.042532270254526661 -0.014375093108413228 0 -0.014375093108413228 0.036406539974005447 0 0 0 0.019734702557132833 0.057449956960706983 -0.016239593387577855 0 -0.016239593387577855 0.050496488938007289 0 0 0 0.026986611474678623 0.053149491686275807 -0.017175061336881847 0 -0.017175061336881847 0.039245477220515301 0 0 0 0.023098742226697833 0.025927443081373847 -0.015262951040616479 0 -0.015262951040616479 0.023215866488834669 0 0 0 0.012285827392552018 0.023696718195090227 -0.01490986517325299 0 -0.01490986517325299 0.016342037590254543 0 0 0 0.010009688946336137 0.037823187691992777 -0.017309654598163707 0 -0.017309654598163707 0.02386701908346911 0 0 0 0.015422551693865527 0.030932221299094453 -0.019362421655917728 0 -0.019362421655917728 0.019822086152207374 0 0 0 0.01268857686282554 0.020786236337912073 -0.017372182634898481 0 -0.017372182634898481 0.020274651488377926 0 0 0 0.010265221956572507 0.018108129073506896 -0.015865525185695173 0 -0.015865525185695173 0.01336677748891546 0 0 0 0.0078687266406055612 0.017610740218642826 -0.015795457397600465 0 -0.015795457397600465 0.016722602474518677 0 0 0 0.0085833356732903793 0.045310995626729356 -0.017283147122971965 0 -0.017283147122971965 0.028438598350434496 0 0 0 0.018437398494291157 0.034821083034201394 -0.016633266987970262 0 -0.016633266987970262 0.031170031101183771 0 0 0 0.016497778533846152 0.062525875955165899 -0.012112611309322521 0 -0.012112611309322521 0.045098305128945526 0 0 0 0.026906045271027912 0.048830448627474099 -0.016108836878362398 0 -0.016108836878362398 0.039583111151287209 0 0 0 0.02210338994469041 0.056596806333766236 -0.012535289429693286 0 -0.012535289429693286 0.03689610462055215 0 0 0 0.023373227738579583 0.04350156538606631 -0.018688045259698804 0 -0.018688045259698804 0.027653665720895004 0 0 0 0.017788807776740301 0.045260500957666538 -0.014591685460866255 0 -0.014591685460866255 0.02823997757809682 0 0 0 0.018375119633941006 0.051671514593260692 -0.016778351556817894 0 -0.016778351556817894 0.027537465298181907 0 0 0 0.019802244972860761 0.03053726141461921 -0.02101982680470138 0 -0.02101982680470138 0.019202856808889113 0 0 0 0.012435029555877164 0.034950106258515523 -0.015629839233610276 0 -0.015629839233610276 0.026773909349102398 0 0 0 0.015431003901904605 0.029092013980381193 -0.020997253571323926 0 -0.020997253571323926 0.017567218892219572 0 0 0 0.011664808218150302 0.011277796135887197 -0.020636842968173891 0 -0.020636842968173891 0.011809720973061433 0 0 0 0.0057718792772372129 0.0069873717563887494 -0.016038000856039847 0 -0.016038000856039847 0.01014990759097989 0 0 0 0.0042843198368421875 0.027564184602094571 -0.016974494860072409 0 -0.016974494860072409 0.017454093746880783 0 0 0 0.01125456958724395 0.014997585909509392 -0.023067919999464309 0 -0.023067919999464309 0.011470181725582673 0 0 0 0.0066169419087730441 0.023801099637987155 -0.017675287006949092 0 -0.017675287006949092 0.013511969752342035 0 0 0 0.0093282673475822975 0.0056350627964622535 -0.019156678256767756 0 -0.019156678256767756 0.0079698742281628654 0 0 0 0.0034012342561562936 0.0068585367230078464 -0.022016404833570646 0 -0.022016404833570646 0.013324317107242134 0 0 0 0.0050457134575624396 0.045723221873269104 -0.019970320774770567 0 -0.019970320774770567 0.01883038587849778 0 0 0 0.016138401937941749 0.048771096002559799 -0.015941256436513673 0 -0.015941256436513673 0.023960031512693547 0 0 0 0.018182781878813281 0.045115076628980955 -0.015412990411586128 0 -0.015412990411586128 0.028089272874799676 0 0 0 0.018301087375945269 0.025042490183982802 -0.021947343216250581 0 -0.021947343216250581 0.016343760793837481 0 0 0 0.010346562744455057 0.042365930554048803 -0.017402839815341027 0 -0.017402839815341027 0.020642177572196552 0 0 0 0.015752027031561422 -0.033909319686682537 -0.0081578661476250369 0 -0.0081578661476250369 0.0053723402846586055 0 0 0 -0.0071342448505059552 -0.042237622124382701 -0.0046464943851415308 0 -0.0046464943851415308 0.0024288896220320752 0 0 0 -0.0099521831255878247 -0.03264410087676678 -0.0044072783185959974 0 -0.0044072783185959974 0.0027625604449263153 0 0 0 -0.0074703851079603312 -0.045162688065145673 -0.0055398726621538373 0 -0.0055398726621538373 0.0053692019992825912 0 0 0 -0.0099483715164656594 -0.022387388568797129 -0.0069505225414572824 0 -0.0069505225414572824 0.0020717614071463775 0 0 0 -0.0050789067904127294 -0.0094873959642634009 -0.013604950372728686 0 -0.013604950372728686 0.0065073490037320658 0 0 0 -0.00074501174013286153 -0.022384880895280013 -0.013955820342873966 0 -0.013955820342873966 0.0061783737131504424 0 0 0 -0.0040516267955323926 -0.0037411783928228415 -0.014111461659784941 0 -0.014111461659784941 0.0065866195922092974 0 0 0 0.00071136029984658622 -0.0075866769111743171 -0.020053405054666462 0 -0.020053405054666462 0.0087586273716466767 0 0 0 0.00029298761511808991 -0.01179267409410989 -0.017929614809757355 0 -0.017929614809757355 0.007208831575541419 0 0 0 -0.0011459606296421176 -0.0084434355697127882 -0.015495779359325557 0 -0.015495779359325557 0.008304205547843297 0 0 0 -3.4807505467316854e-05 -0.010063123121314965 -0.021027941082801233 0 -0.021027941082801233 0.010496897959346718 0 0 0 0.00010844370950791049 -0.018369805770040042 -0.012498939639088547 0 -0.012498939639088547 0.0054426381647515107 0 0 0 -0.003231791901322105 -0.028633881273286088 -0.015608800440727211 0 -0.015608800440727211 0.0061497039133961984 0 0 0 -0.0056210443399725141 -0.027633579191914032 -0.012599082889049651 0 -0.012599082889049651 0.0044333340779845187 0 0 0 -0.005800061278482288 -0.028103899572577196 -0.01328295646512212 0 -0.01328295646512212 0.0055214909361214204 0 0 0 -0.005645602159113805 -0.046169251887125312 -0.0084711062562382589 0 -0.0084711062562382589 0.0039265070731323015 0 0 0 -0.010560686203498176 -0.043899422721766224 -0.004882112607266953 0 -0.004882112607266953 0.0034253837574481638 0 0 0 -0.010118509741079418 -0.055730410206563052 -0.0076329059482251327 0 -0.0076329059482251327 0.00395495667380108 0 0 0 -0.012943863383190535 -0.082429432373633565 -0.0052577932755128454 0 -0.0052577932755128454 0.0032491640969607438 0 0 0 -0.019795067069168115 -0.066365656058178402 -0.0058890909771007749 0 -0.0058890909771007749 0.0036495716196909278 0 0 0 -0.015679021109621882 -0.054586204215034961 -0.0031720452220633244 0 -0.0031720452220633244 0.0025533411550726082 0 0 0 -0.013008215764990561 -0.046801615826293275 -0.013848851623491476 0 -0.013848851623491476 0.0069262186524854386 0 0 0 -0.0099688492934519313 -0.036245057454013574 -0.0097449572780720917 0 -0.0097449572780720917 0.0035694653541905597 0 0 0 -0.0081688980249556842 -0.014705280954038669 -0.014442977668329943 0 -0.014442977668329943 0.0073505323980735948 0 0 0 -0.001838687138991324 -0.018829485793948719 -0.019406028047390889 0 -0.019406028047390889 0.010947372892871066 0 0 0 -0.0019705282252693856 -0.016912754633558014 -0.01786568838770651 0 -0.01786568838770651 0.017555312718934957 0 0 0 0.00016063952134426351 -0.026278862186901106 -0.010714003555770291 0 -0.010714003555770291 0.0035428237728862277 0 0 0 -0.005684009603503723 -0.027351997137200462 -0.013195237669130583 0 -0.013195237669130583 0.0087135130505829883 0 0 0 -0.0046596210216544032 -0.042826394082451841 -0.003238982918260358 0 -0.003238982918260358 0.0099339764183504209 0 0 0 -0.0082231044160253897 -0.04200494770681118 -0.013190463335821578 0 -0.013190463335821578 0.0083299157489366005 0 0 0 -0.0084187579894686448 -0.056535228680830552 -0.0066423833199355659 0 -0.0066423833199355659 0.003439045971082022 0 0 0 -0.013274045677437063 -0.052750698662622608 -0.0036287756446171382 0 -0.0036287756446171382 0.0031820764780040589 0 0 0 -0.012392155546154637 -0.082353320197983984 -0.0033837281099166061 0 -0.0033837281099166061 0.0037498812387849467 0 0 0 -0.019650859739799756 0.026932117658204548 -0.019552494405632337 0 -0.019552494405632337 0.018723695822906242 0 0 0 0.011413953370277698 0.053906948975426583 -0.032713590330673031 0 -0.032713590330673031 0.033208753007701097 0 0 0 0.02177892549578192 0.025814992519663182 -0.023918090431786332 0 -0.023918090431786332 0.019231703191692873 0 0 0 0.011261673927839055 0.022544089752544738 -0.018902329206326562 0 -0.018902329206326562 0.012257576951884674 0 0 0 0.0087004166761073254 6.7116711768511195e-05 -0.020029029161445944 0 -0.020029029161445944 0.010309512047973479 0 0 0 0.0025941571899354976 0.0018026406691343255 -0.020808140752852644 0 -0.020808140752852644 0.015721409022179444 0 0 0 0.0043810124228284009 0.019345963817085976 -0.026225043059344838 0 -0.026225043059344838 0.021007819230347669 0 0 0 0.010088445761858411 0.0010894125360862983 -0.014798396035268904 0 -0.014798396035268904 0.020786673614791251 0 0 0 0.0054690215377194429 -0.023374150423403933 -0.0094501311837008328 0 -0.0094501311837008328 0.0095168334230115725 0 0 0 -0.0034643292500980416 -0.015251464357637717 -0.0064829220869307147 0 -0.0064829220869307147 0.014725432355129797 0 0 0 -0.00013150800062694534 -0.0044994531236158819 -0.02017906981041806 0 -0.02017906981041806 0.023125391701956266 0 0 0 0.004656484644585096 0.023196988581826672 -0.022995172142287468 0 -0.022995172142287468 0.029820518839069193 0 0 0 0.013254376855223959 0.024392354975435515 -0.020703956573791767 0 -0.020703956573791767 0.031425324891759421 0 0 0 0.01395441996679872 0.04670390055259957 -0.029131999367652484 0 -0.029131999367652484 0.045748665272133227 0 0 0 0.023113141456183178 0.062775477813669184 -0.04354049895984255 0 -0.04354049895984255 0.089391981742463433 0 0 0 0.038041864889033154 -0.014884119200166246 0.012079132443470475 0 0.012079132443470475 0.049118588256273521 0 0 0 0.0085586172640268465 0.13525595790123707 -0.044463187095790051 0 -0.044463187095790051 0.042150306350972722 0 0 0 0.044351566063052433 0.0034395312162672073 -0.0014809365474825961 0 -0.0014809365474825961 0.010082934799896807 0 0 0 0.0033806165040410029 0.070195540027702286 -0.020885363984143424 0 -0.020885363984143424 0.011966252308165393 0 0 0 0.020540448083966989 0.065218308219993359 -0.017161770285897271 0 -0.017161770285897271 0.022105057590728006 0 0 0 0.021830841452680383 0.0084576849857206475 -0.0037336563220910714 0 -0.0037336563220910714 0.025287675431761525 0 0 0 0.0084363401043705457 0.091304734687169042 -0.012171975117732436 0 -0.012171975117732436 0.025340122411599331 0 0 0 0.029161214274692093 0.011823957515720174 -0.0050976829716358812 0 -0.0050976829716358812 0.035357590435163844 0 0 0 0.011795386987721004 0.067754813979015283 -0.010635740127071913 0 -0.010635740127071913 0.026873630523879033 0 0 0 0.023657111125723551 0.063311920993327803 -0.017953628075936312 0 -0.017953628075936312 0.020778470388520209 0 0 0 0.021022597845461927 0.027364539992790565 -0.010203242791395652 0 -0.010203242791395652 0.018434548971402009 0 0 0 0.011449772241048123 0.016725424915160159 -0.013529357160320277 0 -0.013529357160320277 0.027274992326146857 0 0 0 0.011000104310326747 0.028612579152319871 -0.01028510600250232 0 -0.01028510600250232 0.023367264517826086 0 0 0 0.01299496091753654 0.0011840869725578129 -0.013799025916402538 0 -0.013799025916402538 0.017925522499662561 0 0 0 0.0047774023680551003 0.026918522275783299 -0.0028658559188107502 0 -0.0028658559188107502 0.036020208535782222 0 0 0 0.015734682702891398 0.02271789045147711 -0.0014986995878661646 0 -0.0014986995878661646 0.010629962857824332 0 0 0 0.0083369633273253502 0.0089146372240522069 -0.0055470331906088688 0 -0.0055470331906088688 0.090247998323407533 0 0 0 0.024790658886864946 0.019765072628442945 0.0016666468407877527 0 0.0016666468407877527 0.034582243670984447 0 0 0 0.013586829074856852 0.029398941003365625 -0.0062164834688212961 0 -0.0062164834688212961 0.015345897744299175 0 0 0 0.011186209686916193 0.034759164815353252 -0.0080827907277249283 0 -0.0080827907277249283 0.03339767813430862 0 0 0 0.017039210737415465 0.026254337005036377 -0.010513079270308173 0 -0.010513079270308173 0.032531466767292544 0 0 0 0.014696450943082223 0.031870600811606628 -0.014582477740371167 0 -0.014582477740371167 0.034875720746267297 0 0 0 0.016686580389468492 0.032368204052894818 -0.013325138485161689 0 -0.013325138485161689 0.048325085991109205 0 0 0 0.020173322511001002 0.043773952857601703 -0.019602590544242383 0 -0.019602590544242383 0.037400217019337961 0 0 0 0.020293542469234906 0.047890520782874639 -0.018435515656455903 0 -0.018435515656455903 0.022065924490425694 0 0 0 0.017489111318325055 0.039531392636479146 -0.013496520947262516 0 -0.013496520947262516 0.020545773155317137 0 0 0 0.015019291447949057 0.041838762192661541 -0.014126378464968788 0 -0.014126378464968788 0.018269451200694786 0 0 0 0.015027053348339078 0.038096015816494924 -0.012426781674752169 0 -0.012426781674752169 0.016803699729015187 0 0 0 0.013724928886377524 0.040672577298922402 -0.014243012931811461 0 -0.014243012931811461 0.010278358872747362 0 0 0 0.01273773404291742 0.032021588871000234 -0.012348104007545324 0 -0.012348104007545324 0.018540972208349826 0 0 0 0.012640640269837494 0.039482947533930349 -0.01222628357118688 0 -0.01222628357118688 0.012348377581693548 0 0 0 0.012957831278905971 0.039364247001722669 -0.012939939405122197 0 -0.012939939405122197 0.012431113730964116 0 0 0 0.012948840183171689 0.035930342580991051 -0.012852418990697931 0 -0.012852418990697931 0.015486629951426634 0 0 0 0.012854243133104445 0.042072214522805726 -0.011768411696086112 0 -0.011768411696086112 0.0089959153317173968 0 0 0 0.01276703246363077 0.042249858524918638 -0.011144186446265608 0 -0.011144186446265608 0.013941613770634298 0 0 0 0.01404786807388822 0.040968385266840504 -0.01188374955518226 0 -0.01188374955518226 0.017549200143211485 0 0 0 0.01462939635251298 0.048688563749837016 -0.01210462496252239 0 -0.01210462496252239 0.0077141306493401229 0 0 0 0.014100673599794306 0.045062518498401059 -0.01330848835058121 0 -0.01330848835058121 0.011493583844099181 0 0 0 0.014139025585625069 0.044111877684867629 -0.012595753034367246 0 -0.012595753034367246 0.010137627893173795 0 0 0 0.013562376394510356 0.047522167376836344 -0.0098267896157908097 0 -0.0098267896157908097 0.0084731161659982179 0 0 0 0.013998820885708613 0.048461617413006801 -0.010359989304329631 0 -0.010359989304329631 0.0073717978288101449 0 0 0 0.013958353810454285 0.046604045145183057 -0.0022632638289864504 0 -0.0022632638289864504 0.0029575790143749892 0 0 0 0.012390406039889543 0.044208366341947622 -0.0068256274185992255 0 -0.0068256274185992255 0.0065219464976697394 0 0 0 0.012682578209904316 0.049873293848345879 -0.0042084661522624189 0 -0.0042084661522624189 0.010891615872167137 0 0 0 0.015191227430128268 0.043727405646889539 -0.0094399391378348629 0 -0.0094399391378348629 0.023167417587111716 0 0 0 0.0167237058085003 0.046767069839266123 -0.0074209930380099154 0 -0.0074209930380099154 0.016058787817369025 0 0 0 0.015706464414158766 0.041962540977412706 -0.0097464017704063932 0 -0.0097464017704063932 0.013279713680384914 0 0 0 0.013810563664449417 0.04490155156966219 -0.0056688887237310304 0 -0.0056688887237310304 0.014597524549071705 0 0 0 0.01487476902968346 0.045551598829524975 -0.0082428972900793485 0 -0.0082428972900793485 0.022611812334844439 0 0 0 0.017040852791092354 0.049040958152946179 -0.0059918065524142616 0 -0.0059918065524142616 0.02697290726670809 0 0 0 0.019003466354913567 0.04969833883037561 -0.0079414629899528522 0 -0.0079414629899528522 0.036656089485463728 0 0 0 0.021588607078959821 0.043985087141123563 -0.010772687276231735 0 -0.010772687276231735 0.031872674747465024 0 0 0 0.018964440472147154 0.044109998436744013 -0.0091832073992512975 0 -0.0091832073992512975 0.026804550236574021 0 0 0 0.017728637168329481 0.048133683077977107 -0.0072654361046618262 0 -0.0072654361046618262 0.044776139338292831 0 0 0 0.023227455604067471 0.070566024531747262 -0.0088295440985461937 0 -0.0088295440985461937 0.04610232084663668 0 0 0 0.029167086344596027 0.018660107867344629 -0.0064614998840979466 0 -0.0064614998840979466 0.055843738903444289 0 0 0 0.018625961692697229 0.053222243979907644 -0.0092553354024934864 0 -0.0092553354024934864 0.048135512564106531 0 0 0 0.025339439136003547 0.060507074080372147 -0.012413395950233719 0 -0.012413395950233719 0.050358760850593765 0 0 0 0.027716458732741422 0.059018553131445273 -0.011103401649394162 0 -0.011103401649394162 0.041737108974267079 0 0 0 0.025188915526428102 0.070912217319913678 -0.007851393271256224 0 -0.007851393271256224 0.037933890945207938 0 0 0 0.027211527066280466 0.036300896805683318 -0.010509723045892622 0 -0.010509723045892622 0.039114748491156842 0 0 0 0.018853911324210069 0.015133585295359301 -0.0059623612867516556 0 -0.0059623612867516556 0.045282137603878857 0 0 0 0.01510393072480954 0.061835059051965402 -0.0099684436928924453 0 -0.0099684436928924453 0.035043988161925554 0 0 0 0.024219761803472739 0.056590998439039086 -0.015298471171145911 0 -0.015298471171145911 0.023821479764317588 0 0 0 0.020103119550839155 0.074512917941699286 -0.0085097141053910308 0 -0.0085097141053910308 0.030148588437164392 0 0 0 0.02616537659471585 0.031108238455131471 -0.010880281640343853 0 -0.010880281640343853 0.028975922157317202 0 0 0 0.015021040153112147 0.034724292186765551 -0.013808052032000639 0 -0.013808052032000639 0.01776860312001885 0 0 0 0.013123223826696104 0.035911964647485646 -0.012558331450534033 0 -0.012558331450534033 0.022863767871852542 0 0 0 0.014693933129834504 0.040239189207803089 -0.010039094103198698 0 -0.010039094103198698 0.031769176484084172 0 0 0 0.018002091422971822 
</DataArray>
<DataArray type="Float64" Name="von_mises_stress" format="ascii">
0.029629336225423263 0.022710121330119491 0.034267594893665876 0.027007376586541232 0.021817045968519487 0.021826064425872423 0.028625603729571722 0.029261639666944873 0.028769006771325559 0.025133111610604327 0.033360572911365266 0.026926195191611685 0.039419914801173211 0.032595677472988728 0.044745258872903704 0.038002924623220337 0.03688077024103379 0.036231465717734203 0.017866016913305964 0.022860472345924525 0.017861271398374397 0.024730119655062222 0.022838883612913426 0.021436357104268722 0.018769785153883528 0.026167363568849793 0.023580861415605028 0.021738513232136044 0.016895224498173943 0.01875587610808499 0.021037555389479719 0.01503571283950339 0.018512127362099146 0.013537409036865155 0.020829686891759767 0.027083155108701167 0.024433188702697773 0.018344317034793015 0.025523835255699581 0.029083122874457985 0.021435847267824236 0.023268133828612678 0.019240418816447898 0.014204212156440873 0.02212709020847059 0.015254661313900186 0.013766646058842437 0.016591471470939447 0.043355651243547025 0.03831255429997648 0.05362749310951033 0.03934562204642341 0.031979292096063136 0.032465149580011995 0.034239586000461668 0.036430544947810992 0.027676486021700041 0.038655881039398821 0.03002171525463811 0.037235826465444911 0.04818897553377801 0.04623248941115931 0.045211838665999773 0.060278818865184762 0.0635655209354897 0.048264731149840819 0.053786430415087197 0.074077406092871056 0.057872734731801732 0.053049860043664569 0.060217514012428926 0.080391183097061933 0.035716903261015676 0.033712367632446887 0.042446812959397263 0.043610239910363717 0.033923836097941432 0.05264453468153827 0.040477252412910572 0.040592592697691443 0.031661328433586537 0.024157884802891827 0.021992076392278403 0.02132759746708222 0.0186126206371999 0.031365404797967358 0.011349918196063104 0.017572009126461986 0.013468083728522822 0.0062644984892182183 0.01481804786259374 0.014358276345053525 0.0087299361209037581 0.0084396281543014616 0.024764460492818555 0.025910167107879717 0.013667869377317879 0.016350355325434857 0.025415201918431437 0.031214183441267734 0.027731161121321256 0.026233791797932629 0.014982052383768872 0.019918986154399541 0.0088069279534057562 0.015533887630178597 0.014687062326690498 0.02727012958767857 0.031207896141228125 0.029534106883913738 0.03449037102598098 0.034966260330139477 0.016690063209729922 0.029644108991119481 0.028331468021089459 0.037226528306317876 0.043400274681808862 0.045973967947377806 0.057099410170908263 0.058900543246614777 0.085136408259924967 0.063060194552472748 0.061500878081693966 0.063380471391382642 0.055749821187232797 0.084844598850300268 0.064158839305516274 0.046485120804894593 0.037745672406560057 0.046770099680998406 0.029272431715034134 0.02543091163384234 0.023781188751258998 0.025572802528255684 0.025731544523825856 0.029665274752112947 0.034318514754730842 0.031585337146915089 0.031372433879281583 0.028357689670500952 0.028915622351220208 0.032819994453243642 0.03302491265974488 0.036582447387575705 0.038104015521048085 0.081344356985828772 0.052610386259808344 0.0514339454027955 0.038493805077116125 0.041253600228984659 0.033522607131467874 0.052576736250984871 0.031411575802871357 0.021393846241222175 0.030392851870996784 0.014710228945779192 0.020696577712753603 0.036561419670765954 0.031358187807233373 0.030334749844234038 0.018875978659472055 0.023586983654894481 0.017865534151911371 0.011802397370225471 0.01315027089503145 0.011608305576413821 0.015956062835288734 0.010473352069218187 0.010573488279819512 0.011485260548595274 0.013109142960576808 0.010799304383386672 0.014914120812225656 0.013309294731474238 0.01362440018590407 0.012387496308314299 0.011872229389121487 0.011911007411004777 0.01629679098297631 0.016344094896454203 0.016830428240388721 0.013243563855862363 0.012622025284589626 0.012659047045543027 0.016083211215009195 0.013207544101419728 0.016443169275260332 0.021362191627223328 0.018734399182965551 0.025975200226899059 0.017238195820103403 0.021937493350573406 0.013740950011528389 0.017341015575622194 0.017046086576094431 0.017715967169805252 0.017784340247499409 0.023776874599645594 0.025879457108723296 0.025002637836650098 0.021802968774867336 0.021676619492890733 0.01602284735208136 0.019823259469504709 0.022319967240899935 0.020550348416241131 0.024604560984406311 0.025997450932664229 0.021740829823086553 0.028949676264982443 0.028028781198167367 0.03064140350931378 0.028519031115006119 0.026444605800869974 0.012981768692059498 0.015575563168613596 0.014679578460042713 0.018158609360504743 0.014598011869735254 0.016876965841365003 0.016373329494842759 0.018128209794723675 0.02100051255787409 0.018069928190489807 0.023466454460003287 0.018390229888604236 0.018240919360715813 0.01495894969522907 0.017804426670947875 0.015201947298148851 0.017140312630303869 0.019606369889320317 0.016139291922990188 0.014777853955203906 0.019496653173500467 0.017043345444824734 0.020556104782330557 0.018853295203605656 0.019650634202647416 0.024084116097107689 0.018583264901693458 0.021877542328696119 0.01794004488099572 0.02190773255878152 0.017256829260234866 0.022340219221272013 0.02692904297663249 0.028747338578615129 0.025436313592901598 0.026461584806543578 0.022059101988271879 0.024077566706461054 0.019140224646821014 0.021750416063597386 0.02021609002569201 0.022546162315230846 0.024747106494503152 0.025458694197890729 0.022853340899194483 0.020573440821286849 0.024103997529422591 0.021341745674674815 0.023898733461063113 0.027103997654988866 0.028061344928918951 0.02952775803683504 0.028741507106012112 0.031120902398679689 0.030816470641446363 0.032409930098507594 0.03114121853190879 0.029573813566647338 0.027962400830362125 0.021011709583148366 0.021301613320870268 0.02369359604179767 0.0207201638784964 0.026137617745116529 0.024827122220280762 0.020140502488877964 0.026033310370031849 0.027086623474496942 0.02727663990149146 0.02416506017048016 0.025083571402122778 0.021925218963069568 0.027098407797236112 0.032116884791611587 0.030219209988691254 0.031942635363362032 0.032400251029031331 0.037474251339147009 0.031249007093911259 0.028895835099292291 0.030037899027035908 0.028624147975405294 0.025576402381758009 0.033746007574884856 0.032998519377070788 0.030739731360491532 0.037583095252409895 0.032456603919034238 0.031381806727694125 0.033106399141827419 0.036841549446277891 0.038557386808918057 0.040057079803725713 0.034565843751020141 0.034940833914911484 0.035846779100026635 0.03420452613289944 0.032052508070803114 0.031324776179052043 0.02910933723531554 0.028850209952736412 0.027965378897096875 0.0321804646265988 0.033257457761754733 0.030748166906835437 0.033426023422766599 0.032352023892701455 0.033481464678841603 0.034213898991598851 0.03309848770968607 0.036141061287299686 0.061386665220760889 0.048001483176295087 0.050688575648746105 0.048714936087412834 0.044248910279589125 0.038022923447396946 0.028969970283931452 0.034723618833018284 0.038375278861493188 0.035912615444926438 0.028000125292793422 0.028011535598377234 0.036033072844092663 0.030483301091633393 0.041508033026012116 0.053059985624204546 0.033851354442125697 0.042626320697162559 0.027494498575314559 0.025734808926220275 0.032967311059223937 0.030800211338325965 0.02908295103265323 0.022765116472302289 0.026823079132453534 0.020806628028442697 0.028615722469549115 0.021117909334139331 0.019987946217387368 0.027900122543216194 0.025942746081454755 0.020712648331578147 0.029539834260133544 0.026538018436837021 0.02952123455654072 0.02961112951350145 0.022776619490335406 0.03186134259762103 0.024968648885916954 0.028947702580285048 0.033939908372641728 0.033117403911435118 0.036120352864830972 0.032623854910106283 0.024900227761044107 0.030522884188241169 0.041285005479681607 0.041468034523025409 0.049535107096306694 0.04820327274665126 0.04561759270664504 0.044175252682246646 0.052699664947013405 0.06612847787270841 0.072195833700189962 0.088596581739849661 0.063797115591249343 0.075794943594282724 0.052209686109382938 0.060078232686869834 0.052890923736607059 0.090742806091307943 0.12657398287835656 0.088893466549695252 0.079272485395898637 0.11426183830547339 0.099288350407741616 0.069392866937435835 0.07692761039864586 0.079896550346364711 0.053172245611335385 0.051995516904778931 0.036652134416131556 0.060266351476375879 0.058354347286659829 0.050588620881924194 0.031550327201695968 0.034969834451287672 0.034315920081773081 0.047360917014570125 0.037774107748992126 0.051397317990018052 0.042506817423820044 0.030966496906194556 0.035755998079179827 0.031715573685554839 0.023484251855290197 0.036843170957056789 0.034380769021196883 0.038398784731372489 0.024716503041376368 0.024339984120505823 0.042450938998939251 0.023090758614074447 0.037757078897623989 0.024885965718612481 0.036187567355975073 0.048307957031650486 0.023662758415611551 0.043393821371445832 0.056007847457045276 0.083306765370923463 0.075651014675832851 0.095977210897927864 0.063480637007552146 0.048646529751155562 0.04547049872197631 0.080171313531406954 0.05298569642887218 0.077953682903396146 0.033850999039693873 0.051601502480702485 0.059872518076681813 0.059292454076788993 0.069442880508756771 0.067882373742840271 0.059829714062304112 0.075314217165572614 0.049828696985738163 0.081511845867194593 0.079436045583262324 0.0664842428195241 0.092284680526457039 0.081038133549669586 0.12543412443350488 0.091619467877727054 0.13381747808031841 0.094795836347614695 0.081926362467230895 0.098487225462293243 0.036801260502637205 0.039634991945869939 0.042745637242992941 0.033968479112781481 0.029665617089106047 0.025663418779397391 0.019179492460947769 0.029920210550851412 0.021996904071978643 0.022081632065376468 0.024552052095212412 0.02784036139195455 0.03141528713173012 0.027834841735856399 0.035233542462747978 0.037274112750945693 0.03299749160340408 0.03473705627774766 0.037494711141383995 0.038928473326045238 0.038621957672644279 0.031918786642057224 0.038883687144649973 0.03646665899801773 0.039320370208055386 0.047436731276459115 0.04393727836765636 0.049983816503231832 0.040570612728254199 0.05402539177542523 0.056864192711852037 0.075257173684086229 0.069941871483094997 0.073101604370970144 0.056826839247003054 0.057574056930826456 0.060412480569196299 0.066213266058270881 0.10880886138693478 0.15742043355166099 0.17292115472431124 0.12200436876149974 0.066163245684251429 0.075621458668463926 0.13771325277705557 0.078494158663220931 0.083123758107301951 0.069570667618617438 0.043756169314233415 0.06138610532276903 0.0380957753121101 0.047054936110134497 0.032866671813010534 0.050052978731877092 0.026410212934089444 0.036491577762023428 0.053038513128754176 0.038729039170808117 0.035695904692970695 0.051136505517248333 0.041098120903441115 0.038240358135135342 0.054323734480651392 0.051722109869000464 0.037303507502128387 0.049903446979198594 0.048981311543793433 0.045552685234433135 0.051470300600006832 0.056517425797056958 0.0613540389567028 0.081880746098211957 0.054205643878371637 0.062735890414464257 0.068460684049474557 0.091524854306081233 0.1120642098636669 0.09505986157173571 0.2368714208608538 0.083647440457968403 0.1162042450188026 0.22809656306238027 0.16573045854431798 0.011215158403466305 0.2683017864251826 0.11596318231475269 0.029247242732898623 0.0281921264918489 0.099142931941351153 0.040611042581510222 0.032733014970760747 0.081811897633958505 0.070238025532662729 0.03532209332961958 0.038499955248127674 0.046836017039747546 0.030403342538315951 0.028401442178129708 0.033622450893193524 0.038330161396984322 0.068947815626014528 0.059956427732319656 0.064754179199168413 0.050255361762984001 0.051341208624890097 0.053627945513110127 0.049534385479350899 0.046571863898911318 0.040913613083679391 0.059173724676379769 0.045309504286381259 0.031026623974485842 0.037063014848706943 0.033786946527242803 0.034895999587182737 0.037284138775238923 0.0390938545363895 0.037679552625649759 0.038934242729797279 0.046031464291656693 0.043811499676093983 0.040978688667445931 0.040528081508114884 0.042864427425797762 0.043295739889916605 0.049958711013901605 0.045598165945261664 0.050010691593664017 0.04364582610072127 0.049297742715935414 0.045694067745052191 0.047816846951859449 0.05640603128636909 0.063486004336727894 0.070337186263737833 0.092675747059204422 0.10528646504998022 0.064537523524827889 0.066276081158772274 0.078698233929381189 0.072208288249705072 0.083051924201420477 0.057735951720203418 0.075432898790893391 0.05318593036135337 0.062390010963974993 0.089589083101325379 0.077809245413116762 0.11538354837219024 0.083039812044083477 0.065825086113597817 0.10001456141066792 0.081181840856861615 0.12681147946350255 0.15107638013625313 0.15302090311472658 0.12869526611531015 0.09532036148889475 0.10138720593356079 0.089591533286780572 0.077820422921594828 0.072905462367625823 0.07053432304022017 0.061229946533964394 0.053141083511916119 0.049288226811806446 0.055813224143743324 0.063078085579156146 0.045469918981597329 0.043403254884676563 0.047832407900052054 0.04907805689982811 0.063748374314900796 0.059282165767263237 0.060212882892580394 0.069490701494107091 0.046061382222229455 0.056471255400926464 0.034428763088667359 0.048223882148050505 0.044293507105121352 0.038846309304423204 0.028189650651223318 0.029791106036406053 0.037296720544751527 0.025936318958788326 0.015377690889663344 0.026271189826991614 0.043355754857197018 0.049860744308022502 0.035860113675627532 0.0079639221621057056 0.0064626406970768897 0.01190010757090358 0.011603364166470644 0.0088809021367299828 0.017332395299990064 0.021531310570567654 0.013672454466213216 0.022197876311405872 0.017124713515280277 0.024215329495064778 0.019891427540380154 0.014573351097977881 0.015582019538423305 0.015278279907507727 0.022796104887825283 0.024052954245826434 0.030873399362691189 0.020912851007401433 0.02927348403229639 0.027937348634963336 0.033062331351422995 0.038918002329144295 0.027978471424988008 0.035684530719098363 0.040607762130286509 0.043112978039986205 0.04184119053304667 0.040514377648864383 0.036014858908813056 0.041440522945195075 0.034584989253360003 0.034606847353239933 0.041191975910391677 0.037387919686329943 0.044988352182915574 0.041614827480892978 0.05054907933873589 0.054481458139853008 0.044866293976065133 0.036917004243058951 0.018595388370847749 0.022464594964939889 0.029601275026550605 0.020210659309371177 0.031050888488121729 0.022221565629273271 0.029914937573976282 0.013542388680261625 0.0068164408303563687 0.010230949485963054 0.0094083361055132403 0.012472115287915383 0.012637155904126016 0.0086618926216760969 0.011783831688134773 0.0088674696888329813 0.0061764301100614939 0.0058726664353952384 0.0049547834212668928 0.0044516486200331107 0.0058881005446876702 0.0065807590424909026 0.005110081925047809 0.0069110714419135921 0.037906224477479308 0.040196684671629818 0.043526136584206399 0.042968902855639743 0.03835433207329212 0.032770099763702557 0.031577159229097825 0.036160005306351294 0.034915449589981308 0.035136349786273023 0.039001697269511637 0.041133739702875913 0.035588383435183842 0.038571808271298962 0.040295737615892738 0.037315400271928922 0.040016808547922417 0.046237274330401319 0.043944016648252329 0.046366146759320402 0.047732883348008591 0.045254515841372675 0.067718923298399916 0.04231609933450603 0.048074042333580973 0.046990773846422057 0.076194633835753894 0.052089183742270624 0.051254116270743291 0.084813417652436218 0.04966492038628801 0.042580701969930163 0.052734587190280638 0.049568610713678678 0.048189707870059301 0.056248495801682404 0.045559253941116824 0.059217436192965059 0.058447167324316131 0.052902293800874002 0.056793139043512991 0.0939474270188181 0.067637274960558172 0.061630294847995093 0.055994440483733456 0.062507204865311902 0.10366587460203464 0.070304925597011167 0.065746010036540556 0.051594747279994288 0.065353198413633476 0.06982965387548512 0.063765542193415015 0.049984812698971252 0.032931792238654889 0.042910333626878107 0.0445022323517867 0.038436061602997555 0.041257432284795448 0.040281864954921337 0.037558451915636018 0.048365224875058101 0.034340395156630975 0.032981962744103713 0.034882650753163567 0.032007403845597519 0.028856480090940859 0.032912365166952604 0.044147143317124125 0.033446627821081584 0.048991897144991393 0.037775046476572288 0.027200811795814361 0.034633563968632035 0.048622259092827441 0.057386886636170982 0.034705727667365363 0.03394649118729462 0.03893877521716356 0.031142221036705817 0.028678843040647051 0.037952292225463112 0.032629201066395039 0.026858702435182895 0.026726795766361614 0.03060135480416961 0.031354188084552696 0.029966823135970322 0.028491063221305676 0.027599539716338606 0.029352069381281164 0.026691459225750228 0.030642761768033787 0.029944669655544688 0.0285246050948612 0.029157349188518047 0.028516640393612614 0.027455403924638151 0.030601194174270589 0.033652301038470098 0.035256950371158891 0.032473555654429546 0.033607600908317541 0.03077294634951213 0.038261610838021508 0.046408655738567346 0.040520624318399319 0.035890173952959958 0.029830115996576687 0.030606326333890186 0.029832269596502575 0.031997490325961525 0.034880330733275962 0.033970741352430528 0.038615938301392233 0.036933367712823094 0.042462788575989736 0.051992458902279812 0.038201051438936866 0.044905684731486525 0.063943391043971703 0.043435301839556684 0.043629715326807837 0.054734014462968571 0.047626785543797671 0.074292819810951718 0.0635045915228101 0.056127502569466324 0.047058548133374865 0.037195245483817502 0.047530151917585473 0.049147137874982455 0.050291319558164946 0.048262178209634951 0.05759691177661886 0.0709544541488 0.06081634624363829 0.056195189958365865 0.059277150631564079 0.086008385515496513 0.070593267567187645 0.05949292259361913 0.05461982295401243 0.043296793983991472 0.042372197715233532 0.045546473089586641 0.030754750028117565 0.02044269992462901 0.02256957301419452 0.032174325574126424 0.033838264813383472 0.026513810752109495 0.025035523792808705 0.030115939605190375 0.036304557811404972 0.046916691579482743 0.031852219999692198 0.0064490492606381804 0.0041448275191951003 0.0043625420869877821 0.0059856251360861446 0.0065128974705468698 0.011421350904672469 0.014099739098570766 0.0087606776575015737 0.01286035675938987 0.016634734482063322 0.021710940570915493 0.015328560822431621 0.013970795358384204 0.015651846853227982 0.0069797012110332773 0.013116712162996636 0.0093206303080258669 0.023565610004377065 0.013968139281298147 0.019371386325584258 0.016660605701843679 0.022208563010276804 0.023336823877356475 0.028515353307793617 0.027312104864211824 0.023082398824120484 0.028912035225975109 0.033043328697954621 0.029691907962204226 0.025029189638668063 0.023878169059309649 0.028159434169801635 0.032810762727210445 0.021370793590723858 0.037784455815500669 0.032210740743538323 0.039442533098469568 0.039541007851728406 0.029246009366018788 0.028419616576504211 0.035816316244768907 0.037125280163051354 0.031795428281628915 0.028877704866122775 0.0286837003534763 0.038073186484020478 0.033349228533720861 0.037307794078395691 0.036485321179441012 0.036177291968482454 0.039402255415794077 0.034549537441390707 0.040908524788736522 0.039704922397345889 0.031955111512123054 0.039475782446326935 0.036210007753306343 0.028240202469496715 0.032676080191532973 0.040614069664793757 0.033221431778218062 0.033415443559549021 0.038871328851297432 0.044713617875693196 0.039429382673544316 0.035567107199374996 0.040110595896008336 0.038867003219063521 0.037521146003456768 0.040744798844430941 0.032470027866568524 0.045892751042848429 0.024887991042727615 0.027344340664378422 0.034822479512342568 0.026036582771509484 0.037508395509214795 0.035164177805386602 0.030507726196374884 0.04054097345539881 0.030073066351951564 0.040864696767462516 0.03579199037164571 0.03753909676921971 0.046999955489929669 0.04305365595546732 0.054900679628387128 0.077333008932377378 0.06345451095590908 0.051459644614862333 0.053289400244685509 0.039249466771285352 0.031528142335794762 0.042410620605646356 0.042995465109912527 0.032305994751207254 0.038981992359662751 0.0467636076325132 0.04993034462586636 0.054829273861422292 0.050392718306476771 0.077335800956118694 0.036437783765692677 0.063294313014353093 0.043307680879355812 0.035027855455473343 0.035901193234258735 0.038254784262492667 0.046552193405299085 0.031270982439508099 0.033034514210283535 0.028285382852381902 0.042610051199384151 0.042366445404140918 0.038958751127584873 0.055506052149968614 0.08755476768454841 0.059860054899312932 0.11999784662793091 0.0071490695549589105 0.06537195694626298 0.052480748865047375 0.018039646248234831 0.067515516048344631 0.025148840490534733 0.046394710705920321 0.052590576329822426 0.022432662113176387 0.027451827621705126 0.022513423105062307 0.028359648618099958 0.018285244044978083 0.013632012104499575 0.075287596724072939 0.018910221512796897 0.019727678676036319 0.022084371281194295 0.02402315437433071 0.030383564563851401 0.033624506672539536 0.039938464110281957 0.042727696609038447 0.032286028850738724 0.035229396154596013 0.031490799046528663 0.038258286762201894 0.027450101518553715 0.034184281273875586 0.034843131437190825 0.031212892013116611 0.037403406737982099 0.034218983223791279 0.032388785435716945 0.043561140461978461 0.039704088724112775 0.039058728520728801 0.04036441092099808 0.042226812943338111 0.039970611148604632 0.036956934931516271 0.037730430242404737 0.029394804311493581 0.033453779696113385 0.033056574950434514 0.031724094817994 0.029814460994091744 0.028880549219590521 0.027979343449288239 0.02859781943385907 0.02814084883786987 0.026576854670645609 0.039159367605878175 0.038847731002029103 0.030306385520836185 0.036162418030226795 0.035047457597935511 0.041726224871609818 0.026320545752437498 0.031882273827407055 0.03772303779348124 0.043722375185117415 0.048764925244482775 0.02416988441421395 0.030981082133408774 0.028578633917844969 0.026081245436033955 
</DataArray>
<DataArray type="Float64" Name="cross_section_updated" format="ascii">
1 1 1 1 1 1 1 1 1 1 1 1 1 1 1 1 1 1 1 1 1 1 1 1 1 1 1 1 1 1 1 1 1 1 1 1 1 1 1 1 1 1 1 1 1 1 1 1 1 1 1 1 1 1 1 1 1 1 1 1 1 1 1 1 1 1 1 1 1 1 1 1 1 1 1 1 1 1 1 1 1 1 1 1 1 1 1 1 1 1 1 1 1 1 1 1 1 1 1 1 1 1 1 1 1 1 1 1 1 1 1 1 1 1 1 1 1 1 1 1 1 1 1 1 1 1 1 1 1 1 1 1 1 1 1 1 1 1 1 1 1 1 1 1 1 1 1 1 1 1 1 1 1 1 1 1 1 1 1 1 1 1 1 1 1 1 1 1 1 1 1 1 1 1 1 1 1 1 1 1 1 1 1 1 1 1 1 1 1 1 1 1 1 1 1 1 1 1 1 1 1 1 1 1 1 1 1 1 1 1 1 1 1 1 1 1 1 1 1 1 1 1 1 1 1 1 1 1 1 1 1 1 1 1 1 1 1 1 1 1 1 1 1 1 1 1 1 1 1 1 1 1 1 1 1 1 1 1 1 1 1 1 1 1 1 1 1 1 1 1 1 1 1 1 1 1 1 1 1 1 1 1 1 1 1 1 1 1 1 1 1 1 1 1 1 1 1 1 1 1 1 1 1 1 1 1 1 1 1 1 1 1 1 1 1 1 1 1 1 1 1 1 1 1 1 1 1 1 1 1 1 1 1 1 1 1 1 1 1 1 1 1 1 1 1 1 1 1 1 1 1 1 1 1 1 1 1 1 1 1 1 1 1 1 1 1 1 1 1 1 1 1 1 1 1 1 1 1 1 1 1 1 1 1 1 1 1 1 1 1 1 1 1 1 1 1 1 1 1 1 1 1 1 1 1 1 1 1 1 1 1 1 1 1 1 1 1 1 1 1 1 1 1 1 1 1 1 1 1 1 1 1 1 1 1 1 1 1 1 1 1 1 1 1 1 1 1 1 1 1 1 1 1 1 1 1 1 1 1 1 1 1 1 1 1 1 1 1 1 1 1 1 1 1 1 1 1 1 1 1 1 1 1 1 1 1 1 1 1 1 1 1 1 1 1 1 1 1 1 1 1 1 1 1 1 1 1 1 1 1 1 1 1 1 1 1 1 1 1 1 1 1 1 1 1 1 1 1 1 1 1 1 1 1 1 1 1 1 0.0020282623880949575 1 1 0.0020722779133324144 1 1 0.0021005357721606229 1 1 1 1 1 1 1 1 1 1 1 1 1 0.0021244648475191052 1 1 1 1 1 0.0021467272035629471 1 1 1 1 1 1 1 1 1 1 1 1 1 1 1 1 1 1 1 1 1 1 1 1 1 1 1 1 1 1 1 1 1 1 1 1 1 1 1 1 1 1 1 1 1 1 1 1 1 1 1 1 1 1 1 1 1 1 1 1 1 1 1 1 1 1 1 1 1 1 1 1 1 1 1 1 1 1 1 1 1 1 1 1 1 1 1 1 1 1 1 1 1 1 1 1 1 1 1 1 1 1 1 1 1 1 1 1 1 1 1 1 1 1 1 1 1 1 1 1 1 1 1 1 1 1 1 1 1 1 1 1 1 1 1 1 1 1 1 1 1 1 1 1 1 1 1 1 1 1 1 1 1 1 1 1 1 1 1 1 1 1 1 1 1 1 1 1 0.0021681129838558122 1 1 1 0.0021893671557441795 1 1 0.0022110641810874914 1 1 1 1 1 1 1 1 1 1 1 0.0022338870320135406 1 1 1 1 0.0022588906277872913 1 1 1 1 1 1 1 1 1 1 1 1 1 1 1 1 1 1 1 1 1 1 1 1 1 1 1 1 1 1 1 1 1 1 1 1 1 1 1 1 1 1 1 1 1 1 1 1 1 1 1 1 1 1 1 1 1 1 0.0010561840158373078 1 1 1 1 1 1 1 1 1 1 1 1 1 1 0.0010786277862863838 1 1 0.0010668404386546839 1 0.0010918083501602811 1 1 1 1 1 1 1 1 1 1 1 1 1 0.0011067447490095818 1 1 1 1 1 1 1 1 1 1 1 1 1 1 1 1 1 1 1 1 1 1 1 1 1 1 1 1 1 1 1 1 1 1 1 1 1 1 1 1 1 1 1 1 1 1 1 1 1 1 1 1 1 1 1 1 1 1 1 1 1 1 1 1 1 1 1 1 1 1 1 1 1 1 1 1 1 1 1 1 1 1 1 1 1 1 1 1 1 1 1 1 1 1 1 1 1 1 1 1 1 1 1 1 1 1 1 1 1 1 1 1 1 1 1 1 1 1 1 1 1 1 1 1 1 1 1 1 1 1 1 1 1 1 1 1 0.0010083778978698197 1 1 0.0010210641691592388 1 0.0010294527543093037 1 1 1 1 1 1 1 1 1 1 1 1 1 1 1 1 1 1 1 1 1 1 1 1 1 1 1 1 1 1 1 1 1 1 1 1 1 1 1 1 1 1 1 1 1 1 1 0.0010465222215134337 1 1 1 1 1 0.0010377227585988368 1 1 1 1 1 1 1 
</DataArray>
<DataArray type="Float64" Name="displacement_divergence" format="ascii">
-2.5748145613436441e-05 -2.8122868053260589e-05 -2.1421356449279293e-05 -2.4273544717113642e-05 -2.2261191436561267e-05 -2.2247403509961818e-05 -2.0593831241337888e-05 -2.2347163231593926e-05 -1.998892098307214e-05 -1.4751782510846054e-05 -2.2062809661503356e-05 -1.3754660549109545e-05 -2.6720545179418193e-05 -2.0169004075118216e-05 -3.2758777564093883e-05 -2.6222532577437833e-05 -2.2260170202303437e-05 -2.4522549864593236e-05 -2.7637033743659666e-06 -6.0505098306608308e-06 -6.2726306076797698e-06 -1.2036679523746335e-05 -1.4354794969715126e-05 -8.5396704655820883e-06 -9.7276695301958063e-06 -1.2998481850420404e-05 -1.3718409765957109e-05 -1.2253633437062303e-05 -4.6291344579307641e-06 -5.7795546912562111e-06 -2.7658445424534928e-06 7.1255632195764022e-07 -6.2127210369187981e-07 1.1158105144963717e-07 -5.7962027969922695e-06 -1.3590196327333116e-05 -1.1164745502980898e-05 -6.2042275891439251e-06 -1.2575106733895967e-05 -1.4879923208521682e-05 -9.8660962374422063e-06 -6.1394005090938835e-06 -5.9971251768014511e-06 -2.2152661180590525e-07 -6.5776055607521214e-06 -2.9709262409201854e-06 5.2703872477952915e-06 4.5592578257761451e-07 -3.1940069974406202e-05 -2.4573947570997562e-05 -3.7124774931888399e-05 -2.4542834024282796e-05 -1.8604745740262169e-05 -2.0193528685603052e-05 -2.0517197960441537e-05 -2.2642693186952315e-05 -1.5914119822750687e-05 -2.4378716316603285e-05 -1.8592188608805654e-05 -2.294975318731248e-05 -3.2982775412476311e-05 -3.1910288858997795e-05 -3.0242535811862258e-05 -4.1861607693424205e-05 -4.4082575081475905e-05 -3.1014661569859894e-05 -3.5691470108136725e-05 -4.9347364548310132e-05 -3.6341582057645527e-05 -3.6454249479698266e-05 -3.8091568129947057e-05 -5.5941904284745607e-05 -1.8906738353338578e-05 -1.6063386466647813e-05 -2.7808550995992588e-05 -2.6070385171506953e-05 -1.6840019079422363e-05 -3.1045891934568004e-05 -2.6951031758235805e-05 -2.354696374474725e-05 -1.6314034574644583e-05 -9.6686458592649948e-06 -9.052828797005981e-06 -6.4928942760946213e-06 -2.6970895169284443e-06 -1.6551219309709652e-05 4.0024279938897355e-06 3.7184518632308673e-07 6.0157236891846241e-07 1.0244881613474246e-05 6.1831796421020412e-06 4.1347680139713466e-06 1.2807386292616148e-05 1.6019000852561034e-05 -7.8481095423835699e-06 -1.1977131726491345e-05 1.0663011003721944e-06 -1.4040162102402378e-06 -4.2286178312175973e-06 -7.8207738601163309e-06 4.4109301668906076e-06 -6.327688441173598e-06 2.8819168519944333e-05 5.4049013442432792e-06 1.3507101601787467e-05 2.1535371455966914e-05 3.0627499193380917e-05 2.6999679560284011e-05 2.4959196242753997e-05 2.6956629708749097e-05 5.0175827256153242e-05 3.2180523516426966e-06 1.097581768706199e-05 1.2658567731014083e-05 -5.704973998731642e-06 -7.2390159118315342e-06 -1.876824666010557e-05 -2.5531856919468472e-05 -2.9530213069848491e-05 -3.751734359885915e-05 -5.4917410086103858e-05 -4.0204926267151776e-05 -3.8779557318747212e-05 -4.3470620316457125e-05 -3.4583084857754806e-05 -5.7212385412583393e-05 -4.1074313393686782e-05 -2.4678508268730282e-05 -1.5154299567552023e-05 -2.648886153670263e-05 4.356776677460747e-05 3.9205169518963498e-05 3.5521430917217789e-05 3.8867641786243642e-05 4.4407797776935974e-05 4.9089555670874443e-05 4.6235357730535631e-05 4.3966530477639984e-05 4.7412901372862661e-05 4.4370867192815059e-05 3.9383837593815431e-05 4.4369130802685681e-05 4.1422297437415048e-05 4.403941462966646e-05 5.0677357617069004e-05 8.9647586078344646e-05 4.5992455128918564e-05 6.1589162504117689e-05 4.200872040656682e-05 8.5657723454586111e-05 5.4329171134124898e-05 8.4265204527591146e-05 4.9739764427332265e-05 4.3828972815404188e-05 5.140258484807777e-05 3.20386672822555e-05 3.2997068793825694e-05 4.4822395058037728e-05 3.5962769414542786e-05 4.3335091525481209e-05 2.7462856901672014e-05 3.7844981905767258e-05 2.9470468126975132e-05 2.659572353618247e-05 2.116384545666573e-05 2.4280503622418279e-05 2.4928975509184271e-05 2.2076859878884273e-05 1.4346652009022014e-05 1.7571294819642862e-05 1.4578902689019765e-05 1.1193858619509948e-05 7.7327190675080261e-06 2.3095954068178364e-05 2.1913216046645335e-05 1.9196504317089226e-05 1.7283206005691764e-05 2.3705670457431883e-05 2.0725945417582812e-05 2.6766201612039361e-05 2.7073769279804473e-05 2.739208816075907e-05 2.9708822635287825e-05 2.6944040963782925e-05 3.6594903183240717e-05 3.1947593295881368e-05 3.2433384650622178e-05 3.8900713775228278e-05 3.1094963407764044e-05 5.0401987004464454e-05 3.6865223875246907e-05 4.3087538499317528e-05 3.4042944159070259e-05 4.0895862621529214e-05 4.0371900146974662e-05 3.2770947810653164e-05 3.284317129129057e-05 3.2679577529965694e-05 2.8049847041119627e-05 2.3191968911181232e-05 2.6441929327626287e-05 2.7806259909531239e-05 2.2434089293391046e-05 1.9457122725631653e-05 2.1694054208121948e-05 2.4593360140448964e-05 2.0890624194688678e-05 1.975004900214835e-05 1.7040969018697666e-05 2.156826173854156e-05 2.152823273294e-05 2.458390871619094e-05 2.3304368828942728e-05 2.3522695608318386e-05 8.1447857582255671e-06 1.0711478193155947e-05 6.533781999587843e-06 1.2771355471133794e-05 1.3821878443758681e-05 1.5430699736356592e-05 1.7123617921376792e-05 1.7966075019199956e-05 1.6281507270104593e-05 1.4528491259421676e-05 1.5678702081665132e-05 1.2913810935183519e-05 1.0718851740897458e-05 6.4625239253834178e-06 4.9976688069634476e-06 5.5357509535198748e-06 1.1204882133179542e-06 3.2787900736400763e-06 1.0591591714270335e-06 3.7737143219258448e-06 8.1416434736340623e-06 7.6974456886082704e-06 8.9262673211901071e-06 1.1340239286013648e-05 1.2800995837122372e-05 1.4826238319601343e-05 1.3672862560361001e-05 1.1205661498257246e-05 1.1653548269660844e-05 5.8534038444088718e-06 4.6479140876615429e-06 -2.4809645404122113e-07 2.1416826435037625e-05 2.1538830065158667e-05 1.9152837962050459e-05 1.8398396915033256e-05 1.6711498286306984e-05 1.8565206337257572e-05 1.7742900987241653e-05 1.6131589283086827e-05 2.1219887009800802e-05 1.9005281362483088e-05 2.2617859570212097e-05 1.9548422047269755e-05 2.0493018826727715e-05 2.3494162600633128e-05 2.1358913195207418e-05 2.6556376645266263e-05 2.0408185120334902e-05 2.3978572863908826e-05 2.3042328341736328e-05 2.3096074032774662e-05 2.1386639863027311e-05 2.4371498776665468e-05 2.181069757000087e-05 2.1370017353170604e-05 1.9089863241947887e-05 2.225556273928604e-05 2.1715481067875481e-05 2.6107997302689836e-05 2.5461105391756119e-05 2.0148882586107535e-05 2.1120710567694437e-05 2.1051011760691286e-05 1.5808839844722895e-05 1.3002110125061173e-05 9.8215110942938803e-06 3.2137835918002462e-06 7.4837277201452549e-06 1.0901560130266682e-05 1.5384702229380213e-05 7.1499971310178326e-06 1.3883471518017467e-05 1.766340574540373e-05 2.0606457299100346e-05 2.0537542544072463e-05 1.97338687098128e-05 2.5168087994208444e-05 1.4692175369792385e-05 1.095199668229797e-05 1.465741634547781e-05 1.7490802170867509e-05 7.5689445826573033e-06 1.4827486575637955e-05 1.9862275507360063e-05 1.9189435167225045e-05 2.9895033539793211e-05 2.2116534850455012e-05 2.2805842442470987e-05 2.5013854497653238e-05 2.3967063937380682e-05 2.9018937749714776e-05 3.7435247550893904e-05 3.2383926431519964e-05 3.50822804617886e-05 2.8105190195195723e-05 3.0261942918470822e-05 3.6211458330357888e-05 3.0393516907010066e-05 3.3130889269832755e-05 2.6714597855960927e-05 2.6347339962308593e-05 2.5781450830600187e-05 2.6831823274812155e-05 2.2774620179775189e-05 2.518267115299254e-05 2.2662288673384392e-05 2.3825452015830215e-05 2.2405494859844108e-05 2.5580209540595083e-05 2.6346517047884774e-05 -4.5160625252801026e-05 -3.1641492087089295e-05 -3.4760889165399783e-05 -2.778974157989504e-05 -2.6377684027218715e-05 -3.2183902822944225e-05 -3.5269015746083484e-05 -3.0104687035071631e-05 -2.7937922138048158e-05 -2.3978342763952726e-05 -2.5961535078501924e-05 -2.5941624576639524e-05 -2.4172832043207389e-05 -1.5326309801358678e-05 -2.3770609884133736e-05 -3.5708035920113046e-05 -1.3988542934723664e-05 -2.773870115614272e-05 -1.3626610012854823e-05 -1.234963958265983e-05 -1.4104997688026916e-05 -1.2128648985622061e-05 -1.5024362144856833e-05 -6.5101206220487859e-06 -6.9179003592084044e-06 -2.7804791117426455e-06 -4.246498772461351e-06 3.6396096973408865e-06 6.9227461222131432e-06 5.3123876436548254e-07 -2.2740715835491559e-06 -1.2762586207635064e-06 2.9651909759823524e-06 8.6675009125477825e-06 -2.2105282654448708e-06 8.8430513297051651e-06 3.877690338808053e-06 -2.8528494694017018e-06 9.5363774373199219e-06 -1.9455314833640118e-06 2.2264556673629494e-06 -1.583402921928626e-05 -1.43896865942707e-05 -1.4241782447916336e-05 -1.7160890909651233e-06 -1.1358694224599541e-05 -2.4338454441498802e-05 -2.0693250001534374e-05 -2.9357033793816111e-05 -2.2071259561105833e-05 -2.9078225185348455e-05 -1.3876175541111795e-05 -2.5975981556871916e-05 -4.626610032687751e-05 -4.6499094875619015e-05 -5.9496812202990852e-05 -4.2074872818598555e-05 -5.1692790248893889e-05 -3.1451887426186973e-05 -4.4573048167311206e-05 -3.1193694516554169e-05 -5.2531380878540081e-05 -8.1848429899940712e-05 -4.8448601737257062e-05 -4.5391065757818806e-05 -7.273009768142678e-05 -6.5778628344349336e-05 -4.3534093365323631e-05 -4.811947906527152e-05 -4.4173413147590424e-05 -2.3213300652561342e-05 -2.759072273853687e-05 -2.001060998155505e-05 -1.822493933821071e-05 -3.1504110275175142e-05 -1.7843609335979038e-05 8.9145771901651865e-06 2.2704830259454318e-05 2.0354977047430973e-05 -9.5368340707217483e-06 -7.9024868526559816e-07 -1.6724062450698351e-05 -7.8035148097218226e-06 -2.536490657021776e-06 1.0138360370245774e-05 1.8938129753223601e-06 1.2162219957110556e-05 2.640732659809619e-05 1.5239041812753439e-05 2.9473035239584004e-05 1.6154198439343636e-05 3.098118264619011e-05 4.7747052137691763e-05 2.7423806911081001e-05 4.6726131347004778e-05 5.2629305281308669e-05 8.7755037550910883e-05 8.1852333607289134e-05 4.9444547398495506e-05 4.1551672053893868e-05 9.1760697894909861e-05 0.00014681533093283128 0.00013875416674218012 0.000148662970333424 0.00010666062834463908 7.5986238378318279e-05 8.8162618827694979e-05 7.5327087005919944e-05 4.1158436053957389e-05 3.2961310265146228e-05 2.0768026193279427e-05 5.8251700958123361e-06 5.3785010518392459e-05 5.7816085871565857e-06 -2.5189181228365437e-05 -2.4998427512312098e-05 -4.3537760803503923e-06 -9.9017089850974633e-06 2.8099949550889052e-07 -2.5540499946466105e-05 -5.6471090974826842e-06 -2.4157347021792615e-05 -4.1208095266320158e-05 -4.0359395208777065e-05 -6.9619160536593552e-05 -5.1438557269740178e-05 -8.0468834800907725e-05 -5.7074739934677063e-05 -4.0358631250106639e-05 -5.6072055847227614e-05 5.6212883256840432e-05 6.5093937185922327e-05 6.9817187061863299e-05 6.2910802372455484e-05 5.6676061417971299e-05 4.8174269337830227e-05 4.2151265609869152e-05 5.1664133375674138e-05 3.7675291857455407e-05 4.1547422271656783e-05 3.1155867465544962e-05 4.080340480562108e-05 3.6173384073725319e-05 4.5740390151051744e-05 4.6414826070166264e-05 4.2091592183522882e-05 3.7596250619225131e-05 3.1736352662107005e-05 4.8170768589723449e-05 4.2629344925928986e-05 5.2524764940834227e-05 3.1416368904185789e-05 4.0338129631316937e-05 5.1347976242197089e-05 6.4895538934443467e-05 8.2724348078485092e-05 6.0050021207578658e-05 6.5475288296564904e-05 6.8934387080846991e-05 8.4704308577855604e-05 9.578963197958554e-05 0.00011899362901858688 0.00013160696135040598 0.00011771076216022456 0.00010516752561287989 0.0001137068873108912 0.00013822645048087111 0.00013390279499814379 0.00022216574766034146 0.00026781538576166732 0.00025489775831675116 0.0001787712351560877 0.00010475991424098507 0.0001381182093877675 0.00016540226490984307 0.00010391836791534369 0.00010786102049461358 0.00011057869027709846 8.0321912047105976e-05 9.7388454432761179e-05 6.6938504678299085e-05 7.8546883585662227e-05 6.1337050356442065e-05 8.3757698493903591e-05 5.1614213074039672e-05 6.1636761001970415e-05 7.4835398339145344e-05 5.9097625631397959e-05 5.4801940271817803e-05 7.9451134662721995e-05 5.9157360067670046e-05 5.1797623370840616e-05 6.678119782082802e-05 4.9128955006307929e-05 3.9966029512779322e-05 5.2533460466787448e-05 5.5944622504361852e-05 3.7090808663762782e-05 5.7689207220104177e-05 4.6999850467895532e-05 5.3930579299399243e-05 8.449903329623459e-05 7.4589176716787918e-05 7.3572119325579846e-05 7.9254719426826825e-05 0.00010510274318916304 0.00011328401321611812 0.00013005341613618439 0.00027729755120838571 4.5008493091504802e-05 0.00012070847673525576 0.00026076404831137598 0.00016097414381407434 0.01471955385955012 0.000220086311948876 0.000122799341791929 0.036073662908069931 4.0943105568444331e-05 0.00010916575827353922 0.050345197058904681 4.9121146349695064e-05 8.4463615644436371e-05 4.8181388869833312e-05 5.6822404121567582e-05 5.9168421248314835e-05 5.4360753101579621e-05 5.0615080965023615e-05 6.6603730410373933e-05 6.5280478624184745e-05 5.859550812249264e-05 8.3207492592460817e-05 9.9069615961712649e-05 0.00010228741940540229 0.06227007495214279 9.6853862523062131e-05 9.9328545160707899e-05 9.1852733233994477e-05 0.00010321676871330497 8.357942561635712e-05 0.07341218125050733 0.00010258591259366436 6.3731816403564574e-05 5.3614540475291209e-05 7.9379203207384161e-05 7.0451755130004011e-05 7.4124059730620851e-05 5.1751331608176573e-05 5.3621978006029034e-05 5.3591882076865118e-05 4.1135643589746253e-05 4.3562999461113563e-05 3.6962154647908536e-05 4.1200866148930924e-05 3.6677234782449763e-05 4.1680275463113237e-05 4.1958280685315086e-05 3.3323799210654395e-05 4.3144418942018452e-05 3.8107417350242323e-05 4.1256909436279511e-05 4.395039246599396e-05 4.9809714133891179e-05 -2.3907811975201038e-05 -2.8169801880563992e-05 -8.3702155456613463e-06 -4.8433502755681991e-05 -5.3552003282215108e-05 -2.6446743896917221e-05 -2.5407081627036533e-05 -4.4453271790471493e-06 1.0615827641002288e-05 3.1778426525989325e-05 4.7374658078101761e-06 1.6040857314370634e-05 -7.0449468818991647e-06 1.4538390264778314e-05 5.9513888215387278e-05 3.9314597821354415e-05 8.6220703195601762e-05 4.1556897438589473e-05 1.6131078438276448e-05 5.8790178176066645e-05 5.546889446720292e-05 0.00011265212880156997 0.00015922944597677308 0.00012077864215337167 0.00012137457073929726 7.6072642936319797e-05 8.791701628237602e-05 9.2963735357891927e-05 6.1719039180071524e-05 5.8218561915367607e-05 7.9390644549699567e-05 7.4926294472721713e-05 8.0089865833379587e-05 7.3110738360055791e-05 5.9274869920396245e-05 5.629711096802846e-05 3.9639290141416837e-05 4.0844994181578917e-05 3.6940750313774716e-05 1.9425714701073495e-05 4.1893811776527387e-05 4.6046550839354543e-05 2.7843054251399865e-05 2.572483996189103e-05 7.1106895062397063e-06 7.7179654985439286e-06 6.6038103052053036e-06 5.39127345401257e-06 2.0858810658344173e-05 1.8915786965146143e-05 1.1971082815448524e-05 5.7422058889517076e-06 2.0374343115909035e-06 -6.2706924219948015e-06 5.0323567283977726e-06 -1.4321116527386997e-06 -1.8031648680969458e-05 -1.1534387953763842e-05 -8.1219578264815802e-06 1.2309410545833108e-05 6.9825356778466935e-06 1.4182700606474915e-05 3.7001306444879936e-06 6.49984969206506e-06 -1.1293366092000358e-06 9.6675103069664842e-07 5.361030582986398e-06 1.1144032551309128e-05 1.3986459778146231e-05 1.8870157694250711e-05 2.4341124749912429e-05 2.3996277959650175e-05 1.4378317613277262e-05 2.2201173811868936e-05 4.0726761569587818e-05 4.7704121144424762e-05 5.5189242408039581e-05 2.6346914436176094e-05 2.3427451581478718e-05 3.7211984390962184e-05 3.6470521998255637e-05 4.9184013059658249e-05 4.1867585408211609e-05 6.7244996880102929e-05 6.7367371719616927e-05 5.6816852498732529e-05 7.366260093478647e-05 9.1482711863035034e-05 8.1278211191006689e-05 9.4047456308693836e-05 6.2325820628289155e-05 7.7809622537467946e-05 0.00010071567090571762 9.2106655958596254e-05 0.00010709644043176364 0.0001016507394740445 0.00012370728567911472 0.00013445430582378524 0.00010756111895806383 9.1151935457004646e-05 3.9937377940275735e-05 5.5790692501398679e-05 6.7395313146302767e-05 4.0352761659560085e-05 6.9749490685102819e-05 5.4818833935812213e-05 6.4944364636715726e-05 3.0352856298781865e-05 1.5182311571354523e-05 2.2649564580353408e-05 1.6497842189465602e-05 3.018573471964825e-05 2.9733516893577089e-05 1.7205558588506351e-05 2.3030578375979327e-05 1.9190719922999346e-05 1.454676428179133e-05 1.3321663791689316e-05 1.1239872189135712e-05 9.608472780967079e-06 1.2028765829572366e-05 9.6319272930908001e-06 1.2356594272955703e-05 6.7273284501930333e-06 5.2447309714403708e-05 7.6252995513542221e-05 7.183624365150504e-05 6.7157099437779497e-05 5.0576942474505331e-05 4.0091472264191423e-05 4.0767905310948099e-05 4.456991531813872e-05 3.6349517828155003e-05 3.6290989805466179e-05 4.9898479250353638e-05 4.8949295511887809e-05 5.0037670467120485e-05 6.5376512733273393e-05 6.2429330424329413e-05 7.8883424667550281e-05 9.4357793258329566e-05 0.00011018006549337372 8.7723130669145968e-05 0.00010056777998412782 0.00011741882292586481 0.00010152176449366757 0.08411090930027465 9.4736415716956297e-05 0.00011710612094219383 0.00011740361199314093 0.09473631267853154 0.00012083658357801017 0.00012631075370052292 0.10563480457046934 0.00012025811282537045 9.1983768399900474e-05 0.00012370014447211333 9.2830179721116804e-05 0.00010192226224372796 0.00011570226889769282 9.9335255311702102e-05 0.00013820478478439535 0.00014273334250965001 0.00012629763749300943 0.00014171064043790038 0.11690294609712512 0.00016074924977048898 0.00015254881773099353 0.00013850341083615752 0.0001534083003271831 0.13000905876176436 0.00017468446865437186 0.00016181545440688196 0.00010286344345009649 0.00015396446190717151 0.00017154887684016384 0.00015317779051901288 0.00011507459313067598 5.8739917006685736e-05 9.2617878685322336e-05 5.7918776025633737e-05 8.3518087150570271e-05 6.0997843419760165e-05 5.6774418519996974e-05 6.6935726689942117e-05 8.1825498205424937e-05 4.3066891713773483e-05 4.6611350493993419e-05 4.5979173370717876e-05 5.3421748372056344e-05 3.7337838727683468e-05 3.7246232637793255e-05 2.5882064585870689e-05 2.9705990243364183e-05 1.8262131732880472e-05 3.3226100550576895e-05 3.2907133936558339e-05 3.1911000576925985e-05 6.9262421522416312e-05 4.4366483342527259e-05 4.361786744744604e-05 6.7982328401774159e-05 5.083173420668746e-05 4.8203727280719236e-05 5.6293819188725437e-05 6.7510696967847486e-05 4.125215611375184e-05 4.5094737173717657e-05 3.6458054044189434e-05 4.1219224129649193e-05 3.7022706585178224e-05 4.1986924699301763e-05 3.9520374082890452e-05 3.8565516241353547e-05 4.5113649042971711e-05 4.4217174688376869e-05 5.6603361864410188e-05 6.4888569056587367e-05 4.7205838607263851e-05 3.9772895653326012e-05 4.8495443913242376e-05 5.5026172440981861e-05 4.1980369981885367e-05 3.269485582393396e-05 3.8699422300564028e-05 3.5082801729023096e-05 4.0607873543733882e-05 4.1645523350751257e-05 8.2153859430130968e-05 0.05623377289668971 8.3232321964257045e-05 7.7887629121824143e-05 6.8827587377611756e-05 5.299011817590284e-05 5.6219008829293943e-05 6.0752811960044411e-05 8.3862344141049294e-05 7.5897190065374147e-05 8.3233438503490809e-05 7.6331042203470331e-05 0.00010155806238706369 0.00011518013555259128 8.8675465191095579e-05 9.1149657953671368e-05 0.078705523714020981 9.7318520881736715e-05 9.471744540773654e-05 0.066894116470881115 0.0001144335669825006 0.091849871196044541 0.00013861871270268492 0.0001262110777684702 0.00011382379401268447 8.2539395637765662e-05 9.7826774160681492e-05 0.00011946590973244109 0.00010730063357691525 8.4298231094931289e-05 0.00013249316444649171 0.00015290232629371409 0.00012997339197905308 9.7023029804990638e-05 0.00013160621823286736 0.10699397015043796 0.00015784069706893059 0.00014055358240368807 0.00011352130635389933 8.6907656339485148e-05 8.4107580743544332e-05 0.00010281261124103568 6.9270440246364719e-05 3.8722932603334551e-05 3.2057460813634912e-05 5.1040902655780009e-05 5.6059603914637279e-05 3.8589525716659339e-05 2.9602800102158672e-05 4.6165381138303131e-05 7.6346832805185603e-05 8.7907116426148586e-05 7.048393867712451e-05 1.0405692664860154e-05 7.5874317866670565e-06 9.3416306887288871e-06 1.0987908266168502e-05 9.5257483304907013e-06 1.3282437999022345e-05 1.8793967588749596e-05 1.2000579832643563e-05 1.9260465606078617e-05 1.8697485673037947e-05 1.6101639108483719e-05 4.3996922508763691e-06 1.5801031683632355e-05 1.1547178422504408e-05 6.6403833440203497e-06 -1.0515925306036194e-06 6.1450930753099813e-06 -6.7404092217004507e-06 5.9330699878931518e-06 3.7645738604971668e-06 -5.2377358415071158e-06 3.8237950749827601e-06 1.4329042660997122e-05 1.1632135615256573e-05 1.5114378787657156e-05 2.8396938466512811e-06 3.7200954015066391e-06 1.355402601289175e-05 -1.3965211938459735e-06 -5.6287544219948537e-06 -9.7791403333912993e-06 -8.7357742697712938e-06 -1.7542039792636907e-05 -7.2293088322701766e-06 5.4960143017863993e-05 4.9336756392831917e-05 6.7466528686696385e-05 5.7746855566745067e-05 3.0714568481380504e-05 2.5024222365840594e-05 3.8556379234663558e-05 3.172144215706353e-05 2.5663054891431666e-05 1.9671816601514024e-05 2.1458339183225936e-05 4.6093496235727728e-05 4.1244446334615711e-05 6.7265113177569259e-05 5.5258474861725982e-05 5.8433069346449035e-05 4.4472019441850735e-05 4.5937799084852125e-05 4.9505612432151468e-05 3.1087573889692884e-05 3.8577509754761331e-05 2.9162020545375842e-05 1.4429698193093015e-05 1.0710799592105347e-05 2.8136423968110107e-05 1.6542354771932567e-05 2.3320668368955735e-05 8.5030856403908121e-06 1.2614283643905874e-05 4.0346004844854305e-05 4.5456954697033376e-05 4.5752718439862972e-05 2.5866406861137594e-05 3.9380067578903511e-05 -1.7835612126265374e-05 -2.4880457813969327e-05 -1.8675962769900729e-05 -2.4870928791164391e-05 -1.2697266976031659e-05 -1.8625293503320584e-06 -1.0129066988830929e-05 1.7784007496164569e-06 7.324690377951814e-07 -2.864901574105511e-06 -8.7018763668317208e-08 2.7110927376997572e-07 -8.0794797533050911e-06 -1.4052610849931259e-05 -1.4500153196205802e-05 -1.4114005397784617e-05 -2.6401715508745629e-05 -2.5296274352698772e-05 -3.2359658457976111e-05 -4.9487667672920392e-05 -3.9197552774054541e-05 -3.2520539412476458e-05 -2.492212323362982e-05 -2.0422245062389302e-05 -4.596717847478015e-06 -4.9263205631738111e-06 4.0159880336065445e-07 -1.4210024008759242e-05 -1.1649052554135926e-05 -2.055776104006342e-05 -2.1046894973671603e-05 -3.3185114193592653e-05 -3.0980388865386674e-05 -4.9127149349499557e-05 2.8534883425694314e-05 5.4447313739454774e-05 2.815418481959763e-05 2.17510416902684e-05 6.4853929748388437e-06 1.0952531057071256e-05 2.5221114404645989e-05 1.3672553844298494e-05 -8.6608231252452254e-06 -3.2877000156745877e-07 1.1641211611462679e-05 3.3135942138059923e-05 3.4886049916996891e-05 5.7782853640458081e-05 9.5104662222582844e-05 2.1396543160067023e-05 0.00011087891515763123 0.0084515412601025037 5.1351120209917368e-05 5.4577103631700975e-05 0.021090850260926358 7.2903035686730294e-05 0.029488467469302511 5.914277781430893e-05 5.2556494613655198e-05 2.8624430602620444e-05 2.750026077581692e-05 3.2487402293841322e-05 1.1943505920137751e-05 3.9336706757228456e-05 2.0842408318313407e-05 6.1976647217162301e-05 3.3967072687142121e-05 2.7965524217290501e-05 4.2598026843538651e-05 3.6741127357705659e-05 4.171645097367124e-05 5.0433306277502529e-05 5.0733856173087332e-05 4.3722778295812712e-05 3.754822861987264e-05 3.7567633370847727e-05 3.4312322215943806e-05 3.1844335107293533e-05 3.1601600674593749e-05 3.2394578197264957e-05 3.2372100457929269e-05 3.2135607832761042e-05 3.1917581159077106e-05 3.5119670184720559e-05 3.657349088128243e-05 3.5251683999485718e-05 3.5347563964062616e-05 3.3905940986275914e-05 3.4997052214271579e-05 3.4895884526135629e-05 3.0976015099723714e-05 3.1706445524760799e-05 3.7978068575320479e-05 4.1809264521250897e-05 3.9266161035396972e-05 3.4526409161123508e-05 3.7186922574208576e-05 4.260213197773081e-05 4.7508665887283823e-05 5.3971517697399478e-05 4.7411101180367819e-05 4.4321592920823711e-05 5.8068639010168659e-05 7.291771586149002e-05 0.046564904231743073 6.3348597840008879e-05 6.9291146831853504e-05 6.297228881607035e-05 6.8028817665700915e-05 4.7134778310525146e-05 0.03775982681202384 6.0549404508681778e-05 5.0257798877097887e-05 6.5413441486789786e-05 3.7552600382780325e-05 3.2808059566740241e-05 3.6734832824586222e-05 4.5005228557429527e-05 
</DataArray>
</CellData>
</Piece>
</UnstructuredGrid>
</VTKFile>
