<?xml version="1.0"?>
<VTKFile type="UnstructuredGrid" version="0.1" byte_order="LittleEndian">
<UnstructuredGrid>
<Piece NumberOfPoints="3142" NumberOfCells="1054">
<Points>
<DataArray type="Float64" NumberOfComponents="3" format="ascii">
0.02576622439977887 0.024532886826226379 0 0 0 0 0.049999999999899652 0 0 0.02576622439977887 0.024532886826226379 0 0 0 0 0 0.050000000000207989 0 0.02576622439977887 0.024532886826226379 0 0.049999999999899652 0 0 0.053064897599215843 0.048131547304697528 0 0.02576622439977887 0.024532886826226379 0 0.053064897599215843 0.048131547304697528 0 0 0.050000000000207989 0 0 0.050000000000207989 0 0 0.10000000000041601 0 0.044310582753132287 0.101412518374475 0 0 0.10000000000041601 0 0.044310582753132287 0.101412518374475 0 0 0.15000000000062411 0 0.053064897599215843 0.048131547304697528 0 0.044310582753132287 0.101412518374475 0 0.083411279318303222 0.089699755330707398 0 0.053064897599215843 0.048131547304697528 0 0 0.050000000000207989 0 0.044310582753132287 0.101412518374475 0 0.044310582753132287 0.101412518374475 0 0.083411279318303222 0.089699755330707398 0 0.065374659239632718 0.1448908038746782 0 0.083411279318303222 0.089699755330707398 0 0.065374659239632718 0.1448908038746782 0 0.1053400320299198 0.12877248826361379 0 0.083411279318303222 0.089699755330707398 0 0.12372429750337779 0.095814237875728972 0 0.1053400320299198 0.12877248826361379 0 0.12372429750337779 0.095814237875728972 0 0.1053400320299198 0.12877248826361379 0 0.14332333627550789 0.14578431753966009 0 0.12372429750337779 0.095814237875728972 0 0.10266856499169109 0.044518360900210059 0 0.14618258501891079 0.062070108745602003 0 0.083411279318303222 0.089699755330707398 0 0.12372429750337779 0.095814237875728972 0 0.10266856499169109 0.044518360900210059 0 0.10266856499169109 0.044518360900210059 0 0.099999999999814668 0 0 0.14999999999970359 0 0 0.049999999999899652 0 0 0.053064897599215843 0.048131547304697528 0 0.099999999999814668 0 0 0.053064897599215843 0.048131547304697528 0 0.10266856499169109 0.044518360900210059 0 0.099999999999814668 0 0 0.053064897599215843 0.048131547304697528 0 0.083411279318303222 0.089699755330707398 0 0.10266856499169109 0.044518360900210059 0 0.044081577119474857 0.2271058242433576 0 0 0.20000000000083221 0 0 0.25000000000104028 0 0.044081577119474857 0.2271058242433576 0 0 0.20000000000083221 0 0.038512288486115001 0.1844147282893184 0 0.044081577119474857 0.2271058242433576 0 0.038512288486115001 0.1844147282893184 0 0.083105206071467416 0.20007701332709979 0 0.038512288486115001 0.1844147282893184 0 0 0.15000000000062411 0 0.065374659239632718 0.1448908038746782 0 0.044310582753132287 0.101412518374475 0 0 0.15000000000062411 0 0.065374659239632718 0.1448908038746782 0 0.038512288486115001 0.1844147282893184 0 0.065374659239632718 0.1448908038746782 0 0.083105206071467416 0.20007701332709979 0 0 0.20000000000083221 0 0.038512288486115001 0.1844147282893184 0 0 0.15000000000062411 0 0.065374659239632718 0.1448908038746782 0 0.1053400320299198 0.12877248826361379 0 0.106902708054812 0.16453234188234539 0 0.1053400320299198 0.12877248826361379 0 0.106902708054812 0.16453234188234539 0 0.14332333627550789 0.14578431753966009 0 0.065374659239632718 0.1448908038746782 0 0.106902708054812 0.16453234188234539 0 0.083105206071467416 0.20007701332709979 0 0.083105206071467416 0.20007701332709979 0 0.095326043202144745 0.24554465089224409 0 0.13737030665753211 0.20313708640667491 0 0.106902708054812 0.16453234188234539 0 0.083105206071467416 0.20007701332709979 0 0.13737030665753211 0.20313708640667491 0 0.044081577119474857 0.2271058242433576 0 0.083105206071467416 0.20007701332709979 0 0.095326043202144745 0.24554465089224409 0 0.044081577119474857 0.2271058242433576 0 0.095326043202144745 0.24554465089224409 0 0.049706944316556423 0.27522722923869108 0 0.095326043202144745 0.24554465089224409 0 0.14377654328998779 0.2442024734791064 0 0.13737030665753211 0.20313708640667491 0 0.17933913398461551 0.2350063570234002 0 0.14377654328998779 0.2442024734791064 0 0.13737030665753211 0.20313708640667491 0 0.17933913398461551 0.2350063570234002 0 0.13737030665753211 0.20313708640667491 0 0.18124454140915969 0.18790916706335251 0 0.18124454140915969 0.18790916706335251 0 0.14332333627550789 0.14578431753966009 0 0.18652628422869419 0.14162325200928061 0 0.106902708054812 0.16453234188234539 0 0.13737030665753211 0.20313708640667491 0 0.14332333627550789 0.14578431753966009 0 0.13737030665753211 0.20313708640667491 0 0.18124454140915969 0.18790916706335251 0 0.14332333627550789 0.14578431753966009 0 0.14332333627550789 0.14578431753966009 0 0.18652628422869419 0.14162325200928061 0 0.16141998738593399 0.10404039647458049 0 0.18652628422869419 0.14162325200928061 0 0.22985637510995899 0.1298347970200906 0 0.2185883431182947 0.18019736283949719 0 0.22985637510995899 0.1298347970200906 0 0.2185883431182947 0.18019736283949719 0 0.25557216766470708 0.15874861286892261 0 0.2185883431182947 0.18019736283949719 0 0.25557216766470708 0.15874861286892261 0 0.26429849586623999 0.19346700179430079 0 0.18124454140915969 0.18790916706335251 0 0.18652628422869419 0.14162325200928061 0 0.2185883431182947 0.18019736283949719 0 0.17933913398461551 0.2350063570234002 0 0.18124454140915969 0.18790916706335251 0 0.224700362040408 0.22206622194729711 0 0.18124454140915969 0.18790916706335251 0 0.2185883431182947 0.18019736283949719 0 0.224700362040408 0.22206622194729711 0 0.2185883431182947 0.18019736283949719 0 0.224700362040408 0.22206622194729711 0 0.26429849586623999 0.19346700179430079 0 0.224700362040408 0.22206622194729711 0 0.25195515620380449 0.25883339815888678 0 0.21049769590865089 0.26857363548218488 0 0.17933913398461551 0.2350063570234002 0 0.224700362040408 0.22206622194729711 0 0.21049769590865089 0.26857363548218488 0 0.184418230509967 0.038773194583122873 0 0.14999999999970359 0 0 0.14618258501891079 0.062070108745602003 0 0.184418230509967 0.038773194583122873 0 0.14618258501891079 0.062070108745602003 0 0.19922788606653311 0.085920220746880993 0 0.184418230509967 0.038773194583122873 0 0.14999999999970359 0 0 0.19999999999955789 0 0 0.10266856499169109 0.044518360900210059 0 0.14999999999970359 0 0 0.14618258501891079 0.062070108745602003 0 0.12372429750337779 0.095814237875728972 0 0.14618258501891079 0.062070108745602003 0 0.16141998738593399 0.10404039647458049 0 0.12372429750337779 0.095814237875728972 0 0.14332333627550789 0.14578431753966009 0 0.16141998738593399 0.10404039647458049 0 0.18652628422869419 0.14162325200928061 0 0.16141998738593399 0.10404039647458049 0 0.19922788606653311 0.085920220746880993 0 0.14618258501891079 0.062070108745602003 0 0.16141998738593399 0.10404039647458049 0 0.19922788606653311 0.085920220746880993 0 0.18652628422869419 0.14162325200928061 0 0.22985637510995899 0.1298347970200906 0 0.19922788606653311 0.085920220746880993 0 0.22985637510995899 0.1298347970200906 0 0.19922788606653311 0.085920220746880993 0 0.24218496799700481 0.089025544070598317 0 0.22985637510995899 0.1298347970200906 0 0.24218496799700481 0.089025544070598317 0 0.27474541102162192 0.11822029332053539 0 0.19922788606653311 0.085920220746880993 0 0.24218496799700481 0.089025544070598317 0 0.22668068146512929 0.045875643423131329 0 0.24218496799700481 0.089025544070598317 0 0.22668068146512929 0.045875643423131329 0 0.27499999999933927 0.060310814194988557 0 0.184418230509967 0.038773194583122873 0 0.19922788606653311 0.085920220746880993 0 0.22668068146512929 0.045875643423131329 0 0.184418230509967 0.038773194583122873 0 0.22668068146512929 0.045875643423131329 0 0.19999999999955789 0 0 0.22668068146512929 0.045875643423131329 0 0.19999999999955789 0 0 0.24999999999941211 0 0 0.24999999999941211 0 0 0.27499999999933927 0.060310814194988557 0 0.29999999999926641 0 0 0.22668068146512929 0.045875643423131329 0 0.24999999999941211 0 0 0.27499999999933927 0.060310814194988557 0 0.27499999999933927 0.060310814194988557 0 0.29999999999926641 0 0 0.32541448401678508 0.046215317981507749 0 0.29999999999926641 0 0 0.32541448401678508 0.046215317981507749 0 0.34999999999912063 0 0 0.32541448401678508 0.046215317981507749 0 0.3615861437013822 0.03582617922508851 0 0.35312867752657662 0.084946736076730367 0 0.3615861437013822 0.03582617922508851 0 0.35312867752657662 0.084946736076730367 0 0.39591832466117061 0.056982757562006353 0 0.32541448401678508 0.046215317981507749 0 0.3615861437013822 0.03582617922508851 0 0.34999999999912063 0 0 0.3615861437013822 0.03582617922508851 0 0.34999999999912063 0 0 0.3999999999989749 0 0 0.35312867752657662 0.084946736076730367 0 0.36246644853392812 0.1399454205365751 0 0.39823268594401579 0.1116623613130045 0 0.35312867752657662 0.084946736076730367 0 0.32215584939770009 0.1218492143506909 0 0.36246644853392812 0.1399454205365751 0 0.32541448401678508 0.046215317981507749 0 0.35312867752657662 0.084946736076730367 0 0.3096713403101819 0.085471541595262421 0 0.35312867752657662 0.084946736076730367 0 0.32215584939770009 0.1218492143506909 0 0.3096713403101819 0.085471541595262421 0 0.32215584939770009 0.1218492143506909 0 0.3096713403101819 0.085471541595262421 0 0.27474541102162192 0.11822029332053539 0 0.27499999999933927 0.060310814194988557 0 0.32541448401678508 0.046215317981507749 0 0.3096713403101819 0.085471541595262421 0 0.27499999999933927 0.060310814194988557 0 0.3096713403101819 0.085471541595262421 0 0.27474541102162192 0.11822029332053539 0 0.24218496799700481 0.089025544070598317 0 0.27499999999933927 0.060310814194988557 0 0.27474541102162192 0.11822029332053539 0 0.22985637510995899 0.1298347970200906 0 0.27474541102162192 0.11822029332053539 0 0.25557216766470708 0.15874861286892261 0 0.27474541102162192 0.11822029332053539 0 0.25557216766470708 0.15874861286892261 0 0.29336099386129338 0.15892013001050981 0 0.25557216766470708 0.15874861286892261 0 0.29336099386129338 0.15892013001050981 0 0.26429849586623999 0.19346700179430079 0 0.29336099386129338 0.15892013001050981 0 0.31255190597181792 0.19850845631528771 0 0.33084213324567391 0.16272720141332131 0 0.29336099386129338 0.15892013001050981 0 0.26429849586623999 0.19346700179430079 0 0.31255190597181792 0.19850845631528771 0 0.32215584939770009 0.1218492143506909 0 0.27474541102162192 0.11822029332053539 0 0.29336099386129338 0.15892013001050981 0 0.224700362040408 0.22206622194729711 0 0.28040350263641872 0.23054717217092141 0 0.25195515620380449 0.25883339815888678 0 0.224700362040408 0.22206622194729711 0 0.28040350263641872 0.23054717217092141 0 0.26429849586623999 0.19346700179430079 0 0.28040350263641872 0.23054717217092141 0 0.26429849586623999 0.19346700179430079 0 0.31255190597181792 0.19850845631528771 0 0.28040350263641872 0.23054717217092141 0 0.33758650185219202 0.23837101504325639 0 0.29132859388405002 0.27203693976649962 0 0.28040350263641872 0.23054717217092141 0 0.33758650185219202 0.23837101504325639 0 0.31255190597181792 0.19850845631528771 0 0.33758650185219202 0.23837101504325639 0 0.31255190597181792 0.19850845631528771 0 0.3572130504031617 0.1874703368446563 0 0.33758650185219202 0.23837101504325639 0 0.3572130504031617 0.1874703368446563 0 0.38831533174504851 0.2189834941785925 0 0.33758650185219202 0.23837101504325639 0 0.38831533174504851 0.2189834941785925 0 0.3786248352540974 0.27082301512024259 0 0.32215584939770009 0.1218492143506909 0 0.29336099386129338 0.15892013001050981 0 0.33084213324567391 0.16272720141332131 0 0.32215584939770009 0.1218492143506909 0 0.33084213324567391 0.16272720141332131 0 0.36246644853392812 0.1399454205365751 0 0.31255190597181792 0.19850845631528771 0 0.33084213324567391 0.16272720141332131 0 0.3572130504031617 0.1874703368446563 0 0.3572130504031617 0.1874703368446563 0 0.36246644853392812 0.1399454205365751 0 0.39801143831225599 0.16651381068160659 0 0.33084213324567391 0.16272720141332131 0 0.3572130504031617 0.1874703368446563 0 0.36246644853392812 0.1399454205365751 0 0.36246644853392812 0.1399454205365751 0 0.39801143831225599 0.16651381068160659 0 0.39823268594401579 0.1116623613130045 0 0.39801143831225599 0.16651381068160659 0 0.42905200079338551 0.19982395548231649 0 0.44288491854585582 0.14116182884956319 0 0.39801143831225599 0.16651381068160659 0 0.44288491854585582 0.14116182884956319 0 0.39823268594401579 0.1116623613130045 0 0.38831533174504851 0.2189834941785925 0 0.42377727103934271 0.25099357235810238 0 0.3786248352540974 0.27082301512024259 0 0.3572130504031617 0.1874703368446563 0 0.39801143831225599 0.16651381068160659 0 0.38831533174504851 0.2189834941785925 0 0.39801143831225599 0.16651381068160659 0 0.38831533174504851 0.2189834941785925 0 0.42905200079338551 0.19982395548231649 0 0.38831533174504851 0.2189834941785925 0 0.42905200079338551 0.19982395548231649 0 0.42377727103934271 0.25099357235810238 0 0.42905200079338551 0.19982395548231649 0 0.46429753744194407 0.22870891180733599 0 0.42377727103934271 0.25099357235810238 0 0.42905200079338551 0.19982395548231649 0 0.46429753744194407 0.22870891180733599 0 0.47357141910802508 0.1873585799078378 0 0.47357141910802508 0.1873585799078378 0 0.51729576145820033 0.1683240575987815 0 0.50760557329222289 0.20700468884612061 0 0.46429753744194407 0.22870891180733599 0 0.47357141910802508 0.1873585799078378 0 0.50760557329222289 0.20700468884612061 0 0.46429753744194407 0.22870891180733599 0 0.49695729691142171 0.25014895411178018 0 0.50760557329222289 0.20700468884612061 0 0.44288491854585582 0.14116182884956319 0 0.47357141910802508 0.1873585799078378 0 0.48466639505193998 0.1421439844745814 0 0.42905200079338551 0.19982395548231649 0 0.44288491854585582 0.14116182884956319 0 0.47357141910802508 0.1873585799078378 0 0.47357141910802508 0.1873585799078378 0 0.48466639505193998 0.1421439844745814 0 0.51729576145820033 0.1683240575987815 0 0.44288491854585582 0.14116182884956319 0 0.48466639505193998 0.1421439844745814 0 0.47881186583059909 0.093591717165689425 0 0.48466639505193998 0.1421439844745814 0 0.47881186583059909 0.093591717165689425 0 0.51076801031701946 0.1202837388510348 0 0.44288491854585582 0.14116182884956319 0 0.47881186583059909 0.093591717165689425 0 0.43698630808430822 0.080423614171545449 0 0.47881186583059909 0.093591717165689425 0 0.47040171442036788 0.044141676406503738 0 0.43698630808430822 0.080423614171545449 0 0.47881186583059909 0.093591717165689425 0 0.47040171442036788 0.044141676406503738 0 0.52375890611712683 0.059318771819432882 0 0.47040171442036788 0.044141676406503738 0 0.49999999999869432 0 0 0.52375890611712683 0.059318771819432882 0 0.47040171442036788 0.044141676406503738 0 0.49999999999869432 0 0 0.44999999999882923 0 0 0.47040171442036788 0.044141676406503738 0 0.44999999999882923 0 0 0.4320097814748517 0.037406712692169303 0 0.47040171442036788 0.044141676406503738 0 0.4320097814748517 0.037406712692169303 0 0.43698630808430822 0.080423614171545449 0 0.4320097814748517 0.037406712692169303 0 0.3999999999989749 0 0 0.39591832466117061 0.056982757562006353 0 0.4320097814748517 0.037406712692169303 0 0.39591832466117061 0.056982757562006353 0 0.43698630808430822 0.080423614171545449 0 0.44999999999882923 0 0 0.4320097814748517 0.037406712692169303 0 0.3999999999989749 0 0 0.3615861437013822 0.03582617922508851 0 0.3999999999989749 0 0 0.39591832466117061 0.056982757562006353 0 0.35312867752657662 0.084946736076730367 0 0.39591832466117061 0.056982757562006353 0 0.39823268594401579 0.1116623613130045 0 0.44288491854585582 0.14116182884956319 0 0.39823268594401579 0.1116623613130045 0 0.43698630808430822 0.080423614171545449 0 0.39591832466117061 0.056982757562006353 0 0.39823268594401579 0.1116623613130045 0 0.43698630808430822 0.080423614171545449 0 0.42161023666869668 0.39493916313643851 0 0.38707855792647411 0.42299362914874578 0 0.43249999999999988 0.43937499999999979 0 0.42161023666869668 0.39493916313643851 0 0.38083244760691543 0.38531983672244652 0 0.38707855792647411 0.42299362914874578 0 0.42161023666869668 0.39493916313643851 0 0.38083244760691543 0.38531983672244652 0 0.40076539126862748 0.34589349467022118 0 0.38707855792647411 0.42299362914874578 0 0.3908716102680424 0.47010282357248828 0 0.43249999999999988 0.43937499999999979 0 0.3908716102680424 0.47010282357248828 0 0.43507373378304309 0.49699695397193322 0 0.38244435121258652 0.51653317813019495 0 0.3908716102680424 0.47010282357248828 0 0.43507373378304309 0.49699695397193322 0 0.43249999999999988 0.43937499999999979 0 0.43507373378304309 0.49699695397193322 0 0.43249999999999988 0.43937499999999979 0 0.46111841286828259 0.46690301029591341 0 0.43249999999999988 0.43937499999999979 0 0.46111841286828259 0.46690301029591341 0 0.48858720058566618 0.43964267759203868 0 0.43507373378304309 0.49699695397193322 0 0.46111841286828259 0.46690301029591341 0 0.49102375406324739 0.49123754822244059 0 0.46111841286828259 0.46690301029591341 0 0.49102375406324739 0.49123754822244059 0 0.48858720058566618 0.43964267759203868 0 0.48858720058566618 0.43964267759203868 0 0.46655310992796922 0.39650496622958609 0 0.52289427570932567 0.3932284363388488 0 0.43249999999999988 0.43937499999999979 0 0.48858720058566618 0.43964267759203868 0 0.46655310992796922 0.39650496622958609 0 0.42161023666869668 0.39493916313643851 0 0.43249999999999988 0.43937499999999979 0 0.46655310992796922 0.39650496622958609 0 0.42161023666869668 0.39493916313643851 0 0.46655310992796922 0.39650496622958609 0 0.4409427642593301 0.35743108089689513 0 0.46655310992796922 0.39650496622958609 0 0.49077833859261139 0.35229981449445641 0 0.52289427570932567 0.3932284363388488 0 0.49077833859261139 0.35229981449445641 0 0.46226845272279993 0.31901800744800313 0 0.5 0.29999999999999999 0 0.49077833859261139 0.35229981449445641 0 0.46226845272279993 0.31901800744800313 0 0.4409427642593301 0.35743108089689513 0 0.46226845272279993 0.31901800744800313 0 0.4409427642593301 0.35743108089689513 0 0.41914690343363781 0.30688979866601612 0 0.46655310992796922 0.39650496622958609 0 0.49077833859261139 0.35229981449445641 0 0.4409427642593301 0.35743108089689513 0 0.49695729691142171 0.25014895411178018 0 0.4604742573284204 0.27846934318264788 0 0.5 0.29999999999999999 0 0.46429753744194407 0.22870891180733599 0 0.49695729691142171 0.25014895411178018 0 0.4604742573284204 0.27846934318264788 0 0.46226845272279993 0.31901800744800313 0 0.4604742573284204 0.27846934318264788 0 0.5 0.29999999999999999 0 0.46226845272279993 0.31901800744800313 0 0.4604742573284204 0.27846934318264788 0 0.41914690343363781 0.30688979866601612 0 0.46429753744194407 0.22870891180733599 0 0.4604742573284204 0.27846934318264788 0 0.42377727103934271 0.25099357235810238 0 0.4604742573284204 0.27846934318264788 0 0.42377727103934271 0.25099357235810238 0 0.41914690343363781 0.30688979866601612 0 0.42377727103934271 0.25099357235810238 0 0.41914690343363781 0.30688979866601612 0 0.3786248352540974 0.27082301512024259 0 0.41914690343363781 0.30688979866601612 0 0.3786248352540974 0.27082301512024259 0 0.36575549820117997 0.31677992835137742 0 0.42161023666869668 0.39493916313643851 0 0.4409427642593301 0.35743108089689513 0 0.40076539126862748 0.34589349467022118 0 0.4409427642593301 0.35743108089689513 0 0.41914690343363781 0.30688979866601612 0 0.40076539126862748 0.34589349467022118 0 0.41914690343363781 0.30688979866601612 0 0.40076539126862748 0.34589349467022118 0 0.36575549820117997 0.31677992835137742 0 0.40076539126862748 0.34589349467022118 0 0.36575549820117997 0.31677992835137742 0 0.33277555741076909 0.36432196682010132 0 0.38083244760691543 0.38531983672244652 0 0.40076539126862748 0.34589349467022118 0 0.33277555741076909 0.36432196682010132 0 0.36575549820117997 0.31677992835137742 0 0.32752639306529541 0.32610012995269699 0 0.33277555741076909 0.36432196682010132 0 0.32752639306529541 0.32610012995269699 0 0.33277555741076909 0.36432196682010132 0 0.29644548887253103 0.34914008784168082 0 0.33758650185219202 0.23837101504325639 0 0.3786248352540974 0.27082301512024259 0 0.33402499257867951 0.28911035184473982 0 0.3786248352540974 0.27082301512024259 0 0.36575549820117997 0.31677992835137742 0 0.33402499257867951 0.28911035184473982 0 0.36575549820117997 0.31677992835137742 0 0.32752639306529541 0.32610012995269699 0 0.33402499257867951 0.28911035184473982 0 0.32752639306529541 0.32610012995269699 0 0.33402499257867951 0.28911035184473982 0 0.29348325746214782 0.31350119524708198 0 0.33758650185219202 0.23837101504325639 0 0.33402499257867951 0.28911035184473982 0 0.29132859388405002 0.27203693976649962 0 0.33402499257867951 0.28911035184473982 0 0.29132859388405002 0.27203693976649962 0 0.29348325746214782 0.31350119524708198 0 0.29132859388405002 0.27203693976649962 0 0.29348325746214782 0.31350119524708198 0 0.24432083401701241 0.3006253385567515 0 0.29132859388405002 0.27203693976649962 0 0.25195515620380449 0.25883339815888678 0 0.24432083401701241 0.3006253385567515 0 0.28040350263641872 0.23054717217092141 0 0.29132859388405002 0.27203693976649962 0 0.25195515620380449 0.25883339815888678 0 0.33277555741076909 0.36432196682010132 0 0.29644548887253103 0.34914008784168082 0 0.27866744612395528 0.38416094670951489 0 0.32752639306529541 0.32610012995269699 0 0.29644548887253103 0.34914008784168082 0 0.29348325746214782 0.31350119524708198 0 0.29644548887253103 0.34914008784168082 0 0.29348325746214782 0.31350119524708198 0 0.25966125648670141 0.34351016742083729 0 0.29348325746214782 0.31350119524708198 0 0.25966125648670141 0.34351016742083729 0 0.24432083401701241 0.3006253385567515 0 0.29644548887253103 0.34914008784168082 0 0.25966125648670141 0.34351016742083729 0 0.27866744612395528 0.38416094670951489 0 0.25966125648670141 0.34351016742083729 0 0.27866744612395528 0.38416094670951489 0 0.22033343844674469 0.36963382230740238 0 0.27866744612395528 0.38416094670951489 0 0.29124338931648802 0.43334555462578611 0 0.24049127783545701 0.41270748208749802 0 0.29124338931648802 0.43334555462578611 0 0.25982634974572738 0.46097799597715272 0 0.24049127783545701 0.41270748208749802 0 0.27866744612395528 0.38416094670951489 0 0.29124338931648802 0.43334555462578611 0 0.31778888742534622 0.40581751814196781 0 0.33277555741076909 0.36432196682010132 0 0.27866744612395528 0.38416094670951489 0 0.31778888742534622 0.40581751814196781 0 0.33277555741076909 0.36432196682010132 0 0.31778888742534622 0.40581751814196781 0 0.35221190152536241 0.40457127605439203 0 0.31778888742534622 0.40581751814196781 0 0.35221190152536241 0.40457127605439203 0 0.34258405725730701 0.4444034294386992 0 0.29124338931648802 0.43334555462578611 0 0.31778888742534622 0.40581751814196781 0 0.34258405725730701 0.4444034294386992 0 0.38707855792647411 0.42299362914874578 0 0.35221190152536241 0.40457127605439203 0 0.34258405725730701 0.4444034294386992 0 0.38083244760691543 0.38531983672244652 0 0.38707855792647411 0.42299362914874578 0 0.35221190152536241 0.40457127605439203 0 0.38083244760691543 0.38531983672244652 0 0.33277555741076909 0.36432196682010132 0 0.35221190152536241 0.40457127605439203 0 0.3908716102680424 0.47010282357248828 0 0.35024835142131061 0.48654922671676981 0 0.38244435121258652 0.51653317813019495 0 0.3908716102680424 0.47010282357248828 0 0.35024835142131061 0.48654922671676981 0 0.34258405725730701 0.4444034294386992 0 0.38707855792647411 0.42299362914874578 0 0.3908716102680424 0.47010282357248828 0 0.34258405725730701 0.4444034294386992 0 0.29124338931648802 0.43334555462578611 0 0.34258405725730701 0.4444034294386992 0 0.31068898841644388 0.47541502461811092 0 0.35024835142131061 0.48654922671676981 0 0.31068898841644388 0.47541502461811092 0 0.33190227185843768 0.52715113583864037 0 0.35024835142131061 0.48654922671676981 0 0.34258405725730701 0.4444034294386992 0 0.31068898841644388 0.47541502461811092 0 0.31068898841644388 0.47541502461811092 0 0.25982634974572738 0.46097799597715272 0 0.28307294598219601 0.50789252727458634 0 0.29124338931648802 0.43334555462578611 0 0.31068898841644388 0.47541502461811092 0 0.25982634974572738 0.46097799597715272 0 0.25982634974572738 0.46097799597715272 0 0.23975172658309729 0.49475499200540818 0 0.28307294598219601 0.50789252727458634 0 0.23975172658309729 0.49475499200540818 0 0.19604738184454831 0.47787523520405789 0 0.22278230690790279 0.44824268025881547 0 0.19604738184454831 0.47787523520405789 0 0.22278230690790279 0.44824268025881547 0 0.191953871957803 0.42546416763755879 0 0.25982634974572738 0.46097799597715272 0 0.22278230690790279 0.44824268025881547 0 0.24049127783545701 0.41270748208749802 0 0.25982634974572738 0.46097799597715272 0 0.23975172658309729 0.49475499200540818 0 0.22278230690790279 0.44824268025881547 0 0.27866744612395528 0.38416094670951489 0 0.24049127783545701 0.41270748208749802 0 0.22033343844674469 0.36963382230740238 0 0.191953871957803 0.42546416763755879 0 0.1650278706801647 0.38791388161335733 0 0.22033343844674469 0.36963382230740238 0 0.24049127783545701 0.41270748208749802 0 0.191953871957803 0.42546416763755879 0 0.22033343844674469 0.36963382230740238 0 0.22278230690790279 0.44824268025881547 0 0.24049127783545701 0.41270748208749802 0 0.191953871957803 0.42546416763755879 0 0.191953871957803 0.42546416763755879 0 0.13773355295499351 0.42497777642586831 0 0.15801167086041079 0.46008690540259539 0 0.191953871957803 0.42546416763755879 0 0.1650278706801647 0.38791388161335733 0 0.13773355295499351 0.42497777642586831 0 0.1650278706801647 0.38791388161335733 0 0.13773355295499351 0.42497777642586831 0 0.1117088112799664 0.38831403004970022 0 0.13773355295499351 0.42497777642586831 0 0.15801167086041079 0.46008690540259539 0 0.113541300460994 0.46208784312094731 0 0.15801167086041079 0.46008690540259539 0 0.113541300460994 0.46208784312094731 0 0.1216098864341134 0.50637075089503902 0 0.15801167086041079 0.46008690540259539 0 0.1216098864341134 0.50637075089503902 0 0.16618607197337229 0.50652878253548905 0 0.19604738184454831 0.47787523520405789 0 0.15801167086041079 0.46008690540259539 0 0.16618607197337229 0.50652878253548905 0 0.19604738184454831 0.47787523520405789 0 0.191953871957803 0.42546416763755879 0 0.15801167086041079 0.46008690540259539 0 0.25195515620380449 0.25883339815888678 0 0.21049769590865089 0.26857363548218488 0 0.24432083401701241 0.3006253385567515 0 0.21049769590865089 0.26857363548218488 0 0.24432083401701241 0.3006253385567515 0 0.19670163708476801 0.31472518408333222 0 0.21049769590865089 0.26857363548218488 0 0.19670163708476801 0.31472518408333222 0 0.168349569971391 0.28054490850913671 0 0.19670163708476801 0.31472518408333222 0 0.22615676742807109 0.33458786033114157 0 0.18434624290945251 0.35208838264196463 0 0.24432083401701241 0.3006253385567515 0 0.19670163708476801 0.31472518408333222 0 0.22615676742807109 0.33458786033114157 0 0.25966125648670141 0.34351016742083729 0 0.24432083401701241 0.3006253385567515 0 0.22615676742807109 0.33458786033114157 0 0.25966125648670141 0.34351016742083729 0 0.22615676742807109 0.33458786033114157 0 0.22033343844674469 0.36963382230740238 0 0.22615676742807109 0.33458786033114157 0 0.22033343844674469 0.36963382230740238 0 0.18434624290945251 0.35208838264196463 0 0.1650278706801647 0.38791388161335733 0 0.22033343844674469 0.36963382230740238 0 0.18434624290945251 0.35208838264196463 0 0.1650278706801647 0.38791388161335733 0 0.18434624290945251 0.35208838264196463 0 0.14223753364722069 0.3341983344262433 0 0.1650278706801647 0.38791388161335733 0 0.14223753364722069 0.3341983344262433 0 0.1117088112799664 0.38831403004970022 0 0.19670163708476801 0.31472518408333222 0 0.18434624290945251 0.35208838264196463 0 0.14223753364722069 0.3341983344262433 0 0.19670163708476801 0.31472518408333222 0 0.14223753364722069 0.3341983344262433 0 0.168349569971391 0.28054490850913671 0 0.14223753364722069 0.3341983344262433 0 0.168349569971391 0.28054490850913671 0 0.1247745017231483 0.27198077544791172 0 0.14377654328998779 0.2442024734791064 0 0.168349569971391 0.28054490850913671 0 0.1247745017231483 0.27198077544791172 0 0.17933913398461551 0.2350063570234002 0 0.21049769590865089 0.26857363548218488 0 0.168349569971391 0.28054490850913671 0 0.17933913398461551 0.2350063570234002 0 0.14377654328998779 0.2442024734791064 0 0.168349569971391 0.28054490850913671 0 0.095326043202144745 0.24554465089224409 0 0.093851963071650835 0.30582068233324772 0 0.049706944316556423 0.27522722923869108 0 0.095326043202144745 0.24554465089224409 0 0.14377654328998779 0.2442024734791064 0 0.1247745017231483 0.27198077544791172 0 0.095326043202144745 0.24554465089224409 0 0.1247745017231483 0.27198077544791172 0 0.093851963071650835 0.30582068233324772 0 0.14223753364722069 0.3341983344262433 0 0.1247745017231483 0.27198077544791172 0 0.093851963071650835 0.30582068233324772 0 0.093851963071650835 0.30582068233324772 0 0.046389130980076937 0.32668781832131749 0 0.049706944316556423 0.27522722923869108 0 0.093851963071650835 0.30582068233324772 0 0.087545339447545459 0.35122518864182262 0 0.046389130980076937 0.32668781832131749 0 0.14223753364722069 0.3341983344262433 0 0.093851963071650835 0.30582068233324772 0 0.087545339447545459 0.35122518864182262 0 0.14223753364722069 0.3341983344262433 0 0.087545339447545459 0.35122518864182262 0 0.1117088112799664 0.38831403004970022 0 0.087545339447545459 0.35122518864182262 0 0.1117088112799664 0.38831403004970022 0 0.050583896093752537 0.38543522283434112 0 0.087545339447545459 0.35122518864182262 0 0.046389130980076937 0.32668781832131749 0 0.050583896093752537 0.38543522283434112 0 0 0.35000000000145642 0 0.046389130980076937 0.32668781832131749 0 0.050583896093752537 0.38543522283434112 0 0 0.35000000000145642 0 0.046389130980076937 0.32668781832131749 0 0 0.30000000000124832 0 0.046389130980076937 0.32668781832131749 0 0 0.30000000000124832 0 0.049706944316556423 0.27522722923869108 0 0 0.30000000000124832 0 0 0.25000000000104028 0 0.049706944316556423 0.27522722923869108 0 0.044081577119474857 0.2271058242433576 0 0 0.25000000000104028 0 0.049706944316556423 0.27522722923869108 0 0.068743045408989428 0.48853989837882689 0 0.113541300460994 0.46208784312094731 0 0.078358742472063481 0.43365249433908948 0 0.068743045408989428 0.48853989837882689 0 0.113541300460994 0.46208784312094731 0 0.1216098864341134 0.50637075089503902 0 0.13773355295499351 0.42497777642586831 0 0.113541300460994 0.46208784312094731 0 0.078358742472063481 0.43365249433908948 0 0.13773355295499351 0.42497777642586831 0 0.1117088112799664 0.38831403004970022 0 0.078358742472063481 0.43365249433908948 0 0.1117088112799664 0.38831403004970022 0 0.078358742472063481 0.43365249433908948 0 0.050583896093752537 0.38543522283434112 0 0.078358742472063481 0.43365249433908948 0 0.035463093262830522 0.42673416072819947 0 0.050583896093752537 0.38543522283434112 0 0 0.35000000000145642 0 0.050583896093752537 0.38543522283434112 0 0 0.40000000000166441 0 0.035463093262830522 0.42673416072819947 0 0.050583896093752537 0.38543522283434112 0 0 0.40000000000166441 0 0.035463093262830522 0.42673416072819947 0 0 0.40000000000166441 0 0 0.45000000000187229 0 0.035463093262830522 0.42673416072819947 0 0 0.45000000000187229 0 0.033550201249889847 0.46247875832467239 0 0.068743045408989428 0.48853989837882689 0 0.033550201249889847 0.46247875832467239 0 0 0.50000000000205869 0 0.068743045408989428 0.48853989837882689 0 0.078358742472063481 0.43365249433908948 0 0.033550201249889847 0.46247875832467239 0 0.078358742472063481 0.43365249433908948 0 0.035463093262830522 0.42673416072819947 0 0.033550201249889847 0.46247875832467239 0 0 0.45000000000187229 0 0.033550201249889847 0.46247875832467239 0 0 0.50000000000205869 0 0.068743045408989428 0.48853989837882689 0 0 0.50000000000205869 0 0.044576108720083309 0.53509043209532614 0 0 0.50000000000205869 0 0 0.55000000000173355 0 0.044576108720083309 0.53509043209532614 0 0 0.55000000000173355 0 0.044576108720083309 0.53509043209532614 0 0.034381862692950467 0.57372682250960894 0 0.044576108720083309 0.53509043209532614 0 0.077693244765132896 0.56932317963405099 0 0.034381862692950467 0.57372682250960894 0 0.068743045408989428 0.48853989837882689 0 0.044576108720083309 0.53509043209532614 0 0.085622222639554768 0.53333248912060549 0 0.068743045408989428 0.48853989837882689 0 0.085622222639554768 0.53333248912060549 0 0.1216098864341134 0.50637075089503902 0 0.044576108720083309 0.53509043209532614 0 0.085622222639554768 0.53333248912060549 0 0.077693244765132896 0.56932317963405099 0 0.085622222639554768 0.53333248912060549 0 0.1154888278694548 0.56733818459978413 0 0.077693244765132896 0.56932317963405099 0 0.085622222639554768 0.53333248912060549 0 0.1216098864341134 0.50637075089503902 0 0.1154888278694548 0.56733818459978413 0 0.1024350934457823 0.60772393977513839 0 0.1154888278694548 0.56733818459978413 0 0.077693244765132896 0.56932317963405099 0 0.1024350934457823 0.60772393977513839 0 0.050069554451969707 0.61308520079857043 0 0.086179601630648681 0.64647209519980475 0 0.1024350934457823 0.60772393977513839 0 0.077693244765132896 0.56932317963405099 0 0.050069554451969707 0.61308520079857043 0 0.077693244765132896 0.56932317963405099 0 0.050069554451969707 0.61308520079857043 0 0.034381862692950467 0.57372682250960894 0 0 0.55000000000173355 0 0.034381862692950467 0.57372682250960894 0 0 0.60000000000138687 0 0.050069554451969707 0.61308520079857043 0 0 0.60000000000138687 0 0 0.65000000000104008 0 0.050069554451969707 0.61308520079857043 0 0.034381862692950467 0.57372682250960894 0 0 0.60000000000138687 0 0 0.65000000000104008 0 0.046634677244967337 0.671418230738282 0 0 0.7000000000006934 0 0.050069554451969707 0.61308520079857043 0 0.046634677244967337 0.671418230738282 0 0.086179601630648681 0.64647209519980475 0 0.050069554451969707 0.61308520079857043 0 0 0.65000000000104008 0 0.046634677244967337 0.671418230738282 0 0 0.7000000000006934 0 0.049706944316475897 0.72477277076253799 0 0 0.75000000000034661 0 0.046634677244967337 0.671418230738282 0 0 0.7000000000006934 0 0.049706944316475897 0.72477277076253799 0 0.049706944316475897 0.72477277076253799 0 0 0.75000000000034661 0 0.04408157711937423 0.7728941757575627 0 0.049706944316475897 0.72477277076253799 0 0.1020579365089687 0.69352219419301997 0 0.090953281884486245 0.7564451946902494 0 0.1020579365089687 0.69352219419301997 0 0.1215415378367805 0.72939333680004137 0 0.090953281884486245 0.7564451946902494 0 0.046634677244967337 0.671418230738282 0 0.049706944316475897 0.72477277076253799 0 0.1020579365089687 0.69352219419301997 0 0.1215415378367805 0.72939333680004137 0 0.090953281884486245 0.7564451946902494 0 0.14335651144331049 0.75565258250209677 0 0.046634677244967337 0.671418230738282 0 0.1020579365089687 0.69352219419301997 0 0.086179601630648681 0.64647209519980475 0 0.1020579365089687 0.69352219419301997 0 0.086179601630648681 0.64647209519980475 0 0.1241190223511371 0.64391885572885044 0 0.1024350934457823 0.60772393977513839 0 0.086179601630648681 0.64647209519980475 0 0.1241190223511371 0.64391885572885044 0 0.1020579365089687 0.69352219419301997 0 0.1241190223511371 0.64391885572885044 0 0.16500388252850301 0.66612077714085194 0 0.1241190223511371 0.64391885572885044 0 0.16500388252850301 0.66612077714085194 0 0.15720202157091859 0.60665697304410315 0 0.16500388252850301 0.66612077714085194 0 0.19914261668318661 0.62286739485272158 0 0.15720202157091859 0.60665697304410315 0 0.1020579365089687 0.69352219419301997 0 0.16500388252850301 0.66612077714085194 0 0.15332765547575641 0.71200081858233666 0 0.1215415378367805 0.72939333680004137 0 0.15332765547575641 0.71200081858233666 0 0.14335651144331049 0.75565258250209677 0 0.1020579365089687 0.69352219419301997 0 0.1215415378367805 0.72939333680004137 0 0.15332765547575641 0.71200081858233666 0 0.16500388252850301 0.66612077714085194 0 0.15332765547575641 0.71200081858233666 0 0.19068556247388771 0.71028988922845504 0 0.15332765547575641 0.71200081858233666 0 0.14335651144331049 0.75565258250209677 0 0.18269480424590959 0.75905448272264375 0 0.15332765547575641 0.71200081858233666 0 0.19068556247388771 0.71028988922845504 0 0.18269480424590959 0.75905448272264375 0 0.19068556247388771 0.71028988922845504 0 0.2248999640082178 0.72584299459689172 0 0.18269480424590959 0.75905448272264375 0 0.19068556247388771 0.71028988922845504 0 0.2248999640082178 0.72584299459689172 0 0.2236846579037573 0.67380363126050236 0 0.2248999640082178 0.72584299459689172 0 0.2236846579037573 0.67380363126050236 0 0.26439878998046262 0.7048065392091396 0 0.2248999640082178 0.72584299459689172 0 0.22556077506376701 0.77837424984191617 0 0.25676291524611189 0.7436741304886243 0 0.2248999640082178 0.72584299459689172 0 0.25676291524611189 0.7436741304886243 0 0.26439878998046262 0.7048065392091396 0 0.16500388252850301 0.66612077714085194 0 0.2236846579037573 0.67380363126050236 0 0.19914261668318661 0.62286739485272158 0 0.16500388252850301 0.66612077714085194 0 0.19068556247388771 0.71028988922845504 0 0.2236846579037573 0.67380363126050236 0 0.2236846579037573 0.67380363126050236 0 0.2459498854893499 0.63248470766216769 0 0.19914261668318661 0.62286739485272158 0 0.2236846579037573 0.67380363126050236 0 0.2459498854893499 0.63248470766216769 0 0.27820712747429932 0.65530134213254643 0 0.2459498854893499 0.63248470766216769 0 0.19914261668318661 0.62286739485272158 0 0.22549374774072969 0.58452645269293457 0 0.2459498854893499 0.63248470766216769 0 0.22549374774072969 0.58452645269293457 0 0.26573297623774761 0.59828298563722948 0 0.19914261668318661 0.62286739485272158 0 0.22549374774072969 0.58452645269293457 0 0.18381867841758909 0.57774125163628387 0 0.22549374774072969 0.58452645269293457 0 0.20050006573841939 0.53248514016039872 0 0.18381867841758909 0.57774125163628387 0 0.22549374774072969 0.58452645269293457 0 0.25115337790845271 0.54719303014923271 0 0.26573297623774761 0.59828298563722948 0 0.22549374774072969 0.58452645269293457 0 0.20050006573841939 0.53248514016039872 0 0.25115337790845271 0.54719303014923271 0 0.23975172658309729 0.49475499200540818 0 0.20050006573841939 0.53248514016039872 0 0.25115337790845271 0.54719303014923271 0 0.19604738184454831 0.47787523520405789 0 0.20050006573841939 0.53248514016039872 0 0.16618607197337229 0.50652878253548905 0 0.23975172658309729 0.49475499200540818 0 0.19604738184454831 0.47787523520405789 0 0.20050006573841939 0.53248514016039872 0 0.20050006573841939 0.53248514016039872 0 0.14934928745814749 0.55042914607228977 0 0.18381867841758909 0.57774125163628387 0 0.20050006573841939 0.53248514016039872 0 0.16618607197337229 0.50652878253548905 0 0.14934928745814749 0.55042914607228977 0 0.1216098864341134 0.50637075089503902 0 0.16618607197337229 0.50652878253548905 0 0.14934928745814749 0.55042914607228977 0 0.1216098864341134 0.50637075089503902 0 0.1154888278694548 0.56733818459978413 0 0.14934928745814749 0.55042914607228977 0 0.1154888278694548 0.56733818459978413 0 0.14934928745814749 0.55042914607228977 0 0.15720202157091859 0.60665697304410315 0 0.1024350934457823 0.60772393977513839 0 0.1154888278694548 0.56733818459978413 0 0.15720202157091859 0.60665697304410315 0 0.1024350934457823 0.60772393977513839 0 0.1241190223511371 0.64391885572885044 0 0.15720202157091859 0.60665697304410315 0 0.19914261668318661 0.62286739485272158 0 0.15720202157091859 0.60665697304410315 0 0.18381867841758909 0.57774125163628387 0 0.14934928745814749 0.55042914607228977 0 0.15720202157091859 0.60665697304410315 0 0.18381867841758909 0.57774125163628387 0 0.10000000000041601 1 0 0.10266856499240549 0.95548163909968886 0 0.15000000000062411 1 0 0.10266856499240549 0.95548163909968886 0 0.053064897599294662 0.95186845269532028 0 0.083411279318375747 0.91030024466934134 0 0.10000000000041601 1 0 0.050000000000207989 1 0 0.053064897599294662 0.95186845269532028 0 0.10000000000041601 1 0 0.10266856499240549 0.95548163909968886 0 0.053064897599294662 0.95186845269532028 0 0.050000000000207989 1 0 0.025766224399875661 0.97546711317377799 0 0.053064897599294662 0.95186845269532028 0 0.050000000000207989 1 0 0 1 0 0.025766224399875661 0.97546711317377799 0 0 1 0 0.025766224399875661 0.97546711317377799 0 0 0.94999999999979179 0 0.025766224399875661 0.97546711317377799 0 0 0.94999999999979179 0 0.053064897599294662 0.95186845269532028 0 0 0.94999999999979179 0 0.053064897599294662 0.95186845269532028 0 0.0443105827531413 0.89858748162559932 0 0.053064897599294662 0.95186845269532028 0 0.0443105827531413 0.89858748162559932 0 0.083411279318375747 0.91030024466934134 0 0 0.94999999999979179 0 0 0.89999999999958358 0 0.0443105827531413 0.89858748162559932 0 0 0.89999999999958358 0 0.0443105827531413 0.89858748162559932 0 0 0.84999999999965292 0 0.0443105827531413 0.89858748162559932 0 0.083411279318375747 0.91030024466934134 0 0.065374659239661639 0.8551091961254178 0 0.083411279318375747 0.91030024466934134 0 0.10562472963403439 0.87143394428979881 0 0.065374659239661639 0.8551091961254178 0 0.10266856499240549 0.95548163909968886 0 0.083411279318375747 0.91030024466934134 0 0.1241151115713819 0.9045666525468371 0 0.10266856499240549 0.95548163909968886 0 0.1241151115713819 0.9045666525468371 0 0.14617343800780541 0.93808063414349496 0 0.1241151115713819 0.9045666525468371 0 0.10562472963403439 0.87143394428979881 0 0.14474682429600511 0.85524784522713515 0 0.083411279318375747 0.91030024466934134 0 0.1241151115713819 0.9045666525468371 0 0.10562472963403439 0.87143394428979881 0 0.10562472963403439 0.87143394428979881 0 0.1074251789111534 0.83564394292147814 0 0.14474682429600511 0.85524784522713515 0 0.1074251789111534 0.83564394292147814 0 0.065374659239661639 0.8551091961254178 0 0.083105206071452636 0.79992298667296435 0 0.10562472963403439 0.87143394428979881 0 0.1074251789111534 0.83564394292147814 0 0.065374659239661639 0.8551091961254178 0 0.065374659239661639 0.8551091961254178 0 0 0.84999999999965292 0 0.038512288486097702 0.8155852717111195 0 0.0443105827531413 0.89858748162559932 0 0.065374659239661639 0.8551091961254178 0 0 0.84999999999965292 0 0 0.84999999999965292 0 0.038512288486097702 0.8155852717111195 0 0 0.79999999999999982 0 0.065374659239661639 0.8551091961254178 0 0.038512288486097702 0.8155852717111195 0 0.083105206071452636 0.79992298667296435 0 0.038512288486097702 0.8155852717111195 0 0.04408157711937423 0.7728941757575627 0 0.083105206071452636 0.79992298667296435 0 0.038512288486097702 0.8155852717111195 0 0 0.79999999999999982 0 0.04408157711937423 0.7728941757575627 0 0 0.79999999999999982 0 0 0.75000000000034661 0 0.04408157711937423 0.7728941757575627 0 0.049706944316475897 0.72477277076253799 0 0.04408157711937423 0.7728941757575627 0 0.090953281884486245 0.7564451946902494 0 0.04408157711937423 0.7728941757575627 0 0.090953281884486245 0.7564451946902494 0 0.083105206071452636 0.79992298667296435 0 0.1074251789111534 0.83564394292147814 0 0.083105206071452636 0.79992298667296435 0 0.1382744753146134 0.79650574229207483 0 0.090953281884486245 0.7564451946902494 0 0.083105206071452636 0.79992298667296435 0 0.1382744753146134 0.79650574229207483 0 0.090953281884486245 0.7564451946902494 0 0.14335651144331049 0.75565258250209677 0 0.1382744753146134 0.79650574229207483 0 0.14335651144331049 0.75565258250209677 0 0.1382744753146134 0.79650574229207483 0 0.18269480424590959 0.75905448272264375 0 0.1382744753146134 0.79650574229207483 0 0.18269480424590959 0.75905448272264375 0 0.17777405986036951 0.81832336108265358 0 0.2248999640082178 0.72584299459689172 0 0.18269480424590959 0.75905448272264375 0 0.22556077506376701 0.77837424984191617 0 0.22556077506376701 0.77837424984191617 0 0.21858834311891909 0.81980263716112767 0 0.26104540868854792 0.81401944968719064 0 0.22556077506376701 0.77837424984191617 0 0.21858834311891909 0.81980263716112767 0 0.17777405986036951 0.81832336108265358 0 0.18269480424590959 0.75905448272264375 0 0.22556077506376701 0.77837424984191617 0 0.17777405986036951 0.81832336108265358 0 0.21858834311891909 0.81980263716112767 0 0.19741632902693801 0.86755867406447229 0 0.17777405986036951 0.81832336108265358 0 0.21858834311891909 0.81980263716112767 0 0.2401283238295133 0.85648409884788523 0 0.26104540868854792 0.81401944968719064 0 0.21858834311891909 0.81980263716112767 0 0.2401283238295133 0.85648409884788523 0 0.19741632902693801 0.86755867406447229 0 0.19741632902693801 0.86755867406447229 0 0.17777405986036951 0.81832336108265358 0 0.14474682429600511 0.85524784522713515 0 0.19741632902693801 0.86755867406447229 0 0.14474682429600511 0.85524784522713515 0 0.16206583317966519 0.89685560785156404 0 0.1382744753146134 0.79650574229207483 0 0.17777405986036951 0.81832336108265358 0 0.14474682429600511 0.85524784522713515 0 0.1074251789111534 0.83564394292147814 0 0.1382744753146134 0.79650574229207483 0 0.14474682429600511 0.85524784522713515 0 0.1241151115713819 0.9045666525468371 0 0.14474682429600511 0.85524784522713515 0 0.16206583317966519 0.89685560785156404 0 0.1241151115713819 0.9045666525468371 0 0.16206583317966519 0.89685560785156404 0 0.14617343800780541 0.93808063414349496 0 0.16206583317966519 0.89685560785156404 0 0.19901705110390991 0.9175543425573498 0 0.14617343800780541 0.93808063414349496 0 0.19741632902693801 0.86755867406447229 0 0.16206583317966519 0.89685560785156404 0 0.19901705110390991 0.9175543425573498 0 0.19741632902693801 0.86755867406447229 0 0.24536017905392571 0.90704567837671446 0 0.19901705110390991 0.9175543425573498 0 0.2401283238295133 0.85648409884788523 0 0.19741632902693801 0.86755867406447229 0 0.24536017905392571 0.90704567837671446 0 0.24536017905392571 0.90704567837671446 0 0.19901705110390991 0.9175543425573498 0 0.22850979588452081 0.95594428570238643 0 0.19901705110390991 0.9175543425573498 0 0.22850979588452081 0.95594428570238643 0 0.18474005699953849 0.96231585248064622 0 0.24536017905392571 0.90704567837671446 0 0.22850979588452081 0.95594428570238643 0 0.27609987656793722 0.94991445621608572 0 0.22850979588452081 0.95594428570238643 0 0.20000000000083221 1 0 0.25000000000104028 1 0 0.22850979588452081 0.95594428570238643 0 0.20000000000083221 1 0 0.18474005699953849 0.96231585248064622 0 0.20000000000083221 1 0 0.18474005699953849 0.96231585248064622 0 0.15000000000062411 1 0 0.19901705110390991 0.9175543425573498 0 0.18474005699953849 0.96231585248064622 0 0.14617343800780541 0.93808063414349496 0 0.18474005699953849 0.96231585248064622 0 0.14617343800780541 0.93808063414349496 0 0.15000000000062411 1 0 0.10266856499240549 0.95548163909968886 0 0.14617343800780541 0.93808063414349496 0 0.15000000000062411 1 0 0.35000000000145642 1 0 0.36184234618600131 0.96443954459096326 0 0.32544832635163229 0.95485394099568932 0 0.35000000000145642 1 0 0.36184234618600131 0.96443954459096326 0 0.40000000000166441 1 0 0.36184234618600131 0.96443954459096326 0 0.32544832635163229 0.95485394099568932 0 0.35752321586431363 0.9185439911803448 0 0.36184234618600131 0.96443954459096326 0 0.35752321586431363 0.9185439911803448 0 0.39641108128798319 0.94356127926187128 0 0.35000000000145642 1 0 0.32544832635163229 0.95485394099568932 0 0.30000000000124832 1 0 0.30000000000124832 1 0 0.25000000000104028 1 0 0.27609987656793722 0.94991445621608572 0 0.22850979588452081 0.95594428570238643 0 0.25000000000104028 1 0 0.27609987656793722 0.94991445621608572 0 0.32544832635163229 0.95485394099568932 0 0.30000000000124832 1 0 0.27609987656793722 0.94991445621608572 0 0.32544832635163229 0.95485394099568932 0 0.27609987656793722 0.94991445621608572 0 0.30864387279288652 0.89906554525974958 0 0.24536017905392571 0.90704567837671446 0 0.27270076654418179 0.87751467830216623 0 0.30864387279288652 0.89906554525974958 0 0.24536017905392571 0.90704567837671446 0 0.27609987656793722 0.94991445621608572 0 0.30864387279288652 0.89906554525974958 0 0.2401283238295133 0.85648409884788523 0 0.24536017905392571 0.90704567837671446 0 0.27270076654418179 0.87751467830216623 0 0.30864387279288652 0.89906554525974958 0 0.35752321586431363 0.9185439911803448 0 0.35864759629805099 0.87963482415279515 0 0.32544832635163229 0.95485394099568932 0 0.30864387279288652 0.89906554525974958 0 0.35752321586431363 0.9185439911803448 0 0.35752321586431363 0.9185439911803448 0 0.35864759629805099 0.87963482415279515 0 0.39767323751400468 0.89584229130535065 0 0.35864759629805099 0.87963482415279515 0 0.33403534827021109 0.84402799729020661 0 0.39536230704883951 0.84069429572832477 0 0.33403534827021109 0.84402799729020661 0 0.35642984951668422 0.80994399665655703 0 0.39536230704883951 0.84069429572832477 0 0.33403534827021109 0.84402799729020661 0 0.30857225866488791 0.81101973481716805 0 0.35642984951668422 0.80994399665655703 0 0.30864387279288652 0.89906554525974958 0 0.35864759629805099 0.87963482415279515 0 0.33403534827021109 0.84402799729020661 0 0.30864387279288652 0.89906554525974958 0 0.33403534827021109 0.84402799729020661 0 0.29209212897034281 0.84715728365233667 0 0.27270076654418179 0.87751467830216623 0 0.30864387279288652 0.89906554525974958 0 0.29209212897034281 0.84715728365233667 0 0.2401283238295133 0.85648409884788523 0 0.27270076654418179 0.87751467830216623 0 0.29209212897034281 0.84715728365233667 0 0.2401283238295133 0.85648409884788523 0 0.29209212897034281 0.84715728365233667 0 0.26104540868854792 0.81401944968719064 0 0.29209212897034281 0.84715728365233667 0 0.26104540868854792 0.81401944968719064 0 0.30857225866488791 0.81101973481716805 0 0.33403534827021109 0.84402799729020661 0 0.29209212897034281 0.84715728365233667 0 0.30857225866488791 0.81101973481716805 0 0.26104540868854792 0.81401944968719064 0 0.30857225866488791 0.81101973481716805 0 0.2792923945214143 0.77665808831789485 0 0.30857225866488791 0.81101973481716805 0 0.2792923945214143 0.77665808831789485 0 0.33123028043633618 0.77629643437932982 0 0.22556077506376701 0.77837424984191617 0 0.26104540868854792 0.81401944968719064 0 0.2792923945214143 0.77665808831789485 0 0.2792923945214143 0.77665808831789485 0 0.25676291524611189 0.7436741304886243 0 0.29904318922293632 0.74132814928635593 0 0.22556077506376701 0.77837424984191617 0 0.2792923945214143 0.77665808831789485 0 0.25676291524611189 0.7436741304886243 0 0.2792923945214143 0.77665808831789485 0 0.33123028043633618 0.77629643437932982 0 0.29904318922293632 0.74132814928635593 0 0.33123028043633618 0.77629643437932982 0 0.29904318922293632 0.74132814928635593 0 0.35415581127540569 0.73730480045900215 0 0.30857225866488791 0.81101973481716805 0 0.33123028043633618 0.77629643437932982 0 0.35642984951668422 0.80994399665655703 0 0.33123028043633618 0.77629643437932982 0 0.35642984951668422 0.80994399665655703 0 0.38586766253264881 0.78219501014812498 0 0.33123028043633618 0.77629643437932982 0 0.38586766253264881 0.78219501014812498 0 0.35415581127540569 0.73730480045900215 0 0.38586766253264881 0.78219501014812498 0 0.42676259796334498 0.76772545931379299 0 0.40326160981139969 0.73346192995102844 0 0.38586766253264881 0.78219501014812498 0 0.35415581127540569 0.73730480045900215 0 0.40326160981139969 0.73346192995102844 0 0.38586766253264881 0.78219501014812498 0 0.42609163930740518 0.80361684430568059 0 0.39536230704883951 0.84069429572832477 0 0.35642984951668422 0.80994399665655703 0 0.38586766253264881 0.78219501014812498 0 0.39536230704883951 0.84069429572832477 0 0.38586766253264881 0.78219501014812498 0 0.42609163930740518 0.80361684430568059 0 0.42676259796334498 0.76772545931379299 0 0.42676259796334498 0.76772545931379299 0 0.4656888918609538 0.78493261229743638 0 0.45582236402875981 0.73896743678908217 0 0.4656888918609538 0.78493261229743638 0 0.45582236402875981 0.73896743678908217 0 0.50945740445113552 0.75476055527778108 0 0.4656888918609538 0.78493261229743638 0 0.50731287292894423 0.78963574450233831 0 0.50945740445113552 0.75476055527778108 0 0.4656888918609538 0.78493261229743638 0 0.50627822638148745 0.8263979829520941 0 0.50731287292894423 0.78963574450233831 0 0.42609163930740518 0.80361684430568059 0 0.4656888918609538 0.78493261229743638 0 0.45677673713123867 0.84253684404072415 0 0.42609163930740518 0.80361684430568059 0 0.42676259796334498 0.76772545931379299 0 0.4656888918609538 0.78493261229743638 0 0.4656888918609538 0.78493261229743638 0 0.45677673713123867 0.84253684404072415 0 0.50627822638148745 0.8263979829520941 0 0.45677673713123867 0.84253684404072415 0 0.50202631463681879 0.87892870825713787 0 0.50627822638148745 0.8263979829520941 0 0.45677673713123867 0.84253684404072415 0 0.44003836461056539 0.88093474584252718 0 0.50202631463681879 0.87892870825713787 0 0.45677673713123867 0.84253684404072415 0 0.39536230704883951 0.84069429572832477 0 0.44003836461056539 0.88093474584252718 0 0.39536230704883951 0.84069429572832477 0 0.39767323751400468 0.89584229130535065 0 0.44003836461056539 0.88093474584252718 0 0.42609163930740518 0.80361684430568059 0 0.45677673713123867 0.84253684404072415 0 0.39536230704883951 0.84069429572832477 0 0.35864759629805099 0.87963482415279515 0 0.39536230704883951 0.84069429572832477 0 0.39767323751400468 0.89584229130535065 0 0.35752321586431363 0.9185439911803448 0 0.39767323751400468 0.89584229130535065 0 0.39641108128798319 0.94356127926187128 0 0.39767323751400468 0.89584229130535065 0 0.4367309254023824 0.92065556789053882 0 0.39641108128798319 0.94356127926187128 0 0.39767323751400468 0.89584229130535065 0 0.4367309254023824 0.92065556789053882 0 0.44003836461056539 0.88093474584252718 0 0.4367309254023824 0.92065556789053882 0 0.44003836461056539 0.88093474584252718 0 0.47401147028110507 0.91529957330468115 0 0.44003836461056539 0.88093474584252718 0 0.47401147028110507 0.91529957330468115 0 0.50202631463681879 0.87892870825713787 0 0.47401147028110507 0.91529957330468115 0 0.47135117303824892 0.95556877749289892 0 0.52122150208832174 0.94089974453840242 0 0.47401147028110507 0.91529957330468115 0 0.52122150208832174 0.94089974453840242 0 0.50202631463681879 0.87892870825713787 0 0.4367309254023824 0.92065556789053882 0 0.47401147028110507 0.91529957330468115 0 0.47135117303824892 0.95556877749289892 0 0.4367309254023824 0.92065556789053882 0 0.47135117303824892 0.95556877749289892 0 0.4308986359464303 0.96395712492906194 0 0.47135117303824892 0.95556877749289892 0 0.50000000000205869 1 0 0.52122150208832174 0.94089974453840242 0 0.47135117303824892 0.95556877749289892 0 0.45000000000187229 1 0 0.50000000000205869 1 0 0.47135117303824892 0.95556877749289892 0 0.45000000000187229 1 0 0.4308986359464303 0.96395712492906194 0 0.45000000000187229 1 0 0.4308986359464303 0.96395712492906194 0 0.40000000000166441 1 0 0.4308986359464303 0.96395712492906194 0 0.39641108128798319 0.94356127926187128 0 0.40000000000166441 1 0 0.4367309254023824 0.92065556789053882 0 0.4308986359464303 0.96395712492906194 0 0.39641108128798319 0.94356127926187128 0 0.36184234618600131 0.96443954459096326 0 0.39641108128798319 0.94356127926187128 0 0.40000000000166441 1 0 0.33122374654748771 0.57588941099433744 0 0.31502927232353312 0.6134992213375432 0 0.35765792684946668 0.6000687869219653 0 0.31502927232353312 0.6134992213375432 0 0.35765792684946668 0.6000687869219653 0 0.35864735590330371 0.63903383440414463 0 0.35765792684946668 0.6000687869219653 0 0.35864735590330371 0.63903383440414463 0 0.39743091024207589 0.6239520004230239 0 0.33122374654748771 0.57588941099433744 0 0.35765792684946668 0.6000687869219653 0 0.37272913873093971 0.56192925302619479 0 0.37272913873093971 0.56192925302619479 0 0.33190227185843768 0.52715113583864037 0 0.38244435121258652 0.51653317813019495 0 0.33122374654748771 0.57588941099433744 0 0.37272913873093971 0.56192925302619479 0 0.33190227185843768 0.52715113583864037 0 0.35024835142131061 0.48654922671676981 0 0.33190227185843768 0.52715113583864037 0 0.38244435121258652 0.51653317813019495 0 0.33122374654748771 0.57588941099433744 0 0.33190227185843768 0.52715113583864037 0 0.29110487519241501 0.56588143995431495 0 0.33190227185843768 0.52715113583864037 0 0.28307294598219601 0.50789252727458634 0 0.29110487519241501 0.56588143995431495 0 0.31068898841644388 0.47541502461811092 0 0.33190227185843768 0.52715113583864037 0 0.28307294598219601 0.50789252727458634 0 0.23975172658309729 0.49475499200540818 0 0.28307294598219601 0.50789252727458634 0 0.25115337790845271 0.54719303014923271 0 0.28307294598219601 0.50789252727458634 0 0.25115337790845271 0.54719303014923271 0 0.29110487519241501 0.56588143995431495 0 0.25115337790845271 0.54719303014923271 0 0.29110487519241501 0.56588143995431495 0 0.26573297623774761 0.59828298563722948 0 0.33122374654748771 0.57588941099433744 0 0.31502927232353312 0.6134992213375432 0 0.29110487519241501 0.56588143995431495 0 0.31502927232353312 0.6134992213375432 0 0.29110487519241501 0.56588143995431495 0 0.26573297623774761 0.59828298563722948 0 0.31502927232353312 0.6134992213375432 0 0.26573297623774761 0.59828298563722948 0 0.27820712747429932 0.65530134213254643 0 0.2459498854893499 0.63248470766216769 0 0.26573297623774761 0.59828298563722948 0 0.27820712747429932 0.65530134213254643 0 0.2236846579037573 0.67380363126050236 0 0.27820712747429932 0.65530134213254643 0 0.26439878998046262 0.7048065392091396 0 0.27820712747429932 0.65530134213254643 0 0.31378396441836959 0.70157213313026345 0 0.32263089806001177 0.66003674931826484 0 0.27820712747429932 0.65530134213254643 0 0.26439878998046262 0.7048065392091396 0 0.31378396441836959 0.70157213313026345 0 0.31502927232353312 0.6134992213375432 0 0.27820712747429932 0.65530134213254643 0 0.32263089806001177 0.66003674931826484 0 0.25676291524611189 0.7436741304886243 0 0.26439878998046262 0.7048065392091396 0 0.29904318922293632 0.74132814928635593 0 0.26439878998046262 0.7048065392091396 0 0.29904318922293632 0.74132814928635593 0 0.31378396441836959 0.70157213313026345 0 0.29904318922293632 0.74132814928635593 0 0.31378396441836959 0.70157213313026345 0 0.35415581127540569 0.73730480045900215 0 0.31378396441836959 0.70157213313026345 0 0.36622285152418499 0.69092437780804039 0 0.35415581127540569 0.73730480045900215 0 0.36622285152418499 0.69092437780804039 0 0.35415581127540569 0.73730480045900215 0 0.40326160981139969 0.73346192995102844 0 0.31502927232353312 0.6134992213375432 0 0.32263089806001177 0.66003674931826484 0 0.35864735590330371 0.63903383440414463 0 0.31378396441836959 0.70157213313026345 0 0.36622285152418499 0.69092437780804039 0 0.32263089806001177 0.66003674931826484 0 0.36622285152418499 0.69092437780804039 0 0.32263089806001177 0.66003674931826484 0 0.35864735590330371 0.63903383440414463 0 0.36622285152418499 0.69092437780804039 0 0.35864735590330371 0.63903383440414463 0 0.3977710372045391 0.65868194622830212 0 0.35864735590330371 0.63903383440414463 0 0.3977710372045391 0.65868194622830212 0 0.39743091024207589 0.6239520004230239 0 0.36622285152418499 0.69092437780804039 0 0.3977710372045391 0.65868194622830212 0 0.43323420005758778 0.6913544522562407 0 0.3977710372045391 0.65868194622830212 0 0.43323420005758778 0.6913544522562407 0 0.43846182030517877 0.64845797726506715 0 0.43846182030517877 0.64845797726506715 0 0.43545892161006339 0.61093128915313821 0 0.39743091024207589 0.6239520004230239 0 0.3977710372045391 0.65868194622830212 0 0.43846182030517877 0.64845797726506715 0 0.39743091024207589 0.6239520004230239 0 0.36622285152418499 0.69092437780804039 0 0.40326160981139969 0.73346192995102844 0 0.43323420005758778 0.6913544522562407 0 0.40326160981139969 0.73346192995102844 0 0.43323420005758778 0.6913544522562407 0 0.45582236402875981 0.73896743678908217 0 0.42676259796334498 0.76772545931379299 0 0.40326160981139969 0.73346192995102844 0 0.45582236402875981 0.73896743678908217 0 0.43323420005758778 0.6913544522562407 0 0.45582236402875981 0.73896743678908217 0 0.5 0.69999999999999996 0 0.45582236402875981 0.73896743678908217 0 0.5 0.69999999999999996 0 0.50945740445113552 0.75476055527778108 0 0.43323420005758778 0.6913544522562407 0 0.47913475093885149 0.66010775372412711 0 0.5 0.69999999999999996 0 0.43846182030517877 0.64845797726506715 0 0.47913475093885149 0.66010775372412711 0 0.47095389620662098 0.61892551373708504 0 0.43846182030517877 0.64845797726506715 0 0.47095389620662098 0.61892551373708504 0 0.43545892161006339 0.61093128915313821 0 0.43323420005758778 0.6913544522562407 0 0.43846182030517877 0.64845797726506715 0 0.47913475093885149 0.66010775372412711 0 0.47913475093885149 0.66010775372412711 0 0.47095389620662098 0.61892551373708504 0 0.50715858906372158 0.63295939104129484 0 0.47095389620662098 0.61892551373708504 0 0.5166924242153631 0.59825134841919447 0 0.50715858906372158 0.63295939104129484 0 0.47095389620662098 0.61892551373708504 0 0.46666084890304671 0.57634471035397938 0 0.5166924242153631 0.59825134841919447 0 0.47095389620662098 0.61892551373708504 0 0.46666084890304671 0.57634471035397938 0 0.43545892161006339 0.61093128915313821 0 0.43545892161006339 0.61093128915313821 0 0.4089290844030305 0.58728915500154233 0 0.39743091024207589 0.6239520004230239 0 0.46666084890304671 0.57634471035397938 0 0.43545892161006339 0.61093128915313821 0 0.4089290844030305 0.58728915500154233 0 0.46666084890304671 0.57634471035397938 0 0.4089290844030305 0.58728915500154233 0 0.42644501560315817 0.54603747078095544 0 0.37272913873093971 0.56192925302619479 0 0.4089290844030305 0.58728915500154233 0 0.42644501560315817 0.54603747078095544 0 0.35765792684946668 0.6000687869219653 0 0.37272913873093971 0.56192925302619479 0 0.4089290844030305 0.58728915500154233 0 0.35765792684946668 0.6000687869219653 0 0.4089290844030305 0.58728915500154233 0 0.39743091024207589 0.6239520004230239 0 0.37272913873093971 0.56192925302619479 0 0.38244435121258652 0.51653317813019495 0 0.42644501560315817 0.54603747078095544 0 0.43507373378304309 0.49699695397193322 0 0.38244435121258652 0.51653317813019495 0 0.42644501560315817 0.54603747078095544 0 0.46666084890304671 0.57634471035397938 0 0.47793794143994173 0.52940715638744962 0 0.53245488764484505 0.55078124999999989 0 0.43507373378304309 0.49699695397193322 0 0.49102375406324739 0.49123754822244059 0 0.47793794143994173 0.52940715638744962 0 0.43507373378304309 0.49699695397193322 0 0.42644501560315817 0.54603747078095544 0 0.47793794143994173 0.52940715638744962 0 0.46666084890304671 0.57634471035397938 0 0.42644501560315817 0.54603747078095544 0 0.47793794143994173 0.52940715638744962 0 0.49102375406324739 0.49123754822244059 0 0.47793794143994173 0.52940715638744962 0 0.53330375813596242 0.50827942741749099 0 0.47793794143994173 0.52940715638744962 0 0.53245488764484505 0.55078124999999989 0 0.53330375813596242 0.50827942741749099 0 0.53245488764484505 0.55078124999999989 0 0.53330375813596242 0.50827942741749099 0 0.57435499076887508 0.54267261987897775 0 0.53245488764484505 0.55078124999999989 0 0.57435499076887508 0.54267261987897775 0 0.57412547362576272 0.58273804879550706 0 0.53330375813596242 0.50827942741749099 0 0.57611405284611883 0.50165903596042916 0 0.57435499076887508 0.54267261987897775 0 0.57611405284611883 0.50165903596042916 0 0.57435499076887508 0.54267261987897775 0 0.62042975506801734 0.54295974692364424 0 0.57435499076887508 0.54267261987897775 0 0.62042975506801734 0.54295974692364424 0 0.57412547362576272 0.58273804879550706 0 0.57611405284611883 0.50165903596042916 0 0.62042975506801734 0.54295974692364424 0 0.61547661924074692 0.48539576058873962 0 0.5991018319127801 0.62925360607495295 0 0.6405463747586706 0.63290524857395714 0 0.63065402604362242 0.59661356661633302 0 0.57412547362576272 0.58273804879550706 0 0.5991018319127801 0.62925360607495295 0 0.63065402604362242 0.59661356661633302 0 0.62042975506801734 0.54295974692364424 0 0.57412547362576272 0.58273804879550706 0 0.63065402604362242 0.59661356661633302 0 0.57412547362576272 0.58273804879550706 0 0.5498280205245758 0.6290146943450976 0 0.5991018319127801 0.62925360607495295 0 0.46666084890304671 0.57634471035397938 0 0.53245488764484505 0.55078124999999989 0 0.5166924242153631 0.59825134841919447 0 0.57412547362576272 0.58273804879550706 0 0.5166924242153631 0.59825134841919447 0 0.5498280205245758 0.6290146943450976 0 0.53245488764484505 0.55078124999999989 0 0.57412547362576272 0.58273804879550706 0 0.5166924242153631 0.59825134841919447 0 0.5166924242153631 0.59825134841919447 0 0.50715858906372158 0.63295939104129484 0 0.5498280205245758 0.6290146943450976 0 0.47913475093885149 0.66010775372412711 0 0.50715858906372158 0.63295939104129484 0 0.52584555706968406 0.66664215091846768 0 0.50715858906372158 0.63295939104129484 0 0.52584555706968406 0.66664215091846768 0 0.5498280205245758 0.6290146943450976 0 0.47913475093885149 0.66010775372412711 0 0.52584555706968406 0.66664215091846768 0 0.5 0.69999999999999996 0 0.52584555706968406 0.66664215091846768 0 0.54999999999999993 0.69999999999999996 0 0.57484956128872922 0.66573805030881994 0 0.52584555706968406 0.66664215091846768 0 0.5498280205245758 0.6290146943450976 0 0.57484956128872922 0.66573805030881994 0 0.5 0.69999999999999996 0 0.55363780716230748 0.74348740161571747 0 0.50945740445113552 0.75476055527778108 0 0.52584555706968406 0.66664215091846768 0 0.5 0.69999999999999996 0 0.54999999999999993 0.69999999999999996 0 0.5 0.69999999999999996 0 0.54999999999999993 0.69999999999999996 0 0.5 0.69999999999999996 0 0.54999999999999993 0.69999999999999996 0 0.55363780716230748 0.74348740161571747 0 0.55363780716230748 0.74348740161571747 0 0.59999999999999976 0.69999999999999996 0 0.59636844454254345 0.75937156204589151 0 0.54999999999999993 0.69999999999999996 0 0.59999999999999976 0.69999999999999996 0 0.54999999999999993 0.69999999999999996 0 0.59999999999999976 0.69999999999999996 0 0.57484956128872922 0.66573805030881994 0 0.54999999999999993 0.69999999999999996 0 0.55363780716230748 0.74348740161571747 0 0.59999999999999976 0.69999999999999996 0 0.59999999999999976 0.69999999999999996 0 0.6499999999999998 0.69999999999999996 0 0.59999999999999976 0.69999999999999996 0 0.62460753523532009 0.66851202781000296 0 0.6499999999999998 0.69999999999999996 0 0.59999999999999976 0.69999999999999996 0 0.63221990677827677 0.73442891067859706 0 0.59636844454254345 0.75937156204589151 0 0.5498280205245758 0.6290146943450976 0 0.57484956128872922 0.66573805030881994 0 0.5991018319127801 0.62925360607495295 0 0.59999999999999976 0.69999999999999996 0 0.57484956128872922 0.66573805030881994 0 0.62460753523532009 0.66851202781000296 0 0.57484956128872922 0.66573805030881994 0 0.62460753523532009 0.66851202781000296 0 0.5991018319127801 0.62925360607495295 0 0.62460753523532009 0.66851202781000296 0 0.5991018319127801 0.62925360607495295 0 0.6405463747586706 0.63290524857395714 0 0.62460753523532009 0.66851202781000296 0 0.6405463747586706 0.63290524857395714 0 0.675261390228442 0.65996937624687813 0 0.62460753523532009 0.66851202781000296 0 0.675261390228442 0.65996937624687813 0 0.6499999999999998 0.69999999999999996 0 0.675261390228442 0.65996937624687813 0 0.6499999999999998 0.69999999999999996 0 0.69999999999999984 0.69999999999999996 0 0.6405463747586706 0.63290524857395714 0 0.675261390228442 0.65996937624687813 0 0.67529834988829951 0.61613270668143583 0 0.63221990677827677 0.73442891067859706 0 0.66427993341343905 0.73232764502436276 0 0.64753070846764316 0.77332939069435502 0 0.63221990677827677 0.73442891067859706 0 0.6499999999999998 0.69999999999999996 0 0.66427993341343905 0.73232764502436276 0 0.59999999999999976 0.69999999999999996 0 0.63221990677827677 0.73442891067859706 0 0.6499999999999998 0.69999999999999996 0 0.6499999999999998 0.69999999999999996 0 0.69999999999999984 0.69999999999999996 0 0.6499999999999998 0.69999999999999996 0 0.66427993341343905 0.73232764502436276 0 0.69999999999999984 0.69999999999999996 0 0.66427993341343905 0.73232764502436276 0 0.69999999999999984 0.69999999999999996 0 0.6916490518212759 0.75387992374886192 0 0.69999999999999984 0.69999999999999996 0 0.72501250972655151 0.74067302935308721 0 0.6916490518212759 0.75387992374886192 0 0.69999999999999984 0.69999999999999996 0 0.74999999999999989 0.69999999999999996 0 0.72501250972655151 0.74067302935308721 0 0.69999999999999984 0.69999999999999996 0 0.74999999999999989 0.69999999999999996 0 0.72500000000000064 0.67022701834392062 0 0.69999999999999984 0.69999999999999996 0 0.74999999999999989 0.69999999999999996 0 0.74999999999999989 0.69999999999999996 0 0.72501250972655151 0.74067302935308721 0 0.75841349681148107 0.75422312624214749 0 0.675261390228442 0.65996937624687813 0 0.71406021706547751 0.63292083137662503 0 0.72500000000000064 0.67022701834392062 0 0.675261390228442 0.65996937624687813 0 0.71406021706547751 0.63292083137662503 0 0.67529834988829951 0.61613270668143583 0 0.675261390228442 0.65996937624687813 0 0.69999999999999984 0.69999999999999996 0 0.72500000000000064 0.67022701834392062 0 0.71406021706547751 0.63292083137662503 0 0.72500000000000064 0.67022701834392062 0 0.74994237037456724 0.62775548192980357 0 0.72500000000000064 0.67022701834392062 0 0.74994237037456724 0.62775548192980357 0 0.7750489929959945 0.66593931409600093 0 0.71406021706547751 0.63292083137662503 0 0.74994237037456724 0.62775548192980357 0 0.71809016091162536 0.58185040402320831 0 0.74994237037456724 0.62775548192980357 0 0.71809016091162536 0.58185040402320831 0 0.77293540622714185 0.59448302402785813 0 0.71406021706547751 0.63292083137662503 0 0.71809016091162536 0.58185040402320831 0 0.67529834988829951 0.61613270668143583 0 0.71809016091162536 0.58185040402320831 0 0.67569444444444449 0.53500863336860327 0 0.67323294229744413 0.57556450033612505 0 0.71809016091162536 0.58185040402320831 0 0.67529834988829951 0.61613270668143583 0 0.67323294229744413 0.57556450033612505 0 0.71809016091162536 0.58185040402320831 0 0.7152569930854884 0.5237994455134295 0 0.77151014687832564 0.54436834383023036 0 0.7152569930854884 0.5237994455134295 0 0.77151014687832564 0.54436834383023036 0 0.73947346780852752 0.49062440112282169 0 0.7152569930854884 0.5237994455134295 0 0.67569444444444449 0.53500863336860327 0 0.69385896817107129 0.48377516041410151 0 0.71809016091162536 0.58185040402320831 0 0.7152569930854884 0.5237994455134295 0 0.67569444444444449 0.53500863336860327 0 0.62042975506801734 0.54295974692364424 0 0.67569444444444449 0.53500863336860327 0 0.67323294229744413 0.57556450033612505 0 0.67569444444444449 0.53500863336860327 0 0.6541250972820879 0.49999999999999989 0 0.69385896817107129 0.48377516041410151 0 0.62042975506801734 0.54295974692364424 0 0.67569444444444449 0.53500863336860327 0 0.6541250972820879 0.49999999999999989 0 0.62042975506801734 0.54295974692364424 0 0.61547661924074692 0.48539576058873962 0 0.6541250972820879 0.49999999999999989 0 0.62042975506801734 0.54295974692364424 0 0.63065402604362242 0.59661356661633302 0 0.67323294229744413 0.57556450033612505 0 0.6405463747586706 0.63290524857395714 0 0.63065402604362242 0.59661356661633302 0 0.67529834988829951 0.61613270668143583 0 0.63065402604362242 0.59661356661633302 0 0.67529834988829951 0.61613270668143583 0 0.67323294229744413 0.57556450033612505 0 0.60000000000138687 1 0 0.62065498684670595 0.95224934003983619 0 0.57382506491224949 0.9629411906298494 0 0.60000000000138687 1 0 0.62065498684670595 0.95224934003983619 0 0.65000000000104008 1 0 0.62065498684670595 0.95224934003983619 0 0.57382506491224949 0.9629411906298494 0 0.57724883562309992 0.92155686857100794 0 0.60000000000138687 1 0 0.57382506491224949 0.9629411906298494 0 0.55000000000173355 1 0 0.55000000000173355 1 0 0.50000000000205869 1 0 0.52122150208832174 0.94089974453840242 0 0.57382506491224949 0.9629411906298494 0 0.52122150208832174 0.94089974453840242 0 0.57724883562309992 0.92155686857100794 0 0.57382506491224949 0.9629411906298494 0 0.55000000000173355 1 0 0.52122150208832174 0.94089974453840242 0 0.52122150208832174 0.94089974453840242 0 0.54783390826260769 0.89287767010860219 0 0.57724883562309992 0.92155686857100794 0 0.52122150208832174 0.94089974453840242 0 0.50202631463681879 0.87892870825713787 0 0.54783390826260769 0.89287767010860219 0 0.54783390826260769 0.89287767010860219 0 0.5832743223239254 0.88483152652961872 0 0.55899371797446828 0.85003102233514438 0 0.54783390826260769 0.89287767010860219 0 0.5832743223239254 0.88483152652961872 0 0.57724883562309992 0.92155686857100794 0 0.5832743223239254 0.88483152652961872 0 0.57724883562309992 0.92155686857100794 0 0.61885627562261258 0.90282959257498208 0 0.62065498684670595 0.95224934003983619 0 0.57724883562309992 0.92155686857100794 0 0.61885627562261258 0.90282959257498208 0 0.5832743223239254 0.88483152652961872 0 0.61885627562261258 0.90282959257498208 0 0.61343887413683884 0.856862479058357 0 0.61343887413683884 0.856862479058357 0 0.60294066490120068 0.80851322453934582 0 0.65005442820240822 0.82644988530054031 0 0.61343887413683884 0.856862479058357 0 0.55899371797446828 0.85003102233514438 0 0.60294066490120068 0.80851322453934582 0 0.55899371797446828 0.85003102233514438 0 0.54782696902220018 0.79245182748204157 0 0.60294066490120068 0.80851322453934582 0 0.5832743223239254 0.88483152652961872 0 0.61343887413683884 0.856862479058357 0 0.55899371797446828 0.85003102233514438 0 0.50202631463681879 0.87892870825713787 0 0.54783390826260769 0.89287767010860219 0 0.55899371797446828 0.85003102233514438 0 0.50202631463681879 0.87892870825713787 0 0.55899371797446828 0.85003102233514438 0 0.50627822638148745 0.8263979829520941 0 0.55899371797446828 0.85003102233514438 0 0.50627822638148745 0.8263979829520941 0 0.54782696902220018 0.79245182748204157 0 0.50627822638148745 0.8263979829520941 0 0.54782696902220018 0.79245182748204157 0 0.50731287292894423 0.78963574450233831 0 0.54782696902220018 0.79245182748204157 0 0.50731287292894423 0.78963574450233831 0 0.50945740445113552 0.75476055527778108 0 0.55363780716230748 0.74348740161571747 0 0.54782696902220018 0.79245182748204157 0 0.50945740445113552 0.75476055527778108 0 0.55363780716230748 0.74348740161571747 0 0.54782696902220018 0.79245182748204157 0 0.59636844454254345 0.75937156204589151 0 0.54782696902220018 0.79245182748204157 0 0.60294066490120068 0.80851322453934582 0 0.59636844454254345 0.75937156204589151 0 0.60294066490120068 0.80851322453934582 0 0.59636844454254345 0.75937156204589151 0 0.64753070846764316 0.77332939069435502 0 0.63221990677827677 0.73442891067859706 0 0.59636844454254345 0.75937156204589151 0 0.64753070846764316 0.77332939069435502 0 0.60294066490120068 0.80851322453934582 0 0.64753070846764316 0.77332939069435502 0 0.65005442820240822 0.82644988530054031 0 0.64753070846764316 0.77332939069435502 0 0.68024162096458085 0.79868546898116533 0 0.65005442820240822 0.82644988530054031 0 0.64753070846764316 0.77332939069435502 0 0.68024162096458085 0.79868546898116533 0 0.6916490518212759 0.75387992374886192 0 0.66427993341343905 0.73232764502436276 0 0.64753070846764316 0.77332939069435502 0 0.6916490518212759 0.75387992374886192 0 0.72501250972655151 0.74067302935308721 0 0.6916490518212759 0.75387992374886192 0 0.72500000000000064 0.7952620967744265 0 0.72501250972655151 0.74067302935308721 0 0.72500000000000064 0.7952620967744265 0 0.75841349681148107 0.75422312624214749 0 0.68024162096458085 0.79868546898116533 0 0.6916490518212759 0.75387992374886192 0 0.72500000000000064 0.7952620967744265 0 0.68024162096458085 0.79868546898116533 0 0.72500000000000064 0.7952620967744265 0 0.68697391633157634 0.84450604838764298 0 0.72500000000000064 0.7952620967744265 0 0.72863726579783861 0.85390518901155588 0 0.68697391633157634 0.84450604838764298 0 0.72500000000000064 0.7952620967744265 0 0.72863726579783861 0.85390518901155588 0 0.76901770135486491 0.84293557325473656 0 0.72863726579783861 0.85390518901155588 0 0.68697391633157634 0.84450604838764298 0 0.7250000000005199 0.89375000000045834 0 0.68697391633157634 0.84450604838764298 0 0.66412543161245952 0.88015090885499059 0 0.7250000000005199 0.89375000000045834 0 0.68697391633157634 0.84450604838764298 0 0.65005442820240822 0.82644988530054031 0 0.66412543161245952 0.88015090885499059 0 0.68024162096458085 0.79868546898116533 0 0.68697391633157634 0.84450604838764298 0 0.65005442820240822 0.82644988530054031 0 0.61343887413683884 0.856862479058357 0 0.65005442820240822 0.82644988530054031 0 0.66412543161245952 0.88015090885499059 0 0.61885627562261258 0.90282959257498208 0 0.61343887413683884 0.856862479058357 0 0.66412543161245952 0.88015090885499059 0 0.61885627562261258 0.90282959257498208 0 0.65507451745379841 0.92229208810758578 0 0.66412543161245952 0.88015090885499059 0 0.62065498684670595 0.95224934003983619 0 0.61885627562261258 0.90282959257498208 0 0.65507451745379841 0.92229208810758578 0 0.65507451745379841 0.92229208810758578 0 0.68987011941058407 0.92105047536677087 0 0.68015064798562208 0.95924320340003011 0 0.65507451745379841 0.92229208810758578 0 0.66412543161245952 0.88015090885499059 0 0.68987011941058407 0.92105047536677087 0 0.66412543161245952 0.88015090885499059 0 0.7250000000005199 0.89375000000045834 0 0.68987011941058407 0.92105047536677087 0 0.72863726579783861 0.85390518901155588 0 0.7250000000005199 0.89375000000045834 0 0.76891166905518427 0.88835469571185499 0 0.7250000000005199 0.89375000000045834 0 0.7250000000005199 0.94981617647078953 0 0.75729602384198635 0.92353652857884294 0 0.7250000000005199 0.89375000000045834 0 0.68987011941058407 0.92105047536677087 0 0.7250000000005199 0.94981617647078953 0 0.68987011941058407 0.92105047536677087 0 0.7250000000005199 0.94981617647078953 0 0.68015064798562208 0.95924320340003011 0 0.7250000000005199 0.94981617647078953 0 0.7000000000006934 1 0 0.75000000000034661 1 0 0.7250000000005199 0.94981617647078953 0 0.75000000000034661 1 0 0.770759834363826 0.95919399014344442 0 0.7250000000005199 0.94981617647078953 0 0.7000000000006934 1 0 0.68015064798562208 0.95924320340003011 0 0.7000000000006934 1 0 0.68015064798562208 0.95924320340003011 0 0.65000000000104008 1 0 0.62065498684670595 0.95224934003983619 0 0.65507451745379841 0.92229208810758578 0 0.68015064798562208 0.95924320340003011 0 0.62065498684670595 0.95224934003983619 0 0.68015064798562208 0.95924320340003011 0 0.65000000000104008 1 0 0.84999999999965292 1 0 0.85170973911348691 0.93569607295217616 0 0.89898474358632463 0.95391965591118966 0 0.84999999999965292 1 0 0.81486180804382891 0.96321394949790495 0 0.85170973911348691 0.93569607295217616 0 0.81486180804382891 0.96321394949790495 0 0.79680861578988083 0.92656778056766709 0 0.85170973911348691 0.93569607295217616 0 0.84999999999965292 1 0 0.81486180804382891 0.96321394949790495 0 0.79999999999999982 1 0 0.81486180804382891 0.96321394949790495 0 0.79999999999999982 1 0 0.770759834363826 0.95919399014344442 0 0.79999999999999982 1 0 0.75000000000034661 1 0 0.770759834363826 0.95919399014344442 0 0.7250000000005199 0.94981617647078953 0 0.770759834363826 0.95919399014344442 0 0.75729602384198635 0.92353652857884294 0 0.81486180804382891 0.96321394949790495 0 0.770759834363826 0.95919399014344442 0 0.79680861578988083 0.92656778056766709 0 0.79680861578988083 0.92656778056766709 0 0.75729602384198635 0.92353652857884294 0 0.76891166905518427 0.88835469571185499 0 0.770759834363826 0.95919399014344442 0 0.79680861578988083 0.92656778056766709 0 0.75729602384198635 0.92353652857884294 0 0.7250000000005199 0.89375000000045834 0 0.75729602384198635 0.92353652857884294 0 0.76891166905518427 0.88835469571185499 0 0.79680861578988083 0.92656778056766709 0 0.76891166905518427 0.88835469571185499 0 0.81159157511211755 0.88795995483179491 0 0.81159157511211755 0.88795995483179491 0 0.85170973911348691 0.93569607295217616 0 0.85600844944837662 0.88483418979512773 0 0.79680861578988083 0.92656778056766709 0 0.81159157511211755 0.88795995483179491 0 0.85170973911348691 0.93569607295217616 0 0.85170973911348691 0.93569607295217616 0 0.85600844944837662 0.88483418979512773 0 0.90416666666660628 0.9041666666666166 0 0.85600844944837662 0.88483418979512773 0 0.82709327591091286 0.84937141670920724 0 0.88088768115933802 0.84674609810493673 0 0.82709327591091286 0.84937141670920724 0 0.84725310900444062 0.80779732082917555 0 0.88088768115933802 0.84674609810493673 0 0.82709327591091286 0.84937141670920724 0 0.80041942726660109 0.81543261647703358 0 0.84725310900444062 0.80779732082917555 0 0.81159157511211755 0.88795995483179491 0 0.85600844944837662 0.88483418979512773 0 0.82709327591091286 0.84937141670920724 0 0.76891166905518427 0.88835469571185499 0 0.81159157511211755 0.88795995483179491 0 0.76901770135486491 0.84293557325473656 0 0.81159157511211755 0.88795995483179491 0 0.82709327591091286 0.84937141670920724 0 0.76901770135486491 0.84293557325473656 0 0.72863726579783861 0.85390518901155588 0 0.76891166905518427 0.88835469571185499 0 0.76901770135486491 0.84293557325473656 0 0.76901770135486491 0.84293557325473656 0 0.80041942726660109 0.81543261647703358 0 0.77094201086366854 0.79647480515688507 0 0.82709327591091286 0.84937141670920724 0 0.76901770135486491 0.84293557325473656 0 0.80041942726660109 0.81543261647703358 0 0.80041942726660109 0.81543261647703358 0 0.77094201086366854 0.79647480515688507 0 0.80185942888539485 0.77452061303608133 0 0.72500000000000064 0.7952620967744265 0 0.77094201086366854 0.79647480515688507 0 0.75841349681148107 0.75422312624214749 0 0.72500000000000064 0.7952620967744265 0 0.76901770135486491 0.84293557325473656 0 0.77094201086366854 0.79647480515688507 0 0.77094201086366854 0.79647480515688507 0 0.75841349681148107 0.75422312624214749 0 0.80185942888539485 0.77452061303608133 0 0.75841349681148107 0.75422312624214749 0 0.80185942888539485 0.77452061303608133 0 0.78578450296893509 0.73292684821144505 0 0.80185942888539485 0.77452061303608133 0 0.84725310900444062 0.80779732082917555 0 0.85491058998424563 0.76004753345552634 0 0.80185942888539485 0.77452061303608133 0 0.85491058998424563 0.76004753345552634 0 0.81864958914779962 0.73589050177899629 0 0.80041942726660109 0.81543261647703358 0 0.80185942888539485 0.77452061303608133 0 0.84725310900444062 0.80779732082917555 0 0.84725310900444062 0.80779732082917555 0 0.85491058998424563 0.76004753345552634 0 0.90299850604011456 0.79563452813489832 0 0.85491058998424563 0.76004753345552634 0 0.90299850604011456 0.79563452813489832 0 0.89999166460796554 0.74528934923809909 0 0.90299850604011456 0.79563452813489832 0 0.94399509803918602 0.75600490196082126 0 0.95386563387742829 0.80414874155775029 0 0.90299850604011456 0.79563452813489832 0 0.94399509803918602 0.75600490196082126 0 0.89999166460796554 0.74528934923809909 0 0.94399509803918602 0.75600490196082126 0 0.97435614836745565 0.77499999999987745 0 0.95386563387742829 0.80414874155775029 0 0.94399509803918602 0.75600490196082126 0 0.97435614836745565 0.77499999999987745 0 0.97166519676947294 0.73337114490064459 0 0.97435614836745565 0.77499999999987745 0 0.97166519676947294 0.73337114490064459 0 1 0.74999999999993494 0 0.97435614836745565 0.77499999999987745 0 1 0.7999999999998193 0 1 0.74999999999993494 0 0.97435614836745565 0.77499999999987745 0 1 0.7999999999998193 0 0.95386563387742829 0.80414874155775029 0 1 0.84999999999982645 0 0.93677536231884972 0.85000000000000286 0 0.95391631417670719 0.89584263333814784 0 0.95386563387742829 0.80414874155775029 0 1 0.84999999999982645 0 0.93677536231884972 0.85000000000000286 0 1 0.7999999999998193 0 0.95386563387742829 0.80414874155775029 0 1 0.84999999999982645 0 0.93677536231884972 0.85000000000000286 0 0.88088768115933802 0.84674609810493673 0 0.90416666666660628 0.9041666666666166 0 0.90299850604011456 0.79563452813489832 0 0.95386563387742829 0.80414874155775029 0 0.93677536231884972 0.85000000000000286 0 0.90299850604011456 0.79563452813489832 0 0.93677536231884972 0.85000000000000286 0 0.88088768115933802 0.84674609810493673 0 0.84725310900444062 0.80779732082917555 0 0.90299850604011456 0.79563452813489832 0 0.88088768115933802 0.84674609810493673 0 0.85600844944837662 0.88483418979512773 0 0.88088768115933802 0.84674609810493673 0 0.90416666666660628 0.9041666666666166 0 0.85170973911348691 0.93569607295217616 0 0.90416666666660628 0.9041666666666166 0 0.89898474358632463 0.95391965591118966 0 0.90416666666660628 0.9041666666666166 0 0.95391631417670719 0.89584263333814784 0 0.94399509803919068 0.9439950980391687 0 0.90416666666660628 0.9041666666666166 0 0.94399509803919068 0.9439950980391687 0 0.89898474358632463 0.95391965591118966 0 0.93677536231884972 0.85000000000000286 0 0.90416666666660628 0.9041666666666166 0 0.95391631417670719 0.89584263333814784 0 1 0.84999999999982645 0 0.95391631417670719 0.89584263333814784 0 1 0.8999999999998336 0 1 0.8999999999998336 0 0.97435614836744289 0.92499999999990257 0 1 0.94999999999997109 0 0.95391631417670719 0.89584263333814784 0 1 0.8999999999998336 0 0.97435614836744289 0.92499999999990257 0 0.95391631417670719 0.89584263333814784 0 0.97435614836744289 0.92499999999990257 0 0.94399509803919068 0.9439950980391687 0 0.97435614836744289 0.92499999999990257 0 0.94399509803919068 0.9439950980391687 0 0.97166519676946206 0.96662885509935492 0 0.97435614836744289 0.92499999999990257 0 0.97166519676946206 0.96662885509935492 0 1 0.94999999999997109 0 0.97166519676946206 0.96662885509935492 0 1 0.94999999999997109 0 1 1 0 0.97166519676946206 0.96662885509935492 0 1 1 0 0.94999999999979179 1 0 0.94399509803919068 0.9439950980391687 0 0.97166519676946206 0.96662885509935492 0 0.94999999999979179 1 0 0.94999999999979179 1 0 0.89898474358632463 0.95391965591118966 0 0.89999999999958358 1 0 0.94399509803919068 0.9439950980391687 0 0.94999999999979179 1 0 0.89898474358632463 0.95391965591118966 0 0.84999999999965292 1 0 0.89898474358632463 0.95391965591118966 0 0.89999999999958358 1 0 0.81723410853263523 0.59419663659258926 0 0.86956835336234861 0.571283299838105 0 0.82862096804812391 0.55037090955459045 0 0.81723410853263523 0.59419663659258926 0 0.87159648282691515 0.61285406320581504 0 0.83758014339878906 0.63222013025741819 0 0.81723410853263523 0.59419663659258926 0 0.79884539758237771 0.62875045078114233 0 0.83758014339878906 0.63222013025741819 0 0.81723410853263523 0.59419663659258926 0 0.87159648282691515 0.61285406320581504 0 0.86956835336234861 0.571283299838105 0 0.86956835336234861 0.571283299838105 0 0.86907294890112186 0.52008116128001669 0 0.82862096804812391 0.55037090955459045 0 0.86907294890112186 0.52008116128001669 0 0.81441713509985358 0.51161854125224959 0 0.82862096804812391 0.55037090955459045 0 0.86907294890112186 0.52008116128001669 0 0.81441713509985358 0.51161854125224959 0 0.84723782639812573 0.48638347960178252 0 0.81441713509985358 0.51161854125224959 0 0.82862096804812391 0.55037090955459045 0 0.77151014687832564 0.54436834383023036 0 0.81441713509985358 0.51161854125224959 0 0.77151014687832564 0.54436834383023036 0 0.77846603114747959 0.49850927265137401 0 0.77151014687832564 0.54436834383023036 0 0.77846603114747959 0.49850927265137401 0 0.73947346780852752 0.49062440112282169 0 0.71809016091162536 0.58185040402320831 0 0.77151014687832564 0.54436834383023036 0 0.77293540622714185 0.59448302402785813 0 0.81723410853263523 0.59419663659258926 0 0.77151014687832564 0.54436834383023036 0 0.77293540622714185 0.59448302402785813 0 0.81723410853263523 0.59419663659258926 0 0.82862096804812391 0.55037090955459045 0 0.77151014687832564 0.54436834383023036 0 0.81723410853263523 0.59419663659258926 0 0.77293540622714185 0.59448302402785813 0 0.79884539758237771 0.62875045078114233 0 0.74994237037456724 0.62775548192980357 0 0.77293540622714185 0.59448302402785813 0 0.79884539758237771 0.62875045078114233 0 0.74994237037456724 0.62775548192980357 0 0.7750489929959945 0.66593931409600093 0 0.79884539758237771 0.62875045078114233 0 0.74999999999999989 0.69999999999999996 0 0.72500000000000064 0.67022701834392062 0 0.7750489929959945 0.66593931409600093 0 0.7750489929959945 0.66593931409600093 0 0.79999999999999982 0.69999999999999996 0 0.82457059160610424 0.66831947184359608 0 0.7750489929959945 0.66593931409600093 0 0.79884539758237771 0.62875045078114233 0 0.82457059160610424 0.66831947184359608 0 0.74999999999999989 0.69999999999999996 0 0.75841349681148107 0.75422312624214749 0 0.78578450296893509 0.73292684821144505 0 0.74999999999999989 0.69999999999999996 0 0.79999999999999982 0.69999999999999996 0 0.78578450296893509 0.73292684821144505 0 0.74999999999999989 0.69999999999999996 0 0.7750489929959945 0.66593931409600093 0 0.79999999999999982 0.69999999999999996 0 0.74999999999999989 0.69999999999999996 0 0.79999999999999982 0.69999999999999996 0 0.80185942888539485 0.77452061303608133 0 0.78578450296893509 0.73292684821144505 0 0.81864958914779962 0.73589050177899629 0 0.79999999999999982 0.69999999999999996 0 0.78578450296893509 0.73292684821144505 0 0.81864958914779962 0.73589050177899629 0 0.85491058998424563 0.76004753345552634 0 0.81864958914779962 0.73589050177899629 0 0.84999999999999987 0.69999999999999996 0 0.79999999999999982 0.69999999999999996 0 0.84999999999999987 0.69999999999999996 0 0.79999999999999982 0.69999999999999996 0 0.84999999999999987 0.69999999999999996 0 0.82457059160610424 0.66831947184359608 0 0.79999999999999982 0.69999999999999996 0 0.81864958914779962 0.73589050177899629 0 0.84999999999999987 0.69999999999999996 0 0.84999999999999987 0.69999999999999996 0 0.89999999999999991 0.69999999999999996 0 0.85491058998424563 0.76004753345552634 0 0.84999999999999987 0.69999999999999996 0 0.89999166460796554 0.74528934923809909 0 0.79884539758237771 0.62875045078114233 0 0.83758014339878906 0.63222013025741819 0 0.82457059160610424 0.66831947184359608 0 0.84999999999999987 0.69999999999999996 0 0.82457059160610424 0.66831947184359608 0 0.87712158428786946 0.65709029563313581 0 0.87159648282691515 0.61285406320581504 0 0.83758014339878906 0.63222013025741819 0 0.87712158428786946 0.65709029563313581 0 0.83758014339878906 0.63222013025741819 0 0.82457059160610424 0.66831947184359608 0 0.87712158428786946 0.65709029563313581 0 0.87712158428786946 0.65709029563313581 0 0.92057473616084773 0.66770436535372446 0 0.91750694127105259 0.63017627779935648 0 0.87159648282691515 0.61285406320581504 0 0.87712158428786946 0.65709029563313581 0 0.91750694127105259 0.63017627779935648 0 0.84999999999999987 0.69999999999999996 0 0.87712158428786946 0.65709029563313581 0 0.89999999999999991 0.69999999999999996 0 0.87712158428786946 0.65709029563313581 0 0.92057473616084773 0.66770436535372446 0 0.89999999999999991 0.69999999999999996 0 0.92057473616084773 0.66770436535372446 0 0.91750694127105259 0.63017627779935648 0 0.9578014258160763 0.65787212321113708 0 0.84999999999999987 0.69999999999999996 0 0.89999166460796554 0.74528934923809909 0 0.89999999999999991 0.69999999999999996 0 0.89999999999999991 0.69999999999999996 0 0.94999999999999996 0.69999999999999996 0 0.92057473616084773 0.66770436535372446 0 0.89999999999999991 0.69999999999999996 0 0.94999999999999996 0.69999999999999996 0 0.89999166460796554 0.74528934923809909 0 0.89999999999999991 0.69999999999999996 0 0.94999999999999996 0.69999999999999996 0 0.94399509803918602 0.75600490196082126 0 0.89999166460796554 0.74528934923809909 0 0.94999999999999996 0.69999999999999996 0 0.94399509803918602 0.75600490196082126 0 0.94999999999999996 0.69999999999999996 0 0.97166519676947294 0.73337114490064459 0 0.94999999999999996 0.69999999999999996 0 1 0.69999999999999996 0 0.94999999999999996 0.69999999999999996 0 1 0.69999999999999996 0 0.97166519676947294 0.73337114490064459 0 1 0.69999999999999996 0 0.97166519676947294 0.73337114490064459 0 1 0.74999999999993494 0 0.91750694127105259 0.63017627779935648 0 0.9578014258160763 0.65787212321113708 0 0.95867599106212187 0.60011091146651041 0 0.92057473616084773 0.66770436535372446 0 0.94999999999999996 0.69999999999999996 0 0.9578014258160763 0.65787212321113708 0 0.94999999999999996 0.69999999999999996 0 1 0.69999999999999996 0 0.9578014258160763 0.65787212321113708 0 1 0.69999999999999996 0 0.9578014258160763 0.65787212321113708 0 1 0.64999999999986979 0 0.9578014258160763 0.65787212321113708 0 1 0.64999999999986979 0 0.95867599106212187 0.60011091146651041 0 0.95867599106212187 0.60011091146651041 0 0.93732437411268477 0.55911392101136159 0 1 0.54999999999963112 0 1 0.64999999999986979 0 1 0.59999999999973963 0 0.95867599106212187 0.60011091146651041 0 1 0.59999999999973963 0 0.95867599106212187 0.60011091146651041 0 1 0.54999999999963112 0 0.91750694127105259 0.63017627779935648 0 0.95867599106212187 0.60011091146651041 0 0.91143117093204207 0.58709913730335972 0 0.95867599106212187 0.60011091146651041 0 0.91143117093204207 0.58709913730335972 0 0.93732437411268477 0.55911392101136159 0 0.86956835336234861 0.571283299838105 0 0.91143117093204207 0.58709913730335972 0 0.90900154012161016 0.53607784105648792 0 0.87159648282691515 0.61285406320581504 0 0.86956835336234861 0.571283299838105 0 0.91143117093204207 0.58709913730335972 0 0.87159648282691515 0.61285406320581504 0 0.91750694127105259 0.63017627779935648 0 0.91143117093204207 0.58709913730335972 0 0.86907294890112186 0.52008116128001669 0 0.90900154012161016 0.53607784105648792 0 0.91696753777131557 0.497780560203536 0 0.86956835336234861 0.571283299838105 0 0.86907294890112186 0.52008116128001669 0 0.90900154012161016 0.53607784105648792 0 0.90900154012161016 0.53607784105648792 0 0.93732437411268477 0.55911392101136159 0 0.95631871884947484 0.51827533208233789 0 0.91143117093204207 0.58709913730335972 0 0.90900154012161016 0.53607784105648792 0 0.93732437411268477 0.55911392101136159 0 0.90900154012161016 0.53607784105648792 0 0.95631871884947484 0.51827533208233789 0 0.91696753777131557 0.497780560203536 0 0.93732437411268477 0.55911392101136159 0 0.95631871884947484 0.51827533208233789 0 1 0.54999999999963112 0 0.95631871884947484 0.51827533208233789 0 1 0.54999999999963112 0 1 0.49999999999950101 0 0.95631871884947484 0.51827533208233789 0 1 0.49999999999950101 0 0.96228564064454991 0.48206450662049471 0 1 0.49999999999950101 0 1 0.44999999999963131 0 0.96228564064454991 0.48206450662049471 0 1 0.44999999999963131 0 0.93814194660195893 0.44426664081746747 0 0.96228564064454991 0.48206450662049471 0 0.93814194660195893 0.44426664081746747 0 0.96228564064454991 0.48206450662049471 0 0.91696753777131557 0.497780560203536 0 0.95631871884947484 0.51827533208233789 0 0.96228564064454991 0.48206450662049471 0 0.91696753777131557 0.497780560203536 0 1 0.39999999999978308 0 0.95871855522754235 0.40006508612975411 0 1 0.34999999999993492 0 1 0.44999999999963131 0 1 0.39999999999978308 0 0.95871855522754235 0.40006508612975411 0 1 0.44999999999963131 0 0.93814194660195893 0.44426664081746747 0 0.95871855522754235 0.40006508612975411 0 0.95871855522754235 0.40006508612975411 0 0.90594285160987287 0.4141265964174129 0 0.91750694127107502 0.36982372220068471 0 0.93814194660195893 0.44426664081746747 0 0.95871855522754235 0.40006508612975411 0 0.90594285160987287 0.4141265964174129 0 0.90594285160987287 0.4141265964174129 0 0.88594198078881503 0.46167788676578442 0 0.86411095495256451 0.42388805655111889 0 0.90594285160987287 0.4141265964174129 0 0.86411095495256451 0.42388805655111889 0 0.86844634540301924 0.38530937474099819 0 0.90594285160987287 0.4141265964174129 0 0.86844634540301924 0.38530937474099819 0 0.91750694127107502 0.36982372220068471 0 0.93814194660195893 0.44426664081746747 0 0.91696753777131557 0.497780560203536 0 0.88594198078881503 0.46167788676578442 0 0.93814194660195893 0.44426664081746747 0 0.90594285160987287 0.4141265964174129 0 0.88594198078881503 0.46167788676578442 0 0.86907294890112186 0.52008116128001669 0 0.91696753777131557 0.497780560203536 0 0.88594198078881503 0.46167788676578442 0 0.86907294890112186 0.52008116128001669 0 0.88594198078881503 0.46167788676578442 0 0.84723782639812573 0.48638347960178252 0 0.81441713509985358 0.51161854125224959 0 0.84723782639812573 0.48638347960178252 0 0.81400510706333218 0.47357325943904899 0 0.84723782639812573 0.48638347960178252 0 0.81400510706333218 0.47357325943904899 0 0.84925632466077294 0.45359738909549091 0 0.81400510706333218 0.47357325943904899 0 0.84925632466077294 0.45359738909549091 0 0.81973119833356312 0.43505687159469048 0 0.88594198078881503 0.46167788676578442 0 0.84723782639812573 0.48638347960178252 0 0.84925632466077294 0.45359738909549091 0 0.84925632466077294 0.45359738909549091 0 0.86411095495256451 0.42388805655111889 0 0.81973119833356312 0.43505687159469048 0 0.88594198078881503 0.46167788676578442 0 0.84925632466077294 0.45359738909549091 0 0.86411095495256451 0.42388805655111889 0 0.86411095495256451 0.42388805655111889 0 0.86844634540301924 0.38530937474099819 0 0.81308179852519835 0.39754945808726527 0 0.86844634540301924 0.38530937474099819 0 0.81308179852519835 0.39754945808726527 0 0.83573492347052902 0.36590755630746369 0 0.86411095495256451 0.42388805655111889 0 0.81308179852519835 0.39754945808726527 0 0.81973119833356312 0.43505687159469048 0 0.81973119833356312 0.43505687159469048 0 0.77354604466818633 0.40378688774472771 0 0.77972660463949339 0.45529290596363098 0 0.81308179852519835 0.39754945808726527 0 0.81973119833356312 0.43505687159469048 0 0.77354604466818633 0.40378688774472771 0 0.81308179852519835 0.39754945808726527 0 0.77354604466818633 0.40378688774472771 0 0.78145581580700685 0.34881365920033602 0 0.77354604466818633 0.40378688774472771 0 0.77972660463949339 0.45529290596363098 0 0.73483647259922602 0.44789725365921768 0 0.77972660463949339 0.45529290596363098 0 0.73483647259922602 0.44789725365921768 0 0.73947346780852752 0.49062440112282169 0 0.77972660463949339 0.45529290596363098 0 0.77846603114747959 0.49850927265137401 0 0.73947346780852752 0.49062440112282169 0 0.81400510706333218 0.47357325943904899 0 0.77972660463949339 0.45529290596363098 0 0.77846603114747959 0.49850927265137401 0 0.81441713509985358 0.51161854125224959 0 0.81400510706333218 0.47357325943904899 0 0.77846603114747959 0.49850927265137401 0 0.81400510706333218 0.47357325943904899 0 0.81973119833356312 0.43505687159469048 0 0.77972660463949339 0.45529290596363098 0 0.79999999999999982 0.29999999999999999 0 0.77075983436335049 0.25919399014334171 0 0.81486180804364938 0.26321394949780091 0 0.79999999999999982 0.29999999999999999 0 0.74999999999999989 0.29999999999999999 0 0.79999999999999982 0.29999999999999999 0 0.77075983436335049 0.25919399014334171 0 0.74999999999999989 0.29999999999999999 0 0.79999999999999982 0.29999999999999999 0 0.78145581580700685 0.34881365920033602 0 0.74999999999999989 0.29999999999999999 0 0.78145581580700685 0.34881365920033602 0 0.73090396928863699 0.33699297293167962 0 0.74999999999999989 0.29999999999999999 0 0.77354604466818633 0.40378688774472771 0 0.78145581580700685 0.34881365920033602 0 0.74764719760526988 0.3719647154012321 0 0.78145581580700685 0.34881365920033602 0 0.74764719760526988 0.3719647154012321 0 0.73090396928863699 0.33699297293167962 0 0.81308179852519835 0.39754945808726527 0 0.78145581580700685 0.34881365920033602 0 0.83573492347052902 0.36590755630746369 0 0.79999999999999982 0.29999999999999999 0 0.78145581580700685 0.34881365920033602 0 0.82500000000000062 0.33010209762754811 0 0.78145581580700685 0.34881365920033602 0 0.82500000000000062 0.33010209762754811 0 0.83573492347052902 0.36590755630746369 0 0.82500000000000062 0.33010209762754811 0 0.83573492347052902 0.36590755630746369 0 0.87430060258887643 0.34056085888204451 0 0.86844634540301924 0.38530937474099819 0 0.83573492347052902 0.36590755630746369 0 0.87430060258887643 0.34056085888204451 0 0.82500000000000062 0.33010209762754811 0 0.87430060258887643 0.34056085888204451 0 0.84999999999999987 0.29999999999999999 0 0.87430060258887643 0.34056085888204451 0 0.84999999999999987 0.29999999999999999 0 0.89999999999999991 0.29999999999999999 0 0.84999999999999987 0.29999999999999999 0 0.81486180804364938 0.26321394949780091 0 0.8517097391133297 0.2356960729520409 0 0.84999999999999987 0.29999999999999999 0 0.89898474358614167 0.25391965591104898 0 0.8517097391133297 0.2356960729520409 0 0.84999999999999987 0.29999999999999999 0 0.89999999999999991 0.29999999999999999 0 0.79999999999999982 0.29999999999999999 0 0.82500000000000062 0.33010209762754811 0 0.84999999999999987 0.29999999999999999 0 0.79999999999999982 0.29999999999999999 0 0.84999999999999987 0.29999999999999999 0 0.81486180804364938 0.26321394949780091 0 0.79999999999999982 0.29999999999999999 0 0.84999999999999987 0.29999999999999999 0 0.84999999999999987 0.29999999999999999 0 0.89898474358614167 0.25391965591104898 0 0.89999999999999991 0.29999999999999999 0 0.89999999999999991 0.29999999999999999 0 0.94999999999999996 0.29999999999999999 0 0.89999999999999991 0.29999999999999999 0 0.92012390126144183 0.33123581297173937 0 0.94999999999999996 0.29999999999999999 0 0.89898474358614167 0.25391965591104898 0 0.89999999999999991 0.29999999999999999 0 0.94999999999999996 0.29999999999999999 0 0.89898474358614167 0.25391965591104898 0 0.94999999999999996 0.29999999999999999 0 0.94399509803921056 0.24399509803922639 0 0.86844634540301924 0.38530937474099819 0 0.87430060258887643 0.34056085888204451 0 0.91750694127107502 0.36982372220068471 0 0.87430060258887643 0.34056085888204451 0 0.92012390126144183 0.33123581297173937 0 0.91750694127107502 0.36982372220068471 0 0.87430060258887643 0.34056085888204451 0 0.89999999999999991 0.29999999999999999 0 0.92012390126144183 0.33123581297173937 0 0.92012390126144183 0.33123581297173937 0 0.91750694127107502 0.36982372220068471 0 0.95780851984364423 0.34215720972155339 0 0.95871855522754235 0.40006508612975411 0 0.91750694127107502 0.36982372220068471 0 0.95780851984364423 0.34215720972155339 0 0.92012390126144183 0.33123581297173937 0 0.95780851984364423 0.34215720972155339 0 0.94999999999999996 0.29999999999999999 0 0.95780851984364423 0.34215720972155339 0 0.94999999999999996 0.29999999999999999 0 1 0.29999999999999999 0 0.95780851984364423 0.34215720972155339 0 1 0.34999999999993492 0 1 0.29999999999999999 0 0.95871855522754235 0.40006508612975411 0 0.95780851984364423 0.34215720972155339 0 1 0.34999999999993492 0 0.94999999999999996 0.29999999999999999 0 0.97166519676951801 0.26662885509932011 0 0.94399509803921056 0.24399509803922639 0 0.94999999999999996 0.29999999999999999 0 1 0.29999999999999999 0 0.94999999999999996 0.29999999999999999 0 1 0.29999999999999999 0 0.97166519676951801 0.26662885509932011 0 1 0.29999999999999999 0 0.97166519676951801 0.26662885509932011 0 1 0.24999999999987299 0 0.97166519676951801 0.26662885509932011 0 0.97435614836740092 0.22499999999981049 0 1 0.24999999999987299 0 0.97435614836740092 0.22499999999981049 0 1 0.24999999999987299 0 1 0.19999999999974799 0 0.97435614836740092 0.22499999999981049 0 0.94399509803921056 0.24399509803922639 0 0.95391631417672862 0.19584263333809451 0 0.97166519676951801 0.26662885509932011 0 0.97435614836740092 0.22499999999981049 0 0.94399509803921056 0.24399509803922639 0 0.97435614836740092 0.22499999999981049 0 0.95391631417672862 0.19584263333809451 0 1 0.19999999999974799 0 0.95391631417672862 0.19584263333809451 0 1 0.14999999999961891 0 0.93677536231883773 0.14999999999999089 0 1 0.14999999999961891 0 0.93677536231883773 0.14999999999999089 0 0.95386563387744361 0.1041487415577465 0 0.95391631417672862 0.19584263333809451 0 1 0.19999999999974799 0 1 0.14999999999961891 0 0.95391631417672862 0.19584263333809451 0 0.93677536231883773 0.14999999999999089 0 0.90416666666668166 0.20416666666667119 0 0.93677536231883773 0.14999999999999089 0 0.88088768115941807 0.14674609810479519 0 0.90416666666668166 0.20416666666667119 0 0.93677536231883773 0.14999999999999089 0 0.88088768115941807 0.14674609810479519 0 0.90299850604006393 0.09563452813493091 0 0.88088768115941807 0.14674609810479519 0 0.90416666666668166 0.20416666666667119 0 0.85600844944842547 0.1848341897950983 0 0.89898474358614167 0.25391965591104898 0 0.90416666666668166 0.20416666666667119 0 0.8517097391133297 0.2356960729520409 0 0.89898474358614167 0.25391965591104898 0 0.94399509803921056 0.24399509803922639 0 0.90416666666668166 0.20416666666667119 0 0.94399509803921056 0.24399509803922639 0 0.95391631417672862 0.19584263333809451 0 0.90416666666668166 0.20416666666667119 0 0.94999999999986839 0 0 0.97166519676946894 0.033371144900598393 0 0.94399509803922566 0.056004901960802607 0 0.94999999999986839 0 0 1 0 0 0.97166519676946894 0.033371144900598393 0 1 0 0 1 0.049999999999896842 0 0.97166519676946894 0.033371144900598393 0 1 0.049999999999896842 0 0.97166519676946894 0.033371144900598393 0 0.97435614836748241 0.074999999999825387 0 0.97166519676946894 0.033371144900598393 0 0.94399509803922566 0.056004901960802607 0 0.97435614836748241 0.074999999999825387 0 0.94399509803922566 0.056004901960802607 0 0.97435614836748241 0.074999999999825387 0 0.95386563387744361 0.1041487415577465 0 0.97435614836748241 0.074999999999825387 0 1 0.099999999999753911 0 0.95386563387744361 0.1041487415577465 0 1 0.049999999999896842 0 0.97435614836748241 0.074999999999825387 0 1 0.099999999999753911 0 1 0.14999999999961891 0 1 0.099999999999753911 0 0.95386563387744361 0.1041487415577465 0 0.93677536231883773 0.14999999999999089 0 0.95386563387744361 0.1041487415577465 0 0.90299850604006393 0.09563452813493091 0 0.88088768115941807 0.14674609810479519 0 0.90299850604006393 0.09563452813493091 0 0.84725310900442086 0.10779732082922661 0 0.90299850604006393 0.09563452813493091 0 0.899991664607802 0.045289349238254978 0 0.85491058998398861 0.060047533455626502 0 0.94399509803922566 0.056004901960802607 0 0.95386563387744361 0.1041487415577465 0 0.90299850604006393 0.09563452813493091 0 0.94399509803922566 0.056004901960802607 0 0.90299850604006393 0.09563452813493091 0 0.899991664607802 0.045289349238254978 0 0.94999999999986839 0 0 0.94399509803922566 0.056004901960802607 0 0.899991664607802 0.045289349238254978 0 0.899991664607802 0.045289349238254978 0 0.89999999999973679 0 0 0.84999999999960507 0 0 0.94999999999986839 0 0 0.899991664607802 0.045289349238254978 0 0.89999999999973679 0 0 0.84999999999960507 0 0 0.81864958914740749 0.035890501779055867 0 0.79999999999947335 0 0 0.899991664607802 0.045289349238254978 0 0.84999999999960507 0 0 0.85491058998398861 0.060047533455626502 0 0.85491058998398861 0.060047533455626502 0 0.81864958914740749 0.035890501779055867 0 0.80185942888501827 0.074520613036224564 0 0.84999999999960507 0 0 0.85491058998398861 0.060047533455626502 0 0.81864958914740749 0.035890501779055867 0 0.85491058998398861 0.060047533455626502 0 0.84725310900442086 0.10779732082922661 0 0.80185942888501827 0.074520613036224564 0 0.90299850604006393 0.09563452813493091 0 0.85491058998398861 0.060047533455626502 0 0.84725310900442086 0.10779732082922661 0 0.84725310900442086 0.10779732082922661 0 0.80076557130237269 0.1154587552654202 0 0.80185942888501827 0.074520613036224564 0 0.84725310900442086 0.10779732082922661 0 0.80076557130237269 0.1154587552654202 0 0.82709327591102189 0.14937141670914489 0 0.80076557130237269 0.1154587552654202 0 0.76878382444651716 0.097147941686331368 0 0.80185942888501827 0.074520613036224564 0 0.76878382444651716 0.097147941686331368 0 0.77144070960558853 0.14311854477243749 0 0.72525833953073282 0.1032114801687094 0 0.80076557130237269 0.1154587552654202 0 0.76878382444651716 0.097147941686331368 0 0.77144070960558853 0.14311854477243749 0 0.76878382444651716 0.097147941686331368 0 0.80185942888501827 0.074520613036224564 0 0.7527966693318906 0.053051678021508272 0 0.81864958914740749 0.035890501779055867 0 0.80185942888501827 0.074520613036224564 0 0.78393852574753176 0.032039079577822822 0 0.80185942888501827 0.074520613036224564 0 0.78393852574753176 0.032039079577822822 0 0.7527966693318906 0.053051678021508272 0 0.78393852574753176 0.032039079577822822 0 0.7527966693318906 0.053051678021508272 0 0.74999999999934175 0 0 0.78393852574753176 0.032039079577822822 0 0.79999999999947335 0 0 0.74999999999934175 0 0 0.81864958914740749 0.035890501779055867 0 0.78393852574753176 0.032039079577822822 0 0.79999999999947335 0 0 0.81283102246527783 0.1881007222486438 0 0.8517097391133297 0.2356960729520409 0 0.79680861578956375 0.22656778056752541 0 0.81283102246527783 0.1881007222486438 0 0.8517097391133297 0.2356960729520409 0 0.85600844944842547 0.1848341897950983 0 0.81486180804364938 0.26321394949780091 0 0.8517097391133297 0.2356960729520409 0 0.79680861578956375 0.22656778056752541 0 0.90416666666668166 0.20416666666667119 0 0.8517097391133297 0.2356960729520409 0 0.85600844944842547 0.1848341897950983 0 0.88088768115941807 0.14674609810479519 0 0.85600844944842547 0.1848341897950983 0 0.82709327591102189 0.14937141670914489 0 0.88088768115941807 0.14674609810479519 0 0.84725310900442086 0.10779732082922661 0 0.82709327591102189 0.14937141670914489 0 0.81283102246527783 0.1881007222486438 0 0.85600844944842547 0.1848341897950983 0 0.82709327591102189 0.14937141670914489 0 0.81283102246527783 0.1881007222486438 0 0.77144070960558853 0.14311854477243749 0 0.76587607630038135 0.18880039518954719 0 0.81283102246527783 0.1881007222486438 0 0.82709327591102189 0.14937141670914489 0 0.77144070960558853 0.14311854477243749 0 0.80076557130237269 0.1154587552654202 0 0.82709327591102189 0.14937141670914489 0 0.77144070960558853 0.14311854477243749 0 0.77144070960558853 0.14311854477243749 0 0.76587607630038135 0.18880039518954719 0 0.72634814642510737 0.16106886917518889 0 0.76587607630038135 0.18880039518954719 0 0.79680861578956375 0.22656778056752541 0 0.75668890529066124 0.2244279804069782 0 0.81283102246527783 0.1881007222486438 0 0.76587607630038135 0.18880039518954719 0 0.79680861578956375 0.22656778056752541 0 0.77075983436335049 0.25919399014334171 0 0.81486180804364938 0.26321394949780091 0 0.79680861578956375 0.22656778056752541 0 0.77075983436335049 0.25919399014334171 0 0.79680861578956375 0.22656778056752541 0 0.75668890529066124 0.2244279804069782 0 0.77075983436335049 0.25919399014334171 0 0.75668890529066124 0.2244279804069782 0 0.72500000000000064 0.2498161764706 0 0.75668890529066124 0.2244279804069782 0 0.72500000000000064 0.2498161764706 0 0.72500000000001008 0.19776155966387679 0 0.72500000000000064 0.2498161764706 0 0.69397719155551807 0.2245125647000914 0 0.72500000000001008 0.19776155966387679 0 0.72500000000000064 0.2498161764706 0 0.69397719155551807 0.2245125647000914 0 0.67933712972090698 0.25920070958121938 0 0.69397719155551807 0.2245125647000914 0 0.72500000000001008 0.19776155966387679 0 0.6865991819015953 0.189116534044597 0 0.76587607630038135 0.18880039518954719 0 0.75668890529066124 0.2244279804069782 0 0.72500000000001008 0.19776155966387679 0 0.76587607630038135 0.18880039518954719 0 0.72500000000001008 0.19776155966387679 0 0.72634814642510737 0.16106886917518889 0 0.77144070960558853 0.14311854477243749 0 0.72634814642510737 0.16106886917518889 0 0.72525833953073282 0.1032114801687094 0 0.72634814642510737 0.16106886917518889 0 0.68391457121233579 0.14440470121196541 0 0.72525833953073282 0.1032114801687094 0 0.72500000000001008 0.19776155966387679 0 0.72634814642510737 0.16106886917518889 0 0.6865991819015953 0.189116534044597 0 0.72634814642510737 0.16106886917518889 0 0.68391457121233579 0.14440470121196541 0 0.6865991819015953 0.189116534044597 0 0.68391457121233579 0.14440470121196541 0 0.64011864159029941 0.18789607982138171 0 0.6865991819015953 0.189116534044597 0 0.68391457121233579 0.14440470121196541 0 0.65290632656860115 0.11434202593454081 0 0.6236733212988993 0.14864538214901801 0 0.68391457121233579 0.14440470121196541 0 0.64011864159029941 0.18789607982138171 0 0.6236733212988993 0.14864538214901801 0 0.64011864159029941 0.18789607982138171 0 0.65394964615507722 0.22666784374016369 0 0.59814117807200873 0.23398510860739519 0 0.65394964615507722 0.22666784374016369 0 0.59814117807200873 0.23398510860739519 0 0.62657463266645097 0.26524202571255862 0 0.69397719155551807 0.2245125647000914 0 0.65394964615507722 0.22666784374016369 0 0.67933712972090698 0.25920070958121938 0 0.64011864159029941 0.18789607982138171 0 0.65394964615507722 0.22666784374016369 0 0.6865991819015953 0.189116534044597 0 0.69397719155551807 0.2245125647000914 0 0.65394964615507722 0.22666784374016369 0 0.6865991819015953 0.189116534044597 0 0.69999999999921003 0 0 0.72683645290270404 0.027797073151180601 0 0.7010294155333181 0.056779085686491267 0 0.69999999999921003 0 0 0.7010294155333181 0.056779085686491267 0 0.66369801598854572 0.036327466368102787 0 0.7527966693318906 0.053051678021508272 0 0.74999999999934175 0 0 0.72683645290270404 0.027797073151180601 0 0.69999999999921003 0 0 0.74999999999934175 0 0 0.72683645290270404 0.027797073151180601 0 0.7527966693318906 0.053051678021508272 0 0.72683645290270404 0.027797073151180601 0 0.7010294155333181 0.056779085686491267 0 0.7010294155333181 0.056779085686491267 0 0.72525833953073282 0.1032114801687094 0 0.68330259535470161 0.10038702501083881 0 0.7527966693318906 0.053051678021508272 0 0.7010294155333181 0.056779085686491267 0 0.72525833953073282 0.1032114801687094 0 0.76878382444651716 0.097147941686331368 0 0.7527966693318906 0.053051678021508272 0 0.72525833953073282 0.1032114801687094 0 0.68391457121233579 0.14440470121196541 0 0.72525833953073282 0.1032114801687094 0 0.68330259535470161 0.10038702501083881 0 0.68330259535470161 0.10038702501083881 0 0.65290632656860115 0.11434202593454081 0 0.65408113592120842 0.073941773121567966 0 0.68391457121233579 0.14440470121196541 0 0.68330259535470161 0.10038702501083881 0 0.65290632656860115 0.11434202593454081 0 0.65290632656860115 0.11434202593454081 0 0.61956000905586006 0.1043312481793135 0 0.6236733212988993 0.14864538214901801 0 0.65290632656860115 0.11434202593454081 0 0.65408113592120842 0.073941773121567966 0 0.61956000905586006 0.1043312481793135 0 0.65408113592120842 0.073941773121567966 0 0.61940220174112337 0.047251958781050582 0 0.61956000905586006 0.1043312481793135 0 0.7010294155333181 0.056779085686491267 0 0.68330259535470161 0.10038702501083881 0 0.65408113592120842 0.073941773121567966 0 0.7010294155333181 0.056779085686491267 0 0.65408113592120842 0.073941773121567966 0 0.66369801598854572 0.036327466368102787 0 0.65408113592120842 0.073941773121567966 0 0.66369801598854572 0.036327466368102787 0 0.61940220174112337 0.047251958781050582 0 0.66369801598854572 0.036327466368102787 0 0.64999999999907843 0 0 0.61940220174112337 0.047251958781050582 0 0.69999999999921003 0 0 0.66369801598854572 0.036327466368102787 0 0.64999999999907843 0 0 0.59999999999894682 0 0 0.57396793757665954 0.037011367187645222 0 0.5499999999988151 0 0 0.64999999999907843 0 0 0.59999999999894682 0 0 0.61940220174112337 0.047251958781050582 0 0.59999999999894682 0 0 0.61940220174112337 0.047251958781050582 0 0.57396793757665954 0.037011367187645222 0 0.61940220174112337 0.047251958781050582 0 0.57396793757665954 0.037011367187645222 0 0.57667858002728545 0.078486105337742612 0 0.61940220174112337 0.047251958781050582 0 0.57667858002728545 0.078486105337742612 0 0.61956000905586006 0.1043312481793135 0 0.61956000905586006 0.1043312481793135 0 0.58516465772821369 0.11653801664834119 0 0.6236733212988993 0.14864538214901801 0 0.57667858002728545 0.078486105337742612 0 0.61956000905586006 0.1043312481793135 0 0.58516465772821369 0.11653801664834119 0 0.58516465772821369 0.11653801664834119 0 0.54979595918804436 0.1060565713905809 0 0.56202748619534593 0.15054058349222879 0 0.57667858002728545 0.078486105337742612 0 0.58516465772821369 0.11653801664834119 0 0.54979595918804436 0.1060565713905809 0 0.54979595918804436 0.1060565713905809 0 0.51076801031701946 0.1202837388510348 0 0.52375890611712683 0.059318771819432882 0 0.47881186583059909 0.093591717165689425 0 0.51076801031701946 0.1202837388510348 0 0.52375890611712683 0.059318771819432882 0 0.57667858002728545 0.078486105337742612 0 0.54979595918804436 0.1060565713905809 0 0.52375890611712683 0.059318771819432882 0 0.57396793757665954 0.037011367187645222 0 0.52375890611712683 0.059318771819432882 0 0.5499999999988151 0 0 0.57396793757665954 0.037011367187645222 0 0.57667858002728545 0.078486105337742612 0 0.52375890611712683 0.059318771819432882 0 0.49999999999869432 0 0 0.52375890611712683 0.059318771819432882 0 0.5499999999988151 0 0 0.59814117807200873 0.23398510860739519 0 0.59443395090188023 0.18455690917515069 0 0.55306006949600994 0.20198184231352201 0 0.59814117807200873 0.23398510860739519 0 0.55306006949600994 0.20198184231352201 0 0.54248833945060504 0.2520322959927106 0 0.64011864159029941 0.18789607982138171 0 0.59814117807200873 0.23398510860739519 0 0.59443395090188023 0.18455690917515069 0 0.64011864159029941 0.18789607982138171 0 0.59443395090188023 0.18455690917515069 0 0.6236733212988993 0.14864538214901801 0 0.58516465772821369 0.11653801664834119 0 0.6236733212988993 0.14864538214901801 0 0.56202748619534593 0.15054058349222879 0 0.59443395090188023 0.18455690917515069 0 0.6236733212988993 0.14864538214901801 0 0.56202748619534593 0.15054058349222879 0 0.59443395090188023 0.18455690917515069 0 0.56202748619534593 0.15054058349222879 0 0.55306006949600994 0.20198184231352201 0 0.56202748619534593 0.15054058349222879 0 0.51729576145820033 0.1683240575987815 0 0.55306006949600994 0.20198184231352201 0 0.54979595918804436 0.1060565713905809 0 0.51076801031701946 0.1202837388510348 0 0.56202748619534593 0.15054058349222879 0 0.48466639505193998 0.1421439844745814 0 0.51076801031701946 0.1202837388510348 0 0.51729576145820033 0.1683240575987815 0 0.51076801031701946 0.1202837388510348 0 0.56202748619534593 0.15054058349222879 0 0.51729576145820033 0.1683240575987815 0 0.51729576145820033 0.1683240575987815 0 0.50760557329222289 0.20700468884612061 0 0.55306006949600994 0.20198184231352201 0 0.50760557329222289 0.20700468884612061 0 0.55306006949600994 0.20198184231352201 0 0.54248833945060504 0.2520322959927106 0 0.49695729691142171 0.25014895411178018 0 0.50760557329222289 0.20700468884612061 0 0.54248833945060504 0.2520322959927106 0 0.49695729691142171 0.25014895411178018 0 0.5 0.29999999999999999 0 0.54248833945060504 0.2520322959927106 0 0.5 0.29999999999999999 0 0.54999999999999993 0.29999999999999999 0 0.52752007115234678 0.33170632466418198 0 0.5 0.29999999999999999 0 0.54999999999999993 0.29999999999999999 0 0.54248833945060504 0.2520322959927106 0 0.5 0.29999999999999999 0 0.54999999999999993 0.29999999999999999 0 0.54999999999999993 0.29999999999999999 0 0.54248833945060504 0.2520322959927106 0 0.5794309697024993 0.27124795968204829 0 0.59814117807200873 0.23398510860739519 0 0.54248833945060504 0.2520322959927106 0 0.5794309697024993 0.27124795968204829 0 0.54999999999999993 0.29999999999999999 0 0.59999999999999976 0.29999999999999999 0 0.54999999999999993 0.29999999999999999 0 0.5794309697024993 0.27124795968204829 0 0.59999999999999976 0.29999999999999999 0 0.59999999999999976 0.29999999999999999 0 0.6499999999999998 0.29999999999999999 0 0.5794309697024993 0.27124795968204829 0 0.59999999999999976 0.29999999999999999 0 0.62657463266645097 0.26524202571255862 0 0.59814117807200873 0.23398510860739519 0 0.5794309697024993 0.27124795968204829 0 0.62657463266645097 0.26524202571255862 0 0.61959173890754571 0.33832250091341232 0 0.56836770495988642 0.3523062350852913 0 0.6084546825910605 0.37989672713932537 0 0.59999999999999976 0.29999999999999999 0 0.61959173890754571 0.33832250091341232 0 0.6499999999999998 0.29999999999999999 0 0.59999999999999976 0.29999999999999999 0 0.61959173890754571 0.33832250091341232 0 0.56836770495988642 0.3523062350852913 0 0.54999999999999993 0.29999999999999999 0 0.59999999999999976 0.29999999999999999 0 0.56836770495988642 0.3523062350852913 0 0.56836770495988642 0.3523062350852913 0 0.52752007115234678 0.33170632466418198 0 0.52289427570932567 0.3932284363388488 0 0.54999999999999993 0.29999999999999999 0 0.56836770495988642 0.3523062350852913 0 0.52752007115234678 0.33170632466418198 0 0.49077833859261139 0.35229981449445641 0 0.5 0.29999999999999999 0 0.52752007115234678 0.33170632466418198 0 0.49077833859261139 0.35229981449445641 0 0.52752007115234678 0.33170632466418198 0 0.52289427570932567 0.3932284363388488 0 0.56836770495988642 0.3523062350852913 0 0.52289427570932567 0.3932284363388488 0 0.57744073070774993 0.41535148636609359 0 0.52289427570932567 0.3932284363388488 0 0.53823865529665704 0.45873898050322898 0 0.57744073070774993 0.41535148636609359 0 0.48858720058566618 0.43964267759203868 0 0.52289427570932567 0.3932284363388488 0 0.53823865529665704 0.45873898050322898 0 0.49102375406324739 0.49123754822244059 0 0.53330375813596242 0.50827942741749099 0 0.53823865529665704 0.45873898050322898 0 0.49102375406324739 0.49123754822244059 0 0.48858720058566618 0.43964267759203868 0 0.53823865529665704 0.45873898050322898 0 0.53330375813596242 0.50827942741749099 0 0.57611405284611883 0.50165903596042916 0 0.53823865529665704 0.45873898050322898 0 0.57611405284611883 0.50165903596042916 0 0.57975577671020095 0.46172033326338591 0 0.61547661924074692 0.48539576058873962 0 0.57611405284611883 0.50165903596042916 0 0.53823865529665704 0.45873898050322898 0 0.57975577671020095 0.46172033326338591 0 0.57975577671020095 0.46172033326338591 0 0.61209567303293111 0.44669033081290321 0 0.57744073070774993 0.41535148636609359 0 0.53823865529665704 0.45873898050322898 0 0.57975577671020095 0.46172033326338591 0 0.57744073070774993 0.41535148636609359 0 0.57975577671020095 0.46172033326338591 0 0.61209567303293111 0.44669033081290321 0 0.61547661924074692 0.48539576058873962 0 0.56836770495988642 0.3523062350852913 0 0.57744073070774993 0.41535148636609359 0 0.6084546825910605 0.37989672713932537 0 0.61209567303293111 0.44669033081290321 0 0.57744073070774993 0.41535148636609359 0 0.63912439215427275 0.41063340167983359 0 0.57744073070774993 0.41535148636609359 0 0.6084546825910605 0.37989672713932537 0 0.63912439215427275 0.41063340167983359 0 0.6084546825910605 0.37989672713932537 0 0.63912439215427275 0.41063340167983359 0 0.65481233915350323 0.35652751921065562 0 0.63912439215427275 0.41063340167983359 0 0.65178832218679827 0.45929119821019959 0 0.6879972333610942 0.43038561374960838 0 0.63912439215427275 0.41063340167983359 0 0.68128176404677243 0.38629093627004979 0 0.6879972333610942 0.43038561374960838 0 0.63912439215427275 0.41063340167983359 0 0.68128176404677243 0.38629093627004979 0 0.65481233915350323 0.35652751921065562 0 0.61547661924074692 0.48539576058873962 0 0.6541250972820879 0.49999999999999989 0 0.65178832218679827 0.45929119821019959 0 0.61209567303293111 0.44669033081290321 0 0.61547661924074692 0.48539576058873962 0 0.65178832218679827 0.45929119821019959 0 0.61209567303293111 0.44669033081290321 0 0.63912439215427275 0.41063340167983359 0 0.65178832218679827 0.45929119821019959 0 0.65178832218679827 0.45929119821019959 0 0.69385896817107129 0.48377516041410151 0 0.6879972333610942 0.43038561374960838 0 0.6541250972820879 0.49999999999999989 0 0.65178832218679827 0.45929119821019959 0 0.69385896817107129 0.48377516041410151 0 0.7152569930854884 0.5237994455134295 0 0.69385896817107129 0.48377516041410151 0 0.73947346780852752 0.49062440112282169 0 0.69385896817107129 0.48377516041410151 0 0.73483647259922602 0.44789725365921768 0 0.6879972333610942 0.43038561374960838 0 0.69385896817107129 0.48377516041410151 0 0.73483647259922602 0.44789725365921768 0 0.73947346780852752 0.49062440112282169 0 0.68128176404677243 0.38629093627004979 0 0.72622533758026719 0.40265885511101601 0 0.71508799138962864 0.36622814920737751 0 0.73483647259922602 0.44789725365921768 0 0.6879972333610942 0.43038561374960838 0 0.72622533758026719 0.40265885511101601 0 0.68128176404677243 0.38629093627004979 0 0.6879972333610942 0.43038561374960838 0 0.72622533758026719 0.40265885511101601 0 0.77354604466818633 0.40378688774472771 0 0.73483647259922602 0.44789725365921768 0 0.72622533758026719 0.40265885511101601 0 0.72622533758026719 0.40265885511101601 0 0.74764719760526988 0.3719647154012321 0 0.71508799138962864 0.36622814920737751 0 0.77354604466818633 0.40378688774472771 0 0.72622533758026719 0.40265885511101601 0 0.74764719760526988 0.3719647154012321 0 0.74764719760526988 0.3719647154012321 0 0.71508799138962864 0.36622814920737751 0 0.73090396928863699 0.33699297293167962 0 0.71508799138962864 0.36622814920737751 0 0.68887083591306764 0.33632058575757479 0 0.73090396928863699 0.33699297293167962 0 0.68128176404677243 0.38629093627004979 0 0.71508799138962864 0.36622814920737751 0 0.68887083591306764 0.33632058575757479 0 0.68887083591306764 0.33632058575757479 0 0.73090396928863699 0.33699297293167962 0 0.69999999999999984 0.29999999999999999 0 0.72500000000000064 0.2498161764706 0 0.74999999999999989 0.29999999999999999 0 0.69999999999999984 0.29999999999999999 0 0.74999999999999989 0.29999999999999999 0 0.69999999999999984 0.29999999999999999 0 0.73090396928863699 0.33699297293167962 0 0.74999999999999989 0.29999999999999999 0 0.69999999999999984 0.29999999999999999 0 0.77075983436335049 0.25919399014334171 0 0.72500000000000064 0.2498161764706 0 0.74999999999999989 0.29999999999999999 0 0.72500000000000064 0.2498161764706 0 0.69999999999999984 0.29999999999999999 0 0.67933712972090698 0.25920070958121938 0 0.69999999999999984 0.29999999999999999 0 0.67933712972090698 0.25920070958121938 0 0.6499999999999998 0.29999999999999999 0 0.68887083591306764 0.33632058575757479 0 0.69999999999999984 0.29999999999999999 0 0.6499999999999998 0.29999999999999999 0 0.69999999999999984 0.29999999999999999 0 0.6499999999999998 0.29999999999999999 0 0.67933712972090698 0.25920070958121938 0 0.62657463266645097 0.26524202571255862 0 0.6499999999999998 0.29999999999999999 0 0.65394964615507722 0.22666784374016369 0 0.67933712972090698 0.25920070958121938 0 0.62657463266645097 0.26524202571255862 0 0.59999999999999976 0.29999999999999999 0 0.62657463266645097 0.26524202571255862 0 0.6499999999999998 0.29999999999999999 0 0.61959173890754571 0.33832250091341232 0 0.6499999999999998 0.29999999999999999 0 0.65481233915350323 0.35652751921065562 0 0.61959173890754571 0.33832250091341232 0 0.6084546825910605 0.37989672713932537 0 0.65481233915350323 0.35652751921065562 0 0.68128176404677243 0.38629093627004979 0 0.68887083591306764 0.33632058575757479 0 0.65481233915350323 0.35652751921065562 0 0.68887083591306764 0.33632058575757479 0 0.6499999999999998 0.29999999999999999 0 0.65481233915350323 0.35652751921065562 0 
</DataArray>
</Points>
<Cells>
<DataArray type="UInt32" Name="connectivity" format="ascii">
0 1 2 3 4 5 6 7 8 9 10 11 12 13 14 15 16 17 18 19 20 21 22 23 24 25 26 27 28 29 30 31 32 33 34 35 36 37 38 39 40 41 42 43 44 45 46 47 48 49 50 51 52 53 54 55 56 57 58 59 60 61 62 63 64 65 66 67 68 69 70 71 72 73 74 75 76 77 78 79 80 81 82 83 84 85 86 87 88 89 90 91 92 93 94 95 96 97 98 99 100 101 102 103 104 105 106 107 108 109 110 111 112 113 114 115 116 117 118 119 120 121 122 123 124 125 126 127 128 129 130 131 132 133 134 135 136 137 138 139 140 141 142 143 144 145 146 147 148 149 150 151 152 153 154 155 156 157 158 159 160 161 162 163 164 165 166 167 168 169 170 171 172 173 174 175 176 177 178 179 180 181 182 183 184 185 186 187 188 189 190 191 192 193 194 195 196 197 198 199 200 201 202 203 204 205 206 207 208 209 210 211 212 213 214 215 216 217 218 219 220 221 222 223 224 225 226 227 228 229 230 231 232 233 234 235 236 237 238 239 240 241 242 243 244 245 246 247 248 249 250 251 252 253 254 255 256 257 258 259 260 261 262 263 264 265 266 267 268 269 270 271 272 273 274 275 276 277 278 279 280 281 282 283 284 285 286 287 288 289 290 291 292 293 294 295 296 297 298 299 300 301 302 303 304 305 306 307 308 309 310 311 312 313 314 315 316 317 318 319 320 321 322 323 324 325 326 327 328 329 330 331 332 333 334 335 336 337 338 339 340 341 342 343 344 345 346 347 348 349 350 351 352 353 354 355 356 357 358 359 360 361 362 363 364 365 366 367 368 369 370 371 372 373 374 375 376 377 378 379 380 381 382 383 384 385 386 387 388 389 390 391 392 393 394 395 396 397 398 399 400 401 402 403 404 405 406 407 408 409 410 411 412 413 414 415 416 417 418 419 420 421 422 423 424 425 426 427 428 429 430 431 432 433 434 435 436 437 438 439 440 441 442 443 444 445 446 447 448 449 450 451 452 453 454 455 456 457 458 459 460 461 462 463 464 465 466 467 468 469 470 471 472 473 474 475 476 477 478 479 480 481 482 483 484 485 486 487 488 489 490 491 492 493 494 495 496 497 498 499 500 501 502 503 504 505 506 507 508 509 510 511 512 513 514 515 516 517 518 519 520 521 522 523 524 525 526 527 528 529 530 531 532 533 534 535 536 537 538 539 540 541 542 543 544 545 546 547 548 549 550 551 552 553 554 555 556 557 558 559 560 561 562 563 564 565 566 567 568 569 570 571 572 573 574 575 576 577 578 579 580 581 582 583 584 585 586 587 588 589 590 591 592 593 594 595 596 597 598 599 600 601 602 603 604 605 606 607 608 609 610 611 612 613 614 615 616 617 618 619 620 621 622 623 624 625 626 627 628 629 630 631 632 633 634 635 636 637 638 639 640 641 642 643 644 645 646 647 648 649 650 651 652 653 654 655 656 657 658 659 660 661 662 663 664 665 666 667 668 669 670 671 672 673 674 675 676 677 678 679 680 681 682 683 684 685 686 687 688 689 690 691 692 693 694 695 696 697 698 699 700 701 702 703 704 705 706 707 708 709 710 711 712 713 714 715 716 717 718 719 720 721 722 723 724 725 726 727 728 729 730 731 732 733 734 735 736 737 738 739 740 741 742 743 744 745 746 747 748 749 750 751 752 753 754 755 756 757 758 759 760 761 762 763 764 765 766 767 768 769 770 771 772 773 774 775 776 777 778 779 780 781 782 783 784 785 786 787 788 789 790 791 792 793 794 795 796 797 798 799 800 801 802 803 804 805 806 807 808 809 810 811 812 813 814 815 816 817 818 819 820 821 822 823 824 825 826 827 828 829 830 831 832 833 834 835 836 837 838 839 840 841 842 843 844 845 846 847 848 849 850 851 852 853 854 855 856 857 858 859 860 861 862 863 864 865 866 867 868 869 870 871 872 873 874 875 876 877 878 879 880 881 882 883 884 885 886 887 888 889 890 891 892 893 894 895 896 897 898 899 900 901 902 903 904 905 906 907 908 909 910 911 912 913 914 915 916 917 918 919 920 921 922 923 924 925 926 927 928 929 930 931 932 933 934 935 936 937 938 939 940 941 942 943 944 945 946 947 948 949 950 951 952 953 954 955 956 957 958 959 960 961 962 963 964 965 966 967 968 969 970 971 972 973 974 975 976 977 978 979 980 981 982 983 984 985 986 987 988 989 990 991 992 993 994 995 996 997 998 999 1000 1001 1002 1003 1004 1005 1006 1007 1008 1009 1010 1011 1012 1013 1014 1015 1016 1017 1018 1019 1020 1021 1022 1023 1024 1025 1026 1027 1028 1029 1030 1031 1032 1033 1034 1035 1036 1037 1038 1039 1040 1041 1042 1043 1044 1045 1046 1047 1048 1049 1050 1051 1052 1053 1054 1055 1056 1057 1058 1059 1060 1061 1062 1063 1064 1065 1066 1067 1068 1069 1070 1071 1072 1073 1074 1075 1076 1077 1078 1079 1080 1081 1082 1083 1084 1085 1086 1087 1088 1089 1090 1091 1092 1093 1094 1095 1096 1097 1098 1099 1100 1101 1102 1103 1104 1105 1106 1107 1108 1109 1110 1111 1112 1113 1114 1115 1116 1117 1118 1119 1120 1121 1122 1123 1124 1125 1126 1127 1128 1129 1130 1131 1132 1133 1134 1135 1136 1137 1138 1139 1140 1141 1142 1143 1144 1145 1146 1147 1148 1149 1150 1151 1152 1153 1154 1155 1156 1157 1158 1159 1160 1161 1162 1163 1164 1165 1166 1167 1168 1169 1170 1171 1172 1173 1174 1175 1176 1177 1178 1179 1180 1181 1182 1183 1184 1185 1186 1187 1188 1189 1190 1191 1192 1193 1194 1195 1196 1197 1198 1199 1200 1201 1202 1203 1204 1205 1206 1207 1208 1209 1210 1211 1212 1213 1214 1215 1216 1217 1218 1219 1220 1221 1222 1223 1224 1225 1226 1227 1228 1229 1230 1231 1232 1233 1234 1235 1236 1237 1238 1239 1240 1241 1242 1243 1244 1245 1246 1247 1248 1249 1250 1251 1252 1253 1254 1255 1256 1257 1258 1259 1260 1261 1262 1263 1264 1265 1266 1267 1268 1269 1270 1271 1272 1273 1274 1275 1276 1277 1278 1279 1280 1281 1282 1283 1284 1285 1286 1287 1288 1289 1290 1291 1292 1293 1294 1295 1296 1297 1298 1299 1300 1301 1302 1303 1304 1305 1306 1307 1308 1309 1310 1311 1312 1313 1314 1315 1316 1317 1318 1319 1320 1321 1322 1323 1324 1325 1326 1327 1328 1329 1330 1331 1332 1333 1334 1335 1336 1337 1338 1339 1340 1341 1342 1343 1344 1345 1346 1347 1348 1349 1350 1351 1352 1353 1354 1355 1356 1357 1358 1359 1360 1361 1362 1363 1364 1365 1366 1367 1368 1369 1370 1371 1372 1373 1374 1375 1376 1377 1378 1379 1380 1381 1382 1383 1384 1385 1386 1387 1388 1389 1390 1391 1392 1393 1394 1395 1396 1397 1398 1399 1400 1401 1402 1403 1404 1405 1406 1407 1408 1409 1410 1411 1412 1413 1414 1415 1416 1417 1418 1419 1420 1421 1422 1423 1424 1425 1426 1427 1428 1429 1430 1431 1432 1433 1434 1435 1436 1437 1438 1439 1440 1441 1442 1443 1444 1445 1446 1447 1448 1449 1450 1451 1452 1453 1454 1455 1456 1457 1458 1459 1460 1461 1462 1463 1464 1465 1466 1467 1468 1469 1470 1471 1472 1473 1474 1475 1476 1477 1478 1479 1480 1481 1482 1483 1484 1485 1486 1487 1488 1489 1490 1491 1492 1493 1494 1495 1496 1497 1498 1499 1500 1501 1502 1503 1504 1505 1506 1507 1508 1509 1510 1511 1512 1513 1514 1515 1516 1517 1518 1519 1520 1521 1522 1523 1524 1525 1526 1527 1528 1529 1530 1531 1532 1533 1534 1535 1536 1537 1538 1539 1540 1541 1542 1543 1544 1545 1546 1547 1548 1549 1550 1551 1552 1553 1554 1555 1556 1557 1558 1559 1560 1561 1562 1563 1564 1565 1566 1567 1568 1569 1570 1571 1572 1573 1574 1575 1576 1577 1578 1579 1580 1581 1582 1583 1584 1585 1586 1587 1588 1589 1590 1591 1592 1593 1594 1595 1596 1597 1598 1599 1600 1601 1602 1603 1604 1605 1606 1607 1608 1609 1610 1611 1612 1613 1614 1615 1616 1617 1618 1619 1620 1621 1622 1623 1624 1625 1626 1627 1628 1629 1630 1631 1632 1633 1634 1635 1636 1637 1638 1639 1640 1641 1642 1643 1644 1645 1646 1647 1648 1649 1650 1651 1652 1653 1654 1655 1656 1657 1658 1659 1660 1661 1662 1663 1664 1665 1666 1667 1668 1669 1670 1671 1672 1673 1674 1675 1676 1677 1678 1679 1680 1681 1682 1683 1684 1685 1686 1687 1688 1689 1690 1691 1692 1693 1694 1695 1696 1697 1698 1699 1700 1701 1702 1703 1704 1705 1706 1707 1708 1709 1710 1711 1712 1713 1714 1715 1716 1717 1718 1719 1720 1721 1722 1723 1724 1725 1726 1727 1728 1729 1730 1731 1732 1733 1734 1735 1736 1737 1738 1739 1740 1741 1742 1743 1744 1745 1746 1747 1748 1749 1750 1751 1752 1753 1754 1755 1756 1757 1758 1759 1760 1761 1762 1763 1764 1765 1766 1767 1768 1769 1770 1771 1772 1773 1774 1775 1776 1777 1778 1779 1780 1781 1782 1783 1784 1785 1786 1787 1788 1789 1790 1791 1792 1793 1794 1795 1796 1797 1798 1799 1800 1801 1802 1803 1804 1805 1806 1807 1808 1809 1810 1811 1812 1813 1814 1815 1816 1817 1818 1819 1820 1821 1822 1823 1824 1825 1826 1827 1828 1829 1830 1831 1832 1833 1834 1835 1836 1837 1838 1839 1840 1841 1842 1843 1844 1845 1846 1847 1848 1849 1850 1851 1852 1853 1854 1855 1856 1857 1858 1859 1860 1861 1862 1863 1864 1865 1866 1867 1868 1869 1870 1871 1872 1873 1874 1875 1876 1877 1878 1879 1880 1881 1882 1883 1884 1885 1886 1887 1888 1889 1890 1891 1892 1893 1894 1895 1896 1897 1898 1899 1900 1901 1902 1903 1904 1905 1906 1907 1908 1909 1910 1911 1912 1913 1914 1915 1916 1917 1918 1919 1920 1921 1922 1923 1924 1925 1926 1927 1928 1929 1930 1931 1932 1933 1934 1935 1936 1937 1938 1939 1940 1941 1942 1943 1944 1945 1946 1947 1948 1949 1950 1951 1952 1953 1954 1955 1956 1957 1958 1959 1960 1961 1962 1963 1964 1965 1966 1967 1968 1969 1970 1971 1972 1973 1974 1975 1976 1977 1978 1979 1980 1981 1982 1983 1984 1985 1986 1987 1988 1989 1990 1991 1992 1993 1994 1995 1996 1997 1998 1999 2000 2001 2002 2003 2004 2005 2006 2007 2008 2009 2010 2011 2012 2013 2014 2015 2016 2017 2018 2019 2020 2021 2022 2023 2024 2025 2026 2027 2028 2029 2030 2031 2032 2033 2034 2035 2036 2037 2038 2039 2040 2041 2042 2043 2044 2045 2046 2047 2048 2049 2050 2051 2052 2053 2054 2055 2056 2057 2058 2059 2060 2061 2062 2063 2064 2065 2066 2067 2068 2069 2070 2071 2072 2073 2074 2075 2076 2077 2078 2079 2080 2081 2082 2083 2084 2085 2086 2087 2088 2089 2090 2091 2092 2093 2094 2095 2096 2097 2098 2099 2100 2101 2102 2103 2104 2105 2106 2107 2108 2109 2110 2111 2112 2113 2114 2115 2116 2117 2118 2119 2120 2121 2122 2123 2124 2125 2126 2127 2128 2129 2130 2131 2132 2133 2134 2135 2136 2137 2138 2139 2140 2141 2142 2143 2144 2145 2146 2147 2148 2149 2150 2151 2152 2153 2154 2155 2156 2157 2158 2159 2160 2161 2162 2163 2164 2165 2166 2167 2168 2169 2170 2171 2172 2173 2174 2175 2176 2177 2178 2179 2180 2181 2182 2183 2184 2185 2186 2187 2188 2189 2190 2191 2192 2193 2194 2195 2196 2197 2198 2199 2200 2201 2202 2203 2204 2205 2206 2207 2208 2209 2210 2211 2212 2213 2214 2215 2216 2217 2218 2219 2220 2221 2222 2223 2224 2225 2226 2227 2228 2229 2230 2231 2232 2233 2234 2235 2236 2237 2238 2239 2240 2241 2242 2243 2244 2245 2246 2247 2248 2249 2250 2251 2252 2253 2254 2255 2256 2257 2258 2259 2260 2261 2262 2263 2264 2265 2266 2267 2268 2269 2270 2271 2272 2273 2274 2275 2276 2277 2278 2279 2280 2281 2282 2283 2284 2285 2286 2287 2288 2289 2290 2291 2292 2293 2294 2295 2296 2297 2298 2299 2300 2301 2302 2303 2304 2305 2306 2307 2308 2309 2310 2311 2312 2313 2314 2315 2316 2317 2318 2319 2320 2321 2322 2323 2324 2325 2326 2327 2328 2329 2330 2331 2332 2333 2334 2335 2336 2337 2338 2339 2340 2341 2342 2343 2344 2345 2346 2347 2348 2349 2350 2351 2352 2353 2354 2355 2356 2357 2358 2359 2360 2361 2362 2363 2364 2365 2366 2367 2368 2369 2370 2371 2372 2373 2374 2375 2376 2377 2378 2379 2380 2381 2382 2383 2384 2385 2386 2387 2388 2389 2390 2391 2392 2393 2394 2395 2396 2397 2398 2399 2400 2401 2402 2403 2404 2405 2406 2407 2408 2409 2410 2411 2412 2413 2414 2415 2416 2417 2418 2419 2420 2421 2422 2423 2424 2425 2426 2427 2428 2429 2430 2431 2432 2433 2434 2435 2436 2437 2438 2439 2440 2441 2442 2443 2444 2445 2446 2447 2448 2449 2450 2451 2452 2453 2454 2455 2456 2457 2458 2459 2460 2461 2462 2463 2464 2465 2466 2467 2468 2469 2470 2471 2472 2473 2474 2475 2476 2477 2478 2479 2480 2481 2482 2483 2484 2485 2486 2487 2488 2489 2490 2491 2492 2493 2494 2495 2496 2497 2498 2499 2500 2501 2502 2503 2504 2505 2506 2507 2508 2509 2510 2511 2512 2513 2514 2515 2516 2517 2518 2519 2520 2521 2522 2523 2524 2525 2526 2527 2528 2529 2530 2531 2532 2533 2534 2535 2536 2537 2538 2539 2540 2541 2542 2543 2544 2545 2546 2547 2548 2549 2550 2551 2552 2553 2554 2555 2556 2557 2558 2559 2560 2561 2562 2563 2564 2565 2566 2567 2568 2569 2570 2571 2572 2573 2574 2575 2576 2577 2578 2579 2580 2581 2582 2583 2584 2585 2586 2587 2588 2589 2590 2591 2592 2593 2594 2595 2596 2597 2598 2599 2600 2601 2602 2603 2604 2605 2606 2607 2608 2609 2610 2611 2612 2613 2614 2615 2616 2617 2618 2619 2620 2621 2622 2623 2624 2625 2626 2627 2628 2629 2630 2631 2632 2633 2634 2635 2636 2637 2638 2639 2640 2641 2642 2643 2644 2645 2646 2647 2648 2649 2650 2651 2652 2653 2654 2655 2656 2657 2658 2659 2660 2661 2662 2663 2664 2665 2666 2667 2668 2669 2670 2671 2672 2673 2674 2675 2676 2677 2678 2679 2680 2681 2682 2683 2684 2685 2686 2687 2688 2689 2690 2691 2692 2693 2694 2695 2696 2697 2698 2699 2700 2701 2702 2703 2704 2705 2706 2707 2708 2709 2710 2711 2712 2713 2714 2715 2716 2717 2718 2719 2720 2721 2722 2723 2724 2725 2726 2727 2728 2729 2730 2731 2732 2733 2734 2735 2736 2737 2738 2739 2740 2741 2742 2743 2744 2745 2746 2747 2748 2749 2750 2751 2752 2753 2754 2755 2756 2757 2758 2759 2760 2761 2762 2763 2764 2765 2766 2767 2768 2769 2770 2771 2772 2773 2774 2775 2776 2777 2778 2779 2780 2781 2782 2783 2784 2785 2786 2787 2788 2789 2790 2791 2792 2793 2794 2795 2796 2797 2798 2799 2800 2801 2802 2803 2804 2805 2806 2807 2808 2809 2810 2811 2812 2813 2814 2815 2816 2817 2818 2819 2820 2821 2822 2823 2824 2825 2826 2827 2828 2829 2830 2831 2832 2833 2834 2835 2836 2837 2838 2839 2840 2841 2842 2843 2844 2845 2846 2847 2848 2849 2850 2851 2852 2853 2854 2855 2856 2857 2858 2859 2860 2861 2862 2863 2864 2865 2866 2867 2868 2869 2870 2871 2872 2873 2874 2875 2876 2877 2878 2879 2880 2881 2882 2883 2884 2885 2886 2887 2888 2889 2890 2891 2892 2893 2894 2895 2896 2897 2898 2899 2900 2901 2902 2903 2904 2905 2906 2907 2908 2909 2910 2911 2912 2913 2914 2915 2916 2917 2918 2919 2920 2921 2922 2923 2924 2925 2926 2927 2928 2929 2930 2931 2932 2933 2934 2935 2936 2937 2938 2939 2940 2941 2942 2943 2944 2945 2946 2947 2948 2949 2950 2951 2952 2953 2954 2955 2956 2957 2958 2959 2960 2961 2962 2963 2964 2965 2966 2967 2968 2969 2970 2971 2972 2973 2974 2975 2976 2977 2978 2979 2980 2981 2982 2983 2984 2985 2986 2987 2988 2989 2990 2991 2992 2993 2994 2995 2996 2997 2998 2999 3000 3001 3002 3003 3004 3005 3006 3007 3008 3009 3010 3011 3012 3013 3014 3015 3016 3017 3018 3019 3020 3021 3022 3023 3024 3025 3026 3027 3028 3029 3030 3031 3032 3033 3034 3035 3036 3037 3038 3039 3040 3041 3042 3043 3044 3045 3046 3047 3048 3049 3050 3051 3052 3053 3054 3055 3056 3057 3058 3059 3060 3061 3062 3063 3064 3065 3066 3067 3068 3069 3070 3071 3072 3073 3074 3075 3076 3077 3078 3079 3080 3081 3082 3083 3084 3085 3086 3087 3088 3089 3090 3091 3092 3093 3094 3095 3096 3097 3098 3099 3100 3101 3102 3103 3104 3105 3106 3107 3108 3109 3110 3111 3112 3113 3114 3115 3116 3117 3118 3119 3120 3121 3122 3123 3124 3125 3126 3127 3128 3129 3130 3131 3132 3133 3134 3135 3136 3137 3138 3139 3140 3141 
</DataArray>
<DataArray type="UInt32" Name="offsets" format="ascii">
3 6 9 12 15 18 21 24 27 30 33 36 39 42 45 48 51 54 57 60 63 66 69 72 75 78 81 84 87 90 93 96 99 102 105 108 111 114 117 120 123 126 129 132 135 138 141 144 147 150 153 156 159 162 165 168 171 174 177 180 183 186 189 192 195 198 201 204 207 210 213 216 219 222 225 228 231 234 237 240 243 246 249 252 255 258 261 264 267 270 273 276 279 282 285 288 291 294 297 300 303 306 309 312 315 318 321 324 327 330 333 336 339 342 345 348 351 354 357 360 363 366 369 372 375 378 381 384 387 390 393 396 399 402 405 408 411 414 417 420 423 426 429 432 435 438 441 444 447 450 453 456 459 462 465 468 471 474 477 480 483 486 489 492 495 498 501 504 507 510 513 516 519 522 525 528 531 534 537 540 543 546 549 552 555 558 561 564 567 570 573 576 579 582 585 588 591 594 597 600 603 606 609 612 615 618 621 624 627 630 633 636 639 642 645 648 651 654 657 660 663 666 669 672 675 678 681 684 687 690 693 696 699 702 705 708 711 714 717 720 723 726 729 732 735 738 741 744 747 750 753 756 759 762 765 768 771 774 777 780 783 786 789 792 795 798 801 804 807 810 813 816 819 822 825 828 831 834 837 840 843 846 849 852 855 858 861 864 867 870 873 876 879 882 885 888 891 894 897 900 903 906 909 912 915 918 921 924 927 930 933 936 939 942 945 948 951 954 957 960 963 966 969 972 975 978 981 984 987 990 993 996 999 1002 1005 1008 1011 1014 1017 1020 1023 1026 1029 1032 1035 1038 1041 1044 1047 1050 1053 1056 1059 1062 1065 1068 1071 1074 1077 1080 1083 1086 1089 1092 1095 1098 1101 1104 1107 1110 1113 1116 1119 1122 1125 1128 1131 1134 1137 1140 1143 1146 1149 1152 1155 1158 1161 1164 1167 1170 1173 1176 1179 1182 1185 1188 1191 1194 1197 1200 1203 1206 1209 1212 1215 1218 1221 1224 1227 1230 1233 1236 1239 1242 1245 1248 1251 1254 1257 1260 1263 1266 1269 1272 1275 1278 1281 1284 1287 1290 1293 1296 1299 1302 1305 1308 1311 1314 1317 1320 1323 1326 1329 1332 1335 1338 1341 1344 1347 1350 1353 1356 1359 1362 1365 1368 1371 1374 1377 1380 1383 1386 1389 1392 1395 1398 1401 1404 1407 1410 1413 1416 1419 1422 1425 1428 1431 1434 1437 1440 1443 1446 1449 1452 1455 1458 1461 1464 1467 1470 1473 1476 1479 1482 1485 1488 1491 1494 1497 1500 1503 1506 1509 1512 1515 1518 1521 1524 1527 1530 1533 1536 1539 1542 1545 1548 1551 1554 1557 1560 1563 1566 1569 1572 1575 1578 1581 1584 1587 1590 1593 1596 1599 1602 1605 1608 1611 1614 1616 1619 1622 1624 1627 1630 1632 1635 1638 1641 1644 1647 1650 1653 1656 1659 1662 1665 1668 1671 1673 1676 1679 1682 1685 1688 1690 1693 1696 1699 1702 1705 1708 1711 1714 1717 1720 1723 1726 1729 1732 1735 1738 1741 1744 1747 1750 1753 1756 1759 1762 1765 1768 1771 1774 1777 1780 1783 1786 1789 1792 1795 1798 1801 1804 1807 1810 1813 1816 1819 1822 1825 1828 1831 1834 1837 1840 1843 1846 1849 1852 1855 1858 1861 1864 1867 1870 1873 1876 1879 1882 1885 1888 1891 1894 1897 1900 1903 1906 1909 1912 1915 1918 1921 1924 1927 1930 1933 1936 1939 1942 1945 1948 1951 1954 1957 1960 1963 1966 1969 1972 1975 1978 1981 1984 1987 1990 1993 1996 1999 2002 2005 2008 2011 2014 2017 2020 2023 2026 2029 2032 2035 2038 2041 2044 2047 2050 2053 2056 2059 2062 2065 2068 2071 2074 2077 2080 2083 2086 2089 2092 2095 2098 2101 2104 2107 2110 2113 2116 2119 2122 2125 2128 2131 2134 2137 2140 2143 2146 2149 2152 2155 2158 2161 2164 2167 2170 2173 2176 2179 2182 2185 2188 2191 2194 2196 2199 2202 2205 2207 2210 2213 2215 2218 2221 2224 2227 2230 2233 2236 2239 2242 2245 2248 2250 2253 2256 2259 2262 2264 2267 2270 2273 2276 2279 2282 2285 2288 2291 2294 2297 2300 2303 2306 2309 2312 2315 2318 2321 2324 2327 2330 2333 2336 2339 2342 2345 2348 2351 2354 2357 2360 2363 2366 2369 2372 2375 2378 2381 2384 2387 2390 2393 2396 2399 2402 2405 2408 2411 2414 2417 2420 2423 2426 2429 2432 2435 2438 2440 2443 2446 2449 2452 2455 2458 2461 2464 2467 2470 2473 2476 2479 2482 2484 2487 2490 2492 2495 2497 2500 2503 2506 2509 2512 2515 2518 2521 2524 2527 2530 2533 2536 2538 2541 2544 2547 2550 2553 2556 2559 2562 2565 2568 2571 2574 2577 2580 2583 2586 2589 2592 2595 2598 2601 2604 2607 2610 2613 2616 2619 2622 2625 2628 2631 2634 2637 2640 2643 2646 2649 2652 2655 2658 2661 2664 2667 2670 2673 2676 2679 2682 2685 2688 2691 2694 2697 2700 2703 2706 2709 2712 2715 2718 2721 2724 2727 2730 2733 2736 2739 2742 2745 2748 2751 2754 2757 2760 2763 2766 2769 2772 2775 2778 2781 2784 2787 2790 2793 2796 2799 2802 2805 2808 2811 2814 2817 2820 2823 2826 2829 2832 2835 2838 2841 2844 2847 2850 2853 2856 2859 2862 2865 2868 2871 2874 2877 2880 2883 2886 2889 2892 2895 2898 2901 2904 2907 2910 2913 2916 2919 2922 2925 2928 2931 2934 2937 2940 2943 2946 2948 2951 2954 2956 2959 2961 2964 2967 2970 2973 2976 2979 2982 2985 2988 2991 2994 2997 3000 3003 3006 3009 3012 3015 3018 3021 3024 3027 3030 3033 3036 3039 3042 3045 3048 3051 3054 3057 3060 3063 3066 3069 3072 3075 3078 3081 3084 3087 3090 3093 3096 3099 3102 3104 3107 3110 3113 3116 3119 3121 3124 3127 3130 3133 3136 3139 3142 
</DataArray>
<DataArray type="UInt32" Name="types" format="ascii">
5 5 5 5 5 5 5 5 5 5 5 5 5 5 5 5 5 5 5 5 5 5 5 5 5 5 5 5 5 5 5 5 5 5 5 5 5 5 5 5 5 5 5 5 5 5 5 5 5 5 5 5 5 5 5 5 5 5 5 5 5 5 5 5 5 5 5 5 5 5 5 5 5 5 5 5 5 5 5 5 5 5 5 5 5 5 5 5 5 5 5 5 5 5 5 5 5 5 5 5 5 5 5 5 5 5 5 5 5 5 5 5 5 5 5 5 5 5 5 5 5 5 5 5 5 5 5 5 5 5 5 5 5 5 5 5 5 5 5 5 5 5 5 5 5 5 5 5 5 5 5 5 5 5 5 5 5 5 5 5 5 5 5 5 5 5 5 5 5 5 5 5 5 5 5 5 5 5 5 5 5 5 5 5 5 5 5 5 5 5 5 5 5 5 5 5 5 5 5 5 5 5 5 5 5 5 5 5 5 5 5 5 5 5 5 5 5 5 5 5 5 5 5 5 5 5 5 5 5 5 5 5 5 5 5 5 5 5 5 5 5 5 5 5 5 5 5 5 5 5 5 5 5 5 5 5 5 5 5 5 5 5 5 5 5 5 5 5 5 5 5 5 5 5 5 5 5 5 5 5 5 5 5 5 5 5 5 5 5 5 5 5 5 5 5 5 5 5 5 5 5 5 5 5 5 5 5 5 5 5 5 5 5 5 5 5 5 5 5 5 5 5 5 5 5 5 5 5 5 5 5 5 5 5 5 5 5 5 5 5 5 5 5 5 5 5 5 5 5 5 5 5 5 5 5 5 5 5 5 5 5 5 5 5 5 5 5 5 5 5 5 5 5 5 5 5 5 5 5 5 5 5 5 5 5 5 5 5 5 5 5 5 5 5 5 5 5 5 5 5 5 5 5 5 5 5 5 5 5 5 5 5 5 5 5 5 5 5 5 5 5 5 5 5 5 5 5 5 5 5 5 5 5 5 5 5 5 5 5 5 5 5 5 5 5 5 5 5 5 5 5 5 5 5 5 5 5 5 5 5 5 5 5 5 5 5 5 5 5 5 5 5 5 5 5 5 5 5 5 5 5 5 5 5 5 5 5 5 5 5 5 5 5 5 5 5 5 5 5 5 5 5 5 5 5 5 5 5 5 5 5 5 5 5 5 5 5 5 5 5 5 5 5 5 5 5 5 5 5 5 5 5 5 5 5 5 5 5 3 5 5 3 5 5 3 5 5 5 5 5 5 5 5 5 5 5 5 5 3 5 5 5 5 5 3 5 5 5 5 5 5 5 5 5 5 5 5 5 5 5 5 5 5 5 5 5 5 5 5 5 5 5 5 5 5 5 5 5 5 5 5 5 5 5 5 5 5 5 5 5 5 5 5 5 5 5 5 5 5 5 5 5 5 5 5 5 5 5 5 5 5 5 5 5 5 5 5 5 5 5 5 5 5 5 5 5 5 5 5 5 5 5 5 5 5 5 5 5 5 5 5 5 5 5 5 5 5 5 5 5 5 5 5 5 5 5 5 5 5 5 5 5 5 5 5 5 5 5 5 5 5 5 5 5 5 5 5 5 5 5 5 5 5 5 5 5 5 5 5 5 5 5 5 5 5 5 5 5 5 5 5 5 5 5 5 5 5 5 5 5 5 5 5 3 5 5 5 3 5 5 3 5 5 5 5 5 5 5 5 5 5 5 3 5 5 5 5 3 5 5 5 5 5 5 5 5 5 5 5 5 5 5 5 5 5 5 5 5 5 5 5 5 5 5 5 5 5 5 5 5 5 5 5 5 5 5 5 5 5 5 5 5 5 5 5 5 5 5 5 5 5 5 5 5 5 5 3 5 5 5 5 5 5 5 5 5 5 5 5 5 5 3 5 5 3 5 3 5 5 5 5 5 5 5 5 5 5 5 5 5 3 5 5 5 5 5 5 5 5 5 5 5 5 5 5 5 5 5 5 5 5 5 5 5 5 5 5 5 5 5 5 5 5 5 5 5 5 5 5 5 5 5 5 5 5 5 5 5 5 5 5 5 5 5 5 5 5 5 5 5 5 5 5 5 5 5 5 5 5 5 5 5 5 5 5 5 5 5 5 5 5 5 5 5 5 5 5 5 5 5 5 5 5 5 5 5 5 5 5 5 5 5 5 5 5 5 5 5 5 5 5 5 5 5 5 5 5 5 5 5 5 5 5 5 5 5 5 5 5 5 5 5 5 5 5 5 5 3 5 5 3 5 3 5 5 5 5 5 5 5 5 5 5 5 5 5 5 5 5 5 5 5 5 5 5 5 5 5 5 5 5 5 5 5 5 5 5 5 5 5 5 5 5 5 5 5 5 5 5 5 3 5 5 5 5 5 3 5 5 5 5 5 5 5 
</DataArray>
</Cells>
<PointData Scalars="" Vectors="displacement," Tensors="">
<DataArray type="Float64" Name="displacement" NumberOfComponents="3" format="ascii">
-5.0408447549605932e-07 1.062357733948186e-07 0 -9.8357253665481325e-10 -4.0545482638163075e-10 0 -1.1188380845857363e-06 -2.042866521459578e-08 0 -5.0408447549605932e-07 1.062357733948186e-07 0 -9.8357253665481325e-10 -4.0545482638163075e-10 0 -8.8465875942108388e-10 2.8142816405759672e-10 0 -5.0408447549605932e-07 1.062357733948186e-07 0 -1.1188380845857363e-06 -2.042866521459578e-08 0 -1.1243964402464203e-06 4.3074991735151452e-07 0 -5.0408447549605932e-07 1.062357733948186e-07 0 -1.1243964402464203e-06 4.3074991735151452e-07 0 -8.8465875942108388e-10 2.8142816405759672e-10 0 -8.8465875942108388e-10 2.8142816405759672e-10 0 -8.712610660063368e-10 1.6251752310865456e-10 0 -7.1346763873542911e-07 6.3703589036004381e-07 0 -8.712610660063368e-10 1.6251752310865456e-10 0 -7.1346763873542911e-07 6.3703589036004381e-07 0 -4.5500712163290453e-10 5.0746370472218331e-10 0 -1.1243964402464203e-06 4.3074991735151452e-07 0 -7.1346763873542911e-07 6.3703589036004381e-07 0 -1.559087131048588e-06 9.448435228215012e-07 0 -1.1243964402464203e-06 4.3074991735151452e-07 0 -8.8465875942108388e-10 2.8142816405759672e-10 0 -7.1346763873542911e-07 6.3703589036004381e-07 0 -7.1346763873542911e-07 6.3703589036004381e-07 0 -1.559087131048588e-06 9.448435228215012e-07 0 -8.185516332049252e-07 1.0573653245954547e-06 0 -1.559087131048588e-06 9.448435228215012e-07 0 -8.185516332049252e-07 1.0573653245954547e-06 0 -1.5798731656601756e-06 1.326977662035745e-06 0 -1.559087131048588e-06 9.448435228215012e-07 0 -2.4028716317497449e-06 1.1998635391242152e-06 0 -1.5798731656601756e-06 1.326977662035745e-06 0 -2.4028716317497449e-06 1.1998635391242152e-06 0 -1.5798731656601756e-06 1.326977662035745e-06 0 -1.9018449235615282e-06 1.5381243248668716e-06 0 -2.4028716317497449e-06 1.1998635391242152e-06 0 -2.4147680124632382e-06 6.9417115788573509e-07 0 -3.4429064276138865e-06 9.352991040935065e-07 0 -1.559087131048588e-06 9.448435228215012e-07 0 -2.4028716317497449e-06 1.1998635391242152e-06 0 -2.4147680124632382e-06 6.9417115788573509e-07 0 -2.4147680124632382e-06 6.9417115788573509e-07 0 -2.4951193669316204e-06 2.3571950048819661e-07 0 -4.1751045435890785e-06 3.1065597081774381e-07 0 -1.1188380845857363e-06 -2.042866521459578e-08 0 -1.1243964402464203e-06 4.3074991735151452e-07 0 -2.4951193669316204e-06 2.3571950048819661e-07 0 -1.1243964402464203e-06 4.3074991735151452e-07 0 -2.4147680124632382e-06 6.9417115788573509e-07 0 -2.4951193669316204e-06 2.3571950048819661e-07 0 -1.1243964402464203e-06 4.3074991735151452e-07 0 -1.559087131048588e-06 9.448435228215012e-07 0 -2.4147680124632382e-06 6.9417115788573509e-07 0 -1.066440658576347e-07 8.8409579603413991e-07 0 -2.7962569402912705e-10 3.5391772700688374e-10 0 -5.990436832766744e-12 4.3706922001396235e-10 0 -1.066440658576347e-07 8.8409579603413991e-07 0 -2.7962569402912705e-10 3.5391772700688374e-10 0 -2.8390986259632124e-07 7.4231429251179079e-07 0 -1.066440658576347e-07 8.8409579603413991e-07 0 -2.8390986259632124e-07 7.4231429251179079e-07 0 -4.9451584277337154e-07 1.3665963244940912e-06 0 -2.8390986259632124e-07 7.4231429251179079e-07 0 -4.5500712163290453e-10 5.0746370472218331e-10 0 -8.185516332049252e-07 1.0573653245954547e-06 0 -7.1346763873542911e-07 6.3703589036004381e-07 0 -4.5500712163290453e-10 5.0746370472218331e-10 0 -8.185516332049252e-07 1.0573653245954547e-06 0 -2.8390986259632124e-07 7.4231429251179079e-07 0 -8.185516332049252e-07 1.0573653245954547e-06 0 -4.9451584277337154e-07 1.3665963244940912e-06 0 -2.7962569402912705e-10 3.5391772700688374e-10 0 -2.8390986259632124e-07 7.4231429251179079e-07 0 -4.5500712163290453e-10 5.0746370472218331e-10 0 -8.185516332049252e-07 1.0573653245954547e-06 0 -1.5798731656601756e-06 1.326977662035745e-06 0 -1.1200967777732756e-06 1.4857812541363943e-06 0 -1.5798731656601756e-06 1.326977662035745e-06 0 -1.1200967777732756e-06 1.4857812541363943e-06 0 -1.9018449235615282e-06 1.5381243248668716e-06 0 -8.185516332049252e-07 1.0573653245954547e-06 0 -1.1200967777732756e-06 1.4857812541363943e-06 0 -4.9451584277337154e-07 1.3665963244940912e-06 0 -4.9451584277337154e-07 1.3665963244940912e-06 0 -9.3818367067305206e-09 1.5075361278803449e-06 0 -7.4081473474279807e-07 1.706498622862667e-06 0 -1.1200967777732756e-06 1.4857812541363943e-06 0 -4.9451584277337154e-07 1.3665963244940912e-06 0 -7.4081473474279807e-07 1.706498622862667e-06 0 -1.066440658576347e-07 8.8409579603413991e-07 0 -4.9451584277337154e-07 1.3665963244940912e-06 0 -9.3818367067305206e-09 1.5075361278803449e-06 0 -1.066440658576347e-07 8.8409579603413991e-07 0 -9.3818367067305206e-09 1.5075361278803449e-06 0 1.4614948503852359e-07 9.5591932368310743e-07 0 -9.3818367067305206e-09 1.5075361278803449e-06 0 -4.0859309797469898e-08 1.7025015726272933e-06 0 -7.4081473474279807e-07 1.706498622862667e-06 0 -2.1645960344475467e-07 1.6644926425380359e-06 0 -4.0859309797469898e-08 1.7025015726272933e-06 0 -7.4081473474279807e-07 1.706498622862667e-06 0 -2.1645960344475467e-07 1.6644926425380359e-06 0 -7.4081473474279807e-07 1.706498622862667e-06 0 -1.3769043767782965e-06 1.5998263630090272e-06 0 -1.3769043767782965e-06 1.5998263630090272e-06 0 -1.9018449235615282e-06 1.5381243248668716e-06 0 -2.6386078306534116e-06 1.3833138779574685e-06 0 -1.1200967777732756e-06 1.4857812541363943e-06 0 -7.4081473474279807e-07 1.706498622862667e-06 0 -1.9018449235615282e-06 1.5381243248668716e-06 0 -7.4081473474279807e-07 1.706498622862667e-06 0 -1.3769043767782965e-06 1.5998263630090272e-06 0 -1.9018449235615282e-06 1.5381243248668716e-06 0 -1.9018449235615282e-06 1.5381243248668716e-06 0 -2.6386078306534116e-06 1.3833138779574685e-06 0 -3.0658799659633935e-06 1.253512189656894e-06 0 -2.6386078306534116e-06 1.3833138779574685e-06 0 -3.7372075244652322e-06 8.9199321301078023e-07 0 -1.9027705290530663e-06 1.2605589633847223e-06 0 -3.7372075244652322e-06 8.9199321301078023e-07 0 -1.9027705290530663e-06 1.2605589633847223e-06 0 -3.0617071605864843e-06 6.0064883784708804e-07 0 -1.9027705290530663e-06 1.2605589633847223e-06 0 -3.0617071605864843e-06 6.0064883784708804e-07 0 -1.7641988150238864e-06 5.6993199573627657e-07 0 -1.3769043767782965e-06 1.5998263630090272e-06 0 -2.6386078306534116e-06 1.3833138779574685e-06 0 -1.9027705290530663e-06 1.2605589633847223e-06 0 -2.1645960344475467e-07 1.6644926425380359e-06 0 -1.3769043767782965e-06 1.5998263630090272e-06 0 -6.1931412964721751e-07 1.2933998295759268e-06 0 -1.3769043767782965e-06 1.5998263630090272e-06 0 -1.9027705290530663e-06 1.2605589633847223e-06 0 -6.1931412964721751e-07 1.2933998295759268e-06 0 -1.9027705290530663e-06 1.2605589633847223e-06 0 -6.1931412964721751e-07 1.2933998295759268e-06 0 -1.7641988150238864e-06 5.6993199573627657e-07 0 -6.1931412964721751e-07 1.2933998295759268e-06 0 5.6549590649970793e-07 8.6711274230665788e-07 0 6.7545430056163976e-07 1.4341777073789504e-06 0 -2.1645960344475467e-07 1.6644926425380359e-06 0 -6.1931412964721751e-07 1.2933998295759268e-06 0 6.7545430056163976e-07 1.4341777073789504e-06 0 -4.9354735952415514e-06 5.713363981374827e-07 0 -4.1751045435890785e-06 3.1065597081774381e-07 0 -3.4429064276138865e-06 9.352991040935065e-07 0 -4.9354735952415514e-06 5.713363981374827e-07 0 -3.4429064276138865e-06 9.352991040935065e-07 0 -4.3736185375905088e-06 9.2817194770831198e-07 0 -4.9354735952415514e-06 5.713363981374827e-07 0 -4.1751045435890785e-06 3.1065597081774381e-07 0 -6.1627260084726425e-06 -4.7063671205777888e-08 0 -2.4147680124632382e-06 6.9417115788573509e-07 0 -4.1751045435890785e-06 3.1065597081774381e-07 0 -3.4429064276138865e-06 9.352991040935065e-07 0 -2.4028716317497449e-06 1.1998635391242152e-06 0 -3.4429064276138865e-06 9.352991040935065e-07 0 -3.0658799659633935e-06 1.253512189656894e-06 0 -2.4028716317497449e-06 1.1998635391242152e-06 0 -1.9018449235615282e-06 1.5381243248668716e-06 0 -3.0658799659633935e-06 1.253512189656894e-06 0 -2.6386078306534116e-06 1.3833138779574685e-06 0 -3.0658799659633935e-06 1.253512189656894e-06 0 -4.3736185375905088e-06 9.2817194770831198e-07 0 -3.4429064276138865e-06 9.352991040935065e-07 0 -3.0658799659633935e-06 1.253512189656894e-06 0 -4.3736185375905088e-06 9.2817194770831198e-07 0 -2.6386078306534116e-06 1.3833138779574685e-06 0 -3.7372075244652322e-06 8.9199321301078023e-07 0 -4.3736185375905088e-06 9.2817194770831198e-07 0 -3.7372075244652322e-06 8.9199321301078023e-07 0 -4.3736185375905088e-06 9.2817194770831198e-07 0 -5.413361259646962e-06 3.8455948668292882e-07 0 -3.7372075244652322e-06 8.9199321301078023e-07 0 -5.413361259646962e-06 3.8455948668292882e-07 0 -5.0794095096203226e-06 -3.6319955419699458e-08 0 -4.3736185375905088e-06 9.2817194770831198e-07 0 -5.413361259646962e-06 3.8455948668292882e-07 0 -6.2273081221159987e-06 1.8993472500959717e-07 0 -5.413361259646962e-06 3.8455948668292882e-07 0 -6.2273081221159987e-06 1.8993472500959717e-07 0 -7.5193862561568761e-06 -6.0847367295293099e-07 0 -4.9354735952415514e-06 5.713363981374827e-07 0 -4.3736185375905088e-06 9.2817194770831198e-07 0 -6.2273081221159987e-06 1.8993472500959717e-07 0 -4.9354735952415514e-06 5.713363981374827e-07 0 -6.2273081221159987e-06 1.8993472500959717e-07 0 -6.1627260084726425e-06 -4.7063671205777888e-08 0 -6.2273081221159987e-06 1.8993472500959717e-07 0 -6.1627260084726425e-06 -4.7063671205777888e-08 0 -8.4223821916471894e-06 -8.7076436779556914e-07 0 -8.4223821916471894e-06 -8.7076436779556914e-07 0 -7.5193862561568761e-06 -6.0847367295293099e-07 0 -1.083043811230506e-05 -2.248746854000903e-06 0 -6.2273081221159987e-06 1.8993472500959717e-07 0 -8.4223821916471894e-06 -8.7076436779556914e-07 0 -7.5193862561568761e-06 -6.0847367295293099e-07 0 -7.5193862561568761e-06 -6.0847367295293099e-07 0 -1.083043811230506e-05 -2.248746854000903e-06 0 -1.0114268311465568e-05 -2.3918216580436172e-06 0 -1.083043811230506e-05 -2.248746854000903e-06 0 -1.0114268311465568e-05 -2.3918216580436172e-06 0 -1.3635198014189021e-05 -4.3046004349632297e-06 0 -1.0114268311465568e-05 -2.3918216580436172e-06 0 -1.2305265733704916e-05 -4.2349211586489032e-06 0 -8.9199017940138501e-06 -3.0840525367484976e-06 0 -1.2305265733704916e-05 -4.2349211586489032e-06 0 -8.9199017940138501e-06 -3.0840525367484976e-06 0 -1.2437397146301405e-05 -5.9169578657923529e-06 0 -1.0114268311465568e-05 -2.3918216580436172e-06 0 -1.2305265733704916e-05 -4.2349211586489032e-06 0 -1.3635198014189021e-05 -4.3046004349632297e-06 0 -1.2305265733704916e-05 -4.2349211586489032e-06 0 -1.3635198014189021e-05 -4.3046004349632297e-06 0 -1.6757550620876414e-05 -7.1487908933986806e-06 0 -8.9199017940138501e-06 -3.0840525367484976e-06 0 -5.6087299310957118e-06 -3.0164031552587874e-06 0 -8.3777707312761568e-06 -5.3169564591189867e-06 0 -8.9199017940138501e-06 -3.0840525367484976e-06 0 -5.8983669189582753e-06 -1.4335628608615046e-06 0 -5.6087299310957118e-06 -3.0164031552587874e-06 0 -1.0114268311465568e-05 -2.3918216580436172e-06 0 -8.9199017940138501e-06 -3.0840525367484976e-06 0 -7.5116686956377066e-06 -1.3544315065203426e-06 0 -8.9199017940138501e-06 -3.0840525367484976e-06 0 -5.8983669189582753e-06 -1.4335628608615046e-06 0 -7.5116686956377066e-06 -1.3544315065203426e-06 0 -5.8983669189582753e-06 -1.4335628608615046e-06 0 -7.5116686956377066e-06 -1.3544315065203426e-06 0 -5.0794095096203226e-06 -3.6319955419699458e-08 0 -7.5193862561568761e-06 -6.0847367295293099e-07 0 -1.0114268311465568e-05 -2.3918216580436172e-06 0 -7.5116686956377066e-06 -1.3544315065203426e-06 0 -7.5193862561568761e-06 -6.0847367295293099e-07 0 -7.5116686956377066e-06 -1.3544315065203426e-06 0 -5.0794095096203226e-06 -3.6319955419699458e-08 0 -5.413361259646962e-06 3.8455948668292882e-07 0 -7.5193862561568761e-06 -6.0847367295293099e-07 0 -5.0794095096203226e-06 -3.6319955419699458e-08 0 -3.7372075244652322e-06 8.9199321301078023e-07 0 -5.0794095096203226e-06 -3.6319955419699458e-08 0 -3.0617071605864843e-06 6.0064883784708804e-07 0 -5.0794095096203226e-06 -3.6319955419699458e-08 0 -3.0617071605864843e-06 6.0064883784708804e-07 0 -3.5306622276254125e-06 -2.7907382062813122e-07 0 -3.0617071605864843e-06 6.0064883784708804e-07 0 -3.5306622276254125e-06 -2.7907382062813122e-07 0 -1.7641988150238864e-06 5.6993199573627657e-07 0 -3.5306622276254125e-06 -2.7907382062813122e-07 0 -1.795712842158093e-06 -6.9061880114906172e-07 0 -3.7858122284477883e-06 -1.4986130158057018e-06 0 -3.5306622276254125e-06 -2.7907382062813122e-07 0 -1.7641988150238864e-06 5.6993199573627657e-07 0 -1.795712842158093e-06 -6.9061880114906172e-07 0 -5.8983669189582753e-06 -1.4335628608615046e-06 0 -5.0794095096203226e-06 -3.6319955419699458e-08 0 -3.5306622276254125e-06 -2.7907382062813122e-07 0 -6.1931412964721751e-07 1.2933998295759268e-06 0 -3.51456470763022e-07 2.9185578960833392e-07 0 5.6549590649970793e-07 8.6711274230665788e-07 0 -6.1931412964721751e-07 1.2933998295759268e-06 0 -3.51456470763022e-07 2.9185578960833392e-07 0 -1.7641988150238864e-06 5.6993199573627657e-07 0 -3.51456470763022e-07 2.9185578960833392e-07 0 -1.7641988150238864e-06 5.6993199573627657e-07 0 -1.795712842158093e-06 -6.9061880114906172e-07 0 -3.51456470763022e-07 2.9185578960833392e-07 0 1.6210046649473169e-07 -1.4248453900264558e-06 0 1.2447282698748096e-06 4.803558788788633e-08 0 -3.51456470763022e-07 2.9185578960833392e-07 0 1.6210046649473169e-07 -1.4248453900264558e-06 0 -1.795712842158093e-06 -6.9061880114906172e-07 0 1.6210046649473169e-07 -1.4248453900264558e-06 0 -1.795712842158093e-06 -6.9061880114906172e-07 0 -2.5540763946475914e-06 -2.4379594816080511e-06 0 1.6210046649473169e-07 -1.4248453900264558e-06 0 -2.5540763946475914e-06 -2.4379594816080511e-06 0 -6.5824434961416437e-07 -3.7823411148693858e-06 0 1.6210046649473169e-07 -1.4248453900264558e-06 0 -6.5824434961416437e-07 -3.7823411148693858e-06 0 1.9881105089639367e-06 -3.0738033848555644e-06 0 -5.8983669189582753e-06 -1.4335628608615046e-06 0 -3.5306622276254125e-06 -2.7907382062813122e-07 0 -3.7858122284477883e-06 -1.4986130158057018e-06 0 -5.8983669189582753e-06 -1.4335628608615046e-06 0 -3.7858122284477883e-06 -1.4986130158057018e-06 0 -5.6087299310957118e-06 -3.0164031552587874e-06 0 -1.795712842158093e-06 -6.9061880114906172e-07 0 -3.7858122284477883e-06 -1.4986130158057018e-06 0 -2.5540763946475914e-06 -2.4379594816080511e-06 0 -2.5540763946475914e-06 -2.4379594816080511e-06 0 -5.6087299310957118e-06 -3.0164031552587874e-06 0 -4.2552801399042718e-06 -4.7320503770215424e-06 0 -3.7858122284477883e-06 -1.4986130158057018e-06 0 -2.5540763946475914e-06 -2.4379594816080511e-06 0 -5.6087299310957118e-06 -3.0164031552587874e-06 0 -5.6087299310957118e-06 -3.0164031552587874e-06 0 -4.2552801399042718e-06 -4.7320503770215424e-06 0 -8.3777707312761568e-06 -5.3169564591189867e-06 0 -4.2552801399042718e-06 -4.7320503770215424e-06 0 -1.9368537657298264e-06 -6.4563571030508945e-06 0 -6.9354446077692281e-06 -8.2192752154111233e-06 0 -4.2552801399042718e-06 -4.7320503770215424e-06 0 -6.9354446077692281e-06 -8.2192752154111233e-06 0 -8.3777707312761568e-06 -5.3169564591189867e-06 0 -6.5824434961416437e-07 -3.7823411148693858e-06 0 1.5634100050189468e-06 -5.5724816704172775e-06 0 1.9881105089639367e-06 -3.0738033848555644e-06 0 -2.5540763946475914e-06 -2.4379594816080511e-06 0 -4.2552801399042718e-06 -4.7320503770215424e-06 0 -6.5824434961416437e-07 -3.7823411148693858e-06 0 -4.2552801399042718e-06 -4.7320503770215424e-06 0 -6.5824434961416437e-07 -3.7823411148693858e-06 0 -1.9368537657298264e-06 -6.4563571030508945e-06 0 -6.5824434961416437e-07 -3.7823411148693858e-06 0 -1.9368537657298264e-06 -6.4563571030508945e-06 0 1.5634100050189468e-06 -5.5724816704172775e-06 0 -1.9368537657298264e-06 -6.4563571030508945e-06 0 3.8975758453837889e-07 -8.8050519757246508e-06 0 1.5634100050189468e-06 -5.5724816704172775e-06 0 -1.9368537657298264e-06 -6.4563571030508945e-06 0 3.8975758453837889e-07 -8.8050519757246508e-06 0 -3.1987607693630337e-06 -1.0371366087866875e-05 0 -3.1987607693630337e-06 -1.0371366087866875e-05 0 -5.343542732767883e-06 -1.5561058514123006e-05 0 -1.432142949842592e-06 -1.3731171745190606e-05 0 3.8975758453837889e-07 -8.8050519757246508e-06 0 -3.1987607693630337e-06 -1.0371366087866875e-05 0 -1.432142949842592e-06 -1.3731171745190606e-05 0 3.8975758453837889e-07 -8.8050519757246508e-06 0 2.4796089493338869e-06 -1.1518815604908317e-05 0 -1.432142949842592e-06 -1.3731171745190606e-05 0 -6.9354446077692281e-06 -8.2192752154111233e-06 0 -3.1987607693630337e-06 -1.0371366087866875e-05 0 -7.6153403245028622e-06 -1.2211534226960196e-05 0 -1.9368537657298264e-06 -6.4563571030508945e-06 0 -6.9354446077692281e-06 -8.2192752154111233e-06 0 -3.1987607693630337e-06 -1.0371366087866875e-05 0 -3.1987607693630337e-06 -1.0371366087866875e-05 0 -7.6153403245028622e-06 -1.2211534226960196e-05 0 -5.343542732767883e-06 -1.5561058514123006e-05 0 -6.9354446077692281e-06 -8.2192752154111233e-06 0 -7.6153403245028622e-06 -1.2211534226960196e-05 0 -1.2271514863588417e-05 -1.2227185293800394e-05 0 -7.6153403245028622e-06 -1.2211534226960196e-05 0 -1.2271514863588417e-05 -1.2227185293800394e-05 0 -1.0363857511198795e-05 -1.5424790226707394e-05 0 -6.9354446077692281e-06 -8.2192752154111233e-06 0 -1.2271514863588417e-05 -1.2227185293800394e-05 0 -1.2125339321274773e-05 -8.5632220822112643e-06 0 -1.2271514863588417e-05 -1.2227185293800394e-05 0 -1.6928376660879076e-05 -1.2160139192283168e-05 0 -1.2125339321274773e-05 -8.5632220822112643e-06 0 -1.2271514863588417e-05 -1.2227185293800394e-05 0 -1.6928376660879076e-05 -1.2160139192283168e-05 0 -1.7685950655687625e-05 -1.7908351944847867e-05 0 -1.6928376660879076e-05 -1.2160139192283168e-05 0 -2.3426553476196937e-05 -1.6231232101187141e-05 0 -1.7685950655687625e-05 -1.7908351944847867e-05 0 -1.6928376660879076e-05 -1.2160139192283168e-05 0 -2.3426553476196937e-05 -1.6231232101187141e-05 0 -2.0066872502594622e-05 -1.1127050451070593e-05 0 -1.6928376660879076e-05 -1.2160139192283168e-05 0 -2.0066872502594622e-05 -1.1127050451070593e-05 0 -1.5665945056053738e-05 -8.8586644035127744e-06 0 -1.6928376660879076e-05 -1.2160139192283168e-05 0 -1.5665945056053738e-05 -8.8586644035127744e-06 0 -1.2125339321274773e-05 -8.5632220822112643e-06 0 -1.5665945056053738e-05 -8.8586644035127744e-06 0 -1.6757550620876414e-05 -7.1487908933986806e-06 0 -1.2437397146301405e-05 -5.9169578657923529e-06 0 -1.5665945056053738e-05 -8.8586644035127744e-06 0 -1.2437397146301405e-05 -5.9169578657923529e-06 0 -1.2125339321274773e-05 -8.5632220822112643e-06 0 -2.0066872502594622e-05 -1.1127050451070593e-05 0 -1.5665945056053738e-05 -8.8586644035127744e-06 0 -1.6757550620876414e-05 -7.1487908933986806e-06 0 -1.2305265733704916e-05 -4.2349211586489032e-06 0 -1.6757550620876414e-05 -7.1487908933986806e-06 0 -1.2437397146301405e-05 -5.9169578657923529e-06 0 -8.9199017940138501e-06 -3.0840525367484976e-06 0 -1.2437397146301405e-05 -5.9169578657923529e-06 0 -8.3777707312761568e-06 -5.3169564591189867e-06 0 -6.9354446077692281e-06 -8.2192752154111233e-06 0 -8.3777707312761568e-06 -5.3169564591189867e-06 0 -1.2125339321274773e-05 -8.5632220822112643e-06 0 -1.2437397146301405e-05 -5.9169578657923529e-06 0 -8.3777707312761568e-06 -5.3169564591189867e-06 0 -1.2125339321274773e-05 -8.5632220822112643e-06 0 5.6123337654822354e-06 -3.4368953637324263e-06 0 5.957061453713593e-06 -1.6609535157216239e-06 0 6.4214526917272048e-06 -2.7298974006240695e-06 0 5.6123337654822354e-06 -3.4368953637324263e-06 0 5.164108473977282e-06 -2.1525245030060522e-06 0 5.957061453713593e-06 -1.6609535157216239e-06 0 5.6123337654822354e-06 -3.4368953637324263e-06 0 5.164108473977282e-06 -2.1525245030060522e-06 0 4.5915848710912357e-06 -3.4596185994088511e-06 0 5.957061453713593e-06 -1.6609535157216239e-06 0 6.9171405143604062e-06 -7.6003573891970474e-07 0 6.4214526917272048e-06 -2.7298974006240695e-06 0 6.9171405143604062e-06 -7.6003573891970474e-07 0 7.6637415378130731e-06 -1.1967319458382804e-06 0 7.9034169393801943e-06 5.7225147742759088e-07 0 6.9171405143604062e-06 -7.6003573891970474e-07 0 7.6637415378130731e-06 -1.1967319458382804e-06 0 6.4214526917272048e-06 -2.7298974006240695e-06 0 7.6637415378130731e-06 -1.1967319458382804e-06 0 6.4214526917272048e-06 -2.7298974006240695e-06 0 7.028734548375735e-06 -3.0648989049643465e-06 0 6.4214526917272048e-06 -2.7298974006240695e-06 0 7.028734548375735e-06 -3.0648989049643465e-06 0 6.493319193395128e-06 -4.8005290272086737e-06 0 7.6637415378130731e-06 -1.1967319458382804e-06 0 7.028734548375735e-06 -3.0648989049643465e-06 0 7.6746710704026378e-06 -3.670982666394064e-06 0 7.028734548375735e-06 -3.0648989049643465e-06 0 7.6746710704026378e-06 -3.670982666394064e-06 0 6.493319193395128e-06 -4.8005290272086737e-06 0 6.493319193395128e-06 -4.8005290272086737e-06 0 5.6855338861354155e-06 -5.0938414755358017e-06 0 5.6174958277469342e-06 -7.085477816098821e-06 0 6.4214526917272048e-06 -2.7298974006240695e-06 0 6.493319193395128e-06 -4.8005290272086737e-06 0 5.6855338861354155e-06 -5.0938414755358017e-06 0 5.6123337654822354e-06 -3.4368953637324263e-06 0 6.4214526917272048e-06 -2.7298974006240695e-06 0 5.6855338861354155e-06 -5.0938414755358017e-06 0 5.6123337654822354e-06 -3.4368953637324263e-06 0 5.6855338861354155e-06 -5.0938414755358017e-06 0 5.107428365027127e-06 -5.1340828134148817e-06 0 5.6855338861354155e-06 -5.0938414755358017e-06 0 4.9524441965792867e-06 -7.2482607761483482e-06 0 5.6174958277469342e-06 -7.085477816098821e-06 0 4.9524441965792867e-06 -7.2482607761483482e-06 0 5.050405544478254e-06 -7.1287338139752311e-06 0 5.8728976620030073e-06 -9.9682067781097851e-06 0 4.9524441965792867e-06 -7.2482607761483482e-06 0 5.050405544478254e-06 -7.1287338139752311e-06 0 5.107428365027127e-06 -5.1340828134148817e-06 0 5.050405544478254e-06 -7.1287338139752311e-06 0 5.107428365027127e-06 -5.1340828134148817e-06 0 4.044351629743647e-06 -4.8383307875215562e-06 0 5.6855338861354155e-06 -5.0938414755358017e-06 0 4.9524441965792867e-06 -7.2482607761483482e-06 0 5.107428365027127e-06 -5.1340828134148817e-06 0 2.4796089493338869e-06 -1.1518815604908317e-05 0 3.7374135794071491e-06 -7.6606547789574567e-06 0 5.8728976620030073e-06 -9.9682067781097851e-06 0 3.8975758453837889e-07 -8.8050519757246508e-06 0 2.4796089493338869e-06 -1.1518815604908317e-05 0 3.7374135794071491e-06 -7.6606547789574567e-06 0 5.050405544478254e-06 -7.1287338139752311e-06 0 3.7374135794071491e-06 -7.6606547789574567e-06 0 5.8728976620030073e-06 -9.9682067781097851e-06 0 5.050405544478254e-06 -7.1287338139752311e-06 0 3.7374135794071491e-06 -7.6606547789574567e-06 0 4.044351629743647e-06 -4.8383307875215562e-06 0 3.8975758453837889e-07 -8.8050519757246508e-06 0 3.7374135794071491e-06 -7.6606547789574567e-06 0 1.5634100050189468e-06 -5.5724816704172775e-06 0 3.7374135794071491e-06 -7.6606547789574567e-06 0 1.5634100050189468e-06 -5.5724816704172775e-06 0 4.044351629743647e-06 -4.8383307875215562e-06 0 1.5634100050189468e-06 -5.5724816704172775e-06 0 4.044351629743647e-06 -4.8383307875215562e-06 0 1.9881105089639367e-06 -3.0738033848555644e-06 0 4.044351629743647e-06 -4.8383307875215562e-06 0 1.9881105089639367e-06 -3.0738033848555644e-06 0 3.5158345921716745e-06 -2.3136064050173337e-06 0 5.6123337654822354e-06 -3.4368953637324263e-06 0 5.107428365027127e-06 -5.1340828134148817e-06 0 4.5915848710912357e-06 -3.4596185994088511e-06 0 5.107428365027127e-06 -5.1340828134148817e-06 0 4.044351629743647e-06 -4.8383307875215562e-06 0 4.5915848710912357e-06 -3.4596185994088511e-06 0 4.044351629743647e-06 -4.8383307875215562e-06 0 4.5915848710912357e-06 -3.4596185994088511e-06 0 3.5158345921716745e-06 -2.3136064050173337e-06 0 4.5915848710912357e-06 -3.4596185994088511e-06 0 3.5158345921716745e-06 -2.3136064050173337e-06 0 4.3005947381394827e-06 -7.6879879638898805e-07 0 5.164108473977282e-06 -2.1525245030060522e-06 0 4.5915848710912357e-06 -3.4596185994088511e-06 0 4.3005947381394827e-06 -7.6879879638898805e-07 0 3.5158345921716745e-06 -2.3136064050173337e-06 0 3.3045895468040935e-06 -8.7670151974463621e-07 0 4.3005947381394827e-06 -7.6879879638898805e-07 0 3.3045895468040935e-06 -8.7670151974463621e-07 0 4.3005947381394827e-06 -7.6879879638898805e-07 0 3.5175994912327722e-06 1.6008274704426065e-08 0 1.6210046649473169e-07 -1.4248453900264558e-06 0 1.9881105089639367e-06 -3.0738033848555644e-06 0 2.2183776750931887e-06 -1.2100325102149702e-06 0 1.9881105089639367e-06 -3.0738033848555644e-06 0 3.5158345921716745e-06 -2.3136064050173337e-06 0 2.2183776750931887e-06 -1.2100325102149702e-06 0 3.5158345921716745e-06 -2.3136064050173337e-06 0 3.3045895468040935e-06 -8.7670151974463621e-07 0 2.2183776750931887e-06 -1.2100325102149702e-06 0 3.3045895468040935e-06 -8.7670151974463621e-07 0 2.2183776750931887e-06 -1.2100325102149702e-06 0 2.568468850582211e-06 2.172992535193709e-08 0 1.6210046649473169e-07 -1.4248453900264558e-06 0 2.2183776750931887e-06 -1.2100325102149702e-06 0 1.2447282698748096e-06 4.803558788788633e-08 0 2.2183776750931887e-06 -1.2100325102149702e-06 0 1.2447282698748096e-06 4.803558788788633e-08 0 2.568468850582211e-06 2.172992535193709e-08 0 1.2447282698748096e-06 4.803558788788633e-08 0 2.568468850582211e-06 2.172992535193709e-08 0 1.7293478788783405e-06 1.0045136794399045e-06 0 1.2447282698748096e-06 4.803558788788633e-08 0 5.6549590649970793e-07 8.6711274230665788e-07 0 1.7293478788783405e-06 1.0045136794399045e-06 0 -3.51456470763022e-07 2.9185578960833392e-07 0 1.2447282698748096e-06 4.803558788788633e-08 0 5.6549590649970793e-07 8.6711274230665788e-07 0 4.3005947381394827e-06 -7.6879879638898805e-07 0 3.5175994912327722e-06 1.6008274704426065e-08 0 4.074769625630299e-06 5.1930599377070816e-07 0 3.3045895468040935e-06 -8.7670151974463621e-07 0 3.5175994912327722e-06 1.6008274704426065e-08 0 2.568468850582211e-06 2.172992535193709e-08 0 3.5175994912327722e-06 1.6008274704426065e-08 0 2.568468850582211e-06 2.172992535193709e-08 0 2.9658661693289125e-06 7.2970129823142033e-07 0 2.568468850582211e-06 2.172992535193709e-08 0 2.9658661693289125e-06 7.2970129823142033e-07 0 1.7293478788783405e-06 1.0045136794399045e-06 0 3.5175994912327722e-06 1.6008274704426065e-08 0 2.9658661693289125e-06 7.2970129823142033e-07 0 4.074769625630299e-06 5.1930599377070816e-07 0 2.9658661693289125e-06 7.2970129823142033e-07 0 4.074769625630299e-06 5.1930599377070816e-07 0 2.9756356809666939e-06 1.1992004558180023e-06 0 4.074769625630299e-06 5.1930599377070816e-07 0 5.1887791367472685e-06 5.4531682247819216e-07 0 4.0316642420367752e-06 9.9175640852445234e-07 0 5.1887791367472685e-06 5.4531682247819216e-07 0 5.1644210541531728e-06 9.218397490732478e-07 0 4.0316642420367752e-06 9.9175640852445234e-07 0 4.074769625630299e-06 5.1930599377070816e-07 0 5.1887791367472685e-06 5.4531682247819216e-07 0 4.993178345815118e-06 -1.2177749309993007e-07 0 4.3005947381394827e-06 -7.6879879638898805e-07 0 4.074769625630299e-06 5.1930599377070816e-07 0 4.993178345815118e-06 -1.2177749309993007e-07 0 4.3005947381394827e-06 -7.6879879638898805e-07 0 4.993178345815118e-06 -1.2177749309993007e-07 0 5.3292757803394186e-06 -9.6416887116594526e-07 0 4.993178345815118e-06 -1.2177749309993007e-07 0 5.3292757803394186e-06 -9.6416887116594526e-07 0 6.0460860121987327e-06 -1.7495134607447355e-07 0 5.1887791367472685e-06 5.4531682247819216e-07 0 4.993178345815118e-06 -1.2177749309993007e-07 0 6.0460860121987327e-06 -1.7495134607447355e-07 0 5.957061453713593e-06 -1.6609535157216239e-06 0 5.3292757803394186e-06 -9.6416887116594526e-07 0 6.0460860121987327e-06 -1.7495134607447355e-07 0 5.164108473977282e-06 -2.1525245030060522e-06 0 5.957061453713593e-06 -1.6609535157216239e-06 0 5.3292757803394186e-06 -9.6416887116594526e-07 0 5.164108473977282e-06 -2.1525245030060522e-06 0 4.3005947381394827e-06 -7.6879879638898805e-07 0 5.3292757803394186e-06 -9.6416887116594526e-07 0 6.9171405143604062e-06 -7.6003573891970474e-07 0 6.964144900951488e-06 3.6678416898843693e-07 0 7.9034169393801943e-06 5.7225147742759088e-07 0 6.9171405143604062e-06 -7.6003573891970474e-07 0 6.964144900951488e-06 3.6678416898843693e-07 0 6.0460860121987327e-06 -1.7495134607447355e-07 0 5.957061453713593e-06 -1.6609535157216239e-06 0 6.9171405143604062e-06 -7.6003573891970474e-07 0 6.0460860121987327e-06 -1.7495134607447355e-07 0 5.1887791367472685e-06 5.4531682247819216e-07 0 6.0460860121987327e-06 -1.7495134607447355e-07 0 6.2623670897369948e-06 6.6582602434819661e-07 0 6.964144900951488e-06 3.6678416898843693e-07 0 6.2623670897369948e-06 6.6582602434819661e-07 0 7.5599284664789861e-06 1.1988245978654327e-06 0 6.964144900951488e-06 3.6678416898843693e-07 0 6.0460860121987327e-06 -1.7495134607447355e-07 0 6.2623670897369948e-06 6.6582602434819661e-07 0 6.2623670897369948e-06 6.6582602434819661e-07 0 5.1644210541531728e-06 9.218397490732478e-07 0 6.3430957530825193e-06 1.0163970989661565e-06 0 5.1887791367472685e-06 5.4531682247819216e-07 0 6.2623670897369948e-06 6.6582602434819661e-07 0 5.1644210541531728e-06 9.218397490732478e-07 0 5.1644210541531728e-06 9.218397490732478e-07 0 5.2516106461624039e-06 9.8587555215997487e-07 0 6.3430957530825193e-06 1.0163970989661565e-06 0 5.2516106461624039e-06 9.8587555215997487e-07 0 4.0965000879220314e-06 9.7387327683498194e-07 0 4.2798573822657609e-06 1.0531497352882807e-06 0 4.0965000879220314e-06 9.7387327683498194e-07 0 4.2798573822657609e-06 1.0531497352882807e-06 0 3.3909068293358097e-06 1.1940076597100079e-06 0 5.1644210541531728e-06 9.218397490732478e-07 0 4.2798573822657609e-06 1.0531497352882807e-06 0 4.0316642420367752e-06 9.9175640852445234e-07 0 5.1644210541531728e-06 9.218397490732478e-07 0 5.2516106461624039e-06 9.8587555215997487e-07 0 4.2798573822657609e-06 1.0531497352882807e-06 0 4.074769625630299e-06 5.1930599377070816e-07 0 4.0316642420367752e-06 9.9175640852445234e-07 0 2.9756356809666939e-06 1.1992004558180023e-06 0 3.3909068293358097e-06 1.1940076597100079e-06 0 2.407197959006536e-06 1.3714777221263451e-06 0 2.9756356809666939e-06 1.1992004558180023e-06 0 4.0316642420367752e-06 9.9175640852445234e-07 0 3.3909068293358097e-06 1.1940076597100079e-06 0 2.9756356809666939e-06 1.1992004558180023e-06 0 4.2798573822657609e-06 1.0531497352882807e-06 0 4.0316642420367752e-06 9.9175640852445234e-07 0 3.3909068293358097e-06 1.1940076597100079e-06 0 3.3909068293358097e-06 1.1940076597100079e-06 0 2.3578121831178697e-06 1.1663270987740458e-06 0 3.0985564238780279e-06 1.0191849251423024e-06 0 3.3909068293358097e-06 1.1940076597100079e-06 0 2.407197959006536e-06 1.3714777221263451e-06 0 2.3578121831178697e-06 1.1663270987740458e-06 0 2.407197959006536e-06 1.3714777221263451e-06 0 2.3578121831178697e-06 1.1663270987740458e-06 0 1.5855407359617237e-06 1.2444746294819392e-06 0 2.3578121831178697e-06 1.1663270987740458e-06 0 3.0985564238780279e-06 1.0191849251423024e-06 0 2.1546882747997608e-06 8.4329337314066044e-07 0 3.0985564238780279e-06 1.0191849251423024e-06 0 2.1546882747997608e-06 8.4329337314066044e-07 0 2.5926485666276215e-06 5.8921514515838404e-07 0 3.0985564238780279e-06 1.0191849251423024e-06 0 2.5926485666276215e-06 5.8921514515838404e-07 0 3.6614844804659795e-06 7.4514370054395523e-07 0 4.0965000879220314e-06 9.7387327683498194e-07 0 3.0985564238780279e-06 1.0191849251423024e-06 0 3.6614844804659795e-06 7.4514370054395523e-07 0 4.0965000879220314e-06 9.7387327683498194e-07 0 3.3909068293358097e-06 1.1940076597100079e-06 0 3.0985564238780279e-06 1.0191849251423024e-06 0 5.6549590649970793e-07 8.6711274230665788e-07 0 6.7545430056163976e-07 1.4341777073789504e-06 0 1.7293478788783405e-06 1.0045136794399045e-06 0 6.7545430056163976e-07 1.4341777073789504e-06 0 1.7293478788783405e-06 1.0045136794399045e-06 0 1.6200416799250157e-06 1.4762512089024418e-06 0 6.7545430056163976e-07 1.4341777073789504e-06 0 1.6200416799250157e-06 1.4762512089024418e-06 0 7.3851351613972963e-07 1.6623596719924072e-06 0 1.6200416799250157e-06 1.4762512089024418e-06 0 2.347549545545117e-06 1.1828628282434349e-06 0 2.1657866788587362e-06 1.4320661072500312e-06 0 1.7293478788783405e-06 1.0045136794399045e-06 0 1.6200416799250157e-06 1.4762512089024418e-06 0 2.347549545545117e-06 1.1828628282434349e-06 0 2.9658661693289125e-06 7.2970129823142033e-07 0 1.7293478788783405e-06 1.0045136794399045e-06 0 2.347549545545117e-06 1.1828628282434349e-06 0 2.9658661693289125e-06 7.2970129823142033e-07 0 2.347549545545117e-06 1.1828628282434349e-06 0 2.9756356809666939e-06 1.1992004558180023e-06 0 2.347549545545117e-06 1.1828628282434349e-06 0 2.9756356809666939e-06 1.1992004558180023e-06 0 2.1657866788587362e-06 1.4320661072500312e-06 0 2.407197959006536e-06 1.3714777221263451e-06 0 2.9756356809666939e-06 1.1992004558180023e-06 0 2.1657866788587362e-06 1.4320661072500312e-06 0 2.407197959006536e-06 1.3714777221263451e-06 0 2.1657866788587362e-06 1.4320661072500312e-06 0 1.3938955413312233e-06 1.5655926967790275e-06 0 2.407197959006536e-06 1.3714777221263451e-06 0 1.3938955413312233e-06 1.5655926967790275e-06 0 1.5855407359617237e-06 1.2444746294819392e-06 0 1.6200416799250157e-06 1.4762512089024418e-06 0 2.1657866788587362e-06 1.4320661072500312e-06 0 1.3938955413312233e-06 1.5655926967790275e-06 0 1.6200416799250157e-06 1.4762512089024418e-06 0 1.3938955413312233e-06 1.5655926967790275e-06 0 7.3851351613972963e-07 1.6623596719924072e-06 0 1.3938955413312233e-06 1.5655926967790275e-06 0 7.3851351613972963e-07 1.6623596719924072e-06 0 3.7310350450796092e-07 1.6394843594480809e-06 0 -4.0859309797469898e-08 1.7025015726272933e-06 0 7.3851351613972963e-07 1.6623596719924072e-06 0 3.7310350450796092e-07 1.6394843594480809e-06 0 -2.1645960344475467e-07 1.6644926425380359e-06 0 6.7545430056163976e-07 1.4341777073789504e-06 0 7.3851351613972963e-07 1.6623596719924072e-06 0 -2.1645960344475467e-07 1.6644926425380359e-06 0 -4.0859309797469898e-08 1.7025015726272933e-06 0 7.3851351613972963e-07 1.6623596719924072e-06 0 -9.3818367067305206e-09 1.5075361278803449e-06 0 6.0779111404473825e-07 1.4100193873876573e-06 0 1.4614948503852359e-07 9.5591932368310743e-07 0 -9.3818367067305206e-09 1.5075361278803449e-06 0 -4.0859309797469898e-08 1.7025015726272933e-06 0 3.7310350450796092e-07 1.6394843594480809e-06 0 -9.3818367067305206e-09 1.5075361278803449e-06 0 3.7310350450796092e-07 1.6394843594480809e-06 0 6.0779111404473825e-07 1.4100193873876573e-06 0 1.3938955413312233e-06 1.5655926967790275e-06 0 3.7310350450796092e-07 1.6394843594480809e-06 0 6.0779111404473825e-07 1.4100193873876573e-06 0 6.0779111404473825e-07 1.4100193873876573e-06 0 3.7416621594275757e-07 8.19333668657158e-07 0 1.4614948503852359e-07 9.5591932368310743e-07 0 6.0779111404473825e-07 1.4100193873876573e-06 0 9.3036496908777866e-07 1.2227410834730124e-06 0 3.7416621594275757e-07 8.19333668657158e-07 0 1.3938955413312233e-06 1.5655926967790275e-06 0 6.0779111404473825e-07 1.4100193873876573e-06 0 9.3036496908777866e-07 1.2227410834730124e-06 0 1.3938955413312233e-06 1.5655926967790275e-06 0 9.3036496908777866e-07 1.2227410834730124e-06 0 1.5855407359617237e-06 1.2444746294819392e-06 0 9.3036496908777866e-07 1.2227410834730124e-06 0 1.5855407359617237e-06 1.2444746294819392e-06 0 6.3746318037067283e-07 7.5874907629547693e-07 0 9.3036496908777866e-07 1.2227410834730124e-06 0 3.7416621594275757e-07 8.19333668657158e-07 0 6.3746318037067283e-07 7.5874907629547693e-07 0 4.3418270771555268e-10 3.7798678573454936e-10 0 3.7416621594275757e-07 8.19333668657158e-07 0 6.3746318037067283e-07 7.5874907629547693e-07 0 4.3418270771555268e-10 3.7798678573454936e-10 0 3.7416621594275757e-07 8.19333668657158e-07 0 2.6088346621006593e-10 3.77551857497973e-10 0 3.7416621594275757e-07 8.19333668657158e-07 0 2.6088346621006593e-10 3.77551857497973e-10 0 1.4614948503852359e-07 9.5591932368310743e-07 0 2.6088346621006593e-10 3.77551857497973e-10 0 -5.990436832766744e-12 4.3706922001396235e-10 0 1.4614948503852359e-07 9.5591932368310743e-07 0 -1.066440658576347e-07 8.8409579603413991e-07 0 -5.990436832766744e-12 4.3706922001396235e-10 0 1.4614948503852359e-07 9.5591932368310743e-07 0 1.3347978277918794e-06 4.6184043750131281e-07 0 2.1546882747997608e-06 8.4329337314066044e-07 0 1.3087166738607711e-06 8.1048745741371242e-07 0 1.3347978277918794e-06 4.6184043750131281e-07 0 2.1546882747997608e-06 8.4329337314066044e-07 0 2.5926485666276215e-06 5.8921514515838404e-07 0 2.3578121831178697e-06 1.1663270987740458e-06 0 2.1546882747997608e-06 8.4329337314066044e-07 0 1.3087166738607711e-06 8.1048745741371242e-07 0 2.3578121831178697e-06 1.1663270987740458e-06 0 1.5855407359617237e-06 1.2444746294819392e-06 0 1.3087166738607711e-06 8.1048745741371242e-07 0 1.5855407359617237e-06 1.2444746294819392e-06 0 1.3087166738607711e-06 8.1048745741371242e-07 0 6.3746318037067283e-07 7.5874907629547693e-07 0 1.3087166738607711e-06 8.1048745741371242e-07 0 5.4155709692826429e-07 4.5947498886564894e-07 0 6.3746318037067283e-07 7.5874907629547693e-07 0 4.3418270771555268e-10 3.7798678573454936e-10 0 6.3746318037067283e-07 7.5874907629547693e-07 0 6.7635314460926355e-10 2.4235503920935638e-10 0 5.4155709692826429e-07 4.5947498886564894e-07 0 6.3746318037067283e-07 7.5874907629547693e-07 0 6.7635314460926355e-10 2.4235503920935638e-10 0 5.4155709692826429e-07 4.5947498886564894e-07 0 6.7635314460926355e-10 2.4235503920935638e-10 0 7.9085956466977422e-10 2.0368095073338514e-10 0 5.4155709692826429e-07 4.5947498886564894e-07 0 7.9085956466977422e-10 2.0368095073338514e-10 0 5.7069107249131363e-07 3.3739907095852599e-07 0 1.3347978277918794e-06 4.6184043750131281e-07 0 5.7069107249131363e-07 3.3739907095852599e-07 0 8.5131330338457517e-10 1.6771033004549184e-10 0 1.3347978277918794e-06 4.6184043750131281e-07 0 1.3087166738607711e-06 8.1048745741371242e-07 0 5.7069107249131363e-07 3.3739907095852599e-07 0 1.3087166738607711e-06 8.1048745741371242e-07 0 5.4155709692826429e-07 4.5947498886564894e-07 0 5.7069107249131363e-07 3.3739907095852599e-07 0 7.9085956466977422e-10 2.0368095073338514e-10 0 5.7069107249131363e-07 3.3739907095852599e-07 0 8.5131330338457517e-10 1.6771033004549184e-10 0 1.3347978277918794e-06 4.6184043750131281e-07 0 8.5131330338457517e-10 1.6771033004549184e-10 0 8.6801664893708825e-07 1.227294747916707e-07 0 8.5131330338457517e-10 1.6771033004549184e-10 0 9.1371774213789698e-10 -6.2677974358366789e-11 0 8.6801664893708825e-07 1.227294747916707e-07 0 9.1371774213789698e-10 -6.2677974358366789e-11 0 8.6801664893708825e-07 1.227294747916707e-07 0 6.6105261009367554e-07 -7.4849192251822517e-08 0 8.6801664893708825e-07 1.227294747916707e-07 0 1.6328306334296737e-06 -4.8897919027235242e-08 0 6.6105261009367554e-07 -7.4849192251822517e-08 0 1.3347978277918794e-06 4.6184043750131281e-07 0 8.6801664893708825e-07 1.227294747916707e-07 0 1.7918014033018633e-06 2.360670833231243e-07 0 1.3347978277918794e-06 4.6184043750131281e-07 0 1.7918014033018633e-06 2.360670833231243e-07 0 2.5926485666276215e-06 5.8921514515838404e-07 0 8.6801664893708825e-07 1.227294747916707e-07 0 1.7918014033018633e-06 2.360670833231243e-07 0 1.6328306334296737e-06 -4.8897919027235242e-08 0 1.7918014033018633e-06 2.360670833231243e-07 0 2.577491535885732e-06 4.8788377476348596e-08 0 1.6328306334296737e-06 -4.8897919027235242e-08 0 1.7918014033018633e-06 2.360670833231243e-07 0 2.5926485666276215e-06 5.8921514515838404e-07 0 2.577491535885732e-06 4.8788377476348596e-08 0 2.1850212533355243e-06 -3.7786150705534205e-07 0 2.577491535885732e-06 4.8788377476348596e-08 0 1.6328306334296737e-06 -4.8897919027235242e-08 0 2.1850212533355243e-06 -3.7786150705534205e-07 0 9.4436400010612177e-07 -3.3823745264157638e-07 0 1.6115235661112744e-06 -7.2582304890066968e-07 0 2.1850212533355243e-06 -3.7786150705534205e-07 0 1.6328306334296737e-06 -4.8897919027235242e-08 0 9.4436400010612177e-07 -3.3823745264157638e-07 0 1.6328306334296737e-06 -4.8897919027235242e-08 0 9.4436400010612177e-07 -3.3823745264157638e-07 0 6.6105261009367554e-07 -7.4849192251822517e-08 0 9.1371774213789698e-10 -6.2677974358366789e-11 0 6.6105261009367554e-07 -7.4849192251822517e-08 0 9.2585103646640668e-10 1.2494296837135015e-12 0 9.4436400010612177e-07 -3.3823745264157638e-07 0 9.2585103646640668e-10 1.2494296837135015e-12 0 7.2555514178362638e-10 -2.8170383471611786e-10 0 9.4436400010612177e-07 -3.3823745264157638e-07 0 6.6105261009367554e-07 -7.4849192251822517e-08 0 9.2585103646640668e-10 1.2494296837135015e-12 0 7.2555514178362638e-10 -2.8170383471611786e-10 0 7.314189796031292e-07 -6.3169842119717457e-07 0 5.3918253641511465e-10 -3.5530956518906393e-10 0 9.4436400010612177e-07 -3.3823745264157638e-07 0 7.314189796031292e-07 -6.3169842119717457e-07 0 1.6115235661112744e-06 -7.2582304890066968e-07 0 9.4436400010612177e-07 -3.3823745264157638e-07 0 7.2555514178362638e-10 -2.8170383471611786e-10 0 7.314189796031292e-07 -6.3169842119717457e-07 0 5.3918253641511465e-10 -3.5530956518906393e-10 0 4.7723737476629282e-07 -9.8246336921333278e-07 0 2.4081432270253925e-10 -5.236312344683095e-10 0 7.314189796031292e-07 -6.3169842119717457e-07 0 5.3918253641511465e-10 -3.5530956518906393e-10 0 4.7723737476629282e-07 -9.8246336921333278e-07 0 4.7723737476629282e-07 -9.8246336921333278e-07 0 2.4081432270253925e-10 -5.236312344683095e-10 0 1.1389162790912566e-07 -1.0614101910603078e-06 0 4.7723737476629282e-07 -9.8246336921333278e-07 0 1.559331861092095e-06 -1.235380924611207e-06 0 5.9969884013379391e-07 -1.6368471312231844e-06 0 1.559331861092095e-06 -1.235380924611207e-06 0 1.3907868859185306e-06 -1.5792393253358436e-06 0 5.9969884013379391e-07 -1.6368471312231844e-06 0 7.314189796031292e-07 -6.3169842119717457e-07 0 4.7723737476629282e-07 -9.8246336921333278e-07 0 1.559331861092095e-06 -1.235380924611207e-06 0 1.3907868859185306e-06 -1.5792393253358436e-06 0 5.9969884013379391e-07 -1.6368471312231844e-06 0 1.1304560468793998e-06 -1.781925636369158e-06 0 7.314189796031292e-07 -6.3169842119717457e-07 0 1.559331861092095e-06 -1.235380924611207e-06 0 1.6115235661112744e-06 -7.2582304890066968e-07 0 1.559331861092095e-06 -1.235380924611207e-06 0 1.6115235661112744e-06 -7.2582304890066968e-07 0 2.5169294628549052e-06 -6.9275614465990601e-07 0 2.1850212533355243e-06 -3.7786150705534205e-07 0 1.6115235661112744e-06 -7.2582304890066968e-07 0 2.5169294628549052e-06 -6.9275614465990601e-07 0 1.559331861092095e-06 -1.235380924611207e-06 0 2.5169294628549052e-06 -6.9275614465990601e-07 0 3.3404924880642753e-06 -8.3736067012550124e-07 0 2.5169294628549052e-06 -6.9275614465990601e-07 0 3.3404924880642753e-06 -8.3736067012550124e-07 0 3.6399063456681927e-06 -1.9087817168086674e-07 0 3.3404924880642753e-06 -8.3736067012550124e-07 0 4.733859385227957e-06 -3.1840149798769437e-08 0 3.6399063456681927e-06 -1.9087817168086674e-07 0 1.559331861092095e-06 -1.235380924611207e-06 0 3.3404924880642753e-06 -8.3736067012550124e-07 0 2.314712060605771e-06 -1.367029555076163e-06 0 1.3907868859185306e-06 -1.5792393253358436e-06 0 2.314712060605771e-06 -1.367029555076163e-06 0 1.1304560468793998e-06 -1.781925636369158e-06 0 1.559331861092095e-06 -1.235380924611207e-06 0 1.3907868859185306e-06 -1.5792393253358436e-06 0 2.314712060605771e-06 -1.367029555076163e-06 0 3.3404924880642753e-06 -8.3736067012550124e-07 0 2.314712060605771e-06 -1.367029555076163e-06 0 3.150277444357351e-06 -1.0909757619292179e-06 0 2.314712060605771e-06 -1.367029555076163e-06 0 1.1304560468793998e-06 -1.781925636369158e-06 0 1.5676665068785687e-06 -1.7042738432518456e-06 0 2.314712060605771e-06 -1.367029555076163e-06 0 3.150277444357351e-06 -1.0909757619292179e-06 0 1.5676665068785687e-06 -1.7042738432518456e-06 0 3.150277444357351e-06 -1.0909757619292179e-06 0 3.530483024598858e-06 -8.4352651656831591e-07 0 1.5676665068785687e-06 -1.7042738432518456e-06 0 3.150277444357351e-06 -1.0909757619292179e-06 0 3.530483024598858e-06 -8.4352651656831591e-07 0 4.8509510813345294e-06 -2.9121703701360545e-07 0 3.530483024598858e-06 -8.4352651656831591e-07 0 4.8509510813345294e-06 -2.9121703701360545e-07 0 5.3135718251253041e-06 2.1856285822418703e-07 0 3.530483024598858e-06 -8.4352651656831591e-07 0 1.3172905342805327e-06 -1.2985888084659414e-06 0 3.5192873091166275e-06 -3.0182679125044557e-07 0 3.530483024598858e-06 -8.4352651656831591e-07 0 3.5192873091166275e-06 -3.0182679125044557e-07 0 5.3135718251253041e-06 2.1856285822418703e-07 0 3.3404924880642753e-06 -8.3736067012550124e-07 0 4.8509510813345294e-06 -2.9121703701360545e-07 0 4.733859385227957e-06 -3.1840149798769437e-08 0 3.3404924880642753e-06 -8.3736067012550124e-07 0 3.150277444357351e-06 -1.0909757619292179e-06 0 4.8509510813345294e-06 -2.9121703701360545e-07 0 4.8509510813345294e-06 -2.9121703701360545e-07 0 6.083403083958751e-06 5.2041233141256431e-07 0 4.733859385227957e-06 -3.1840149798769437e-08 0 4.8509510813345294e-06 -2.9121703701360545e-07 0 6.083403083958751e-06 5.2041233141256431e-07 0 6.9360788073003963e-06 9.6414347291421595e-07 0 6.083403083958751e-06 5.2041233141256431e-07 0 4.733859385227957e-06 -3.1840149798769437e-08 0 5.6110559125608905e-06 5.9101226026030068e-07 0 6.083403083958751e-06 5.2041233141256431e-07 0 5.6110559125608905e-06 5.9101226026030068e-07 0 6.79484899132202e-06 9.9142242448951281e-07 0 4.733859385227957e-06 -3.1840149798769437e-08 0 5.6110559125608905e-06 5.9101226026030068e-07 0 4.4151450923753855e-06 2.7289943148075834e-07 0 5.6110559125608905e-06 5.9101226026030068e-07 0 4.7035538133360936e-06 7.261251885206464e-07 0 4.4151450923753855e-06 2.7289943148075834e-07 0 5.6110559125608905e-06 5.9101226026030068e-07 0 6.1127302703543468e-06 9.6621881793463535e-07 0 6.79484899132202e-06 9.9142242448951281e-07 0 5.6110559125608905e-06 5.9101226026030068e-07 0 4.7035538133360936e-06 7.261251885206464e-07 0 6.1127302703543468e-06 9.6621881793463535e-07 0 5.2516106461624039e-06 9.8587555215997487e-07 0 4.7035538133360936e-06 7.261251885206464e-07 0 6.1127302703543468e-06 9.6621881793463535e-07 0 4.0965000879220314e-06 9.7387327683498194e-07 0 4.7035538133360936e-06 7.261251885206464e-07 0 3.6614844804659795e-06 7.4514370054395523e-07 0 5.2516106461624039e-06 9.8587555215997487e-07 0 4.0965000879220314e-06 9.7387327683498194e-07 0 4.7035538133360936e-06 7.261251885206464e-07 0 4.7035538133360936e-06 7.261251885206464e-07 0 3.434150842450867e-06 3.2588753957937068e-07 0 4.4151450923753855e-06 2.7289943148075834e-07 0 4.7035538133360936e-06 7.261251885206464e-07 0 3.6614844804659795e-06 7.4514370054395523e-07 0 3.434150842450867e-06 3.2588753957937068e-07 0 2.5926485666276215e-06 5.8921514515838404e-07 0 3.6614844804659795e-06 7.4514370054395523e-07 0 3.434150842450867e-06 3.2588753957937068e-07 0 2.5926485666276215e-06 5.8921514515838404e-07 0 2.577491535885732e-06 4.8788377476348596e-08 0 3.434150842450867e-06 3.2588753957937068e-07 0 2.577491535885732e-06 4.8788377476348596e-08 0 3.434150842450867e-06 3.2588753957937068e-07 0 3.6399063456681927e-06 -1.9087817168086674e-07 0 2.1850212533355243e-06 -3.7786150705534205e-07 0 2.577491535885732e-06 4.8788377476348596e-08 0 3.6399063456681927e-06 -1.9087817168086674e-07 0 2.1850212533355243e-06 -3.7786150705534205e-07 0 2.5169294628549052e-06 -6.9275614465990601e-07 0 3.6399063456681927e-06 -1.9087817168086674e-07 0 4.733859385227957e-06 -3.1840149798769437e-08 0 3.6399063456681927e-06 -1.9087817168086674e-07 0 4.4151450923753855e-06 2.7289943148075834e-07 0 3.434150842450867e-06 3.2588753957937068e-07 0 3.6399063456681927e-06 -1.9087817168086674e-07 0 4.4151450923753855e-06 2.7289943148075834e-07 0 -3.3135104846935061e-06 -5.6963110992916211e-07 0 -3.154699489533667e-06 -1.2055317108723169e-06 0 -5.6975046572451503e-06 -6.8803801143183153e-07 0 -3.154699489533667e-06 -1.2055317108723169e-06 0 -1.4431917175228242e-06 -7.4874922292888191e-07 0 -1.8952360440226452e-06 -1.4805374651595367e-06 0 -3.3135104846935061e-06 -5.6963110992916211e-07 0 -1.4378684384973994e-06 -1.3178815189182774e-07 0 -1.4431917175228242e-06 -7.4874922292888191e-07 0 -3.3135104846935061e-06 -5.6963110992916211e-07 0 -3.154699489533667e-06 -1.2055317108723169e-06 0 -1.4431917175228242e-06 -7.4874922292888191e-07 0 -1.4378684384973994e-06 -1.3178815189182774e-07 0 -6.4392239913174457e-07 -2.2487114763443922e-07 0 -1.4431917175228242e-06 -7.4874922292888191e-07 0 -1.4378684384973994e-06 -1.3178815189182774e-07 0 -1.150900555211797e-09 4.7043266699331304e-10 0 -6.4392239913174457e-07 -2.2487114763443922e-07 0 -1.150900555211797e-09 4.7043266699331304e-10 0 -6.4392239913174457e-07 -2.2487114763443922e-07 0 -1.1767297242598442e-09 -4.5288989479756349e-10 0 -6.4392239913174457e-07 -2.2487114763443922e-07 0 -1.1767297242598442e-09 -4.5288989479756349e-10 0 -1.4431917175228242e-06 -7.4874922292888191e-07 0 -1.1767297242598442e-09 -4.5288989479756349e-10 0 -1.4431917175228242e-06 -7.4874922292888191e-07 0 -8.5173978334419113e-07 -9.7861775508947375e-07 0 -1.4431917175228242e-06 -7.4874922292888191e-07 0 -8.5173978334419113e-07 -9.7861775508947375e-07 0 -1.8952360440226452e-06 -1.4805374651595367e-06 0 -1.1767297242598442e-09 -4.5288989479756349e-10 0 -1.0346723974697437e-09 -2.5388429045156254e-10 0 -8.5173978334419113e-07 -9.7861775508947375e-07 0 -1.0346723974697437e-09 -2.5388429045156254e-10 0 -8.5173978334419113e-07 -9.7861775508947375e-07 0 -4.4492791702989233e-10 -7.4211348200176098e-10 0 -8.5173978334419113e-07 -9.7861775508947375e-07 0 -1.8952360440226452e-06 -1.4805374651595367e-06 0 -8.2597729004295728e-07 -1.5032806337529335e-06 0 -1.8952360440226452e-06 -1.4805374651595367e-06 0 -1.7078726815848232e-06 -1.9418274101544851e-06 0 -8.2597729004295728e-07 -1.5032806337529335e-06 0 -3.154699489533667e-06 -1.2055317108723169e-06 0 -1.8952360440226452e-06 -1.4805374651595367e-06 0 -2.9185998949149744e-06 -1.8659824885971597e-06 0 -3.154699489533667e-06 -1.2055317108723169e-06 0 -2.9185998949149744e-06 -1.8659824885971597e-06 0 -4.4735098279542646e-06 -1.5506711873602264e-06 0 -2.9185998949149744e-06 -1.8659824885971597e-06 0 -1.7078726815848232e-06 -1.9418274101544851e-06 0 -1.8647198664390584e-06 -2.1822483968059267e-06 0 -1.8952360440226452e-06 -1.4805374651595367e-06 0 -2.9185998949149744e-06 -1.8659824885971597e-06 0 -1.7078726815848232e-06 -1.9418274101544851e-06 0 -1.7078726815848232e-06 -1.9418274101544851e-06 0 -9.4192560289411533e-07 -2.0364625931499198e-06 0 -1.8647198664390584e-06 -2.1822483968059267e-06 0 -9.4192560289411533e-07 -2.0364625931499198e-06 0 -8.2597729004295728e-07 -1.5032806337529335e-06 0 -1.6188813959994002e-07 -1.7307936704278718e-06 0 -1.7078726815848232e-06 -1.9418274101544851e-06 0 -9.4192560289411533e-07 -2.0364625931499198e-06 0 -8.2597729004295728e-07 -1.5032806337529335e-06 0 -8.2597729004295728e-07 -1.5032806337529335e-06 0 -4.4492791702989233e-10 -7.4211348200176098e-10 0 -1.911000045596618e-07 -9.8730997760441173e-07 0 -8.5173978334419113e-07 -9.7861775508947375e-07 0 -8.2597729004295728e-07 -1.5032806337529335e-06 0 -4.4492791702989233e-10 -7.4211348200176098e-10 0 -4.4492791702989233e-10 -7.4211348200176098e-10 0 -1.911000045596618e-07 -9.8730997760441173e-07 0 -1.3860320048071971e-10 -4.7320950026782848e-10 0 -8.2597729004295728e-07 -1.5032806337529335e-06 0 -1.911000045596618e-07 -9.8730997760441173e-07 0 -1.6188813959994002e-07 -1.7307936704278718e-06 0 -1.911000045596618e-07 -9.8730997760441173e-07 0 1.1389162790912566e-07 -1.0614101910603078e-06 0 -1.6188813959994002e-07 -1.7307936704278718e-06 0 -1.911000045596618e-07 -9.8730997760441173e-07 0 -1.3860320048071971e-10 -4.7320950026782848e-10 0 1.1389162790912566e-07 -1.0614101910603078e-06 0 -1.3860320048071971e-10 -4.7320950026782848e-10 0 2.4081432270253925e-10 -5.236312344683095e-10 0 1.1389162790912566e-07 -1.0614101910603078e-06 0 4.7723737476629282e-07 -9.8246336921333278e-07 0 1.1389162790912566e-07 -1.0614101910603078e-06 0 5.9969884013379391e-07 -1.6368471312231844e-06 0 1.1389162790912566e-07 -1.0614101910603078e-06 0 5.9969884013379391e-07 -1.6368471312231844e-06 0 -1.6188813959994002e-07 -1.7307936704278718e-06 0 -9.4192560289411533e-07 -2.0364625931499198e-06 0 -1.6188813959994002e-07 -1.7307936704278718e-06 0 -1.5527334387695596e-09 -2.1121572600027387e-06 0 5.9969884013379391e-07 -1.6368471312231844e-06 0 -1.6188813959994002e-07 -1.7307936704278718e-06 0 -1.5527334387695596e-09 -2.1121572600027387e-06 0 5.9969884013379391e-07 -1.6368471312231844e-06 0 1.1304560468793998e-06 -1.781925636369158e-06 0 -1.5527334387695596e-09 -2.1121572600027387e-06 0 1.1304560468793998e-06 -1.781925636369158e-06 0 -1.5527334387695596e-09 -2.1121572600027387e-06 0 1.5676665068785687e-06 -1.7042738432518456e-06 0 -1.5527334387695596e-09 -2.1121572600027387e-06 0 1.5676665068785687e-06 -1.7042738432518456e-06 0 -7.2129861046466948e-07 -2.0807697333707123e-06 0 3.530483024598858e-06 -8.4352651656831591e-07 0 1.5676665068785687e-06 -1.7042738432518456e-06 0 1.3172905342805327e-06 -1.2985888084659414e-06 0 1.3172905342805327e-06 -1.2985888084659414e-06 0 -8.466256603446938e-07 -1.5200082848165406e-06 0 -4.5870269215876438e-07 -5.5095222538013305e-07 0 1.3172905342805327e-06 -1.2985888084659414e-06 0 -8.466256603446938e-07 -1.5200082848165406e-06 0 -7.2129861046466948e-07 -2.0807697333707123e-06 0 1.5676665068785687e-06 -1.7042738432518456e-06 0 1.3172905342805327e-06 -1.2985888084659414e-06 0 -7.2129861046466948e-07 -2.0807697333707123e-06 0 -8.466256603446938e-07 -1.5200082848165406e-06 0 -3.1432477117371946e-06 -1.8784403746169267e-06 0 -7.2129861046466948e-07 -2.0807697333707123e-06 0 -8.466256603446938e-07 -1.5200082848165406e-06 0 -3.1863781749936814e-06 -1.06032314367999e-06 0 -4.5870269215876438e-07 -5.5095222538013305e-07 0 -8.466256603446938e-07 -1.5200082848165406e-06 0 -3.1863781749936814e-06 -1.06032314367999e-06 0 -3.1432477117371946e-06 -1.8784403746169267e-06 0 -3.1432477117371946e-06 -1.8784403746169267e-06 0 -7.2129861046466948e-07 -2.0807697333707123e-06 0 -1.8647198664390584e-06 -2.1822483968059267e-06 0 -3.1432477117371946e-06 -1.8784403746169267e-06 0 -1.8647198664390584e-06 -2.1822483968059267e-06 0 -3.6350556851390292e-06 -1.921539449593876e-06 0 -1.5527334387695596e-09 -2.1121572600027387e-06 0 -7.2129861046466948e-07 -2.0807697333707123e-06 0 -1.8647198664390584e-06 -2.1822483968059267e-06 0 -9.4192560289411533e-07 -2.0364625931499198e-06 0 -1.5527334387695596e-09 -2.1121572600027387e-06 0 -1.8647198664390584e-06 -2.1822483968059267e-06 0 -2.9185998949149744e-06 -1.8659824885971597e-06 0 -1.8647198664390584e-06 -2.1822483968059267e-06 0 -3.6350556851390292e-06 -1.921539449593876e-06 0 -2.9185998949149744e-06 -1.8659824885971597e-06 0 -3.6350556851390292e-06 -1.921539449593876e-06 0 -4.4735098279542646e-06 -1.5506711873602264e-06 0 -3.6350556851390292e-06 -1.921539449593876e-06 0 -5.6114433315297513e-06 -1.4282382007787968e-06 0 -4.4735098279542646e-06 -1.5506711873602264e-06 0 -3.1432477117371946e-06 -1.8784403746169267e-06 0 -3.6350556851390292e-06 -1.921539449593876e-06 0 -5.6114433315297513e-06 -1.4282382007787968e-06 0 -3.1432477117371946e-06 -1.8784403746169267e-06 0 -6.5873679023635885e-06 -6.5814298497587615e-07 0 -5.6114433315297513e-06 -1.4282382007787968e-06 0 -3.1863781749936814e-06 -1.06032314367999e-06 0 -3.1432477117371946e-06 -1.8784403746169267e-06 0 -6.5873679023635885e-06 -6.5814298497587615e-07 0 -6.5873679023635885e-06 -6.5814298497587615e-07 0 -5.6114433315297513e-06 -1.4282382007787968e-06 0 -8.6897933819069358e-06 -3.7275980001474332e-07 0 -5.6114433315297513e-06 -1.4282382007787968e-06 0 -8.6897933819069358e-06 -3.7275980001474332e-07 0 -6.7222773100106667e-06 -1.0100875301172437e-06 0 -6.5873679023635885e-06 -6.5814298497587615e-07 0 -8.6897933819069358e-06 -3.7275980001474332e-07 0 -1.0940985401973452e-05 1.1413150955125458e-06 0 -8.6897933819069358e-06 -3.7275980001474332e-07 0 -8.5970033730239984e-06 -1.2401866197238443e-07 0 -1.2038546899266619e-05 1.1957008219666043e-06 0 -8.6897933819069358e-06 -3.7275980001474332e-07 0 -8.5970033730239984e-06 -1.2401866197238443e-07 0 -6.7222773100106667e-06 -1.0100875301172437e-06 0 -8.5970033730239984e-06 -1.2401866197238443e-07 0 -6.7222773100106667e-06 -1.0100875301172437e-06 0 -5.6975046572451503e-06 -6.8803801143183153e-07 0 -5.6114433315297513e-06 -1.4282382007787968e-06 0 -6.7222773100106667e-06 -1.0100875301172437e-06 0 -4.4735098279542646e-06 -1.5506711873602264e-06 0 -6.7222773100106667e-06 -1.0100875301172437e-06 0 -4.4735098279542646e-06 -1.5506711873602264e-06 0 -5.6975046572451503e-06 -6.8803801143183153e-07 0 -3.154699489533667e-06 -1.2055317108723169e-06 0 -4.4735098279542646e-06 -1.5506711873602264e-06 0 -5.6975046572451503e-06 -6.8803801143183153e-07 0 -2.0528231244780473e-05 7.4708489069591723e-06 0 -1.7885024192967486e-05 7.5094498214436418e-06 0 -1.4314517894686133e-05 4.1343881715571598e-06 0 -2.0528231244780473e-05 7.4708489069591723e-06 0 -1.7885024192967486e-05 7.5094498214436418e-06 0 -2.57159430805015e-05 1.2917480213461872e-05 0 -1.7885024192967486e-05 7.5094498214436418e-06 0 -1.4314517894686133e-05 4.1343881715571598e-06 0 -1.2294622504905794e-05 5.9340490504693148e-06 0 -1.7885024192967486e-05 7.5094498214436418e-06 0 -1.2294622504905794e-05 5.9340490504693148e-06 0 -1.7716124678078613e-05 1.0857646344637671e-05 0 -2.0528231244780473e-05 7.4708489069591723e-06 0 -1.4314517894686133e-05 4.1343881715571598e-06 0 -1.596497052701636e-05 3.6149805198714409e-06 0 -1.596497052701636e-05 3.6149805198714409e-06 0 -1.2038546899266619e-05 1.1957008219666043e-06 0 -1.0940985401973452e-05 1.1413150955125458e-06 0 -8.6897933819069358e-06 -3.7275980001474332e-07 0 -1.2038546899266619e-05 1.1957008219666043e-06 0 -1.0940985401973452e-05 1.1413150955125458e-06 0 -1.4314517894686133e-05 4.1343881715571598e-06 0 -1.596497052701636e-05 3.6149805198714409e-06 0 -1.0940985401973452e-05 1.1413150955125458e-06 0 -1.4314517894686133e-05 4.1343881715571598e-06 0 -1.0940985401973452e-05 1.1413150955125458e-06 0 -8.2030641689756556e-06 1.9168643502876124e-06 0 -6.5873679023635885e-06 -6.5814298497587615e-07 0 -5.2788663731437299e-06 7.6686007099748137e-08 0 -8.2030641689756556e-06 1.9168643502876124e-06 0 -6.5873679023635885e-06 -6.5814298497587615e-07 0 -1.0940985401973452e-05 1.1413150955125458e-06 0 -8.2030641689756556e-06 1.9168643502876124e-06 0 -3.1863781749936814e-06 -1.06032314367999e-06 0 -6.5873679023635885e-06 -6.5814298497587615e-07 0 -5.2788663731437299e-06 7.6686007099748137e-08 0 -8.2030641689756556e-06 1.9168643502876124e-06 0 -1.2294622504905794e-05 5.9340490504693148e-06 0 -7.6773597362073901e-06 5.3389735712469711e-06 0 -1.4314517894686133e-05 4.1343881715571598e-06 0 -8.2030641689756556e-06 1.9168643502876124e-06 0 -1.2294622504905794e-05 5.9340490504693148e-06 0 -1.2294622504905794e-05 5.9340490504693148e-06 0 -7.6773597362073901e-06 5.3389735712469711e-06 0 -1.1122938969621898e-05 9.8366855650130725e-06 0 -7.6773597362073901e-06 5.3389735712469711e-06 0 -3.2376519059867886e-06 2.873621342176163e-06 0 -3.4674330577137824e-06 8.0352257476709332e-06 0 -3.2376519059867886e-06 2.873621342176163e-06 0 3.8973200139163165e-07 4.1026350288130228e-06 0 -3.4674330577137824e-06 8.0352257476709332e-06 0 -3.2376519059867886e-06 2.873621342176163e-06 0 -3.1417869229555833e-08 1.2275045063683763e-06 0 3.8973200139163165e-07 4.1026350288130228e-06 0 -8.2030641689756556e-06 1.9168643502876124e-06 0 -7.6773597362073901e-06 5.3389735712469711e-06 0 -3.2376519059867886e-06 2.873621342176163e-06 0 -8.2030641689756556e-06 1.9168643502876124e-06 0 -3.2376519059867886e-06 2.873621342176163e-06 0 -3.0317628047498542e-06 6.2642773462564613e-07 0 -5.2788663731437299e-06 7.6686007099748137e-08 0 -8.2030641689756556e-06 1.9168643502876124e-06 0 -3.0317628047498542e-06 6.2642773462564613e-07 0 -3.1863781749936814e-06 -1.06032314367999e-06 0 -5.2788663731437299e-06 7.6686007099748137e-08 0 -3.0317628047498542e-06 6.2642773462564613e-07 0 -3.1863781749936814e-06 -1.06032314367999e-06 0 -3.0317628047498542e-06 6.2642773462564613e-07 0 -4.5870269215876438e-07 -5.5095222538013305e-07 0 -3.0317628047498542e-06 6.2642773462564613e-07 0 -4.5870269215876438e-07 -5.5095222538013305e-07 0 -3.1417869229555833e-08 1.2275045063683763e-06 0 -3.2376519059867886e-06 2.873621342176163e-06 0 -3.0317628047498542e-06 6.2642773462564613e-07 0 -3.1417869229555833e-08 1.2275045063683763e-06 0 -4.5870269215876438e-07 -5.5095222538013305e-07 0 -3.1417869229555833e-08 1.2275045063683763e-06 0 2.167773979242143e-06 1.1320185225253036e-07 0 -3.1417869229555833e-08 1.2275045063683763e-06 0 2.167773979242143e-06 1.1320185225253036e-07 0 3.1928024736506654e-06 2.3219186023604528e-06 0 1.3172905342805327e-06 -1.2985888084659414e-06 0 -4.5870269215876438e-07 -5.5095222538013305e-07 0 2.167773979242143e-06 1.1320185225253036e-07 0 2.167773979242143e-06 1.1320185225253036e-07 0 3.5192873091166275e-06 -3.0182679125044557e-07 0 4.7775292517959974e-06 9.8392398010591318e-07 0 1.3172905342805327e-06 -1.2985888084659414e-06 0 2.167773979242143e-06 1.1320185225253036e-07 0 3.5192873091166275e-06 -3.0182679125044557e-07 0 2.167773979242143e-06 1.1320185225253036e-07 0 3.1928024736506654e-06 2.3219186023604528e-06 0 4.7775292517959974e-06 9.8392398010591318e-07 0 3.1928024736506654e-06 2.3219186023604528e-06 0 4.7775292517959974e-06 9.8392398010591318e-07 0 6.8773087959893515e-06 3.4505265482467331e-06 0 -3.1417869229555833e-08 1.2275045063683763e-06 0 3.1928024736506654e-06 2.3219186023604528e-06 0 3.8973200139163165e-07 4.1026350288130228e-06 0 3.1928024736506654e-06 2.3219186023604528e-06 0 3.8973200139163165e-07 4.1026350288130228e-06 0 3.926208403261783e-06 5.9487555252313434e-06 0 3.1928024736506654e-06 2.3219186023604528e-06 0 3.926208403261783e-06 5.9487555252313434e-06 0 6.8773087959893515e-06 3.4505265482467331e-06 0 3.926208403261783e-06 5.9487555252313434e-06 0 6.677643972950216e-06 9.4354324467404589e-06 0 9.2365672086592723e-06 6.5044641003202284e-06 0 3.926208403261783e-06 5.9487555252313434e-06 0 6.8773087959893515e-06 3.4505265482467331e-06 0 9.2365672086592723e-06 6.5044641003202284e-06 0 3.926208403261783e-06 5.9487555252313434e-06 0 1.5695631340031606e-06 1.08169653952743e-05 0 -3.4674330577137824e-06 8.0352257476709332e-06 0 3.8973200139163165e-07 4.1026350288130228e-06 0 3.926208403261783e-06 5.9487555252313434e-06 0 -3.4674330577137824e-06 8.0352257476709332e-06 0 3.926208403261783e-06 5.9487555252313434e-06 0 1.5695631340031606e-06 1.08169653952743e-05 0 6.677643972950216e-06 9.4354324467404589e-06 0 6.677643972950216e-06 9.4354324467404589e-06 0 4.6995826313764579e-06 1.5975011925635906e-05 0 1.1698892418300569e-05 1.1048177433343773e-05 0 4.6995826313764579e-06 1.5975011925635906e-05 0 1.1698892418300569e-05 1.1048177433343773e-05 0 1.0569424265789604e-05 2.2685759126787591e-05 0 4.6995826313764579e-06 1.5975011925635906e-05 0 4.3480332437289397e-06 2.5209583601064869e-05 0 1.0569424265789604e-05 2.2685759126787591e-05 0 4.6995826313764579e-06 1.5975011925635906e-05 0 -2.5115475496810001e-06 2.6910781150056194e-05 0 4.3480332437289397e-06 2.5209583601064869e-05 0 1.5695631340031606e-06 1.08169653952743e-05 0 4.6995826313764579e-06 1.5975011925635906e-05 0 -4.7121658275084487e-06 1.704527836091664e-05 0 1.5695631340031606e-06 1.08169653952743e-05 0 6.677643972950216e-06 9.4354324467404589e-06 0 4.6995826313764579e-06 1.5975011925635906e-05 0 4.6995826313764579e-06 1.5975011925635906e-05 0 -4.7121658275084487e-06 1.704527836091664e-05 0 -2.5115475496810001e-06 2.6910781150056194e-05 0 -4.7121658275084487e-06 1.704527836091664e-05 0 -1.1994692164644083e-05 2.7698053579098404e-05 0 -2.5115475496810001e-06 2.6910781150056194e-05 0 -4.7121658275084487e-06 1.704527836091664e-05 0 -1.039492302758125e-05 1.5403541985143544e-05 0 -1.1994692164644083e-05 2.7698053579098404e-05 0 -4.7121658275084487e-06 1.704527836091664e-05 0 -3.4674330577137824e-06 8.0352257476709332e-06 0 -1.039492302758125e-05 1.5403541985143544e-05 0 -3.4674330577137824e-06 8.0352257476709332e-06 0 -1.1122938969621898e-05 9.8366855650130725e-06 0 -1.039492302758125e-05 1.5403541985143544e-05 0 1.5695631340031606e-06 1.08169653952743e-05 0 -4.7121658275084487e-06 1.704527836091664e-05 0 -3.4674330577137824e-06 8.0352257476709332e-06 0 -7.6773597362073901e-06 5.3389735712469711e-06 0 -3.4674330577137824e-06 8.0352257476709332e-06 0 -1.1122938969621898e-05 9.8366855650130725e-06 0 -1.2294622504905794e-05 5.9340490504693148e-06 0 -1.1122938969621898e-05 9.8366855650130725e-06 0 -1.7716124678078613e-05 1.0857646344637671e-05 0 -1.1122938969621898e-05 9.8366855650130725e-06 0 -1.662556136317701e-05 1.6031492414991418e-05 0 -1.7716124678078613e-05 1.0857646344637671e-05 0 -1.1122938969621898e-05 9.8366855650130725e-06 0 -1.662556136317701e-05 1.6031492414991418e-05 0 -1.039492302758125e-05 1.5403541985143544e-05 0 -1.662556136317701e-05 1.6031492414991418e-05 0 -1.039492302758125e-05 1.5403541985143544e-05 0 -1.7593243343310264e-05 2.2870436593595037e-05 0 -1.039492302758125e-05 1.5403541985143544e-05 0 -1.7593243343310264e-05 2.2870436593595037e-05 0 -1.1994692164644083e-05 2.7698053579098404e-05 0 -1.7593243343310264e-05 2.2870436593595037e-05 0 -2.4792423414772528e-05 2.3352506176973027e-05 0 -2.4983540234202514e-05 3.4101961695983506e-05 0 -1.7593243343310264e-05 2.2870436593595037e-05 0 -2.4983540234202514e-05 3.4101961695983506e-05 0 -1.1994692164644083e-05 2.7698053579098404e-05 0 -1.662556136317701e-05 1.6031492414991418e-05 0 -1.7593243343310264e-05 2.2870436593595037e-05 0 -2.4792423414772528e-05 2.3352506176973027e-05 0 -1.662556136317701e-05 1.6031492414991418e-05 0 -2.4792423414772528e-05 2.3352506176973027e-05 0 -2.3229392168666323e-05 1.6338208083087004e-05 0 -2.4792423414772528e-05 2.3352506176973027e-05 0 -3.6372043158220646e-05 3.0914171111491949e-05 0 -2.4983540234202514e-05 3.4101961695983506e-05 0 -2.4792423414772528e-05 2.3352506176973027e-05 0 -3.1197687589645349e-05 2.0769482448347267e-05 0 -3.6372043158220646e-05 3.0914171111491949e-05 0 -2.4792423414772528e-05 2.3352506176973027e-05 0 -3.1197687589645349e-05 2.0769482448347267e-05 0 -2.3229392168666323e-05 1.6338208083087004e-05 0 -3.1197687589645349e-05 2.0769482448347267e-05 0 -2.3229392168666323e-05 1.6338208083087004e-05 0 -2.57159430805015e-05 1.2917480213461872e-05 0 -2.3229392168666323e-05 1.6338208083087004e-05 0 -1.7716124678078613e-05 1.0857646344637671e-05 0 -2.57159430805015e-05 1.2917480213461872e-05 0 -1.662556136317701e-05 1.6031492414991418e-05 0 -2.3229392168666323e-05 1.6338208083087004e-05 0 -1.7716124678078613e-05 1.0857646344637671e-05 0 -1.7885024192967486e-05 7.5094498214436418e-06 0 -1.7716124678078613e-05 1.0857646344637671e-05 0 -2.57159430805015e-05 1.2917480213461872e-05 0 8.3503360126896857e-06 1.8154388212149055e-06 0 8.3311823983315463e-06 1.8789861603881811e-06 0 9.3493073529622201e-06 2.5297182964945618e-06 0 8.3311823983315463e-06 1.8789861603881811e-06 0 9.3493073529622201e-06 2.5297182964945618e-06 0 9.8680739571746564e-06 3.1215603558727867e-06 0 9.3493073529622201e-06 2.5297182964945618e-06 0 9.8680739571746564e-06 3.1215603558727867e-06 0 1.0829440392973381e-05 3.7265670438767892e-06 0 8.3503360126896857e-06 1.8154388212149055e-06 0 9.3493073529622201e-06 2.5297182964945618e-06 0 8.8901612835216159e-06 1.8081158688285491e-06 0 8.8901612835216159e-06 1.8081158688285491e-06 0 7.5599284664789861e-06 1.1988245978654327e-06 0 7.9034169393801943e-06 5.7225147742759088e-07 0 8.3503360126896857e-06 1.8154388212149055e-06 0 8.8901612835216159e-06 1.8081158688285491e-06 0 7.5599284664789861e-06 1.1988245978654327e-06 0 6.964144900951488e-06 3.6678416898843693e-07 0 7.5599284664789861e-06 1.1988245978654327e-06 0 7.9034169393801943e-06 5.7225147742759088e-07 0 8.3503360126896857e-06 1.8154388212149055e-06 0 7.5599284664789861e-06 1.1988245978654327e-06 0 7.2927744521393394e-06 1.3484030641051142e-06 0 7.5599284664789861e-06 1.1988245978654327e-06 0 6.3430957530825193e-06 1.0163970989661565e-06 0 7.2927744521393394e-06 1.3484030641051142e-06 0 6.2623670897369948e-06 6.6582602434819661e-07 0 7.5599284664789861e-06 1.1988245978654327e-06 0 6.3430957530825193e-06 1.0163970989661565e-06 0 5.2516106461624039e-06 9.8587555215997487e-07 0 6.3430957530825193e-06 1.0163970989661565e-06 0 6.1127302703543468e-06 9.6621881793463535e-07 0 6.3430957530825193e-06 1.0163970989661565e-06 0 6.1127302703543468e-06 9.6621881793463535e-07 0 7.2927744521393394e-06 1.3484030641051142e-06 0 6.1127302703543468e-06 9.6621881793463535e-07 0 7.2927744521393394e-06 1.3484030641051142e-06 0 6.79484899132202e-06 9.9142242448951281e-07 0 8.3503360126896857e-06 1.8154388212149055e-06 0 8.3311823983315463e-06 1.8789861603881811e-06 0 7.2927744521393394e-06 1.3484030641051142e-06 0 8.3311823983315463e-06 1.8789861603881811e-06 0 7.2927744521393394e-06 1.3484030641051142e-06 0 6.79484899132202e-06 9.9142242448951281e-07 0 8.3311823983315463e-06 1.8789861603881811e-06 0 6.79484899132202e-06 9.9142242448951281e-07 0 6.9360788073003963e-06 9.6414347291421595e-07 0 6.083403083958751e-06 5.2041233141256431e-07 0 6.79484899132202e-06 9.9142242448951281e-07 0 6.9360788073003963e-06 9.6414347291421595e-07 0 4.8509510813345294e-06 -2.9121703701360545e-07 0 6.9360788073003963e-06 9.6414347291421595e-07 0 5.3135718251253041e-06 2.1856285822418703e-07 0 6.9360788073003963e-06 9.6414347291421595e-07 0 7.1039890015791955e-06 1.7220747236423585e-06 0 8.3981597018511086e-06 2.1436614205859585e-06 0 6.9360788073003963e-06 9.6414347291421595e-07 0 5.3135718251253041e-06 2.1856285822418703e-07 0 7.1039890015791955e-06 1.7220747236423585e-06 0 8.3311823983315463e-06 1.8789861603881811e-06 0 6.9360788073003963e-06 9.6414347291421595e-07 0 8.3981597018511086e-06 2.1436614205859585e-06 0 3.5192873091166275e-06 -3.0182679125044557e-07 0 5.3135718251253041e-06 2.1856285822418703e-07 0 4.7775292517959974e-06 9.8392398010591318e-07 0 5.3135718251253041e-06 2.1856285822418703e-07 0 4.7775292517959974e-06 9.8392398010591318e-07 0 7.1039890015791955e-06 1.7220747236423585e-06 0 4.7775292517959974e-06 9.8392398010591318e-07 0 7.1039890015791955e-06 1.7220747236423585e-06 0 6.8773087959893515e-06 3.4505265482467331e-06 0 7.1039890015791955e-06 1.7220747236423585e-06 0 9.6651124803465106e-06 3.8183205323475925e-06 0 6.8773087959893515e-06 3.4505265482467331e-06 0 9.6651124803465106e-06 3.8183205323475925e-06 0 6.8773087959893515e-06 3.4505265482467331e-06 0 9.2365672086592723e-06 6.5044641003202284e-06 0 8.3311823983315463e-06 1.8789861603881811e-06 0 8.3981597018511086e-06 2.1436614205859585e-06 0 9.8680739571746564e-06 3.1215603558727867e-06 0 7.1039890015791955e-06 1.7220747236423585e-06 0 9.6651124803465106e-06 3.8183205323475925e-06 0 8.3981597018511086e-06 2.1436614205859585e-06 0 9.6651124803465106e-06 3.8183205323475925e-06 0 8.3981597018511086e-06 2.1436614205859585e-06 0 9.8680739571746564e-06 3.1215603558727867e-06 0 9.6651124803465106e-06 3.8183205323475925e-06 0 9.8680739571746564e-06 3.1215603558727867e-06 0 1.1478364125862931e-05 4.8011213592989312e-06 0 9.8680739571746564e-06 3.1215603558727867e-06 0 1.1478364125862931e-05 4.8011213592989312e-06 0 1.0829440392973381e-05 3.7265670438767892e-06 0 9.6651124803465106e-06 3.8183205323475925e-06 0 1.1478364125862931e-05 4.8011213592989312e-06 0 1.3462530036228466e-05 7.3902653584190265e-06 0 1.1478364125862931e-05 4.8011213592989312e-06 0 1.3462530036228466e-05 7.3902653584190265e-06 0 1.278633529131941e-05 5.4024684081380402e-06 0 1.278633529131941e-05 5.4024684081380402e-06 0 1.1134073856119378e-05 3.3308363186891953e-06 0 1.0829440392973381e-05 3.7265670438767892e-06 0 1.1478364125862931e-05 4.8011213592989312e-06 0 1.278633529131941e-05 5.4024684081380402e-06 0 1.0829440392973381e-05 3.7265670438767892e-06 0 9.6651124803465106e-06 3.8183205323475925e-06 0 9.2365672086592723e-06 6.5044641003202284e-06 0 1.3462530036228466e-05 7.3902653584190265e-06 0 9.2365672086592723e-06 6.5044641003202284e-06 0 1.3462530036228466e-05 7.3902653584190265e-06 0 1.1698892418300569e-05 1.1048177433343773e-05 0 6.677643972950216e-06 9.4354324467404589e-06 0 9.2365672086592723e-06 6.5044641003202284e-06 0 1.1698892418300569e-05 1.1048177433343773e-05 0 1.3462530036228466e-05 7.3902653584190265e-06 0 1.1698892418300569e-05 1.1048177433343773e-05 0 2.0003941577069946e-05 1.2366751384302842e-05 0 1.1698892418300569e-05 1.1048177433343773e-05 0 2.0003941577069946e-05 1.2366751384302842e-05 0 1.0569424265789604e-05 2.2685759126787591e-05 0 1.3462530036228466e-05 7.3902653584190265e-06 0 1.4635974517822895e-05 7.3384293965133471e-06 0 2.0003941577069946e-05 1.2366751384302842e-05 0 1.278633529131941e-05 5.4024684081380402e-06 0 1.4635974517822895e-05 7.3384293965133471e-06 0 1.1826688818326959e-05 3.311497124794193e-06 0 1.278633529131941e-05 5.4024684081380402e-06 0 1.1826688818326959e-05 3.311497124794193e-06 0 1.1134073856119378e-05 3.3308363186891953e-06 0 1.3462530036228466e-05 7.3902653584190265e-06 0 1.278633529131941e-05 5.4024684081380402e-06 0 1.4635974517822895e-05 7.3384293965133471e-06 0 1.4635974517822895e-05 7.3384293965133471e-06 0 1.1826688818326959e-05 3.311497124794193e-06 0 1.2520407593983923e-05 9.9619056845233356e-07 0 1.1826688818326959e-05 3.311497124794193e-06 0 1.0961725298858615e-05 -2.0241479427822899e-06 0 1.2520407593983923e-05 9.9619056845233356e-07 0 1.1826688818326959e-05 3.311497124794193e-06 0 9.9873428152103158e-06 7.8814868735458898e-07 0 1.0961725298858615e-05 -2.0241479427822899e-06 0 1.1826688818326959e-05 3.311497124794193e-06 0 9.9873428152103158e-06 7.8814868735458898e-07 0 1.1134073856119378e-05 3.3308363186891953e-06 0 1.1134073856119378e-05 3.3308363186891953e-06 0 9.9957867811405129e-06 2.5604910537838641e-06 0 1.0829440392973381e-05 3.7265670438767892e-06 0 9.9873428152103158e-06 7.8814868735458898e-07 0 1.1134073856119378e-05 3.3308363186891953e-06 0 9.9957867811405129e-06 2.5604910537838641e-06 0 9.9873428152103158e-06 7.8814868735458898e-07 0 9.9957867811405129e-06 2.5604910537838641e-06 0 8.936625464717105e-06 6.8372749111138155e-07 0 8.8901612835216159e-06 1.8081158688285491e-06 0 9.9957867811405129e-06 2.5604910537838641e-06 0 8.936625464717105e-06 6.8372749111138155e-07 0 9.3493073529622201e-06 2.5297182964945618e-06 0 8.8901612835216159e-06 1.8081158688285491e-06 0 9.9957867811405129e-06 2.5604910537838641e-06 0 9.3493073529622201e-06 2.5297182964945618e-06 0 9.9957867811405129e-06 2.5604910537838641e-06 0 1.0829440392973381e-05 3.7265670438767892e-06 0 8.8901612835216159e-06 1.8081158688285491e-06 0 7.9034169393801943e-06 5.7225147742759088e-07 0 8.936625464717105e-06 6.8372749111138155e-07 0 7.6637415378130731e-06 -1.1967319458382804e-06 0 7.9034169393801943e-06 5.7225147742759088e-07 0 8.936625464717105e-06 6.8372749111138155e-07 0 9.9873428152103158e-06 7.8814868735458898e-07 0 8.5795469143540626e-06 -1.8225385282536808e-06 0 9.6538699071699938e-06 -4.9335480982642582e-06 0 7.6637415378130731e-06 -1.1967319458382804e-06 0 7.6746710704026378e-06 -3.670982666394064e-06 0 8.5795469143540626e-06 -1.8225385282536808e-06 0 7.6637415378130731e-06 -1.1967319458382804e-06 0 8.936625464717105e-06 6.8372749111138155e-07 0 8.5795469143540626e-06 -1.8225385282536808e-06 0 9.9873428152103158e-06 7.8814868735458898e-07 0 8.936625464717105e-06 6.8372749111138155e-07 0 8.5795469143540626e-06 -1.8225385282536808e-06 0 7.6746710704026378e-06 -3.670982666394064e-06 0 8.5795469143540626e-06 -1.8225385282536808e-06 0 8.487060772355742e-06 -5.8419706166580813e-06 0 8.5795469143540626e-06 -1.8225385282536808e-06 0 9.6538699071699938e-06 -4.9335480982642582e-06 0 8.487060772355742e-06 -5.8419706166580813e-06 0 9.6538699071699938e-06 -4.9335480982642582e-06 0 8.487060772355742e-06 -5.8419706166580813e-06 0 1.0257521791361357e-05 -8.5880419956123199e-06 0 9.6538699071699938e-06 -4.9335480982642582e-06 0 1.0257521791361357e-05 -8.5880419956123199e-06 0 1.1590962623151002e-05 -8.4253092213562772e-06 0 8.487060772355742e-06 -5.8419706166580813e-06 0 8.9808467497702305e-06 -8.843078341752046e-06 0 1.0257521791361357e-05 -8.5880419956123199e-06 0 8.9808467497702305e-06 -8.843078341752046e-06 0 1.0257521791361357e-05 -8.5880419956123199e-06 0 1.1444120842110879e-05 -1.2197214749826127e-05 0 1.0257521791361357e-05 -8.5880419956123199e-06 0 1.1444120842110879e-05 -1.2197214749826127e-05 0 1.1590962623151002e-05 -8.4253092213562772e-06 0 8.9808467497702305e-06 -8.843078341752046e-06 0 1.1444120842110879e-05 -1.2197214749826127e-05 0 9.4032736642465116e-06 -1.1441585617695961e-05 0 1.5134045818398542e-05 -1.136242625947096e-05 0 1.6899444825177891e-05 -1.4844351244652432e-05 0 1.4391532728158382e-05 -1.3699572165527894e-05 0 1.1590962623151002e-05 -8.4253092213562772e-06 0 1.5134045818398542e-05 -1.136242625947096e-05 0 1.4391532728158382e-05 -1.3699572165527894e-05 0 1.1444120842110879e-05 -1.2197214749826127e-05 0 1.1590962623151002e-05 -8.4253092213562772e-06 0 1.4391532728158382e-05 -1.3699572165527894e-05 0 1.1590962623151002e-05 -8.4253092213562772e-06 0 1.2995377375347561e-05 -4.9635322008651052e-06 0 1.5134045818398542e-05 -1.136242625947096e-05 0 9.9873428152103158e-06 7.8814868735458898e-07 0 9.6538699071699938e-06 -4.9335480982642582e-06 0 1.0961725298858615e-05 -2.0241479427822899e-06 0 1.1590962623151002e-05 -8.4253092213562772e-06 0 1.0961725298858615e-05 -2.0241479427822899e-06 0 1.2995377375347561e-05 -4.9635322008651052e-06 0 9.6538699071699938e-06 -4.9335480982642582e-06 0 1.1590962623151002e-05 -8.4253092213562772e-06 0 1.0961725298858615e-05 -2.0241479427822899e-06 0 1.0961725298858615e-05 -2.0241479427822899e-06 0 1.2520407593983923e-05 9.9619056845233356e-07 0 1.2995377375347561e-05 -4.9635322008651052e-06 0 1.4635974517822895e-05 7.3384293965133471e-06 0 1.2520407593983923e-05 9.9619056845233356e-07 0 1.4850463429295192e-05 8.1159205241638378e-07 0 1.2520407593983923e-05 9.9619056845233356e-07 0 1.4850463429295192e-05 8.1159205241638378e-07 0 1.2995377375347561e-05 -4.9635322008651052e-06 0 1.4635974517822895e-05 7.3384293965133471e-06 0 1.4850463429295192e-05 8.1159205241638378e-07 0 2.0003941577069946e-05 1.2366751384302842e-05 0 1.4850463429295192e-05 8.1159205241638378e-07 0 2.1811779850664217e-05 -4.9206955578127265e-06 0 1.7325885320904038e-05 -8.9432851068642552e-06 0 1.4850463429295192e-05 8.1159205241638378e-07 0 1.2995377375347561e-05 -4.9635322008651052e-06 0 1.7325885320904038e-05 -8.9432851068642552e-06 0 2.0003941577069946e-05 1.2366751384302842e-05 0 1.5690115319954456e-05 3.9160094069609135e-05 0 1.0569424265789604e-05 2.2685759126787591e-05 0 1.4850463429295192e-05 8.1159205241638378e-07 0 2.0003941577069946e-05 1.2366751384302842e-05 0 2.1811779850664217e-05 -4.9206955578127265e-06 0 7.3910824909536948e-06 9.2928817481899402e-06 0 2.9084691796367785e-05 1.8410145801304405e-05 0 2.0003941577069946e-05 1.2366751384302842e-05 0 2.900304058697991e-05 3.8094311936034496e-05 0 1.5690115319954456e-05 3.9160094069609135e-05 0 1.5690115319954456e-05 3.9160094069609135e-05 0 3.3122888504979618e-05 5.6080188769844284e-05 0 1.4846775569218961e-05 5.4247131603108698e-05 0 2.9084691796367785e-05 1.8410145801304405e-05 0 2.6510099862148128e-05 2.2014198307294139e-05 0 2.1811779850664217e-05 -4.9206955578127265e-06 0 2.1676829918063126e-05 -1.1224946267321383e-05 0 1.7325885320904038e-05 -8.9432851068642552e-06 0 2.900304058697991e-05 3.8094311936034496e-05 0 1.5690115319954456e-05 3.9160094069609135e-05 0 3.3122888504979618e-05 5.6080188769844284e-05 0 2.6510099862148128e-05 2.2014198307294139e-05 0 2.9148901127533659e-05 2.9008921730692938e-05 0 2.1676829918063126e-05 -1.1224946267321383e-05 0 1.9065415370036006e-05 -1.3824501772248563e-05 0 2.1647490985778907e-05 -1.4630924614470275e-05 0 3.3122888504979618e-05 5.6080188769844284e-05 0 2.4746291370507101e-05 6.6736289228450061e-05 0 1.4846775569218961e-05 5.4247131603108698e-05 0 1.2995377375347561e-05 -4.9635322008651052e-06 0 1.7325885320904038e-05 -8.9432851068642552e-06 0 1.5134045818398542e-05 -1.136242625947096e-05 0 2.1676829918063126e-05 -1.1224946267321383e-05 0 1.7325885320904038e-05 -8.9432851068642552e-06 0 1.9065415370036006e-05 -1.3824501772248563e-05 0 1.7325885320904038e-05 -8.9432851068642552e-06 0 1.9065415370036006e-05 -1.3824501772248563e-05 0 1.5134045818398542e-05 -1.136242625947096e-05 0 1.9065415370036006e-05 -1.3824501772248563e-05 0 1.5134045818398542e-05 -1.136242625947096e-05 0 1.6899444825177891e-05 -1.4844351244652432e-05 0 1.9065415370036006e-05 -1.3824501772248563e-05 0 1.6899444825177891e-05 -1.4844351244652432e-05 0 1.958106534819545e-05 -1.68726466729942e-05 0 1.9065415370036006e-05 -1.3824501772248563e-05 0 1.958106534819545e-05 -1.68726466729942e-05 0 2.1647490985778907e-05 -1.4630924614470275e-05 0 1.958106534819545e-05 -1.68726466729942e-05 0 2.1647490985778907e-05 -1.4630924614470275e-05 0 2.2133088719209713e-05 -1.6667683895105506e-05 0 1.6899444825177891e-05 -1.4844351244652432e-05 0 1.958106534819545e-05 -1.68726466729942e-05 0 1.6997493039044321e-05 -1.6775803000845428e-05 0 2.4746291370507101e-05 6.6736289228450061e-05 0 2.7149613892511858e-05 7.7182692137762123e-05 0 1.4231138180105218e-05 7.1482052492795854e-05 0 2.4746291370507101e-05 6.6736289228450061e-05 0 3.6208403162404011e-05 7.208908983560752e-05 0 2.7149613892511858e-05 7.7182692137762123e-05 0 3.3122888504979618e-05 5.6080188769844284e-05 0 2.4746291370507101e-05 6.6736289228450061e-05 0 3.6208403162404011e-05 7.208908983560752e-05 0 2.9148901127533659e-05 2.9008921730692938e-05 0 3.0293058802803853e-05 3.557816497137949e-05 0 3.6208403162404011e-05 7.208908983560752e-05 0 2.7149613892511858e-05 7.7182692137762123e-05 0 3.8715440819505821e-05 8.8008189818079659e-05 0 2.7149613892511858e-05 7.7182692137762123e-05 0 3.8715440819505821e-05 8.8008189818079659e-05 0 2.2071748966835677e-05 8.6137653362150575e-05 0 3.8715440819505821e-05 8.8008189818079659e-05 0 2.7505504821552591e-05 9.6920240272863089e-05 0 2.2071748966835677e-05 8.6137653362150575e-05 0 3.8715440819505821e-05 8.8008189818079659e-05 0 4.0988828654772954e-05 0.00010382083179612771 0 2.7505504821552591e-05 9.6920240272863089e-05 0 2.2133088719209713e-05 -1.6667683895105506e-05 0 2.2856906847724581e-05 -1.7990437744408659e-05 0 2.1156742050168354e-05 -1.8512079382462431e-05 0 3.0293058802803853e-05 3.557816497137949e-05 0 3.180281079109784e-05 4.2831819161048235e-05 0 4.0988828654772954e-05 0.00010382083179612771 0 2.7505504821552591e-05 9.6920240272863089e-05 0 2.4775117077960705e-05 0.00010787269034555398 0 1.958106534819545e-05 -1.68726466729942e-05 0 1.9028856499341999e-05 -1.8566178000842647e-05 0 2.1156742050168354e-05 -1.8512079382462431e-05 0 1.958106534819545e-05 -1.68726466729942e-05 0 1.9028856499341999e-05 -1.8566178000842647e-05 0 1.6997493039044321e-05 -1.6775803000845428e-05 0 1.958106534819545e-05 -1.68726466729942e-05 0 2.2133088719209713e-05 -1.6667683895105506e-05 0 2.1156742050168354e-05 -1.8512079382462431e-05 0 1.9028856499341999e-05 -1.8566178000842647e-05 0 2.1156742050168354e-05 -1.8512079382462431e-05 0 1.9705043842714312e-05 -1.9846205956071966e-05 0 2.1156742050168354e-05 -1.8512079382462431e-05 0 1.9705043842714312e-05 -1.9846205956071966e-05 0 2.2176465554197429e-05 -1.9931719339481972e-05 0 1.9028856499341999e-05 -1.8566178000842647e-05 0 1.9705043842714312e-05 -1.9846205956071966e-05 0 1.6413042569825686e-05 -1.84631007415311e-05 0 1.9705043842714312e-05 -1.9846205956071966e-05 0 1.6413042569825686e-05 -1.84631007415311e-05 0 1.8528471771641165e-05 -2.0571883255317e-05 0 1.9028856499341999e-05 -1.8566178000842647e-05 0 1.6413042569825686e-05 -1.84631007415311e-05 0 1.6997493039044321e-05 -1.6775803000845428e-05 0 1.6413042569825686e-05 -1.84631007415311e-05 0 1.2876703747938457e-05 -1.568762714868984e-05 0 1.4738493975786448e-05 -1.6137286996559359e-05 0 1.6413042569825686e-05 -1.84631007415311e-05 0 1.6997493039044321e-05 -1.6775803000845428e-05 0 1.4738493975786448e-05 -1.6137286996559359e-05 0 1.6413042569825686e-05 -1.84631007415311e-05 0 1.3487600045291165e-05 -1.7590723961101547e-05 0 1.5909855942829479e-05 -2.0193473219270462e-05 0 1.3487600045291165e-05 -1.7590723961101547e-05 0 1.5909855942829479e-05 -2.0193473219270462e-05 0 1.2653852132959205e-05 -1.8308469177765013e-05 0 1.3487600045291165e-05 -1.7590723961101547e-05 0 1.2876703747938457e-05 -1.568762714868984e-05 0 1.1289114433143808e-05 -1.602410319714889e-05 0 1.6413042569825686e-05 -1.84631007415311e-05 0 1.3487600045291165e-05 -1.7590723961101547e-05 0 1.2876703747938457e-05 -1.568762714868984e-05 0 1.1444120842110879e-05 -1.2197214749826127e-05 0 1.2876703747938457e-05 -1.568762714868984e-05 0 1.4738493975786448e-05 -1.6137286996559359e-05 0 1.2876703747938457e-05 -1.568762714868984e-05 0 1.0866114111971932e-05 -1.3921675903802934e-05 0 1.1289114433143808e-05 -1.602410319714889e-05 0 1.1444120842110879e-05 -1.2197214749826127e-05 0 1.2876703747938457e-05 -1.568762714868984e-05 0 1.0866114111971932e-05 -1.3921675903802934e-05 0 1.1444120842110879e-05 -1.2197214749826127e-05 0 9.4032736642465116e-06 -1.1441585617695961e-05 0 1.0866114111971932e-05 -1.3921675903802934e-05 0 1.1444120842110879e-05 -1.2197214749826127e-05 0 1.4391532728158382e-05 -1.3699572165527894e-05 0 1.4738493975786448e-05 -1.6137286996559359e-05 0 1.6899444825177891e-05 -1.4844351244652432e-05 0 1.4391532728158382e-05 -1.3699572165527894e-05 0 1.6997493039044321e-05 -1.6775803000845428e-05 0 1.4391532728158382e-05 -1.3699572165527894e-05 0 1.6997493039044321e-05 -1.6775803000845428e-05 0 1.4738493975786448e-05 -1.6137286996559359e-05 0 -4.4700995658610933e-05 5.73143487612836e-05 0 -3.2354874300895064e-05 6.2634567793899446e-05 0 -3.3063390301394623e-05 4.8837205252277672e-05 0 -4.4700995658610933e-05 5.73143487612836e-05 0 -3.2354874300895064e-05 6.2634567793899446e-05 0 -4.7474840612000099e-05 7.2556543804581824e-05 0 -3.2354874300895064e-05 6.2634567793899446e-05 0 -3.3063390301394623e-05 4.8837205252277672e-05 0 -2.3138592908531168e-05 4.8997096642127954e-05 0 -4.4700995658610933e-05 5.73143487612836e-05 0 -3.3063390301394623e-05 4.8837205252277672e-05 0 -4.0739325915649744e-05 4.3146924640124114e-05 0 -4.0739325915649744e-05 4.3146924640124114e-05 0 -3.6372043158220646e-05 3.0914171111491949e-05 0 -2.4983540234202514e-05 3.4101961695983506e-05 0 -3.3063390301394623e-05 4.8837205252277672e-05 0 -2.4983540234202514e-05 3.4101961695983506e-05 0 -2.3138592908531168e-05 4.8997096642127954e-05 0 -3.3063390301394623e-05 4.8837205252277672e-05 0 -4.0739325915649744e-05 4.3146924640124114e-05 0 -2.4983540234202514e-05 3.4101961695983506e-05 0 -2.4983540234202514e-05 3.4101961695983506e-05 0 -1.5943507045458188e-05 4.0275624588567223e-05 0 -2.3138592908531168e-05 4.8997096642127954e-05 0 -2.4983540234202514e-05 3.4101961695983506e-05 0 -1.1994692164644083e-05 2.7698053579098404e-05 0 -1.5943507045458188e-05 4.0275624588567223e-05 0 -1.5943507045458188e-05 4.0275624588567223e-05 0 -1.4824011984931015e-05 5.0340219917642239e-05 0 -7.1745920515235697e-06 4.2424990308335857e-05 0 -1.5943507045458188e-05 4.0275624588567223e-05 0 -1.4824011984931015e-05 5.0340219917642239e-05 0 -2.3138592908531168e-05 4.8997096642127954e-05 0 -1.4824011984931015e-05 5.0340219917642239e-05 0 -2.3138592908531168e-05 4.8997096642127954e-05 0 -1.9501163029446908e-05 6.1563186528829024e-05 0 -3.2354874300895064e-05 6.2634567793899446e-05 0 -2.3138592908531168e-05 4.8997096642127954e-05 0 -1.9501163029446908e-05 6.1563186528829024e-05 0 -1.4824011984931015e-05 5.0340219917642239e-05 0 -1.9501163029446908e-05 6.1563186528829024e-05 0 -8.1833940741721363e-06 5.9699915785625012e-05 0 -8.1833940741721363e-06 5.9699915785625012e-05 0 2.9919875661150659e-06 5.6243992983980736e-05 0 1.0910862303691589e-07 7.1775504292718163e-05 0 -8.1833940741721363e-06 5.9699915785625012e-05 0 -7.1745920515235697e-06 4.2424990308335857e-05 0 2.9919875661150659e-06 5.6243992983980736e-05 0 -7.1745920515235697e-06 4.2424990308335857e-05 0 4.4264746972589175e-06 3.7895285333119568e-05 0 2.9919875661150659e-06 5.6243992983980736e-05 0 -1.4824011984931015e-05 5.0340219917642239e-05 0 -8.1833940741721363e-06 5.9699915785625012e-05 0 -7.1745920515235697e-06 4.2424990308335857e-05 0 -1.1994692164644083e-05 2.7698053579098404e-05 0 -1.5943507045458188e-05 4.0275624588567223e-05 0 -7.1745920515235697e-06 4.2424990308335857e-05 0 -1.1994692164644083e-05 2.7698053579098404e-05 0 -7.1745920515235697e-06 4.2424990308335857e-05 0 -2.5115475496810001e-06 2.6910781150056194e-05 0 -7.1745920515235697e-06 4.2424990308335857e-05 0 -2.5115475496810001e-06 2.6910781150056194e-05 0 4.4264746972589175e-06 3.7895285333119568e-05 0 -2.5115475496810001e-06 2.6910781150056194e-05 0 4.4264746972589175e-06 3.7895285333119568e-05 0 4.3480332437289397e-06 2.5209583601064869e-05 0 4.4264746972589175e-06 3.7895285333119568e-05 0 4.3480332437289397e-06 2.5209583601064869e-05 0 1.0569424265789604e-05 2.2685759126787591e-05 0 1.5690115319954456e-05 3.9160094069609135e-05 0 4.4264746972589175e-06 3.7895285333119568e-05 0 1.0569424265789604e-05 2.2685759126787591e-05 0 1.5690115319954456e-05 3.9160094069609135e-05 0 4.4264746972589175e-06 3.7895285333119568e-05 0 1.4846775569218961e-05 5.4247131603108698e-05 0 4.4264746972589175e-06 3.7895285333119568e-05 0 2.9919875661150659e-06 5.6243992983980736e-05 0 1.4846775569218961e-05 5.4247131603108698e-05 0 2.9919875661150659e-06 5.6243992983980736e-05 0 1.4846775569218961e-05 5.4247131603108698e-05 0 1.4231138180105218e-05 7.1482052492795854e-05 0 2.4746291370507101e-05 6.6736289228450061e-05 0 1.4846775569218961e-05 5.4247131603108698e-05 0 1.4231138180105218e-05 7.1482052492795854e-05 0 2.9919875661150659e-06 5.6243992983980736e-05 0 1.4231138180105218e-05 7.1482052492795854e-05 0 1.0910862303691589e-07 7.1775504292718163e-05 0 1.4231138180105218e-05 7.1482052492795854e-05 0 8.688461466005696e-06 8.2050903343017714e-05 0 1.0910862303691589e-07 7.1775504292718163e-05 0 1.4231138180105218e-05 7.1482052492795854e-05 0 8.688461466005696e-06 8.2050903343017714e-05 0 2.2071748966835677e-05 8.6137653362150575e-05 0 2.7149613892511858e-05 7.7182692137762123e-05 0 1.4231138180105218e-05 7.1482052492795854e-05 0 2.2071748966835677e-05 8.6137653362150575e-05 0 2.7505504821552591e-05 9.6920240272863089e-05 0 2.2071748966835677e-05 8.6137653362150575e-05 0 1.1259695509997114e-05 9.6927976644466406e-05 0 2.7505504821552591e-05 9.6920240272863089e-05 0 1.1259695509997114e-05 9.6927976644466406e-05 0 2.4775117077960705e-05 0.00010787269034555398 0 8.688461466005696e-06 8.2050903343017714e-05 0 2.2071748966835677e-05 8.6137653362150575e-05 0 1.1259695509997114e-05 9.6927976644466406e-05 0 8.688461466005696e-06 8.2050903343017714e-05 0 1.1259695509997114e-05 9.6927976644466406e-05 0 -3.8917564022623132e-06 8.3841477002510135e-05 0 1.1259695509997114e-05 9.6927976644466406e-05 0 -5.8404590863497486e-06 9.7813430121542841e-05 0 -3.8917564022623132e-06 8.3841477002510135e-05 0 1.1259695509997114e-05 9.6927976644466406e-05 0 -5.8404590863497486e-06 9.7813430121542841e-05 0 -1.8218544908173012e-06 0.00011134215187684337 0 -5.8404590863497486e-06 9.7813430121542841e-05 0 -3.8917564022623132e-06 8.3841477002510135e-05 0 -1.7443294175053511e-05 9.639989277365593e-05 0 -3.8917564022623132e-06 8.3841477002510135e-05 0 -1.3800412471882242e-05 7.6159097948746092e-05 0 -1.7443294175053511e-05 9.639989277365593e-05 0 -3.8917564022623132e-06 8.3841477002510135e-05 0 1.0910862303691589e-07 7.1775504292718163e-05 0 -1.3800412471882242e-05 7.6159097948746092e-05 0 8.688461466005696e-06 8.2050903343017714e-05 0 -3.8917564022623132e-06 8.3841477002510135e-05 0 1.0910862303691589e-07 7.1775504292718163e-05 0 -8.1833940741721363e-06 5.9699915785625012e-05 0 1.0910862303691589e-07 7.1775504292718163e-05 0 -1.3800412471882242e-05 7.6159097948746092e-05 0 -1.9501163029446908e-05 6.1563186528829024e-05 0 -8.1833940741721363e-06 5.9699915785625012e-05 0 -1.3800412471882242e-05 7.6159097948746092e-05 0 -1.9501163029446908e-05 6.1563186528829024e-05 0 -2.5178789037750842e-05 7.3316867341184403e-05 0 -1.3800412471882242e-05 7.6159097948746092e-05 0 -3.2354874300895064e-05 6.2634567793899446e-05 0 -1.9501163029446908e-05 6.1563186528829024e-05 0 -2.5178789037750842e-05 7.3316867341184403e-05 0 -2.5178789037750842e-05 7.3316867341184403e-05 0 -2.5273091292442983e-05 8.4691636786660666e-05 0 -3.6221983202300382e-05 8.1730972044432229e-05 0 -2.5178789037750842e-05 7.3316867341184403e-05 0 -1.3800412471882242e-05 7.6159097948746092e-05 0 -2.5273091292442983e-05 8.4691636786660666e-05 0 -1.3800412471882242e-05 7.6159097948746092e-05 0 -1.7443294175053511e-05 9.639989277365593e-05 0 -2.5273091292442983e-05 8.4691636786660666e-05 0 -5.8404590863497486e-06 9.7813430121542841e-05 0 -1.7443294175053511e-05 9.639989277365593e-05 0 -1.5670531530645013e-05 0.00011114757102558105 0 -1.7443294175053511e-05 9.639989277365593e-05 0 -3.4252734109663748e-05 9.6503915916602281e-05 0 -2.6527355153524843e-05 0.00010721967888190491 0 -1.7443294175053511e-05 9.639989277365593e-05 0 -2.5273091292442983e-05 8.4691636786660666e-05 0 -3.4252734109663748e-05 9.6503915916602281e-05 0 -2.5273091292442983e-05 8.4691636786660666e-05 0 -3.4252734109663748e-05 9.6503915916602281e-05 0 -3.6221983202300382e-05 8.1730972044432229e-05 0 -3.4252734109663748e-05 9.6503915916602281e-05 0 -4.9493545650802985e-05 8.8705700265770892e-05 0 -5.0748136478005413e-05 0.00010518740692607664 0 -3.4252734109663748e-05 9.6503915916602281e-05 0 -5.0748136478005413e-05 0.00010518740692607664 0 -3.78639059076998e-05 0.00011187755469524847 0 -3.4252734109663748e-05 9.6503915916602281e-05 0 -4.9493545650802985e-05 8.8705700265770892e-05 0 -3.6221983202300382e-05 8.1730972044432229e-05 0 -4.9493545650802985e-05 8.8705700265770892e-05 0 -3.6221983202300382e-05 8.1730972044432229e-05 0 -4.7474840612000099e-05 7.2556543804581824e-05 0 -3.2354874300895064e-05 6.2634567793899446e-05 0 -2.5178789037750842e-05 7.3316867341184403e-05 0 -3.6221983202300382e-05 8.1730972044432229e-05 0 -3.2354874300895064e-05 6.2634567793899446e-05 0 -3.6221983202300382e-05 8.1730972044432229e-05 0 -4.7474840612000099e-05 7.2556543804581824e-05 0 -5.2140945518871469e-05 0.00013886373694455212 0 -3.063480556877284e-05 0.00013927264098992262 0 -3.6817720212991028e-05 0.00015554591535987835 0 -5.2140945518871469e-05 0.00013886373694455212 0 -3.9585490037458651e-05 0.00012677647422399324 0 -3.063480556877284e-05 0.00013927264098992262 0 -3.9585490037458651e-05 0.00012677647422399324 0 -2.7614530756851216e-05 0.00012056507692395914 0 -3.063480556877284e-05 0.00013927264098992262 0 -5.2140945518871469e-05 0.00013886373694455212 0 -3.9585490037458651e-05 0.00012677647422399324 0 -5.16111880956264e-05 0.00012191955011932528 0 -3.9585490037458651e-05 0.00012677647422399324 0 -5.16111880956264e-05 0.00012191955011932528 0 -3.78639059076998e-05 0.00011187755469524847 0 -5.16111880956264e-05 0.00012191955011932528 0 -5.0748136478005413e-05 0.00010518740692607664 0 -3.78639059076998e-05 0.00011187755469524847 0 -3.4252734109663748e-05 9.6503915916602281e-05 0 -3.78639059076998e-05 0.00011187755469524847 0 -2.6527355153524843e-05 0.00010721967888190491 0 -3.9585490037458651e-05 0.00012677647422399324 0 -3.78639059076998e-05 0.00011187755469524847 0 -2.7614530756851216e-05 0.00012056507692395914 0 -2.7614530756851216e-05 0.00012056507692395914 0 -2.6527355153524843e-05 0.00010721967888190491 0 -1.5670531530645013e-05 0.00011114757102558105 0 -3.78639059076998e-05 0.00011187755469524847 0 -2.7614530756851216e-05 0.00012056507692395914 0 -2.6527355153524843e-05 0.00010721967888190491 0 -1.7443294175053511e-05 9.639989277365593e-05 0 -2.6527355153524843e-05 0.00010721967888190491 0 -1.5670531530645013e-05 0.00011114757102558105 0 -2.7614530756851216e-05 0.00012056507692395914 0 -1.5670531530645013e-05 0.00011114757102558105 0 -1.5272742116729558e-05 0.00012556239531090187 0 -1.5272742116729558e-05 0.00012556239531090187 0 -3.063480556877284e-05 0.00013927264098992262 0 -1.4023116147887719e-05 0.00014070281090739596 0 -2.7614530756851216e-05 0.00012056507692395914 0 -1.5272742116729558e-05 0.00012556239531090187 0 -3.063480556877284e-05 0.00013927264098992262 0 -3.063480556877284e-05 0.00013927264098992262 0 -1.4023116147887719e-05 0.00014070281090739596 0 -2.0138926656892661e-05 0.00015721892729114617 0 -1.4023116147887719e-05 0.00014070281090739596 0 -2.9294382315564148e-06 0.00013087596151525397 0 -1.265247732423261e-06 0.00014914184342657884 0 -2.9294382315564148e-06 0.00013087596151525397 0 1.0804865416648668e-05 0.00013761695775585265 0 -1.265247732423261e-06 0.00014914184342657884 0 -2.9294382315564148e-06 0.00013087596151525397 0 7.2516433974478949e-06 0.00012193298982453586 0 1.0804865416648668e-05 0.00013761695775585265 0 -1.5272742116729558e-05 0.00012556239531090187 0 -1.4023116147887719e-05 0.00014070281090739596 0 -2.9294382315564148e-06 0.00013087596151525397 0 -1.5670531530645013e-05 0.00011114757102558105 0 -1.5272742116729558e-05 0.00012556239531090187 0 -1.8218544908173012e-06 0.00011134215187684337 0 -1.5272742116729558e-05 0.00012556239531090187 0 -2.9294382315564148e-06 0.00013087596151525397 0 -1.8218544908173012e-06 0.00011134215187684337 0 -5.8404590863497486e-06 9.7813430121542841e-05 0 -1.5670531530645013e-05 0.00011114757102558105 0 -1.8218544908173012e-06 0.00011134215187684337 0 -1.8218544908173012e-06 0.00011134215187684337 0 7.2516433974478949e-06 0.00012193298982453586 0 1.2285660684998056e-05 0.00011217502646624867 0 -2.9294382315564148e-06 0.00013087596151525397 0 -1.8218544908173012e-06 0.00011134215187684337 0 7.2516433974478949e-06 0.00012193298982453586 0 7.2516433974478949e-06 0.00012193298982453586 0 1.2285660684998056e-05 0.00011217502646624867 0 2.0050285943982237e-05 0.00012228559869306683 0 1.1259695509997114e-05 9.6927976644466406e-05 0 1.2285660684998056e-05 0.00011217502646624867 0 2.4775117077960705e-05 0.00010787269034555398 0 1.1259695509997114e-05 9.6927976644466406e-05 0 -1.8218544908173012e-06 0.00011134215187684337 0 1.2285660684998056e-05 0.00011217502646624867 0 1.2285660684998056e-05 0.00011217502646624867 0 2.4775117077960705e-05 0.00010787269034555398 0 2.0050285943982237e-05 0.00012228559869306683 0 2.4775117077960705e-05 0.00010787269034555398 0 2.0050285943982237e-05 0.00012228559869306683 0 3.2407470976160473e-05 0.00011636155844868108 0 2.0050285943982237e-05 0.00012228559869306683 0 1.0804865416648668e-05 0.00013761695775585265 0 2.6406105239739552e-05 0.00013965098312606472 0 2.0050285943982237e-05 0.00012228559869306683 0 2.6406105239739552e-05 0.00013965098312606472 0 3.2752699714240109e-05 0.00012710433235000362 0 7.2516433974478949e-06 0.00012193298982453586 0 2.0050285943982237e-05 0.00012228559869306683 0 1.0804865416648668e-05 0.00013761695775585265 0 1.0804865416648668e-05 0.00013761695775585265 0 2.6406105239739552e-05 0.00013965098312606472 0 1.6222175251113583e-05 0.00015633422601034569 0 2.6406105239739552e-05 0.00013965098312606472 0 1.6222175251113583e-05 0.00015633422601034569 0 3.2945553830875065e-05 0.00015425124542648171 0 1.6222175251113583e-05 0.00015633422601034569 0 3.1155162234540827e-05 0.00016953906971812176 0 1.4543917200691743e-05 0.00017397637118954666 0 1.6222175251113583e-05 0.00015633422601034569 0 3.1155162234540827e-05 0.00016953906971812176 0 3.2945553830875065e-05 0.00015425124542648171 0 3.1155162234540827e-05 0.00016953906971812176 0 2.5508494339191106e-05 0.0001806776063631718 0 1.4543917200691743e-05 0.00017397637118954666 0 3.1155162234540827e-05 0.00016953906971812176 0 2.5508494339191106e-05 0.0001806776063631718 0 4.0359254691911276e-05 0.00017826916871231424 0 2.5508494339191106e-05 0.0001806776063631718 0 4.0359254691911276e-05 0.00017826916871231424 0 3.5730805766378057e-05 0.00018929252398825454 0 2.5508494339191106e-05 0.0001806776063631718 0 1.7041677017675975e-05 0.00019038129881597101 0 3.5730805766378057e-05 0.00018929252398825454 0 2.5508494339191106e-05 0.0001806776063631718 0 1.7041677017675975e-05 0.00019038129881597101 0 1.4543917200691743e-05 0.00017397637118954666 0 -9.0801152626707628e-07 0.00019054185664799843 0 -1.6128200951418996e-06 0.00016837324448931436 0 -1.7102565640000821e-05 0.00017444771673320286 0 1.4543917200691743e-05 0.00017397637118954666 0 -9.0801152626707628e-07 0.00019054185664799843 0 -1.6128200951418996e-06 0.00016837324448931436 0 1.7041677017675975e-05 0.00019038129881597101 0 1.4543917200691743e-05 0.00017397637118954666 0 -9.0801152626707628e-07 0.00019054185664799843 0 -1.6128200951418996e-06 0.00016837324448931436 0 -1.265247732423261e-06 0.00014914184342657884 0 -2.0138926656892661e-05 0.00015721892729114617 0 1.6222175251113583e-05 0.00015633422601034569 0 1.4543917200691743e-05 0.00017397637118954666 0 -1.6128200951418996e-06 0.00016837324448931436 0 1.6222175251113583e-05 0.00015633422601034569 0 -1.6128200951418996e-06 0.00016837324448931436 0 -1.265247732423261e-06 0.00014914184342657884 0 1.0804865416648668e-05 0.00013761695775585265 0 1.6222175251113583e-05 0.00015633422601034569 0 -1.265247732423261e-06 0.00014914184342657884 0 -1.4023116147887719e-05 0.00014070281090739596 0 -1.265247732423261e-06 0.00014914184342657884 0 -2.0138926656892661e-05 0.00015721892729114617 0 -3.063480556877284e-05 0.00013927264098992262 0 -2.0138926656892661e-05 0.00015721892729114617 0 -3.6817720212991028e-05 0.00015554591535987835 0 -2.0138926656892661e-05 0.00015721892729114617 0 -1.7102565640000821e-05 0.00017444771673320286 0 -3.3464925263563382e-05 0.00017105043836616253 0 -2.0138926656892661e-05 0.00015721892729114617 0 -3.3464925263563382e-05 0.00017105043836616253 0 -3.6817720212991028e-05 0.00015554591535987835 0 -1.6128200951418996e-06 0.00016837324448931436 0 -2.0138926656892661e-05 0.00015721892729114617 0 -1.7102565640000821e-05 0.00017444771673320286 0 -9.0801152626707628e-07 0.00019054185664799843 0 -1.7102565640000821e-05 0.00017444771673320286 0 -1.8239708557340164e-05 0.00019047618609889153 0 -1.8239708557340164e-05 0.00019047618609889153 0 -2.6940553829054479e-05 0.00018153867138208778 0 -3.5431132821000001e-05 0.00019036999559292767 0 -1.7102565640000821e-05 0.00017444771673320286 0 -1.8239708557340164e-05 0.00019047618609889153 0 -2.6940553829054479e-05 0.00018153867138208778 0 -1.7102565640000821e-05 0.00017444771673320286 0 -2.6940553829054479e-05 0.00018153867138208778 0 -3.3464925263563382e-05 0.00017105043836616253 0 -2.6940553829054479e-05 0.00018153867138208778 0 -3.3464925263563382e-05 0.00017105043836616253 0 -4.116000593783025e-05 0.00018062468933145769 0 -2.6940553829054479e-05 0.00018153867138208778 0 -4.116000593783025e-05 0.00018062468933145769 0 -3.5431132821000001e-05 0.00019036999559292767 0 -4.116000593783025e-05 0.00018062468933145769 0 -3.5431132821000001e-05 0.00019036999559292767 0 -5.254535353980757e-05 0.00019038508512778685 0 -4.116000593783025e-05 0.00018062468933145769 0 -5.254535353980757e-05 0.00019038508512778685 0 -5.2554104537794333e-05 0.00017320444940919355 0 -3.3464925263563382e-05 0.00017105043836616253 0 -4.116000593783025e-05 0.00018062468933145769 0 -5.2554104537794333e-05 0.00017320444940919355 0 -5.2554104537794333e-05 0.00017320444940919355 0 -3.6817720212991028e-05 0.00015554591535987835 0 -5.243189197378822e-05 0.0001560258447794662 0 -3.3464925263563382e-05 0.00017105043836616253 0 -5.2554104537794333e-05 0.00017320444940919355 0 -3.6817720212991028e-05 0.00015554591535987835 0 -5.2140945518871469e-05 0.00013886373694455212 0 -3.6817720212991028e-05 0.00015554591535987835 0 -5.243189197378822e-05 0.0001560258447794662 0 1.9634496224727408e-05 -2.1880983291045894e-05 0 1.9512872330578854e-05 -2.3439704825402121e-05 0 1.7462849593926247e-05 -2.2117347072463934e-05 0 1.9634496224727408e-05 -2.1880983291045894e-05 0 2.2117508575116538e-05 -2.3329303527937857e-05 0 2.2278955084454445e-05 -2.2119555305077664e-05 0 1.9634496224727408e-05 -2.1880983291045894e-05 0 2.1028739853249716e-05 -2.1210695111078084e-05 0 2.2278955084454445e-05 -2.2119555305077664e-05 0 1.9634496224727408e-05 -2.1880983291045894e-05 0 2.2117508575116538e-05 -2.3329303527937857e-05 0 1.9512872330578854e-05 -2.3439704825402121e-05 0 1.9512872330578854e-05 -2.3439704825402121e-05 0 1.6579606999288535e-05 -2.323665612894715e-05 0 1.7462849593926247e-05 -2.2117347072463934e-05 0 1.6579606999288535e-05 -2.323665612894715e-05 0 1.5209273876668549e-05 -2.1427560478871149e-05 0 1.7462849593926247e-05 -2.2117347072463934e-05 0 1.6579606999288535e-05 -2.323665612894715e-05 0 1.5209273876668549e-05 -2.1427560478871149e-05 0 1.466673652844051e-05 -2.233609508263499e-05 0 1.5209273876668549e-05 -2.1427560478871149e-05 0 1.7462849593926247e-05 -2.2117347072463934e-05 0 1.5909855942829479e-05 -2.0193473219270462e-05 0 1.5209273876668549e-05 -2.1427560478871149e-05 0 1.5909855942829479e-05 -2.0193473219270462e-05 0 1.3876088559585381e-05 -2.0050837750991634e-05 0 1.5909855942829479e-05 -2.0193473219270462e-05 0 1.3876088559585381e-05 -2.0050837750991634e-05 0 1.2653852132959205e-05 -1.8308469177765013e-05 0 1.6413042569825686e-05 -1.84631007415311e-05 0 1.5909855942829479e-05 -2.0193473219270462e-05 0 1.8528471771641165e-05 -2.0571883255317e-05 0 1.9634496224727408e-05 -2.1880983291045894e-05 0 1.5909855942829479e-05 -2.0193473219270462e-05 0 1.8528471771641165e-05 -2.0571883255317e-05 0 1.9634496224727408e-05 -2.1880983291045894e-05 0 1.7462849593926247e-05 -2.2117347072463934e-05 0 1.5909855942829479e-05 -2.0193473219270462e-05 0 1.9634496224727408e-05 -2.1880983291045894e-05 0 1.8528471771641165e-05 -2.0571883255317e-05 0 2.1028739853249716e-05 -2.1210695111078084e-05 0 1.9705043842714312e-05 -1.9846205956071966e-05 0 1.8528471771641165e-05 -2.0571883255317e-05 0 2.1028739853249716e-05 -2.1210695111078084e-05 0 1.9705043842714312e-05 -1.9846205956071966e-05 0 2.2176465554197429e-05 -1.9931719339481972e-05 0 2.1028739853249716e-05 -2.1210695111078084e-05 0 2.2856906847724581e-05 -1.7990437744408659e-05 0 2.1156742050168354e-05 -1.8512079382462431e-05 0 2.2176465554197429e-05 -1.9931719339481972e-05 0 2.2176465554197429e-05 -1.9931719339481972e-05 0 2.410218982617196e-05 -1.8967526810844673e-05 0 2.3712050602462913e-05 -2.0930722340867914e-05 0 2.2176465554197429e-05 -1.9931719339481972e-05 0 2.1028739853249716e-05 -2.1210695111078084e-05 0 2.3712050602462913e-05 -2.0930722340867914e-05 0 4.0988828654772954e-05 0.00010382083179612771 0 2.4775117077960705e-05 0.00010787269034555398 0 3.2407470976160473e-05 0.00011636155844868108 0 4.0988828654772954e-05 0.00010382083179612771 0 4.3142705518243173e-05 0.00011956583519949943 0 3.2407470976160473e-05 0.00011636155844868108 0 2.2856906847724581e-05 -1.7990437744408659e-05 0 2.2176465554197429e-05 -1.9931719339481972e-05 0 2.410218982617196e-05 -1.8967526810844673e-05 0 3.180281079109784e-05 4.2831819161048235e-05 0 3.353777727944878e-05 5.0546797942736171e-05 0 2.0050285943982237e-05 0.00012228559869306683 0 3.2407470976160473e-05 0.00011636155844868108 0 3.2752699714240109e-05 0.00012710433235000362 0 4.3142705518243173e-05 0.00011956583519949943 0 3.2407470976160473e-05 0.00011636155844868108 0 3.2752699714240109e-05 0.00012710433235000362 0 2.6406105239739552e-05 0.00013965098312606472 0 3.2752699714240109e-05 0.00012710433235000362 0 4.5413311446099894e-05 0.00013573949663642202 0 3.353777727944878e-05 5.0546797942736171e-05 0 3.515788115159272e-05 5.7434294398900941e-05 0 2.410218982617196e-05 -1.8967526810844673e-05 0 2.5866483867808701e-05 -1.9922673136931984e-05 0 2.3712050602462913e-05 -2.0930722340867914e-05 0 4.3142705518243173e-05 0.00011956583519949943 0 3.2752699714240109e-05 0.00012710433235000362 0 4.5413311446099894e-05 0.00013573949663642202 0 3.515788115159272e-05 5.7434294398900941e-05 0 3.8896542176447145e-05 6.6056739354544729e-05 0 2.6406105239739552e-05 0.00013965098312606472 0 4.5413311446099894e-05 0.00013573949663642202 0 3.2945553830875065e-05 0.00015425124542648171 0 2.1028739853249716e-05 -2.1210695111078084e-05 0 2.2278955084454445e-05 -2.2119555305077664e-05 0 2.3712050602462913e-05 -2.0930722340867914e-05 0 2.5866483867808701e-05 -1.9922673136931984e-05 0 2.3712050602462913e-05 -2.0930722340867914e-05 0 2.5044327632779975e-05 -2.2624100489780541e-05 0 2.2117508575116538e-05 -2.3329303527937857e-05 0 2.2278955084454445e-05 -2.2119555305077664e-05 0 2.5044327632779975e-05 -2.2624100489780541e-05 0 2.2278955084454445e-05 -2.2119555305077664e-05 0 2.3712050602462913e-05 -2.0930722340867914e-05 0 2.5044327632779975e-05 -2.2624100489780541e-05 0 2.5044327632779975e-05 -2.2624100489780541e-05 0 2.7532431554305556e-05 -2.3741112097178059e-05 0 2.4727746641878013e-05 -2.4734375467518012e-05 0 2.2117508575116538e-05 -2.3329303527937857e-05 0 2.5044327632779975e-05 -2.2624100489780541e-05 0 2.4727746641878013e-05 -2.4734375467518012e-05 0 2.5866483867808701e-05 -1.9922673136931984e-05 0 2.5044327632779975e-05 -2.2624100489780541e-05 0 2.8306102718407923e-05 -2.1179080631022345e-05 0 2.5044327632779975e-05 -2.2624100489780541e-05 0 2.7532431554305556e-05 -2.3741112097178059e-05 0 2.8306102718407923e-05 -2.1179080631022345e-05 0 2.7532431554305556e-05 -2.3741112097178059e-05 0 2.4727746641878013e-05 -2.4734375467518012e-05 0 2.8571026494976194e-05 -2.6205011817119315e-05 0 4.5413311446099894e-05 0.00013573949663642202 0 3.2945553830875065e-05 0.00015425124542648171 0 4.7773112213974974e-05 0.00015189026389758666 0 3.8896542176447145e-05 6.6056739354544729e-05 0 3.6701090853134369e-05 7.2052647511572037e-05 0 2.7532431554305556e-05 -2.3741112097178059e-05 0 2.8306102718407923e-05 -2.1179080631022345e-05 0 3.1523973628315567e-05 -2.3351646383487595e-05 0 3.2945553830875065e-05 0.00015425124542648171 0 4.7773112213974974e-05 0.00015189026389758666 0 5.0608477373704105e-05 0.00016876623461845871 0 3.1155162234540827e-05 0.00016953906971812176 0 3.2945553830875065e-05 0.00015425124542648171 0 5.0608477373704105e-05 0.00016876623461845871 0 3.1155162234540827e-05 0.00016953906971812176 0 5.0608477373704105e-05 0.00016876623461845871 0 4.0359254691911276e-05 0.00017826916871231424 0 3.6701090853134369e-05 7.2052647511572037e-05 0 5.9908643487470621e-05 7.9938459715056623e-05 0 5.0608477373704105e-05 0.00016876623461845871 0 5.4207480373028402e-05 0.00018634230190026709 0 4.0359254691911276e-05 0.00017826916871231424 0 5.4207480373028402e-05 0.00018634230190026709 0 4.0359254691911276e-05 0.00017826916871231424 0 3.5730805766378057e-05 0.00018929252398825454 0 2.4727746641878013e-05 -2.4734375467518012e-05 0 2.8571026494976194e-05 -2.6205011817119315e-05 0 2.3647960281192782e-05 -2.7280841990895161e-05 0 2.7532431554305556e-05 -2.3741112097178059e-05 0 3.1523973628315567e-05 -2.3351646383487595e-05 0 2.8571026494976194e-05 -2.6205011817119315e-05 0 3.1523973628315567e-05 -2.3351646383487595e-05 0 3.5113394491195828e-05 -2.7276468300309078e-05 0 2.8571026494976194e-05 -2.6205011817119315e-05 0 3.5113394491195828e-05 -2.7276468300309078e-05 0 2.8571026494976194e-05 -2.6205011817119315e-05 0 2.9905877071608909e-05 -2.9869543748898824e-05 0 2.8571026494976194e-05 -2.6205011817119315e-05 0 2.9905877071608909e-05 -2.9869543748898824e-05 0 2.3647960281192782e-05 -2.7280841990895161e-05 0 2.3647960281192782e-05 -2.7280841990895161e-05 0 2.0145376049827702e-05 -2.5951629199179239e-05 0 2.0765427596448739e-05 -2.9365874253745204e-05 0 2.9905877071608909e-05 -2.9869543748898824e-05 0 2.499511739401578e-05 -3.0315293619434454e-05 0 2.3647960281192782e-05 -2.7280841990895161e-05 0 2.499511739401578e-05 -3.0315293619434454e-05 0 2.3647960281192782e-05 -2.7280841990895161e-05 0 2.0765427596448739e-05 -2.9365874253745204e-05 0 2.4727746641878013e-05 -2.4734375467518012e-05 0 2.3647960281192782e-05 -2.7280841990895161e-05 0 2.1445524718153109e-05 -2.4892806683627511e-05 0 2.3647960281192782e-05 -2.7280841990895161e-05 0 2.1445524718153109e-05 -2.4892806683627511e-05 0 2.0145376049827702e-05 -2.5951629199179239e-05 0 1.9512872330578854e-05 -2.3439704825402121e-05 0 2.1445524718153109e-05 -2.4892806683627511e-05 0 1.8171080023115053e-05 -2.4659743169737774e-05 0 2.2117508575116538e-05 -2.3329303527937857e-05 0 1.9512872330578854e-05 -2.3439704825402121e-05 0 2.1445524718153109e-05 -2.4892806683627511e-05 0 2.2117508575116538e-05 -2.3329303527937857e-05 0 2.4727746641878013e-05 -2.4734375467518012e-05 0 2.1445524718153109e-05 -2.4892806683627511e-05 0 1.6579606999288535e-05 -2.323665612894715e-05 0 1.8171080023115053e-05 -2.4659743169737774e-05 0 1.6235900938032846e-05 -2.4598877333163228e-05 0 1.9512872330578854e-05 -2.3439704825402121e-05 0 1.6579606999288535e-05 -2.323665612894715e-05 0 1.8171080023115053e-05 -2.4659743169737774e-05 0 1.8171080023115053e-05 -2.4659743169737774e-05 0 2.0145376049827702e-05 -2.5951629199179239e-05 0 1.7919344709240101e-05 -2.6324357600991005e-05 0 2.1445524718153109e-05 -2.4892806683627511e-05 0 1.8171080023115053e-05 -2.4659743169737774e-05 0 2.0145376049827702e-05 -2.5951629199179239e-05 0 1.8171080023115053e-05 -2.4659743169737774e-05 0 1.7919344709240101e-05 -2.6324357600991005e-05 0 1.6235900938032846e-05 -2.4598877333163228e-05 0 2.0145376049827702e-05 -2.5951629199179239e-05 0 1.7919344709240101e-05 -2.6324357600991005e-05 0 2.0765427596448739e-05 -2.9365874253745204e-05 0 1.7919344709240101e-05 -2.6324357600991005e-05 0 2.0765427596448739e-05 -2.9365874253745204e-05 0 1.7907589827301458e-05 -2.7754061536128951e-05 0 1.7919344709240101e-05 -2.6324357600991005e-05 0 1.7907589827301458e-05 -2.7754061536128951e-05 0 1.6355021581625076e-05 -2.5802626378485302e-05 0 1.7907589827301458e-05 -2.7754061536128951e-05 0 1.6200838523437989e-05 -2.5797322978307931e-05 0 1.6355021581625076e-05 -2.5802626378485302e-05 0 1.6200838523437989e-05 -2.5797322978307931e-05 0 1.466586331031846e-05 -2.4519329348814571e-05 0 1.6355021581625076e-05 -2.5802626378485302e-05 0 1.466586331031846e-05 -2.4519329348814571e-05 0 1.6355021581625076e-05 -2.5802626378485302e-05 0 1.6235900938032846e-05 -2.4598877333163228e-05 0 1.7919344709240101e-05 -2.6324357600991005e-05 0 1.6355021581625076e-05 -2.5802626378485302e-05 0 1.6235900938032846e-05 -2.4598877333163228e-05 0 1.6202960333975402e-05 -2.4080601382237503e-05 0 1.454209063169633e-05 -2.4193870411019407e-05 0 1.7305073346889446e-05 -2.3354600867895503e-05 0 1.6200838523437989e-05 -2.5797322978307931e-05 0 1.6202960333975402e-05 -2.4080601382237503e-05 0 1.454209063169633e-05 -2.4193870411019407e-05 0 1.6200838523437989e-05 -2.5797322978307931e-05 0 1.466586331031846e-05 -2.4519329348814571e-05 0 1.454209063169633e-05 -2.4193870411019407e-05 0 1.454209063169633e-05 -2.4193870411019407e-05 0 1.3265436254650012e-05 -2.3620476506251321e-05 0 1.3055242119109136e-05 -2.3828933643565627e-05 0 1.466586331031846e-05 -2.4519329348814571e-05 0 1.454209063169633e-05 -2.4193870411019407e-05 0 1.3265436254650012e-05 -2.3620476506251321e-05 0 1.3265436254650012e-05 -2.3620476506251321e-05 0 1.4251722100905744e-05 -2.3384810512472186e-05 0 1.2645882452065634e-05 -2.2609248343273188e-05 0 1.3265436254650012e-05 -2.3620476506251321e-05 0 1.2645882452065634e-05 -2.2609248343273188e-05 0 1.1725297635004637e-05 -2.2802203764822838e-05 0 1.3265436254650012e-05 -2.3620476506251321e-05 0 1.1725297635004637e-05 -2.2802203764822838e-05 0 1.3055242119109136e-05 -2.3828933643565627e-05 0 1.466586331031846e-05 -2.4519329348814571e-05 0 1.6235900938032846e-05 -2.4598877333163228e-05 0 1.4251722100905744e-05 -2.3384810512472186e-05 0 1.466586331031846e-05 -2.4519329348814571e-05 0 1.3265436254650012e-05 -2.3620476506251321e-05 0 1.4251722100905744e-05 -2.3384810512472186e-05 0 1.6579606999288535e-05 -2.323665612894715e-05 0 1.6235900938032846e-05 -2.4598877333163228e-05 0 1.4251722100905744e-05 -2.3384810512472186e-05 0 1.6579606999288535e-05 -2.323665612894715e-05 0 1.4251722100905744e-05 -2.3384810512472186e-05 0 1.466673652844051e-05 -2.233609508263499e-05 0 1.5209273876668549e-05 -2.1427560478871149e-05 0 1.466673652844051e-05 -2.233609508263499e-05 0 1.3515042200807424e-05 -2.1167482092219853e-05 0 1.466673652844051e-05 -2.233609508263499e-05 0 1.3515042200807424e-05 -2.1167482092219853e-05 0 1.3358632411962157e-05 -2.2242419185887043e-05 0 1.3515042200807424e-05 -2.1167482092219853e-05 0 1.3358632411962157e-05 -2.2242419185887043e-05 0 1.2133129018774931e-05 -2.1210239137644527e-05 0 1.4251722100905744e-05 -2.3384810512472186e-05 0 1.466673652844051e-05 -2.233609508263499e-05 0 1.3358632411962157e-05 -2.2242419185887043e-05 0 1.3358632411962157e-05 -2.2242419185887043e-05 0 1.2645882452065634e-05 -2.2609248343273188e-05 0 1.2133129018774931e-05 -2.1210239137644527e-05 0 1.4251722100905744e-05 -2.3384810512472186e-05 0 1.3358632411962157e-05 -2.2242419185887043e-05 0 1.2645882452065634e-05 -2.2609248343273188e-05 0 1.2645882452065634e-05 -2.2609248343273188e-05 0 1.1725297635004637e-05 -2.2802203764822838e-05 0 1.0754537326917666e-05 -2.0974361579689156e-05 0 1.1725297635004637e-05 -2.2802203764822838e-05 0 1.0754537326917666e-05 -2.0974361579689156e-05 0 1.0420252390329548e-05 -2.1976544701777181e-05 0 1.2645882452065634e-05 -2.2609248343273188e-05 0 1.0754537326917666e-05 -2.0974361579689156e-05 0 1.2133129018774931e-05 -2.1210239137644527e-05 0 1.2133129018774931e-05 -2.1210239137644527e-05 0 1.0136423484803125e-05 -1.938784240734948e-05 0 1.2100458792365767e-05 -1.9774484345042965e-05 0 1.0754537326917666e-05 -2.0974361579689156e-05 0 1.2133129018774931e-05 -2.1210239137644527e-05 0 1.0136423484803125e-05 -1.938784240734948e-05 0 1.0754537326917666e-05 -2.0974361579689156e-05 0 1.0136423484803125e-05 -1.938784240734948e-05 0 8.5232476730641369e-06 -2.0089023437658996e-05 0 1.0136423484803125e-05 -1.938784240734948e-05 0 1.2100458792365767e-05 -1.9774484345042965e-05 0 1.091240151866306e-05 -1.775986603858935e-05 0 1.2100458792365767e-05 -1.9774484345042965e-05 0 1.091240151866306e-05 -1.775986603858935e-05 0 1.2653852132959205e-05 -1.8308469177765013e-05 0 1.2100458792365767e-05 -1.9774484345042965e-05 0 1.3876088559585381e-05 -2.0050837750991634e-05 0 1.2653852132959205e-05 -1.8308469177765013e-05 0 1.3515042200807424e-05 -2.1167482092219853e-05 0 1.2100458792365767e-05 -1.9774484345042965e-05 0 1.3876088559585381e-05 -2.0050837750991634e-05 0 1.5209273876668549e-05 -2.1427560478871149e-05 0 1.3515042200807424e-05 -2.1167482092219853e-05 0 1.3876088559585381e-05 -2.0050837750991634e-05 0 1.3515042200807424e-05 -2.1167482092219853e-05 0 1.2133129018774931e-05 -2.1210239137644527e-05 0 1.2100458792365767e-05 -1.9774484345042965e-05 0 2.1107203671500014e-05 -6.6541181899366133e-05 0 1.2064023985686806e-05 -6.1035025692214077e-05 0 1.4158761658151223e-05 -7.0821373911435497e-05 0 1.4198807263002291e-05 -4.4290688281477925e-05 0 1.2476302808699794e-05 -3.7713099156022893e-05 0 2.1107203671500014e-05 -6.6541181899366133e-05 0 1.2064023985686806e-05 -6.1035025692214077e-05 0 1.9158493101810925e-05 -5.5855645047899961e-05 0 7.5068843329032204e-06 -2.2011090548061948e-05 0 8.5232476730641369e-06 -2.0089023437658996e-05 0 6.00102938858953e-06 -1.9560333640151116e-05 0 8.5232476730641369e-06 -2.0089023437658996e-05 0 6.9725654990897129e-06 -1.781843217863732e-05 0 6.00102938858953e-06 -1.9560333640151116e-05 0 1.0136423484803125e-05 -1.938784240734948e-05 0 8.5232476730641369e-06 -2.0089023437658996e-05 0 8.5321529382440467e-06 -1.8296616446741064e-05 0 8.5232476730641369e-06 -2.0089023437658996e-05 0 8.5321529382440467e-06 -1.8296616446741064e-05 0 6.9725654990897129e-06 -1.781843217863732e-05 0 1.0754537326917666e-05 -2.0974361579689156e-05 0 8.5232476730641369e-06 -2.0089023437658996e-05 0 1.0420252390329548e-05 -2.1976544701777181e-05 0 7.5068843329032204e-06 -2.2011090548061948e-05 0 8.5232476730641369e-06 -2.0089023437658996e-05 0 9.1912165287977068e-06 -2.2185217139429113e-05 0 8.5232476730641369e-06 -2.0089023437658996e-05 0 9.1912165287977068e-06 -2.2185217139429113e-05 0 1.0420252390329548e-05 -2.1976544701777181e-05 0 9.1912165287977068e-06 -2.2185217139429113e-05 0 1.0420252390329548e-05 -2.1976544701777181e-05 0 1.1157777101448335e-05 -2.3468837340130457e-05 0 1.1725297635004637e-05 -2.2802203764822838e-05 0 1.0420252390329548e-05 -2.1976544701777181e-05 0 1.1157777101448335e-05 -2.3468837340130457e-05 0 9.1912165287977068e-06 -2.2185217139429113e-05 0 1.1157777101448335e-05 -2.3468837340130457e-05 0 9.4633213739457157e-06 -2.3984310950336327e-05 0 1.1157777101448335e-05 -2.3468837340130457e-05 0 9.4633213739457157e-06 -2.3984310950336327e-05 0 1.2013500891075333e-05 -2.5317003939196315e-05 0 2.3122722392641877e-05 -7.792574122181057e-05 0 1.4158761658151223e-05 -7.0821373911435497e-05 0 9.5349706894076736e-06 -7.9907547138837173e-05 0 2.3122722392641877e-05 -7.792574122181057e-05 0 1.4985400502684336e-05 -9.1046172844446243e-05 0 9.5349706894076736e-06 -7.9907547138837173e-05 0 1.6012385343283238e-05 -5.0884177314732087e-05 0 1.8845506972998552e-05 -5.7767132807966275e-05 0 7.5068843329032204e-06 -2.2011090548061948e-05 0 9.1912165287977068e-06 -2.2185217139429113e-05 0 9.4633213739457157e-06 -2.3984310950336327e-05 0 2.1107203671500014e-05 -6.6541181899366133e-05 0 2.3122722392641877e-05 -7.792574122181057e-05 0 1.4158761658151223e-05 -7.0821373911435497e-05 0 1.4198807263002291e-05 -4.4290688281477925e-05 0 1.6012385343283238e-05 -5.0884177314732087e-05 0 2.3122722392641877e-05 -7.792574122181057e-05 0 1.4985400502684336e-05 -9.1046172844446243e-05 0 2.5417727124699522e-05 -8.9730304747902785e-05 0 1.8845506972998552e-05 -5.7767132807966275e-05 0 2.0081717173190144e-05 -6.3435184031115669e-05 0 1.2013500891075333e-05 -2.5317003939196315e-05 0 1.3153940912002647e-05 -2.4424148162501364e-05 0 1.5388039490894867e-05 -2.5632019849416789e-05 0 1.4985400502684336e-05 -9.1046172844446243e-05 0 2.5417727124699522e-05 -8.9730304747902785e-05 0 2.8188038238153134e-05 -0.00010215887949186579 0 1.4985400502684336e-05 -9.1046172844446243e-05 0 2.8188038238153134e-05 -0.00010215887949186579 0 1.4627823559694425e-05 -0.0001024024351983991 0 1.1725297635004637e-05 -2.2802203764822838e-05 0 1.1157777101448335e-05 -2.3468837340130457e-05 0 1.3055242119109136e-05 -2.3828933643565627e-05 0 1.1157777101448335e-05 -2.3468837340130457e-05 0 1.3153940912002647e-05 -2.4424148162501364e-05 0 1.3055242119109136e-05 -2.3828933643565627e-05 0 1.1157777101448335e-05 -2.3468837340130457e-05 0 1.2013500891075333e-05 -2.5317003939196315e-05 0 1.3153940912002647e-05 -2.4424148162501364e-05 0 1.3153940912002647e-05 -2.4424148162501364e-05 0 1.3055242119109136e-05 -2.3828933643565627e-05 0 1.5053056594508976e-05 -2.4135207211337215e-05 0 1.454209063169633e-05 -2.4193870411019407e-05 0 1.3055242119109136e-05 -2.3828933643565627e-05 0 1.5053056594508976e-05 -2.4135207211337215e-05 0 1.3153940912002647e-05 -2.4424148162501364e-05 0 1.5053056594508976e-05 -2.4135207211337215e-05 0 1.5388039490894867e-05 -2.5632019849416789e-05 0 1.5053056594508976e-05 -2.4135207211337215e-05 0 1.5388039490894867e-05 -2.5632019849416789e-05 0 1.9433683446344164e-05 -2.4603621540793166e-05 0 1.5053056594508976e-05 -2.4135207211337215e-05 0 1.7305073346889446e-05 -2.3354600867895503e-05 0 1.9433683446344164e-05 -2.4603621540793166e-05 0 1.454209063169633e-05 -2.4193870411019407e-05 0 1.5053056594508976e-05 -2.4135207211337215e-05 0 1.7305073346889446e-05 -2.3354600867895503e-05 0 2.8188038238153134e-05 -0.00010215887949186579 0 2.1571391179939221e-05 -0.00010892859353145072 0 1.4627823559694425e-05 -0.0001024024351983991 0 2.0081717173190144e-05 -6.3435184031115669e-05 0 3.058856073513191e-05 -7.029622542808945e-05 0 2.8188038238153134e-05 -0.00010215887949186579 0 3.2293047827127056e-05 -0.00011500366802044272 0 2.1571391179939221e-05 -0.00010892859353145072 0 3.2293047827127056e-05 -0.00011500366802044272 0 2.1571391179939221e-05 -0.00010892859353145072 0 1.8959121763740207e-05 -0.00011667782551812797 0 2.1571391179939221e-05 -0.00010892859353145072 0 1.1289083028491707e-05 -0.00011019101678953815 0 1.8959121763740207e-05 -0.00011667782551812797 0 1.1289083028491707e-05 -0.00011019101678953815 0 1.8959121763740207e-05 -0.00011667782551812797 0 5.8420732387818894e-06 -0.00011665251018993783 0 1.1289083028491707e-05 -0.00011019101678953815 0 1.4627823559694425e-05 -0.0001024024351983991 0 3.633641653253993e-06 -0.00010520357896628988 0 2.1571391179939221e-05 -0.00010892859353145072 0 1.1289083028491707e-05 -0.00011019101678953815 0 1.4627823559694425e-05 -0.0001024024351983991 0 1.1289083028491707e-05 -0.00011019101678953815 0 3.633641653253993e-06 -0.00010520357896628988 0 5.8420732387818894e-06 -0.00011665251018993783 0 3.633641653253993e-06 -0.00010520357896628988 0 -6.1916711779905308e-06 -0.00011613764571488968 0 -7.0032561988015202e-06 -0.00010094534168406894 0 -6.1916711779905308e-06 -0.00011613764571488968 0 -7.0032561988015202e-06 -0.00010094534168406894 0 -1.6934563006724934e-05 -0.00010490450757987449 0 3.633641653253993e-06 -0.00010520357896628988 0 5.8420732387818894e-06 -0.00011665251018993783 0 -6.1916711779905308e-06 -0.00011613764571488968 0 3.633641653253993e-06 -0.00010520357896628988 0 -7.0032561988015202e-06 -0.00010094534168406894 0 4.2521034835453219e-06 -9.2864588378216331e-05 0 -7.0032561988015202e-06 -0.00010094534168406894 0 -8.2734789691880861e-06 -8.7399973261613074e-05 0 4.2521034835453219e-06 -9.2864588378216331e-05 0 -7.0032561988015202e-06 -0.00010094534168406894 0 -8.2734789691880861e-06 -8.7399973261613074e-05 0 -1.8971775195403628e-05 -9.2737685044182408e-05 0 -8.2734789691880861e-06 -8.7399973261613074e-05 0 4.2521034835453219e-06 -9.2864588378216331e-05 0 -6.9986923917186507e-07 -8.1336634395991423e-05 0 1.4985400502684336e-05 -9.1046172844446243e-05 0 4.2521034835453219e-06 -9.2864588378216331e-05 0 9.5349706894076736e-06 -7.9907547138837173e-05 0 1.4985400502684336e-05 -9.1046172844446243e-05 0 1.4627823559694425e-05 -0.0001024024351983991 0 4.2521034835453219e-06 -9.2864588378216331e-05 0 1.4627823559694425e-05 -0.0001024024351983991 0 3.633641653253993e-06 -0.00010520357896628988 0 4.2521034835453219e-06 -9.2864588378216331e-05 0 -4.0284175988416795e-05 -0.00010399135578866584 0 -3.2710910755934797e-05 -0.0001089708962165281 0 -2.7588752217488745e-05 -0.00010249080995719986 0 -4.0284175988416795e-05 -0.00010399135578866584 0 -4.0285245499146895e-05 -0.00011550502534751335 0 -3.2710910755934797e-05 -0.0001089708962165281 0 -4.0285245499146895e-05 -0.00011550502534751335 0 -2.8893600922865799e-05 -0.000115497586090809 0 -3.2710910755934797e-05 -0.0001089708962165281 0 -2.8893600922865799e-05 -0.000115497586090809 0 -3.2710910755934797e-05 -0.0001089708962165281 0 -2.3310049253418901e-05 -0.00010962280157063187 0 -3.2710910755934797e-05 -0.0001089708962165281 0 -2.7588752217488745e-05 -0.00010249080995719986 0 -2.3310049253418901e-05 -0.00010962280157063187 0 -2.7588752217488745e-05 -0.00010249080995719986 0 -2.3310049253418901e-05 -0.00010962280157063187 0 -1.6934563006724934e-05 -0.00010490450757987449 0 -2.3310049253418901e-05 -0.00010962280157063187 0 -1.751981504178986e-05 -0.00011572698988559843 0 -1.6934563006724934e-05 -0.00010490450757987449 0 -2.8893600922865799e-05 -0.000115497586090809 0 -2.3310049253418901e-05 -0.00010962280157063187 0 -1.751981504178986e-05 -0.00011572698988559843 0 -6.1916711779905308e-06 -0.00011613764571488968 0 -1.751981504178986e-05 -0.00011572698988559843 0 -1.6934563006724934e-05 -0.00010490450757987449 0 -7.0032561988015202e-06 -0.00010094534168406894 0 -1.6934563006724934e-05 -0.00010490450757987449 0 -1.8971775195403628e-05 -9.2737685044182408e-05 0 -8.2734789691880861e-06 -8.7399973261613074e-05 0 -1.8971775195403628e-05 -9.2737685044182408e-05 0 -1.6391180499034636e-05 -7.9487336286843526e-05 0 -1.8971775195403628e-05 -9.2737685044182408e-05 0 -2.9844672212521592e-05 -9.215048242516716e-05 0 -2.6293680606734237e-05 -8.1465737678750177e-05 0 -2.7588752217488745e-05 -0.00010249080995719986 0 -1.6934563006724934e-05 -0.00010490450757987449 0 -1.8971775195403628e-05 -9.2737685044182408e-05 0 -2.7588752217488745e-05 -0.00010249080995719986 0 -1.8971775195403628e-05 -9.2737685044182408e-05 0 -2.9844672212521592e-05 -9.215048242516716e-05 0 -4.0284175988416795e-05 -0.00010399135578866584 0 -2.7588752217488745e-05 -0.00010249080995719986 0 -2.9844672212521592e-05 -9.215048242516716e-05 0 -2.9844672212521592e-05 -9.215048242516716e-05 0 -4.0042544328745388e-05 -9.2323405953971709e-05 0 -3.9472647051263607e-05 -8.0596009315178293e-05 0 -4.0284175988416795e-05 -0.00010399135578866584 0 -2.9844672212521592e-05 -9.215048242516716e-05 0 -4.0042544328745388e-05 -9.2323405953971709e-05 0 -3.9472647051263607e-05 -8.0596009315178293e-05 0 -3.1051457734374118e-05 -7.3156404335066434e-05 0 -3.84390527472576e-05 -6.9243613360352784e-05 0 -2.9844672212521592e-05 -9.215048242516716e-05 0 -3.9472647051263607e-05 -8.0596009315178293e-05 0 -2.6293680606734237e-05 -8.1465737678750177e-05 0 -2.6293680606734237e-05 -8.1465737678750177e-05 0 -3.1051457734374118e-05 -7.3156404335066434e-05 0 -2.2807749264074562e-05 -6.9083646495409536e-05 0 -3.9472647051263607e-05 -8.0596009315178293e-05 0 -2.6293680606734237e-05 -8.1465737678750177e-05 0 -3.1051457734374118e-05 -7.3156404335066434e-05 0 -2.6293680606734237e-05 -8.1465737678750177e-05 0 -1.6391180499034636e-05 -7.9487336286843526e-05 0 -2.2807749264074562e-05 -6.9083646495409536e-05 0 -1.8971775195403628e-05 -9.2737685044182408e-05 0 -2.6293680606734237e-05 -8.1465737678750177e-05 0 -1.6391180499034636e-05 -7.9487336286843526e-05 0 -1.6391180499034636e-05 -7.9487336286843526e-05 0 -1.4748666477011223e-05 -6.867922814613764e-05 0 -2.2807749264074562e-05 -6.9083646495409536e-05 0 -1.6391180499034636e-05 -7.9487336286843526e-05 0 -1.4748666477011223e-05 -6.867922814613764e-05 0 -8.083724630328232e-06 -7.4623514123161978e-05 0 -1.4748666477011223e-05 -6.867922814613764e-05 0 -1.8041288889893106e-05 -6.1612870651227172e-05 0 -2.2807749264074562e-05 -6.9083646495409536e-05 0 -1.8041288889893106e-05 -6.1612870651227172e-05 0 -9.5048549256180928e-06 -6.1925166643084532e-05 0 -1.6465381499556781e-05 -5.212083436203331e-05 0 -1.4748666477011223e-05 -6.867922814613764e-05 0 -1.8041288889893106e-05 -6.1612870651227172e-05 0 -9.5048549256180928e-06 -6.1925166643084532e-05 0 -1.8041288889893106e-05 -6.1612870651227172e-05 0 -2.2807749264074562e-05 -6.9083646495409536e-05 0 -2.6206870134364148e-05 -5.8343114977593419e-05 0 -3.1051457734374118e-05 -7.3156404335066434e-05 0 -2.2807749264074562e-05 -6.9083646495409536e-05 0 -3.1186693362345446e-05 -6.5381974460827815e-05 0 -2.2807749264074562e-05 -6.9083646495409536e-05 0 -3.1186693362345446e-05 -6.5381974460827815e-05 0 -2.6206870134364148e-05 -5.8343114977593419e-05 0 -3.1186693362345446e-05 -6.5381974460827815e-05 0 -2.6206870134364148e-05 -5.8343114977593419e-05 0 -3.6892641721648163e-05 -5.8270099702573457e-05 0 -3.1186693362345446e-05 -6.5381974460827815e-05 0 -3.84390527472576e-05 -6.9243613360352784e-05 0 -3.6892641721648163e-05 -5.8270099702573457e-05 0 -3.1051457734374118e-05 -7.3156404335066434e-05 0 -3.1186693362345446e-05 -6.5381974460827815e-05 0 -3.84390527472576e-05 -6.9243613360352784e-05 0 -7.0840475979221347e-07 -7.1159781512142152e-05 0 9.5349706894076736e-06 -7.9907547138837173e-05 0 6.4655126286721086e-06 -6.7199821084029359e-05 0 -7.0840475979221347e-07 -7.1159781512142152e-05 0 9.5349706894076736e-06 -7.9907547138837173e-05 0 -6.9986923917186507e-07 -8.1336634395991423e-05 0 1.4158761658151223e-05 -7.0821373911435497e-05 0 9.5349706894076736e-06 -7.9907547138837173e-05 0 6.4655126286721086e-06 -6.7199821084029359e-05 0 4.2521034835453219e-06 -9.2864588378216331e-05 0 9.5349706894076736e-06 -7.9907547138837173e-05 0 -6.9986923917186507e-07 -8.1336634395991423e-05 0 -8.2734789691880861e-06 -8.7399973261613074e-05 0 -6.9986923917186507e-07 -8.1336634395991423e-05 0 -8.083724630328232e-06 -7.4623514123161978e-05 0 -8.2734789691880861e-06 -8.7399973261613074e-05 0 -1.6391180499034636e-05 -7.9487336286843526e-05 0 -8.083724630328232e-06 -7.4623514123161978e-05 0 -7.0840475979221347e-07 -7.1159781512142152e-05 0 -6.9986923917186507e-07 -8.1336634395991423e-05 0 -8.083724630328232e-06 -7.4623514123161978e-05 0 -7.0840475979221347e-07 -7.1159781512142152e-05 0 -9.5048549256180928e-06 -6.1925166643084532e-05 0 -1.1204948437938458e-06 -6.0523986851881601e-05 0 -7.0840475979221347e-07 -7.1159781512142152e-05 0 -8.083724630328232e-06 -7.4623514123161978e-05 0 -9.5048549256180928e-06 -6.1925166643084532e-05 0 -1.4748666477011223e-05 -6.867922814613764e-05 0 -8.083724630328232e-06 -7.4623514123161978e-05 0 -9.5048549256180928e-06 -6.1925166643084532e-05 0 -9.5048549256180928e-06 -6.1925166643084532e-05 0 -1.1204948437938458e-06 -6.0523986851881601e-05 0 -6.3508823485205724e-06 -5.2110146275413549e-05 0 -1.1204948437938458e-06 -6.0523986851881601e-05 0 6.4655126286721086e-06 -6.7199821084029359e-05 0 5.247320277961049e-06 -5.8325347308262358e-05 0 -7.0840475979221347e-07 -7.1159781512142152e-05 0 -1.1204948437938458e-06 -6.0523986851881601e-05 0 6.4655126286721086e-06 -6.7199821084029359e-05 0 1.2064023985686806e-05 -6.1035025692214077e-05 0 1.4158761658151223e-05 -7.0821373911435497e-05 0 6.4655126286721086e-06 -6.7199821084029359e-05 0 1.2064023985686806e-05 -6.1035025692214077e-05 0 6.4655126286721086e-06 -6.7199821084029359e-05 0 5.247320277961049e-06 -5.8325347308262358e-05 0 1.2064023985686806e-05 -6.1035025692214077e-05 0 5.247320277961049e-06 -5.8325347308262358e-05 0 9.0481669348148759e-06 -5.1432154172058839e-05 0 5.247320277961049e-06 -5.8325347308262358e-05 0 9.0481669348148759e-06 -5.1432154172058839e-05 0 -4.6341575307010545e-08 -5.1721402484760284e-05 0 9.0481669348148759e-06 -5.1432154172058839e-05 0 3.9526156764355737e-06 -4.5258691742016572e-05 0 -4.6341575307010545e-08 -5.1721402484760284e-05 0 9.0481669348148759e-06 -5.1432154172058839e-05 0 3.9526156764355737e-06 -4.5258691742016572e-05 0 9.3817745875597566e-06 -4.2179898237949546e-05 0 3.9526156764355737e-06 -4.5258691742016572e-05 0 -4.6341575307010545e-08 -5.1721402484760284e-05 0 -1.9552615035046448e-06 -4.3878532066137374e-05 0 -1.1204948437938458e-06 -6.0523986851881601e-05 0 5.247320277961049e-06 -5.8325347308262358e-05 0 -4.6341575307010545e-08 -5.1721402484760284e-05 0 -1.1204948437938458e-06 -6.0523986851881601e-05 0 -4.6341575307010545e-08 -5.1721402484760284e-05 0 -6.3508823485205724e-06 -5.2110146275413549e-05 0 -9.5048549256180928e-06 -6.1925166643084532e-05 0 -6.3508823485205724e-06 -5.2110146275413549e-05 0 -1.6465381499556781e-05 -5.212083436203331e-05 0 -6.3508823485205724e-06 -5.2110146275413549e-05 0 -9.1609384485207012e-06 -4.3458782303035126e-05 0 -1.6465381499556781e-05 -5.212083436203331e-05 0 -4.6341575307010545e-08 -5.1721402484760284e-05 0 -6.3508823485205724e-06 -5.2110146275413549e-05 0 -1.9552615035046448e-06 -4.3878532066137374e-05 0 -6.3508823485205724e-06 -5.2110146275413549e-05 0 -9.1609384485207012e-06 -4.3458782303035126e-05 0 -1.9552615035046448e-06 -4.3878532066137374e-05 0 -9.1609384485207012e-06 -4.3458782303035126e-05 0 -2.5894785105556885e-06 -3.4942336388340419e-05 0 -1.9552615035046448e-06 -4.3878532066137374e-05 0 -9.1609384485207012e-06 -4.3458782303035126e-05 0 -1.3709165903574529e-05 -3.7739635056386701e-05 0 -8.3635331681524868e-06 -3.213600236448871e-05 0 -9.1609384485207012e-06 -4.3458782303035126e-05 0 -2.5894785105556885e-06 -3.4942336388340419e-05 0 -8.3635331681524868e-06 -3.213600236448871e-05 0 -2.5894785105556885e-06 -3.4942336388340419e-05 0 3.4356132390491525e-06 -3.7449153801722416e-05 0 3.1314921703695759e-06 -2.7312450379708607e-05 0 3.4356132390491525e-06 -3.7449153801722416e-05 0 3.1314921703695759e-06 -2.7312450379708607e-05 0 8.621954457807834e-06 -3.2343784243348225e-05 0 3.9526156764355737e-06 -4.5258691742016572e-05 0 3.4356132390491525e-06 -3.7449153801722416e-05 0 9.3817745875597566e-06 -4.2179898237949546e-05 0 -2.5894785105556885e-06 -3.4942336388340419e-05 0 3.4356132390491525e-06 -3.7449153801722416e-05 0 -1.9552615035046448e-06 -4.3878532066137374e-05 0 3.9526156764355737e-06 -4.5258691742016572e-05 0 3.4356132390491525e-06 -3.7449153801722416e-05 0 -1.9552615035046448e-06 -4.3878532066137374e-05 0 -3.4846331573173504e-05 -4.8015892411339217e-05 0 -3.0539186816982511e-05 -5.3096326796126301e-05 0 -2.4318965676457455e-05 -4.7526375897986171e-05 0 -3.4846331573173504e-05 -4.8015892411339217e-05 0 -2.4318965676457455e-05 -4.7526375897986171e-05 0 -2.6755362556994745e-05 -4.0534714736566361e-05 0 -2.6206870134364148e-05 -5.8343114977593419e-05 0 -3.6892641721648163e-05 -5.8270099702573457e-05 0 -3.0539186816982511e-05 -5.3096326796126301e-05 0 -3.4846331573173504e-05 -4.8015892411339217e-05 0 -3.6892641721648163e-05 -5.8270099702573457e-05 0 -3.0539186816982511e-05 -5.3096326796126301e-05 0 -2.6206870134364148e-05 -5.8343114977593419e-05 0 -3.0539186816982511e-05 -5.3096326796126301e-05 0 -2.4318965676457455e-05 -4.7526375897986171e-05 0 -2.4318965676457455e-05 -4.7526375897986171e-05 0 -1.6465381499556781e-05 -5.212083436203331e-05 0 -1.6390441401051259e-05 -4.3666852988370236e-05 0 -2.6206870134364148e-05 -5.8343114977593419e-05 0 -2.4318965676457455e-05 -4.7526375897986171e-05 0 -1.6465381499556781e-05 -5.212083436203331e-05 0 -1.8041288889893106e-05 -6.1612870651227172e-05 0 -2.6206870134364148e-05 -5.8343114977593419e-05 0 -1.6465381499556781e-05 -5.212083436203331e-05 0 -9.1609384485207012e-06 -4.3458782303035126e-05 0 -1.6465381499556781e-05 -5.212083436203331e-05 0 -1.6390441401051259e-05 -4.3666852988370236e-05 0 -1.6390441401051259e-05 -4.3666852988370236e-05 0 -1.3709165903574529e-05 -3.7739635056386701e-05 0 -2.0152375133117217e-05 -3.827482926651723e-05 0 -9.1609384485207012e-06 -4.3458782303035126e-05 0 -1.6390441401051259e-05 -4.3666852988370236e-05 0 -1.3709165903574529e-05 -3.7739635056386701e-05 0 -1.3709165903574529e-05 -3.7739635056386701e-05 0 -1.4672575696719157e-05 -3.1825094316634141e-05 0 -8.3635331681524868e-06 -3.213600236448871e-05 0 -1.3709165903574529e-05 -3.7739635056386701e-05 0 -2.0152375133117217e-05 -3.827482926651723e-05 0 -1.4672575696719157e-05 -3.1825094316634141e-05 0 -2.0152375133117217e-05 -3.827482926651723e-05 0 -2.3219026187598767e-05 -3.2440025012024821e-05 0 -1.4672575696719157e-05 -3.1825094316634141e-05 0 -2.4318965676457455e-05 -4.7526375897986171e-05 0 -1.6390441401051259e-05 -4.3666852988370236e-05 0 -2.0152375133117217e-05 -3.827482926651723e-05 0 -2.4318965676457455e-05 -4.7526375897986171e-05 0 -2.0152375133117217e-05 -3.827482926651723e-05 0 -2.6755362556994745e-05 -4.0534714736566361e-05 0 -2.0152375133117217e-05 -3.827482926651723e-05 0 -2.6755362556994745e-05 -4.0534714736566361e-05 0 -2.3219026187598767e-05 -3.2440025012024821e-05 0 -2.6755362556994745e-05 -4.0534714736566361e-05 0 -3.2456960362515554e-05 -3.8558900747526472e-05 0 -2.3219026187598767e-05 -3.2440025012024821e-05 0 -3.4846331573173504e-05 -4.8015892411339217e-05 0 -2.6755362556994745e-05 -4.0534714736566361e-05 0 -3.2456960362515554e-05 -3.8558900747526472e-05 0 -2.9750215067135645e-05 -3.0036190799945313e-05 0 -2.2827360576869314e-05 -2.5299614652613084e-05 0 -2.6545382380024702e-05 -2.2537072630698613e-05 0 -3.2456960362515554e-05 -3.8558900747526472e-05 0 -2.9750215067135645e-05 -3.0036190799945313e-05 0 -2.3219026187598767e-05 -3.2440025012024821e-05 0 -2.9750215067135645e-05 -3.0036190799945313e-05 0 -2.3219026187598767e-05 -3.2440025012024821e-05 0 -2.2827360576869314e-05 -2.5299614652613084e-05 0 -2.3219026187598767e-05 -3.2440025012024821e-05 0 -2.2827360576869314e-05 -2.5299614652613084e-05 0 -1.7230634646371771e-05 -2.5064521468971397e-05 0 -2.3219026187598767e-05 -3.2440025012024821e-05 0 -1.7230634646371771e-05 -2.5064521468971397e-05 0 -1.4672575696719157e-05 -3.1825094316634141e-05 0 -1.4672575696719157e-05 -3.1825094316634141e-05 0 -1.2359174938416969e-05 -2.6003438662232594e-05 0 -8.3635331681524868e-06 -3.213600236448871e-05 0 -1.7230634646371771e-05 -2.5064521468971397e-05 0 -1.4672575696719157e-05 -3.1825094316634141e-05 0 -1.2359174938416969e-05 -2.6003438662232594e-05 0 -1.2359174938416969e-05 -2.6003438662232594e-05 0 -1.294833684137423e-05 -2.0839604545047901e-05 0 -7.7339464881523125e-06 -2.1976186451869976e-05 0 -1.7230634646371771e-05 -2.5064521468971397e-05 0 -1.2359174938416969e-05 -2.6003438662232594e-05 0 -1.294833684137423e-05 -2.0839604545047901e-05 0 -1.294833684137423e-05 -2.0839604545047901e-05 0 -1.0363857511198795e-05 -1.5424790226707394e-05 0 -1.7685950655687625e-05 -1.7908351944847867e-05 0 -1.2271514863588417e-05 -1.2227185293800394e-05 0 -1.0363857511198795e-05 -1.5424790226707394e-05 0 -1.7685950655687625e-05 -1.7908351944847867e-05 0 -1.7230634646371771e-05 -2.5064521468971397e-05 0 -1.294833684137423e-05 -2.0839604545047901e-05 0 -1.7685950655687625e-05 -1.7908351944847867e-05 0 -2.2827360576869314e-05 -2.5299614652613084e-05 0 -1.7685950655687625e-05 -1.7908351944847867e-05 0 -2.6545382380024702e-05 -2.2537072630698613e-05 0 -2.2827360576869314e-05 -2.5299614652613084e-05 0 -1.7230634646371771e-05 -2.5064521468971397e-05 0 -1.7685950655687625e-05 -1.7908351944847867e-05 0 -2.3426553476196937e-05 -1.6231232101187141e-05 0 -1.7685950655687625e-05 -1.7908351944847867e-05 0 -2.6545382380024702e-05 -2.2537072630698613e-05 0 3.1314921703695759e-06 -2.7312450379708607e-05 0 -3.4911511917900215e-06 -2.6965171159181616e-05 0 -1.6343696863341896e-06 -2.0080722601895743e-05 0 3.1314921703695759e-06 -2.7312450379708607e-05 0 -1.6343696863341896e-06 -2.0080722601895743e-05 0 3.613322517928656e-06 -1.7931373189002238e-05 0 -2.5894785105556885e-06 -3.4942336388340419e-05 0 3.1314921703695759e-06 -2.7312450379708607e-05 0 -3.4911511917900215e-06 -2.6965171159181616e-05 0 -2.5894785105556885e-06 -3.4942336388340419e-05 0 -3.4911511917900215e-06 -2.6965171159181616e-05 0 -8.3635331681524868e-06 -3.213600236448871e-05 0 -1.2359174938416969e-05 -2.6003438662232594e-05 0 -8.3635331681524868e-06 -3.213600236448871e-05 0 -7.7339464881523125e-06 -2.1976186451869976e-05 0 -3.4911511917900215e-06 -2.6965171159181616e-05 0 -8.3635331681524868e-06 -3.213600236448871e-05 0 -7.7339464881523125e-06 -2.1976186451869976e-05 0 -3.4911511917900215e-06 -2.6965171159181616e-05 0 -7.7339464881523125e-06 -2.1976186451869976e-05 0 -1.6343696863341896e-06 -2.0080722601895743e-05 0 -7.7339464881523125e-06 -2.1976186451869976e-05 0 -5.343542732767883e-06 -1.5561058514123006e-05 0 -1.6343696863341896e-06 -2.0080722601895743e-05 0 -1.294833684137423e-05 -2.0839604545047901e-05 0 -1.0363857511198795e-05 -1.5424790226707394e-05 0 -7.7339464881523125e-06 -2.1976186451869976e-05 0 -7.6153403245028622e-06 -1.2211534226960196e-05 0 -1.0363857511198795e-05 -1.5424790226707394e-05 0 -5.343542732767883e-06 -1.5561058514123006e-05 0 -1.0363857511198795e-05 -1.5424790226707394e-05 0 -7.7339464881523125e-06 -2.1976186451869976e-05 0 -5.343542732767883e-06 -1.5561058514123006e-05 0 -5.343542732767883e-06 -1.5561058514123006e-05 0 -1.432142949842592e-06 -1.3731171745190606e-05 0 -1.6343696863341896e-06 -2.0080722601895743e-05 0 -1.432142949842592e-06 -1.3731171745190606e-05 0 -1.6343696863341896e-06 -2.0080722601895743e-05 0 3.613322517928656e-06 -1.7931373189002238e-05 0 2.4796089493338869e-06 -1.1518815604908317e-05 0 -1.432142949842592e-06 -1.3731171745190606e-05 0 3.613322517928656e-06 -1.7931373189002238e-05 0 2.4796089493338869e-06 -1.1518815604908317e-05 0 5.8728976620030073e-06 -9.9682067781097851e-06 0 3.613322517928656e-06 -1.7931373189002238e-05 0 5.8728976620030073e-06 -9.9682067781097851e-06 0 4.4950383588688353e-06 -8.7198081826847823e-06 0 4.741892347186967e-06 -8.1828722607243298e-06 0 5.8728976620030073e-06 -9.9682067781097851e-06 0 9.9667019860438391e-06 -1.9622079841951077e-05 0 3.613322517928656e-06 -1.7931373189002238e-05 0 5.2347257663356831e-06 -9.7638991140621059e-06 0 7.4306089652200836e-06 -1.4320544683653327e-05 0 9.9667019860438391e-06 -1.9622079841951077e-05 0 3.613322517928656e-06 -1.7931373189002238e-05 0 7.6742660725031919e-06 -2.4183042426614964e-05 0 3.1314921703695759e-06 -2.7312450379708607e-05 0 3.613322517928656e-06 -1.7931373189002238e-05 0 7.6742660725031919e-06 -2.4183042426614964e-05 0 7.4306089652200836e-06 -1.4320544683653327e-05 0 8.4430659139808913e-06 -1.9264898546663104e-05 0 9.9667019860438391e-06 -1.9622079841951077e-05 0 7.6742660725031919e-06 -2.4183042426614964e-05 0 1.2900096840665331e-05 -2.7698205688644243e-05 0 8.4430659139808913e-06 -1.9264898546663104e-05 0 9.6879073058954593e-06 -2.5095958960258342e-05 0 7.6742660725031919e-06 -2.4183042426614964e-05 0 1.2900096840665331e-05 -2.7698205688644243e-05 0 8.621954457807834e-06 -3.2343784243348225e-05 0 3.1314921703695759e-06 -2.7312450379708607e-05 0 7.6742660725031919e-06 -2.4183042426614964e-05 0 8.621954457807834e-06 -3.2343784243348225e-05 0 5.3647690948262194e-06 -1.1515309781775714e-05 0 5.2741998089975782e-06 -8.939951789165408e-06 0 6.3547726234382091e-06 -1.0761652738352331e-05 0 4.1347841755773873e-06 -1.0916255233630526e-05 0 5.3647690948262194e-06 -1.1515309781775714e-05 0 4.2396102522794586e-06 -1.3749771659327599e-05 0 4.1347841755773873e-06 -1.0916255233630526e-05 0 5.3647690948262194e-06 -1.1515309781775714e-05 0 5.2741998089975782e-06 -8.939951789165408e-06 0 4.4950383588688353e-06 -8.7198081826847823e-06 0 4.1347841755773873e-06 -1.0916255233630526e-05 0 5.2741998089975782e-06 -8.939951789165408e-06 0 5.2741998089975782e-06 -8.939951789165408e-06 0 4.741892347186967e-06 -8.1828722607243298e-06 0 5.6174958277469342e-06 -7.085477816098821e-06 0 4.4950383588688353e-06 -8.7198081826847823e-06 0 5.2741998089975782e-06 -8.939951789165408e-06 0 4.741892347186967e-06 -8.1828722607243298e-06 0 4.9524441965792867e-06 -7.2482607761483482e-06 0 5.8728976620030073e-06 -9.9682067781097851e-06 0 4.741892347186967e-06 -8.1828722607243298e-06 0 4.9524441965792867e-06 -7.2482607761483482e-06 0 4.741892347186967e-06 -8.1828722607243298e-06 0 5.6174958277469342e-06 -7.085477816098821e-06 0 5.2741998089975782e-06 -8.939951789165408e-06 0 5.6174958277469342e-06 -7.085477816098821e-06 0 6.7202595323624268e-06 -9.1149331353073182e-06 0 5.6174958277469342e-06 -7.085477816098821e-06 0 7.2462127788162659e-06 -6.8537753100350739e-06 0 6.7202595323624268e-06 -9.1149331353073182e-06 0 6.493319193395128e-06 -4.8005290272086737e-06 0 5.6174958277469342e-06 -7.085477816098821e-06 0 7.2462127788162659e-06 -6.8537753100350739e-06 0 7.6746710704026378e-06 -3.670982666394064e-06 0 8.487060772355742e-06 -5.8419706166580813e-06 0 7.2462127788162659e-06 -6.8537753100350739e-06 0 7.6746710704026378e-06 -3.670982666394064e-06 0 6.493319193395128e-06 -4.8005290272086737e-06 0 7.2462127788162659e-06 -6.8537753100350739e-06 0 8.487060772355742e-06 -5.8419706166580813e-06 0 8.9808467497702305e-06 -8.843078341752046e-06 0 7.2462127788162659e-06 -6.8537753100350739e-06 0 8.9808467497702305e-06 -8.843078341752046e-06 0 8.0189492354795515e-06 -9.167515738259032e-06 0 9.4032736642465116e-06 -1.1441585617695961e-05 0 8.9808467497702305e-06 -8.843078341752046e-06 0 7.2462127788162659e-06 -6.8537753100350739e-06 0 8.0189492354795515e-06 -9.167515738259032e-06 0 8.0189492354795515e-06 -9.167515738259032e-06 0 8.2108467107009922e-06 -1.107449078847257e-05 0 6.7202595323624268e-06 -9.1149331353073182e-06 0 7.2462127788162659e-06 -6.8537753100350739e-06 0 8.0189492354795515e-06 -9.167515738259032e-06 0 6.7202595323624268e-06 -9.1149331353073182e-06 0 8.0189492354795515e-06 -9.167515738259032e-06 0 8.2108467107009922e-06 -1.107449078847257e-05 0 9.4032736642465116e-06 -1.1441585617695961e-05 0 5.2741998089975782e-06 -8.939951789165408e-06 0 6.7202595323624268e-06 -9.1149331353073182e-06 0 6.3547726234382091e-06 -1.0761652738352331e-05 0 8.2108467107009922e-06 -1.107449078847257e-05 0 6.7202595323624268e-06 -9.1149331353073182e-06 0 7.721031911930661e-06 -1.2478145889008341e-05 0 6.7202595323624268e-06 -9.1149331353073182e-06 0 6.3547726234382091e-06 -1.0761652738352331e-05 0 7.721031911930661e-06 -1.2478145889008341e-05 0 6.3547726234382091e-06 -1.0761652738352331e-05 0 7.721031911930661e-06 -1.2478145889008341e-05 0 6.3849295409565861e-06 -1.339922385121006e-05 0 7.721031911930661e-06 -1.2478145889008341e-05 0 9.4378262896589735e-06 -1.3434166742685027e-05 0 9.2983601633877914e-06 -1.5280962982543688e-05 0 7.721031911930661e-06 -1.2478145889008341e-05 0 7.7546325926564979e-06 -1.4807456870365992e-05 0 9.2983601633877914e-06 -1.5280962982543688e-05 0 7.721031911930661e-06 -1.2478145889008341e-05 0 7.7546325926564979e-06 -1.4807456870365992e-05 0 6.3849295409565861e-06 -1.339922385121006e-05 0 9.4032736642465116e-06 -1.1441585617695961e-05 0 1.0866114111971932e-05 -1.3921675903802934e-05 0 9.4378262896589735e-06 -1.3434166742685027e-05 0 8.2108467107009922e-06 -1.107449078847257e-05 0 9.4032736642465116e-06 -1.1441585617695961e-05 0 9.4378262896589735e-06 -1.3434166742685027e-05 0 8.2108467107009922e-06 -1.107449078847257e-05 0 7.721031911930661e-06 -1.2478145889008341e-05 0 9.4378262896589735e-06 -1.3434166742685027e-05 0 9.4378262896589735e-06 -1.3434166742685027e-05 0 1.1289114433143808e-05 -1.602410319714889e-05 0 9.2983601633877914e-06 -1.5280962982543688e-05 0 1.0866114111971932e-05 -1.3921675903802934e-05 0 9.4378262896589735e-06 -1.3434166742685027e-05 0 1.1289114433143808e-05 -1.602410319714889e-05 0 1.3487600045291165e-05 -1.7590723961101547e-05 0 1.1289114433143808e-05 -1.602410319714889e-05 0 1.2653852132959205e-05 -1.8308469177765013e-05 0 1.1289114433143808e-05 -1.602410319714889e-05 0 1.091240151866306e-05 -1.775986603858935e-05 0 9.2983601633877914e-06 -1.5280962982543688e-05 0 1.1289114433143808e-05 -1.602410319714889e-05 0 1.091240151866306e-05 -1.775986603858935e-05 0 1.2653852132959205e-05 -1.8308469177765013e-05 0 7.7546325926564979e-06 -1.4807456870365992e-05 0 9.1409279419136763e-06 -1.7187134864642464e-05 0 7.6903622424780494e-06 -1.6695276306744383e-05 0 1.091240151866306e-05 -1.775986603858935e-05 0 9.2983601633877914e-06 -1.5280962982543688e-05 0 9.1409279419136763e-06 -1.7187134864642464e-05 0 7.7546325926564979e-06 -1.4807456870365992e-05 0 9.2983601633877914e-06 -1.5280962982543688e-05 0 9.1409279419136763e-06 -1.7187134864642464e-05 0 1.0136423484803125e-05 -1.938784240734948e-05 0 1.091240151866306e-05 -1.775986603858935e-05 0 9.1409279419136763e-06 -1.7187134864642464e-05 0 9.1409279419136763e-06 -1.7187134864642464e-05 0 8.5321529382440467e-06 -1.8296616446741064e-05 0 7.6903622424780494e-06 -1.6695276306744383e-05 0 1.0136423484803125e-05 -1.938784240734948e-05 0 9.1409279419136763e-06 -1.7187134864642464e-05 0 8.5321529382440467e-06 -1.8296616446741064e-05 0 8.5321529382440467e-06 -1.8296616446741064e-05 0 7.6903622424780494e-06 -1.6695276306744383e-05 0 6.9725654990897129e-06 -1.781843217863732e-05 0 7.6903622424780494e-06 -1.6695276306744383e-05 0 6.1876809481032838e-06 -1.5506307213886878e-05 0 6.9725654990897129e-06 -1.781843217863732e-05 0 7.7546325926564979e-06 -1.4807456870365992e-05 0 7.6903622424780494e-06 -1.6695276306744383e-05 0 6.1876809481032838e-06 -1.5506307213886878e-05 0 6.1876809481032838e-06 -1.5506307213886878e-05 0 6.9725654990897129e-06 -1.781843217863732e-05 0 4.8797794453354667e-06 -1.6781509985200172e-05 0 9.0481669348148759e-06 -5.1432154172058839e-05 0 1.9158493101810925e-05 -5.5855645047899961e-05 0 1.7254053785618975e-05 -4.5798947445021131e-05 0 1.2476302808699794e-05 -3.7713099156022893e-05 0 1.0996926149882481e-05 -3.1294964256351953e-05 0 6.9725654990897129e-06 -1.781843217863732e-05 0 6.00102938858953e-06 -1.9560333640151116e-05 0 4.8797794453354667e-06 -1.6781509985200172e-05 0 1.2064023985686806e-05 -6.1035025692214077e-05 0 9.0481669348148759e-06 -5.1432154172058839e-05 0 1.9158493101810925e-05 -5.5855645047899961e-05 0 9.0481669348148759e-06 -5.1432154172058839e-05 0 1.7254053785618975e-05 -4.5798947445021131e-05 0 9.3817745875597566e-06 -4.2179898237949546e-05 0 1.7254053785618975e-05 -4.5798947445021131e-05 0 9.3817745875597566e-06 -4.2179898237949546e-05 0 1.5196454129318523e-05 -3.641842658219611e-05 0 6.1876809481032838e-06 -1.5506307213886878e-05 0 4.8797794453354667e-06 -1.6781509985200172e-05 0 4.2396102522794586e-06 -1.3749771659327599e-05 0 1.0996926149882481e-05 -3.1294964256351953e-05 0 9.6879073058954593e-06 -2.5095958960258342e-05 0 9.3817745875597566e-06 -4.2179898237949546e-05 0 8.621954457807834e-06 -3.2343784243348225e-05 0 1.5196454129318523e-05 -3.641842658219611e-05 0 3.4356132390491525e-06 -3.7449153801722416e-05 0 9.3817745875597566e-06 -4.2179898237949546e-05 0 8.621954457807834e-06 -3.2343784243348225e-05 0 1.2900096840665331e-05 -2.7698205688644243e-05 0 8.621954457807834e-06 -3.2343784243348225e-05 0 1.5196454129318523e-05 -3.641842658219611e-05 0 5.3647690948262194e-06 -1.1515309781775714e-05 0 4.2396102522794586e-06 -1.3749771659327599e-05 0 6.3849295409565861e-06 -1.339922385121006e-05 0 5.3647690948262194e-06 -1.1515309781775714e-05 0 6.3547726234382091e-06 -1.0761652738352331e-05 0 6.3849295409565861e-06 -1.339922385121006e-05 0 7.7546325926564979e-06 -1.4807456870365992e-05 0 6.1876809481032838e-06 -1.5506307213886878e-05 0 6.3849295409565861e-06 -1.339922385121006e-05 0 6.1876809481032838e-06 -1.5506307213886878e-05 0 4.2396102522794586e-06 -1.3749771659327599e-05 0 6.3849295409565861e-06 -1.339922385121006e-05 0 
</DataArray>
</PointData>
<CellData Scalars="region_id,von_mises_stress,cross_section_updated,displacement_divergence," Vectors="" Tensors="effective_stress,">
<DataArray type="Float64" Name="region_id" format="ascii">
1 1 1 1 1 1 1 1 1 1 1 1 1 1 1 1 1 1 1 1 1 1 1 1 1 1 1 1 1 1 1 1 1 1 1 1 1 1 1 1 1 1 1 1 1 1 1 1 1 1 1 1 1 1 1 1 1 1 1 1 1 1 1 1 1 1 1 1 1 1 1 1 1 1 1 1 1 1 1 1 1 1 1 1 1 1 1 1 1 1 1 1 1 1 1 1 1 1 1 1 1 1 1 1 1 1 1 1 1 1 1 1 1 1 1 1 1 1 1 1 1 1 1 1 1 1 1 1 1 1 1 1 1 1 1 1 1 1 1 1 1 1 1 1 1 1 1 1 1 1 1 1 1 1 1 1 1 1 1 1 1 1 1 1 1 1 1 1 1 1 1 1 1 1 1 1 1 1 1 1 1 1 1 1 1 1 1 1 1 1 1 1 1 1 1 1 1 1 1 1 1 1 1 1 1 1 1 1 1 1 1 1 1 1 1 1 1 1 1 1 1 1 1 1 1 1 1 1 1 1 1 1 1 1 1 1 1 1 1 1 1 1 1 1 1 1 1 1 1 1 1 1 1 1 1 1 1 1 1 1 1 1 1 1 1 1 1 1 1 1 1 1 1 1 1 1 1 1 1 1 1 1 1 1 1 1 1 1 1 1 1 1 1 1 1 1 1 1 1 1 1 1 1 1 1 1 1 1 1 1 1 1 1 1 1 1 1 1 1 1 1 1 1 1 1 1 1 1 1 1 1 1 1 1 1 1 1 1 1 1 1 1 1 1 1 1 1 1 1 1 1 1 1 1 1 1 1 1 1 1 1 1 1 1 1 1 1 1 1 1 1 1 1 1 1 1 1 1 1 1 1 1 1 1 1 1 1 1 1 1 1 1 1 1 1 1 1 1 1 1 1 1 1 1 1 1 1 1 1 1 1 1 1 1 1 1 1 1 1 1 1 1 1 1 1 1 1 1 1 1 1 1 1 1 1 1 1 1 1 1 1 1 1 1 1 1 1 1 1 1 1 1 1 1 1 1 1 1 1 1 1 1 1 1 1 1 1 1 1 1 1 1 1 1 1 1 1 1 1 1 1 1 1 1 1 1 1 1 1 1 1 1 1 1 1 1 1 1 1 1 1 1 1 1 1 1 1 1 1 1 1 1 1 1 1 1 1 1 1 1 1 1 1 1 1 1 1 1 1 1 1 1 1 1 1 1 1 1 3 1 1 3 1 1 3 1 1 1 1 1 1 1 1 1 1 1 1 1 3 1 1 1 1 1 3 1 1 1 1 1 1 1 1 1 1 1 1 1 1 1 1 1 1 1 1 1 1 1 1 1 1 1 1 1 1 1 1 1 1 1 1 1 1 1 1 1 1 1 1 1 1 1 1 1 1 1 1 1 1 1 1 1 1 1 1 1 1 1 1 1 1 1 1 1 1 1 1 1 1 1 1 1 1 1 1 1 1 1 1 1 1 1 1 1 1 1 1 1 1 1 1 1 1 1 1 1 1 1 1 1 1 1 1 1 1 1 1 1 1 1 1 1 1 1 1 1 1 1 1 1 1 1 1 1 1 1 1 1 1 1 1 1 1 1 1 1 1 1 1 1 1 1 1 1 1 1 1 1 1 1 1 1 1 1 1 1 1 1 1 1 1 1 1 3 1 1 1 3 1 1 3 1 1 1 1 1 1 1 1 1 1 1 3 1 1 1 1 3 1 1 1 1 1 1 1 1 1 1 1 1 1 1 1 1 1 1 1 1 1 1 1 1 1 1 1 1 1 1 1 1 1 1 1 1 1 1 1 1 1 1 1 1 1 1 1 1 1 1 1 1 1 1 1 1 1 1 2 1 1 1 1 1 1 1 1 1 1 1 1 1 1 2 1 1 2 1 2 1 1 1 1 1 1 1 1 1 1 1 1 1 2 1 1 1 1 1 1 1 1 1 1 1 1 1 1 1 1 1 1 1 1 1 1 1 1 1 1 1 1 1 1 1 1 1 1 1 1 1 1 1 1 1 1 1 1 1 1 1 1 1 1 1 1 1 1 1 1 1 1 1 1 1 1 1 1 1 1 1 1 1 1 1 1 1 1 1 1 1 1 1 1 1 1 1 1 1 1 1 1 1 1 1 1 1 1 1 1 1 1 1 1 1 1 1 1 1 1 1 1 1 1 1 1 1 1 1 1 1 1 1 1 1 1 1 1 1 1 1 1 1 1 1 1 1 1 1 1 2 1 1 2 1 2 1 1 1 1 1 1 1 1 1 1 1 1 1 1 1 1 1 1 1 1 1 1 1 1 1 1 1 1 1 1 1 1 1 1 1 1 1 1 1 1 1 1 1 1 1 1 1 2 1 1 1 1 1 2 1 1 1 1 1 1 1 
</DataArray>
<DataArray type="Float64" Name="effective_stress" NumberOfComponents="9" format="ascii">
-0.024921522296249974 0.0010293506586015802 0 0.0010293506586015802 -0.0032218781174651228 0 0 0 -0.007035850103428774 -0.023427481128293688 0.0016510789444242643 0 0.0016510789444242643 -0.0077945068723019213 0 0 0 -0.0078054970001489024 -0.025081909416468706 0.0021654687918487769 0 0.0021654687918487769 0.0013661461287172542 0 0 0 -0.0059289408219378639 -0.023801143347166258 0.0026144790128270223 0 0.0026144790128270223 -0.0034575033049102089 0 0 0 -0.0068146616630191158 -0.0192991878295471 0.0057493137370509852 0 0.0057493137370509852 -0.0064355993701892692 0 0 0 -0.0064336967999340921 -0.019295785185865898 0.0057524182936408439 0 0.0057524182936408439 -0.0064245695434142405 0 0 0 -0.0064300886823200343 -0.022206616018826994 0.0055495653194914613 0 0.0055495653194914613 -0.0016075650921599767 0 0 0 -0.0059535452777467451 -0.023133040276610464 0.0050219325361059892 0 0.0050219325361059892 -0.0021272197441596086 0 0 0 -0.0063150650051925182 -0.021377013020729772 0.0065770144091691126 0 0.0065770144091691126 -0.001673032506579207 0 0 0 -0.0057625113818272466 -0.016895146760154748 0.0068005794857988033 0 0.0068005794857988033 -0.00041824004735497265 0 0 0 -0.0043283467018774288 -0.024624400952909783 0.0070206726128926259 0 0.0070206726128926259 -0.00094479042705196414 0 0 0 -0.0063922978449904386 -0.016649997168579535 0.0077047968051109587 0 0.0077047968051109587 0.00038799030269764945 0 0 0 -0.0040655017164704724 -0.030478327166312182 0.0055105735150341173 0 0.0055105735150341173 -0.00046502794455731064 0 0 0 -0.0077358387777173784 -0.023732060047405724 0.0058243159673930459 0 0.0058243159673930459 0.0003493603805612075 0 0 0 -0.0058456749167111258 -0.03623636541844491 0.002127080322653789 0 0.002127080322653789 -0.0011900449490185891 0 0 0 -0.0093566025918658691 -0.029411692183899045 0.0027040977289649335 0 0.0027040977289649335 -0.00015307448141083644 0 0 0 -0.007391191666327469 -0.026949042730700805 0.003753562445624266 0 0.003753562445624266 0.0016157289277397117 0 0 0 -0.0063333284507402759 -0.027283346970346137 0.0056002142237442437 0 0.0056002142237442437 -0.00049510660622206423 0 0 0 -0.0069446133941420529 -0.002898853071406411 0.0080209294108524228 0 0.0080209294108524228 -0.00096451045861798671 0 0 0 -0.00096584088250609948 -0.0061721966762821436 0.0097730857651929688 0 0.0097730857651929688 -0.0012389482866189717 0 0 0 -0.0018527862407252795 -0.0071470736735857934 0.0073786997709179847 0 0.0073786997709179847 -0.00071136101932075309 0 0 0 -0.0019646086732266381 -0.013245230080309006 0.0086875061068343671 0 0.0086875061068343671 -0.0010173616223532779 0 0 0 -0.003565647925665571 -0.013979917364542099 0.0079268556890782303 0 0.0079268556890782303 -0.0027735412879959544 0 0 0 -0.0041883646631345117 -0.0086793921908729886 0.0087563331239333443 0 0.0087563331239333443 -0.0015638847427002188 0 0 0 -0.002560819233393301 -0.0088371271639314502 0.0077071254879009215 0 0.0077071254879009215 -0.0029489847021683946 0 0 0 -0.0029465279665249612 -0.014719066214283198 0.0087368014239713222 0 0.0087368014239713222 -0.00056051171876561612 0 0 0 -0.0038198944832622019 -0.015710513802022489 0.0068532284542601584 0 0.0068532284542601584 -0.00066967556706366838 0 0 0 -0.0040950473422715393 -0.013124919780830108 0.0074858001778207615 0 0.0074858001778207615 -0.0014959576994812776 0 0 0 -0.0036552193700778463 -0.005688327745484013 0.0073021809034696543 0 0.0073021809034696543 -0.0003622371180573708 0 0 0 -0.0015126412158853442 -0.0060720817288915374 0.0080997570934193963 0 0.0080997570934193963 -0.0011600799787959762 0 0 0 -0.0018080404269218767 -0.0026542722337125051 0.0093925248955827982 0 0.0093925248955827982 -0.0010857508974930555 0 0 0 -0.00093500578280139059 3.9117859384147149e-05 0.0069567499525065883 0 0.0069567499525065883 9.1373174969624354e-05 0 0 0 3.2622758588445044e-05 -0.00050087448378416735 0.0084305940620698801 0 0.0084305940620698801 -0.00093705244903569129 0 0 0 -0.00035948173320496032 -0.00058482528022229391 0.0064291427499973044 0 0.0064291427499973044 -0.00012378725919759415 0 0 0 -0.00017715313485497028 -0.0067198864782612253 0.0089651085203407629 0 0.0089651085203407629 -0.00086094453291596373 0 0 0 -0.0018952077527942986 -0.015779628602861934 0.0089706355628388478 0 0.0089706355628388478 -0.00065586726423843417 0 0 0 -0.0041088739667750939 -0.012696900581337198 0.008858997135702899 0 0.008858997135702899 -0.00075595285009928681 0 0 0 -0.0033632133578591194 -0.0081878060221830563 0.0071895900719702614 0 0.0071895900719702614 0.00023999817951885632 0 0 0 -0.0019869519606660509 -0.015795005702861055 0.0073323570215882601 0 0.0073323570215882601 0.00059528114322983383 0 0 0 -0.0037999311399078053 -0.017698135292103741 0.0091164887203847821 0 0.0091164887203847821 -0.00046878720101195537 0 0 0 -0.004541730623278924 -0.012552623701291571 0.0072689972440480441 0 0.0072689972440480441 -0.00010744400299118103 0 0 0 -0.0031650169260706885 -0.0088627378398450016 0.0093883954156928108 0 0.0093883954156928108 0.00039728922629072433 0 0 0 -0.0021163621533885684 -0.0088963065812812485 0.0071824688069598124 0 0.0071824688069598124 0.0010120495253702526 0 0 0 -0.0019710642639777466 -0.0018268912369640705 0.0066733829173519742 0 0.0066733829173519742 0.00051555309402241006 0 0 0 -0.00032783453573541338 -0.008209949272918295 0.0092363067244177269 0 0.0092363067244177269 -0.00055122574746659797 0 0 0 -0.0021902937550962228 -0.0061035155159169137 0.0062133586109353756 0 0.0062133586109353756 0.0012959251888207597 0 0 0 -0.0012018975817740343 0.0045313511700143406 0.0060600007999316603 0 0.0060600007999316603 0.00018882007419966651 0 0 0 0.0011800428110535031 -0.0010028576422515343 0.0078041001276758174 0 0.0078041001276758174 0.0002834711620699204 0 0 0 -0.00017984662004540304 -0.035767323713399121 0.0024968731272475156 0 0.0024968731272475156 -0.001418892181510454 0 0 0 -0.0092965539737273912 -0.028459596129693645 0.0064702596266823535 0 0.0064702596266823535 -3.3265959656473415e-05 0 0 0 -0.0071232155223375287 -0.042473302537440409 0.0034089588034830393 0 0.0034089588034830393 -0.0002121338594024138 0 0 0 -0.010671359099210706 -0.029177530521304579 0.0046156370830697027 0 0.0046156370830697027 0.001103446857227932 0 0 0 -0.0070185209160191619 -0.022407795218213365 0.00657593001497508 0 0.00657593001497508 0.00071535969075647507 0 0 0 -0.0054231088818642208 -0.02323617113254621 0.0073800573050145576 0 0.0073800573050145576 -0.00050012298197948946 0 0 0 -0.0059340735286314249 -0.023699707725739694 0.0083399748287687654 0 0.0083399748287687654 -0.00046473641734946433 0 0 0 -0.006041111035772288 -0.027306662396384636 0.0056454753244809383 0 0.0056454753244809383 0.00062494528650592317 0 0 0 -0.0066704292774696743 -0.019214036696920997 0.0069299567781032582 0 0.0069299567781032582 -5.2987183247327901e-05 0 0 0 -0.0048167559700420769 -0.028540229767011125 0.0079100848539136251 0 0.0079100848539136251 -0.00052440048976101251 0 0 0 -0.00726615756419304 -0.022404553136524799 0.0063251794522903972 0 0.0063251794522903972 -0.00030942655421541208 0 0 0 -0.0056784949226850543 -0.027779975975975833 0.0059872241620022226 0 0.0059872241620022226 0.00065892615004915691 0 0 0 -0.0067802624564816706 -0.038841146246809434 0.0047500144452112076 0 0.0047500144452112076 -0.00046290097797080463 0 0 0 -0.0098260118061950664 -0.036868549208332005 0.0047390189892680921 0 0.0047390189892680921 -0.00057417350179088627 0 0 0 -0.0093606806775307326 -0.035722006389730644 0.0028713599493505235 0 0.0028713599493505235 0.00040507649663340875 0 0 0 -0.0088292324732743115 -0.048332876891481004 0.003360783244562608 0 0.003360783244562608 -0.00038063495085031117 0 0 0 -0.012178377960582826 -0.051484145639946945 0.002950575202559997 0 0.002950575202559997 -0.00033685799728796345 0 0 0 -0.012955250909308717 -0.037637537108814935 0.0037590956410766844 0 0.0037590956410766844 0.0010873102117342093 0 0 0 -0.0091375567242701801 -0.043357050491814528 0.0026216107361857234 0 0.0026216107361857234 0.00066974637137118265 0 0 0 -0.010671826030110826 -0.0595082166561305 0.0020907507382812024 0 0.0020907507382812024 0.0009799837527054156 0 0 0 -0.014632058225856257 -0.045311008531841633 0.0060030342957612479 0 0.0060030342957612479 0.0013430305040949275 0 0 0 -0.010991994506936671 -0.044828808515258459 0.0017451785763747604 0 0.0017451785763747604 -0.00048353521050912424 0 0 0 -0.011328085931441903 -0.048058838016539186 0.0023113692407034335 0 0.0023113692407034335 0.0019618615328169664 0 0 0 -0.011524244120930532 -0.066800029600914135 0.00017331748276101788 0 0.00017331748276101788 -0.00056952197416678535 0 0 0 -0.016842387893770211 -0.027255147472138738 0.0035264938783843014 0 0.0035264938783843014 0.0023415738834169052 0 0 0 -0.0062283933971804695 -0.022355451168924002 0.0082990926177756337 0 0.0082990926177756337 0.0016662795207809875 0 0 0 -0.005172292912035751 -0.033903486422885667 0.0055552684736568589 0 0.0055552684736568589 -8.4450560242792932e-05 0 0 0 -0.0084969842457821142 -0.033510817909743099 0.0062314058871874257 0 0.0062314058871874257 0.0010286626009255485 0 0 0 -0.0081205388272043866 -0.022209840373914408 0.0086151855147525661 0 0.0086151855147525661 0.0012934349189802109 0 0 0 -0.0052291013637335475 -0.038998288045273007 0.0079609920653829387 0 0.0079609920653829387 0.0017053783110049306 0 0 0 -0.0093232274335670138 -0.032407147030557679 0.0053629887607351736 0 0.0053629887607351736 -0.00039765548096237053 0 0 0 -0.0082012006278800124 -0.028983590105040129 0.0081257547578745988 0 0.0081257547578745988 0.00077586094220912351 0 0 0 -0.0070519322907077447 -0.020567240020880288 0.0086718475583403374 0 0.0086718475583403374 0.00035571891077362111 0 0 0 -0.0050528802775266701 -0.013253250830310911 0.0082074941915072329 0 0.0082074941915072329 0.00058833953505011728 0 0 0 -0.0031662278238151964 -0.013123754983590249 0.006894100739594654 0 0.006894100739594654 0.00092915529085181581 0 0 0 -0.00304864992318461 -0.011947995541158279 0.0065813600015254756 0 0.0065813600015254756 0.0020501503304516423 0 0 0 -0.002474461302676664 -0.0056575221877831969 0.0080492441849801064 0 0.0080492441849801064 0.0006625245438647686 0 0 0 -0.0012487494109796071 -0.021987406356826798 0.0070214361948125539 0 0.0070214361948125539 0.00097797058218412718 0 0 0 -0.0052523589436606665 0.00064979040746481094 0.0056114478836302873 0 0.0056114478836302873 0.0023015229137613759 0 0 0 0.00073782833030654714 -0.0011420861584101995 0.0082122123912115336 0 0.0082122123912115336 -2.6693662339104945e-05 0 0 0 -0.0002921949551873259 -0.0042128486313146073 0.005465322938938825 0 0.005465322938938825 0.002894136682476716 0 0 0 -0.00032967798720947216 0.0054690811498559824 0.0028589095598806251 0 0.0028589095598806251 0.0040676803041335566 0 0 0 0.0023841903634973845 0.0031587443752954811 0.0069897148444492537 0 0.0069897148444492537 0.0015605719068694339 0 0 0 0.0011798290705412277 -0.0028992177949555865 0.0055752147034601254 0 0.0055752147034601254 0.0047140855048627417 0 0 0 0.00045371692747678966 0.0068742185586754684 0.003875611450547517 0 0.003875611450547517 0.0047742247621264805 0 0 0 0.0029121108302004872 0.0064602457280379666 0.002919431275675172 0 0.002919431275675172 0.0078748940854197619 0 0 0 0.0035837849533644286 -0.012611135351437054 0.008483207198314963 0 0.008483207198314963 0.0015990199808817163 0 0 0 -0.0027530288426388366 -0.018258501571623675 0.0051297359924339508 0 0.0051297359924339508 0.0018759671348636021 0 0 0 -0.0040956336091900226 -0.0032598533933207267 0.0061329485285376885 0 0.0061329485285376885 0.0020662136787388263 0 0 0 -0.00029840992864546903 -0.0085203672299059077 0.0041082783965334588 0 0.0041082783965334588 0.0038950772505703182 0 0 0 -0.0011563224948338965 -0.011801491370121125 0.0081170330854003665 0 0.0081170330854003665 0.0040236577841083893 0 0 0 -0.0019444583965031875 -0.017479663605593783 0.0076064857074428609 0 0.0076064857074428609 0.0053065665603955342 0 0 0 -0.0030432742612995708 -0.010629021142237155 0.0047956054845393475 0 0.0047956054845393475 0.010888348086823874 0 0 0 6.4831736146672703e-05 -0.016616819475512405 0.0012943758576169535 0 0.0012943758576169535 0.0055262740473069616 0 0 0 -0.0027726363570513626 0.018460526220077746 -1.9840206581266118e-05 0 -1.9840206581266118e-05 0.010015396200705351 0 0 0 0.0071189806051957794 -0.0051898057235516964 0.0061503736755669607 0 0.0061503736755669607 0.007355594050454467 0 0 0 0.00054144708172569611 0.0037400624458029455 0.0024645476777051811 0 0.0024645476777051811 0.0082207988620653163 0 0 0 0.0029902153269670689 0.0054076105081682993 0.0032168784816275255 0 0.0032168784816275255 0.013580951844232525 0 0 0 0.0047471405881001974 0.014848595284440318 -0.0020597781161683995 0 -0.0020597781161683995 0.015182806347668595 0 0 0 0.0075078504080272265 0.0025688268048813939 0.0013200668312283032 0 0.0013200668312283032 0.021520817614946897 0 0 0 0.0060224111049570761 0.0011127461912628367 -0.0041595781092820805 0 -0.0041595781092820805 0.021410305484700354 0 0 0 0.0056307629189908115 0.0074989133245179779 -0.0078477728295617832 0 -0.0078477728295617832 0.017363493500075725 0 0 0 0.0062156017061484325 0.015206979278669278 -0.0035437464202121155 0 -0.0035437464202121155 0.033314502366739052 0 0 0 0.012130370411352079 -0.015293659090012401 -0.0011216497685209992 0 -0.0011216497685209992 0.013198488267632313 0 0 0 -0.00052379270559500812 -0.0017747695581954714 -0.00042781999518361202 0 -0.00042781999518361202 0.010047254998773597 0 0 0 0.0020681213601445314 -0.0035889348329333909 -0.0068654539058270458 0 -0.0068654539058270458 0.012625259549391435 0 0 0 0.0022590811791145249 -0.01754447839816406 0.00092419147398479194 0 0.00092419147398479194 0.0068214347657950536 0 0 0 -0.0026807609080922584 -0.021720248291668649 -0.0051728267938909167 0 -0.0051728267938909167 0.0074538004298145277 0 0 0 -0.0035666119654635293 -0.031779362784895106 -0.0014844039376484125 0 -0.0014844039376484125 0.0049984524174551959 0 0 0 -0.0066952275918599619 -0.036299017781555865 0.0032091343521820498 0 0.0032091343521820498 0.0031632340056268957 0 0 0 -0.0082839459439822405 -0.044550733349424929 -0.0045216788006632036 0 -0.0045216788006632036 0.0041671779244369239 0 0 0 -0.010095888856247012 -0.049792586756788063 0.0012520573633912763 0 0.0012520573633912763 0.0013108243630496341 0 0 0 -0.012120440598434604 -0.071121219441482891 2.9162306447075292e-05 0 2.9162306447075292e-05 0.0016559239866797415 0 0 0 -0.017366323863700808 -0.052115767323883289 0.0019197259071251915 0 0.0019197259071251915 0.0015968651737266748 0 0 0 -0.01262972553753916 -0.051096327300504951 -0.00044395623145775109 0 -0.00044395623145775109 0.0012770671647621135 0 0 0 -0.012454815033935696 -0.053776543387399921 -0.00015569149766148788 0 -0.00015569149766148788 -0.00041389888920002893 0 0 0 -0.013547610569149989 -0.044464208786078659 0.0055984432320563063 0 0.0055984432320563063 0.0015360834048793737 0 0 0 -0.010732031345299806 -0.070473557541136683 0.0025016549977427138 0 0.0025016549977427138 0.00037592780717196628 0 0 0 -0.01752440743349121 -0.05117953252655346 0.0050663443875659589 0 0.0050663443875659589 0.0014390942344219282 0 0 0 -0.012435109573032878 -0.033971427742279861 0.0072743803818135742 0 0.0072743803818135742 0.0029742810260137559 0 0 0 -0.0077492866790665263 -0.025847269620412332 0.0058003840735569231 0 0.0058003840735569231 0.0050334070235698858 0 0 0 -0.0052034656492105993 -0.037151586730318341 0.0013210659408034175 0 0.0013210659408034175 0.0025916411374312873 0 0 0 -0.0086399863982217721 0.014325781018451628 -0.0059538065994671867 0 -0.0059538065994671867 0.030140239543608824 0 0 0 0.011116505140515116 0.015131996197603158 -0.0063896404588410947 0 -0.0063896404588410947 0.025325304334410152 0 0 0 0.010114325133003321 0.01426936356643254 -0.0068755524380728584 0 -0.0068755524380728584 0.021175665829503143 0 0 0 0.0088612573489839155 0.012210939786384923 -0.0044798379462246928 0 -0.0044798379462246928 0.027160981356677424 0 0 0 0.0098429802857655825 0.013976434887794525 -0.001091610584318118 0 -0.001091610584318118 0.030499685669140401 0 0 0 0.011119030139233736 0.015775982633177008 -0.0021642130903321653 0 -0.0021642130903321653 0.034916481819462532 0 0 0 0.012673116113159886 0.011943752303266579 -0.0069748062681442152 0 -0.0069748062681442152 0.03421923815396774 0 0 0 0.011540747614308592 0.011954956067294346 -0.0064848073955354017 0 -0.0064848073955354017 0.032082740285886174 0 0 0 0.011009424088295139 0.013572296516011929 -0.0072729014198879421 0 -0.0072729014198879421 0.032400200753855801 0 0 0 0.011493124317466932 0.013208950476509725 -0.006740834065720902 0 -0.006740834065720902 0.029750024740688066 0 0 0 0.010739743804299436 0.0095171521523683446 -0.0060644922012739952 0 -0.0060644922012739952 0.028920059503989529 0 0 0 0.0096093029140894605 0.011721589329712685 -0.0075701663776074676 0 -0.0075701663776074676 0.031341155488418732 0 0 0 0.010765686204532852 0.011267674186898785 -0.0079125970063562354 0 -0.0079125970063562354 0.030593705912238138 0 0 0 0.010465345024784222 0.011680373229982131 -0.0094870585791691914 0 -0.0094870585791691914 0.031395389311183575 0 0 0 0.010768940635291428 0.011831099370205527 -0.006855799806682876 0 -0.006855799806682876 0.03629707202709978 0 0 0 0.012032042849326335 0.034032969423376296 -0.027569087459540571 0 -0.027569087459540571 0.056694957567802434 0 0 0 0.022681981747794677 0.0082742796270962662 -0.015832451513851771 0 -0.015832451513851771 0.034859141413472808 0 0 0 0.010783355260142256 0.031545551346509222 -0.018434645392394269 0 -0.018434645392394269 0.031217201274708659 0 0 0 0.015690688155304472 0.0090214847621391536 -0.0095489767148448576 0 -0.0095489767148448576 0.031820419719066712 0 0 0 0.010210476120301452 0.035382507046970574 -0.0043666383112802298 0 -0.0043666383112802298 0.05004532265546735 0 0 0 0.02135695742560946 0.028973529559695968 -0.0098996848475154109 0 -0.0098996848475154109 0.026528375271549526 0 0 0 0.013875476207811377 0.051181106628062426 -0.014565761000772531 0 -0.014565761000772531 0.034222100418469244 0 0 0 0.021350801761632909 0.023548458835041808 -0.010310829429468517 0 -0.010310829429468517 0.024556952829016623 0 0 0 0.012026352916014628 0.017111864790046945 -0.00086807875377473837 0 -0.00086807875377473837 0.024490987826137817 0 0 0 0.010400713154046181 0.03256092739063704 -0.00657034271979616 0 -0.00657034271979616 0.019310859400941571 0 0 0 0.012967946697894653 0.016109731827580513 -0.002476092237165637 0 -0.002476092237165637 0.014834212095227808 0 0 0 0.0077359859807020759 0.021714290646332565 -0.0034630121651762474 0 -0.0034630121651762474 0.010950325114521264 0 0 0 0.0081661539402134546 0.017661144748170356 -0.012052773602276287 0 -0.012052773602276287 0.027970347131073096 0 0 0 0.01140787296981087 0.014845789622585884 -0.011184910801370684 0 -0.011184910801370684 0.019705562828569861 0 0 0 0.0086378381127889294 0.022156880321880283 -0.0096609149388373859 0 -0.0096609149388373859 0.022652202791464533 0 0 0 0.011202270778336208 0.015419722835160857 -0.005563665399065866 0 -0.005563665399065866 0.011759573442679725 0 0 0 0.0067948240694601439 0.017517015581365116 -0.0064455206293930912 0 -0.0064455206293930912 0.022085376316929313 0 0 0 0.0099005979745736029 0.016883275421203485 -0.0044891942978780254 0 -0.0044891942978780254 0.01386915390189436 0 0 0 0.0076881073307744595 0.0160312206629547 0.00013444233058722827 0 0.00013444233058722827 0.011895509055653102 0 0 0 0.0069816824296519489 0.014687807023918071 4.5753859502250561e-05 0 4.5753859502250561e-05 0.0063241446333119275 0 0 0 0.0052529879143074984 0.013665924897478979 -0.0014503045501435864 0 -0.0014503045501435864 0.010386924448990425 0 0 0 0.0060132123366173464 0.016909400542518202 -0.0021119414122646868 0 -0.0021119414122646868 0.0083199047800609563 0 0 0 0.006307326330644793 0.013761767213073079 0.0012912805051756957 0 0.0012912805051756957 0.0089689241795998485 0 0 0 0.0056826728481682307 0.008544398843382827 0.0042676412398433249 0 0.0042676412398433249 0.0050948415950260633 0 0 0 0.0034098101096022211 0.012667422321458954 0.00062421769281731474 0 0.00062421769281731474 0.0051992890146050188 0 0 0 0.004466677834015993 0.010756639111367627 0.0045472972499108321 0 0.0045472972499108321 0.0040228344956209829 0 0 0 0.0036948684017471508 0.0087534616148951319 0.0034279090386796999 0 0.0034279090386796999 0.0024028084239203565 0 0 0 0.0027890675097038721 0.0055504019717738697 0.0066237376073364478 0 0.0066237376073364478 0.0013834970598429414 0 0 0 0.0017334747579042041 0.015878295660358047 -0.00024989279295282388 0 -0.00024989279295282388 0.0082893272272508596 0 0 0 0.0060419057219022231 0.01540762407460378 -0.00061778452443885662 0 -0.00061778452443885662 0.0073732511190343847 0 0 0 0.005695218798409534 0.013864954197009014 0.0024340054038207472 0 0.0024340054038207472 0.0061905392163144439 0 0 0 0.0050138733533308605 0.012928369852122576 0.0019488574995123568 0 0.0019488574995123568 0.0051835753715137739 0 0 0 0.0045279863059090909 0.015668439839817899 0.0007134301577624197 0 0.0007134301577624197 0.0096985696710176362 0 0 0 0.0063417523777088789 0.016487723469466739 0.0036682841309790062 0 0.0036682841309790062 0.0058263119594968004 0 0 0 0.0055785088572408853 0.019439209674754977 0.0034858377438817222 0 0.0034858377438817222 0.009786783300164914 0 0 0 0.0073064982437299718 0.019994883761332113 0.0029276451243474607 0 0.0029276451243474607 0.0093090252387503687 0 0 0 0.0073259772500206171 0.017488009181152619 -1.5242210814337721e-05 0 -1.5242210814337721e-05 0.011692642214466713 0 0 0 0.0072951628489048206 0.017462138370556383 5.0182931630517375e-05 0 5.0182931630517375e-05 0.014420465617147472 0 0 0 0.0079706509969259577 0.015343931654197472 -0.0014957110413647574 0 -0.0014957110413647574 0.012414626390434003 0 0 0 0.0069396395111578591 0.018217124002733825 -0.0013714642403909721 0 -0.0013714642403909721 0.02102832211716528 0 0 0 0.0098113615299747839 0.018616886212346799 0.0013113553575264981 0 0.0013113553575264981 0.015660387164840212 0 0 0 0.0085693183442967537 0.014356193702955371 -0.0028749356624537918 0 -0.0028749356624537918 0.018957508625470194 0 0 0 0.0083284255821063861 0.016227288300142736 -0.00386486427733824 0 -0.00386486427733824 0.024536818729786948 0 0 0 0.010191026757482426 0.014932587207272266 -0.0049641713324104185 0 -0.0049641713324104185 0.017212841900275937 0 0 0 0.0080363572768870489 0.019854183104755202 0.0021200668043437473 0 0.0021200668043437473 0.033856644651358604 0 0 0 0.013427706939028452 0.015231953935855502 -0.00020157735949673033 0 -0.00020157735949673033 0.02285945544646659 0 0 0 0.0095228523455805226 0.017417108228095474 -0.0014072387007077038 0 -0.0014072387007077038 0.028205159215308636 0 0 0 0.011405566860851028 0.01908172111563388 0.0014014467172528057 0 0.0014014467172528057 0.017435617621948223 0 0 0 0.009129334684395524 0.020549220194671473 0.0033224612684835085 0 0.0033224612684835085 0.02300994993248541 0 0 0 0.010889792531789219 0.020680638661364395 0.0031111569530999144 0 0.0031111569530999144 0.0228893523345765 0 0 0 0.010892497748985222 0.022284386054985943 0.0041063609207263319 0 0.0041063609207263319 0.013025690278918152 0 0 0 0.0088275190834760184 0.022200750685431286 0.0044636543116552303 0 0.0044636543116552303 0.013773621692113503 0 0 0 0.0089935930943862014 0.025605614976207877 0.0059937670382412701 0 0.0059937670382412701 0.010627053733414299 0 0 0 0.0090581671774055475 0.024926924918747741 0.0056259290946924752 0 0.0056259290946924752 0.0063887215135781175 0 0 0 0.0078289116080814663 0.022422398238651699 0.0041366578608818955 0 0.0041366578608818955 0.00312355766275026 0 0 0 0.0063864889753504888 0.021990026251401069 0.0050355641578080697 0 0.0050355641578080697 0.0072946530223436008 0 0 0 0.0073211698184361667 0.022838698655170693 0.0041771679133671483 0 0.0041771679133671483 0.0074261287191159826 0 0 0 0.0075662068435716767 0.017589171249660213 0.0023739245684239203 0 0.0023739245684239203 0.00663388619081412 0 0 0 0.006055764360118579 0.01756444853054066 0.0045755055923191925 0 0.0045755055923191925 0.0037055190246365003 0 0 0 0.0053174918887942879 0.019971067639075149 0.0045970263895228607 0 0.0045970263895228607 0.0039348059997189565 0 0 0 0.0059764684096985255 0.020603377392246085 0.004534041134079481 0 0.004534041134079481 0.0064395336504487373 0 0 0 0.0067607277606737031 0.020951464598332369 0.0042787953595636481 0 0.0042787953595636481 0.0021739857839162685 0 0 0 0.0057813625955621594 0.020678472289924216 0.0052688200754745108 0 0.0052688200754745108 0.0014258995049626216 0 0 0 0.0055260929487217043 0.017062149686516793 0.00496995474250333 0 0.00496995474250333 0.0016319480129387103 0 0 0 0.0046735244248638733 0.023410203440005772 0.0049147601899471923 0 0.0049147601899471923 0.0010712142845503252 0 0 0 0.0061203544311390235 0.023229826308392848 0.0038563427386675863 0 0.0038563427386675863 0.00091045839074234414 0 0 0 0.0060350711747837972 0.026131446522347591 0.0045707188704738524 0 0.0045707188704738524 0.0017552780957305354 0 0 0 0.0069716811545195295 0.024415306417476197 0.0039540408907639477 0 0.0039540408907639477 0.0015234545959237344 0 0 0 0.0064846902533499794 0.023131115427855294 0.0050593949806988711 0 0.0050593949806988711 0.0031633693140140371 0 0 0 0.0065736211854673281 0.0052078729269598506 0.006042707682355832 0 0.006042707682355832 0.0026153783775222546 0 0 0 0.0019558128261205256 0.010100942140721639 0.0050540306123258699 0 0.0050540306123258699 0.00096833150685654568 0 0 0 0.002767318411894544 0.0053522709190457563 0.006497665668912727 0 0.006497665668912727 0.00096032527657490159 0 0 0 0.0015781490489051638 0.013105930240032702 0.0044516818104630776 0 0.0044516818104630776 0.00046445844951423232 0 0 0 0.0033925971723867392 0.010935033865544373 0.0052652280385843834 0 0.0052652280385843834 0.0035855884052934731 0 0 0 0.0036301555677094657 0.013599059079798262 0.0046037891643643195 0 0.0046037891643643195 0.0026820867805239096 0 0 0 0.0040702864650805463 0.0150405328997731 0.0028111023631425393 0 0.0028111023631425393 0.0031940341796733163 0 0 0 0.0045586417698616089 0.015055995784914757 0.0055366636917370347 0 0.0055366636917370347 0.0044177206674828311 0 0 0 0.0048684291130993967 0.01662041151966568 0.004189438974441329 0 0.004189438974441329 0.0011646182034042094 0 0 0 0.0044462574307674793 0.013994981587387214 0.0046117552521999713 0 0.0046117552521999713 0.0017133426655479463 0 0 0 0.0039270810632337869 0.016759014402176711 0.0058536985164018753 0 0.0058536985164018753 0.00066933808124848906 0 0 0 0.0043570881208563009 0.011975425449165657 0.0063129392345248544 0 0.0063129392345248544 0.0019050556577259251 0 0 0 0.0034701202767228973 0.011117260552272801 0.0057873082858804275 0 0.0057873082858804275 0.00034573008892015838 0 0 0 0.002865747660298238 0.0059898771883141275 0.0062705051226282608 0 0.0062705051226282608 0.00048951070827184251 0 0 0 0.0016198469741464903 0.0050989505444365129 0.0076194434714978339 0 0.0076194434714978339 -9.5739458122003074e-05 0 0 0 0.0012508027715786314 0.0051648424640997372 0.006519886641008478 0 0.006519886641008478 0.0001718431999815917 0 0 0 0.0013341714160203348 0.00049073188094451471 0.0079770574656164387 0 0.0079770574656164387 -0.0001831407059499357 0 0 0 7.6897793748647789e-05 0.0034291296101184292 0.0086150305968998499 0 0.0086150305968998499 -0.00029002713020286227 0 0 0 0.00078477561997889259 -9.2341386644628765e-05 0.0075099633564503941 0 0.0075099633564503941 0.0004955582476897924 0 0 0 0.00010080421526129785 0.0038676619357260085 0.0064542013210381714 0 0.0064542013210381714 -0.00028502869228704333 0 0 0 0.00089565831085973956 0.0085146877752581302 0.0075455287153637259 0 0.0075455287153637259 0.00016948797405494376 0 0 0 0.0021710439373282698 0.0077225716269788249 0.0065976401158148153 0 0.0065976401158148153 0.00054131408915522247 0 0 0 0.0020659714290335125 0.009262100480558786 0.0078471856402609688 0 0.0078471856402609688 0.00036536799590044166 0 0 0 0.0024068671191148075 0.012043647748699308 0.0055463562774388259 0 0.0055463562774388259 0.00038680559021848915 0 0 0 0.0031076133347294494 0.012778624604166712 0.006183621599273173 0 0.006183621599273173 0.0011574097146470966 0 0 0 0.0034840085797034522 0.016277216827568667 0.00638749560081421 0 0.00638749560081421 0.00037350056475430292 0 0 0 0.004162679348080742 0.012865952295691773 0.0058212491857773351 0 0.0058212491857773351 0.0023599760316767131 0 0 0 0.0038064820818421211 0.01105700510868781 0.0081253911628285519 0 0.0081253911628285519 0.0013257291779048969 0 0 0 0.0030956835716481777 0.0096698418662750675 0.0070630050735806613 0 0.0070630050735806613 0.0032232899005607378 0 0 0 0.0032232829417089509 0.0057920723943228501 0.0093074043424896946 0 0.0093074043424896946 0.0003714872575838607 0 0 0 0.0015408899129766779 0.0035246850481445934 0.0076913003323156159 0 0.0076913003323156159 0.0011736253123145303 0 0 0 0.0011745775901147808 2.8971278411268897e-05 0.0099394268132001889 0 0.0099394268132001889 -0.00084593561494517022 0 0 0 -0.00020424108413347533 0.02270329787969138 0.0037680549142085039 0 0.0037680549142085039 0.0017852591350808328 0 0 0 0.0061221392536930565 0.023523497877446238 0.0042190355347725399 0 0.0042190355347725399 0.00082138810366001735 0 0 0 0.006086221495276563 0.020253071300538456 0.0047598783986085641 0 0.0047598783986085641 0.0010946244966811396 0 0 0 0.0053369239493048998 0.020242295103028555 0.0051475504813177633 0 0.0051475504813177633 0.0005762146141653126 0 0 0 0.0052046274292984682 0.016882041472940465 0.0052967989957871083 0 0.0052967989957871083 0.0017850768148728012 0 0 0 0.0046667795719533157 0.019083533649040824 0.0051281538156043461 0 0.0051281538156043461 0.0020801022334026864 0 0 0 0.0052909089706108768 0.015107060096762055 0.0059996344244508271 0 0.0059996344244508271 0.0050327932216614893 0 0 0 0.0050349633296058859 0.015204397545737033 0.0067944297275636025 0 0.0067944297275636025 0.0029738632537468792 0 0 0 0.0045445651998709787 0.018299939210469806 0.0051809865974765026 0 0.0051809865974765026 0.0060991546896024497 0 0 0 0.0060997734750180633 0.018500801620938763 0.005116102726139167 0 0.005116102726139167 0.0031576379605276223 0 0 0 0.0054146098953665959 0.022392496336540123 0.0034698691741797921 0 0.0034698691741797921 0.0037254022204898556 0 0 0 0.0065294746392574946 0.020658976283861038 0.0044324533924859312 0 0.0044324533924859312 0.0014737632453102121 0 0 0 0.0055331848822928135 0.019940405980297757 0.0041664013179526635 0 0.0041664013179526635 0.0034981781385813905 0 0 0 0.0058596460297197844 0.020382962550468443 0.004020779840592451 0 0.004020779840592451 0.0067935534769148088 0 0 0 0.0067941290068458142 0.021632788524619261 0.0024295425750126684 0 0.0024295425750126684 0.0027756637931019897 0 0 0 0.006102113079430314 0.023341285701090019 0.0011017479222025922 0 0.0011017479222025922 0.0077755136165360266 0 0 0 0.0077791998294065128 0.021319272117408247 0.00035974546846893765 0 0.00035974546846893765 0.0019740421719151072 0 0 0 0.005823328572330839 0.024958113371860057 0.00026410584411759206 0 0.00026410584411759206 0.0028875698208562961 0 0 0 0.0069614207981790891 0.024700568785147287 0.0016797212612688212 0 0.0016797212612688212 0.0018502186681300936 0 0 0 0.0066376968633193468 0.025252133343162505 0.0024498460333325562 0 0.0024498460333325562 0.0011486615389389018 0 0 0 0.0066001987205253545 0.024083687185927554 0.0011966283255105709 0 0.0011966283255105709 0.00015690851001576582 0 0 0 0.0060601489239858301 0.02708845329600415 0.0013184917177880215 0 0.0013184917177880215 0.0010995035479915113 0 0 0 0.0070469892109989154 0.025226448240148691 0.002230857149924147 0 0.002230857149924147 -0.00067898754093841151 0 0 0 0.0061368651748025683 0.025928853980034378 0.00015886695430448712 0 0.00015886695430448712 -0.0019138096801364682 0 0 0 0.006003761074974477 0.023920725618888933 -0.0027323280598532543 0 -0.0027323280598532543 -0.0023888540317384653 0 0 0 0.0053829678967876188 0.025297010898299346 -0.0009452934569369408 0 -0.0009452934569369408 0.00034796343264587894 0 0 0 0.0064112435827363059 0.024055448090362839 -0.00070197406132104108 0 -0.00070197406132104108 0.00091348535643201705 0 0 0 0.0062422333616987125 0.023040559268523619 -0.00087032523541538404 0 -0.00087032523541538404 0.00768155020746078 0 0 0 0.0076805273689960997 0.022610054241775576 -0.0027031614744192209 0 -0.0027031614744192209 0.0075306484109512869 0 0 0 0.007535175663181716 0.020934526495970569 -0.0023748158703880938 0 -0.0023748158703880938 0.0022160361684496412 0 0 0 0.0057876406661050497 0.018803613599095572 -0.0054170763312505745 0 -0.0054170763312505745 0.0062663009441150932 0 0 0 0.0062674786358026648 0.022719102991572183 -0.0032793176205482459 0 -0.0032793176205482459 0.00184457620887931 0 0 0 0.0061409198001128734 0.017996150024964311 -0.0054357945446157421 0 -0.0054357945446157421 -5.4178152124391421e-05 0 0 0 0.0044854929682099816 0.011510429745248577 -0.0079049017936408863 0 -0.0079049017936408863 0.0038332190528048769 0 0 0 0.0038359121995133636 0.012542667219762989 -0.0089767127411491815 0 -0.0089767127411491815 -0.0017894020146362322 0 0 0 0.0026883163012816893 0.0056735732574849321 -0.011487975004440692 0 -0.011487975004440692 -0.0025877391792498115 0 0 0 0.00077145851955877885 0.012279775512299666 -0.0090506414167958425 0 -0.0090506414167958425 -0.0045302997509352391 0 0 0 0.0019373689403411071 0.014729489415114301 -0.0068470689218483455 0 -0.0068470689218483455 -0.0027343492956354333 0 0 0 0.0029987850298697147 0.01824579179716691 -0.0056884161604388028 0 -0.0056884161604388028 -0.00041067201242884696 0 0 0 0.0044587799461845148 0.0096848744613319687 -0.0083800117554175199 0 -0.0083800117554175199 -0.0024799499008012482 0 0 0 0.0018012311401326801 0.018020186658621457 -0.005880914338483742 0 -0.005880914338483742 -0.002811301379974214 0 0 0 0.0038022213196618089 0.023562986880612612 -0.0035279864293813806 0 -0.0035279864293813806 -0.0037480290551641501 0 0 0 0.0049537394563621134 0.024693542456684339 -0.0018612907649241542 0 -0.0018612907649241542 -0.0012245152572227785 0 0 0 0.0058672567998653939 0.025571393735350435 -0.0025590515664620037 0 -0.0025590515664620037 -0.0022263400218464919 0 0 0 0.0058362634283759861 0.025076889919752779 -0.0022874522888221946 0 -0.0022874522888221946 -0.0035943587886479479 0 0 0 0.0053706327827762034 0.03064158772594576 -0.00019526367727046474 0 -0.00019526367727046474 -0.0025613313733003338 0 0 0 0.0070200640881613579 0.020582807851880158 -0.0062342217872806208 0 -0.0062342217872806208 -0.0050572111983307744 0 0 0 0.003881399163387346 0.015856839921421902 -0.0086922449211929084 0 -0.0086922449211929084 -0.0044418583729108271 0 0 0 0.0028537453871277721 0.020436568998078906 -0.0058758784905468481 0 -0.0058758784905468481 -0.0040519351610108709 0 0 0 0.0040961584592670089 0.02200185923941541 -0.0039682584261906701 0 -0.0039682584261906701 -0.0030959589842183121 0 0 0 0.004726475063799267 0.012288036859563728 -0.0085491188812256858 0 -0.0085491188812256858 -0.0053742813654284582 0 0 0 0.0017284388735338192 0.020664925564715841 -0.0088567049181303929 0 -0.0088567049181303929 -0.0053269330521655625 0 0 0 0.0038344981281375652 0.024645938368924664 -0.0065831358306117273 0 -0.0065831358306117273 -0.0030933502974771834 0 0 0 0.0053881470178618711 0.023108944967023076 -0.0054890884677587515 0 -0.0054890884677587515 -0.0039214394653830694 0 0 0 0.0047968763754100037 0.033047046846303108 -0.00205128504838361 0 -0.00205128504838361 -0.00082769004678798577 0 0 0 0.0080548391998787779 0.024492937110336298 -0.0081686253387170671 0 -0.0081686253387170671 -0.0013711418127177021 0 0 0 0.0057804488244046458 0.02392916990155057 -0.0078344636174008647 0 -0.0078344636174008647 -0.0016806190516407797 0 0 0 0.0055621377124774486 0.028494035251301657 -5.5341536463159266e-05 0 -5.5341536463159266e-05 -0.0014046827793199432 0 0 0 0.0067723381179954287 0.029336853724234078 -0.0039893462040671169 0 -0.0039893462040671169 -0.0030982841940827414 0 0 0 0.0065596423825378313 0.032986328297969464 0.00055570540640900658 0 0.00055570540640900658 -0.0017629639483189101 0 0 0 0.007805841087412637 0.037755342081018939 0.0034946122003582832 0 0.0034946122003582832 0.0031395460478277765 0 0 0 0.01022372203221167 0.032408319641883648 0.0042316839324026455 0 0.0042316839324026455 0.0031980327584943159 0 0 0 0.0089015881000944867 0.033922067464292681 0.003631462225366866 0 0.003631462225366866 0.0041687985843531072 0 0 0 0.0095227165121614457 0.031033104588934154 0.0025619548020653282 0 0.0025619548020653282 -0.00020714185694276858 0 0 0 0.00770649068299785 0.030942967374976565 0.0050822911079157172 0 0.0050822911079157172 0.0030680146729024473 0 0 0 0.008502745511969759 0.032009689663853438 0.0065325609245233968 0 0.0065325609245233968 0.007896574178907715 0 0 0 0.009976565960690284 0.029468286740381641 0.004448742624691979 0 0.004448742624691979 0.0037829581201203038 0 0 0 0.0083128112151254832 0.028926164121917605 0.0064989064211941928 0 0.0064989064211941928 0.0080418646380765423 0 0 0 0.0092420071899985412 0.026169393845235121 0.00490982588649835 0 0.00490982588649835 0.0036172889983530601 0 0 0 0.0074466707108970451 0.025544911362370314 0.0045381050543828461 0 0.0045381050543828461 0.0034938294387241234 0 0 0 0.0072596852002736077 0.027845990551143195 0.0032553993056818145 0 0.0032553993056818145 0.00054655764155773362 0 0 0 0.0070981370481752321 0.028864060012033097 0.0040736086517252738 0 0.0040736086517252738 0.0015494932234422082 0 0 0 0.007603388308868822 0.025477228802140064 0.0030156939065967294 0 0.0030156939065967294 -0.00025154554763852539 0 0 0 0.0063064208136253876 0.028418431613867069 0.0025470889285961122 0 0.0025470889285961122 0.00044126076962395708 0 0 0 0.0072149230958727601 0.026566293624560137 0.0013909937248896545 0 0.0013909937248896545 -0.0014483383640785251 0 0 0 0.0062794888151204032 0.02804310688171488 0.00083599514085398751 0 0.00083599514085398751 -0.00080778682076452298 0 0 0 0.0068088300152375899 0.027473619243891235 -0.001383882975637009 0 -0.001383882975637009 -0.0021716059928494863 0 0 0 0.0063255033127604422 0.028555995011131201 0.0021214149151996854 0 0.0021214149151996854 -0.00035391012913488576 0 0 0 0.0070505212204990762 0.030451911764280745 0.0024420842678902267 0 0.0024420842678902267 -0.00061495375755565439 0 0 0 0.0074592395016812741 -0.051559038479397162 -0.0035174114996616517 0 -0.0035174114996616517 -0.0021014883955212424 0 0 0 -0.013415131718729595 -0.036083398496498498 -0.0094210970793061483 0 -0.0094210970793061483 -0.0010065611663336999 0 0 0 -0.0092724899157080494 -0.040111164574810065 -0.0044139941284559465 0 -0.0044139941284559465 -0.00029240276837882648 0 0 0 -0.010100891835797226 -0.035444998568062394 -0.0063262472926145967 0 -0.0063262472926145967 0.0027688041504771747 0 0 0 -0.008169048604396302 -0.032151018713591648 -0.0041752476469544796 0 -0.0041752476469544796 0.0023728453041938786 0 0 0 -0.0074445433523494444 -0.031918367316530701 -0.002649470972475922 0 -0.002649470972475922 -0.0038051795216745826 0 0 0 -0.0089308867095513212 -0.029927561527681619 -0.0034910079342622569 0 -0.0034910079342622569 -0.0099561562945757482 0 0 0 -0.0099709294555643414 -0.030445652140771426 -0.0047847713429417689 0 -0.0047847713429417689 -0.0041148600124422882 0 0 0 -0.0086401280383034268 -0.029659534606531073 -0.0084042831271717786 0 -0.0084042831271717786 -0.0027720522428194456 0 0 0 -0.0081078967123376262 -0.0267834888096193 -0.008769499767916536 0 -0.008769499767916536 -0.0017215407632578134 0 0 0 -0.007126257393219277 -0.02304012788692357 -0.008833062666681317 0 -0.008833062666681317 -0.0076842880818672197 0 0 0 -0.0076811039921976972 -0.02303497251797481 -0.0088364689043285254 0 -0.0088364689043285254 -0.0076679086165718493 0 0 0 -0.0076757202836366641 -0.025737427004437669 -0.010469856434312799 0 -0.010469856434312799 -0.0031315892598140493 0 0 0 -0.0072172540660629288 -0.017608038431069128 -0.010733046733333399 0 -0.010733046733333399 -0.00098420415903545388 0 0 0 -0.0046480606475261437 -0.029086552300312724 -0.0097248930426046959 0 -0.0097248930426046959 0.00049059168020067559 0 0 0 -0.0071489901550280122 -0.041791692212920638 -0.0096936161595635451 0 -0.0096936161595635451 -0.0015773738414177167 0 0 0 -0.010842266513584581 -0.016789254710880441 -0.012837085617784131 0 -0.012837085617784131 -0.00064071336678154373 0 0 0 -0.0043574920194154945 -0.030889111547527652 -0.011740276716749411 0 -0.011740276716749411 -0.0028064638155033406 0 0 0 -0.0084238938407577499 -0.014810479021778823 -0.01088832087452318 0 -0.01088832087452318 -0.0023931871855608442 0 0 0 -0.0043009165518349138 -0.011716205409842773 -0.011131843498655284 0 -0.011131843498655284 -0.0038441528813376522 0 0 0 -0.0038900895727951041 -0.014737436551196944 -0.01351283751762156 0 -0.01351283751762156 -0.0027213780552842806 0 0 0 -0.0043647036516203021 -0.013328334602424795 -0.012438256300400036 0 -0.012438256300400036 -0.0015521087955786828 0 0 0 -0.0037201108495008677 -0.014187565758836436 -0.011807693120559976 0 -0.011807693120559976 -0.0037709705148264347 0 0 0 -0.0044896340684157168 -0.0059493205884387015 -0.010251158094073006 0 -0.010251158094073006 -0.0019888434810899289 0 0 0 -0.0019845410173821576 -0.005387304654346543 -0.012195309707363811 0 -0.012195309707363811 -0.0032795273301642232 0 0 0 -0.0021667079961276928 -0.0025159844326831946 -0.0096928177077951483 0 -0.0096928177077951483 -0.0013297649763885063 0 0 0 -0.00096143735226792652 -0.002966989328900738 -0.012962612696689186 0 -0.012962612696689186 -0.0026172287946133604 0 0 0 -0.0013960545308785259 0.0030989642708416955 -0.0096298201916780735 0 -0.0096298201916780735 0.0010340637539435142 0 0 0 0.0010332570061963025 0.0083709188015003069 -0.0080050309474295426 0 -0.0080050309474295426 -0.00063082555537432791 0 0 0 0.001935023311531495 0.0035339705177332148 -0.012248266630811518 0 -0.012248266630811518 -0.003806405190641883 0 0 0 -6.8108668227165325e-05 0.00031093237576906158 -0.01199736620913913 0 -0.01199736620913913 -0.003837670779825636 0 0 0 -0.00088168460101414534 0.00083135670876873218 -0.0097241404154404191 0 -0.0097241404154404191 -0.0033998031665042183 0 0 0 -0.00064211161443387 0.0082955637911452836 -0.011758137875885769 0 -0.011758137875885769 -0.006241385481788049 0 0 0 0.0005135445773393095 0.012938115651880112 -0.0093607621959724309 0 -0.0093607621959724309 -0.0039586614849777772 0 0 0 0.0022448635417255812 0.0011642821812653144 -0.013703385924618462 0 -0.013703385924618462 -0.0060233422741549983 0 0 0 -0.0012147650232224201 0.012334346289591097 -0.011541098282690905 0 -0.011541098282690905 -0.0053091594264174577 0 0 0 0.0017562967157934081 0.0018680096039214876 -0.011707832685416003 0 -0.011707832685416003 -0.0010184403684679209 0 0 0 0.00021239230886339173 -0.0026100433410114147 -0.015432436814445168 0 -0.015432436814445168 -0.0040848457976303161 0 0 0 -0.0016737222846604314 0.01123134247488294 -0.010324818256851349 0 -0.010324818256851349 -0.0019797502815081386 0 0 0 0.0023128980483437013 -0.0021247832344294757 -0.013952086804968126 0 -0.013952086804968126 -0.002193016047176137 0 0 0 -0.001079449820401401 0.00017562768704338771 -0.016525997353938105 0 -0.016525997353938105 -0.00080176745210378333 0 0 0 -0.00015653494126509869 -0.017829814477681852 -0.014159743362121462 0 -0.014159743362121462 -0.0047545599034222973 0 0 0 -0.0056460935952760338 -0.016111077884670061 -0.015307124357661073 0 -0.015307124357661073 -0.0032432251744214553 0 0 0 -0.0048385757647728782 -0.017336016394056374 -0.012469340321122267 0 -0.012469340321122267 -0.0012118009979647099 0 0 0 -0.0046369543480052691 -0.0014428620436316535 -0.012034981339865023 0 -0.012034981339865023 -0.0019356231192232121 0 0 0 -0.00084462129071371725 -0.010596515762367434 -0.013702172981185826 0 -0.013702172981185826 -0.0043958157700688116 0 0 0 -0.0037480828831090614 -0.027917327737737377 -0.012864353332252013 0 -0.012864353332252013 -0.0025440751420562728 0 0 0 -0.0076153507199484081 -0.026300643523491846 -0.011827324846046561 0 -0.011827324846046561 0.00099144436079467296 0 0 0 -0.0063272997906742897 -0.036889124306279282 -0.010739611787392505 0 -0.010739611787392505 0.0001100541467882396 0 0 0 -0.0091947675398727606 -0.028071048137854694 -0.016027374069460382 0 -0.016027374069460382 -4.0711503873171184e-05 0 0 0 -0.007027939910431962 -0.035060289350092491 -0.011927321157546668 0 -0.011927321157546668 -0.0027142668484124721 0 0 0 -0.0094436390496262408 -0.019235510723298568 -0.017897081190808194 0 -0.017897081190808194 -0.00020785737232453978 0 0 0 -0.0048608420239057782 -0.035086587331159699 -0.014020242304372859 0 -0.014020242304372859 0.0016832255183027809 0 0 0 -0.0083508404532142335 -0.055247667631566612 -0.0097459165879342103 0 -0.0097459165879342103 -0.0027710322704267674 0 0 0 -0.014504674975498349 -0.0591652250325711 -0.011185178260316037 0 -0.011185178260316037 -0.00098405014126535899 0 0 0 -0.015037318793459112 -0.07350637554176899 -0.0064167872957534462 0 -0.0064167872957534462 -0.00026034094669563634 0 0 0 -0.018441679122116146 -0.052491167590093542 -0.0051227717976414441 0 -0.0051227717976414441 0.00024805041564436234 0 0 0 -0.013060779293612299 -0.062009920023475114 -0.0059941448074480146 0 -0.0059941448074480146 -0.00046184226135137681 0 0 0 -0.015617940571206624 -0.038095954668627266 -0.011751812332995533 0 -0.011751812332995533 -0.00042526961328019641 0 0 0 -0.0096303060704768587 -0.051851584672165024 -0.0045369220045352668 0 -0.0045369220045352668 -0.0027844357126801215 0 0 0 -0.013659005096211298 -0.039128882036580222 -0.0079066447417008856 0 -0.0079066447417008856 0.0019692495032257468 0 0 0 -0.0092899081333386192 -0.075678548147806016 -0.0051406715361430738 0 -0.0051406715361430738 0.0039949658361531776 0 0 0 -0.017920895577913223 -0.1104285831735517 2.0170191377538726e-05 0 2.0170191377538726e-05 0.00072780796410944204 0 0 0 -0.02742519380236056 -0.070743986771799272 -0.0118450230913395 0 -0.0118450230913395 0.0044177725082228947 0 0 0 -0.016581553565894094 -0.068442892372585412 -0.0017709849355033447 0 -0.0017709849355033447 0.0026310282395080251 0 0 0 -0.016452966033269345 -0.096732199512689743 -0.0043543500203436815 0 -0.0043543500203436815 0.0018520873976187527 0 0 0 -0.023720028028767735 -0.083714215344169535 -0.0057799205007375808 0 -0.0057799205007375808 0.00014846614242894005 0 0 0 -0.020891437300435162 -0.056779418706711632 -0.0062577873920890599 0 -0.0062577873920890599 0.0012480262972800298 0 0 0 -0.01388284810235791 -0.064907014952328396 -0.0050317989519361008 0 -0.0050317989519361008 0.0012680040021615727 0 0 0 -0.015909752737541714 -0.06215805467411406 -0.013314291656111372 0 -0.013314291656111372 0.0029043007683566824 0 0 0 -0.014813438476439343 -0.036486469700659101 -0.013764859369075047 0 -0.013764859369075047 0.003281961569863448 0 0 0 -0.0083011270326989201 -0.037495039919776096 -0.013670421039699241 0 -0.013670421039699241 2.1479394467248392e-05 0 0 0 -0.0093683901313272016 -0.024900453984088657 -0.013221560269021521 0 -0.013221560269021521 -0.0033368152590994584 0 0 0 -0.0070593173107970173 -0.036217140800186336 -0.017793334943204533 0 -0.017793334943204533 0.0065599189045935646 0 0 0 -0.0074143054738981945 -0.047804297205299461 -0.0081762910857076584 0 -0.0081762910857076584 0.0022393439162696135 0 0 0 -0.011391238322257446 -0.038891961647773636 -0.0048697812936167317 0 -0.0048697812936167317 0.0066664667815264454 0 0 0 -0.0080563737165618085 -0.0079080699494373068 -0.013172259756680023 0 -0.013172259756680023 0.0087353101143369805 0 0 0 0.00020681004122492797 -0.0038804192547093955 -0.011067865840123856 0 -0.011067865840123856 0.019990990636658781 0 0 0 0.0040276428454873517 0.0091909247103645238 -0.016798726492444009 0 -0.016798726492444009 0.0067602532508565238 0 0 0 0.0039877944903052645 -0.028971112452442441 -0.011544064761326732 0 -0.011544064761326732 0.0087846539783152378 0 0 0 -0.0050466146185317966 -0.011427463710727092 -0.016654529009480088 0 -0.016654529009480088 0.0042925989002969307 0 0 0 -0.0017837162026075417 -0.027860856748574289 -0.01849166169022403 0 -0.01849166169022403 0.0019690463905826829 0 0 0 -0.0064729525894978955 -0.012788555081338682 -0.019387243971817122 0 -0.019387243971817122 -0.0010996280653101896 0 0 0 -0.0034720457866622197 -0.0095074564807912688 -0.014243812749495663 0 -0.014243812749495663 0.0015041931200202932 0 0 0 -0.0020008158401927456 0.0048114226718237105 -0.017526676066641104 0 -0.017526676066641104 0.0020782323179070403 0 0 0 0.0017224137474326877 -0.010563055027022232 -0.013635197995871304 0 -0.013635197995871304 0.0050922442996299555 0 0 0 -0.0013677026818480643 0.005843835160169784 -0.012220868448523263 0 -0.012220868448523263 0.0024973053909065476 0 0 0 0.0020852851377690836 0.021497172443760225 -0.015136730520493587 0 -0.015136730520493587 0.0031275937930975092 0 0 0 0.006156191559214437 0.014548965403186464 -0.014978346497315692 0 -0.014978346497315692 -0.00050758521391750747 0 0 0 0.0035103450473172389 0.028622909644912698 -0.011636417863507532 0 -0.011636417863507532 0.0011252711232808237 0 0 0 0.0074370451920483744 0.014951732144004557 -0.0098293945262989367 0 -0.0098293945262989367 -0.00061566660652828849 0 0 0 0.0035840163843690672 0.022805654197401097 -0.0082242515702745708 0 -0.0082242515702745708 0.0066684268129317895 0 0 0 0.0073685202525832268 0.038021600629248233 -0.01230871868869797 0 -0.01230871868869797 0.0097423684415080536 0 0 0 0.01194099226768907 0.011294651172567238 -0.011262805381921016 0 -0.011262805381921016 0.012082950624676916 0 0 0 0.0058444004493110428 0.030662883251355556 -0.014227570223672485 0 -0.014227570223672485 0.013944668000891933 0 0 0 0.011151887813061867 0.030450369494211101 -0.0064308120975379527 0 -0.0064308120975379527 0.020264391166130963 0 0 0 0.012678690165085514 0.048163847794933108 -0.0017074601459044873 0 -0.0017074601459044873 0.039284720370476867 0 0 0 0.021862142041352485 0.053224606390569668 -0.012559410882644589 0 -0.012559410882644589 0.029586266009057657 0 0 0 0.020702718099906842 0.018472338533367008 -0.0065005681554227424 0 -0.0065005681554227424 0.024866183726070107 0 0 0 0.010834630564859282 0.0098790818561827892 -0.01719135191553077 0 -0.01719135191553077 0.026872826078423853 0 0 0 0.0091879769836516537 0.036585609280166465 -0.016985966918339576 0 -0.016985966918339576 0.055238200405854809 0 0 0 0.022955952421505305 0.053303371486249723 -0.0091694840463686367 0 -0.0091694840463686367 0.10158764181726621 0 0 0 0.038722753325878961 0.056341146412014778 0.016081096927255345 0 0.016081096927255345 0.087794845862983917 0 0 0 0.03603399806874967 0.048122277996583807 0.013812284231674913 0 0.013812284231674913 0.10715138025912752 0 0 0 0.038818414563927817 0.036058197024288974 0.011881196471971278 0 0.011881196471971278 0.067862810105239646 0 0 0 0.025980251782382113 0.019239429015451254 -0.0052328908717025682 0 -0.0052328908717025682 0.050982053878193601 0 0 0 0.017555370723411207 0.030913335056527463 0.0030600522045048095 0 0.0030600522045048095 0.05434863602119816 0 0 0 0.021315492769431399 0.0096781227229331898 0.020576307138890831 0 0.020576307138890831 0.058733749314607536 0 0 0 0.017102968009385176 -0.004964645767681547 0.011197845500234532 0 0.011197845500234532 0.032437627643500666 0 0 0 0.0068682454689547867 -0.019510633425461013 0.015298549041881826 0 0.015298549041881826 0.04078004369246907 0 0 0 0.0053173525667520455 -0.01037842021668417 -0.003490292189192023 0 -0.003490292189192023 0.01885915738722127 0 0 0 0.0021201842926342751 -0.026737632556246827 0.0013240146960128707 0 0.0013240146960128707 0.019636760656801908 0 0 0 -0.0017752179748612333 -0.00078465327286746794 -0.0014395578788954783 0 -0.0014395578788954783 0.048203268838088398 0 0 0 0.011854653891305252 -0.026085969675605628 -0.013610395584444906 0 -0.013610395584444906 0.021522778386535935 0 0 0 -0.0011407978222674336 -0.049887543982425717 -0.01140916245458462 0 -0.01140916245458462 0.0093229144405176378 0 0 0 -0.010141157385477009 -0.052608599092421701 0.0012277425031452932 0 0.0012277425031452932 0.0093091117333538032 0 0 0 -0.010824871839766978 -0.03596833494952735 -0.0076089718323667233 0 -0.0076089718323667233 0.017405768765958562 0 0 0 -0.0046406415458921657 -0.046311400685943166 0.010807097895573659 0 0.010807097895573659 0.01812065433339656 0 0 0 -0.0070476865881366445 -0.029671788648782588 0.0083003181904610646 0 0.0083003181904610646 0.012028686405170741 0 0 0 -0.0044107755609029964 -0.05835132409593391 0.016333336608908733 0 0.016333336608908733 0.0090618905148083934 0 0 0 -0.0123223583952814 -0.047598209465962299 0.0099812585230626277 0 0.0099812585230626277 0.022141449226278254 0 0 0 -0.0063641900599210044 -0.052834696411825394 0.0018875803989230888 0 0.0018875803989230888 0.0083307534797728566 0 0 0 -0.011125985733013155 -0.074213304420048226 0.0070580831135702016 0 0.0070580831135702016 0.0086622114821657825 0 0 0 -0.016387773234470604 -0.070699213898055391 0.002508235610969356 0 0.002508235610969356 0.0044121927024425855 0 0 0 -0.016571755298903146 -0.10843888242435466 0.0036009181449736527 0 0.0036009181449736527 0.0058421091145208215 0 0 0 -0.025649193327458394 -0.080149879573611138 -0.00061676285441092382 0 -0.00061676285441092382 0.0031253220282577154 0 0 0 -0.019256139386338356 -0.11567417560391487 -0.0023743362076930202 0 -0.0023743362076930202 0.0038091217720033765 0 0 0 -0.027966263457977883 -0.083839322737141272 0.0023908025629302693 0 0.0023908025629302693 0.0013045510579131059 0 0 0 -0.020633692919807031 -0.066881284397123902 -0.0071558571771615648 0 -0.0071558571771615648 0.005850934059295515 0 0 0 -0.015257587584457111 -0.081597478826760078 -0.0089195057579632003 0 -0.0089195057579632003 0.003964268367786572 0 0 0 -0.019408302614743356 0.03675967925796815 0.011834367033517337 0 0.011834367033517337 0.022450072879158706 0 0 0 0.014802438034281721 0.039299922024487663 0.012999090773434677 0 0.012999090773434677 0.028762857085547003 0 0 0 0.017015694777508666 0.041466066962292839 0.013542422010166155 0 0.013542422010166155 0.029446864594562132 0 0 0 0.017728232889213741 0.032299387639500771 0.010778742134695783 0 0.010778742134695783 0.033955567447495436 0 0 0 0.016563738771749045 0.024567930156767597 0.0069161366296218709 0 0.0069161366296218709 0.035632131791847349 0 0 0 0.015050015487153737 0.027340612115731418 0.0082294605207038941 0 0.0082294605207038941 0.022669368782179494 0 0 0 0.012502495224477741 0.019678980302690715 0.0042660286364714734 0 0.0042660286364714734 0.024109308950159256 0 0 0 0.010947072313212496 0.031793201458387536 0.0099931542413027111 0 0.0099931542413027111 0.024218279163792735 0 0 0 0.014002870155545065 0.025636801507300716 0.0060941873879679 0 0.0060941873879679 0.01442165768712558 0 0 0 0.010014614798606575 0.025697861114894499 0.0069356923557171955 0 0.0069356923557171955 0.019725765782847529 0 0 0 0.011355906724435504 0.02574449849011088 0.0050367829862690127 0 0.0050367829862690127 0.0079784900961781847 0 0 0 0.0084307471465722705 0.029952174573512749 0.0082008717590217051 0 0.0082008717590217051 0.015002930576684895 0 0 0 0.011238776287549407 0.031223101285315712 0.0065817076683316288 0 0.0065817076683316288 0.0076544627859114825 0 0 0 0.0097193910178067968 0.03112313243449907 0.007968553912071491 0 0.007968553912071491 0.016830058317079268 0 0 0 0.01198829768789458 0.035695271816916403 0.0098065141378428349 0 0.0098065141378428349 0.014545192412798346 0 0 0 0.012560116057428676 0.037227894388463488 0.0059245165429864287 0 0.0059245165429864287 0.0073561914406243701 0 0 0 0.011146021457271973 0.033389722128479113 0.0051053758753675351 0 0.0051053758753675351 0.0067283729268062913 0 0 0 0.010029523763821359 0.032131681583449784 -0.001852797856610045 0 -0.001852797856610045 0.00053284036315698335 0 0 0 0.0081661304866516883 0.040756942684411546 0.0013632067468443178 0 0.0013632067468443178 0.008897783619196041 0 0 0 0.012413681575901902 0.039014331876481095 0.0027689867241822343 0 0.0027689867241822343 0.0058676430527452644 0 0 0 0.011220493732306585 0.040556755492338475 0.008959386009611086 0 0.008959386009611086 0.01498478570588771 0 0 0 0.013885385299556546 0.02999892534742581 -0.0043070381736335615 0 -0.0043070381736335615 0.0020037470935364765 0 0 0 0.0080006681102405761 0.036890217611488432 -0.0064967673992704211 0 -0.0064967673992704211 0.0043395178026805828 0 0 0 0.010307433853542252 0.040911783955626189 -0.00040763955181537248 0 -0.00040763955181537248 0.011474762868770978 0 0 0 0.013096636706099294 0.047457745321991138 -0.0038157789909971495 0 -0.0038157789909971495 0.018601510493146622 0 0 0 0.016514813953784437 0.056458464115574813 0.0057012939098379511 0 0.0057012939098379511 0.027803054632427292 0 0 0 0.021065379687000521 0.04609234415142556 0.0092182406680296411 0 0.0092182406680296411 0.016583753321347105 0 0 0 0.015669024368193167 0.052638523763058068 0.0071737013698786236 0 0.0071737013698786236 0.015722802595518851 0 0 0 0.017090331589644219 0.046098607093545546 0.0092567913263536319 0 0.0092567913263536319 0.024668808945425752 0 0 0 0.017691854009742828 0.058932763416863661 0.01133765507052497 0 0.01133765507052497 0.027886089072592393 0 0 0 0.021704713122364015 0.050587151267708526 0.018359463793249535 0 0.018359463793249535 0.049577798554198943 0 0 0 0.025041237455476865 0.076623571670110718 0.020952124169593345 0 0.020952124169593345 0.048516111062312767 0 0 0 0.031284920683105878 0.06455880499499235 0.01902345492488831 0 0.01902345492488831 0.074491350693432185 0 0 0 0.034762538922106123 0.048781651671335406 0.02019993191917651 0 0.02019993191917651 0.074439270012294181 0 0 0 0.030805230420907388 0.056386172598151818 0.016328843439917123 0 0.016328843439917123 0.051563344509121534 0 0 0 0.026987379276818352 0.075193527445137451 -0.0026222650326448715 0 -0.0026222650326448715 0.043014966422809955 0 0 0 0.029552123466986865 0.079130536454625144 0.0080536977550018235 0 0.0080536977550018235 0.066576618825892692 0 0 0 0.036426788820129459 0.081994361766895341 -0.012639618964376528 0 -0.012639618964376528 0.057497569635871687 0 0 0 0.034872982850691764 0.14906999004528718 -0.0080691526535485586 0 -0.0080691526535485586 0.09681421599057613 0 0 0 0.061471051508965834 0.10113624623606615 -0.0030171948827169559 0 -0.0030171948827169559 0.20336992552914357 0 0 0 0.076126542941302416 0.1410383848628379 0.060725255608472667 0 0.060725255608472667 0.14662562995952166 0 0 0 0.07191600370558987 0.070465028065904572 0.03341009825957985 0 0.03341009825957985 0.12338888267231542 0 0 0 0.048463477684554994 0.034232212781808935 0.012012295747824399 0 0.012012295747824399 0.071423323562437677 0 0 0 0.026413884086061656 0.067647776198386536 0.021501805497342215 0 0.021501805497342215 0.076289438015392064 0 0 0 0.03598430355344466 0.038415346996418374 -0.01622718541296933 0 -0.01622718541296933 0.14048987350573353 0 0 0 0.044726305125537984 0.027010097703170841 -0.017175432692312441 0 -0.017175432692312441 0.075959454234068816 0 0 0 0.025742387984309893 0.027875273104332902 -0.017125959258573589 0 -0.017125959258573589 0.081746207528293383 0 0 0 0.027405370158156563 0.036291232192052485 0.011189178613238385 0 0.011189178613238385 0.076836635496236358 0 0 0 0.028281966922072237 0.034026127311334892 0.011532156509102613 0 0.011532156509102613 0.045449103744228919 0 0 0 0.019868807763890967 0.030996575773631557 0.0078461276239578173 0 0.0078461276239578173 0.069291576686426062 0 0 0 0.025072038115014402 0.020282019991595783 0.0015393658136511985 0 0.0015393658136511985 0.044415776144653155 0 0 0 0.01617444903406224 0.028358724022280263 0.0084954036960881493 0 0.0084954036960881493 0.054110775357009894 0 0 0 0.020617374844822546 0.029278348811394475 0.0099111243611172441 0 0.0099111243611172441 0.032426441438721865 0 0 0 0.015426197562529092 0.037674560485349035 0.015282964274589795 0 0.015282964274589795 0.049578657351576211 0 0 0 0.021813304459231315 0.019059273986646134 0.0038619212598884458 0 0.0038619212598884458 0.03225361186912222 0 0 0 0.012828221463942073 0.020401923932379329 0.0024719320564303114 0 0.0024719320564303114 0.043810921694640251 0 0 0 0.016053211406754905 0.024036424308307811 -0.016137587720878054 0 -0.016137587720878054 0.048867853035841721 0 0 0 0.018226069336037383 0.017071751731907135 -0.0064118075576783048 0 -0.0064118075576783048 0.042472557649689872 0 0 0 0.014886077345399255 0.014472759287755701 -0.0048993667835776876 0 -0.0048993667835776876 0.03850470564579879 0 0 0 0.013244366233388627 0.022629052771466377 -0.0010328695555013347 0 -0.0010328695555013347 0.058339601192462641 0 0 0 0.020242163490982245 0.021016021862475753 -0.014258960084686578 0 -0.014258960084686578 0.035891865582850638 0 0 0 0.014226971861331598 0.018678750205389595 -0.014922396788444665 0 -0.014922396788444665 0.02764148727822946 0 0 0 0.011580059370904755 0.031638678458918761 -0.02222269592395773 0 -0.02222269592395773 0.031568000470226683 0 0 0 0.015801669732286354 0.026471375755089774 -0.021251187422261807 0 -0.021251187422261807 0.012627513023944104 0 0 0 0.0097747221947584867 0.02104192699233555 -0.015107418150884457 0 -0.015107418150884457 0.010462621370663672 0 0 0 0.007876137090749788 0.03180671068641696 -0.018450683682306429 0 -0.018450683682306429 0.013650657155481237 0 0 0 0.011364341960474551 0.032099675170285433 -0.017971022417395364 0 -0.017971022417395364 0.014553557507281101 0 0 0 0.011663308169391637 0.026533960391182082 -0.014256404467804504 0 -0.014256404467804504 0.0011744203128729036 0 0 0 0.0069270951760137534 0.041345148036110113 -0.0097302507581727513 0 -0.0097302507581727513 0.0043352452871820435 0 0 0 0.011420098330823025 0.036624478872612554 -0.01300872208760899 0 -0.01300872208760899 -0.0038178355315254264 0 0 0 0.0082016608352717749 0.041104364330043788 -0.017178095710609145 0 -0.017178095710609145 0.0022638574736806305 0 0 0 0.010842055450931101 0.054417922084940264 -0.030757465236533901 0 -0.030757465236533901 0.025184118395830957 0 0 0 0.019900510120192789 0.022650846109974785 -0.017121959620160498 0 -0.017121959620160498 0.047245085336382615 0 0 0 0.017473982861589344 0.034373961904702099 -0.025704519246070826 0 -0.025704519246070826 0.031702143731720839 0 0 0 0.016519026409105728 0.034921883725505129 -0.02799503230119206 0 -0.02799503230119206 0.040091803138477322 0 0 0 0.018753421715995613 0.038786745108274415 -0.034336339516849702 0 -0.034336339516849702 0.066180140035556861 0 0 0 0.026241721285957798 0.024624792795716281 -0.031367645229847488 0 -0.031367645229847488 0.091516510471817747 0 0 0 0.029035325816883509 0.047404017819290545 -0.029364973773950767 0 -0.029364973773950767 0.088863161970197863 0 0 0 0.034066794947372116 0.067513945531475703 -0.010876432565064861 0 -0.010876432565064861 0.25167972978621411 0 0 0 0.079798418829422471 0.05344357059785363 -0.011891133672277447 0 -0.011891133672277447 -0.0113433410233722 0 0 0 0.01052505739362037 0.073212337473969033 -0.046439468413559198 0 -0.046439468413559198 0.053121261934554298 0 0 0 0.031583399852130836 0.13020941502576533 0.087605927564248842 0 0.087605927564248842 0.17012720905482481 0 0 0 0.075084156020147563 0.074794045187649816 -0.065297627739229258 0 -0.065297627739229258 0.10868048605291594 0 0 0 0.04586863281014144 0.0048221473727146601 0.0007920641860564865 0 0.0007920641860564865 0.013078051122597481 0 0 0 0.0044750496238280353 0.20856422025377758 0.077344976706090446 0 0.077344976706090446 0.049750324127094459 0 0 0 0.064578636095218023 0.10747462193282353 0.021712977648932874 0 0.021712977648932874 0.026148299525232455 0 0 0 0.033405730364513997 0.010970224046680018 0.0018925643523711386 0 0.0018925643523711386 0.033075446023830113 0 0 0 0.011011417517627534 0.0071451087724135193 0.0011547175246548191 0 0.0011547175246548191 0.030072122003710622 0 0 0 0.0093043076940310249 0.096643051295046856 0.018676779001858712 0 0.018676779001858712 0.02625888713315834 0 0 0 0.030725484607051268 0.015465846179093603 0.0026566548637413498 0 0.0026566548637413498 0.046228655256296131 0 0 0 0.015423625358847433 0.011024799525296836 0.0057422350300041364 0 0.0057422350300041364 0.034952090242080847 0 0 0 0.011494222441844448 0.073665670466400823 0.015015826074420924 0 0.015015826074420924 0.013897483674822908 0 0 0 0.021890788535305905 0.043587167563407053 -0.016450081954185722 0 -0.016450081954185722 -0.0067551706043017246 0 0 0 0.0092079992397763391 0.037142786439843631 0.0028949829117924097 0 0.0028949829117924097 0.01840494470636253 0 0 0 0.013886932786551551 0.037000270347099018 -0.0071282003696748666 0 -0.0071282003696748666 0.013461454187702226 0 0 0 0.012615431133700325 0.039538657634226294 -0.0025550890941588023 0 -0.0025550890941588023 0.0039790811778517288 0 0 0 0.010879434703019497 0.027267021294494015 0.0043446220949235059 0 0.0043446220949235059 0.011056335366198544 0 0 0 0.0095808391651731328 0.033431117646680497 0.0032738050257250344 0 0.0032738050257250344 0.032661515673956421 0 0 0 0.016523158330159216 0.023772014776942685 0.0068058717223404286 0 0.0068058717223404286 0.040237789391256551 0 0 0 0.016002451042049753 0.036631857254103145 0.00091808728225309388 0 0.00091808728225309388 0.009803183569657925 0 0 0 0.011608760205940288 0.064531751420539685 0.01326618159210885 0 0.01326618159210885 0.01501255547838376 0 0 0 0.019886076724730861 0.071304594319561265 0.0088768250951636318 0 0.0088768250951636318 0.037898406273115137 0 0 0 0.027300750148169128 0.078002455951375227 0.007650354973857576 0 0.007650354973857576 0.036534429778964705 0 0 0 0.028634221432584983 0.019167048600532779 0.0031668803736176138 0 0.0031668803736176138 0.057427919710381053 0 0 0 0.019148742077728459 0.0669386953430815 0.0064062121489353308 0 0.0064062121489353308 0.040365675974728621 0 0 0 0.026826092829452586 0.067430508831392122 0.0060143528238506549 0 0.0060143528238506549 0.037682660571801918 0 0 0 0.026278292350798593 0.058438788357472293 0.010987031834425398 0 0.010987031834425398 0.036950829305808286 0 0 0 0.023847404415820339 0.064413273785366099 0.0050722784102719557 0 0.0050722784102719557 0.04774299989900177 0 0 0 0.028039068421092161 0.033265489134594484 0.0073974345981589621 0 0.0073974345981589621 0.053472107178832329 0 0 0 0.021684399078356675 0.022684948373091211 0.0035294566242517998 0 0.0035294566242517998 0.067958220992022825 0 0 0 0.022660792341278508 0.060840007238863736 0.0048061086991626478 0 0.0048061086991626478 0.047424418496456511 0 0 0 0.027066106433830117 0.030170114562596079 0.0061685218983086598 0 0.0061685218983086598 0.022676655264729617 0 0 0 0.013211692456831431 0.031345734366608743 0.0054972941526976044 0 0.0054972941526976044 0.008051441496376488 0 0 0 0.0098492939657462697 0.03717121148648185 0.0046564218743949948 0 0.0046564218743949948 0.04355086214940046 0 0 0 0.020180518408970602 0.035723055633097002 0.0061591924418006039 0 0.0061591924418006039 0.024098171290860754 0 0 0 0.014955306730989444 0.035659078590421764 0.0086226073201156328 0 0.0086226073201156328 0.028457984236200773 0 0 0 0.016029265706655638 0.029867455250646116 0.0067741932010854412 0 0.0067741932010854412 0.0047410797194041843 0 0 0 0.0086521337425125855 0.029854825409095051 0.0063987076924328368 0 0.0063987076924328368 0.0055708932279029955 0 0 0 0.008856429659249529 0.032878092381863358 0.0038833487349325402 0 0.0038833487349325402 0.0051183549053136282 0 0 0 0.0094991118217942327 0.031118770650081701 -0.00084204419354402815 0 -0.00084204419354402815 -0.004682349358011928 0 0 0 0.0066091053230174224 0.030410207787886875 0.0016677823480937548 0 0.0016677823480937548 -0.0039365448513657419 0 0 0 0.0066184157341303007 0.024896344805789835 0.0030623449243687706 0 0.0030623449243687706 -0.0055696653875797301 0 0 0 0.0048316698545525193 0.028249043368392124 0.00075284597893507388 0 0.00075284597893507388 -0.00080408637867368515 0 0 0 0.0068612392474296513 0.027647362669983563 -0.0043491973814416135 0 -0.0043491973814416135 -0.0032198600784501541 0 0 0 0.0061068756478833419 0.030174040719440531 -0.0010733611351455008 0 -0.0010733611351455008 -0.0032829422255664063 0 0 0 0.0067227746234685241 0.033355339568216708 -0.0069701239027712969 0 -0.0069701239027712969 -0.0049372138977996638 0 0 0 0.0071045314176042818 0.02698936397150737 -0.0072351374898580456 0 -0.0072351374898580456 -0.0062102968418181193 0 0 0 0.0051947667824223387 0.033445120514086407 -0.010639067009900315 0 -0.010639067009900315 -0.00014951646102312477 0 0 0 0.0083239010132658275 0.027185359412469155 -0.01116852694507664 0 -0.01116852694507664 0.0006769728804321834 0 0 0 0.0069655830732253191 0.032471197755894313 -0.0064752126984355951 0 -0.0064752126984355951 -0.0058372023829620368 0 0 0 0.0066584988432330898 0.032566242109346902 -0.00087210604430051908 0 -0.00087210604430051908 -0.0045988391356861225 0 0 0 0.0069918507434151983 0.036756605506326784 -0.0038094711545275106 0 -0.0038094711545275106 -0.0010914499924076226 0 0 0 0.0089162888784797834 -0.051341420849181613 0.007624928275781373 0 0.007624928275781373 0.0018549754514093353 0 0 0 -0.012371611349443007 -0.05839373030882189 0.0089171665814177237 0 0.0089171665814177237 0.0023448860916713832 0 0 0 -0.014012211054287627 -0.040102212645231117 0.022495477003253661 0 0.022495477003253661 0.0089324733480884433 0 0 0 -0.0077924348242856545 -0.083633236850762516 0.010112370273828886 0 0.010112370273828886 0.0026471529989855469 0 0 0 -0.020246520962944159 -0.09125032700389793 0.0082373129145705271 0 0.0082373129145705271 0.005755115465586047 0 0 0 -0.021373802884578047 -0.054133140200081864 0.011292535042549429 0 0.011292535042549429 0.0018638529803984838 0 0 0 -0.013067321804920873 -0.054794875646598212 0.012156981652098886 0 0.012156981652098886 0.0040373005233129144 0 0 0 -0.012689393780821401 -0.038291338669870667 0.025459906335275451 0 0.025459906335275451 0.011994271755856545 0 0 0 -0.0065742667285035583 -0.021575309876210036 0.026593263048597215 0 0.026593263048597215 0.014348576767409305 0 0 0 -0.0018066832772002106 -0.0088537124771001507 0.032381513216765065 0 0.032381513216765065 0.024034090601345204 0 0 0 0.0037950945310612494 -0.020530599592347487 0.022629708961375589 0 0.022629708961375589 0.0042593463698996636 0 0 0 -0.0040678133056119004 -0.013153670234506407 0.031743711286087772 0 0.031743711286087772 0.010563847341750088 0 0 0 -0.00064745572318923583 -0.030793175613102297 0.019086781253228158 0 0.019086781253228158 0.00095120880646559769 0 0 0 -0.0074604917016590777 -0.0073836810445133683 0.027301735388660486 0 0.027301735388660486 0.0013526611337046912 0 0 0 -0.0015077549777020582 0.035022841185255199 0.03688723300275254 0 0.03688723300275254 0.011556094987129784 0 0 0 0.011644734043096266 0.013982370596874016 0.033392267546671524 0 0.033392267546671524 0.0074944188522592103 0 0 0 0.0053691973622832512 0.047554544172338897 0.0481476901236913 0 0.0481476901236913 0.031795453576629162 0 0 0 0.019837499437242001 0.014564589821631391 0.035890747780354837 0 0.035890747780354837 0.011950324571552318 0 0 0 0.006628728598295941 -0.01864124779954951 0.023251326623537114 0 0.023251326623537114 0.014887272509941374 0 0 0 -0.00093849382240202006 0.0062660562545326648 0.03855937021021634 0 0.03855937021021634 0.042034390097884122 0 0 0 0.012075111588104176 0.011916629262433254 0.032728463371374195 0 0.032728463371374195 0.029198286542860941 0 0 0 0.010278728951323535 0.03984452045773379 0.049248867660462742 0 0.049248867660462742 0.07192748801401927 0 0 0 0.027943002117938209 0.053622387815797312 0.051705777299774464 0 0.051705777299774464 0.115187767218628 0 0 0 0.042202538758606301 0.078391133849456174 0.061879538594042882 0 0.061879538594042882 0.046393212940751313 0 0 0 0.031196086697551858 0.081751447892426166 0.049916290687975817 0 0.049916290687975817 0.04366723540915049 0 0 0 0.031354670825394164 0.053664385322793551 0.034682418988608604 0 0.034682418988608604 0.013569800581858305 0 0 0 0.016808546476162922 0.065145750501587218 0.035766733155307207 0 0.035766733155307207 0.016824254164565677 0 0 0 0.020492501166538279 0.078216224951721314 0.017033871307277737 0 0.017033871307277737 0.013417322679318389 0 0 0 0.022908386907759981 0.044780716376498497 0.026321974685200922 0 0.026321974685200922 0.0039142222813164373 0 0 0 0.012173734664453817 0.04155640604586408 0.025340272412487819 0 0.025340272412487819 0.0029703931758611191 0 0 0 0.011131699805431272 0.059239950868560154 0.017359572894751929 0 0.017359572894751929 0.011773211152132923 0 0 0 0.017753290505173158 0.055187625174635269 0.013865808094321475 0 0.013865808094321475 0.014057175703931613 0 0 0 0.017311200219641831 0.054163290394514396 0.010271760132782193 0 0.010271760132782193 0.018284618403032304 0 0 0 0.018111977199386842 0.046864717109438001 0.012090822383242106 0 0.012090822383242106 0.015852872607390447 0 0 0 0.01567939742920714 0.039659152046284118 0.016863919349031753 0 0.016863919349031753 0.0060554583545817664 0 0 0 0.011428652600216416 0.039390929366569294 0.020719484566874447 0 0.020719484566874447 0.0028367076218955845 0 0 0 0.010556909247116164 0.02082415616077446 0.017545991955135842 0 0.017545991955135842 0.00077416389805343155 0 0 0 0.005399580014706834 0.02172672799224655 0.016271339410331542 0 0.016271339410331542 0.0012830249064317567 0 0 0 0.0057524382246696842 0.020341672056551907 0.018768113017683635 0 0.018768113017683635 0.0016979750158516715 0 0 0 0.0055099117681007836 0.0015328814074362374 0.022500215253994038 0 0.022500215253994038 -0.0017207796159179889 0 0 0 -4.6974552120548907e-05 0.023364329505000225 0.025817766188754587 0 0.025817766188754587 0.0028882325419665733 0 0 0 0.0065631405117416719 0.029643958844416285 0.021149758266214791 0 0.021149758266214791 -0.00039369797945887353 0 0 0 0.0073125652162393528 0.0096007326914043234 0.026029138704604937 0 0.026029138704604937 -0.00099114041041636902 0 0 0 0.0021523980702470302 0.0038845783742519208 0.030849087319023472 0 0.030849087319023472 0.0038489432409152535 0 0 0 0.0019333804037917485 -0.011745496507136077 0.020473846810585949 0 0.020473846810585949 -0.0017592166892919092 0 0 0 -0.0033761782991069689 -0.016776575544679508 0.02386151453525287 0 0.02386151453525287 0.005143267679486016 0 0 0 -0.0029083269662981935 -0.013379956794915993 0.014843555269154502 0 0.014843555269154502 0.0016463144625027404 0 0 0 -0.0029334105831033686 -0.013813496274794473 0.02172958830024041 0 0.02172958830024041 -0.0016319911079812899 0 0 0 -0.0038613718456939339 0.0036265635235791516 0.020039910725372284 0 0.020039910725372284 0.00037216534790962541 0 0 0 0.00099968221787205547 0.0036240202445935454 0.017789340489758221 0 0.017789340489758221 -0.0039893247979062019 0 0 0 -9.1326138328157169e-05 -0.0049663431454320534 0.013397467948747188 0 0.013397467948747188 0.00032360679023125862 0 0 0 -0.0011606840888001709 -0.011393679083630426 0.013964962787386015 0 0.013964962787386015 -0.0018188385225017534 0 0 0 -0.0033031294015331003 -0.018062665679326795 0.015888084104843547 0 0.015888084104843547 0.0010854119317618149 0 0 0 -0.004244313436891467 -0.026582049486007009 0.0053737971161306186 0 0.0053737971161306186 0.00054766448349052865 0 0 0 -0.0065085962506291062 -0.012916005223192362 0.0049522304923714788 0 0.0049522304923714788 0.0024269792933437895 0 0 0 -0.0026222564824621708 -0.022823330376016471 0.0066578502763254832 0 0.0066578502763254832 0.0027562664037450446 0 0 0 -0.0050167659930678288 -0.042916372336728348 0.0068071590610350174 0 0.0068071590610350174 0.0004480054740951811 0 0 0 -0.010617091715658333 -0.034648519287284296 0.017149598937121924 0 0.017149598937121924 -8.7591659659436161e-05 0 0 0 -0.0086840277367359331 -0.03138415615961565 0.0085564303540340836 0 0.0085564303540340836 0.0016512882310084631 0 0 0 -0.0074332169821517136 -0.001108152122667537 0.0034662350252214758 0 0.0034662350252214758 0.0025801054844957066 0 0 0 0.00036798834045707191 -0.0073060933737134626 0.002608832018051066 0 0.002608832018051066 0.00045721445546265116 0 0 0 -0.0017122197295628139 -0.00020351998691081619 0.0056666763290342814 0 0.0056666763290342814 0.001827109506360669 0 0 0 0.0004058973798624077 -0.0107623411542912 0.0030776136145941324 0 0.0030776136145941324 0.0016174516250457849 0 0 0 -0.0022862223823114647 -0.0089739888441092708 0.0027713694027264868 0 0.0027713694027264868 0.0015902598479804464 0 0 0 -0.0018459322490324004 -0.018194172082271587 0.0040471808928062326 0 0.0040471808928062326 0.00065278728131223929 0 0 0 -0.0043853462002398924 -0.016262219052271654 0.0091311996199442413 0 0.0091311996199442413 -0.0010589907451588054 0 0 0 -0.0043303024493577258 -0.01034941172875703 0.006259649985095761 0 0.006259649985095761 -2.1049109206749961e-05 0 0 0 -0.0025926152094908339 -0.0045471340013445438 0.011172811078898809 0 0.011172811078898809 -0.0016547499415682232 0 0 0 -0.0015504709857281362 -0.0025849171417779981 0.0083165584434958806 0 0.0083165584434958806 0.0025414766768636632 0 0 0 -1.0860116228528227e-05 0.0027534356226028844 0.011201745596068013 0 0.011201745596068013 7.1154528328953859e-05 0 0 0 0.00070614753773290406 0.0076169783096575738 0.0082064978974862868 0 0.0082064978974862868 0.0024147053849725708 0 0 0 0.0025079209236575917 0.0064947297185016239 0.0059014637832510708 0 0.0059014637832510708 0.0029061622836237255 0 0 0 0.0023502230005312263 -0.0017113079047444968 0.0080989238396620422 0 0.0080989238396620422 0.00046794279741324551 0 0 0 -0.00031084127683278506 0.005113313665610339 0.0065405248607064426 0 0.0065405248607064426 0.0025988575446117546 0 0 0 0.0019280428025554713 0.018178063492571561 0.0057792143808148566 0 0.0057792143808148566 0.0063112175324349096 0 0 0 0.0061223202562515899 0.019234951014668322 0.006670191220456978 0 0.006670191220456978 0.0091518018322980232 0 0 0 0.0070966882117416974 0.028787479786793191 0.0064649981369353515 0 0.0064649981369353515 0.0098816583075911346 0 0 0 0.0096672845235962201 0.0066302366760555564 0.0093082566490716445 0 0.0093082566490716445 0.0013712272832187011 0 0 0 0.0020003659898182313 0.0064021653569592551 0.013126790081960944 0 0.013126790081960944 -0.0015947155940878588 0 0 0 0.0012018624407177381 0.01782581348319684 0.0092214841821577354 0 0.0092214841821577354 0.0033075822913000152 0 0 0 0.0052833489436241998 0.018636827097794906 0.011684051389625028 0 0.011684051389625028 0.0024744640549725361 0 0 0 0.0052778227881918882 0.02700273874815573 0.012407140191496802 0 0.012407140191496802 0.0046207893119110111 0 0 0 0.0079058820150168518 0.018257225096185659 0.0097079357380130127 0 0.0097079357380130127 0.0050935815111312621 0 0 0 0.0058377016518296188 0.036878921274517973 0.0069352049218022183 0 0.0069352049218022183 0.015456341901137982 0 0 0 0.013083815793914155 0.037824678530823164 0.010872942332384759 0 0.010872942332384759 0.016283033186958118 0 0 0 0.013526927929445431 0.034705988644467389 0.011839256984086943 0 0.011839256984086943 0.0071140289597284578 0 0 0 0.010455004401048962 0.042485860691037214 0.0096680967964204445 0 0.0096680967964204445 0.018442929005030306 0 0 0 0.015232197424017047 0.050939481942680054 0.0049502672564860628 0 0.0049502672564860628 0.035484439986039007 0 0 0 0.021605980482179543 0.042626430568962759 0.003428149415344306 0 0.003428149415344306 0.025247192406955499 0 0 0 0.01696840574397962 0.048932927624084854 0.0075117057818133715 0 0.0075117057818133715 0.037526700632350973 0 0 0 0.021614907064108957 0.031288173353526905 0.0093811755245416517 0 0.0093811755245416517 0.013828592282754085 0 0 0 0.011279191409070466 0.036859473108523999 0.0063521433566278152 0 0.0063521433566278152 0.02471908875247264 0 0 0 0.015394640465249076 0.051386793355217897 -0.0013443676224015322 0 -0.0013443676224015322 0.040178214635848253 0 0 0 0.022891251997766426 0.039490405745372437 -0.0028450335638829927 0 -0.0028450335638829927 0.036426073904939571 0 0 0 0.018979119912577946 0.05732625557612403 0.0030864355605799698 0 0.0030864355605799698 0.041432667227853326 0 0 0 0.024689730700994339 0.048914446641882714 0.0010565755078923988 0 0.0010565755078923988 0.037046883472885206 0 0 0 0.021490332528691924 0.060763300354173433 -0.0058555520230367808 0 -0.0058555520230367808 0.058205281455127711 0 0 0 0.029742145452325452 0.070991183695360699 0.0037016838714749589 0 0.0037016838714749589 0.059926785420126527 0 0 0 0.032729492278872091 0.049784233774342601 -0.0066436175446489276 0 -0.0066436175446489276 0.039821940916120901 0 0 0 0.022401543672615709 0.034591099486154464 -0.0013596772104900179 0 -0.0013596772104900179 0.034382049390830893 0 0 0 0.017243287219246506 0.013938255166926261 0.0034299002774043968 0 0.0034299002774043968 0.0061421621783122049 0 0 0 0.0050201043363096165 0.016773231411672862 0.00096591163216830367 0 0.00096591163216830367 0.014647090912606409 0 0 0 0.0078550805810697621 0.027513606579562477 -0.0012459273907504675 0 -0.0012459273907504675 0.012596435943105 0 0 0 0.010027510630666869 0.016351530712614304 0.0039932823180514332 0 0.0039932823180514332 0.0067175589143730896 0 0 0 0.0057672724067470149 0.032016550622504081 0.00098345121889700793 0 0.00098345121889700793 0.017772622761307311 0 0 0 0.012447293345952959 0.019214062514120833 0.0029139989578867986 0 0.0029139989578867986 0.014875709122214698 0 0 0 0.0085224429090837717 0.031854516097492569 0.0021900290593111493 0 0.0021900290593111493 0.015955842195427561 0 0 0 0.011952589573230199 0.0078790313670972223 0.0044335761851777011 0 0.0044335761851777011 0.0046993516550157821 0 0 0 0.0031445957555282789 -0.00094471279486385562 0.0032050423592260291 0 0.0032050423592260291 0.0019676257989598156 0 0 0 0.00025572825102404551 0.0055235085911777837 0.0030147013963837122 0 0.0030147013963837122 0.002725288243510704 0 0 0 0.002062199208672455 0.0016245446661962148 0.0039210710906756319 0 0.0039210710906756319 0.0029987733913303671 0 0 0 0.0011558295143818675 0.006215872904330455 0.002925171354379863 0 0.002925171354379863 0.0051024909921344452 0 0 0 0.0028295909741162806 0.0073891450248420032 0.00051870921662766634 0 0.00051870921662766634 0.0010620766273330418 0 0 0 0.0021128054130439278 0.0040701646819290005 0.0010502759323076649 0 0.0010502759323076649 -0.00090867589991372455 0 0 0 0.00079037219550404103 0.0071153124260598943 0.0024598385692952418 0 0.0024598385692952418 0.0016582914779554869 0 0 0 0.0021934009760036233 0.0034521757655956442 0.002655320561130381 0 0.002655320561130381 0.0019138368002669104 0 0 0 0.0013415031414654166 0.0016426878197333128 0.001679188891459571 0 0.001679188891459571 0.00096434345838858349 0 0 0 0.0006517578195306406 0.0022651807661081269 0.0010568259600898244 0 0.0010568259600898244 0.0010620948971394872 0 0 0 0.00083181891581193823 0.001690878051732625 0.00073073618475638646 0 0.00073073618475638646 0.00088553609424035784 0 0 0 0.0006441035364932457 0.00050006071492592064 0.00091627569973429246 0 0.00091627569973429246 0.0009401182736268332 0 0 0 0.00036004474713835499 0.0015284430782951386 0.0015449302405028398 0 0.0015449302405028398 0.0021009086880781069 0 0 0 0.00090733794159336689 -0.0017949533581333998 0.001911704709231854 0 0.001911704709231854 0.0024367440219581482 0 0 0 0.00016044766595646465 -0.00018392151131771395 0.0016064148150720658 0 0.0016064148150720658 0.0015300389514070756 0 0 0 0.00033652936002218081 -0.0058416590400842683 0.0018094711302549804 0 0.0018094711302549804 0.0010955959944443094 0 0 0 -0.0011865157614099342 0.025170614636136707 0.0097153438523822355 0 0.0097153438523822355 0.0055675088778188719 0 0 0 0.0076845308784888877 0.03596453993326354 0.010102991920268325 0 0.010102991920268325 0.02241704649181564 0 0 0 0.014595396606269795 0.035468221072070885 0.012341786478884453 0 0.012341786478884453 0.018859633953137056 0 0 0 0.01358196375630201 0.031108952216601149 0.013373398621457103 0 0.013373398621457103 0.014660739209361395 0 0 0 0.011442422856490636 0.023623944089834804 0.010666618331484495 0 0.010666618331484495 0.0039585835264571391 0 0 0 0.0068956319040729859 0.018038024064106511 0.0078960640287580805 0 0.0078960640287580805 -0.00039678176762358852 0 0 0 0.0044103105741207238 0.019372065709650832 0.0051386799571849495 0 0.0051386799571849495 0.00020083097385359405 0 0 0 0.0048932241708760649 0.024041680636123171 0.0068105786545469282 0 0.0068105786545469282 0.0019645958520354834 0 0 0 0.0065015691220397034 0.020398775894175825 0.0048565184486968616 0 0.0048565184486968616 -0.0022151626755392284 0 0 0 0.004545903304659149 0.022216378117609133 0.001958709177506901 0 0.001958709177506901 -0.0028279139934300063 0 0 0 0.0048471160310447695 0.029452530343148681 0.0058161150439658693 0 0.0058161150439658693 0.0028842265245840881 0 0 0 0.0080841892169331853 0.027677015038434005 0.0087751566996082664 0 0.0087751566996082664 0.0020691910600539876 0 0 0 0.0074365515246219982 0.024372189570368907 0.0087076354272219159 0 0.0087076354272219159 0.0046361101237893387 0 0 0 0.0072520749235395476 0.031852206138406336 0.0097177279237097413 0 0.0097177279237097413 0.014547405285690318 0 0 0 0.011599902856024191 0.032176937763663802 0.010145881061737749 0 0.010145881061737749 0.013385243810301095 0 0 0 0.011390545393491228 0.037850059613705869 0.0077315634380656362 0 0.0077315634380656362 0.030029962342157768 0 0 0 0.01697000548896592 0.043710921595856989 0.0049003129643017673 0 0.0049003129643017673 0.055705472031876757 0 0 0 0.02485409840693345 0.053051363469276441 0.0050951213420114272 0 0.0050951213420114272 0.065319111057920543 0 0 0 0.029592618631799211 0.042709765995480667 0.011206429353094266 0 0.011206429353094266 0.036468089530613368 0 0 0 0.019794463881523533 0.058956270354859064 0.0092783450016700186 0 0.0092783450016700186 0.044971690551147803 0 0 0 0.025981990226501606 0.067147718352620123 0.0029860228653261493 0 0.0029860228653261493 0.063595035795766641 0 0 0 0.032685688537096746 0.046936121088521673 0.007500688759919355 0 0.007500688759919355 0.061110252644932361 0 0 0 0.027011593433363498 0.026076102350808466 0.0037789635801654614 0 0.0037789635801654614 0.078117269197170949 0 0 0 0.026048342886994855 0.053041626353262705 0.0053378513706425768 0 0.0053378513706425768 0.035471063748899967 0 0 0 0.02212817252554089 0.062957445207009743 0.0054489379664190984 0 0.0054489379664190984 0.065961858983402344 0 0 0 0.032229826047602939 0.06108613326221668 0.00016529036489865145 0 0.00016529036489865145 0.061926491754235702 0 0 0 0.030753156254113012 0.02945843567130127 0.0039138342986855621 0 0.0039138342986855621 0.088271620366086587 0 0 0 0.029432514009346968 0.061204173412506974 0.0082314712223402198 0 0.0082314712223402198 0.070697701572770111 0 0 0 0.032975468746319236 0.071277303830295735 0.0041536709223539692 0 0.0041536709223539692 0.068513132108058983 0 0 0 0.034947608984588485 0.032962879294792809 0.0039703632670309748 0 0.0039703632670309748 0.09864936357878773 0 0 0 0.032903060718395133 0.063484685849201195 0.0065419957386727567 0 0.0065419957386727567 0.061318007667786278 0 0 0 0.031200673379247035 0.042870977374839553 0.0096550628234472434 0 0.0096550628234472434 0.039582003964481971 0 0 0 0.020613245334830416 0.060548743630896268 0.0075904721565209221 0 0.0075904721565209221 0.072704577722156827 0 0 0 0.033313330338263253 0.044495612529121181 0.015038021371950677 0 0.015038021371950677 0.035131017642336393 0 0 0 0.019906657542864387 0.053228717924562893 0.010248652063682473 0 0.010248652063682473 0.042380994301024238 0 0 0 0.023902428056396793 0.05941892470365509 0.015462242588377736 0 0.015462242588377736 0.050900348198712253 0 0 0 0.027579818225591773 0.048458835312211374 0.0094210495074389666 0 0.0094210495074389666 0.038277451873811139 0 0 0 0.021684071796505607 0.077380272450103565 0.0099487175108512182 0 0.0099487175108512182 0.07600521091196133 0 0 0 0.038346370840516258 0.075172965952969656 0.0053134292064753799 0 0.0053134292064753799 0.083165931358442413 0 0 0 0.03958472432785301 0.068439305939263367 0.0051915283918718691 0 0.0051915283918718691 0.05609736304923485 0 0 0 0.03113416724712461 0.077511420257419417 -0.0017488456783565365 0 -0.0017488456783565365 0.081507011628253245 0 0 0 0.039754607971417943 0.03646603172129604 0.0039031185893517919 0 0.0039031185893517919 0.1095386040485801 0 0 0 0.036501158942469032 0.097888438539184094 0.0086020327564021448 0 0.0086020327564021448 0.087721577383462979 0 0 0 0.046402503980661799 0.088926033437054741 0.0040534822108468926 0 0.0040534822108468926 0.085314730088501115 0 0 0 0.043560190881388738 0.071237656290689122 -0.0029820282573632673 0 -0.0029820282573632673 0.076814147165965796 0 0 0 0.037012950864163674 0.084690041369028579 0.0066249509461138167 0 0.0066249509461138167 0.083917697175004635 0 0 0 0.042151934636008193 0.04113064638347632 0.0038809454603499901 0 0.0038809454603499901 0.12190665578183144 0 0 0 0.040759325541326941 0.10899627249049804 -0.00093512025693653911 0 -0.00093512025693653911 0.096652625514737522 0 0 0 0.051412224501309112 0.087825408277506956 -0.0060488131080946861 0 -0.0060488131080946861 0.092213207302983768 0 0 0 0.045009653895122792 0.050856563259741694 0.014796545075325268 0 0.014796545075325268 0.036031361100057668 0 0 0 0.021721981089949827 0.081890058428223167 0.011340243372045672 0 0.011340243372045672 0.089512347184351415 0 0 0 0.042850601403143618 0.10742399519552742 0.0019570021386022172 0 0.0019570021386022172 0.092549050362246144 0 0 0 0.049993261389443405 0.082018757798954206 0.010793961470672464 0 0.010793961470672464 0.082658528836088596 0 0 0 0.041169321658760694 0.06414438902057587 0.00094053399535151683 0 0.00094053399535151683 0.039898433557104873 0 0 0 0.026010705644420179 0.023388076198284508 0.0078433149732858032 0 0.0078433149732858032 0.0037789754661112784 0 0 0 0.0067917629160989534 0.043002162267033434 0.0099233613525053777 0 0.0099233613525053777 0.023843384660413247 0 0 0 0.016711386731861649 0.031796937439483197 0.0044448458254580381 0 0.0044448458254580381 -0.0096553006548323328 0 0 0 0.0055354091961627439 0.036499996605845297 0.0075159761645521572 0 0.0075159761645521572 0.024160074165344714 0 0 0 0.015165017692797489 0.029497238156272143 0.0091247478464959036 0 0.0091247478464959036 0.0022394149686886244 0 0 0 0.0079341632812401919 0.025598255403498554 0.011810199065805924 0 0.011810199065805924 0.005366423574897361 0 0 0 0.007741169744598958 0.029273226971199908 0.010060949161914079 0 0.010060949161914079 0.014484008780209737 0 0 0 0.010939308937852412 0.039001245222072822 0.015286585686162271 0 0.015286585686162271 0.022007128870425996 0 0 0 0.01525209352312476 0.018402027597203857 0.0087939732750845628 0 0.0087939732750845628 -0.0027302262025525881 0 0 0 0.003917950348662852 0.018912898376783491 0.0091756706013814693 0 0.0091756706013814693 0.0024270964855230949 0 0 0 0.0053349987155767017 0.018583003151988853 0.0098362775915767364 0 0.0098362775915767364 -0.0031606642455657141 0 0 0 0.003855584726605743 0.02085960155598237 0.007889983985919391 0 0.007889983985919391 0.0042946221459303074 0 0 0 0.0062885559254781606 0.013959246206448339 0.0059218232763408873 0 0.0059218232763408873 -0.0056542211052846847 0 0 0 0.0020762562752908997 0.015979971069456991 0.0025576587732932532 0 0.0025576587732932532 -0.013218040476982051 0 0 0 0.0006904826481187315 0.015478396935781569 0.0043757701277042371 0 0.0043757701277042371 -0.029225872330463476 0 0 0 -0.0034368688486704491 0.014441022265460512 0.001889314767093947 0 0.001889314767093947 -0.017871972598384356 0 0 0 -0.00085773758323093308 0.014265933026237354 0.00040140585240266979 0 0.00040140585240266979 -0.036988444891544736 0 0 0 -0.0056806279663268455 0.01754364813433551 0.0048152943416604824 0 0.0048152943416604824 -0.017683692619048674 0 0 0 -3.5011121178374349e-05 0.012245358199662715 0.0015304982846134907 0 0.0015304982846134907 -0.010749814856665596 0 0 0 0.00037388583574929357 0.014443567663843859 0.0051226112714691241 0 0.0051226112714691241 -0.016437431157881641 0 0 0 -0.00049846587350937943 0.042429698785708597 -0.0077285315609117462 0 -0.0077285315609117462 -0.0013447780441067092 0 0 0 0.010271230185400437 0.034545553192731983 0.001058901944884727 0 0.001058901944884727 -0.025108209652036424 0 0 0 0.0023593358851739031 0.021735811171853803 -0.0021572732530408673 0 -0.0021572732530408673 -0.010118302592556971 0 0 0 0.002904377144824194 0.033631889356887212 0.0006223309867254001 0 0.0006223309867254001 0.013353612356668432 0 0 0 0.011746375428388883 0.028488726096273273 0.00056377003189087005 0 0.00056377003189087005 -0.0056285638924492565 0 0 0 0.0057150405509559937 0.023835456070591024 0.0017537126302332451 0 0.0017537126302332451 0.0017808808548298583 0 0 0 0.0064040842313551893 0.026051824515445965 0.0010353151746234357 0 0.0010353151746234357 0.011186941567815412 0 0 0 0.0093096915208153441 0.037078913224560583 -0.0033226524095541499 0 -0.0033226524095541499 0.011479239055525836 0 0 0 0.012139538070021633 0.019848747888784435 0.0047225493771462235 0 0.0047225493771462235 -0.0057782195838403938 0 0 0 0.003517632076236038 0.018783440853504779 0.0018599766636235582 0 0.0018599766636235582 0.0010678092802605121 0 0 0 0.0049628125334413298 0.013157387639460755 0.0048642242781805622 0 0.0048642242781805622 -0.002612297777962902 0 0 0 0.0026362724653744563 0.019062663395944326 0.0055344993444251256 0 0.0055344993444251256 -0.00056328273464503753 0 0 0 0.0046248451653247841 0.018482706319372849 0.0046703824982692599 0 0.0046703824982692599 -0.00075350144160479804 0 0 0 0.0044323012194420475 0.020632579428981335 0.0031135330371618031 0 0.0031135330371618031 0.0016447882112834433 0 0 0 0.0055693419100663055 0.019332614734534376 0.0023387872131944709 0 0.0023387872131944709 0.0024567919701484753 0 0 0 0.0054473516761707474 0.016533610005601662 0.0042962417237526473 0 0.0042962417237526473 0.00048670976720677217 0 0 0 0.0042550799432021225 0.022585914715330099 0.00061838415677639702 0 0.00061838415677639702 0.0033622554441733454 0 0 0 0.0064870425398758508 0.019441883304831875 0.00082991647465682772 0 0.00082991647465682772 0.0033841128696107114 0 0 0 0.0057064990436106466 0.028598560871840484 -0.0024922998418881182 0 -0.0024922998418881182 0.010945539569417934 0 0 0 0.0098860251103145835 0.032146249959119133 -0.001375677518257637 0 -0.001375677518257637 0.020899910589213921 0 0 0 0.01326154013708325 0.023630121945022092 0.00061290930113111486 0 0.00061290930113111486 0.0071616743744703504 0 0 0 0.0076979490798731176 0.021539192451749706 -0.00062329427000579196 0 -0.00062329427000579196 0.0039616518284326663 0 0 0 0.0063752110700455999 0.025341002144239712 -0.0027772786735306143 0 -0.0027772786735306143 0.0093033541473375586 0 0 0 0.0086610890728942916 0.027738817092666207 -0.0026694494177754852 0 -0.0026694494177754852 0.016865710957282176 0 0 0 0.011151132012487103 0.023843140402648934 -0.003544392692978765 0 -0.003544392692978765 0.0056392383247112349 0 0 0 0.0073705946818400161 0.020887095452446658 -0.0019868378053261859 0 -0.0019868378053261859 -0.0016928381615509691 0 0 0 0.0047985643227239083 0.024421111926823006 -0.00055284369114244614 0 -0.00055284369114244614 -2.2731744466673864e-05 0 0 0 0.0060995950455890761 0.019886013531517033 0.0019942760844797319 0 0.0019942760844797319 -0.0013328197649254969 0 0 0 0.0046382984416478701 0.0225345675507688 0.0033447111195851476 0 0.0033447111195851476 0.00063498318957434189 0 0 0 0.0057923876850857784 0.022781724029915629 0.00029056067355964776 0 0.00029056067355964776 0.0027201981368950301 0 0 0 0.0063754805417026716 0.045347653843874181 -0.009425395043799023 0 -0.009425395043799023 0.0425879372602469 0 0 0 0.021983897776030159 0.016206420658713867 -0.0054041773233672805 0 -0.0054041773233672805 0.048509021691066231 0 0 0 0.016178860587445023 0.054050149222188648 -0.0080097530286482033 0 -0.0080097530286482033 0.037432971206464272 0 0 0 0.022870780107163202 0.044442468378005348 -0.0067009758648897688 0 -0.0067009758648897688 0.036952688697939662 0 0 0 0.020348789268986242 0.034800682151589324 -0.0049359062004003251 0 -0.0049359062004003251 0.034349085574503668 0 0 0 0.017287441931523262 0.028672893406433191 -0.006644787297789001 0 -0.006644787297789001 0.015623861409072917 0 0 0 0.011074188703876518 0.03088669059035172 -0.0053192025974118234 0 -0.0053192025974118234 0.019701387558614003 0 0 0 0.012647019537241427 0.033177011881624016 -0.0029910243487327459 0 -0.0029910243487327459 0.016957784517518282 0 0 0 0.012533699099785564 0.044911356110517331 -0.0021847688335803195 0 -0.0021847688335803195 0.041852204487662747 0 0 0 0.021690890149545006 0.039166497658893601 -0.0056372746117872019 0 -0.0056372746117872019 0.032200462427223631 0 0 0 0.017841740021529245 0.047610557515466174 -0.002096058293686115 0 -0.002096058293686115 0.031400976516407914 0 0 0 0.019752883507968562 0.040354907612939889 -0.0060040281879007312 0 -0.0060040281879007312 0.024929240812812004 0 0 0 0.01632103710643798 0.055624972890311375 -0.0049743032449770103 0 -0.0049743032449770103 0.053132845768112058 0 0 0 0.027189454664605928 0.072675253516034682 -0.0061740871801955477 0 -0.0061740871801955477 0.054814271451808561 0 0 0 0.031872381241960818 0.049469974404901862 -0.0063668923397682264 0 -0.0063668923397682264 0.042894864365485397 0 0 0 0.023091209692596815 0.049915933145270652 -0.013114817610264173 0 -0.013114817610264173 0.04256467994523172 0 0 0 0.023120153272625621 0.023738941135149308 -0.0054677890944099406 0 -0.0054677890944099406 0.071035503621146162 0 0 0 0.023693611189073868 0.05775086098304974 -0.0064028466638748893 0 -0.0064028466638748893 0.048040612322429621 0 0 0 0.026447868326369806 0.058118418701771368 -0.0090070275239391654 0 -0.0090070275239391654 0.045362057952235357 0 0 0 0.02587011916350157 0.01973783019848243 -0.0055046919837246277 0 -0.0055046919837246277 0.059097421598309316 0 0 0 0.019708812949197931 0.068583148791463766 -0.0042833076468145048 0 -0.0042833076468145048 0.058869143522701783 0 0 0 0.031863073078541415 0.028217701135035682 -0.0052861894059616785 0 -0.0052861894059616785 0.084573985952294817 0 0 0 0.028197921771832626 0.094046281542194743 -0.0053084345492396268 0 -0.0053084345492396268 0.066168374238134098 0 0 0 0.040053663945082169 0.080100489212430154 -0.0093591741691085861 0 -0.0093591741691085861 0.063001556376259149 0 0 0 0.035775511397172242 0.065542639549574067 -0.0032695585450775999 0 -0.0032695585450775999 0.05456841814168234 0 0 0 0.030027764422814074 0.044014937389072001 1.3969007202629946e-06 0 1.3969007202629946e-06 0.028200374491142488 0 0 0 0.01805382797005364 0.058055680308048252 -0.0070217872493606864 0 -0.0070217872493606864 0.034506150983602213 0 0 0 0.02314045782291263 0.068956207734490155 -0.002328835147683006 0 -0.002328835147683006 0.062607398799125025 0 0 0 0.032890901633403802 0.066435697648311434 0.0015915105609885516 0 0.0015915105609885516 0.038825270285306621 0 0 0 0.026315241983404472 0.051306103160190922 -0.0070827041897285198 0 -0.0070827041897285198 0.016159018591546614 0 0 0 0.016866280437934422 0.081232041936593363 -0.0084127600616817205 0 -0.0084127600616817205 0.065497404187405794 0 0 0 0.036682361530999769 0.10977378231444057 -0.00094602708001415015 0 -0.00094602708001415015 0.070400133794567221 0 0 0 0.045043479027251948 0.08353976109741737 -0.011485674466261725 0 -0.011485674466261725 0.054492361387657229 0 0 0 0.03450803062126867 0.065689953934311249 0.0036214734013891858 0 0.0036214734013891858 0.020501857812471519 0 0 0 0.02154795293669572 0.082558949953334682 -0.010607947331060297 0 -0.010607947331060297 0.062172246810541676 0 0 0 0.036182799190969006 0.033637545469906313 -0.0051867609567840161 0 -0.0051867609567840161 0.10024019842175466 0 0 0 0.033469435972915247 0.11295205888418103 -0.0021280914000588297 0 -0.0021280914000588297 0.076135562958212333 0 0 0 0.04727190546059834 0.090568558102115171 0.0051362684273901227 0 0.0051362684273901227 0.065904879317900011 0 0 0 0.03911835935500374 0.071071465783087762 -0.0060914153200226639 0 -0.0060914153200226639 0.037712561724181248 0 0 0 0.027196006876817114 0.051810622140440632 0.0039507615899497806 0 0.0039507615899497806 0.016730147045425081 0 0 0 0.017135192296466428 0.047734215909160937 -0.0066464935906273004 0 -0.0066464935906273004 0.022422331470130619 0 0 0 0.017539136844822778 0.06146083621275146 0.00097211466142299585 0 0.00097211466142299585 0.035764055259134231 0 0 0 0.024306222867971253 0.032373467980577719 -0.001727205837640966 0 -0.001727205837640966 0.014328967455045749 0 0 0 0.01167560885890595 0.014187303052342393 -0.0052239526296025129 0 -0.0052239526296025129 0.001485009990557451 0 0 0 0.0039180782607249887 0.014117324609079884 -0.0075631754479142449 0 -0.0075631754479142449 0.0012750746608807262 0 0 0 0.0038480998174902359 0.027333199373735018 -0.0027335979783042891 0 -0.0027335979783042891 -0.0018727090097536703 0 0 0 0.0063651225909953091 0.029748430662521919 -0.010120688065830219 0 -0.010120688065830219 0.0097648325527566193 0 0 0 0.0098783158038196484 0.0135902204671422 -0.011431220118678399 0 -0.011431220118678399 0.0079063116715016868 0 0 0 0.005374133034661055 0.012176895900347984 -0.011433310091671409 0 -0.011433310091671409 0.0036266333998633549 0 0 0 0.0039508823250529179 0.022766899176779209 -0.011811224846525192 0 -0.011811224846525192 0.0099814476797186469 0 0 0 0.0081870867141244918 0.041687899909871318 -0.0084459386158221017 0 -0.0084459386158221017 0.026211151772161045 0 0 0 0.016974762920508146 0.052870593921881759 -0.012011941640703933 0 -0.012011941640703933 0.028836474886542618 0 0 0 0.020426767202106011 0.034958232643408388 -0.005190735202546426 0 -0.005190735202546426 0.019464010412374499 0 0 0 0.013605560763945729 0.0011445947809949342 -0.002384594275938956 0 -0.002384594275938956 0.0023492329361030073 0 0 0 0.00087345692927454088 8.673906688150268e-05 -0.0013275906276224874 0 -0.0013275906276224874 0.00032866588737157088 0 0 0 0.00010385123856315737 0.0012753909154796458 -0.0010384945931449785 0 -0.0010384945931449785 0.00058383444818655892 0 0 0 0.00046480634091646792 0.0024129120069531496 -0.0016774166385300493 0 -0.0016774166385300493 -4.9748408815553091e-05 0 0 0 0.00059079089953439912 -0.00064612747078673927 -0.0034985356113057531 0 -0.0034985356113057531 -0.00074369289343501066 0 0 0 -0.00034745509105538197 0.0024993281269058976 -0.005108673694806054 0 -0.005108673694806054 -0.0015826731210117906 0 0 0 0.0002291637514733047 0.0076491198753895207 -0.0043659038221582902 0 -0.0043659038221582902 -0.0009072601150341697 0 0 0 0.001685464940088699 0.0030006081532406581 -0.0024354042771091988 0 -0.0024354042771091988 -0.0038937449044413874 0 0 0 -0.0002232841878002656 0.0059408159095430228 -0.0035047337396338918 0 -0.0035047337396338918 -0.0067803857217230111 0 0 0 -0.00020989245304488615 0.0032304896793857174 -0.0083265926794675593 0 -0.0083265926794675593 -0.0017397843179276506 0 0 0 0.00037267634036458608 -0.00011696910331265853 -0.011316947670236166 0 -0.011316947670236166 0.0018529709978123421 0 0 0 0.00043400047362490701 -0.0085182143889083045 -0.0079088110131037004 0 -0.0079088110131037004 -0.00023237196422160045 0 0 0 -0.0021876465882823964 0.0032841521830758447 -0.007335144087669998 0 -0.007335144087669998 -0.00011624123061848568 0 0 0 0.00079197773811420791 -0.00065051648458858136 -0.0078111009995668335 0 -0.0078111009995668335 0.0023496379886691621 0 0 0 0.00042478037602011742 -0.0039784336578137652 -0.0036380598670573416 0 -0.0036380598670573416 0.0003343373308708486 0 0 0 -0.0009110240817357812 -0.01216752418039207 -0.0037513997249482012 0 -0.0037513997249482012 -2.9146782438521602e-05 0 0 0 -0.0030491677407075645 -0.0042890618246741452 -0.0032753419604001355 0 -0.0032753419604001355 0.0025972407449073032 0 0 0 -0.00042295526994162724 -0.021222480207193306 -0.0041876990337587072 0 -0.0041876990337587072 0.0024825948346300919 0 0 0 -0.0046849713431407203 -0.006178411266094197 -0.0061693216117113536 0 -0.0061693216117113536 0.0030292962417639568 0 0 0 -0.00078727875608242126 -0.0083887637824080485 -0.0089831696555204288 0 -0.0089831696555204288 0.0020265304301714249 0 0 0 -0.0015905583380591004 -0.017243262426606135 -0.0045514609102723647 0 -0.0045514609102723647 -0.00094666846439236951 0 0 0 -0.0045474827227496434 -0.0097851187047206106 -0.010562118695986777 0 -0.010562118695986777 0.0012037514598530752 0 0 0 -0.0021453418112170192 7.4761907856601972e-05 -0.011894058151948661 0 -0.011894058151948661 0.003688510317878313 0 0 0 0.00094081805643386751 -0.0020085432617402699 -0.014042127987009503 0 -0.014042127987009503 0.0032587829744050723 0 0 0 0.00031255992816603406 -0.001282079312144524 -0.013270118159325661 0 -0.013270118159325661 0.0045018787078956457 0 0 0 0.0008049498489378637 -0.0099658675257378038 -0.010635221295580755 0 -0.010635221295580755 0.00085420173772687846 0 0 0 -0.0022779164470028146 -0.010000349649985391 -0.012396376480261428 0 -0.012396376480261428 0.0028150341630276132 0 0 0 -0.0017963288717394998 -0.0017020358388519785 -0.015437679094384205 0 -0.015437679094384205 0.0060257228700819621 0 0 0 0.0010809217578073849 -0.014276246761780853 -0.012555469949996068 0 -0.012555469949996068 0.0018555878844463969 0 0 0 -0.0031051647193337528 -0.019562809864184572 -0.0078529611968067847 0 -0.0078529611968067847 0.0017022878217473059 0 0 0 -0.0044651305106092609 -0.02249946320365101 -0.0062663602797772278 0 -0.0062663602797772278 -0.00068014540941541135 0 0 0 -0.0057949021532665845 -0.023740799742535901 -0.0066061089150825647 0 -0.0066061089150825647 0.002941725155447994 0 0 0 -0.0051997686467719073 -0.032911212570651688 -0.0034460288212814771 0 -0.0034460288212814771 0.00023666792678878057 0 0 0 -0.0081686361609657754 -0.020996934888206087 -0.0034240019379098013 0 -0.0034240019379098013 0.0013353967217923923 0 0 0 -0.0049153845416035624 0.030389611814161388 -0.014514639024639675 0 -0.014514639024639675 0.016647522256402203 0 0 0 0.011759283517640939 0.021916461975332147 -0.013014406210841045 0 -0.013014406210841045 0.016083543480221785 0 0 0 0.0095000013638885106 0.034076957067679436 -0.014222432551207975 0 -0.014222432551207975 0.029022627104552612 0 0 0 0.01577489604305804 0.028631141774512869 -0.015760177533669428 0 -0.015760177533669428 0.017658715840696004 0 0 0 0.011572464403802107 0.0093309645871096913 -0.013715569222952806 0 -0.013715569222952806 0.0075763711329084327 0 0 0 0.0042268339300045588 0.0083969981734597909 -0.013799947668584056 0 -0.013799947668584056 0.0047897286159650498 0 0 0 0.0032966816973563073 0.019112945538472537 -0.015811332060696195 0 -0.015811332060696195 0.0092647406247188258 0 0 0 0.0070944215407977573 0.015073044701401528 -0.016608714683699843 0 -0.016608714683699843 0.0083163824990173385 0 0 0 0.0058473568001047305 0.00684781774224133 -0.014743604507224173 0 -0.014743604507224173 0.0078230087726646191 0 0 0 0.0036677066287265359 0.0053547063881812518 -0.013922280270747323 0 -0.013922280270747323 0.0039542509596652842 0 0 0 0.0023272393369616617 0.0056803035090671194 -0.012794751598293852 0 -0.012794751598293852 0.006555034968574569 0 0 0 0.0030588346194102556 0.0265015534097921 -0.014965649368567036 0 -0.014965649368567036 0.013749313814108044 0 0 0 0.010062716805975036 0.017413306192538891 -0.014017423729267729 0 -0.014017423729267729 0.015032219445072048 0 0 0 0.008111381409402596 0.040028597433093505 -0.011039917311548048 0 -0.011039917311548048 0.025060754907242799 0 0 0 0.016272338085084104 0.029151309317428042 -0.013596840063898052 0 -0.013596840063898052 0.022348476798526251 0 0 0 0.012874946528988573 0.036711094950546669 -0.010678314261289457 0 -0.010678314261289457 0.020372215666565885 0 0 0 0.01427082765427809 0.02625936968598408 -0.015345729183790902 0 -0.015345729183790902 0.014680196607985918 0 0 0 0.010234891573492444 0.028322211689373156 -0.011527554016178332 0 -0.011527554016178332 0.015367810609117294 0 0 0 0.010922505574622654 0.034085211924328618 -0.013555820576253319 0 -0.013555820576253319 0.015146653074084027 0 0 0 0.01230796624960323 0.016781407028457485 -0.016331479497052714 0 -0.016331479497052714 0.0096000292958997591 0 0 0 0.0065953590810892693 0.019034098617143475 -0.012660833316221476 0 -0.012660833316221476 0.013332365735675034 0 0 0 0.0080916160882046617 0.014859937924602828 -0.017005326631492651 0 -0.017005326631492651 0.0078377313217514732 0 0 0 0.0056744173115885754 0.0012801516935054269 -0.016458614291177814 0 -0.016458614291177814 0.0049630144126107112 0 0 0 0.0015607915265290484 -0.0013163684918151564 -0.012243493163334701 0 -0.012243493163334701 0.0038865779011021395 0 0 0 0.00064255235232169028 0.014352583205330612 -0.013082060975051213 0 -0.013082060975051213 0.0080537868614920446 0 0 0 0.0056015925167056634 0.0047745109109059714 -0.017620037719833531 0 -0.017620037719833531 0.0047088341052192728 0 0 0 0.0023708362540313943 0.012177318145424942 -0.012688527913370884 0 -0.012688527913370884 0.0063621347961875241 0 0 0 0.0046348632354031305 -0.0015408342565084998 -0.013576067535944397 0 -0.013576067535944397 0.0030946161432514607 0 0 0 0.00038844547168573329 -0.00054040401625873868 -0.015672655988370532 0 -0.015672655988370532 0.0073346980816274554 0 0 0 0.0016985735163421722 0.029657362786546154 -0.0140072675936673 0 -0.0140072675936673 0.010026668585792847 0 0 0 0.0099210078430847781 0.032056781890656472 -0.011450323221903307 0 -0.011450323221903307 0.014745007397865439 0 0 0 0.011700447322130436 0.028832793178114324 -0.01160794841713695 0 -0.01160794841713695 0.016610608159693951 0 0 0 0.011360850334452055 0.013171790085884177 -0.016162409416332346 0 -0.016162409416332346 0.008619816206730857 0 0 0 0.0054479015731537517 0.026655161241398662 -0.013048737843832311 0 -0.013048737843832311 0.010652839568750405 0 0 0 0.0093270002025372389 -0.033670787374839584 -0.0064171425118381697 0 -0.0064171425118381697 0.0018797174319566956 0 0 0 -0.0079477674857207359 -0.039154720728569417 -0.0031446446785913795 0 -0.0031446446785913795 -0.00010489122072458723 0 0 0 -0.0098149029873234733 -0.032850579774245901 -0.0034342638309067253 0 -0.0034342638309067253 -0.00051864262380885151 0 0 0 -0.0083423055995137871 -0.043020203185922257 -0.0042490823018301116 0 -0.0042490823018301116 0.0019032399442666659 0 0 0 -0.01027924081041387 -0.024327403415837501 -0.0055399149187975727 0 -0.0055399149187975727 -0.0011254701326621763 0 0 0 -0.0063632183871250025 -0.013814810258512722 -0.010266273192359732 0 -0.010266273192359732 0.0022427528371936623 0 0 0 -0.0028930143553297927 -0.02420601132330541 -0.010757408593586391 0 -0.010757408593586391 0.002296713020142116 0 0 0 -0.0054773245757908096 -0.010019586872209246 -0.011463750111773641 0 -0.011463750111773641 0.001650500509256414 0 0 0 -0.0020922715907381317 -0.012411675022733881 -0.015034100295135799 0 -0.015034100295135799 0.0039005833449943239 0 0 0 -0.0021277729194348893 -0.015160859578735308 -0.012972006014695586 0 -0.012972006014695586 0.0031377598125124084 0 0 0 -0.0030057749415557944 -0.012314918504714809 -0.010874885201548667 0 -0.010874885201548667 0.0037786079206139772 0 0 0 -0.0021340776460252765 -0.013208593600864849 -0.014636542146018269 0 -0.014636542146018269 0.0059633438152114637 0 0 0 -0.0018113124464133601 -0.019379611161588421 -0.0083350559947775738 0 -0.0083350559947775738 0.0020943534079580703 0 0 0 -0.0043213144384076571 -0.027730711938814517 -0.010846498051952341 0 -0.010846498051952341 0.0027696592069036408 0 0 0 -0.0062402631829777122 -0.027461188467877734 -0.0089108872413546369 0 -0.0089108872413546369 0.0013701575061803584 0 0 0 -0.0065227577404242953 -0.028251665324102837 -0.00981350693672145 0 -0.00981350693672145 0.0019943477679109645 0 0 0 -0.0065643293890479404 -0.041096710201146483 -0.0054607398793445894 0 -0.0054607398793445894 0.0015094170213119096 0 0 0 -0.009896823294958626 -0.039839999514290056 -0.003331052102980625 0 -0.003331052102980625 0.00088779260839588758 0 0 0 -0.0097380517264735594 -0.050572881904782541 -0.0056682205193284152 0 -0.0056682205193284152 0.001201111767358376 0 0 0 -0.012342942534356083 -0.067921710950178127 -0.0032072949091328795 0 -0.0032072949091328795 0.0013441591240256345 0 0 0 -0.016644387956538137 -0.057314775163211901 -0.0040021158897685094 0 -0.0040021158897685094 0.0012873734142226922 0 0 0 -0.014006850437247309 -0.04657655343605209 -0.0017334759023588386 0 -0.0017334759023588386 0.00052963111617093661 0 0 0 -0.011511730579970222 -0.041072077919030614 -0.0093092728036952219 0 -0.0093092728036952219 0.0035658738038329973 0 0 0 -0.009376551028799418 -0.032277484895682218 -0.0058441442729418314 0 -0.0058441442729418314 0.0012172189520252008 0 0 0 -0.0077650664859142682 -0.016071410843999157 -0.0089581054350932471 0 -0.0089581054350932471 0.003621459204798616 0 0 0 -0.0031124879098001212 -0.01942372028827738 -0.012970580011592403 0 -0.012970580011592403 0.0064461693833643974 0 0 0 -0.0032443877262282039 -0.017265078344331386 -0.011230816900379595 0 -0.011230816900379595 0.011193508760174886 0 0 0 -0.0015178923960391111 -0.023967276214498782 -0.0061596082766382509 0 -0.0061596082766382509 0.0010171223912024407 0 0 0 -0.0057375384558240802 -0.02434892215403836 -0.0077626943180777869 0 -0.0077626943180777869 0.0048056275014630723 0 0 0 -0.0048858236631438567 -0.034789002714411196 -0.00042965798715106918 0 -0.00042965798715106918 0.0059843716440624584 0 0 0 -0.007201157767587188 -0.035937251748400637 -0.0079869654256837785 0 -0.0079869654256837785 0.0048801275776542696 0 0 0 -0.0077642810426866021 -0.04740638243505596 -0.0042254842612753779 0 -0.0042254842612753779 0.0013364324385224391 0 0 0 -0.011517487499133366 -0.043554916941968294 -0.0011878728902657842 0 -0.0011878728902657842 0.0013302536394597039 0 0 0 -0.010556165825627141 -0.065955703978807845 -0.0017430720093096208 0 -0.0017430720093096208 0.0017379379080710022 0 0 0 -0.016054441517684231 0.015551352319472696 -0.012409587917373122 0 -0.012409587917373122 0.010823395925375061 0 0 0 0.0065936870612119461 0.035798750811991714 -0.02216587611091296 0 -0.02216587611091296 0.020337124254776129 0 0 0 0.014033968766691995 0.01443975477450718 -0.016729786449007022 0 -0.016729786449007022 0.011324121302460077 0 0 0 0.0064409690192418489 0.011807955830730632 -0.012606037491910919 0 -0.012606037491910919 0.0057649810439470706 0 0 0 0.004393234218669384 -0.0048203376004724574 -0.013110993754919642 0 -0.013110993754919642 0.0052507674894219369 0 0 0 0.00010760747223736988 -0.0034159363857024783 -0.013547446927524132 0 -0.013547446927524132 0.0095822699518561816 0 0 0 0.0015415833915384258 0.0099379128450056975 -0.017322676413858401 0 -0.017322676413858401 0.012338413402224524 0 0 0 0.0055690815618075762 -0.0030296998080194815 -0.0083836023863130826 0 -0.0083836023863130826 0.012567706973059312 0 0 0 0.0023845017912599575 -0.021039932600389027 -0.0045910605559183054 0 -0.0045910605559183054 0.0052010762590634085 0 0 0 -0.0039597140853314394 -0.014166825787100129 -0.0023956955353049564 0 -0.0023956955353049564 0.0085810132157367325 0 0 0 -0.0013964531428408422 -0.0072212440144691636 -0.0124391044653549 0 -0.0124391044653549 0.014443260234561939 0 0 0 0.0018055040550231938 0.013365156012095425 -0.014175143091200521 0 -0.014175143091200521 0.017962489561168582 0 0 0 0.0078319113933159878 0.014272767214747795 -0.012711311676217859 0 -0.012711311676217859 0.019434089860116133 0 0 0 0.0084267142687159957 0.031663343110389215 -0.01827269381852506 0 -0.01827269381852506 0.027995690597943504 0 0 0 0.014914758427083182 0.042488761070041133 -0.03030735096523457 0 -0.03030735096523457 0.056617934469777413 0 0 0 0.024776673884954643 -0.019213795690307858 0.0052861759836566324 0 0.0052861759836566324 0.030541608329663572 0 0 0 0.0028319531598389458 0.096246835903663869 -0.029379170727970624 0 -0.029379170727970624 0.026737030972378006 0 0 0 0.030745966719010476 0.0022331555286264852 -0.0011307858899917314 0 -0.0011307858899917314 0.006558930061150851 0 0 0 0.0021980213974443336 0.049795177708583466 -0.015527087145517149 0 -0.015527087145517149 0.0064418130109276106 0 0 0 0.01405924767987779 0.043943652834618152 -0.011355354397277806 0 -0.011355354397277806 0.013811397901251854 0 0 0 0.014438762683967488 0.0055611433896262611 -0.002886950089356668 0 -0.002886950089356668 0.016618632924158092 0 0 0 0.0055449440784460877 0.067719208186915097 -0.0086952146261696783 0 -0.0086952146261696783 0.015420353864969094 0 0 0 0.020784890512971083 0.0079199972689823969 -0.0039910797917341641 0 -0.0039910797917341641 0.023680321957864656 0 0 0 0.0079000798067117607 0.048151791212258072 -0.0078100863225353812 0 -0.0078100863225353812 0.017594598985288923 0 0 0 0.016436597549386756 0.04442746422606339 -0.012990793238674803 0 -0.012990793238674803 0.011463574692251399 0 0 0 0.013972759729578704 0.012716457649550095 -0.0090804580665080174 0 -0.0090804580665080174 0.0096014081052349098 0 0 0 0.0055794664386962511 0.0078517587233082262 -0.010258602920719867 0 -0.010258602920719867 0.016846407260992124 0 0 0 0.0061745414960750825 0.014623454159396844 -0.0081968394460683325 0 -0.0081968394460683325 0.014301282210595942 0 0 0 0.0072311840924982121 -0.0041592148841162468 -0.010601070504186218 0 -0.010601070504186218 0.010578623078304011 0 0 0 0.0016048520485469342 0.013105405624042644 -0.0047470616096178288 0 -0.0047470616096178288 0.021267750179652767 0 0 0 0.008593288950923858 0.0091662388291771993 -0.0029610535406441874 0 -0.0029610535406441874 0.0060362991823086631 0 0 0 0.0038006345028714708 0.00032692945853042207 -0.0066126596978493268 0 -0.0066126596978493268 0.056357631304251782 0 0 0 0.014171140190695566 0.0094646271583230801 -0.00068408034385530198 0 -0.00068408034385530198 0.020888671453045876 0 0 0 0.007588324652842246 0.015004388839528301 -0.0068192019499434681 0 -0.0068192019499434681 0.0079228439738459333 0 0 0 0.0057318082033435414 0.018851604665649505 -0.0081829501749699357 0 -0.0081829501749699357 0.020723972069021192 0 0 0 0.0098938941836676751 0.013200127032844844 -0.00940893997510521 0 -0.00940893997510521 0.01990091093214548 0 0 0 0.0082752594912475844 0.016407220407769679 -0.012543917517994378 0 -0.012543917517994378 0.021168193179775585 0 0 0 0.0093938533968863161 0.017484586715045131 -0.011241234844664078 0 -0.011241234844664078 0.031733923366800615 0 0 0 0.012304627520461445 0.024238892522306106 -0.016554172499124779 0 -0.016554172499124779 0.022640640282909213 0 0 0 0.011719883201303835 0.02666519625545942 -0.015626916432179769 0 -0.015626916432179769 0.011220500861425314 0 0 0 0.0094714242792211661 0.021336574730545926 -0.012133212384218342 0 -0.012133212384218342 0.010335654033470337 0 0 0 0.007918057191004052 0.022932403678508337 -0.012424554261573427 0 -0.012424554261573427 0.0095310249554293458 0 0 0 0.0081158571584844241 0.020654889751974673 -0.011469043310644019 0 -0.011469043310644019 0.0086495835510524977 0 0 0 0.0073261183257567891 0.021688163556072768 -0.012717733115045482 0 -0.012717733115045482 0.0027872716324230939 0 0 0 0.006118858797123955 0.016547702721668743 -0.010866691751989468 0 -0.010866691751989468 0.0099727665308212976 0 0 0 0.006630117313122498 0.021151687962014179 -0.01094751594278584 0 -0.01094751594278584 0.0048523381602428861 0 0 0 0.0065010065305642628 0.021343914215051288 -0.011347360114122476 0 -0.011347360114122476 0.0056872130838499513 0 0 0 0.0067577818247253202 0.018656439066698727 -0.010977097972261637 0 -0.010977097972261637 0.0068767314296732385 0 0 0 0.0063832926240930121 0.02204755635836142 -0.010069237991385954 0 -0.010069237991385954 0.0017204728237077277 0 0 0 0.0059420072955173042 0.022322116000337594 -0.0097672057107671822 0 -0.0097672057107671822 0.0051625486639660934 0 0 0 0.0068711661660759427 0.022182164576725838 -0.0098478135534485062 0 -0.0098478135534485062 0.0086792361913783922 0 0 0 0.0077153501920260714 0.026774368684971378 -0.010930043355802083 0 -0.010930043355802083 -0.00011611104199210631 0 0 0 0.0066645644107448387 0.024315816962045489 -0.011655297826086292 0 -0.011655297826086292 0.0033971793916684409 0 0 0 0.0069282490884284703 0.023962980389641828 -0.011325152641724831 0 -0.011325152641724831 0.0031327443077850403 0 0 0 0.0067739311743567204 0.025532173724118118 -0.0089754854257824285 0 -0.0089754854257824285 0.00035180543605284331 0 0 0 0.0064709947900427334 0.025787347327873709 -0.0091176453929686374 0 -0.0091176453929686374 -0.00071995752456825712 0 0 0 0.0062668474508263631 0.02289626676757564 -0.0022916241028559103 0 -0.0022916241028559103 -0.0067116791137699638 0 0 0 0.0040461469134514538 0.02229406881176732 -0.0059296796674453561 0 -0.0059296796674453561 -0.0015880699286539568 0 0 0 0.0051764997207783547 0.026020946771488196 -0.0043270646789207168 0 -0.0043270646789207168 0.0006444221722723964 0 0 0 0.0066663422359401481 0.023279325308298543 -0.0079417399671063288 0 -0.0079417399671063288 0.010983471157073543 0 0 0 0.0085656991163430285 0.024491300737102456 -0.0067142469070918392 0 -0.0067142469070918392 0.0051937171119213477 0 0 0 0.007421254462255944 0.021856727551398492 -0.0079300654638098933 0 -0.0079300654638098933 0.0042651682763239634 0 0 0 0.0065304739569306165 0.022704385552848441 -0.004440243413404904 0 -0.004440243413404904 0.003487937427610277 0 0 0 0.0065480807451146761 0.024542317703658292 -0.0062952772229042386 0 -0.0062952772229042386 0.0099107556149413134 0 0 0 0.0086132683296499118 0.025724927113398632 -0.0050567275718411938 0 -0.0050567275718411938 0.012445550057758936 0 0 0 0.0095426192927893783 0.027898979169584143 -0.0063586525287603821 0 -0.0063586525287603821 0.020801433739882635 0 0 0 0.012175103227366674 0.025182177317395998 -0.0083149716513240546 0 -0.0083149716513240546 0.017551653125660704 0 0 0 0.010683457610764197 0.024456210251507918 -0.0072422165117506376 0 -0.0072422165117506376 0.014605082166008421 0 0 0 0.0097653231043790534 0.028876659942017324 -0.0055078943235654498 0 -0.0055078943235654498 0.029002175397044083 0 0 0 0.014469708834765338 0.05052768221901649 -0.0074570981733188546 0 -0.0074570981733188546 0.029698930420764769 0 0 0 0.020056653159945315 0.013098054813325575 -0.005157692689898347 0 -0.005157692689898347 0.039199484333812415 0 0 0 0.0130743847867845 0.034269357677909534 -0.0070951246732402495 0 -0.0070951246732402495 0.03104807666546866 0 0 0 0.016329358585844528 0.040205865744770752 -0.010315575619766079 0 -0.010315575619766079 0.032880438617457486 0 0 0 0.018271576090557018 0.040200242275241799 -0.0087673451065687358 0 -0.0087673451065687358 0.026842541944084086 0 0 0 0.016760696054831548 0.05190714652084219 -0.0062002156446826495 0 -0.0062002156446826495 0.024035061559297299 0 0 0 0.018985552020034879 0.021976162204338734 -0.008280678946975456 0 -0.008280678946975456 0.024957658257431639 0 0 0 0.011733455115442604 0.01036863492879358 -0.0047158156858332616 0 -0.0047158156858332616 0.031022127580365572 0 0 0 0.010347690627289787 0.043294022782846775 -0.0075753638689816799 0 -0.0075753638689816799 0.022760987962686663 0 0 0 0.016513752686383387 0.038939977376456381 -0.011579831438518068 0 -0.011579831438518068 0.013041767536581261 0 0 0 0.012995436228259383 0.055237383287165182 -0.0064825971286364692 0 -0.0064825971286364692 0.018745283387691325 0 0 0 0.018495666668714134 0.016234168633820822 -0.0088738718915499087 0 -0.0088738718915499087 0.01741146675122679 0 0 0 0.0084114088462618752 0.018891450771709555 -0.010992674449750356 0 -0.010992674449750356 0.0098567143342176838 0 0 0 0.0071870412764817801 0.018915884418779262 -0.010151084383992454 0 -0.010151084383992454 0.011685583900466284 0 0 0 0.0076503670798113779 0.0234721514789131 -0.0075173112011224091 0 -0.0075173112011224091 0.01946867275124986 0 0 0 0.010735206057540747 
</DataArray>
<DataArray type="Float64" Name="von_mises_stress" format="ascii">
0.020145416181538981 0.015886987805366785 0.023955058675077079 0.019425341251407248 0.016268380709013566 0.016274769836265301 0.021120568207073729 0.021129903866145664 0.021311101077078627 0.019002488529568581 0.024683475637429349 0.020306150507526464 0.028749627138792009 0.023893011364567084 0.031973471159595292 0.026807017369096395 0.026350301275102982 0.026086820802929279 0.014026583171239145 0.017556341809467566 0.014080451562118065 0.018742270605971355 0.017327281104505373 0.016569572690982273 0.014590546362415035 0.019847800640899357 0.018092532840427229 0.016819536583011524 0.01354728948231554 0.014771019802210128 0.016351697219033005 0.012049573515813096 0.014611525048664838 0.011144165728099184 0.016445568561466818 0.020732724621944445 0.01880681709864206 0.01457015809967699 0.019421920150103595 0.022194509310956723 0.016872882629725403 0.018254204177604552 0.015240745039982326 0.011739884081645113 0.017456159571499864 0.012582759059066704 0.011211891560304362 0.013564116726117155 0.031464108179841542 0.027970970013384798 0.038577787506815703 0.028299737563196967 0.023667464932651049 0.024213733298435555 0.025496244463769708 0.026930277244708738 0.021038854644755842 0.028795318899172469 0.022768727542710768 0.027569745810891801 0.035621702684472858 0.033807669642172897 0.032887141231064586 0.043666470113248153 0.046432639200261951 0.035363790704694288 0.03985317466523048 0.054509885666715011 0.043143744903332192 0.040153952781950733 0.045004313942272597 0.059779731115037558 0.027075372532648363 0.025810077252881002 0.031977760314401797 0.032820210150102648 0.025774226032088732 0.038982638377945654 0.030364457825387971 0.030199869456064048 0.024072018551963083 0.018862823203990912 0.017320316300902583 0.016823404026225931 0.015029558009382401 0.023896555748677776 0.0098516799532550273 0.014259724761795387 0.011296011784862718 0.0056282678109626167 0.01224238350505992 0.011701568543173235 0.0075398250837386297 0.0063177269641394506 0.019362850173554009 0.019994109414683377 0.011584621888031121 0.012945206916004478 0.019729827827413816 0.023921676499885351 0.020402097513462929 0.019505157831225865 0.010206430891434266 0.015225463723869162 0.0064977782812811911 0.010182479889826701 0.0083174303837748771 0.017631807382751295 0.019814261180889296 0.017215654976000905 0.020754086264580276 0.024756827324909986 0.010471218375829414 0.018538659454604513 0.021331248484870995 0.027043279592785723 0.032648004624337965 0.035601564254399573 0.044083328691158295 0.045937751297665981 0.06537565456675605 0.048315123690170873 0.047041928582879679 0.04815900063894208 0.042381887144207084 0.063957930467365379 0.048043474042909554 0.035249685404922078 0.029038277556657437 0.035560204324950273 0.020432644210762681 0.017398555588174606 0.016003571601447632 0.018019958717887773 0.018220072297551657 0.021199725440294637 0.025520199359432737 0.023477891148698825 0.023593318445251366 0.021374376763932466 0.022023340113260848 0.024010784839324336 0.02403066056789506 0.026028721024509018 0.027105606276781314 0.056389806934021916 0.037394471123849284 0.035577900547168605 0.027706430081893527 0.025972501652334151 0.022159065974303806 0.036166930131989232 0.021548447046904035 0.01229935400203361 0.020720740291428692 0.0089139660272625452 0.013768102462621933 0.025409788675769443 0.021624800181199475 0.020141368156586969 0.012209843255941625 0.015437243557825027 0.011241854253711063 0.0078502354514593288 0.0089478097159510755 0.0071086394918887146 0.010416229313802282 0.0073840026399022585 0.0086711979649208761 0.0079340982709867006 0.010473484749387738 0.0085602964709232052 0.012151088709149733 0.0089379133686385229 0.009055045660268898 0.0093319106774903855 0.0087683052984523918 0.008274918934010141 0.012519503105386484 0.012637844440540556 0.012846164402795133 0.0088549312067304417 0.0083950975068072115 0.0078297939371888437 0.01038425171540153 0.0092275587492289465 0.010489876649825217 0.014158205253115438 0.011933637351330722 0.018461827115108461 0.011594856685707432 0.01494370940485276 0.0095534890494282897 0.012499808844900501 0.012302162900880056 0.013885398042845958 0.013925506220305922 0.018923374308458786 0.020346838344599303 0.019273219551668219 0.017077345883613145 0.016963318229474913 0.011983010414558393 0.015334077068759024 0.017087638662332733 0.01605742442071758 0.018782803454698117 0.019794324120092216 0.016568389292350123 0.022004457932484942 0.021322566923837143 0.023599299597045285 0.021954092685518307 0.020470419923692449 0.010881586428718556 0.012117803440645954 0.011984006915480129 0.013813661179128639 0.011698575544507945 0.013020640116941849 0.012236942151457526 0.014161398576450695 0.015861417407615357 0.01386923992692532 0.017774696592062055 0.014410433750362602 0.013989664850601895 0.011969633714506593 0.013998959503707864 0.012165702200890065 0.013829202034009416 0.015285490652072083 0.013017988701045003 0.011777350189082233 0.015091395308335368 0.013173179119233928 0.01580796835222386 0.014277777885155845 0.015104281534178801 0.01815005076390367 0.01410431795703574 0.016693486749432114 0.013828094558383013 0.016861041661954877 0.013527510721929432 0.017233468226081728 0.020205161747480587 0.021839922521757413 0.019280473212591499 0.019915973887731069 0.016639886622021281 0.017992362611244678 0.014472589098523581 0.016472260792767299 0.015145278472504384 0.016864193575882851 0.018441781838412066 0.019120940449471865 0.017005066707293702 0.015269716099767341 0.017934246018736118 0.015680479612539971 0.017747615256720545 0.020347046584150163 0.021074327641675685 0.022300243825444644 0.021688458137536646 0.023694819052339406 0.023577743473450308 0.024850177120957051 0.023885532845267676 0.022597035436510985 0.02102633133654536 0.01543331682482604 0.015787383516700355 0.017697526545842935 0.015658978026760837 0.01991938928435695 0.018791593722649918 0.015696538233503116 0.020075540238105087 0.02115898910010526 0.021480914816272973 0.019451966918625628 0.019442291152551656 0.018025133522505555 0.021063606475626571 0.024925855911531014 0.023422792298024752 0.025164334028379098 0.025711308548624516 0.029601031418620985 0.024994394491884411 0.023320315014549536 0.023877216864466345 0.023281025557946044 0.021359258313110963 0.027508354688806087 0.02713201544610026 0.025717339705038724 0.030628860495734746 0.027116523418167515 0.026588903778079091 0.026764225311923212 0.029661459613944761 0.031104542502527564 0.032246727535414028 0.02780090578151076 0.028181331413460176 0.028478862062413127 0.027065577235028095 0.025761146691453414 0.024965553125630563 0.023221488423707359 0.022565906809882266 0.021890040707212812 0.025320361398718166 0.025829412406285408 0.023738819365119023 0.025662417416250246 0.025176403128751572 0.025937181426994319 0.026549706644958124 0.02626876499994605 0.028238168861875117 0.045294803843587202 0.035707683593103209 0.036737288852398811 0.035805287433304127 0.031648731325348831 0.026335970130459466 0.02085961681426059 0.025754939011963261 0.028632786183623592 0.027433043084604536 0.021677631532259881 0.021685852984756622 0.027644354986536633 0.023967962861930262 0.031479108609361962 0.040154039366692616 0.026625956862257251 0.032801533612449113 0.022131568629334287 0.020817385142680358 0.025983268032183447 0.024124251383333514 0.022799139389774917 0.01819233805883903 0.021312048330751846 0.016847309713448215 0.0224973043129571 0.016806718639327568 0.016023714542014837 0.022146683314305055 0.021106774663865711 0.017248653953296937 0.023948221595367174 0.021955337100556919 0.024567671245823357 0.025221922950663764 0.020433155511185255 0.026812552025054111 0.021355440579780637 0.024189892152351841 0.028636807516873558 0.027597012170999909 0.02916371390553061 0.026133262929876385 0.020866667745129755 0.024619773939123422 0.032207449247372379 0.031911363297350864 0.038174152758056724 0.037540603710284427 0.036064721921079602 0.035441261612224453 0.040907853424903516 0.050603183799848857 0.056037776797806568 0.066987739134612798 0.048325781580033908 0.05650516605376036 0.039640490142596158 0.045321167618489762 0.039250984680484963 0.07184246399418738 0.10009470487327705 0.070234102673222151 0.063786643567426207 0.088930686723959609 0.076232451128469908 0.053250365828183432 0.060111788232160922 0.062658452089076111 0.042702094382511858 0.041279836287862137 0.030381010763847447 0.048756413512513357 0.046995638423128532 0.041142766894250435 0.02698739755230091 0.028479782781949549 0.029443594600672991 0.03865731543743748 0.031947487059942173 0.041654424883697527 0.035243780295287387 0.02652553843285263 0.030497911044616036 0.027266147170824852 0.021466176584025359 0.031278452517924091 0.0292472203994881 0.032072081261913632 0.022010317844090781 0.021272461379205038 0.034596057484280032 0.020375854186871316 0.030679959355813035 0.019042868294425773 0.023362976971067435 0.036344150751883714 0.016577765855749712 0.034462112096056978 0.040663058601238748 0.059162640316467528 0.053068403582865777 0.068502066259260183 0.043094222715051443 0.033853155787081944 0.029905718332203436 0.058030213134007212 0.038373761473261998 0.05879315740104122 0.026118356729335643 0.040265974507180252 0.044120428194936147 0.04750762773071155 0.055881650180123109 0.054745338529757367 0.048288933738158867 0.059276194771000233 0.039119534788023658 0.066034690117218048 0.063143443651055967 0.054225322803553876 0.074627555737423301 0.067266554560614533 0.10242992591592137 0.074652592015922392 0.10726704094431383 0.076681200615370843 0.065984047738157289 0.078140670566114956 0.028157459527594166 0.029660331331846392 0.031190186633712945 0.024999169721909735 0.021489863242204112 0.019386846931218601 0.013753408746769752 0.023210005460820467 0.017494126371553401 0.017321014545483022 0.019593578965868094 0.022263937372416012 0.025318643916842173 0.022077857948562183 0.02795986530875259 0.029979534033791815 0.026681577752366268 0.028737594569941918 0.030346812030736262 0.031191803042081495 0.030398354346808786 0.026598118877054246 0.032055080659673288 0.028669218002504514 0.030674603570797512 0.034016376167688794 0.033963420135123622 0.038321576949105506 0.030240592616264807 0.039744733363027432 0.040485026865542541 0.053742374251298047 0.048663140282840495 0.051641156107324178 0.039314841695841422 0.040872382671102873 0.040493181181586888 0.046319266554334153 0.077601696429907357 0.11688179850355102 0.1275068412907843 0.088306927566449089 0.046561390236270338 0.052324580842876084 0.10297967630090435 0.057833265792543075 0.061705007388926987 0.049075555054652539 0.029859750771726232 0.043739828217520885 0.026562198373282594 0.033748598612836626 0.023239870802899226 0.035816307516781713 0.018435685164874874 0.026211120214900033 0.03969766624471887 0.028789404876759097 0.02608784115025797 0.03700510900872931 0.031278244855297413 0.029366299471446415 0.041608186156667316 0.039926476128530321 0.028821468831530049 0.037385333529230964 0.036548671404262725 0.03376461990551631 0.037970405073560469 0.042445652159993123 0.046197941650835538 0.062249953935514739 0.040478167363341339 0.047543654905588754 0.052181437089685506 0.069198115108220715 0.084561894889682743 0.070968986518866323 0.17933336296218078 0.060687576580691613 0.088148297278332705 0.17279206818759046 0.12552485888010731 0.0085456495484966116 0.20256733869782237 0.086549298400353164 0.022326606195869136 0.022018315356345828 0.075537868314949908 0.031125945465889288 0.02569870365886464 0.06192583334161901 0.052890132331484693 0.021938999863682244 0.026965528436491713 0.032959219478199027 0.018587884663172027 0.017481772640101857 0.024461794891076558 0.026021630714510555 0.052559907198115659 0.042646278616182025 0.047803768959206384 0.038661122728460673 0.037045268760653421 0.03824613477987044 0.035737131825570333 0.032738309460346282 0.030669363196532871 0.045696111562616007 0.030608065537550185 0.018188313665379277 0.024385187734988881 0.022423761375101419 0.02094806926666885 0.022778877277185906 0.026192165992486496 0.025368262619745622 0.026710046540009576 0.031734800043766193 0.030609189524685675 0.027342498710207285 0.026112069934981105 0.028436412641505867 0.02980233702000799 0.035999472031329416 0.031791356592714017 0.035430301914027532 0.030817985776452388 0.035647873516022346 0.032971201549809204 0.034603365408186725 0.049496139198337945 0.056584222887982323 0.05815635666159006 0.079372104440013302 0.087851814571081668 0.053898667665871404 0.056571335832369618 0.062324340644217886 0.055612617694795509 0.063018216656909876 0.044874985835400019 0.058696671946048232 0.043638905221020964 0.047913154214278976 0.068048657882267882 0.058356910596954713 0.086800854137309161 0.062557998358541908 0.049657573395463665 0.074604381187285559 0.059523952922983396 0.093963566717583019 0.11244660266968565 0.11501446831566844 0.097702758615413693 0.071392013485449171 0.07751738812715514 0.067412356490747616 0.058985520463832965 0.056275778539959263 0.053935722591859143 0.046316789187256416 0.040125181802100403 0.037492777117956115 0.042786628752248007 0.049005079333899422 0.035415287768217826 0.033776008512596316 0.036712067579134748 0.039073277295076182 0.048550992538135933 0.045520391637170553 0.046057809700606647 0.053467162608773405 0.036656897414096487 0.045573387395717556 0.028964459560995467 0.039277563782920334 0.034838725016764813 0.03150972092382464 0.023681454930144955 0.025782346666484345 0.03240824745753039 0.026096186436714602 0.016031387027158228 0.025473234590379246 0.040768699110166312 0.043053244450403989 0.033066533768730158 0.0068104481718552733 0.0082795785662942382 0.0099795293797503102 0.012189601363788705 0.010495305797753658 0.018296890139383799 0.021029539985919075 0.01429257196003942 0.019574817921345095 0.015073336928571188 0.019553309986896292 0.015120424044015516 0.01093909204108361 0.014157548325838864 0.011695922904899975 0.015597989828165989 0.016127298577334814 0.022066208490460787 0.016872322734989492 0.023798002134694591 0.021002508548539519 0.025165910838985055 0.030000468313922848 0.021136980479285441 0.025684092701666772 0.029760246423528574 0.033178280761138025 0.030756837425239016 0.026823079087595594 0.023445934787355363 0.02709350271352657 0.024897133366803163 0.021646843417880458 0.024973096896840203 0.019787173568150081 0.028768310142145558 0.023891687660837248 0.031501829789817616 0.034700759893415561 0.026620998861792474 0.01740430685009783 0.010299436620591868 0.0082396360262394497 0.01649543753542463 0.012276416475730554 0.017606923389004752 0.010593497323032166 0.018623344308451084 0.0087430571391577568 0.0061027513119475329 0.0061147744798883486 0.0069911884399184695 0.0058827019217411649 0.0059409570228791632 0.0047461107197296175 0.0067303590857806924 0.0049725926441680874 0.0030379150019953999 0.0022645369823753795 0.0015821590413840111 0.0016713927380899256 0.0028687067016520376 0.0049416631994616649 0.0031714670162629852 0.0068792810326604795 0.025108306391737351 0.025629823901597303 0.029125808049117477 0.029502206633412353 0.026056185135412465 0.021479661783630012 0.019463142574231134 0.023387402598425009 0.021793696666904505 0.022481472021463667 0.026386393723958994 0.027895033797562752 0.023920617860710404 0.025346647779954292 0.026521822206356911 0.022653426824398738 0.028243005137334607 0.032656960745461101 0.028245209694985 0.032863402566606796 0.03323506277733157 0.032389607584265311 0.052464942098770194 0.028402068476797042 0.033683888411958011 0.030763098577685846 0.059215455736828584 0.036854419032042937 0.03576066000671483 0.066075248173946319 0.03324749636903862 0.026696059768785609 0.037328903114660375 0.033770889874621499 0.031219953638947025 0.039144780242008521 0.028534416371824703 0.042057023107274272 0.041225763933353726 0.034123817738176652 0.04001971765746596 0.073367146790683083 0.049524752171230077 0.044233059103237188 0.037682342643706145 0.043690993412133589 0.081240880117862249 0.052536790855118032 0.046368879100369451 0.035965228558667066 0.047597813649726872 0.051737450114105563 0.045218899132647573 0.033468050256362 0.022783073463920361 0.029154481947617994 0.037129863324231419 0.022663907851899406 0.029495350658263909 0.028024335483507624 0.024235868154022715 0.03391556361892379 0.024130506538742238 0.022019928525060795 0.025684877030683017 0.020787024430246062 0.019950711462517774 0.025680625580165598 0.039599342520882763 0.028187612038487995 0.044755014868402908 0.031627307140908632 0.020093545071332087 0.028181536031830486 0.041495088698284971 0.051748032348685635 0.027989467895107471 0.021155273854265671 0.030109920384760007 0.020372580464225975 0.015987793704267828 0.025922884288369797 0.023913118777456548 0.016443562550096977 0.01626174036259322 0.020054041062193721 0.01904222883246362 0.018179713824119356 0.016114541962181532 0.016328075196284729 0.017899461574035224 0.015100311550168322 0.01871069316768452 0.016625463140240611 0.016241696878976867 0.016538931470985924 0.017060448686196928 0.015309929899107779 0.018454006686826882 0.020426914707384083 0.022051033722492907 0.01926458898040237 0.020659304898993282 0.018513471973672025 0.027486687747679379 0.033644679410371449 0.030374972713645962 0.024307510301984029 0.019289844820385819 0.019565407667583624 0.018402774381221853 0.019525106793677714 0.022177311977263876 0.021214582656243677 0.024503462512770257 0.023515626992374035 0.028603418440328439 0.037006320457224809 0.026215262220487159 0.03303131094748582 0.048257652047791394 0.029886381045562984 0.032166539364128104 0.040512038775461716 0.033779683583056212 0.057104967527882557 0.047662539947600495 0.041975585370715877 0.032000966033905349 0.022660891641012523 0.033156183817382515 0.0335903611303425 0.035662900227241411 0.036897881741167968 0.041756476885399164 0.0565182541566151 0.04711029509159493 0.045112442938622037 0.044254873695491685 0.067289268439936198 0.057138517167466922 0.045449010848202624 0.041055464579705055 0.035544622182937247 0.030342504392407956 0.03299804394787674 0.019735059200692684 0.014772662835682697 0.017609806318417631 0.026507947349765099 0.026540049904944952 0.021098099451778509 0.021508171742938897 0.024660582180432829 0.026111137723254192 0.03582376589111913 0.021118609600037159 0.004348581539235139 0.0023113139430329848 0.0019519594655426492 0.0036522234141917677 0.0060701827459967248 0.0095312752255928852 0.010720674863210359 0.007313857796702382 0.012580352093901187 0.01505533268680014 0.019680415852446138 0.015618100429733732 0.013065689864076491 0.013782997859381323 0.0073814902876730747 0.012728769696689433 0.0082418661929755319 0.022271222757898612 0.013356189705476109 0.018054934288368438 0.016793189674503915 0.020732679425286261 0.020858700337253074 0.02474773349577393 0.023537771345857897 0.020792261144644133 0.024236600290525639 0.027584830800780554 0.026033412986388657 0.023325901351214765 0.022548717839119548 0.026304514254637007 0.030437451383878864 0.0208178324846384 0.030198323727570447 0.024977820893828325 0.029577690861904489 0.031134661042163773 0.024176964057606828 0.024329880238627966 0.02954768750032391 0.029932910900365445 0.025812534584385361 0.024256476728879376 0.022384086779668341 0.029918806186330769 0.025680950001130066 0.028256955637536933 0.027478997889372806 0.027312175682633867 0.030195780416236672 0.025373549482216505 0.03117320333525608 0.029704032869287703 0.023890304939264303 0.030605979032489104 0.028727454319908058 0.02168928851813778 0.023969875329754056 0.030610803442095439 0.023018263337511013 0.023857813592458959 0.028040943528507344 0.031241961350833465 0.027477323837358382 0.025403516974130395 0.028790457023492828 0.028104400632561023 0.033683600699336395 0.035632367021546055 0.029815972008662681 0.0409073795282116 0.023158363526434259 0.022758352912064614 0.030065967499404305 0.022377969186306072 0.0297013006860125 0.027658327983710252 0.023528596780129446 0.030358496981397139 0.023936198518863132 0.03300886130398567 0.030069801892123493 0.031908010851365555 0.039355656634001958 0.037042977258278369 0.047530455684179879 0.062499731521043808 0.053102744913757674 0.042494461102113912 0.042922225479418756 0.031688794766664204 0.023265583766940406 0.031893138493203368 0.031434314483762604 0.024797314374007833 0.029019654827485652 0.036045270613266685 0.038745357806172304 0.044363421547142907 0.040332055074609588 0.060857882451375245 0.022852472615596742 0.043014263825893913 0.029806437639276429 0.022878487905623392 0.024326455134102039 0.02607089296726579 0.030586955161534288 0.019974972826733387 0.024399913036592863 0.020180839604635625 0.028626331634702289 0.026076703930172196 0.02399419274623826 0.035131364808515156 0.059322974403775208 0.044142395723193686 0.08460751280864659 0.0047646166929054866 0.048275971496734939 0.03572498675765038 0.012142936357945489 0.052059673148827541 0.017218835337752241 0.033962635081716298 0.038942055046807082 0.016904799675861972 0.020359752971956812 0.015935256513997815 0.022419334032411024 0.013835327905545491 0.0069351083971976295 0.051832255219468507 0.012524701985409557 0.014490320191278015 0.017360889452607005 0.019176541728417214 0.024026947955135033 0.026130109781194236 0.031006343726890692 0.031641956185939027 0.024394781206216402 0.025761861287042435 0.023587802056162416 0.028117528809762586 0.02075176532055337 0.024516504743406355 0.024815410083316003 0.022501279928329385 0.025482716802768167 0.023542427870756152 0.022072873174349437 0.030743086816775272 0.027995188622801211 0.027497044242053341 0.027551587972383936 0.028559510804860008 0.026260212726025665 0.023665309322874077 0.02415753682734071 0.019390098618838156 0.021670623034649339 0.021526776887853549 0.019467371550054607 0.018805368758021884 0.017321358359377041 0.017530313399553799 0.019110761413100624 0.018041457223845002 0.017331906675223829 0.029907723945208055 0.02759906495631511 0.020626507768703783 0.026331164157373251 0.025403564149509082 0.032533352850649053 0.018709620238014181 0.022219732741366575 0.027587435187488574 0.03277494173723098 0.038300351152720319 0.017550730154749342 0.021803442018535606 0.020171008729300225 0.01722775184472889 
</DataArray>
<DataArray type="Float64" Name="cross_section_updated" format="ascii">
1 1 1 1 1 1 1 1 1 1 1 1 1 1 1 1 1 1 1 1 1 1 1 1 1 1 1 1 1 1 1 1 1 1 1 1 1 1 1 1 1 1 1 1 1 1 1 1 1 1 1 1 1 1 1 1 1 1 1 1 1 1 1 1 1 1 1 1 1 1 1 1 1 1 1 1 1 1 1 1 1 1 1 1 1 1 1 1 1 1 1 1 1 1 1 1 1 1 1 1 1 1 1 1 1 1 1 1 1 1 1 1 1 1 1 1 1 1 1 1 1 1 1 1 1 1 1 1 1 1 1 1 1 1 1 1 1 1 1 1 1 1 1 1 1 1 1 1 1 1 1 1 1 1 1 1 1 1 1 1 1 1 1 1 1 1 1 1 1 1 1 1 1 1 1 1 1 1 1 1 1 1 1 1 1 1 1 1 1 1 1 1 1 1 1 1 1 1 1 1 1 1 1 1 1 1 1 1 1 1 1 1 1 1 1 1 1 1 1 1 1 1 1 1 1 1 1 1 1 1 1 1 1 1 1 1 1 1 1 1 1 1 1 1 1 1 1 1 1 1 1 1 1 1 1 1 1 1 1 1 1 1 1 1 1 1 1 1 1 1 1 1 1 1 1 1 1 1 1 1 1 1 1 1 1 1 1 1 1 1 1 1 1 1 1 1 1 1 1 1 1 1 1 1 1 1 1 1 1 1 1 1 1 1 1 1 1 1 1 1 1 1 1 1 1 1 1 1 1 1 1 1 1 1 1 1 1 1 1 1 1 1 1 1 1 1 1 1 1 1 1 1 1 1 1 1 1 1 1 1 1 1 1 1 1 1 1 1 1 1 1 1 1 1 1 1 1 1 1 1 1 1 1 1 1 1 1 1 1 1 1 1 1 1 1 1 1 1 1 1 1 1 1 1 1 1 1 1 1 1 1 1 1 1 1 1 1 1 1 1 1 1 1 1 1 1 1 1 1 1 1 1 1 1 1 1 1 1 1 1 1 1 1 1 1 1 1 1 1 1 1 1 1 1 1 1 1 1 1 1 1 1 1 1 1 1 1 1 1 1 1 1 1 1 1 1 1 1 1 1 1 1 1 1 1 1 1 1 1 1 1 1 1 1 1 1 1 1 1 1 1 1 1 1 1 1 1 1 1 1 1 1 1 1 1 1 1 1 1 1 1 1 1 1 1 1 1 1 1 1 1 1 1 1 1 1 1 1 0.0020215075037469236 1 1 0.0020551600712655064 1 1 0.0020770125747436221 1 1 1 1 1 1 1 1 1 1 1 1 1 0.0020956979440816315 1 1 1 1 1 0.0021132435716268608 1 1 1 1 1 1 1 1 1 1 1 1 1 1 1 1 1 1 1 1 1 1 1 1 1 1 1 1 1 1 1 1 1 1 1 1 1 1 1 1 1 1 1 1 1 1 1 1 1 1 1 1 1 1 1 1 1 1 1 1 1 1 1 1 1 1 1 1 1 1 1 1 1 1 1 1 1 1 1 1 1 1 1 1 1 1 1 1 1 1 1 1 1 1 1 1 1 1 1 1 1 1 1 1 1 1 1 1 1 1 1 1 1 1 1 1 1 1 1 1 1 1 1 1 1 1 1 1 1 1 1 1 1 1 1 1 1 1 1 1 1 1 1 1 1 1 1 1 1 1 1 1 1 1 1 1 1 1 1 1 1 1 1 1 1 1 1 1 0.0021301723157754401 1 1 1 0.0021470977658918492 1 1 0.0021643657571509814 1 1 1 1 1 1 1 1 1 1 1 0.0021825936127652778 1 1 1 1 0.0022028683256012614 1 1 1 1 1 1 1 1 1 1 1 1 1 1 1 1 1 1 1 1 1 1 1 1 1 1 1 1 1 1 1 1 1 1 1 1 1 1 1 1 1 1 1 1 1 1 1 1 1 1 1 1 1 1 1 1 1 1 0.0010404127013795266 1 1 1 1 1 1 1 1 1 1 1 1 1 1 0.0010591773655400903 1 1 0.0010492357608113891 1 0.0010704700802255777 1 1 1 1 1 1 1 1 1 1 1 1 1 0.0010834634530610494 1 1 1 1 1 1 1 1 1 1 1 1 1 1 1 1 1 1 1 1 1 1 1 1 1 1 1 1 1 1 1 1 1 1 1 1 1 1 1 1 1 1 1 1 1 1 1 1 1 1 1 1 1 1 1 1 1 1 1 1 1 1 1 1 1 1 1 1 1 1 1 1 1 1 1 1 1 1 1 1 1 1 1 1 1 1 1 1 1 1 1 1 1 1 1 1 1 1 1 1 1 1 1 1 1 1 1 1 1 1 1 1 1 1 1 1 1 1 1 1 1 1 1 1 1 1 1 1 1 1 1 1 1 1 1 1 0.0010054511358296332 1 1 0.0010138421110571401 1 0.0010197253026889412 1 1 1 1 1 1 1 1 1 1 1 1 1 1 1 1 1 1 1 1 1 1 1 1 1 1 1 1 1 1 1 1 1 1 1 1 1 1 1 1 1 1 1 1 1 1 1 0.0010326563744337848 1 1 1 1 1 0.0010258430461913446 1 1 1 1 1 1 1 
</DataArray>
<DataArray type="Float64" Name="displacement_divergence" format="ascii">
-1.7589625258571935e-05 -1.9513742500372256e-05 -1.4822352054844654e-05 -1.7036654157547793e-05 -1.6084241999835234e-05 -1.6075221705800085e-05 -1.4883863194366855e-05 -1.5787662512981294e-05 -1.4406278454568106e-05 -1.082086675469357e-05 -1.5980744612476095e-05 -1.0163754291176185e-05 -1.9339596944293447e-05 -1.4614187291777825e-05 -2.339150647966469e-05 -1.8477979165818674e-05 -1.5833321126850686e-05 -1.7361533485355137e-05 -2.4146022062652487e-06 -4.6319656018131956e-06 -4.9115216830665898e-06 -8.9141198141639271e-06 -1.0470911657836282e-05 -6.4020480834832542e-06 -7.3663199163124035e-06 -9.5497362081555071e-06 -1.0237618355678851e-05 -9.138048425194623e-06 -3.7816030397133559e-06 -4.5201010673046895e-06 -2.3375144570034782e-06 8.1556896471111798e-08 -8.9870433301240217e-07 -4.4288283713744033e-07 -4.7380193819857432e-06 -1.0272184916937718e-05 -8.4080333946477968e-06 -4.9673799016651241e-06 -9.4998278497695114e-06 -1.1354326558197313e-05 -7.9125423151767117e-06 -5.2909053834714248e-06 -4.9276606599443689e-06 -8.1958633933854049e-07 -5.4757343877405586e-06 -3.0047439544350778e-06 2.950107027633762e-06 -4.4961655011350327e-07 -2.324138493431846e-05 -1.7808038805843819e-05 -2.667839774802677e-05 -1.7546302290047907e-05 -1.3557772204660542e-05 -1.4835183821578554e-05 -1.5102777589430715e-05 -1.6676073193674199e-05 -1.2041889925105198e-05 -1.8165393910482608e-05 -1.4196237306712622e-05 -1.695065614120417e-05 -2.4565029515487649e-05 -2.3401701693826821e-05 -2.2073081183185784e-05 -3.0445944901457064e-05 -3.2388127273271819e-05 -2.2843891810675463e-05 -2.6679565075277114e-05 -3.6580145564640662e-05 -2.7479986267341626e-05 -2.8320214828604704e-05 -2.8810610302326353e-05 -4.2105969734425563e-05 -1.557098349295117e-05 -1.2930732280089376e-05 -2.1242460614455236e-05 -2.0301347068010989e-05 -1.3072753409333862e-05 -2.3308068583917545e-05 -2.0503001569700011e-05 -1.7629830726769374e-05 -1.2632200693816682e-05 -7.9155695595379924e-06 -7.6216248079615305e-06 -6.1861532566916507e-06 -3.1218735274490231e-06 -1.3130897359151668e-05 1.8445708257663662e-06 -7.3048738796831041e-07 -8.2419496802368817e-07 5.9604759087434614e-06 2.9495726763530705e-06 1.134292318691974e-06 7.2802770755012194e-06 8.9594623834110803e-06 -6.8825721065970678e-06 -1.0239084022975041e-05 -7.4602482161369345e-07 -2.8908062370847583e-06 -4.8611459912579482e-06 -7.6081856532488767e-06 1.6207934036670398e-07 -6.931590892628425e-06 1.7797451512989451e-05 1.353617704314211e-06 7.4755383174176658e-06 1.1867851470250508e-05 1.8769626020068042e-05 1.5056027762392672e-05 1.4076907297477022e-05 1.5539004265371044e-05 3.0325926028380189e-05 -1.3094817639875463e-06 5.1703034003613594e-06 5.6477029477863057e-06 -6.7019022702306049e-06 -8.9165299136588863e-06 -1.6738068979649928e-05 -2.0709864859955598e-05 -2.5239722140617473e-05 -3.0301101496086512e-05 -4.3415809659251987e-05 -3.1574313843847767e-05 -3.113703758483925e-05 -3.3869026422875021e-05 -2.6830078363249604e-05 -4.3811018583727972e-05 -3.1087773932582215e-05 -1.9373216697666273e-05 -1.3008664123026519e-05 -2.1599965995554388e-05 2.7791262851287765e-05 2.5285812832508305e-05 2.2153143372459788e-05 2.4607450714413952e-05 2.7797575348084342e-05 3.1682790282899721e-05 2.8851869035771403e-05 2.7523560220737842e-05 2.8732810793667362e-05 2.6849359510748604e-05 2.4023257285223654e-05 2.6914215511332149e-05 2.6163362561960543e-05 2.6922351588228553e-05 3.008010712331583e-05 5.6704954369486696e-05 2.6958388150355656e-05 3.9226720388261163e-05 2.5526190300753623e-05 5.339239356402369e-05 3.4688690519528442e-05 5.3377004404082317e-05 3.0065882290036533e-05 2.6001782885115409e-05 3.2419866744736641e-05 1.9339964951755177e-05 2.041538485053363e-05 2.8519682424527168e-05 2.1594595281972313e-05 2.8005676945840512e-05 1.6987060173650363e-05 2.4751494936434031e-05 1.9220268326936139e-05 1.7454206074129897e-05 1.3132469785768757e-05 1.5033030841543373e-05 1.5768315826611996e-05 1.4206682120420592e-05 8.5245252740055594e-06 1.1166694585039981e-05 9.2371710043678839e-06 6.9726687742596789e-06 4.3336868947605066e-06 1.5104764304755556e-05 1.4238046996023848e-05 1.253468338332715e-05 1.131996576477272e-05 1.5854380944272201e-05 1.3946272143102214e-05 1.8266245609324936e-05 1.8314943125051561e-05 1.8237907122262073e-05 1.9926627492314902e-05 1.7349098777894663e-05 2.4528403824936953e-05 2.1423295860741882e-05 2.0821063955265962e-05 2.5477566893706054e-05 2.0090893192217612e-05 3.3569267347571127e-05 2.3807130863951312e-05 2.8513917152127596e-05 2.2823336710988801e-05 2.7224481329473104e-05 2.7231244372463052e-05 2.2068797708690058e-05 2.2483982735965509e-05 2.2645417943513871e-05 1.9572279020203672e-05 1.5966222438376233e-05 1.8302924546090421e-05 1.8915517108929195e-05 1.5139410900296459e-05 1.3293729721985721e-05 1.4941171024246304e-05 1.6901819401684271e-05 1.4453406488905406e-05 1.3815232371804249e-05 1.1683811062159691e-05 1.5300886077847562e-05 1.5087677936959481e-05 1.7429202886298851e-05 1.6211725633374976e-05 1.6434052963668332e-05 4.889532065301316e-06 6.9182960297363692e-06 3.9453726222629118e-06 8.4814929309668462e-06 9.0753889192736549e-06 1.0175716162701365e-05 1.1396604424654015e-05 1.2171072782748484e-05 1.1115643576918684e-05 9.8177026580844756e-06 1.0892720302140753e-05 8.6753006918072392e-06 7.164369150745597e-06 4.0496174353662265e-06 3.1270069289465784e-06 3.3354285400508381e-06 1.9224448437161161e-07 1.9619390499472292e-06 2.5201053815323269e-07 2.2391457771493478e-06 5.4276098433206762e-06 5.1649285725837846e-06 6.0171677977870229e-06 7.7690333368236204e-06 8.7100214492586286e-06 1.0406698370201861e-05 9.5162052046053019e-06 7.7392089291204405e-06 8.0582073542723799e-06 3.8522247824416968e-06 2.9364439752869522e-06 -5.1060271033368494e-07 1.5305348134232644e-05 1.5215553738191416e-05 1.3342309873262251e-05 1.3011568573246174e-05 1.1666948929883291e-05 1.3227272426527196e-05 1.2587408324014711e-05 1.1361412999677441e-05 1.524943368754516e-05 1.3536524738416493e-05 1.6323686598143736e-05 1.3832962205732032e-05 1.4649115074299466e-05 1.6985322517114538e-05 1.5255282698575783e-05 1.9447999573516276e-05 1.4558321430827096e-05 1.7403551995447726e-05 1.6594242158298368e-05 1.650049680131339e-05 1.5150372309964573e-05 1.76174730274973e-05 1.534216293700642e-05 1.5009402687436188e-05 1.3457419741969047e-05 1.6028108956840766e-05 1.5605583404246784e-05 1.9201318422490247e-05 1.8837939157954292e-05 1.4469101665262631e-05 1.5668696589506668e-05 1.5352299500282178e-05 1.1213732420524953e-05 9.5897804987834109e-06 6.7207907532042255e-06 1.9286462988969474e-06 4.8434223508527683e-06 7.4969625746742962e-06 1.1146949865461288e-05 4.5030778503316914e-06 9.5055532991545244e-06 1.2384348640905283e-05 1.4668141999663475e-05 1.4590658570939974e-05 1.342658195694052e-05 1.7550160220403395e-05 9.7034979084683736e-06 7.1343634678194302e-06 1.0240396148167516e-05 1.1816187659498182e-05 4.3210971838345338e-06 9.586245320343913e-06 1.3470367544654683e-05 1.1992190938525011e-05 2.0137097999696978e-05 1.4451122061011614e-05 1.3905344281193614e-05 1.6930845294988579e-05 1.6399105956344586e-05 1.9514602718531591e-05 2.5559305080529182e-05 2.2253970250236218e-05 2.3806791280403602e-05 1.9266226707494623e-05 2.1256863779924375e-05 2.4941414901725739e-05 2.0782028037813714e-05 2.3105017974996359e-05 1.8616676777242608e-05 1.8149213000683997e-05 1.774534262043807e-05 1.9008470772172047e-05 1.5766052034063471e-05 1.8037307739681902e-05 1.5698722037801013e-05 1.7022075038093968e-05 1.5813758281901102e-05 1.7626303051247685e-05 1.8648098754203167e-05 -3.3537829296823996e-05 -2.3181224789270125e-05 -2.5252229589493059e-05 -2.0422621510990756e-05 -1.8611358380873607e-05 -2.2327216773878299e-05 -2.4927323638910854e-05 -2.1600320095758571e-05 -2.0269741780844067e-05 -1.7815643483048209e-05 -1.9202759980494243e-05 -1.9189300709091659e-05 -1.8043135165157329e-05 -1.162015161881536e-05 -1.7872475387570049e-05 -2.710566628396145e-05 -1.0893730048538751e-05 -2.1059734601894352e-05 -1.0752291379587282e-05 -9.7252239319877659e-06 -1.0911759129050744e-05 -9.3002771237521609e-06 -1.1224085171039292e-05 -4.9613525434553954e-06 -5.4167699903192265e-06 -2.4035933806698187e-06 -3.4901363271963126e-06 2.5831425154907557e-06 4.8375582788287334e-06 -1.7027167056793202e-07 -2.2042115025353591e-06 -1.6052790360846833e-06 1.2838614433482691e-06 5.6121588543139522e-06 -3.036912558056047e-06 4.3907417894835203e-06 5.3098077215847203e-07 -4.1843057116510854e-06 5.7822451208592587e-06 -2.6986245510035047e-06 -3.9133735316275086e-07 -1.4115233988190084e-05 -1.2096439411932188e-05 -1.1592385870013168e-05 -2.1115532267842896e-06 -9.3702072077726483e-06 -1.9038376799871018e-05 -1.5818249476685729e-05 -2.2986918849681908e-05 -1.756984977607989e-05 -2.3609097624065624e-05 -1.2152105059764451e-05 -2.0877101133035564e-05 -3.6261687438745845e-05 -3.7593296983647815e-05 -4.6104197805290367e-05 -3.2651948234030734e-05 -3.9044851428016531e-05 -2.4075765176192159e-05 -3.4147512740528235e-05 -2.3224770333346536e-05 -4.4802238944783043e-05 -6.8562984505901443e-05 -4.1453883914735308e-05 -4.1132415083173344e-05 -5.9300070071919355e-05 -5.2228593251087959e-05 -3.4707120255894765e-05 -3.9774381843854281e-05 -3.7033596191098371e-05 -2.0752817581747285e-05 -2.3420975328318024e-05 -1.764829327699255e-05 -1.8535763684745485e-05 -2.8478095805643645e-05 -2.0140934291404449e-05 5.1702510306232425e-07 1.0069107113718382e-05 9.9694862257631558e-06 -1.2616536546329511e-05 -4.4592905065188414e-06 -1.6182381473744776e-05 -8.6801144666555483e-06 -5.0020396004818569e-06 4.3060343685817169e-06 -3.4192567046201553e-06 5.2132128444227041e-06 1.5390478898036088e-05 8.775862618293102e-06 1.8592612980120965e-05 8.9600409609226714e-06 1.8421300631458067e-05 2.9852480669222671e-05 1.4611001123277604e-05 2.7879719532654645e-05 3.1696725412713747e-05 5.4655355103381268e-05 5.1756795249767131e-05 2.7086576412148214e-05 2.2969942459129147e-05 5.7389881053763287e-05 9.6806883314697382e-05 9.0084995171874134e-05 9.7046036409819542e-05 6.4950629455955383e-05 4.3888426808528038e-05 5.3288731923578503e-05 4.2757420023462988e-05 1.7170613672386941e-05 1.3293381416880091e-05 5.3004607315857159e-06 -4.4380449371530304e-06 2.9636634728263112e-05 -2.8519945556685646e-06 -2.5352893463692568e-05 -2.7062179599417484e-05 -1.1601603864730544e-05 -1.7619216470341688e-05 -1.1026938902257454e-05 -3.0805895988203675e-05 -1.5910475149802589e-05 -2.7814964332532801e-05 -4.0969433086176588e-05 -4.1429388247257964e-05 -6.4122983318645971e-05 -4.814034846584587e-05 -6.9915658644944585e-05 -5.1584232299517512e-05 -3.8143968961142622e-05 -4.8520756536858309e-05 3.7006095085704343e-05 4.2539236943771672e-05 4.4320582223034334e-05 4.1409346929372616e-05 3.7625038717884347e-05 3.1256238061194307e-05 2.7367680783031227e-05 3.5007175388862693e-05 2.5036536996516436e-05 2.8389766811088763e-05 2.1076867866430657e-05 2.809694071887354e-05 2.4298477544517002e-05 2.9970744219736465e-05 3.1400290143571716e-05 2.786505364317993e-05 2.5073809409553439e-05 2.0415326216629227e-05 3.103420393975472e-05 2.8051234330766481e-05 3.4713463248891332e-05 2.0001670275601448e-05 2.5768584633855658e-05 3.2741591765248244e-05 4.1287034884461117e-05 5.2663449217501285e-05 3.9172560920482924e-05 4.2725828974110583e-05 4.4229635024357113e-05 5.4261782805910074e-05 6.260309363869212e-05 7.8212301707764691e-05 8.6906347305265274e-05 7.7013076052268557e-05 6.7468448192045866e-05 7.3880308667467173e-05 9.1066972050323668e-05 8.7182457126729312e-05 0.0001536776287724146 0.00019031635735325601 0.00017979000926397469 0.00012115869421138748 6.6034710215154101e-05 8.9960758883611617e-05 0.00011181576281384486 6.4355969960774748e-05 6.8513425395391465e-05 7.0704917305180578e-05 4.9672019409727421e-05 6.2680095287535989e-05 4.0436122585155592e-05 5.1543437112056374e-05 3.8565493906322736e-05 5.4533261148078302e-05 3.2070553659855223e-05 4.0133028516887233e-05 4.5565173340093467e-05 3.7215193363498135e-05 3.3110915583471594e-05 5.0605408727455589e-05 3.5567429653328988e-05 2.8950148427261881e-05 3.9504174330715879e-05 2.4436805486896253e-05 1.9690342726874519e-05 2.8410854901186362e-05 2.9158270423479122e-05 1.7317737940034339e-05 2.8550245827057674e-05 2.0504152088179445e-05 2.7105138627327722e-05 4.9751275300481947e-05 4.368495715397336e-05 4.1297566022764339e-05 4.6883554289989048e-05 6.5604303214894576e-05 7.2588314542208716e-05 8.5166987368430293e-05 0.00019949604707355617 2.6312643484051012e-05 7.8958499630327127e-05 0.00018771039005036891 0.00011467158202535367 0.011187624059570089 0.00016144659023804506 8.3514325911284966e-05 0.027528543794068827 2.3260769235077536e-05 7.6813711517628302e-05 0.038559063397118572 2.8735556104611337e-05 5.4726971338264546e-05 2.3019998099440842e-05 3.4717331966378973e-05 3.153857783425078e-05 2.7198586757548777e-05 2.3952097912932797e-05 4.1307895825398104e-05 4.0006127605124448e-05 2.9021900514850628e-05 4.9715191811826927e-05 6.8251875370422925e-05 7.1585553581462666e-05 0.047871855194321147 6.7065232073631521e-05 6.5695730876996457e-05 5.9618511039550518e-05 7.0097671052729744e-05 5.421099769589168e-05 0.056651980853196261 6.7665266084574903e-05 3.3029231142078471e-05 2.4623234914365668e-05 5.0451296022426483e-05 3.7388266827473679e-05 4.0073164266639144e-05 2.1630334356281453e-05 2.214107414812372e-05 2.3747779554485554e-05 1.6522763307543625e-05 1.6546039335325565e-05 1.2079174636381244e-05 1.7153098118574087e-05 1.5267189119708407e-05 1.680693655867137e-05 1.7761328544010663e-05 1.2986916956055804e-05 2.0809752533164632e-05 1.7413957683063275e-05 1.6646247108082697e-05 1.7479626858537964e-05 2.2290722196199387e-05 -3.0929028373607569e-05 -3.503052763571921e-05 -1.9481087060714336e-05 -5.061630240736051e-05 -5.3434507211444927e-05 -3.2668304512301896e-05 -3.1723484452053446e-05 -1.6435666821258991e-05 -4.5167081930005894e-06 9.4877363276532276e-06 -1.0169533264029699e-05 -1.6186393079729855e-06 -1.8651229254147738e-05 -3.7693874442553191e-06 2.9111835107740677e-05 1.3422993405708301e-05 4.959374859310505e-05 1.6571821495739761e-05 -2.3462345560050111e-06 3.0187778970260462e-05 2.5696822378308863e-05 6.9857505294845454e-05 0.00010550634689651586 7.7990216743879792e-05 7.8386677063485522e-05 4.2021366190407366e-05 5.1231252916345688e-05 5.7270967269399667e-05 3.0434336661134273e-05 2.7829249513578033e-05 4.4383226262933138e-05 4.3278000549104383e-05 4.5279942998467139e-05 3.9198493573018082e-05 2.8571631500541117e-05 2.6392273117790185e-05 1.3498950036767136e-05 1.4381095561674022e-05 1.3774779420252549e-05 -1.1743638030135926e-07 1.6407851279354266e-05 1.8281413040598452e-05 5.3809951756176189e-06 4.8334510094794503e-06 -8.4404457477672227e-06 -7.2708174157457304e-06 -7.3335264577580224e-06 -9.6534296142345788e-06 2.4992055446802254e-06 -2.2831534582043195e-07 -2.9017102220004363e-06 -8.2578235038326293e-06 -1.0610783592228086e-05 -1.6271490626572783e-05 -6.5556412061555484e-06 -1.254191498266952e-05 -2.6542729289145517e-05 -2.1710069341840084e-05 -1.8583042455379674e-05 9.1997085114330264e-07 -4.2805493239068439e-06 1.0147434496565744e-06 -5.7155559557782627e-06 -4.6148306225802724e-06 -1.0963365500599957e-05 -1.0825756123394262e-05 -6.4815380237271542e-06 -3.8761774643208957e-06 -2.7150290570886887e-08 1.7653688443326071e-06 6.2698023091437537e-06 5.8755575013283261e-06 -7.7710319208257415e-07 4.8201070063888822e-06 1.5305800640628194e-05 1.7741720529354434e-05 2.4168211308990464e-05 5.000914974546012e-06 3.0046561017944493e-06 1.3208372359060807e-05 1.3194556970479512e-05 1.9764705037542477e-05 1.4594254129573006e-05 3.2709539484785093e-05 3.3817319823613128e-05 2.6137511002622456e-05 3.8080493560042569e-05 5.4014951205449274e-05 4.2421014359948946e-05 5.4037267660272253e-05 2.8197978522675622e-05 3.8486601163123307e-05 5.7228129994416153e-05 4.7447799781444571e-05 6.1724326752485726e-05 5.3725831321730332e-05 7.4355363630812868e-05 8.1823730697180299e-05 5.6003859181538631e-05 4.3108218048116924e-05 1.2550260840773521e-05 1.9637701452674457e-05 2.5068776576667173e-05 1.4418181016867277e-05 3.1118233364882657e-05 2.1306107272709611e-05 2.9881473933075341e-05 7.8614893888205497e-06 6.3932062755985355e-07 5.1554980216804956e-06 2.8895737859543566e-06 7.0739774352913606e-06 5.2820135326091776e-06 1.9759304887598077e-06 5.4835024400094398e-06 3.353757853663715e-06 1.6293945488271566e-06 2.0795472895298759e-06 1.6102588412327153e-06 9.0011186784600891e-07 2.268344853982758e-06 4.0111916489076263e-07 8.4132340005588137e-07 -2.9662894035250957e-06 1.9211327196222254e-05 3.6488491515674509e-05 3.3954909390754968e-05 2.8606057141226568e-05 1.7239079760182473e-05 1.1025776435301914e-05 1.2233060427190435e-05 1.6253922805099216e-05 1.1364758261647842e-05 1.2117790077611766e-05 2.0210473042333004e-05 1.8591378811555026e-05 1.8130187308848869e-05 2.8999757140060539e-05 2.8476363483728024e-05 4.2425013722414712e-05 6.2135246017333567e-05 7.3981546579498115e-05 4.9486159703808887e-05 6.495497556625407e-05 8.1714221342742404e-05 6.7528983583408861e-05 0.06512085721748713 5.5320431313851583e-05 8.0574565119006852e-05 7.6882890635282877e-05 0.073581285023367415 8.2438671865798238e-05 8.736902246147182e-05 0.082257651795987846 7.8001683448117559e-05 5.1533113337075926e-05 8.3283325845658149e-05 4.9766643857160862e-05 5.9756070140992219e-05 6.8949545563979633e-05 5.421017949126408e-05 9.5865927101290585e-05 9.896181081963263e-05 7.7835418117811345e-05 9.9386519928545015e-05 0.091252897356172577 0.00011600625995165448 0.00010890047720347112 9.2532377160409445e-05 0.00010537983659002052 0.10189831385331735 0.00012853056125327385 0.00011252413473780611 5.4304952724874552e-05 0.00010712650350785914 0.00012498315347360856 0.00010292330414690188 6.5026764111050512e-05 1.6979407290247211e-05 4.1778466829654054e-05 1.3838522990407124e-05 3.7912544231993753e-05 1.9835408203100393e-05 1.9352924361497326e-05 2.7348272344631052e-05 3.8130233807811805e-05 9.7948758716569218e-06 1.3337496788941691e-05 9.6389618165144725e-06 1.5721389813695429e-05 5.1906406882272667e-06 1.7262066202968981e-06 -8.592172121676153e-06 -2.1443439580775539e-06 -1.4201569915817049e-05 -8.7527802945840463e-08 9.3471458937331199e-07 -1.2461646837736112e-06 2.5678075463501015e-05 5.8983397129346839e-06 7.2609428620603808e-06 2.9365938570972299e-05 1.4287601377389842e-05 1.6010210578387902e-05 2.3274228802038291e-05 3.0348845175054049e-05 8.7940801905900192e-06 1.2407031333603442e-05 6.5906811634361515e-06 1.1562112913312037e-05 1.1080753048605036e-05 1.3923354775165621e-05 1.361837919042696e-05 1.063769985800518e-05 1.6217606349689761e-05 1.4266247609026682e-05 2.4715062775786424e-05 3.3153850342708315e-05 1.9244872699682885e-05 1.5938027675114e-05 2.1652722682235725e-05 2.7877830031217739e-05 1.8426486704600121e-05 1.1996410806809751e-05 1.524898761397275e-05 1.1595746104119716e-05 1.4480969212714455e-05 1.5938701354256582e-05 5.4959744440075597e-05 0.040447151468612566 5.7176950267908019e-05 5.0871973172465594e-05 4.3218604828808272e-05 2.7685471759691333e-05 3.1617548843103675e-05 3.1334247749463897e-05 5.4227225373862619e-05 4.4604350053823231e-05 4.9382208769921458e-05 4.0802592766094937e-05 6.7973636661514667e-05 7.9680953104901964e-05 5.7728024231491976e-05 5.7800383181563948e-05 0.059234027972684657 6.6119670815924627e-05 6.4675297908754455e-05 0.049272032372994837 7.9657682696353781e-05 0.070494804429581559 0.00010013415986270553 8.9438778492930744e-05 7.5069411057035289e-05 4.5134569925134164e-05 5.7851144557281766e-05 8.2227254083509478e-05 6.5788104958511311e-05 4.216570109483609e-05 9.1705903827499365e-05 0.00011260869756812986 8.6270076553171733e-05 5.3869882341739293e-05 9.0456997977422749e-05 0.083673589932288114 0.00011817976365149571 9.7795898387509263e-05 6.799001719204258e-05 4.2837980741166227e-05 4.3847842112056806e-05 6.0765557169928039e-05 2.9189022147264486e-05 9.7951956518121854e-06 9.6202495437252081e-06 1.5912806477488394e-05 2.4695789509549242e-05 1.3435332586652672e-05 9.8772058126320606e-06 2.0467716785311043e-05 4.2436907301270544e-05 5.1066918005265123e-05 3.4013901909864177e-05 2.1836423231861787e-06 2.5962809640806689e-07 1.1620158522913259e-06 1.4769772488359284e-06 -8.6863772763784777e-07 5.7290937868379951e-07 4.2136623502227188e-06 -5.58210469500664e-07 -5.2473113261242355e-07 9.3169085091111391e-07 1.0850011840627836e-06 -5.4691164707058263e-06 1.9799443452857149e-06 1.0619509400501288e-06 -2.2775602043395332e-06 -7.6229193517694141e-06 -1.0573881748542936e-06 -1.1712428357851671e-05 -1.9681968902061572e-06 -3.9763958451476122e-06 -1.1368706806874087e-05 -5.3633545280425664e-06 2.3520451410846167e-06 7.8139982041553618e-07 2.0123746223446679e-06 -5.694791117506889e-06 -4.4908221793483859e-06 2.7023043945187484e-06 -7.7629117983342346e-06 -1.1162826276523005e-05 -1.4487255383166097e-05 -1.2999421616929603e-05 -2.0421590402414308e-05 -1.2288461354008871e-05 2.9398208794102158e-05 2.375000340972119e-05 3.9437240107644943e-05 2.8931161009505477e-05 1.0567084825011228e-05 8.2417042433907944e-06 1.7736053851994445e-05 1.4618392000261774e-05 9.1692665718165478e-06 5.8180983424038725e-06 7.6470865485259176e-06 2.5156792014937495e-05 2.0278453523506386e-05 4.0680845212710337e-05 3.2187366322471416e-05 3.5677069135695559e-05 2.5587228933731223e-05 2.7306263936556475e-05 3.0769915624007864e-05 1.6488397702723234e-05 2.0229040220511463e-05 1.4186043278971569e-05 3.901978816322647e-06 1.6063808808040262e-06 1.4003981291764271e-05 5.9270906350784077e-06 1.1587158088507857e-05 9.7111367921437226e-07 4.2464337908555173e-06 2.4802519607711876e-05 2.9251118305326251e-05 2.8402125836130216e-05 1.3619753932884527e-05 2.3317500506343097e-05 -1.9869418714301887e-05 -2.4537257468308777e-05 -2.0855763998784405e-05 -2.569810202603497e-05 -1.5908045967812263e-05 -7.2325358883245207e-06 -1.3693311439477241e-05 -5.2306789768453445e-06 -5.3194322985874922e-06 -7.5144373538892388e-06 -5.3351941150627949e-06 -4.5282811160332918e-06 -1.0803286096019076e-05 -1.5600657957444116e-05 -1.6306894351060769e-05 -1.6410823472619643e-05 -2.4742058237396311e-05 -2.4345129316183682e-05 -3.0857356335890068e-05 -4.1610969891345327e-05 -3.5017126093118294e-05 -2.8779326449925675e-05 -2.3441377571998428e-05 -1.9412666214785605e-05 -7.7812197745003552e-06 -8.1109693155708177e-06 -3.794730990097769e-06 -1.4343846139560051e-05 -1.2214559157859529e-05 -1.8002894418968015e-05 -1.9410702606716492e-05 -2.8793718747833271e-05 -2.6390414564067861e-05 -4.0136103794210609e-05 1.6484217653029849e-05 3.5084921916729919e-05 1.6102422548104568e-05 1.0983085546673477e-05 2.6901868059348326e-07 3.8539584788461014e-06 1.3922703904518908e-05 5.9612544781498353e-06 -9.8992852133284403e-06 -3.4911328571020535e-06 4.5137601375580842e-06 1.9579778483289927e-05 2.1066785671789974e-05 3.7286896067708012e-05 6.1941684712386584e-05 7.0798828995973493e-06 7.6864916797526244e-05 0.0054950534936108342 3.514811919969449e-05 3.6096906709918736e-05 0.013862360196115218 5.1962226282427598e-05 0.019750199516779407 4.109149387346696e-05 3.4931899323946728e-05 1.39486660967406e-05 1.5436353740187688e-05 1.8077960231245533e-05 4.0121301213673366e-06 2.1483222377309639e-05 9.50158625717867e-06 3.5427850476738884e-05 1.8970811632105603e-05 1.4329520508358872e-05 2.4734735459169169e-05 2.0688148728118975e-05 2.3484633492215805e-05 3.0761568801153631e-05 2.9299708003259608e-05 2.3678560698052918e-05 1.9795142977510144e-05 2.0289642896211061e-05 1.8315295814391947e-05 1.5297146992809796e-05 1.6575293282806261e-05 1.625251632641071e-05 1.6894454561813257e-05 1.595823156023244e-05 1.485501823879324e-05 1.7177915415189724e-05 1.9288375480065181e-05 1.6661411026862023e-05 1.7320622721071205e-05 1.6934827935891772e-05 1.6177486975106864e-05 1.5667118627065921e-05 1.011536728362858e-05 1.2941249301945878e-05 1.6665855589850342e-05 2.1414247790857693e-05 1.8553136155639914e-05 1.6326184892326607e-05 1.6370201862786666e-05 2.1533170824124769e-05 2.3856548231973433e-05 3.0437758068416762e-05 2.6708644026910431e-05 2.4413307760947679e-05 3.6174272086913367e-05 5.0141632899863451e-05 0.032685961966961247 4.0823396464611384e-05 4.5678940226392571e-05 4.19017401370788e-05 4.7463880050087088e-05 2.9333637788606472e-05 0.025869226568224477 4.1284381715958585e-05 3.2488590570648487e-05 4.6239166671785317e-05 2.1028522115654723e-05 1.7967603191204463e-05 1.912591769952842e-05 2.6838015143851887e-05 
</DataArray>
</CellData>
</Piece>
</UnstructuredGrid>
</VTKFile>
