<?xml version="1.0"?>
<VTKFile type="UnstructuredGrid" version="0.1" byte_order="LittleEndian">
<UnstructuredGrid>
<Piece NumberOfPoints="2824" NumberOfCells="706">
<Points>
<DataArray type="Float64" NumberOfComponents="3" format="ascii">
0 0 0 0.33416666666645822 0 0.33416666666687761 0.33416666666749117 0.33416666666791067 0 0 0.32892434865109021 0.32892434865109021 0.33416666666645822 0 0.33416666666687761 0.26500093005959219 0 0.62412558229931248 0.57500000000061269 0 0.57499999999949769 0.77789883252811276 0.39570480562063071 0.39543357482263919 0.26500093005959219 0 0.62412558229931248 0 0.26235908848024581 0.61665443494884975 0.77789883252811276 0.39570480562063071 0.39543357482263919 0.33416666666645822 0 0.33416666666687761 0.33416666666749117 0.33416666666791067 0 0 0.32892434865109021 0.32892434865109021 0.77789883252811276 0.39570480562063071 0.39543357482263919 0.39531730444687918 0.80019605692788165 0.39654492749411491 0 0.32892434865109021 0.32892434865109021 0.77789883252811276 0.39570480562063071 0.39543357482263919 0 0.26235908848024581 0.61665443494884975 0.33416666666645822 0 0.33416666666687761 0.33416666666645822 0 0.33416666666687761 0.33416666666749117 0.33416666666791067 0 0 0.32892434865109021 0.32892434865109021 0.77789883252811276 0.39570480562063071 0.39543357482263919 0 0 0.40000000000166441 0.33416666666645822 0 0.33416666666687761 0 0.32892434865109021 0.32892434865109021 0 0.26235908848024581 0.61665443494884975 0.33416666666645822 0 0.33416666666687761 0 0 0 0 0 0.40000000000166441 0 0.32892434865109021 0.32892434865109021 0 0 0.40000000000166441 0.33416666666645822 0 0.33416666666687761 0 0.26235908848024581 0.61665443494884975 0.26500093005959219 0 0.62412558229931248 0.33416666666749117 0.33416666666791067 0 0 0.40000000000166441 0 0 0.32892434865109021 0.32892434865109021 0 0.62491530451403432 0.26235908848027167 0 0.40000000000166441 0 0.33416666666749117 0.33416666666791067 0 0.26340755208406552 0.6259637681177177 0 0 0.62491530451403432 0.26235908848027167 0 0.40000000000166441 0 0 0 0 0.33416666666749117 0.33416666666791067 0 0 0.32892434865109021 0.32892434865109021 0.33416666666645822 0 0.33416666666687761 0.62596376811530841 0 0.26340755208326921 0.39999999999911567 0 0 0.62412558229828341 0.26500093006025072 0 0.33416666666645822 0 0.33416666666687761 0 0 0 0.33416666666749117 0.33416666666791067 0 0.39999999999911567 0 0 0.33416666666749117 0.33416666666791067 0 0.33416666666645822 0 0.33416666666687761 0.39999999999911567 0 0 0.62412558229828341 0.26500093006025072 0 0.62596376811530841 0 0.26340755208326921 0.7999999999979498 0 0 0.62412558229828341 0.26500093006025072 0 0.77789883252811276 0.39570480562063071 0.39543357482263919 0.62596376811530841 0 0.26340755208326921 0.39999999999911567 0 0 0.62412558229828341 0.26500093006025072 0 0.7999999999979498 0 0 0.62596376811530841 0 0.26340755208326921 0.62412558229828341 0.26500093006025072 0 0.33416666666645822 0 0.33416666666687761 0.77789883252811276 0.39570480562063071 0.39543357482263919 0.97934782608699855 0.40787109375058261 0 1.0206521739124059 0 0.40787109374997071 1.19811642196055 0.57789440443542173 0.58983547034755146 0.77789883252811276 0.39570480562063071 0.39543357482263919 0.33416666666645822 0 0.33416666666687761 0.62412558229828341 0.26500093006025072 0 0.33416666666749117 0.33416666666791067 0 0.77789883252811276 0.39570480562063071 0.39543357482263919 0.33416666666749117 0.33416666666791067 0 0.62412558229828341 0.26500093006025072 0 0.57500000000222118 0.57500000000110618 0 0.77789883252811276 0.39570480562063071 0.39543357482263919 0.62412558229828341 0.26500093006025072 0 0.97934782608699855 0.40787109375058261 0 0.57500000000222118 0.57500000000110618 0 0.77789883252811276 0.39570480562063071 0.39543357482263919 0.62412558229828341 0.26500093006025072 0 0.7999999999979498 0 0 0.97934782608699855 0.40787109375058261 0 0.77789883252811276 0.39570480562063071 0.39543357482263919 0.97934782608699855 0.40787109375058261 0 0.7999999999979498 0 0 1.1999999999978941 0 0 1.0206521739124059 0 0.40787109374997071 0.97934782608699855 0.40787109375058261 0 0.7999999999979498 0 0 1.0206521739124059 0 0.40787109374997071 0.77789883252811276 0.39570480562063071 0.39543357482263919 0.62596376811530841 0 0.26340755208326921 1.0206521739124059 0 0.40787109374997071 0.7999999999979498 0 0 0.77789883252811276 0.39570480562063071 0.39543357482263919 0.62596376811530841 0 0.26340755208326921 0.33416666666645822 0 0.33416666666687761 0.57500000000061269 0 0.57499999999949769 0.77789883252811276 0.39570480562063071 0.39543357482263919 0.57500000000061269 0 0.57499999999949769 1.0206521739124059 0 0.40787109374997071 0.62596376811530841 0 0.26340755208326921 0.77789883252811276 0.39570480562063071 0.39543357482263919 0.849152677791018 0 0.76609408500333809 0.57500000000061269 0 0.57499999999949769 0.59772980397989239 0.59772980397970443 0.74731771606769093 0.77789883252811276 0.39570480562063071 0.39543357482263919 0.849152677791018 0 0.76609408500333809 0.98528458949709452 0.48395451161029718 1.014715410503322 1.19811642196055 0.57789440443542173 0.58983547034755146 0.77789883252811276 0.39570480562063071 0.39543357482263919 0.57500000000061269 0 0.57499999999949769 0.40787109375015718 0 0.97934782608792492 0.849152677791018 0 0.76609408500333809 0.59772980397989239 0.59772980397970443 0.74731771606769093 0.26500093005959219 0 0.62412558229931248 0.59772980397989239 0.59772980397970443 0.74731771606769093 0.57500000000061269 0 0.57499999999949769 0.77789883252811276 0.39570480562063071 0.39543357482263919 0.849152677791018 0 0.76609408500333809 1.19811642196055 0.57789440443542173 0.58983547034755146 1.0206521739124059 0 0.40787109374997071 0.77789883252811276 0.39570480562063071 0.39543357482263919 0.849152677791018 0 0.76609408500333809 0.59772980397989239 0.59772980397970443 0.74731771606769093 0.73709538452274337 0 1.137931943365984 0.98528458949709452 0.48395451161029718 1.014715410503322 0.40787109375015718 0 0.97934782608792492 0.73709538452274337 0 1.137931943365984 0.849152677791018 0 0.76609408500333809 0.59772980397989239 0.59772980397970443 0.74731771606769093 0.849152677791018 0 0.76609408500333809 0.59772980397989239 0.59772980397970443 0.74731771606769093 0.98528458949709452 0.48395451161029718 1.014715410503322 0.77789883252811276 0.39570480562063071 0.39543357482263919 0.849152677791018 0 0.76609408500333809 1.0206521739124059 0 0.40787109374997071 0.57500000000061269 0 0.57499999999949769 0.77789883252811276 0.39570480562063071 0.39543357482263919 0.849152677791018 0 0.76609408500333809 0.73709538452274337 0 1.137931943365984 1.0000000000002141 0 0.99999999999992895 0.98528458949709452 0.48395451161029718 1.014715410503322 0.26500093005959219 0 0.62412558229931248 0 0.26235908848024581 0.61665443494884975 0 0.40787109374995661 0.97934782608798243 0.59772980397989239 0.59772980397970443 0.74731771606769093 0.26500093005959219 0 0.62412558229931248 0.77789883252811276 0.39570480562063071 0.39543357482263919 0 0.26235908848024581 0.61665443494884975 0.59772980397989239 0.59772980397970443 0.74731771606769093 0 0.32892434865109021 0.32892434865109021 0 0.26235908848024581 0.61665443494884975 0.77789883252811276 0.39570480562063071 0.39543357482263919 0.59772980397989239 0.59772980397970443 0.74731771606769093 0 0.32892434865109021 0.32892434865109021 0 0.57500000000018214 0.57500000000018214 0 0.26235908848024581 0.61665443494884975 0.59772980397989239 0.59772980397970443 0.74731771606769093 0.57500000000061269 0 0.57499999999949769 0.26500093005959219 0 0.62412558229931248 0.40787109375015718 0 0.97934782608792492 0.59772980397989239 0.59772980397970443 0.74731771606769093 0 0.26235908848024581 0.61665443494884975 0 0.57500000000018214 0.57500000000018214 0 0.40787109374995661 0.97934782608798243 0.59772980397989239 0.59772980397970443 0.74731771606769093 0.26500093005959219 0 0.62412558229931248 0 0.40787109374995661 0.97934782608798243 0.40787109375015718 0 0.97934782608792492 0.59772980397989239 0.59772980397970443 0.74731771606769093 0 0 0.80000000000332872 0.26500093005959219 0 0.62412558229931248 0 0.40787109374995661 0.97934782608798243 0.40787109375015718 0 0.97934782608792492 0 0.26235908848024581 0.61665443494884975 0 0 0.80000000000332872 0.26500093005959219 0 0.62412558229931248 0 0.40787109374995661 0.97934782608798243 0 0 1.200000000002774 0 0 0.80000000000332872 0 0.40787109374995661 0.97934782608798243 0.40787109375015718 0 0.97934782608792492 0 0 0.80000000000332872 0 0 0.40000000000166441 0 0.26235908848024581 0.61665443494884975 0.26500093005959219 0 0.62412558229931248 0 0.85167501661028155 0.7670914684099619 0.48528811404415773 0.99061345538166756 1.009386544617999 0.59772980397989239 0.59772980397970443 0.74731771606769093 0.39531730444687918 0.80019605692788165 0.39654492749411491 0 0.32892434865109021 0.32892434865109021 0 0.57500000000018214 0.57500000000018214 0.59772980397989239 0.59772980397970443 0.74731771606769093 0.39531730444687918 0.80019605692788165 0.39654492749411491 0 0.85167501661028155 0.7670914684099619 0.59772980397989239 0.59772980397970443 0.74731771606769093 0 0.57500000000018214 0.57500000000018214 0.39531730444687918 0.80019605692788165 0.39654492749411491 0 0.40787109374995661 0.97934782608798243 0 0.85167501661028155 0.7670914684099619 0 0.73703553820768952 1.137914212601322 0.59772980397989239 0.59772980397970443 0.74731771606769093 0 0.85167501661028155 0.7670914684099619 0.58179751944592217 1.199262271083781 0.58179751944619096 0.48528811404415773 0.99061345538166756 1.009386544617999 0.39531730444687918 0.80019605692788165 0.39654492749411491 0 0.73703553820768952 1.137914212601322 0.59772980397989239 0.59772980397970443 0.74731771606769093 0 0.85167501661028155 0.7670914684099619 0.48528811404415773 0.99061345538166756 1.009386544617999 0 0.85167501661028155 0.7670914684099619 0 1.0206521739139061 0.40787109375008618 0.58179751944592217 1.199262271083781 0.58179751944619096 0.39531730444687918 0.80019605692788165 0.39654492749411491 0 0.40787109374995661 0.97934782608798243 0 0.57500000000018214 0.57500000000018214 0 0.85167501661028155 0.7670914684099619 0.59772980397989239 0.59772980397970443 0.74731771606769093 0 0.85167501661028155 0.7670914684099619 0 0.57500000000018214 0.57500000000018214 0 1.0206521739139061 0.40787109375008618 0.39531730444687918 0.80019605692788165 0.39654492749411491 0 0.73703553820768952 1.137914212601322 0 0.85167501661028155 0.7670914684099619 0 1.0000000000000291 0.99999999999996969 0.48528811404415773 0.99061345538166756 1.009386544617999 0.59772980397989239 0.59772980397970443 0.74731771606769093 1.0362039003897969 1.032400726930619 0.49025282767413908 1.19811642196055 0.57789440443542173 0.58983547034755146 0.77789883252811276 0.39570480562063071 0.39543357482263919 0.59772980397989239 0.59772980397970443 0.74731771606769093 0.58179751944592217 1.199262271083781 0.58179751944619096 1 0.99999999999999978 0.99999999999999978 1.0362039003897969 1.032400726930619 0.49025282767413908 0.58179751944592217 1.199262271083781 0.58179751944619096 1.0362039003897969 1.032400726930619 0.49025282767413908 0.59772980397989239 0.59772980397970443 0.74731771606769093 0.39531730444687918 0.80019605692788165 0.39654492749411491 1.19811642196055 0.57789440443542173 0.58983547034755146 0.98528458949709452 0.48395451161029718 1.014715410503322 0.59772980397989239 0.59772980397970443 0.74731771606769093 0.77789883252811276 0.39570480562063071 0.39543357482263919 1.0362039003897969 1.032400726930619 0.49025282767413908 0.77789883252811276 0.39570480562063071 0.39543357482263919 0.59772980397989239 0.59772980397970443 0.74731771606769093 0.39531730444687918 0.80019605692788165 0.39654492749411491 0.59772980397989239 0.59772980397970443 0.74731771606769093 0.48528811404415773 0.99061345538166756 1.009386544617999 0.58179751944592217 1.199262271083781 0.58179751944619096 0.39531730444687918 0.80019605692788165 0.39654492749411491 1 0.99999999999999978 0.99999999999999978 0.59772980397989239 0.59772980397970443 0.74731771606769093 1.19811642196055 0.57789440443542173 0.58983547034755146 0.98528458949709452 0.48395451161029718 1.014715410503322 0.59772980397989239 0.59772980397970443 0.74731771606769093 1 0.99999999999999978 0.99999999999999978 1.19811642196055 0.57789440443542173 0.58983547034755146 1.0362039003897969 1.032400726930619 0.49025282767413908 1 0.99999999999999978 0.99999999999999978 0.48528811404415773 0.99061345538166756 1.009386544617999 0.59772980397989239 0.59772980397970443 0.74731771606769093 0.98528458949709452 0.48395451161029718 1.014715410503322 1 0.99999999999999978 0.99999999999999978 0.58179751944592217 1.199262271083781 0.58179751944619096 0.59772980397989239 0.59772980397970443 0.74731771606769093 0.48528811404415773 0.99061345538166756 1.009386544617999 0.40787109375061498 1.0206521739145791 0 0.73668669749125271 0.86068862301695703 0 0.58179751944592217 1.199262271083781 0.58179751944619096 0.39531730444687918 0.80019605692788165 0.39654492749411491 0.73668669749125271 0.86068862301695703 0 1.0362039003897969 1.032400726930619 0.49025282767413908 0.58179751944592217 1.199262271083781 0.58179751944619096 0.39531730444687918 0.80019605692788165 0.39654492749411491 1.151058336609301 0.76640924832138713 0 1.0362039003897969 1.032400726930619 0.49025282767413908 0.73668669749125271 0.86068862301695703 0 0.77789883252811276 0.39570480562063071 0.39543357482263919 0.73668669749125271 0.86068862301695703 0 0.77789883252811276 0.39570480562063071 0.39543357482263919 1.0362039003897969 1.032400726930619 0.49025282767413908 0.39531730444687918 0.80019605692788165 0.39654492749411491 1.151058336609301 0.76640924832138713 0 1.0000000000013569 1.0000000000020031 0 0.73668669749125271 0.86068862301695703 0 1.0362039003897969 1.032400726930619 0.49025282767413908 0.97934782608699855 0.40787109375058261 0 0.73668669749125271 0.86068862301695703 0 0.57500000000222118 0.57500000000110618 0 0.77789883252811276 0.39570480562063071 0.39543357482263919 1.151058336609301 0.76640924832138713 0 0.73668669749125271 0.86068862301695703 0 0.97934782608699855 0.40787109375058261 0 0.77789883252811276 0.39570480562063071 0.39543357482263919 0.73668669749125271 0.86068862301695703 0 0.57500000000222118 0.57500000000110618 0 0.77789883252811276 0.39570480562063071 0.39543357482263919 0.39531730444687918 0.80019605692788165 0.39654492749411491 0.57500000000222118 0.57500000000110618 0 0.33416666666749117 0.33416666666791067 0 0.77789883252811276 0.39570480562063071 0.39543357482263919 0.39531730444687918 0.80019605692788165 0.39654492749411491 0.57500000000222118 0.57500000000110618 0 0.73668669749125271 0.86068862301695703 0 0.40787109375061498 1.0206521739145791 0 0.39531730444687918 0.80019605692788165 0.39654492749411491 0.26340755208406552 0.6259637681177177 0 0.57500000000222118 0.57500000000110618 0 0.40787109375061498 1.0206521739145791 0 0.39531730444687918 0.80019605692788165 0.39654492749411491 0 0.80000000000332872 0 0.26340755208406552 0.6259637681177177 0 0.40787109375061498 1.0206521739145791 0 0.39531730444687918 0.80019605692788165 0.39654492749411491 0 0.32892434865109021 0.32892434865109021 0.59772980397989239 0.59772980397970443 0.74731771606769093 0.77789883252811276 0.39570480562063071 0.39543357482263919 0.39531730444687918 0.80019605692788165 0.39654492749411491 0.57500000000222118 0.57500000000110618 0 0.26340755208406552 0.6259637681177177 0 0.33416666666749117 0.33416666666791067 0 0.39531730444687918 0.80019605692788165 0.39654492749411491 0.33416666666749117 0.33416666666791067 0 0 0.62491530451403432 0.26235908848027167 0 0.32892434865109021 0.32892434865109021 0.39531730444687918 0.80019605692788165 0.39654492749411491 0 0.80000000000332872 0 0 0.40000000000166441 0 0.26340755208406552 0.6259637681177177 0 0 0.62491530451403432 0.26235908848027167 0.26340755208406552 0.6259637681177177 0 0 0.80000000000332872 0 0 0.62491530451403432 0.26235908848027167 0.39531730444687918 0.80019605692788165 0.39654492749411491 0.33416666666749117 0.33416666666791067 0 0.26340755208406552 0.6259637681177177 0 0 0.62491530451403432 0.26235908848027167 0.39531730444687918 0.80019605692788165 0.39654492749411491 0 0.32892434865109021 0.32892434865109021 0 0.62491530451403432 0.26235908848027167 0 0.57500000000018214 0.57500000000018214 0.39531730444687918 0.80019605692788165 0.39654492749411491 0 0.80000000000332872 0 0 1.0206521739139061 0.40787109375008618 0 0.62491530451403432 0.26235908848027167 0.39531730444687918 0.80019605692788165 0.39654492749411491 0 0.57500000000018214 0.57500000000018214 0 0.62491530451403432 0.26235908848027167 0 1.0206521739139061 0.40787109375008618 0.39531730444687918 0.80019605692788165 0.39654492749411491 0 0.80000000000332872 0 0.40787109375061498 1.0206521739145791 0 0 1.0206521739139061 0.40787109375008618 0.39531730444687918 0.80019605692788165 0.39654492749411491 0.26500093005965231 1.375874417702696 0 0 1.200000000002774 0 0.40787109375061498 1.0206521739145791 0 0 1.0206521739139061 0.40787109375008618 0 1.0206521739139061 0.40787109375008618 0.39531730444687918 0.80019605692788165 0.39654492749411491 0.40787109375061498 1.0206521739145791 0 0.37819010083105031 1.488109359197332 0.37639255045733749 0.40787109375061498 1.0206521739145791 0 0.39531730444687918 0.80019605692788165 0.39654492749411491 0.58179751944592217 1.199262271083781 0.58179751944619096 0.37819010083105031 1.488109359197332 0.37639255045733749 0 1.0206521739139061 0.40787109375008618 0.58179751944592217 1.199262271083781 0.58179751944619096 0.39531730444687918 0.80019605692788165 0.39654492749411491 0.37819010083105031 1.488109359197332 0.37639255045733749 0 1.0206521739139061 0.40787109375008618 0 1.4250000000002421 0.57500000000014528 0.58179751944592217 1.199262271083781 0.58179751944619096 0.37819010083105031 1.488109359197332 0.37639255045733749 0.40787109375061498 1.0206521739145791 0 0.58179751944592217 1.199262271083781 0.58179751944619096 0.57499999999972717 1.4249999999995451 0 0.37819010083105031 1.488109359197332 0.37639255045733749 0 1.200000000002774 0 0 0.80000000000332872 0 0.40787109375061498 1.0206521739145791 0 0 1.0206521739139061 0.40787109375008618 0.26500093005965231 1.375874417702696 0 0 1.200000000002774 0 0 1.0206521739139061 0.40787109375008618 0 1.3863248792278431 0.25937977430558068 0.26500093005965231 1.375874417702696 0 0 1.200000000002774 0 0 1.3863248792278431 0.25937977430558068 0 1.6000000000000001 0 0.26500093005965231 1.375874417702696 0 0.33416666666678929 1.6658333333334849 0 0 1.3863248792278431 0.25937977430558068 0.37819010083105031 1.488109359197332 0.37639255045733749 0.26500093005965231 1.375874417702696 0 0.40787109375061498 1.0206521739145791 0 0.57499999999972717 1.4249999999995451 0 0.37819010083105031 1.488109359197332 0.37639255045733749 0.26500093005965231 1.375874417702696 0 0.57499999999972717 1.4249999999995451 0 0.33416666666678929 1.6658333333334849 0 0.37819010083105031 1.488109359197332 0.37639255045733749 0.40787109375061498 1.0206521739145791 0 0.26500093005965231 1.375874417702696 0 0 1.0206521739139061 0.40787109375008618 0.37819010083105031 1.488109359197332 0.37639255045733749 0 1.0206521739139061 0.40787109375008618 0 1.3863248792278431 0.25937977430558068 0 1.4250000000002421 0.57500000000014528 0.37819010083105031 1.488109359197332 0.37639255045733749 0 1.685972222222293 0.31402777777767188 0 1.4250000000002421 0.57500000000014528 0 1.3863248792278431 0.25937977430558068 0.37819010083105031 1.488109359197332 0.37639255045733749 0 1.0206521739139061 0.40787109375008618 0.26500093005965231 1.375874417702696 0 0 1.3863248792278431 0.25937977430558068 0.37819010083105031 1.488109359197332 0.37639255045733749 0 0.85167501661028155 0.7670914684099619 0.58179751944592217 1.199262271083781 0.58179751944619096 0 1.263313302510646 0.86068862301506388 0.48528811404415773 0.99061345538166756 1.009386544617999 0 0.85167501661028155 0.7670914684099619 0 1.0206521739139061 0.40787109375008618 0 1.263313302510646 0.86068862301506388 0.58179751944592217 1.199262271083781 0.58179751944619096 0.48528811404415773 0.99061345538166756 1.009386544617999 0.41010551790091843 1.5854304871968741 0.7721068750782103 0 1.263313302510646 0.86068862301506388 0.39539622647752048 1.604332214875325 1.222086277851258 0 1.263313302510646 0.86068862301506388 0.48528811404415773 0.99061345538166756 1.009386544617999 0.58179751944592217 1.199262271083781 0.58179751944619096 0.41010551790091843 1.5854304871968741 0.7721068750782103 0 1.4250000000002421 0.57500000000014528 0 1.263313302510646 0.86068862301506388 0.58179751944592217 1.199262271083781 0.58179751944619096 0.41010551790091843 1.5854304871968741 0.7721068750782103 0 1.0206521739139061 0.40787109375008618 0 1.4250000000002421 0.57500000000014528 0 1.263313302510646 0.86068862301506388 0.58179751944592217 1.199262271083781 0.58179751944619096 0 1.4250000000002421 0.57500000000014528 0.41010551790091843 1.5854304871968741 0.7721068750782103 0.58179751944592217 1.199262271083781 0.58179751944619096 0.37819010083105031 1.488109359197332 0.37639255045733749 0 0.85167501661028155 0.7670914684099619 0 1.263313302510646 0.86068862301506388 0 1.0000000000000291 0.99999999999996969 0.48528811404415773 0.99061345538166756 1.009386544617999 0 1.4250000000002421 0.57500000000014528 0 1.592128906249999 1.0206521739122849 0 1.263313302510646 0.86068862301506388 0.41010551790091843 1.5854304871968741 0.7721068750782103 0 1.740620225694506 0.62193599033743363 0.41010551790091843 1.5854304871968741 0.7721068750782103 0 1.4250000000002421 0.57500000000014528 0.37819010083105031 1.488109359197332 0.37639255045733749 0 1.740620225694506 0.62193599033743363 0 1.592128906249999 1.0206521739122849 0 1.4250000000002421 0.57500000000014528 0.41010551790091843 1.5854304871968741 0.7721068750782103 0 1.740620225694506 0.62193599033743363 0.26500093005947722 2 0.6241255822972791 0.41010551790091843 1.5854304871968741 0.7721068750782103 0.37819010083105031 1.488109359197332 0.37639255045733749 0.57499999999943696 2 0.57500000000055196 0.41010551790091843 1.5854304871968741 0.7721068750782103 0.26500093005947722 2 0.6241255822972791 0.37819010083105031 1.488109359197332 0.37639255045733749 0.40787109375045588 2 0.9793478260856453 0 1.592128906249999 1.0206521739122849 0.41010551790091843 1.5854304871968741 0.7721068750782103 0.39539622647752048 1.604332214875325 1.222086277851258 0 1.740620225694506 0.62193599033743363 0 2 0.7999999999979498 0 1.592128906249999 1.0206521739122849 0.41010551790091843 1.5854304871968741 0.7721068750782103 0 1.592128906249999 1.0206521739122849 0 1.263313302510646 0.86068862301506388 0.41010551790091843 1.5854304871968741 0.7721068750782103 0.39539622647752048 1.604332214875325 1.222086277851258 0 2 0.7999999999979498 0.40787109375045588 2 0.9793478260856453 0 2 1.1999999999978941 0 1.592128906249999 1.0206521739122849 0.40787109375045588 2 0.9793478260856453 0 1.592128906249999 1.0206521739122849 0 2 0.7999999999979498 0.41010551790091843 1.5854304871968741 0.7721068750782103 0.40787109375045588 2 0.9793478260856453 0 2 0.7999999999979498 0.26500093005947722 2 0.6241255822972791 0.41010551790091843 1.5854304871968741 0.7721068750782103 0.57499999999943696 2 0.57500000000055196 0.40787109375045588 2 0.9793478260856453 0.26500093005947722 2 0.6241255822972791 0.41010551790091843 1.5854304871968741 0.7721068750782103 0 1.740620225694506 0.62193599033743363 0.26500093005947722 2 0.6241255822972791 0 2 0.7999999999979498 0.41010551790091843 1.5854304871968741 0.7721068750782103 0 1.740620225694506 0.62193599033743363 0 2 0.39999999999911567 0 2 0.7999999999979498 0.26500093005947722 2 0.6241255822972791 0.57499999999943696 2 0.57500000000055196 0.3341666666668387 2 0.3341666666664192 0.62596376811713206 2 0.26340755208327649 0.37819010083105031 1.488109359197332 0.37639255045733749 0 1.685972222222293 0.31402777777767188 0.3341666666668387 2 0.3341666666664192 0 1.740620225694506 0.62193599033743363 0.37819010083105031 1.488109359197332 0.37639255045733749 0.3341666666668387 2 0.3341666666664192 0.57499999999943696 2 0.57500000000055196 0.26500093005947722 2 0.6241255822972791 0.37819010083105031 1.488109359197332 0.37639255045733749 0 1.740620225694506 0.62193599033743363 0.3341666666668387 2 0.3341666666664192 0.26500093005947722 2 0.6241255822972791 0.37819010083105031 1.488109359197332 0.37639255045733749 0.62596376811713206 2 0.26340755208327649 0.3341666666668387 2 0.3341666666664192 0.33416666666678929 1.6658333333334849 0 0.37819010083105031 1.488109359197332 0.37639255045733749 0 1.685972222222293 0.31402777777767188 0 2 0 0 2 0.39999999999911567 0.3341666666668387 2 0.3341666666664192 0.62596376811718013 1.7365924479167429 0 0.62596376811713206 2 0.26340755208327649 0.33416666666678929 1.6658333333334849 0 0.37819010083105031 1.488109359197332 0.37639255045733749 0.3341666666668387 2 0.3341666666664192 0 2 0.39999999999911567 0 1.740620225694506 0.62193599033743363 0.26500093005947722 2 0.6241255822972791 0 1.685972222222293 0.31402777777767188 0.33416666666678929 1.6658333333334849 0 0.3341666666668387 2 0.3341666666664192 0.37819010083105031 1.488109359197332 0.37639255045733749 0 2 0.39999999999911567 0 1.685972222222293 0.31402777777767188 0.3341666666668387 2 0.3341666666664192 0 1.740620225694506 0.62193599033743363 0 2 0 0 1.685972222222293 0.31402777777767188 0.33416666666678929 1.6658333333334849 0 0.3341666666668387 2 0.3341666666664192 0 1.3863248792278431 0.25937977430558068 0.26500093005965231 1.375874417702696 0 0 1.6000000000000001 0 0.33416666666678929 1.6658333333334849 0 0 1.6000000000000001 0 0 2 0 0 1.685972222222293 0.31402777777767188 0.33416666666678929 1.6658333333334849 0 0 1.685972222222293 0.31402777777767188 0 1.3863248792278431 0.25937977430558068 0.33416666666678929 1.6658333333334849 0 0.37819010083105031 1.488109359197332 0.37639255045733749 0 1.3863248792278431 0.25937977430558068 0 1.6000000000000001 0 0 1.685972222222293 0.31402777777767188 0.33416666666678929 1.6658333333334849 0 0 1.685972222222293 0.31402777777767188 0 1.740620225694506 0.62193599033743363 0 1.4250000000002421 0.57500000000014528 0.37819010083105031 1.488109359197332 0.37639255045733749 0.62596376811718013 1.7365924479167429 0 0.33416666666678929 1.6658333333334849 0 0.57499999999972717 1.4249999999995451 0 0.37819010083105031 1.488109359197332 0.37639255045733749 0.33416666666678929 1.6658333333334849 0 0.62596376811713206 2 0.26340755208327649 0.40000000000166441 2 0 0.3341666666668387 2 0.3341666666664192 0.33416666666678929 1.6658333333334849 0 0 2 0 0.3341666666668387 2 0.3341666666664192 0.40000000000166441 2 0 0.62596376811713206 2 0.26340755208327649 0.33416666666678929 1.6658333333334849 0 0.40000000000166441 2 0 0.62596376811718013 1.7365924479167429 0 0.62596376811718013 1.7365924479167429 0 0.57499999999972717 1.4249999999995451 0 0.92204894738342102 1.545944433704725 0.55253256161165365 0.37819010083105031 1.488109359197332 0.37639255045733749 0.57499999999943696 2 0.57500000000055196 0.62596376811713206 2 0.26340755208327649 0.92204894738342102 1.545944433704725 0.55253256161165365 0.37819010083105031 1.488109359197332 0.37639255045733749 0.62596376811718013 1.7365924479167429 0 0.92204894738342102 1.545944433704725 0.55253256161165365 0.62596376811713206 2 0.26340755208327649 0.37819010083105031 1.488109359197332 0.37639255045733749 0.62596376811718013 1.7365924479167429 0 1.020652173914391 2 0.4078710937494115 0.62596376811713206 2 0.26340755208327649 0.92204894738342102 1.545944433704725 0.55253256161165365 0.62596376811718013 1.7365924479167429 0 1.0206521739143919 1.592128906250684 0 1.020652173914391 2 0.4078710937494115 0.92204894738342102 1.545944433704725 0.55253256161165365 0.62596376811718013 1.7365924479167429 0 0.57499999999972717 1.4249999999995451 0 1.0206521739143919 1.592128906250684 0 0.92204894738342102 1.545944433704725 0.55253256161165365 0.80000000000332872 2 0 0.62596376811718013 1.7365924479167429 0 0.62596376811713206 2 0.26340755208327649 0.40000000000166441 2 0 0.80000000000332872 2 0 0.62596376811718013 1.7365924479167429 0 1.0206521739143919 1.592128906250684 0 1.020652173914391 2 0.4078710937494115 0.62596376811718013 1.7365924479167429 0 0.80000000000332872 2 0 0.62596376811713206 2 0.26340755208327649 1.020652173914391 2 0.4078710937494115 0.57499999999943696 2 0.57500000000055196 0.62596376811713206 2 0.26340755208327649 1.020652173914391 2 0.4078710937494115 0.92204894738342102 1.545944433704725 0.55253256161165365 0.57499999999943696 2 0.57500000000055196 0.92204894738342102 1.545944433704725 0.55253256161165365 0.84920286521341182 2 0.76599646645041963 0.41010551790091843 1.5854304871968741 0.7721068750782103 0.57499999999943696 2 0.57500000000055196 1.020652173914391 2 0.4078710937494115 0.84920286521341182 2 0.76599646645041963 0.92204894738342102 1.545944433704725 0.55253256161165365 0.57499999999943696 2 0.57500000000055196 0.92204894738342102 1.545944433704725 0.55253256161165365 0.41010551790091843 1.5854304871968741 0.7721068750782103 0.37819010083105031 1.488109359197332 0.37639255045733749 0.84920286521341182 2 0.76599646645041963 0.92204894738342102 1.545944433704725 0.55253256161165365 0.86620738987133672 1.5000000000001401 1.0337672479303861 0.41010551790091843 1.5854304871968741 0.7721068750782103 0.84920286521341182 2 0.76599646645041963 0.86620738987133672 1.5000000000001401 1.0337672479303861 0.73668669749101645 2 1.139311376982779 0.41010551790091843 1.5854304871968741 0.7721068750782103 0.84920286521341182 2 0.76599646645041963 0.73668669749101645 2 1.139311376982779 0.40787109375045588 2 0.9793478260856453 0.41010551790091843 1.5854304871968741 0.7721068750782103 0.40787109375045588 2 0.9793478260856453 0.57499999999943696 2 0.57500000000055196 0.84920286521341182 2 0.76599646645041963 0.41010551790091843 1.5854304871968741 0.7721068750782103 0.84920286521341182 2 0.76599646645041963 1.000000000000635 2 0.99999999999835598 0.73668669749101645 2 1.139311376982779 0.86620738987133672 1.5000000000001401 1.0337672479303861 0.84920286521341182 2 0.76599646645041963 1.000000000000635 2 0.99999999999835598 0.86620738987133672 1.5000000000001401 1.0337672479303861 0.92204894738342102 1.545944433704725 0.55253256161165365 1 0.99999999999999978 0.99999999999999978 0.86620738987133672 1.5000000000001401 1.0337672479303861 0.58179751944592217 1.199262271083781 0.58179751944619096 0.48528811404415773 0.99061345538166756 1.009386544617999 0.58179751944592217 1.199262271083781 0.58179751944619096 0.41010551790091843 1.5854304871968741 0.7721068750782103 0.92204894738342102 1.545944433704725 0.55253256161165365 0.37819010083105031 1.488109359197332 0.37639255045733749 1 0.99999999999999978 0.99999999999999978 0.58179751944592217 1.199262271083781 0.58179751944619096 0.86620738987133672 1.5000000000001401 1.0337672479303861 0.92204894738342102 1.545944433704725 0.55253256161165365 0.86620738987133672 1.5000000000001401 1.0337672479303861 0.92204894738342102 1.545944433704725 0.55253256161165365 0.58179751944592217 1.199262271083781 0.58179751944619096 0.41010551790091843 1.5854304871968741 0.7721068750782103 1 0.99999999999999978 0.99999999999999978 1.0362039003897969 1.032400726930619 0.49025282767413908 0.58179751944592217 1.199262271083781 0.58179751944619096 0.92204894738342102 1.545944433704725 0.55253256161165365 0.58179751944592217 1.199262271083781 0.58179751944619096 0.48528811404415773 0.99061345538166756 1.009386544617999 0.86620738987133672 1.5000000000001401 1.0337672479303861 0.41010551790091843 1.5854304871968741 0.7721068750782103 0.57499999999972717 1.4249999999995451 0 0.58179751944592217 1.199262271083781 0.58179751944619096 0.86206805663365538 1.262904615478279 0 0.92204894738342102 1.545944433704725 0.55253256161165365 0.86206805663365538 1.262904615478279 0 0.58179751944592217 1.199262271083781 0.58179751944619096 0.73668669749125271 0.86068862301695703 0 1.0362039003897969 1.032400726930619 0.49025282767413908 0.58179751944592217 1.199262271083781 0.58179751944619096 0.92204894738342102 1.545944433704725 0.55253256161165365 0.57499999999972717 1.4249999999995451 0 0.37819010083105031 1.488109359197332 0.37639255045733749 0.40787109375061498 1.0206521739145791 0 0.86206805663365538 1.262904615478279 0 0.57499999999972717 1.4249999999995451 0 0.58179751944592217 1.199262271083781 0.58179751944619096 0.57499999999972717 1.4249999999995451 0 0.86206805663365538 1.262904615478279 0 1.0206521739143919 1.592128906250684 0 0.92204894738342102 1.545944433704725 0.55253256161165365 0.40787109375061498 1.0206521739145791 0 0.73668669749125271 0.86068862301695703 0 0.86206805663365538 1.262904615478279 0 0.58179751944592217 1.199262271083781 0.58179751944619096 0.86206805663365538 1.262904615478279 0 0.58179751944592217 1.199262271083781 0.58179751944619096 1.0362039003897969 1.032400726930619 0.49025282767413908 0.92204894738342102 1.545944433704725 0.55253256161165365 0.86206805663365538 1.262904615478279 0 0.73668669749125271 0.86068862301695703 0 1.0000000000013569 1.0000000000020031 0 1.0362039003897969 1.032400726930619 0.49025282767413908 1.2339059149979039 1.1508473222113209 0 1.592128906250452 0.97934782608882909 0 1.367905405405516 1.367905405405516 0.63209459459450335 1.5147705253128161 0.91852444755677043 0.69631892236242632 1.2339059149979039 1.1508473222113209 0 1.0362039003897969 1.032400726930619 0.49025282767413908 1.367905405405516 1.367905405405516 0.63209459459450335 0.92204894738342102 1.545944433704725 0.55253256161165365 0.86206805663365538 1.262904615478279 0 1.0000000000013569 1.0000000000020031 0 1.2339059149979039 1.1508473222113209 0 1.0362039003897969 1.032400726930619 0.49025282767413908 1.2339059149979039 1.1508473222113209 0 1.367905405405516 1.367905405405516 0.63209459459450335 1.0206521739143919 1.592128906250684 0 0.92204894738342102 1.545944433704725 0.55253256161165365 1.2339059149979039 1.1508473222113209 0 1.367905405405516 1.367905405405516 0.63209459459450335 1.0362039003897969 1.032400726930619 0.49025282767413908 1.5147705253128161 0.91852444755677043 0.69631892236242632 1.0206521739143919 1.592128906250684 0 1.2339059149979039 1.1508473222113209 0 1.425000000001621 1.425000000001621 0 1.367905405405516 1.367905405405516 0.63209459459450335 0.86206805663365538 1.262904615478279 0 1.2339059149979039 1.1508473222113209 0 1.0206521739143919 1.592128906250684 0 0.92204894738342102 1.545944433704725 0.55253256161165365 1.2339059149979039 1.1508473222113209 0 1.592128906250452 0.97934782608882909 0 1.425000000001621 1.425000000001621 0 1.367905405405516 1.367905405405516 0.63209459459450335 0.86206805663365538 1.262904615478279 0 1.0362039003897969 1.032400726930619 0.49025282767413908 1.2339059149979039 1.1508473222113209 0 0.92204894738342102 1.545944433704725 0.55253256161165365 1.367905405405516 1.367905405405516 0.63209459459450335 1.500000000000274 0.99883321436442229 1.16639307242336 1 0.99999999999999978 0.99999999999999978 1.5147705253128161 0.91852444755677043 0.69631892236242632 1.500000000000274 0.99883321436442229 1.16639307242336 1.5147705253128161 0.91852444755677043 0.69631892236242632 1.367905405405516 1.367905405405516 0.63209459459450335 1.532347752213032 1.4746298915713509 1.076108883276101 1.367905405405516 1.367905405405516 0.63209459459450335 0.86620738987133672 1.5000000000001401 1.0337672479303861 1 0.99999999999999978 0.99999999999999978 1.532347752213032 1.4746298915713509 1.076108883276101 1 0.99999999999999978 0.99999999999999978 0.86620738987133672 1.5000000000001401 1.0337672479303861 1.367905405405516 1.367905405405516 0.63209459459450335 0.92204894738342102 1.545944433704725 0.55253256161165365 1 0.99999999999999978 0.99999999999999978 1.367905405405516 1.367905405405516 0.63209459459450335 1.0362039003897969 1.032400726930619 0.49025282767413908 0.92204894738342102 1.545944433704725 0.55253256161165365 1 0.99999999999999978 0.99999999999999978 1.500000000000274 0.99883321436442229 1.16639307242336 1.367905405405516 1.367905405405516 0.63209459459450335 1.532347752213032 1.4746298915713509 1.076108883276101 1.367905405405516 1.367905405405516 0.63209459459450335 1 0.99999999999999978 0.99999999999999978 1.0362039003897969 1.032400726930619 0.49025282767413908 1.5147705253128161 0.91852444755677043 0.69631892236242632 1.2345896428056129 2 0.84641423559720264 0.86620738987133672 1.5000000000001401 1.0337672479303861 1.367905405405516 1.367905405405516 0.63209459459450335 1.532347752213032 1.4746298915713509 1.076108883276101 1.367905405405516 1.367905405405516 0.63209459459450335 0.86620738987133672 1.5000000000001401 1.0337672479303861 1.2345896428056129 2 0.84641423559720264 0.92204894738342102 1.545944433704725 0.55253256161165365 1.425000000001911 2 0.5749999999984764 1.2345896428056129 2 0.84641423559720264 1.020652173914391 2 0.4078710937494115 0.92204894738342102 1.545944433704725 0.55253256161165365 1.425000000001911 2 0.5749999999984764 1.367905405405516 1.367905405405516 0.63209459459450335 1.2345896428056129 2 0.84641423559720264 0.92204894738342102 1.545944433704725 0.55253256161165365 1.2345896428056129 2 0.84641423559720264 1.367905405405516 1.367905405405516 0.63209459459450335 1.425000000001911 2 0.5749999999984764 1.532347752213032 1.4746298915713509 1.076108883276101 1.425000000001911 2 0.5749999999984764 1.3863248792284211 2 0.25937977430496501 1.367905405405516 1.367905405405516 0.63209459459450335 0.92204894738342102 1.545944433704725 0.55253256161165365 1.5921289062505879 2 1.0206521739114489 1.2345896428056129 2 0.84641423559720264 1.425000000001911 2 0.5749999999984764 1.532347752213032 1.4746298915713509 1.076108883276101 1.2345896428056129 2 0.84641423559720264 0.86620738987133672 1.5000000000001401 1.0337672479303861 1.000000000000635 2 0.99999999999835598 0.92204894738342102 1.545944433704725 0.55253256161165365 0.84920286521341182 2 0.76599646645041963 1.2345896428056129 2 0.84641423559720264 1.000000000000635 2 0.99999999999835598 0.92204894738342102 1.545944433704725 0.55253256161165365 0.84920286521341182 2 0.76599646645041963 1.020652173914391 2 0.4078710937494115 1.2345896428056129 2 0.84641423559720264 0.92204894738342102 1.545944433704725 0.55253256161165365 1.671075651349931 1.671075651349931 0 1.383345565053743 1.737640911520447 0 1.425000000001621 1.425000000001621 0 1.367905405405516 1.367905405405516 0.63209459459450335 1.425000000001911 2 0.5749999999984764 1.3863248792284211 2 0.25937977430496501 1.685972222223028 2 0.31402777777693691 1.367905405405516 1.367905405405516 0.63209459459450335 1.383345565053743 1.737640911520447 0 1.3863248792284211 2 0.25937977430496501 1.020652173914391 2 0.4078710937494115 0.92204894738342102 1.545944433704725 0.55253256161165365 1.0206521739143919 1.592128906250684 0 1.367905405405516 1.367905405405516 0.63209459459450335 1.383345565053743 1.737640911520447 0 0.92204894738342102 1.545944433704725 0.55253256161165365 1.0206521739143919 1.592128906250684 0 1.425000000001621 1.425000000001621 0 1.383345565053743 1.737640911520447 0 1.367905405405516 1.367905405405516 0.63209459459450335 1.425000000001911 2 0.5749999999984764 1.020652173914391 2 0.4078710937494115 1.3863248792284211 2 0.25937977430496501 0.92204894738342102 1.545944433704725 0.55253256161165365 1.0206521739143919 1.592128906250684 0 1.383345565053743 1.737640911520447 0 1.020652173914391 2 0.4078710937494115 0.92204894738342102 1.545944433704725 0.55253256161165365 1.383345565053743 1.737640911520447 0 1.367905405405516 1.367905405405516 0.63209459459450335 1.3863248792284211 2 0.25937977430496501 0.92204894738342102 1.545944433704725 0.55253256161165365 1.671075651349931 1.671075651349931 0 1.3863248792284211 2 0.25937977430496501 1.383345565053743 1.737640911520447 0 1.367905405405516 1.367905405405516 0.63209459459450335 0.80000000000332872 2 0 1.0206521739143919 1.592128906250684 0 1.200000000002774 2 0 1.020652173914391 2 0.4078710937494115 1.200000000002774 2 0 1.0206521739143919 1.592128906250684 0 1.383345565053743 1.737640911520447 0 1.020652173914391 2 0.4078710937494115 1.200000000002774 2 0 1.383345565053743 1.737640911520447 0 1.3863248792284211 2 0.25937977430496501 1.020652173914391 2 0.4078710937494115 1.6000000000000001 2 0 1.200000000002774 2 0 1.383345565053743 1.737640911520447 0 1.3863248792284211 2 0.25937977430496501 2 1.685972222223028 0.31402777777693691 1.740620225695106 2 0.62193599033678559 1.685972222223028 2 0.31402777777693691 1.367905405405516 1.367905405405516 0.63209459459450335 2 1.685972222223028 0.31402777777693691 1.671075651349931 1.671075651349931 0 2 1.3863248792284211 0.25937977430496489 1.367905405405516 1.367905405405516 0.63209459459450335 2 1.685972222223028 0.31402777777693691 1.685972222223028 2 0.31402777777693691 1.671075651349931 1.671075651349931 0 1.367905405405516 1.367905405405516 0.63209459459450335 1.671075651349931 1.671075651349931 0 1.685972222223028 2 0.31402777777693691 1.3863248792284211 2 0.25937977430496501 1.367905405405516 1.367905405405516 0.63209459459450335 1.671075651349931 1.671075651349931 0 1.6000000000000001 2 0 1.383345565053743 1.737640911520447 0 1.3863248792284211 2 0.25937977430496501 1.6000000000000001 2 0 1.671075651349931 1.671075651349931 0 1.685972222223028 2 0.31402777777693691 1.3863248792284211 2 0.25937977430496501 1.671075651349931 1.671075651349931 0 2 2 0 1.6000000000000001 2 0 1.685972222223028 2 0.31402777777693691 1.671075651349931 1.671075651349931 0 2 1.6000000000000001 0 2 1.3863248792284211 0.25937977430496489 1.737640911520401 1.3750846954886311 0 2 1.685972222223028 0.31402777777693691 2 2 0 2 1.6000000000000001 0 1.671075651349931 1.671075651349931 0 2 1.6000000000000001 0 2 1.685972222223028 0.31402777777693691 1.671075651349931 1.671075651349931 0 2 1.3863248792284211 0.25937977430496489 2 1.685972222223028 0.31402777777693691 2 2 0 1.671075651349931 1.671075651349931 0 1.685972222223028 2 0.31402777777693691 1.740620225695106 2 0.62193599033678559 2 1.685972222223028 0.31402777777693691 2 2 0.39999999999911567 2 1.740620225695106 0.62193599033678559 2 2 0 2 1.685972222223028 0.31402777777693691 2 2 0.39999999999911567 1.685972222223028 2 0.31402777777693691 2 1.685972222223028 0.31402777777693691 1.740620225695106 2 0.62193599033678559 2 2 0.39999999999911567 1.685972222223028 2 0.31402777777693691 1.425000000001911 2 0.5749999999984764 1.740620225695106 2 0.62193599033678559 1.5921289062505879 2 1.0206521739114489 1.532347752213032 1.4746298915713509 1.076108883276101 2 2 0.7999999999979498 2 1.740620225695106 0.62193599033678559 1.740620225695106 2 0.62193599033678559 2 2 0.39999999999911567 1.740620225695106 2 0.62193599033678559 1.367905405405516 1.367905405405516 0.63209459459450335 2 1.740620225695106 0.62193599033678559 1.532347752213032 1.4746298915713509 1.076108883276101 2 1.425000000001911 0.57499999999847629 2 1.740620225695106 0.62193599033678559 1.367905405405516 1.367905405405516 0.63209459459450335 1.532347752213032 1.4746298915713509 1.076108883276101 2 1.592128906250589 1.0206521739114489 1.740620225695106 2 0.62193599033678559 2 1.740620225695106 0.62193599033678559 1.532347752213032 1.4746298915713509 1.076108883276101 2 1.425000000001911 0.57499999999847629 2 1.592128906250589 1.0206521739114489 2 1.740620225695106 0.62193599033678559 1.532347752213032 1.4746298915713509 1.076108883276101 1.425000000001911 2 0.5749999999984764 1.367905405405516 1.367905405405516 0.63209459459450335 1.740620225695106 2 0.62193599033678559 1.532347752213032 1.4746298915713509 1.076108883276101 1.425000000001911 2 0.5749999999984764 1.685972222223028 2 0.31402777777693691 1.740620225695106 2 0.62193599033678559 1.367905405405516 1.367905405405516 0.63209459459450335 1.5921289062505879 2 1.0206521739114489 1.740620225695106 2 0.62193599033678559 2 1.592128906250589 1.0206521739114489 1.532347752213032 1.4746298915713509 1.076108883276101 2 1.685972222223028 0.31402777777693691 2 1.425000000001911 0.57499999999847629 2 1.740620225695106 0.62193599033678559 1.367905405405516 1.367905405405516 0.63209459459450335 2 1.685972222223028 0.31402777777693691 2 1.740620225695106 0.62193599033678559 1.740620225695106 2 0.62193599033678559 1.367905405405516 1.367905405405516 0.63209459459450335 2 1.592128906250589 1.0206521739114489 1.5921289062505879 2 1.0206521739114489 2 2 0.7999999999979498 1.740620225695106 2 0.62193599033678559 2 1.592128906250589 1.0206521739114489 2 2 0.7999999999979498 2 1.740620225695106 0.62193599033678559 1.740620225695106 2 0.62193599033678559 2 1.2345896428056129 0.84641423559720252 1.367905405405516 1.367905405405516 0.63209459459450335 1.5147705253128161 0.91852444755677043 0.69631892236242632 1.532347752213032 1.4746298915713509 1.076108883276101 2 1.2345896428056129 0.84641423559720252 1.5147705253128161 0.91852444755677043 0.69631892236242632 1.500000000000274 0.99883321436442229 1.16639307242336 1.532347752213032 1.4746298915713509 1.076108883276101 2 1.425000000001911 0.57499999999847629 1.367905405405516 1.367905405405516 0.63209459459450335 2 1.2345896428056129 0.84641423559720252 1.532347752213032 1.4746298915713509 1.076108883276101 2 1.425000000001911 0.57499999999847629 2 1.020652173914391 0.40787109374941138 2 1.2345896428056129 0.84641423559720252 1.5147705253128161 0.91852444755677043 0.69631892236242632 2 1.592128906250589 1.0206521739114489 2 1.425000000001911 0.57499999999847629 2 1.2345896428056129 0.84641423559720252 1.532347752213032 1.4746298915713509 1.076108883276101 2 1.425000000001911 0.57499999999847629 2 1.2345896428056129 0.84641423559720252 1.367905405405516 1.367905405405516 0.63209459459450335 1.5147705253128161 0.91852444755677043 0.69631892236242632 2 1.425000000001911 0.57499999999847629 1.367905405405516 1.367905405405516 0.63209459459450335 2 1.020652173914391 0.40787109374941138 1.5147705253128161 0.91852444755677043 0.69631892236242632 2 1.2345896428056129 0.84641423559720252 2 0.84920286521341182 0.76599646645041952 2 1.000000000000635 0.99999999999835576 1.5147705253128161 0.91852444755677043 0.69631892236242632 2 1.2345896428056129 0.84641423559720252 2 1.000000000000635 0.99999999999835576 1.500000000000274 0.99883321436442229 1.16639307242336 1.5147705253128161 0.91852444755677043 0.69631892236242632 2 1.2345896428056129 0.84641423559720252 2 1.020652173914391 0.40787109374941138 2 0.84920286521341182 0.76599646645041952 1.5147705253128161 0.91852444755677043 0.69631892236242632 2 1.020652173914391 0.40787109374941138 2 1.3863248792284211 0.25937977430496489 1.737640911520401 1.3750846954886311 0 1.367905405405516 1.367905405405516 0.63209459459450335 2 1.020652173914391 0.40787109374941138 2 1.425000000001911 0.57499999999847629 2 1.3863248792284211 0.25937977430496489 1.367905405405516 1.367905405405516 0.63209459459450335 1.425000000001621 1.425000000001621 0 1.592128906250452 0.97934782608882909 0 1.737640911520401 1.3750846954886311 0 1.367905405405516 1.367905405405516 0.63209459459450335 1.425000000001621 1.425000000001621 0 1.737640911520401 1.3750846954886311 0 1.671075651349931 1.671075651349931 0 1.367905405405516 1.367905405405516 0.63209459459450335 2 1.685972222223028 0.31402777777693691 2 1.3863248792284211 0.25937977430496489 2 1.425000000001911 0.57499999999847629 1.367905405405516 1.367905405405516 0.63209459459450335 1.671075651349931 1.671075651349931 0 1.737640911520401 1.3750846954886311 0 2 1.3863248792284211 0.25937977430496489 1.367905405405516 1.367905405405516 0.63209459459450335 2 1.020652173914391 0.40787109374941138 1.367905405405516 1.367905405405516 0.63209459459450335 1.592128906250452 0.97934782608882909 0 1.5147705253128161 0.91852444755677043 0.69631892236242632 2 1.020652173914391 0.40787109374941138 1.737640911520401 1.3750846954886311 0 1.592128906250452 0.97934782608882909 0 1.367905405405516 1.367905405405516 0.63209459459450335 2 1.3863248792284211 0.25937977430496489 2 1.6000000000000001 0 2 1.200000000002774 0 1.737640911520401 1.3750846954886311 0 2 1.020652173914391 0.40787109374941138 2 1.200000000002774 0 2 0.80000000000332872 0 1.592128906250452 0.97934782608882909 0 2 1.020652173914391 0.40787109374941138 2 1.3863248792284211 0.25937977430496489 2 1.200000000002774 0 1.737640911520401 1.3750846954886311 0 2 1.200000000002774 0 2 1.020652173914391 0.40787109374941138 1.737640911520401 1.3750846954886311 0 1.592128906250452 0.97934782608882909 0 2 1.020652173914391 0.40787109374941138 1.5147705253128161 0.91852444755677043 0.69631892236242632 1.592128906250452 0.97934782608882909 0 1.5919037892070651 0.60245787335453693 0.40912424902564543 2 1.020652173914391 0.40787109374941138 2 0.80000000000332872 0 2 0.62596376811713206 0.26340755208327649 1.592128906250452 0.97934782608882909 0 2 0.80000000000332872 0 1.7349990699406379 0.62412558229936677 0 2 0.62596376811713206 0.26340755208327649 1.592128906250452 0.97934782608882909 0 2 0.62596376811713206 0.26340755208327649 2 1.020652173914391 0.40787109374941138 1.592128906250452 0.97934782608882909 0 1.5919037892070651 0.60245787335453693 0.40912424902564543 2 0.62596376811713206 0.26340755208327649 2 0.57499999999943696 0.57500000000055196 2 1.020652173914391 0.40787109374941138 1.5919037892070651 0.60245787335453693 0.40912424902564543 2 0.62596376811713206 0.26340755208327649 2 0.3341666666668387 0.3341666666664192 2 0.57499999999943696 0.57500000000055196 1.5919037892070651 0.60245787335453693 0.40912424902564543 1.7349990699406379 0.62412558229936677 0 2 0.3341666666668387 0.3341666666664192 2 0.62596376811713206 0.26340755208327649 1.5919037892070651 0.60245787335453693 0.40912424902564543 1.592128906250452 0.97934782608882909 0 1.424999999999718 0.57500000000001494 0 1.7349990699406379 0.62412558229936677 0 1.5919037892070651 0.60245787335453693 0.40912424902564543 1.7349990699406379 0.62412558229936677 0 2 0.62596376811713206 0.26340755208327649 1.592128906250452 0.97934782608882909 0 1.5919037892070651 0.60245787335453693 0.40912424902564543 1.424999999999718 0.57500000000001494 0 1.665833333333407 0.33416666666669298 0 1.7349990699406379 0.62412558229936677 0 1.5919037892070651 0.60245787335453693 0.40912424902564543 1.7349990699406379 0.62412558229936677 0 2 0.80000000000332872 0 2 0.62596376811713206 0.26340755208327649 2 0.40000000000166441 0 2 0.3341666666668387 0.3341666666664192 1.665833333333216 0 0.33416666666646572 2 0.26500093005947722 0.62412558229727921 1.5919037892070651 0.60245787335453693 0.40912424902564543 1.665833333333407 0.33416666666669298 0 1.3758744177011391 0 0.26500093005953979 1.665833333333216 0 0.33416666666646572 1.5919037892070651 0.60245787335453693 0.40912424902564543 2 0.3341666666668387 0.3341666666664192 2 0 0 1.665833333333407 0.33416666666669298 0 2 0.40000000000166441 0 1.425000000000477 0 0.57500000000037066 1.7365924479167549 0 0.62596376811523924 1.665833333333216 0 0.33416666666646572 1.5919037892070651 0.60245787335453693 0.40912424902564543 1.374036231883393 0.26340755208345812 0 1.3758744177011391 0 0.26500093005953979 1.665833333333407 0.33416666666669298 0 1.5919037892070651 0.60245787335453693 0.40912424902564543 1.7349990699406379 0.62412558229936677 0 2 0.3341666666668387 0.3341666666664192 1.665833333333407 0.33416666666669298 0 2 0.40000000000166441 0 2 0.3341666666668387 0.3341666666664192 1.665833333333407 0.33416666666669298 0 1.665833333333216 0 0.33416666666646572 1.5919037892070651 0.60245787335453693 0.40912424902564543 1.425000000000477 0 0.57500000000037066 1.665833333333216 0 0.33416666666646572 1.3758744177011391 0 0.26500093005953979 1.5919037892070651 0.60245787335453693 0.40912424902564543 2 0.26500093005947722 0.62412558229727921 1.665833333333216 0 0.33416666666646572 1.7365924479167549 0 0.62596376811523924 1.5919037892070651 0.60245787335453693 0.40912424902564543 1.7349990699406379 0.62412558229936677 0 2 0.62596376811713206 0.26340755208327649 2 0.3341666666668387 0.3341666666664192 2 0.40000000000166441 0 2 0.3341666666668387 0.3341666666664192 2 0.26500093005947722 0.62412558229727921 2 0.57499999999943696 0.57500000000055196 1.5919037892070651 0.60245787335453693 0.40912424902564543 2 0.26500093005947722 0.62412558229727921 2 0 0.39999999999911567 1.7365924479167549 0 0.62596376811523924 1.665833333333216 0 0.33416666666646572 2 0 0.39999999999911567 2 0.3341666666668387 0.3341666666664192 2 0 0 1.665833333333216 0 0.33416666666646572 2 0 0.39999999999911567 2 0.26500093005947722 0.62412558229727921 2 0.3341666666668387 0.3341666666664192 1.665833333333216 0 0.33416666666646572 2 0 0 2 0.3341666666668387 0.3341666666664192 1.665833333333407 0.33416666666669298 0 1.665833333333216 0 0.33416666666646572 1.3758744177011391 0 0.26500093005953979 1.374036231883393 0.26340755208345812 0 1.665833333333407 0.33416666666669298 0 1.5999999999989469 0 0 1.665833333333407 0.33416666666669298 0 2 0 0 1.665833333333216 0 0.33416666666646572 1.5999999999989469 0 0 1.3758744177011391 0 0.26500093005953979 1.665833333333407 0.33416666666669298 0 1.665833333333216 0 0.33416666666646572 1.5999999999989469 0 0 1.374036231883393 0.26340755208345812 0 1.665833333333407 0.33416666666669298 0 1.424999999999718 0.57500000000001494 0 1.5919037892070651 0.60245787335453693 0.40912424902564543 1.7349990699406379 0.62412558229936677 0 1.665833333333407 0.33416666666669298 0 2 0.3341666666668387 0.3341666666664192 1.5919037892070651 0.60245787335453693 0.40912424902564543 1.374036231883393 0.26340755208345812 0 1.19811642196055 0.57789440443542173 0.58983547034755146 1.3758744177011391 0 0.26500093005953979 1.5919037892070651 0.60245787335453693 0.40912424902564543 1.374036231883393 0.26340755208345812 0 1.0206521739124059 0 0.40787109374997071 1.3758744177011391 0 0.26500093005953979 1.19811642196055 0.57789440443542173 0.58983547034755146 1.424999999999718 0.57500000000001494 0 0.97934782608699855 0.40787109375058261 0 1.374036231883393 0.26340755208345812 0 1.19811642196055 0.57789440443542173 0.58983547034755146 1.425000000000477 0 0.57500000000037066 1.3758744177011391 0 0.26500093005953979 1.19811642196055 0.57789440443542173 0.58983547034755146 1.5919037892070651 0.60245787335453693 0.40912424902564543 0.97934782608699855 0.40787109375058261 0 1.0206521739124059 0 0.40787109374997071 1.374036231883393 0.26340755208345812 0 1.19811642196055 0.57789440443542173 0.58983547034755146 1.3758744177011391 0 0.26500093005953979 1.0206521739124059 0 0.40787109374997071 1.425000000000477 0 0.57500000000037066 1.19811642196055 0.57789440443542173 0.58983547034755146 1.1999999999978941 0 0 1.374036231883393 0.26340755208345812 0 1.3758744177011391 0 0.26500093005953979 1.5999999999989469 0 0 0.97934782608699855 0.40787109375058261 0 1.1999999999978941 0 0 1.374036231883393 0.26340755208345812 0 1.0206521739124059 0 0.40787109374997071 1.374036231883393 0.26340755208345812 0 1.1999999999978941 0 0 1.3758744177011391 0 0.26500093005953979 1.0206521739124059 0 0.40787109374997071 1.151058336609301 0.76640924832138713 0 1.19811642196055 0.57789440443542173 0.58983547034755146 1.424999999999718 0.57500000000001494 0 1.5919037892070651 0.60245787335453693 0.40912424902564543 1.5147705253128161 0.91852444755677043 0.69631892236242632 1.5919037892070651 0.60245787335453693 0.40912424902564543 1.2339059149979039 1.1508473222113209 0 1.592128906250452 0.97934782608882909 0 1.151058336609301 0.76640924832138713 0 1.0362039003897969 1.032400726930619 0.49025282767413908 1.19811642196055 0.57789440443542173 0.58983547034755146 1.5919037892070651 0.60245787335453693 0.40912424902564543 1.151058336609301 0.76640924832138713 0 1.5919037892070651 0.60245787335453693 0.40912424902564543 1.2339059149979039 1.1508473222113209 0 1.0362039003897969 1.032400726930619 0.49025282767413908 1.5147705253128161 0.91852444755677043 0.69631892236242632 1.2339059149979039 1.1508473222113209 0 1.5919037892070651 0.60245787335453693 0.40912424902564543 1.0362039003897969 1.032400726930619 0.49025282767413908 1.151058336609301 0.76640924832138713 0 0.97934782608699855 0.40787109375058261 0 1.424999999999718 0.57500000000001494 0 1.19811642196055 0.57789440443542173 0.58983547034755146 1.151058336609301 0.76640924832138713 0 1.2339059149979039 1.1508473222113209 0 1.5919037892070651 0.60245787335453693 0.40912424902564543 1.592128906250452 0.97934782608882909 0 1.374036231883393 0.26340755208345812 0 1.424999999999718 0.57500000000001494 0 1.19811642196055 0.57789440443542173 0.58983547034755146 1.5919037892070651 0.60245787335453693 0.40912424902564543 1.151058336609301 0.76640924832138713 0 0.97934782608699855 0.40787109375058261 0 1.19811642196055 0.57789440443542173 0.58983547034755146 0.77789883252811276 0.39570480562063071 0.39543357482263919 1.151058336609301 0.76640924832138713 0 1.19811642196055 0.57789440443542173 0.58983547034755146 1.0362039003897969 1.032400726930619 0.49025282767413908 0.77789883252811276 0.39570480562063071 0.39543357482263919 1.151058336609301 0.76640924832138713 0 1.2339059149979039 1.1508473222113209 0 1.0000000000013569 1.0000000000020031 0 1.0362039003897969 1.032400726930619 0.49025282767413908 1.151058336609301 0.76640924832138713 0 1.424999999999718 0.57500000000001494 0 1.592128906250452 0.97934782608882909 0 1.5919037892070651 0.60245787335453693 0.40912424902564543 1.19811642196055 0.57789440443542173 0.58983547034755146 1 0.99999999999999978 0.99999999999999978 0.98528458949709452 0.48395451161029718 1.014715410503322 1.5137040598352169 0.53344955263790295 0.97801656337898046 1.0362039003897969 1.032400726930619 0.49025282767413908 1.5147705253128161 0.91852444755677043 0.69631892236242632 1.19811642196055 0.57789440443542173 0.58983547034755146 1.5919037892070651 0.60245787335453693 0.40912424902564543 1.19811642196055 0.57789440443542173 0.58983547034755146 1 0.99999999999999978 0.99999999999999978 1.5137040598352169 0.53344955263790295 0.97801656337898046 1.5147705253128161 0.91852444755677043 0.69631892236242632 1.500000000000274 0.99883321436442229 1.16639307242336 1.5137040598352169 0.53344955263790295 0.97801656337898046 1 0.99999999999999978 0.99999999999999978 1.5147705253128161 0.91852444755677043 0.69631892236242632 1.19811642196055 0.57789440443542173 0.58983547034755146 1.5147705253128161 0.91852444755677043 0.69631892236242632 1.5137040598352169 0.53344955263790295 0.97801656337898046 1.5919037892070651 0.60245787335453693 0.40912424902564543 1.19811642196055 0.57789440443542173 0.58983547034755146 1.0362039003897969 1.032400726930619 0.49025282767413908 1 0.99999999999999978 0.99999999999999978 1.5147705253128161 0.91852444755677043 0.69631892236242632 1.0206521739124059 0 0.40787109374997071 1.2335907516799069 0 0.84894166339084287 1.425000000000477 0 0.57500000000037066 1.19811642196055 0.57789440443542173 0.58983547034755146 1.425000000000477 0 0.57500000000037066 1.19811642196055 0.57789440443542173 0.58983547034755146 1.2335907516799069 0 0.84894166339084287 1.5137040598352169 0.53344955263790295 0.97801656337898046 1.19811642196055 0.57789440443542173 0.58983547034755146 0.98528458949709452 0.48395451161029718 1.014715410503322 1.2335907516799069 0 0.84894166339084287 1.5137040598352169 0.53344955263790295 0.97801656337898046 1.425000000000477 0 0.57500000000037066 1.19811642196055 0.57789440443542173 0.58983547034755146 1.5137040598352169 0.53344955263790295 0.97801656337898046 1.5919037892070651 0.60245787335453693 0.40912424902564543 0.849152677791018 0 0.76609408500333809 1.2335907516799069 0 0.84894166339084287 1.19811642196055 0.57789440443542173 0.58983547034755146 0.98528458949709452 0.48395451161029718 1.014715410503322 0.849152677791018 0 0.76609408500333809 1.2335907516799069 0 0.84894166339084287 1.0206521739124059 0 0.40787109374997071 1.19811642196055 0.57789440443542173 0.58983547034755146 1.592128906250083 0 1.020652173912294 1.425000000000477 0 0.57500000000037066 1.2335907516799069 0 0.84894166339084287 1.5137040598352169 0.53344955263790295 0.97801656337898046 0.849152677791018 0 0.76609408500333809 1.0000000000002141 0 0.99999999999992895 1.2335907516799069 0 0.84894166339084287 0.98528458949709452 0.48395451161029718 1.014715410503322 1.425000000000477 0 0.57500000000037066 1.592128906250083 0 1.020652173912294 1.7365924479167549 0 0.62596376811523924 1.5137040598352169 0.53344955263790295 0.97801656337898046 1.425000000000477 0 0.57500000000037066 1.5137040598352169 0.53344955263790295 0.97801656337898046 1.7365924479167549 0 0.62596376811523924 1.5919037892070651 0.60245787335453693 0.40912424902564543 2 0.26500093005947722 0.62412558229727921 1.5137040598352169 0.53344955263790295 0.97801656337898046 2 0.57499999999943696 0.57500000000055196 1.5919037892070651 0.60245787335453693 0.40912424902564543 2 0.26500093005947722 0.62412558229727921 1.7365924479167549 0 0.62596376811523924 1.5137040598352169 0.53344955263790295 0.97801656337898046 1.5919037892070651 0.60245787335453693 0.40912424902564543 2 0.26500093005947722 0.62412558229727921 1.7365924479167549 0 0.62596376811523924 2 0.40787109375045588 0.9793478260856453 1.5137040598352169 0.53344955263790295 0.97801656337898046 1.592128906250083 0 1.020652173912294 2 0.40787109375045588 0.9793478260856453 1.7365924479167549 0 0.62596376811523924 1.5137040598352169 0.53344955263790295 0.97801656337898046 1.592128906250083 0 1.020652173912294 2 0 1.1999999999978941 2 0 0.7999999999979498 2 0.40787109375045588 0.9793478260856453 2 0.26500093005947722 0.62412558229727921 1.7365924479167549 0 0.62596376811523924 2 0 0.7999999999979498 2 0.40787109375045588 0.9793478260856453 1.7365924479167549 0 0.62596376811523924 1.592128906250083 0 1.020652173912294 2 0 0.7999999999979498 2 0.40787109375045588 0.9793478260856453 2 0 0.39999999999911567 2 0.26500093005947722 0.62412558229727921 1.7365924479167549 0 0.62596376811523924 2 0 0.7999999999979498 2 0.26500093005947722 0.62412558229727921 2 0.40787109375045588 0.9793478260856453 2 0.57499999999943696 0.57500000000055196 1.5137040598352169 0.53344955263790295 0.97801656337898046 1.5919037892070651 0.60245787335453693 0.40912424902564543 2 0.84920286521341182 0.76599646645041952 1.5137040598352169 0.53344955263790295 0.97801656337898046 2 0.57499999999943696 0.57500000000055196 2 0.57499999999943696 0.57500000000055196 2 0.40787109375045588 0.9793478260856453 2 0.84920286521341182 0.76599646645041952 1.5137040598352169 0.53344955263790295 0.97801656337898046 2 0.84920286521341182 0.76599646645041952 2 0.40787109375045588 0.9793478260856453 2 0.73668669749101645 1.139311376982779 1.5137040598352169 0.53344955263790295 0.97801656337898046 1.5919037892070651 0.60245787335453693 0.40912424902564543 1.5137040598352169 0.53344955263790295 0.97801656337898046 2 0.84920286521341182 0.76599646645041952 1.5147705253128161 0.91852444755677043 0.69631892236242632 2 1.020652173914391 0.40787109374941138 2 0.84920286521341182 0.76599646645041952 1.5147705253128161 0.91852444755677043 0.69631892236242632 1.5919037892070651 0.60245787335453693 0.40912424902564543 2 1.020652173914391 0.40787109374941138 2 0.57499999999943696 0.57500000000055196 2 0.84920286521341182 0.76599646645041952 1.5919037892070651 0.60245787335453693 0.40912424902564543 2 1.000000000000635 0.99999999999835576 1.5137040598352169 0.53344955263790295 0.97801656337898046 1.500000000000274 0.99883321436442229 1.16639307242336 1.5147705253128161 0.91852444755677043 0.69631892236242632 2 1.000000000000635 0.99999999999835576 2 0.84920286521341182 0.76599646645041952 1.5137040598352169 0.53344955263790295 0.97801656337898046 1.5147705253128161 0.91852444755677043 0.69631892236242632 2 0.73668669749101645 1.139311376982779 2 1.000000000000635 0.99999999999835576 2 0.84920286521341182 0.76599646645041952 1.5137040598352169 0.53344955263790295 0.97801656337898046 2 0.73668669749101645 1.139311376982779 1.500000000000274 0.99883321436442229 1.16639307242336 2 1.000000000000635 0.99999999999835576 1.5137040598352169 0.53344955263790295 0.97801656337898046 2 0.73668669749101645 1.139311376982779 2 1.1510583366092999 1.2335907516785649 2 1.000000000000635 0.99999999999835576 1.500000000000274 0.99883321436442229 1.16639307242336 2 0.97934782608697624 1.5921289062492749 1.416074976583422 1.0640336752305579 1.5993145461844129 1.500000000000274 0.99883321436442229 1.16639307242336 1.6049090527780649 0.68972037691419241 1.610520945894512 1.500000000000274 0.99883321436442229 1.16639307242336 2 0.73668669749101645 1.139311376982779 1.6049090527780649 0.68972037691419241 1.610520945894512 1.592055221591679 0.37998381655983821 1.346767458941071 1.500000000000274 0.99883321436442229 1.16639307242336 1.5137040598352169 0.53344955263790295 0.97801656337898046 2 0.73668669749101645 1.139311376982779 1.592055221591679 0.37998381655983821 1.346767458941071 2 0.73668669749101645 1.139311376982779 2 0.97934782608697624 1.5921289062492749 2 1.1510583366092999 1.2335907516785649 1.500000000000274 0.99883321436442229 1.16639307242336 2 0.97934782608697624 1.5921289062492749 1.500000000000274 0.99883321436442229 1.16639307242336 2 0.73668669749101645 1.139311376982779 1.6049090527780649 0.68972037691419241 1.610520945894512 2 0.57500000000210227 1.4249999999987459 1.6049090527780649 0.68972037691419241 1.610520945894512 2 0.73668669749101645 1.139311376982779 1.592055221591679 0.37998381655983821 1.346767458941071 2 0.57500000000210227 1.4249999999987459 2 0.97934782608697624 1.5921289062492749 2 0.73668669749101645 1.139311376982779 1.6049090527780649 0.68972037691419241 1.610520945894512 2 0.73668669749101645 1.139311376982779 1.5137040598352169 0.53344955263790295 0.97801656337898046 2 0.40787109375045588 0.9793478260856453 1.592055221591679 0.37998381655983821 1.346767458941071 2 0.73668669749101645 1.139311376982779 2 0.40787109375045588 0.9793478260856453 2 0.57500000000210227 1.4249999999987459 1.592055221591679 0.37998381655983821 1.346767458941071 1.592128906250083 0 1.020652173912294 2 0.40787109375045588 0.9793478260856453 1.5137040598352169 0.53344955263790295 0.97801656337898046 1.592055221591679 0.37998381655983821 1.346767458941071 2 0.26340755208402722 1.3740362318826671 2 0.40787109375045588 0.9793478260856453 2 0 1.1999999999978941 1.592055221591679 0.37998381655983821 1.346767458941071 2 0.57500000000210227 1.4249999999987459 2 0.26340755208402722 1.3740362318826671 2 0.33416666666757772 1.665833333332104 1.592055221591679 0.37998381655983821 1.346767458941071 2 0.57500000000210227 1.4249999999987459 2 0.40787109375045588 0.9793478260856453 2 0.26340755208402722 1.3740362318826671 1.592055221591679 0.37998381655983821 1.346767458941071 1.734999069940508 0 1.3758744177011299 2 0.33416666666757772 1.665833333332104 2 0.26340755208402722 1.3740362318826671 1.592055221591679 0.37998381655983821 1.346767458941071 2 0.26340755208402722 1.3740362318826671 1.734999069940508 0 1.3758744177011299 2 0 1.1999999999978941 2 0 1.5999999999989469 1.734999069940508 0 1.3758744177011299 2 0.26340755208402722 1.3740362318826671 2 0 1.1999999999978941 1.592055221591679 0.37998381655983821 1.346767458941071 1.592128906250083 0 1.020652173912294 2 0 1.1999999999978941 2 0.40787109375045588 0.9793478260856453 1.592055221591679 0.37998381655983821 1.346767458941071 1.734999069940508 0 1.3758744177011299 2 0 1.1999999999978941 1.592128906250083 0 1.020652173912294 1.592055221591679 0.37998381655983821 1.346767458941071 1.4249999999997249 0 1.425000000000185 1.734999069940508 0 1.3758744177011299 1.592128906250083 0 1.020652173912294 1.592055221591679 0.37998381655983821 1.346767458941071 1.4249999999997249 0 1.425000000000185 1.6658333333334381 0 1.665833333333264 1.734999069940508 0 1.3758744177011299 1.592055221591679 0.37998381655983821 1.346767458941071 1.4249999999997249 0 1.425000000000185 1.2526822839324241 0.59772980398008735 1.402270196020621 1.3740362318847941 0 1.736592447916669 1.592055221591679 0.37998381655983821 1.346767458941071 1.1393113769850489 0 1.263313302510394 1.5137040598352169 0.53344955263790295 0.97801656337898046 1.2526822839324241 0.59772980398008735 1.402270196020621 1.592055221591679 0.37998381655983821 1.346767458941071 1.592128906250083 0 1.020652173912294 1.5137040598352169 0.53344955263790295 0.97801656337898046 1.1393113769850489 0 1.263313302510394 1.592055221591679 0.37998381655983821 1.346767458941071 0.97934782608803661 0 1.5921289062498969 1.4249999999997249 0 1.425000000000185 1.1393113769850489 0 1.263313302510394 1.2526822839324241 0.59772980398008735 1.402270196020621 1.1393113769850489 0 1.263313302510394 1.2335907516799069 0 0.84894166339084287 0.98528458949709452 0.48395451161029718 1.014715410503322 1.5137040598352169 0.53344955263790295 0.97801656337898046 1.1393113769850489 0 1.263313302510394 0.98528458949709452 0.48395451161029718 1.014715410503322 1.2526822839324241 0.59772980398008735 1.402270196020621 1.5137040598352169 0.53344955263790295 0.97801656337898046 1.4249999999997249 0 1.425000000000185 1.1393113769850489 0 1.263313302510394 1.2526822839324241 0.59772980398008735 1.402270196020621 1.592055221591679 0.37998381655983821 1.346767458941071 1.1393113769850489 0 1.263313302510394 1.592128906250083 0 1.020652173912294 1.2335907516799069 0 0.84894166339084287 1.5137040598352169 0.53344955263790295 0.97801656337898046 1.1393113769850489 0 1.263313302510394 0.97934782608803661 0 1.5921289062498969 1.2526822839324241 0.59772980398008735 1.402270196020621 0.98528458949709452 0.48395451161029718 1.014715410503322 1.4249999999997249 0 1.425000000000185 1.592128906250083 0 1.020652173912294 1.1393113769850489 0 1.263313302510394 1.592055221591679 0.37998381655983821 1.346767458941071 1.1393113769850489 0 1.263313302510394 1.2335907516799069 0 0.84894166339084287 1.0000000000002141 0 0.99999999999992895 0.98528458949709452 0.48395451161029718 1.014715410503322 1.500000000000274 0.99883321436442229 1.16639307242336 0.98528458949676634 0.98528458949702458 1.516045488389935 1.2526822839324241 0.59772980398008735 1.402270196020621 1.416074976583422 1.0640336752305579 1.5993145461844129 1.2526822839324241 0.59772980398008735 1.402270196020621 1.500000000000274 0.99883321436442229 1.16639307242336 1.6049090527780649 0.68972037691419241 1.610520945894512 1.592055221591679 0.37998381655983821 1.346767458941071 1.2526822839324241 0.59772980398008735 1.402270196020621 1.5137040598352169 0.53344955263790295 0.97801656337898046 1.500000000000274 0.99883321436442229 1.16639307242336 1.592055221591679 0.37998381655983821 1.346767458941071 1 0.99999999999999978 0.99999999999999978 1.2526822839324241 0.59772980398008735 1.402270196020621 1.500000000000274 0.99883321436442229 1.16639307242336 0.98528458949676634 0.98528458949702458 1.516045488389935 1.2526822839324241 0.59772980398008735 1.402270196020621 1 0.99999999999999978 0.99999999999999978 1.500000000000274 0.99883321436442229 1.16639307242336 1.5137040598352169 0.53344955263790295 0.97801656337898046 1.2526822839324241 0.59772980398008735 1.402270196020621 0.98528458949709452 0.48395451161029718 1.014715410503322 1 0.99999999999999978 0.99999999999999978 1.5137040598352169 0.53344955263790295 0.97801656337898046 1 0.99999999999999978 0.99999999999999978 0.98528458949709452 0.48395451161029718 1.014715410503322 1.2526822839324241 0.59772980398008735 1.402270196020621 0.98528458949676634 0.98528458949702458 1.516045488389935 1.500000000000274 0.99883321436442229 1.16639307242336 1.416074976583422 1.0640336752305579 1.5993145461844129 1.2526822839324241 0.59772980398008735 1.402270196020621 1.6049090527780649 0.68972037691419241 1.610520945894512 1.425000000001911 0.57499999999847629 2 1.3780640096633039 0.25937977430496151 2 1.2526822839324241 0.59772980398008735 1.402270196020621 1.6049090527780649 0.68972037691419241 1.610520945894512 0.979347826088805 0.40787109374939401 2 1.1535857644027949 0.76541035719405237 2 1.425000000001911 0.57499999999847629 2 1.2526822839324241 0.59772980398008735 1.402270196020621 1.1535857644027949 0.76541035719405237 2 1.2526822839324241 0.59772980398008735 1.402270196020621 1.416074976583422 1.0640336752305579 1.5993145461844129 1.6049090527780649 0.68972037691419241 1.610520945894512 1.1535857644027949 0.76541035719405237 2 1.2526822839324241 0.59772980398008735 1.402270196020621 0.98528458949676634 0.98528458949702458 1.516045488389935 1.416074976583422 1.0640336752305579 1.5993145461844129 0.979347826088805 0.40787109374939401 2 1.1535857644027949 0.76541035719405237 2 1.2526822839324241 0.59772980398008735 1.402270196020621 0.98528458949676634 0.98528458949702458 1.516045488389935 1.1535857644027949 0.76541035719405237 2 1.425000000001911 0.57499999999847629 2 1.2526822839324241 0.59772980398008735 1.402270196020621 1.6049090527780649 0.68972037691419241 1.610520945894512 1.1535857644027949 0.76541035719405237 2 1.5921289062508031 0.97934782608568471 2 1.425000000001911 0.57499999999847629 2 1.6049090527780649 0.68972037691419241 1.610520945894512 1.1535857644027949 0.76541035719405237 2 1.2340035335497621 1.1507971347859809 2 1.5921289062508031 0.97934782608568471 2 1.416074976583422 1.0640336752305579 1.5993145461844129 1.1535857644027949 0.76541035719405237 2 1.416074976583422 1.0640336752305579 1.5993145461844129 1.5921289062508031 0.97934782608568471 2 1.6049090527780649 0.68972037691419241 1.610520945894512 1.000000000001781 0.99999999999894518 2 1.1535857644027949 0.76541035719405237 2 0.98528458949676634 0.98528458949702458 1.516045488389935 1.416074976583422 1.0640336752305579 1.5993145461844129 1.000000000001781 0.99999999999894518 2 1.2340035335497621 1.1507971347859809 2 1.1535857644027949 0.76541035719405237 2 1.416074976583422 1.0640336752305579 1.5993145461844129 1.2526822839324241 0.59772980398008735 1.402270196020621 1.6049090527780649 0.68972037691419241 1.610520945894512 1.3780640096633039 0.25937977430496151 2 1.592055221591679 0.37998381655983821 1.346767458941071 1.3740362318847941 0 1.736592447916669 1.2526822839324241 0.59772980398008735 1.402270196020621 1.3780640096633039 0.25937977430496151 2 1.592055221591679 0.37998381655983821 1.346767458941071 0.97934782608803661 0 1.5921289062498969 1.3740362318847941 0 1.736592447916669 1.4249999999997249 0 1.425000000000185 1.2526822839324241 0.59772980398008735 1.402270196020621 1.425000000001911 0.57499999999847629 2 1.3780640096633039 0.25937977430496151 2 0.979347826088805 0.40787109374939401 2 1.2526822839324241 0.59772980398008735 1.402270196020621 0.97934782608803661 0 1.5921289062498969 0.979347826088805 0.40787109374939401 2 1.3740362318847941 0 1.736592447916669 1.2526822839324241 0.59772980398008735 1.402270196020621 0.979347826088805 0.40787109374939401 2 1.3780640096633039 0.25937977430496151 2 1.3740362318847941 0 1.736592447916669 1.2526822839324241 0.59772980398008735 1.402270196020621 1.3740362318847941 0 1.736592447916669 0.979347826088805 0.40787109374939401 2 1.200000000002774 0 2 1.3780640096633039 0.25937977430496151 2 0.979347826088805 0.40787109374939401 2 0.97934782608803661 0 1.5921289062498969 1.3740362318847941 0 1.736592447916669 1.200000000002774 0 2 1.200000000002774 0 2 1.3740362318847941 0 1.736592447916669 1.3780640096633039 0.25937977430496151 2 1.6000000000000001 0 2 1.6658333333334381 0 1.665833333333264 1.685972222223028 0.31402777777693702 2 2 0.33416666666757772 1.665833333332104 1.592055221591679 0.37998381655983821 1.346767458941071 1.6658333333334381 0 1.665833333333264 1.3780640096633039 0.25937977430496151 2 1.685972222223028 0.31402777777693702 2 1.592055221591679 0.37998381655983821 1.346767458941071 1.685972222223028 0.31402777777693702 2 1.6049090527780649 0.68972037691419241 1.610520945894512 2 0.33416666666757772 1.665833333332104 1.592055221591679 0.37998381655983821 1.346767458941071 1.425000000001911 0.57499999999847629 2 1.685972222223028 0.31402777777693702 2 1.3780640096633039 0.25937977430496151 2 1.6049090527780649 0.68972037691419241 1.610520945894512 1.3780640096633039 0.25937977430496151 2 1.6049090527780649 0.68972037691419241 1.610520945894512 1.685972222223028 0.31402777777693702 2 1.592055221591679 0.37998381655983821 1.346767458941071 1.6658333333334381 0 1.665833333333264 1.3740362318847941 0 1.736592447916669 1.3780640096633039 0.25937977430496151 2 1.592055221591679 0.37998381655983821 1.346767458941071 1.6658333333334381 0 1.665833333333264 2 0.33416666666757772 1.665833333332104 1.734999069940508 0 1.3758744177011299 1.592055221591679 0.37998381655983821 1.346767458941071 1.6658333333334381 0 1.665833333333264 1.4249999999997249 0 1.425000000000185 1.3740362318847941 0 1.736592447916669 1.592055221591679 0.37998381655983821 1.346767458941071 1.6658333333334381 0 1.665833333333264 1.3780640096633039 0.25937977430496151 2 1.6000000000000001 0 2 1.685972222223028 0.31402777777693702 2 1.3740362318847941 0 1.736592447916669 1.6658333333334381 0 1.665833333333264 1.3780640096633039 0.25937977430496151 2 1.6000000000000001 0 2 1.6658333333334381 0 1.665833333333264 1.6000000000000001 0 2 2 0 2 1.685972222223028 0.31402777777693702 2 2 0.33416666666757772 1.665833333332104 1.6658333333334381 0 1.665833333333264 2 0 2 1.685972222223028 0.31402777777693702 2 2 0.33416666666757772 1.665833333332104 1.6658333333334381 0 1.665833333333264 2 0 1.5999999999989469 2 0 2 1.734999069940508 0 1.3758744177011299 2 0.26340755208402722 1.3740362318826671 2 0.33416666666757772 1.665833333332104 2 0 1.5999999999989469 1.6658333333334381 0 1.665833333333264 1.734999069940508 0 1.3758744177011299 2 0.33416666666757772 1.665833333332104 2 0 1.5999999999989469 2 0.57500000000210227 1.4249999999987459 2 0.33416666666757772 1.665833333332104 1.6049090527780649 0.68972037691419241 1.610520945894512 1.592055221591679 0.37998381655983821 1.346767458941071 1.7406202256951491 0.61367512077163267 2 2 0.33416666666757772 1.665833333332104 2 0.39999999999911567 2 1.685972222223028 0.31402777777693702 2 1.7406202256951491 0.61367512077163267 2 2 0.33416666666757772 1.665833333332104 1.685972222223028 0.31402777777693702 2 1.6049090527780649 0.68972037691419241 1.610520945894512 2 0.39999999999911567 2 2 0.33416666666757772 1.665833333332104 2 0 2 1.685972222223028 0.31402777777693702 2 2 0.33416666666757772 1.665833333332104 1.7406202256951491 0.61367512077163267 2 2 0.39999999999911567 2 2 0.62412558229832538 1.734999069939664 1.7406202256951491 0.61367512077163267 2 2 0.7999999999979498 2 2 0.62412558229832538 1.734999069939664 1.6049090527780649 0.68972037691419241 1.610520945894512 1.5921289062508031 0.97934782608568471 2 1.416074976583422 1.0640336752305579 1.5993145461844129 2 0.97934782608697624 1.5921289062492749 1.6049090527780649 0.68972037691419241 1.610520945894512 2 0.39999999999911567 2 1.7406202256951491 0.61367512077163267 2 2 0.7999999999979498 2 2 0.62412558229832538 1.734999069939664 1.7406202256951491 0.61367512077163267 2 2 0.62412558229832538 1.734999069939664 2 0.33416666666757772 1.665833333332104 1.6049090527780649 0.68972037691419241 1.610520945894512 1.7406202256951491 0.61367512077163267 2 1.425000000001911 0.57499999999847629 2 1.5921289062508031 0.97934782608568471 2 1.6049090527780649 0.68972037691419241 1.610520945894512 1.7406202256951491 0.61367512077163267 2 1.685972222223028 0.31402777777693702 2 1.425000000001911 0.57499999999847629 2 1.6049090527780649 0.68972037691419241 1.610520945894512 2 0.57500000000210227 1.4249999999987459 2 0.62412558229832538 1.734999069939664 2 0.97934782608697624 1.5921289062492749 1.6049090527780649 0.68972037691419241 1.610520945894512 2 0.57500000000210227 1.4249999999987459 2 0.33416666666757772 1.665833333332104 2 0.62412558229832538 1.734999069939664 1.6049090527780649 0.68972037691419241 1.610520945894512 2 0.7999999999979498 2 2 0.97934782608697624 1.5921289062492749 2 0.62412558229832538 1.734999069939664 1.6049090527780649 0.68972037691419241 1.610520945894512 1.7406202256951491 0.61367512077163267 2 1.5921289062508031 0.97934782608568471 2 2 0.7999999999979498 2 1.6049090527780649 0.68972037691419241 1.610520945894512 1.5921289062508031 0.97934782608568471 2 2 0.7999999999979498 2 2 0.97934782608697624 1.5921289062492749 2 1.1999999999978941 2 2 0.7999999999979498 2 1.5921289062508031 0.97934782608568471 2 2 0.97934782608697624 1.5921289062492749 1.6049090527780649 0.68972037691419241 1.610520945894512 2 1.3750846954865119 1.737640911519603 1.5950886193190319 1.5950886193190319 1.4995967914346211 2 1.4249999999998371 1.4249999999998371 1.416074976583422 1.0640336752305579 1.5993145461844129 2 0.97934782608697624 1.5921289062492749 2 1.3750846954865119 1.737640911519603 2 1.4249999999998371 1.4249999999998371 1.416074976583422 1.0640336752305579 1.5993145461844129 1.4249999999998371 1.4249999999998371 2 1.5950886193190319 1.5950886193190319 1.4995967914346211 1.737640911519909 1.3750846954862539 2 1.416074976583422 1.0640336752305579 1.5993145461844129 1.737640911519909 1.3750846954862539 2 1.5921289062508031 0.97934782608568471 2 2 0.97934782608697624 1.5921289062492749 2 1.1999999999978941 2 1.737640911519909 1.3750846954862539 2 1.5950886193190319 1.5950886193190319 1.4995967914346211 2 1.3750846954865119 1.737640911519603 1.416074976583422 1.0640336752305579 1.5993145461844129 1.737640911519909 1.3750846954862539 2 2 0.97934782608697624 1.5921289062492749 2 1.3750846954865119 1.737640911519603 2 1.1999999999978941 2 1.737640911519909 1.3750846954862539 2 2 0.97934782608697624 1.5921289062492749 1.5921289062508031 0.97934782608568471 2 1.416074976583422 1.0640336752305579 1.5993145461844129 1.737640911519909 1.3750846954862539 2 2 1.3750846954865119 1.737640911519603 2 0.97934782608697624 1.5921289062492749 1.416074976583422 1.0640336752305579 1.5993145461844129 2 1.3750846954865119 1.737640911519603 1.737640911519909 1.3750846954862539 2 2 1.1999999999978941 2 2 1.5999999999989469 2 1.4249999999998371 1.4249999999998371 2 1.737640911519909 1.3750846954862539 2 1.5921289062508031 0.97934782608568471 2 1.416074976583422 1.0640336752305579 1.5993145461844129 1.416074976583422 1.0640336752305579 1.5993145461844129 1.532347752213032 1.4746298915713509 1.076108883276101 2 1.1510583366092999 1.2335907516785649 1.500000000000274 0.99883321436442229 1.16639307242336 2 0.97934782608697624 1.5921289062492749 2 1.4249999999998371 1.4249999999998371 2 1.1510583366092999 1.2335907516785649 1.416074976583422 1.0640336752305579 1.5993145461844129 2 0.97934782608697624 1.5921289062492749 2 1.1510583366092999 1.2335907516785649 1.500000000000274 0.99883321436442229 1.16639307242336 1.416074976583422 1.0640336752305579 1.5993145461844129 1.416074976583422 1.0640336752305579 1.5993145461844129 2 1.1510583366092999 1.2335907516785649 1.532347752213032 1.4746298915713509 1.076108883276101 1.5950886193190319 1.5950886193190319 1.4995967914346211 2 1.1510583366092999 1.2335907516785649 2 1.4249999999998371 1.4249999999998371 1.5950886193190319 1.5950886193190319 1.4995967914346211 1.416074976583422 1.0640336752305579 1.5993145461844129 2 1.2345896428056129 0.84641423559720252 1.500000000000274 0.99883321436442229 1.16639307242336 2 1.1510583366092999 1.2335907516785649 1.532347752213032 1.4746298915713509 1.076108883276101 2 1.1510583366092999 1.2335907516785649 2 1.2345896428056129 0.84641423559720252 2 1.000000000000635 0.99999999999835576 1.500000000000274 0.99883321436442229 1.16639307242336 2 1.592128906250589 1.0206521739114489 2 1.2345896428056129 0.84641423559720252 2 1.1510583366092999 1.2335907516785649 1.532347752213032 1.4746298915713509 1.076108883276101 2 1.592128906250589 1.0206521739114489 2 1.1510583366092999 1.2335907516785649 2 1.4249999999998371 1.4249999999998371 1.532347752213032 1.4746298915713509 1.076108883276101 2 1.1510583366092999 1.2335907516785649 2 1.4249999999998371 1.4249999999998371 1.532347752213032 1.4746298915713509 1.076108883276101 1.5950886193190319 1.5950886193190319 1.4995967914346211 1.5921289062505879 2 1.0206521739114489 2 1.592128906250589 1.0206521739114489 1.7376409115198661 2 1.3833455650514059 1.532347752213032 1.4746298915713509 1.076108883276101 1.7376409115198661 2 1.3833455650514059 2 1.592128906250589 1.0206521739114489 2 1.7376409115198661 1.3833455650514059 1.532347752213032 1.4746298915713509 1.076108883276101 1.7376409115198661 2 1.3833455650514059 1.4249999999998371 2 1.4249999999998371 1.532347752213032 1.4746298915713509 1.076108883276101 1.5950886193190319 1.5950886193190319 1.4995967914346211 2 1.4249999999998371 1.4249999999998371 2 1.7376409115198661 1.3833455650514059 1.532347752213032 1.4746298915713509 1.076108883276101 1.5950886193190319 1.5950886193190319 1.4995967914346211 1.7376409115198661 2 1.3833455650514059 1.532347752213032 1.4746298915713509 1.076108883276101 1.4249999999998371 2 1.4249999999998371 1.5921289062505879 2 1.0206521739114489 1.7376409115198661 2 1.3833455650514059 1.532347752213032 1.4746298915713509 1.076108883276101 2 1.7376409115198661 1.3833455650514059 1.5950886193190319 1.5950886193190319 1.4995967914346211 2 1.671075651348906 1.671075651348906 2 1.7376409115198661 1.3833455650514059 2 1.4249999999998371 1.4249999999998371 1.5950886193190319 1.5950886193190319 1.4995967914346211 2 1.592128906250589 1.0206521739114489 2 1.4249999999998371 1.4249999999998371 2 1.7376409115198661 1.3833455650514059 1.532347752213032 1.4746298915713509 1.076108883276101 1.7376409115198661 2 1.3833455650514059 2 1.592128906250589 1.0206521739114489 2 2 1.1999999999978941 2 1.7376409115198661 1.3833455650514059 2 1.592128906250589 1.0206521739114489 1.7376409115198661 2 1.3833455650514059 2 2 1.1999999999978941 1.5921289062505879 2 1.0206521739114489 1.5921289062505879 2 1.0206521739114489 2 2 1.1999999999978941 2 1.592128906250589 1.0206521739114489 2 2 0.7999999999979498 1.671075651348906 2 1.671075651348906 1.4249999999998371 2 1.4249999999998371 1.7376409115198661 2 1.3833455650514059 1.5950886193190319 1.5950886193190319 1.4995967914346211 2 1.671075651348906 1.671075651348906 1.7376409115198661 2 1.3833455650514059 2 1.7376409115198661 1.3833455650514059 1.5950886193190319 1.5950886193190319 1.4995967914346211 2 2 1.1999999999978941 2 2 1.5999999999989469 1.7376409115198661 2 1.3833455650514059 2 1.7376409115198661 1.3833455650514059 1.671075651348906 2 1.671075651348906 2 1.671075651348906 1.671075651348906 1.671075651348906 1.671075651348906 2 1.5950886193190319 1.5950886193190319 1.4995967914346211 1.4249999999998371 1.4249999999998371 2 1.671075651348906 1.671075651348906 2 1.737640911519909 1.3750846954862539 2 1.5950886193190319 1.5950886193190319 1.4995967914346211 2 2 1.5999999999989469 2 1.671075651348906 1.671075651348906 1.7376409115198661 2 1.3833455650514059 2 1.7376409115198661 1.3833455650514059 2 1.671075651348906 1.671075651348906 1.671075651348906 2 1.671075651348906 1.7376409115198661 2 1.3833455650514059 1.5950886193190319 1.5950886193190319 1.4995967914346211 2 1.671075651348906 1.671075651348906 1.671075651348906 2 1.671075651348906 2 2 2 2 2 1.5999999999989469 1.4249999999998371 1.4249999999998371 2 1.3833455650517461 1.737640911519633 2 1.671075651348906 1.671075651348906 2 1.5950886193190319 1.5950886193190319 1.4995967914346211 1.3833455650517461 1.737640911519633 2 1.671075651348906 2 1.671075651348906 1.671075651348906 1.671075651348906 2 1.5950886193190319 1.5950886193190319 1.4995967914346211 1.3833455650517461 1.737640911519633 2 1.3750846954865119 2 1.737640911519603 1.671075651348906 2 1.671075651348906 1.5950886193190319 1.5950886193190319 1.4995967914346211 2 1.671075651348906 1.671075651348906 1.671075651348906 2 1.671075651348906 2 2 1.5999999999989469 1.7376409115198661 2 1.3833455650514059 1.737640911519909 1.3750846954862539 2 1.671075651348906 1.671075651348906 2 2 1.3750846954865119 1.737640911519603 1.5950886193190319 1.5950886193190319 1.4995967914346211 2 1.3750846954865119 1.737640911519603 1.671075651348906 1.671075651348906 2 2 1.671075651348906 1.671075651348906 1.5950886193190319 1.5950886193190319 1.4995967914346211 2 1.671075651348906 1.671075651348906 1.671075651348906 2 1.671075651348906 1.671075651348906 1.671075651348906 2 2 2 2 2 1.3750846954865119 1.737640911519603 2 1.5999999999989469 2 2 1.671075651348906 1.671075651348906 1.671075651348906 1.671075651348906 2 2 1.3750846954865119 1.737640911519603 1.737640911519909 1.3750846954862539 2 2 1.5999999999989469 2 1.671075651348906 1.671075651348906 2 2 1.5999999999989469 2 2 1.671075651348906 1.671075651348906 1.671075651348906 1.671075651348906 2 2 2 2 2 1.3750846954865119 1.737640911519603 2 1.671075651348906 1.671075651348906 2 1.4249999999998371 1.4249999999998371 1.5950886193190319 1.5950886193190319 1.4995967914346211 1.3750846954865119 2 1.737640911519603 1.3833455650517461 1.737640911519633 2 1.671075651348906 2 1.671075651348906 1.5999999999989469 2 2 1.671075651348906 2 1.671075651348906 1.3833455650517461 1.737640911519633 2 1.671075651348906 1.671075651348906 2 1.5999999999989469 2 2 1.671075651348906 2 1.671075651348906 1.671075651348906 1.671075651348906 2 2 2 2 1.5999999999989469 2 2 1.3750846954865119 2 1.737640911519603 1.4249999999998371 2 1.4249999999998371 1.671075651348906 2 1.671075651348906 1.5950886193190319 1.5950886193190319 1.4995967914346211 1.4249999999998371 1.4249999999998371 2 1.1981164219601721 1.4101645296525169 1.4221055955645681 1.3833455650517461 1.737640911519633 2 1.5950886193190319 1.5950886193190319 1.4995967914346211 0.97934782608697635 2 1.5921289062492749 1.4249999999998371 2 1.4249999999998371 1.3750846954865119 2 1.737640911519603 1.1981164219601721 1.4101645296525169 1.4221055955645681 0.97934782608697635 2 1.5921289062492749 1.3750846954865119 2 1.737640911519603 1.0206521739131471 1.5921289062494219 2 1.1981164219601721 1.4101645296525169 1.4221055955645681 1.3833455650517461 1.737640911519633 2 1.0206521739131471 1.5921289062494219 2 1.3750846954865119 2 1.737640911519603 1.1981164219601721 1.4101645296525169 1.4221055955645681 1.3833455650517461 1.737640911519633 2 1.1981164219601721 1.4101645296525169 1.4221055955645681 1.3750846954865119 2 1.737640911519603 1.5950886193190319 1.5950886193190319 1.4995967914346211 1.3750846954865119 2 1.737640911519603 1.1981164219601721 1.4101645296525169 1.4221055955645681 1.4249999999998371 2 1.4249999999998371 1.5950886193190319 1.5950886193190319 1.4995967914346211 1.4249999999998371 1.4249999999998371 2 1.0206521739131471 1.5921289062494219 2 1.3833455650517461 1.737640911519633 2 1.1981164219601721 1.4101645296525169 1.4221055955645681 1.3833455650517461 1.737640911519633 2 1.3750846954865119 2 1.737640911519603 1.1999999999978941 2 2 1.5999999999989469 2 2 1.3833455650517461 1.737640911519633 2 1.3750846954865119 2 1.737640911519603 1.0206521739131471 1.5921289062494219 2 1.1999999999978941 2 2 1.3750846954865119 2 1.737640911519603 0.97934782608697635 2 1.5921289062492749 1.0206521739131471 1.5921289062494219 2 1.1999999999978941 2 2 1.1510583366092999 2 1.2335907516785649 0.86620738987133672 1.5000000000001401 1.0337672479303861 1.2345896428056129 2 0.84641423559720264 1.532347752213032 1.4746298915713509 1.076108883276101 1.1510583366092999 2 1.2335907516785649 1.1981164219601721 1.4101645296525169 1.4221055955645681 0.86620738987133672 1.5000000000001401 1.0337672479303861 1.532347752213032 1.4746298915713509 1.076108883276101 1.1510583366092999 2 1.2335907516785649 1.2345896428056129 2 0.84641423559720264 1.5921289062505879 2 1.0206521739114489 1.532347752213032 1.4746298915713509 1.076108883276101 1.1981164219601721 1.4101645296525169 1.4221055955645681 1.532347752213032 1.4746298915713509 1.076108883276101 1.4249999999998371 2 1.4249999999998371 1.5950886193190319 1.5950886193190319 1.4995967914346211 1.1510583366092999 2 1.2335907516785649 1.5921289062505879 2 1.0206521739114489 1.4249999999998371 2 1.4249999999998371 1.532347752213032 1.4746298915713509 1.076108883276101 1.1510583366092999 2 1.2335907516785649 1.4249999999998371 2 1.4249999999998371 1.1981164219601721 1.4101645296525169 1.4221055955645681 1.532347752213032 1.4746298915713509 1.076108883276101 0.97934782608697635 2 1.5921289062492749 1.1510583366092999 2 1.2335907516785649 1.4249999999998371 2 1.4249999999998371 1.1981164219601721 1.4101645296525169 1.4221055955645681 1.1510583366092999 2 1.2335907516785649 1.1981164219601721 1.4101645296525169 1.4221055955645681 0.97934782608697635 2 1.5921289062492749 0.77911601688602494 1.603176022082401 1.607321515253783 1.1510583366092999 2 1.2335907516785649 1.000000000000635 2 0.99999999999835598 1.2345896428056129 2 0.84641423559720264 0.86620738987133672 1.5000000000001401 1.0337672479303861 1.500000000000274 0.99883321436442229 1.16639307242336 1.532347752213032 1.4746298915713509 1.076108883276101 1.1981164219601721 1.4101645296525169 1.4221055955645681 1.416074976583422 1.0640336752305579 1.5993145461844129 1.1981164219601721 1.4101645296525169 1.4221055955645681 0.98528458949676634 0.98528458949702458 1.516045488389935 1.500000000000274 0.99883321436442229 1.16639307242336 1.416074976583422 1.0640336752305579 1.5993145461844129 1 0.99999999999999978 0.99999999999999978 1.1981164219601721 1.4101645296525169 1.4221055955645681 1.500000000000274 0.99883321436442229 1.16639307242336 1.532347752213032 1.4746298915713509 1.076108883276101 1.532347752213032 1.4746298915713509 1.076108883276101 1.5950886193190319 1.5950886193190319 1.4995967914346211 1.1981164219601721 1.4101645296525169 1.4221055955645681 1.416074976583422 1.0640336752305579 1.5993145461844129 1 0.99999999999999978 0.99999999999999978 1.500000000000274 0.99883321436442229 1.16639307242336 1.1981164219601721 1.4101645296525169 1.4221055955645681 0.98528458949676634 0.98528458949702458 1.516045488389935 1.1981164219601721 1.4101645296525169 1.4221055955645681 1 0.99999999999999978 0.99999999999999978 0.86620738987133672 1.5000000000001401 1.0337672479303861 1.532347752213032 1.4746298915713509 1.076108883276101 1.1981164219601721 1.4101645296525169 1.4221055955645681 0.86620738987133672 1.5000000000001401 1.0337672479303861 1 0.99999999999999978 0.99999999999999978 0.98528458949676634 0.98528458949702458 1.516045488389935 1.4249999999998371 1.4249999999998371 2 1.2340035335497621 1.1507971347859809 2 1.0206521739131471 1.5921289062494219 2 1.1981164219601721 1.4101645296525169 1.4221055955645681 1.416074976583422 1.0640336752305579 1.5993145461844129 1.1981164219601721 1.4101645296525169 1.4221055955645681 1.000000000001781 0.99999999999894518 2 1.2340035335497621 1.1507971347859809 2 1.2340035335497621 1.1507971347859809 2 1.1981164219601721 1.4101645296525169 1.4221055955645681 1.4249999999998371 1.4249999999998371 2 1.416074976583422 1.0640336752305579 1.5993145461844129 0.86068862301746607 1.2633133025089971 2 1.000000000001781 0.99999999999894518 2 1.1981164219601721 1.4101645296525169 1.4221055955645681 1.2340035335497621 1.1507971347859809 2 1.2340035335497621 1.1507971347859809 2 0.86068862301746607 1.2633133025089971 2 1.0206521739131471 1.5921289062494219 2 1.1981164219601721 1.4101645296525169 1.4221055955645681 0.86068862301746607 1.2633133025089971 2 1.1981164219601721 1.4101645296525169 1.4221055955645681 1.000000000001781 0.99999999999894518 2 0.98528458949676634 0.98528458949702458 1.516045488389935 1.416074976583422 1.0640336752305579 1.5993145461844129 1.000000000001781 0.99999999999894518 2 1.1981164219601721 1.4101645296525169 1.4221055955645681 0.98528458949676634 0.98528458949702458 1.516045488389935 1.4249999999998371 1.4249999999998371 2 1.1981164219601721 1.4101645296525169 1.4221055955645681 1.5950886193190319 1.5950886193190319 1.4995967914346211 1.416074976583422 1.0640336752305579 1.5993145461844129 1.5921289062508031 0.97934782608568471 2 1.2340035335497621 1.1507971347859809 2 1.4249999999998371 1.4249999999998371 2 1.416074976583422 1.0640336752305579 1.5993145461844129 0.59772980397967113 1.252682283932151 1.4022701960199091 0.86068862301746607 1.2633133025089971 2 0.98528458949676634 0.98528458949702458 1.516045488389935 0.77911601688602494 1.603176022082401 1.607321515253783 0.86068862301746607 1.2633133025089971 2 0.76640924832151791 0.84894166339049981 2 0.59772980397967113 1.252682283932151 1.4022701960199091 0.98528458949676634 0.98528458949702458 1.516045488389935 0.86068862301746607 1.2633133025089971 2 1.0206521739131471 1.5921289062494219 2 1.1981164219601721 1.4101645296525169 1.4221055955645681 0.77911601688602494 1.603176022082401 1.607321515253783 0.86068862301746607 1.2633133025089971 2 1.000000000001781 0.99999999999894518 2 0.76640924832151791 0.84894166339049981 2 0.98528458949676634 0.98528458949702458 1.516045488389935 0.86068862301746607 1.2633133025089971 2 0.4078710937509023 1.020652173913281 2 0.5750000000018145 1.424999999998573 2 0.59772980397967113 1.252682283932151 1.4022701960199091 0.86068862301746607 1.2633133025089971 2 0.59772980397967113 1.252682283932151 1.4022701960199091 0.5750000000018145 1.424999999998573 2 0.77911601688602494 1.603176022082401 1.607321515253783 0.86068862301746607 1.2633133025089971 2 0.76640924832151791 0.84894166339049981 2 0.4078710937509023 1.020652173913281 2 0.59772980397967113 1.252682283932151 1.4022701960199091 0.5750000000018145 1.424999999998573 2 0.59772980397967113 1.252682283932151 1.4022701960199091 0.25937977430622478 1.3863248792272369 2 0.77911601688602494 1.603176022082401 1.607321515253783 1.1981164219601721 1.4101645296525169 1.4221055955645681 0.98528458949676634 0.98528458949702458 1.516045488389935 0.86068862301746607 1.2633133025089971 2 0.77911601688602494 1.603176022082401 1.607321515253783 0.86068862301746607 1.2633133025089971 2 0.5750000000018145 1.424999999998573 2 1.0206521739131471 1.5921289062494219 2 0.77911601688602494 1.603176022082401 1.607321515253783 0.59772980397967113 1.252682283932151 1.4022701960199091 0.98528458949676634 0.98528458949702458 1.516045488389935 1.1981164219601721 1.4101645296525169 1.4221055955645681 0.77911601688602494 1.603176022082401 1.607321515253783 0.59772980397967113 1.252682283932151 1.4022701960199091 0.86620738987133672 1.5000000000001401 1.0337672479303861 1.1981164219601721 1.4101645296525169 1.4221055955645681 0.98528458949676634 0.98528458949702458 1.516045488389935 0.59772980397967113 1.252682283932151 1.4022701960199091 1 0.99999999999999978 0.99999999999999978 0.86620738987133672 1.5000000000001401 1.0337672479303861 0.98528458949676634 0.98528458949702458 1.516045488389935 1.1981164219601721 1.4101645296525169 1.4221055955645681 0.86620738987133672 1.5000000000001401 1.0337672479303861 0.59772980397967113 1.252682283932151 1.4022701960199091 0.77911601688602494 1.603176022082401 1.607321515253783 1 0.99999999999999978 0.99999999999999978 0.59772980397967113 1.252682283932151 1.4022701960199091 0.86620738987133672 1.5000000000001401 1.0337672479303861 0.48528811404415773 0.99061345538166756 1.009386544617999 0.86620738987133672 1.5000000000001401 1.0337672479303861 0.48528811404415773 0.99061345538166756 1.009386544617999 0.59772980397967113 1.252682283932151 1.4022701960199091 0.39539622647752048 1.604332214875325 1.222086277851258 0.86620738987133672 1.5000000000001401 1.0337672479303861 0.41010551790091843 1.5854304871968741 0.7721068750782103 0.48528811404415773 0.99061345538166756 1.009386544617999 0.39539622647752048 1.604332214875325 1.222086277851258 0.59772980397967113 1.252682283932151 1.4022701960199091 0.48528811404415773 0.99061345538166756 1.009386544617999 1 0.99999999999999978 0.99999999999999978 0.98528458949676634 0.98528458949702458 1.516045488389935 0.86620738987133672 1.5000000000001401 1.0337672479303861 0.39539622647752048 1.604332214875325 1.222086277851258 0.59772980397967113 1.252682283932151 1.4022701960199091 0.77911601688602494 1.603176022082401 1.607321515253783 0.73668669749101645 2 1.139311376982779 0.39539622647752048 1.604332214875325 1.222086277851258 0.86620738987133672 1.5000000000001401 1.0337672479303861 0.77911601688602494 1.603176022082401 1.607321515253783 0.73668669749101645 2 1.139311376982779 0.86620738987133672 1.5000000000001401 1.0337672479303861 1.1510583366092999 2 1.2335907516785649 0.77911601688602494 1.603176022082401 1.607321515253783 1.1510583366092999 2 1.2335907516785649 0.86620738987133672 1.5000000000001401 1.0337672479303861 1.1981164219601721 1.4101645296525169 1.4221055955645681 0.77911601688602494 1.603176022082401 1.607321515253783 0.73668669749101645 2 1.139311376982779 0.41010551790091843 1.5854304871968741 0.7721068750782103 0.86620738987133672 1.5000000000001401 1.0337672479303861 0.39539622647752048 1.604332214875325 1.222086277851258 0.73668669749101645 2 1.139311376982779 1.000000000000635 2 0.99999999999835598 1.1510583366092999 2 1.2335907516785649 0.86620738987133672 1.5000000000001401 1.0337672479303861 0.40787109375045588 2 0.9793478260856453 0.73668669749101645 2 1.139311376982779 0.57500000000210227 2 1.4249999999987459 0.39539622647752048 1.604332214875325 1.222086277851258 0.73668669749101645 2 1.139311376982779 0.57500000000210227 2 1.4249999999987459 0.39539622647752048 1.604332214875325 1.222086277851258 0.77911601688602494 1.603176022082401 1.607321515253783 0.33416666666757772 2 1.665833333332104 0.39539622647752048 1.604332214875325 1.222086277851258 0.57500000000210227 2 1.4249999999987459 0.77911601688602494 1.603176022082401 1.607321515253783 0.73668669749101645 2 1.139311376982779 1.1510583366092999 2 1.2335907516785649 0.97934782608697635 2 1.5921289062492749 0.77911601688602494 1.603176022082401 1.607321515253783 0.57500000000210227 2 1.4249999999987459 0.73668669749101645 2 1.139311376982779 0.97934782608697635 2 1.5921289062492749 0.77911601688602494 1.603176022082401 1.607321515253783 0.97934782608697635 2 1.5921289062492749 1.1981164219601721 1.4101645296525169 1.4221055955645681 1.0206521739131471 1.5921289062494219 2 0.77911601688602494 1.603176022082401 1.607321515253783 0.7999999999979498 2 2 0.62412558229832538 2 1.734999069939664 0.97934782608697635 2 1.5921289062492749 0.77911601688602494 1.603176022082401 1.607321515253783 0.97934782608697635 2 1.5921289062492749 0.7999999999979498 2 2 1.0206521739131471 1.5921289062494219 2 1.1999999999978941 2 2 0.97934782608697635 2 1.5921289062492749 1.0206521739131471 1.5921289062494219 2 0.7999999999979498 2 2 0.77911601688602494 1.603176022082401 1.607321515253783 0.7999999999979498 2 2 1.0206521739131471 1.5921289062494219 2 0.62193599033808677 1.7406202256939109 2 0.77911601688602494 1.603176022082401 1.607321515253783 0.62193599033808677 1.7406202256939109 2 1.0206521739131471 1.5921289062494219 2 0.5750000000018145 1.424999999998573 2 0.77911601688602494 1.603176022082401 1.607321515253783 0.31402777777840701 1.6859722222215581 2 0.62193599033808677 1.7406202256939109 2 0.5750000000018145 1.424999999998573 2 0.77911601688602494 1.603176022082401 1.607321515253783 0.31402777777840701 1.6859722222215581 2 0.33416666666757772 2 1.665833333332104 0.62193599033808677 1.7406202256939109 2 0.77911601688602494 1.603176022082401 1.607321515253783 0.7999999999979498 2 2 0.62193599033808677 1.7406202256939109 2 0.62412558229832538 2 1.734999069939664 0.77911601688602494 1.603176022082401 1.607321515253783 0.62193599033808677 1.7406202256939109 2 0.33416666666757772 2 1.665833333332104 0.62412558229832538 2 1.734999069939664 0.77911601688602494 1.603176022082401 1.607321515253783 0.39999999999911567 2 2 0.7999999999979498 2 2 0.62193599033808677 1.7406202256939109 2 0.62412558229832538 2 1.734999069939664 0.57500000000210227 2 1.4249999999987459 0.97934782608697635 2 1.5921289062492749 0.62412558229832538 2 1.734999069939664 0.77911601688602494 1.603176022082401 1.607321515253783 0.33416666666757772 2 1.665833333332104 0.57500000000210227 2 1.4249999999987459 0.62412558229832538 2 1.734999069939664 0.77911601688602494 1.603176022082401 1.607321515253783 0.39539622647752048 1.604332214875325 1.222086277851258 0 1.374036231884781 1.736592447916667 0.77911601688602494 1.603176022082401 1.607321515253783 0 1.665833333333429 1.665833333333256 0.31402777777840701 1.6859722222215581 2 0.5750000000018145 1.424999999998573 2 0.25937977430622478 1.3863248792272369 2 0.77911601688602494 1.603176022082401 1.607321515253783 0.33416666666757772 2 1.665833333332104 0 1.665833333333429 1.665833333333256 0.39539622647752048 1.604332214875325 1.222086277851258 0.77911601688602494 1.603176022082401 1.607321515253783 0.33416666666757772 2 1.665833333332104 0.31402777777840701 1.6859722222215581 2 0 1.665833333333429 1.665833333333256 0.77911601688602494 1.603176022082401 1.607321515253783 0 1.4249999999997121 1.4250000000001719 0 1.665833333333429 1.665833333333256 0 1.374036231884781 1.736592447916667 0.39539622647752048 1.604332214875325 1.222086277851258 0.31402777777840701 1.6859722222215581 2 0.25937977430622478 1.3863248792272369 2 0 1.665833333333429 1.665833333333256 0.77911601688602494 1.603176022082401 1.607321515253783 0.25937977430622478 1.3863248792272369 2 0.77911601688602494 1.603176022082401 1.607321515253783 0 1.374036231884781 1.736592447916667 0 1.665833333333429 1.665833333333256 0.33416666666757772 2 1.665833333332104 0.39999999999911567 2 2 0.31402777777840701 1.6859722222215581 2 0.62193599033808677 1.7406202256939109 2 0.33416666666757772 2 1.665833333332104 0.39999999999911567 2 2 0.62193599033808677 1.7406202256939109 2 0.62412558229832538 2 1.734999069939664 0.39999999999911567 2 2 0.33416666666757772 2 1.665833333332104 0.31402777777840701 1.6859722222215581 2 0 2 2 0.31402777777840701 1.6859722222215581 2 0.25937977430622478 1.3863248792272369 2 0 1.6000000000000001 2 0 1.665833333333429 1.665833333333256 0.25937977430622478 1.3863248792272369 2 0 1.6000000000000001 2 0 1.665833333333429 1.665833333333256 0 1.374036231884781 1.736592447916667 0 1.6000000000000001 2 0.31402777777840701 1.6859722222215581 2 0 1.665833333333429 1.665833333333256 0 2 2 0.31402777777840701 1.6859722222215581 2 0.33416666666757772 2 1.665833333332104 0 1.665833333333429 1.665833333333256 0 2 2 0.26340755208402722 2 1.3740362318826671 0 1.73499906994049 1.375874417701122 0.33416666666757772 2 1.665833333332104 0 2 1.5999999999989469 0.33416666666757772 2 1.665833333332104 0 1.73499906994049 1.375874417701122 0 1.665833333333429 1.665833333333256 0 2 1.5999999999989469 0.33416666666757772 2 1.665833333332104 0 1.665833333333429 1.665833333333256 0 2 2 0 2 1.5999999999989469 0 2 1.1999999999978941 0 1.73499906994049 1.375874417701122 0.26340755208402722 2 1.3740362318826671 0 2 1.5999999999989469 0 1.73499906994049 1.375874417701122 0.33416666666757772 2 1.665833333332104 0 1.665833333333429 1.665833333333256 0.39539622647752048 1.604332214875325 1.222086277851258 0 2 1.1999999999978941 0.26340755208402722 2 1.3740362318826671 0 1.73499906994049 1.375874417701122 0.39539622647752048 1.604332214875325 1.222086277851258 0 1.73499906994049 1.375874417701122 0.26340755208402722 2 1.3740362318826671 0.33416666666757772 2 1.665833333332104 0.39539622647752048 1.604332214875325 1.222086277851258 0.57500000000210227 2 1.4249999999987459 0.33416666666757772 2 1.665833333332104 0.26340755208402722 2 1.3740362318826671 0.39539622647752048 1.604332214875325 1.222086277851258 0.57500000000210227 2 1.4249999999987459 0.26340755208402722 2 1.3740362318826671 0.40787109375045588 2 0.9793478260856453 0.39539622647752048 1.604332214875325 1.222086277851258 0.73668669749101645 2 1.139311376982779 0.40787109375045588 2 0.9793478260856453 0.41010551790091843 1.5854304871968741 0.7721068750782103 0.39539622647752048 1.604332214875325 1.222086277851258 0.40787109375045588 2 0.9793478260856453 0.26340755208402722 2 1.3740362318826671 0 2 1.1999999999978941 0.39539622647752048 1.604332214875325 1.222086277851258 0.40787109375045588 2 0.9793478260856453 0 2 1.1999999999978941 0 1.592128906249999 1.0206521739122849 0.39539622647752048 1.604332214875325 1.222086277851258 0 2 1.1999999999978941 0 1.73499906994049 1.375874417701122 0 1.592128906249999 1.0206521739122849 0.39539622647752048 1.604332214875325 1.222086277851258 0 1.4249999999997121 1.4250000000001719 0 1.592128906249999 1.0206521739122849 0 1.73499906994049 1.375874417701122 0.39539622647752048 1.604332214875325 1.222086277851258 0 1.73499906994049 1.375874417701122 0 1.665833333333429 1.665833333333256 0 1.4249999999997121 1.4250000000001719 0.39539622647752048 1.604332214875325 1.222086277851258 0 1.1379319433661621 1.2629046154773571 0.59772980397967113 1.252682283932151 1.4022701960199091 0 0.97934782608799098 1.5921289062499051 0.48528811404415773 0.99061345538166756 1.009386544617999 0 1.1379319433661621 1.2629046154773571 0 1.4249999999997121 1.4250000000001719 0.59772980397967113 1.252682283932151 1.4022701960199091 0.39539622647752048 1.604332214875325 1.222086277851258 0.39539622647752048 1.604332214875325 1.222086277851258 0.77911601688602494 1.603176022082401 1.607321515253783 0 1.374036231884781 1.736592447916667 0.59772980397967113 1.252682283932151 1.4022701960199091 0 1.263313302510646 0.86068862301506388 0 1.1379319433661621 1.2629046154773571 0.48528811404415773 0.99061345538166756 1.009386544617999 0.39539622647752048 1.604332214875325 1.222086277851258 0 1.4249999999997121 1.4250000000001719 0 0.97934782608799098 1.5921289062499051 0 1.1379319433661621 1.2629046154773571 0.59772980397967113 1.252682283932151 1.4022701960199091 0 1.4249999999997121 1.4250000000001719 0 1.374036231884781 1.736592447916667 0.59772980397967113 1.252682283932151 1.4022701960199091 0.39539622647752048 1.604332214875325 1.222086277851258 0.59772980397967113 1.252682283932151 1.4022701960199091 0.48528811404415773 0.99061345538166756 1.009386544617999 0 1.1379319433661621 1.2629046154773571 0.39539622647752048 1.604332214875325 1.222086277851258 0 1.1379319433661621 1.2629046154773571 0 1.592128906249999 1.0206521739122849 0 1.4249999999997121 1.4250000000001719 0.39539622647752048 1.604332214875325 1.222086277851258 0 1.263313302510646 0.86068862301506388 0 1.592128906249999 1.0206521739122849 0 1.1379319433661621 1.2629046154773571 0.39539622647752048 1.604332214875325 1.222086277851258 0 1.0000000000000291 0.99999999999996969 0 1.263313302510646 0.86068862301506388 0 1.1379319433661621 1.2629046154773571 0.48528811404415773 0.99061345538166756 1.009386544617999 0 1.374036231884781 1.736592447916667 0 0.97934782608799098 1.5921289062499051 0 1.4249999999997121 1.4250000000001719 0.59772980397967113 1.252682283932151 1.4022701960199091 0.25937977430622478 1.3863248792272369 2 0 1.374036231884781 1.736592447916667 0.77911601688602494 1.603176022082401 1.607321515253783 0.59772980397967113 1.252682283932151 1.4022701960199091 0.25937977430622478 1.3863248792272369 2 0.4078710937509023 1.020652173913281 2 0 1.374036231884781 1.736592447916667 0.59772980397967113 1.252682283932151 1.4022701960199091 0.5750000000018145 1.424999999998573 2 0.4078710937509023 1.020652173913281 2 0.25937977430622478 1.3863248792272369 2 0.59772980397967113 1.252682283932151 1.4022701960199091 0 1.374036231884781 1.736592447916667 0.4078710937509023 1.020652173913281 2 0 0.97934782608799098 1.5921289062499051 0.59772980397967113 1.252682283932151 1.4022701960199091 0.25937977430622478 1.3863248792272369 2 0 1.200000000002774 2 0 1.6000000000000001 2 0 1.374036231884781 1.736592447916667 0.25937977430622478 1.3863248792272369 2 0 1.200000000002774 2 0 1.374036231884781 1.736592447916667 0.4078710937509023 1.020652173913281 2 0 1.200000000002774 2 0 1.374036231884781 1.736592447916667 0.4078710937509023 1.020652173913281 2 0 0.97934782608799098 1.5921289062499051 0 1.200000000002774 2 0.4078710937509023 1.020652173913281 2 0 0.80000000000332872 2 0 0.97934782608799098 1.5921289062499051 0.26235908848041961 0.62491530451389399 2 0 0.80000000000332872 2 0 0.97934782608799098 1.5921289062499051 0 0.62412558229928472 1.7349990699404849 0.26235908848041961 0.62491530451389399 2 0.57500000000013385 0.57500000000013385 2 0.32892434865106179 0.32892434865106179 2 0.63209459459459538 0.63209459459460771 1.3679054054053961 0.4078710937509023 1.020652173913281 2 0.63209459459459538 0.63209459459460771 1.3679054054053961 0 0.97934782608799098 1.5921289062499051 0.59772980397967113 1.252682283932151 1.4022701960199091 0.4078710937509023 1.020652173913281 2 0.57500000000013385 0.57500000000013385 2 0.26235908848041961 0.62491530451389399 2 0.63209459459459538 0.63209459459460771 1.3679054054053961 0.4078710937509023 1.020652173913281 2 0.26235908848041961 0.62491530451389399 2 0 0.80000000000332872 2 0 0.97934782608799098 1.5921289062499051 0 0.97934782608799098 1.5921289062499051 0.26235908848041961 0.62491530451389399 2 0 0.62412558229928472 1.7349990699404849 0.63209459459459538 0.63209459459460771 1.3679054054053961 0 0.62412558229928472 1.7349990699404849 0.26235908848041961 0.62491530451389399 2 0 0.33416666666678929 1.6658333333334849 0.63209459459459538 0.63209459459460771 1.3679054054053961 0 0.62412558229928472 1.7349990699404849 0 0.33416666666678929 1.6658333333334849 0 0.57499999999972706 1.4249999999995451 0.63209459459459538 0.63209459459460771 1.3679054054053961 0.4078710937509023 1.020652173913281 2 0.26235908848041961 0.62491530451389399 2 0 0.97934782608799098 1.5921289062499051 0.63209459459459538 0.63209459459460771 1.3679054054053961 0 0.97934782608799098 1.5921289062499051 0 0.62412558229928472 1.7349990699404849 0 0.57499999999972706 1.4249999999995451 0.63209459459459538 0.63209459459460771 1.3679054054053961 0.26235908848041961 0.62491530451389399 2 0 0.80000000000332872 2 0 0.62412558229928472 1.7349990699404849 0 0.40000000000166441 2 0.979347826088805 0.40787109374939401 2 0.76640924832151791 0.84894166339049981 2 1.1535857644027949 0.76541035719405237 2 0.98528458949676634 0.98528458949702458 1.516045488389935 0.979347826088805 0.40787109374939401 2 0.63209459459459538 0.63209459459460771 1.3679054054053961 0.76640924832151791 0.84894166339049981 2 0.98528458949676634 0.98528458949702458 1.516045488389935 0.979347826088805 0.40787109374939401 2 1.2526822839324241 0.59772980398008735 1.402270196020621 0.63209459459459538 0.63209459459460771 1.3679054054053961 0.98528458949676634 0.98528458949702458 1.516045488389935 0.63209459459459538 0.63209459459460771 1.3679054054053961 0.59772980397967113 1.252682283932151 1.4022701960199091 0.76640924832151791 0.84894166339049981 2 0.98528458949676634 0.98528458949702458 1.516045488389935 0.4078710937509023 1.020652173913281 2 0.76640924832151791 0.84894166339049981 2 0.57500000000013385 0.57500000000013385 2 0.63209459459459538 0.63209459459460771 1.3679054054053961 0.76640924832151791 0.84894166339049981 2 0.63209459459459538 0.63209459459460771 1.3679054054053961 0.4078710937509023 1.020652173913281 2 0.59772980397967113 1.252682283932151 1.4022701960199091 0.979347826088805 0.40787109374939401 2 0.57500000000013385 0.57500000000013385 2 0.76640924832151791 0.84894166339049981 2 0.63209459459459538 0.63209459459460771 1.3679054054053961 0.76640924832151791 0.84894166339049981 2 1.000000000001781 0.99999999999894518 2 1.1535857644027949 0.76541035719405237 2 0.98528458949676634 0.98528458949702458 1.516045488389935 0.63209459459459538 0.63209459459460771 1.3679054054053961 0.59772980397989239 0.59772980397970443 0.74731771606769093 0.48528811404415773 0.99061345538166756 1.009386544617999 0.98528458949709452 0.48395451161029718 1.014715410503322 1 0.99999999999999978 0.99999999999999978 0.63209459459459538 0.63209459459460771 1.3679054054053961 0.98528458949709452 0.48395451161029718 1.014715410503322 0.98528458949676634 0.98528458949702458 1.516045488389935 0.63209459459459538 0.63209459459460771 1.3679054054053961 0.48528811404415773 0.99061345538166756 1.009386544617999 1 0.99999999999999978 0.99999999999999978 0.98528458949709452 0.48395451161029718 1.014715410503322 0.63209459459459538 0.63209459459460771 1.3679054054053961 1 0.99999999999999978 0.99999999999999978 0.48528811404415773 0.99061345538166756 1.009386544617999 0.98528458949676634 0.98528458949702458 1.516045488389935 0.63209459459459538 0.63209459459460771 1.3679054054053961 0.48528811404415773 0.99061345538166756 1.009386544617999 0.59772980397967113 1.252682283932151 1.4022701960199091 0.98528458949676634 0.98528458949702458 1.516045488389935 1.2526822839324241 0.59772980398008735 1.402270196020621 0.98528458949709452 0.48395451161029718 1.014715410503322 0.63209459459459538 0.63209459459460771 1.3679054054053961 0.98528458949676634 0.98528458949702458 1.516045488389935 0 0.73703553820768952 1.137914212601322 0 0.97934782608799098 1.5921289062499051 0.63209459459459538 0.63209459459460771 1.3679054054053961 0.48528811404415773 0.99061345538166756 1.009386544617999 0 0.73703553820768952 1.137914212601322 0.63209459459459538 0.63209459459460771 1.3679054054053961 0.59772980397989239 0.59772980397970443 0.74731771606769093 0.48528811404415773 0.99061345538166756 1.009386544617999 0 0.97934782608799098 1.5921289062499051 0.59772980397967113 1.252682283932151 1.4022701960199091 0.63209459459459538 0.63209459459460771 1.3679054054053961 0.48528811404415773 0.99061345538166756 1.009386544617999 0 0.73703553820768952 1.137914212601322 0 1.1379319433661621 1.2629046154773571 0 0.97934782608799098 1.5921289062499051 0.48528811404415773 0.99061345538166756 1.009386544617999 0 0.73703553820768952 1.137914212601322 0 0.97934782608799098 1.5921289062499051 0 0.57499999999972706 1.4249999999995451 0.63209459459459538 0.63209459459460771 1.3679054054053961 0 0.40787109374995661 0.97934782608798243 0 0.73703553820768952 1.137914212601322 0.63209459459459538 0.63209459459460771 1.3679054054053961 0.59772980397989239 0.59772980397970443 0.74731771606769093 0 0.73703553820768952 1.137914212601322 0 0.57499999999972706 1.4249999999995451 0 0.40787109374995661 0.97934782608798243 0.63209459459459538 0.63209459459460771 1.3679054054053961 0 0.73703553820768952 1.137914212601322 0 1.0000000000000291 0.99999999999996969 0 1.1379319433661621 1.2629046154773571 0.48528811404415773 0.99061345538166756 1.009386544617999 0 0.26340755208329458 1.374036231884757 0.33416666666682932 0 1.665833333333445 0.26340755208335531 0 1.374036231884725 0.63209459459459538 0.63209459459460771 1.3679054054053961 0.33416666666682932 0 1.665833333333445 0.57499999999978968 0 1.424999999999482 0.26340755208335531 0 1.374036231884725 0.63209459459459538 0.63209459459460771 1.3679054054053961 0.40787109375015718 0 0.97934782608792492 0 0.40787109374995661 0.97934782608798243 0.63209459459459538 0.63209459459460771 1.3679054054053961 0.59772980397989239 0.59772980397970443 0.74731771606769093 0 0.40787109374995661 0.97934782608798243 0 0.26340755208329458 1.374036231884757 0.26340755208335531 0 1.374036231884725 0.63209459459459538 0.63209459459460771 1.3679054054053961 0.40787109375015718 0 0.97934782608792492 0 0.40787109374995661 0.97934782608798243 0.26340755208335531 0 1.374036231884725 0.63209459459459538 0.63209459459460771 1.3679054054053961 0 0.40787109374995661 0.97934782608798243 0 0.57499999999972706 1.4249999999995451 0 0.26340755208329458 1.374036231884757 0.63209459459459538 0.63209459459460771 1.3679054054053961 0.40787109375015718 0 0.97934782608792492 0.26340755208335531 0 1.374036231884725 0.57499999999978968 0 1.424999999999482 0.63209459459459538 0.63209459459460771 1.3679054054053961 0 0.33416666666678929 1.6658333333334849 0 0.26340755208329458 1.374036231884757 0 0.57499999999972706 1.4249999999995451 0.63209459459459538 0.63209459459460771 1.3679054054053961 0 0 1.6000000000000001 0 0 1.200000000002774 0 0.26340755208329458 1.374036231884757 0.26340755208335531 0 1.374036231884725 0 0.40787109374995661 0.97934782608798243 0 0 1.200000000002774 0.40787109375015718 0 0.97934782608792492 0.26340755208335531 0 1.374036231884725 0 0 1.200000000002774 0 0.40787109374995661 0.97934782608798243 0 0.26340755208329458 1.374036231884757 0.26340755208335531 0 1.374036231884725 0.73709538452274337 0 1.137931943365984 0.57499999999978968 0 1.424999999999482 0.97934782608803661 0 1.5921289062498969 0.63209459459459538 0.63209459459460771 1.3679054054053961 0.73709538452274337 0 1.137931943365984 0.40787109375015718 0 0.97934782608792492 0.57499999999978968 0 1.424999999999482 0.63209459459459538 0.63209459459460771 1.3679054054053961 0.40787109375015718 0 0.97934782608792492 0.63209459459459538 0.63209459459460771 1.3679054054053961 0.73709538452274337 0 1.137931943365984 0.59772980397989239 0.59772980397970443 0.74731771606769093 0.63209459459459538 0.63209459459460771 1.3679054054053961 1.2526822839324241 0.59772980398008735 1.402270196020621 0.97934782608803661 0 1.5921289062498969 0.98528458949709452 0.48395451161029718 1.014715410503322 0.73709538452274337 0 1.137931943365984 0.59772980397989239 0.59772980397970443 0.74731771606769093 0.63209459459459538 0.63209459459460771 1.3679054054053961 0.98528458949709452 0.48395451161029718 1.014715410503322 0.97934782608803661 0 1.5921289062498969 0.73709538452274337 0 1.137931943365984 0.63209459459459538 0.63209459459460771 1.3679054054053961 0.98528458949709452 0.48395451161029718 1.014715410503322 0.97934782608803661 0 1.5921289062498969 1.1393113769850489 0 1.263313302510394 0.73709538452274337 0 1.137931943365984 0.98528458949709452 0.48395451161029718 1.014715410503322 0.73709538452274337 0 1.137931943365984 1.1393113769850489 0 1.263313302510394 1.0000000000002141 0 0.99999999999992895 0.98528458949709452 0.48395451161029718 1.014715410503322 0.57499999999978968 0 1.424999999999482 0.62412558229932147 0 1.7349990699404549 0.97934782608803661 0 1.5921289062498969 0.63209459459459538 0.63209459459460771 1.3679054054053961 0.979347826088805 0.40787109374939401 2 0.61665443494899885 0.26235908848011791 2 0.57500000000013385 0.57500000000013385 2 0.63209459459459538 0.63209459459460771 1.3679054054053961 0.33416666666682932 0 1.665833333333445 0.61665443494899885 0.26235908848011791 2 0.62412558229932147 0 1.7349990699404549 0.63209459459459538 0.63209459459460771 1.3679054054053961 0.62412558229932147 0 1.7349990699404549 0.979347826088805 0.40787109374939401 2 0.97934782608803661 0 1.5921289062498969 0.63209459459459538 0.63209459459460771 1.3679054054053961 0.57499999999978968 0 1.424999999999482 0.33416666666682932 0 1.665833333333445 0.62412558229932147 0 1.7349990699404549 0.63209459459459538 0.63209459459460771 1.3679054054053961 0.979347826088805 0.40787109374939401 2 0.97934782608803661 0 1.5921289062498969 0.63209459459459538 0.63209459459460771 1.3679054054053961 1.2526822839324241 0.59772980398008735 1.402270196020621 0.32892434865106179 0.32892434865106179 2 0.57500000000013385 0.57500000000013385 2 0.61665443494899885 0.26235908848011791 2 0.63209459459459538 0.63209459459460771 1.3679054054053961 0.979347826088805 0.40787109374939401 2 0.62412558229932147 0 1.7349990699404549 0.61665443494899885 0.26235908848011791 2 0.63209459459459538 0.63209459459460771 1.3679054054053961 0.979347826088805 0.40787109374939401 2 0.62412558229932147 0 1.7349990699404549 0.80000000000332872 0 2 0.61665443494899885 0.26235908848011791 2 0.979347826088805 0.40787109374939401 2 0.80000000000332872 0 2 0.97934782608803661 0 1.5921289062498969 1.200000000002774 0 2 0.62412558229932147 0 1.7349990699404549 0.979347826088805 0.40787109374939401 2 0.80000000000332872 0 2 0.97934782608803661 0 1.5921289062498969 0.62412558229932147 0 1.7349990699404549 0.40000000000166441 0 2 0.80000000000332872 0 2 0.61665443494899885 0.26235908848011791 2 0.32892434865106179 0.32892434865106179 2 0.40000000000166441 0 2 0.33416666666682932 0 1.665833333333445 0.61665443494899885 0.26235908848011791 2 0 0.33416666666678929 1.6658333333334849 0.26235908848041961 0.62491530451389399 2 0.32892434865106179 0.32892434865106179 2 0.63209459459459538 0.63209459459460771 1.3679054054053961 0.33416666666682932 0 1.665833333333445 0.40000000000166441 0 2 0.62412558229932147 0 1.7349990699404549 0.61665443494899885 0.26235908848011791 2 0.33416666666682932 0 1.665833333333445 0.32892434865106179 0.32892434865106179 2 0.61665443494899885 0.26235908848011791 2 0.63209459459459538 0.63209459459460771 1.3679054054053961 0 0.33416666666678929 1.6658333333334849 0.33416666666682932 0 1.665833333333445 0 0.26340755208329458 1.374036231884757 0.63209459459459538 0.63209459459460771 1.3679054054053961 0 0 2 0.32892434865106179 0.32892434865106179 2 0.40000000000166441 0 2 0.33416666666682932 0 1.665833333333445 0 0.33416666666678929 1.6658333333334849 0.32892434865106179 0.32892434865106179 2 0.33416666666682932 0 1.665833333333445 0.63209459459459538 0.63209459459460771 1.3679054054053961 0 0.33416666666678929 1.6658333333334849 0.32892434865106179 0.32892434865106179 2 0 0.40000000000166441 2 0 0 2 0.26235908848041961 0.62491530451389399 2 0 0.33416666666678929 1.6658333333334849 0 0.40000000000166441 2 0 0.62412558229928472 1.7349990699404849 0 0.33416666666678929 1.6658333333334849 0.26235908848041961 0.62491530451389399 2 0 0.40000000000166441 2 0.32892434865106179 0.32892434865106179 2 0 0 1.6000000000000001 0 0.33416666666678929 1.6658333333334849 0 0 2 0.33416666666682932 0 1.665833333333445 0.33416666666682932 0 1.665833333333445 0 0 1.6000000000000001 0 0.26340755208329458 1.374036231884757 0.26340755208335531 0 1.374036231884725 0 0 1.6000000000000001 0 0.33416666666678929 1.6658333333334849 0.33416666666682932 0 1.665833333333445 0 0.26340755208329458 1.374036231884757 0 0.33416666666678929 1.6658333333334849 0.32892434865106179 0.32892434865106179 2 0 0 2 0.33416666666682932 0 1.665833333333445 
</DataArray>
</Points>
<Cells>
<DataArray type="UInt32" Name="connectivity" format="ascii">
0 1 2 3 4 5 6 7 8 9 10 11 12 13 14 15 16 17 18 19 20 21 22 23 24 25 26 27 28 29 30 31 32 33 34 35 36 37 38 39 40 41 42 43 44 45 46 47 48 49 50 51 52 53 54 55 56 57 58 59 60 61 62 63 64 65 66 67 68 69 70 71 72 73 74 75 76 77 78 79 80 81 82 83 84 85 86 87 88 89 90 91 92 93 94 95 96 97 98 99 100 101 102 103 104 105 106 107 108 109 110 111 112 113 114 115 116 117 118 119 120 121 122 123 124 125 126 127 128 129 130 131 132 133 134 135 136 137 138 139 140 141 142 143 144 145 146 147 148 149 150 151 152 153 154 155 156 157 158 159 160 161 162 163 164 165 166 167 168 169 170 171 172 173 174 175 176 177 178 179 180 181 182 183 184 185 186 187 188 189 190 191 192 193 194 195 196 197 198 199 200 201 202 203 204 205 206 207 208 209 210 211 212 213 214 215 216 217 218 219 220 221 222 223 224 225 226 227 228 229 230 231 232 233 234 235 236 237 238 239 240 241 242 243 244 245 246 247 248 249 250 251 252 253 254 255 256 257 258 259 260 261 262 263 264 265 266 267 268 269 270 271 272 273 274 275 276 277 278 279 280 281 282 283 284 285 286 287 288 289 290 291 292 293 294 295 296 297 298 299 300 301 302 303 304 305 306 307 308 309 310 311 312 313 314 315 316 317 318 319 320 321 322 323 324 325 326 327 328 329 330 331 332 333 334 335 336 337 338 339 340 341 342 343 344 345 346 347 348 349 350 351 352 353 354 355 356 357 358 359 360 361 362 363 364 365 366 367 368 369 370 371 372 373 374 375 376 377 378 379 380 381 382 383 384 385 386 387 388 389 390 391 392 393 394 395 396 397 398 399 400 401 402 403 404 405 406 407 408 409 410 411 412 413 414 415 416 417 418 419 420 421 422 423 424 425 426 427 428 429 430 431 432 433 434 435 436 437 438 439 440 441 442 443 444 445 446 447 448 449 450 451 452 453 454 455 456 457 458 459 460 461 462 463 464 465 466 467 468 469 470 471 472 473 474 475 476 477 478 479 480 481 482 483 484 485 486 487 488 489 490 491 492 493 494 495 496 497 498 499 500 501 502 503 504 505 506 507 508 509 510 511 512 513 514 515 516 517 518 519 520 521 522 523 524 525 526 527 528 529 530 531 532 533 534 535 536 537 538 539 540 541 542 543 544 545 546 547 548 549 550 551 552 553 554 555 556 557 558 559 560 561 562 563 564 565 566 567 568 569 570 571 572 573 574 575 576 577 578 579 580 581 582 583 584 585 586 587 588 589 590 591 592 593 594 595 596 597 598 599 600 601 602 603 604 605 606 607 608 609 610 611 612 613 614 615 616 617 618 619 620 621 622 623 624 625 626 627 628 629 630 631 632 633 634 635 636 637 638 639 640 641 642 643 644 645 646 647 648 649 650 651 652 653 654 655 656 657 658 659 660 661 662 663 664 665 666 667 668 669 670 671 672 673 674 675 676 677 678 679 680 681 682 683 684 685 686 687 688 689 690 691 692 693 694 695 696 697 698 699 700 701 702 703 704 705 706 707 708 709 710 711 712 713 714 715 716 717 718 719 720 721 722 723 724 725 726 727 728 729 730 731 732 733 734 735 736 737 738 739 740 741 742 743 744 745 746 747 748 749 750 751 752 753 754 755 756 757 758 759 760 761 762 763 764 765 766 767 768 769 770 771 772 773 774 775 776 777 778 779 780 781 782 783 784 785 786 787 788 789 790 791 792 793 794 795 796 797 798 799 800 801 802 803 804 805 806 807 808 809 810 811 812 813 814 815 816 817 818 819 820 821 822 823 824 825 826 827 828 829 830 831 832 833 834 835 836 837 838 839 840 841 842 843 844 845 846 847 848 849 850 851 852 853 854 855 856 857 858 859 860 861 862 863 864 865 866 867 868 869 870 871 872 873 874 875 876 877 878 879 880 881 882 883 884 885 886 887 888 889 890 891 892 893 894 895 896 897 898 899 900 901 902 903 904 905 906 907 908 909 910 911 912 913 914 915 916 917 918 919 920 921 922 923 924 925 926 927 928 929 930 931 932 933 934 935 936 937 938 939 940 941 942 943 944 945 946 947 948 949 950 951 952 953 954 955 956 957 958 959 960 961 962 963 964 965 966 967 968 969 970 971 972 973 974 975 976 977 978 979 980 981 982 983 984 985 986 987 988 989 990 991 992 993 994 995 996 997 998 999 1000 1001 1002 1003 1004 1005 1006 1007 1008 1009 1010 1011 1012 1013 1014 1015 1016 1017 1018 1019 1020 1021 1022 1023 1024 1025 1026 1027 1028 1029 1030 1031 1032 1033 1034 1035 1036 1037 1038 1039 1040 1041 1042 1043 1044 1045 1046 1047 1048 1049 1050 1051 1052 1053 1054 1055 1056 1057 1058 1059 1060 1061 1062 1063 1064 1065 1066 1067 1068 1069 1070 1071 1072 1073 1074 1075 1076 1077 1078 1079 1080 1081 1082 1083 1084 1085 1086 1087 1088 1089 1090 1091 1092 1093 1094 1095 1096 1097 1098 1099 1100 1101 1102 1103 1104 1105 1106 1107 1108 1109 1110 1111 1112 1113 1114 1115 1116 1117 1118 1119 1120 1121 1122 1123 1124 1125 1126 1127 1128 1129 1130 1131 1132 1133 1134 1135 1136 1137 1138 1139 1140 1141 1142 1143 1144 1145 1146 1147 1148 1149 1150 1151 1152 1153 1154 1155 1156 1157 1158 1159 1160 1161 1162 1163 1164 1165 1166 1167 1168 1169 1170 1171 1172 1173 1174 1175 1176 1177 1178 1179 1180 1181 1182 1183 1184 1185 1186 1187 1188 1189 1190 1191 1192 1193 1194 1195 1196 1197 1198 1199 1200 1201 1202 1203 1204 1205 1206 1207 1208 1209 1210 1211 1212 1213 1214 1215 1216 1217 1218 1219 1220 1221 1222 1223 1224 1225 1226 1227 1228 1229 1230 1231 1232 1233 1234 1235 1236 1237 1238 1239 1240 1241 1242 1243 1244 1245 1246 1247 1248 1249 1250 1251 1252 1253 1254 1255 1256 1257 1258 1259 1260 1261 1262 1263 1264 1265 1266 1267 1268 1269 1270 1271 1272 1273 1274 1275 1276 1277 1278 1279 1280 1281 1282 1283 1284 1285 1286 1287 1288 1289 1290 1291 1292 1293 1294 1295 1296 1297 1298 1299 1300 1301 1302 1303 1304 1305 1306 1307 1308 1309 1310 1311 1312 1313 1314 1315 1316 1317 1318 1319 1320 1321 1322 1323 1324 1325 1326 1327 1328 1329 1330 1331 1332 1333 1334 1335 1336 1337 1338 1339 1340 1341 1342 1343 1344 1345 1346 1347 1348 1349 1350 1351 1352 1353 1354 1355 1356 1357 1358 1359 1360 1361 1362 1363 1364 1365 1366 1367 1368 1369 1370 1371 1372 1373 1374 1375 1376 1377 1378 1379 1380 1381 1382 1383 1384 1385 1386 1387 1388 1389 1390 1391 1392 1393 1394 1395 1396 1397 1398 1399 1400 1401 1402 1403 1404 1405 1406 1407 1408 1409 1410 1411 1412 1413 1414 1415 1416 1417 1418 1419 1420 1421 1422 1423 1424 1425 1426 1427 1428 1429 1430 1431 1432 1433 1434 1435 1436 1437 1438 1439 1440 1441 1442 1443 1444 1445 1446 1447 1448 1449 1450 1451 1452 1453 1454 1455 1456 1457 1458 1459 1460 1461 1462 1463 1464 1465 1466 1467 1468 1469 1470 1471 1472 1473 1474 1475 1476 1477 1478 1479 1480 1481 1482 1483 1484 1485 1486 1487 1488 1489 1490 1491 1492 1493 1494 1495 1496 1497 1498 1499 1500 1501 1502 1503 1504 1505 1506 1507 1508 1509 1510 1511 1512 1513 1514 1515 1516 1517 1518 1519 1520 1521 1522 1523 1524 1525 1526 1527 1528 1529 1530 1531 1532 1533 1534 1535 1536 1537 1538 1539 1540 1541 1542 1543 1544 1545 1546 1547 1548 1549 1550 1551 1552 1553 1554 1555 1556 1557 1558 1559 1560 1561 1562 1563 1564 1565 1566 1567 1568 1569 1570 1571 1572 1573 1574 1575 1576 1577 1578 1579 1580 1581 1582 1583 1584 1585 1586 1587 1588 1589 1590 1591 1592 1593 1594 1595 1596 1597 1598 1599 1600 1601 1602 1603 1604 1605 1606 1607 1608 1609 1610 1611 1612 1613 1614 1615 1616 1617 1618 1619 1620 1621 1622 1623 1624 1625 1626 1627 1628 1629 1630 1631 1632 1633 1634 1635 1636 1637 1638 1639 1640 1641 1642 1643 1644 1645 1646 1647 1648 1649 1650 1651 1652 1653 1654 1655 1656 1657 1658 1659 1660 1661 1662 1663 1664 1665 1666 1667 1668 1669 1670 1671 1672 1673 1674 1675 1676 1677 1678 1679 1680 1681 1682 1683 1684 1685 1686 1687 1688 1689 1690 1691 1692 1693 1694 1695 1696 1697 1698 1699 1700 1701 1702 1703 1704 1705 1706 1707 1708 1709 1710 1711 1712 1713 1714 1715 1716 1717 1718 1719 1720 1721 1722 1723 1724 1725 1726 1727 1728 1729 1730 1731 1732 1733 1734 1735 1736 1737 1738 1739 1740 1741 1742 1743 1744 1745 1746 1747 1748 1749 1750 1751 1752 1753 1754 1755 1756 1757 1758 1759 1760 1761 1762 1763 1764 1765 1766 1767 1768 1769 1770 1771 1772 1773 1774 1775 1776 1777 1778 1779 1780 1781 1782 1783 1784 1785 1786 1787 1788 1789 1790 1791 1792 1793 1794 1795 1796 1797 1798 1799 1800 1801 1802 1803 1804 1805 1806 1807 1808 1809 1810 1811 1812 1813 1814 1815 1816 1817 1818 1819 1820 1821 1822 1823 1824 1825 1826 1827 1828 1829 1830 1831 1832 1833 1834 1835 1836 1837 1838 1839 1840 1841 1842 1843 1844 1845 1846 1847 1848 1849 1850 1851 1852 1853 1854 1855 1856 1857 1858 1859 1860 1861 1862 1863 1864 1865 1866 1867 1868 1869 1870 1871 1872 1873 1874 1875 1876 1877 1878 1879 1880 1881 1882 1883 1884 1885 1886 1887 1888 1889 1890 1891 1892 1893 1894 1895 1896 1897 1898 1899 1900 1901 1902 1903 1904 1905 1906 1907 1908 1909 1910 1911 1912 1913 1914 1915 1916 1917 1918 1919 1920 1921 1922 1923 1924 1925 1926 1927 1928 1929 1930 1931 1932 1933 1934 1935 1936 1937 1938 1939 1940 1941 1942 1943 1944 1945 1946 1947 1948 1949 1950 1951 1952 1953 1954 1955 1956 1957 1958 1959 1960 1961 1962 1963 1964 1965 1966 1967 1968 1969 1970 1971 1972 1973 1974 1975 1976 1977 1978 1979 1980 1981 1982 1983 1984 1985 1986 1987 1988 1989 1990 1991 1992 1993 1994 1995 1996 1997 1998 1999 2000 2001 2002 2003 2004 2005 2006 2007 2008 2009 2010 2011 2012 2013 2014 2015 2016 2017 2018 2019 2020 2021 2022 2023 2024 2025 2026 2027 2028 2029 2030 2031 2032 2033 2034 2035 2036 2037 2038 2039 2040 2041 2042 2043 2044 2045 2046 2047 2048 2049 2050 2051 2052 2053 2054 2055 2056 2057 2058 2059 2060 2061 2062 2063 2064 2065 2066 2067 2068 2069 2070 2071 2072 2073 2074 2075 2076 2077 2078 2079 2080 2081 2082 2083 2084 2085 2086 2087 2088 2089 2090 2091 2092 2093 2094 2095 2096 2097 2098 2099 2100 2101 2102 2103 2104 2105 2106 2107 2108 2109 2110 2111 2112 2113 2114 2115 2116 2117 2118 2119 2120 2121 2122 2123 2124 2125 2126 2127 2128 2129 2130 2131 2132 2133 2134 2135 2136 2137 2138 2139 2140 2141 2142 2143 2144 2145 2146 2147 2148 2149 2150 2151 2152 2153 2154 2155 2156 2157 2158 2159 2160 2161 2162 2163 2164 2165 2166 2167 2168 2169 2170 2171 2172 2173 2174 2175 2176 2177 2178 2179 2180 2181 2182 2183 2184 2185 2186 2187 2188 2189 2190 2191 2192 2193 2194 2195 2196 2197 2198 2199 2200 2201 2202 2203 2204 2205 2206 2207 2208 2209 2210 2211 2212 2213 2214 2215 2216 2217 2218 2219 2220 2221 2222 2223 2224 2225 2226 2227 2228 2229 2230 2231 2232 2233 2234 2235 2236 2237 2238 2239 2240 2241 2242 2243 2244 2245 2246 2247 2248 2249 2250 2251 2252 2253 2254 2255 2256 2257 2258 2259 2260 2261 2262 2263 2264 2265 2266 2267 2268 2269 2270 2271 2272 2273 2274 2275 2276 2277 2278 2279 2280 2281 2282 2283 2284 2285 2286 2287 2288 2289 2290 2291 2292 2293 2294 2295 2296 2297 2298 2299 2300 2301 2302 2303 2304 2305 2306 2307 2308 2309 2310 2311 2312 2313 2314 2315 2316 2317 2318 2319 2320 2321 2322 2323 2324 2325 2326 2327 2328 2329 2330 2331 2332 2333 2334 2335 2336 2337 2338 2339 2340 2341 2342 2343 2344 2345 2346 2347 2348 2349 2350 2351 2352 2353 2354 2355 2356 2357 2358 2359 2360 2361 2362 2363 2364 2365 2366 2367 2368 2369 2370 2371 2372 2373 2374 2375 2376 2377 2378 2379 2380 2381 2382 2383 2384 2385 2386 2387 2388 2389 2390 2391 2392 2393 2394 2395 2396 2397 2398 2399 2400 2401 2402 2403 2404 2405 2406 2407 2408 2409 2410 2411 2412 2413 2414 2415 2416 2417 2418 2419 2420 2421 2422 2423 2424 2425 2426 2427 2428 2429 2430 2431 2432 2433 2434 2435 2436 2437 2438 2439 2440 2441 2442 2443 2444 2445 2446 2447 2448 2449 2450 2451 2452 2453 2454 2455 2456 2457 2458 2459 2460 2461 2462 2463 2464 2465 2466 2467 2468 2469 2470 2471 2472 2473 2474 2475 2476 2477 2478 2479 2480 2481 2482 2483 2484 2485 2486 2487 2488 2489 2490 2491 2492 2493 2494 2495 2496 2497 2498 2499 2500 2501 2502 2503 2504 2505 2506 2507 2508 2509 2510 2511 2512 2513 2514 2515 2516 2517 2518 2519 2520 2521 2522 2523 2524 2525 2526 2527 2528 2529 2530 2531 2532 2533 2534 2535 2536 2537 2538 2539 2540 2541 2542 2543 2544 2545 2546 2547 2548 2549 2550 2551 2552 2553 2554 2555 2556 2557 2558 2559 2560 2561 2562 2563 2564 2565 2566 2567 2568 2569 2570 2571 2572 2573 2574 2575 2576 2577 2578 2579 2580 2581 2582 2583 2584 2585 2586 2587 2588 2589 2590 2591 2592 2593 2594 2595 2596 2597 2598 2599 2600 2601 2602 2603 2604 2605 2606 2607 2608 2609 2610 2611 2612 2613 2614 2615 2616 2617 2618 2619 2620 2621 2622 2623 2624 2625 2626 2627 2628 2629 2630 2631 2632 2633 2634 2635 2636 2637 2638 2639 2640 2641 2642 2643 2644 2645 2646 2647 2648 2649 2650 2651 2652 2653 2654 2655 2656 2657 2658 2659 2660 2661 2662 2663 2664 2665 2666 2667 2668 2669 2670 2671 2672 2673 2674 2675 2676 2677 2678 2679 2680 2681 2682 2683 2684 2685 2686 2687 2688 2689 2690 2691 2692 2693 2694 2695 2696 2697 2698 2699 2700 2701 2702 2703 2704 2705 2706 2707 2708 2709 2710 2711 2712 2713 2714 2715 2716 2717 2718 2719 2720 2721 2722 2723 2724 2725 2726 2727 2728 2729 2730 2731 2732 2733 2734 2735 2736 2737 2738 2739 2740 2741 2742 2743 2744 2745 2746 2747 2748 2749 2750 2751 2752 2753 2754 2755 2756 2757 2758 2759 2760 2761 2762 2763 2764 2765 2766 2767 2768 2769 2770 2771 2772 2773 2774 2775 2776 2777 2778 2779 2780 2781 2782 2783 2784 2785 2786 2787 2788 2789 2790 2791 2792 2793 2794 2795 2796 2797 2798 2799 2800 2801 2802 2803 2804 2805 2806 2807 2808 2809 2810 2811 2812 2813 2814 2815 2816 2817 2818 2819 2820 2821 2822 2823 
</DataArray>
<DataArray type="UInt32" Name="offsets" format="ascii">
4 8 12 16 20 24 28 32 36 40 44 48 52 56 60 64 68 72 76 80 84 88 92 96 100 104 108 112 116 120 124 128 132 136 140 144 148 152 156 160 164 168 172 176 180 184 188 192 196 200 204 208 212 216 220 224 228 232 236 240 244 248 252 256 260 264 268 272 276 280 284 288 292 296 300 304 308 312 316 320 324 328 332 336 340 344 348 352 356 360 364 368 372 376 380 384 388 392 396 400 404 408 412 416 420 424 428 432 436 440 444 448 452 456 460 464 468 472 476 480 484 488 492 496 500 504 508 512 516 520 524 528 532 536 540 544 548 552 556 560 564 568 572 576 580 584 588 592 596 600 604 608 612 616 620 624 628 632 636 640 644 648 652 656 660 664 668 672 676 680 684 688 692 696 700 704 708 712 716 720 724 728 732 736 740 744 748 752 756 760 764 768 772 776 780 784 788 792 796 800 804 808 812 816 820 824 828 832 836 840 844 848 852 856 860 864 868 872 876 880 884 888 892 896 900 904 908 912 916 920 924 928 932 936 940 944 948 952 956 960 964 968 972 976 980 984 988 992 996 1000 1004 1008 1012 1016 1020 1024 1028 1032 1036 1040 1044 1048 1052 1056 1060 1064 1068 1072 1076 1080 1084 1088 1092 1096 1100 1104 1108 1112 1116 1120 1124 1128 1132 1136 1140 1144 1148 1152 1156 1160 1164 1168 1172 1176 1180 1184 1188 1192 1196 1200 1204 1208 1212 1216 1220 1224 1228 1232 1236 1240 1244 1248 1252 1256 1260 1264 1268 1272 1276 1280 1284 1288 1292 1296 1300 1304 1308 1312 1316 1320 1324 1328 1332 1336 1340 1344 1348 1352 1356 1360 1364 1368 1372 1376 1380 1384 1388 1392 1396 1400 1404 1408 1412 1416 1420 1424 1428 1432 1436 1440 1444 1448 1452 1456 1460 1464 1468 1472 1476 1480 1484 1488 1492 1496 1500 1504 1508 1512 1516 1520 1524 1528 1532 1536 1540 1544 1548 1552 1556 1560 1564 1568 1572 1576 1580 1584 1588 1592 1596 1600 1604 1608 1612 1616 1620 1624 1628 1632 1636 1640 1644 1648 1652 1656 1660 1664 1668 1672 1676 1680 1684 1688 1692 1696 1700 1704 1708 1712 1716 1720 1724 1728 1732 1736 1740 1744 1748 1752 1756 1760 1764 1768 1772 1776 1780 1784 1788 1792 1796 1800 1804 1808 1812 1816 1820 1824 1828 1832 1836 1840 1844 1848 1852 1856 1860 1864 1868 1872 1876 1880 1884 1888 1892 1896 1900 1904 1908 1912 1916 1920 1924 1928 1932 1936 1940 1944 1948 1952 1956 1960 1964 1968 1972 1976 1980 1984 1988 1992 1996 2000 2004 2008 2012 2016 2020 2024 2028 2032 2036 2040 2044 2048 2052 2056 2060 2064 2068 2072 2076 2080 2084 2088 2092 2096 2100 2104 2108 2112 2116 2120 2124 2128 2132 2136 2140 2144 2148 2152 2156 2160 2164 2168 2172 2176 2180 2184 2188 2192 2196 2200 2204 2208 2212 2216 2220 2224 2228 2232 2236 2240 2244 2248 2252 2256 2260 2264 2268 2272 2276 2280 2284 2288 2292 2296 2300 2304 2308 2312 2316 2320 2324 2328 2332 2336 2340 2344 2348 2352 2356 2360 2364 2368 2372 2376 2380 2384 2388 2392 2396 2400 2404 2408 2412 2416 2420 2424 2428 2432 2436 2440 2444 2448 2452 2456 2460 2464 2468 2472 2476 2480 2484 2488 2492 2496 2500 2504 2508 2512 2516 2520 2524 2528 2532 2536 2540 2544 2548 2552 2556 2560 2564 2568 2572 2576 2580 2584 2588 2592 2596 2600 2604 2608 2612 2616 2620 2624 2628 2632 2636 2640 2644 2648 2652 2656 2660 2664 2668 2672 2676 2680 2684 2688 2692 2696 2700 2704 2708 2712 2716 2720 2724 2728 2732 2736 2740 2744 2748 2752 2756 2760 2764 2768 2772 2776 2780 2784 2788 2792 2796 2800 2804 2808 2812 2816 2820 2824 
</DataArray>
<DataArray type="UInt32" Name="types" format="ascii">
10 10 10 10 10 10 10 10 10 10 10 10 10 10 10 10 10 10 10 10 10 10 10 10 10 10 10 10 10 10 10 10 10 10 10 10 10 10 10 10 10 10 10 10 10 10 10 10 10 10 10 10 10 10 10 10 10 10 10 10 10 10 10 10 10 10 10 10 10 10 10 10 10 10 10 10 10 10 10 10 10 10 10 10 10 10 10 10 10 10 10 10 10 10 10 10 10 10 10 10 10 10 10 10 10 10 10 10 10 10 10 10 10 10 10 10 10 10 10 10 10 10 10 10 10 10 10 10 10 10 10 10 10 10 10 10 10 10 10 10 10 10 10 10 10 10 10 10 10 10 10 10 10 10 10 10 10 10 10 10 10 10 10 10 10 10 10 10 10 10 10 10 10 10 10 10 10 10 10 10 10 10 10 10 10 10 10 10 10 10 10 10 10 10 10 10 10 10 10 10 10 10 10 10 10 10 10 10 10 10 10 10 10 10 10 10 10 10 10 10 10 10 10 10 10 10 10 10 10 10 10 10 10 10 10 10 10 10 10 10 10 10 10 10 10 10 10 10 10 10 10 10 10 10 10 10 10 10 10 10 10 10 10 10 10 10 10 10 10 10 10 10 10 10 10 10 10 10 10 10 10 10 10 10 10 10 10 10 10 10 10 10 10 10 10 10 10 10 10 10 10 10 10 10 10 10 10 10 10 10 10 10 10 10 10 10 10 10 10 10 10 10 10 10 10 10 10 10 10 10 10 10 10 10 10 10 10 10 10 10 10 10 10 10 10 10 10 10 10 10 10 10 10 10 10 10 10 10 10 10 10 10 10 10 10 10 10 10 10 10 10 10 10 10 10 10 10 10 10 10 10 10 10 10 10 10 10 10 10 10 10 10 10 10 10 10 10 10 10 10 10 10 10 10 10 10 10 10 10 10 10 10 10 10 10 10 10 10 10 10 10 10 10 10 10 10 10 10 10 10 10 10 10 10 10 10 10 10 10 10 10 10 10 10 10 10 10 10 10 10 10 10 10 10 10 10 10 10 10 10 10 10 10 10 10 10 10 10 10 10 10 10 10 10 10 10 10 10 10 10 10 10 10 10 10 10 10 10 10 10 10 10 10 10 10 10 10 10 10 10 10 10 10 10 10 10 10 10 10 10 10 10 10 10 10 10 10 10 10 10 10 10 10 10 10 10 10 10 10 10 10 10 10 10 10 10 10 10 10 10 10 10 10 10 10 10 10 10 10 10 10 10 10 10 10 10 10 10 10 10 10 10 10 10 10 10 10 10 10 10 10 10 10 10 10 10 10 10 10 10 10 10 10 10 10 10 10 10 10 10 10 10 10 10 10 10 10 10 10 10 10 10 10 10 10 10 10 10 10 10 10 10 10 10 10 10 10 10 10 10 10 10 10 10 10 10 10 10 10 10 10 10 10 10 10 10 10 10 10 10 10 10 10 10 10 10 10 10 10 10 10 10 10 10 10 10 10 10 10 10 10 10 10 10 10 10 10 10 10 10 10 10 10 10 10 10 10 10 10 10 10 10 10 10 10 10 10 10 10 10 10 10 10 10 10 10 10 10 10 10 10 10 10 10 10 10 
</DataArray>
</Cells>
<PointData Scalars="" Vectors="displacement," Tensors="">
<DataArray type="Float64" Name="displacement" NumberOfComponents="3" format="ascii">
-1.1437241898339756e-06 -1.162843666926654e-06 -9.2910843239571081e-06 -1.0517844555903477e-06 -1.6275051638452714e-06 -0.037601047081558252 2.7706982072821536e-07 2.8115503271517299e-07 -5.4361537268081099e-06 -1.6152382263135525e-06 -8.7527316423321566e-07 -0.03701108224253407 -1.0517844555903477e-06 -1.6275051638452714e-06 -0.037601047081558252 -1.0576413973543393e-06 -1.1662869834646961e-06 -0.070221601592143884 -5.7835218417294022e-07 -1.489021992850419e-06 -0.064694920224527386 -2.6068319892437725e-10 -7.5913391295975403e-07 -0.044493327485174108 -1.0576413973543393e-06 -1.1662869834646961e-06 -0.070221601592143884 -1.1836508910538622e-06 -1.0510737556705178e-06 -0.069381195667945691 -2.6068319892434716e-10 -7.5913391295975403e-07 -0.044493327485174101 -1.0517844555903477e-06 -1.6275051638452714e-06 -0.037601047081558252 2.7706982072821536e-07 2.8115503271517299e-07 -5.4361537268081099e-06 -1.6152382263135523e-06 -8.7527316423321524e-07 -0.037011082242534063 -2.6068319892421182e-10 -7.5913391295975339e-07 -0.044493327485174095 -9.1288436910938321e-07 2.9968971682830934e-08 -0.044618578492471715 -1.6152382263135525e-06 -8.7527316423321566e-07 -0.03701108224253407 -2.6068319892448391e-10 -7.5913391295975381e-07 -0.044493327485174108 -1.1836508910538622e-06 -1.0510737556705178e-06 -0.069381195667945691 -1.051784455590348e-06 -1.6275051638452718e-06 -0.037601047081558252 -1.0517844555903477e-06 -1.6275051638452714e-06 -0.037601047081558252 2.7706982072821536e-07 2.8115503271517299e-07 -5.4361537268081099e-06 -1.6152382263135525e-06 -8.7527316423321566e-07 -0.03701108224253407 -2.606831989244624e-10 -7.5913391295975403e-07 -0.044493327485174108 -1.6108700337900155e-06 -1.664128547643846e-06 -0.045007796662184733 -1.0517844555903477e-06 -1.6275051638452714e-06 -0.037601047081558252 -1.6152382263135527e-06 -8.7527316423321556e-07 -0.037011082242534063 -1.1836508910538622e-06 -1.0510737556705178e-06 -0.069381195667945691 -1.0517844555903477e-06 -1.6275051638452714e-06 -0.037601047081558252 -1.1437241898339756e-06 -1.162843666926654e-06 -9.2910843239571081e-06 -1.6108700337900155e-06 -1.664128547643846e-06 -0.045007796662184733 -1.6152382263135525e-06 -8.7527316423321566e-07 -0.03701108224253407 -1.6108700337900155e-06 -1.664128547643846e-06 -0.045007796662184733 -1.0517844555903477e-06 -1.6275051638452714e-06 -0.037601047081558252 -1.1836508910538624e-06 -1.0510737556705178e-06 -0.069381195667945691 -1.0576413973543393e-06 -1.1662869834646961e-06 -0.070221601592143884 2.7706982072821536e-07 2.8115503271517299e-07 -5.4361537268081099e-06 -7.3938137654023249e-07 1.1913262339505827e-07 -5.9289463123752893e-06 -1.6152382263135525e-06 -8.7527316423321524e-07 -0.037011082242534063 -1.6240251027577252e-06 -2.2216301752970342e-07 -0.029522635680216895 -7.3938137654023249e-07 1.1913262339505827e-07 -5.9289463123752893e-06 2.7706982072821536e-07 2.8115503271517299e-07 -5.4361537268081099e-06 2.6998146304878412e-07 -5.6686939412644025e-08 -5.4832330560666817e-06 -1.6240251027577252e-06 -2.2216301752970342e-07 -0.029522635680216895 -7.3938137654023249e-07 1.1913262339505827e-07 -5.9289463123752893e-06 -1.1437241898339756e-06 -1.162843666926654e-06 -9.2910843239582957e-06 2.7706982072821536e-07 2.8115503271517299e-07 -5.4361537268081099e-06 -1.6152382263135525e-06 -8.7527316423321566e-07 -0.03701108224253407 -1.0517844555903477e-06 -1.6275051638452714e-06 -0.037601047081558252 -3.2503207306239747e-07 -1.619934946891195e-06 -0.029640622414729062 1.1689221825536559e-07 -7.4701891159392796e-07 -6.1814093938679838e-06 -5.5563166330815103e-08 2.7269068758291271e-07 -4.9021265908711329e-06 -1.0517844555903477e-06 -1.6275051638452714e-06 -0.037601047081558252 -1.1437241898339756e-06 -1.162843666926654e-06 -9.2910843239571081e-06 2.7706982072821536e-07 2.8115503271517299e-07 -5.4361537268081099e-06 1.1689221825536559e-07 -7.4701891159392796e-07 -6.1814093938679838e-06 2.7706982072821536e-07 2.8115503271517299e-07 -5.4361537268081099e-06 -1.0517844555903477e-06 -1.6275051638452714e-06 -0.037601047081558252 1.1689221825536558e-07 -7.4701891159392796e-07 -6.1814093938679838e-06 -5.5563166330815103e-08 2.7269068758291271e-07 -4.9021265908711329e-06 -3.2503207306239758e-07 -1.6199349468911948e-06 -0.029640622414729059 -1.3487998474541485e-09 -9.9436283606844707e-07 -7.6468341894303322e-06 -5.5563166330815103e-08 2.7269068758291271e-07 -4.9021265908711329e-06 -2.606831989245019e-10 -7.5913391295975392e-07 -0.044493327485174095 -3.2503207306239758e-07 -1.6199349468911948e-06 -0.029640622414729059 1.1689221825536561e-07 -7.4701891159392796e-07 -6.1814093938672291e-06 -5.5563166330815103e-08 2.7269068758291271e-07 -4.9021265908711329e-06 -1.3487998474541485e-09 -9.9436283606844707e-07 -7.6468341894303322e-06 -3.2503207306239758e-07 -1.6199349468911948e-06 -0.029640622414729059 -5.5563166330815103e-08 2.7269068758291271e-07 -4.9021265908711329e-06 -1.0517844555903477e-06 -1.6275051638452714e-06 -0.037601047081558252 -2.606831989243712e-10 -7.5913391295975403e-07 -0.044493327485174108 -3.2540468108364429e-10 2.0914835553013575e-07 -8.8082577350679555e-06 -1.487319352300324e-07 -2.3682850484688076e-06 -0.04589327790257277 2.0328949827532461e-07 -6.8846666517796474e-07 -0.066363563835468417 -2.6068319892440129e-10 -7.5913391295975403e-07 -0.044493327485174101 -1.0517844555903477e-06 -1.6275051638452714e-06 -0.037601047081558252 -5.556316633081497e-08 2.7269068758291266e-07 -4.9021265908761854e-06 2.7706982072821536e-07 2.8115503271517299e-07 -5.4361537268081099e-06 -2.6068319892457743e-10 -7.5913391295975381e-07 -0.044493327485174101 2.7706982072821536e-07 2.8115503271517299e-07 -5.4361537268081099e-06 -5.5563166330815103e-08 2.7269068758291271e-07 -4.9021265908711329e-06 -1.1391025220957351e-07 -1.1504872342335473e-07 -6.05956964288002e-06 -2.6068319892437725e-10 -7.5913391295975403e-07 -0.044493327485174108 -5.5563166330815103e-08 2.7269068758291271e-07 -4.9021265908711329e-06 -3.2540468108364429e-10 2.0914835553013575e-07 -8.8082577350679555e-06 -1.1391025220957351e-07 -1.1504872342335473e-07 -6.05956964288002e-06 -2.6068319892437725e-10 -7.5913391295975403e-07 -0.044493327485174108 -5.5563166330815103e-08 2.7269068758291271e-07 -4.9021265908711329e-06 -1.3487998474541485e-09 -9.9436283606844707e-07 -7.6468341894303322e-06 -3.2540468108364429e-10 2.0914835553013575e-07 -8.8082577350679555e-06 -2.6068319892437725e-10 -7.5913391295975403e-07 -0.044493327485174108 -3.2540468108364429e-10 2.0914835553013575e-07 -8.8082577350679555e-06 -1.3487998474541485e-09 -9.9436283606844707e-07 -7.6468341894303322e-06 1.6971311895538738e-09 -9.6222839755602765e-07 -7.9076054456413831e-06 -1.487319352300324e-07 -2.3682850484688076e-06 -0.04589327790257277 -3.2540468108364429e-10 2.0914835553013575e-07 -8.8082577350679555e-06 -1.3487998474541541e-09 -9.9436283606844707e-07 -7.6468341894293022e-06 -1.4873193523003243e-07 -2.368285048468808e-06 -0.045893277902572763 -2.6068319892437725e-10 -7.5913391295975403e-07 -0.044493327485174108 -3.2503207306239758e-07 -1.6199349468911948e-06 -0.029640622414729059 -1.4873193523003238e-07 -2.3682850484688076e-06 -0.04589327790257277 -1.3487998474541485e-09 -9.9436283606844707e-07 -7.6468341894303322e-06 -2.6068319892437725e-10 -7.5913391295975403e-07 -0.044493327485174108 -3.2503207306239758e-07 -1.6199349468911948e-06 -0.029640622414729059 -1.0517844555903477e-06 -1.6275051638452714e-06 -0.037601047081558252 -5.7835218417294022e-07 -1.489021992850419e-06 -0.064694920224527386 -2.6068319892439266e-10 -7.5913391295975413e-07 -0.044493327485174115 -5.7835218417294022e-07 -1.489021992850419e-06 -0.064694920224527386 -1.4873193523003238e-07 -2.3682850484688076e-06 -0.04589327790257277 -3.2503207306239758e-07 -1.6199349468911948e-06 -0.029640622414729059 -2.6068319892437725e-10 -7.5913391295975403e-07 -0.044493327485174108 -1.8372557285272355e-07 -1.7201407338661123e-06 -0.086193261424062376 -5.7835218417294033e-07 -1.4890219928504192e-06 -0.064694920224527386 -6.2751146630780744e-07 -6.0428346056349747e-07 -0.084080607414070321 -2.6068319892437725e-10 -7.5913391295975403e-07 -0.044493327485174108 -1.8372557285272355e-07 -1.7201407338661123e-06 -0.086193261424062376 -4.1782557290060608e-08 -8.3805439703365276e-07 -0.11416303671339988 2.0328949827532459e-07 -6.8846666517796464e-07 -0.066363563835468403 -2.6068319892437539e-10 -7.5913391295975403e-07 -0.044493327485174101 -5.7835218417294022e-07 -1.489021992850419e-06 -0.064694920224527386 -1.1146520123261954e-06 -2.1105469420251185e-06 -0.11018439928886238 -1.8372557285272355e-07 -1.7201407338661123e-06 -0.086193261424062376 -6.2751146630780744e-07 -6.0428346056349757e-07 -0.084080607414070321 -1.0576413973543393e-06 -1.1662869834646961e-06 -0.070221601592143884 -6.2751146630780723e-07 -6.0428346056349715e-07 -0.084080607414070294 -5.7835218417294022e-07 -1.489021992850419e-06 -0.064694920224527386 -2.6068319892437725e-10 -7.5913391295975403e-07 -0.044493327485174108 -1.8372557285272355e-07 -1.7201407338661123e-06 -0.086193261424062376 2.0328949827532459e-07 -6.8846666517796464e-07 -0.066363563835468403 -1.487319352300324e-07 -2.3682850484688076e-06 -0.04589327790257277 -2.6068319892437725e-10 -7.5913391295975403e-07 -0.044493327485174108 -1.8372557285272355e-07 -1.7201407338661123e-06 -0.086193261424062376 -6.2751146630780744e-07 -6.0428346056349747e-07 -0.084080607414070321 -5.2452855144912073e-07 -1.7558241027410238e-06 -0.12802521977277179 -4.1782557290060608e-08 -8.3805439703365265e-07 -0.11416303671339988 -1.1146520123261954e-06 -2.1105469420251185e-06 -0.11018439928886238 -5.2452855144912073e-07 -1.7558241027410238e-06 -0.12802521977277179 -1.8372557285272355e-07 -1.7201407338661123e-06 -0.086193261424062376 -6.2751146630780734e-07 -6.0428346056349747e-07 -0.084080607414070307 -1.8372557285272355e-07 -1.7201407338661123e-06 -0.086193261424062376 -6.2751146630780744e-07 -6.0428346056349747e-07 -0.084080607414070321 -4.1782557290060694e-08 -8.3805439703365265e-07 -0.11416303671339989 -2.6068319892453592e-10 -7.5913391295975413e-07 -0.044493327485174108 -1.8372557285272355e-07 -1.7201407338661123e-06 -0.086193261424062376 -1.487319352300324e-07 -2.3682850484688076e-06 -0.04589327790257277 -5.7835218417294022e-07 -1.489021992850419e-06 -0.064694920224527386 -2.6068319892437725e-10 -7.5913391295975403e-07 -0.044493327485174108 -1.8372557285272355e-07 -1.7201407338661123e-06 -0.086193261424062376 -5.2452855144912073e-07 -1.7558241027410238e-06 -0.12802521977277179 -3.7551287083214454e-08 -5.3757547439090477e-07 -0.1125077088850262 -4.1782557290060608e-08 -8.3805439703365265e-07 -0.11416303671339988 -1.0576413973543393e-06 -1.1662869834646961e-06 -0.070221601592143884 -1.1836508910538624e-06 -1.051073755670518e-06 -0.069381195667945705 -2.1224227223852236e-06 -1.2254363624308235e-06 -0.11018438916285879 -6.2751146630780744e-07 -6.0428346056349747e-07 -0.084080607414070321 -1.0576413973543393e-06 -1.1662869834646961e-06 -0.070221601592143884 -2.6068319892439069e-10 -7.5913391295975403e-07 -0.044493327485174108 -1.1836508910538622e-06 -1.0510737556705178e-06 -0.069381195667945691 -6.2751146630780723e-07 -6.0428346056349747e-07 -0.084080607414070307 -1.6152382263135525e-06 -8.7527316423321566e-07 -0.03701108224253407 -1.1836508910538622e-06 -1.0510737556705178e-06 -0.069381195667945691 -2.6068319892297844e-10 -7.5913391295975456e-07 -0.044493327485174101 -6.2751146630780776e-07 -6.0428346056349736e-07 -0.084080607414070335 -1.6152382263135525e-06 -8.7527316423321566e-07 -0.03701108224253407 -1.5003321662178845e-06 -5.4903324990944622e-07 -0.064694901845269687 -1.1836508910538622e-06 -1.0510737556705178e-06 -0.069381195667945691 -6.2751146630780776e-07 -6.0428346056349779e-07 -0.084080607414070321 -5.7835218417294022e-07 -1.489021992850419e-06 -0.064694920224527386 -1.0576413973543393e-06 -1.1662869834646961e-06 -0.070221601592143884 -1.1146520123261954e-06 -2.1105469420251185e-06 -0.11018439928886238 -6.2751146630780734e-07 -6.0428346056349747e-07 -0.084080607414070307 -1.1836508910538622e-06 -1.0510737556705178e-06 -0.069381195667945691 -1.5003321662178845e-06 -5.4903324990944622e-07 -0.064694901845269687 -2.1224227223852236e-06 -1.2254363624308235e-06 -0.11018438916285879 -6.2751146630780744e-07 -6.0428346056349747e-07 -0.084080607414070321 -1.0576413973543393e-06 -1.1662869834646961e-06 -0.070221601592143884 -2.1224227223852236e-06 -1.2254363624308235e-06 -0.11018438916285879 -1.1146520123261954e-06 -2.1105469420251185e-06 -0.11018439928886238 -6.2751146630780744e-07 -6.0428346056349747e-07 -0.084080607414070321 -1.9526352197495015e-06 -1.9382567145798398e-06 -0.090007959897485862 -1.0576413973543393e-06 -1.1662869834646961e-06 -0.070221601592143884 -2.1224227223852236e-06 -1.2254363624308235e-06 -0.11018438916285879 -1.1146520123261954e-06 -2.1105469420251185e-06 -0.11018439928886238 -1.1836508910538622e-06 -1.0510737556705178e-06 -0.069381195667945691 -1.9526352197495015e-06 -1.9382567145798398e-06 -0.090007959897485862 -1.0576413973543395e-06 -1.1662869834646965e-06 -0.070221601592143898 -2.1224227223852236e-06 -1.2254363624308235e-06 -0.11018438916285879 -1.9919384224075039e-06 -1.9978515390069601e-06 -0.13500775542255161 -1.9526352197495015e-06 -1.9382567145798398e-06 -0.090007959897485862 -2.1224227223852236e-06 -1.2254363624308235e-06 -0.11018438916285879 -1.1146520123261954e-06 -2.1105469420251185e-06 -0.11018439928886238 -1.9526352197495015e-06 -1.9382567145798398e-06 -0.090007959897485862 -1.6108700337900155e-06 -1.664128547643846e-06 -0.045007796662184733 -1.1836508910538622e-06 -1.0510737556705178e-06 -0.069381195667945691 -1.0576413973543393e-06 -1.1662869834646961e-06 -0.070221601592143884 -1.7879555561625242e-06 -2.0031189921196934e-07 -0.086305432420556286 -8.3676624714832271e-07 -8.5966934153781614e-08 -0.11356349935481508 -6.2751146630780744e-07 -6.0428346056349747e-07 -0.084080607414070321 -9.1288436910938353e-07 2.9968971682830868e-08 -0.044618578492471736 -1.6152382263135525e-06 -8.7527316423321566e-07 -0.03701108224253407 -1.5003321662178845e-06 -5.4903324990944622e-07 -0.064694901845269687 -6.2751146630780734e-07 -6.0428346056349683e-07 -0.08408060741407028 -9.1288436910938321e-07 2.9968971682831001e-08 -0.044618578492471736 -1.7879555561625242e-06 -2.0031189921196934e-07 -0.086305432420556286 -6.2751146630780744e-07 -6.0428346056349747e-07 -0.084080607414070321 -1.5003321662178845e-06 -5.4903324990944622e-07 -0.064694901845269687 -9.1288436910938321e-07 2.9968971682830895e-08 -0.044618578492471729 -2.1224227223852236e-06 -1.2254363624308235e-06 -0.11018438916285879 -1.7879555561625242e-06 -2.0031189921196934e-07 -0.086305432420556286 -1.7271124640361957e-06 -5.9251520097301175e-07 -0.12802320450099713 -6.2751146630780744e-07 -6.0428346056349747e-07 -0.084080607414070321 -1.7879555561625242e-06 -2.0031189921196934e-07 -0.086305432420556286 -7.0300616239810389e-07 2.5936240161175381e-07 -0.065459204618210032 -8.3676624714832292e-07 -8.5966934153781892e-08 -0.11356349935481509 -9.1288436910938342e-07 2.9968971682831226e-08 -0.044618578492471715 -1.7271124640361957e-06 -5.9251520097301175e-07 -0.12802320450099713 -6.2751146630780744e-07 -6.0428346056349747e-07 -0.084080607414070321 -1.7879555561625242e-06 -2.0031189921196934e-07 -0.086305432420556286 -8.3676624714832271e-07 -8.5966934153781694e-08 -0.11356349935481509 -1.7879555561625242e-06 -2.0031189921196934e-07 -0.086305432420556286 -2.4259826060808691e-06 -1.2379690124091321e-07 -0.045893159383620957 -7.0300616239810389e-07 2.5936240161175381e-07 -0.065459204618210032 -9.1288436910938342e-07 2.9968971682831179e-08 -0.044618578492471715 -2.1224227223852236e-06 -1.2254363624308235e-06 -0.11018438916285879 -1.5003321662178845e-06 -5.4903324990944622e-07 -0.064694901845269687 -1.7879555561625242e-06 -2.0031189921196934e-07 -0.086305432420556286 -6.2751146630780744e-07 -6.0428346056349747e-07 -0.084080607414070321 -1.7879555561625242e-06 -2.0031189921196934e-07 -0.086305432420556286 -1.5003321662178845e-06 -5.4903324990944622e-07 -0.064694901845269687 -2.4259826060808691e-06 -1.2379690124091321e-07 -0.045893159383620943 -9.1288436910938364e-07 2.9968971682831027e-08 -0.044618578492471715 -1.7271124640361957e-06 -5.9251520097301175e-07 -0.12802320450099713 -1.7879555561625242e-06 -2.0031189921196934e-07 -0.086305432420556286 -6.0747646535356592e-07 -6.4488800062169868e-08 -0.11250765485392443 -8.3676624714832292e-07 -8.5966934153781919e-08 -0.11356349935481509 -6.2751146630780744e-07 -6.0428346056349747e-07 -0.084080607414070321 1.9737886053861532e-11 2.1593026900763372e-08 -0.055160151058131754 2.0328949827532467e-07 -6.8846666517796464e-07 -0.066363563835468389 -2.6068319892440253e-10 -7.5913391295975413e-07 -0.044493327485174115 -6.2751146630780744e-07 -6.0428346056349747e-07 -0.084080607414070321 -7.0300616239810389e-07 2.5936240161175381e-07 -0.065459204618210032 2.4766520408687589e-08 -2.8604385142180839e-08 -0.11250737590774498 1.9737886053871881e-11 2.1593026900763548e-08 -0.055160151058131761 -7.0300616239810389e-07 2.5936240161175381e-07 -0.065459204618210032 1.9737886053922497e-11 2.1593026900763452e-08 -0.055160151058131754 -6.2751146630780734e-07 -6.0428346056349757e-07 -0.084080607414070321 -9.1288436910938332e-07 2.9968971682831312e-08 -0.044618578492471708 2.0328949827532459e-07 -6.8846666517796464e-07 -0.066363563835468403 -4.1782557290060443e-08 -8.3805439703365286e-07 -0.11416303671339988 -6.2751146630780787e-07 -6.0428346056349715e-07 -0.084080607414070321 -2.6068319892437725e-10 -7.5913391295975403e-07 -0.044493327485174108 1.9737886053931202e-11 2.1593026900763442e-08 -0.055160151058131754 -2.606831989241215e-10 -7.5913391295975424e-07 -0.044493327485174095 -6.2751146630780723e-07 -6.0428346056349736e-07 -0.084080607414070294 -9.1288436910938321e-07 2.9968971682831159e-08 -0.044618578492471715 -6.2751146630780744e-07 -6.0428346056349747e-07 -0.084080607414070321 -8.3676624714832303e-07 -8.5966934153781787e-08 -0.11356349935481509 -7.0300616239810389e-07 2.5936240161175381e-07 -0.065459204618210032 -9.1288436910938321e-07 2.9968971682831159e-08 -0.044618578492471715 2.4766520408687589e-08 -2.8604385142180839e-08 -0.11250737590774498 -6.2751146630780744e-07 -6.0428346056349768e-07 -0.084080607414070335 2.0328949827532459e-07 -6.8846666517796464e-07 -0.066363563835468403 -4.1782557290060608e-08 -8.3805439703365265e-07 -0.11416303671339988 -6.2751146630780744e-07 -6.0428346056349747e-07 -0.084080607414070321 2.4766520408687589e-08 -2.8604385142180839e-08 -0.11250737590774498 2.0328949827532459e-07 -6.8846666517796464e-07 -0.066363563835468403 1.9737886054044655e-11 2.1593026900763366e-08 -0.055160151058131761 2.4766520408687589e-08 -2.8604385142180839e-08 -0.11250737590774498 -8.3676624714832281e-07 -8.5966934153781919e-08 -0.11356349935481508 -6.2751146630780744e-07 -6.0428346056349747e-07 -0.084080607414070321 -4.1782557290060608e-08 -8.3805439703365265e-07 -0.11416303671339988 2.4766520408687589e-08 -2.8604385142180839e-08 -0.11250737590774498 -7.0300616239810389e-07 2.5936240161175381e-07 -0.065459204618210032 -6.2751146630780744e-07 -6.0428346056349747e-07 -0.084080607414070321 -8.3676624714832281e-07 -8.5966934153781919e-08 -0.11356349935481508 2.08228914519589e-07 -5.529930353581654e-11 -8.5010714907298336e-06 -1.5659848334708206e-08 -1.581741278100534e-08 -7.4215003313520892e-06 -7.0300616239810379e-07 2.5936240161175386e-07 -0.065459204618210032 -9.1288436910938311e-07 2.9968971682831153e-08 -0.044618578492471708 -1.5659848334708186e-08 -1.5817412781005337e-08 -7.4215003313516547e-06 1.9737886053931202e-11 2.1593026900763442e-08 -0.055160151058131754 -7.03006162398104e-07 2.5936240161175365e-07 -0.065459204618210046 -9.1288436910938342e-07 2.996897168283104e-08 -0.044618578492471722 1.5686957438091349e-08 -1.5858432917165056e-08 -7.3730241147481202e-06 1.9737886053931202e-11 2.1593026900763442e-08 -0.055160151058131754 -1.5659848334708186e-08 -1.5817412781005337e-08 -7.4215003313516547e-06 -2.6068319892437725e-10 -7.5913391295975403e-07 -0.044493327485174108 -1.5659848334708186e-08 -1.5817412781005337e-08 -7.4215003313516547e-06 -2.6068319892437725e-10 -7.5913391295975403e-07 -0.044493327485174108 1.973788605391545e-11 2.1593026900763442e-08 -0.055160151058131754 -9.1288436910938342e-07 2.9968971682831219e-08 -0.044618578492471715 1.5686957438091349e-08 -1.5858432917165056e-08 -7.3730241147481202e-06 1.3971513634021395e-10 9.2148327323498134e-11 -2.1157460880607804e-06 -1.5659848334708186e-08 -1.581741278100533e-08 -7.4215003313478185e-06 1.9737886053931202e-11 2.1593026900763442e-08 -0.055160151058131754 -3.2540468108364429e-10 2.0914835553013575e-07 -8.8082577350679555e-06 -1.5659848334708186e-08 -1.5817412781005337e-08 -7.4215003313516547e-06 -1.1391025220957351e-07 -1.1504872342335473e-07 -6.05956964288002e-06 -2.6068319892437725e-10 -7.5913391295975403e-07 -0.044493327485174108 1.5686957438091349e-08 -1.5858432917165056e-08 -7.3730241147481202e-06 -1.5659848334708186e-08 -1.5817412781005337e-08 -7.4215003313516547e-06 -3.2540468108364429e-10 2.0914835553013575e-07 -8.8082577350679555e-06 -2.6068319892437725e-10 -7.5913391295975403e-07 -0.044493327485174108 -1.5659848334708186e-08 -1.5817412781005337e-08 -7.4215003313516547e-06 -1.1391025220957352e-07 -1.150487234233547e-07 -6.059569642876382e-06 -2.6068319892437725e-10 -7.5913391295975403e-07 -0.044493327485174108 -9.1288436910938342e-07 2.9968971682831226e-08 -0.044618578492471722 -1.1391025220957351e-07 -1.1504872342335473e-07 -6.05956964288002e-06 2.7706982072821536e-07 2.8115503271517299e-07 -5.4361537268081099e-06 -2.6068319892437725e-10 -7.5913391295975403e-07 -0.044493327485174108 -9.1288436910938311e-07 2.9968971682831107e-08 -0.044618578492471708 -1.1391025220957351e-07 -1.1504872342335473e-07 -6.05956964288002e-06 -1.5659848334708186e-08 -1.5817412781005337e-08 -7.4215003313516547e-06 2.08228914519589e-07 -5.529930353581654e-11 -8.5010714907298336e-06 -9.12884369109383e-07 2.9968971682831126e-08 -0.044618578492471708 2.6998146304878412e-07 -5.6686939412644025e-08 -5.4832330560666817e-06 -1.1391025220957351e-07 -1.1504872342335473e-07 -6.05956964288002e-06 2.08228914519589e-07 -5.529930353581654e-11 -8.5010714907298336e-06 -9.1288436910938321e-07 2.9968971682831159e-08 -0.044618578492471715 -9.8407643725421703e-07 -1.3970795138161663e-09 -7.9717370538963657e-06 2.6998146304878412e-07 -5.6686939412644025e-08 -5.4832330560666817e-06 2.08228914519589e-07 -5.529930353581654e-11 -8.5010714907298336e-06 -9.1288436910938374e-07 2.9968971682831166e-08 -0.044618578492471722 -1.6152382263135525e-06 -8.7527316423321566e-07 -0.03701108224253407 -6.2751146630780765e-07 -6.0428346056349705e-07 -0.084080607414070294 -2.6068319892430012e-10 -7.591339129597535e-07 -0.044493327485174067 -9.1288436910938321e-07 2.9968971682830822e-08 -0.044618578492471729 -1.1391025220957351e-07 -1.1504872342335473e-07 -6.05956964288002e-06 2.6998146304878412e-07 -5.6686939412644025e-08 -5.4832330560666817e-06 2.7706982072821536e-07 2.8115503271517299e-07 -5.4361537268081099e-06 -9.12884369109383e-07 2.9968971682831093e-08 -0.044618578492471708 2.7706982072821536e-07 2.8115503271517299e-07 -5.4361537268081099e-06 -1.6240251027577252e-06 -2.2216301752970342e-07 -0.029522635680216895 -1.6152382263135523e-06 -8.7527316423321535e-07 -0.037011082242534056 -9.1288436910938321e-07 2.9968971682831159e-08 -0.044618578492471715 -9.8407643725421703e-07 -1.3970795138161663e-09 -7.9717370538963657e-06 -7.3938137654023249e-07 1.1913262339505827e-07 -5.9289463123752893e-06 2.6998146304878412e-07 -5.6686939412644025e-08 -5.4832330560666817e-06 -1.6240251027577252e-06 -2.2216301752970342e-07 -0.029522635680216895 2.6998146304878412e-07 -5.6686939412644025e-08 -5.4832330560666817e-06 -9.8407643725421703e-07 -1.3970795138161663e-09 -7.9717370538963657e-06 -1.6240251027577252e-06 -2.2216301752970342e-07 -0.029522635680216899 -9.1288436910938342e-07 2.9968971682831133e-08 -0.044618578492471722 2.7706982072821536e-07 2.8115503271517299e-07 -5.4361537268081099e-06 2.6998146304878412e-07 -5.6686939412644025e-08 -5.4832330560666817e-06 -1.6240251027577252e-06 -2.2216301752970342e-07 -0.029522635680216895 -9.1288436910938321e-07 2.9968971682831159e-08 -0.044618578492471715 -1.6152382263135525e-06 -8.7527316423321566e-07 -0.03701108224253407 -1.6240251027577252e-06 -2.2216301752970342e-07 -0.029522635680216895 -1.5003321662178845e-06 -5.4903324990944622e-07 -0.064694901845269687 -9.1288436910938321e-07 2.9968971682831159e-08 -0.044618578492471715 -9.8407643725421703e-07 -1.3970795138161663e-09 -7.9717370538963657e-06 -2.4259826060808691e-06 -1.2379690124091318e-07 -0.04589315938362095 -1.6240251027577252e-06 -2.2216301752970342e-07 -0.029522635680216895 -9.1288436910938247e-07 2.9968971682831272e-08 -0.044618578492471715 -1.5003321662178845e-06 -5.4903324990944622e-07 -0.064694901845269687 -1.6240251027577252e-06 -2.2216301752970342e-07 -0.029522635680216895 -2.4259826060808691e-06 -1.2379690124091318e-07 -0.04589315938362095 -9.1288436910938321e-07 2.9968971682831159e-08 -0.044618578492471715 -9.8407643725421703e-07 -1.3970795138161663e-09 -7.9717370538963657e-06 2.08228914519589e-07 -5.529930353581654e-11 -8.5010714907298336e-06 -2.4259826060808691e-06 -1.2379690124091321e-07 -0.045893159383620943 -9.12884369109383e-07 2.9968971682831206e-08 -0.044618578492471722 2.6255775025344394e-07 5.6788874906048928e-08 -4.9237590276600402e-06 -9.5993999338170865e-07 1.5549201814739327e-09 -7.7333402548308655e-06 2.08228914519589e-07 -5.529930353581654e-11 -8.5010714907298336e-06 -2.4259826060808691e-06 -1.2379690124091318e-07 -0.04589315938362095 -2.4259826060808691e-06 -1.2379690124091318e-07 -0.04589315938362095 -9.1288436910938321e-07 2.9968971682831159e-08 -0.044618578492471715 2.08228914519589e-07 -5.529930353581654e-11 -8.5010714907298336e-06 -6.9396802080705848e-07 3.7899307946767228e-07 -0.042350590920845282 2.08228914519589e-07 -5.529930353581654e-11 -8.5010714907298336e-06 -9.1288436910938321e-07 2.9968971682831166e-08 -0.044618578492471715 -7.0300616239810326e-07 2.5936240161175381e-07 -0.065459204618210032 -6.9396802080705879e-07 3.7899307946767212e-07 -0.042350590920845282 -2.4259826060808691e-06 -1.2379690124091318e-07 -0.04589315938362095 -7.0300616239810336e-07 2.5936240161175381e-07 -0.065459204618210018 -9.1288436910938279e-07 2.9968971682831199e-08 -0.044618578492471701 -6.9396802080705784e-07 3.7899307946767228e-07 -0.042350590920845255 -2.4259826060808691e-06 -1.2379690124091318e-07 -0.04589315938362095 -1.4818811298588124e-06 5.7026482363992942e-07 -0.064694647875689376 -7.0300616239810389e-07 2.5936240161175381e-07 -0.065459204618210032 -6.9396802080705869e-07 3.7899307946767191e-07 -0.042350590920845255 2.08228914519589e-07 -5.529930353581654e-11 -8.5010714907298336e-06 -7.0300616239810389e-07 2.5936240161175381e-07 -0.065459204618210032 -1.1090668213202049e-07 1.1501261410544547e-07 -6.2179918858885161e-06 -6.9396802080705879e-07 3.7899307946767212e-07 -0.042350590920845282 -9.5993999338170865e-07 1.5549201814739327e-09 -7.7333402548308655e-06 -9.8407643725421703e-07 -1.3970795138161663e-09 -7.9717370538963657e-06 2.08228914519589e-07 -5.529930353581654e-11 -8.5010714907298336e-06 -2.4259826060808691e-06 -1.2379690124091318e-07 -0.04589315938362095 2.6255775025344394e-07 5.6788874906048928e-08 -4.9237590276600402e-06 -9.5993999338170865e-07 1.5549201814739327e-09 -7.7333402548308655e-06 -2.4259826060808691e-06 -1.2379690124091318e-07 -0.04589315938362095 -1.5351901453434817e-06 3.9393196964520414e-07 -0.029187006568548227 2.6255775025344394e-07 5.6788874906048928e-08 -4.9237590276600402e-06 -9.5993999338170865e-07 1.5549201814739327e-09 -7.7333402548308655e-06 -1.5351901453434817e-06 3.9393196964520414e-07 -0.029187006568548227 -7.1633536860006133e-07 -1.1907485619001028e-07 -6.1669868537524008e-06 2.6255775025344394e-07 5.6788874906048928e-08 -4.9237590276600402e-06 2.6285343120517876e-07 -2.8150944187083359e-07 -5.4059750492107291e-06 -1.5351901453434817e-06 3.9393196964520414e-07 -0.029187006568548227 -6.9396802080705879e-07 3.7899307946767212e-07 -0.042350590920845282 2.6255775025344394e-07 5.6788874906048928e-08 -4.9237590276600402e-06 2.0822891451958903e-07 -5.5299303535825051e-11 -8.5010714907282988e-06 -1.1090668213202049e-07 1.1501261410544547e-07 -6.2179918858885161e-06 -6.9396802080705879e-07 3.7899307946767212e-07 -0.042350590920845282 2.6255775025344394e-07 5.6788874906048928e-08 -4.9237590276600402e-06 -1.1090668213202049e-07 1.1501261410544547e-07 -6.2179918858885161e-06 2.6285343120517876e-07 -2.8150944187083359e-07 -5.4059750492107291e-06 -6.9396802080705879e-07 3.7899307946767212e-07 -0.042350590920845282 2.08228914519589e-07 -5.529930353581654e-11 -8.5010714907298336e-06 2.6255775025344389e-07 5.6788874906048915e-08 -4.9237590276606068e-06 -2.4259826060808691e-06 -1.2379690124091318e-07 -0.04589315938362095 -6.9396802080705879e-07 3.7899307946767212e-07 -0.042350590920845282 -2.4259826060808691e-06 -1.2379690124091318e-07 -0.04589315938362095 -1.5351901453434817e-06 3.9393196964520414e-07 -0.029187006568548227 -1.4818811298588124e-06 5.7026482363992942e-07 -0.064694647875689376 -6.9396802080705869e-07 3.7899307946767196e-07 -0.042350590920845282 -1.6250547533700238e-06 1.0985624591888276e-06 -0.035335343561512286 -1.4818811298588124e-06 5.7026482363992942e-07 -0.064694647875689376 -1.5351901453434817e-06 3.9393196964520414e-07 -0.029187006568548227 -6.9396802080705879e-07 3.7899307946767212e-07 -0.042350590920845282 -2.4259826060808691e-06 -1.2379690124091318e-07 -0.04589315938362095 2.6255775025344394e-07 5.6788874906048928e-08 -4.9237590276600402e-06 -1.5351901453434817e-06 3.9393196964520414e-07 -0.029187006568548227 -6.9396802080705879e-07 3.7899307946767218e-07 -0.042350590920845296 -1.7879555561625242e-06 -2.0031189921196934e-07 -0.086305432420556286 -7.0300616239810389e-07 2.5936240161175381e-07 -0.065459204618210032 -1.7963410941371675e-06 4.3439888086420817e-07 -0.096834932874743901 -8.367662471483226e-07 -8.5966934153781985e-08 -0.11356349935481509 -1.7879555561625242e-06 -2.0031189921196934e-07 -0.086305432420556286 -2.4259826060808691e-06 -1.2379690124091318e-07 -0.04589315938362095 -1.7963410941371675e-06 4.3439888086420817e-07 -0.096834932874743901 -7.0300616239810389e-07 2.5936240161175381e-07 -0.065459204618210032 -8.3676624714832281e-07 -8.5966934153781919e-08 -0.11356349935481508 -9.565538493838773e-07 9.7284563201267285e-07 -0.086869136001384642 -1.7963410941371677e-06 4.3439888086420811e-07 -0.096834932874743887 -1.0430846505848811e-06 1.0162707339455907e-06 -0.13749253292993868 -1.7963410941371675e-06 4.3439888086420817e-07 -0.096834932874743901 -8.3676624714832271e-07 -8.5966934153782038e-08 -0.11356349935481509 -7.03006162398104e-07 2.593624016117536e-07 -0.065459204618210018 -9.5655384938387709e-07 9.7284563201267327e-07 -0.08686913600138467 -1.4818811298588124e-06 5.7026482363992942e-07 -0.064694647875689376 -1.7963410941371675e-06 4.3439888086420817e-07 -0.096834932874743901 -7.0300616239810379e-07 2.5936240161175392e-07 -0.065459204618210018 -9.565538493838773e-07 9.7284563201267285e-07 -0.086869136001384642 -2.4259826060808691e-06 -1.2379690124091318e-07 -0.04589315938362095 -1.4818811298588124e-06 5.7026482363992942e-07 -0.064694647875689376 -1.7963410941371675e-06 4.3439888086420817e-07 -0.096834932874743901 -7.0300616239810389e-07 2.5936240161175381e-07 -0.065459204618210032 -1.4818811298588124e-06 5.7026482363992942e-07 -0.064694647875689376 -9.5655384938387709e-07 9.7284563201267306e-07 -0.086869136001384628 -7.0300616239810389e-07 2.5936240161175381e-07 -0.065459204618210032 -6.9396802080705879e-07 3.7899307946767223e-07 -0.042350590920845289 -1.7879555561625242e-06 -2.0031189921196934e-07 -0.086305432420556286 -1.7963410941371675e-06 4.3439888086420817e-07 -0.096834932874743901 -6.0747646535356592e-07 -6.4488800062169868e-08 -0.11250765485392443 -8.367662471483225e-07 -8.5966934153781919e-08 -0.11356349935481508 -1.4818811298588124e-06 5.7026482363992942e-07 -0.064694647875689376 -2.1447826988564459e-06 1.0824821021230812e-06 -0.11483101382096721 -1.7963410941371675e-06 4.3439888086420817e-07 -0.096834932874743901 -9.565538493838773e-07 9.7284563201267285e-07 -0.086869136001384642 -1.3634682568172165e-06 1.1381325498609567e-06 -0.069975310539544755 -9.565538493838773e-07 9.7284563201267285e-07 -0.086869136001384642 -1.4818811298588122e-06 5.7026482363992931e-07 -0.064694647875689362 -6.9396802080705879e-07 3.7899307946767212e-07 -0.042350590920845282 -1.3634682568172165e-06 1.1381325498609567e-06 -0.069975310539544755 -2.1447826988564459e-06 1.0824821021230812e-06 -0.11483101382096721 -1.4818811298588124e-06 5.7026482363992942e-07 -0.064694647875689376 -9.565538493838773e-07 9.7284563201267285e-07 -0.086869136001384642 -1.3634682568172165e-06 1.1381325498609567e-06 -0.069975310539544755 -1.2073181796928088e-06 1.1678907018999675e-06 -0.070221600253354929 -9.565538493838773e-07 9.7284563201267264e-07 -0.086869136001384642 -6.9396802080705879e-07 3.7899307946767212e-07 -0.042350590920845275 -6.3254051042536382e-07 1.4826190538445581e-06 -0.0646947230803782 -9.565538493838773e-07 9.7284563201267306e-07 -0.086869136001384642 -1.2073181796928088e-06 1.1678907018999678e-06 -0.070221600253354943 -6.9396802080705879e-07 3.7899307946767228e-07 -0.042350590920845275 -1.0688332475138657e-06 2.1075437629513606e-06 -0.11018423174631628 -2.1447826988564464e-06 1.082482102123081e-06 -0.11483101382096723 -9.565538493838773e-07 9.7284563201267264e-07 -0.086869136001384628 -1.0430846505848816e-06 1.0162707339455907e-06 -0.13749253292993868 -1.3634682568172165e-06 1.1381325498609567e-06 -0.069975310539544755 -1.9768428880328018e-06 1.9389084194650642e-06 -0.090007727968619777 -2.1447826988564459e-06 1.0824821021230812e-06 -0.11483101382096722 -9.565538493838773e-07 9.7284563201267285e-07 -0.086869136001384642 -2.1447826988564459e-06 1.0824821021230812e-06 -0.11483101382096721 -1.7963410941371675e-06 4.3439888086420817e-07 -0.096834932874743901 -9.565538493838773e-07 9.7284563201267285e-07 -0.086869136001384642 -1.0430846505848811e-06 1.0162707339455907e-06 -0.13749253292993868 -1.9768428880328018e-06 1.9389084194650642e-06 -0.090007727968619777 -1.0688332475138657e-06 2.1075437629513606e-06 -0.11018423174631628 -1.9292813609047934e-06 1.9976937430219676e-06 -0.13500781298076106 -2.1447826988564459e-06 1.0824821021230812e-06 -0.11483101382096721 -1.0688332475138657e-06 2.1075437629513606e-06 -0.11018423174631628 -2.1447826988564459e-06 1.0824821021230812e-06 -0.11483101382096722 -1.9768428880328018e-06 1.9389084194650642e-06 -0.090007727968619777 -9.565538493838773e-07 9.7284563201267285e-07 -0.086869136001384642 -1.0688332475138657e-06 2.1075437629513606e-06 -0.11018423174631628 -1.9768428880328018e-06 1.9389084194650642e-06 -0.090007727968619777 -1.2073181796928088e-06 1.1678907018999678e-06 -0.070221600253354943 -9.565538493838773e-07 9.7284563201267285e-07 -0.086869136001384642 -6.3254051042536382e-07 1.4826190538445581e-06 -0.0646947230803782 -1.0688332475138657e-06 2.1075437629513606e-06 -0.11018423174631628 -1.2073181796928088e-06 1.1678907018999678e-06 -0.070221600253354943 -9.565538493838773e-07 9.7284563201267285e-07 -0.086869136001384642 -1.3634682568172165e-06 1.1381325498609567e-06 -0.069975310539544755 -1.2073181796928088e-06 1.1678907018999678e-06 -0.070221600253354943 -1.9768428880328018e-06 1.9389084194650642e-06 -0.090007727968619777 -9.5655384938387773e-07 9.7284563201267306e-07 -0.086869136001384656 -1.3634682568172165e-06 1.1381325498609567e-06 -0.069975310539544755 -1.5082590701292856e-06 1.6632914651193178e-06 -0.045007742159625601 -1.9768428880328018e-06 1.9389084194650642e-06 -0.090007727968619777 -1.2073181796928088e-06 1.1678907018999678e-06 -0.070221600253354943 -6.3254051042536382e-07 1.4826190538445581e-06 -0.0646947230803782 -1.04975009263861e-06 1.6284160064601074e-06 -0.037600910777665461 -2.8849621667255502e-07 1.6187816587829263e-06 -0.029640173337197234 -6.9396802080705879e-07 3.7899307946767212e-07 -0.042350590920845282 -1.6250547533700238e-06 1.0985624591888276e-06 -0.035335343561512286 -1.04975009263861e-06 1.6284160064601074e-06 -0.037600910777665461 -1.3634682568172165e-06 1.1381325498609567e-06 -0.069975310539544755 -6.9396802080705879e-07 3.7899307946767212e-07 -0.042350590920845282 -1.04975009263861e-06 1.6284160064601074e-06 -0.037600910777665461 -6.3254051042536382e-07 1.4826190538445581e-06 -0.0646947230803782 -1.2073181796928088e-06 1.1678907018999678e-06 -0.070221600253354943 -6.9396802080705879e-07 3.7899307946767212e-07 -0.042350590920845282 -1.3634682568172165e-06 1.1381325498609567e-06 -0.069975310539544755 -1.04975009263861e-06 1.6284160064601076e-06 -0.037600910777665461 -1.2073181796928088e-06 1.1678907018999678e-06 -0.070221600253354943 -6.9396802080705869e-07 3.7899307946767175e-07 -0.042350590920845296 -2.8849621667255502e-07 1.6187816587829263e-06 -0.029640173337197234 -1.04975009263861e-06 1.6284160064601074e-06 -0.037600910777665461 2.6285343120517891e-07 -2.8150944187083375e-07 -5.4059750492018717e-06 -6.93968020807059e-07 3.7899307946767233e-07 -0.042350590920845289 -1.6250547533700238e-06 1.0985624591888276e-06 -0.035335343561512286 -1.0714616078467026e-06 1.1626874113526334e-06 -9.308348762606329e-06 -1.5082590701292854e-06 1.6632914651193176e-06 -0.045007742159625608 -1.04975009263861e-06 1.6284160064601074e-06 -0.037600910777665461 -5.1600919470828628e-08 -2.7175572469340245e-07 -5.4758534832556823e-06 -2.8849621667255502e-07 1.6187816587829263e-06 -0.029640173337197234 2.6285343120517876e-07 -2.8150944187083359e-07 -5.4059750492107291e-06 -6.9396802080705879e-07 3.7899307946767212e-07 -0.042350590920845282 -1.04975009263861e-06 1.6284160064601074e-06 -0.037600910777665461 -1.5082590701292854e-06 1.6632914651193176e-06 -0.045007742159625608 -1.3634682568172165e-06 1.1381325498609567e-06 -0.069975310539544755 -1.2073181796928088e-06 1.1678907018999678e-06 -0.070221600253354943 -1.6250547533700238e-06 1.0985624591888276e-06 -0.035335343561512286 2.6285343120517865e-07 -2.8150944187083354e-07 -5.4059750492099812e-06 -1.04975009263861e-06 1.6284160064601074e-06 -0.037600910777665461 -6.9396802080705879e-07 3.7899307946767212e-07 -0.042350590920845282 -1.5082590701292854e-06 1.6632914651193176e-06 -0.045007742159625608 -1.6250547533700238e-06 1.0985624591888276e-06 -0.035335343561512286 -1.04975009263861e-06 1.6284160064601074e-06 -0.037600910777665461 -1.3634682568172165e-06 1.1381325498609567e-06 -0.069975310539544755 -1.0714616078467026e-06 1.1626874113526334e-06 -9.308348762606329e-06 -1.6250547533700238e-06 1.0985624591888276e-06 -0.035335343561512286 2.6285343120517876e-07 -2.8150944187083359e-07 -5.4059750492107291e-06 -1.04975009263861e-06 1.6284160064601074e-06 -0.037600910777665461 -1.5351901453434817e-06 3.9393196964520414e-07 -0.029187006568548227 2.6255775025344394e-07 5.6788874906048928e-08 -4.9237590276600402e-06 -7.1633536860006154e-07 -1.1907485619001026e-07 -6.1669868537557017e-06 2.6285343120517876e-07 -2.8150944187083359e-07 -5.4059750492107291e-06 -7.1633536860006133e-07 -1.1907485619001028e-07 -6.1669868537524008e-06 -1.0714616078467026e-06 1.1626874113526334e-06 -9.308348762606329e-06 -1.6250547533700238e-06 1.0985624591888276e-06 -0.035335343561512286 2.6285343120517876e-07 -2.8150944187083359e-07 -5.4059750492107291e-06 -1.6250547533700238e-06 1.0985624591888276e-06 -0.035335343561512286 -1.5351901453434817e-06 3.9393196964520408e-07 -0.029187006568548231 2.6285343120517876e-07 -2.8150944187083359e-07 -5.4059750492107291e-06 -6.9396802080705879e-07 3.7899307946767212e-07 -0.042350590920845282 -1.5351901453434817e-06 3.9393196964520414e-07 -0.029187006568548227 -7.1633536860006133e-07 -1.1907485619001028e-07 -6.1669868537524008e-06 -1.6250547533700238e-06 1.0985624591888276e-06 -0.035335343561512286 2.6285343120517876e-07 -2.8150944187083359e-07 -5.4059750492107291e-06 -1.6250547533700238e-06 1.0985624591888276e-06 -0.035335343561512286 -1.3634682568172165e-06 1.1381325498609567e-06 -0.069975310539544755 -1.4818811298588124e-06 5.7026482363992942e-07 -0.064694647875689376 -6.9396802080705879e-07 3.7899307946767212e-07 -0.042350590920845282 -5.1600919470828628e-08 -2.7175572469340245e-07 -5.4758534832556823e-06 2.6285343120517886e-07 -2.8150944187083364e-07 -5.4059750492065803e-06 -1.1090668213202049e-07 1.1501261410544547e-07 -6.2179918858885161e-06 -6.9396802080705879e-07 3.7899307946767212e-07 -0.042350590920845282 2.6285343120517876e-07 -2.8150944187083359e-07 -5.4059750492107291e-06 -2.8849621667255539e-07 1.6187816587829266e-06 -0.029640173337197241 1.0835833322024046e-07 7.4757432033088756e-07 -5.9348103946576556e-06 -1.04975009263861e-06 1.6284160064601074e-06 -0.037600910777665461 2.6285343120517876e-07 -2.8150944187083359e-07 -5.4059750492107291e-06 -1.071461607846703e-06 1.1626874113526337e-06 -9.3083487626102321e-06 -1.04975009263861e-06 1.6284160064601074e-06 -0.037600910777665461 1.0835833322024046e-07 7.4757432033088756e-07 -5.9348103946576556e-06 -2.8849621667255502e-07 1.6187816587829263e-06 -0.029640173337197234 2.6285343120517876e-07 -2.8150944187083359e-07 -5.4059750492107291e-06 1.0835833322024045e-07 7.4757432033088767e-07 -5.9348103946588372e-06 -5.1600919470828628e-08 -2.7175572469340245e-07 -5.4758534832556823e-06 -5.1600919470828628e-08 -2.7175572469340245e-07 -5.4758534832556823e-06 -1.1090668213202049e-07 1.1501261410544547e-07 -6.2179918858885161e-06 -2.0705804656709677e-08 9.6445986032095234e-07 -0.062167379013275181 -6.9396802080705879e-07 3.7899307946767212e-07 -0.042350590920845282 -6.3254051042536382e-07 1.4826190538445581e-06 -0.0646947230803782 -2.8849621667255502e-07 1.6187816587829263e-06 -0.029640173337197234 -2.0705804656709677e-08 9.6445986032095234e-07 -0.062167379013275181 -6.9396802080705879e-07 3.7899307946767212e-07 -0.042350590920845282 -5.1600919470828628e-08 -2.7175572469340245e-07 -5.4758534832556823e-06 -2.0705804656709707e-08 9.6445986032095255e-07 -0.062167379013275188 -2.8849621667255502e-07 1.6187816587829263e-06 -0.029640173337197234 -6.9396802080705879e-07 3.7899307946767212e-07 -0.042350590920845282 -5.1600919470828628e-08 -2.7175572469340245e-07 -5.4758534832556823e-06 1.1353829115252078e-07 2.3819502689413012e-06 -0.045893443915219753 -2.8849621667255502e-07 1.6187816587829263e-06 -0.029640173337197231 -2.0705804656709677e-08 9.6445986032095234e-07 -0.062167379013275181 -5.1600919470828628e-08 -2.7175572469340245e-07 -5.4758534832556823e-06 6.8466918610224475e-12 -2.0964518389264151e-07 -8.3824109698244848e-06 1.1353829115252075e-07 2.3819502689413008e-06 -0.045893443915219753 -2.0705804656709677e-08 9.6445986032095234e-07 -0.062167379013275181 -5.1600919470828628e-08 -2.7175572469340245e-07 -5.4758534832556823e-06 -1.1090668213202049e-07 1.1501261410544547e-07 -6.2179918858885161e-06 6.8466918610224475e-12 -2.0964518389264151e-07 -8.3824109698244848e-06 -2.0705804656709677e-08 9.6445986032095234e-07 -0.062167379013275181 -1.5107097932099717e-09 9.9117677121055952e-07 -7.9939094316804883e-06 -5.1600919470828595e-08 -2.7175572469340234e-07 -5.4758534832545854e-06 -2.8849621667255502e-07 1.6187816587829263e-06 -0.029640173337197234 1.0835833322024046e-07 7.4757432033088756e-07 -5.9348103946576556e-06 -1.5107097932099717e-09 9.9117677121055952e-07 -7.9939094316804883e-06 -5.1600919470828634e-08 -2.7175572469340255e-07 -5.475853483253768e-06 6.8466918610224475e-12 -2.0964518389264151e-07 -8.3824109698244848e-06 1.1353829115252078e-07 2.3819502689413012e-06 -0.045893443915219753 -5.1600919470828628e-08 -2.7175572469340245e-07 -5.4758534832556823e-06 -1.5107097932099771e-09 9.9117677121055952e-07 -7.9939094316852605e-06 -2.8849621667255507e-07 1.6187816587829266e-06 -0.029640173337197238 1.1353829115252078e-07 2.3819502689413012e-06 -0.045893443915219753 -6.3254051042536382e-07 1.4826190538445581e-06 -0.0646947230803782 -2.8849621667255502e-07 1.6187816587829263e-06 -0.029640173337197234 1.1353829115252078e-07 2.3819502689413012e-06 -0.045893443915219753 -2.0705804656709677e-08 9.6445986032095234e-07 -0.062167379013275181 -6.3254051042536382e-07 1.4826190538445581e-06 -0.0646947230803782 -2.0705804656709677e-08 9.6445986032095234e-07 -0.062167379013275181 -2.1431205913469023e-07 1.7464461820971493e-06 -0.086182151307495777 -9.565538493838773e-07 9.7284563201267285e-07 -0.086869136001384642 -6.3254051042536382e-07 1.4826190538445581e-06 -0.0646947230803782 1.1353829115252078e-07 2.3819502689413012e-06 -0.045893443915219753 -2.1431205913469023e-07 1.7464461820971493e-06 -0.086182151307495777 -2.0705804656709677e-08 9.6445986032095234e-07 -0.062167379013275181 -6.3254051042536382e-07 1.4826190538445581e-06 -0.0646947230803782 -2.0705804656709677e-08 9.6445986032095234e-07 -0.062167379013275181 -9.565538493838773e-07 9.7284563201267306e-07 -0.086869136001384642 -6.9396802080705858e-07 3.7899307946767196e-07 -0.042350590920845269 -2.1431205913469023e-07 1.7464461820971493e-06 -0.086182151307495777 -2.0705804656709585e-08 9.6445986032095234e-07 -0.062167379013275181 -2.0473406890131902e-07 7.3344753205184666e-07 -0.11630640651542712 -9.565538493838773e-07 9.7284563201267306e-07 -0.086869136001384656 -2.1431205913469023e-07 1.7464461820971493e-06 -0.086182151307495777 -2.0473406890131902e-07 7.3344753205184677e-07 -0.11630640651542709 -4.735334037608845e-07 1.7801820730798888e-06 -0.12818034135432485 -9.565538493838773e-07 9.7284563201267285e-07 -0.086869136001384642 -2.1431205913469023e-07 1.7464461820971493e-06 -0.086182151307495777 -4.735334037608845e-07 1.7801820730798888e-06 -0.12818034135432485 -1.0688332475138657e-06 2.1075437629513606e-06 -0.11018423174631628 -9.565538493838773e-07 9.7284563201267285e-07 -0.086869136001384642 -1.0688332475138657e-06 2.1075437629513606e-06 -0.11018423174631628 -6.3254051042536382e-07 1.4826190538445581e-06 -0.0646947230803782 -2.1431205913469023e-07 1.7464461820971493e-06 -0.086182151307495777 -9.565538493838773e-07 9.7284563201267285e-07 -0.086869136001384642 -2.1431205913469023e-07 1.7464461820971493e-06 -0.086182151307495777 -1.5784179923889863e-07 4.7898444584462155e-07 -0.11250777092154464 -4.735334037608845e-07 1.7801820730798888e-06 -0.12818034135432485 -2.0473406890131907e-07 7.3344753205184656e-07 -0.11630640651542708 -2.1431205913469023e-07 1.7464461820971493e-06 -0.086182151307495777 -1.5784179923889863e-07 4.7898444584462155e-07 -0.11250777092154464 -2.0473406890131928e-07 7.3344753205184793e-07 -0.1163064065154271 -2.0705804656709677e-08 9.6445986032095234e-07 -0.062167379013275181 2.4766520408687589e-08 -2.8604385142180839e-08 -0.11250737590774498 -2.0473406890131912e-07 7.3344753205184709e-07 -0.1163064065154271 -7.0300616239810389e-07 2.5936240161175381e-07 -0.065459204618210018 -8.3676624714832281e-07 -8.5966934153781919e-08 -0.11356349935481508 -7.0300616239810389e-07 2.5936240161175381e-07 -0.065459204618210032 -9.565538493838773e-07 9.7284563201267264e-07 -0.086869136001384642 -2.0705804656709737e-08 9.6445986032095213e-07 -0.062167379013275181 -6.9396802080705879e-07 3.7899307946767212e-07 -0.042350590920845282 2.4766520408687589e-08 -2.8604385142180839e-08 -0.11250737590774498 -7.0300616239810389e-07 2.5936240161175381e-07 -0.065459204618210032 -2.0473406890131936e-07 7.3344753205184687e-07 -0.1163064065154271 -2.0705804656709677e-08 9.6445986032095234e-07 -0.062167379013275181 -2.0473406890131912e-07 7.3344753205184687e-07 -0.11630640651542709 -2.0705804656709677e-08 9.6445986032095234e-07 -0.062167379013275181 -7.0300616239810389e-07 2.5936240161175381e-07 -0.065459204618210032 -9.565538493838773e-07 9.7284563201267285e-07 -0.086869136001384642 2.4766520408687589e-08 -2.8604385142180839e-08 -0.11250737590774498 1.9737886053809477e-11 2.1593026900763409e-08 -0.055160151058131754 -7.0300616239810379e-07 2.5936240161175376e-07 -0.065459204618210018 -2.0705804656709677e-08 9.6445986032095234e-07 -0.062167379013275181 -7.0300616239810389e-07 2.5936240161175381e-07 -0.065459204618210032 -8.3676624714832281e-07 -8.5966934153781919e-08 -0.11356349935481508 -2.0473406890131912e-07 7.3344753205184687e-07 -0.11630640651542709 -9.5655384938387709e-07 9.7284563201267264e-07 -0.086869136001384642 -1.1090668213202049e-07 1.1501261410544547e-07 -6.2179918858885161e-06 -7.0300616239810368e-07 2.5936240161175397e-07 -0.065459204618210018 -1.6422411136083706e-08 1.5860007184956027e-08 -7.0289596901631056e-06 -2.0705804656709863e-08 9.6445986032095192e-07 -0.062167379013275181 -1.6422411136083676e-08 1.586000718495605e-08 -7.028959690163042e-06 -7.0300616239810379e-07 2.5936240161175376e-07 -0.065459204618210018 -1.565984833470821e-08 -1.5817412781005327e-08 -7.42150033135152e-06 1.9737886053931202e-11 2.1593026900763442e-08 -0.055160151058131754 -7.0300616239810389e-07 2.5936240161175381e-07 -0.065459204618210032 -2.0705804656709753e-08 9.6445986032095213e-07 -0.062167379013275181 -1.1090668213202061e-07 1.1501261410544558e-07 -6.2179918858984594e-06 -6.9396802080705879e-07 3.7899307946767212e-07 -0.042350590920845282 2.08228914519589e-07 -5.529930353581654e-11 -8.5010714907298336e-06 -1.6422411136083673e-08 1.5860007184956056e-08 -7.0289596901621713e-06 -1.1090668213202049e-07 1.1501261410544547e-07 -6.2179918858885161e-06 -7.0300616239810389e-07 2.5936240161175381e-07 -0.065459204618210032 -1.1090668213202049e-07 1.1501261410544547e-07 -6.2179918858885161e-06 -1.6422411136083667e-08 1.5860007184956099e-08 -7.0289596901651808e-06 6.8466918610224475e-12 -2.0964518389264151e-07 -8.3824109698244848e-06 -2.0705804656709674e-08 9.6445986032095213e-07 -0.062167379013275167 2.08228914519589e-07 -5.529930353581654e-11 -8.5010714907298336e-06 -1.5659848334708186e-08 -1.5817412781005337e-08 -7.4215003313516547e-06 -1.6422411136083716e-08 1.586000718495606e-08 -7.0289596901657254e-06 -7.0300616239810389e-07 2.5936240161175381e-07 -0.065459204618210032 -1.6422411136083676e-08 1.586000718495605e-08 -7.028959690163042e-06 -7.0300616239810379e-07 2.5936240161175376e-07 -0.065459204618210018 1.9737886054019578e-11 2.1593026900763554e-08 -0.055160151058131754 -2.0705804656709535e-08 9.6445986032095255e-07 -0.062167379013275188 -1.6422411136083676e-08 1.586000718495605e-08 -7.028959690163042e-06 -1.5659848334708186e-08 -1.5817412781005337e-08 -7.4215003313516547e-06 1.3971513634021444e-10 9.214832732350298e-11 -2.115746088060129e-06 1.9737886053931202e-11 2.1593026900763442e-08 -0.055160151058131754 1.6349152756132487e-08 1.5981235644746982e-08 -6.9302504994440821e-06 -2.0965299839358876e-07 1.4411364857211485e-09 -8.6271102403973777e-06 5.6933496659846011e-07 4.934859199797686e-07 -0.071117429320817535 9.9076822050684379e-07 -5.1479713819732603e-09 -0.078343150827848554 1.6349152756132487e-08 1.5981235644746982e-08 -6.9302504994440821e-06 1.9737886053826894e-11 2.159302690076363e-08 -0.055160151058131761 5.6933496659846021e-07 4.934859199797686e-07 -0.071117429320817535 -2.0705804656709813e-08 9.6445986032095213e-07 -0.062167379013275188 -1.6422411136083676e-08 1.586000718495605e-08 -7.028959690163042e-06 1.3971513634021444e-10 9.214832732350298e-11 -2.115746088060129e-06 1.6349152756132487e-08 1.5981235644746982e-08 -6.9302504994440821e-06 1.9737886053931202e-11 2.1593026900763442e-08 -0.055160151058131754 1.6349152756132487e-08 1.5981235644746982e-08 -6.9302504994440821e-06 5.693349665984599e-07 4.9348591997976902e-07 -0.071117429320817549 6.8466918610224475e-12 -2.0964518389264151e-07 -8.3824109698244848e-06 -2.0705804656709677e-08 9.6445986032095234e-07 -0.062167379013275181 1.6349152756132487e-08 1.5981235644746982e-08 -6.9302504994440821e-06 5.693349665984599e-07 4.934859199797687e-07 -0.071117429320817535 1.9737886053931202e-11 2.1593026900763442e-08 -0.055160151058131754 9.9076822050684337e-07 -5.1479713819729353e-09 -0.078343150827848554 6.8466918610224475e-12 -2.0964518389264151e-07 -8.3824109698244848e-06 1.6349152756132487e-08 1.5981235644746982e-08 -6.9302504994440821e-06 1.1150271732064907e-07 1.1136359937539667e-07 -6.5221534439198505e-06 5.6933496659846011e-07 4.934859199797686e-07 -0.071117429320817535 -1.6422411136083676e-08 1.586000718495605e-08 -7.028959690163042e-06 1.6349152756132487e-08 1.5981235644746982e-08 -6.9302504994440821e-06 6.8466918610224475e-12 -2.0964518389264151e-07 -8.3824109698244848e-06 -2.0705804656709681e-08 9.6445986032095255e-07 -0.062167379013275195 1.6349152756132487e-08 1.5981235644746982e-08 -6.9302504994440821e-06 -2.0965299839358876e-07 1.4411364857211485e-09 -8.6271102403973777e-06 1.1150271732064907e-07 1.1136359937539667e-07 -6.5221534439198505e-06 5.6933496659846011e-07 4.934859199797686e-07 -0.071117429320817535 -1.6422411136083676e-08 1.586000718495605e-08 -7.028959690163042e-06 1.9737886053931202e-11 2.1593026900763442e-08 -0.055160151058131754 1.6349152756132487e-08 1.5981235644746982e-08 -6.9302504994440821e-06 -2.0705804656709677e-08 9.6445986032095234e-07 -0.062167379013275188 5.6933496659846011e-07 4.934859199797686e-07 -0.071117429320817535 8.5184772985528248e-07 6.36197110668918e-08 -0.13122680368518996 2.4766520408687589e-08 -2.8604385142180839e-08 -0.11250737590774498 9.9076822050684337e-07 -5.1479713819727376e-09 -0.078343150827848568 8.5184772985528248e-07 6.361971106689188e-08 -0.13122680368518996 9.9076822050684315e-07 -5.1479713819727177e-09 -0.078343150827848568 5.6933496659846011e-07 4.934859199797686e-07 -0.071117429320817535 1.0120020271845211e-06 9.1729334065965155e-07 -0.12106967681622172 5.6933496659846011e-07 4.934859199797686e-07 -0.071117429320817535 -2.0473406890131907e-07 7.3344753205184698e-07 -0.1163064065154271 2.4766520408687582e-08 -2.8604385142180842e-08 -0.11250737590774498 1.0120020271845211e-06 9.1729334065965155e-07 -0.12106967681622172 2.4766520408687589e-08 -2.8604385142180839e-08 -0.11250737590774498 -2.0473406890131907e-07 7.3344753205184687e-07 -0.1163064065154271 5.6933496659846e-07 4.934859199797686e-07 -0.071117429320817535 -2.0705804656709677e-08 9.6445986032095234e-07 -0.062167379013275181 2.4766520408687589e-08 -2.8604385142180839e-08 -0.11250737590774498 5.6933496659846e-07 4.9348591997976881e-07 -0.071117429320817549 1.9737886053889065e-11 2.1593026900763478e-08 -0.055160151058131747 -2.0705804656709677e-08 9.6445986032095234e-07 -0.062167379013275181 2.4766520408687589e-08 -2.8604385142180839e-08 -0.11250737590774498 8.5184772985528248e-07 6.3619711066891906e-08 -0.13122680368518996 5.6933496659846011e-07 4.9348591997976891e-07 -0.071117429320817549 1.0120020271845211e-06 9.1729334065965218e-07 -0.12106967681622173 5.6933496659846011e-07 4.934859199797686e-07 -0.071117429320817535 2.4766520408687407e-08 -2.8604385142180932e-08 -0.11250737590774498 1.9737886053991237e-11 2.1593026900763495e-08 -0.055160151058131768 9.9076822050684337e-07 -5.1479713819727376e-09 -0.078343150827848568 3.5358859421163448e-07 1.7331601878364913e-06 -0.095229053596919258 -2.0473406890131912e-07 7.3344753205184687e-07 -0.11630640651542709 5.6933496659846011e-07 4.9348591997976838e-07 -0.071117429320817521 1.0120020271845209e-06 9.1729334065965155e-07 -0.1210696768162217 5.6933496659846011e-07 4.934859199797686e-07 -0.071117429320817535 -2.0473406890131915e-07 7.3344753205184698e-07 -0.11630640651542708 3.5358859421163453e-07 1.7331601878364915e-06 -0.095229053596919272 -2.0705804656709717e-08 9.6445986032095213e-07 -0.062167379013275181 6.0483940663623135e-07 1.5411400121023326e-06 -0.064694504149067147 3.5358859421163448e-07 1.7331601878364913e-06 -0.095229053596919258 1.1353829115252078e-07 2.3819502689413012e-06 -0.045893443915219753 -2.0705804656709677e-08 9.6445986032095234e-07 -0.062167379013275181 6.0483940663623135e-07 1.5411400121023326e-06 -0.064694504149067147 5.6933496659846011e-07 4.9348591997976891e-07 -0.071117429320817521 3.5358859421163448e-07 1.7331601878364913e-06 -0.095229053596919258 -2.0705804656709677e-08 9.6445986032095234e-07 -0.062167379013275181 3.5358859421163448e-07 1.7331601878364913e-06 -0.095229053596919258 5.693349665984599e-07 4.9348591997976838e-07 -0.071117429320817521 6.0483940663623135e-07 1.5411400121023326e-06 -0.064694504149067147 1.0120020271845209e-06 9.1729334065965165e-07 -0.12106967681622172 6.0483940663623135e-07 1.5411400121023326e-06 -0.064694504149067147 3.6804407747044196e-07 1.5321480641801732e-06 -0.029186788197080302 5.6933496659846011e-07 4.934859199797686e-07 -0.071117429320817521 -2.0705804656709677e-08 9.6445986032095234e-07 -0.062167379013275181 1.0803781251911112e-06 2.1924556078653722e-06 -0.11483093926902764 3.5358859421163448e-07 1.7331601878364913e-06 -0.095229053596919258 6.0483940663623135e-07 1.5411400121023326e-06 -0.064694504149067147 1.0120020271845211e-06 9.1729334065965155e-07 -0.12106967681622172 3.5358859421163448e-07 1.7331601878364913e-06 -0.095229053596919258 -2.0473406890131912e-07 7.3344753205184687e-07 -0.11630640651542709 -1.5784179923889863e-07 4.7898444584462155e-07 -0.11250777092154464 -2.0705804656709677e-08 9.6445986032095234e-07 -0.062167379013275181 -2.1431205913469023e-07 1.7464461820971493e-06 -0.086182151307495777 3.5358859421163448e-07 1.7331601878364913e-06 -0.095229053596919258 -1.5784179923889863e-07 4.7898444584462155e-07 -0.11250777092154464 -2.0705804656709677e-08 9.6445986032095234e-07 -0.062167379013275181 -2.1431205913469023e-07 1.7464461820971493e-06 -0.086182151307495777 1.1353829115252078e-07 2.3819502689413012e-06 -0.045893443915219753 3.5358859421163448e-07 1.7331601878364913e-06 -0.095229053596919258 -2.0705804656709677e-08 9.6445986032095234e-07 -0.062167379013275181 -2.6278070835392774e-07 -2.6275836249287311e-07 -5.3363155997567532e-06 5.1255761876188244e-08 -2.6408504701880007e-07 -4.9646836398747942e-06 1.1150271732064907e-07 1.1136359937539667e-07 -6.5221534439198505e-06 5.6933496659846011e-07 4.934859199797686e-07 -0.071117429320817535 6.0483940663623135e-07 1.5411400121023326e-06 -0.064694504149067147 3.6804407747044202e-07 1.5321480641801732e-06 -0.029186788197080302 1.0407288586416022e-06 1.6168170056280318e-06 -0.035335107595211947 5.6933496659846e-07 4.934859199797686e-07 -0.071117429320817521 5.1255761876188244e-08 -2.6408504701880007e-07 -4.9646836398747942e-06 3.6804407747044191e-07 1.5321480641801736e-06 -0.029186788197080295 1.1353829115252085e-07 2.3819502689413008e-06 -0.045893443915219753 -2.0705804656709793e-08 9.6445986032095234e-07 -0.062167379013275167 6.8466918610224475e-12 -2.0964518389264151e-07 -8.3824109698244848e-06 5.6933496659845969e-07 4.9348591997976912e-07 -0.071117429320817549 5.1255761876188171e-08 -2.6408504701880001e-07 -4.9646836398755641e-06 -2.0705804656709376e-08 9.6445986032095192e-07 -0.062167379013275188 6.8466918610224475e-12 -2.0964518389264151e-07 -8.3824109698244848e-06 1.1150271732064908e-07 1.1136359937539675e-07 -6.5221534439191762e-06 5.1255761876188237e-08 -2.6408504701880007e-07 -4.9646836398741767e-06 5.6933496659846011e-07 4.934859199797686e-07 -0.071117429320817535 6.0483940663623135e-07 1.5411400121023326e-06 -0.064694504149067147 1.1353829115252083e-07 2.3819502689413008e-06 -0.045893443915219753 3.6804407747044196e-07 1.5321480641801732e-06 -0.029186788197080302 -2.0705804656709677e-08 9.6445986032095234e-07 -0.062167379013275181 6.8466918610224475e-12 -2.0964518389264151e-07 -8.3824109698244848e-06 5.1255761876188251e-08 -2.6408504701880001e-07 -4.964683639874817e-06 1.1353829115252078e-07 2.3819502689413012e-06 -0.045893443915219753 -2.0705804656709677e-08 9.6445986032095234e-07 -0.062167379013275181 5.1255761876188244e-08 -2.6408504701880007e-07 -4.9646836398747942e-06 5.6933496659846011e-07 4.9348591997976838e-07 -0.071117429320817535 3.6804407747044196e-07 1.5321480641801732e-06 -0.029186788197080298 -2.0705804656709869e-08 9.6445986032095192e-07 -0.062167379013275174 -2.6278070835392774e-07 -2.6275836249287311e-07 -5.3363155997567532e-06 3.6804407747044191e-07 1.5321480641801732e-06 -0.029186788197080295 5.1255761876188244e-08 -2.6408504701880007e-07 -4.9646836398746696e-06 5.6933496659846e-07 4.9348591997976785e-07 -0.071117429320817521 -1.5107097932099717e-09 9.9117677121055952e-07 -7.9939094316804883e-06 6.8466918610224475e-12 -2.0964518389264151e-07 -8.3824109698244848e-06 1.6522704707716982e-09 9.6694591458434253e-07 -7.8448792665193091e-06 1.1353829115252078e-07 2.3819502689413012e-06 -0.045893443915219753 1.6522704707716982e-09 9.6694591458434253e-07 -7.8448792665193091e-06 6.8466918610224475e-12 -2.0964518389264151e-07 -8.3824109698244848e-06 5.1255761876188244e-08 -2.6408504701880007e-07 -4.9646836398747942e-06 1.1353829115252078e-07 2.3819502689413012e-06 -0.045893443915219753 1.6522704707716982e-09 9.6694591458434253e-07 -7.8448792665193091e-06 5.1255761876188244e-08 -2.6408504701880007e-07 -4.9646836398747942e-06 3.6804407747044196e-07 1.5321480641801732e-06 -0.029186788197080302 1.1353829115252078e-07 2.3819502689413012e-06 -0.045893443915219753 -1.0836562169653031e-07 7.1721775382126029e-07 -5.9724000908221817e-06 1.6522704707716982e-09 9.6694591458434253e-07 -7.8448792665193091e-06 5.1255761876188244e-08 -2.6408504701880007e-07 -4.9646836398747942e-06 3.6804407747044196e-07 1.5321480641801732e-06 -0.029186788197080302 1.6167800085178838e-06 1.0214742137091949e-06 -0.035335247418276698 1.1190038831051731e-06 1.3441078907731638e-06 -0.069975015636690299 1.0407288586416022e-06 1.6168170056280318e-06 -0.035335107595211947 5.6933496659846032e-07 4.934859199797687e-07 -0.071117429320817549 1.6167800085178838e-06 1.0214742137091949e-06 -0.035335247418276698 -2.6278070835392753e-07 -2.6275836249287301e-07 -5.3363155997625037e-06 1.5321831577957531e-06 3.0375520856969461e-07 -0.029187082577802208 5.6933496659846e-07 4.9348591997976838e-07 -0.071117429320817521 1.6167800085178838e-06 1.0214742137091949e-06 -0.035335247418276698 1.0407288586416022e-06 1.6168170056280318e-06 -0.035335107595211947 -2.627807083539278e-07 -2.6275836249287316e-07 -5.336315599757696e-06 5.6933496659846011e-07 4.934859199797686e-07 -0.071117429320817521 -2.6278070835392774e-07 -2.6275836249287311e-07 -5.3363155997567532e-06 1.0407288586416022e-06 1.6168170056280318e-06 -0.035335107595211947 3.6804407747044186e-07 1.5321480641801734e-06 -0.029186788197080298 5.6933496659846053e-07 4.9348591997976838e-07 -0.071117429320817549 -2.6278070835392774e-07 -2.6275836249287311e-07 -5.3363155997567532e-06 -1.0836562169653031e-07 7.1721775382126029e-07 -5.9724000908221817e-06 5.1255761876188244e-08 -2.6408504701880007e-07 -4.9646836398747942e-06 3.6804407747044196e-07 1.5321480641801732e-06 -0.029186788197080302 -1.0836562169653031e-07 7.1721775382126029e-07 -5.9724000908221817e-06 -2.6278070835392774e-07 -2.6275836249287306e-07 -5.3363155997569404e-06 1.0407288586416022e-06 1.6168170056280318e-06 -0.035335107595211947 3.6804407747044196e-07 1.5321480641801732e-06 -0.029186788197080302 -2.6278070835392774e-07 -2.6275836249287311e-07 -5.3363155997567532e-06 1.0718779256994437e-06 1.0718669797808234e-06 -9.1651552669307173e-06 -1.0836562169653031e-07 7.1721775382126029e-07 -5.9724000908221817e-06 1.0407288586416022e-06 1.6168170056280318e-06 -0.035335107595211947 -2.6278070835392774e-07 -2.6275836249287311e-07 -5.3363155997567532e-06 7.1722659407665617e-07 -1.0825825531820582e-07 -5.8979255984852285e-06 1.5321831577957531e-06 3.0375520856969461e-07 -0.029187082577802208 -2.6400789241336163e-07 5.1279251990930355e-08 -5.4446524801822215e-06 1.6167800085178838e-06 1.0214742137091949e-06 -0.035335247418276698 1.0718779256994439e-06 1.0718669797808236e-06 -9.1651552669324859e-06 7.1722659407665617e-07 -1.0825825531820582e-07 -5.8979255984852285e-06 -2.6278070835392764e-07 -2.6275836249287311e-07 -5.3363155997528314e-06 7.1722659407665617e-07 -1.0825825531820582e-07 -5.8979255984852285e-06 1.6167800085178838e-06 1.0214742137091949e-06 -0.035335247418276698 -2.6278070835392774e-07 -2.6275836249287311e-07 -5.3363155997567532e-06 1.5321831577957531e-06 3.0375520856969461e-07 -0.029187082577802208 1.6167800085178838e-06 1.0214742137091949e-06 -0.035335247418276698 1.0718779256994439e-06 1.0718669797808236e-06 -9.1651552669324859e-06 -2.6278070835392748e-07 -2.6275836249287279e-07 -5.3363155997606758e-06 1.0407288586416022e-06 1.6168170056280318e-06 -0.035335107595211947 1.1190038831051731e-06 1.3441078907731638e-06 -0.069975015636690299 1.6167800085178838e-06 1.0214742137091949e-06 -0.035335247418276698 1.5195101026817008e-06 1.5194652187827405e-06 -0.045007556327979259 1.344057000181761e-06 1.0882145354646727e-06 -0.069975093201659039 1.0718779256994439e-06 1.0718669797808236e-06 -9.1651552669324859e-06 1.6167800085178838e-06 1.0214742137091949e-06 -0.035335247418276698 1.5195101026817008e-06 1.5194652187827405e-06 -0.045007556327979259 1.0407288586416022e-06 1.6168170056280318e-06 -0.035335107595211947 1.6167800085178838e-06 1.0214742137091949e-06 -0.035335247418276698 1.1190038831051731e-06 1.3441078907731638e-06 -0.069975015636690299 1.5195101026817008e-06 1.5194652187827405e-06 -0.045007556327979259 1.0407288586416022e-06 1.6168170056280318e-06 -0.035335107595211947 6.0483940663623135e-07 1.5411400121023326e-06 -0.064694504149067147 1.1190038831051731e-06 1.3441078907731638e-06 -0.069975015636690299 1.0803781251911112e-06 2.1924556078653722e-06 -0.11483093926902764 1.0120020271845211e-06 9.1729334065965155e-07 -0.12106967681622172 1.9644027722722538e-06 1.964339010954838e-06 -0.090007674710414973 1.344057000181761e-06 1.0882145354646724e-06 -0.069975093201659039 1.1190038831051731e-06 1.3441078907731638e-06 -0.069975015636690299 1.5195101026817008e-06 1.5194652187827405e-06 -0.045007556327979259 1.1190038831051731e-06 1.3441078907731638e-06 -0.069975015636690299 5.6933496659846021e-07 4.9348591997976881e-07 -0.071117429320817549 1.344057000181761e-06 1.0882145354646727e-06 -0.069975093201659039 1.0120020271845211e-06 9.1729334065965155e-07 -0.12106967681622172 1.5412560369053289e-06 5.7393587295649207e-07 -0.064694752728358562 1.344057000181761e-06 1.0882145354646727e-06 -0.069975093201659039 5.6933496659846011e-07 4.934859199797686e-07 -0.071117429320817535 1.0120020271845211e-06 9.1729334065965155e-07 -0.12106967681622173 2.1924062950024132e-06 1.1932612233139819e-06 -0.11483096715198765 1.1190038831051733e-06 1.3441078907731641e-06 -0.069975015636690313 1.344057000181761e-06 1.0882145354646727e-06 -0.069975093201659039 1.0120020271845211e-06 9.1729334065965155e-07 -0.12106967681622172 1.5412560369053289e-06 5.7393587295649207e-07 -0.064694752728358562 2.1924062950024132e-06 1.1932612233139819e-06 -0.11483096715198765 1.344057000181761e-06 1.0882145354646727e-06 -0.069975093201659039 1.0120020271845205e-06 9.1729334065965144e-07 -0.1210696768162217 6.0483940663623135e-07 1.5411400121023326e-06 -0.064694504149067147 5.6933496659846011e-07 4.9348591997976891e-07 -0.071117429320817563 1.1190038831051731e-06 1.3441078907731638e-06 -0.069975015636690299 1.0120020271845211e-06 9.1729334065965155e-07 -0.12106967681622172 6.0483940663623135e-07 1.5411400121023326e-06 -0.064694504149067147 1.0407288586416022e-06 1.6168170056280318e-06 -0.035335107595211947 1.1190038831051731e-06 1.3441078907731638e-06 -0.069975015636690299 5.6933496659846e-07 4.934859199797686e-07 -0.071117429320817521 1.0803781251911112e-06 2.1924556078653722e-06 -0.11483093926902764 1.1190038831051731e-06 1.3441078907731638e-06 -0.069975015636690299 2.1924062950024132e-06 1.1932612233139819e-06 -0.11483096715198765 1.0120020271845211e-06 9.1729334065965155e-07 -0.12106967681622172 1.6167800085178838e-06 1.0214742137091949e-06 -0.035335247418276698 1.5412560369053289e-06 5.7393587295649207e-07 -0.064694752728358562 1.344057000181761e-06 1.0882145354646727e-06 -0.069975093201659039 5.6933496659846021e-07 4.9348591997976881e-07 -0.071117429320817535 1.6167800085178838e-06 1.0214742137091949e-06 -0.035335247418276698 1.344057000181761e-06 1.0882145354646727e-06 -0.069975093201659039 1.1190038831051731e-06 1.3441078907731638e-06 -0.069975015636690299 5.6933496659846032e-07 4.9348591997976881e-07 -0.071117429320817535 2.1924062950024132e-06 1.1932612233139819e-06 -0.11483096715198765 1.0803781251911114e-06 2.1924556078653731e-06 -0.11483093926902765 1.9644027722722538e-06 1.964339010954838e-06 -0.090007674710414973 1.1190038831051731e-06 1.3441078907731638e-06 -0.069975015636690299 2.1924062950024132e-06 1.1932612233139819e-06 -0.11483096715198765 1.9644027722722538e-06 1.964339010954838e-06 -0.090007674710414973 1.344057000181761e-06 1.0882145354646727e-06 -0.069975093201659039 1.1190038831051731e-06 1.3441078907731638e-06 -0.069975015636690299 1.7332579571572305e-06 4.3408559540617014e-07 -0.095229126536803724 5.6933496659846e-07 4.9348591997976849e-07 -0.071117429320817521 9.9076822050684337e-07 -5.1479713819727748e-09 -0.078343150827848568 1.0120020271845213e-06 9.1729334065965144e-07 -0.12106967681622172 1.7332579571572305e-06 4.3408559540617014e-07 -0.095229126536803724 9.9076822050684337e-07 -5.1479713819730362e-09 -0.078343150827848582 8.5184772985528238e-07 6.3619711066891814e-08 -0.13122680368518994 1.0120020271845211e-06 9.1729334065965112e-07 -0.12106967681622172 1.5412560369053289e-06 5.7393587295649207e-07 -0.064694752728358562 5.6933496659846011e-07 4.934859199797686e-07 -0.071117429320817535 1.7332579571572305e-06 4.3408559540617003e-07 -0.095229126536803724 1.0120020271845213e-06 9.1729334065965186e-07 -0.12106967681622173 1.5412560369053289e-06 5.7393587295649207e-07 -0.064694752728358562 2.3816285138685732e-06 -1.2333034557731258e-07 -0.045893317521383606 1.7332579571572305e-06 4.3408559540617014e-07 -0.095229126536803724 9.90768220506844e-07 -5.1479713819727988e-09 -0.078343150827848554 2.1924062950024132e-06 1.1932612233139819e-06 -0.11483096715198765 1.5412560369053289e-06 5.7393587295649207e-07 -0.064694752728358562 1.7332579571572305e-06 4.3408559540617014e-07 -0.095229126536803724 1.0120020271845209e-06 9.1729334065965144e-07 -0.1210696768162217 1.5412560369053289e-06 5.7393587295649207e-07 -0.064694752728358562 1.7332579571572305e-06 4.3408559540617014e-07 -0.09522912653680371 5.6933496659846011e-07 4.934859199797686e-07 -0.071117429320817535 9.9076822050684315e-07 -5.1479713819725308e-09 -0.078343150827848582 1.5412560369053289e-06 5.7393587295649207e-07 -0.064694752728358562 5.6933496659846011e-07 4.934859199797686e-07 -0.071117429320817535 2.3816285138685732e-06 -1.2333034557731247e-07 -0.04589331752138362 9.9076822050684442e-07 -5.1479713819729104e-09 -0.078343150827848526 1.7332579571572305e-06 4.3408559540617014e-07 -0.095229126536803724 1.7466844018638125e-06 -1.738455811745562e-07 -0.086182033084373291 4.7895878933984888e-07 -1.3902183485017784e-07 -0.11250770360087488 9.9076822050684337e-07 -5.1479713819727376e-09 -0.078343150827848568 1.7332579571572305e-06 4.3408559540617014e-07 -0.095229126536803724 4.7895878933984888e-07 -1.3902183485017784e-07 -0.11250770360087488 8.5184772985528238e-07 6.3619711066891827e-08 -0.13122680368518996 9.9076822050684358e-07 -5.1479713819725291e-09 -0.078343150827848568 1.7332579571572305e-06 4.3408559540617014e-07 -0.095229126536803724 2.3816285138685732e-06 -1.2333034557731258e-07 -0.045893317521383613 1.7466844018638125e-06 -1.738455811745562e-07 -0.086182033084373291 9.9076822050684337e-07 -5.1479713819727376e-09 -0.078343150827848568 2.3816285138685732e-06 -1.2333034557731258e-07 -0.045893317521383606 1.5321831577957531e-06 3.0375520856969461e-07 -0.029187082577802205 -2.6400789241336163e-07 5.1279251990930355e-08 -5.4446524801822215e-06 5.6933496659846021e-07 4.934859199797687e-07 -0.071117429320817549 2.3816285138685732e-06 -1.2333034557731258e-07 -0.045893317521383606 1.5412560369053289e-06 5.7393587295649207e-07 -0.064694752728358562 1.5321831577957531e-06 3.0375520856969461e-07 -0.029187082577802208 5.6933496659846e-07 4.934859199797686e-07 -0.071117429320817535 1.1150271732064907e-07 1.1136359937539667e-07 -6.5221534439198505e-06 -2.0965299839358876e-07 1.4411364857211485e-09 -8.6271102403973777e-06 -2.6400789241336163e-07 5.1279251990930355e-08 -5.4446524801822215e-06 5.6933496659846011e-07 4.934859199797686e-07 -0.071117429320817535 1.1150271732064907e-07 1.1136359937539667e-07 -6.5221534439198505e-06 -2.6400789241336163e-07 5.1279251990930355e-08 -5.4446524801825307e-06 -2.6278070835392774e-07 -2.6275836249287311e-07 -5.3363155997567532e-06 5.6933496659846011e-07 4.934859199797686e-07 -0.071117429320817535 1.6167800085178838e-06 1.0214742137091949e-06 -0.035335247418276698 1.5321831577957531e-06 3.0375520856969461e-07 -0.029187082577802208 1.5412560369053289e-06 5.7393587295649207e-07 -0.064694752728358562 5.6933496659846064e-07 4.934859199797686e-07 -0.071117429320817549 -2.6278070835392774e-07 -2.6275836249287311e-07 -5.3363155997567532e-06 -2.6400789241336163e-07 5.1279251990930355e-08 -5.4446524801822215e-06 1.5321831577957531e-06 3.0375520856969461e-07 -0.029187082577802208 5.6933496659846011e-07 4.934859199797686e-07 -0.071117429320817535 2.3816285138685732e-06 -1.2333034557731258e-07 -0.045893317521383606 5.6933496659846011e-07 4.9348591997976881e-07 -0.071117429320817535 -2.0965299839358857e-07 1.4411364857211592e-09 -8.6271102403971897e-06 9.9076822050684337e-07 -5.1479713819727318e-09 -0.078343150827848568 2.3816285138685732e-06 -1.2333034557731258e-07 -0.045893317521383606 -2.6400789241336131e-07 5.1279251990930355e-08 -5.4446524801893781e-06 -2.0965299839358884e-07 1.4411364857211557e-09 -8.627110240398611e-06 5.6933496659846021e-07 4.934859199797687e-07 -0.071117429320817549 1.5321831577957531e-06 3.0375520856969461e-07 -0.029187082577802208 7.1722659407665617e-07 -1.0825825531820582e-07 -5.8979255984852285e-06 9.6694579485539941e-07 1.0460499355560936e-09 -7.9437576967772704e-06 -2.6400789241336163e-07 5.1279251990930355e-08 -5.4446524801822215e-06 2.3816285138685732e-06 -1.2333034557731258e-07 -0.045893317521383606 9.6694579485539941e-07 1.0460499355560936e-09 -7.9437576967772704e-06 9.9143491181304538e-07 -1.3164888737293678e-09 -7.7059478667604247e-06 -2.0965299839358876e-07 1.4411364857211485e-09 -8.6271102403973777e-06 2.3816285138685732e-06 -1.2333034557731258e-07 -0.045893317521383606 1.5321831577957531e-06 3.0375520856969461e-07 -0.029187082577802208 9.6694579485539941e-07 1.0460499355560936e-09 -7.9437576967772704e-06 -2.6400789241336163e-07 5.1279251990930355e-08 -5.4446524801822215e-06 9.6694579485539941e-07 1.0460499355560936e-09 -7.9437576967772704e-06 2.3816285138685732e-06 -1.2333034557731258e-07 -0.045893317521383606 -2.6400789241336163e-07 5.1279251990930355e-08 -5.4446524801822215e-06 -2.0965299839358876e-07 1.4411364857211485e-09 -8.6271102403973777e-06 2.3816285138685732e-06 -1.2333034557731258e-07 -0.045893317521383606 9.9076822050684337e-07 -5.147971381972697e-09 -0.078343150827848582 -2.0965299839358881e-07 1.4411364857211487e-09 -8.6271102403940743e-06 6.3688810106357853e-07 -2.4455641937065552e-07 -0.046033282304531742 2.3816285138685732e-06 -1.2333034557731258e-07 -0.045893317521383606 9.9143491181304538e-07 -1.3164888737293678e-09 -7.7059478667604247e-06 1.6189002423177419e-06 -1.2884301714612181e-07 -0.029640074706383229 -2.0965299839358876e-07 1.4411364857211485e-09 -8.6271102403973777e-06 9.9143491181304538e-07 -1.3164888737293678e-09 -7.7059478667604247e-06 -2.7207483998654039e-07 -5.7682384223666941e-08 -4.8858645587909344e-06 1.6189002423177419e-06 -1.2884301714612181e-07 -0.029640074706383229 -2.0965299839358876e-07 1.4411364857211485e-09 -8.6271102403973777e-06 1.6189002423177419e-06 -1.2884301714612181e-07 -0.029640074706383229 2.3816285138685732e-06 -1.2333034557731258e-07 -0.045893317521383606 -2.0965299839358865e-07 1.4411364857211594e-09 -8.6271102403958124e-06 6.3688810106357896e-07 -2.4455641937065563e-07 -0.046033282304531742 1.6189002423177419e-06 -1.2884301714612181e-07 -0.029640074706383229 1.4824594926493514e-06 -5.5805087844364114e-07 -0.064694654731114437 2.3816285138685732e-06 -1.2333034557731258e-07 -0.045893317521383606 6.3688810106357885e-07 -2.4455641937065563e-07 -0.046033282304531742 1.6189002423177419e-06 -1.2884301714612181e-07 -0.029640074706383229 1.6285964643137137e-06 -9.5020743832153583e-07 -0.037600926861414481 1.4824594926493514e-06 -5.5805087844364114e-07 -0.064694654731114437 6.3688810106357885e-07 -2.4455641937065563e-07 -0.046033282304531742 -2.7207483998654039e-07 -5.7682384223666941e-08 -4.8858645587909344e-06 1.6285964643137133e-06 -9.5020743832153615e-07 -0.037600926861414467 1.6189002423177414e-06 -1.2884301714612204e-07 -0.029640074706383222 6.3688810106357885e-07 -2.4455641937065563e-07 -0.046033282304531742 -2.0965299839358876e-07 1.4411364857211485e-09 -8.6271102403973777e-06 1.1524275586432149e-07 -1.1558122107232797e-07 -6.285990427178639e-06 -2.7207483998654039e-07 -5.7682384223666941e-08 -4.8858645587909344e-06 6.3688810106357885e-07 -2.4455641937065563e-07 -0.046033282304531742 -2.7207483998654039e-07 -5.7682384223666941e-08 -4.8858645587909344e-06 1.6189002423177414e-06 -1.2884301714612181e-07 -0.029640074706383225 -2.0965299839358876e-07 1.4411364857211485e-09 -8.6271102403973777e-06 6.3688810106357885e-07 -2.4455641937065563e-07 -0.046033282304531742 1.1524275586432149e-07 -1.1558122107232797e-07 -6.285990427178639e-06 -2.8140274459452678e-07 2.8607067447699414e-07 -5.4081259236514201e-06 -2.7207483998654039e-07 -5.7682384223666941e-08 -4.8858645587909344e-06 6.3688810106357874e-07 -2.4455641937065558e-07 -0.046033282304531735 -2.7207483998654039e-07 -5.7682384223666941e-08 -4.8858645587909344e-06 9.9143491181304538e-07 -1.3164888737293678e-09 -7.7059478667604247e-06 1.6189002423177416e-06 -1.2884301714612173e-07 -0.029640074706383215 7.4746070389770405e-07 1.1744078203206843e-07 -6.1863126448979338e-06 1.6285964643137137e-06 -9.5020743832153583e-07 -0.037600926861414474 1.0955215059370773e-06 -1.639321639974729e-06 -0.037600901766762028 1.1679899337141893e-06 -1.0353424404472218e-06 -0.070221626408612389 6.3688810106357896e-07 -2.4455641937065568e-07 -0.046033282304531742 -2.8140274459452678e-07 2.8607067447699414e-07 -5.4081259236514201e-06 2.9770132641452677e-07 -1.4927146811741615e-06 -0.029819352926484837 1.0955215059370773e-06 -1.639321639974729e-06 -0.037600901766762028 6.3688810106357853e-07 -2.4455641937065552e-07 -0.046033282304531735 1.6285964643137137e-06 -9.5020743832153583e-07 -0.037600926861414474 1.1626606916518953e-06 -1.160573541058858e-06 -9.2906611543477385e-06 -2.8140274459452678e-07 2.8607067447699414e-07 -5.4081259236514201e-06 7.4746070389770405e-07 1.1744078203206843e-07 -6.1863126448979338e-06 6.2002839720709837e-07 -1.4517630552878226e-06 -0.064694727805285623 1.0979236175555108e-06 -1.2846415764345942e-06 -0.070428333021431103 1.0955215059370773e-06 -1.639321639974729e-06 -0.037600901766762028 6.3688810106357885e-07 -2.4455641937065563e-07 -0.046033282304531742 5.6560239462595184e-08 2.7044540927296977e-07 -5.3846003997851736e-06 2.9770132641452656e-07 -1.4927146811741615e-06 -0.02981935292648483 -2.8140274459452689e-07 2.8607067447699409e-07 -5.4081259236493677e-06 6.3688810106357885e-07 -2.4455641937065563e-07 -0.046033282304531742 -2.7207483998654039e-07 -5.7682384223666941e-08 -4.8858645587909344e-06 1.6285964643137137e-06 -9.5020743832153583e-07 -0.037600926861414474 -2.8140274459452678e-07 2.8607067447699414e-07 -5.4081259236514201e-06 7.4746070389770405e-07 1.1744078203206843e-07 -6.1863126448979338e-06 1.6285964643137137e-06 -9.5020743832153583e-07 -0.037600926861414474 -2.8140274459452683e-07 2.8607067447699409e-07 -5.4081259236514531e-06 1.0955215059370773e-06 -1.639321639974729e-06 -0.037600901766762028 6.3688810106357896e-07 -2.4455641937065568e-07 -0.046033282304531742 6.2002839720709837e-07 -1.4517630552878226e-06 -0.064694727805285623 1.0955215059370775e-06 -1.639321639974729e-06 -0.037600901766762028 2.9770132641452656e-07 -1.4927146811741615e-06 -0.02981935292648483 6.3688810106357885e-07 -2.4455641937065563e-07 -0.046033282304531742 1.1679899337141893e-06 -1.0353424404472218e-06 -0.070221626408612389 1.0955215059370773e-06 -1.6393216399747293e-06 -0.037600901766762014 1.0979236175555106e-06 -1.284641576434594e-06 -0.070428333021431103 6.3688810106357885e-07 -2.4455641937065563e-07 -0.046033282304531742 -2.7207483998654039e-07 -5.7682384223666941e-08 -4.8858645587909344e-06 1.6189002423177416e-06 -1.288430171461222e-07 -0.029640074706383229 1.6285964643137137e-06 -9.5020743832153583e-07 -0.037600926861414474 7.4746070389770405e-07 1.1744078203206843e-07 -6.1863126448979338e-06 1.6285964643137137e-06 -9.5020743832153583e-07 -0.037600926861414474 1.1679899337141893e-06 -1.0353424404472218e-06 -0.070221626408612389 1.4824594926493514e-06 -5.5805087844364114e-07 -0.064694654731114437 6.3688810106357885e-07 -2.4455641937065563e-07 -0.046033282304531742 1.1679899337141893e-06 -1.0353424404472218e-06 -0.070221626408612389 1.6631138305634901e-06 -1.6147997739529537e-06 -0.045007735071497378 1.0979236175555108e-06 -1.2846415764345942e-06 -0.070428333021431103 1.0955215059370773e-06 -1.6393216399747293e-06 -0.037600901766762028 1.6631138305634901e-06 -1.6147997739529537e-06 -0.045007735071497378 1.6285964643137137e-06 -9.5020743832153583e-07 -0.037600926861414474 1.1626606916518953e-06 -1.160573541058858e-06 -9.2906611543479672e-06 1.0955215059370773e-06 -1.639321639974729e-06 -0.037600901766762028 1.6631138305634901e-06 -1.6147997739529537e-06 -0.045007735071497378 1.1679899337141893e-06 -1.0353424404472218e-06 -0.070221626408612389 1.6285964643137137e-06 -9.5020743832153583e-07 -0.037600926861414474 1.0955215059370773e-06 -1.639321639974729e-06 -0.037600901766762028 1.1626606916518953e-06 -1.160573541058858e-06 -9.2906611543477385e-06 1.6285964643137135e-06 -9.5020743832153583e-07 -0.037600926861414474 -2.8140274459452678e-07 2.8607067447699414e-07 -5.4081259236514201e-06 1.0955215059370773e-06 -1.639321639974729e-06 -0.037600901766762028 2.9770132641452656e-07 -1.4927146811741615e-06 -0.02981935292648483 5.6560239462595197e-08 2.7044540927297004e-07 -5.3846003997760604e-06 -2.8140274459452678e-07 2.8607067447699414e-07 -5.4081259236514201e-06 -1.1905982992077127e-07 -7.7306709204331537e-07 -5.9817924894378383e-06 -2.8140274459452678e-07 2.8607067447699414e-07 -5.4081259236514201e-06 1.1626606916518951e-06 -1.160573541058858e-06 -9.2906611543453736e-06 1.0955215059370773e-06 -1.639321639974729e-06 -0.037600901766762028 -1.1905982992077127e-07 -7.7306709204331537e-07 -5.9817924894378383e-06 2.9770132641452656e-07 -1.4927146811741615e-06 -0.02981935292648483 -2.8140274459452678e-07 2.8607067447699414e-07 -5.4081259236517496e-06 1.0955215059370773e-06 -1.639321639974729e-06 -0.037600901766762028 -1.1905982992077127e-07 -7.7306709204331537e-07 -5.9817924894378383e-06 5.6560239462595184e-08 2.7044540927296977e-07 -5.3846003997851736e-06 -2.8140274459452678e-07 2.8607067447699414e-07 -5.4081259236514201e-06 1.1524275586432149e-07 -1.1558122107232797e-07 -6.285990427178639e-06 6.3688810106357885e-07 -2.4455641937065563e-07 -0.046033282304531742 -2.7207483998654039e-07 -5.7682384223666941e-08 -4.8858645587909344e-06 -2.8140274459452678e-07 2.8607067447699414e-07 -5.4081259236514201e-06 1.6285964643137137e-06 -9.5020743832153583e-07 -0.037600926861414474 6.3688810106357885e-07 -2.4455641937065563e-07 -0.046033282304531742 5.6560239462595184e-08 2.7044540927296977e-07 -5.3846003997851736e-06 2.0328949827532459e-07 -6.8846666517796464e-07 -0.066363563835468403 2.9770132641452656e-07 -1.4927146811741615e-06 -0.02981935292648483 6.3688810106357885e-07 -2.4455641937065563e-07 -0.046033282304531742 5.6560239462595184e-08 2.7044540927296977e-07 -5.3846003997851736e-06 -1.4873193523003209e-07 -2.3682850484688067e-06 -0.04589327790257277 2.9770132641452656e-07 -1.4927146811741615e-06 -0.02981935292648483 2.0328949827532459e-07 -6.8846666517796464e-07 -0.066363563835468403 1.1524275586432149e-07 -1.1558122107232797e-07 -6.285990427178639e-06 -3.254046810836415e-10 2.0914835553013572e-07 -8.8082577350706033e-06 5.6560239462595184e-08 2.7044540927296977e-07 -5.3846003997851736e-06 2.0328949827532459e-07 -6.8846666517796464e-07 -0.066363563835468403 6.2002839720709837e-07 -1.4517630552878226e-06 -0.064694727805285623 2.9770132641452656e-07 -1.4927146811741615e-06 -0.02981935292648483 2.032894982753248e-07 -6.8846666517796464e-07 -0.066363563835468403 6.3688810106357885e-07 -2.4455641937065563e-07 -0.046033282304531742 -3.2540468108364429e-10 2.0914835553013575e-07 -8.8082577350679555e-06 -1.487319352300324e-07 -2.3682850484688076e-06 -0.04589327790257277 5.6560239462595184e-08 2.7044540927296977e-07 -5.3846003997851736e-06 2.0328949827532459e-07 -6.8846666517796464e-07 -0.066363563835468403 2.9770132641452656e-07 -1.4927146811741615e-06 -0.02981935292648483 -1.487319352300324e-07 -2.3682850484688076e-06 -0.04589327790257277 6.2002839720709837e-07 -1.4517630552878226e-06 -0.064694727805285623 2.0328949827532459e-07 -6.8846666517796464e-07 -0.066363563835468403 1.6971311895538738e-09 -9.6222839755602765e-07 -7.9076054456413831e-06 5.6560239462595197e-08 2.7044540927296977e-07 -5.3846003997866466e-06 2.9770132641452656e-07 -1.4927146811741615e-06 -0.02981935292648483 -1.1905982992077127e-07 -7.7306709204331537e-07 -5.9817924894378383e-06 -3.2540468108364429e-10 2.0914835553013575e-07 -8.8082577350679555e-06 1.6971311895538738e-09 -9.6222839755602765e-07 -7.9076054456413831e-06 5.6560239462595184e-08 2.7044540927296977e-07 -5.3846003997851736e-06 -1.487319352300324e-07 -2.3682850484688076e-06 -0.04589327790257277 5.6560239462595184e-08 2.7044540927296977e-07 -5.3846003997851736e-06 1.6971311895538747e-09 -9.6222839755602765e-07 -7.9076054456460317e-06 2.9770132641452656e-07 -1.4927146811741615e-06 -0.02981935292648483 -1.4873193523003222e-07 -2.3682850484688076e-06 -0.045893277902572756 1.5686957438091349e-08 -1.5858432917165056e-08 -7.3730241147481202e-06 2.0328949827532514e-07 -6.8846666517796411e-07 -0.066363563835468417 1.1524275586432149e-07 -1.1558122107232797e-07 -6.285990427178639e-06 6.368881010635779e-07 -2.4455641937065642e-07 -0.046033282304531735 9.9076822050684337e-07 -5.1479713819727376e-09 -0.078343150827848568 6.3688810106357874e-07 -2.4455641937065558e-07 -0.046033282304531742 1.634915275613244e-08 1.5981235644746999e-08 -6.9302504994406897e-06 -2.0965299839358908e-07 1.4411364857212742e-09 -8.6271102403893394e-06 1.5686957438091349e-08 -1.5858432917165056e-08 -7.3730241147481202e-06 1.9737886053931202e-11 2.1593026900763442e-08 -0.055160151058131754 2.0328949827532477e-07 -6.8846666517796453e-07 -0.066363563835468389 6.3688810106357843e-07 -2.4455641937065637e-07 -0.046033282304531749 1.5686957438091349e-08 -1.5858432917165056e-08 -7.3730241147481202e-06 6.3688810106357874e-07 -2.4455641937065558e-07 -0.046033282304531742 1.6349152756132487e-08 1.5981235644746982e-08 -6.9302504994440821e-06 1.9737886053931202e-11 2.1593026900763442e-08 -0.055160151058131754 9.9076822050684337e-07 -5.1479713819727376e-09 -0.078343150827848568 1.6349152756132708e-08 1.5981235644747045e-08 -6.9302504994317035e-06 6.3688810106357885e-07 -2.4455641937065563e-07 -0.046033282304531742 1.9737886054135432e-11 2.1593026900763445e-08 -0.055160151058131754 1.5686957438091349e-08 -1.5858432917165056e-08 -7.3730241147481202e-06 -3.2540468108364429e-10 2.0914835553013575e-07 -8.8082577350679555e-06 1.1524275586432149e-07 -1.1558122107232799e-07 -6.2859904271799629e-06 2.0328949827532459e-07 -6.8846666517796464e-07 -0.066363563835468403 1.5686957438091349e-08 -1.5858432917165056e-08 -7.3730241147481202e-06 1.6349152756132377e-08 1.5981235644746999e-08 -6.9302504994394844e-06 6.3688810106357853e-07 -2.4455641937065552e-07 -0.046033282304531728 -2.0965299839358876e-07 1.4411364857211485e-09 -8.6271102403973777e-06 5.6560239462595184e-08 2.7044540927296977e-07 -5.3846003997851736e-06 1.1524275586432154e-07 -1.1558122107232792e-07 -6.2859904271820398e-06 2.0328949827532451e-07 -6.8846666517796464e-07 -0.066363563835468389 6.3688810106357885e-07 -2.4455641937065563e-07 -0.046033282304531742 1.5686957438091349e-08 -1.5858432917165056e-08 -7.3730241147481202e-06 -3.2540468108364429e-10 2.0914835553013575e-07 -8.8082577350679555e-06 2.0328949827532459e-07 -6.8846666517796464e-07 -0.066363563835468403 -2.6068319892437725e-10 -7.5913391295975403e-07 -0.044493327485174108 1.5686957438091349e-08 -1.5858432917165056e-08 -7.3730241147481202e-06 2.0328949827532459e-07 -6.8846666517796464e-07 -0.066363563835468403 1.9737886053931202e-11 2.1593026900763442e-08 -0.055160151058131754 -2.6068319892437725e-10 -7.5913391295975403e-07 -0.044493327485174108 1.5686957438091349e-08 -1.5858432917165056e-08 -7.3730241147481202e-06 1.6349152756132487e-08 1.5981235644746982e-08 -6.9302504994440821e-06 1.3971513634021444e-10 9.214832732350298e-11 -2.115746088060129e-06 1.9737886053931202e-11 2.1593026900763442e-08 -0.055160151058131754 1.5686957438091349e-08 -1.5858432917165056e-08 -7.3730241147481202e-06 1.1524275586432149e-07 -1.1558122107232797e-07 -6.285990427178639e-06 -2.0965299839358876e-07 1.4411364857211485e-09 -8.6271102403973777e-06 6.3688810106357864e-07 -2.4455641937065558e-07 -0.046033282304531728 2.0328949827532459e-07 -6.8846666517796464e-07 -0.066363563835468403 2.4766520408687585e-08 -2.8604385142180664e-08 -0.112507375907745 -4.1782557290060661e-08 -8.3805439703365255e-07 -0.11416303671339986 9.9256299548414598e-07 -8.7757408568120919e-07 -0.11003432602610709 1.9737886053931202e-11 2.1593026900763442e-08 -0.055160151058131754 9.9076822050684294e-07 -5.1479713819727549e-09 -0.078343150827848554 2.0328949827532451e-07 -6.8846666517796442e-07 -0.066363563835468389 6.3688810106357885e-07 -2.4455641937065563e-07 -0.046033282304531742 2.0328949827532459e-07 -6.8846666517796464e-07 -0.066363563835468403 2.4766520408687516e-08 -2.8604385142180872e-08 -0.11250737590774498 9.9256299548414598e-07 -8.7757408568120919e-07 -0.11003432602610709 9.9076822050684337e-07 -5.1479713819727376e-09 -0.078343150827848568 8.5184772985528248e-07 6.361971106689188e-08 -0.13122680368518996 9.9256299548414598e-07 -8.7757408568120919e-07 -0.11003432602610709 2.4766520408687589e-08 -2.8604385142180839e-08 -0.11250737590774498 9.9076822050684337e-07 -5.1479713819728236e-09 -0.078343150827848582 2.0328949827532459e-07 -6.8846666517796464e-07 -0.066363563835468403 9.9076822050684358e-07 -5.1479713819726317e-09 -0.078343150827848568 9.9256299548414598e-07 -8.7757408568120919e-07 -0.11003432602610709 6.3688810106357874e-07 -2.4455641937065558e-07 -0.046033282304531735 2.0328949827532459e-07 -6.8846666517796464e-07 -0.066363563835468403 1.9737886054103841e-11 2.1593026900763369e-08 -0.055160151058131754 2.4766520408687595e-08 -2.8604385142180849e-08 -0.112507375907745 9.9076822050684358e-07 -5.1479713819725829e-09 -0.078343150827848568 -1.487319352300324e-07 -2.3682850484688076e-06 -0.04589327790257277 3.9977859939976334e-07 -1.8240835949680727e-06 -0.095513505353309255 6.2002839720709837e-07 -1.4517630552878226e-06 -0.064694727805285623 2.0328949827532459e-07 -6.8846666517796464e-07 -0.066363563835468403 6.2002839720709837e-07 -1.4517630552878226e-06 -0.064694727805285623 2.0328949827532437e-07 -6.8846666517796474e-07 -0.066363563835468403 3.9977859939976328e-07 -1.8240835949680727e-06 -0.095513505353309255 9.9256299548414619e-07 -8.7757408568120908e-07 -0.11003432602610709 2.0328949827532459e-07 -6.8846666517796464e-07 -0.066363563835468403 -4.1782557290060608e-08 -8.3805439703365265e-07 -0.11416303671339988 3.9977859939976334e-07 -1.8240835949680727e-06 -0.095513505353309255 9.9256299548414598e-07 -8.7757408568120919e-07 -0.11003432602610709 6.2002839720709837e-07 -1.4517630552878226e-06 -0.064694727805285623 2.032894982753244e-07 -6.8846666517796453e-07 -0.066363563835468389 9.925629954841464e-07 -8.7757408568120929e-07 -0.1100343260261071 6.3688810106357885e-07 -2.4455641937065563e-07 -0.046033282304531742 -1.8372557285272355e-07 -1.7201407338661123e-06 -0.086193261424062376 3.9977859939976334e-07 -1.8240835949680727e-06 -0.095513505353309255 2.0328949827532461e-07 -6.8846666517796442e-07 -0.066363563835468375 -4.1782557290060608e-08 -8.3805439703365265e-07 -0.11416303671339988 -1.8372557285272355e-07 -1.7201407338661123e-06 -0.086193261424062376 3.9977859939976334e-07 -1.8240835949680727e-06 -0.095513505353309255 -1.487319352300324e-07 -2.3682850484688076e-06 -0.045893277902572763 2.0328949827532459e-07 -6.8846666517796464e-07 -0.066363563835468403 1.1355844641819841e-06 -2.2301139644872331e-06 -0.11483110637364331 6.2002839720709837e-07 -1.4517630552878226e-06 -0.064694727805285623 3.9977859939976334e-07 -1.8240835949680727e-06 -0.095513505353309255 9.9256299548414598e-07 -8.7757408568120961e-07 -0.11003432602610709 -1.8372557285272355e-07 -1.7201407338661123e-06 -0.086193261424062376 -3.7551287083214454e-08 -5.3757547439090477e-07 -0.1125077088850262 3.9977859939976334e-07 -1.8240835949680727e-06 -0.095513505353309255 -4.1782557290060608e-08 -8.3805439703365265e-07 -0.11416303671339988 6.2002839720709837e-07 -1.4517630552878226e-06 -0.064694727805285623 1.1355844641819841e-06 -2.2301139644872331e-06 -0.11483110637364331 1.0979236175555108e-06 -1.2846415764345942e-06 -0.070428333021431103 9.9256299548414598e-07 -8.7757408568120919e-07 -0.11003432602610709 6.2002839720709837e-07 -1.4517630552878226e-06 -0.064694727805285623 9.9256299548414598e-07 -8.7757408568120919e-07 -0.11003432602610709 1.0979236175555108e-06 -1.2846415764345942e-06 -0.070428333021431103 6.3688810106357885e-07 -2.4455641937065563e-07 -0.046033282304531742 1.1679899337141893e-06 -1.0353424404472218e-06 -0.070221626408612389 9.9256299548414598e-07 -8.7757408568120929e-07 -0.1100343260261071 1.4824594926493514e-06 -5.5805087844364114e-07 -0.064694654731114437 6.3688810106357874e-07 -2.4455641937065558e-07 -0.046033282304531735 1.1679899337141893e-06 -1.0353424404472218e-06 -0.070221626408612389 1.0979236175555108e-06 -1.2846415764345942e-06 -0.070428333021431103 9.9256299548414619e-07 -8.7757408568120929e-07 -0.1100343260261071 6.3688810106357885e-07 -2.4455641937065563e-07 -0.046033282304531735 1.1679899337141893e-06 -1.0353424404472218e-06 -0.070221626408612389 1.0979236175555106e-06 -1.2846415764345942e-06 -0.070428333021431103 2.1075067866291718e-06 -1.1511708150383403e-06 -0.11018431591000444 9.9256299548414598e-07 -8.7757408568120919e-07 -0.11003432602610709 1.1355844641819841e-06 -2.2301139644872331e-06 -0.11483110637364331 2.1075067866291714e-06 -1.1511708150383401e-06 -0.11018431591000442 1.0979236175555108e-06 -1.2846415764345942e-06 -0.070428333021431103 9.9256299548414619e-07 -8.775740856812095e-07 -0.11003432602610709 1.1355844641819841e-06 -2.2301139644872331e-06 -0.11483110637364331 1.9976880123391792e-06 -1.9043466416480296e-06 -0.13500788728958496 1.9389662133142815e-06 -1.9690481973258861e-06 -0.09000791839678432 2.1075067866291718e-06 -1.1511708150383403e-06 -0.11018431591000444 1.1679899337141893e-06 -1.0353424404472218e-06 -0.070221626408612389 1.0979236175555108e-06 -1.2846415764345942e-06 -0.070428333021431103 1.9389662133142815e-06 -1.9690481973258861e-06 -0.09000791839678432 2.1075067866291718e-06 -1.1511708150383403e-06 -0.11018431591000444 1.0979236175555108e-06 -1.2846415764345942e-06 -0.070428333021431103 1.1355844641819841e-06 -2.2301139644872331e-06 -0.11483110637364331 1.938966213314282e-06 -1.9690481973258865e-06 -0.09000791839678432 2.1075067866291718e-06 -1.1511708150383403e-06 -0.11018431591000444 1.6631138305634901e-06 -1.6147997739529537e-06 -0.045007735071497378 1.1679899337141893e-06 -1.0353424404472218e-06 -0.070221626408612389 1.0979236175555108e-06 -1.2846415764345942e-06 -0.070428333021431103 1.9389662133142815e-06 -1.9690481973258861e-06 -0.09000791839678432 1.1679899337141893e-06 -1.0353424404472218e-06 -0.070221626408612389 2.1075067866291718e-06 -1.1511708150383403e-06 -0.11018431591000444 1.4824594926493514e-06 -5.5805087844364114e-07 -0.064694654731114437 9.9256299548414598e-07 -8.7757408568120919e-07 -0.11003432602610709 6.3688810106357885e-07 -2.4455641937065563e-07 -0.046033282304531742 1.7466844018638125e-06 -1.738455811745562e-07 -0.086182033084373291 9.9256299548414598e-07 -8.7757408568120919e-07 -0.11003432602610709 1.4824594926493514e-06 -5.5805087844364114e-07 -0.064694654731114437 1.4824594926493514e-06 -5.5805087844364114e-07 -0.064694654731114437 2.1075067866291718e-06 -1.1511708150383403e-06 -0.11018431591000444 1.7466844018638125e-06 -1.738455811745562e-07 -0.086182033084373291 9.9256299548414598e-07 -8.7757408568120919e-07 -0.11003432602610709 1.7466844018638125e-06 -1.738455811745562e-07 -0.086182033084373291 2.1075067866291718e-06 -1.1511708150383403e-06 -0.11018431591000444 1.7800308126136401e-06 -4.3447065650858875e-07 -0.12818032648175318 9.9256299548414598e-07 -8.7757408568120919e-07 -0.11003432602610709 6.3688810106357885e-07 -2.4455641937065563e-07 -0.046033282304531742 9.9256299548414577e-07 -8.7757408568120908e-07 -0.1100343260261071 1.7466844018638125e-06 -1.738455811745562e-07 -0.086182033084373291 9.9076822050684337e-07 -5.1479713819728823e-09 -0.078343150827848568 2.3816285138685732e-06 -1.2333034557731258e-07 -0.045893317521383606 1.7466844018638122e-06 -1.7384558117455623e-07 -0.086182033084373277 9.9076822050684337e-07 -5.1479713819727376e-09 -0.078343150827848568 6.3688810106357917e-07 -2.4455641937065552e-07 -0.046033282304531749 2.3816285138685732e-06 -1.2333034557731258e-07 -0.045893317521383606 1.4824594926493514e-06 -5.5805087844364114e-07 -0.064694654731114437 1.7466844018638125e-06 -1.738455811745562e-07 -0.086182033084373291 6.3688810106357938e-07 -2.4455641937065574e-07 -0.046033282304531749 4.7895878933984888e-07 -1.3902183485017784e-07 -0.11250770360087488 9.9256299548414577e-07 -8.7757408568120887e-07 -0.11003432602610708 8.5184772985528248e-07 6.361971106689188e-08 -0.13122680368518996 9.9076822050684337e-07 -5.1479713819727376e-09 -0.078343150827848568 4.7895878933984888e-07 -1.3902183485017784e-07 -0.11250770360087488 1.7466844018638125e-06 -1.738455811745562e-07 -0.086182033084373291 9.9256299548414598e-07 -8.7757408568120897e-07 -0.11003432602610708 9.9076822050684337e-07 -5.1479713819727376e-09 -0.078343150827848568 1.7800308126136401e-06 -4.3447065650858875e-07 -0.12818032648175318 4.7895878933984888e-07 -1.3902183485017784e-07 -0.11250770360087488 1.7466844018638125e-06 -1.738455811745562e-07 -0.086182033084373291 9.9256299548414598e-07 -8.7757408568120919e-07 -0.11003432602610709 1.7800308126136401e-06 -4.3447065650858875e-07 -0.12818032648175318 8.5184772985528248e-07 6.361971106689188e-08 -0.13122680368518996 4.7895878933984888e-07 -1.3902183485017784e-07 -0.11250770360087488 9.9256299548414598e-07 -8.7757408568120919e-07 -0.11003432602610709 1.7800308126136401e-06 -4.3447065650858875e-07 -0.12818032648175318 1.862521876344322e-06 2.6019857094947477e-07 -0.13878678912217704 4.7895878933984888e-07 -1.3902183485017784e-07 -0.11250770360087488 8.5184772985528248e-07 6.361971106689188e-08 -0.13122680368518996 2.2076495334491153e-06 -4.8370688600174615e-08 -0.1791226100257817 7.5272775907488217e-07 4.7381673531260546e-08 -0.1799308925512387 8.5184772985528248e-07 6.3619711066891866e-08 -0.13122680368518996 1.0061627859675306e-06 -4.5564339663300843e-07 -0.18119170855610661 8.5184772985528248e-07 6.361971106689188e-08 -0.13122680368518996 1.7800308126136399e-06 -4.3447065650858875e-07 -0.12818032648175315 1.0061627859675306e-06 -4.5564339663300837e-07 -0.18119170855610661 9.5681590984033937e-07 -9.5042420832408314e-07 -0.15151932336345703 8.5184772985528248e-07 6.361971106689188e-08 -0.13122680368518996 9.9256299548414598e-07 -8.7757408568120919e-07 -0.11003432602610709 1.7800308126136401e-06 -4.344706565085887e-07 -0.12818032648175318 9.5681590984033937e-07 -9.5042420832408325e-07 -0.151519323363457 1.7800308126136401e-06 -4.3447065650858875e-07 -0.12818032648175318 2.2076495334491153e-06 -4.8370688600174615e-08 -0.1791226100257817 1.862521876344322e-06 2.6019857094947477e-07 -0.13878678912217704 8.5184772985528248e-07 6.361971106689188e-08 -0.13122680368518996 2.2076495334491153e-06 -4.8370688600174615e-08 -0.1791226100257817 8.5184772985528248e-07 6.361971106689188e-08 -0.13122680368518996 1.7800308126136401e-06 -4.3447065650858875e-07 -0.12818032648175318 1.0061627859675306e-06 -4.5564339663300832e-07 -0.18119170855610661 1.5303635558486349e-06 -7.246883990227102e-07 -0.16032047279889713 1.0061627859675304e-06 -4.5564339663300837e-07 -0.18119170855610661 1.7800308126136401e-06 -4.3447065650858875e-07 -0.12818032648175318 9.5681590984033937e-07 -9.5042420832408325e-07 -0.151519323363457 1.5303635558486349e-06 -7.246883990227102e-07 -0.16032047279889713 2.2076495334491153e-06 -4.8370688600174575e-08 -0.1791226100257817 1.7800308126136401e-06 -4.3447065650858875e-07 -0.12818032648175318 1.0061627859675306e-06 -4.5564339663300832e-07 -0.18119170855610661 1.7800308126136401e-06 -4.3447065650858875e-07 -0.12818032648175318 9.9256299548414598e-07 -8.7757408568120919e-07 -0.11003432602610709 2.1075067866291718e-06 -1.1511708150383403e-06 -0.11018431591000444 9.5681590984033937e-07 -9.5042420832408325e-07 -0.151519323363457 1.7800308126136401e-06 -4.3447065650858875e-07 -0.12818032648175318 2.1075067866291718e-06 -1.1511708150383403e-06 -0.11018431591000444 1.5303635558486347e-06 -7.2468839902271009e-07 -0.16032047279889711 9.5681590984033937e-07 -9.5042420832408325e-07 -0.151519323363457 1.1355844641819841e-06 -2.2301139644872331e-06 -0.11483110637364331 2.1075067866291718e-06 -1.1511708150383401e-06 -0.11018431591000444 9.9256299548414619e-07 -8.775740856812094e-07 -0.11003432602610709 9.5681590984033958e-07 -9.5042420832408325e-07 -0.151519323363457 1.3706455932248711e-06 -1.2251985987151365e-06 -0.15458702664646853 2.1075067866291718e-06 -1.1511708150383403e-06 -0.11018431591000445 1.9976880123391792e-06 -1.9043466416480296e-06 -0.13500788728958496 9.5681590984033937e-07 -9.5042420832408325e-07 -0.151519323363457 1.5303635558486349e-06 -7.246883990227102e-07 -0.16032047279889713 1.3706455932248711e-06 -1.2251985987151365e-06 -0.15458702664646853 1.3567141713781029e-06 -1.1268655200814147e-06 -0.18741440692497952 9.5681590984033937e-07 -9.5042420832408325e-07 -0.151519323363457 1.5303635558486349e-06 -7.246883990227102e-07 -0.16032047279889713 2.1075067866291718e-06 -1.1511708150383403e-06 -0.11018431591000444 1.3706455932248711e-06 -1.2251985987151365e-06 -0.15458702664646853 9.5681590984033937e-07 -9.5042420832408325e-07 -0.151519323363457 1.2662811177994528e-06 -1.2214033004768655e-06 -0.15479382328719729 1.3567141713781029e-06 -1.1268655200814147e-06 -0.18741440692497952 1.3706455932248711e-06 -1.2251985987151367e-06 -0.15458702664646853 9.5681590984033937e-07 -9.5042420832408325e-07 -0.151519323363457 1.3706455932248711e-06 -1.2251985987151365e-06 -0.15458702664646853 1.2662811177994528e-06 -1.2214033004768655e-06 -0.15479382328719729 1.9976880123391792e-06 -1.9043466416480296e-06 -0.13500788728958496 1.4819189762095493e-06 -1.5475450794524136e-06 -0.1800083272615359 1.2662811177994528e-06 -1.2214033004768655e-06 -0.15479382328719729 1.3706455932248709e-06 -1.2251985987151361e-06 -0.15458702664646853 1.9976880123391792e-06 -1.9043466416480296e-06 -0.13500788728958496 9.5681590984033937e-07 -9.5042420832408325e-07 -0.151519323363457 1.1355844641819841e-06 -2.2301139644872331e-06 -0.11483110637364331 1.9976880123391792e-06 -1.9043466416480296e-06 -0.13500788728958496 2.1075067866291718e-06 -1.1511708150383401e-06 -0.11018431591000445 9.5681590984033937e-07 -9.5042420832408293e-07 -0.151519323363457 1.2662811177994528e-06 -1.2214033004768655e-06 -0.15479382328719729 1.9976880123391792e-06 -1.9043466416480296e-06 -0.13500788728958496 1.1355844641819841e-06 -2.2301139644872331e-06 -0.11483110637364331 9.5681590984033937e-07 -9.5042420832408325e-07 -0.151519323363457 7.5367803955870414e-07 -1.5105984760648941e-06 -0.16032049983550828 1.2662811177994528e-06 -1.2214033004768655e-06 -0.15479382328719729 1.1355844641819841e-06 -2.2301139644872331e-06 -0.11483110637364331 9.5681590984033937e-07 -9.5042420832408325e-07 -0.151519323363457 7.5367803955870414e-07 -1.5105984760648941e-06 -0.16032049983550828 1.0649487331112481e-06 -1.3601398726146468e-06 -0.18741441924600807 1.2662811177994528e-06 -1.2214033004768655e-06 -0.15479382328719729 9.5681590984033937e-07 -9.5042420832408325e-07 -0.151519323363457 7.5367803955870414e-07 -1.5105984760648941e-06 -0.16032049983550828 3.6902190995761706e-07 -7.155084490511912e-07 -0.15776330921577933 6.2262601915571909e-07 -1.3712975006994761e-06 -0.19537491197777099 9.5681590984033937e-07 -9.5042420832408325e-07 -0.151519323363457 2.6577348630326683e-07 -1.8530876144777775e-06 -0.14213063811804066 9.925629954841464e-07 -8.7757408568120897e-07 -0.11003432602610709 3.6902190995761733e-07 -7.155084490511912e-07 -0.15776330921577933 9.5681590984033937e-07 -9.5042420832408304e-07 -0.151519323363457 1.1355844641819841e-06 -2.2301139644872331e-06 -0.11483110637364331 9.9256299548414598e-07 -8.7757408568120929e-07 -0.1100343260261071 2.6577348630326683e-07 -1.8530876144777775e-06 -0.14213063811804066 9.5681590984033937e-07 -9.5042420832408325e-07 -0.151519323363457 -3.4689862911203889e-08 -2.1263917566862985e-06 -0.17912266840537361 7.5367803955870414e-07 -1.5105984760648941e-06 -0.16032049983550828 2.6577348630326683e-07 -1.8530876144777775e-06 -0.14213063811804066 3.6902190995761706e-07 -7.155084490511912e-07 -0.15776330921577933 2.6577348630326683e-07 -1.8530876144777775e-06 -0.14213063811804066 3.9977859939976334e-07 -1.8240835949680727e-06 -0.095513505353309255 -4.1782557290060913e-08 -8.3805439703365244e-07 -0.11416303671339988 9.9256299548414598e-07 -8.7757408568120919e-07 -0.11003432602610709 2.6577348630326683e-07 -1.8530876144777775e-06 -0.14213063811804066 -4.1782557290060807e-08 -8.3805439703365276e-07 -0.11416303671339988 3.6902190995761728e-07 -7.155084490511913e-07 -0.15776330921577936 9.9256299548414598e-07 -8.7757408568120919e-07 -0.11003432602610709 7.5367803955870414e-07 -1.5105984760648941e-06 -0.16032049983550828 2.6577348630326683e-07 -1.8530876144777775e-06 -0.14213063811804066 3.6902190995761706e-07 -7.155084490511912e-07 -0.15776330921577933 9.5681590984033937e-07 -9.5042420832408325e-07 -0.151519323363457 2.6577348630326683e-07 -1.8530876144777775e-06 -0.14213063811804066 1.1355844641819841e-06 -2.2301139644872331e-06 -0.11483110637364331 3.9977859939976334e-07 -1.8240835949680727e-06 -0.095513505353309255 9.9256299548414598e-07 -8.7757408568120919e-07 -0.11003432602610709 2.6577348630326683e-07 -1.8530876144777775e-06 -0.14213063811804066 -3.4689862911203889e-08 -2.1263917566862985e-06 -0.17912266840537361 3.6902190995761722e-07 -7.155084490511913e-07 -0.15776330921577933 -4.1782557290060886e-08 -8.3805439703365255e-07 -0.11416303671339986 7.5367803955870414e-07 -1.5105984760648941e-06 -0.16032049983550828 1.1355844641819841e-06 -2.2301139644872331e-06 -0.11483110637364331 2.6577348630326683e-07 -1.8530876144777775e-06 -0.14213063811804066 9.5681590984033937e-07 -9.5042420832408325e-07 -0.151519323363457 2.6577348630326683e-07 -1.8530876144777775e-06 -0.14213063811804066 3.9977859939976318e-07 -1.8240835949680723e-06 -0.095513505353309269 -3.7551287083214454e-08 -5.3757547439090477e-07 -0.1125077088850262 -4.1782557290060707e-08 -8.3805439703365233e-07 -0.11416303671339986 8.5184772985528248e-07 6.361971106689188e-08 -0.13122680368518996 -4.1482650583947177e-08 -4.0170451563859963e-08 -0.17056303157081276 3.6902190995761701e-07 -7.1550844905119151e-07 -0.15776330921577936 7.5272775907488207e-07 4.7381673531260539e-08 -0.1799308925512387 3.6902190995761706e-07 -7.155084490511912e-07 -0.15776330921577933 8.5184772985528259e-07 6.3619711066891972e-08 -0.13122680368518996 1.0061627859675306e-06 -4.5564339663300832e-07 -0.18119170855610661 9.5681590984033937e-07 -9.5042420832408325e-07 -0.151519323363457 3.6902190995761706e-07 -7.155084490511912e-07 -0.15776330921577933 9.9256299548414577e-07 -8.7757408568120929e-07 -0.11003432602610709 8.5184772985528269e-07 6.3619711066892277e-08 -0.13122680368518994 9.5681590984033937e-07 -9.5042420832408325e-07 -0.151519323363457 2.4766520408687589e-08 -2.8604385142180839e-08 -0.11250737590774498 3.6902190995761717e-07 -7.1550844905119109e-07 -0.15776330921577933 8.5184772985528248e-07 6.3619711066891761e-08 -0.13122680368518996 -4.1482650583947302e-08 -4.0170451563859811e-08 -0.17056303157081276 3.6902190995761706e-07 -7.155084490511912e-07 -0.15776330921577933 2.4766520408687589e-08 -2.8604385142180839e-08 -0.11250737590774498 8.5184772985528259e-07 6.3619711066892118e-08 -0.13122680368518999 9.9256299548414598e-07 -8.775740856812094e-07 -0.11003432602610709 3.6902190995761706e-07 -7.155084490511912e-07 -0.15776330921577933 -4.1782557290060688e-08 -8.3805439703365276e-07 -0.11416303671339988 2.4766520408687589e-08 -2.8604385142180839e-08 -0.11250737590774498 9.9256299548414598e-07 -8.7757408568120919e-07 -0.11003432602610708 2.4766520408687589e-08 -2.8604385142180839e-08 -0.11250737590774498 -4.1782557290060449e-08 -8.3805439703365276e-07 -0.11416303671339986 3.6902190995761706e-07 -7.155084490511913e-07 -0.15776330921577933 -4.1482650583947349e-08 -4.0170451563859844e-08 -0.17056303157081276 8.5184772985528248e-07 6.361971106689188e-08 -0.13122680368518996 7.5272775907488207e-07 4.7381673531260506e-08 -0.17993089255123873 3.690219099576168e-07 -7.1550844905119141e-07 -0.15776330921577936 1.0061627859675306e-06 -4.5564339663300832e-07 -0.18119170855610661 7.0674396178605786e-07 -6.8220803209565821e-07 -0.22500839978443946 6.446220655960207e-07 -1.1748181738159129e-06 -0.22500838390354286 3.6902190995761706e-07 -7.155084490511912e-07 -0.15776330921577933 1.0061627859675306e-06 -4.5564339663300832e-07 -0.18119170855610661 -3.579943245226683e-08 -1.2108393619082697e-06 -0.22500843951266949 2.3620121985511792e-07 -4.7445898407751574e-07 -0.22500838205245943 7.0674396178605786e-07 -6.8220803209565821e-07 -0.22500839978443946 3.6902190995761706e-07 -7.155084490511912e-07 -0.15776330921577933 2.3620121985511792e-07 -4.7445898407751579e-07 -0.22500838205245943 3.6902190995761728e-07 -7.1550844905119109e-07 -0.15776330921577936 7.5272775907488217e-07 4.7381673531260321e-08 -0.1799308925512387 1.0061627859675306e-06 -4.5564339663300832e-07 -0.18119170855610661 2.3620121985511792e-07 -4.7445898407751579e-07 -0.22500838205245943 3.6902190995761701e-07 -7.1550844905119088e-07 -0.15776330921577933 -4.1482650583947587e-08 -4.0170451563859698e-08 -0.17056303157081276 7.5272775907488207e-07 4.7381673531260393e-08 -0.17993089255123873 -3.579943245226683e-08 -1.2108393619082697e-06 -0.22500843951266949 2.3620121985511799e-07 -4.7445898407751579e-07 -0.22500838205245946 3.6902190995761717e-07 -7.155084490511913e-07 -0.15776330921577933 -4.1482650583947349e-08 -4.0170451563859844e-08 -0.17056303157081276 2.3620121985511792e-07 -4.7445898407751579e-07 -0.22500838205245943 7.0674396178605797e-07 -6.8220803209565821e-07 -0.22500839978443943 3.6902190995761706e-07 -7.155084490511912e-07 -0.15776330921577933 1.0061627859675306e-06 -4.5564339663300832e-07 -0.18119170855610661 2.3620121985511792e-07 -4.7445898407751579e-07 -0.22500838205245943 1.1093302899190873e-06 -7.5277872187612603e-08 -0.22500840603251848 7.0674396178605786e-07 -6.8220803209565821e-07 -0.22500839978443946 1.0061627859675306e-06 -4.5564339663300832e-07 -0.18119170855610661 2.3620121985511792e-07 -4.7445898407751579e-07 -0.22500838205245943 3.6714400357434081e-07 1.9171151289232689e-07 -0.22500834829679947 1.1093302899190873e-06 -7.5277872187612603e-08 -0.22500840603251848 7.5272775907488217e-07 4.7381673531260612e-08 -0.1799308925512387 2.3620121985511792e-07 -4.7445898407751579e-07 -0.22500838205245943 7.5272775907488239e-07 4.7381673531260426e-08 -0.1799308925512387 1.1093302899190873e-06 -7.5277872187612603e-08 -0.22500840603251848 1.0061627859675306e-06 -4.5564339663300832e-07 -0.18119170855610661 -2.043969071476015e-08 -4.6616004573706857e-08 -0.22500836866314494 2.3620121985511792e-07 -4.7445898407751579e-07 -0.22500838205245943 -4.1482650583947349e-08 -4.0170451563859844e-08 -0.17056303157081276 7.5272775907488249e-07 4.7381673531260691e-08 -0.17993089255123873 -2.043969071476015e-08 -4.6616004573706857e-08 -0.22500836866314494 3.6714400357434075e-07 1.9171151289232686e-07 -0.22500834829679947 2.3620121985511792e-07 -4.7445898407751579e-07 -0.22500838205245943 7.5272775907488228e-07 4.7381673531260565e-08 -0.1799308925512387 3.6902190995761706e-07 -7.155084490511912e-07 -0.15776330921577933 1.0061627859675306e-06 -4.5564339663300832e-07 -0.18119170855610661 6.4462206559602059e-07 -1.1748181738159129e-06 -0.22500838390354283 9.5681590984033937e-07 -9.5042420832408325e-07 -0.151519323363457 6.2262601915571909e-07 -1.3712975006994764e-06 -0.19537491197777099 3.6902190995761669e-07 -7.1550844905119109e-07 -0.15776330921577933 6.4462206559602059e-07 -1.1748181738159129e-06 -0.22500838390354283 9.5681590984033937e-07 -9.5042420832408325e-07 -0.151519323363457 -3.4689862911203889e-08 -2.1263917566862985e-06 -0.17912266840537361 6.2262601915571909e-07 -1.3712975006994764e-06 -0.19537491197777099 7.5367803955870414e-07 -1.5105984760648941e-06 -0.16032049983550828 3.6902190995761706e-07 -7.155084490511912e-07 -0.15776330921577933 7.0674396178605786e-07 -6.8220803209565821e-07 -0.22500839978443946 6.4462206559602059e-07 -1.1748181738159129e-06 -0.22500838390354283 -3.579943245226683e-08 -1.2108393619082697e-06 -0.22500843951266949 3.6902190995761706e-07 -7.155084490511912e-07 -0.15776330921577933 -3.4689862911203889e-08 -2.1263917566862985e-06 -0.17912266840537361 -3.5799432452266804e-08 -1.2108393619082697e-06 -0.22500843951266949 6.2262601915571909e-07 -1.3712975006994764e-06 -0.19537491197777099 3.6902190995761706e-07 -7.155084490511912e-07 -0.15776330921577933 -3.579943245226683e-08 -1.2108393619082697e-06 -0.22500843951266949 6.4462206559602059e-07 -1.1748181738159129e-06 -0.22500838390354283 6.2262601915571909e-07 -1.3712975006994764e-06 -0.19537491197777099 3.6902190995761706e-07 -7.155084490511912e-07 -0.15776330921577933 6.2262601915571909e-07 -1.3712975006994764e-06 -0.19537491197777099 -3.579943245226683e-08 -1.2108393619082697e-06 -0.22500843951266949 4.4413949212216403e-07 -1.9922402756611984e-06 -0.22500860505310982 6.4462206559602059e-07 -1.1748181738159129e-06 -0.22500838390354283 -3.579943245226683e-08 -1.2108393619082697e-06 -0.22500843951266949 -3.4689862911204094e-08 -2.1263917566862994e-06 -0.17912266840537361 6.226260191557193e-07 -1.3712975006994759e-06 -0.19537491197777102 4.4413949212216403e-07 -1.9922402756611984e-06 -0.22500860505310982 4.4413949212216403e-07 -1.9922402756611984e-06 -0.22500860505310982 6.2262601915571909e-07 -1.3712975006994764e-06 -0.19537491197777099 6.4462206559602059e-07 -1.1748181738159129e-06 -0.22500838390354283 1.0807084797916042e-06 -1.481802554789896e-06 -0.22500848661653094 1.0649487331112483e-06 -1.3601398726146468e-06 -0.18741441924600807 1.1633099159803636e-06 -1.1690551890988931e-06 -0.22500833153920566 1.3567141713781027e-06 -1.1268655200814145e-06 -0.18741440692497949 9.5681590984033916e-07 -9.5042420832408304e-07 -0.15151932336345697 1.0649487331112483e-06 -1.3601398726146468e-06 -0.18741441924600807 6.4462206559602059e-07 -1.1748181738159129e-06 -0.22500838390354283 1.1633099159803636e-06 -1.1690551890988934e-06 -0.22500833153920566 9.5681590984033937e-07 -9.5042420832408325e-07 -0.151519323363457 1.1633099159803636e-06 -1.1690551890988934e-06 -0.22500833153920566 1.0061627859675308e-06 -4.5564339663300832e-07 -0.18119170855610664 1.3567141713781029e-06 -1.1268655200814145e-06 -0.18741440692497954 9.5681590984033916e-07 -9.5042420832408314e-07 -0.15151932336345697 7.0674396178605786e-07 -6.8220803209565821e-07 -0.22500839978443946 1.1633099159803636e-06 -1.1690551890988934e-06 -0.22500833153920566 6.4462206559602059e-07 -1.1748181738159129e-06 -0.22500838390354283 1.0061627859675306e-06 -4.5564339663300832e-07 -0.18119170855610661 6.4462206559602059e-07 -1.1748181738159129e-06 -0.22500838390354283 1.0061627859675306e-06 -4.5564339663300832e-07 -0.18119170855610661 1.1633099159803636e-06 -1.1690551890988934e-06 -0.22500833153920566 9.5681590984033937e-07 -9.5042420832408325e-07 -0.151519323363457 1.0649487331112483e-06 -1.3601398726146468e-06 -0.18741441924600807 6.2262601915571898e-07 -1.3712975006994761e-06 -0.19537491197777099 6.4462206559602059e-07 -1.1748181738159129e-06 -0.22500838390354283 9.5681590984033937e-07 -9.5042420832408325e-07 -0.151519323363457 1.0649487331112483e-06 -1.3601398726146468e-06 -0.18741441924600807 1.3567141713781027e-06 -1.1268655200814145e-06 -0.18741440692497949 1.2662811177994528e-06 -1.2214033004768655e-06 -0.15479382328719729 9.5681590984033937e-07 -9.5042420832408314e-07 -0.151519323363457 1.0649487331112483e-06 -1.3601398726146468e-06 -0.18741441924600807 7.5367803955870425e-07 -1.5105984760648941e-06 -0.16032049983550828 6.2262601915571909e-07 -1.3712975006994764e-06 -0.19537491197777099 9.5681590984033937e-07 -9.5042420832408325e-07 -0.151519323363457 1.0649487331112483e-06 -1.3601398726146468e-06 -0.18741441924600807 6.4462206559602081e-07 -1.1748181738159129e-06 -0.22500838390354283 1.0807084797916042e-06 -1.481802554789896e-06 -0.22500848661653094 1.1633099159803636e-06 -1.1690551890988934e-06 -0.22500833153920566 6.2262601915571909e-07 -1.3712975006994764e-06 -0.19537491197777099 1.0649487331112483e-06 -1.3601398726146468e-06 -0.18741441924600807 6.4462206559602059e-07 -1.1748181738159129e-06 -0.22500838390354283 1.0807084797916042e-06 -1.481802554789896e-06 -0.22500848661653094 1.0649487331112483e-06 -1.3601398726146468e-06 -0.18741441924600807 1.0807084797916042e-06 -1.481802554789896e-06 -0.22500848661653094 2.3231732472942166e-06 -2.3214465808592187e-06 -0.22500883349400894 1.1633099159803636e-06 -1.1690551890988934e-06 -0.22500833153920566 1.3567141713781029e-06 -1.1268655200814147e-06 -0.18741440692497952 1.0649487331112483e-06 -1.3601398726146468e-06 -0.18741441924600807 2.3231732472942166e-06 -2.3214465808592187e-06 -0.22500883349400894 1.1633099159803631e-06 -1.1690551890988929e-06 -0.22500833153920563 1.3567141713781029e-06 -1.1268655200814147e-06 -0.18741440692497952 1.0649487331112483e-06 -1.3601398726146468e-06 -0.18741441924600807 1.4819189762095493e-06 -1.5475450794524136e-06 -0.1800083272615359 2.3231732472942166e-06 -2.3214465808592187e-06 -0.22500883349400894 1.2662811177994528e-06 -1.2214033004768655e-06 -0.15479382328719729 1.3706455932248713e-06 -1.2251985987151367e-06 -0.15458702664646851 1.3567141713781029e-06 -1.1268655200814147e-06 -0.18741440692497952 1.4819189762095493e-06 -1.5475450794524136e-06 -0.1800083272615359 1.0649487331112483e-06 -1.3601398726146468e-06 -0.18741441924600807 1.2662811177994526e-06 -1.2214033004768653e-06 -0.15479382328719729 1.3567141713781029e-06 -1.1268655200814147e-06 -0.18741440692497952 1.4819189762095493e-06 -1.5475450794524136e-06 -0.1800083272615359 1.5303635558486349e-06 -7.246883990227102e-07 -0.16032047279889713 1.3567141713781029e-06 -1.1268655200814147e-06 -0.18741440692497952 1.0061627859675304e-06 -4.5564339663300832e-07 -0.18119170855610661 9.5681590984033916e-07 -9.5042420832408314e-07 -0.151519323363457 1.2488541464592e-06 -6.3668633816341115e-07 -0.22500835294744459 1.3567141713781029e-06 -1.1268655200814147e-06 -0.18741440692497952 1.5473167036796551e-06 -1.104355335976408e-06 -0.22500849484651994 1.1633099159803636e-06 -1.1690551890988934e-06 -0.22500833153920566 1.2488541464592e-06 -6.3668633816341115e-07 -0.22500835294744459 1.3567141713781029e-06 -1.1268655200814147e-06 -0.18741440692497952 1.1633099159803636e-06 -1.1690551890988934e-06 -0.22500833153920566 1.0061627859675306e-06 -4.5564339663300832e-07 -0.18119170855610661 1.5473167036796551e-06 -1.104355335976408e-06 -0.22500849484651994 1.3567141713781029e-06 -1.1268655200814147e-06 -0.18741440692497952 2.3231732472942166e-06 -2.3214465808592187e-06 -0.22500883349400894 1.1633099159803636e-06 -1.1690551890988934e-06 -0.22500833153920566 1.3567141713781029e-06 -1.1268655200814147e-06 -0.18741440692497952 1.2488541464592e-06 -6.3668633816341115e-07 -0.22500835294744459 1.5473167036796551e-06 -1.104355335976408e-06 -0.22500849484651994 1.2212154340997156e-06 -6.8957847226858787e-07 -0.19519560963483243 1.2488541464592e-06 -6.3668633816341115e-07 -0.22500835294744459 1.911584141017365e-06 -3.7585108060873454e-07 -0.22500841663213847 1.2212154340997156e-06 -6.8957847226858787e-07 -0.19519560963483243 1.0061627859675306e-06 -4.5564339663300832e-07 -0.18119170855610661 1.1093302899190873e-06 -7.5277872187612603e-08 -0.22500840603251848 7.5272775907488228e-07 4.7381673531260426e-08 -0.1799308925512387 2.2076495334491153e-06 -4.8370688600174615e-08 -0.1791226100257817 1.0061627859675306e-06 -4.5564339663300832e-07 -0.18119170855610661 1.5473167036796551e-06 -1.104355335976408e-06 -0.22500849484651994 1.2488541464592e-06 -6.3668633816341105e-07 -0.22500835294744459 1.911584141017365e-06 -3.7585108060873454e-07 -0.22500841663213847 1.2212154340997156e-06 -6.8957847226858787e-07 -0.19519560963483243 1.2488541464592e-06 -6.3668633816341115e-07 -0.22500835294744459 1.2212154340997156e-06 -6.8957847226858809e-07 -0.19519560963483243 1.3567141713781027e-06 -1.1268655200814145e-06 -0.18741440692497952 1.0061627859675304e-06 -4.5564339663300832e-07 -0.18119170855610658 1.2488541464592e-06 -6.3668633816341115e-07 -0.22500835294744459 7.0674396178605786e-07 -6.8220803209565821e-07 -0.22500839978443946 1.1093302899190873e-06 -7.5277872187612603e-08 -0.22500840603251848 1.0061627859675306e-06 -4.5564339663300832e-07 -0.18119170855610661 1.2488541464592e-06 -6.3668633816341115e-07 -0.22500835294744459 1.1633099159803636e-06 -1.1690551890988934e-06 -0.22500833153920566 7.0674396178605775e-07 -6.8220803209565821e-07 -0.22500839978443946 1.0061627859675306e-06 -4.5564339663300832e-07 -0.18119170855610661 1.5303635558486349e-06 -7.246883990227102e-07 -0.16032047279889713 1.2212154340997156e-06 -6.8957847226858787e-07 -0.19519560963483243 2.2076495334491153e-06 -4.8370688600174615e-08 -0.1791226100257817 1.0061627859675306e-06 -4.5564339663300832e-07 -0.18119170855610661 1.5303635558486349e-06 -7.246883990227102e-07 -0.16032047279889713 1.3567141713781029e-06 -1.1268655200814147e-06 -0.18741440692497952 1.2212154340997156e-06 -6.8957847226858787e-07 -0.19519560963483243 1.0061627859675306e-06 -4.5564339663300832e-07 -0.18119170855610661 1.911584141017365e-06 -3.7585108060873459e-07 -0.22500841663213847 2.2076495334491153e-06 -4.8370688600174615e-08 -0.1791226100257817 1.2212154340997156e-06 -6.8957847226858787e-07 -0.19519560963483243 1.0061627859675306e-06 -4.5564339663300832e-07 -0.18119170855610661 1.2488541464592e-06 -6.3668633816341115e-07 -0.22500835294744459 1.1093302899190873e-06 -7.5277872187612603e-08 -0.22500840603251848 1.911584141017365e-06 -3.7585108060873459e-07 -0.22500841663213847 1.0061627859675306e-06 -4.5564339663300832e-07 -0.18119170855610661 1.1093302899190873e-06 -7.5277872187612603e-08 -0.22500840603251848 1.911584141017365e-06 -3.7585108060873459e-07 -0.22500841663213847 2.2076495334491153e-06 -4.8370688600174648e-08 -0.1791226100257817 1.9712811455543672e-06 3.8909755119385971e-07 -0.22500841017624121 1.911584141017365e-06 -3.7585108060873459e-07 -0.22500841663213847 1.1093302899190873e-06 -7.5277872187612603e-08 -0.22500840603251848 2.2076495334491153e-06 -4.8370688600174615e-08 -0.1791226100257817 1.0061627859675306e-06 -4.5564339663300832e-07 -0.18119170855610661 1.361062018221175e-06 5.8378654745370339e-07 -0.19549275754613388 8.6581830177668976e-07 8.7526268046138938e-07 -0.16871248639725372 1.5842809798186653e-06 6.5198699867215857e-07 -0.16032039460356665 7.5272775907488186e-07 4.7381673531260757e-08 -0.1799308925512387 2.2076495334491153e-06 -4.8370688600174615e-08 -0.1791226100257817 1.361062018221175e-06 5.8378654745370339e-07 -0.19549275754613388 1.5842809798186653e-06 6.5198699867215857e-07 -0.16032039460356665 7.5272775907488217e-07 4.7381673531260546e-08 -0.1799308925512387 6.2565793607445111e-07 6.3302704189323125e-07 -0.22500828640395129 8.6581830177668955e-07 8.752626804613897e-07 -0.16871248639725375 1.1396122608275195e-06 5.5692571080258045e-07 -0.2250082946747754 7.5272775907488217e-07 4.7381673531260546e-08 -0.1799308925512387 1.1396122608275195e-06 5.5692571080258045e-07 -0.2250082946747754 1.1093302899190871e-06 -7.5277872187612603e-08 -0.22500840603251845 2.2076495334491153e-06 -4.8370688600174615e-08 -0.1791226100257817 1.9712811455543672e-06 3.8909755119385971e-07 -0.22500841017624121 1.1396122608275195e-06 5.5692571080258045e-07 -0.2250082946747754 8.6581830177668955e-07 8.752626804613898e-07 -0.16871248639725372 1.361062018221175e-06 5.8378654745370339e-07 -0.19549275754613388 7.5272775907488217e-07 4.7381673531260546e-08 -0.1799308925512387 1.1396122608275195e-06 5.5692571080258045e-07 -0.2250082946747754 2.2076495334491153e-06 -4.8370688600174773e-08 -0.17912261002578173 1.361062018221175e-06 5.837865474537036e-07 -0.19549275754613391 1.9712811455543672e-06 3.8909755119385971e-07 -0.22500841017624121 1.1396122608275195e-06 5.5692571080258045e-07 -0.2250082946747754 2.2076495334491153e-06 -4.8370688600174674e-08 -0.1791226100257817 1.1093302899190875e-06 -7.5277872187612563e-08 -0.22500840603251848 7.5272775907488217e-07 4.7381673531260546e-08 -0.1799308925512387 1.1396122608275195e-06 5.5692571080258045e-07 -0.2250082946747754 1.3610620182211745e-06 5.837865474537036e-07 -0.19549275754613385 2.2076495334491158e-06 -4.837068860017478e-08 -0.17912261002578173 7.5272775907488217e-07 4.7381673531260546e-08 -0.1799308925512387 1.361062018221175e-06 5.8378654745370339e-07 -0.19549275754613388 1.1396122608275193e-06 5.5692571080258045e-07 -0.2250082946747754 1.9712811455543672e-06 3.8909755119385971e-07 -0.22500841017624121 1.4746947657833325e-06 1.0679013386171355e-06 -0.22500840008561912 6.2565793607445111e-07 6.3302704189323125e-07 -0.22500828640395129 1.1396122608275195e-06 5.5692571080258045e-07 -0.2250082946747754 1.1093302899190873e-06 -7.5277872187612603e-08 -0.22500840603251848 7.5272775907488217e-07 4.7381673531260546e-08 -0.1799308925512387 7.5272775907488217e-07 4.7381673531260546e-08 -0.1799308925512387 1.0120020271845211e-06 9.1729334065965155e-07 -0.12106967681622172 1.8625218763443218e-06 2.6019857094947477e-07 -0.13878678912217704 8.5184772985528248e-07 6.361971106689188e-08 -0.13122680368518996 2.2076495334491153e-06 -4.8370688600174615e-08 -0.1791226100257817 1.5842809798186653e-06 6.5198699867215857e-07 -0.16032039460356665 1.862521876344322e-06 2.6019857094947477e-07 -0.13878678912217704 7.5272775907488217e-07 4.7381673531260546e-08 -0.1799308925512387 2.2076495334491153e-06 -4.8370688600174615e-08 -0.1791226100257817 1.862521876344322e-06 2.6019857094947477e-07 -0.13878678912217704 8.5184772985528248e-07 6.361971106689188e-08 -0.13122680368518996 7.5272775907488217e-07 4.7381673531260546e-08 -0.1799308925512387 7.5272775907488217e-07 4.7381673531260546e-08 -0.1799308925512387 1.8625218763443218e-06 2.6019857094947477e-07 -0.13878678912217701 1.0120020271845211e-06 9.1729334065965155e-07 -0.12106967681622172 8.6581830177668955e-07 8.752626804613898e-07 -0.16871248639725372 1.862521876344322e-06 2.6019857094947477e-07 -0.13878678912217704 1.5842809798186653e-06 6.5198699867215857e-07 -0.16032039460356665 8.6581830177668965e-07 8.7526268046139001e-07 -0.1687124863972537 7.527277590748826e-07 4.7381673531260651e-08 -0.1799308925512387 1.7332579571572305e-06 4.3408559540617014e-07 -0.095229126536803724 8.5184772985528248e-07 6.361971106689188e-08 -0.13122680368518996 1.862521876344322e-06 2.6019857094947477e-07 -0.13878678912217704 1.0120020271845211e-06 9.1729334065965123e-07 -0.12106967681622172 1.862521876344322e-06 2.6019857094947477e-07 -0.13878678912217704 1.7332579571572305e-06 4.3408559540617014e-07 -0.095229126536803724 4.7895878933984888e-07 -1.3902183485017784e-07 -0.11250770360087488 8.5184772985528248e-07 6.361971106689188e-08 -0.13122680368518996 2.1924062950024132e-06 1.1932612233139819e-06 -0.11483096715198765 1.7332579571572305e-06 4.3408559540617024e-07 -0.095229126536803724 1.862521876344322e-06 2.6019857094947477e-07 -0.13878678912217704 1.0120020271845213e-06 9.1729334065965155e-07 -0.12106967681622172 2.1924062950024132e-06 1.1932612233139819e-06 -0.11483096715198765 1.862521876344322e-06 2.6019857094947477e-07 -0.13878678912217704 1.5842809798186653e-06 6.5198699867215857e-07 -0.16032039460356665 1.0120020271845211e-06 9.1729334065965144e-07 -0.12106967681622172 1.862521876344322e-06 2.6019857094947477e-07 -0.13878678912217704 1.5842809798186653e-06 6.5198699867215857e-07 -0.16032039460356665 1.0120020271845211e-06 9.1729334065965155e-07 -0.12106967681622172 8.6581830177668955e-07 8.752626804613898e-07 -0.16871248639725372 1.0803781251911112e-06 2.1924556078653722e-06 -0.11483093926902764 2.1924062950024132e-06 1.1932612233139817e-06 -0.11483096715198766 1.0952736169650557e-06 1.2330710449276337e-06 -0.15563434847201907 1.0120020271845211e-06 9.1729334065965155e-07 -0.12106967681622172 1.0952736169650557e-06 1.2330710449276337e-06 -0.15563434847201907 2.1924062950024137e-06 1.1932612233139821e-06 -0.11483096715198765 1.2330079938157531e-06 1.061010965306528e-06 -0.15563427279957215 1.0120020271845211e-06 9.1729334065965155e-07 -0.12106967681622172 1.0952736169650557e-06 1.2330710449276337e-06 -0.15563434847201907 6.5125936138431715e-07 1.5842450044398295e-06 -0.16032039614855578 1.0120020271845209e-06 9.1729334065965144e-07 -0.12106967681622172 8.6581830177668965e-07 8.752626804613898e-07 -0.16871248639725372 1.5842809798186653e-06 6.5198699867215857e-07 -0.16032039460356665 1.2330079938157531e-06 1.061010965306528e-06 -0.15563427279957215 1.0120020271845211e-06 9.1729334065965155e-07 -0.12106967681622172 8.6581830177668955e-07 8.752626804613898e-07 -0.16871248639725372 1.0952736169650557e-06 1.2330710449276337e-06 -0.15563434847201907 1.0120020271845211e-06 9.1729334065965155e-07 -0.12106967681622172 6.5125936138431715e-07 1.5842450044398295e-06 -0.16032039614855578 1.0803781251911112e-06 2.1924556078653722e-06 -0.11483093926902764 1.0952736169650557e-06 1.2330710449276337e-06 -0.15563434847201907 1.0120020271845209e-06 9.1729334065965144e-07 -0.12106967681622173 1.2330079938157531e-06 1.061010965306528e-06 -0.15563427279957215 8.6581830177668944e-07 8.7526268046138959e-07 -0.1687124863972537 1.3432404333737032e-06 1.0595831201621634e-06 -0.18800408779455791 1.2330079938157531e-06 1.061010965306528e-06 -0.15563427279957215 1.5842809798186653e-06 6.5198699867215857e-07 -0.16032039460356665 8.6581830177668933e-07 8.752626804613897e-07 -0.1687124863972537 2.1924062950024132e-06 1.1932612233139819e-06 -0.11483096715198765 1.5842809798186653e-06 6.5198699867215857e-07 -0.16032039460356665 1.2330079938157531e-06 1.061010965306528e-06 -0.15563427279957215 1.0120020271845211e-06 9.1729334065965155e-07 -0.12106967681622172 1.0952736169650557e-06 1.2330710449276337e-06 -0.15563434847201907 2.1924062950024132e-06 1.1932612233139819e-06 -0.11483096715198765 1.9363647696719544e-06 1.9362817189744766e-06 -0.1350075340342648 1.2330079938157531e-06 1.061010965306528e-06 -0.15563427279957215 2.1924062950024132e-06 1.1932612233139819e-06 -0.11483096715198765 1.0952736169650553e-06 1.2330710449276335e-06 -0.15563434847201904 1.9363647696719544e-06 1.9362817189744766e-06 -0.1350075340342648 1.0803781251911112e-06 2.1924556078653722e-06 -0.11483093926902764 1.0803781251911112e-06 2.1924556078653722e-06 -0.11483093926902764 1.936364769671954e-06 1.9362817189744762e-06 -0.13500753403426477 2.1924062950024132e-06 1.1932612233139819e-06 -0.11483096715198765 1.9644027722722538e-06 1.964339010954838e-06 -0.090007674710414973 1.0339258876844506e-06 1.3432194814929039e-06 -0.18800412978768913 6.5125936138431715e-07 1.5842450044398295e-06 -0.16032039614855578 1.0952736169650557e-06 1.2330710449276337e-06 -0.15563434847201907 8.6581830177668944e-07 8.7526268046138949e-07 -0.1687124863972537 1.3432404333737032e-06 1.0595831201621634e-06 -0.18800408779455791 1.0952736169650557e-06 1.2330710449276337e-06 -0.15563434847201907 1.2330079938157531e-06 1.061010965306528e-06 -0.15563427279957215 8.6581830177668955e-07 8.752626804613898e-07 -0.16871248639725372 1.9363647696719544e-06 1.9362817189744766e-06 -0.1350075340342648 1.4976373238791737e-06 1.4976284074241008e-06 -0.18000829673033594 1.0952736169650557e-06 1.2330710449276337e-06 -0.15563434847201907 1.2330079938157531e-06 1.061010965306528e-06 -0.15563427279957215 1.0339258876844506e-06 1.3432194814929039e-06 -0.18800412978768913 1.343240433373703e-06 1.0595831201621631e-06 -0.18800408779455793 1.1095362353258209e-06 1.1287232829677797e-06 -0.22500824272647041 8.6581830177668955e-07 8.7526268046138991e-07 -0.16871248639725372 6.2565793607445111e-07 6.3302704189323125e-07 -0.22500828640395129 1.1095362353258209e-06 1.1287232829677797e-06 -0.22500824272647041 1.1396122608275195e-06 5.5692571080258045e-07 -0.2250082946747754 8.6581830177668955e-07 8.752626804613898e-07 -0.16871248639725375 1.4976373238791737e-06 1.4976284074241008e-06 -0.18000829673033594 1.3432404333737032e-06 1.0595831201621634e-06 -0.18800408779455791 1.0952736169650557e-06 1.2330710449276337e-06 -0.15563434847201907 1.2330079938157531e-06 1.061010965306528e-06 -0.15563427279957215 1.3432404333737032e-06 1.0595831201621634e-06 -0.18800408779455791 1.0339258876844506e-06 1.3432194814929039e-06 -0.18800412978768916 1.0952736169650557e-06 1.2330710449276337e-06 -0.15563434847201907 8.6581830177668933e-07 8.7526268046138959e-07 -0.1687124863972537 1.3432404333737032e-06 1.0595831201621634e-06 -0.18800408779455791 1.0339258876844504e-06 1.3432194814929037e-06 -0.1880041297876891 2.2851795412420303e-06 2.2852071150638246e-06 -0.2250087948298177 1.4976373238791737e-06 1.4976284074241008e-06 -0.18000829673033594 6.2565793607445111e-07 6.3302704189323125e-07 -0.22500828640395129 5.6233987507329621e-07 1.1480587916891667e-06 -0.22500828175629842 1.1095362353258209e-06 1.1287232829677797e-06 -0.22500824272647041 8.6581830177668955e-07 8.752626804613898e-07 -0.16871248639725372 5.6233987507329632e-07 1.1480587916891667e-06 -0.22500828175629842 1.0339258876844506e-06 1.3432194814929037e-06 -0.18800412978768913 1.1095362353258209e-06 1.1287232829677797e-06 -0.22500824272647041 8.6581830177668955e-07 8.752626804613898e-07 -0.16871248639725372 5.6233987507329632e-07 1.1480587916891667e-06 -0.22500828175629842 5.5313544630571715e-07 1.3611350577352568e-06 -0.19549278131573736 1.0339258876844502e-06 1.3432194814929039e-06 -0.1880041297876891 8.6581830177668955e-07 8.752626804613898e-07 -0.16871248639725372 1.3432404333737032e-06 1.0595831201621634e-06 -0.18800408779455791 1.0339258876844506e-06 1.3432194814929039e-06 -0.18800412978768913 1.4976373238791737e-06 1.4976284074241008e-06 -0.18000829673033594 1.0952736169650557e-06 1.2330710449276337e-06 -0.15563434847201907 1.1396122608275195e-06 5.5692571080258045e-07 -0.2250082946747754 1.1095362353258209e-06 1.1287232829677797e-06 -0.22500824272647041 1.361062018221175e-06 5.8378654745370339e-07 -0.19549275754613388 8.6581830177668955e-07 8.752626804613898e-07 -0.16871248639725372 1.361062018221175e-06 5.8378654745370339e-07 -0.19549275754613388 1.1095362353258209e-06 1.1287232829677797e-06 -0.22500824272647041 1.3432404333737032e-06 1.0595831201621634e-06 -0.18800408779455791 8.6581830177668965e-07 8.7526268046138991e-07 -0.16871248639725375 1.3432404333737032e-06 1.0595831201621634e-06 -0.18800408779455791 1.0339258876844506e-06 1.3432194814929039e-06 -0.18800412978768916 1.1095362353258207e-06 1.1287232829677795e-06 -0.22500824272647041 2.2851795412420303e-06 2.2852071150638246e-06 -0.2250087948298177 1.361062018221175e-06 5.8378654745370339e-07 -0.19549275754613388 1.4746947657833325e-06 1.0679013386171355e-06 -0.22500840008561912 1.3432404333737032e-06 1.0595831201621634e-06 -0.18800408779455791 1.1095362353258209e-06 1.1287232829677797e-06 -0.22500824272647041 1.361062018221175e-06 5.8378654745370339e-07 -0.19549275754613388 1.1396122608275193e-06 5.5692571080258066e-07 -0.2250082946747754 1.4746947657833325e-06 1.0679013386171355e-06 -0.22500840008561912 1.1095362353258209e-06 1.1287232829677795e-06 -0.22500824272647041 1.4746947657833325e-06 1.0679013386171355e-06 -0.22500840008561912 1.3432404333737032e-06 1.0595831201621634e-06 -0.18800408779455791 1.1095362353258209e-06 1.1287232829677797e-06 -0.22500824272647041 2.2851795412420303e-06 2.2852071150638246e-06 -0.2250087948298177 1.361062018221175e-06 5.8378654745370339e-07 -0.19549275754613388 1.3432404333737032e-06 1.0595831201621634e-06 -0.18800408779455791 1.5842809798186653e-06 6.5198699867215857e-07 -0.16032039460356665 8.6581830177668976e-07 8.752626804613898e-07 -0.16871248639725372 5.5313544630571715e-07 1.3611350577352568e-06 -0.19549278131573736 5.6233987507329632e-07 1.1480587916891667e-06 -0.22500828175629842 1.0339258876844506e-06 1.3432194814929039e-06 -0.18800412978768913 1.0376433551817532e-06 1.4746916460852151e-06 -0.22500842940589 1.0339258876844506e-06 1.3432194814929039e-06 -0.18800412978768913 5.6233987507329663e-07 1.1480587916891667e-06 -0.22500828175629844 1.1095362353258209e-06 1.1287232829677797e-06 -0.22500824272647041 1.0376433551817532e-06 1.4746916460852151e-06 -0.22500842940589 1.0339258876844506e-06 1.3432194814929039e-06 -0.18800412978768913 1.1095362353258207e-06 1.1287232829677795e-06 -0.22500824272647041 2.2851795412420303e-06 2.2852071150638246e-06 -0.22500879482981767 1.0376433551817532e-06 1.4746916460852151e-06 -0.22500842940589 5.5313544630571715e-07 1.3611350577352568e-06 -0.19549278131573736 6.5125936138431704e-07 1.5842450044398295e-06 -0.16032039614855581 1.0339258876844506e-06 1.3432194814929039e-06 -0.18800412978768913 8.6581830177668944e-07 8.7526268046138991e-07 -0.16871248639725372 6.2565793607445111e-07 6.3302704189323125e-07 -0.22500828640395129 3.0536742984172388e-07 7.0015092085829958e-07 -0.15999472950949964 5.6233987507329632e-07 1.1480587916891667e-06 -0.22500828175629842 8.6581830177668923e-07 8.752626804613897e-07 -0.1687124863972537 -7.1951795145410204e-08 2.2076246424132653e-06 -0.17912262032708989 6.5125936138431715e-07 1.5842450044398295e-06 -0.16032039614855578 5.5313544630571715e-07 1.3611350577352568e-06 -0.19549278131573736 3.0536742984172383e-07 7.0015092085829958e-07 -0.15999472950949967 -7.1951795145410204e-08 2.2076246424132653e-06 -0.17912262032708989 5.5313544630571715e-07 1.3611350577352568e-06 -0.19549278131573736 -5.1036658467217239e-08 1.143350295111335e-06 -0.22500840181502499 3.0536742984172383e-07 7.0015092085829958e-07 -0.15999472950949967 5.6233987507329632e-07 1.1480587916891667e-06 -0.22500828175629842 -5.1036658467217239e-08 1.143350295111335e-06 -0.22500840181502499 5.5313544630571715e-07 1.3611350577352568e-06 -0.19549278131573736 3.0536742984172378e-07 7.0015092085829937e-07 -0.15999472950949964 5.6233987507329632e-07 1.1480587916891667e-06 -0.22500828175629842 3.0536742984172388e-07 7.0015092085829947e-07 -0.15999472950949967 5.5313544630571715e-07 1.3611350577352566e-06 -0.19549278131573733 8.6581830177668955e-07 8.752626804613898e-07 -0.16871248639725372 5.5313544630571715e-07 1.3611350577352568e-06 -0.19549278131573736 3.0536742984172383e-07 7.0015092085829968e-07 -0.15999472950949967 6.5125936138431715e-07 1.5842450044398295e-06 -0.16032039614855578 8.6581830177668923e-07 8.7526268046138991e-07 -0.16871248639725372 6.2565793607445111e-07 6.3302704189323125e-07 -0.22500828640395129 -5.1036658467217239e-08 1.143350295111335e-06 -0.22500840181502499 5.6233987507329632e-07 1.1480587916891667e-06 -0.22500828175629842 3.0536742984172383e-07 7.0015092085829958e-07 -0.15999472950949967 5.6233987507329632e-07 1.1480587916891667e-06 -0.22500828175629842 5.5313544630571715e-07 1.3611350577352566e-06 -0.19549278131573736 3.9472356046261316e-07 1.9711866253737113e-06 -0.22500851820792342 1.0376433551817532e-06 1.4746916460852151e-06 -0.22500842940589 5.6233987507329632e-07 1.1480587916891667e-06 -0.22500828175629842 5.5313544630571715e-07 1.3611350577352563e-06 -0.19549278131573739 -5.1036658467217239e-08 1.143350295111335e-06 -0.22500840181502499 3.9472356046261316e-07 1.9711866253737113e-06 -0.22500851820792342 5.5313544630571715e-07 1.3611350577352568e-06 -0.19549278131573736 -7.1951795145410204e-08 2.2076246424132653e-06 -0.17912262032708989 -5.1036658467217325e-08 1.1433502951113346e-06 -0.22500840181502499 3.9472356046261316e-07 1.9711866253737113e-06 -0.22500851820792342 2.0828386809629577e-07 1.8624924620449117e-06 -0.13878674870946425 -2.0473406890131907e-07 7.3344753205184677e-07 -0.11630640651542709 3.5358859421163448e-07 1.7331601878364913e-06 -0.095229053596919258 1.0120020271845211e-06 9.1729334065965155e-07 -0.12106967681622172 2.0828386809629577e-07 1.8624924620449117e-06 -0.13878674870946425 3.0536742984172388e-07 7.0015092085829958e-07 -0.15999472950949964 -2.0473406890131912e-07 7.3344753205184687e-07 -0.11630640651542709 1.0120020271845211e-06 9.1729334065965155e-07 -0.12106967681622172 2.0828386809629577e-07 1.8624924620449117e-06 -0.13878674870946425 3.5358859421163437e-07 1.7331601878364913e-06 -0.095229053596919258 1.0803781251911112e-06 2.1924556078653722e-06 -0.11483093926902764 1.0120020271845211e-06 9.1729334065965155e-07 -0.12106967681622172 3.0536742984172383e-07 7.0015092085829958e-07 -0.15999472950949967 1.0120020271845211e-06 9.1729334065965155e-07 -0.12106967681622172 6.5125936138431704e-07 1.5842450044398295e-06 -0.16032039614855578 8.6581830177668965e-07 8.752626804613898e-07 -0.16871248639725375 2.0828386809629577e-07 1.8624924620449117e-06 -0.13878674870946425 1.0803781251911112e-06 2.1924556078653722e-06 -0.11483093926902764 6.5125936138431715e-07 1.5842450044398295e-06 -0.16032039614855578 1.0120020271845211e-06 9.1729334065965155e-07 -0.12106967681622172 2.0828386809629577e-07 1.8624924620449117e-06 -0.13878674870946425 6.5125936138431715e-07 1.5842450044398295e-06 -0.16032039614855578 3.0536742984172383e-07 7.0015092085829958e-07 -0.15999472950949967 1.0120020271845211e-06 9.1729334065965155e-07 -0.12106967681622172 -7.1951795145410204e-08 2.2076246424132653e-06 -0.17912262032708989 2.0828386809629577e-07 1.8624924620449117e-06 -0.13878674870946422 6.5125936138431715e-07 1.5842450044398295e-06 -0.16032039614855578 3.0536742984172383e-07 7.0015092085829958e-07 -0.15999472950949967 2.0828386809629577e-07 1.8624924620449117e-06 -0.13878674870946425 3.0536742984172356e-07 7.0015092085829937e-07 -0.15999472950949964 -7.1951795145410204e-08 2.2076246424132653e-06 -0.17912262032708989 -3.3353582169564782e-07 1.0362657721126057e-06 -0.1808317586209876 2.0828386809629577e-07 1.8624924620449117e-06 -0.13878674870946425 -1.5784179923889863e-07 4.7898444584462155e-07 -0.11250777092154464 3.5358859421163448e-07 1.7331601878364913e-06 -0.095229053596919258 -2.0473406890131912e-07 7.3344753205184687e-07 -0.11630640651542709 8.5184772985528248e-07 6.361971106689188e-08 -0.13122680368518996 1.0120020271845211e-06 9.1729334065965165e-07 -0.12106967681622172 3.0536742984172425e-07 7.0015092085829968e-07 -0.15999472950949967 7.5272775907488217e-07 4.7381673531260546e-08 -0.1799308925512387 3.0536742984172383e-07 7.0015092085829958e-07 -0.15999472950949967 -4.1482650583947296e-08 -4.0170451563859758e-08 -0.17056303157081276 8.5184772985528248e-07 6.3619711066891853e-08 -0.13122680368518996 7.5272775907488207e-07 4.7381673531260684e-08 -0.1799308925512387 2.4766520408687589e-08 -2.8604385142180839e-08 -0.11250737590774498 3.0536742984172383e-07 7.0015092085829958e-07 -0.15999472950949967 8.5184772985528248e-07 6.361971106689188e-08 -0.13122680368518996 1.0120020271845213e-06 9.1729334065965197e-07 -0.12106967681622167 1.0120020271845211e-06 9.1729334065965155e-07 -0.12106967681622172 8.6581830177668944e-07 8.752626804613898e-07 -0.16871248639725372 3.0536742984172383e-07 7.0015092085829958e-07 -0.15999472950949967 7.5272775907488217e-07 4.7381673531260546e-08 -0.1799308925512387 2.4766520408687589e-08 -2.8604385142180839e-08 -0.11250737590774498 8.5184772985528248e-07 6.361971106689184e-08 -0.13122680368518999 3.0536742984172383e-07 7.0015092085829958e-07 -0.15999472950949967 -4.1482650583947309e-08 -4.0170451563859844e-08 -0.17056303157081276 3.0536742984172383e-07 7.0015092085829958e-07 -0.15999472950949967 2.4766520408687569e-08 -2.8604385142180846e-08 -0.11250737590774498 -2.047340689013192e-07 7.3344753205184709e-07 -0.1163064065154271 1.0120020271845211e-06 9.1729334065965155e-07 -0.12106967681622172 3.0536742984172383e-07 7.0015092085829958e-07 -0.15999472950949967 -2.0473406890131931e-07 7.3344753205184687e-07 -0.11630640651542709 2.4766520408687728e-08 -2.8604385142180799e-08 -0.11250737590774498 -4.1482650583947368e-08 -4.0170451563859784e-08 -0.17056303157081276 6.2565793607445111e-07 6.3302704189323125e-07 -0.22500828640395129 3.6714400357434075e-07 1.9171151289232684e-07 -0.22500834829679947 -5.1036658467217239e-08 1.143350295111335e-06 -0.22500840181502499 3.0536742984172383e-07 7.0015092085829958e-07 -0.15999472950949967 7.5272775907488217e-07 4.7381673531260546e-08 -0.1799308925512387 3.0536742984172388e-07 7.0015092085829947e-07 -0.15999472950949967 -2.0439690714760352e-08 -4.6616004573707148e-08 -0.22500836866314491 3.6714400357434091e-07 1.9171151289232689e-07 -0.2250083482967995 3.6714400357434075e-07 1.9171151289232686e-07 -0.22500834829679947 3.0536742984172415e-07 7.0015092085829937e-07 -0.15999472950949964 6.2565793607445111e-07 6.3302704189323125e-07 -0.22500828640395129 7.5272775907488217e-07 4.7381673531260546e-08 -0.1799308925512387 -2.505891585715523e-07 4.4447238139483701e-07 -0.2250083794659728 -2.043969071476015e-08 -4.6616004573706857e-08 -0.22500836866314494 3.0536742984172383e-07 7.0015092085829958e-07 -0.15999472950949964 3.6714400357434075e-07 1.9171151289232686e-07 -0.22500834829679947 3.6714400357434075e-07 1.9171151289232686e-07 -0.22500834829679947 -2.505891585715523e-07 4.4447238139483701e-07 -0.2250083794659728 -5.1036658467217239e-08 1.143350295111335e-06 -0.22500840181502499 3.0536742984172378e-07 7.0015092085829958e-07 -0.15999472950949964 -2.505891585715523e-07 4.4447238139483701e-07 -0.2250083794659728 3.0536742984172394e-07 7.0015092085829958e-07 -0.15999472950949964 -2.043969071476015e-08 -4.6616004573706857e-08 -0.22500836866314494 -4.1482650583947349e-08 -4.0170451563859844e-08 -0.17056303157081276 7.5272775907488217e-07 4.7381673531260546e-08 -0.1799308925512387 -2.043969071476015e-08 -4.6616004573706804e-08 -0.22500836866314494 3.0536742984172394e-07 7.0015092085829937e-07 -0.15999472950949969 -4.1482650583947349e-08 -4.0170451563859844e-08 -0.17056303157081276 6.2565793607445111e-07 6.3302704189323125e-07 -0.22500828640395129 3.0536742984172388e-07 7.0015092085829958e-07 -0.15999472950949964 8.6581830177668912e-07 8.752626804613898e-07 -0.16871248639725375 7.5272775907488217e-07 4.7381673531260546e-08 -0.1799308925512387 1.1093302899190873e-06 -7.5277872187612603e-08 -0.22500840603251848 3.6714400357434075e-07 1.9171151289232686e-07 -0.22500834829679947 6.2565793607445111e-07 6.3302704189323125e-07 -0.22500828640395129 7.5272775907488217e-07 4.7381673531260559e-08 -0.1799308925512387 -7.063142229819934e-07 3.7370137096066259e-07 -0.1577632975256606 -2.5058915857155235e-07 4.4447238139483707e-07 -0.22500837946597282 -4.1482650583947269e-08 -4.017045156385985e-08 -0.17056303157081276 -3.3353582169564793e-07 1.0362657721126057e-06 -0.18083175862098763 -2.505891585715523e-07 4.4447238139483701e-07 -0.2250083794659728 -4.3839411063475959e-07 -2.9632474106868552e-07 -0.22500839860799932 -7.063142229819934e-07 3.7370137096066259e-07 -0.1577632975256606 -4.1482650583947349e-08 -4.0170451563859844e-08 -0.17056303157081276 -2.505891585715523e-07 4.4447238139483701e-07 -0.2250083794659728 -5.1036658467217239e-08 1.143350295111335e-06 -0.22500840181502499 3.0536742984172394e-07 7.0015092085829947e-07 -0.15999472950949967 -3.3353582169564782e-07 1.0362657721126057e-06 -0.1808317586209876 -2.505891585715523e-07 4.4447238139483701e-07 -0.2250083794659728 -2.0439690714760183e-08 -4.6616004573706837e-08 -0.22500836866314494 -4.3839411063475959e-07 -2.9632474106868552e-07 -0.22500839860799932 -4.1482650583947349e-08 -4.0170451563859844e-08 -0.17056303157081276 -2.505891585715523e-07 4.4447238139483701e-07 -0.2250083794659728 -1.1485455934736492e-06 -1.4376932298530026e-08 -0.22500843795872186 -6.6968188556074921e-07 7.0221702313010283e-07 -0.22500838930920117 -7.063142229819934e-07 3.7370137096066259e-07 -0.1577632975256606 -2.505891585715523e-07 4.4447238139483701e-07 -0.2250083794659728 -7.063142229819934e-07 3.7370137096066259e-07 -0.1577632975256606 -6.6968188556074921e-07 7.0221702313010283e-07 -0.22500838930920117 -3.3353582169564782e-07 1.0362657721126057e-06 -0.1808317586209876 -2.505891585715523e-07 4.4447238139483701e-07 -0.2250083794659728 -4.3839411063475959e-07 -2.9632474106868552e-07 -0.22500839860799932 -1.1485455934736492e-06 -1.4376932298530026e-08 -0.22500843795872186 -7.063142229819934e-07 3.7370137096066259e-07 -0.1577632975256606 -6.6968188556074921e-07 7.0221702313010283e-07 -0.22500838930920117 -7.063142229819934e-07 3.7370137096066259e-07 -0.1577632975256606 -1.1511764783968641e-06 6.2809783031734072e-07 -0.22500835392776344 -3.3353582169564782e-07 1.0362657721126057e-06 -0.1808317586209876 3.0536742984172383e-07 7.0015092085829958e-07 -0.15999472950949967 -4.1482650583947309e-08 -4.0170451563859731e-08 -0.17056303157081279 -2.5058915857155214e-07 4.4447238139483701e-07 -0.22500837946597282 -3.3353582169564793e-07 1.0362657721126057e-06 -0.18083175862098758 -2.505891585715523e-07 4.4447238139483701e-07 -0.2250083794659728 -6.6968188556074921e-07 7.0221702313010283e-07 -0.22500838930920117 -5.1036658467217239e-08 1.143350295111335e-06 -0.22500840181502499 -3.3353582169564782e-07 1.0362657721126057e-06 -0.1808317586209876 -7.063142229819934e-07 3.7370137096066259e-07 -0.1577632975256606 -4.1482650583947243e-08 -4.0170451563859989e-08 -0.17056303157081279 3.0536742984172383e-07 7.0015092085829958e-07 -0.15999472950949967 -3.3353582169564787e-07 1.0362657721126055e-06 -0.1808317586209876 -7.063142229819934e-07 3.7370137096066259e-07 -0.1577632975256606 -2.0473406890131918e-07 7.3344753205184677e-07 -0.11630640651542708 3.0536742984172383e-07 7.0015092085829958e-07 -0.15999472950949967 -4.1482650583947362e-08 -4.0170451563860003e-08 -0.17056303157081279 -7.063142229819934e-07 3.7370137096066259e-07 -0.1577632975256606 2.4766520408687192e-08 -2.8604385142181183e-08 -0.11250737590774496 -2.047340689013191e-07 7.3344753205184709e-07 -0.1163064065154271 -4.1482650583947276e-08 -4.0170451563859731e-08 -0.17056303157081279 3.0536742984172383e-07 7.0015092085829958e-07 -0.15999472950949967 -2.047340689013191e-07 7.3344753205184687e-07 -0.11630640651542708 -7.063142229819934e-07 3.7370137096066259e-07 -0.1577632975256606 -3.3353582169564787e-07 1.0362657721126059e-06 -0.1808317586209876 2.4766520408687589e-08 -2.8604385142180839e-08 -0.11250737590774498 -7.0631422298199329e-07 3.7370137096066264e-07 -0.1577632975256606 -2.047340689013191e-07 7.3344753205184698e-07 -0.11630640651542709 -8.3676624714832281e-07 -8.5966934153781919e-08 -0.11356349935481508 -2.0473406890131912e-07 7.3344753205184687e-07 -0.11630640651542709 -8.3676624714832292e-07 -8.5966934153781826e-08 -0.11356349935481509 -7.0631422298199329e-07 3.7370137096066253e-07 -0.1577632975256606 -1.0430846505848814e-06 1.0162707339455907e-06 -0.13749253292993868 -2.0473406890131912e-07 7.3344753205184687e-07 -0.11630640651542709 -9.565538493838773e-07 9.7284563201267285e-07 -0.08686913600138467 -8.3676624714832281e-07 -8.5966934153781985e-08 -0.11356349935481508 -1.0430846505848814e-06 1.0162707339455907e-06 -0.13749253292993868 -7.063142229819934e-07 3.7370137096066259e-07 -0.1577632975256606 -8.3676624714832271e-07 -8.5966934153781839e-08 -0.11356349935481506 2.4766520408687569e-08 -2.8604385142180892e-08 -0.11250737590774498 -4.1482650583947382e-08 -4.0170451563860148e-08 -0.17056303157081276 -2.0473406890131912e-07 7.3344753205184687e-07 -0.11630640651542709 -1.0430846505848814e-06 1.0162707339455907e-06 -0.13749253292993868 -7.063142229819934e-07 3.7370137096066264e-07 -0.15776329752566062 -3.3353582169564798e-07 1.0362657721126055e-06 -0.1808317586209876 -4.735334037608845e-07 1.7801820730798888e-06 -0.12818034135432485 -1.0430846505848809e-06 1.0162707339455907e-06 -0.13749253292993868 -2.0473406890131912e-07 7.3344753205184687e-07 -0.11630640651542709 -3.3353582169564782e-07 1.0362657721126057e-06 -0.1808317586209876 -4.735334037608845e-07 1.7801820730798888e-06 -0.12818034135432485 -2.0473406890131912e-07 7.3344753205184687e-07 -0.11630640651542709 2.0828386809629577e-07 1.8624924620449117e-06 -0.13878674870946425 -3.3353582169564782e-07 1.0362657721126057e-06 -0.1808317586209876 2.0828386809629577e-07 1.8624924620449117e-06 -0.13878674870946425 -2.0473406890131897e-07 7.3344753205184687e-07 -0.11630640651542709 3.0536742984172367e-07 7.0015092085829979e-07 -0.15999472950949967 -3.3353582169564782e-07 1.0362657721126057e-06 -0.1808317586209876 -4.735334037608845e-07 1.7801820730798888e-06 -0.12818034135432485 -9.565538493838773e-07 9.7284563201267264e-07 -0.086869136001384642 -2.047340689013191e-07 7.3344753205184687e-07 -0.11630640651542709 -1.0430846505848814e-06 1.0162707339455909e-06 -0.13749253292993868 -4.735334037608845e-07 1.7801820730798888e-06 -0.12818034135432485 -1.5784179923889863e-07 4.7898444584462155e-07 -0.11250777092154464 2.0828386809629577e-07 1.8624924620449117e-06 -0.13878674870946425 -2.0473406890131912e-07 7.3344753205184687e-07 -0.11630640651542709 -1.0688332475138657e-06 2.1075437629513606e-06 -0.11018423174631628 -4.735334037608845e-07 1.7801820730798888e-06 -0.12818034135432485 -7.3619130629899284e-07 1.5303354190569439e-06 -0.16032046801221017 -1.0430846505848814e-06 1.0162707339455907e-06 -0.13749253292993868 -4.735334037608845e-07 1.7801820730798888e-06 -0.12818034135432485 -7.3619130629899305e-07 1.5303354190569439e-06 -0.16032046801221014 -1.0430846505848809e-06 1.0162707339455909e-06 -0.13749253292993868 -3.3353582169564782e-07 1.0362657721126057e-06 -0.1808317586209876 -1.0956636195605421e-06 1.3567238789781249e-06 -0.18741439218920913 -1.0430846505848814e-06 1.0162707339455907e-06 -0.13749253292993868 -7.3619130629899273e-07 1.5303354190569439e-06 -0.16032046801221017 -3.3353582169564782e-07 1.0362657721126057e-06 -0.1808317586209876 -4.735334037608845e-07 1.7801820730798888e-06 -0.12818034135432485 2.082838680962958e-07 1.8624924620449119e-06 -0.13878674870946425 -7.1951795145410204e-08 2.2076246424132653e-06 -0.17912262032708989 -3.3353582169564782e-07 1.0362657721126057e-06 -0.1808317586209876 -7.3619130629899284e-07 1.5303354190569439e-06 -0.16032046801221017 -4.735334037608845e-07 1.7801820730798888e-06 -0.12818034135432485 -7.1951795145410244e-08 2.2076246424132653e-06 -0.17912262032708989 -3.3353582169564782e-07 1.0362657721126057e-06 -0.1808317586209876 -7.1951795145410204e-08 2.2076246424132653e-06 -0.17912262032708989 3.0536742984172394e-07 7.0015092085829958e-07 -0.15999472950949967 -5.1036658467217166e-08 1.143350295111335e-06 -0.22500840181502499 -3.3353582169564782e-07 1.0362657721126057e-06 -0.18083175862098758 -3.849048296642767e-07 1.9116386105241073e-06 -0.22500843153147726 -6.5049890793068043e-07 1.2212118932089428e-06 -0.19519560438387507 -7.1951795145410204e-08 2.2076246424132653e-06 -0.17912262032708989 -3.3353582169564782e-07 1.0362657721126057e-06 -0.1808317586209876 -7.1951795145410204e-08 2.2076246424132653e-06 -0.17912262032708989 -3.849048296642767e-07 1.9116386105241068e-06 -0.22500843153147723 -5.1036658467217239e-08 1.143350295111335e-06 -0.22500840181502499 3.9472356046261316e-07 1.9711866253737113e-06 -0.22500851820792342 -7.1951795145410204e-08 2.2076246424132653e-06 -0.17912262032708989 -5.1036658467217139e-08 1.143350295111335e-06 -0.22500840181502499 -3.849048296642767e-07 1.9116386105241073e-06 -0.22500843153147726 -3.3353582169564787e-07 1.0362657721126057e-06 -0.1808317586209876 -3.849048296642767e-07 1.9116386105241073e-06 -0.22500843153147726 -5.1036658467217212e-08 1.1433502951113348e-06 -0.22500840181502502 -6.3760538897283322e-07 1.2582331176965942e-06 -0.22500833471902099 -3.3353582169564782e-07 1.0362657721126057e-06 -0.1808317586209876 -6.3760538897283322e-07 1.2582331176965942e-06 -0.22500833471902099 -5.1036658467217245e-08 1.143350295111335e-06 -0.22500840181502499 -6.6968188556074921e-07 7.0221702313010283e-07 -0.22500838930920117 -3.3353582169564787e-07 1.0362657721126057e-06 -0.18083175862098763 -1.2000189601013423e-06 1.1938552412211996e-06 -0.22500830767558347 -6.3760538897283322e-07 1.2582331176965942e-06 -0.22500833471902099 -6.6968188556074921e-07 7.0221702313010283e-07 -0.22500838930920117 -3.3353582169564782e-07 1.0362657721126057e-06 -0.1808317586209876 -1.2000189601013423e-06 1.1938552412211996e-06 -0.22500830767558347 -1.0956636195605421e-06 1.3567238789781249e-06 -0.18741439218920913 -6.3760538897283322e-07 1.2582331176965942e-06 -0.22500833471902099 -3.3353582169564782e-07 1.0362657721126057e-06 -0.1808317586209876 -3.849048296642767e-07 1.9116386105241073e-06 -0.22500843153147726 -6.3760538897283322e-07 1.2582331176965942e-06 -0.22500833471902099 -6.5049890793068043e-07 1.2212118932089428e-06 -0.19519560438387507 -3.3353582169564782e-07 1.0362657721126057e-06 -0.1808317586209876 -6.3760538897283322e-07 1.2582331176965942e-06 -0.22500833471902099 -1.0956636195605423e-06 1.3567238789781249e-06 -0.18741439218920913 -6.5049890793068043e-07 1.2212118932089428e-06 -0.19519560438387507 -3.3353582169564782e-07 1.0362657721126055e-06 -0.18083175862098758 -1.0983498699175733e-06 1.5473124362797326e-06 -0.22500847590700859 -3.849048296642767e-07 1.9116386105241073e-06 -0.22500843153147726 -6.3760538897283322e-07 1.2582331176965942e-06 -0.22500833471902099 -6.5049890793068043e-07 1.2212118932089428e-06 -0.19519560438387507 -7.3619130629899284e-07 1.5303354190569439e-06 -0.16032046801221017 -7.1951795145410204e-08 2.2076246424132653e-06 -0.17912262032708989 -6.5049890793068043e-07 1.2212118932089428e-06 -0.19519560438387507 -3.3353582169564782e-07 1.0362657721126057e-06 -0.1808317586209876 -1.0956636195605421e-06 1.3567238789781249e-06 -0.18741439218920913 -7.3619130629899284e-07 1.5303354190569439e-06 -0.16032046801221017 -6.5049890793068043e-07 1.2212118932089428e-06 -0.19519560438387507 -3.3353582169564782e-07 1.0362657721126057e-06 -0.1808317586209876 -1.0430846505848814e-06 1.0162707339455907e-06 -0.13749253292993868 -1.3664953211172127e-06 5.7811602967129366e-07 -0.19537484628210597 -3.3353582169564777e-07 1.0362657721126057e-06 -0.1808317586209876 -1.3557637678657917e-06 9.9377451956801068e-07 -0.18741436571446851 -1.2000189601013423e-06 1.1938552412211996e-06 -0.22500830767558347 -6.6968188556074921e-07 7.0221702313010283e-07 -0.22500838930920117 -1.1511764783968641e-06 6.2809783031734072e-07 -0.22500835392776344 -3.3353582169564782e-07 1.0362657721126057e-06 -0.1808317586209876 -1.0956636195605421e-06 1.3567238789781249e-06 -0.18741439218920913 -1.3557637678657917e-06 9.9377451956801089e-07 -0.18741436571446851 -1.0430846505848816e-06 1.0162707339455907e-06 -0.13749253292993868 -3.3353582169564771e-07 1.0362657721126057e-06 -0.1808317586209876 -1.0956636195605421e-06 1.3567238789781249e-06 -0.18741439218920913 -1.2000189601013423e-06 1.1938552412211996e-06 -0.22500830767558347 -1.3557637678657917e-06 9.9377451956801089e-07 -0.18741436571446851 -3.3353582169564777e-07 1.0362657721126057e-06 -0.1808317586209876 -1.5325867982905955e-06 7.2781341169628129e-07 -0.16032044113932498 -1.3557637678657917e-06 9.937745195680111e-07 -0.18741436571446851 -1.3664953211172127e-06 5.7811602967129377e-07 -0.19537484628210594 -1.0430846505848814e-06 1.0162707339455907e-06 -0.13749253292993868 -1.2000189601013423e-06 1.1938552412211996e-06 -0.22500830767558347 -1.1511764783968641e-06 6.2809783031734072e-07 -0.22500835392776344 -1.3557637678657917e-06 9.9377451956801089e-07 -0.18741436571446851 -3.3353582169564787e-07 1.0362657721126057e-06 -0.1808317586209876 -1.1511764783968641e-06 6.2809783031734072e-07 -0.22500835392776344 -3.3353582169564761e-07 1.0362657721126057e-06 -0.18083175862098758 -1.3664953211172127e-06 5.7811602967129377e-07 -0.19537484628210594 -1.3557637678657917e-06 9.9377451956801089e-07 -0.18741436571446851 -1.0956636195605421e-06 1.3567238789781249e-06 -0.18741439218920913 -1.0983498699175735e-06 1.5473124362797324e-06 -0.22500847590700859 -1.2000189601013423e-06 1.1938552412211996e-06 -0.22500830767558347 -6.376053889728328e-07 1.2582331176965942e-06 -0.22500833471902096 -1.0956636195605421e-06 1.3567238789781249e-06 -0.18741439218920913 -1.0983498699175733e-06 1.5473124362797326e-06 -0.22500847590700859 -6.3760538897283301e-07 1.258233117696594e-06 -0.22500833471902099 -6.5049890793068043e-07 1.2212118932089428e-06 -0.19519560438387507 -1.0983498699175733e-06 1.5473124362797326e-06 -0.22500847590700859 -1.0956636195605421e-06 1.3567238789781249e-06 -0.18741439218920913 -1.2000189601013423e-06 1.1938552412211996e-06 -0.22500830767558347 -2.3246459063891126e-06 2.3231786392268102e-06 -0.22500883663998159 -1.2000189601013423e-06 1.1938552412211996e-06 -0.22500830767558347 -1.1511764783968641e-06 6.2809783031734072e-07 -0.22500835392776344 -1.4843112412157011e-06 1.0490742357426233e-06 -0.22500844602637382 -1.3557637678657917e-06 9.9377451956801089e-07 -0.18741436571446851 -1.1511764783968641e-06 6.2809783031734072e-07 -0.22500835392776344 -1.4843112412157011e-06 1.0490742357426233e-06 -0.22500844602637382 -1.3557637678657917e-06 9.9377451956801089e-07 -0.18741436571446851 -1.3664953211172127e-06 5.7811602967129377e-07 -0.19537484628210594 -1.4843112412157011e-06 1.0490742357426233e-06 -0.22500844602637382 -1.2000189601013425e-06 1.1938552412211998e-06 -0.22500830767558347 -1.3557637678657917e-06 9.9377451956801089e-07 -0.18741436571446851 -2.3246459063891126e-06 2.3231786392268102e-06 -0.22500883663998159 -1.2000189601013423e-06 1.1938552412211996e-06 -0.22500830767558347 -1.0956636195605421e-06 1.3567238789781249e-06 -0.18741439218920913 -1.3557637678657915e-06 9.9377451956801068e-07 -0.18741436571446851 -2.3246459063891126e-06 2.3231786392268102e-06 -0.22500883663998159 -1.2365171305396286e-06 1.3706358854183713e-06 -0.15458702201953128 -1.2312738286154102e-06 1.2406821508958677e-06 -0.1547938016442395 -1.0956636195605418e-06 1.3567238789781247e-06 -0.18741439218920911 -1.5410139098517095e-06 1.4818958078175811e-06 -0.18000829301429264 -1.0956636195605421e-06 1.3567238789781249e-06 -0.18741439218920913 -1.2312738286154102e-06 1.2406821508958674e-06 -0.15479380164423948 -1.3557637678657917e-06 9.9377451956801089e-07 -0.18741436571446851 -1.5410139098517095e-06 1.4818958078175811e-06 -0.18000829301429264 -1.0956636195605421e-06 1.3567238789781249e-06 -0.18741439218920913 -1.3557637678657917e-06 9.9377451956801089e-07 -0.18741436571446851 -2.3246459063891126e-06 2.3231786392268102e-06 -0.22500883663998159 -1.5410139098517095e-06 1.4818958078175811e-06 -0.18000829301429264 -1.9292813609047934e-06 1.9976937430219676e-06 -0.13500781298076106 -1.2312738286154102e-06 1.2406821508958677e-06 -0.1547938016442395 -1.2365171305396286e-06 1.3706358854183713e-06 -0.15458702201953128 -1.5410139098517095e-06 1.4818958078175811e-06 -0.18000829301429264 -1.2312738286154102e-06 1.2406821508958677e-06 -0.1547938016442395 -1.0956636195605421e-06 1.3567238789781249e-06 -0.18741439218920913 -1.3557637678657917e-06 9.9377451956801089e-07 -0.18741436571446851 -1.0430846505848816e-06 1.0162707339455909e-06 -0.13749253292993871 -1.9292813609047934e-06 1.9976937430219676e-06 -0.13500781298076106 -1.2365171305396286e-06 1.3706358854183713e-06 -0.15458702201953128 -1.2312738286154102e-06 1.2406821508958677e-06 -0.1547938016442395 -1.0430846505848811e-06 1.0162707339455905e-06 -0.13749253292993868 -1.2312738286154102e-06 1.2406821508958677e-06 -0.1547938016442395 -1.2365171305396288e-06 1.3706358854183715e-06 -0.15458702201953131 -1.0956636195605418e-06 1.3567238789781247e-06 -0.18741439218920913 -1.0430846505848814e-06 1.0162707339455907e-06 -0.13749253292993868 -7.3619130629899284e-07 1.5303354190569439e-06 -0.16032046801221017 -1.0956636195605421e-06 1.3567238789781249e-06 -0.18741439218920913 -1.2365171305396286e-06 1.3706358854183713e-06 -0.15458702201953128 -1.0430846505848814e-06 1.0162707339455907e-06 -0.13749253292993868 -7.3619130629899284e-07 1.5303354190569439e-06 -0.16032046801221017 -1.2365171305396286e-06 1.3706358854183713e-06 -0.15458702201953128 -1.0688332475138657e-06 2.1075437629513606e-06 -0.11018423174631628 -1.0430846505848814e-06 1.0162707339455907e-06 -0.13749253292993868 -4.735334037608845e-07 1.7801820730798888e-06 -0.12818034135432485 -1.0688332475138657e-06 2.1075437629513606e-06 -0.11018423174631628 -9.565538493838773e-07 9.7284563201267242e-07 -0.086869136001384642 -1.0430846505848814e-06 1.0162707339455909e-06 -0.13749253292993865 -1.0688332475138657e-06 2.1075437629513606e-06 -0.11018423174631628 -1.2365171305396288e-06 1.3706358854183715e-06 -0.15458702201953128 -1.9292813609047934e-06 1.9976937430219676e-06 -0.13500781298076106 -1.0430846505848814e-06 1.0162707339455907e-06 -0.13749253292993868 -1.0688332475138657e-06 2.1075437629513606e-06 -0.11018423174631628 -1.9292813609047934e-06 1.9976937430219676e-06 -0.13500781298076106 -2.1447826988564459e-06 1.0824821021230812e-06 -0.11483101382096722 -1.0430846505848814e-06 1.0162707339455905e-06 -0.13749253292993865 -1.9292813609047934e-06 1.9976937430219676e-06 -0.13500781298076106 -1.2312738286154102e-06 1.2406821508958677e-06 -0.1547938016442395 -2.1447826988564459e-06 1.0824821021230812e-06 -0.11483101382096721 -1.0430846505848816e-06 1.0162707339455907e-06 -0.13749253292993868 -1.5325867982905955e-06 7.2781341169628129e-07 -0.16032044113932498 -2.1447826988564459e-06 1.0824821021230812e-06 -0.11483101382096721 -1.2312738286154102e-06 1.2406821508958677e-06 -0.1547938016442395 -1.0430846505848814e-06 1.0162707339455907e-06 -0.13749253292993868 -1.2312738286154102e-06 1.2406821508958677e-06 -0.1547938016442395 -1.3557637678657917e-06 9.9377451956801089e-07 -0.18741436571446851 -1.5325867982905955e-06 7.2781341169628129e-07 -0.16032044113932498 -1.0430846505848816e-06 1.0162707339455907e-06 -0.13749253292993868 -1.8312112375692495e-06 2.4120404993648057e-07 -0.14208459809555415 -7.0631422298199329e-07 3.7370137096066275e-07 -0.1577632975256606 -2.1301506795013434e-06 -4.3772311254498057e-08 -0.17912262625432571 -8.3676624714832281e-07 -8.5966934153781681e-08 -0.11356349935481508 -1.8312112375692495e-06 2.4120404993648057e-07 -0.14208459809555415 -1.5325867982905955e-06 7.2781341169628129e-07 -0.16032044113932498 -7.0631422298199361e-07 3.7370137096066259e-07 -0.1577632975256606 -1.0430846505848814e-06 1.0162707339455907e-06 -0.13749253292993868 -1.0430846505848814e-06 1.0162707339455907e-06 -0.13749253292993868 -3.3353582169564782e-07 1.0362657721126057e-06 -0.1808317586209876 -1.3664953211172127e-06 5.7811602967129377e-07 -0.19537484628210594 -7.063142229819934e-07 3.7370137096066259e-07 -0.1577632975256606 -1.7963410941371675e-06 4.3439888086420817e-07 -0.096834932874743901 -1.8312112375692495e-06 2.4120404993648057e-07 -0.14208459809555415 -8.367662471483225e-07 -8.5966934153782104e-08 -0.11356349935481506 -1.0430846505848814e-06 1.0162707339455907e-06 -0.13749253292993868 -1.5325867982905955e-06 7.2781341169628129e-07 -0.16032044113932498 -2.1301506795013434e-06 -4.3772311254498076e-08 -0.17912262625432568 -1.8312112375692495e-06 2.4120404993648057e-07 -0.14208459809555415 -7.063142229819934e-07 3.7370137096066259e-07 -0.1577632975256606 -1.5325867982905955e-06 7.2781341169628129e-07 -0.16032044113932498 -1.3664953211172127e-06 5.7811602967129377e-07 -0.19537484628210594 -7.063142229819934e-07 3.737013709606628e-07 -0.1577632975256606 -1.0430846505848814e-06 1.0162707339455907e-06 -0.13749253292993868 -7.063142229819934e-07 3.7370137096066259e-07 -0.1577632975256606 -8.3676624714832281e-07 -8.5966934153781919e-08 -0.11356349935481508 -1.8312112375692495e-06 2.4120404993648067e-07 -0.14208459809555418 -1.0430846505848814e-06 1.0162707339455907e-06 -0.13749253292993868 -1.8312112375692495e-06 2.4120404993648057e-07 -0.14208459809555415 -2.1447826988564459e-06 1.0824821021230812e-06 -0.11483101382096721 -1.5325867982905955e-06 7.2781341169628129e-07 -0.16032044113932498 -1.0430846505848807e-06 1.0162707339455905e-06 -0.13749253292993865 -1.7963410941371675e-06 4.3439888086420817e-07 -0.096834932874743901 -2.1447826988564459e-06 1.0824821021230812e-06 -0.11483101382096719 -1.8312112375692495e-06 2.4120404993648057e-07 -0.14208459809555415 -1.0430846505848814e-06 1.0162707339455907e-06 -0.13749253292993868 -6.0747646535356592e-07 -6.4488800062169868e-08 -0.11250765485392443 -1.7963410941371675e-06 4.3439888086420817e-07 -0.096834932874743901 -1.8312112375692495e-06 2.4120404993648057e-07 -0.14208459809555415 -8.3676624714832281e-07 -8.5966934153781919e-08 -0.11356349935481508 -1.3664953211172127e-06 5.7811602967129377e-07 -0.19537484628210594 -2.1301506795013434e-06 -4.3772311254498043e-08 -0.17912262625432571 -1.5325867982905955e-06 7.2781341169628129e-07 -0.16032044113932498 -7.063142229819934e-07 3.7370137096066259e-07 -0.1577632975256606 -1.1511764783968641e-06 6.2809783031734072e-07 -0.22500835392776344 -1.3664953211172127e-06 5.7811602967129377e-07 -0.19537484628210594 -3.3353582169564771e-07 1.0362657721126061e-06 -0.1808317586209876 -7.0631422298199361e-07 3.7370137096066259e-07 -0.15776329752566062 -1.1511764783968641e-06 6.2809783031734072e-07 -0.22500835392776344 -1.1485455934736492e-06 -1.4376932298530026e-08 -0.22500843795872186 -1.3664953211172127e-06 5.7811602967129377e-07 -0.19537484628210594 -7.063142229819934e-07 3.7370137096066259e-07 -0.1577632975256606 -6.6968188556074921e-07 7.0221702313010283e-07 -0.22500838930920117 -1.1485455934736492e-06 -1.4376932298530026e-08 -0.22500843795872186 -1.1511764783968641e-06 6.2809783031734072e-07 -0.22500835392776344 -7.063142229819934e-07 3.7370137096066259e-07 -0.1577632975256606 -1.3664953211172127e-06 5.7811602967129377e-07 -0.19537484628210594 -1.1485455934736492e-06 -1.4376932298529892e-08 -0.22500843795872183 -2.1301506795013434e-06 -4.3772311254498057e-08 -0.17912262625432571 -7.063142229819934e-07 3.7370137096066259e-07 -0.1577632975256606 -1.1511764783968641e-06 6.2809783031734072e-07 -0.22500835392776344 -1.9923101440337283e-06 4.0525859577859592e-07 -0.22500855144518839 -1.4843112412157011e-06 1.0490742357426233e-06 -0.22500844602637379 -1.3664953211172127e-06 5.7811602967129377e-07 -0.19537484628210594 -1.1511764783968641e-06 6.2809783031734072e-07 -0.22500835392776344 -1.9923101440337283e-06 4.0525859577859581e-07 -0.22500855144518839 -1.3664953211172127e-06 5.7811602967129377e-07 -0.19537484628210594 -1.1485455934736492e-06 -1.4376932298530026e-08 -0.22500843795872186 -1.9923101440337283e-06 4.0525859577859586e-07 -0.22500855144518839 -1.3664953211172127e-06 5.7811602967129377e-07 -0.19537484628210594 -1.1485455934736492e-06 -1.4376932298530026e-08 -0.22500843795872186 -2.1301506795013434e-06 -4.3772311254498057e-08 -0.17912262625432571 -1.9923101440337283e-06 4.0525859577859586e-07 -0.22500855144518839 -1.1485455934736492e-06 -1.4376932298530026e-08 -0.22500843795872186 -1.9319943460337868e-06 -4.3822087184432646e-07 -0.22500847998043139 -2.1301506795013434e-06 -4.3772311254498057e-08 -0.17912262625432571 -1.134786187406729e-06 -6.0317553124665882e-07 -0.22500837912997854 -1.9319943460337868e-06 -4.3822087184432646e-07 -0.22500847998043139 -2.1301506795013438e-06 -4.3772311254497891e-08 -0.17912262625432573 -1.2297490855511266e-06 -6.5808429737487899e-07 -0.19519566160392038 -1.134786187406729e-06 -6.0317553124665882e-07 -0.22500837912997854 -6.7635226597245412e-07 -7.0090168177037911e-07 -0.22500840920865928 -1.1487749789730924e-06 -1.1478212692934719e-06 -0.22500834109196194 -6.0322831613068121e-07 -5.9879807644826286e-07 -0.1538973079811459 -1.1485455934736492e-06 -1.4376932298530026e-08 -0.22500843795872186 -6.0322831613068121e-07 -5.9879807644826328e-07 -0.1538973079811459 -2.1301506795013434e-06 -4.3772311254497971e-08 -0.17912262625432565 -7.0631422298199329e-07 3.737013709606629e-07 -0.1577632975256606 -1.1485455934736492e-06 -1.4376932298530026e-08 -0.22500843795872186 -6.7635226597245434e-07 -7.0090168177037921e-07 -0.22500840920865925 -1.134786187406729e-06 -6.0317553124665882e-07 -0.22500837912997854 -6.0322831613068121e-07 -5.9879807644826275e-07 -0.15389730798114587 -1.1485455934736492e-06 -1.4376932298530026e-08 -0.22500843795872186 -1.134786187406729e-06 -6.0317553124665882e-07 -0.22500837912997854 -1.9319943460337868e-06 -4.3822087184432646e-07 -0.22500847998043139 -2.1301506795013434e-06 -4.377231125449801e-08 -0.17912262625432568 -2.1301506795013434e-06 -4.3772311254498057e-08 -0.17912262625432571 -1.1347861874067288e-06 -6.0317553124665882e-07 -0.22500837912997854 -1.2297490855511264e-06 -6.580842973748791e-07 -0.19519566160392038 -6.0322831613068121e-07 -5.9879807644826286e-07 -0.1538973079811459 -1.2297490855511264e-06 -6.580842973748791e-07 -0.19519566160392038 -1.1347861874067292e-06 -6.0317553124665893e-07 -0.22500837912997854 -1.3520362910588222e-06 -1.0647732719550352e-06 -0.18741444851437344 -6.03228316130681e-07 -5.9879807644826275e-07 -0.15389730798114587 -1.2297490855511264e-06 -6.580842973748791e-07 -0.19519566160392038 -1.3520362910588222e-06 -1.0647732719550352e-06 -0.18741444851437344 -1.5547965307987129e-06 -7.5781359521429918e-07 -0.160320479771945 -6.03228316130681e-07 -5.9879807644826286e-07 -0.15389730798114593 -1.1485455934736492e-06 -1.4376932298530026e-08 -0.22500843795872186 -1.134786187406729e-06 -6.0317553124665882e-07 -0.22500837912997854 -2.1301506795013438e-06 -4.377231125449803e-08 -0.17912262625432571 -6.0322831613068089e-07 -5.9879807644826307e-07 -0.15389730798114587 -2.1301506795013434e-06 -4.3772311254498057e-08 -0.17912262625432571 -1.2297490855511266e-06 -6.580842973748791e-07 -0.19519566160392035 -1.5547965307987131e-06 -7.5781359521429928e-07 -0.160320479771945 -6.0322831613068121e-07 -5.9879807644826286e-07 -0.1538973079811459 -1.134786187406729e-06 -6.0317553124665882e-07 -0.22500837912997854 -1.9319943460337868e-06 -4.3822087184432646e-07 -0.22500847998043139 -1.2297490855511264e-06 -6.580842973748791e-07 -0.19519566160392038 -1.5421887901512805e-06 -1.07075286835717e-06 -0.22500854336095802 -3.579943245226683e-08 -1.2108393619082697e-06 -0.22500843951266949 -4.3839411063475948e-07 -2.9632474106868557e-07 -0.22500839860799932 2.3620121985511792e-07 -4.7445898407751579e-07 -0.22500838205245943 -4.1482650583947349e-08 -4.0170451563859844e-08 -0.17056303157081276 -3.579943245226683e-08 -1.2108393619082697e-06 -0.22500843951266949 -6.03228316130681e-07 -5.9879807644826275e-07 -0.1538973079811459 -4.3839411063475959e-07 -2.9632474106868552e-07 -0.22500839860799932 -4.148265058394762e-08 -4.0170451563859817e-08 -0.17056303157081276 -3.579943245226683e-08 -1.2108393619082697e-06 -0.22500843951266949 3.690219099576169e-07 -7.155084490511912e-07 -0.1577633092157793 -6.0322831613068121e-07 -5.9879807644826286e-07 -0.1538973079811459 -4.1482650583947488e-08 -4.0170451563859857e-08 -0.17056303157081276 -6.0322831613068121e-07 -5.9879807644826286e-07 -0.1538973079811459 -7.0631422298199361e-07 3.737013709606628e-07 -0.1577632975256606 -4.3839411063475959e-07 -2.9632474106868552e-07 -0.22500839860799932 -4.1482650583947349e-08 -4.0170451563859844e-08 -0.17056303157081276 -1.1485455934736492e-06 -1.4376932298530026e-08 -0.22500843795872186 -4.3839411063475964e-07 -2.9632474106868547e-07 -0.22500839860799932 -6.7635226597245423e-07 -7.0090168177037921e-07 -0.22500840920865928 -6.0322831613068121e-07 -5.9879807644826286e-07 -0.15389730798114587 -4.3839411063475959e-07 -2.9632474106868552e-07 -0.22500839860799932 -6.03228316130681e-07 -5.9879807644826254e-07 -0.1538973079811459 -1.1485455934736492e-06 -1.4376932298530077e-08 -0.22500843795872189 -7.0631422298199372e-07 3.7370137096066211e-07 -0.1577632975256606 -3.579943245226683e-08 -1.2108393619082697e-06 -0.22500843951266949 -6.7635226597245423e-07 -7.0090168177037932e-07 -0.22500840920865928 -4.3839411063475959e-07 -2.9632474106868552e-07 -0.22500839860799932 -6.0322831613068121e-07 -5.9879807644826286e-07 -0.1538973079811459 -4.3839411063475959e-07 -2.9632474106868552e-07 -0.22500839860799932 -2.043969071476015e-08 -4.6616004573706857e-08 -0.22500836866314494 2.3620121985511792e-07 -4.7445898407751579e-07 -0.22500838205245943 -4.1482650583947342e-08 -4.0170451563859844e-08 -0.17056303157081276 -6.0322831613068121e-07 -5.9879807644826286e-07 -0.1538973079811459 -6.2751146630780734e-07 -6.0428346056349736e-07 -0.084080607414070335 -8.3676624714832281e-07 -8.5966934153781866e-08 -0.11356349935481509 -4.1782557290060608e-08 -8.3805439703365265e-07 -0.11416303671339988 2.4766520408687589e-08 -2.8604385142180839e-08 -0.11250737590774498 -6.0322831613068111e-07 -5.9879807644826296e-07 -0.1538973079811459 -4.1782557290060582e-08 -8.3805439703365286e-07 -0.11416303671339986 -4.1482650583947349e-08 -4.0170451563859844e-08 -0.17056303157081276 -6.0322831613068121e-07 -5.9879807644826286e-07 -0.1538973079811459 -8.3676624714832292e-07 -8.5966934153781972e-08 -0.11356349935481506 2.4766520408687638e-08 -2.8604385142180776e-08 -0.112507375907745 -4.1782557290060681e-08 -8.3805439703365265e-07 -0.11416303671339988 -6.0322831613068121e-07 -5.9879807644826286e-07 -0.1538973079811459 2.4766520408687678e-08 -2.8604385142180829e-08 -0.11250737590774498 -8.3676624714832281e-07 -8.5966934153781919e-08 -0.11356349935481508 -4.1482650583947349e-08 -4.0170451563859844e-08 -0.17056303157081276 -6.0322831613068121e-07 -5.9879807644826286e-07 -0.1538973079811459 -8.3676624714832281e-07 -8.5966934153781919e-08 -0.11356349935481508 -7.063142229819935e-07 3.7370137096066275e-07 -0.1577632975256606 -4.1482650583947349e-08 -4.0170451563859844e-08 -0.17056303157081276 3.6902190995761706e-07 -7.155084490511912e-07 -0.15776330921577933 -4.1782557290060621e-08 -8.3805439703365265e-07 -0.11416303671339988 -6.0322831613068121e-07 -5.9879807644826286e-07 -0.1538973079811459 -4.1482650583947316e-08 -4.0170451563859711e-08 -0.17056303157081273 -1.7271124640361957e-06 -5.9251520097301175e-07 -0.12802320450099713 -2.1301506795013434e-06 -4.3772311254498057e-08 -0.17912262625432571 -6.0322831613068121e-07 -5.9879807644826286e-07 -0.1538973079811459 -8.3676624714832303e-07 -8.5966934153781853e-08 -0.11356349935481509 -1.7271124640361957e-06 -5.9251520097301175e-07 -0.12802320450099713 -6.0322831613068132e-07 -5.9879807644826307e-07 -0.1538973079811459 -6.2751146630780744e-07 -6.0428346056349747e-07 -0.084080607414070321 -8.3676624714832303e-07 -8.5966934153781773e-08 -0.11356349935481511 -2.1301506795013434e-06 -4.3772311254498057e-08 -0.17912262625432571 -7.0631422298199361e-07 3.7370137096066275e-07 -0.1577632975256606 -6.0322831613068153e-07 -5.9879807644826296e-07 -0.1538973079811459 -8.3676624714832292e-07 -8.5966934153781773e-08 -0.11356349935481504 -1.7271124640361957e-06 -5.9251520097301175e-07 -0.12802320450099713 -1.8312112375692495e-06 2.4120404993648057e-07 -0.14208459809555415 -2.1301506795013434e-06 -4.3772311254498057e-08 -0.17912262625432571 -8.3676624714832292e-07 -8.5966934153781972e-08 -0.11356349935481511 -1.7271124640361957e-06 -5.9251520097301175e-07 -0.12802320450099713 -2.1301506795013434e-06 -4.3772311254498057e-08 -0.17912262625432571 -1.5547965307987129e-06 -7.5781359521429918e-07 -0.160320479771945 -6.0322831613068121e-07 -5.9879807644826286e-07 -0.1538973079811459 -2.1224227223852236e-06 -1.2254363624308235e-06 -0.11018438916285879 -1.7271124640361957e-06 -5.9251520097301175e-07 -0.12802320450099713 -6.0322831613068121e-07 -5.9879807644826286e-07 -0.1538973079811459 -6.2751146630780744e-07 -6.0428346056349747e-07 -0.084080607414070321 -1.7271124640361957e-06 -5.9251520097301175e-07 -0.12802320450099713 -1.5547965307987129e-06 -7.5781359521429918e-07 -0.160320479771945 -2.1224227223852236e-06 -1.2254363624308235e-06 -0.11018438916285879 -6.0322831613068121e-07 -5.9879807644826286e-07 -0.1538973079811459 -1.7271124640361957e-06 -5.9251520097301175e-07 -0.12802320450099713 -6.0747646535356603e-07 -6.4488800062169907e-08 -0.11250765485392444 -1.8312112375692495e-06 2.4120404993648057e-07 -0.14208459809555415 -8.3676624714832292e-07 -8.5966934153781919e-08 -0.11356349935481509 -1.3640355176015668e-06 -1.1646448850609386e-06 -0.15458707475718253 -1.0507424389586604e-06 -1.3522718779654838e-06 -0.18741450606736473 -1.1815491477277757e-06 -1.366128895002946e-06 -0.15458718148673245 -6.0322831613068132e-07 -5.9879807644826296e-07 -0.1538973079811459 -1.0507424389586604e-06 -1.3522718779654838e-06 -0.18741450606736473 -7.4621452375883385e-07 -1.5521487176854503e-06 -0.16032051138369177 -1.1815491477277757e-06 -1.366128895002946e-06 -0.15458718148673245 -6.0322831613068121e-07 -5.9879807644826286e-07 -0.1538973079811459 -1.1146520123261954e-06 -2.1105469420251185e-06 -0.11018439928886238 -2.1224227223852236e-06 -1.2254363624308235e-06 -0.11018438916285879 -6.0322831613068132e-07 -5.9879807644826286e-07 -0.1538973079811459 -6.2751146630780755e-07 -6.0428346056349768e-07 -0.084080607414070335 -2.1224227223852236e-06 -1.2254363624308235e-06 -0.11018438916285879 -1.3640355176015668e-06 -1.1646448850609386e-06 -0.15458707475718253 -1.1815491477277759e-06 -1.366128895002946e-06 -0.15458718148673245 -6.0322831613068111e-07 -5.9879807644826275e-07 -0.1538973079811459 -1.1146520123261954e-06 -2.1105469420251185e-06 -0.11018439928886238 -2.1224227223852236e-06 -1.2254363624308235e-06 -0.1101843891628588 -1.1815491477277757e-06 -1.366128895002946e-06 -0.15458718148673245 -6.0322831613068121e-07 -5.9879807644826286e-07 -0.1538973079811459 -2.1224227223852236e-06 -1.2254363624308235e-06 -0.11018438916285879 -1.5547965307987129e-06 -7.5781359521429918e-07 -0.160320479771945 -1.3640355176015668e-06 -1.1646448850609386e-06 -0.15458707475718253 -6.0322831613068121e-07 -5.9879807644826286e-07 -0.1538973079811459 -1.1146520123261954e-06 -2.1105469420251185e-06 -0.11018439928886238 -1.1815491477277757e-06 -1.366128895002946e-06 -0.15458718148673245 -7.4621452375883395e-07 -1.5521487176854506e-06 -0.16032051138369177 -6.0322831613068121e-07 -5.9879807644826286e-07 -0.1538973079811459 -1.3520362910588222e-06 -1.0647732719550352e-06 -0.18741444851437344 -1.3640355176015668e-06 -1.1646448850609386e-06 -0.15458707475718253 -1.5547965307987129e-06 -7.5781359521429918e-07 -0.160320479771945 -6.0322831613068121e-07 -5.9879807644826286e-07 -0.1538973079811459 -1.486194593033903e-06 -1.4843510826123116e-06 -0.18000838735777094 -1.9919384224075039e-06 -1.9978515390069601e-06 -0.13500775542255161 -1.3640355176015668e-06 -1.1646448850609386e-06 -0.15458707475718253 -1.1815491477277757e-06 -1.366128895002946e-06 -0.15458718148673245 -2.1224227223852236e-06 -1.2254363624308235e-06 -0.11018438916285879 -1.9919384224075039e-06 -1.9978515390069601e-06 -0.13500775542255161 -1.1146520123261954e-06 -2.1105469420251185e-06 -0.11018439928886238 -1.1815491477277757e-06 -1.366128895002946e-06 -0.15458718148673245 -1.9919384224075039e-06 -1.9978515390069601e-06 -0.13500775542255161 -2.1224227223852236e-06 -1.2254363624308235e-06 -0.11018438916285879 -1.3640355176015668e-06 -1.1646448850609386e-06 -0.15458707475718253 -1.1815491477277757e-06 -1.366128895002946e-06 -0.15458718148673245 -5.2452855144912073e-07 -1.7558241027410238e-06 -0.12802521977277179 -7.4621452375883385e-07 -1.5521487176854503e-06 -0.16032051138369177 -3.4689862911203889e-08 -2.1263917566862985e-06 -0.17912266840537361 -6.0322831613068121e-07 -5.9879807644826286e-07 -0.1538973079811459 -5.2452855144912073e-07 -1.7558241027410238e-06 -0.12802521977277179 -1.1146520123261954e-06 -2.1105469420251185e-06 -0.11018439928886238 -7.4621452375883385e-07 -1.5521487176854503e-06 -0.16032051138369177 -6.0322831613068121e-07 -5.9879807644826286e-07 -0.1538973079811459 -1.1146520123261954e-06 -2.1105469420251185e-06 -0.11018439928886238 -6.0322831613068121e-07 -5.9879807644826286e-07 -0.1538973079811459 -5.2452855144912073e-07 -1.7558241027410238e-06 -0.12802521977277179 -6.2751146630780765e-07 -6.0428346056349779e-07 -0.084080607414070335 -6.0322831613068121e-07 -5.9879807644826286e-07 -0.1538973079811459 3.6902190995761712e-07 -7.155084490511912e-07 -0.1577633092157793 -3.4689862911203896e-08 -2.1263917566862985e-06 -0.17912266840537361 -4.1782557290060588e-08 -8.3805439703365255e-07 -0.11416303671339988 -5.2452855144912073e-07 -1.7558241027410238e-06 -0.12802521977277179 -6.2751146630780776e-07 -6.0428346056349747e-07 -0.084080607414070307 -6.0322831613068121e-07 -5.9879807644826286e-07 -0.1538973079811459 -4.1782557290060496e-08 -8.3805439703365276e-07 -0.11416303671339989 -3.4689862911203889e-08 -2.1263917566862985e-06 -0.17912266840537361 -5.2452855144912062e-07 -1.7558241027410238e-06 -0.12802521977277176 -6.0322831613068121e-07 -5.9879807644826286e-07 -0.1538973079811459 -4.1782557290060608e-08 -8.3805439703365265e-07 -0.11416303671339988 -3.4689862911203889e-08 -2.1263917566862985e-06 -0.17912266840537361 2.6577348630326672e-07 -1.8530876144777775e-06 -0.14213063811804064 -5.2452855144912073e-07 -1.7558241027410238e-06 -0.12802521977277179 -4.1782557290060608e-08 -8.3805439703365265e-07 -0.11416303671339988 -5.2452855144912073e-07 -1.7558241027410238e-06 -0.12802521977277179 2.6577348630326683e-07 -1.8530876144777775e-06 -0.14213063811804066 -3.7551287083214468e-08 -5.3757547439090477e-07 -0.1125077088850262 -4.1782557290060608e-08 -8.3805439703365265e-07 -0.11416303671339988 -7.4621452375883385e-07 -1.5521487176854503e-06 -0.16032051138369177 -6.1157749559520179e-07 -1.2309859383872645e-06 -0.19519568818122937 -3.4689862911203889e-08 -2.1263917566862985e-06 -0.17912266840537361 -6.0322831613068121e-07 -5.9879807644826286e-07 -0.1538973079811459 -3.579943245226683e-08 -1.2108393619082697e-06 -0.22500843951266949 -6.5343145783720645e-07 -1.1628477189666291e-06 -0.22500838025933512 -6.7635226597245423e-07 -7.0090168177037921e-07 -0.22500840920865925 -6.0322831613068121e-07 -5.9879807644826286e-07 -0.1538973079811459 -1.0507424389586604e-06 -1.3522718779654838e-06 -0.18741450606736473 -6.5343145783720645e-07 -1.1628477189666291e-06 -0.22500838025933512 -6.1157749559520179e-07 -1.2309859383872645e-06 -0.19519568818122937 -6.0322831613068121e-07 -5.9879807644826286e-07 -0.1538973079811459 -6.1157749559520179e-07 -1.2309859383872645e-06 -0.19519568818122937 -3.5799432452266837e-08 -1.2108393619082697e-06 -0.22500843951266949 -3.4689862911203889e-08 -2.1263917566862985e-06 -0.17912266840537361 -6.0322831613068111e-07 -5.9879807644826286e-07 -0.1538973079811459 -7.4621452375883385e-07 -1.5521487176854503e-06 -0.16032051138369177 -1.0507424389586604e-06 -1.3522718779654838e-06 -0.18741450606736473 -6.1157749559520179e-07 -1.2309859383872645e-06 -0.19519568818122937 -6.0322831613068121e-07 -5.9879807644826286e-07 -0.1538973079811459 -3.579943245226683e-08 -1.2108393619082697e-06 -0.22500843951266949 -3.4689862911203889e-08 -2.1263917566862985e-06 -0.17912266840537361 -6.03228316130681e-07 -5.9879807644826264e-07 -0.1538973079811459 3.6902190995761701e-07 -7.1550844905119098e-07 -0.1577633092157793 -1.1487749789730924e-06 -1.1478212692934719e-06 -0.22500834109196194 -6.7635226597245434e-07 -7.0090168177037932e-07 -0.22500840920865928 -6.5343145783720645e-07 -1.1628477189666291e-06 -0.22500838025933512 -6.0322831613068121e-07 -5.9879807644826286e-07 -0.1538973079811459 -3.579943245226683e-08 -1.2108393619082697e-06 -0.22500843951266949 -6.1157749559520179e-07 -1.2309859383872645e-06 -0.19519568818122934 -6.5343145783720645e-07 -1.1628477189666291e-06 -0.22500838025933512 -6.0322831613068121e-07 -5.9879807644826286e-07 -0.1538973079811459 -3.579943245226683e-08 -1.2108393619082697e-06 -0.22500843951266949 -6.1157749559520179e-07 -1.2309859383872649e-06 -0.1951956881812294 -4.6450840740852644e-07 -1.9328892277158078e-06 -0.22500861733087399 -6.5343145783720645e-07 -1.1628477189666291e-06 -0.22500838025933512 -3.579943245226683e-08 -1.2108393619082697e-06 -0.22500843951266949 -4.6450840740852644e-07 -1.9328892277158078e-06 -0.22500861733087399 -3.4689862911203916e-08 -2.1263917566862985e-06 -0.17912266840537361 4.4413949212216403e-07 -1.9922402756611984e-06 -0.22500860505310982 -6.1157749559520179e-07 -1.2309859383872645e-06 -0.19519568818122937 -3.5799432452266764e-08 -1.2108393619082697e-06 -0.22500843951266949 -4.6450840740852644e-07 -1.9328892277158078e-06 -0.22500861733087399 -3.4689862911203889e-08 -2.1263917566862985e-06 -0.17912266840537361 -6.1157749559520179e-07 -1.2309859383872645e-06 -0.19519568818122937 -1.0845071628603478e-06 -1.5414710420000247e-06 -0.22500857472587196 -4.6450840740852644e-07 -1.9328892277158078e-06 -0.22500861733087396 -6.5343145783720645e-07 -1.1628477189666291e-06 -0.22500838025933512 -1.1487749789730924e-06 -1.1478212692934719e-06 -0.22500834109196194 -1.0845071628603478e-06 -1.5414710420000247e-06 -0.22500857472587196 -1.0507424389586604e-06 -1.3522718779654838e-06 -0.18741450606736473 -6.5343145783720645e-07 -1.1628477189666291e-06 -0.22500838025933512 -1.3520362910588222e-06 -1.0647732719550352e-06 -0.18741444851437344 -1.134786187406729e-06 -6.0317553124665871e-07 -0.22500837912997854 -1.1487749789730924e-06 -1.1478212692934719e-06 -0.22500834109196194 -6.0322831613068121e-07 -5.9879807644826264e-07 -0.1538973079811459 -1.0507424389586604e-06 -1.3522718779654838e-06 -0.18741450606736473 -1.0845071628603478e-06 -1.5414710420000247e-06 -0.22500857472587196 -6.1157749559520158e-07 -1.2309859383872643e-06 -0.19519568818122937 -6.5343145783720645e-07 -1.1628477189666291e-06 -0.22500838025933512 -1.0507424389586604e-06 -1.3522718779654838e-06 -0.18741450606736473 -1.1487749789730924e-06 -1.1478212692934719e-06 -0.22500834109196194 -6.5343145783720645e-07 -1.1628477189666291e-06 -0.22500838025933512 -6.0322831613068121e-07 -5.9879807644826286e-07 -0.1538973079811459 -1.3520362910588222e-06 -1.0647732719550352e-06 -0.18741444851437344 -1.0507424389586604e-06 -1.3522718779654838e-06 -0.18741450606736473 -1.3640355176015668e-06 -1.1646448850609386e-06 -0.15458707475718253 -6.0322831613068121e-07 -5.9879807644826286e-07 -0.1538973079811459 -2.3257299450739669e-06 -2.3262605963231018e-06 -0.22500892096591824 -1.1487749789730924e-06 -1.1478212692934719e-06 -0.22500834109196194 -1.0845071628603478e-06 -1.5414710420000247e-06 -0.22500857472587196 -1.0507424389586604e-06 -1.3522718779654838e-06 -0.18741450606736473 -1.3520362910588222e-06 -1.0647732719550352e-06 -0.18741444851437344 -1.1487749789730924e-06 -1.1478212692934722e-06 -0.22500834109196194 -1.0507424389586604e-06 -1.3522718779654838e-06 -0.18741450606736473 -6.0322831613068121e-07 -5.9879807644826286e-07 -0.1538973079811459 -1.3520362910588222e-06 -1.0647732719550352e-06 -0.18741444851437344 -1.1487749789730922e-06 -1.1478212692934719e-06 -0.22500834109196194 -1.5421887901512803e-06 -1.0707528683571698e-06 -0.22500854336095802 -2.3257299450739669e-06 -2.3262605963231018e-06 -0.22500892096591824 -1.134786187406729e-06 -6.0317553124665882e-07 -0.22500837912997854 -1.3520362910588222e-06 -1.0647732719550352e-06 -0.18741444851437344 -1.5421887901512805e-06 -1.07075286835717e-06 -0.22500854336095802 -1.2297490855511264e-06 -6.580842973748792e-07 -0.19519566160392038 -1.3520362910588222e-06 -1.0647732719550352e-06 -0.18741444851437344 -1.134786187406729e-06 -6.0317553124665882e-07 -0.22500837912997854 -1.5421887901512805e-06 -1.07075286835717e-06 -0.22500854336095802 -1.1487749789730924e-06 -1.1478212692934719e-06 -0.22500834109196194 -1.486194593033903e-06 -1.4843510826123116e-06 -0.18000838735777094 -1.3520362910588222e-06 -1.0647732719550352e-06 -0.18741444851437344 -2.3257299450739669e-06 -2.3262605963231018e-06 -0.22500892096591824 -1.0507424389586604e-06 -1.3522718779654838e-06 -0.18741450606736473 -1.0507424389586604e-06 -1.3522718779654838e-06 -0.18741450606736473 -1.486194593033903e-06 -1.4843510826123116e-06 -0.18000838735777094 -1.3640355176015668e-06 -1.1646448850609386e-06 -0.1545870747571825 -1.1815491477277757e-06 -1.366128895002946e-06 -0.15458718148673245 -1.486194593033903e-06 -1.4843510826123116e-06 -0.18000838735777094 -1.3520362910588222e-06 -1.0647732719550352e-06 -0.18741444851437344 -1.0507424389586604e-06 -1.3522718779654838e-06 -0.18741450606736473 -1.3640355176015668e-06 -1.1646448850609386e-06 -0.15458707475718253 -1.3520362910588222e-06 -1.0647732719550352e-06 -0.18741444851437344 -1.1487749789730924e-06 -1.1478212692934719e-06 -0.22500834109196194 -2.3257299450739669e-06 -2.3262605963231018e-06 -0.22500892096591824 -1.0507424389586604e-06 -1.3522718779654838e-06 -0.18741450606736473 
</DataArray>
</PointData>
<CellData Scalars="displacement_divergence," Vectors="" Tensors="stress,">
<DataArray type="Float64" Name="stress" NumberOfComponents="9" format="ascii">
-2.4996495416779299 7.6658794566836748e-05 9.0172215464923156e-05 7.6658794566836748e-05 -2.4996286886834476 0.00012356701342985943 9.0172215464923156e-05 0.00012356701342985943 -9.9998110971085872 -2.499806174842873 -5.6322287196719349e-07 1.4697740822633421e-05 -5.6322287196719349e-07 -2.4997198729814141 6.7393302682461353e-05 1.4697740822633421e-05 6.7393302682461353e-05 -9.9999524060583838 -2.499856479824242 5.535386123077792e-05 2.7809218995367146e-05 5.535386123077792e-05 -2.4998748430411668 6.2609679329916901e-05 2.7809218995367146e-05 6.2609679329916901e-05 -9.9999852296568861 -2.4998430260917712 7.57243071185382e-06 -9.6543725622455501e-05 7.57243071185382e-06 -2.4998549080361956 -0.00011161546275539891 -9.6543725622455501e-05 -0.00011161546275539891 -10.000305677553047 -2.4998126219076986 7.5515457808183186e-06 5.6061633798787369e-05 7.5515457808183186e-06 -2.4997907006594353 2.096272379725761e-05 5.6061633798787369e-05 2.096272379725761e-05 -10.000040448137277 -2.4998427918368313 2.6749777163229361e-05 -0.00010061639443326165 2.6749777163229361e-05 -2.4998334795636037 -7.7713835380910368e-05 -0.00010061639443326165 -7.7713835380910368e-05 -10.000306773854316 -2.4997980198013754 1.4171637159360914e-05 9.4275982577052275e-05 1.4171637159360914e-05 -2.4997712183047236 6.0474865607229589e-05 9.4275982577052275e-05 6.0474865607229589e-05 -10.000012277754935 -2.4997414327230056 -1.3431146537098212e-05 3.5439007187942906e-05 -1.3431146537098212e-05 -2.49969579994116 5.6443911471859565e-05 3.5439007187942906e-05 5.6443911471859565e-05 -9.999588562067542 -2.499829404309073 5.8129389719287046e-05 6.1348737768973649e-05 5.8129389719287046e-05 -2.4998837813996766 9.2408973974222874e-05 6.1348737768973649e-05 9.2408973974222874e-05 -9.9999637997126563 -2.4997906710954236 4.6783998681499298e-06 -5.32413449710889e-05 4.6783998681499298e-06 -2.4998778038645773 -0.00013428839324536312 -5.32413449710889e-05 -0.00013428839324536312 -10.000240192210207 -2.4998556045235323 3.3958116437393272e-05 -8.3292521158580702e-05 3.3958116437393272e-05 -2.5001410537744353 -5.2753963948753719e-06 -8.3292521158580702e-05 -5.2753963948753719e-06 -10.000412699973033 -2.4996789830327497 7.0903647451988827e-05 2.287489539659225e-05 7.0903647451988827e-05 -2.4996813800254851 0.00020248932710683005 2.287489539659225e-05 0.00020248932710683005 -10.000009893384991 -2.4998265952080159 -9.1780056700044744e-05 -0.00013067723495079742 -9.1780056700044744e-05 -2.4996487645331653 9.0365301405516993e-05 -0.00013067723495079742 9.0365301405516993e-05 -10.000174188608909 -2.4996870955861072 7.1325783938444662e-05 0.00016325925597695341 7.1325783938444662e-05 -2.4996784229056037 4.4389815928579188e-05 0.00016325925597695341 4.4389815928579188e-05 -10.000017671433024 -2.5000880113373438 3.3510682320782065e-05 -4.0667708964818691e-05 3.3510682320782065e-05 -2.4998009260136702 7.7235158863828547e-06 -4.0667708964818691e-05 7.7235158863828547e-06 -10.000205625100705 -2.499901572440308 -2.9451588208928545e-05 -0.00028596473909425768 -2.9451588208928545e-05 -2.4997215547090068 5.5436351415139029e-05 -0.00028596473909425768 5.5436351415139029e-05 -10.000239061239274 -2.4999513794548283 -3.3970851475434419e-05 -0.00016959001505883445 -3.3970851475434419e-05 -2.499640277452011 0.0001714153118777361 -0.00016959001505883445 0.0001714153118777361 -9.9999983788040279 -2.4998465214581023 -2.0237050715953436e-05 -7.2463764274277587e-05 -2.0237050715953436e-05 -2.4997553667506081 -1.4781036802524739e-05 -7.2463764274277587e-05 -1.4781036802524739e-05 -10.000393720740108 -2.4998203214324528 6.1928090267338953e-06 -6.1834975502605971e-05 6.1928090267338953e-06 -2.4995814626128969 -5.8530193000727593e-05 -6.1834975502605971e-05 -5.8530193000727593e-05 -9.999603457332892 -2.5001181913730646 0.00012327656446604781 3.2452800232229961e-05 0.00012327656446604781 -2.4999468457636054 -0.00013104717112222275 3.2452800232229961e-05 -0.00013104717112222275 -10.000491107429657 -2.5002421083819133 -2.4165359139408337e-05 5.7906957248969799e-05 -2.4165359139408337e-05 -2.5002464964289008 -0.00018742576048071677 5.7906957248969799e-05 -0.00018742576048071677 -10.000468485101802 -2.5000131772420615 5.0327712572902999e-06 -0.00029398525715440251 5.0327712572902999e-06 -2.5001078326307438 -0.00024928530996134362 -0.00029398525715440251 -0.00024928530996134362 -10.000044993422286 -2.4999365743034772 -5.7969610120275889e-05 -0.00039580725727034812 -5.7969610120275889e-05 -2.4997037376716542 -2.5527399733833668e-05 -0.00039580725727034812 -2.5527399733833668e-05 -10.000054208153603 -2.4999339467554553 2.6498947295052963e-06 -3.3913166335068873e-05 2.6498947295052963e-06 -2.4997400951133577 -0.00019909478222287672 -3.3913166335068873e-05 -0.00019909478222287672 -9.9999326845949561 -2.4999088410585228 -2.7294555914002277e-05 -0.00015633840150774958 -2.7294555914002277e-05 -2.4996603062391776 -0.00012341179455632734 -0.00015633840150774958 -0.00012341179455632734 -9.9997444101539195 -2.4998485566531787 -1.0800899768495623e-06 -7.3496787773207929e-05 -1.0800899768495623e-06 -2.4996655161656447 -6.5150317657636236e-05 -7.3496787773207929e-05 -6.5150317657636236e-05 -9.9998660201129113 -2.4997544207724203 5.9267346234668527e-06 -1.5173693914904973e-05 5.9267346234668527e-06 -2.4997818456498471 3.9214063315640146e-05 -1.5173693914904973e-05 3.9214063315640146e-05 -9.9999455321588453 -2.4998878327598897 -3.8333307915525204e-05 -5.822883124739775e-05 -3.8333307915525204e-05 -2.4997424252473959 4.2794120421962845e-05 -5.822883124739775e-05 4.2794120421962845e-05 -9.9999776232207154 -2.4998112780850827 -9.1182918919363178e-06 -3.0073350524961739e-05 -9.1182918919363178e-06 -2.4998312276731585 -8.9938742570128127e-06 -3.0073350524961739e-05 -8.9938742570128127e-06 -10.000024364052619 -2.4999311038288883 -1.1797794200377334e-05 -6.781424990887075e-06 -1.1797794200377334e-05 -2.4998222172672215 1.6914899404030237e-05 -6.781424990887075e-06 1.6914899404030237e-05 -10.000025585459815 -2.4998162995555484 6.2986507548901192e-06 -2.7598487367441749e-05 6.2986507548901192e-06 -2.4998122852988178 -3.6029883240473737e-05 -2.7598487367441749e-05 -3.6029883240473737e-05 -10.000003295905916 -2.4998627827988691 -3.4300743140577985e-05 -4.0728161758485371e-05 -3.4300743140577985e-05 -2.499826456719688 -2.884527276414417e-05 -4.0728161758485371e-05 -2.884527276414417e-05 -10.000028978452409 -2.4999100952141999 -3.7242886955560423e-05 -2.1439041296034134e-05 -3.7242886955560423e-05 -2.49972053311516 8.1925547793071374e-05 -2.1439041296034134e-05 8.1925547793071374e-05 -9.9999285360972614 -2.4998126466826269 1.7884021832540028e-08 -1.177502121230134e-05 1.7884021832540028e-08 -2.4998062928873095 1.4179164844474457e-05 -1.177502121230134e-05 1.4179164844474457e-05 -9.9999659613704672 -2.499788107365938 3.4967136529702805e-05 -1.2926496296916667e-05 3.4967136529702805e-05 -2.4997657698013027 2.2676245545305562e-05 -1.2926496296916667e-05 2.2676245545305562e-05 -9.9999550765749419 -2.4997941134808048 1.5189100816468095e-05 -1.1346532057032732e-05 1.5189100816468095e-05 -2.499799748146847 4.8690152139041487e-06 -1.1346532057032732e-05 4.8690152139041487e-06 -10.000003160316901 -2.4998326071928192 -1.6504501667472405e-05 -1.3622938101143234e-05 -1.6504501667472405e-05 -2.4996991763414824 7.9036377169661165e-05 -1.3622938101143234e-05 7.9036377169661165e-05 -9.9999159928566748 -2.4998754486277637 0.00018326543938871584 -1.310419577293942e-07 0.00018326543938871584 -2.5000175357693122 6.3066926260901823e-05 -1.310419577293942e-07 6.3066926260901823e-05 -10.000011305643858 -2.4998867581830186 3.6212025972449951e-05 -8.0350334960677117e-05 3.6212025972449951e-05 -2.499908642146536 -2.5886881156456099e-05 -8.0350334960677117e-05 -2.5886881156456099e-05 -10.000001951555042 -2.4999103172838013 2.5951807478731906e-05 -3.6312094979562559e-05 2.5951807478731906e-05 -2.4999273776830324 7.856983367027226e-06 -3.6312094979562559e-05 7.856983367027226e-06 -10.000023337241084 -2.4998038123866504 -8.6630214525923395e-05 3.2495663023213162e-05 -8.6630214525923395e-05 -2.4998628664039613 2.3815185263842409e-05 3.2495663023213162e-05 2.3815185263842409e-05 -10.000047656076429 -2.4999011435403697 -3.0664691159960268e-05 6.0449558760389266e-05 -3.0664691159960268e-05 -2.4998706619167703 2.8285393085525357e-06 6.0449558760389266e-05 2.8285393085525357e-06 -10.000081318805506 -2.4998441983173008 -4.3309836375970734e-05 -2.3249225619359493e-05 -4.3309836375970734e-05 -2.4997968766828187 -5.8975183798715136e-05 -2.3249225619359493e-05 -5.8975183798715136e-05 -9.999995935259431 -2.4997957207926946 -3.7636855879496775e-05 -6.08301334166228e-05 -3.7636855879496775e-05 -2.4998385758000587 -2.0575984110315915e-05 -6.08301334166228e-05 -2.0575984110315915e-05 -9.9999825677509584 -2.4997881052026982 -2.4876779256785625e-05 -2.722711713243342e-05 -2.4876779256785625e-05 -2.4998201006175456 -7.4129556890234483e-05 -2.722711713243342e-05 -7.4129556890234483e-05 -9.9999953272042816 -2.4997296678118843 3.3923424912951457e-05 -6.1928052499382602e-06 3.3923424912951457e-05 -2.4996966530519185 -6.6168770779029273e-05 -6.1928052499382602e-06 -6.6168770779029273e-05 -9.9999843585164232 -2.4998396230834614 9.4571495745909465e-05 -5.5991818030065588e-05 9.4571495745909465e-05 -2.499776119762831 -1.8698009990103515e-05 -5.5991818030065588e-05 -1.8698009990103515e-05 -9.9999924496122716 -2.4997618821966094 -2.4332431597367719e-05 4.84517710219734e-06 -2.4332431597367719e-05 -2.4997808530122132 3.981758489146614e-06 4.84517710219734e-06 3.981758489146614e-06 -9.9998676520673975 -2.4996947637617404 0.00015973991908380374 2.3662962020054579e-05 0.00015973991908380374 -2.4996886062084775 1.6966540854923551e-05 2.3662962020054579e-05 1.6966540854923551e-05 -9.9999093210168244 -2.4997898148868294 9.800122999179563e-06 8.3330389314406617e-06 9.800122999179563e-06 -2.4997999287531267 -2.3247635784873211e-05 8.3330389314406617e-06 -2.3247635784873211e-05 -9.9999569640764339 -2.4998475265454827 1.0563080867245589e-05 1.5599934054089104e-05 1.0563080867245589e-05 -2.4998076960895368 -3.9860749362574666e-05 1.5599934054089104e-05 -3.9860749362574666e-05 -9.9999894082692826 -2.4998286663816569 -2.0274352795455169e-05 -8.5121281142575e-06 -2.0274352795455169e-05 -2.4998167046721975 -4.0552690994122287e-05 -8.5121281142575e-06 -4.0552690994122287e-05 -9.9999811797719413 -2.4997550256107299 3.9557588161375216e-05 3.0177576986645249e-05 3.9557588161375216e-05 -2.4997720030762469 -1.393478166278328e-05 3.0177576986645249e-05 -1.393478166278328e-05 -9.9999518026760512 -2.4998139850520662 -5.7646425271609791e-06 1.0720326471425068e-05 -5.7646425271609791e-06 -2.4999112397252543 1.5284883243094072e-05 1.0720326471425068e-05 1.5284883243094072e-05 -10.000002690916157 -2.4998045068370516 -1.8910930930174606e-06 2.1302778175247283e-05 -1.8910930930174606e-06 -2.4998197697063089 -1.3810776156475413e-05 2.1302778175247283e-05 -1.3810776156475413e-05 -9.999967847541928 -2.4997170972453118 -2.8271125604773995e-05 7.2755536100199691e-05 -2.8271125604773995e-05 -2.499899334046189 3.6170184753991919e-06 7.2755536100199691e-05 3.6170184753991919e-06 -9.9999128278936418 -2.4998107106733403 3.8748364478297047e-06 -3.9362896690597893e-05 3.8748364478297047e-06 -2.4998119416159672 -3.6465344072311723e-05 -3.9362896690597893e-05 -3.6465344072311723e-05 -10.000001717709372 -2.4997245906497061 -2.4134007976454712e-05 5.2041730919327733e-05 -2.4134007976454712e-05 -2.4998471486679645 -1.3213423002866875e-05 5.2041730919327733e-05 -1.3213423002866875e-05 -9.9999357853560173 -2.500006579297879 0.00017279159729399071 6.9248079611838875e-05 0.00017279159729399071 -2.499863853803288 9.8199385334396538e-07 6.9248079611838875e-05 9.8199385334396538e-07 -10.000006491188678 -2.4998972023456352 -1.6801422950136581e-05 -2.8372405177501392e-05 -1.6801422950136581e-05 -2.4998781436615394 5.3558902823880317e-06 -2.8372405177501392e-05 5.3558902823880317e-06 -10.000046827917716 -2.4998571044570403 -1.3027721268638776e-06 2.0666761468834949e-05 -1.3027721268638776e-06 -2.4998657673490841 9.7199923766444485e-06 2.0666761468834949e-05 9.7199923766444485e-06 -10.000045254728215 -2.4998504900636838 -1.3610919281345752e-05 2.0915069684379617e-05 -1.3610919281345752e-05 -2.499871903575229 -1.3897543335694706e-05 2.0915069684379617e-05 -1.3897543335694706e-05 -9.9999735426890979 -2.4998865909326842 -5.5407651672944564e-05 -9.1806023938545422e-07 -5.5407651672944564e-05 -2.4999044590058555 2.880529622828476e-06 -9.1806023938545422e-07 2.880529622828476e-06 -10.000033237449461 -2.4998261292576975 -3.6137249874924351e-05 1.1028277330460412e-05 -3.6137249874924351e-05 -2.499840431566585 -1.3103334155717405e-05 1.1028277330460412e-05 -1.3103334155717405e-05 -9.9999815328650747 -2.4998636933545084 -4.0169453291635484e-05 4.0851485952231315e-05 -4.0169453291635484e-05 -2.4998705579220823 1.3384106605229817e-06 4.0851485952231315e-05 1.3384106605229817e-06 -10.000004632574313 -2.4998589113319261 -3.4834473893171929e-07 1.3625882500756248e-05 -3.4834473893171929e-07 -2.4998494944578091 8.4257011243593638e-06 1.3625882500756248e-05 8.4257011243593638e-06 -10.000016517131714 -2.4998671398277255 1.2696272274287214e-07 1.0981521411324024e-05 1.2696272274287214e-07 -2.4998604751857574 1.9393850704485516e-05 1.0981521411324024e-05 1.9393850704485516e-05 -10.000046369577269 -2.4998376615212932 5.097664988939506e-06 1.596736163067547e-06 5.097664988939506e-06 -2.4998451095368397 -4.560070134829175e-07 1.596736163067547e-06 -4.560070134829175e-07 -10.00001074140539 -2.49984208434216 3.6581365291143448e-07 9.045112967953628e-06 3.6581365291143448e-07 -2.4998597762415313 8.7229275234079751e-06 9.045112967953628e-06 8.7229275234079751e-06 -10.000020921044626 -2.4999377965637333 5.2901956097891485e-05 1.7236614925142391e-05 5.2901956097891485e-05 -2.4999143437372471 -4.1508348898045e-05 1.7236614925142391e-05 -4.1508348898045e-05 -9.9997847458387916 -2.4998319313437101 7.8147274842661342e-07 -6.2828667850567399e-06 7.8147274842661342e-07 -2.4998824190824598 -3.8035126328495039e-06 -6.2828667850567399e-06 -3.8035126328495039e-06 -9.9998612112439744 -2.4999396259532753 8.1150044845107795e-06 5.98909992000074e-06 8.1150044845107795e-06 -2.4998648031877129 -7.5981271883129864e-06 5.98909992000074e-06 -7.5981271883129864e-06 -9.9998610748977352 -2.4997891733242721 -3.7096879234917137e-05 -4.5651407236668717e-06 -3.7096879234917137e-05 -2.4998094799306583 -2.4366913708995241e-07 -4.5651407236668717e-06 -2.4366913708995241e-07 -9.9998404879497276 -2.5002490371478214 -8.5970789371380668e-08 0.0002045734694048094 -8.5970789371380668e-08 -2.5002484341055689 0.00088383538958734385 0.0002045734694048094 0.00088383538958734385 -10.001025129194963 -2.4999536051430145 3.0533167112351538e-05 -0.00023088471687776136 3.0533167112351538e-05 -2.4999822121917687 -9.3551513989661582e-05 -0.00023088471687776136 -9.3551513989661582e-05 -9.9999229549539308 -2.4998939800454418 -4.0414545561067432e-06 3.2219946134751326e-05 -4.0414545561067432e-06 -2.499936862665165 3.4248467595353457e-05 3.2219946134751326e-05 3.4248467595353457e-05 -9.999563989027962 -2.4998821441296721 -5.6347912300420891e-05 -0.00012237189398511816 -5.6347912300420891e-05 -2.4999334776185762 -0.00012803643776782003 -0.00012237189398511816 -0.00012803643776782003 -10.000164566182026 -2.5000258754868478 -0.00012654810618232848 -6.0388451996296055e-05 -0.00012654810618232848 -2.5000339009814034 -7.0888182160722124e-05 -6.0388451996296055e-05 -7.0888182160722124e-05 -10.000225124898932 -2.5000241640144392 2.2224410995701257e-05 -5.8870903976622545e-05 2.2224410995701257e-05 -2.4999777414612896 -0.00016510151722610002 -5.8870903976622545e-05 -0.00016510151722610002 -9.9999819940065109 -2.5001155653059306 4.1091599354776584e-06 -0.00018784750141888934 4.1091599354776584e-06 -2.5000231220116027 -0.00021311437613895856 -0.00018784750141888934 -0.00021311437613895856 -10.00008007014573 -2.4997018986415549 -5.4063681945806547e-05 -6.3755512644698151e-07 -5.4063681945806547e-05 -2.4999401065670295 -0.00029234151729201261 -6.3755512644698151e-07 -0.00029234151729201261 -10.000069597918415 -2.4997782255997114 -6.3585743361042143e-06 -1.3802841696330947e-05 -6.3585743361042143e-06 -2.4997885809297999 -3.670414809020528e-05 -1.3802841696330947e-05 -3.670414809020528e-05 -9.999959762876891 -2.5002219679058264 -2.4287374335411765e-05 -0.00014535033726191085 -2.4287374335411765e-05 -2.5002196917923705 8.814649324217225e-06 -0.00014535033726191085 8.814649324217225e-06 -10.000375326967742 -2.4997730115767287 6.1573758308440449e-06 -3.6296413735925626e-05 6.1573758308440449e-06 -2.4998658899132362 -0.00013032183733652225 -3.6296413735925626e-05 -0.00013032183733652225 -10.00020042621753 -2.4996330386274535 -3.4024273216717796e-05 0.00010752222411708067 -3.4024273216717796e-05 -2.4999435750211565 -0.00020498432198877566 0.00010752222411708067 -0.00020498432198877566 -9.9999643067754214 -2.4997068227345451 -4.1697973404728401e-05 2.4350738370371161e-05 -4.1697973404728401e-05 -2.4998967925415032 -0.00027181651607888213 2.4350738370371161e-05 -0.00027181651607888213 -10.000117828813456 -2.4998731959949518 5.441164829422629e-05 -9.0321208649601914e-05 5.441164829422629e-05 -2.500131182481895 1.7613052007869889e-05 -9.0321208649601914e-05 1.7613052007869889e-05 -10.000411116195423 -2.4998231821552577 1.2236226450063446e-06 2.6872321313486935e-05 1.2236226450063446e-06 -2.4997957955629335 -4.4999049778393641e-05 2.6872321313486935e-05 -4.4999049778393641e-05 -9.9999737216995257 -2.4996653759768916 -9.4583085045946799e-06 -9.8542436217652352e-05 -9.4583085045946799e-06 -2.4998511408963955 -7.4214927302307387e-05 -9.8542436217652352e-05 -7.4214927302307387e-05 -9.9997695408880638 -2.4997625764975226 -4.5211783785977416e-05 1.8897721671073953e-05 -4.5211783785977416e-05 -2.4999017452606034 -5.9272572301427573e-05 1.8897721671073953e-05 -5.9272572301427573e-05 -9.9999853091964699 -2.4996698129840826 -1.832513815497579e-05 -0.00010945542663254315 -1.832513815497579e-05 -2.4999146427854657 -7.447663178217212e-05 -0.00010945542663254315 -7.447663178217212e-05 -9.9997641481680084 -2.4995646958765589 5.5530256789857274e-05 6.5202365879980383e-06 5.5530256789857274e-05 -2.4997892715782073 0.00036973040692289948 6.5202365879980383e-06 0.00036973040692289948 -9.9994586526822395 -2.4995500079102895 3.4745337005455985e-05 -2.1483148684886544e-05 3.4745337005455985e-05 -2.4997773710486122 5.9537656244668113e-05 -2.1483148684886544e-05 5.9537656244668113e-05 -9.9995514005395378 -2.4996427444707674 3.3378492693609169e-06 -0.00024025252522719143 3.3378492693609169e-06 -2.4998075862816975 5.2419641076495438e-05 -0.00024025252522719143 5.2419641076495438e-05 -9.9996001110876946 -2.4996991113981761 3.237954936220967e-05 -6.3381843497967161e-05 3.237954936220967e-05 -2.499925411268674 2.2428113501282709e-05 -6.3381843497967161e-05 2.2428113501282709e-05 -10.000131357011258 -2.4998109111542623 6.5394606906621182e-05 5.6640738424040826e-05 6.5394606906621182e-05 -2.4998710994218127 9.8955566863345723e-05 5.6640738424040826e-05 9.8955566863345723e-05 -10.000031838641686 -2.4999718146750185 -4.0852960213621317e-05 5.9066259187723347e-05 -4.0852960213621317e-05 -2.4999502981757802 0.00015943382220573454 5.9066259187723347e-05 0.00015943382220573454 -9.9999573476668306 -2.499733147317587 1.9879452202312016e-06 -0.00017293551525060979 1.9879452202312016e-06 -2.4999253617834483 9.7301717115742163e-06 -0.00017293551525060979 9.7301717115742163e-06 -9.9998966135993506 -2.4995917562076038 1.1801807609805299e-05 0.00018431997359424912 1.1801807609805299e-05 -2.4997419306377431 0.00011328623999107279 0.00018431997359424912 0.00011328623999107279 -9.9997465606866012 -2.4996135698614284 3.3919606016954966e-05 0.00017826700133150578 3.3919606016954966e-05 -2.4999142746418137 0.00018817566556105284 0.00017826700133150578 0.00018817566556105284 -9.9998371735712688 -2.4998082754651221 -3.1423290045294179e-05 -1.6354231425985688e-05 -3.1423290045294179e-05 -2.5001163356720526 -3.7099615658564566e-05 -1.6354231425985688e-05 -3.7099615658564566e-05 -10.000317530814289 -2.5002026628193366 -5.3001041040756019e-06 -0.00025086630909095279 -5.3001041040756019e-06 -2.5001108775959127 0.00028775803451163307 -0.00025086630909095279 0.00028775803451163307 -10.000440305349702 -2.5001963978983448 2.2902360966474605e-05 -0.00021063925645456666 2.2902360966474605e-05 -2.5001968568258728 1.4053848201584255e-05 -0.00021063925645456666 1.4053848201584255e-05 -10.000284242919994 -2.4998431919547133 6.7717966552552583e-05 -0.0003370404896814172 6.7717966552552583e-05 -2.4999932205170037 0.00026615216786485263 -0.0003370404896814172 0.00026615216786485263 -10.000312813252295 -2.499851970461556 6.0390658362169153e-05 2.475178396998956e-05 6.0390658362169153e-05 -2.4998556752871344 7.3643191039085565e-05 2.475178396998956e-05 7.3643191039085565e-05 -10.000052338255454 -2.4997711333151722 -3.6089410406188607e-05 5.9898594587437515e-05 -3.6089410406188607e-05 -2.4997677484206973 -3.3245614182941807e-05 5.9898594587437515e-05 -3.3245614182941807e-05 -9.9999880350632431 -2.4997914033603141 8.4629984838364423e-06 -4.8369501294498463e-05 8.4629984838364423e-06 -2.4998912372626805 3.3611152600032668e-05 -4.8369501294498463e-05 3.3611152600032668e-05 -10.000322567870615 -2.4998126883616165 -7.0810508833194454e-06 1.9938623669890632e-05 -7.0810508833194454e-06 -2.4998367823080057 1.7955657580781548e-05 1.9938623669890632e-05 1.7955657580781548e-05 -9.9999956378858652 -2.4997315964789801 -1.0135661130012019e-05 8.5778285610071947e-05 -1.0135661130012019e-05 -2.4998092872792976 2.8189239871245775e-05 8.5778285610071947e-05 2.8189239871245775e-05 -9.9998895123601663 -2.4998161700174624 -2.5331895574996798e-06 1.0296367224937875e-05 -2.5331895574996798e-06 -2.4998321808780259 3.9525217578884053e-06 1.0296367224937875e-05 3.9525217578884053e-06 -10.000055825341615 -2.4998055103836374 1.5966627841188235e-06 1.9431352562548909e-05 1.5966627841188235e-06 -2.499818890993128 1.2418092389054891e-05 1.9431352562548909e-05 1.2418092389054891e-05 -10.000004278927976 -2.4998486182995832 1.8164337644828076e-05 -1.4670961786755754e-05 1.8164337644828076e-05 -2.4998388947865067 2.5791656470985913e-05 -1.4670961786755754e-05 2.5791656470985913e-05 -10.000011780211551 -2.4997756648135905 7.7447086524441101e-05 3.3576373232424572e-05 7.7447086524441101e-05 -2.499819898463286 6.0007438057674278e-05 3.3576373232424572e-05 6.0007438057674278e-05 -9.9999439832998807 -2.4998816666902406 1.3117753425461591e-05 -7.4243686820629762e-06 1.3117753425461591e-05 -2.4999024630244997 7.2349070550536965e-05 -7.4243686820629762e-06 7.2349070550536965e-05 -10.000118361920981 -2.5000265736480838 -4.5825357233928124e-05 0.00020838523194477432 -4.5825357233928124e-05 -2.4998757818316228 1.9276254432654127e-06 0.00020838523194477432 1.9276254432654127e-06 -10.000011512499732 -2.4998011557891706 -1.1536053093575468e-05 -2.3643022672992231e-05 -1.1536053093575468e-05 -2.4998248704846078 1.6316166389529485e-05 -2.3643022672992231e-05 1.6316166389529485e-05 -10.000013943448469 -2.4998642102654576 1.0591005277755144e-05 1.0043524921732327e-05 1.0591005277755144e-05 -2.4998566024722302 6.6679115686696377e-06 1.0043524921732327e-05 6.6679115686696377e-06 -10.000072189062827 -2.4998121520682339 2.3235632904126552e-05 -2.9413994487192952e-05 2.3235632904126552e-05 -2.4998213641477172 -1.8082956510845349e-05 -2.9413994487192952e-05 -1.8082956510845349e-05 -9.9999844534351752 -2.4999252034841195 -3.6270362839776864e-05 1.75793447404482e-05 -3.6270362839776864e-05 -2.4999457408937138 1.1579683387719086e-05 1.75793447404482e-05 1.1579683387719086e-05 -10.000099777511132 -2.4998501230334376 3.0909001982175503e-05 -5.6711738612991169e-06 3.0909001982175503e-05 -2.4998808641537855 -3.506690074095431e-06 -5.6711738612991169e-06 -3.506690074095431e-06 -10.000064526434604 -2.4997211975634199 -1.4962376475164123e-05 8.4831580355881897e-06 -1.4962376475164123e-05 -2.4997271869385242 -1.4150912518218206e-05 8.4831580355881897e-06 -1.4150912518218206e-05 -10.000014397515013 -2.4998205407736447 -1.834323018533543e-05 -4.279395985218315e-05 -1.834323018533543e-05 -2.4997524254229373 1.0737470858224185e-05 -4.279395985218315e-05 1.0737470858224185e-05 -9.9999555766730914 -2.4997384582125779 -4.2129831721105246e-05 9.4514248036858817e-06 -4.2129831721105246e-05 -2.4997970407052916 7.5172854030469693e-06 9.4514248036858817e-06 7.5172854030469693e-06 -10.000033908793725 -2.4997630565603961 2.7496758607449261e-05 1.7429645653876946e-05 2.7496758607449261e-05 -2.4997627019399147 -5.7752084554607563e-06 1.7429645653876946e-05 -5.7752084554607563e-06 -9.9999221541295675 -2.4997436647858846 6.9303012196047093e-06 2.5816599333872148e-06 6.9303012196047093e-06 -2.4997488299468058 -3.2092976449682453e-06 2.5816599333872148e-06 -3.2092976449682453e-06 -9.9999730377644092 -2.4997640310290583 -2.8705326272246563e-05 -1.4266128460782568e-06 -2.8705326272246563e-05 -2.4998486704266627 7.1073544933852872e-05 -1.4266128460782568e-06 7.1073544933852872e-05 -9.9999699910950604 -2.499816620698585 4.1820491324180752e-05 1.2230662518319946e-05 4.1820491324180752e-05 -2.4998238215529742 4.1679560976781715e-05 1.2230662518319946e-05 4.1679560976781715e-05 -9.9999797262224615 -2.4998504235800483 -6.2973484967454916e-05 -4.5649004002612514e-05 -6.2973484967454916e-05 -2.4998723188134329 7.2635390137687494e-05 -4.5649004002612514e-05 7.2635390137687494e-05 -9.9999636251677622 -2.4997521049743248 -0.00013375862917561955 -6.0973874020930907e-06 -0.00013375862917561955 -2.4997195812259405 -5.6462663211576114e-06 -6.0973874020930907e-06 -5.6462663211576114e-06 -9.9998914990651198 -2.4997554747262729 -2.2943243282909972e-05 5.791098986129839e-06 -2.2943243282909972e-05 -2.4997586367731524 -6.3616089166274037e-05 5.791098986129839e-06 -6.3616089166274037e-05 -9.9999938507457458 -2.4997784687843816 -3.5259578500746739e-05 8.0704150852817236e-05 -3.5259578500746739e-05 -2.4997594881066023 -5.5024028376760015e-05 8.0704150852817236e-05 -5.5024028376760015e-05 -9.9999644287032048 -2.4998038575633594 8.2627860440907753e-06 1.8443711243598671e-05 8.2627860440907753e-06 -2.4997667789691778 -9.4918225003404189e-05 1.8443711243598671e-05 -9.4918225003404189e-05 -9.9999874968434419 -2.4998632215340728 -8.4854020983718436e-05 4.0924026349919984e-05 -8.4854020983718436e-05 -2.4998023274931662 -0.00011366992760164507 4.0924026349919984e-05 -0.00011366992760164507 -9.9999906725430083 -2.4998536190952421 -3.5726619016073255e-06 -9.4672634898373964e-05 -3.5726619016073255e-06 -2.4997938885902813 4.2434685053382992e-05 -9.4672634898373964e-05 4.2434685053382992e-05 -10.000213804223199 -2.4997777989479837 2.7102576160961998e-05 4.7306011397907355e-05 2.7102576160961998e-05 -2.4997578825552025 -4.9593397729807975e-05 4.7306011397907355e-05 -4.9593397729807975e-05 -9.9995938984931332 -2.5001149851711273 5.5757335663713509e-06 -5.8578514904761292e-05 5.5757335663713509e-06 -2.4997857187214754 6.4783024035897085e-05 -5.8578514904761292e-05 6.4783024035897085e-05 -10.000260106429149 -2.4998845701054018 -3.966987046379275e-05 4.5891792717744906e-05 -3.966987046379275e-05 -2.4999346419315422 -0.00010577654399401837 4.5891792717744906e-05 -0.00010577654399401837 -10.00001917653783 -2.4997923379372509 -5.9531693411434049e-05 -4.4050526811556523e-05 -5.9531693411434049e-05 -2.4997921705381332 5.1220171457089236e-05 -4.4050526811556523e-05 5.1220171457089236e-05 -10.000211238155565 -2.4998377506139962 8.7092343568529623e-08 8.0918442174837679e-05 8.7092343568529623e-08 -2.4998164933705049 -5.5967686396485306e-05 8.0918442174837679e-05 -5.5967686396485306e-05 -9.9999859978743615 -2.4996599283160208 -8.148323476969562e-05 9.5981968619485158e-05 -8.148323476969562e-05 -2.4996566324898506 -0.0001065796382577755 9.5981968619485158e-05 -0.0001065796382577755 -9.9998071719640862 -2.4998462790808818 -3.3374616842502237e-05 -3.4228705245255937e-05 -3.3374616842502237e-05 -2.5001247522491932 -4.1518116114125359e-05 -3.4228705245255937e-05 -4.1518116114125359e-05 -10.000336452070348 -2.4996794139109801 -6.6839867456511748e-05 3.91275470221251e-05 -6.6839867456511748e-05 -2.4996727966738739 -0.00016177335438730329 3.91275470221251e-05 -0.00016177335438730329 -9.9999663317259326 -2.4997643777453291 -3.9599941854645421e-05 -1.9800408105563605e-05 -3.9599941854645421e-05 -2.49984373383151 6.489031615819485e-05 -1.9800408105563605e-05 6.489031615819485e-05 -10.000191478345968 -2.4997742669109879 -1.9574959729498726e-05 -1.6885681046403854e-05 -1.9574959729498726e-05 -2.4998510801397997 8.3760584328906873e-05 -1.6885681046403854e-05 8.3760584328906873e-05 -10.000173452237574 -2.499757487181824 -2.1939927706109789e-05 8.2508728703523104e-05 -2.1939927706109789e-05 -2.499799800413343 -4.1144891245181725e-05 8.2508728703523104e-05 -4.1144891245181725e-05 -9.9999728578351093 -2.5001646047043451 2.4332262119312821e-05 -0.0001025250832802477 2.4332262119312821e-05 -2.5001731384519714 0.0001207338699741958 -0.0001025250832802477 0.0001207338699741958 -10.000181799191109 -2.4998495779726331 -6.3870414295968188e-06 -9.4034379085172759e-05 -6.3870414295968188e-06 -2.4997764464970817 3.7462756301454014e-05 -9.4034379085172759e-05 3.7462756301454014e-05 -10.00021430996884 -2.499709444367797 -6.9373186175801597e-05 0.00018497560608379295 -6.9373186175801597e-05 -2.4996871474668483 -2.7086538183052598e-05 0.00018497560608379295 -2.7086538183052598e-05 -10.000039894313199 -2.5000962985148223 -3.3723485734172667e-05 -1.6175285005605813e-05 -3.3723485734172667e-05 -2.4998135576025891 7.7923155451286235e-05 -1.6175285005605813e-05 7.7923155451286235e-05 -10.00026234461413 -2.4999388030711902 2.4464683509724078e-05 -7.8455407892086271e-05 2.4464683509724078e-05 -2.5001294772354505 0.00013283307394662547 -7.8455407892086271e-05 0.00013283307394662547 -10.000160568071809 -2.4998554845229264 2.7635214323833673e-05 -7.4200166921833954e-05 2.7635214323833673e-05 -2.4998312210322768 -2.3951061768334725e-05 -7.4200166921833954e-05 -2.3951061768334725e-05 -10.000057824678462 -2.499872829595112 -2.0074937623821447e-05 -4.4332446992534358e-05 -2.0074937623821447e-05 -2.4997413901277135 7.8604635132650813e-05 -4.4332446992534358e-05 7.8604635132650813e-05 -10.000224822068194 -2.49987277883625 1.8638015235523286e-05 -7.7170705784279647e-05 1.8638015235523286e-05 -2.4996926014806449 4.7647659714211699e-05 -7.7170705784279647e-05 4.7647659714211699e-05 -10.000180714409577 -2.4998890900585251 5.8343085100032998e-05 -0.0002369752517064061 5.8343085100032998e-05 -2.499660255787143 0.00011096908020524765 -0.0002369752517064061 0.00011096908020524765 -9.9998747712267875 -2.4999909002033776 -4.0261507162938341e-06 -0.00020387033443870626 -4.0261507162938341e-06 -2.5000832026317998 0.00017862334343546359 -0.00020387033443870626 0.00017862334343546359 -9.9999469383769295 -2.499903670439553 3.2688256457916897e-05 -0.0002139579359332522 3.2688256457916897e-05 -2.4995925444059512 -0.00011244518599234232 -0.0002139579359332522 -0.00011244518599234232 -9.9998159387488013 -2.4997939401965827 5.4114918429843141e-05 -0.00028509644425102007 5.4114918429843141e-05 -2.4995528845381081 -4.0102459612535778e-05 -0.00028509644425102007 -4.0102459612535778e-05 -9.9994813529254003 -2.4997586664018292 9.6944969667335046e-06 -0.00013114055161667082 9.6944969667335046e-06 -2.4995527695477433 -0.00014114516449392767 -0.00013114055161667082 -0.00014114516449392767 -9.9996971116526439 -2.499858263485129 5.6586807331513887e-05 -0.00010414971569749909 5.6586807331513887e-05 -2.4997706497755607 -4.0325493949389113e-05 -0.00010414971569749909 -4.0325493949389113e-05 -10.000057623172813 -2.4998257994280442 1.3282965498889313e-05 -3.8427443749267098e-05 1.3282965498889313e-05 -2.499844719140051 2.1695096282581261e-05 -3.8427443749267098e-05 2.1695096282581261e-05 -9.999968835205042 -2.4997923794479462 5.1588124215189073e-05 -5.3631841661072599e-05 5.1588124215189073e-05 -2.4997371857728714 -5.3143941060262989e-05 -5.3631841661072599e-05 -5.3143941060262989e-05 -9.9998735216664905 -2.4998667580837708 1.3256494675911702e-05 -7.0476385067186342e-05 1.3256494675911702e-05 -2.4998652335937788 2.142829251583489e-05 -7.0476385067186342e-05 2.142829251583489e-05 -10.000067113537034 -2.4998118892607444 -2.0534065506147358e-06 -3.4916230061021736e-05 -2.0534065506147358e-06 -2.4998038757328818 -1.4915822923677879e-05 -3.4916230061021736e-05 -1.4915822923677879e-05 -9.9999530895407904 -2.4998200048717401 -7.2410797905897651e-06 -2.6244003665354398e-05 -7.2410797905897651e-06 -2.4997996526107853 -1.2404956723388594e-05 -2.6244003665354398e-05 -1.2404956723388594e-05 -9.9999950706315097 -2.4997880836724788 -3.6750317364832384e-05 -1.2952556120993108e-05 -3.6750317364832384e-05 -2.4997247467859922 -3.241888569416318e-05 -1.2952556120993108e-05 -3.241888569416318e-05 -9.9999650848620494 -2.499823417984385 -5.8665602080555505e-06 -2.5493703516232813e-05 -5.8665602080555505e-06 -2.4998091199523129 2.9376031871031216e-05 -2.5493703516232813e-05 2.9376031871031216e-05 -10.000015113111456 -2.499908620473613 -0.0002006644680351153 -2.1863450006875951e-05 -0.0002006644680351153 -2.4999121329977254 -6.6911297525784619e-05 -2.1863450006875951e-05 -6.6911297525784619e-05 -10.000026689262484 -2.4999073217489429 -0.00022639496014666437 -3.955287939216845e-05 -0.00022639496014666437 -2.4998838461293196 -4.2819955359485462e-05 -3.955287939216845e-05 -4.2819955359485462e-05 -9.9999884253117823 -2.4998459454464772 2.2639036543162757e-06 1.0187514736692549e-05 2.2639036543162757e-06 -2.499854390945738 -1.028880003595134e-05 1.0187514736692549e-05 -1.028880003595134e-05 -10.000045393438921 -2.4998685331617634 3.3460021561213503e-05 -7.5656852000172137e-05 3.3460021561213503e-05 -2.4998624310227222 2.9935588352847375e-05 -7.5656852000172137e-05 2.9935588352847375e-05 -10.000072131534194 -2.4998016297567602 1.4679279834963388e-05 -3.2402245626172999e-05 1.4679279834963388e-05 -2.4998203958806604 -3.0047350040529608e-05 -3.2402245626172999e-05 -3.0047350040529608e-05 -9.9999575872258806 -2.4998069281710111 7.4876399527742696e-06 -3.5533804052967355e-05 7.4876399527742696e-06 -2.4997923686309487 -2.7358320910941814e-05 -3.5533804052967355e-05 -2.7358320910941814e-05 -9.9999532047285946 -2.4998385450770622 1.6155359182094051e-05 6.480877750014713e-07 1.6155359182094051e-05 -2.4998272801742472 -4.3679833990672989e-05 6.480877750014713e-07 -4.3679833990672989e-05 -10.000045789251878 -2.4998448913061093 -5.6447801431345709e-06 -8.1784469854184749e-06 -5.6447801431345709e-06 -2.4998354897733526 4.7997770380447946e-06 -8.1784469854184749e-06 4.7997770380447946e-06 -10.000035319217902 -2.4999058015375799 5.2234097649604882e-05 -9.9448008719082992e-05 5.2234097649604882e-05 -2.4998614307632474 5.6295186460886271e-05 -9.9448008719082992e-05 5.6295186460886271e-05 -10.000030560597818 -2.4998680863655203 -2.6625347703010525e-05 1.2339480187417706e-05 -2.6625347703010525e-05 -2.4999397267724195 3.0653831870175452e-05 1.2339480187417706e-05 3.0653831870175452e-05 -9.9999117517561196 -2.4998666450231517 3.7238693829074806e-05 -7.7689665506142092e-05 3.7238693829074806e-05 -2.499867657103755 2.4893793388880425e-05 -7.7689665506142092e-05 2.4893793388880425e-05 -10.000052540450618 -2.4999823866802955 -2.999890563679181e-05 -3.3772567541482561e-05 -2.999890563679181e-05 -2.4999529898438944 0.00019696298125774407 -3.3772567541482561e-05 0.00019696298125774407 -9.9999211527924192 -2.4999672874601648 -2.2033810552925483e-05 -0.00013467943515280844 -2.2033810552925483e-05 -2.5000131944139663 -5.8004584938031777e-06 -0.00013467943515280844 -5.8004584938031777e-06 -9.9999356064849501 -2.5000142557001568 5.8100714373627598e-06 6.0593637407712231e-05 5.8100714373627598e-06 -2.4999693625984518 1.2738275631656807e-05 6.0593637407712231e-05 1.2738275631656807e-05 -9.9998651019602374 -2.4998182022900939 2.183300313164145e-05 -1.0174227092374366e-05 2.183300313164145e-05 -2.4998046280576505 -2.3258535181369666e-05 -1.0174227092374366e-05 -2.3258535181369666e-05 -9.9999286972726296 -2.5002293198107499 -7.3761810399708715e-08 0.00078357364820618586 -7.3761810399708715e-08 -2.5002294063061563 -0.00021052225401305063 0.00078357364820618586 -0.00021052225401305063 -10.000946414553832 -2.500042914440578 -1.6885775412154789e-05 -0.00011310004107834004 -1.6885775412154789e-05 -2.4998770772847156 -5.0375565070481798e-06 -0.00011310004107834004 -5.0375565070481798e-06 -9.9998740588471531 -2.4998353230991079 -7.8192370715195073e-06 4.7866235282079117e-05 -7.8192370715195073e-06 -2.4998079433008007 -3.5976672239534935e-05 4.7866235282079117e-05 -3.5976672239534935e-05 -9.9998891523097111 -2.5001564483633896 6.5043296084713615e-08 -0.00021264120141738826 6.5043296084713615e-08 -2.5001571612536382 -0.00073316331981551392 -0.00021264120141738826 -0.00073316331981551392 -10.000657934785478 -2.4998633112101287 -4.0481384598291461e-05 8.4390263888067807e-06 -4.0481384598291461e-05 -2.5000632260428453 -5.5108348498311699e-05 8.4390263888067807e-06 -5.5108348498311699e-05 -9.9998754192670276 -2.4998142698860621 -6.6168118309177465e-06 -1.6100055370671384e-05 -6.6168118309177465e-06 -2.4998515935381218 3.6108976087412259e-05 -1.6100055370671384e-05 3.6108976087412259e-05 -9.9999173595879949 -2.4999784921528203 2.8273496497634291e-05 0.00016046180653923718 2.8273496497634291e-05 -2.5000108216083872 -2.2601336297543005e-05 0.00016046180653923718 -2.2601336297543005e-05 -10.000011815435483 -2.4999786693903765 -5.7821216156797688e-06 -2.903034284143757e-05 -5.7821216156797688e-06 -2.5000245603455196 -5.529149999788127e-05 -2.903034284143757e-05 -5.529149999788127e-05 -9.9999048243910451 -2.5000328781992489 2.2814033201667925e-05 -7.5706670215480536e-05 2.2814033201667925e-05 -2.499990842885937 0.00014101006258899497 -7.5706670215480536e-05 0.00014101006258899497 -10.000034167468975 -2.4999508217794792 1.8155960437487182e-05 -6.602748083839316e-06 1.8155960437487182e-05 -2.499831080452636 -2.7539562786671468e-05 -6.602748083839316e-06 -2.7539562786671468e-05 -9.9999556865286632 -2.4998402263907091 -6.6856354707080595e-06 -1.0377216801860101e-05 -6.6856354707080595e-06 -2.4998763316235899 2.8953005420717659e-05 -1.0377216801860101e-05 2.8953005420717659e-05 -10.000009098140714 -2.499695643187434 6.011371383572283e-05 -7.3468239058627205e-05 6.011371383572283e-05 -2.4997984480427844 7.7236738320607401e-06 -7.3468239058627205e-05 7.7236738320607401e-06 -9.9999610641856442 -2.4998379735246434 1.0288316516313661e-05 2.2001471223553892e-05 1.0288316516313661e-05 -2.4998533658865991 7.422357868103191e-06 2.2001471223553892e-05 7.422357868103191e-06 -10.000058820389825 -2.4998515669837449 -1.6615546412542745e-05 4.3141673258695334e-05 -1.6615546412542745e-05 -2.4998442667645548 -1.3515978803169126e-05 4.3141673258695334e-05 -1.3515978803169126e-05 -9.9999459031395954 -2.4998654475111746 -3.4030349388407621e-06 5.0173068659731257e-05 -3.4030349388407621e-06 -2.4998410947346699 -3.4464584047544378e-05 5.0173068659731257e-05 -3.4464584047544378e-05 -10.000043713527326 -2.4998544177309845 1.0827896112132296e-05 1.4479097977471156e-05 1.0827896112132296e-05 -2.4998311238337707 1.775584785868034e-05 1.4479097977471156e-05 1.775584785868034e-05 -10.000055532087737 -2.499830844873971 -1.8041117016453322e-06 -9.1878274917078784e-06 -1.8041117016453322e-06 -2.4998806701321179 2.4718957292613197e-05 -9.1878274917078784e-06 2.4718957292613197e-05 -10.00004584587928 -2.4998296233673383 8.1567749380316468e-06 2.2245090987915717e-05 8.1567749380316468e-06 -2.4998229290637002 -3.9624217829103969e-06 2.2245090987915717e-05 -3.9624217829103969e-06 -10.000045718122617 -2.4998370906340015 -5.6475083880356508e-06 3.4817720427682275e-05 -5.6475083880356508e-06 -2.4997935306837316 -3.4390904879777473e-05 3.4817720427682275e-05 -3.4390904879777473e-05 -9.9999407245214833 -2.4998160690130096 -6.1002979114148587e-05 7.5915089338796093e-05 -6.1002979114148587e-05 -2.4996762665790135 -7.1688497870425749e-05 7.5915089338796093e-05 -7.1688497870425749e-05 -9.9998994908987928 -2.4998603101547898 -1.6615454640948603e-05 4.7088194977007447e-05 -1.6615454640948603e-05 -2.4998314890655182 -4.2910868847806372e-06 4.7088194977007447e-05 -4.2910868847806372e-06 -9.9999903706342117 -2.4998325816268618 -7.7585980589752433e-06 2.1725822643148263e-05 -7.7585980589752433e-06 -2.499838264915192 3.2492057291111376e-06 2.1725822643148263e-05 3.2492057291111376e-06 -10.000048965001168 -2.49988936173186 -1.302181741441145e-05 7.1855397476561222e-05 -1.302181741441145e-05 -2.4998571396041367 -1.8337406932578126e-05 7.1855397476561222e-05 -1.8337406932578126e-05 -10.000076207269121 -2.4998116382184592 2.1975415467849122e-05 2.4237155257456067e-05 2.1975415467849122e-05 -2.4997701061456747 2.4659002813010034e-05 2.4237155257456067e-05 2.4659002813010034e-05 -10.000028500353945 -2.4998642552867962 0.000161518409666772 3.5007267681574916e-05 0.000161518409666772 -2.5001303215170236 -2.5049327360415763e-05 3.5007267681574916e-05 -2.5049327360415763e-05 -10.000013617083017 -2.4997744613876165 4.9604406417240338e-05 -9.9833407034566335e-06 4.9604406417240338e-05 -2.4995603984394847 -0.00019094796819363324 -9.9833407034566335e-06 -0.00019094796819363324 -9.9999696466841712 -2.4997842740359801 7.0494312371932187e-06 -5.7677112907938977e-06 7.0494312371932187e-06 -2.4997160526249185 -7.7784164600025463e-05 -5.7677112907938977e-06 -7.7784164600025463e-05 -9.9998106878765416 -2.5001313644229852 -2.1025752493265503e-05 1.4779562233935002e-05 -2.1025752493265503e-05 -2.5001357854501607 0.00018099130367512121 1.4779562233935002e-05 0.00018099130367512121 -10.000052181656105 -2.4997999140865681 6.3002852858882465e-06 -2.2796045640482987e-05 6.3002852858882465e-06 -2.4998349169227825 -1.1886512670589156e-05 -2.2796045640482987e-05 -1.1886512670589156e-05 -10.000027166373162 -2.4998901865777721 -3.0115368065933054e-05 0.00010762978010259161 -3.0115368065933054e-05 -2.499677407814461 -9.0473165714755055e-07 0.00010762978010259161 -9.0473165714755055e-07 -10.000191969785206 -2.4998218252296511 -7.5899979615768535e-05 0.00017076276286287495 -7.5899979615768535e-05 -2.4997639822791542 0.00042537091232919266 0.00017076276286287495 0.00042537091232919266 -9.9996397117261413 -2.4999906032321899 4.9937568986757575e-06 0.00025919897614542445 4.9937568986757575e-06 -2.5000817008094494 0.00021496530142071555 0.00025919897614542445 0.00021496530142071555 -9.9999543235729291 -2.4998725062001568 -6.3743201213287015e-05 0.00012314713382188813 -6.3743201213287015e-05 -2.4996897029496519 -6.6258390938322975e-05 0.00012314713382188813 -6.6258390938322975e-05 -10.000054117074084 -2.4998305930542384 -5.1670239355836751e-05 0.00034381234267177874 -5.1670239355836751e-05 -2.4995519742085843 -3.1572860916817547e-06 0.00034381234267177874 -3.1572860916817547e-06 -9.999611425204316 -2.4999005993094552 4.624509281381012e-07 7.9841919447432019e-05 4.624509281381012e-07 -2.4997436572627287 4.0251957969070218e-05 7.9841919447432019e-05 4.0251957969070218e-05 -10.000254433370833 -2.5001033002608923 3.6830494412554237e-05 -2.6754761966008012e-05 3.6830494412554237e-05 -2.4997968780815234 4.3021480839122717e-05 -2.6754761966008012e-05 4.3021480839122717e-05 -10.000308477473638 -2.4999364620710853 -2.0006668502704729e-06 2.1678985509374755e-05 -2.0006668502704729e-06 -2.4997428992396373 0.00015322251869814678 2.1678985509374755e-05 0.00015322251869814678 -9.999942574096055 -2.4998052807949058 -5.5268015211363141e-05 0.00037161833860426474 -5.5268015211363141e-05 -2.4995777367965557 -2.1990033192994006e-05 0.00037161833860426474 -2.1990033192994006e-05 -9.9995165082453727 -2.499787395006893 -2.0542720310316297e-05 0.00017286352356649104 -2.0542720310316297e-05 -2.4995920148230444 -0.00016227843815119769 0.00017286352356649104 -0.00016227843815119769 -9.999738116764787 -2.4998948269984962 -3.3519943475483837e-05 0.00020971148740177753 -3.3519943475483837e-05 -2.4995927664202773 -0.00016930509727828668 0.00020971148740177753 -0.00016930509727828668 -9.9997713506800352 -2.4998286706789572 -1.6275069712815293e-05 -2.5377978826846004e-05 -1.6275069712815293e-05 -2.4998392750092839 -3.6375848569747404e-05 -2.5377978826846004e-05 -3.6375848569747404e-05 -9.9999842857508607 -2.4997558903711945 3.4166246184833815e-05 1.9423720120759214e-05 3.4166246184833815e-05 -2.4998377981490534 8.1587976522412564e-05 1.9423720120759214e-05 8.1587976522412564e-05 -10.000194031711207 -2.4997774111483357 6.1040688335919173e-05 4.3429521786375602e-05 6.1040688335919173e-05 -2.4997724631494385 5.566139860091468e-05 4.3429521786375602e-05 5.566139860091468e-05 -10.000212037518217 -2.4998508204774113 3.5204067241694577e-05 6.6237428847093494e-05 3.5204067241694577e-05 -2.4997533573756696 3.2440371787512134e-05 6.6237428847093494e-05 3.2440371787512134e-05 -10.000197806030711 -2.5001064038091774 3.2542916153766275e-05 -2.8200301765049398e-05 3.2542916153766275e-05 -2.4998282906030007 4.7138350557043797e-05 -2.8200301765049398e-05 4.7138350557043797e-05 -10.000289913339079 -2.4998536957875612 1.9192162754556728e-05 7.8343590120599771e-05 1.9192162754556728e-05 -2.4997694095032581 2.7180086080935695e-05 7.8343590120599771e-05 2.7180086080935695e-05 -10.000163261913675 -2.4996901848330979 6.6455346614452797e-05 -0.00017101570491116129 6.6455346614452797e-05 -2.4996754972961286 -3.4554002202540459e-05 -0.00017101570491116129 -3.4554002202540459e-05 -9.9999556704167585 -2.4998264616648842 3.2045319016039804e-05 6.7140292113117425e-05 3.2045319016039804e-05 -2.5001022407812741 2.474587796746832e-05 6.7140292113117425e-05 2.474587796746832e-05 -10.000283089104013 -2.4996895274118409 6.6462007641360758e-05 -2.8352708079683363e-05 6.6462007641360758e-05 -2.499704241064189 -0.0001792744467819079 -2.8352708079683363e-05 -0.0001792744467819079 -10.000011803144204 -2.4997848917793126 2.0417931137842318e-05 3.9578551373820048e-05 2.0417931137842318e-05 -2.4998578461676448 9.7200120709572957e-05 3.9578551373820048e-05 9.7200120709572957e-05 -10.000236541373088 -2.4996518197527529 7.3082787111485367e-05 -0.00010653477685518276 7.3082787111485367e-05 -2.4996497753626947 -9.271335680294257e-05 -0.00010653477685518276 -9.271335680294257e-05 -9.9997877317462169 -2.4999008144060375 1.8239365568267091e-05 -8.213079573593518e-05 1.8239365568267091e-05 -2.4998469828419005 -4.5323547260167629e-05 -8.213079573593518e-05 -4.5323547260167629e-05 -9.9999758741551457 -2.4997738972008863 -4.1082784255515819e-05 -6.0302154698543831e-05 -4.1082784255515819e-05 -2.4997698175075804 -4.5463083022667661e-05 -6.0302154698543831e-05 -4.5463083022667661e-05 -9.9995869775040536 -2.4998336913745502 -1.2533966235017598e-05 -5.7291133095827007e-05 -1.2533966235017598e-05 -2.4998139923577218 -7.097814420020665e-05 -5.7291133095827007e-05 -7.097814420020665e-05 -9.9999662084597869 -2.4998250992529352 -2.9579015475508661e-05 -1.011840877307435e-06 -2.9579015475508661e-05 -2.4997477043846947 4.8992218370180751e-05 -1.011840877307435e-06 4.8992218370180751e-05 -10.000000681046942 -2.4997266366852933 0.00010852663627113658 -1.5009812941890743e-05 0.00010852663627113658 -2.4997187373313117 -5.0433807876615333e-06 -1.5009812941890743e-05 -5.0433807876615333e-06 -9.9999127513166979 -2.4999004258039124 1.5412060962363871e-05 -3.0664903434840518e-06 1.5412060962363871e-05 -2.4998924221307952 8.269112645675758e-06 -3.0664903434840518e-06 8.269112645675758e-06 -10.000049011701048 -2.4998441549552726 -2.2275805223769477e-05 -9.5689854665570451e-06 -2.2275805223769477e-05 -2.499851276157139 2.021047634337414e-05 -9.5689854665570451e-06 2.021047634337414e-05 -10.000030167115817 -2.4997706807318232 6.4226509048770684e-05 7.6306001652426403e-05 6.4226509048770684e-05 -2.499845140248365 2.1038656387695198e-05 7.6306001652426403e-05 2.1038656387695198e-05 -9.999987844480529 -2.4997203558994991 -1.9416725656079596e-05 4.4839567747700926e-05 -1.9416725656079596e-05 -2.4998173102399459 2.6901497296449861e-05 4.4839567747700926e-05 2.6901497296449861e-05 -9.9999689120232897 -2.4998466920176874 -2.6314510817041551e-05 -2.4240686991028326e-06 -2.6314510817041551e-05 -2.4998312755273986 1.3183306553532503e-05 -2.4240686991028326e-06 1.3183306553532503e-05 -10.000028324893218 -2.4998330979549186 -2.0020328221867994e-05 -2.0382954529551967e-05 -2.0020328221867994e-05 -2.4998333081953756 -3.8207126178413375e-05 -2.0382954529551967e-05 -3.8207126178413375e-05 -9.9999859388677717 -2.4997289169487082 3.6871274816966743e-06 1.623644131498736e-05 3.6871274816966743e-06 -2.4997296694520346 6.2115645900640004e-05 1.623644131498736e-05 6.2115645900640004e-05 -9.9999745356639025 -2.4998413979801057 -1.7802410109198198e-05 -5.2568951127707209e-05 -1.7802410109198198e-05 -2.4998327975157757 -4.1463747271208717e-06 -5.2568951127707209e-05 -4.1463747271208717e-06 -9.9999787842966548 -2.4998878796234081 1.4726909368319976e-05 -5.1482069266750585e-05 1.4726909368319976e-05 -2.4998792797537943 -1.0660926879513255e-05 -5.1482069266750585e-05 -1.0660926879513255e-05 -9.9999935236764745 -2.4997209625766796 2.210983862976489e-05 -1.0878502174627158e-06 2.210983862976489e-05 -2.4996848148882762 5.1662605625057978e-05 -1.0878502174627158e-06 5.1662605625057978e-05 -9.9999794540592148 -2.4998235220665386 7.6694724204462005e-05 4.508794000024352e-05 7.6694724204462005e-05 -2.4997610626892666 1.5316508915397264e-05 4.508794000024352e-05 1.5316508915397264e-05 -10.000000181322697 -2.4998624372610703 -1.4205201846550715e-05 -1.8625602002941832e-06 -1.4205201846550715e-05 -2.4998905191138716 4.6687465762917935e-05 -1.8625602002941832e-06 4.6687465762917935e-05 -10.000063325737056 -2.4998431880795629 -6.6253935193243433e-07 -2.4156127216734546e-05 -6.6253935193243433e-07 -2.4998246162282864 1.9430433280120951e-06 -2.4156127216734546e-05 1.9430433280120951e-06 -9.999990636368068 -2.4998470310941494 -9.5555656468442603e-06 -1.1468138959080942e-05 -9.5555656468442603e-06 -2.499851382395347 1.4234549807312646e-05 -1.1468138959080942e-05 1.4234549807312646e-05 -10.000027892663624 -2.4997085428300956 -6.9248050867651479e-05 -6.7187069602958616e-05 -6.9248050867651479e-05 -2.499802236043938 6.4880406649869826e-05 -6.7187069602958616e-05 6.4880406649869826e-05 -9.9999033939271165 -2.4997582872141892 3.1057687624329409e-05 2.2665266614652069e-05 3.1057687624329409e-05 -2.4998063442625371 3.1308058359158508e-05 2.2665266614652069e-05 3.1308058359158508e-05 -9.9999812268099184 -2.4998417189785971 -9.8543134620185718e-06 -1.2699437930724367e-05 -9.8543134620185718e-06 -2.4998711544948153 3.4561123649190506e-05 -1.2699437930724367e-05 3.4561123649190506e-05 -9.9999817658566474 -2.4998277578982711 -2.6515214958435955e-05 -0.00011946203231416597 -2.6515214958435955e-05 -2.4998323222305405 6.7569832768121785e-05 -0.00011946203231416597 6.7569832768121785e-05 -9.9998510569219654 -2.4997520816439884 4.3913063712008269e-05 -0.00021309801735558409 4.3913063712008269e-05 -2.4998085564972801 -3.3478763274530365e-05 -0.00021309801735558409 -3.3478763274530365e-05 -10.000005363167084 -2.5000659443157929 0.00013725324317957646 -5.3418046107367445e-05 0.00013725324317957646 -2.4998390618604605 9.4325386479354734e-07 -5.3418046107367445e-05 9.4325386479354734e-07 -10.000039050449761 -2.499784852612859 2.8518611783854527e-06 -7.1384940677710063e-05 2.8518611783854527e-06 -2.4998097914575697 4.3201063189002298e-06 -7.1384940677710063e-05 4.3201063189002298e-06 -9.9998484829104797 -2.4997263981165609 -2.7650549692747505e-05 4.183349538511294e-05 -2.7650549692747505e-05 -2.4998635298623459 6.8488457025228655e-05 4.183349538511294e-05 6.8488457025228655e-05 -10.000186261312439 -2.4998444628055614 -7.145079884484615e-05 -2.518238437332343e-05 -7.145079884484615e-05 -2.4998657787360532 9.0002629856034133e-05 -2.518238437332343e-05 9.0002629856034133e-05 -10.000061919154511 -2.5000860714982998 4.1627171432521346e-06 0.00017046702793576849 4.1627171432521346e-06 -2.4999966777851643 0.00023351897339227422 0.00017046702793576849 0.00023351897339227422 -9.9999715979674679 -2.5001357835149682 -2.1697091990057735e-05 0.0001407446317658507 -2.1697091990057735e-05 -2.5001291285598555 5.5026234143205487e-05 0.0001407446317658507 5.5026234143205487e-05 -10.000051734096441 -2.4998407227336501 8.5262825766178592e-06 -2.6240258442999931e-05 8.5262825766178592e-06 -2.4997888029620636 -3.1335050438840995e-06 -2.6240258442999931e-05 -3.1335050438840995e-06 -10.000019402618086 -2.499787028914418 3.3138030249403758e-05 4.2894144195226858e-05 3.3138030249403758e-05 -2.5000869985312604 2.3572944148897435e-05 4.2894144195226858e-05 2.3572944148897435e-05 -10.00024213024907 -2.4995733632385031 9.0770670868172328e-06 6.8127155308239651e-05 9.0770670868172328e-06 -2.4997783257607624 4.4494871526801205e-05 6.8127155308239651e-05 4.4494871526801205e-05 -9.999707220366437 -2.4997193991034918 -6.6701610423480911e-05 0.00017631249898153456 -6.6701610423480911e-05 -2.4999129366825761 0.00025324028015305533 0.00017631249898153456 0.00025324028015305533 -9.999992822929773 -2.4996146720176866 -3.3270842112671525e-05 -0.00011615534080575563 -3.3270842112671525e-05 -2.4999179055523952 0.00021593088251082936 -0.00011615534080575563 0.00021593088251082936 -9.9998655514390364 -2.4997395420881596 -2.1795564469305123e-06 0.00018128589006356462 -2.1795564469305123e-06 -2.4999336718390319 -2.9895596860850509e-05 0.00018128589006356462 -2.9895596860850509e-05 -9.9999311796458095 -2.4995812178314987 -1.5217041681070826e-05 -0.00014366338247484285 -1.5217041681070826e-05 -2.4997597400765592 0.00012018628438726633 -0.00014366338247484285 0.00012018628438726633 -9.999725913708108 -2.4995708076115704 -5.2727242477408844e-05 -1.7618155052318159e-05 -5.2727242477408844e-05 -2.4998065511760554 0.0003011373682472447 -1.7618155052318159e-05 0.0003011373682472447 -9.9995250099457511 -2.4995781950810603 -8.1149253731679993e-06 9.0857806770094918e-05 -8.1149253731679993e-06 -2.4998104537527577 -9.7769874450648331e-05 9.0857806770094918e-05 -9.7769874450648331e-05 -9.9997378799544379 -2.499667588635226 3.0499279986951708e-05 0.00012468167961475832 3.0499279986951708e-05 -2.4998786799001822 -0.00012375853755131061 0.00012468167961475832 -0.00012375853755131061 -9.9997873883120221 -2.4997581498185673 5.7767710542993086e-05 1.9711937797835754e-05 5.7767710542993086e-05 -2.4999896454859827 -0.00040147267238792295 1.9711937797835754e-05 -0.00040147267238792295 -10.000269636584632 -2.4996636974780726 3.3155395201325194e-05 0.00012572146940215134 3.3155395201325194e-05 -2.4998776382736572 -0.00012444239494491249 0.00012572146940215134 -0.00012444239494491249 -9.9997944988123724 -2.4998274164114225 5.8888000842501208e-05 -1.3830787275903589e-05 5.8888000842501208e-05 -2.4999449282813089 -0.00011458259264518489 -1.3830787275903589e-05 -0.00011458259264518489 -10.000092776556537 -2.4997686531622612 -1.1713277044901727e-05 -2.5296399940089032e-05 -1.1713277044901727e-05 -2.49974642501396 1.0301354721464762e-05 -2.5296399940089032e-05 1.0301354721464762e-05 -9.9999967833684167 -2.4997344555790071 2.7986321379447763e-05 6.0931769206185038e-05 2.7986321379447763e-05 -2.4997930671002671 -1.1909346242511276e-06 6.0931769206185038e-05 -1.1909346242511276e-06 -10.0003271518852 -2.5001703341197046 -5.2140984249260196e-06 0.0002533480316725625 -5.2140984249260196e-06 -2.5000751462171 -0.0002861785990467838 0.0002533480316725625 -0.0002861785990467838 -10.000296231526219 -2.4998030437445964 5.8183600691082103e-05 7.8557355223995984e-05 5.8183600691082103e-05 -2.5000274976749166 -0.00038056723021595573 7.8557355223995984e-05 -0.00038056723021595573 -10.000421614321164 -2.5002134408533361 2.4417735069523079e-05 0.00020604098127647349 2.4417735069523079e-05 -2.5002117476284509 1.2131371238332524e-05 0.00020604098127647349 1.2131371238332524e-05 -10.00033393743959 -2.4995917935139662 3.3989225368673718e-05 -0.0001778442792837665 3.3989225368673718e-05 -2.4999024627797297 -0.00014931300354474185 -0.0001778442792837665 -0.00014931300354474185 -9.9998017631137799 -2.4998009947997741 -1.7243446940738993e-05 -7.8399661746608729e-05 -1.7243446940738993e-05 -2.4997779409948864 2.8592303602525959e-05 -7.8399661746608729e-05 2.8592303602525959e-05 -9.9999928170550234 -2.4998555955222708 -2.3208877929568225e-05 9.3592697414601744e-05 -2.3208877929568225e-05 -2.4998067048559189 -6.6474676127192822e-05 9.3592697414601744e-05 -6.6474676127192822e-05 -10.000266127471214 -2.4996690378400821 -7.2402467786495794e-05 -4.7512217889853013e-05 -7.2402467786495794e-05 -2.4996749279110517 0.00017317866542813974 -4.7512217889853013e-05 0.00017317866542813974 -9.9999836160382607 -2.4998260255805818 -5.5621024896995938e-06 -2.7813127517650749e-05 -5.5621024896995938e-06 -2.4997845610026976 5.8236591761406942e-05 -2.7813127517650749e-05 5.8236591761406942e-05 -9.9999838307810585 -2.5001387278657443 -1.83495061705327e-06 4.1592245290988927e-05 -1.83495061705327e-06 -2.4998398208101329 -8.2943857699024903e-05 4.1592245290988927e-05 -8.2943857699024903e-05 -10.000326608430257 -2.4997932995195487 -3.4044161356790113e-05 -1.0808862181802578e-05 -3.4044161356790113e-05 -2.500082748847976 -3.1409817183490618e-05 -1.0808862181802578e-05 -3.1409817183490618e-05 -10.000173374894379 -2.4998170907623871 -4.7881030382147262e-05 7.3506771251619085e-05 -4.7881030382147262e-05 -2.4998054690911524 -7.1734615257668111e-05 7.3506771251619085e-05 -7.1734615257668111e-05 -10.00026389067343 -2.4997500430774524 -3.5942863799466216e-05 -1.4507410069253268e-05 -3.5942863799466216e-05 -2.4997755525396537 2.7947587038390509e-05 -1.4507410069253268e-05 2.7947587038390509e-05 -10.000015391900321 -2.499890811949999 -5.6107529728831502e-05 -3.6831465325626311e-05 -5.6107529728831502e-05 -2.4998169286488809 6.7380485436085991e-05 -3.6831465325626311e-05 6.7380485436085991e-05 -9.9999947120107695 -2.4996246094484786 0.00010364708160656475 -4.6948003747534616e-05 0.00010364708160656475 -2.4997741596634953 -6.3395506429858388e-05 -4.6948003747534616e-05 -6.3395506429858388e-05 -10.000103164963864 -2.4997455395103994 3.2585995183935084e-06 -6.1206989530049327e-05 3.2585995183935084e-06 -2.4998216968208955 3.4869329193831788e-05 -6.1206989530049327e-05 3.4869329193831788e-05 -9.9999836586589694 -2.4998273474546955 -5.6142703354289354e-05 -6.9152203638900289e-05 -5.6142703354289354e-05 -2.4998712944759256 8.527483835996108e-05 -6.9152203638900289e-05 8.527483835996108e-05 -9.9999782598774107 -2.499745283190268 1.4676190827637661e-05 -4.2019155487516002e-05 1.4676190827637661e-05 -2.4997244137260712 4.3368189907298067e-05 -4.2019155487516002e-05 4.3368189907298067e-05 -9.9995828214717708 -2.4997909171865458 -1.3358722851882155e-05 -0.00010971314744789851 -1.3358722851882155e-05 -2.4997913057437402 5.7109861753446012e-05 -0.00010971314744789851 5.7109861753446012e-05 -9.999976082981739 -2.4996537166800756 -8.321787988793748e-05 -0.00010298104065720182 -8.321787988793748e-05 -2.4996378942339348 0.00010685358410489343 -0.00010298104065720182 0.00010685358410489343 -9.999814013891406 -2.5000974841885806 -3.4049040260929883e-05 4.2253538457503429e-06 -3.4049040260929883e-05 -2.4998034824392361 -5.1040324163009396e-05 4.2253538457503429e-06 -5.1040324163009396e-05 -10.000246897620263 -2.4996820875842563 -6.9528388674962402e-05 -0.00017562618757662786 -6.9528388674962402e-05 -2.4996716847545581 3.1498628963919062e-05 -0.00017562618757662786 3.1498628963919062e-05 -10.000020473688291 -2.4998295620990287 -2.5236032836109259e-05 8.8711136644469799e-05 -2.5236032836109259e-05 -2.4997516446541876 -2.6129221655927181e-05 8.8711136644469799e-05 -2.6129221655927181e-05 -10.000187134597908 -2.5001698428713959 2.5398613673392169e-05 8.0218636159676895e-05 2.5398613673392169e-05 -2.5001728806918972 -0.00011256719076244029 8.0218636159676895e-05 -0.00011256719076244029 -10.000174892874226 -2.4998875806564023 -9.8969732384474539e-05 8.6032359081222864e-05 -9.8969732384474539e-05 -2.5001029139098576 2.0152480786794769e-05 8.6032359081222864e-05 2.0152480786794769e-05 -10.000379699952259 -2.4998865954131411 -2.7420206606887111e-05 -1.3976465181642084e-05 -2.7420206606887111e-05 -2.499773412171562 -7.5077150556546179e-05 -1.3976465181642084e-05 -7.5077150556546179e-05 -10.000242890248446 -2.4998566269055749 3.5942101257011872e-05 7.7740372971035754e-05 3.5942101257011872e-05 -2.4997259162254277 -4.4888991227232111e-05 7.7740372971035754e-05 -4.4888991227232111e-05 -10.000185530464552 -2.4999764427969575 -4.1952656549728068e-06 0.00024703906731782374 -4.1952656549728068e-06 -2.500069369371408 -0.00017138976383068076 0.00024703906731782374 -0.00017138976383068076 -9.9998932550790052 -2.4998644616407146 2.8233756980167702e-05 2.5454859783557993e-05 2.8233756980167702e-05 -2.499848695162636 8.7612835695249913e-06 2.5454859783557993e-05 8.7612835695249913e-06 -10.000065850342779 -2.4998883690686688 6.3117745631531642e-05 0.00027515837562619438 6.3117745631531642e-05 -2.4996811822784482 -0.0001472296891216196 0.00027515837562619438 -0.0001472296891216196 -9.9998890615889344 -2.499851820677816 7.479628224944103e-05 9.7845887511383012e-05 7.479628224944103e-05 -2.49980636777466 3.0491991864778356e-05 9.7845887511383012e-05 3.0491991864778356e-05 -10.000082577897089 -2.4999035742820279 2.9354968974475504e-05 0.00020439612629412796 2.9354968974475504e-05 -2.4995922968885402 0.00013605454724293742 0.00020439612629412796 0.00013605454724293742 -9.9998048175604897 -2.499799519436857 5.3180209491142047e-05 0.0003172481083539029 5.3180209491142047e-05 -2.4995656315021053 1.0403897827167567e-05 0.0003172481083539029 1.0403897827167567e-05 -9.9995029456929601 -2.4997526158358605 2.0953745446798352e-05 0.00013014170708736117 2.0953745446798352e-05 -2.4995881101313469 0.00014250082122169161 0.00013014170708736117 0.00014250082122169161 -9.9997136021832738 -2.4998741990803968 6.890644079870756e-05 3.7529582754380897e-05 6.890644079870756e-05 -2.4998595511993997 -0.00019005669505478551 3.7529582754380897e-05 -0.00019005669505478551 -10.0000368797768 -2.5000425575313345 -7.062366236801235e-06 -0.00016723631746019926 -7.062366236801235e-06 -2.4999334002629428 -0.00012640437568448845 -0.00016723631746019926 -0.00012640437568448845 -9.9999252762931263 -2.4998365590570097 2.5063872221352263e-05 4.0870968112116657e-05 2.5063872221352263e-05 -2.4998054042890074 2.2777667021411929e-05 4.0870968112116657e-05 2.2777667021411929e-05 -9.9998596766839398 -2.4998833175158799 -1.9560972981656228e-05 3.5535040777023852e-05 -1.9560972981656228e-05 -2.499940800281971 2.982419012831361e-05 3.5535040777023852e-05 2.982419012831361e-05 -9.9998855177715011 -2.4998303535604931 2.5796144543857208e-05 -1.440333611402167e-05 2.5796144543857208e-05 -2.4999137966701932 -4.1715757868932002e-05 -1.440333611402167e-05 -4.1715757868932002e-05 -9.9999829436200613 -2.4999677736702335 -2.3275169216261917e-05 0.00017774631448082441 -2.3275169216261917e-05 -2.5000101250301809 1.2484330153053873e-05 0.00017774631448082441 1.2484330153053873e-05 -9.9999470156274128 -2.4999096453733669 4.131847372077121e-06 -5.3674364135413094e-05 4.131847372077121e-06 -2.4998660352722921 4.815188135226143e-05 -5.3674364135413094e-05 4.815188135226143e-05 -9.9994537328698812 -2.4999310101454943 2.9745951902326013e-05 3.3808812614388728e-05 2.9745951902326013e-05 -2.5001187393189968 -0.00011829171454047493 3.3808812614388728e-05 -0.00011829171454047493 -10.000105836170878 -2.499930517433675 4.5867654891202655e-05 -0.00011988488299952138 4.5867654891202655e-05 -2.5000521266677871 0.00013774372123043221 -0.00011988488299952138 0.00013774372123043221 -9.9997823283675658 -2.4999084439262718 -1.1148621785148877e-05 -1.7591330378152747e-05 -1.1148621785148877e-05 -2.4998494713338451 7.9366219307708263e-07 -1.7591330378152747e-05 7.9366219307708263e-07 -9.9998879308968878 -2.5001682412218456 5.0552200333662821e-08 -0.00082577253376476742 5.0552200333662821e-08 -2.5001682416697508 0.00021755736569692804 -0.00082577253376476742 0.00021755736569692804 -10.000704642240002 -2.5000250818274168 -2.8851832252481451e-05 4.424408867879367e-05 -2.8851832252481451e-05 -2.4999920857208604 -0.00020173268373987829 4.424408867879367e-05 -0.00020173268373987829 -10.000071868584284 -2.4998118740639894 -4.8487013816266584e-06 1.6808808442903e-05 -4.8487013816266584e-06 -2.4998390663621066 6.401881501388873e-06 1.6808808442903e-05 6.401881501388873e-06 -10.000012142158704 -2.4998625930637481 3.5762664616571929e-05 3.2487273497805447e-05 3.5762664616571929e-05 -2.4998632193899213 -1.6796328178747544e-05 3.2487273497805447e-05 -1.6796328178747544e-05 -10.000105187303939 -2.4997852009409995 1.2645898742426133e-05 2.1685566746754148e-06 1.2645898742426133e-05 -2.499793423525611 -1.5131824300240737e-05 2.1685566746754148e-06 -1.5131824300240737e-05 -9.9999787442310666 -2.4998145824724878 3.0948585660191587e-06 -1.3493994759805616e-05 3.0948585660191587e-06 -2.4997886502003492 -6.6796087243581326e-06 -1.3493994759805616e-05 -6.6796087243581326e-06 -9.9999741384393595 -2.4998579960953609 4.3384013059368301e-05 3.5765157763822941e-05 4.3384013059368301e-05 -2.4998456266789826 -3.9680213443027412e-05 3.5765157763822941e-05 -3.9680213443027412e-05 -10.000035060768047 -2.499809197426393 2.2146251327983166e-05 -1.0474636328083875e-05 2.2146251327983166e-05 -2.4998337947648457 1.1894401857226455e-05 -1.0474636328083875e-05 1.1894401857226455e-05 -10.000034790244774 -2.4998025303197808 7.1448049264736683e-05 6.2159710729758899e-05 7.1448049264736683e-05 -2.4997728689849925 3.3985838942651725e-05 6.2159710729758899e-05 3.3985838942651725e-05 -9.9999330006538081 -2.4998219163233077 2.3403566737219301e-05 2.3141121004321974e-05 2.3403566737219301e-05 -2.4998392052972083 -1.6716373425484932e-05 2.3141121004321974e-05 -1.6716373425484932e-05 -10.000021201662923 -2.4998028096559688 -9.7316843268741173e-06 1.5838382978472509e-05 -9.7316843268741173e-06 -2.4998071593444307 1.1739247632203131e-05 1.5838382978472509e-05 1.1739247632203131e-05 -10.000002553839387 -2.4998570079701636 1.6229869616513473e-05 3.2322729836664621e-05 1.6229869616513473e-05 -2.4998494451826385 -1.5739782852852713e-05 3.2322729836664621e-05 -1.5739782852852713e-05 -10.000028636968562 -2.4998422086905601 -1.4989554391828255e-05 1.9305700640792622e-05 -1.4989554391828255e-05 -2.4998132912026221 1.5866068378223019e-05 1.9305700640792622e-05 1.5866068378223019e-05 -9.9999938918095381 -2.4998094634125616 -1.990961781980675e-05 2.5671370201485466e-05 -1.990961781980675e-05 -2.4997283855944525 8.5437049295755685e-05 2.5671370201485466e-05 8.5437049295755685e-05 -9.9998769086617347 -2.4998115301794939 -1.0757286829858034e-05 1.8853413873642921e-05 -1.0757286829858034e-05 -2.4997763669608957 -3.9253960630425411e-05 1.8853413873642921e-05 -3.9253960630425411e-05 -10.000011760013695 -2.499884415748669 -5.0893526097002377e-05 -1.6190277225547334e-06 -5.0893526097002377e-05 -2.5000484155823237 0.00021395441233984513 -1.6190277225547334e-06 0.00021395441233984513 -10.000016219881257 -2.4998390334449723 2.8924147481615675e-05 6.6275277585958747e-06 2.8924147481615675e-05 -2.4997679666726964 -5.6718678965061997e-05 6.6275277585958747e-06 -5.6718678965061997e-05 -10.000000145642318 -2.4998655695109999 1.7720950076659882e-05 1.3582588665739248e-05 1.7720950076659882e-05 -2.4998530916475756 -1.1083847443194017e-05 1.3582588665739248e-05 -1.1083847443194017e-05 -10.000035837149717 -2.4998387015716728 2.9945836266006949e-05 2.1838735792645281e-05 2.9945836266006949e-05 -2.4998625510495978 -1.5730872131580753e-06 2.1838735792645281e-05 -1.5730872131580753e-06 -10.000027622032933 -2.4999413053718853 -2.397299064872526e-05 -2.3739510321973967e-06 -2.397299064872526e-05 -2.4998987933292089 -2.0507602933150793e-05 -2.3739510321973967e-06 -2.0507602933150793e-05 -10.00006495154399 -2.4998193387401741 -6.1054654184833747e-05 9.4868154159932772e-05 -6.1054654184833747e-05 -2.4998652630238078 -2.3789119529382674e-05 9.4868154159932772e-05 -2.3789119529382674e-05 -9.9999819470127029 -2.4997620461218895 6.7189149292936625e-06 1.9720365751929592e-05 6.7189149292936625e-06 -2.4997604319491189 -6.6394419731885534e-05 1.9720365751929592e-05 -6.6394419731885534e-05 -9.9999813483363607 -2.4997731481303491 3.5874783887595476e-05 -8.5444903947795581e-06 3.5874783887595476e-05 -2.4997808151453258 2.3287493448265195e-05 -8.5444903947795581e-06 2.3287493448265195e-05 -9.9999045712165149 -2.4998554450327806 -8.6668789577240644e-05 5.6161115547403995e-05 -8.6668789577240644e-05 -2.4997616543798964 -1.3360799159478631e-05 5.6161115547403995e-05 -1.3360799159478631e-05 -9.9999969257050036 -2.4997325945839908 -2.8405501065888823e-05 -3.242421128035744e-06 -2.8405501065888823e-05 -2.4996879403691095 -5.2639254265685054e-05 -3.242421128035744e-06 -5.2639254265685054e-05 -9.9999831837460391 -2.4997016339554192 -0.00014882614430276412 -3.136728385122467e-05 -0.00014882614430276412 -2.499688410274798 1.3169867544071678e-05 -3.136728385122467e-05 1.3169867544071678e-05 -9.9999146739296663 -2.4997550110989524 3.829010437272055e-05 6.3199900797172859e-05 3.829010437272055e-05 -2.4998374215511276 2.5017183569175927e-06 6.3199900797172859e-05 2.5017183569175927e-06 -9.9999916269166906 -2.4998286011905089 2.3280843537759873e-06 1.7761561052154207e-05 2.3280843537759873e-06 -2.4998084224800698 -3.5152569731522476e-05 1.7761561052154207e-05 -3.5152569731522476e-05 -10.000025530983926 -2.4997866029918834 -5.425156167405108e-06 3.4551832865048482e-05 -5.425156167405108e-06 -2.4998122449752538 -2.5351984268340289e-05 3.4551832865048482e-05 -2.5351984268340289e-05 -10.000027134471479 -2.4997891120859927 -3.0053746903170041e-05 -2.0273465318076944e-05 -3.0053746903170041e-05 -2.4997799138956722 2.8442095629799269e-06 -2.0273465318076944e-05 2.8442095629799269e-06 -9.9999893058791365 -2.4998568377552495 2.2395330128387563e-05 2.3554930166369559e-05 2.2395330128387563e-05 -2.4998519454556289 -4.4196255364781223e-05 2.3554930166369559e-05 -4.4196255364781223e-05 -10.000040582355487 -2.4998067787526681 6.5135650867293417e-05 -4.3958749226302718e-05 6.5135650867293417e-05 -2.4999007635251127 -5.642630657165526e-05 -4.3958749226302718e-05 -5.642630657165526e-05 -9.9999244982117084 -2.4997353672100013 2.6491940806925872e-05 -7.0514941328703173e-05 2.6491940806925872e-05 -2.4998325858961241 -3.0814536420287197e-05 -7.0514941328703173e-05 -3.0814536420287197e-05 -9.9998773439485085 -2.5000430606831134 -2.3247086957311976e-05 -2.5068449879483978e-05 -2.3247086957311976e-05 -2.4998470138952147 -7.5473173333229227e-06 -2.5068449879483978e-05 -7.5473173333229227e-06 -10.000032129441177 -2.4998354467826225 -8.9631853713443915e-05 -0.00012980753143576607 -8.9631853713443915e-05 -2.499841217580455 -3.7810798798609824e-05 -0.00012980753143576607 -3.7810798798609824e-05 -10.000016122530596 -2.4995938663645294 -0.00017144502336207944 -6.4167179584018186e-05 -0.00017144502336207944 -2.4998411719161311 -2.0840951225231663e-05 -6.4167179584018186e-05 -2.0840951225231663e-05 -9.9999701816967743 -2.4998966602454527 -7.9561156576023542e-05 0.00015108256469087422 -7.9561156576023542e-05 -2.499849439527102 3.2002265953678943e-05 0.00015108256469087422 3.2002265953678943e-05 -10.00000279911518 -2.4998442008096653 -5.0388508757222419e-05 0.00021207813041357326 -5.0388508757222419e-05 -2.4998447715221896 2.6108777469779909e-05 0.00021207813041357326 2.6108777469779909e-05 -9.9999835453274173 -2.4997630488266962 2.2057417409720919e-05 3.4070403787112014e-07 2.2057417409720919e-05 -2.4998453179926852 -3.1278677425916612e-06 3.4070403787112014e-07 -3.1278677425916612e-06 -10.000004144710172 -2.4998133114721242 -1.5126248505597641e-06 -1.0537049129233367e-05 -1.5126248505597641e-06 -2.4998331259532556 1.1545773931587178e-05 -1.0537049129233367e-05 1.1545773931587178e-05 -9.9999974982748228 -2.4998271792545177 -2.3623024933343399e-06 -2.9085087782876329e-05 -2.3623024933343399e-06 -2.4998277005026752 2.6238342201168052e-05 -2.9085087782876329e-05 2.6238342201168052e-05 -10.00003008217055 -2.4998100472127849 -4.3940862988686535e-06 1.7767972654070263e-05 -4.3940862988686535e-06 -2.4998240686502253 1.1836982451995937e-06 1.7767972654070263e-05 1.1836982451995937e-06 -9.9999856117417565 -2.4997725075625183 2.6266313698726123e-05 4.7149029107629303e-06 2.6266313698726123e-05 -2.499823216958907 1.0722170980415058e-05 4.7149029107629303e-06 1.0722170980415058e-05 -9.9999884529331098 -2.4998655571234396 1.1491215363751838e-05 -1.5262797441017995e-05 1.1491215363751838e-05 -2.4998367648023807 7.7517237606627987e-07 -1.5262797441017995e-05 7.7517237606627987e-07 -9.9999855097246027 -2.4998138007782043 4.7842833448724498e-05 2.0626820376179467e-06 4.7842833448724498e-05 -2.4998230224547893 -4.0200913176136055e-06 2.0626820376179467e-06 -4.0200913176136055e-06 -9.9999796330586364 -2.4997952024662489 -2.2747593584985829e-05 -3.9716044375026627e-05 -2.2747593584985829e-05 -2.4998120501945813 2.8721275509013822e-05 -3.9716044375026627e-05 2.8721275509013822e-05 -10.000019421624465 -2.4998042838068351 -3.0973719198679279e-05 -3.2117069068249293e-05 -3.0973719198679279e-05 -2.499786915497535 4.7032767707122503e-06 -3.2117069068249293e-05 4.7032767707122503e-06 -9.9999689292587917 -2.499763599245437 4.5345664124988892e-06 -3.1204298658771279e-05 4.5345664124988892e-06 -2.4997422059961583 4.1194665025612309e-05 -3.1204298658771279e-05 4.1194665025612309e-05 -9.9999959996968393 -2.4998854247665747 -3.3868710246943149e-05 -6.7824726178500327e-05 -3.3868710246943149e-05 -2.4998002159962507 2.5760540092178985e-05 -6.7824726178500327e-05 2.5760540092178985e-05 -9.9999860588089042 -2.4998750700514343 1.1118850391601956e-05 -1.1800581436460789e-06 1.1118850391601956e-05 -2.4998461373515042 -2.8556807230017967e-07 -1.1800581436460789e-06 -2.8556807230017967e-07 -10.000001714153576 -2.4998611184381052 1.7143298255731224e-05 -4.8251613883110167e-05 1.7143298255731224e-05 -2.4998475426798015 1.3802173032928522e-05 -4.8251613883110167e-05 1.3802173032928522e-05 -9.9999943995190943 -2.4999259081666079 -3.3928415782017659e-05 5.5999887376145807e-06 -3.3928415782017659e-05 -2.4999489209701249 3.5823917681199191e-06 5.5999887376145807e-06 3.5823917681199191e-06 -10.000029571075693 -2.4998109762913865 -0.00011712341652917238 -5.9262894145817313e-05 -0.00011712341652917238 -2.4998053295786473 4.5951392985799089e-05 -5.9262894145817313e-05 4.5951392985799089e-05 -10.000011255540503 -2.4999007079821922 -4.3602740984650707e-05 -8.5384193067028491e-05 -4.3602740984650707e-05 -2.4999225779196621 9.3182176009065643e-05 -8.5384193067028491e-05 9.3182176009065643e-05 -9.9999844654458272 -2.4997555621633261 1.0135870715530628e-05 -1.7905187148947732e-05 1.0135870715530628e-05 -2.4997496443284746 3.7964058920536559e-05 -1.7905187148947732e-05 3.7964058920536559e-05 -9.9999665603868877 -2.4997850315992531 -1.712932591527703e-05 -2.3714837532828881e-05 -1.712932591527703e-05 -2.4998936570092907 9.6105925749156995e-05 -2.3714837532828881e-05 9.6105925749156995e-05 -9.999979999396615 -2.4998402220467986 3.565369305358151e-05 -7.4028009513504855e-06 3.565369305358151e-05 -2.4998555317869622 7.3454269308825815e-05 -7.4028009513504855e-06 7.3454269308825815e-05 -9.9999892976175637 -2.4998510634761963 2.1863596050506509e-05 -9.091966399310536e-06 2.1863596050506509e-05 -2.4998894854545579 -1.3163151139750084e-05 -9.091966399310536e-06 -1.3163151139750084e-05 -10.000007499477086 -2.4998474193683395 3.9622501303726999e-06 -1.7135338637785935e-05 3.9622501303726999e-06 -2.4998568747400607 1.6975140404440481e-05 -1.7135338637785935e-05 1.6975140404440481e-05 -10.000012669265585 -2.4998439713876324 1.4850252379195364e-05 -2.2758838571945716e-05 1.4850252379195364e-05 -2.4998386953923961 2.3751829233198407e-05 -2.2758838571945716e-05 2.3751829233198407e-05 -10.00003597194206 -2.499821570596712 -1.3029267354974449e-05 -2.5834028693161315e-05 -1.3029267354974449e-05 -2.4997618087671949 4.3774716269151526e-05 -2.5834028693161315e-05 4.3774716269151526e-05 -10.000012287558356 -2.4998249192532196 3.886047478754247e-05 2.9382113986287095e-07 3.886047478754247e-05 -2.4998278867272976 -1.8964020185308073e-06 2.9382113986287095e-07 -1.8964020185308073e-06 -9.9999945612096468 -2.4997993455596483 -7.1452720658646358e-06 6.983916356340103e-06 -7.1452720658646358e-06 -2.4998003779792985 6.8629759280014468e-06 6.983916356340103e-06 6.8629759280014468e-06 -9.9999807961217897 -2.4998056209413284 -1.3516515832499461e-05 -5.5213905651996242e-06 -1.3516515832499461e-05 -2.4998043850920886 3.7287106825489857e-06 -5.5213905651996242e-06 3.7287106825489857e-06 -10.000005104638101 -2.4998266144666896 1.0746833898589214e-05 -3.3535891699187914e-06 1.0746833898589214e-05 -2.4998350005473373 4.4359893078382839e-05 -3.3535891699187914e-06 4.4359893078382839e-05 -9.9999558063233209 -2.499788289017304 -3.1870825147209029e-05 1.4147712938950008e-06 -3.1870825147209029e-05 -2.4997632283382112 4.7246416139401504e-06 1.4147712938950008e-06 4.7246416139401504e-06 -9.9999743166093289 -2.4998245704434976 1.1875974590721382e-05 -6.9349085727310467e-06 1.1875974590721382e-05 -2.4998087421170063 -1.3166687892862683e-05 -6.9349085727310467e-06 -1.3166687892862683e-05 -9.9999984636003294 -2.4998133241700145 -4.9588863271451164e-06 -6.7363504641093641e-06 -4.9588863271451164e-06 -2.4998154431540089 5.8463277081699516e-05 -6.7363504641093641e-06 5.8463277081699516e-05 -9.9999780814764776 -2.4998605799446172 -0.0002154620558223336 7.8209079390489933e-06 -0.0002154620558223336 -2.5000420243167381 -4.0096351388463347e-05 7.8209079390489933e-06 -4.0096351388463347e-05 -10.000040869121785 -2.4998232415197279 2.9881627875626618e-06 1.1696529416127532e-06 2.9881627875626618e-06 -2.4998235066016345 -2.1841638773167915e-06 1.1696529416127532e-06 -2.1841638773167915e-06 -10.000011543534839 -2.4998234408354865 1.5119772906788805e-05 -4.2179486818838541e-06 1.5119772906788805e-05 -2.4998318606982384 9.2776174849262816e-06 -4.2179486818838541e-06 9.2776174849262816e-06 -10.000001530116123 -2.4998432947571176 1.6895526544338899e-05 -2.4315782287231968e-05 1.6895526544338899e-05 -2.4998271316791909 2.3193702655355253e-05 -2.4315782287231968e-05 2.3193702655355253e-05 -10.000034703503673 -2.4998325161765331 9.9839595208979855e-06 -4.8435843735816775e-06 9.9839595208979855e-06 -2.4998209050438387 9.5980152998720314e-06 -4.8435843735816775e-06 9.5980152998720314e-06 -10.000013701745445 -2.4998235174663925 9.9634793291265673e-07 -1.3503555251315191e-05 9.9634793291265673e-07 -2.4998112424432826 1.1953546453113972e-05 -1.3503555251315191e-05 1.1953546453113972e-05 -10.000016141522408 -2.4998170133581561 -5.2088135433856614e-06 -7.4543457868614382e-06 -5.2088135433856614e-06 -2.4998407435676016 1.0593194971930675e-05 -7.4543457868614382e-06 1.0593194971930675e-05 -10.00001673852281 -2.4998441353090159 -5.1513929497498792e-06 -1.9482685083005435e-06 -5.1513929497498792e-06 -2.4998469477601679 1.0965588714717533e-05 -1.9482685083005435e-06 1.0965588714717533e-05 -10.00002089067387 -2.4998353548615317 2.1037872392959449e-05 2.4796375512892155e-06 2.1037872392959449e-05 -2.4998456417291766 1.2990374917976055e-06 2.4796375512892155e-06 1.2990374917976055e-06 -10.000017109115342 -2.499824036249934 8.7242698569263351e-06 -3.8565924143085795e-07 8.7242698569263351e-06 -2.4998434328768235 -8.3442439580139194e-07 -3.8565924143085795e-07 -8.3442439580139194e-07 -9.9999976326776867 -2.4998277532835695 1.4789169310762577e-05 3.6946740422649782e-06 1.4789169310762577e-05 -2.4998195451801779 4.0721329881421298e-06 3.6946740422649782e-06 4.0721329881421298e-06 -9.9999951011453057 -2.4998299529825951 1.7651052229967744e-05 -2.4731304968383938e-06 1.7651052229967744e-05 -2.4998460169105323 7.4123373625667455e-06 -2.4731304968383938e-06 7.4123373625667455e-06 -10.000003432334932 -2.4998205226973416 2.9184206841195066e-06 -1.8679946727218066e-06 2.9184206841195066e-06 -2.4998271559544318 3.2481420664254301e-06 -1.8679946727218066e-06 3.2481420664254301e-06 -9.9999977447382076 -2.4998376491526035 8.2458510376544459e-06 -1.2420623711761891e-06 8.2458510376544459e-06 -2.4998119129868432 3.170287875775557e-06 -1.2420623711761891e-06 3.170287875775557e-06 -9.9999981484931357 -2.4998265572128799 1.209263055622455e-05 -3.1264589672730381e-07 1.209263055622455e-05 -2.4998409302519446 6.3037163400281315e-07 -3.1264589672730381e-07 6.3037163400281315e-07 -9.9999972106527615 -2.4998186272179215 1.4642884061269123e-05 3.5610307236311201e-06 1.4642884061269123e-05 -2.4998503993645276 -1.82648721747114e-06 3.5610307236311201e-06 -1.82648721747114e-06 -9.99999691273878 -2.4998019070902426 -3.2294633652325658e-07 -4.3045754551940263e-06 -3.2294633652325658e-07 -2.4998231781457836 4.4459817418740499e-06 -4.3045754551940263e-06 4.4459817418740499e-06 -9.9999991899345488 -2.4998225568279828 1.570692270011243e-05 -1.7981304800684939e-07 1.570692270011243e-05 -2.4998503267595602 2.3661059174173715e-06 -1.7981304800684939e-07 2.3661059174173715e-06 -10.000006985680404 -2.499819400559661 -8.7752002161842993e-08 -1.7705031218895328e-06 -8.7752002161842993e-08 -2.4998242622774094 -1.0404335633040773e-06 -1.7705031218895328e-06 -1.0404335633040773e-06 -10.00000385587297 -2.49983246780827 -3.9014620835835367e-06 -5.6965191088664824e-06 -3.9014620835835367e-06 -2.4998264065782738 3.6743275799722142e-07 -5.6965191088664824e-06 3.6743275799722142e-07 -10.000000200841519 -2.4998243371349949 1.0418452190227558e-05 -3.5839570236007035e-06 1.0418452190227558e-05 -2.4998378575598235 7.3633264250361208e-06 -3.5839570236007035e-06 7.3633264250361208e-06 -9.9999841054024188 -2.4998392432111967 -4.4612703678656115e-06 -3.8585005412983264e-06 -4.4612703678656115e-06 -2.4998902713268247 -5.4289717099642587e-07 -3.8585005412983264e-06 -5.4289717099642587e-07 -9.9999973433045852 -2.499825114173678 4.9890349947998048e-05 -2.5714349227712319e-06 4.9890349947998048e-05 -2.4998173316104779 2.8341245771557055e-05 -2.5714349227712319e-06 2.8341245771557055e-05 -9.9999948725734384 -2.4998364324653561 1.9413359982102421e-05 6.372496226703106e-06 1.9413359982102421e-05 -2.4998511190388761 -4.6440107248635343e-06 6.372496226703106e-06 -4.6440107248635343e-06 -10.000005616493169 -2.499833303999317 5.5570538653278799e-05 3.7394954368608069e-06 5.5570538653278799e-05 -2.4998273937187028 2.1775577573102112e-05 3.7394954368608069e-06 2.1775577573102112e-05 -9.9999970617188509 -2.4998419109993399 1.4844930308020246e-05 1.0538956370709229e-05 1.4844930308020246e-05 -2.4998858299961455 -1.4555055667386796e-06 1.0538956370709229e-05 -1.4555055667386796e-06 -10.000001732312276 -2.499827774420849 2.2973563240307122e-05 2.4525261004271215e-05 2.2973563240307122e-05 -2.499769635934511 -3.6316188456453347e-05 2.4525261004271215e-05 -3.6316188456453347e-05 -10.000004559433108 -2.4998197759982776 6.3074804358230466e-05 1.7688149364758488e-05 6.3074804358230466e-05 -2.499714155392077 -1.2387668721913769e-05 1.7688149364758488e-05 -1.2387668721913769e-05 -10.000001046306096 -2.4998326044833128 3.1883822386811285e-05 2.2331853525514589e-05 3.1883822386811285e-05 -2.4997870052371134 -2.8829138843278201e-05 2.2331853525514589e-05 -2.8829138843278201e-05 -10.000012586167131 -2.4999190579614359 -3.8212450818466521e-06 6.4974217828250858e-06 -3.8212450818466521e-06 -2.4999170183293318 -6.0450555139368589e-06 6.4974217828250858e-06 -6.0450555139368589e-06 -10.000009318330804 -2.4998451191134627 -7.1064768546174614e-07 8.2702664732092757e-06 -7.1064768546174614e-07 -2.4998987357013966 -5.7174036180995813e-06 8.2702664732092757e-06 -5.7174036180995813e-06 -9.9999926837125344 -2.499900058160585 -5.5780650158034368e-06 6.2537929972350526e-06 -5.5780650158034368e-06 -2.4998400937131029 -2.5457325634192784e-06 6.2537929972350526e-06 -2.5457325634192784e-06 -9.9999899633408482 -2.4998294349788992 -1.0681131872266757e-05 6.0497193139497085e-06 -1.0681131872266757e-05 -2.4998357096176598 -1.0352367855404054e-05 6.0497193139497085e-06 -1.0352367855404054e-05 -9.9999892012736922 -2.4998247328616765 -8.7034575281417068e-06 7.7727323481990851e-06 -8.7034575281417068e-06 -2.4998226090293025 -1.4273727213520715e-06 7.7727323481990851e-06 -1.4273727213520715e-06 -9.9999731690722165 -2.4998558957526802 1.0042034961700889e-06 7.1034029762717665e-06 1.0042034961700889e-06 -2.4998952087745447 -3.3643038577224615e-06 7.1034029762717665e-06 -3.3643038577224615e-06 -9.9999932343918978 -2.4998898851482085 -1.1990425971228192e-05 -8.8896293704010532e-06 -1.1990425971228192e-05 -2.4999275999503254 -1.892653788537757e-05 -8.8896293704010532e-06 -1.892653788537757e-05 -10.000021151031675 -2.499853945468848 1.0079931693176463e-07 -2.0793088459925002e-06 1.0079931693176463e-07 -2.4998518123931124 9.749494944699677e-06 -2.0793088459925002e-06 9.749494944699677e-06 -10.000006818926373 -2.4998445600917738 -1.2479273128800989e-05 1.5764691724484692e-05 -1.2479273128800989e-05 -2.4998899012293578 2.4437855259407115e-06 1.5764691724484692e-05 2.4437855259407115e-06 -10.000021505935489 -2.4998528373911544 -1.2048276658774893e-05 1.512060513686464e-05 -1.2048276658774893e-05 -2.4998838612486249 3.2991480978239451e-06 1.512060513686464e-05 3.2991480978239451e-06 -10.000021892795068 -2.4997138962577097 -8.9548455617420721e-05 -6.9365074040206309e-06 -8.9548455617420721e-05 -2.4998162669472261 -1.545705419658816e-06 -6.9365074040206309e-06 -1.545705419658816e-06 -9.999995679108828 -2.4997753301457326 -9.6533762822779843e-05 2.3372191279236176e-05 -9.6533762822779843e-05 -2.4997819577973655 -1.9108525677324906e-05 2.3372191279236176e-05 -1.9108525677324906e-05 -10.000008016741916 -2.4998439339915013 -5.7699524444752861e-05 4.6031400709356518e-05 -5.7699524444752861e-05 -2.4998454054781991 -3.918965263549623e-05 4.6031400709356518e-05 -3.918965263549623e-05 -10.000039114364853 -2.4999226323476784 -5.474959452901986e-05 -2.1184201248303225e-05 -5.474959452901986e-05 -2.4998908391866359 2.3831182645039917e-05 -2.1184201248303225e-05 2.3831182645039917e-05 -10.000032495346298 -2.499885744234887 -3.2668270973936289e-05 -3.5594424478091469e-05 -3.2668270973936289e-05 -2.4998710994260191 1.533422413046992e-06 -3.5594424478091469e-05 1.533422413046992e-06 -10.000023935226441 -2.4998633237620673 5.5608668157397588e-06 -8.4713216841336703e-06 5.5608668157397588e-06 -2.4998398560935193 3.6693478566718341e-06 -8.4713216841336703e-06 3.6693478566718341e-06 -9.9999902575191228 -2.4998748054902431 -7.6449948491270117e-06 1.0215036780891751e-06 -7.6449948491270117e-06 -2.4998330969951357 -8.9542390817598516e-06 1.0215036780891751e-06 -8.9542390817598516e-06 -10.000022867522354 -2.499889993537515 1.2643940994988236e-06 7.2049914194849407e-06 1.2643940994988236e-06 -2.4998336267219798 -4.7430165937001334e-06 7.2049914194849407e-06 -4.7430165937001334e-06 -9.9999942887048263 -2.4998026631460806 -8.5554162933393829e-05 6.6894484298529733e-06 -8.5554162933393829e-05 -2.4997167388828045 1.048468892861365e-05 6.6894484298529733e-06 1.048468892861365e-05 -9.9999981225128334 -2.4999319581318371 -3.8213550080705807e-05 6.1868510599083493e-06 -3.8213550080705807e-05 -2.4998695261289683 -6.5157166204699024e-06 6.1868510599083493e-06 -6.5157166204699024e-06 -10.000041914459814 -2.4999124216429669 7.6681893733943237e-05 2.5798985946678954e-05 7.6681893733943237e-05 -2.4998385984766847 -6.5756432796604258e-06 2.5798985946678954e-05 -6.5756432796604258e-06 -10.000001471110732 -2.4997603127958183 2.1802179122120401e-05 -9.2265746904907076e-06 2.1802179122120401e-05 -2.4998417096286407 3.7889107105115727e-06 -9.2265746904907076e-06 3.7889107105115727e-06 -9.999991993209699 -2.4998104140696142 2.02660498737894e-05 5.3825947393448814e-05 2.02660498737894e-05 -2.4998157220151001 5.6894702211707227e-06 5.3825947393448814e-05 5.6894702211707227e-06 -9.9999967002612635 -2.4999510944269812 -2.9491284520818668e-05 1.0110534667262527e-05 -2.9491284520818668e-05 -2.4998713265575443 -3.5153080499839007e-06 1.0110534667262527e-05 -3.5153080499839007e-06 -10.000014082366881 -2.4998327490419445 8.6377467100883529e-06 8.4849838235534492e-06 8.6377467100883529e-06 -2.4998435777562893 -7.8234400433530027e-06 8.4849838235534492e-06 -7.8234400433530027e-06 -9.9999924575760701 -2.4998232209642168 -3.451797564526878e-06 5.9539267560637654e-06 -3.451797564526878e-06 -2.4998186026225753 -6.3280510493868292e-06 5.9539267560637654e-06 -6.3280510493868292e-06 -9.999985935260014 -2.4998594152462994 6.6047165975300913e-05 -4.6416285913508659e-05 6.6047165975300913e-05 -2.499832820772613 -5.8638920155118512e-06 -4.6416285913508659e-05 -5.8638920155118512e-06 -10.000000590765463 -2.4999113248539633 -1.7793780078643964e-05 -3.3351132213255141e-05 -1.7793780078643964e-05 -2.4998625081024901 -4.7697961704784575e-06 -3.3351132213255141e-05 -4.7697961704784575e-06 -10.000016923488197 -2.4999007732095277 9.0975255396624804e-05 1.853209447411075e-05 9.0975255396624804e-05 -2.4998377986198923 -5.8683816561710955e-07 1.853209447411075e-05 -5.8683816561710955e-07 -10.000008462602242 -2.4997861598400455 1.4418816303525578e-05 -5.0081678644176009e-06 1.4418816303525578e-05 -2.4998318624135472 -1.1146093676472901e-05 -5.0081678644176009e-06 -1.1146093676472901e-05 -9.9999750333782771 -2.4997934850246244 8.4404268042295967e-06 -2.2638203494906861e-05 8.4404268042295967e-06 -2.4998014972101785 1.804673786409694e-06 -2.2638203494906861e-05 1.804673786409694e-06 -9.9999789496580647 -2.4997735212216812 2.75394822662986e-05 -1.2137874949580407e-05 2.75394822662986e-05 -2.4998310041856842 -5.4542596110707109e-06 -1.2137874949580407e-05 -5.4542596110707109e-06 -9.9999821659631234 -2.4998546290336563 -1.0891940528667311e-05 -3.1936270433519098e-05 -1.0891940528667311e-05 -2.4998493767785082 7.8203032849444298e-06 -3.1936270433519098e-05 7.8203032849444298e-06 -10.000004772499466 -2.4997851315538213 -5.6880410849989383e-05 -3.8527163377821694e-05 -5.6880410849989383e-05 -2.4998276424374524 7.0705033419216079e-06 -3.8527163377821694e-05 7.0705033419216079e-06 -9.9999869221518338 -2.4998422307837358 -1.0882630806311983e-05 -1.8626978459668209e-06 -1.0882630806311983e-05 -2.4998438668831926 6.4948721973934198e-06 -1.8626978459668209e-06 6.4948721973934198e-06 -10.000003578278593 -2.4997581354392509 -1.7736159769184998e-05 -1.0304840976971263e-05 -1.7736159769184998e-05 -2.4998324516307662 2.1078780623184912e-05 -1.0304840976971263e-05 2.1078780623184912e-05 -9.9999927763661915 -2.4998893327246687 1.3334011051122174e-07 2.8847352506744528e-08 1.3334011051122174e-07 -2.499857597944521 7.7626299113120467e-06 2.8847352506744528e-08 7.7626299113120467e-06 -10.000008210531625 -2.4998462531708796 -6.8065539299930932e-05 1.3637474143735062e-05 -6.8065539299930932e-05 -2.4998504913495978 1.5069306211756839e-05 1.3637474143735062e-05 1.5069306211756839e-05 -10.000006910907608 -2.4997734379354126 -2.4383374222087604e-05 -1.525714468186834e-05 -2.4383374222087604e-05 -2.4998266622537484 1.1004103358303041e-05 -1.525714468186834e-05 1.1004103358303041e-05 -9.9999894360926298 -2.4997904733301413 -8.4751923221592263e-05 3.7377241547176254e-05 -8.4751923221592263e-05 -2.4998250734575693 3.4629458744994679e-06 3.7377241547176254e-05 3.4629458744994679e-06 -9.9999787625000884 -2.4997753972845373 -2.4955319771089112e-05 3.5799885214515825e-05 -2.4955319771089112e-05 -2.4998183616406742 1.3855031852472166e-05 3.5799885214515825e-05 1.3855031852472166e-05 -9.9999952147062601 -2.499846599524858 -1.6255735671705692e-05 3.8236698767235566e-06 -1.6255735671705692e-05 -2.4998446531953498 1.0026996712042546e-05 3.8236698767235566e-06 1.0026996712042546e-05 -10.000014063023812 -2.4998130330357959 4.4095494273600887e-06 -9.3805900958088273e-06 4.4095494273600887e-06 -2.4998261706777285 -5.6075674326194758e-06 -9.3805900958088273e-06 -5.6075674326194758e-06 -10.00001393195096 -2.4997754410771922 -4.0327431524666798e-05 6.9039497123668525e-06 -4.0327431524666798e-05 -2.4998281336668615 3.2378974568203489e-06 6.9039497123668525e-06 3.2378974568203489e-06 -9.99997409423991 -2.4997854823511538 -3.8422137804803991e-05 5.1858907612611915e-06 -3.8422137804803991e-05 -2.499852883648606 -2.0809984651037894e-05 5.1858907612611915e-06 -2.0809984651037894e-05 -10.000004889789739 -2.4998397473915697 -2.0621155582695478e-05 -2.7643774735963689e-05 -2.0621155582695478e-05 -2.4998496306470388 -9.1375603705756703e-06 -2.7643774735963689e-05 -9.1375603705756703e-06 -10.000018202113919 -2.4998530543268647 -1.2236464267836059e-05 -3.276482885250509e-05 -1.2236464267836059e-05 -2.4998480097273479 3.4077395731912929e-06 -3.276482885250509e-05 3.4077395731912929e-06 -9.9999930056473119 -2.499809327600456 4.6519121437389109e-06 -2.1653462800585999e-06 4.6519121437389109e-06 -2.4998153121313864 5.1829530640645771e-06 -2.1653462800585999e-06 5.1829530640645771e-06 -9.9999840885101499 -2.499976893462533 0.00020332798208927359 4.1636580581538851e-05 0.00020332798208927359 -2.4997977634690973 1.2584502908197237e-05 4.1636580581538851e-05 1.2584502908197237e-05 -10.000012904487276 -2.4997620707630359 3.5779162171894604e-05 1.96273667540936e-06 3.5779162171894604e-05 -2.4997764251863925 5.7112276925508354e-06 1.96273667540936e-06 5.7112276925508354e-06 -9.9999678047340126 -2.4997655487829462 2.9152094216704027e-06 -6.6229762595071406e-05 2.9152094216704027e-06 -2.4997992019881945 -1.2199587264838385e-05 -6.6229762595071406e-05 -1.2199587264838385e-05 -9.9999646383783016 -2.4998603488227449 -2.2236078530175474e-05 -1.3942699762736765e-05 -2.2236078530175474e-05 -2.4998267649388666 -3.2500836013582557e-06 -1.3942699762736765e-05 -3.2500836013582557e-06 -10.000028315638595 -2.4997525576169313 -1.7098360217132413e-05 -4.4880598869312394e-05 -1.7098360217132413e-05 -2.4997716123054818 -9.5559113927556893e-05 -4.4880598869312394e-05 -9.5559113927556893e-05 -9.9999809897810508 -2.4998305897062103 5.2260796331647099e-05 -0.00011516261161936825 5.2260796331647099e-05 -2.4998903672711332 -4.3787366839964648e-05 -0.00011516261161936825 -4.3787366839964648e-05 -9.999991639376681 -2.4998712619953984 -4.0657721244757163e-05 -2.9373233461083004e-05 -4.0657721244757163e-05 -2.4998803434649695 -2.3084207860790684e-05 -2.9373233461083004e-05 -2.3084207860790684e-05 -10.000015906181538 -2.4998809238622997 -4.1931986969757633e-05 -1.8019808830871398e-05 -4.1931986969757633e-05 -2.4998811693803624 -1.8876443662607656e-05 -1.8019808830871398e-05 -1.8876443662607656e-05 -10.000024849307053 -2.499848467966765 -4.9254104706323527e-05 -2.9128067992933993e-05 -4.9254104706323527e-05 -2.4997809123727324 -8.0435550901647446e-05 -2.9128067992933993e-05 -8.0435550901647446e-05 -10.000002762140845 -2.499939264054106 9.1722923716023512e-06 -2.2999046803917622e-05 9.1722923716023512e-06 -2.4999357178998256 -2.6921314240091476e-05 -2.2999046803917622e-05 -2.6921314240091476e-05 -10.00004115830609 -2.4998659379693078 -3.4490210697088916e-05 -4.9372531290003963e-06 -3.4490210697088916e-05 -2.4998648523393254 7.1337869549381594e-06 -4.9372531290003963e-06 7.1337869549381594e-06 -9.999998008789726 -2.4997570687889228 -4.0385581060686526e-05 -8.3720156023758818e-05 -4.0385581060686526e-05 -2.4998526240570653 -3.1838509443105067e-05 -8.3720156023758818e-05 -3.1838509443105067e-05 -9.9999843660425292 -2.4998660119726726 8.0028311915895903e-05 -6.6267784072593372e-05 8.0028311915895903e-05 -2.4997839092737788 -2.3353606132481275e-05 -6.6267784072593372e-05 -2.3353606132481275e-05 -10.000016173008397 -2.4997374704574389 1.498394813819937e-05 -9.116294318545215e-06 1.498394813819937e-05 -2.4996992600623775 -7.1282139105566245e-05 -9.116294318545215e-06 -7.1282139105566245e-05 -9.9999986048260006 -2.4997617288045584 -3.980538613332848e-05 -4.5762122220516233e-06 -3.980538613332848e-05 -2.4997801917457148 -2.299080100964801e-06 -4.5762122220516233e-06 -2.299080100964801e-06 -9.9998802488812757 -2.4998562247720901 -3.3702472305171627e-05 -6.756491938375575e-06 -3.3702472305171627e-05 -2.4998646559977811 -7.8780380956544604e-06 -6.756491938375575e-06 -7.8780380956544604e-06 -9.9999908926800813 -2.4999163723276903 1.9752432705357903e-05 1.0031149983547039e-05 1.9752432705357903e-05 -2.4999191545911872 -8.7923746097118283e-06 1.0031149983547039e-05 -8.7923746097118283e-06 -10.000025729077986 -2.4997684314882838 0.00012761234724988503 -2.5281304328217402e-05 0.00012761234724988503 -2.4997597376578486 -3.4889487125155938e-05 -2.5281304328217402e-05 -3.4889487125155938e-05 -10.000058173019763 -2.4999023760570136 7.1524734279191163e-06 3.7620890456224743e-06 7.1524734279191163e-06 -2.4999049728335674 1.5464583391633369e-07 3.7620890456224743e-06 1.5464583391633369e-07 -10.000018152003783 -2.4998248186658394 1.1516829088825659e-05 6.3356514381496254e-06 1.1516829088825659e-05 -2.4998075744010571 1.2549789421001378e-05 6.3356514381496254e-06 1.2549789421001378e-05 -9.9999918423856755 -2.4998888137721202 4.4204051914822022e-05 -1.3211053300210551e-06 4.4204051914822022e-05 -2.4998691820619925 -1.7551936188020534e-05 -1.3211053300210551e-06 -1.7551936188020534e-05 -10.000017376623703 -2.4998912349649727 9.5444682174109644e-06 -6.9241345865833637e-06 9.5444682174109644e-06 -2.4999019149792074 8.0281109582358567e-07 -6.9241345865833637e-06 8.0281109582358567e-07 -10.000004106079718 -2.4998254922307428 5.9657859839087315e-05 3.8649025718484609e-05 5.9657859839087315e-05 -2.4998306929534646 3.4396464801744742e-05 3.8649025718484609e-05 3.4396464801744742e-05 -10.000030856909497 -2.4998104644359165 1.2545497384270255e-05 1.1065168294521754e-05 1.2545497384270255e-05 -2.4998253575252969 7.8202725610765356e-06 1.1065168294521754e-05 7.8202725610765356e-06 -9.9999925281645368 -2.4998261132407658 4.4657818069151072e-06 8.4728279516887994e-06 4.4657818069151072e-06 -2.4998868398548035 -1.1173194280900134e-06 8.4728279516887994e-06 -1.1173194280900134e-06 -10.000001969470222 -2.4998476202040738 2.4828923314264902e-06 3.2256808339958809e-06 2.4828923314264902e-06 -2.4998865870584996 -3.8751307478435137e-06 3.2256808339958809e-06 -3.8751307478435137e-06 -10.000007009124573 -2.499855166969974 3.587665101561817e-05 -1.8858486497741467e-05 3.587665101561817e-05 -2.4998546297522424 -9.834008854348042e-06 -1.8858486497741467e-05 -9.834008854348042e-06 -9.9999953927325933 -2.4998719788322585 1.3992650797622326e-05 1.7175066933106109e-06 1.3992650797622326e-05 -2.4998148937119335 9.5087427545159642e-06 1.7175066933106109e-06 9.5087427545159642e-06 -9.9999991463297278 -2.4998877667913746 1.7130648236701358e-06 2.2255913112445569e-06 1.7130648236701358e-06 -2.4998460752052818 1.1324216637742524e-05 2.2255913112445569e-06 1.1324216637742524e-05 -10.000007921948487 -2.4997791311088289 8.812442932671071e-05 2.5712054130266893e-05 8.812442932671071e-05 -2.4997836749761699 2.1131065523150028e-05 2.5712054130266893e-05 2.1131065523150028e-05 -10.000014898128008 -2.4998846529123835 7.0884808997052949e-06 -2.0782670020480509e-06 7.0884808997052949e-06 -2.4998460758828198 1.4547477043436174e-05 -2.0782670020480509e-06 1.4547477043436174e-05 -10.000023947741155 -2.4998762988117722 1.3333797438194812e-05 -5.4421772581747518e-06 1.3333797438194812e-05 -2.499820099808856 7.1135016241896665e-06 -5.4421772581747518e-06 7.1135016241896665e-06 -10.000018908450535 -2.4998213377990477 8.3296813137408843e-05 4.8610736387288966e-06 8.3296813137408843e-05 -2.499721653091949 -1.0132241207827519e-05 4.8610736387288966e-06 -1.0132241207827519e-05 -10.000004233437144 -2.4998454269850914 -3.134914626659431e-06 -3.2838475261698363e-05 -3.134914626659431e-06 -2.4998403238826068 3.9641232305598351e-06 -3.2838475261698363e-05 3.9641232305598351e-06 -10.000002772763146 -2.4998419242680452 1.4347438119381421e-05 1.2331637468498968e-05 1.4347438119381421e-05 -2.4998746230319764 -4.9147171026220349e-06 1.2331637468498968e-05 -4.9147171026220349e-06 -10.000018990427172 -2.4998234740189922 1.2929984048430867e-05 1.456485594442114e-05 1.2929984048430867e-05 -2.4998805897944294 -4.2263398185582446e-06 1.456485594442114e-05 -4.2263398185582446e-06 -10.000016226980861 -2.4997150231839154 8.2721799352127549e-05 -7.6107655964108289e-06 8.2721799352127549e-05 -2.4998236346666491 2.4200775534666263e-06 -7.6107655964108289e-06 2.4200775534666263e-06 -9.9999990174389879 -2.4998431393364511 -3.0856738557285429e-06 -1.9333862937287449e-06 -3.0856738557285429e-06 -2.4998494847357806 -3.4597144066950136e-05 -1.9333862937287449e-06 -3.4597144066950136e-05 -10.000010861801666 -2.4998562898983177 -1.044824904874535e-05 4.9051181729709015e-06 -1.044824904874535e-05 -2.4998437015331301 -1.6269159375248421e-07 4.9051181729709015e-06 -1.6269159375248421e-07 -10.000005177269408 -2.4998286086103523 -6.0055884675915865e-05 3.7186364370001002e-06 -6.0055884675915865e-05 -2.4997896334062606 -3.7862393101661951e-05 3.7186364370001002e-06 -3.7862393101661951e-05 -9.9999937979410731 -2.4998313924088418 -6.5869057185111127e-05 1.5300411035923389e-06 -6.5869057185111127e-05 -2.4998092131091072 -2.0045727691098136e-05 1.5300411035923389e-06 -2.0045727691098136e-05 -9.9999967999620551 -2.499839409012802 -1.5984758957280711e-05 1.2735616383263704e-05 -1.5984758957280711e-05 -2.4998808467593605 -5.8734260122150772e-07 1.2735616383263704e-05 -5.8734260122150772e-07 -10.00000143061504 -2.499866575604365 -2.6544145226201055e-06 8.6141756447943862e-06 -2.6544145226201055e-06 -2.4998922578544391 -1.9093678154114002e-06 8.6141756447943862e-06 -1.9093678154114002e-06 -10.000005890651272 -2.4998594272577805 -3.1680824897477333e-06 5.5455620966426977e-06 -3.1680824897477333e-06 -2.4998495398873701 -3.027514998343861e-05 5.5455620966426977e-06 -3.027514998343861e-05 -10.00001084969165 -2.4998351634810456 -1.9780673119120606e-05 6.7230581919375254e-06 -1.9780673119120606e-05 -2.4998429686576218 4.7037367636448835e-06 6.7230581919375254e-06 4.7037367636448835e-06 -10.000005844595719 -2.4998321433313251 -2.5229417264976842e-05 2.3027816286713687e-05 -2.5229417264976842e-05 -2.4997879639777274 2.502701044804212e-05 2.3027816286713687e-05 2.502701044804212e-05 -10.000015672473609 -2.4998309152033578 -1.8296107720214695e-05 3.1739940748565232e-05 -1.8296107720214695e-05 -2.4997684857878397 3.8424330863762179e-05 3.1739940748565232e-05 3.8424330863762179e-05 -9.9999945041137863 -2.4998277219440759 -6.4909678955575896e-05 2.0701067906969683e-05 -6.4909678955575896e-05 -2.4997183770376274 1.0714657889820955e-05 2.0701067906969683e-05 1.0714657889820955e-05 -9.9999988719014254 -2.4998139278366467 3.573502158470128e-06 1.0161059998736732e-05 3.573502158470128e-06 -2.4998075701669298 5.5559662790471975e-06 1.0161059998736732e-05 5.5559662790471975e-06 -9.9999889711305432 -2.4998128306608955 7.965132443643769e-06 5.1620331298352085e-07 7.965132443643769e-06 -2.4998004802809466 -3.1870924948051993e-06 5.1620331298352085e-07 -3.1870924948051993e-06 -9.9999998725175558 -2.4997880548252467 3.0771727901456985e-05 4.7822757931470505e-06 3.0771727901456985e-05 -2.4997637092746463 6.084223954871959e-06 4.7822757931470505e-06 6.084223954871959e-06 -9.9999785079855954 -2.4998515623422231 -6.2447399095726471e-06 -9.616487066210766e-06 -6.2447399095726471e-06 -2.499848000865371 -2.3375691768912077e-05 -9.616487066210766e-06 -2.3375691768912077e-05 -10.000018444723711 -2.4998036673475461 -2.7630516496624663e-06 -5.6742740683901616e-06 -2.7630516496624663e-06 -2.4997745724248244 -6.1943312882561941e-05 -5.6742740683901616e-06 -6.1943312882561941e-05 -9.9999757834329017 -2.4998218714826734 -1.9674257173649755e-05 -2.937509266942584e-07 -1.9674257173649755e-05 -2.4998312492873671 -3.1940658093976282e-05 -2.937509266942584e-07 -3.1940658093976282e-05 -10.000008625777159 -2.4998302503026624 -4.340023844507835e-05 6.0896758036221854e-06 -4.340023844507835e-05 -2.4998060553791897 7.0091092521096243e-06 6.0896758036221854e-06 7.0091092521096243e-06 -9.9999935158461888 -2.4998344864644331 3.038229613941248e-05 7.7719430890965668e-07 3.038229613941248e-05 -2.499764023219873 4.2367576855717459e-05 7.7719430890965668e-07 4.2367576855717459e-05 -9.9999889538221538 -2.499861954716331 0.00019929265863473784 3.4321291629169082e-05 0.00019929265863473784 -2.5001538578885816 3.6040936874925933e-05 3.4321291629169082e-05 3.6040936874925933e-05 -10.000056945166012 -2.499782075704907 7.4267782184923838e-06 1.4493446872876348e-05 7.4267782184923838e-06 -2.4998165235929122 -5.6060260664736461e-06 1.4493446872876348e-05 -5.6060260664736461e-06 -9.9999954390086714 -2.4998211437747901 -3.9723388367697453e-06 4.0332614350546692e-06 -3.9723388367697453e-06 -2.4998298197093121 -1.1974934938763226e-05 4.0332614350546692e-06 -1.1974934938763226e-05 -10.000007933165854 -2.4998314369337429 1.251673997285514e-05 -1.0805142088177178e-05 1.251673997285514e-05 -2.4998311967209688 2.9853163674431471e-07 -1.0805142088177178e-05 2.9853163674431471e-07 -10.000029574335926 -2.4998367014875855 -2.0721599292030915e-05 -9.3901858502221103e-06 -2.0721599292030915e-05 -2.4998496576369202 -1.5503987716769529e-05 -9.3901858502221103e-06 -1.5503987716769529e-05 -10.000019780358883 -2.4998369222241701 4.481730829959367e-06 -4.9298632882610605e-06 4.481730829959367e-06 -2.4998383568838261 -5.7458732172221971e-07 -4.9298632882610605e-06 -5.7458732172221971e-07 -10.000018752103454 -2.499822098509815 1.2967328218179028e-05 1.5541757552028912e-06 1.2967328218179028e-05 -2.4998374312571214 -9.4964700525501655e-06 1.5541757552028912e-06 -9.4964700525501655e-06 -10.000010845459759 -2.4998427698831494 9.27758834003347e-06 9.4469243894224064e-06 9.27758834003347e-06 -2.4998445956387334 -7.6870732304001876e-06 9.4469243894224064e-06 -7.6870732304001876e-06 -10.000020674356033 -2.4998340194300175 -2.121751504390112e-05 7.4596305488228154e-06 -2.121751504390112e-05 -2.4998120026106774 1.2359959153940281e-06 7.4596305488228154e-06 1.2359959153940281e-06 -9.9999988950379617 -2.4998198928925603 -1.1192657159720481e-05 -1.5974440437105386e-06 -1.1192657159720481e-05 -2.4998215619740805 -8.302508476276671e-07 -1.5974440437105386e-06 -8.302508476276671e-07 -9.9999956194989039 -2.4998257938983972 -1.4523952640163412e-05 8.7228744050094065e-07 -1.4523952640163412e-05 -2.4998258941791818 1.0680177275901315e-06 8.7228744050094065e-07 1.0680177275901315e-06 -9.9999955553625348 -2.4998322715690513 -4.5026814008879865e-06 2.9828873948645196e-06 -4.5026814008879865e-06 -2.499823108509565 -2.0998999161747633e-06 2.9828873948645196e-06 -2.0998999161747633e-06 -10.000000341818975 -2.499830147917673 -6.8195305093990246e-06 -5.0735332113305276e-07 -6.8195305093990246e-06 -2.4997942636073125 -3.8888321896024536e-07 -5.0735332113305276e-07 -3.8888321896024536e-07 -9.9999975353887933 -2.499835179505669 -4.6400755582597786e-06 -7.0107783223249953e-07 -4.6400755582597786e-06 -2.4998248492769735 -3.7579321094938223e-06 -7.0107783223249953e-07 -3.7579321094938223e-06 -10.000006987744388 -2.4998151778978954 -7.7237600605051451e-06 -1.1308003955434742e-06 -7.7237600605051451e-06 -2.4998207860671791 -3.6101950637856817e-06 -1.1308003955434742e-06 -3.6101950637856817e-06 -10.000002163375569 -2.4998407608490369 -2.1897200117203303e-05 1.852082927022991e-06 -2.1897200117203303e-05 -2.4998348951007481 2.6901048766347913e-06 1.852082927022991e-06 2.6901048766347913e-06 -9.9999992754526765 -2.4998168906196074 -1.189315994049971e-05 -2.0280560590890673e-06 -1.189315994049971e-05 -2.4998366400105745 9.2176338881699849e-06 -2.0280560590890673e-06 9.2176338881699849e-06 -10.000004867525625 -2.4998168289600917 1.0376132106302348e-05 3.3770414855638364e-06 1.0376132106302348e-05 -2.4998189162863946 -3.0962764920872132e-06 3.3770414855638364e-06 -3.0962764920872132e-06 -9.9999962245055336 -2.4998249052373485 6.3318744654808237e-06 7.1552438001276641e-06 6.3318744654808237e-06 -2.4998248371792666 7.3674805189938297e-07 7.1552438001276641e-06 7.3674805189938297e-07 -10.000001988999767 -2.4998485485428033 4.4218725202538865e-06 -1.1076816299748771e-06 4.4218725202538865e-06 -2.4998083808511078 2.3213072317673777e-06 -1.1076816299748771e-06 2.3213072317673777e-06 -10.000001573203242 -2.4998247822000055 -1.601559676039143e-06 3.4592347795125988e-06 -1.601559676039143e-06 -2.4998210011198543 -1.5104451769332172e-06 3.4592347795125988e-06 -1.5104451769332172e-06 -10.000004622670655 -2.4998260628935407 1.8336040586018184e-05 2.507599093704016e-06 1.8336040586018184e-05 -2.4998256353198629 4.5834770183716955e-06 2.507599093704016e-06 4.5834770183716955e-06 -9.9999974950894206 -2.4998367282289515 1.095978972875782e-05 1.9505711819078897e-06 1.095978972875782e-05 -2.4998217968614251 -1.121103089474218e-06 1.9505711819078897e-06 -1.121103089474218e-06 -9.9999956062537727 -2.499803408430159 2.1757482266273418e-06 3.1510924713984423e-07 2.1757482266273418e-06 -2.4998172991350707 2.6100898145031692e-06 3.1510924713984423e-07 2.6100898145031692e-06 -9.9999924622564365 -2.4998437221585261 9.0294125644385697e-06 -2.3857106246083504e-06 9.0294125644385697e-06 -2.4998176061610353 3.6698719441119465e-07 -2.3857106246083504e-06 3.6698719441119465e-07 -9.9999981390761654 -2.4998458117828815 1.4459744253769458e-06 2.3295993401006854e-06 1.4459744253769458e-06 -2.4998306679923887 -3.5928910087079657e-06 2.3295993401006854e-06 -3.5928910087079657e-06 -10.000004422993303 -2.4998468815969819 5.0691947187332588e-06 -5.3088394995626231e-06 5.0691947187332588e-06 -2.4998074712930087 3.9265236182473018e-06 -5.3088394995626231e-06 3.9265236182473018e-06 -9.9999947669403895 -2.4998322814969107 4.1117358324418449e-06 1.377178504347043e-05 4.1117358324418449e-06 -2.4998271272407422 2.4461544896325904e-06 1.377178504347043e-05 2.4461544896325904e-06 -10.00000023000969 -2.4998266042543253 -1.6649317284704673e-07 -1.038940523834242e-06 -1.6649317284704673e-07 -2.4998230880534624 5.5146895547864005e-06 -1.038940523834242e-06 5.5146895547864005e-06 -9.9999942898297078 -2.4998343251014274 -4.778384600575098e-07 -1.5548187839442562e-06 -4.778384600575098e-07 -2.4998498523146715 -1.1032334500171714e-05 -1.5548187839442562e-06 -1.1032334500171714e-05 -10.000021001753581 -2.4998359287021543 1.0764377262706789e-05 4.1720491523733472e-06 1.0764377262706789e-05 -2.4998303449300625 3.458175488191273e-06 4.1720491523733472e-06 3.458175488191273e-06 -9.9999989392339685 -2.4998362855080902 2.7841997650230938e-06 3.7176019862528165e-06 2.7841997650230938e-06 -2.4998451020165557 -6.166871228341364e-06 3.7176019862528165e-06 -6.166871228341364e-06 -10.000004809482895 -2.499828193311842 -7.5950314635035666e-06 -1.0633412497185191e-06 -7.5950314635035666e-06 -2.4998262291263451 -4.2964434001646623e-06 -1.0633412497185191e-06 -4.2964434001646623e-06 -10.000002118844897 -2.4998435071251093 -8.0688569387067467e-06 -8.8773782991324879e-06 -8.0688569387067467e-06 -2.4998406982795229 1.2477233948260391e-06 -8.8773782991324879e-06 1.2477233948260391e-06 -10.00006421802841 -2.4998369580298423 -4.712090583748401e-07 5.4931806801050698e-06 -4.712090583748401e-07 -2.4998367271289732 -8.8495404781951947e-08 5.4931806801050698e-06 -8.8495404781951947e-08 -10.000017677738576 -2.4998156803294789 -5.2705861981174675e-07 5.8542746881329322e-06 -5.2705861981174675e-07 -2.4998135374975599 1.6101531414847159e-06 5.8542746881329322e-06 1.6101531414847159e-06 -9.9999915780109454 -2.4998138021111957 -5.9320849146041399e-06 6.2719194495741704e-06 -5.9320849146041399e-06 -2.499796940117589 -3.0239105051066417e-06 6.2719194495741704e-06 -3.0239105051066417e-06 -9.9999865199897719 -2.499825670199348 1.1702374860182087e-06 9.3382075978531986e-06 1.1702374860182087e-06 -2.4997948185514716 -1.2633084911506387e-06 9.3382075978531986e-06 -1.2633084911506387e-06 -9.9999875194762069 -2.4998382509993462 6.2672449113825623e-06 5.0183876556531004e-06 6.2672449113825623e-06 -2.4998023193997909 1.5386195992839191e-06 5.0183876556531004e-06 1.5386195992839191e-06 -9.9999936366219444 -2.4998373402681109 -6.9609725316630721e-06 -1.002523909665598e-05 -6.9609725316630721e-06 -2.4998145011047086 -4.7876732973684e-06 -1.002523909665598e-05 -4.7876732973684e-06 -10.000057264272051 -2.4998617176771294 -5.3928979370395901e-05 2.246862183330478e-05 -5.3928979370395901e-05 -2.4999417692884025 0.00021343252345129571 2.246862183330478e-05 0.00021343252345129571 -9.9999712796444662 -2.4998122609353057 -1.7243681264143769e-05 -6.9839816987382619e-06 -1.7243681264143769e-05 -2.4997915865473797 -3.2879567880783611e-05 -6.9839816987382619e-06 -3.2879567880783611e-05 -9.9999778350862414 -2.4998271220826558 1.7578171758339431e-05 -9.0516811823704302e-08 1.7578171758339431e-05 -2.4998579962492347 -1.8377281598702666e-05 -9.0516811823704302e-08 -1.8377281598702666e-05 -9.9999846571290281 -2.4998383676818996 1.0510215511137737e-05 6.6686227011558685e-06 1.0510215511137737e-05 -2.4998635443720687 -1.1320943604786748e-05 6.6686227011558685e-06 -1.1320943604786748e-05 -9.9999964594040378 -2.4998051273692692 -6.2851072341222285e-06 8.0902401813354174e-06 -6.2851072341222285e-06 -2.4997148929700366 2.4243284773461937e-05 8.0902401813354174e-06 2.4243284773461937e-05 -9.9999683870100178 -2.4998208052713 4.9425727800026756e-05 -3.647148703933567e-06 4.9425727800026756e-05 -2.4997886682695496 6.421840001991086e-07 -3.647148703933567e-06 6.421840001991086e-07 -9.9999710708532028 -2.4998323813155041 1.360827580614841e-05 -1.6796858233192324e-06 1.360827580614841e-05 -2.4997463513873841 -3.5494055214968512e-06 -1.6796858233192324e-06 -3.5494055214968512e-06 -9.9999853432607342 -2.4998428893774207 9.5551126532375622e-05 -4.2420728139092034e-06 9.5551126532375622e-05 -2.4998530324455803 1.7600720136456971e-05 -4.2420728139092034e-06 1.7600720136456971e-05 -10.000002899251761 -2.4998022798434203 1.2824179329739139e-05 -4.2311925874116696e-06 1.2824179329739139e-05 -2.4998012718284972 -2.8343622744841923e-05 -4.2311925874116696e-06 -2.8343622744841923e-05 -9.9999897557787207 -2.4998382065590405 3.1814573920479558e-05 -5.9991186311947331e-06 3.1814573920479558e-05 -2.4997700166206203 -1.2367746716535066e-05 -5.9991186311947331e-06 -1.2367746716535066e-05 -9.9999841852863725 -2.4998366237798422 1.630880630055999e-05 -1.4149681224040478e-05 1.630880630055999e-05 -2.499789746617239 -6.3367141223125145e-06 -1.4149681224040478e-05 -6.3367141223125145e-06 -9.9999775955662642 -2.4998511982402292 7.9215586263243511e-06 -8.7197799505389639e-06 7.9215586263243511e-06 -2.499832530959285 9.7983694402614674e-06 -8.7197799505389639e-06 9.7983694402614674e-06 -9.9999953825126155 -2.4998119070766105 -9.3665346560397813e-06 -3.0479134096594862e-06 -9.3665346560397813e-06 -2.4998172450117924 3.0531991512816603e-06 -3.0479134096594862e-06 3.0531991512816603e-06 -9.9999853111537504 -2.4998346083458829 5.9705658279834805e-06 -5.3087653415495595e-06 5.9705658279834805e-06 -2.4998994963505288 5.9364941442652253e-06 -5.3087653415495595e-06 5.9364941442652253e-06 -9.9999958101994864 -2.4998486617994953 6.9996684821798972e-05 -1.1262062386663274e-05 6.9996684821798972e-05 -2.4998914922157436 3.0851866497982883e-05 -1.1262062386663274e-05 3.0851866497982883e-05 -10.000001265695538 -2.499871538211595 -2.3237700489678359e-05 -5.9734510422515541e-06 -2.3237700489678359e-05 -2.4999646157962836 5.1038246127177445e-06 -5.9734510422515541e-06 5.1038246127177445e-06 -10.000016231855362 -2.4998196671778175 2.2020536044927965e-05 -2.3520491758688422e-06 2.2020536044927965e-05 -2.4998123191336674 5.1716137537738405e-05 -2.3520491758688422e-06 5.1716137537738405e-05 -9.9999994617956673 -2.4998322945024718 6.8933808414885651e-05 -1.227900726874509e-06 6.8933808414885651e-05 -2.4998231273366489 -4.7647366569592009e-05 -1.227900726874509e-06 -4.7647366569592009e-05 -9.9999925935051124 -2.4998662268715712 -1.5063287488884195e-05 -4.1185296240087155e-07 -1.5063287488884195e-05 -2.4999225910314067 -3.4482463156848553e-05 -4.1185296240087155e-07 -3.4482463156848553e-05 -10.00001936497101 -2.4998628580040592 1.0472362726541705e-05 1.6017123863676375e-05 1.0472362726541705e-05 -2.4998602877401224 3.0275715090510857e-07 1.6017123863676375e-05 3.0275715090510857e-07 -9.9999984146540637 -2.4998343248238708 -1.492499579316278e-05 -1.2436284301031719e-05 -1.492499579316278e-05 -2.499813886385498 6.212119213699907e-06 -1.2436284301031719e-05 6.212119213699907e-06 -9.9999900786288478 -2.4998769333326258 -1.3494062968354933e-05 1.7227473072090049e-05 -1.3494062968354933e-05 -2.4999002538711119 -4.3764869328555278e-06 1.7227473072090049e-05 -4.3764869328555278e-06 -10.000008236246263 -2.4998827950755032 -9.6474560443693595e-06 -2.2383372264123125e-05 -9.6474560443693595e-06 -2.4999027304075567 1.0883923056148603e-05 -2.2383372264123125e-05 1.0883923056148603e-05 -10.000001833163358 -2.4998589321527085 5.082359188645315e-06 1.3393251450111165e-05 5.082359188645315e-06 -2.4998646424845994 -5.9329699304555561e-06 1.3393251450111165e-05 -5.9329699304555561e-06 -10.000009078964474 -2.4998625956382172 -5.4520679090863417e-06 -2.2117918676123338e-05 -5.4520679090863417e-06 -2.4998214973940351 1.435685274797649e-05 -2.2117918676123338e-05 1.435685274797649e-05 -9.9999837889702974 -2.4998687837948435 3.2322456025672268e-06 -1.4456908011162284e-05 3.2322456025672268e-06 -2.4998593812150869 2.955844482954717e-06 -1.4456908011162284e-05 2.955844482954717e-06 -9.9999941181388365 -2.499831988287414 -5.8505877973527088e-06 -1.2224768376256634e-05 -5.8505877973527088e-06 -2.499881093054813 1.0200967617279844e-06 -1.2224768376256634e-05 1.0200967617279844e-06 -10.000022628893932 -2.4998661236140225 -3.4311483077469686e-05 -1.0589307347430577e-05 -3.4311483077469686e-05 -2.4999354724208724 5.2567289614557922e-06 -1.0589307347430577e-05 5.2567289614557922e-06 -10.000040339842398 -2.499716817245107 -8.1840769265117849e-05 9.6606681481148371e-06 -8.1840769265117849e-05 -2.4998107607389231 5.6616630246253408e-06 9.6606681481148371e-06 5.6616630246253408e-06 -9.9999996215230968 -2.4998905531885818 -1.3471413422557602e-05 -1.1158030019942089e-06 -1.3471413422557602e-05 -2.4998306235953258 2.0581983090295353e-05 -1.1158030019942089e-06 2.0581983090295353e-05 -10.000022084827798 -2.4998778056195383 -1.3842931396397163e-05 -3.6521779378517749e-07 -1.3842931396397163e-05 -2.499857631015789 1.68444101191767e-05 -3.6521779378517749e-07 1.68444101191767e-05 -10.000025583989382 -2.4998238609784882 -8.3727628185487914e-05 -3.0214765684988265e-06 -8.3727628185487914e-05 -2.4997102076444961 -6.1176111962879531e-06 -3.0214765684988265e-06 -6.1176111962879531e-06 -10.00000128164748 -2.499782556597415 -8.8551059137110681e-05 -2.3177138373853268e-05 -8.8551059137110681e-05 -2.4997717988068331 2.5174498704316761e-05 -2.3177138373853268e-05 2.5174498704316761e-05 -10.0000129146243 -2.4998833445443607 -5.6467665357190093e-05 2.6022640579270728e-05 -5.6467665357190093e-05 -2.4999118649932166 -2.1042115385228044e-05 2.6022640579270728e-05 -2.1042115385228044e-05 -10.000024742896462 -2.4998589817939774 -3.1367759785067543e-05 6.9652143963594426e-07 -3.1367759785067543e-05 -2.4998651215887726 -4.0576251493007476e-05 6.9652143963594426e-07 -4.0576251493007476e-05 -10.00000931078519 -2.4998357625413501 -5.7641493226114586e-05 -4.1332913541580751e-05 -5.7641493226114586e-05 -2.4998253367329628 4.349626497557324e-05 -4.1332913541580751e-05 4.349626497557324e-05 -10.000040944968958 -2.4998054342319653 -0.00011727837963572245 4.1961303843152109e-05 -0.00011727837963572245 -2.4998046239195544 -5.4856343147946518e-05 4.1961303843152109e-05 -5.4856343147946518e-05 -10.000018018312929 -2.4999437324223326 7.1052554910975646e-07 -1.2219643439337347e-05 7.1052554910975646e-07 -2.4998806610899411 -1.9405402365890723e-05 -1.2219643439337347e-05 -1.9405402365890723e-05 -10.000017421332226 -2.4998907086457685 -6.657493405851298e-05 7.8427839867778459e-05 -6.657493405851298e-05 -2.4998667450592649 -7.362167525926111e-05 7.8427839867778459e-05 -7.362167525926111e-05 -10.000008902681465 -2.499956266588069 -2.5830201954155949e-05 1.1813683006067777e-05 -2.5830201954155949e-05 -2.4999346473162083 -8.476965174253337e-07 1.1813683006067777e-05 -8.476965174253337e-07 -10.000031675756187 -2.4998484023452399 1.8198327396396483e-05 4.5984461234382934e-06 1.8198327396396483e-05 -2.499878048276905 -6.8264624921710038e-06 4.5984461234382934e-06 -6.8264624921710038e-06 -9.9999998872228133 -2.4998392095110491 2.5035595895583562e-05 7.3851634776467279e-06 2.5035595895583562e-05 -2.4998271420892761 -5.1253315163535262e-05 7.3851634776467279e-06 -5.1253315163535262e-05 -10.000001134270374 -2.4998072965592222 -3.9003793343757359e-05 5.6083750976654301e-09 -3.9003793343757359e-05 -2.4997481520598388 -1.4877220460896012e-05 5.6083750976654301e-09 -1.4877220460896012e-05 -10.000036399771886 -2.4997787108507676 -2.6563779014063282e-05 1.6372106129480812e-05 -2.6563779014063282e-05 -2.4998393463397468 -7.2000177626208028e-05 1.6372106129480812e-05 -7.2000177626208028e-05 -9.9999917617258838 -2.4997479550924826 8.4530793519769836e-06 2.1702141131285657e-05 8.4530793519769836e-06 -2.4997476681871262 -1.6379910533714792e-05 2.1702141131285657e-05 -1.6379910533714792e-05 -9.9999737762740928 -2.4998420133062007 -2.3106859045513969e-05 9.3373525695383819e-05 -2.3106859045513969e-05 -2.4997660629751826 -2.0956985905762338e-05 9.3373525695383819e-05 -2.0956985905762338e-05 -9.9999835292581203 -2.4998297802968779 3.9491212583187217e-05 6.6108348246274318e-05 3.9491212583187217e-05 -2.4998351302746737 -9.7241650820478753e-06 6.6108348246274318e-05 -9.7241650820478753e-06 -9.9999945263037624 -2.499916715399618 2.3635963986191693e-05 -7.4267738483513313e-06 2.3635963986191693e-05 -2.4998585428733748 -1.8066990911336234e-05 -7.4267738483513313e-06 -1.8066990911336234e-05 -10.000007668136208 -2.4998112461117761 1.5947738666337815e-05 -1.6503100540354865e-05 1.5947738666337815e-05 -2.4998183629440427 -3.4857452408942891e-06 -1.6503100540354865e-05 -3.4857452408942891e-06 -10.000001859264998 -2.4998359727204384 1.2231610413229776e-05 3.5042436937748889e-05 1.2231610413229776e-05 -2.4998238789258256 -4.6709863648075611e-06 3.5042436937748889e-05 -4.6709863648075611e-06 -9.999977751503117 -2.4998522599904196 3.9812123187236407e-06 1.741778144648265e-05 3.9812123187236407e-06 -2.4998203475971281 -4.0107349086326849e-06 1.741778144648265e-05 -4.0107349086326849e-06 -9.9999933099096001 -2.4998046878450313 -3.9222197161288975e-06 2.848151918755093e-07 -3.9222197161288975e-06 -2.4998207586794501 -3.1982383008610782e-06 2.848151918755093e-07 -3.1982383008610782e-06 -10.000001974031278 -2.4998277360091699 3.7398715073065332e-05 -8.6049104996988035e-06 3.7398715073065332e-05 -2.4998280869637401 1.7425768064072145e-06 -8.6049104996988035e-06 1.7425768064072145e-06 -9.9999994552492453 -2.4998535151052534 1.2776790960051051e-06 1.7424938222099229e-05 1.2776790960051051e-06 -2.4998404556660985 -1.5418736271755051e-05 1.7424938222099229e-05 -1.5418736271755051e-05 -10.000007491308505 -2.4998089575275175 -3.1124363310493158e-06 -3.8785470450330983e-06 -3.1124363310493158e-06 -2.4998198454444625 -5.1589779026528504e-06 -3.8785470450330983e-06 -5.1589779026528504e-06 -9.9999978880276608 -2.4998007916048728 3.034874970664239e-08 4.9475269069176875e-05 3.034874970664239e-08 -2.4998143119626803 -4.1365215093236429e-06 4.9475269069176875e-05 -4.1365215093236429e-06 -9.9999811304321682 -2.4997118466505519 -3.8979107917887551e-05 -1.1394174594059336e-05 -3.8979107917887551e-05 -2.4997840956297477 7.2209428214620175e-07 -1.1394174594059336e-05 7.2209428214620175e-07 -9.9999743619125425 -2.5000228248425422 -0.00018234888897706043 -4.9184914212574427e-05 -0.00018234888897706043 -2.4998556219943087 1.4297870982282745e-05 -4.9184914212574427e-05 1.4297870982282745e-05 -10.000041096461494 -2.4998133925738273 5.058174273444223e-05 2.9040400146840284e-05 5.058174273444223e-05 -2.4998289582089459 -3.2975819799219153e-06 2.9040400146840284e-05 -3.2975819799219153e-06 -9.999992421530564 -2.4998779120705912 2.413372012960072e-05 -6.6343666369483856e-06 2.413372012960072e-05 -2.4998279399606815 -4.55499509932622e-06 -6.6343666369483856e-06 -4.55499509932622e-06 -9.9999948773972491 -2.4998832882284647 1.5732593724224659e-05 -3.5472062460684128e-06 1.5732593724224659e-05 -2.4998351244385058 1.1380212611822316e-05 -3.5472062460684128e-06 1.1380212611822316e-05 -10.000003358856471 -2.4998509482032523 2.0063006797183206e-05 -6.1727281490675523e-06 2.0063006797183206e-05 -2.4998302516284641 7.2388388154820404e-06 -6.1727281490675523e-06 7.2388388154820404e-06 -10.000006120595327 -2.4998288237485031 5.7016374529298258e-05 1.8182208894934604e-05 5.7016374529298258e-05 -2.4998384299338365 2.6274941613557701e-06 1.8182208894934604e-05 2.6274941613557701e-06 -10.000000196506925 -2.4997831976358036 3.2430395253190894e-05 -3.2152028614618189e-05 3.2430395253190894e-05 -2.4998312660693394 2.2358377659514872e-05 -3.2152028614618189e-05 2.2358377659514872e-05 -10.000016948350876 -2.4997641267007342 2.3397224731897987e-05 -4.1473797955049463e-05 2.3397224731897987e-05 -2.4998230770470276 2.7940143835891718e-05 -4.1473797955049463e-05 2.7940143835891718e-05 -10.000003369571434 -2.4997216526305426 6.2414149260090401e-05 -1.6493369952463866e-05 6.2414149260090401e-05 -2.4998282855223373 1.8721960392653614e-05 -1.6493369952463866e-05 1.8721960392653614e-05 -10.000004664851893 -2.4997962734044847 -8.4134165371099109e-06 2.0640214822620351e-05 -8.4134165371099109e-06 -2.4997891867782176 -7.2840873244217619e-06 2.0640214822620351e-05 -7.2840873244217619e-06 -9.9999931399542206 -2.4998810981499746 -7.9466537217288749e-05 -1.132809109982702e-05 -7.9466537217288749e-05 -2.4998486738518872 -6.3911108973968567e-06 -1.132809109982702e-05 -6.3911108973968567e-06 -10.000013630625407 -2.499840021066273 1.2385389564887389e-05 -2.1115987944853032e-06 1.2385389564887389e-05 -2.4998195593067347 -5.1073986817584682e-06 -2.1115987944853032e-06 -5.1073986817584682e-06 -9.9999920513890785 -2.4997702892105358 -2.2907606238658347e-06 2.0201643531336799e-06 -2.2907606238658347e-06 -2.4998257915666779 2.5618561423357278e-06 2.0201643531336799e-06 2.5618561423357278e-06 -9.999985863209 -2.4998603015374039 -2.0432889630593826e-05 -5.1104588472128398e-06 -2.0432889630593826e-05 -2.499851358927768 -4.6062404770452758e-06 -5.1104588472128398e-06 -4.6062404770452758e-06 -10.000002058978939 -2.4997757557864837 -2.1088156284332086e-05 1.0268766352794501e-05 -2.1088156284332086e-05 -2.499845151959482 -1.9766539530507998e-05 1.0268766352794501e-05 -1.9766539530507998e-05 -10.000002135991849 -2.4999039341109062 -8.601608875347176e-05 -8.420964547006804e-06 -8.601608875347176e-05 -2.4998388144986028 8.2623613772980775e-06 -8.420964547006804e-06 8.2623613772980775e-06 -9.9999952787991653 -2.4999150062164897 2.1290367095013019e-05 -7.6958562233997441e-06 2.1290367095013019e-05 -2.4998732406060094 -4.3015214146180369e-07 -7.6958562233997441e-06 -4.3015214146180369e-07 -10.000004503194162 -2.4998492917007802 1.0493618741053432e-05 3.2851275291179149e-05 1.0493618741053432e-05 -2.4998628613718985 2.9901642246699112e-06 3.2851275291179149e-05 2.9901642246699112e-06 -10.000016183958202 -2.4997949588798138 -2.8891063841587329e-05 1.1155332541257224e-05 -2.8891063841587329e-05 -2.4998347988653697 -5.1526649791355794e-06 1.1155332541257224e-05 -5.1526649791355794e-06 -9.9999826171592243 -2.4998210862355741 -6.2954786368490853e-05 4.4147350722667511e-05 -6.2954786368490853e-05 -2.499825126168794 2.3676122102855857e-06 4.4147350722667511e-05 2.3676122102855857e-06 -10.000003501323249 -2.4997728291316985 -1.826511341865907e-05 -5.0435731198561484e-05 -1.826511341865907e-05 -2.4998266254755137 -2.0455676192909777e-06 -5.0435731198561484e-05 -2.0455676192909777e-06 -9.9999928302423839 -2.4998214847998232 -3.1390863431473518e-06 2.5357798350000849e-07 -3.1390863431473518e-06 -2.4997987235264718 5.767443058246613e-06 2.5357798350000849e-07 5.767443058246613e-06 -9.9999987411037985 -2.4998237498754885 -1.2849892300643288e-05 5.639763173803658e-06 -1.2849892300643288e-05 -2.4998090110090589 2.9669729766368391e-06 5.639763173803658e-06 2.9669729766368391e-06 -9.9999931910989037 -2.4998377095401731 -2.1552341843222533e-06 5.2893490133376631e-06 -2.1552341843222533e-06 -2.4998234130009345 -1.6166147887020088e-07 5.2893490133376631e-06 -1.6166147887020088e-07 -9.9999910775113481 -2.4998330940222502 -1.0229098092967888e-06 7.6517326199621039e-06 -1.0229098092967888e-06 -2.4998409148227303 2.431638240096845e-06 7.6517326199621039e-06 2.431638240096845e-06 -10.000000670098304 -2.4998226490327733 -1.4845174645391869e-05 3.5921901080371299e-06 -1.4845174645391869e-05 -2.4998411490712522 -1.9403194748690566e-06 3.5921901080371299e-06 -1.9403194748690566e-06 -9.9999904057824622 -2.4998088390579269 -2.8526941687698994e-06 1.1895618969859356e-06 -2.8526941687698994e-06 -2.4998347529293907 2.7079520403816559e-06 1.1895618969859356e-06 2.7079520403816559e-06 -9.9999921136656873 -2.4998414170041272 -2.2991526802627668e-05 -1.3977941044629461e-06 -2.2991526802627668e-05 -2.4998199574314866 9.595061492007062e-07 -1.3977941044629461e-06 9.595061492007062e-07 -9.9999902298893275 -2.4998256630853684 -7.7234921723371875e-07 1.7541163828127537e-06 -7.7234921723371875e-07 -2.4998244012273654 1.139716285791792e-06 1.7541163828127537e-06 1.139716285791792e-06 -10.000005546849859 -2.4998578184373024 -8.4961935239451138e-06 8.4498725172466038e-06 -8.4961935239451138e-06 -2.4998722940728024 1.0206790360900442e-05 8.4498725172466038e-06 1.0206790360900442e-05 -10.000024397891909 -2.4998508806600448 2.8595841680613615e-06 4.7580379387568428e-06 2.8595841680613615e-06 -2.4998490905800903 1.0997884504889706e-05 4.7580379387568428e-06 1.0997884504889706e-05 -10.000022217416834 -2.4998388483486318 5.5789643351076217e-06 9.7126639689330703e-06 5.5789643351076217e-06 -2.4998457874960698 1.3717264673474006e-05 9.7126639689330703e-06 1.3717264673474006e-05 -10.000017734308148 -2.4998410546102976 1.2143506387846329e-06 5.3480502729891724e-06 1.2143506387846329e-06 -2.4998534325180701 1.0407872171214194e-05 5.3480502729891724e-06 1.0407872171214194e-05 -10.000021120594486 -2.4998413109089723 -3.349972579330369e-06 1.1084010946404987e-05 -3.349972579330369e-06 -2.4998510175569102 1.0445447646389994e-05 1.1084010946404987e-05 1.0445447646389994e-05 -10.000036702495496 -2.4998478808162661 -1.7116237233802988e-06 3.8526070436084581e-06 -1.7116237233802988e-06 -2.4998377873844015 1.0251250582626881e-05 3.8526070436084581e-06 1.0251250582626881e-05 -10.000029780788887 -2.4998083095093415 -1.0042430729817048e-05 -1.3007814001486651e-05 -1.0042430729817048e-05 -2.4998185578697942 2.450265984066391e-05 -1.3007814001486651e-05 2.450265984066391e-05 -9.9999928329888963 -2.499829024224312 9.5952415398154624e-06 6.7407964308152657e-06 9.5952415398154624e-06 -2.4998525651549781 8.7683563041451862e-06 6.7407964308152657e-06 8.7683563041451862e-06 -10.000014515012962 -2.4997851802624993 3.5512037464825274e-08 -1.1260477284391612e-05 3.5512037464825274e-08 -2.4998339881689802 8.6343817370382325e-06 -1.1260477284391612e-05 8.6343817370382325e-06 -10.000009398167823 -2.4998303332443967 9.379963437245589e-07 -1.830273132341631e-05 9.379963437245589e-07 -2.4997998939126376 1.3986349343575455e-05 -1.830273132341631e-05 1.3986349343575455e-05 -9.999986229900216 -2.4998319492872607 -4.0642940567129683e-05 -5.0195445187029009e-06 -4.0642940567129683e-05 -2.4998311564388143 6.5485217604077661e-06 -5.0195445187029009e-06 6.5485217604077661e-06 -9.9999737681488057 -2.4997959747890919 5.4447359360291621e-05 2.8777473577434876e-06 5.4447359360291621e-05 -2.4997999989427111 1.6667959985561254e-06 2.8777473577434876e-06 1.6667959985561254e-06 -9.9999964526421472 -2.4998358914606733 2.8279734265026214e-05 3.3857748318766312e-05 2.8279734265026214e-05 -2.4998226637185894 1.1102171420418472e-05 3.3857748318766312e-05 1.1102171420418472e-05 -9.9999693658449544 -2.5000031539174783 4.7279013011009878e-05 -0.00016958372343189865 4.7279013011009878e-05 -2.4998435966431822 1.3736880505099691e-05 -0.00016958372343189865 1.3736880505099691e-05 -10.000035997242612 -2.4998972479135011 2.02454225755443e-05 3.2740417914567388e-06 2.02454225755443e-05 -2.4998951330907948 9.3470888291591336e-06 3.2740417914567388e-06 9.3470888291591336e-06 -9.9999977754484597 -2.4998559272449512 -1.7258206854111588e-05 1.7204505594392572e-05 -1.7258206854111588e-05 -2.4998422789850743 6.8579858805151162e-06 1.7204505594392572e-05 6.8579858805151162e-06 -9.9999887498810693 -2.4997491587559382 7.3235078909556453e-06 3.749564057020649e-06 7.3235078909556453e-06 -2.4997538013817207 3.2694237503960721e-06 3.749564057020649e-06 3.2694237503960721e-06 -9.9999780375619967 -2.4998963080623913 2.073605406723134e-05 6.4686721393591995e-05 2.073605406723134e-05 -2.4998947168738246 2.8021368203567931e-05 6.4686721393591995e-05 2.8021368203567931e-05 -9.9999980071012402 -2.4997924032507122 -3.0742504157401283e-05 2.4979851231954342e-05 -3.0742504157401283e-05 -2.4998301225858262 6.094757122276917e-05 2.4979851231954342e-05 6.094757122276917e-05 -9.9999887728874661 -2.4998317411982631 -2.2595311578683986e-05 5.2842179863787919e-05 -2.2595311578683986e-05 -2.4998664682015335 2.4908816811830548e-05 5.2842179863787919e-05 2.4908816811830548e-05 -9.9999838534403978 -2.4998576738045268 -2.4014117819571879e-05 2.4628096344514461e-05 -2.4014117819571879e-05 -2.4998321299132225 5.2328032227322296e-05 2.4628096344514461e-05 5.2328032227322296e-05 -9.9999939866426804 -2.4998466960556156 -1.6935309841610125e-05 5.4223467067515685e-06 -1.6935309841610125e-05 -2.4998653749758715 6.883631968435111e-06 5.4223467067515685e-06 6.883631968435111e-06 -10.000000692128399 -2.4997844467809944 0.00010328253122027212 3.2650746412343779e-05 0.00010328253122027212 -2.4997795260048647 4.6803395406413983e-05 3.2650746412343779e-05 4.6803395406413983e-05 -10.000039181663453 -2.499726888157209 3.415188078445727e-05 5.1352195704623682e-06 3.415188078445727e-05 -2.4996915407704847 5.4474851761909804e-05 5.1352195704623682e-06 5.4474851761909804e-05 -9.9999699453794264 -2.4998208077810116 8.6585695033842652e-05 4.7483897294142707e-05 8.6585695033842652e-05 -2.4997624604850106 2.1205457136019845e-05 4.7483897294142707e-05 2.1205457136019845e-05 -9.9999775916066582 -2.4998264131199672 -4.3300823257609052e-05 8.8099530870522358e-07 -4.3300823257609052e-05 -2.499830315970744 -4.7150248683180962e-07 8.8099530870522358e-07 -4.7150248683180962e-07 -9.9999759483939741 -2.4998257547227212 2.2264045962362052e-05 3.6931375078097517e-06 2.2264045962362052e-05 -2.499835890657236 3.6463539801800948e-05 3.6931375078097517e-06 3.6463539801800948e-05 -9.9999735320136978 -2.4998126384491157 4.5520535085303876e-05 2.1893324908539569e-06 4.5520535085303876e-05 -2.4997954776434592 2.8961952009964875e-06 2.1893324908539569e-06 2.8961952009964875e-06 -9.9999988604832115 -2.4998330172774628 -2.8817799471567188e-06 3.7592952646381406e-06 -2.8817799471567188e-06 -2.4997854506167174 -9.2171380643435441e-06 3.7592952646381406e-06 -9.2171380643435441e-06 -10.000005519593206 -2.4998379951243499 5.7633673915380689e-06 6.9861404785598324e-06 5.7633673915380689e-06 -2.4998201640051003 6.2372121534259861e-06 6.9861404785598324e-06 6.2372121534259861e-06 -10.000009548367169 -2.499817348679108 -1.043257948753532e-05 1.7274691345825488e-05 -1.043257948753532e-05 -2.4998041929632686 -1.0972480572579713e-05 1.7274691345825488e-05 -1.0972480572579713e-05 -9.9999918957327996 -2.4998055386342708 6.6683838621662129e-07 7.6497028516087084e-06 6.6683838621662129e-07 -2.4998238409112732 -1.4803462090817732e-05 7.6497028516087084e-06 -1.4803462090817732e-05 -9.9999852415938584 -2.4998557920040696 5.4033980244300365e-05 1.1587774536359063e-05 5.4033980244300365e-05 -2.5000103678612575 -0.00018254809147322248 1.1587774536359063e-05 -0.00018254809147322248 -10.000037757065193 -2.4998296431544178 -6.298132434820621e-05 5.2502512133401069e-06 -6.298132434820621e-05 -2.4998217854811537 4.5523108344269758e-05 5.2502512133401069e-06 4.5523108344269758e-05 -10.000002800689206 -2.4998396398346809 -1.8084772066691607e-05 -2.4600038432964766e-06 -1.8084772066691607e-05 -2.4998568774764331 -6.9028890656852582e-06 -2.4600038432964766e-06 -6.9028890656852582e-06 -9.9999990887743806 -2.4998598925627276 1.5995964331961806e-05 -2.148963409887017e-06 1.5995964331961806e-05 -2.499913222426156 -7.634733493411261e-06 -2.148963409887017e-06 -7.634733493411261e-06 -9.9999986587261755 -2.4998397914540731 -7.3890995699595595e-05 1.6793154529182175e-06 -7.3890995699595595e-05 -2.4998498017568358 2.8885493542851748e-05 1.6793154529182175e-06 2.8885493542851748e-05 -9.9999992271560085 -2.499854973207011 9.6626454520183744e-06 9.8429009867118111e-06 9.6626454520183744e-06 -2.4998471867214818 3.3778838187004112e-05 9.8429009867118111e-06 3.3778838187004112e-05 -10.000014242601054 -2.4998264010134985 -2.756364660184785e-06 4.6455969116010465e-06 -2.756364660184785e-06 -2.4997739238249945 5.6482952004444087e-07 4.6455969116010465e-06 5.6482952004444087e-07 -9.9999834478755059 -2.4998266464017362 1.5327802029402321e-05 -3.4944159033045707e-06 1.5327802029402321e-05 -2.4998427420128202 -3.7245815711628438e-06 -3.4944159033045707e-06 -3.7245815711628438e-06 -9.9999940129973979 -2.4998431832940784 -1.5681990859849632e-05 -1.055488909429414e-05 -1.5681990859849632e-05 -2.499909345222449 -8.473719235624344e-06 -1.055488909429414e-05 -8.473719235624344e-06 -9.9999950725925988 -2.4998335394554854 -2.1866308304232997e-05 -2.960688880904172e-05 -2.1866308304232997e-05 -2.4997892401773161 -4.5104807982809803e-05 -2.960688880904172e-05 -4.5104807982809803e-05 -10.000000715468673 -2.4997815541005233 -3.2052635740385923e-06 -8.0818983150265922e-07 -3.2052635740385923e-06 -2.4998106265149689 2.7721548901737947e-05 -8.0818983150265922e-07 2.7721548901737947e-05 -10.00000579188718 -2.4998290197716759 -8.0683050950104324e-05 -1.7355653465500609e-05 -8.0683050950104324e-05 -2.4997252295871615 -9.557684879091255e-06 -1.7355653465500609e-05 -9.557684879091255e-06 -10.000003083949217 -2.4998378375278989 -2.0514922509869913e-05 -1.9341017019058881e-05 -2.0514922509869913e-05 -2.4997910889366501 -3.9002211494221228e-05 -1.9341017019058881e-05 -3.9002211494221228e-05 -10.000018097458295 -2.4998367400324071 1.407919135206398e-05 -1.3966374631024792e-05 1.407919135206398e-05 -2.4998711859875478 3.4647657232156348e-06 -1.3966374631024792e-05 3.4647657232156348e-06 -10.000018340351033 -2.4998907287882797 3.5377712204151635e-06 -4.5611902557141093e-06 3.5377712204151635e-06 -2.4998319045186634 -5.5312458149270327e-06 -4.5611902557141093e-06 -5.5312458149270327e-06 -9.9999914230908828 -2.4998567230694388 2.9680533167220281e-05 -1.0447114373590694e-05 2.9680533167220281e-05 -2.4999001151284852 -8.8797554909092469e-07 -1.0447114373590694e-05 -8.8797554909092469e-07 -10.000029320970597 -2.4998403227863895 7.8590391371848603e-07 -6.5533600661638047e-06 7.8590391371848603e-07 -2.4998890064184813 -1.864127547435146e-06 -6.5533600661638047e-06 -1.864127547435146e-06 -9.9999877441052831 -2.499894297638491 1.4653877431108358e-05 -8.0792558065923004e-07 1.4653877431108358e-05 -2.4998931704326655 7.5464383346712793e-06 -8.0792558065923004e-07 7.5464383346712793e-06 -10.000015253895546 -2.4997131369126748 8.1237014318890483e-05 5.1077704270596769e-06 8.1237014318890483e-05 -2.4998119585506071 -1.8455162802410996e-06 5.1077704270596769e-06 -1.8455162802410996e-06 -9.9999949487949777 -2.4999018849398484 6.4374382226123857e-06 -9.9004910119049327e-06 6.4374382226123857e-06 -2.4999022339801544 -3.850278577743893e-06 -9.9004910119049327e-06 -3.850278577743893e-06 -9.999999256957997 -2.4998133734587253 8.0092994657094839e-05 -4.5338595366928303e-06 8.0092994657094839e-05 -2.4997120782115307 1.0258576946142739e-05 -4.5338595366928303e-06 1.0258576946142739e-05 -10.000002525326879 -2.4998967309284961 3.6721267670155737e-05 -2.321286611817186e-06 3.6721267670155737e-05 -2.4998684075521425 -9.8497559051224925e-06 -2.321286611817186e-06 -9.8497559051224925e-06 -10.000035792951371 -2.4998685279605595 1.680151371764281e-05 -5.7855280033436429e-07 1.680151371764281e-05 -2.4998278085942842 -1.2590832422887388e-05 -5.7855280033436429e-07 -1.2590832422887388e-05 -10.00002198616456 -2.4998399428317128 5.4162125430795457e-05 -4.8104578457497382e-05 5.4162125430795457e-05 -2.4998430318284157 -4.256147805037358e-05 -4.8104578457497382e-05 -4.256147805037358e-05 -10.000043316561488 -2.4998748714339349 3.2939771913292703e-05 2.1944995173051041e-05 3.2939771913292703e-05 -2.499881908914011 2.9127732535272344e-05 2.1944995173051041e-05 2.9127732535272344e-05 -10.000002740231778 -2.4998745875484634 2.6684548261250876e-05 1.6796053016410184e-05 2.6684548261250876e-05 -2.4998790513240028 2.5828307300912456e-05 1.6796053016410184e-05 2.5828307300912456e-05 -10.000019779523129 -2.4997780710648039 8.9982122139689184e-05 -2.6005252475869156e-05 8.9982122139689184e-05 -2.4997792967234345 -1.9530483033491919e-05 -2.6005252475869156e-05 -1.9530483033491919e-05 -10.000007022797963 
</DataArray>
<DataArray type="Float64" Name="displacement_divergence" format="ascii">
-0.11249316995602474 -0.11249608840412006 -0.11249787414391724 -0.1125000270876076 -0.11249732828028308 -0.11249987283941063 -0.11249686136895781 -0.11249269346048781 -0.11249757739066055 -0.11249931500377656 -0.1125030701870325 -0.1124952769233242 -0.1124973716126257 -0.11249537392443551 -0.1125007092183879 -0.11249896641291443 -0.11249692526783148 -0.11249996706711615 -0.11249253931033681 -0.11250417108424743 -0.11250717817434464 -0.11250124502471318 -0.1124977089009655 -0.11249705044847828 -0.11249485168088716 -0.11249535069698802 -0.11249611348935831 -0.11249705910921003 -0.11249750152358143 -0.11249834179916945 -0.11249723910570215 -0.11249788663478225 -0.11249669373319965 -0.11249688675705304 -0.11249631715306635 -0.11249697766458414 -0.1124958583229323 -0.11249928217530702 -0.11249848013913455 -0.11249895774155932 -0.11249785751150282 -0.11249889843196985 -0.11249727757694661 -0.11249712648257787 -0.11249702649768396 -0.11249558009535165 -0.11249706144343924 -0.11249557790457165 -0.11249469518240279 -0.11249660030787294 -0.11249733473178225 -0.11249719913119348 -0.11249609123522275 -0.11249795936770111 -0.11249694093063964 -0.11249646944388852 -0.11249718277499013 -0.11249630643505268 -0.11249907693217381 -0.11249866630443668 -0.11249826094900754 -0.1124977195224601 -0.11249868215540995 -0.11249736070267019 -0.11249804162888177 -0.11249793692191087 -0.11249830488443063 -0.11249770134347636 -0.11249792086221233 -0.11249727664604831 -0.11249681671252609 -0.11249749128029042 -0.11249579355903494 -0.11251141950336264 -0.11249894079216534 -0.11249546123803926 -0.11249985140947706 -0.11250213676025388 -0.11249987924611679 -0.11250164068097446 -0.11249783702345249 -0.11249644927054804 -0.11250612739999455 -0.11249879495780622 -0.11249655690318024 -0.11249791083067129 -0.11250311621004203 -0.1124969452456329 -0.11249464543321014 -0.11249737223215946 -0.11249511452953168 -0.11249109465102755 -0.1124915908462383 -0.1124928783138012 -0.11249816909758584 -0.11249785386913327 -0.11249909595388222 -0.1124966634202529 -0.1124931018564896 -0.11249523763555884 -0.11250181606463598 -0.11250565384323713 -0.11250508123233159 -0.1125011191929301 -0.11249819988003114 -0.11249645187599336 -0.11250003906370207 -0.11249733831416614 -0.11249572797088832 -0.11249778132177823 -0.11249721510228557 -0.11249774469973231 -0.11249654659932573 -0.11249926868726789 -0.11249935400984573 -0.11249729977291681 -0.11249844751350387 -0.11249713477238343 -0.11249978041416725 -0.11249846635216369 -0.11249597086512719 -0.11249646407152256 -0.11249677055783694 -0.11249585934472411 -0.11249599149372819 -0.11249687019413085 -0.11249715126355518 -0.11249764775670928 -0.11249522388949039 -0.11249630971683874 -0.11249626789195638 -0.11249668600031984 -0.11249742166177681 -0.11249895983931542 -0.1124934718499724 -0.11250120607741312 -0.11249878791431078 -0.1124984680997321 -0.11249730181394146 -0.11249342799577469 -0.11250230612550317 -0.11249488906733091 -0.11249849692442106 -0.11249849099466271 -0.11249647609072706 -0.11250389656760569 -0.11249880250828917 -0.11249577364610884 -0.11250129150548656 -0.11250171636283837 -0.11249808397675247 -0.11249879281343264 -0.11249809571044853 -0.11249568087804342 -0.11250015780909081 -0.11249484115195728 -0.1124912113324507 -0.11249256410701662 -0.11249764902325128 -0.11249729515329857 -0.11249552315165484 -0.11249849328910941 -0.11249676640900812 -0.11249711046085527 -0.11249608436490391 -0.11249735738286112 -0.11249885582050367 -0.11249834694892534 -0.11249809297373353 -0.11249852321789008 -0.11249684709647474 -0.11249664376147915 -0.11249783710877388 -0.11249786775223022 -0.11249848344673982 -0.11249789673670543 -0.11249840131933142 -0.11249892396987456 -0.11249937066269311 -0.11249886540194133 -0.1124966364571528 -0.11251053855503053 -0.11249845537929334 -0.11249649314032213 -0.11250728658301878 -0.1124985146739 -0.11249687417259134 -0.1125000084689752 -0.11249931040595205 -0.11250043416415621 -0.11249803191570584 -0.11249794242116257 -0.11249591366561898 -0.11249812619850796 -0.11249731302665922 -0.11249812691829876 -0.11249805805239368 -0.11249818020664024 -0.11249773702915243 -0.1124967850937941 -0.11249543869868113 -0.11249761627390896 -0.11249789858657415 -0.11249867031453838 -0.11249707683538557 -0.11250006145415126 -0.11249478379883437 -0.1124948326090308 -0.1125023949864694 -0.11249746498036886 -0.11249819673133077 -0.1124941913942621 -0.11250019970710928 -0.11249712244667921 -0.11249245494350354 -0.11249924017457263 -0.1125015649186204 -0.11249716451555082 -0.11249174644377627 -0.11249338144946043 -0.11249444208074105 -0.11249739173579326 -0.1124984079017359 -0.11249821433861995 -0.11249851487912843 -0.11250168455813442 -0.1124983977540337 -0.11249491014409489 -0.11250158843662629 -0.11249554178715174 -0.11249909459490032 -0.11249316995146247 -0.1124979275355231 -0.11249348019159391 -0.11249710419144043 -0.11249680113513433 -0.11249518593999976 -0.11249881394726818 -0.11249794198671173 -0.11249702749095544 -0.11249629933622055 -0.11249779719328729 -0.1124973925876355 -0.11249574841548488 -0.11249739734844401 -0.11249820512290259 -0.11249538923643132 -0.11249688574558867 -0.11249862211583997 -0.11249743830506942 -0.1124979472961484 -0.11249560629600863 -0.11249659393714986 -0.1124977097949755 -0.11249633352788085 -0.11249674500981255 -0.11249958042469513 -0.1124958234523568 -0.11249832141968509 -0.11249829120522094 -0.11250040760438201 -0.1125023748462845 -0.11249736696235353 -0.11250087118271061 -0.11249294182024278 -0.1124971886903688 -0.11249548596756839 -0.1124970329517975 -0.11249300153712122 -0.11249176776550032 -0.11249344896591192 -0.11249500242635574 -0.11250013073916887 -0.11249501875923076 -0.11249898840936948 -0.1124963389615848 -0.11249891005923354 -0.11250406283897268 -0.11250189116805506 -0.11250569344441033 -0.11249472014555607 -0.11249678814637265 -0.11249946320887053 -0.11249495686342048 -0.11249695813023253 -0.11250228867829601 -0.11250037067446429 -0.11249914837895228 -0.11249655740638073 -0.11249776839457235 -0.11249626450556878 -0.11249663171242702 -0.11249757676356024 -0.11249289388791082 -0.11249668729434016 -0.11249329218604062 -0.11250110898186062 -0.1124953068452033 -0.11249826256013347 -0.11250388212328138 -0.1125027764588889 -0.11249927173374862 -0.11249826055196666 -0.11249954300435527 -0.11249834255359592 -0.11249593959702038 -0.11249805574762174 -0.11249475516548295 -0.11249151072473942 -0.11249290746112861 -0.11249827972542448 -0.11249925925565553 -0.11249626230022468 -0.11249782226677013 -0.11249795320388062 -0.11249943685745871 -0.11249422060136652 -0.11250116689226528 -0.11249823729351771 -0.11249734384617752 -0.11250780843848698 -0.1125006677709942 -0.112497473119386 -0.11249873249818199 -0.11249668026523256 -0.11249683028334145 -0.11249804012656792 -0.11249758336827011 -0.11249631299968936 -0.1124976174246258 -0.11249709392129842 -0.11249801317591024 -0.11249737043777036 -0.11249561068251564 -0.11249699742865564 -0.11249961788409185 -0.11249705359319989 -0.11249815873731221 -0.11249796655990649 -0.11249928787683809 -0.11249749911582507 -0.1124962786980553 -0.1124959390086914 -0.11249710518838255 -0.11249552789024356 -0.11249478538619913 -0.11249688044675075 -0.1124974691599088 -0.11249719486828963 -0.11249668748895603 -0.11249812024174774 -0.1124972403036712 -0.11249583972790977 -0.11249941653014633 -0.11249769590170262 -0.11249553914983074 -0.11249811674165794 -0.1124975438824446 -0.11249709383647165 -0.11249732951775152 -0.1124976372144581 -0.11249714795703575 -0.11249688133090899 -0.11249765873737816 -0.11249712342218715 -0.11249720005713967 -0.11249670096422376 -0.11249626353703823 -0.112497537746788 -0.11249792191167396 -0.11249777295477756 -0.11249928300159316 -0.11249720671057906 -0.11249855813510745 -0.11249603825159019 -0.11249744016003888 -0.11249763788588502 -0.11249811036305868 -0.11249787722530494 -0.11249788979041564 -0.11249696750191696 -0.11249735525392623 -0.11249685389745551 -0.1124971133300364 -0.11249713066002998 -0.11249644375473628 -0.11249723832120628 -0.11249705136600385 -0.11249957605037347 -0.11249743718742156 -0.11249742623737385 -0.11249778847454983 -0.1124975034222436 -0.11249738176074062 -0.11249755871586425 -0.1124978398030729 -0.11249773579279537 -0.11249748826353326 -0.11249731799706791 -0.11249759551671043 -0.11249734067542494 -0.11249735782974433 -0.11249748523588195 -0.11249749454490915 -0.11249718206377929 -0.1124975990195097 -0.11249735639032549 -0.11249744306421033 -0.11249734725072927 -0.11249795143381959 -0.11249727988768193 -0.1124976987599805 -0.11249743319577657 -0.11249797104980822 -0.11249701477341356 -0.11249651233272329 -0.11249724146915652 -0.11249884045966183 -0.11249802403895551 -0.11249797586410912 -0.11249740759402704 -0.11249715383222397 -0.11249808254189339 -0.11249878977097669 -0.11249784432591264 -0.11249816975442457 -0.1124981894357614 -0.11249644381735305 -0.11249673978513752 -0.11249796340375917 -0.11249884475160468 -0.11249835584165513 -0.11249770078031029 -0.11249798077505796 -0.11249788431723251 -0.11249638143406301 -0.11249882549040474 -0.11249814368422778 -0.11249695511725605 -0.11249717127259484 -0.11249877377513551 -0.11249751588280726 -0.11249720819135106 -0.11249769620088272 -0.11249843067333487 -0.11249810275823746 -0.11249694791723891 -0.11249680448919649 -0.11249690018527875 -0.1124978158373372 -0.11249699772107324 -0.11249767256959134 -0.11249687522577145 -0.11249816355900605 -0.11249777741571065 -0.11249692152211338 -0.11249695731965842 -0.1124969173022361 -0.11249778986808012 -0.11249739851748358 -0.11249683251737974 -0.11249732441842125 -0.11249780685114394 -0.11249770552276139 -0.11249706546181491 -0.1124984067106418 -0.11249629725512578 -0.11249647041862082 -0.11249786572050158 -0.112496288697776 -0.11249784447265519 -0.11249825633731431 -0.11249840206912293 -0.11249724106860259 -0.11249937105195018 -0.11249796599323776 -0.11249695544166385 -0.11249749570691137 -0.11249576501509356 -0.11249566627073657 -0.11249783830087473 -0.1124989594199767 -0.1124968975662442 -0.11249869125670775 -0.11249718176589424 -0.11249831529343379 -0.11249847942017922 -0.11249765281570273 -0.11249721262594314 -0.11249786191924344 -0.11249805912290345 -0.11249778892091122 -0.11249764514155441 -0.1124980632295885 -0.11249683278159761 -0.11249816007402275 -0.1124978648030337 -0.11249660418246106 -0.11249766392723137 -0.11249801653295388 -0.11249790218095723 -0.11249653256467146 -0.11249777614405426 -0.11249778876525643 -0.11249709029968258 -0.1124972805411 -0.11249791264790399 -0.11249823543082549 -0.11249789862627578 -0.11249762982550793 -0.11249726834837004 -0.11249695428828732 -0.11249658728162337 -0.11249707851850588 -0.1124970988759455 -0.11249647704064107 -0.11249788505948471 -0.11249665517403962 -0.11249746309910408 -0.11249722366146028 -0.11249690597629852 -0.11250054568328202 -0.11249695528729853 -0.1124974417248748 -0.11249769155992984 -0.11249779604612545 -0.11249770523408589 -0.11249752781420022 -0.1124978102990844 -0.11249733687808994 -0.11249727805774168 -0.11249735432580091 -0.11249741791423196 -0.11249716460185338 -0.11249750262395281 -0.11249728595505482 -0.11249756198551839 -0.11249743798616857 -0.11249723977314016 -0.11249738798562292 -0.11249743876947865 -0.11249737804492882 -0.11249736894977119 -0.11249740598508112 -0.11249709877366249 -0.11249744600546807 -0.11249760677076426 -0.11249736839872793 -0.11249744729060507 -0.11249732986603123 -0.11249778884377257 -0.11249748909649637 -0.11249764647755647 -0.11249742405962315 -0.11249811317574782 -0.11249768522173048 -0.11249715596878493 -0.1124969794666392 -0.11249706006170271 -0.11249725655265813 -0.11249781829233654 -0.11249831074957506 -0.112496862619267 -0.11249752331595692 -0.11249773778593505 -0.11249616305511989 -0.1124968540829554 -0.11249673056972723 -0.1124977411580606 -0.11249694980587982 -0.11249694306349528 -0.11249702974472514 -0.1124975933378411 -0.1124971084743161 -0.11249797436171932 -0.11249806064783086 -0.11249889289397419 -0.11249723586080362 -0.11249736011508171 -0.11249856137155484 -0.11249791170298684 -0.11249728717378665 -0.112498390675875 -0.11249840518984805 -0.1124979949020134 -0.1124975091150191 -0.1124979171236157 -0.11249801782677121 -0.1124988145190797 -0.11249645399630347 -0.11249807446208782 -0.11249820765468538 -0.11249651512702855 -0.11249675452521413 -0.11249864964325523 -0.11249800060625953 -0.11249776533182448 -0.11249721057348339 -0.11249881361133371 -0.11249824767289857 -0.11249941942245353 -0.11249794753383729 -0.11249750614403026 -0.11249693886293208 -0.11249707364187292 -0.1124960204966528 -0.11249693704154634 -0.11249744577656484 -0.11249837194806903 -0.11249723601240613 -0.11249728202362047 -0.11249749438122866 -0.11249720565416818 -0.11249741458666618 -0.11249776096559877 -0.11249720018249729 -0.11249697175499795 -0.11249602728144628 -0.11249939657473756 -0.1124972607923499 -0.11249775547071385 -0.11249791328642592 -0.11249765490320279 -0.11249750587641946 -0.11249723559042002 -0.11249692929989424 -0.11249665952253568 -0.1124968395010269 -0.11249807551970453 -0.11249738723821565 -0.11249686457989663 -0.11249785289583084 -0.11249717282803368 -0.11249803520556512 -0.11249844562512495 -0.11249796252773159 -0.11249709281178305 -0.11249737285295719 -0.11249694213637201 -0.11249714212072565 -0.11249719463987584 -0.11249739150039342 -0.11249756009207462 -0.11249740652914869 -0.11249726779239748 -0.112497387032437 -0.11249741708371946 -0.11249815882801514 -0.11249791641492726 -0.1124977677761464 -0.11249786705792139 -0.11249796773221035 -0.11249786586742153 -0.11249714775276026 -0.1124977207829419 -0.11249721424949483 -0.11249712342792928 -0.11249727655406164 -0.11249694319780462 -0.11249720940768163 -0.11249912060852446 -0.11249842617339559 -0.11249765217083324 -0.11249610748274744 -0.11249841774028094 -0.11249708474043005 -0.11249761547130144 -0.11249762842770319 -0.1124978457236992 -0.11249702365836983 -0.11249541280730335 -0.11249670644904508 -0.11249724508113515 -0.11249726383045244 -0.11249705232431845 -0.11249717990615538 -0.11249750780622461 -0.1124971007803138 -0.11249710965854537 -0.1124992793769789 -0.11249740671993584 -0.11249771704564121 -0.11249828830286296 -0.11249766615275195 -0.11249787301897163 -0.11249687829535492 -0.11249747551058956 -0.1124981070083185 -0.112497176213261 -0.11249698479377002 -0.11249667999981044 -0.11249735267942124 -0.11249794699778246 -0.11249785542298374 -0.11249839619376381 -0.11249787804982617 -0.11249852041475027 -0.11249640033193709 -0.11249852531908495 -0.11249645982747854 -0.11249850698573996 -0.11249788742039568 -0.11249794718416217 -0.11249819640434777 -0.11249830063796695 -0.11249673292939644 
</DataArray>
</CellData>
</Piece>
</UnstructuredGrid>
</VTKFile>
