<?xml version="1.0"?>
<VTKFile type="UnstructuredGrid" version="0.1" byte_order="LittleEndian">
<UnstructuredGrid>
<Piece NumberOfPoints="2824" NumberOfCells="706">
<Points>
<DataArray type="Float64" NumberOfComponents="3" format="ascii">
0 0 0 0 0.32892434865109021 0.32892434865109021 0.33416666666749117 0.33416666666791067 0 0.33416666666645822 0 0.33416666666687761 0.33416666666645822 0 0.33416666666687761 0.77789883252811276 0.39570480562063071 0.39543357482263919 0.57500000000061269 0 0.57499999999949769 0.26500093005959219 0 0.62412558229931248 0.33416666666645822 0 0.33416666666687761 0.77789883252811276 0.39570480562063071 0.39543357482263919 0.26500093005959219 0 0.62412558229931248 0 0.26235908848024581 0.61665443494884975 0 0.32892434865109021 0.32892434865109021 0.33416666666749117 0.33416666666791067 0 0.77789883252811276 0.39570480562063071 0.39543357482263919 0.39531730444687918 0.80019605692788165 0.39654492749411491 0 0.32892434865109021 0.32892434865109021 0.33416666666645822 0 0.33416666666687761 0.77789883252811276 0.39570480562063071 0.39543357482263919 0 0.26235908848024581 0.61665443494884975 0 0.32892434865109021 0.32892434865109021 0.33416666666749117 0.33416666666791067 0 0.33416666666645822 0 0.33416666666687761 0.77789883252811276 0.39570480562063071 0.39543357482263919 0 0 0.40000000000166441 0 0.32892434865109021 0.32892434865109021 0.33416666666645822 0 0.33416666666687761 0 0.26235908848024581 0.61665443494884975 0 0 0 0 0 0.40000000000166441 0 0.32892434865109021 0.32892434865109021 0.33416666666645822 0 0.33416666666687761 0 0 0.40000000000166441 0.33416666666645822 0 0.33416666666687761 0.26500093005959219 0 0.62412558229931248 0 0.26235908848024581 0.61665443494884975 0 0.32892434865109021 0.32892434865109021 0 0.40000000000166441 0 0.33416666666749117 0.33416666666791067 0 0 0.62491530451403432 0.26235908848027167 0 0.40000000000166441 0 0.33416666666749117 0.33416666666791067 0 0.26340755208406552 0.6259637681177177 0 0 0.62491530451403432 0.26235908848027167 0 0 0 0 0.32892434865109021 0.32892434865109021 0 0.40000000000166441 0 0.33416666666749117 0.33416666666791067 0 0.33416666666645822 0 0.33416666666687761 0.39999999999911567 0 0 0.62412558229828341 0.26500093006025072 0 0.62596376811530841 0 0.26340755208326921 0 0 0 0.33416666666749117 0.33416666666791067 0 0.33416666666645822 0 0.33416666666687761 0.39999999999911567 0 0 0.33416666666749117 0.33416666666791067 0 0.33416666666645822 0 0.33416666666687761 0.39999999999911567 0 0 0.62412558229828341 0.26500093006025072 0 0.62412558229828341 0.26500093006025072 0 0.7999999999979498 0 0 0.77789883252811276 0.39570480562063071 0.39543357482263919 0.62596376811530841 0 0.26340755208326921 0.39999999999911567 0 0 0.62412558229828341 0.26500093006025072 0 0.7999999999979498 0 0 0.62596376811530841 0 0.26340755208326921 0.33416666666645822 0 0.33416666666687761 0.62412558229828341 0.26500093006025072 0 0.77789883252811276 0.39570480562063071 0.39543357482263919 0.62596376811530841 0 0.26340755208326921 0.97934782608699855 0.40787109375058261 0 0.77789883252811276 0.39570480562063071 0.39543357482263919 1.0206521739124059 0 0.40787109374997071 1.19811642196055 0.57789440443542173 0.58983547034755146 0.33416666666749117 0.33416666666791067 0 0.33416666666645822 0 0.33416666666687761 0.62412558229828341 0.26500093006025072 0 0.77789883252811276 0.39570480562063071 0.39543357482263919 0.33416666666749117 0.33416666666791067 0 0.62412558229828341 0.26500093006025072 0 0.77789883252811276 0.39570480562063071 0.39543357482263919 0.57500000000222118 0.57500000000110618 0 0.62412558229828341 0.26500093006025072 0 0.97934782608699855 0.40787109375058261 0 0.77789883252811276 0.39570480562063071 0.39543357482263919 0.57500000000222118 0.57500000000110618 0 0.62412558229828341 0.26500093006025072 0 0.97934782608699855 0.40787109375058261 0 0.7999999999979498 0 0 0.77789883252811276 0.39570480562063071 0.39543357482263919 0.97934782608699855 0.40787109375058261 0 0.7999999999979498 0 0 1.1999999999978941 0 0 1.0206521739124059 0 0.40787109374997071 0.97934782608699855 0.40787109375058261 0 0.7999999999979498 0 0 0.77789883252811276 0.39570480562063071 0.39543357482263919 1.0206521739124059 0 0.40787109374997071 0.7999999999979498 0 0 0.77789883252811276 0.39570480562063071 0.39543357482263919 0.62596376811530841 0 0.26340755208326921 1.0206521739124059 0 0.40787109374997071 0.33416666666645822 0 0.33416666666687761 0.77789883252811276 0.39570480562063071 0.39543357482263919 0.62596376811530841 0 0.26340755208326921 0.57500000000061269 0 0.57499999999949769 0.77789883252811276 0.39570480562063071 0.39543357482263919 0.62596376811530841 0 0.26340755208326921 0.57500000000061269 0 0.57499999999949769 1.0206521739124059 0 0.40787109374997071 0.77789883252811276 0.39570480562063071 0.39543357482263919 0.57500000000061269 0 0.57499999999949769 0.849152677791018 0 0.76609408500333809 0.59772980397989239 0.59772980397970443 0.74731771606769093 0.77789883252811276 0.39570480562063071 0.39543357482263919 0.849152677791018 0 0.76609408500333809 1.19811642196055 0.57789440443542173 0.58983547034755146 0.98528458949709452 0.48395451161029718 1.014715410503322 0.57500000000061269 0 0.57499999999949769 0.849152677791018 0 0.76609408500333809 0.40787109375015718 0 0.97934782608792492 0.59772980397989239 0.59772980397970443 0.74731771606769093 0.77789883252811276 0.39570480562063071 0.39543357482263919 0.57500000000061269 0 0.57499999999949769 0.26500093005959219 0 0.62412558229931248 0.59772980397989239 0.59772980397970443 0.74731771606769093 0.77789883252811276 0.39570480562063071 0.39543357482263919 0.849152677791018 0 0.76609408500333809 1.0206521739124059 0 0.40787109374997071 1.19811642196055 0.57789440443542173 0.58983547034755146 0.849152677791018 0 0.76609408500333809 0.59772980397989239 0.59772980397970443 0.74731771606769093 0.73709538452274337 0 1.137931943365984 0.98528458949709452 0.48395451161029718 1.014715410503322 0.849152677791018 0 0.76609408500333809 0.40787109375015718 0 0.97934782608792492 0.59772980397989239 0.59772980397970443 0.74731771606769093 0.73709538452274337 0 1.137931943365984 0.77789883252811276 0.39570480562063071 0.39543357482263919 0.849152677791018 0 0.76609408500333809 0.59772980397989239 0.59772980397970443 0.74731771606769093 0.98528458949709452 0.48395451161029718 1.014715410503322 0.77789883252811276 0.39570480562063071 0.39543357482263919 0.57500000000061269 0 0.57499999999949769 0.849152677791018 0 0.76609408500333809 1.0206521739124059 0 0.40787109374997071 0.849152677791018 0 0.76609408500333809 1.0000000000002141 0 0.99999999999992895 0.73709538452274337 0 1.137931943365984 0.98528458949709452 0.48395451161029718 1.014715410503322 0.26500093005959219 0 0.62412558229931248 0 0.26235908848024581 0.61665443494884975 0 0.40787109374995661 0.97934782608798243 0.59772980397989239 0.59772980397970443 0.74731771606769093 0.77789883252811276 0.39570480562063071 0.39543357482263919 0.26500093005959219 0 0.62412558229931248 0 0.26235908848024581 0.61665443494884975 0.59772980397989239 0.59772980397970443 0.74731771606769093 0 0.32892434865109021 0.32892434865109021 0.77789883252811276 0.39570480562063071 0.39543357482263919 0 0.26235908848024581 0.61665443494884975 0.59772980397989239 0.59772980397970443 0.74731771606769093 0 0.32892434865109021 0.32892434865109021 0 0.26235908848024581 0.61665443494884975 0 0.57500000000018214 0.57500000000018214 0.59772980397989239 0.59772980397970443 0.74731771606769093 0.57500000000061269 0 0.57499999999949769 0.40787109375015718 0 0.97934782608792492 0.26500093005959219 0 0.62412558229931248 0.59772980397989239 0.59772980397970443 0.74731771606769093 0 0.26235908848024581 0.61665443494884975 0 0.40787109374995661 0.97934782608798243 0 0.57500000000018214 0.57500000000018214 0.59772980397989239 0.59772980397970443 0.74731771606769093 0.40787109375015718 0 0.97934782608792492 0.26500093005959219 0 0.62412558229931248 0 0.40787109374995661 0.97934782608798243 0.59772980397989239 0.59772980397970443 0.74731771606769093 0.40787109375015718 0 0.97934782608792492 0 0 0.80000000000332872 0.26500093005959219 0 0.62412558229931248 0 0.40787109374995661 0.97934782608798243 0 0 0.80000000000332872 0.26500093005959219 0 0.62412558229931248 0 0.26235908848024581 0.61665443494884975 0 0.40787109374995661 0.97934782608798243 0.40787109375015718 0 0.97934782608792492 0 0 0.80000000000332872 0 0.40787109374995661 0.97934782608798243 0 0 1.200000000002774 0 0 0.40000000000166441 0 0 0.80000000000332872 0.26500093005959219 0 0.62412558229931248 0 0.26235908848024581 0.61665443494884975 0 0.85167501661028155 0.7670914684099619 0.59772980397989239 0.59772980397970443 0.74731771606769093 0.39531730444687918 0.80019605692788165 0.39654492749411491 0.48528811404415773 0.99061345538166756 1.009386544617999 0 0.32892434865109021 0.32892434865109021 0 0.57500000000018214 0.57500000000018214 0.59772980397989239 0.59772980397970443 0.74731771606769093 0.39531730444687918 0.80019605692788165 0.39654492749411491 0 0.57500000000018214 0.57500000000018214 0 0.85167501661028155 0.7670914684099619 0.59772980397989239 0.59772980397970443 0.74731771606769093 0.39531730444687918 0.80019605692788165 0.39654492749411491 0 0.40787109374995661 0.97934782608798243 0 0.85167501661028155 0.7670914684099619 0.59772980397989239 0.59772980397970443 0.74731771606769093 0 0.73703553820768952 1.137914212601322 0 0.85167501661028155 0.7670914684099619 0.39531730444687918 0.80019605692788165 0.39654492749411491 0.58179751944592217 1.199262271083781 0.58179751944619096 0.48528811404415773 0.99061345538166756 1.009386544617999 0 0.85167501661028155 0.7670914684099619 0.59772980397989239 0.59772980397970443 0.74731771606769093 0.48528811404415773 0.99061345538166756 1.009386544617999 0 0.73703553820768952 1.137914212601322 0 0.85167501661028155 0.7670914684099619 0.39531730444687918 0.80019605692788165 0.39654492749411491 0 1.0206521739139061 0.40787109375008618 0.58179751944592217 1.199262271083781 0.58179751944619096 0 0.40787109374995661 0.97934782608798243 0 0.57500000000018214 0.57500000000018214 0 0.85167501661028155 0.7670914684099619 0.59772980397989239 0.59772980397970443 0.74731771606769093 0 0.57500000000018214 0.57500000000018214 0 0.85167501661028155 0.7670914684099619 0.39531730444687918 0.80019605692788165 0.39654492749411491 0 1.0206521739139061 0.40787109375008618 0 0.85167501661028155 0.7670914684099619 0 1.0000000000000291 0.99999999999996969 0.48528811404415773 0.99061345538166756 1.009386544617999 0 0.73703553820768952 1.137914212601322 0.77789883252811276 0.39570480562063071 0.39543357482263919 0.59772980397989239 0.59772980397970443 0.74731771606769093 1.0362039003897969 1.032400726930619 0.49025282767413908 1.19811642196055 0.57789440443542173 0.58983547034755146 0.59772980397989239 0.59772980397970443 0.74731771606769093 0.58179751944592217 1.199262271083781 0.58179751944619096 1.0362039003897969 1.032400726930619 0.49025282767413908 1 0.99999999999999978 0.99999999999999978 0.59772980397989239 0.59772980397970443 0.74731771606769093 0.39531730444687918 0.80019605692788165 0.39654492749411491 0.58179751944592217 1.199262271083781 0.58179751944619096 1.0362039003897969 1.032400726930619 0.49025282767413908 0.77789883252811276 0.39570480562063071 0.39543357482263919 0.59772980397989239 0.59772980397970443 0.74731771606769093 1.19811642196055 0.57789440443542173 0.58983547034755146 0.98528458949709452 0.48395451161029718 1.014715410503322 0.77789883252811276 0.39570480562063071 0.39543357482263919 0.59772980397989239 0.59772980397970443 0.74731771606769093 0.39531730444687918 0.80019605692788165 0.39654492749411491 1.0362039003897969 1.032400726930619 0.49025282767413908 0.59772980397989239 0.59772980397970443 0.74731771606769093 0.39531730444687918 0.80019605692788165 0.39654492749411491 0.58179751944592217 1.199262271083781 0.58179751944619096 0.48528811404415773 0.99061345538166756 1.009386544617999 0.59772980397989239 0.59772980397970443 0.74731771606769093 1 0.99999999999999978 0.99999999999999978 1.19811642196055 0.57789440443542173 0.58983547034755146 0.98528458949709452 0.48395451161029718 1.014715410503322 0.59772980397989239 0.59772980397970443 0.74731771606769093 1.0362039003897969 1.032400726930619 0.49025282767413908 1 0.99999999999999978 0.99999999999999978 1.19811642196055 0.57789440443542173 0.58983547034755146 0.59772980397989239 0.59772980397970443 0.74731771606769093 1 0.99999999999999978 0.99999999999999978 0.48528811404415773 0.99061345538166756 1.009386544617999 0.98528458949709452 0.48395451161029718 1.014715410503322 0.59772980397989239 0.59772980397970443 0.74731771606769093 0.58179751944592217 1.199262271083781 0.58179751944619096 1 0.99999999999999978 0.99999999999999978 0.48528811404415773 0.99061345538166756 1.009386544617999 0.73668669749125271 0.86068862301695703 0 0.39531730444687918 0.80019605692788165 0.39654492749411491 0.40787109375061498 1.0206521739145791 0 0.58179751944592217 1.199262271083781 0.58179751944619096 0.73668669749125271 0.86068862301695703 0 0.39531730444687918 0.80019605692788165 0.39654492749411491 0.58179751944592217 1.199262271083781 0.58179751944619096 1.0362039003897969 1.032400726930619 0.49025282767413908 0.77789883252811276 0.39570480562063071 0.39543357482263919 0.73668669749125271 0.86068862301695703 0 1.0362039003897969 1.032400726930619 0.49025282767413908 1.151058336609301 0.76640924832138713 0 0.77789883252811276 0.39570480562063071 0.39543357482263919 0.73668669749125271 0.86068862301695703 0 0.39531730444687918 0.80019605692788165 0.39654492749411491 1.0362039003897969 1.032400726930619 0.49025282767413908 0.73668669749125271 0.86068862301695703 0 1.0000000000013569 1.0000000000020031 0 1.0362039003897969 1.032400726930619 0.49025282767413908 1.151058336609301 0.76640924832138713 0 0.97934782608699855 0.40787109375058261 0 0.77789883252811276 0.39570480562063071 0.39543357482263919 0.57500000000222118 0.57500000000110618 0 0.73668669749125271 0.86068862301695703 0 0.97934782608699855 0.40787109375058261 0 0.77789883252811276 0.39570480562063071 0.39543357482263919 0.73668669749125271 0.86068862301695703 0 1.151058336609301 0.76640924832138713 0 0.77789883252811276 0.39570480562063071 0.39543357482263919 0.57500000000222118 0.57500000000110618 0 0.73668669749125271 0.86068862301695703 0 0.39531730444687918 0.80019605692788165 0.39654492749411491 0.33416666666749117 0.33416666666791067 0 0.77789883252811276 0.39570480562063071 0.39543357482263919 0.57500000000222118 0.57500000000110618 0 0.39531730444687918 0.80019605692788165 0.39654492749411491 0.57500000000222118 0.57500000000110618 0 0.73668669749125271 0.86068862301695703 0 0.39531730444687918 0.80019605692788165 0.39654492749411491 0.40787109375061498 1.0206521739145791 0 0.57500000000222118 0.57500000000110618 0 0.39531730444687918 0.80019605692788165 0.39654492749411491 0.26340755208406552 0.6259637681177177 0 0.40787109375061498 1.0206521739145791 0 0.39531730444687918 0.80019605692788165 0.39654492749411491 0.26340755208406552 0.6259637681177177 0 0 0.80000000000332872 0 0.40787109375061498 1.0206521739145791 0 0 0.32892434865109021 0.32892434865109021 0.77789883252811276 0.39570480562063071 0.39543357482263919 0.59772980397989239 0.59772980397970443 0.74731771606769093 0.39531730444687918 0.80019605692788165 0.39654492749411491 0.33416666666749117 0.33416666666791067 0 0.57500000000222118 0.57500000000110618 0 0.39531730444687918 0.80019605692788165 0.39654492749411491 0.26340755208406552 0.6259637681177177 0 0 0.32892434865109021 0.32892434865109021 0.33416666666749117 0.33416666666791067 0 0.39531730444687918 0.80019605692788165 0.39654492749411491 0 0.62491530451403432 0.26235908848027167 0 0.40000000000166441 0 0.26340755208406552 0.6259637681177177 0 0 0.62491530451403432 0.26235908848027167 0 0.80000000000332872 0 0.39531730444687918 0.80019605692788165 0.39654492749411491 0.26340755208406552 0.6259637681177177 0 0 0.62491530451403432 0.26235908848027167 0 0.80000000000332872 0 0.33416666666749117 0.33416666666791067 0 0.39531730444687918 0.80019605692788165 0.39654492749411491 0.26340755208406552 0.6259637681177177 0 0 0.62491530451403432 0.26235908848027167 0 0.32892434865109021 0.32892434865109021 0 0.57500000000018214 0.57500000000018214 0.39531730444687918 0.80019605692788165 0.39654492749411491 0 0.62491530451403432 0.26235908848027167 0.39531730444687918 0.80019605692788165 0.39654492749411491 0 0.62491530451403432 0.26235908848027167 0 0.80000000000332872 0 0 1.0206521739139061 0.40787109375008618 0 0.57500000000018214 0.57500000000018214 0.39531730444687918 0.80019605692788165 0.39654492749411491 0 0.62491530451403432 0.26235908848027167 0 1.0206521739139061 0.40787109375008618 0.39531730444687918 0.80019605692788165 0.39654492749411491 0 0.80000000000332872 0 0.40787109375061498 1.0206521739145791 0 0 1.0206521739139061 0.40787109375008618 0 1.200000000002774 0 0.26500093005965231 1.375874417702696 0 0.40787109375061498 1.0206521739145791 0 0 1.0206521739139061 0.40787109375008618 0.39531730444687918 0.80019605692788165 0.39654492749411491 0.40787109375061498 1.0206521739145791 0 0.37819010083105031 1.488109359197332 0.37639255045733749 0 1.0206521739139061 0.40787109375008618 0.39531730444687918 0.80019605692788165 0.39654492749411491 0.40787109375061498 1.0206521739145791 0 0.37819010083105031 1.488109359197332 0.37639255045733749 0.58179751944592217 1.199262271083781 0.58179751944619096 0.39531730444687918 0.80019605692788165 0.39654492749411491 0.37819010083105031 1.488109359197332 0.37639255045733749 0 1.0206521739139061 0.40787109375008618 0.58179751944592217 1.199262271083781 0.58179751944619096 0.37819010083105031 1.488109359197332 0.37639255045733749 0 1.0206521739139061 0.40787109375008618 0 1.4250000000002421 0.57500000000014528 0.58179751944592217 1.199262271083781 0.58179751944619096 0.40787109375061498 1.0206521739145791 0 0.37819010083105031 1.488109359197332 0.37639255045733749 0.58179751944592217 1.199262271083781 0.58179751944619096 0.57499999999972717 1.4249999999995451 0 0 0.80000000000332872 0 0 1.200000000002774 0 0.40787109375061498 1.0206521739145791 0 0 1.0206521739139061 0.40787109375008618 0 1.200000000002774 0 0.26500093005965231 1.375874417702696 0 0 1.3863248792278431 0.25937977430558068 0 1.0206521739139061 0.40787109375008618 0 1.200000000002774 0 0.26500093005965231 1.375874417702696 0 0 1.3863248792278431 0.25937977430558068 0 1.6000000000000001 0 0.26500093005965231 1.375874417702696 0 0.37819010083105031 1.488109359197332 0.37639255045733749 0 1.3863248792278431 0.25937977430558068 0.33416666666678929 1.6658333333334849 0 0.26500093005965231 1.375874417702696 0 0.40787109375061498 1.0206521739145791 0 0.37819010083105031 1.488109359197332 0.37639255045733749 0.57499999999972717 1.4249999999995451 0 0.26500093005965231 1.375874417702696 0 0.37819010083105031 1.488109359197332 0.37639255045733749 0.33416666666678929 1.6658333333334849 0 0.57499999999972717 1.4249999999995451 0 0.26500093005965231 1.375874417702696 0 0.40787109375061498 1.0206521739145791 0 0.37819010083105031 1.488109359197332 0.37639255045733749 0 1.0206521739139061 0.40787109375008618 0.37819010083105031 1.488109359197332 0.37639255045733749 0 1.3863248792278431 0.25937977430558068 0 1.0206521739139061 0.40787109375008618 0 1.4250000000002421 0.57500000000014528 0.37819010083105031 1.488109359197332 0.37639255045733749 0 1.3863248792278431 0.25937977430558068 0 1.4250000000002421 0.57500000000014528 0 1.685972222222293 0.31402777777767188 0.26500093005965231 1.375874417702696 0 0.37819010083105031 1.488109359197332 0.37639255045733749 0 1.3863248792278431 0.25937977430558068 0 1.0206521739139061 0.40787109375008618 0 0.85167501661028155 0.7670914684099619 0 1.263313302510646 0.86068862301506388 0.58179751944592217 1.199262271083781 0.58179751944619096 0.48528811404415773 0.99061345538166756 1.009386544617999 0 0.85167501661028155 0.7670914684099619 0 1.0206521739139061 0.40787109375008618 0 1.263313302510646 0.86068862301506388 0.58179751944592217 1.199262271083781 0.58179751944619096 0 1.263313302510646 0.86068862301506388 0.41010551790091843 1.5854304871968741 0.7721068750782103 0.39539622647752048 1.604332214875325 1.222086277851258 0.48528811404415773 0.99061345538166756 1.009386544617999 0 1.263313302510646 0.86068862301506388 0.41010551790091843 1.5854304871968741 0.7721068750782103 0.58179751944592217 1.199262271083781 0.58179751944619096 0.48528811404415773 0.99061345538166756 1.009386544617999 0 1.263313302510646 0.86068862301506388 0 1.4250000000002421 0.57500000000014528 0.41010551790091843 1.5854304871968741 0.7721068750782103 0.58179751944592217 1.199262271083781 0.58179751944619096 0 1.0206521739139061 0.40787109375008618 0 1.263313302510646 0.86068862301506388 0 1.4250000000002421 0.57500000000014528 0.58179751944592217 1.199262271083781 0.58179751944619096 0.37819010083105031 1.488109359197332 0.37639255045733749 0 1.4250000000002421 0.57500000000014528 0.41010551790091843 1.5854304871968741 0.7721068750782103 0.58179751944592217 1.199262271083781 0.58179751944619096 0 0.85167501661028155 0.7670914684099619 0 1.0000000000000291 0.99999999999996969 0 1.263313302510646 0.86068862301506388 0.48528811404415773 0.99061345538166756 1.009386544617999 0 1.263313302510646 0.86068862301506388 0 1.4250000000002421 0.57500000000014528 0.41010551790091843 1.5854304871968741 0.7721068750782103 0 1.592128906249999 1.0206521739122849 0.37819010083105031 1.488109359197332 0.37639255045733749 0 1.4250000000002421 0.57500000000014528 0 1.740620225694506 0.62193599033743363 0.41010551790091843 1.5854304871968741 0.7721068750782103 0 1.4250000000002421 0.57500000000014528 0 1.740620225694506 0.62193599033743363 0.41010551790091843 1.5854304871968741 0.7721068750782103 0 1.592128906249999 1.0206521739122849 0.37819010083105031 1.488109359197332 0.37639255045733749 0 1.740620225694506 0.62193599033743363 0.41010551790091843 1.5854304871968741 0.7721068750782103 0.26500093005947722 2 0.6241255822972791 0.37819010083105031 1.488109359197332 0.37639255045733749 0.41010551790091843 1.5854304871968741 0.7721068750782103 0.26500093005947722 2 0.6241255822972791 0.57499999999943696 2 0.57500000000055196 0.41010551790091843 1.5854304871968741 0.7721068750782103 0.40787109375045588 2 0.9793478260856453 0 1.592128906249999 1.0206521739122849 0.39539622647752048 1.604332214875325 1.222086277851258 0 1.740620225694506 0.62193599033743363 0.41010551790091843 1.5854304871968741 0.7721068750782103 0 2 0.7999999999979498 0 1.592128906249999 1.0206521739122849 0 1.263313302510646 0.86068862301506388 0.41010551790091843 1.5854304871968741 0.7721068750782103 0 1.592128906249999 1.0206521739122849 0.39539622647752048 1.604332214875325 1.222086277851258 0 2 0.7999999999979498 0.40787109375045588 2 0.9793478260856453 0 2 1.1999999999978941 0 1.592128906249999 1.0206521739122849 0.41010551790091843 1.5854304871968741 0.7721068750782103 0 2 0.7999999999979498 0.40787109375045588 2 0.9793478260856453 0 1.592128906249999 1.0206521739122849 0.41010551790091843 1.5854304871968741 0.7721068750782103 0 2 0.7999999999979498 0.40787109375045588 2 0.9793478260856453 0.26500093005947722 2 0.6241255822972791 0.41010551790091843 1.5854304871968741 0.7721068750782103 0.40787109375045588 2 0.9793478260856453 0.26500093005947722 2 0.6241255822972791 0.57499999999943696 2 0.57500000000055196 0 1.740620225694506 0.62193599033743363 0.41010551790091843 1.5854304871968741 0.7721068750782103 0 2 0.7999999999979498 0.26500093005947722 2 0.6241255822972791 0 1.740620225694506 0.62193599033743363 0 2 0.7999999999979498 0.26500093005947722 2 0.6241255822972791 0 2 0.39999999999911567 0.37819010083105031 1.488109359197332 0.37639255045733749 0.3341666666668387 2 0.3341666666664192 0.62596376811713206 2 0.26340755208327649 0.57499999999943696 2 0.57500000000055196 0.37819010083105031 1.488109359197332 0.37639255045733749 0 1.740620225694506 0.62193599033743363 0 1.685972222222293 0.31402777777767188 0.3341666666668387 2 0.3341666666664192 0.37819010083105031 1.488109359197332 0.37639255045733749 0.26500093005947722 2 0.6241255822972791 0.3341666666668387 2 0.3341666666664192 0.57499999999943696 2 0.57500000000055196 0.37819010083105031 1.488109359197332 0.37639255045733749 0 1.740620225694506 0.62193599033743363 0.26500093005947722 2 0.6241255822972791 0.3341666666668387 2 0.3341666666664192 0.37819010083105031 1.488109359197332 0.37639255045733749 0.33416666666678929 1.6658333333334849 0 0.3341666666668387 2 0.3341666666664192 0.62596376811713206 2 0.26340755208327649 0 2 0.39999999999911567 0 2 0 0 1.685972222222293 0.31402777777767188 0.3341666666668387 2 0.3341666666664192 0.37819010083105031 1.488109359197332 0.37639255045733749 0.33416666666678929 1.6658333333334849 0 0.62596376811713206 2 0.26340755208327649 0.62596376811718013 1.7365924479167429 0 0 1.740620225694506 0.62193599033743363 0.26500093005947722 2 0.6241255822972791 0 2 0.39999999999911567 0.3341666666668387 2 0.3341666666664192 0.37819010083105031 1.488109359197332 0.37639255045733749 0 1.685972222222293 0.31402777777767188 0.33416666666678929 1.6658333333334849 0 0.3341666666668387 2 0.3341666666664192 0 1.740620225694506 0.62193599033743363 0 2 0.39999999999911567 0 1.685972222222293 0.31402777777767188 0.3341666666668387 2 0.3341666666664192 0 2 0 0 1.685972222222293 0.31402777777767188 0.33416666666678929 1.6658333333334849 0 0.3341666666668387 2 0.3341666666664192 0.26500093005965231 1.375874417702696 0 0 1.3863248792278431 0.25937977430558068 0 1.6000000000000001 0 0.33416666666678929 1.6658333333334849 0 0 2 0 0 1.6000000000000001 0 0 1.685972222222293 0.31402777777767188 0.33416666666678929 1.6658333333334849 0 0.37819010083105031 1.488109359197332 0.37639255045733749 0 1.3863248792278431 0.25937977430558068 0 1.685972222222293 0.31402777777767188 0.33416666666678929 1.6658333333334849 0 0 1.3863248792278431 0.25937977430558068 0 1.6000000000000001 0 0 1.685972222222293 0.31402777777767188 0.33416666666678929 1.6658333333334849 0 0.37819010083105031 1.488109359197332 0.37639255045733749 0 1.4250000000002421 0.57500000000014528 0 1.740620225694506 0.62193599033743363 0 1.685972222222293 0.31402777777767188 0.37819010083105031 1.488109359197332 0.37639255045733749 0.33416666666678929 1.6658333333334849 0 0.62596376811718013 1.7365924479167429 0 0.57499999999972717 1.4249999999995451 0 0.33416666666678929 1.6658333333334849 0 0.40000000000166441 2 0 0.3341666666668387 2 0.3341666666664192 0.62596376811713206 2 0.26340755208327649 0 2 0 0.33416666666678929 1.6658333333334849 0 0.40000000000166441 2 0 0.3341666666668387 2 0.3341666666664192 0.33416666666678929 1.6658333333334849 0 0.40000000000166441 2 0 0.62596376811713206 2 0.26340755208327649 0.62596376811718013 1.7365924479167429 0 0.37819010083105031 1.488109359197332 0.37639255045733749 0.62596376811718013 1.7365924479167429 0 0.92204894738342102 1.545944433704725 0.55253256161165365 0.57499999999972717 1.4249999999995451 0 0.37819010083105031 1.488109359197332 0.37639255045733749 0.62596376811713206 2 0.26340755208327649 0.57499999999943696 2 0.57500000000055196 0.92204894738342102 1.545944433704725 0.55253256161165365 0.37819010083105031 1.488109359197332 0.37639255045733749 0.62596376811713206 2 0.26340755208327649 0.62596376811718013 1.7365924479167429 0 0.92204894738342102 1.545944433704725 0.55253256161165365 0.62596376811713206 2 0.26340755208327649 0.62596376811718013 1.7365924479167429 0 0.92204894738342102 1.545944433704725 0.55253256161165365 1.020652173914391 2 0.4078710937494115 0.62596376811718013 1.7365924479167429 0 0.92204894738342102 1.545944433704725 0.55253256161165365 1.020652173914391 2 0.4078710937494115 1.0206521739143919 1.592128906250684 0 0.62596376811718013 1.7365924479167429 0 0.92204894738342102 1.545944433704725 0.55253256161165365 0.57499999999972717 1.4249999999995451 0 1.0206521739143919 1.592128906250684 0 0.40000000000166441 2 0 0.62596376811713206 2 0.26340755208327649 0.62596376811718013 1.7365924479167429 0 0.80000000000332872 2 0 0.62596376811718013 1.7365924479167429 0 0.80000000000332872 2 0 1.020652173914391 2 0.4078710937494115 1.0206521739143919 1.592128906250684 0 0.62596376811713206 2 0.26340755208327649 0.62596376811718013 1.7365924479167429 0 0.80000000000332872 2 0 1.020652173914391 2 0.4078710937494115 0.62596376811713206 2 0.26340755208327649 0.57499999999943696 2 0.57500000000055196 0.92204894738342102 1.545944433704725 0.55253256161165365 1.020652173914391 2 0.4078710937494115 0.41010551790091843 1.5854304871968741 0.7721068750782103 0.57499999999943696 2 0.57500000000055196 0.84920286521341182 2 0.76599646645041963 0.92204894738342102 1.545944433704725 0.55253256161165365 0.57499999999943696 2 0.57500000000055196 0.84920286521341182 2 0.76599646645041963 0.92204894738342102 1.545944433704725 0.55253256161165365 1.020652173914391 2 0.4078710937494115 0.37819010083105031 1.488109359197332 0.37639255045733749 0.41010551790091843 1.5854304871968741 0.7721068750782103 0.57499999999943696 2 0.57500000000055196 0.92204894738342102 1.545944433704725 0.55253256161165365 0.41010551790091843 1.5854304871968741 0.7721068750782103 0.84920286521341182 2 0.76599646645041963 0.92204894738342102 1.545944433704725 0.55253256161165365 0.86620738987133672 1.5000000000001401 1.0337672479303861 0.41010551790091843 1.5854304871968741 0.7721068750782103 0.84920286521341182 2 0.76599646645041963 0.86620738987133672 1.5000000000001401 1.0337672479303861 0.73668669749101645 2 1.139311376982779 0.41010551790091843 1.5854304871968741 0.7721068750782103 0.40787109375045588 2 0.9793478260856453 0.84920286521341182 2 0.76599646645041963 0.73668669749101645 2 1.139311376982779 0.41010551790091843 1.5854304871968741 0.7721068750782103 0.40787109375045588 2 0.9793478260856453 0.57499999999943696 2 0.57500000000055196 0.84920286521341182 2 0.76599646645041963 0.84920286521341182 2 0.76599646645041963 1.000000000000635 2 0.99999999999835598 0.86620738987133672 1.5000000000001401 1.0337672479303861 0.73668669749101645 2 1.139311376982779 0.84920286521341182 2 0.76599646645041963 0.92204894738342102 1.545944433704725 0.55253256161165365 1.000000000000635 2 0.99999999999835598 0.86620738987133672 1.5000000000001401 1.0337672479303861 0.58179751944592217 1.199262271083781 0.58179751944619096 1 0.99999999999999978 0.99999999999999978 0.86620738987133672 1.5000000000001401 1.0337672479303861 0.48528811404415773 0.99061345538166756 1.009386544617999 0.37819010083105031 1.488109359197332 0.37639255045733749 0.41010551790091843 1.5854304871968741 0.7721068750782103 0.92204894738342102 1.545944433704725 0.55253256161165365 0.58179751944592217 1.199262271083781 0.58179751944619096 0.92204894738342102 1.545944433704725 0.55253256161165365 0.58179751944592217 1.199262271083781 0.58179751944619096 1 0.99999999999999978 0.99999999999999978 0.86620738987133672 1.5000000000001401 1.0337672479303861 0.41010551790091843 1.5854304871968741 0.7721068750782103 0.92204894738342102 1.545944433704725 0.55253256161165365 0.58179751944592217 1.199262271083781 0.58179751944619096 0.86620738987133672 1.5000000000001401 1.0337672479303861 0.92204894738342102 1.545944433704725 0.55253256161165365 0.58179751944592217 1.199262271083781 0.58179751944619096 1.0362039003897969 1.032400726930619 0.49025282767413908 1 0.99999999999999978 0.99999999999999978 0.41010551790091843 1.5854304871968741 0.7721068750782103 0.58179751944592217 1.199262271083781 0.58179751944619096 0.86620738987133672 1.5000000000001401 1.0337672479303861 0.48528811404415773 0.99061345538166756 1.009386544617999 0.92204894738342102 1.545944433704725 0.55253256161165365 0.58179751944592217 1.199262271083781 0.58179751944619096 0.57499999999972717 1.4249999999995451 0 0.86206805663365538 1.262904615478279 0 0.73668669749125271 0.86068862301695703 0 0.58179751944592217 1.199262271083781 0.58179751944619096 0.86206805663365538 1.262904615478279 0 1.0362039003897969 1.032400726930619 0.49025282767413908 0.37819010083105031 1.488109359197332 0.37639255045733749 0.92204894738342102 1.545944433704725 0.55253256161165365 0.58179751944592217 1.199262271083781 0.58179751944619096 0.57499999999972717 1.4249999999995451 0 0.40787109375061498 1.0206521739145791 0 0.58179751944592217 1.199262271083781 0.58179751944619096 0.57499999999972717 1.4249999999995451 0 0.86206805663365538 1.262904615478279 0 0.92204894738342102 1.545944433704725 0.55253256161165365 0.57499999999972717 1.4249999999995451 0 0.86206805663365538 1.262904615478279 0 1.0206521739143919 1.592128906250684 0 0.73668669749125271 0.86068862301695703 0 0.40787109375061498 1.0206521739145791 0 0.58179751944592217 1.199262271083781 0.58179751944619096 0.86206805663365538 1.262904615478279 0 0.92204894738342102 1.545944433704725 0.55253256161165365 0.58179751944592217 1.199262271083781 0.58179751944619096 0.86206805663365538 1.262904615478279 0 1.0362039003897969 1.032400726930619 0.49025282767413908 0.73668669749125271 0.86068862301695703 0 0.86206805663365538 1.262904615478279 0 1.0000000000013569 1.0000000000020031 0 1.0362039003897969 1.032400726930619 0.49025282767413908 1.2339059149979039 1.1508473222113209 0 1.367905405405516 1.367905405405516 0.63209459459450335 1.592128906250452 0.97934782608882909 0 1.5147705253128161 0.91852444755677043 0.69631892236242632 0.92204894738342102 1.545944433704725 0.55253256161165365 1.2339059149979039 1.1508473222113209 0 1.0362039003897969 1.032400726930619 0.49025282767413908 1.367905405405516 1.367905405405516 0.63209459459450335 0.86206805663365538 1.262904615478279 0 1.2339059149979039 1.1508473222113209 0 1.0000000000013569 1.0000000000020031 0 1.0362039003897969 1.032400726930619 0.49025282767413908 0.92204894738342102 1.545944433704725 0.55253256161165365 1.2339059149979039 1.1508473222113209 0 1.367905405405516 1.367905405405516 0.63209459459450335 1.0206521739143919 1.592128906250684 0 1.2339059149979039 1.1508473222113209 0 1.0362039003897969 1.032400726930619 0.49025282767413908 1.367905405405516 1.367905405405516 0.63209459459450335 1.5147705253128161 0.91852444755677043 0.69631892236242632 1.2339059149979039 1.1508473222113209 0 1.425000000001621 1.425000000001621 0 1.367905405405516 1.367905405405516 0.63209459459450335 1.0206521739143919 1.592128906250684 0 0.92204894738342102 1.545944433704725 0.55253256161165365 0.86206805663365538 1.262904615478279 0 1.2339059149979039 1.1508473222113209 0 1.0206521739143919 1.592128906250684 0 1.2339059149979039 1.1508473222113209 0 1.425000000001621 1.425000000001621 0 1.367905405405516 1.367905405405516 0.63209459459450335 1.592128906250452 0.97934782608882909 0 0.92204894738342102 1.545944433704725 0.55253256161165365 0.86206805663365538 1.262904615478279 0 1.2339059149979039 1.1508473222113209 0 1.0362039003897969 1.032400726930619 0.49025282767413908 1.367905405405516 1.367905405405516 0.63209459459450335 1 0.99999999999999978 0.99999999999999978 1.5147705253128161 0.91852444755677043 0.69631892236242632 1.500000000000274 0.99883321436442229 1.16639307242336 1.367905405405516 1.367905405405516 0.63209459459450335 1.5147705253128161 0.91852444755677043 0.69631892236242632 1.500000000000274 0.99883321436442229 1.16639307242336 1.532347752213032 1.4746298915713509 1.076108883276101 1.367905405405516 1.367905405405516 0.63209459459450335 1 0.99999999999999978 0.99999999999999978 1.532347752213032 1.4746298915713509 1.076108883276101 0.86620738987133672 1.5000000000001401 1.0337672479303861 0.92204894738342102 1.545944433704725 0.55253256161165365 1.367905405405516 1.367905405405516 0.63209459459450335 1 0.99999999999999978 0.99999999999999978 0.86620738987133672 1.5000000000001401 1.0337672479303861 0.92204894738342102 1.545944433704725 0.55253256161165365 1.0362039003897969 1.032400726930619 0.49025282767413908 1.367905405405516 1.367905405405516 0.63209459459450335 1 0.99999999999999978 0.99999999999999978 1.367905405405516 1.367905405405516 0.63209459459450335 1 0.99999999999999978 0.99999999999999978 1.500000000000274 0.99883321436442229 1.16639307242336 1.532347752213032 1.4746298915713509 1.076108883276101 1.0362039003897969 1.032400726930619 0.49025282767413908 1.367905405405516 1.367905405405516 0.63209459459450335 1 0.99999999999999978 0.99999999999999978 1.5147705253128161 0.91852444755677043 0.69631892236242632 1.367905405405516 1.367905405405516 0.63209459459450335 1.2345896428056129 2 0.84641423559720264 1.532347752213032 1.4746298915713509 1.076108883276101 0.86620738987133672 1.5000000000001401 1.0337672479303861 0.92204894738342102 1.545944433704725 0.55253256161165365 1.367905405405516 1.367905405405516 0.63209459459450335 1.2345896428056129 2 0.84641423559720264 0.86620738987133672 1.5000000000001401 1.0337672479303861 0.92204894738342102 1.545944433704725 0.55253256161165365 1.425000000001911 2 0.5749999999984764 1.2345896428056129 2 0.84641423559720264 1.020652173914391 2 0.4078710937494115 0.92204894738342102 1.545944433704725 0.55253256161165365 1.367905405405516 1.367905405405516 0.63209459459450335 1.425000000001911 2 0.5749999999984764 1.2345896428056129 2 0.84641423559720264 1.367905405405516 1.367905405405516 0.63209459459450335 1.425000000001911 2 0.5749999999984764 1.2345896428056129 2 0.84641423559720264 1.532347752213032 1.4746298915713509 1.076108883276101 0.92204894738342102 1.545944433704725 0.55253256161165365 1.367905405405516 1.367905405405516 0.63209459459450335 1.425000000001911 2 0.5749999999984764 1.3863248792284211 2 0.25937977430496501 1.425000000001911 2 0.5749999999984764 1.2345896428056129 2 0.84641423559720264 1.532347752213032 1.4746298915713509 1.076108883276101 1.5921289062505879 2 1.0206521739114489 0.92204894738342102 1.545944433704725 0.55253256161165365 1.000000000000635 2 0.99999999999835598 1.2345896428056129 2 0.84641423559720264 0.86620738987133672 1.5000000000001401 1.0337672479303861 0.84920286521341182 2 0.76599646645041963 0.92204894738342102 1.545944433704725 0.55253256161165365 1.000000000000635 2 0.99999999999835598 1.2345896428056129 2 0.84641423559720264 0.84920286521341182 2 0.76599646645041963 0.92204894738342102 1.545944433704725 0.55253256161165365 1.2345896428056129 2 0.84641423559720264 1.020652173914391 2 0.4078710937494115 1.425000000001621 1.425000000001621 0 1.367905405405516 1.367905405405516 0.63209459459450335 1.383345565053743 1.737640911520447 0 1.671075651349931 1.671075651349931 0 1.367905405405516 1.367905405405516 0.63209459459450335 1.425000000001911 2 0.5749999999984764 1.3863248792284211 2 0.25937977430496501 1.685972222223028 2 0.31402777777693691 0.92204894738342102 1.545944433704725 0.55253256161165365 1.020652173914391 2 0.4078710937494115 1.383345565053743 1.737640911520447 0 1.3863248792284211 2 0.25937977430496501 0.92204894738342102 1.545944433704725 0.55253256161165365 1.367905405405516 1.367905405405516 0.63209459459450335 1.0206521739143919 1.592128906250684 0 1.383345565053743 1.737640911520447 0 1.425000000001621 1.425000000001621 0 1.367905405405516 1.367905405405516 0.63209459459450335 1.0206521739143919 1.592128906250684 0 1.383345565053743 1.737640911520447 0 0.92204894738342102 1.545944433704725 0.55253256161165365 1.425000000001911 2 0.5749999999984764 1.020652173914391 2 0.4078710937494115 1.3863248792284211 2 0.25937977430496501 0.92204894738342102 1.545944433704725 0.55253256161165365 1.020652173914391 2 0.4078710937494115 1.0206521739143919 1.592128906250684 0 1.383345565053743 1.737640911520447 0 0.92204894738342102 1.545944433704725 0.55253256161165365 1.367905405405516 1.367905405405516 0.63209459459450335 1.383345565053743 1.737640911520447 0 1.3863248792284211 2 0.25937977430496501 1.367905405405516 1.367905405405516 0.63209459459450335 1.383345565053743 1.737640911520447 0 1.3863248792284211 2 0.25937977430496501 1.671075651349931 1.671075651349931 0 0.80000000000332872 2 0 1.020652173914391 2 0.4078710937494115 1.200000000002774 2 0 1.0206521739143919 1.592128906250684 0 1.020652173914391 2 0.4078710937494115 1.200000000002774 2 0 1.0206521739143919 1.592128906250684 0 1.383345565053743 1.737640911520447 0 1.020652173914391 2 0.4078710937494115 1.200000000002774 2 0 1.383345565053743 1.737640911520447 0 1.3863248792284211 2 0.25937977430496501 1.200000000002774 2 0 1.383345565053743 1.737640911520447 0 1.3863248792284211 2 0.25937977430496501 1.6000000000000001 2 0 1.367905405405516 1.367905405405516 0.63209459459450335 1.685972222223028 2 0.31402777777693691 2 1.685972222223028 0.31402777777693691 1.740620225695106 2 0.62193599033678559 1.367905405405516 1.367905405405516 0.63209459459450335 1.671075651349931 1.671075651349931 0 2 1.685972222223028 0.31402777777693691 2 1.3863248792284211 0.25937977430496489 1.367905405405516 1.367905405405516 0.63209459459450335 1.685972222223028 2 0.31402777777693691 1.671075651349931 1.671075651349931 0 2 1.685972222223028 0.31402777777693691 1.367905405405516 1.367905405405516 0.63209459459450335 1.3863248792284211 2 0.25937977430496501 1.685972222223028 2 0.31402777777693691 1.671075651349931 1.671075651349931 0 1.383345565053743 1.737640911520447 0 1.3863248792284211 2 0.25937977430496501 1.6000000000000001 2 0 1.671075651349931 1.671075651349931 0 1.3863248792284211 2 0.25937977430496501 1.685972222223028 2 0.31402777777693691 1.6000000000000001 2 0 1.671075651349931 1.671075651349931 0 1.685972222223028 2 0.31402777777693691 1.6000000000000001 2 0 1.671075651349931 1.671075651349931 0 2 2 0 1.671075651349931 1.671075651349931 0 2 1.6000000000000001 0 2 1.3863248792284211 0.25937977430496489 1.737640911520401 1.3750846954886311 0 1.671075651349931 1.671075651349931 0 2 1.685972222223028 0.31402777777693691 2 1.6000000000000001 0 2 2 0 1.671075651349931 1.671075651349931 0 2 1.685972222223028 0.31402777777693691 2 1.6000000000000001 0 2 1.3863248792284211 0.25937977430496489 1.685972222223028 2 0.31402777777693691 1.671075651349931 1.671075651349931 0 2 1.685972222223028 0.31402777777693691 2 2 0 2 1.685972222223028 0.31402777777693691 2 2 0.39999999999911567 1.740620225695106 2 0.62193599033678559 2 1.740620225695106 0.62193599033678559 1.685972222223028 2 0.31402777777693691 2 1.685972222223028 0.31402777777693691 2 2 0 2 2 0.39999999999911567 1.685972222223028 2 0.31402777777693691 2 1.685972222223028 0.31402777777693691 2 2 0.39999999999911567 1.740620225695106 2 0.62193599033678559 1.425000000001911 2 0.5749999999984764 1.740620225695106 2 0.62193599033678559 1.532347752213032 1.4746298915713509 1.076108883276101 1.5921289062505879 2 1.0206521739114489 2 2 0.39999999999911567 1.740620225695106 2 0.62193599033678559 2 2 0.7999999999979498 2 1.740620225695106 0.62193599033678559 1.367905405405516 1.367905405405516 0.63209459459450335 1.740620225695106 2 0.62193599033678559 2 1.740620225695106 0.62193599033678559 1.532347752213032 1.4746298915713509 1.076108883276101 1.367905405405516 1.367905405405516 0.63209459459450335 2 1.740620225695106 0.62193599033678559 2 1.425000000001911 0.57499999999847629 1.532347752213032 1.4746298915713509 1.076108883276101 1.740620225695106 2 0.62193599033678559 2 1.740620225695106 0.62193599033678559 1.532347752213032 1.4746298915713509 1.076108883276101 2 1.592128906250589 1.0206521739114489 2 1.740620225695106 0.62193599033678559 2 1.425000000001911 0.57499999999847629 1.532347752213032 1.4746298915713509 1.076108883276101 2 1.592128906250589 1.0206521739114489 1.367905405405516 1.367905405405516 0.63209459459450335 1.425000000001911 2 0.5749999999984764 1.740620225695106 2 0.62193599033678559 1.532347752213032 1.4746298915713509 1.076108883276101 1.367905405405516 1.367905405405516 0.63209459459450335 1.425000000001911 2 0.5749999999984764 1.685972222223028 2 0.31402777777693691 1.740620225695106 2 0.62193599033678559 1.740620225695106 2 0.62193599033678559 1.532347752213032 1.4746298915713509 1.076108883276101 2 1.592128906250589 1.0206521739114489 1.5921289062505879 2 1.0206521739114489 1.367905405405516 1.367905405405516 0.63209459459450335 2 1.685972222223028 0.31402777777693691 2 1.740620225695106 0.62193599033678559 2 1.425000000001911 0.57499999999847629 1.367905405405516 1.367905405405516 0.63209459459450335 2 1.685972222223028 0.31402777777693691 1.740620225695106 2 0.62193599033678559 2 1.740620225695106 0.62193599033678559 1.740620225695106 2 0.62193599033678559 2 2 0.7999999999979498 2 1.592128906250589 1.0206521739114489 1.5921289062505879 2 1.0206521739114489 1.740620225695106 2 0.62193599033678559 2 2 0.7999999999979498 2 1.740620225695106 0.62193599033678559 2 1.592128906250589 1.0206521739114489 1.367905405405516 1.367905405405516 0.63209459459450335 2 1.2345896428056129 0.84641423559720252 1.5147705253128161 0.91852444755677043 0.69631892236242632 1.532347752213032 1.4746298915713509 1.076108883276101 2 1.2345896428056129 0.84641423559720252 1.5147705253128161 0.91852444755677043 0.69631892236242632 1.500000000000274 0.99883321436442229 1.16639307242336 1.532347752213032 1.4746298915713509 1.076108883276101 1.367905405405516 1.367905405405516 0.63209459459450335 2 1.425000000001911 0.57499999999847629 2 1.2345896428056129 0.84641423559720252 1.532347752213032 1.4746298915713509 1.076108883276101 2 1.425000000001911 0.57499999999847629 2 1.2345896428056129 0.84641423559720252 2 1.020652173914391 0.40787109374941138 1.5147705253128161 0.91852444755677043 0.69631892236242632 2 1.425000000001911 0.57499999999847629 2 1.2345896428056129 0.84641423559720252 1.532347752213032 1.4746298915713509 1.076108883276101 2 1.592128906250589 1.0206521739114489 1.367905405405516 1.367905405405516 0.63209459459450335 2 1.425000000001911 0.57499999999847629 2 1.2345896428056129 0.84641423559720252 1.5147705253128161 0.91852444755677043 0.69631892236242632 1.367905405405516 1.367905405405516 0.63209459459450335 2 1.425000000001911 0.57499999999847629 2 1.020652173914391 0.40787109374941138 1.5147705253128161 0.91852444755677043 0.69631892236242632 2 1.000000000000635 0.99999999999835576 2 1.2345896428056129 0.84641423559720252 1.5147705253128161 0.91852444755677043 0.69631892236242632 2 0.84920286521341182 0.76599646645041952 2 1.000000000000635 0.99999999999835576 2 1.2345896428056129 0.84641423559720252 1.5147705253128161 0.91852444755677043 0.69631892236242632 1.500000000000274 0.99883321436442229 1.16639307242336 2 1.2345896428056129 0.84641423559720252 2 1.020652173914391 0.40787109374941138 1.5147705253128161 0.91852444755677043 0.69631892236242632 2 0.84920286521341182 0.76599646645041952 1.367905405405516 1.367905405405516 0.63209459459450335 2 1.020652173914391 0.40787109374941138 2 1.3863248792284211 0.25937977430496489 1.737640911520401 1.3750846954886311 0 1.367905405405516 1.367905405405516 0.63209459459450335 2 1.425000000001911 0.57499999999847629 2 1.020652173914391 0.40787109374941138 2 1.3863248792284211 0.25937977430496489 1.425000000001621 1.425000000001621 0 1.367905405405516 1.367905405405516 0.63209459459450335 1.737640911520401 1.3750846954886311 0 1.592128906250452 0.97934782608882909 0 1.425000000001621 1.425000000001621 0 1.367905405405516 1.367905405405516 0.63209459459450335 1.671075651349931 1.671075651349931 0 1.737640911520401 1.3750846954886311 0 1.367905405405516 1.367905405405516 0.63209459459450335 2 1.685972222223028 0.31402777777693691 2 1.425000000001911 0.57499999999847629 2 1.3863248792284211 0.25937977430496489 1.367905405405516 1.367905405405516 0.63209459459450335 1.671075651349931 1.671075651349931 0 2 1.3863248792284211 0.25937977430496489 1.737640911520401 1.3750846954886311 0 1.367905405405516 1.367905405405516 0.63209459459450335 2 1.020652173914391 0.40787109374941138 1.592128906250452 0.97934782608882909 0 1.5147705253128161 0.91852444755677043 0.69631892236242632 1.367905405405516 1.367905405405516 0.63209459459450335 2 1.020652173914391 0.40787109374941138 1.737640911520401 1.3750846954886311 0 1.592128906250452 0.97934782608882909 0 2 1.6000000000000001 0 2 1.3863248792284211 0.25937977430496489 1.737640911520401 1.3750846954886311 0 2 1.200000000002774 0 2 1.020652173914391 0.40787109374941138 2 1.200000000002774 0 2 0.80000000000332872 0 1.592128906250452 0.97934782608882909 0 2 1.020652173914391 0.40787109374941138 2 1.3863248792284211 0.25937977430496489 1.737640911520401 1.3750846954886311 0 2 1.200000000002774 0 2 1.020652173914391 0.40787109374941138 1.737640911520401 1.3750846954886311 0 2 1.200000000002774 0 1.592128906250452 0.97934782608882909 0 2 1.020652173914391 0.40787109374941138 1.592128906250452 0.97934782608882909 0 1.5919037892070651 0.60245787335453693 0.40912424902564543 1.5147705253128161 0.91852444755677043 0.69631892236242632 2 1.020652173914391 0.40787109374941138 2 0.80000000000332872 0 1.592128906250452 0.97934782608882909 0 2 0.62596376811713206 0.26340755208327649 2 0.80000000000332872 0 1.592128906250452 0.97934782608882909 0 2 0.62596376811713206 0.26340755208327649 1.7349990699406379 0.62412558229936677 0 2 1.020652173914391 0.40787109374941138 1.592128906250452 0.97934782608882909 0 2 0.62596376811713206 0.26340755208327649 1.5919037892070651 0.60245787335453693 0.40912424902564543 2 1.020652173914391 0.40787109374941138 2 0.62596376811713206 0.26340755208327649 1.5919037892070651 0.60245787335453693 0.40912424902564543 2 0.57499999999943696 0.57500000000055196 2 0.62596376811713206 0.26340755208327649 1.5919037892070651 0.60245787335453693 0.40912424902564543 2 0.3341666666668387 0.3341666666664192 2 0.57499999999943696 0.57500000000055196 2 0.62596376811713206 0.26340755208327649 1.5919037892070651 0.60245787335453693 0.40912424902564543 1.7349990699406379 0.62412558229936677 0 2 0.3341666666668387 0.3341666666664192 1.592128906250452 0.97934782608882909 0 1.5919037892070651 0.60245787335453693 0.40912424902564543 1.7349990699406379 0.62412558229936677 0 1.424999999999718 0.57500000000001494 0 1.592128906250452 0.97934782608882909 0 2 0.62596376811713206 0.26340755208327649 1.5919037892070651 0.60245787335453693 0.40912424902564543 1.7349990699406379 0.62412558229936677 0 1.5919037892070651 0.60245787335453693 0.40912424902564543 1.7349990699406379 0.62412558229936677 0 1.665833333333407 0.33416666666669298 0 1.424999999999718 0.57500000000001494 0 2 0.80000000000332872 0 2 0.62596376811713206 0.26340755208327649 1.7349990699406379 0.62412558229936677 0 2 0.40000000000166441 0 1.5919037892070651 0.60245787335453693 0.40912424902564543 2 0.3341666666668387 0.3341666666664192 1.665833333333216 0 0.33416666666646572 2 0.26500093005947722 0.62412558229727921 1.5919037892070651 0.60245787335453693 0.40912424902564543 1.665833333333216 0 0.33416666666646572 1.665833333333407 0.33416666666669298 0 1.3758744177011391 0 0.26500093005953979 2 0.40000000000166441 0 2 0.3341666666668387 0.3341666666664192 2 0 0 1.665833333333407 0.33416666666669298 0 1.5919037892070651 0.60245787335453693 0.40912424902564543 1.665833333333216 0 0.33416666666646572 1.425000000000477 0 0.57500000000037066 1.7365924479167549 0 0.62596376811523924 1.5919037892070651 0.60245787335453693 0.40912424902564543 1.665833333333407 0.33416666666669298 0 1.374036231883393 0.26340755208345812 0 1.3758744177011391 0 0.26500093005953979 1.7349990699406379 0.62412558229936677 0 2 0.40000000000166441 0 2 0.3341666666668387 0.3341666666664192 1.665833333333407 0.33416666666669298 0 1.5919037892070651 0.60245787335453693 0.40912424902564543 2 0.3341666666668387 0.3341666666664192 1.665833333333216 0 0.33416666666646572 1.665833333333407 0.33416666666669298 0 1.5919037892070651 0.60245787335453693 0.40912424902564543 1.665833333333216 0 0.33416666666646572 1.3758744177011391 0 0.26500093005953979 1.425000000000477 0 0.57500000000037066 1.5919037892070651 0.60245787335453693 0.40912424902564543 1.665833333333216 0 0.33416666666646572 1.7365924479167549 0 0.62596376811523924 2 0.26500093005947722 0.62412558229727921 2 0.62596376811713206 0.26340755208327649 1.7349990699406379 0.62412558229936677 0 2 0.40000000000166441 0 2 0.3341666666668387 0.3341666666664192 1.5919037892070651 0.60245787335453693 0.40912424902564543 2 0.3341666666668387 0.3341666666664192 2 0.26500093005947722 0.62412558229727921 2 0.57499999999943696 0.57500000000055196 2 0 0.39999999999911567 1.665833333333216 0 0.33416666666646572 1.7365924479167549 0 0.62596376811523924 2 0.26500093005947722 0.62412558229727921 2 0.3341666666668387 0.3341666666664192 2 0 0.39999999999911567 2 0 0 1.665833333333216 0 0.33416666666646572 2 0.3341666666668387 0.3341666666664192 2 0 0.39999999999911567 1.665833333333216 0 0.33416666666646572 2 0.26500093005947722 0.62412558229727921 2 0.3341666666668387 0.3341666666664192 2 0 0 1.665833333333216 0 0.33416666666646572 1.665833333333407 0.33416666666669298 0 1.5999999999989469 0 0 1.665833333333407 0.33416666666669298 0 1.374036231883393 0.26340755208345812 0 1.3758744177011391 0 0.26500093005953979 2 0 0 1.5999999999989469 0 0 1.665833333333216 0 0.33416666666646572 1.665833333333407 0.33416666666669298 0 1.5999999999989469 0 0 1.665833333333216 0 0.33416666666646572 1.665833333333407 0.33416666666669298 0 1.3758744177011391 0 0.26500093005953979 1.5919037892070651 0.60245787335453693 0.40912424902564543 1.665833333333407 0.33416666666669298 0 1.374036231883393 0.26340755208345812 0 1.424999999999718 0.57500000000001494 0 1.5919037892070651 0.60245787335453693 0.40912424902564543 1.7349990699406379 0.62412558229936677 0 2 0.3341666666668387 0.3341666666664192 1.665833333333407 0.33416666666669298 0 1.5919037892070651 0.60245787335453693 0.40912424902564543 1.374036231883393 0.26340755208345812 0 1.3758744177011391 0 0.26500093005953979 1.19811642196055 0.57789440443542173 0.58983547034755146 1.374036231883393 0.26340755208345812 0 1.3758744177011391 0 0.26500093005953979 1.0206521739124059 0 0.40787109374997071 1.19811642196055 0.57789440443542173 0.58983547034755146 0.97934782608699855 0.40787109375058261 0 1.374036231883393 0.26340755208345812 0 1.424999999999718 0.57500000000001494 0 1.19811642196055 0.57789440443542173 0.58983547034755146 1.5919037892070651 0.60245787335453693 0.40912424902564543 1.3758744177011391 0 0.26500093005953979 1.19811642196055 0.57789440443542173 0.58983547034755146 1.425000000000477 0 0.57500000000037066 0.97934782608699855 0.40787109375058261 0 1.374036231883393 0.26340755208345812 0 1.0206521739124059 0 0.40787109374997071 1.19811642196055 0.57789440443542173 0.58983547034755146 1.3758744177011391 0 0.26500093005953979 1.0206521739124059 0 0.40787109374997071 1.19811642196055 0.57789440443542173 0.58983547034755146 1.425000000000477 0 0.57500000000037066 1.5999999999989469 0 0 1.374036231883393 0.26340755208345812 0 1.3758744177011391 0 0.26500093005953979 1.1999999999978941 0 0 0.97934782608699855 0.40787109375058261 0 1.374036231883393 0.26340755208345812 0 1.1999999999978941 0 0 1.0206521739124059 0 0.40787109374997071 1.374036231883393 0.26340755208345812 0 1.3758744177011391 0 0.26500093005953979 1.1999999999978941 0 0 1.0206521739124059 0 0.40787109374997071 1.5919037892070651 0.60245787335453693 0.40912424902564543 1.151058336609301 0.76640924832138713 0 1.424999999999718 0.57500000000001494 0 1.19811642196055 0.57789440443542173 0.58983547034755146 1.2339059149979039 1.1508473222113209 0 1.592128906250452 0.97934782608882909 0 1.5919037892070651 0.60245787335453693 0.40912424902564543 1.5147705253128161 0.91852444755677043 0.69631892236242632 1.0362039003897969 1.032400726930619 0.49025282767413908 1.5919037892070651 0.60245787335453693 0.40912424902564543 1.151058336609301 0.76640924832138713 0 1.19811642196055 0.57789440443542173 0.58983547034755146 1.2339059149979039 1.1508473222113209 0 1.0362039003897969 1.032400726930619 0.49025282767413908 1.5919037892070651 0.60245787335453693 0.40912424902564543 1.151058336609301 0.76640924832138713 0 1.2339059149979039 1.1508473222113209 0 1.0362039003897969 1.032400726930619 0.49025282767413908 1.5919037892070651 0.60245787335453693 0.40912424902564543 1.5147705253128161 0.91852444755677043 0.69631892236242632 0.97934782608699855 0.40787109375058261 0 1.151058336609301 0.76640924832138713 0 1.424999999999718 0.57500000000001494 0 1.19811642196055 0.57789440443542173 0.58983547034755146 1.2339059149979039 1.1508473222113209 0 1.592128906250452 0.97934782608882909 0 1.5919037892070651 0.60245787335453693 0.40912424902564543 1.151058336609301 0.76640924832138713 0 1.5919037892070651 0.60245787335453693 0.40912424902564543 1.374036231883393 0.26340755208345812 0 1.424999999999718 0.57500000000001494 0 1.19811642196055 0.57789440443542173 0.58983547034755146 0.97934782608699855 0.40787109375058261 0 0.77789883252811276 0.39570480562063071 0.39543357482263919 1.151058336609301 0.76640924832138713 0 1.19811642196055 0.57789440443542173 0.58983547034755146 0.77789883252811276 0.39570480562063071 0.39543357482263919 1.0362039003897969 1.032400726930619 0.49025282767413908 1.151058336609301 0.76640924832138713 0 1.19811642196055 0.57789440443542173 0.58983547034755146 1.2339059149979039 1.1508473222113209 0 1.0000000000013569 1.0000000000020031 0 1.0362039003897969 1.032400726930619 0.49025282767413908 1.151058336609301 0.76640924832138713 0 1.592128906250452 0.97934782608882909 0 1.5919037892070651 0.60245787335453693 0.40912424902564543 1.151058336609301 0.76640924832138713 0 1.424999999999718 0.57500000000001494 0 1 0.99999999999999978 0.99999999999999978 1.19811642196055 0.57789440443542173 0.58983547034755146 1.5137040598352169 0.53344955263790295 0.97801656337898046 0.98528458949709452 0.48395451161029718 1.014715410503322 1.0362039003897969 1.032400726930619 0.49025282767413908 1.5919037892070651 0.60245787335453693 0.40912424902564543 1.19811642196055 0.57789440443542173 0.58983547034755146 1.5147705253128161 0.91852444755677043 0.69631892236242632 1 0.99999999999999978 0.99999999999999978 1.19811642196055 0.57789440443542173 0.58983547034755146 1.5137040598352169 0.53344955263790295 0.97801656337898046 1.5147705253128161 0.91852444755677043 0.69631892236242632 1 0.99999999999999978 0.99999999999999978 1.5137040598352169 0.53344955263790295 0.97801656337898046 1.5147705253128161 0.91852444755677043 0.69631892236242632 1.500000000000274 0.99883321436442229 1.16639307242336 1.5919037892070651 0.60245787335453693 0.40912424902564543 1.19811642196055 0.57789440443542173 0.58983547034755146 1.5137040598352169 0.53344955263790295 0.97801656337898046 1.5147705253128161 0.91852444755677043 0.69631892236242632 1.0362039003897969 1.032400726930619 0.49025282767413908 1 0.99999999999999978 0.99999999999999978 1.19811642196055 0.57789440443542173 0.58983547034755146 1.5147705253128161 0.91852444755677043 0.69631892236242632 1.0206521739124059 0 0.40787109374997071 1.19811642196055 0.57789440443542173 0.58983547034755146 1.425000000000477 0 0.57500000000037066 1.2335907516799069 0 0.84894166339084287 1.19811642196055 0.57789440443542173 0.58983547034755146 1.425000000000477 0 0.57500000000037066 1.2335907516799069 0 0.84894166339084287 1.5137040598352169 0.53344955263790295 0.97801656337898046 1.19811642196055 0.57789440443542173 0.58983547034755146 1.2335907516799069 0 0.84894166339084287 1.5137040598352169 0.53344955263790295 0.97801656337898046 0.98528458949709452 0.48395451161029718 1.014715410503322 1.5919037892070651 0.60245787335453693 0.40912424902564543 1.19811642196055 0.57789440443542173 0.58983547034755146 1.425000000000477 0 0.57500000000037066 1.5137040598352169 0.53344955263790295 0.97801656337898046 0.849152677791018 0 0.76609408500333809 1.19811642196055 0.57789440443542173 0.58983547034755146 1.2335907516799069 0 0.84894166339084287 0.98528458949709452 0.48395451161029718 1.014715410503322 0.849152677791018 0 0.76609408500333809 1.0206521739124059 0 0.40787109374997071 1.19811642196055 0.57789440443542173 0.58983547034755146 1.2335907516799069 0 0.84894166339084287 1.425000000000477 0 0.57500000000037066 1.2335907516799069 0 0.84894166339084287 1.5137040598352169 0.53344955263790295 0.97801656337898046 1.592128906250083 0 1.020652173912294 0.849152677791018 0 0.76609408500333809 1.2335907516799069 0 0.84894166339084287 1.0000000000002141 0 0.99999999999992895 0.98528458949709452 0.48395451161029718 1.014715410503322 1.425000000000477 0 0.57500000000037066 1.7365924479167549 0 0.62596376811523924 1.5137040598352169 0.53344955263790295 0.97801656337898046 1.592128906250083 0 1.020652173912294 1.5919037892070651 0.60245787335453693 0.40912424902564543 1.425000000000477 0 0.57500000000037066 1.7365924479167549 0 0.62596376811523924 1.5137040598352169 0.53344955263790295 0.97801656337898046 1.5919037892070651 0.60245787335453693 0.40912424902564543 2 0.26500093005947722 0.62412558229727921 1.5137040598352169 0.53344955263790295 0.97801656337898046 2 0.57499999999943696 0.57500000000055196 1.5919037892070651 0.60245787335453693 0.40912424902564543 1.7365924479167549 0 0.62596376811523924 2 0.26500093005947722 0.62412558229727921 1.5137040598352169 0.53344955263790295 0.97801656337898046 1.7365924479167549 0 0.62596376811523924 2 0.26500093005947722 0.62412558229727921 2 0.40787109375045588 0.9793478260856453 1.5137040598352169 0.53344955263790295 0.97801656337898046 1.7365924479167549 0 0.62596376811523924 2 0.40787109375045588 0.9793478260856453 1.5137040598352169 0.53344955263790295 0.97801656337898046 1.592128906250083 0 1.020652173912294 2 0 0.7999999999979498 2 0.40787109375045588 0.9793478260856453 2 0 1.1999999999978941 1.592128906250083 0 1.020652173912294 1.7365924479167549 0 0.62596376811523924 2 0 0.7999999999979498 2 0.26500093005947722 0.62412558229727921 2 0.40787109375045588 0.9793478260856453 1.7365924479167549 0 0.62596376811523924 2 0 0.7999999999979498 2 0.40787109375045588 0.9793478260856453 1.592128906250083 0 1.020652173912294 2 0 0.39999999999911567 1.7365924479167549 0 0.62596376811523924 2 0 0.7999999999979498 2 0.26500093005947722 0.62412558229727921 2 0.26500093005947722 0.62412558229727921 2 0.40787109375045588 0.9793478260856453 1.5137040598352169 0.53344955263790295 0.97801656337898046 2 0.57499999999943696 0.57500000000055196 1.5919037892070651 0.60245787335453693 0.40912424902564543 1.5137040598352169 0.53344955263790295 0.97801656337898046 2 0.57499999999943696 0.57500000000055196 2 0.84920286521341182 0.76599646645041952 2 0.40787109375045588 0.9793478260856453 1.5137040598352169 0.53344955263790295 0.97801656337898046 2 0.57499999999943696 0.57500000000055196 2 0.84920286521341182 0.76599646645041952 2 0.40787109375045588 0.9793478260856453 1.5137040598352169 0.53344955263790295 0.97801656337898046 2 0.84920286521341182 0.76599646645041952 2 0.73668669749101645 1.139311376982779 1.5919037892070651 0.60245787335453693 0.40912424902564543 1.5137040598352169 0.53344955263790295 0.97801656337898046 1.5147705253128161 0.91852444755677043 0.69631892236242632 2 0.84920286521341182 0.76599646645041952 2 1.020652173914391 0.40787109374941138 1.5919037892070651 0.60245787335453693 0.40912424902564543 1.5147705253128161 0.91852444755677043 0.69631892236242632 2 0.84920286521341182 0.76599646645041952 2 1.020652173914391 0.40787109374941138 1.5919037892070651 0.60245787335453693 0.40912424902564543 2 0.57499999999943696 0.57500000000055196 2 0.84920286521341182 0.76599646645041952 2 1.000000000000635 0.99999999999835576 1.5137040598352169 0.53344955263790295 0.97801656337898046 1.5147705253128161 0.91852444755677043 0.69631892236242632 1.500000000000274 0.99883321436442229 1.16639307242336 2 1.000000000000635 0.99999999999835576 1.5137040598352169 0.53344955263790295 0.97801656337898046 1.5147705253128161 0.91852444755677043 0.69631892236242632 2 0.84920286521341182 0.76599646645041952 2 1.000000000000635 0.99999999999835576 1.5137040598352169 0.53344955263790295 0.97801656337898046 2 0.84920286521341182 0.76599646645041952 2 0.73668669749101645 1.139311376982779 2 1.000000000000635 0.99999999999835576 1.5137040598352169 0.53344955263790295 0.97801656337898046 1.500000000000274 0.99883321436442229 1.16639307242336 2 0.73668669749101645 1.139311376982779 2 1.000000000000635 0.99999999999835576 1.500000000000274 0.99883321436442229 1.16639307242336 2 0.73668669749101645 1.139311376982779 2 1.1510583366092999 1.2335907516785649 1.500000000000274 0.99883321436442229 1.16639307242336 1.6049090527780649 0.68972037691419241 1.610520945894512 2 0.97934782608697624 1.5921289062492749 1.416074976583422 1.0640336752305579 1.5993145461844129 1.500000000000274 0.99883321436442229 1.16639307242336 2 0.73668669749101645 1.139311376982779 1.592055221591679 0.37998381655983821 1.346767458941071 1.6049090527780649 0.68972037691419241 1.610520945894512 1.5137040598352169 0.53344955263790295 0.97801656337898046 1.500000000000274 0.99883321436442229 1.16639307242336 2 0.73668669749101645 1.139311376982779 1.592055221591679 0.37998381655983821 1.346767458941071 1.500000000000274 0.99883321436442229 1.16639307242336 2 0.73668669749101645 1.139311376982779 2 0.97934782608697624 1.5921289062492749 2 1.1510583366092999 1.2335907516785649 1.500000000000274 0.99883321436442229 1.16639307242336 2 0.73668669749101645 1.139311376982779 1.6049090527780649 0.68972037691419241 1.610520945894512 2 0.97934782608697624 1.5921289062492749 2 0.57500000000210227 1.4249999999987459 2 0.73668669749101645 1.139311376982779 1.592055221591679 0.37998381655983821 1.346767458941071 1.6049090527780649 0.68972037691419241 1.610520945894512 2 0.57500000000210227 1.4249999999987459 2 0.73668669749101645 1.139311376982779 1.6049090527780649 0.68972037691419241 1.610520945894512 2 0.97934782608697624 1.5921289062492749 2 0.40787109375045588 0.9793478260856453 1.5137040598352169 0.53344955263790295 0.97801656337898046 2 0.73668669749101645 1.139311376982779 1.592055221591679 0.37998381655983821 1.346767458941071 2 0.40787109375045588 0.9793478260856453 2 0.57500000000210227 1.4249999999987459 2 0.73668669749101645 1.139311376982779 1.592055221591679 0.37998381655983821 1.346767458941071 2 0.40787109375045588 0.9793478260856453 1.5137040598352169 0.53344955263790295 0.97801656337898046 1.592128906250083 0 1.020652173912294 1.592055221591679 0.37998381655983821 1.346767458941071 2 0.40787109375045588 0.9793478260856453 2 0.26340755208402722 1.3740362318826671 2 0 1.1999999999978941 1.592055221591679 0.37998381655983821 1.346767458941071 2 0.57500000000210227 1.4249999999987459 2 0.26340755208402722 1.3740362318826671 1.592055221591679 0.37998381655983821 1.346767458941071 2 0.33416666666757772 1.665833333332104 2 0.40787109375045588 0.9793478260856453 2 0.57500000000210227 1.4249999999987459 2 0.26340755208402722 1.3740362318826671 1.592055221591679 0.37998381655983821 1.346767458941071 2 0.26340755208402722 1.3740362318826671 1.734999069940508 0 1.3758744177011299 1.592055221591679 0.37998381655983821 1.346767458941071 2 0.33416666666757772 1.665833333332104 2 0.26340755208402722 1.3740362318826671 2 0 1.1999999999978941 1.734999069940508 0 1.3758744177011299 2 0 1.5999999999989469 2 0.26340755208402722 1.3740362318826671 2 0 1.1999999999978941 1.734999069940508 0 1.3758744177011299 1.592055221591679 0.37998381655983821 1.346767458941071 2 0.40787109375045588 0.9793478260856453 2 0 1.1999999999978941 1.592128906250083 0 1.020652173912294 1.592055221591679 0.37998381655983821 1.346767458941071 2 0 1.1999999999978941 1.592128906250083 0 1.020652173912294 1.734999069940508 0 1.3758744177011299 1.592055221591679 0.37998381655983821 1.346767458941071 1.592128906250083 0 1.020652173912294 1.734999069940508 0 1.3758744177011299 1.592055221591679 0.37998381655983821 1.346767458941071 1.4249999999997249 0 1.425000000000185 1.734999069940508 0 1.3758744177011299 1.592055221591679 0.37998381655983821 1.346767458941071 1.4249999999997249 0 1.425000000000185 1.6658333333334381 0 1.665833333333264 1.592055221591679 0.37998381655983821 1.346767458941071 1.4249999999997249 0 1.425000000000185 1.2526822839324241 0.59772980398008735 1.402270196020621 1.3740362318847941 0 1.736592447916669 1.5137040598352169 0.53344955263790295 0.97801656337898046 1.592055221591679 0.37998381655983821 1.346767458941071 1.1393113769850489 0 1.263313302510394 1.2526822839324241 0.59772980398008735 1.402270196020621 1.5137040598352169 0.53344955263790295 0.97801656337898046 1.592128906250083 0 1.020652173912294 1.592055221591679 0.37998381655983821 1.346767458941071 1.1393113769850489 0 1.263313302510394 1.4249999999997249 0 1.425000000000185 1.1393113769850489 0 1.263313302510394 1.2526822839324241 0.59772980398008735 1.402270196020621 0.97934782608803661 0 1.5921289062498969 1.2335907516799069 0 0.84894166339084287 1.5137040598352169 0.53344955263790295 0.97801656337898046 1.1393113769850489 0 1.263313302510394 0.98528458949709452 0.48395451161029718 1.014715410503322 1.5137040598352169 0.53344955263790295 0.97801656337898046 1.1393113769850489 0 1.263313302510394 1.2526822839324241 0.59772980398008735 1.402270196020621 0.98528458949709452 0.48395451161029718 1.014715410503322 1.592055221591679 0.37998381655983821 1.346767458941071 1.4249999999997249 0 1.425000000000185 1.1393113769850489 0 1.263313302510394 1.2526822839324241 0.59772980398008735 1.402270196020621 1.2335907516799069 0 0.84894166339084287 1.5137040598352169 0.53344955263790295 0.97801656337898046 1.592128906250083 0 1.020652173912294 1.1393113769850489 0 1.263313302510394 1.1393113769850489 0 1.263313302510394 1.2526822839324241 0.59772980398008735 1.402270196020621 0.98528458949709452 0.48395451161029718 1.014715410503322 0.97934782608803661 0 1.5921289062498969 1.592128906250083 0 1.020652173912294 1.592055221591679 0.37998381655983821 1.346767458941071 1.4249999999997249 0 1.425000000000185 1.1393113769850489 0 1.263313302510394 1.2335907516799069 0 0.84894166339084287 1.0000000000002141 0 0.99999999999992895 1.1393113769850489 0 1.263313302510394 0.98528458949709452 0.48395451161029718 1.014715410503322 1.500000000000274 0.99883321436442229 1.16639307242336 1.2526822839324241 0.59772980398008735 1.402270196020621 1.416074976583422 1.0640336752305579 1.5993145461844129 0.98528458949676634 0.98528458949702458 1.516045488389935 1.500000000000274 0.99883321436442229 1.16639307242336 1.592055221591679 0.37998381655983821 1.346767458941071 1.2526822839324241 0.59772980398008735 1.402270196020621 1.6049090527780649 0.68972037691419241 1.610520945894512 1.5137040598352169 0.53344955263790295 0.97801656337898046 1.500000000000274 0.99883321436442229 1.16639307242336 1.592055221591679 0.37998381655983821 1.346767458941071 1.2526822839324241 0.59772980398008735 1.402270196020621 1 0.99999999999999978 0.99999999999999978 1.500000000000274 0.99883321436442229 1.16639307242336 1.2526822839324241 0.59772980398008735 1.402270196020621 0.98528458949676634 0.98528458949702458 1.516045488389935 1 0.99999999999999978 0.99999999999999978 1.5137040598352169 0.53344955263790295 0.97801656337898046 1.500000000000274 0.99883321436442229 1.16639307242336 1.2526822839324241 0.59772980398008735 1.402270196020621 1 0.99999999999999978 0.99999999999999978 1.5137040598352169 0.53344955263790295 0.97801656337898046 1.2526822839324241 0.59772980398008735 1.402270196020621 0.98528458949709452 0.48395451161029718 1.014715410503322 1 0.99999999999999978 0.99999999999999978 1.2526822839324241 0.59772980398008735 1.402270196020621 0.98528458949676634 0.98528458949702458 1.516045488389935 0.98528458949709452 0.48395451161029718 1.014715410503322 1.500000000000274 0.99883321436442229 1.16639307242336 1.2526822839324241 0.59772980398008735 1.402270196020621 1.6049090527780649 0.68972037691419241 1.610520945894512 1.416074976583422 1.0640336752305579 1.5993145461844129 1.2526822839324241 0.59772980398008735 1.402270196020621 1.425000000001911 0.57499999999847629 2 1.3780640096633039 0.25937977430496151 2 1.6049090527780649 0.68972037691419241 1.610520945894512 1.2526822839324241 0.59772980398008735 1.402270196020621 1.425000000001911 0.57499999999847629 2 1.1535857644027949 0.76541035719405237 2 0.979347826088805 0.40787109374939401 2 1.2526822839324241 0.59772980398008735 1.402270196020621 1.1535857644027949 0.76541035719405237 2 1.6049090527780649 0.68972037691419241 1.610520945894512 1.416074976583422 1.0640336752305579 1.5993145461844129 1.2526822839324241 0.59772980398008735 1.402270196020621 1.1535857644027949 0.76541035719405237 2 1.416074976583422 1.0640336752305579 1.5993145461844129 0.98528458949676634 0.98528458949702458 1.516045488389935 1.2526822839324241 0.59772980398008735 1.402270196020621 1.1535857644027949 0.76541035719405237 2 0.98528458949676634 0.98528458949702458 1.516045488389935 0.979347826088805 0.40787109374939401 2 1.2526822839324241 0.59772980398008735 1.402270196020621 1.425000000001911 0.57499999999847629 2 1.1535857644027949 0.76541035719405237 2 1.6049090527780649 0.68972037691419241 1.610520945894512 1.425000000001911 0.57499999999847629 2 1.1535857644027949 0.76541035719405237 2 1.6049090527780649 0.68972037691419241 1.610520945894512 1.5921289062508031 0.97934782608568471 2 1.1535857644027949 0.76541035719405237 2 1.5921289062508031 0.97934782608568471 2 1.416074976583422 1.0640336752305579 1.5993145461844129 1.2340035335497621 1.1507971347859809 2 1.1535857644027949 0.76541035719405237 2 1.6049090527780649 0.68972037691419241 1.610520945894512 1.5921289062508031 0.97934782608568471 2 1.416074976583422 1.0640336752305579 1.5993145461844129 1.1535857644027949 0.76541035719405237 2 1.000000000001781 0.99999999999894518 2 1.416074976583422 1.0640336752305579 1.5993145461844129 0.98528458949676634 0.98528458949702458 1.516045488389935 1.1535857644027949 0.76541035719405237 2 1.000000000001781 0.99999999999894518 2 1.416074976583422 1.0640336752305579 1.5993145461844129 1.2340035335497621 1.1507971347859809 2 1.592055221591679 0.37998381655983821 1.346767458941071 1.2526822839324241 0.59772980398008735 1.402270196020621 1.3780640096633039 0.25937977430496151 2 1.6049090527780649 0.68972037691419241 1.610520945894512 1.592055221591679 0.37998381655983821 1.346767458941071 1.2526822839324241 0.59772980398008735 1.402270196020621 1.3740362318847941 0 1.736592447916669 1.3780640096633039 0.25937977430496151 2 1.4249999999997249 0 1.425000000000185 1.2526822839324241 0.59772980398008735 1.402270196020621 1.3740362318847941 0 1.736592447916669 0.97934782608803661 0 1.5921289062498969 1.2526822839324241 0.59772980398008735 1.402270196020621 1.425000000001911 0.57499999999847629 2 1.3780640096633039 0.25937977430496151 2 0.979347826088805 0.40787109374939401 2 1.2526822839324241 0.59772980398008735 1.402270196020621 1.3740362318847941 0 1.736592447916669 0.97934782608803661 0 1.5921289062498969 0.979347826088805 0.40787109374939401 2 1.2526822839324241 0.59772980398008735 1.402270196020621 1.3740362318847941 0 1.736592447916669 1.3780640096633039 0.25937977430496151 2 0.979347826088805 0.40787109374939401 2 1.200000000002774 0 2 1.3740362318847941 0 1.736592447916669 1.3780640096633039 0.25937977430496151 2 0.979347826088805 0.40787109374939401 2 1.200000000002774 0 2 1.3740362318847941 0 1.736592447916669 0.97934782608803661 0 1.5921289062498969 0.979347826088805 0.40787109374939401 2 1.200000000002774 0 2 1.3740362318847941 0 1.736592447916669 1.3780640096633039 0.25937977430496151 2 1.6000000000000001 0 2 1.592055221591679 0.37998381655983821 1.346767458941071 1.685972222223028 0.31402777777693702 2 1.6658333333334381 0 1.665833333333264 2 0.33416666666757772 1.665833333332104 1.592055221591679 0.37998381655983821 1.346767458941071 1.3780640096633039 0.25937977430496151 2 1.685972222223028 0.31402777777693702 2 1.6658333333334381 0 1.665833333333264 1.592055221591679 0.37998381655983821 1.346767458941071 1.685972222223028 0.31402777777693702 2 2 0.33416666666757772 1.665833333332104 1.6049090527780649 0.68972037691419241 1.610520945894512 1.425000000001911 0.57499999999847629 2 1.3780640096633039 0.25937977430496151 2 1.685972222223028 0.31402777777693702 2 1.6049090527780649 0.68972037691419241 1.610520945894512 1.592055221591679 0.37998381655983821 1.346767458941071 1.3780640096633039 0.25937977430496151 2 1.685972222223028 0.31402777777693702 2 1.6049090527780649 0.68972037691419241 1.610520945894512 1.592055221591679 0.37998381655983821 1.346767458941071 1.3740362318847941 0 1.736592447916669 1.3780640096633039 0.25937977430496151 2 1.6658333333334381 0 1.665833333333264 1.734999069940508 0 1.3758744177011299 1.592055221591679 0.37998381655983821 1.346767458941071 1.6658333333334381 0 1.665833333333264 2 0.33416666666757772 1.665833333332104 1.592055221591679 0.37998381655983821 1.346767458941071 1.4249999999997249 0 1.425000000000185 1.3740362318847941 0 1.736592447916669 1.6658333333334381 0 1.665833333333264 1.3780640096633039 0.25937977430496151 2 1.685972222223028 0.31402777777693702 2 1.6658333333334381 0 1.665833333333264 1.6000000000000001 0 2 1.3740362318847941 0 1.736592447916669 1.3780640096633039 0.25937977430496151 2 1.6658333333334381 0 1.665833333333264 1.6000000000000001 0 2 1.685972222223028 0.31402777777693702 2 1.6658333333334381 0 1.665833333333264 1.6000000000000001 0 2 2 0 2 1.685972222223028 0.31402777777693702 2 1.6658333333334381 0 1.665833333333264 2 0 2 2 0.33416666666757772 1.665833333332104 1.6658333333334381 0 1.665833333333264 2 0 2 2 0 1.5999999999989469 2 0.33416666666757772 1.665833333332104 2 0.26340755208402722 1.3740362318826671 1.734999069940508 0 1.3758744177011299 2 0 1.5999999999989469 2 0.33416666666757772 1.665833333332104 1.734999069940508 0 1.3758744177011299 1.6658333333334381 0 1.665833333333264 2 0 1.5999999999989469 2 0.33416666666757772 1.665833333332104 2 0.57500000000210227 1.4249999999987459 1.592055221591679 0.37998381655983821 1.346767458941071 2 0.33416666666757772 1.665833333332104 1.6049090527780649 0.68972037691419241 1.610520945894512 1.685972222223028 0.31402777777693702 2 2 0.33416666666757772 1.665833333332104 2 0.39999999999911567 2 1.7406202256951491 0.61367512077163267 2 1.685972222223028 0.31402777777693702 2 2 0.33416666666757772 1.665833333332104 1.7406202256951491 0.61367512077163267 2 1.6049090527780649 0.68972037691419241 1.610520945894512 1.685972222223028 0.31402777777693702 2 2 0 2 2 0.33416666666757772 1.665833333332104 2 0.39999999999911567 2 2 0.33416666666757772 1.665833333332104 2 0.39999999999911567 2 1.7406202256951491 0.61367512077163267 2 2 0.62412558229832538 1.734999069939664 1.7406202256951491 0.61367512077163267 2 1.6049090527780649 0.68972037691419241 1.610520945894512 2 0.62412558229832538 1.734999069939664 2 0.7999999999979498 2 1.6049090527780649 0.68972037691419241 1.610520945894512 2 0.97934782608697624 1.5921289062492749 1.5921289062508031 0.97934782608568471 2 1.416074976583422 1.0640336752305579 1.5993145461844129 2 0.39999999999911567 2 1.7406202256951491 0.61367512077163267 2 2 0.62412558229832538 1.734999069939664 2 0.7999999999979498 2 2 0.33416666666757772 1.665833333332104 1.7406202256951491 0.61367512077163267 2 1.6049090527780649 0.68972037691419241 1.610520945894512 2 0.62412558229832538 1.734999069939664 1.425000000001911 0.57499999999847629 2 1.7406202256951491 0.61367512077163267 2 1.6049090527780649 0.68972037691419241 1.610520945894512 1.5921289062508031 0.97934782608568471 2 1.425000000001911 0.57499999999847629 2 1.685972222223028 0.31402777777693702 2 1.7406202256951491 0.61367512077163267 2 1.6049090527780649 0.68972037691419241 1.610520945894512 2 0.57500000000210227 1.4249999999987459 1.6049090527780649 0.68972037691419241 1.610520945894512 2 0.62412558229832538 1.734999069939664 2 0.97934782608697624 1.5921289062492749 2 0.57500000000210227 1.4249999999987459 2 0.33416666666757772 1.665833333332104 1.6049090527780649 0.68972037691419241 1.610520945894512 2 0.62412558229832538 1.734999069939664 1.6049090527780649 0.68972037691419241 1.610520945894512 2 0.62412558229832538 1.734999069939664 2 0.97934782608697624 1.5921289062492749 2 0.7999999999979498 2 1.7406202256951491 0.61367512077163267 2 1.6049090527780649 0.68972037691419241 1.610520945894512 1.5921289062508031 0.97934782608568471 2 2 0.7999999999979498 2 2 0.97934782608697624 1.5921289062492749 1.5921289062508031 0.97934782608568471 2 2 0.7999999999979498 2 2 1.1999999999978941 2 1.6049090527780649 0.68972037691419241 1.610520945894512 2 0.97934782608697624 1.5921289062492749 1.5921289062508031 0.97934782608568471 2 2 0.7999999999979498 2 2 1.3750846954865119 1.737640911519603 2 1.4249999999998371 1.4249999999998371 1.5950886193190319 1.5950886193190319 1.4995967914346211 1.416074976583422 1.0640336752305579 1.5993145461844129 2 0.97934782608697624 1.5921289062492749 2 1.3750846954865119 1.737640911519603 2 1.4249999999998371 1.4249999999998371 1.416074976583422 1.0640336752305579 1.5993145461844129 1.737640911519909 1.3750846954862539 2 1.5950886193190319 1.5950886193190319 1.4995967914346211 1.416074976583422 1.0640336752305579 1.5993145461844129 1.4249999999998371 1.4249999999998371 2 2 0.97934782608697624 1.5921289062492749 1.5921289062508031 0.97934782608568471 2 2 1.1999999999978941 2 1.737640911519909 1.3750846954862539 2 1.737640911519909 1.3750846954862539 2 2 1.3750846954865119 1.737640911519603 1.5950886193190319 1.5950886193190319 1.4995967914346211 1.416074976583422 1.0640336752305579 1.5993145461844129 2 0.97934782608697624 1.5921289062492749 2 1.1999999999978941 2 1.737640911519909 1.3750846954862539 2 2 1.3750846954865119 1.737640911519603 2 0.97934782608697624 1.5921289062492749 1.5921289062508031 0.97934782608568471 2 1.737640911519909 1.3750846954862539 2 1.416074976583422 1.0640336752305579 1.5993145461844129 2 0.97934782608697624 1.5921289062492749 1.737640911519909 1.3750846954862539 2 2 1.3750846954865119 1.737640911519603 1.416074976583422 1.0640336752305579 1.5993145461844129 2 1.1999999999978941 2 1.737640911519909 1.3750846954862539 2 2 1.3750846954865119 1.737640911519603 2 1.5999999999989469 2 1.5921289062508031 0.97934782608568471 2 1.737640911519909 1.3750846954862539 2 1.416074976583422 1.0640336752305579 1.5993145461844129 1.4249999999998371 1.4249999999998371 2 1.500000000000274 0.99883321436442229 1.16639307242336 2 1.1510583366092999 1.2335907516785649 1.532347752213032 1.4746298915713509 1.076108883276101 1.416074976583422 1.0640336752305579 1.5993145461844129 2 0.97934782608697624 1.5921289062492749 2 1.1510583366092999 1.2335907516785649 2 1.4249999999998371 1.4249999999998371 1.416074976583422 1.0640336752305579 1.5993145461844129 1.500000000000274 0.99883321436442229 1.16639307242336 2 0.97934782608697624 1.5921289062492749 2 1.1510583366092999 1.2335907516785649 1.416074976583422 1.0640336752305579 1.5993145461844129 2 1.1510583366092999 1.2335907516785649 1.532347752213032 1.4746298915713509 1.076108883276101 1.5950886193190319 1.5950886193190319 1.4995967914346211 1.416074976583422 1.0640336752305579 1.5993145461844129 2 1.1510583366092999 1.2335907516785649 2 1.4249999999998371 1.4249999999998371 1.5950886193190319 1.5950886193190319 1.4995967914346211 1.416074976583422 1.0640336752305579 1.5993145461844129 2 1.2345896428056129 0.84641423559720252 1.500000000000274 0.99883321436442229 1.16639307242336 2 1.1510583366092999 1.2335907516785649 1.532347752213032 1.4746298915713509 1.076108883276101 2 1.000000000000635 0.99999999999835576 2 1.2345896428056129 0.84641423559720252 1.500000000000274 0.99883321436442229 1.16639307242336 2 1.1510583366092999 1.2335907516785649 2 1.2345896428056129 0.84641423559720252 2 1.1510583366092999 1.2335907516785649 1.532347752213032 1.4746298915713509 1.076108883276101 2 1.592128906250589 1.0206521739114489 2 1.1510583366092999 1.2335907516785649 1.532347752213032 1.4746298915713509 1.076108883276101 2 1.4249999999998371 1.4249999999998371 2 1.592128906250589 1.0206521739114489 2 1.1510583366092999 1.2335907516785649 1.532347752213032 1.4746298915713509 1.076108883276101 2 1.4249999999998371 1.4249999999998371 1.5950886193190319 1.5950886193190319 1.4995967914346211 1.532347752213032 1.4746298915713509 1.076108883276101 2 1.592128906250589 1.0206521739114489 1.5921289062505879 2 1.0206521739114489 1.7376409115198661 2 1.3833455650514059 1.532347752213032 1.4746298915713509 1.076108883276101 2 1.7376409115198661 1.3833455650514059 2 1.592128906250589 1.0206521739114489 1.7376409115198661 2 1.3833455650514059 1.532347752213032 1.4746298915713509 1.076108883276101 1.5950886193190319 1.5950886193190319 1.4995967914346211 1.7376409115198661 2 1.3833455650514059 1.4249999999998371 2 1.4249999999998371 1.532347752213032 1.4746298915713509 1.076108883276101 2 1.4249999999998371 1.4249999999998371 2 1.7376409115198661 1.3833455650514059 1.5950886193190319 1.5950886193190319 1.4995967914346211 1.532347752213032 1.4746298915713509 1.076108883276101 1.5921289062505879 2 1.0206521739114489 1.7376409115198661 2 1.3833455650514059 1.4249999999998371 2 1.4249999999998371 1.532347752213032 1.4746298915713509 1.076108883276101 2 1.7376409115198661 1.3833455650514059 1.5950886193190319 1.5950886193190319 1.4995967914346211 1.7376409115198661 2 1.3833455650514059 2 1.4249999999998371 1.4249999999998371 2 1.7376409115198661 1.3833455650514059 1.5950886193190319 1.5950886193190319 1.4995967914346211 2 1.671075651348906 1.671075651348906 1.532347752213032 1.4746298915713509 1.076108883276101 2 1.4249999999998371 1.4249999999998371 2 1.7376409115198661 1.3833455650514059 2 1.592128906250589 1.0206521739114489 2 1.7376409115198661 1.3833455650514059 2 1.592128906250589 1.0206521739114489 2 2 1.1999999999978941 1.7376409115198661 2 1.3833455650514059 2 1.592128906250589 1.0206521739114489 2 2 1.1999999999978941 1.5921289062505879 2 1.0206521739114489 1.7376409115198661 2 1.3833455650514059 2 2 0.7999999999979498 2 1.592128906250589 1.0206521739114489 2 2 1.1999999999978941 1.5921289062505879 2 1.0206521739114489 1.5950886193190319 1.5950886193190319 1.4995967914346211 1.7376409115198661 2 1.3833455650514059 1.671075651348906 2 1.671075651348906 1.4249999999998371 2 1.4249999999998371 2 1.7376409115198661 1.3833455650514059 1.5950886193190319 1.5950886193190319 1.4995967914346211 1.7376409115198661 2 1.3833455650514059 2 1.671075651348906 1.671075651348906 2 1.7376409115198661 1.3833455650514059 2 2 1.1999999999978941 1.7376409115198661 2 1.3833455650514059 2 2 1.5999999999989469 1.5950886193190319 1.5950886193190319 1.4995967914346211 2 1.671075651348906 1.671075651348906 1.671075651348906 1.671075651348906 2 1.671075651348906 2 1.671075651348906 1.737640911519909 1.3750846954862539 2 1.5950886193190319 1.5950886193190319 1.4995967914346211 1.671075651348906 1.671075651348906 2 1.4249999999998371 1.4249999999998371 2 2 1.7376409115198661 1.3833455650514059 1.7376409115198661 2 1.3833455650514059 2 2 1.5999999999989469 2 1.671075651348906 1.671075651348906 1.5950886193190319 1.5950886193190319 1.4995967914346211 1.7376409115198661 2 1.3833455650514059 2 1.671075651348906 1.671075651348906 1.671075651348906 2 1.671075651348906 2 2 1.5999999999989469 2 2 2 2 1.671075651348906 1.671075651348906 1.671075651348906 2 1.671075651348906 1.5950886193190319 1.5950886193190319 1.4995967914346211 1.671075651348906 1.671075651348906 2 1.3833455650517461 1.737640911519633 2 1.4249999999998371 1.4249999999998371 2 1.5950886193190319 1.5950886193190319 1.4995967914346211 1.671075651348906 1.671075651348906 2 1.671075651348906 2 1.671075651348906 1.3833455650517461 1.737640911519633 2 1.5950886193190319 1.5950886193190319 1.4995967914346211 1.671075651348906 2 1.671075651348906 1.3750846954865119 2 1.737640911519603 1.3833455650517461 1.737640911519633 2 1.7376409115198661 2 1.3833455650514059 2 2 1.5999999999989469 2 1.671075651348906 1.671075651348906 1.671075651348906 2 1.671075651348906 1.737640911519909 1.3750846954862539 2 2 1.3750846954865119 1.737640911519603 1.5950886193190319 1.5950886193190319 1.4995967914346211 1.671075651348906 1.671075651348906 2 2 1.3750846954865119 1.737640911519603 1.5950886193190319 1.5950886193190319 1.4995967914346211 2 1.671075651348906 1.671075651348906 1.671075651348906 1.671075651348906 2 2 2 2 2 1.671075651348906 1.671075651348906 1.671075651348906 1.671075651348906 2 1.671075651348906 2 1.671075651348906 2 1.3750846954865119 1.737640911519603 2 1.5999999999989469 2 2 1.671075651348906 1.671075651348906 1.671075651348906 1.671075651348906 2 1.737640911519909 1.3750846954862539 2 2 1.3750846954865119 1.737640911519603 2 1.5999999999989469 2 1.671075651348906 1.671075651348906 2 2 2 2 2 1.5999999999989469 2 2 1.671075651348906 1.671075651348906 1.671075651348906 1.671075651348906 2 2 1.3750846954865119 1.737640911519603 2 1.4249999999998371 1.4249999999998371 1.5950886193190319 1.5950886193190319 1.4995967914346211 2 1.671075651348906 1.671075651348906 1.5999999999989469 2 2 1.671075651348906 2 1.671075651348906 1.3750846954865119 2 1.737640911519603 1.3833455650517461 1.737640911519633 2 1.671075651348906 1.671075651348906 2 1.5999999999989469 2 2 1.671075651348906 2 1.671075651348906 1.3833455650517461 1.737640911519633 2 2 2 2 1.671075651348906 1.671075651348906 2 1.5999999999989469 2 2 1.671075651348906 2 1.671075651348906 1.5950886193190319 1.5950886193190319 1.4995967914346211 1.671075651348906 2 1.671075651348906 1.3750846954865119 2 1.737640911519603 1.4249999999998371 2 1.4249999999998371 1.5950886193190319 1.5950886193190319 1.4995967914346211 1.3833455650517461 1.737640911519633 2 1.1981164219601721 1.4101645296525169 1.4221055955645681 1.4249999999998371 1.4249999999998371 2 1.3750846954865119 2 1.737640911519603 1.4249999999998371 2 1.4249999999998371 1.1981164219601721 1.4101645296525169 1.4221055955645681 0.97934782608697635 2 1.5921289062492749 1.3750846954865119 2 1.737640911519603 1.0206521739131471 1.5921289062494219 2 1.1981164219601721 1.4101645296525169 1.4221055955645681 0.97934782608697635 2 1.5921289062492749 1.3750846954865119 2 1.737640911519603 1.3833455650517461 1.737640911519633 2 1.0206521739131471 1.5921289062494219 2 1.1981164219601721 1.4101645296525169 1.4221055955645681 1.5950886193190319 1.5950886193190319 1.4995967914346211 1.3750846954865119 2 1.737640911519603 1.3833455650517461 1.737640911519633 2 1.1981164219601721 1.4101645296525169 1.4221055955645681 1.5950886193190319 1.5950886193190319 1.4995967914346211 1.3750846954865119 2 1.737640911519603 1.4249999999998371 2 1.4249999999998371 1.1981164219601721 1.4101645296525169 1.4221055955645681 1.3833455650517461 1.737640911519633 2 1.0206521739131471 1.5921289062494219 2 1.1981164219601721 1.4101645296525169 1.4221055955645681 1.4249999999998371 1.4249999999998371 2 1.5999999999989469 2 2 1.3750846954865119 2 1.737640911519603 1.3833455650517461 1.737640911519633 2 1.1999999999978941 2 2 1.3750846954865119 2 1.737640911519603 1.3833455650517461 1.737640911519633 2 1.0206521739131471 1.5921289062494219 2 1.1999999999978941 2 2 1.3750846954865119 2 1.737640911519603 1.0206521739131471 1.5921289062494219 2 1.1999999999978941 2 2 0.97934782608697635 2 1.5921289062492749 1.2345896428056129 2 0.84641423559720264 1.532347752213032 1.4746298915713509 1.076108883276101 1.1510583366092999 2 1.2335907516785649 0.86620738987133672 1.5000000000001401 1.0337672479303861 1.532347752213032 1.4746298915713509 1.076108883276101 1.1510583366092999 2 1.2335907516785649 1.1981164219601721 1.4101645296525169 1.4221055955645681 0.86620738987133672 1.5000000000001401 1.0337672479303861 1.2345896428056129 2 0.84641423559720264 1.532347752213032 1.4746298915713509 1.076108883276101 1.5921289062505879 2 1.0206521739114489 1.1510583366092999 2 1.2335907516785649 1.532347752213032 1.4746298915713509 1.076108883276101 1.5950886193190319 1.5950886193190319 1.4995967914346211 1.4249999999998371 2 1.4249999999998371 1.1981164219601721 1.4101645296525169 1.4221055955645681 1.532347752213032 1.4746298915713509 1.076108883276101 1.5921289062505879 2 1.0206521739114489 1.4249999999998371 2 1.4249999999998371 1.1510583366092999 2 1.2335907516785649 1.532347752213032 1.4746298915713509 1.076108883276101 1.4249999999998371 2 1.4249999999998371 1.1510583366092999 2 1.2335907516785649 1.1981164219601721 1.4101645296525169 1.4221055955645681 1.4249999999998371 2 1.4249999999998371 1.1510583366092999 2 1.2335907516785649 1.1981164219601721 1.4101645296525169 1.4221055955645681 0.97934782608697635 2 1.5921289062492749 1.1510583366092999 2 1.2335907516785649 1.1981164219601721 1.4101645296525169 1.4221055955645681 0.97934782608697635 2 1.5921289062492749 0.77911601688602494 1.603176022082401 1.607321515253783 1.000000000000635 2 0.99999999999835598 1.2345896428056129 2 0.84641423559720264 1.1510583366092999 2 1.2335907516785649 0.86620738987133672 1.5000000000001401 1.0337672479303861 1.500000000000274 0.99883321436442229 1.16639307242336 1.532347752213032 1.4746298915713509 1.076108883276101 1.1981164219601721 1.4101645296525169 1.4221055955645681 1.416074976583422 1.0640336752305579 1.5993145461844129 1.500000000000274 0.99883321436442229 1.16639307242336 1.1981164219601721 1.4101645296525169 1.4221055955645681 1.416074976583422 1.0640336752305579 1.5993145461844129 0.98528458949676634 0.98528458949702458 1.516045488389935 1 0.99999999999999978 0.99999999999999978 1.500000000000274 0.99883321436442229 1.16639307242336 1.532347752213032 1.4746298915713509 1.076108883276101 1.1981164219601721 1.4101645296525169 1.4221055955645681 1.532347752213032 1.4746298915713509 1.076108883276101 1.5950886193190319 1.5950886193190319 1.4995967914346211 1.1981164219601721 1.4101645296525169 1.4221055955645681 1.416074976583422 1.0640336752305579 1.5993145461844129 1 0.99999999999999978 0.99999999999999978 1.500000000000274 0.99883321436442229 1.16639307242336 1.1981164219601721 1.4101645296525169 1.4221055955645681 0.98528458949676634 0.98528458949702458 1.516045488389935 1 0.99999999999999978 0.99999999999999978 1.532347752213032 1.4746298915713509 1.076108883276101 1.1981164219601721 1.4101645296525169 1.4221055955645681 0.86620738987133672 1.5000000000001401 1.0337672479303861 1 0.99999999999999978 0.99999999999999978 1.1981164219601721 1.4101645296525169 1.4221055955645681 0.86620738987133672 1.5000000000001401 1.0337672479303861 0.98528458949676634 0.98528458949702458 1.516045488389935 1.0206521739131471 1.5921289062494219 2 1.1981164219601721 1.4101645296525169 1.4221055955645681 1.4249999999998371 1.4249999999998371 2 1.2340035335497621 1.1507971347859809 2 1.000000000001781 0.99999999999894518 2 1.1981164219601721 1.4101645296525169 1.4221055955645681 1.416074976583422 1.0640336752305579 1.5993145461844129 1.2340035335497621 1.1507971347859809 2 1.1981164219601721 1.4101645296525169 1.4221055955645681 1.416074976583422 1.0640336752305579 1.5993145461844129 1.4249999999998371 1.4249999999998371 2 1.2340035335497621 1.1507971347859809 2 1.000000000001781 0.99999999999894518 2 1.1981164219601721 1.4101645296525169 1.4221055955645681 1.2340035335497621 1.1507971347859809 2 0.86068862301746607 1.2633133025089971 2 1.0206521739131471 1.5921289062494219 2 1.1981164219601721 1.4101645296525169 1.4221055955645681 1.2340035335497621 1.1507971347859809 2 0.86068862301746607 1.2633133025089971 2 1.000000000001781 0.99999999999894518 2 1.1981164219601721 1.4101645296525169 1.4221055955645681 0.86068862301746607 1.2633133025089971 2 0.98528458949676634 0.98528458949702458 1.516045488389935 1.000000000001781 0.99999999999894518 2 1.1981164219601721 1.4101645296525169 1.4221055955645681 1.416074976583422 1.0640336752305579 1.5993145461844129 0.98528458949676634 0.98528458949702458 1.516045488389935 1.5950886193190319 1.5950886193190319 1.4995967914346211 1.1981164219601721 1.4101645296525169 1.4221055955645681 1.416074976583422 1.0640336752305579 1.5993145461844129 1.4249999999998371 1.4249999999998371 2 1.5921289062508031 0.97934782608568471 2 1.416074976583422 1.0640336752305579 1.5993145461844129 1.4249999999998371 1.4249999999998371 2 1.2340035335497621 1.1507971347859809 2 0.86068862301746607 1.2633133025089971 2 0.59772980397967113 1.252682283932151 1.4022701960199091 0.77911601688602494 1.603176022082401 1.607321515253783 0.98528458949676634 0.98528458949702458 1.516045488389935 0.86068862301746607 1.2633133025089971 2 0.59772980397967113 1.252682283932151 1.4022701960199091 0.76640924832151791 0.84894166339049981 2 0.98528458949676634 0.98528458949702458 1.516045488389935 1.0206521739131471 1.5921289062494219 2 1.1981164219601721 1.4101645296525169 1.4221055955645681 0.86068862301746607 1.2633133025089971 2 0.77911601688602494 1.603176022082401 1.607321515253783 1.000000000001781 0.99999999999894518 2 0.86068862301746607 1.2633133025089971 2 0.76640924832151791 0.84894166339049981 2 0.98528458949676634 0.98528458949702458 1.516045488389935 0.86068862301746607 1.2633133025089971 2 0.5750000000018145 1.424999999998573 2 0.59772980397967113 1.252682283932151 1.4022701960199091 0.4078710937509023 1.020652173913281 2 0.86068862301746607 1.2633133025089971 2 0.5750000000018145 1.424999999998573 2 0.59772980397967113 1.252682283932151 1.4022701960199091 0.77911601688602494 1.603176022082401 1.607321515253783 0.86068862301746607 1.2633133025089971 2 0.59772980397967113 1.252682283932151 1.4022701960199091 0.4078710937509023 1.020652173913281 2 0.76640924832151791 0.84894166339049981 2 0.5750000000018145 1.424999999998573 2 0.59772980397967113 1.252682283932151 1.4022701960199091 0.77911601688602494 1.603176022082401 1.607321515253783 0.25937977430622478 1.3863248792272369 2 1.1981164219601721 1.4101645296525169 1.4221055955645681 0.86068862301746607 1.2633133025089971 2 0.77911601688602494 1.603176022082401 1.607321515253783 0.98528458949676634 0.98528458949702458 1.516045488389935 1.0206521739131471 1.5921289062494219 2 0.86068862301746607 1.2633133025089971 2 0.5750000000018145 1.424999999998573 2 0.77911601688602494 1.603176022082401 1.607321515253783 1.1981164219601721 1.4101645296525169 1.4221055955645681 0.59772980397967113 1.252682283932151 1.4022701960199091 0.77911601688602494 1.603176022082401 1.607321515253783 0.98528458949676634 0.98528458949702458 1.516045488389935 1.1981164219601721 1.4101645296525169 1.4221055955645681 0.59772980397967113 1.252682283932151 1.4022701960199091 0.86620738987133672 1.5000000000001401 1.0337672479303861 0.98528458949676634 0.98528458949702458 1.516045488389935 1 0.99999999999999978 0.99999999999999978 0.59772980397967113 1.252682283932151 1.4022701960199091 0.86620738987133672 1.5000000000001401 1.0337672479303861 0.98528458949676634 0.98528458949702458 1.516045488389935 1.1981164219601721 1.4101645296525169 1.4221055955645681 0.59772980397967113 1.252682283932151 1.4022701960199091 0.86620738987133672 1.5000000000001401 1.0337672479303861 0.77911601688602494 1.603176022082401 1.607321515253783 1 0.99999999999999978 0.99999999999999978 0.59772980397967113 1.252682283932151 1.4022701960199091 0.86620738987133672 1.5000000000001401 1.0337672479303861 0.48528811404415773 0.99061345538166756 1.009386544617999 0.59772980397967113 1.252682283932151 1.4022701960199091 0.86620738987133672 1.5000000000001401 1.0337672479303861 0.39539622647752048 1.604332214875325 1.222086277851258 0.48528811404415773 0.99061345538166756 1.009386544617999 0.41010551790091843 1.5854304871968741 0.7721068750782103 0.86620738987133672 1.5000000000001401 1.0337672479303861 0.39539622647752048 1.604332214875325 1.222086277851258 0.48528811404415773 0.99061345538166756 1.009386544617999 1 0.99999999999999978 0.99999999999999978 0.59772980397967113 1.252682283932151 1.4022701960199091 0.98528458949676634 0.98528458949702458 1.516045488389935 0.48528811404415773 0.99061345538166756 1.009386544617999 0.59772980397967113 1.252682283932151 1.4022701960199091 0.86620738987133672 1.5000000000001401 1.0337672479303861 0.77911601688602494 1.603176022082401 1.607321515253783 0.39539622647752048 1.604332214875325 1.222086277851258 0.86620738987133672 1.5000000000001401 1.0337672479303861 0.73668669749101645 2 1.139311376982779 0.77911601688602494 1.603176022082401 1.607321515253783 0.39539622647752048 1.604332214875325 1.222086277851258 1.1510583366092999 2 1.2335907516785649 0.86620738987133672 1.5000000000001401 1.0337672479303861 0.73668669749101645 2 1.139311376982779 0.77911601688602494 1.603176022082401 1.607321515253783 1.1510583366092999 2 1.2335907516785649 1.1981164219601721 1.4101645296525169 1.4221055955645681 0.86620738987133672 1.5000000000001401 1.0337672479303861 0.77911601688602494 1.603176022082401 1.607321515253783 0.41010551790091843 1.5854304871968741 0.7721068750782103 0.86620738987133672 1.5000000000001401 1.0337672479303861 0.73668669749101645 2 1.139311376982779 0.39539622647752048 1.604332214875325 1.222086277851258 1.000000000000635 2 0.99999999999835598 1.1510583366092999 2 1.2335907516785649 0.86620738987133672 1.5000000000001401 1.0337672479303861 0.73668669749101645 2 1.139311376982779 0.40787109375045588 2 0.9793478260856453 0.73668669749101645 2 1.139311376982779 0.57500000000210227 2 1.4249999999987459 0.39539622647752048 1.604332214875325 1.222086277851258 0.73668669749101645 2 1.139311376982779 0.57500000000210227 2 1.4249999999987459 0.77911601688602494 1.603176022082401 1.607321515253783 0.39539622647752048 1.604332214875325 1.222086277851258 0.57500000000210227 2 1.4249999999987459 0.77911601688602494 1.603176022082401 1.607321515253783 0.33416666666757772 2 1.665833333332104 0.39539622647752048 1.604332214875325 1.222086277851258 1.1510583366092999 2 1.2335907516785649 0.73668669749101645 2 1.139311376982779 0.97934782608697635 2 1.5921289062492749 0.77911601688602494 1.603176022082401 1.607321515253783 0.73668669749101645 2 1.139311376982779 0.57500000000210227 2 1.4249999999987459 0.97934782608697635 2 1.5921289062492749 0.77911601688602494 1.603176022082401 1.607321515253783 1.0206521739131471 1.5921289062494219 2 1.1981164219601721 1.4101645296525169 1.4221055955645681 0.97934782608697635 2 1.5921289062492749 0.77911601688602494 1.603176022082401 1.607321515253783 0.97934782608697635 2 1.5921289062492749 0.7999999999979498 2 2 0.77911601688602494 1.603176022082401 1.607321515253783 0.62412558229832538 2 1.734999069939664 1.0206521739131471 1.5921289062494219 2 1.1999999999978941 2 2 0.97934782608697635 2 1.5921289062492749 0.7999999999979498 2 2 1.0206521739131471 1.5921289062494219 2 0.97934782608697635 2 1.5921289062492749 0.7999999999979498 2 2 0.77911601688602494 1.603176022082401 1.607321515253783 1.0206521739131471 1.5921289062494219 2 0.7999999999979498 2 2 0.77911601688602494 1.603176022082401 1.607321515253783 0.62193599033808677 1.7406202256939109 2 1.0206521739131471 1.5921289062494219 2 0.5750000000018145 1.424999999998573 2 0.77911601688602494 1.603176022082401 1.607321515253783 0.62193599033808677 1.7406202256939109 2 0.5750000000018145 1.424999999998573 2 0.77911601688602494 1.603176022082401 1.607321515253783 0.62193599033808677 1.7406202256939109 2 0.31402777777840701 1.6859722222215581 2 0.77911601688602494 1.603176022082401 1.607321515253783 0.62193599033808677 1.7406202256939109 2 0.33416666666757772 2 1.665833333332104 0.31402777777840701 1.6859722222215581 2 0.7999999999979498 2 2 0.77911601688602494 1.603176022082401 1.607321515253783 0.62193599033808677 1.7406202256939109 2 0.62412558229832538 2 1.734999069939664 0.77911601688602494 1.603176022082401 1.607321515253783 0.62193599033808677 1.7406202256939109 2 0.62412558229832538 2 1.734999069939664 0.33416666666757772 2 1.665833333332104 0.7999999999979498 2 2 0.62193599033808677 1.7406202256939109 2 0.62412558229832538 2 1.734999069939664 0.39999999999911567 2 2 0.57500000000210227 2 1.4249999999987459 0.97934782608697635 2 1.5921289062492749 0.77911601688602494 1.603176022082401 1.607321515253783 0.62412558229832538 2 1.734999069939664 0.57500000000210227 2 1.4249999999987459 0.77911601688602494 1.603176022082401 1.607321515253783 0.62412558229832538 2 1.734999069939664 0.33416666666757772 2 1.665833333332104 0.77911601688602494 1.603176022082401 1.607321515253783 0 1.665833333333429 1.665833333333256 0.39539622647752048 1.604332214875325 1.222086277851258 0 1.374036231884781 1.736592447916667 0.5750000000018145 1.424999999998573 2 0.77911601688602494 1.603176022082401 1.607321515253783 0.31402777777840701 1.6859722222215581 2 0.25937977430622478 1.3863248792272369 2 0.77911601688602494 1.603176022082401 1.607321515253783 0.33416666666757772 2 1.665833333332104 0 1.665833333333429 1.665833333333256 0.39539622647752048 1.604332214875325 1.222086277851258 0.77911601688602494 1.603176022082401 1.607321515253783 0.33416666666757772 2 1.665833333332104 0.31402777777840701 1.6859722222215581 2 0 1.665833333333429 1.665833333333256 0 1.665833333333429 1.665833333333256 0.39539622647752048 1.604332214875325 1.222086277851258 0 1.4249999999997121 1.4250000000001719 0 1.374036231884781 1.736592447916667 0.77911601688602494 1.603176022082401 1.607321515253783 0.31402777777840701 1.6859722222215581 2 0 1.665833333333429 1.665833333333256 0.25937977430622478 1.3863248792272369 2 0.77911601688602494 1.603176022082401 1.607321515253783 0 1.665833333333429 1.665833333333256 0 1.374036231884781 1.736592447916667 0.25937977430622478 1.3863248792272369 2 0.62193599033808677 1.7406202256939109 2 0.33416666666757772 2 1.665833333332104 0.39999999999911567 2 2 0.31402777777840701 1.6859722222215581 2 0.62193599033808677 1.7406202256939109 2 0.62412558229832538 2 1.734999069939664 0.33416666666757772 2 1.665833333332104 0.39999999999911567 2 2 0.33416666666757772 2 1.665833333332104 0.39999999999911567 2 2 0.31402777777840701 1.6859722222215581 2 0 2 2 0.31402777777840701 1.6859722222215581 2 0 1.665833333333429 1.665833333333256 0 1.6000000000000001 2 0.25937977430622478 1.3863248792272369 2 0 1.665833333333429 1.665833333333256 0 1.6000000000000001 2 0 1.374036231884781 1.736592447916667 0.25937977430622478 1.3863248792272369 2 0.31402777777840701 1.6859722222215581 2 0 1.665833333333429 1.665833333333256 0 1.6000000000000001 2 0 2 2 0.33416666666757772 2 1.665833333332104 0.31402777777840701 1.6859722222215581 2 0 1.665833333333429 1.665833333333256 0 2 2 0.33416666666757772 2 1.665833333332104 0 2 1.5999999999989469 0.26340755208402722 2 1.3740362318826671 0 1.73499906994049 1.375874417701122 0.33416666666757772 2 1.665833333332104 0 1.665833333333429 1.665833333333256 0 2 1.5999999999989469 0 1.73499906994049 1.375874417701122 0.33416666666757772 2 1.665833333332104 0 1.665833333333429 1.665833333333256 0 2 2 0 2 1.5999999999989469 0 2 1.5999999999989469 0.26340755208402722 2 1.3740362318826671 0 2 1.1999999999978941 0 1.73499906994049 1.375874417701122 0.33416666666757772 2 1.665833333332104 0 1.665833333333429 1.665833333333256 0.39539622647752048 1.604332214875325 1.222086277851258 0 1.73499906994049 1.375874417701122 0.26340755208402722 2 1.3740362318826671 0 2 1.1999999999978941 0.39539622647752048 1.604332214875325 1.222086277851258 0 1.73499906994049 1.375874417701122 0.33416666666757772 2 1.665833333332104 0.26340755208402722 2 1.3740362318826671 0.39539622647752048 1.604332214875325 1.222086277851258 0 1.73499906994049 1.375874417701122 0.57500000000210227 2 1.4249999999987459 0.33416666666757772 2 1.665833333332104 0.26340755208402722 2 1.3740362318826671 0.39539622647752048 1.604332214875325 1.222086277851258 0.40787109375045588 2 0.9793478260856453 0.57500000000210227 2 1.4249999999987459 0.26340755208402722 2 1.3740362318826671 0.39539622647752048 1.604332214875325 1.222086277851258 0.41010551790091843 1.5854304871968741 0.7721068750782103 0.40787109375045588 2 0.9793478260856453 0.73668669749101645 2 1.139311376982779 0.39539622647752048 1.604332214875325 1.222086277851258 0.40787109375045588 2 0.9793478260856453 0.26340755208402722 2 1.3740362318826671 0 2 1.1999999999978941 0.39539622647752048 1.604332214875325 1.222086277851258 0.40787109375045588 2 0.9793478260856453 0 2 1.1999999999978941 0 1.592128906249999 1.0206521739122849 0.39539622647752048 1.604332214875325 1.222086277851258 0 2 1.1999999999978941 0 1.592128906249999 1.0206521739122849 0.39539622647752048 1.604332214875325 1.222086277851258 0 1.73499906994049 1.375874417701122 0 1.592128906249999 1.0206521739122849 0.39539622647752048 1.604332214875325 1.222086277851258 0 1.73499906994049 1.375874417701122 0 1.4249999999997121 1.4250000000001719 0 1.665833333333429 1.665833333333256 0.39539622647752048 1.604332214875325 1.222086277851258 0 1.73499906994049 1.375874417701122 0 1.4249999999997121 1.4250000000001719 0.59772980397967113 1.252682283932151 1.4022701960199091 0 1.1379319433661621 1.2629046154773571 0 0.97934782608799098 1.5921289062499051 0.48528811404415773 0.99061345538166756 1.009386544617999 0.59772980397967113 1.252682283932151 1.4022701960199091 0.39539622647752048 1.604332214875325 1.222086277851258 0 1.4249999999997121 1.4250000000001719 0 1.1379319433661621 1.2629046154773571 0.59772980397967113 1.252682283932151 1.4022701960199091 0.77911601688602494 1.603176022082401 1.607321515253783 0.39539622647752048 1.604332214875325 1.222086277851258 0 1.374036231884781 1.736592447916667 0 1.263313302510646 0.86068862301506388 0.39539622647752048 1.604332214875325 1.222086277851258 0 1.1379319433661621 1.2629046154773571 0.48528811404415773 0.99061345538166756 1.009386544617999 0.59772980397967113 1.252682283932151 1.4022701960199091 0 1.4249999999997121 1.4250000000001719 0 1.1379319433661621 1.2629046154773571 0 0.97934782608799098 1.5921289062499051 0.59772980397967113 1.252682283932151 1.4022701960199091 0.39539622647752048 1.604332214875325 1.222086277851258 0 1.4249999999997121 1.4250000000001719 0 1.374036231884781 1.736592447916667 0.59772980397967113 1.252682283932151 1.4022701960199091 0.39539622647752048 1.604332214875325 1.222086277851258 0 1.1379319433661621 1.2629046154773571 0.48528811404415773 0.99061345538166756 1.009386544617999 0 1.592128906249999 1.0206521739122849 0.39539622647752048 1.604332214875325 1.222086277851258 0 1.4249999999997121 1.4250000000001719 0 1.1379319433661621 1.2629046154773571 0 1.263313302510646 0.86068862301506388 0 1.592128906249999 1.0206521739122849 0.39539622647752048 1.604332214875325 1.222086277851258 0 1.1379319433661621 1.2629046154773571 0 1.0000000000000291 0.99999999999996969 0 1.263313302510646 0.86068862301506388 0 1.1379319433661621 1.2629046154773571 0.48528811404415773 0.99061345538166756 1.009386544617999 0.59772980397967113 1.252682283932151 1.4022701960199091 0 1.4249999999997121 1.4250000000001719 0 1.374036231884781 1.736592447916667 0 0.97934782608799098 1.5921289062499051 0.59772980397967113 1.252682283932151 1.4022701960199091 0.77911601688602494 1.603176022082401 1.607321515253783 0 1.374036231884781 1.736592447916667 0.25937977430622478 1.3863248792272369 2 0.59772980397967113 1.252682283932151 1.4022701960199091 0 1.374036231884781 1.736592447916667 0.4078710937509023 1.020652173913281 2 0.25937977430622478 1.3863248792272369 2 0.5750000000018145 1.424999999998573 2 0.59772980397967113 1.252682283932151 1.4022701960199091 0.4078710937509023 1.020652173913281 2 0.25937977430622478 1.3863248792272369 2 0.59772980397967113 1.252682283932151 1.4022701960199091 0 1.374036231884781 1.736592447916667 0.4078710937509023 1.020652173913281 2 0 0.97934782608799098 1.5921289062499051 0 1.6000000000000001 2 0 1.374036231884781 1.736592447916667 0.25937977430622478 1.3863248792272369 2 0 1.200000000002774 2 0 1.374036231884781 1.736592447916667 0.4078710937509023 1.020652173913281 2 0.25937977430622478 1.3863248792272369 2 0 1.200000000002774 2 0 1.374036231884781 1.736592447916667 0.4078710937509023 1.020652173913281 2 0 1.200000000002774 2 0 0.97934782608799098 1.5921289062499051 0.4078710937509023 1.020652173913281 2 0 1.200000000002774 2 0 0.80000000000332872 2 0 0.97934782608799098 1.5921289062499051 0 0.80000000000332872 2 0 0.97934782608799098 1.5921289062499051 0 0.62412558229928472 1.7349990699404849 0.26235908848041961 0.62491530451389399 2 0.26235908848041961 0.62491530451389399 2 0.57500000000013385 0.57500000000013385 2 0.63209459459459538 0.63209459459460771 1.3679054054053961 0.32892434865106179 0.32892434865106179 2 0.59772980397967113 1.252682283932151 1.4022701960199091 0.4078710937509023 1.020652173913281 2 0 0.97934782608799098 1.5921289062499051 0.63209459459459538 0.63209459459460771 1.3679054054053961 0.4078710937509023 1.020652173913281 2 0.26235908848041961 0.62491530451389399 2 0.57500000000013385 0.57500000000013385 2 0.63209459459459538 0.63209459459460771 1.3679054054053961 0.4078710937509023 1.020652173913281 2 0 0.80000000000332872 2 0 0.97934782608799098 1.5921289062499051 0.26235908848041961 0.62491530451389399 2 0 0.97934782608799098 1.5921289062499051 0 0.62412558229928472 1.7349990699404849 0.26235908848041961 0.62491530451389399 2 0.63209459459459538 0.63209459459460771 1.3679054054053961 0 0.62412558229928472 1.7349990699404849 0.26235908848041961 0.62491530451389399 2 0.63209459459459538 0.63209459459460771 1.3679054054053961 0 0.33416666666678929 1.6658333333334849 0 0.62412558229928472 1.7349990699404849 0.63209459459459538 0.63209459459460771 1.3679054054053961 0 0.57499999999972706 1.4249999999995451 0 0.33416666666678929 1.6658333333334849 0.4078710937509023 1.020652173913281 2 0 0.97934782608799098 1.5921289062499051 0.26235908848041961 0.62491530451389399 2 0.63209459459459538 0.63209459459460771 1.3679054054053961 0 0.97934782608799098 1.5921289062499051 0 0.62412558229928472 1.7349990699404849 0.63209459459459538 0.63209459459460771 1.3679054054053961 0 0.57499999999972706 1.4249999999995451 0 0.80000000000332872 2 0 0.62412558229928472 1.7349990699404849 0.26235908848041961 0.62491530451389399 2 0 0.40000000000166441 2 1.1535857644027949 0.76541035719405237 2 0.76640924832151791 0.84894166339049981 2 0.98528458949676634 0.98528458949702458 1.516045488389935 0.979347826088805 0.40787109374939401 2 0.76640924832151791 0.84894166339049981 2 0.98528458949676634 0.98528458949702458 1.516045488389935 0.63209459459459538 0.63209459459460771 1.3679054054053961 0.979347826088805 0.40787109374939401 2 1.2526822839324241 0.59772980398008735 1.402270196020621 0.98528458949676634 0.98528458949702458 1.516045488389935 0.63209459459459538 0.63209459459460771 1.3679054054053961 0.979347826088805 0.40787109374939401 2 0.59772980397967113 1.252682283932151 1.4022701960199091 0.76640924832151791 0.84894166339049981 2 0.98528458949676634 0.98528458949702458 1.516045488389935 0.63209459459459538 0.63209459459460771 1.3679054054053961 0.4078710937509023 1.020652173913281 2 0.57500000000013385 0.57500000000013385 2 0.76640924832151791 0.84894166339049981 2 0.63209459459459538 0.63209459459460771 1.3679054054053961 0.59772980397967113 1.252682283932151 1.4022701960199091 0.4078710937509023 1.020652173913281 2 0.76640924832151791 0.84894166339049981 2 0.63209459459459538 0.63209459459460771 1.3679054054053961 0.57500000000013385 0.57500000000013385 2 0.76640924832151791 0.84894166339049981 2 0.63209459459459538 0.63209459459460771 1.3679054054053961 0.979347826088805 0.40787109374939401 2 1.1535857644027949 0.76541035719405237 2 1.000000000001781 0.99999999999894518 2 0.76640924832151791 0.84894166339049981 2 0.98528458949676634 0.98528458949702458 1.516045488389935 0.59772980397989239 0.59772980397970443 0.74731771606769093 0.63209459459459538 0.63209459459460771 1.3679054054053961 0.48528811404415773 0.99061345538166756 1.009386544617999 0.98528458949709452 0.48395451161029718 1.014715410503322 1 0.99999999999999978 0.99999999999999978 0.98528458949676634 0.98528458949702458 1.516045488389935 0.63209459459459538 0.63209459459460771 1.3679054054053961 0.98528458949709452 0.48395451161029718 1.014715410503322 1 0.99999999999999978 0.99999999999999978 0.63209459459459538 0.63209459459460771 1.3679054054053961 0.48528811404415773 0.99061345538166756 1.009386544617999 0.98528458949709452 0.48395451161029718 1.014715410503322 1 0.99999999999999978 0.99999999999999978 0.98528458949676634 0.98528458949702458 1.516045488389935 0.63209459459459538 0.63209459459460771 1.3679054054053961 0.48528811404415773 0.99061345538166756 1.009386544617999 0.59772980397967113 1.252682283932151 1.4022701960199091 0.98528458949676634 0.98528458949702458 1.516045488389935 0.63209459459459538 0.63209459459460771 1.3679054054053961 0.48528811404415773 0.99061345538166756 1.009386544617999 1.2526822839324241 0.59772980398008735 1.402270196020621 0.98528458949676634 0.98528458949702458 1.516045488389935 0.63209459459459538 0.63209459459460771 1.3679054054053961 0.98528458949709452 0.48395451161029718 1.014715410503322 0 0.97934782608799098 1.5921289062499051 0.63209459459459538 0.63209459459460771 1.3679054054053961 0.48528811404415773 0.99061345538166756 1.009386544617999 0 0.73703553820768952 1.137914212601322 0.59772980397989239 0.59772980397970443 0.74731771606769093 0.63209459459459538 0.63209459459460771 1.3679054054053961 0.48528811404415773 0.99061345538166756 1.009386544617999 0 0.73703553820768952 1.137914212601322 0.59772980397967113 1.252682283932151 1.4022701960199091 0 0.97934782608799098 1.5921289062499051 0.63209459459459538 0.63209459459460771 1.3679054054053961 0.48528811404415773 0.99061345538166756 1.009386544617999 0 1.1379319433661621 1.2629046154773571 0 0.97934782608799098 1.5921289062499051 0.48528811404415773 0.99061345538166756 1.009386544617999 0 0.73703553820768952 1.137914212601322 0 0.97934782608799098 1.5921289062499051 0.63209459459459538 0.63209459459460771 1.3679054054053961 0 0.57499999999972706 1.4249999999995451 0 0.73703553820768952 1.137914212601322 0 0.40787109374995661 0.97934782608798243 0.59772980397989239 0.59772980397970443 0.74731771606769093 0.63209459459459538 0.63209459459460771 1.3679054054053961 0 0.73703553820768952 1.137914212601322 0 0.40787109374995661 0.97934782608798243 0.63209459459459538 0.63209459459460771 1.3679054054053961 0 0.57499999999972706 1.4249999999995451 0 0.73703553820768952 1.137914212601322 0 1.0000000000000291 0.99999999999996969 0 1.1379319433661621 1.2629046154773571 0.48528811404415773 0.99061345538166756 1.009386544617999 0 0.73703553820768952 1.137914212601322 0.63209459459459538 0.63209459459460771 1.3679054054053961 0 0.26340755208329458 1.374036231884757 0.26340755208335531 0 1.374036231884725 0.33416666666682932 0 1.665833333333445 0.63209459459459538 0.63209459459460771 1.3679054054053961 0.26340755208335531 0 1.374036231884725 0.57499999999978968 0 1.424999999999482 0.33416666666682932 0 1.665833333333445 0.40787109375015718 0 0.97934782608792492 0 0.40787109374995661 0.97934782608798243 0.59772980397989239 0.59772980397970443 0.74731771606769093 0.63209459459459538 0.63209459459460771 1.3679054054053961 0 0.40787109374995661 0.97934782608798243 0.63209459459459538 0.63209459459460771 1.3679054054053961 0 0.26340755208329458 1.374036231884757 0.26340755208335531 0 1.374036231884725 0.40787109375015718 0 0.97934782608792492 0 0.40787109374995661 0.97934782608798243 0.63209459459459538 0.63209459459460771 1.3679054054053961 0.26340755208335531 0 1.374036231884725 0 0.40787109374995661 0.97934782608798243 0.63209459459459538 0.63209459459460771 1.3679054054053961 0 0.57499999999972706 1.4249999999995451 0 0.26340755208329458 1.374036231884757 0.40787109375015718 0 0.97934782608792492 0.63209459459459538 0.63209459459460771 1.3679054054053961 0.26340755208335531 0 1.374036231884725 0.57499999999978968 0 1.424999999999482 0.63209459459459538 0.63209459459460771 1.3679054054053961 0 0.57499999999972706 1.4249999999995451 0 0.26340755208329458 1.374036231884757 0 0.33416666666678929 1.6658333333334849 0 0.26340755208329458 1.374036231884757 0.26340755208335531 0 1.374036231884725 0 0 1.200000000002774 0 0 1.6000000000000001 0.40787109375015718 0 0.97934782608792492 0 0.40787109374995661 0.97934782608798243 0.26340755208335531 0 1.374036231884725 0 0 1.200000000002774 0 0.40787109374995661 0.97934782608798243 0 0.26340755208329458 1.374036231884757 0.26340755208335531 0 1.374036231884725 0 0 1.200000000002774 0.63209459459459538 0.63209459459460771 1.3679054054053961 0.73709538452274337 0 1.137931943365984 0.57499999999978968 0 1.424999999999482 0.97934782608803661 0 1.5921289062498969 0.40787109375015718 0 0.97934782608792492 0.63209459459459538 0.63209459459460771 1.3679054054053961 0.73709538452274337 0 1.137931943365984 0.57499999999978968 0 1.424999999999482 0.40787109375015718 0 0.97934782608792492 0.59772980397989239 0.59772980397970443 0.74731771606769093 0.63209459459459538 0.63209459459460771 1.3679054054053961 0.73709538452274337 0 1.137931943365984 1.2526822839324241 0.59772980398008735 1.402270196020621 0.63209459459459538 0.63209459459460771 1.3679054054053961 0.98528458949709452 0.48395451161029718 1.014715410503322 0.97934782608803661 0 1.5921289062498969 0.59772980397989239 0.59772980397970443 0.74731771606769093 0.63209459459459538 0.63209459459460771 1.3679054054053961 0.73709538452274337 0 1.137931943365984 0.98528458949709452 0.48395451161029718 1.014715410503322 0.63209459459459538 0.63209459459460771 1.3679054054053961 0.73709538452274337 0 1.137931943365984 0.98528458949709452 0.48395451161029718 1.014715410503322 0.97934782608803661 0 1.5921289062498969 1.1393113769850489 0 1.263313302510394 0.73709538452274337 0 1.137931943365984 0.98528458949709452 0.48395451161029718 1.014715410503322 0.97934782608803661 0 1.5921289062498969 1.0000000000002141 0 0.99999999999992895 1.1393113769850489 0 1.263313302510394 0.73709538452274337 0 1.137931943365984 0.98528458949709452 0.48395451161029718 1.014715410503322 0.63209459459459538 0.63209459459460771 1.3679054054053961 0.57499999999978968 0 1.424999999999482 0.62412558229932147 0 1.7349990699404549 0.97934782608803661 0 1.5921289062498969 0.57500000000013385 0.57500000000013385 2 0.63209459459459538 0.63209459459460771 1.3679054054053961 0.979347826088805 0.40787109374939401 2 0.61665443494899885 0.26235908848011791 2 0.63209459459459538 0.63209459459460771 1.3679054054053961 0.62412558229932147 0 1.7349990699404549 0.61665443494899885 0.26235908848011791 2 0.33416666666682932 0 1.665833333333445 0.63209459459459538 0.63209459459460771 1.3679054054053961 0.62412558229932147 0 1.7349990699404549 0.97934782608803661 0 1.5921289062498969 0.979347826088805 0.40787109374939401 2 0.63209459459459538 0.63209459459460771 1.3679054054053961 0.57499999999978968 0 1.424999999999482 0.62412558229932147 0 1.7349990699404549 0.33416666666682932 0 1.665833333333445 1.2526822839324241 0.59772980398008735 1.402270196020621 0.63209459459459538 0.63209459459460771 1.3679054054053961 0.97934782608803661 0 1.5921289062498969 0.979347826088805 0.40787109374939401 2 0.57500000000013385 0.57500000000013385 2 0.63209459459459538 0.63209459459460771 1.3679054054053961 0.61665443494899885 0.26235908848011791 2 0.32892434865106179 0.32892434865106179 2 0.63209459459459538 0.63209459459460771 1.3679054054053961 0.62412558229932147 0 1.7349990699404549 0.979347826088805 0.40787109374939401 2 0.61665443494899885 0.26235908848011791 2 0.62412558229932147 0 1.7349990699404549 0.80000000000332872 0 2 0.979347826088805 0.40787109374939401 2 0.61665443494899885 0.26235908848011791 2 1.200000000002774 0 2 0.97934782608803661 0 1.5921289062498969 0.80000000000332872 0 2 0.979347826088805 0.40787109374939401 2 0.62412558229932147 0 1.7349990699404549 0.97934782608803661 0 1.5921289062498969 0.80000000000332872 0 2 0.979347826088805 0.40787109374939401 2 0.62412558229932147 0 1.7349990699404549 0.80000000000332872 0 2 0.61665443494899885 0.26235908848011791 2 0.40000000000166441 0 2 0.61665443494899885 0.26235908848011791 2 0.40000000000166441 0 2 0.33416666666682932 0 1.665833333333445 0.32892434865106179 0.32892434865106179 2 0.26235908848041961 0.62491530451389399 2 0.63209459459459538 0.63209459459460771 1.3679054054053961 0.32892434865106179 0.32892434865106179 2 0 0.33416666666678929 1.6658333333334849 0.62412558229932147 0 1.7349990699404549 0.61665443494899885 0.26235908848011791 2 0.40000000000166441 0 2 0.33416666666682932 0 1.665833333333445 0.63209459459459538 0.63209459459460771 1.3679054054053961 0.61665443494899885 0.26235908848011791 2 0.33416666666682932 0 1.665833333333445 0.32892434865106179 0.32892434865106179 2 0.63209459459459538 0.63209459459460771 1.3679054054053961 0 0.26340755208329458 1.374036231884757 0.33416666666682932 0 1.665833333333445 0 0.33416666666678929 1.6658333333334849 0.40000000000166441 0 2 0.33416666666682932 0 1.665833333333445 0.32892434865106179 0.32892434865106179 2 0 0 2 0.63209459459459538 0.63209459459460771 1.3679054054053961 0.33416666666682932 0 1.665833333333445 0.32892434865106179 0.32892434865106179 2 0 0.33416666666678929 1.6658333333334849 0.32892434865106179 0.32892434865106179 2 0 0.40000000000166441 2 0 0.33416666666678929 1.6658333333334849 0 0 2 0 0.62412558229928472 1.7349990699404849 0.26235908848041961 0.62491530451389399 2 0 0.40000000000166441 2 0 0.33416666666678929 1.6658333333334849 0.26235908848041961 0.62491530451389399 2 0.32892434865106179 0.32892434865106179 2 0 0.40000000000166441 2 0 0.33416666666678929 1.6658333333334849 0.33416666666682932 0 1.665833333333445 0 0.33416666666678929 1.6658333333334849 0 0 1.6000000000000001 0 0 2 0 0.26340755208329458 1.374036231884757 0.26340755208335531 0 1.374036231884725 0.33416666666682932 0 1.665833333333445 0 0 1.6000000000000001 0 0.26340755208329458 1.374036231884757 0.33416666666682932 0 1.665833333333445 0 0.33416666666678929 1.6658333333334849 0 0 1.6000000000000001 0.33416666666682932 0 1.665833333333445 0.32892434865106179 0.32892434865106179 2 0 0.33416666666678929 1.6658333333334849 0 0 2 
</DataArray>
</Points>
<Cells>
<DataArray type="UInt32" Name="connectivity" format="ascii">
0 1 2 3 4 5 6 7 8 9 10 11 12 13 14 15 16 17 18 19 20 21 22 23 24 25 26 27 28 29 30 31 32 33 34 35 36 37 38 39 40 41 42 43 44 45 46 47 48 49 50 51 52 53 54 55 56 57 58 59 60 61 62 63 64 65 66 67 68 69 70 71 72 73 74 75 76 77 78 79 80 81 82 83 84 85 86 87 88 89 90 91 92 93 94 95 96 97 98 99 100 101 102 103 104 105 106 107 108 109 110 111 112 113 114 115 116 117 118 119 120 121 122 123 124 125 126 127 128 129 130 131 132 133 134 135 136 137 138 139 140 141 142 143 144 145 146 147 148 149 150 151 152 153 154 155 156 157 158 159 160 161 162 163 164 165 166 167 168 169 170 171 172 173 174 175 176 177 178 179 180 181 182 183 184 185 186 187 188 189 190 191 192 193 194 195 196 197 198 199 200 201 202 203 204 205 206 207 208 209 210 211 212 213 214 215 216 217 218 219 220 221 222 223 224 225 226 227 228 229 230 231 232 233 234 235 236 237 238 239 240 241 242 243 244 245 246 247 248 249 250 251 252 253 254 255 256 257 258 259 260 261 262 263 264 265 266 267 268 269 270 271 272 273 274 275 276 277 278 279 280 281 282 283 284 285 286 287 288 289 290 291 292 293 294 295 296 297 298 299 300 301 302 303 304 305 306 307 308 309 310 311 312 313 314 315 316 317 318 319 320 321 322 323 324 325 326 327 328 329 330 331 332 333 334 335 336 337 338 339 340 341 342 343 344 345 346 347 348 349 350 351 352 353 354 355 356 357 358 359 360 361 362 363 364 365 366 367 368 369 370 371 372 373 374 375 376 377 378 379 380 381 382 383 384 385 386 387 388 389 390 391 392 393 394 395 396 397 398 399 400 401 402 403 404 405 406 407 408 409 410 411 412 413 414 415 416 417 418 419 420 421 422 423 424 425 426 427 428 429 430 431 432 433 434 435 436 437 438 439 440 441 442 443 444 445 446 447 448 449 450 451 452 453 454 455 456 457 458 459 460 461 462 463 464 465 466 467 468 469 470 471 472 473 474 475 476 477 478 479 480 481 482 483 484 485 486 487 488 489 490 491 492 493 494 495 496 497 498 499 500 501 502 503 504 505 506 507 508 509 510 511 512 513 514 515 516 517 518 519 520 521 522 523 524 525 526 527 528 529 530 531 532 533 534 535 536 537 538 539 540 541 542 543 544 545 546 547 548 549 550 551 552 553 554 555 556 557 558 559 560 561 562 563 564 565 566 567 568 569 570 571 572 573 574 575 576 577 578 579 580 581 582 583 584 585 586 587 588 589 590 591 592 593 594 595 596 597 598 599 600 601 602 603 604 605 606 607 608 609 610 611 612 613 614 615 616 617 618 619 620 621 622 623 624 625 626 627 628 629 630 631 632 633 634 635 636 637 638 639 640 641 642 643 644 645 646 647 648 649 650 651 652 653 654 655 656 657 658 659 660 661 662 663 664 665 666 667 668 669 670 671 672 673 674 675 676 677 678 679 680 681 682 683 684 685 686 687 688 689 690 691 692 693 694 695 696 697 698 699 700 701 702 703 704 705 706 707 708 709 710 711 712 713 714 715 716 717 718 719 720 721 722 723 724 725 726 727 728 729 730 731 732 733 734 735 736 737 738 739 740 741 742 743 744 745 746 747 748 749 750 751 752 753 754 755 756 757 758 759 760 761 762 763 764 765 766 767 768 769 770 771 772 773 774 775 776 777 778 779 780 781 782 783 784 785 786 787 788 789 790 791 792 793 794 795 796 797 798 799 800 801 802 803 804 805 806 807 808 809 810 811 812 813 814 815 816 817 818 819 820 821 822 823 824 825 826 827 828 829 830 831 832 833 834 835 836 837 838 839 840 841 842 843 844 845 846 847 848 849 850 851 852 853 854 855 856 857 858 859 860 861 862 863 864 865 866 867 868 869 870 871 872 873 874 875 876 877 878 879 880 881 882 883 884 885 886 887 888 889 890 891 892 893 894 895 896 897 898 899 900 901 902 903 904 905 906 907 908 909 910 911 912 913 914 915 916 917 918 919 920 921 922 923 924 925 926 927 928 929 930 931 932 933 934 935 936 937 938 939 940 941 942 943 944 945 946 947 948 949 950 951 952 953 954 955 956 957 958 959 960 961 962 963 964 965 966 967 968 969 970 971 972 973 974 975 976 977 978 979 980 981 982 983 984 985 986 987 988 989 990 991 992 993 994 995 996 997 998 999 1000 1001 1002 1003 1004 1005 1006 1007 1008 1009 1010 1011 1012 1013 1014 1015 1016 1017 1018 1019 1020 1021 1022 1023 1024 1025 1026 1027 1028 1029 1030 1031 1032 1033 1034 1035 1036 1037 1038 1039 1040 1041 1042 1043 1044 1045 1046 1047 1048 1049 1050 1051 1052 1053 1054 1055 1056 1057 1058 1059 1060 1061 1062 1063 1064 1065 1066 1067 1068 1069 1070 1071 1072 1073 1074 1075 1076 1077 1078 1079 1080 1081 1082 1083 1084 1085 1086 1087 1088 1089 1090 1091 1092 1093 1094 1095 1096 1097 1098 1099 1100 1101 1102 1103 1104 1105 1106 1107 1108 1109 1110 1111 1112 1113 1114 1115 1116 1117 1118 1119 1120 1121 1122 1123 1124 1125 1126 1127 1128 1129 1130 1131 1132 1133 1134 1135 1136 1137 1138 1139 1140 1141 1142 1143 1144 1145 1146 1147 1148 1149 1150 1151 1152 1153 1154 1155 1156 1157 1158 1159 1160 1161 1162 1163 1164 1165 1166 1167 1168 1169 1170 1171 1172 1173 1174 1175 1176 1177 1178 1179 1180 1181 1182 1183 1184 1185 1186 1187 1188 1189 1190 1191 1192 1193 1194 1195 1196 1197 1198 1199 1200 1201 1202 1203 1204 1205 1206 1207 1208 1209 1210 1211 1212 1213 1214 1215 1216 1217 1218 1219 1220 1221 1222 1223 1224 1225 1226 1227 1228 1229 1230 1231 1232 1233 1234 1235 1236 1237 1238 1239 1240 1241 1242 1243 1244 1245 1246 1247 1248 1249 1250 1251 1252 1253 1254 1255 1256 1257 1258 1259 1260 1261 1262 1263 1264 1265 1266 1267 1268 1269 1270 1271 1272 1273 1274 1275 1276 1277 1278 1279 1280 1281 1282 1283 1284 1285 1286 1287 1288 1289 1290 1291 1292 1293 1294 1295 1296 1297 1298 1299 1300 1301 1302 1303 1304 1305 1306 1307 1308 1309 1310 1311 1312 1313 1314 1315 1316 1317 1318 1319 1320 1321 1322 1323 1324 1325 1326 1327 1328 1329 1330 1331 1332 1333 1334 1335 1336 1337 1338 1339 1340 1341 1342 1343 1344 1345 1346 1347 1348 1349 1350 1351 1352 1353 1354 1355 1356 1357 1358 1359 1360 1361 1362 1363 1364 1365 1366 1367 1368 1369 1370 1371 1372 1373 1374 1375 1376 1377 1378 1379 1380 1381 1382 1383 1384 1385 1386 1387 1388 1389 1390 1391 1392 1393 1394 1395 1396 1397 1398 1399 1400 1401 1402 1403 1404 1405 1406 1407 1408 1409 1410 1411 1412 1413 1414 1415 1416 1417 1418 1419 1420 1421 1422 1423 1424 1425 1426 1427 1428 1429 1430 1431 1432 1433 1434 1435 1436 1437 1438 1439 1440 1441 1442 1443 1444 1445 1446 1447 1448 1449 1450 1451 1452 1453 1454 1455 1456 1457 1458 1459 1460 1461 1462 1463 1464 1465 1466 1467 1468 1469 1470 1471 1472 1473 1474 1475 1476 1477 1478 1479 1480 1481 1482 1483 1484 1485 1486 1487 1488 1489 1490 1491 1492 1493 1494 1495 1496 1497 1498 1499 1500 1501 1502 1503 1504 1505 1506 1507 1508 1509 1510 1511 1512 1513 1514 1515 1516 1517 1518 1519 1520 1521 1522 1523 1524 1525 1526 1527 1528 1529 1530 1531 1532 1533 1534 1535 1536 1537 1538 1539 1540 1541 1542 1543 1544 1545 1546 1547 1548 1549 1550 1551 1552 1553 1554 1555 1556 1557 1558 1559 1560 1561 1562 1563 1564 1565 1566 1567 1568 1569 1570 1571 1572 1573 1574 1575 1576 1577 1578 1579 1580 1581 1582 1583 1584 1585 1586 1587 1588 1589 1590 1591 1592 1593 1594 1595 1596 1597 1598 1599 1600 1601 1602 1603 1604 1605 1606 1607 1608 1609 1610 1611 1612 1613 1614 1615 1616 1617 1618 1619 1620 1621 1622 1623 1624 1625 1626 1627 1628 1629 1630 1631 1632 1633 1634 1635 1636 1637 1638 1639 1640 1641 1642 1643 1644 1645 1646 1647 1648 1649 1650 1651 1652 1653 1654 1655 1656 1657 1658 1659 1660 1661 1662 1663 1664 1665 1666 1667 1668 1669 1670 1671 1672 1673 1674 1675 1676 1677 1678 1679 1680 1681 1682 1683 1684 1685 1686 1687 1688 1689 1690 1691 1692 1693 1694 1695 1696 1697 1698 1699 1700 1701 1702 1703 1704 1705 1706 1707 1708 1709 1710 1711 1712 1713 1714 1715 1716 1717 1718 1719 1720 1721 1722 1723 1724 1725 1726 1727 1728 1729 1730 1731 1732 1733 1734 1735 1736 1737 1738 1739 1740 1741 1742 1743 1744 1745 1746 1747 1748 1749 1750 1751 1752 1753 1754 1755 1756 1757 1758 1759 1760 1761 1762 1763 1764 1765 1766 1767 1768 1769 1770 1771 1772 1773 1774 1775 1776 1777 1778 1779 1780 1781 1782 1783 1784 1785 1786 1787 1788 1789 1790 1791 1792 1793 1794 1795 1796 1797 1798 1799 1800 1801 1802 1803 1804 1805 1806 1807 1808 1809 1810 1811 1812 1813 1814 1815 1816 1817 1818 1819 1820 1821 1822 1823 1824 1825 1826 1827 1828 1829 1830 1831 1832 1833 1834 1835 1836 1837 1838 1839 1840 1841 1842 1843 1844 1845 1846 1847 1848 1849 1850 1851 1852 1853 1854 1855 1856 1857 1858 1859 1860 1861 1862 1863 1864 1865 1866 1867 1868 1869 1870 1871 1872 1873 1874 1875 1876 1877 1878 1879 1880 1881 1882 1883 1884 1885 1886 1887 1888 1889 1890 1891 1892 1893 1894 1895 1896 1897 1898 1899 1900 1901 1902 1903 1904 1905 1906 1907 1908 1909 1910 1911 1912 1913 1914 1915 1916 1917 1918 1919 1920 1921 1922 1923 1924 1925 1926 1927 1928 1929 1930 1931 1932 1933 1934 1935 1936 1937 1938 1939 1940 1941 1942 1943 1944 1945 1946 1947 1948 1949 1950 1951 1952 1953 1954 1955 1956 1957 1958 1959 1960 1961 1962 1963 1964 1965 1966 1967 1968 1969 1970 1971 1972 1973 1974 1975 1976 1977 1978 1979 1980 1981 1982 1983 1984 1985 1986 1987 1988 1989 1990 1991 1992 1993 1994 1995 1996 1997 1998 1999 2000 2001 2002 2003 2004 2005 2006 2007 2008 2009 2010 2011 2012 2013 2014 2015 2016 2017 2018 2019 2020 2021 2022 2023 2024 2025 2026 2027 2028 2029 2030 2031 2032 2033 2034 2035 2036 2037 2038 2039 2040 2041 2042 2043 2044 2045 2046 2047 2048 2049 2050 2051 2052 2053 2054 2055 2056 2057 2058 2059 2060 2061 2062 2063 2064 2065 2066 2067 2068 2069 2070 2071 2072 2073 2074 2075 2076 2077 2078 2079 2080 2081 2082 2083 2084 2085 2086 2087 2088 2089 2090 2091 2092 2093 2094 2095 2096 2097 2098 2099 2100 2101 2102 2103 2104 2105 2106 2107 2108 2109 2110 2111 2112 2113 2114 2115 2116 2117 2118 2119 2120 2121 2122 2123 2124 2125 2126 2127 2128 2129 2130 2131 2132 2133 2134 2135 2136 2137 2138 2139 2140 2141 2142 2143 2144 2145 2146 2147 2148 2149 2150 2151 2152 2153 2154 2155 2156 2157 2158 2159 2160 2161 2162 2163 2164 2165 2166 2167 2168 2169 2170 2171 2172 2173 2174 2175 2176 2177 2178 2179 2180 2181 2182 2183 2184 2185 2186 2187 2188 2189 2190 2191 2192 2193 2194 2195 2196 2197 2198 2199 2200 2201 2202 2203 2204 2205 2206 2207 2208 2209 2210 2211 2212 2213 2214 2215 2216 2217 2218 2219 2220 2221 2222 2223 2224 2225 2226 2227 2228 2229 2230 2231 2232 2233 2234 2235 2236 2237 2238 2239 2240 2241 2242 2243 2244 2245 2246 2247 2248 2249 2250 2251 2252 2253 2254 2255 2256 2257 2258 2259 2260 2261 2262 2263 2264 2265 2266 2267 2268 2269 2270 2271 2272 2273 2274 2275 2276 2277 2278 2279 2280 2281 2282 2283 2284 2285 2286 2287 2288 2289 2290 2291 2292 2293 2294 2295 2296 2297 2298 2299 2300 2301 2302 2303 2304 2305 2306 2307 2308 2309 2310 2311 2312 2313 2314 2315 2316 2317 2318 2319 2320 2321 2322 2323 2324 2325 2326 2327 2328 2329 2330 2331 2332 2333 2334 2335 2336 2337 2338 2339 2340 2341 2342 2343 2344 2345 2346 2347 2348 2349 2350 2351 2352 2353 2354 2355 2356 2357 2358 2359 2360 2361 2362 2363 2364 2365 2366 2367 2368 2369 2370 2371 2372 2373 2374 2375 2376 2377 2378 2379 2380 2381 2382 2383 2384 2385 2386 2387 2388 2389 2390 2391 2392 2393 2394 2395 2396 2397 2398 2399 2400 2401 2402 2403 2404 2405 2406 2407 2408 2409 2410 2411 2412 2413 2414 2415 2416 2417 2418 2419 2420 2421 2422 2423 2424 2425 2426 2427 2428 2429 2430 2431 2432 2433 2434 2435 2436 2437 2438 2439 2440 2441 2442 2443 2444 2445 2446 2447 2448 2449 2450 2451 2452 2453 2454 2455 2456 2457 2458 2459 2460 2461 2462 2463 2464 2465 2466 2467 2468 2469 2470 2471 2472 2473 2474 2475 2476 2477 2478 2479 2480 2481 2482 2483 2484 2485 2486 2487 2488 2489 2490 2491 2492 2493 2494 2495 2496 2497 2498 2499 2500 2501 2502 2503 2504 2505 2506 2507 2508 2509 2510 2511 2512 2513 2514 2515 2516 2517 2518 2519 2520 2521 2522 2523 2524 2525 2526 2527 2528 2529 2530 2531 2532 2533 2534 2535 2536 2537 2538 2539 2540 2541 2542 2543 2544 2545 2546 2547 2548 2549 2550 2551 2552 2553 2554 2555 2556 2557 2558 2559 2560 2561 2562 2563 2564 2565 2566 2567 2568 2569 2570 2571 2572 2573 2574 2575 2576 2577 2578 2579 2580 2581 2582 2583 2584 2585 2586 2587 2588 2589 2590 2591 2592 2593 2594 2595 2596 2597 2598 2599 2600 2601 2602 2603 2604 2605 2606 2607 2608 2609 2610 2611 2612 2613 2614 2615 2616 2617 2618 2619 2620 2621 2622 2623 2624 2625 2626 2627 2628 2629 2630 2631 2632 2633 2634 2635 2636 2637 2638 2639 2640 2641 2642 2643 2644 2645 2646 2647 2648 2649 2650 2651 2652 2653 2654 2655 2656 2657 2658 2659 2660 2661 2662 2663 2664 2665 2666 2667 2668 2669 2670 2671 2672 2673 2674 2675 2676 2677 2678 2679 2680 2681 2682 2683 2684 2685 2686 2687 2688 2689 2690 2691 2692 2693 2694 2695 2696 2697 2698 2699 2700 2701 2702 2703 2704 2705 2706 2707 2708 2709 2710 2711 2712 2713 2714 2715 2716 2717 2718 2719 2720 2721 2722 2723 2724 2725 2726 2727 2728 2729 2730 2731 2732 2733 2734 2735 2736 2737 2738 2739 2740 2741 2742 2743 2744 2745 2746 2747 2748 2749 2750 2751 2752 2753 2754 2755 2756 2757 2758 2759 2760 2761 2762 2763 2764 2765 2766 2767 2768 2769 2770 2771 2772 2773 2774 2775 2776 2777 2778 2779 2780 2781 2782 2783 2784 2785 2786 2787 2788 2789 2790 2791 2792 2793 2794 2795 2796 2797 2798 2799 2800 2801 2802 2803 2804 2805 2806 2807 2808 2809 2810 2811 2812 2813 2814 2815 2816 2817 2818 2819 2820 2821 2822 2823 
</DataArray>
<DataArray type="UInt32" Name="offsets" format="ascii">
4 8 12 16 20 24 28 32 36 40 44 48 52 56 60 64 68 72 76 80 84 88 92 96 100 104 108 112 116 120 124 128 132 136 140 144 148 152 156 160 164 168 172 176 180 184 188 192 196 200 204 208 212 216 220 224 228 232 236 240 244 248 252 256 260 264 268 272 276 280 284 288 292 296 300 304 308 312 316 320 324 328 332 336 340 344 348 352 356 360 364 368 372 376 380 384 388 392 396 400 404 408 412 416 420 424 428 432 436 440 444 448 452 456 460 464 468 472 476 480 484 488 492 496 500 504 508 512 516 520 524 528 532 536 540 544 548 552 556 560 564 568 572 576 580 584 588 592 596 600 604 608 612 616 620 624 628 632 636 640 644 648 652 656 660 664 668 672 676 680 684 688 692 696 700 704 708 712 716 720 724 728 732 736 740 744 748 752 756 760 764 768 772 776 780 784 788 792 796 800 804 808 812 816 820 824 828 832 836 840 844 848 852 856 860 864 868 872 876 880 884 888 892 896 900 904 908 912 916 920 924 928 932 936 940 944 948 952 956 960 964 968 972 976 980 984 988 992 996 1000 1004 1008 1012 1016 1020 1024 1028 1032 1036 1040 1044 1048 1052 1056 1060 1064 1068 1072 1076 1080 1084 1088 1092 1096 1100 1104 1108 1112 1116 1120 1124 1128 1132 1136 1140 1144 1148 1152 1156 1160 1164 1168 1172 1176 1180 1184 1188 1192 1196 1200 1204 1208 1212 1216 1220 1224 1228 1232 1236 1240 1244 1248 1252 1256 1260 1264 1268 1272 1276 1280 1284 1288 1292 1296 1300 1304 1308 1312 1316 1320 1324 1328 1332 1336 1340 1344 1348 1352 1356 1360 1364 1368 1372 1376 1380 1384 1388 1392 1396 1400 1404 1408 1412 1416 1420 1424 1428 1432 1436 1440 1444 1448 1452 1456 1460 1464 1468 1472 1476 1480 1484 1488 1492 1496 1500 1504 1508 1512 1516 1520 1524 1528 1532 1536 1540 1544 1548 1552 1556 1560 1564 1568 1572 1576 1580 1584 1588 1592 1596 1600 1604 1608 1612 1616 1620 1624 1628 1632 1636 1640 1644 1648 1652 1656 1660 1664 1668 1672 1676 1680 1684 1688 1692 1696 1700 1704 1708 1712 1716 1720 1724 1728 1732 1736 1740 1744 1748 1752 1756 1760 1764 1768 1772 1776 1780 1784 1788 1792 1796 1800 1804 1808 1812 1816 1820 1824 1828 1832 1836 1840 1844 1848 1852 1856 1860 1864 1868 1872 1876 1880 1884 1888 1892 1896 1900 1904 1908 1912 1916 1920 1924 1928 1932 1936 1940 1944 1948 1952 1956 1960 1964 1968 1972 1976 1980 1984 1988 1992 1996 2000 2004 2008 2012 2016 2020 2024 2028 2032 2036 2040 2044 2048 2052 2056 2060 2064 2068 2072 2076 2080 2084 2088 2092 2096 2100 2104 2108 2112 2116 2120 2124 2128 2132 2136 2140 2144 2148 2152 2156 2160 2164 2168 2172 2176 2180 2184 2188 2192 2196 2200 2204 2208 2212 2216 2220 2224 2228 2232 2236 2240 2244 2248 2252 2256 2260 2264 2268 2272 2276 2280 2284 2288 2292 2296 2300 2304 2308 2312 2316 2320 2324 2328 2332 2336 2340 2344 2348 2352 2356 2360 2364 2368 2372 2376 2380 2384 2388 2392 2396 2400 2404 2408 2412 2416 2420 2424 2428 2432 2436 2440 2444 2448 2452 2456 2460 2464 2468 2472 2476 2480 2484 2488 2492 2496 2500 2504 2508 2512 2516 2520 2524 2528 2532 2536 2540 2544 2548 2552 2556 2560 2564 2568 2572 2576 2580 2584 2588 2592 2596 2600 2604 2608 2612 2616 2620 2624 2628 2632 2636 2640 2644 2648 2652 2656 2660 2664 2668 2672 2676 2680 2684 2688 2692 2696 2700 2704 2708 2712 2716 2720 2724 2728 2732 2736 2740 2744 2748 2752 2756 2760 2764 2768 2772 2776 2780 2784 2788 2792 2796 2800 2804 2808 2812 2816 2820 2824 
</DataArray>
<DataArray type="UInt32" Name="types" format="ascii">
10 10 10 10 10 10 10 10 10 10 10 10 10 10 10 10 10 10 10 10 10 10 10 10 10 10 10 10 10 10 10 10 10 10 10 10 10 10 10 10 10 10 10 10 10 10 10 10 10 10 10 10 10 10 10 10 10 10 10 10 10 10 10 10 10 10 10 10 10 10 10 10 10 10 10 10 10 10 10 10 10 10 10 10 10 10 10 10 10 10 10 10 10 10 10 10 10 10 10 10 10 10 10 10 10 10 10 10 10 10 10 10 10 10 10 10 10 10 10 10 10 10 10 10 10 10 10 10 10 10 10 10 10 10 10 10 10 10 10 10 10 10 10 10 10 10 10 10 10 10 10 10 10 10 10 10 10 10 10 10 10 10 10 10 10 10 10 10 10 10 10 10 10 10 10 10 10 10 10 10 10 10 10 10 10 10 10 10 10 10 10 10 10 10 10 10 10 10 10 10 10 10 10 10 10 10 10 10 10 10 10 10 10 10 10 10 10 10 10 10 10 10 10 10 10 10 10 10 10 10 10 10 10 10 10 10 10 10 10 10 10 10 10 10 10 10 10 10 10 10 10 10 10 10 10 10 10 10 10 10 10 10 10 10 10 10 10 10 10 10 10 10 10 10 10 10 10 10 10 10 10 10 10 10 10 10 10 10 10 10 10 10 10 10 10 10 10 10 10 10 10 10 10 10 10 10 10 10 10 10 10 10 10 10 10 10 10 10 10 10 10 10 10 10 10 10 10 10 10 10 10 10 10 10 10 10 10 10 10 10 10 10 10 10 10 10 10 10 10 10 10 10 10 10 10 10 10 10 10 10 10 10 10 10 10 10 10 10 10 10 10 10 10 10 10 10 10 10 10 10 10 10 10 10 10 10 10 10 10 10 10 10 10 10 10 10 10 10 10 10 10 10 10 10 10 10 10 10 10 10 10 10 10 10 10 10 10 10 10 10 10 10 10 10 10 10 10 10 10 10 10 10 10 10 10 10 10 10 10 10 10 10 10 10 10 10 10 10 10 10 10 10 10 10 10 10 10 10 10 10 10 10 10 10 10 10 10 10 10 10 10 10 10 10 10 10 10 10 10 10 10 10 10 10 10 10 10 10 10 10 10 10 10 10 10 10 10 10 10 10 10 10 10 10 10 10 10 10 10 10 10 10 10 10 10 10 10 10 10 10 10 10 10 10 10 10 10 10 10 10 10 10 10 10 10 10 10 10 10 10 10 10 10 10 10 10 10 10 10 10 10 10 10 10 10 10 10 10 10 10 10 10 10 10 10 10 10 10 10 10 10 10 10 10 10 10 10 10 10 10 10 10 10 10 10 10 10 10 10 10 10 10 10 10 10 10 10 10 10 10 10 10 10 10 10 10 10 10 10 10 10 10 10 10 10 10 10 10 10 10 10 10 10 10 10 10 10 10 10 10 10 10 10 10 10 10 10 10 10 10 10 10 10 10 10 10 10 10 10 10 10 10 10 10 10 10 10 10 10 10 10 10 10 10 10 10 10 10 10 10 10 10 10 10 10 10 10 10 10 10 10 10 10 10 10 10 10 10 10 10 10 10 10 10 10 10 10 10 10 10 10 10 10 10 10 10 
</DataArray>
</Cells>
<PointData Scalars="" Vectors="displacement," Tensors="">
<DataArray type="Float64" Name="displacement" NumberOfComponents="3" format="ascii">
-1.1437241898343511e-06 -1.1628436669265737e-06 -9.2910843239556614e-06 -1.6152382263123878e-06 -8.7527316410873433e-07 -0.037011082242534118 2.7706982072829557e-07 2.8115503271524774e-07 -5.4361537268082005e-06 -1.0517844556286279e-06 -1.6275051638454804e-06 -0.037601047081558286 -1.0517844556286279e-06 -1.6275051638454804e-06 -0.037601047081558286 -2.6068321184476497e-10 -7.591339129947205e-07 -0.044493327485174108 -5.7835218424265177e-07 -1.4890219928493487e-06 -0.064694920224527441 -1.0576413974120756e-06 -1.1662869834644475e-06 -0.07022160159214394 -1.0517844556286279e-06 -1.6275051638454804e-06 -0.037601047081558286 -2.6068321184477774e-10 -7.591339129947205e-07 -0.044493327485174108 -1.0576413974120756e-06 -1.1662869834644475e-06 -0.07022160159214394 -1.1836508910538845e-06 -1.0510737556271091e-06 -0.069381195667945775 -1.6152382263123876e-06 -8.7527316410873433e-07 -0.037011082242534118 2.7706982072829535e-07 2.8115503271524737e-07 -5.4361537268165429e-06 -2.6068321184473897e-10 -7.591339129947205e-07 -0.044493327485174108 -9.1288436906414371e-07 2.9968971670537039e-08 -0.044618578492471708 -1.6152382263123876e-06 -8.7527316410873433e-07 -0.037011082242534118 -1.0517844556286279e-06 -1.6275051638454806e-06 -0.03760104708155828 -2.6068321184459824e-10 -7.5913391299472018e-07 -0.044493327485174108 -1.1836508910538845e-06 -1.0510737556271091e-06 -0.069381195667945775 -1.6152382263123876e-06 -8.7527316410873433e-07 -0.037011082242534118 2.770698207282953e-07 2.8115503271524758e-07 -5.4361537268172146e-06 -1.0517844556286279e-06 -1.6275051638454808e-06 -0.03760104708155828 -2.6068321184443482e-10 -7.5913391299472008e-07 -0.044493327485174101 -1.6108700337901942e-06 -1.6641285476440025e-06 -0.045007796662184824 -1.6152382263123878e-06 -8.7527316410873433e-07 -0.037011082242534112 -1.0517844556286281e-06 -1.6275051638454806e-06 -0.03760104708155828 -1.1836508910538845e-06 -1.0510737556271091e-06 -0.069381195667945775 -1.1437241898343511e-06 -1.1628436669265737e-06 -9.2910843239556614e-06 -1.6108700337901942e-06 -1.6641285476440025e-06 -0.045007796662184824 -1.6152382263123876e-06 -8.7527316410873433e-07 -0.037011082242534118 -1.0517844556286279e-06 -1.6275051638454804e-06 -0.037601047081558286 -1.6108700337901942e-06 -1.6641285476440025e-06 -0.045007796662184824 -1.0517844556286277e-06 -1.6275051638454804e-06 -0.037601047081558286 -1.0576413974120756e-06 -1.1662869834644475e-06 -0.07022160159214394 -1.1836508910538845e-06 -1.0510737556271091e-06 -0.069381195667945775 -1.6152382263123876e-06 -8.7527316410873433e-07 -0.037011082242534118 -7.3938137653997213e-07 1.1913262339495175e-07 -5.9289463123721629e-06 2.770698207282953e-07 2.8115503271524769e-07 -5.4361537268085571e-06 -1.6240251027551397e-06 -2.2216301741657166e-07 -0.029522635680216899 -7.3938137653997203e-07 1.191326233949517e-07 -5.9289463123755629e-06 2.7706982072829557e-07 2.8115503271524774e-07 -5.4361537268082005e-06 2.6998146304866315e-07 -5.6686939412747549e-08 -5.4832330560674517e-06 -1.6240251027551397e-06 -2.2216301741657166e-07 -0.029522635680216899 -1.1437241898343511e-06 -1.1628436669265737e-06 -9.2910843239556614e-06 -1.6152382263123876e-06 -8.7527316410873433e-07 -0.037011082242534118 -7.3938137653997203e-07 1.191326233949517e-07 -5.9289463123755629e-06 2.7706982072829557e-07 2.8115503271524774e-07 -5.4361537268082005e-06 -1.0517844556286279e-06 -1.6275051638454804e-06 -0.037601047081558286 1.1689221825535375e-07 -7.470189115939917e-07 -6.1814093938674747e-06 -5.5563166330843637e-08 2.7269068758277756e-07 -4.9021265908710405e-06 -3.2503207309903927e-07 -1.6199349468909659e-06 -0.029640622414729069 -1.1437241898343511e-06 -1.1628436669265737e-06 -9.2910843239556614e-06 2.7706982072829546e-07 2.8115503271524758e-07 -5.4361537268128727e-06 -1.0517844556286279e-06 -1.6275051638454804e-06 -0.037601047081558286 1.1689221825535375e-07 -7.470189115939917e-07 -6.1814093938674747e-06 2.7706982072829557e-07 2.8115503271524774e-07 -5.4361537268082005e-06 -1.0517844556286279e-06 -1.6275051638454804e-06 -0.037601047081558286 1.1689221825535373e-07 -7.470189115939917e-07 -6.1814093938674747e-06 -5.5563166330843637e-08 2.7269068758277756e-07 -4.9021265908710405e-06 -5.5563166330843637e-08 2.7269068758277756e-07 -4.9021265908710405e-06 -1.3487998474448245e-09 -9.9436283606856566e-07 -7.6468341894300662e-06 -2.6068321184476497e-10 -7.591339129947205e-07 -0.044493327485174108 -3.2503207309903927e-07 -1.6199349468909659e-06 -0.029640622414729065 1.1689221825535375e-07 -7.470189115939917e-07 -6.1814093938674747e-06 -5.5563166330843703e-08 2.7269068758277777e-07 -4.902126590874388e-06 -1.3487998474448245e-09 -9.9436283606856566e-07 -7.6468341894300662e-06 -3.2503207309903927e-07 -1.6199349468909659e-06 -0.029640622414729069 -1.0517844556286279e-06 -1.6275051638454804e-06 -0.037601047081558286 -5.5563166330843783e-08 2.726906875827773e-07 -4.902126590881819e-06 -2.6068321184480726e-10 -7.5913391299472008e-07 -0.044493327485174101 -3.2503207309903927e-07 -1.6199349468909659e-06 -0.029640622414729069 -3.2540468105906591e-10 2.0914835553017084e-07 -8.8082577350680283e-06 -2.6068321184479072e-10 -7.591339129947206e-07 -0.044493327485174108 -1.4873193524882952e-07 -2.3682850484680753e-06 -0.045893277902572728 2.0328949825509538e-07 -6.8846666520494168e-07 -0.066363563835468362 2.7706982072829557e-07 2.8115503271524774e-07 -5.4361537268082005e-06 -1.0517844556286279e-06 -1.6275051638454804e-06 -0.037601047081558293 -5.5563166330843637e-08 2.7269068758277756e-07 -4.9021265908710405e-06 -2.6068321184486108e-10 -7.591339129947206e-07 -0.044493327485174108 2.7706982072829557e-07 2.8115503271524774e-07 -5.4361537268082005e-06 -5.5563166330843637e-08 2.7269068758277756e-07 -4.9021265908710405e-06 -2.6068321184476497e-10 -7.591339129947205e-07 -0.044493327485174108 -1.1391025220958715e-07 -1.1504872342325818e-07 -6.0595696428798811e-06 -5.5563166330843637e-08 2.7269068758277756e-07 -4.9021265908710405e-06 -3.2540468105906591e-10 2.0914835553017084e-07 -8.8082577350680283e-06 -2.6068321184476497e-10 -7.591339129947205e-07 -0.044493327485174108 -1.1391025220958715e-07 -1.1504872342325818e-07 -6.0595696428798811e-06 -5.5563166330843637e-08 2.7269068758277756e-07 -4.9021265908710405e-06 -3.2540468105906368e-10 2.0914835553017082e-07 -8.8082577350682316e-06 -1.3487998474448233e-09 -9.9436283606856566e-07 -7.6468341894310538e-06 -2.6068321184476497e-10 -7.591339129947205e-07 -0.044493327485174108 -3.2540468105906591e-10 2.0914835553017084e-07 -8.8082577350680283e-06 -1.3487998474448245e-09 -9.9436283606856566e-07 -7.6468341894300662e-06 1.6971311894934541e-09 -9.6222839755641411e-07 -7.9076054456412815e-06 -1.4873193524882952e-07 -2.3682850484680753e-06 -0.045893277902572728 -3.2540468105906591e-10 2.0914835553017084e-07 -8.8082577350680283e-06 -1.3487998474448301e-09 -9.9436283606856566e-07 -7.6468341894290362e-06 -2.6068321184476497e-10 -7.591339129947205e-07 -0.044493327485174108 -1.4873193524882952e-07 -2.3682850484680753e-06 -0.045893277902572728 -1.3487998474448245e-09 -9.9436283606856566e-07 -7.6468341894300662e-06 -2.6068321184483513e-10 -7.591339129947205e-07 -0.044493327485174115 -3.2503207309903927e-07 -1.6199349468909659e-06 -0.029640622414729069 -1.4873193524882952e-07 -2.3682850484680753e-06 -0.045893277902572728 -1.0517844556286279e-06 -1.6275051638454804e-06 -0.037601047081558286 -2.6068321184476497e-10 -7.591339129947205e-07 -0.044493327485174108 -3.2503207309903927e-07 -1.6199349468909659e-06 -0.029640622414729069 -5.7835218424265177e-07 -1.4890219928493487e-06 -0.064694920224527441 -2.6068321184476497e-10 -7.591339129947205e-07 -0.044493327485174108 -3.2503207309903922e-07 -1.6199349468909659e-06 -0.029640622414729069 -5.7835218424265177e-07 -1.4890219928493489e-06 -0.064694920224527441 -1.4873193524882952e-07 -2.3682850484680753e-06 -0.045893277902572728 -2.6068321184476497e-10 -7.591339129947205e-07 -0.044493327485174108 -5.7835218424265177e-07 -1.4890219928493487e-06 -0.064694920224527441 -1.8372557287275365e-07 -1.7201407338673707e-06 -0.086193261424062292 -6.2751146629419361e-07 -6.0428346065622259e-07 -0.084080607414070266 -2.6068321184476497e-10 -7.591339129947205e-07 -0.044493327485174108 -1.8372557287275368e-07 -1.720140733867371e-06 -0.086193261424062279 2.0328949825509538e-07 -6.8846666520494179e-07 -0.066363563835468362 -4.1782557278883459e-08 -8.3805439706533211e-07 -0.11416303671339979 -5.7835218424265177e-07 -1.4890219928493487e-06 -0.064694920224527441 -1.8372557287275365e-07 -1.7201407338673707e-06 -0.086193261424062292 -1.1146520123542337e-06 -2.1105469420275787e-06 -0.11018439928886237 -6.2751146629419361e-07 -6.042834606562228e-07 -0.084080607414070266 -2.6068321184476497e-10 -7.591339129947205e-07 -0.044493327485174108 -5.7835218424265177e-07 -1.4890219928493487e-06 -0.064694920224527441 -1.0576413974120756e-06 -1.1662869834644473e-06 -0.07022160159214394 -6.2751146629419361e-07 -6.0428346065622259e-07 -0.084080607414070266 -2.6068321184476497e-10 -7.591339129947205e-07 -0.044493327485174108 -1.8372557287275368e-07 -1.7201407338673705e-06 -0.086193261424062292 -1.4873193524882952e-07 -2.3682850484680753e-06 -0.045893277902572728 2.0328949825509535e-07 -6.8846666520494168e-07 -0.066363563835468362 -1.8372557287275365e-07 -1.7201407338673707e-06 -0.086193261424062292 -6.2751146629419361e-07 -6.0428346065622259e-07 -0.084080607414070266 -5.2452855148204765e-07 -1.7558241027339146e-06 -0.1280252197727717 -4.1782557278883479e-08 -8.3805439706533232e-07 -0.11416303671339981 -1.8372557287275365e-07 -1.7201407338673707e-06 -0.086193261424062292 -1.1146520123542337e-06 -2.1105469420275787e-06 -0.11018439928886237 -6.2751146629419361e-07 -6.0428346065622259e-07 -0.084080607414070266 -5.2452855148204765e-07 -1.7558241027339146e-06 -0.1280252197727717 -2.6068321184476497e-10 -7.591339129947205e-07 -0.044493327485174108 -1.8372557287275379e-07 -1.7201407338673707e-06 -0.086193261424062292 -6.2751146629419361e-07 -6.0428346065622259e-07 -0.084080607414070266 -4.1782557278883459e-08 -8.3805439706533211e-07 -0.11416303671339979 -2.6068321184476497e-10 -7.591339129947205e-07 -0.044493327485174108 -5.7835218424265177e-07 -1.4890219928493487e-06 -0.064694920224527455 -1.8372557287275365e-07 -1.7201407338673707e-06 -0.086193261424062292 -1.4873193524882952e-07 -2.3682850484680753e-06 -0.045893277902572728 -1.8372557287275365e-07 -1.7201407338673707e-06 -0.086193261424062292 -3.7551287088917289e-08 -5.3757547439151771e-07 -0.11250770888502609 -5.2452855148204765e-07 -1.7558241027339146e-06 -0.1280252197727717 -4.1782557278883479e-08 -8.3805439706533232e-07 -0.11416303671339981 -1.0576413974120756e-06 -1.1662869834644475e-06 -0.07022160159214394 -1.1836508910538847e-06 -1.0510737556271093e-06 -0.069381195667945789 -2.1224227223848272e-06 -1.2254363624401295e-06 -0.11018438916285876 -6.2751146629419361e-07 -6.0428346065622259e-07 -0.084080607414070266 -2.6068321184476497e-10 -7.591339129947205e-07 -0.044493327485174108 -1.0576413974120751e-06 -1.1662869834644473e-06 -0.07022160159214394 -1.1836508910538845e-06 -1.0510737556271091e-06 -0.069381195667945775 -6.2751146629419361e-07 -6.0428346065622259e-07 -0.084080607414070266 -1.6152382263123876e-06 -8.7527316410873433e-07 -0.037011082242534118 -2.6068321184366875e-10 -7.5913391299472092e-07 -0.044493327485174095 -1.1836508910538845e-06 -1.0510737556271093e-06 -0.069381195667945775 -6.2751146629419329e-07 -6.042834606562228e-07 -0.084080607414070266 -1.6152382263123876e-06 -8.7527316410873433e-07 -0.037011082242534118 -1.1836508910538845e-06 -1.0510737556271091e-06 -0.069381195667945761 -1.5003321662189774e-06 -5.4903324989626649e-07 -0.064694901845269673 -6.2751146629419382e-07 -6.042834606562227e-07 -0.084080607414070266 -5.7835218424265177e-07 -1.4890219928493487e-06 -0.064694920224527441 -1.1146520123542337e-06 -2.1105469420275787e-06 -0.11018439928886237 -1.0576413974120756e-06 -1.1662869834644475e-06 -0.07022160159214394 -6.275114662941935e-07 -6.0428346065622259e-07 -0.084080607414070252 -1.1836508910538845e-06 -1.0510737556271091e-06 -0.069381195667945775 -2.1224227223848272e-06 -1.2254363624401295e-06 -0.11018438916285876 -1.5003321662189774e-06 -5.4903324989626649e-07 -0.064694901845269673 -6.2751146629419361e-07 -6.0428346065622259e-07 -0.084080607414070266 -1.1146520123542337e-06 -2.1105469420275787e-06 -0.11018439928886237 -1.0576413974120756e-06 -1.1662869834644475e-06 -0.07022160159214394 -2.1224227223848272e-06 -1.2254363624401295e-06 -0.11018438916285876 -6.2751146629419372e-07 -6.0428346065622259e-07 -0.084080607414070266 -1.1146520123542337e-06 -2.1105469420275787e-06 -0.11018439928886237 -1.9526352197496268e-06 -1.9382567145792473e-06 -0.090007959897485959 -1.0576413974120756e-06 -1.1662869834644475e-06 -0.07022160159214394 -2.1224227223848272e-06 -1.2254363624401295e-06 -0.11018438916285876 -1.9526352197496268e-06 -1.9382567145792469e-06 -0.090007959897485973 -1.0576413974120756e-06 -1.1662869834644475e-06 -0.07022160159214394 -1.1836508910538845e-06 -1.0510737556271091e-06 -0.069381195667945775 -2.1224227223848272e-06 -1.2254363624401295e-06 -0.11018438916285876 -1.1146520123542337e-06 -2.1105469420275787e-06 -0.11018439928886237 -1.9526352197496268e-06 -1.9382567145792469e-06 -0.090007959897485973 -2.1224227223848272e-06 -1.2254363624401295e-06 -0.11018438916285876 -1.9919384224063511e-06 -1.9978515390068843e-06 -0.13500775542255167 -1.6108700337901942e-06 -1.6641285476440025e-06 -0.045007796662184824 -1.9526352197496272e-06 -1.9382567145792469e-06 -0.090007959897485973 -1.0576413974120756e-06 -1.1662869834644475e-06 -0.07022160159214394 -1.1836508910538845e-06 -1.0510737556271091e-06 -0.069381195667945775 -1.7879555561617263e-06 -2.0031189925152842e-07 -0.086305432420556216 -6.2751146629419361e-07 -6.0428346065622259e-07 -0.084080607414070266 -9.1288436906414329e-07 2.9968971670537085e-08 -0.044618578492471701 -8.3676624714368668e-07 -8.5966934200822357e-08 -0.11356349935481504 -1.6152382263123876e-06 -8.7527316410873433e-07 -0.037011082242534118 -1.5003321662189774e-06 -5.4903324989626649e-07 -0.064694901845269673 -6.2751146629419372e-07 -6.0428346065622185e-07 -0.08408060741407021 -9.1288436906414329e-07 2.9968971670537198e-08 -0.044618578492471715 -1.5003321662189774e-06 -5.4903324989626649e-07 -0.064694901845269673 -1.7879555561617263e-06 -2.0031189925152842e-07 -0.086305432420556216 -6.275114662941935e-07 -6.0428346065622238e-07 -0.084080607414070252 -9.1288436906414329e-07 2.9968971670537356e-08 -0.044618578492471694 -2.1224227223848272e-06 -1.2254363624401295e-06 -0.11018438916285876 -1.7879555561617263e-06 -2.0031189925152842e-07 -0.086305432420556216 -6.2751146629419361e-07 -6.0428346065622259e-07 -0.084080607414070266 -1.7271124640385462e-06 -5.925152010108466e-07 -0.12802320450099705 -1.7879555561617263e-06 -2.0031189925152842e-07 -0.086305432420556216 -9.1288436906414361e-07 2.9968971670537383e-08 -0.044618578492471701 -7.0300616238713566e-07 2.5936240157912023e-07 -0.065459204618209976 -8.3676624714368668e-07 -8.5966934200822674e-08 -0.11356349935481505 -1.7879555561617263e-06 -2.0031189925152842e-07 -0.086305432420556216 -6.2751146629419361e-07 -6.0428346065622259e-07 -0.084080607414070266 -8.3676624714368647e-07 -8.596693420082237e-08 -0.11356349935481502 -1.7271124640385462e-06 -5.925152010108466e-07 -0.12802320450099705 -1.7879555561617263e-06 -2.0031189925152842e-07 -0.086305432420556216 -9.1288436906414371e-07 2.996897167053735e-08 -0.044618578492471701 -2.425982606078597e-06 -1.2379690128520255e-07 -0.04589315938362093 -7.0300616238713566e-07 2.5936240157912023e-07 -0.065459204618209976 -2.1224227223848272e-06 -1.2254363624401295e-06 -0.11018438916285876 -1.5003321662189774e-06 -5.4903324989626649e-07 -0.064694901845269673 -1.7879555561617263e-06 -2.0031189925152842e-07 -0.086305432420556216 -6.2751146629419361e-07 -6.0428346065622259e-07 -0.084080607414070266 -1.5003321662189774e-06 -5.4903324989626649e-07 -0.064694901845269673 -1.7879555561617263e-06 -2.0031189925152842e-07 -0.086305432420556216 -9.1288436906414329e-07 2.9968971670537356e-08 -0.044618578492471694 -2.425982606078597e-06 -1.2379690128520255e-07 -0.04589315938362093 -1.7879555561617263e-06 -2.0031189925152842e-07 -0.086305432420556216 -6.0747646535540187e-07 -6.448880012924008e-08 -0.1125076548539244 -8.3676624714368658e-07 -8.5966934200822436e-08 -0.11356349935481502 -1.7271124640385462e-06 -5.925152010108466e-07 -0.12802320450099705 -2.6068321184476497e-10 -7.591339129947205e-07 -0.044493327485174108 -6.2751146629419361e-07 -6.0428346065622259e-07 -0.084080607414070266 1.9737882396866766e-11 2.1593026879005316e-08 -0.05516015105813174 2.0328949825509535e-07 -6.8846666520494158e-07 -0.066363563835468348 -6.2751146629419361e-07 -6.0428346065622259e-07 -0.084080607414070266 -7.0300616238713566e-07 2.5936240157912023e-07 -0.065459204618209976 1.9737882396752095e-11 2.1593026879005402e-08 -0.055160151058131733 2.4766520402843055e-08 -2.8604385172197632e-08 -0.11250737590774497 -6.2751146629419361e-07 -6.0428346065622259e-07 -0.084080607414070266 -9.1288436906414329e-07 2.9968971670537356e-08 -0.044618578492471694 -7.0300616238713566e-07 2.5936240157912023e-07 -0.065459204618209976 1.9737882396863822e-11 2.1593026879005257e-08 -0.055160151058131733 -2.6068321184476497e-10 -7.591339129947205e-07 -0.044493327485174108 -6.2751146629419372e-07 -6.0428346065622248e-07 -0.084080607414070266 2.0328949825509535e-07 -6.8846666520494168e-07 -0.066363563835468362 -4.1782557278883479e-08 -8.3805439706533232e-07 -0.11416303671339981 -2.6068321184476497e-10 -7.591339129947205e-07 -0.044493327485174108 -6.2751146629419361e-07 -6.0428346065622248e-07 -0.084080607414070252 -9.128843690641434e-07 2.9968971670537303e-08 -0.044618578492471694 1.973788239696974e-11 2.1593026879005233e-08 -0.055160151058131747 -6.2751146629419361e-07 -6.0428346065622259e-07 -0.084080607414070266 -9.1288436906414329e-07 2.9968971670537363e-08 -0.044618578492471694 -7.0300616238713556e-07 2.5936240157912012e-07 -0.065459204618209976 -8.367662471436869e-07 -8.5966934200822449e-08 -0.11356349935481504 -6.2751146629419361e-07 -6.0428346065622259e-07 -0.084080607414070266 2.4766520402843055e-08 -2.8604385172197632e-08 -0.11250737590774497 2.0328949825509535e-07 -6.8846666520494168e-07 -0.066363563835468362 -4.1782557278883479e-08 -8.3805439706533232e-07 -0.11416303671339981 -6.2751146629419361e-07 -6.0428346065622259e-07 -0.084080607414070266 1.9737882396794152e-11 2.1593026879005187e-08 -0.055160151058131733 2.4766520402843052e-08 -2.8604385172197632e-08 -0.11250737590774497 2.0328949825509535e-07 -6.8846666520494168e-07 -0.066363563835468362 -6.2751146629419361e-07 -6.0428346065622259e-07 -0.084080607414070266 2.4766520402843055e-08 -2.8604385172197632e-08 -0.11250737590774497 -8.367662471436869e-07 -8.5966934200822529e-08 -0.11356349935481502 -4.1782557278883479e-08 -8.3805439706533232e-07 -0.11416303671339981 -6.2751146629419361e-07 -6.0428346065622259e-07 -0.084080607414070266 -7.0300616238713556e-07 2.5936240157912033e-07 -0.065459204618209976 2.4766520402843081e-08 -2.8604385172197589e-08 -0.11250737590774497 -8.3676624714368679e-07 -8.5966934200822635e-08 -0.11356349935481504 -1.5659848334702012e-08 -1.5817412780979291e-08 -7.421500331351487e-06 -9.1288436906414382e-07 2.9968971670537317e-08 -0.044618578492471708 2.0822891451964358e-07 -5.5299303566188602e-11 -8.5010714907300386e-06 -7.0300616238713577e-07 2.5936240157912017e-07 -0.065459204618209976 -1.5659848334702012e-08 -1.5817412780979291e-08 -7.421500331351487e-06 -9.1288436906414371e-07 2.9968971670537257e-08 -0.044618578492471722 -7.0300616238713566e-07 2.5936240157912001e-07 -0.065459204618209976 1.9737882396863822e-11 2.1593026879005257e-08 -0.055160151058131733 -2.6068321184476497e-10 -7.591339129947205e-07 -0.044493327485174108 -1.5659848334702012e-08 -1.5817412780979291e-08 -7.421500331351487e-06 1.9737882396863192e-11 2.1593026879005296e-08 -0.055160151058131761 1.5686957438114249e-08 -1.5858432917107802e-08 -7.3730241147480533e-06 -2.6068321184476497e-10 -7.591339129947205e-07 -0.044493327485174108 -1.5659848334702138e-08 -1.5817412780979271e-08 -7.4215003313563294e-06 -9.128843690641435e-07 2.996897167053735e-08 -0.044618578492471701 1.9737882396915734e-11 2.1593026879005439e-08 -0.055160151058131747 -1.5659848334702012e-08 -1.5817412780979291e-08 -7.421500331351487e-06 1.3971513625684335e-10 9.214832723718804e-11 -2.1157460880598863e-06 1.9737882396863822e-11 2.1593026879005257e-08 -0.055160151058131733 1.5686957438114249e-08 -1.5858432917107802e-08 -7.3730241147480533e-06 -3.2540468105906591e-10 2.0914835553017084e-07 -8.8082577350680283e-06 -2.6068321184476497e-10 -7.591339129947205e-07 -0.044493327485174108 -1.1391025220958715e-07 -1.1504872342325818e-07 -6.0595696428798811e-06 -1.5659848334702012e-08 -1.5817412780979291e-08 -7.421500331351487e-06 -3.2540468105906591e-10 2.0914835553017084e-07 -8.8082577350680283e-06 -2.6068321184476497e-10 -7.591339129947205e-07 -0.044493327485174108 -1.5659848334702012e-08 -1.5817412780979291e-08 -7.421500331351487e-06 1.5686957438114249e-08 -1.5858432917107802e-08 -7.3730241147480533e-06 -2.6068321184476497e-10 -7.591339129947205e-07 -0.044493327485174108 -1.1391025220958714e-07 -1.1504872342325825e-07 -6.0595696428848201e-06 -1.5659848334702022e-08 -1.5817412780979241e-08 -7.4215003313514912e-06 -9.128843690641435e-07 2.9968971670537376e-08 -0.044618578492471701 2.7706982072829557e-07 2.8115503271524774e-07 -5.4361537268082005e-06 -2.6068321184476497e-10 -7.591339129947205e-07 -0.044493327485174108 -1.1391025220958715e-07 -1.1504872342325818e-07 -6.0595696428798811e-06 -9.128843690641434e-07 2.9968971670537429e-08 -0.044618578492471701 -1.1391025220958715e-07 -1.1504872342325818e-07 -6.0595696428798811e-06 -1.5659848334702012e-08 -1.5817412780979291e-08 -7.421500331351487e-06 -9.1288436906414308e-07 2.9968971670537343e-08 -0.044618578492471687 2.0822891451964358e-07 -5.5299303566190709e-11 -8.5010714907295388e-06 -1.1391025220958715e-07 -1.1504872342325818e-07 -6.0595696428798811e-06 -9.1288436906414308e-07 2.9968971670537343e-08 -0.044618578492471687 2.6998146304866315e-07 -5.6686939412747549e-08 -5.4832330560674517e-06 2.0822891451964358e-07 -5.5299303566190709e-11 -8.5010714907295388e-06 -9.1288436906414329e-07 2.9968971670537356e-08 -0.044618578492471694 2.6998146304866241e-07 -5.6686939412747515e-08 -5.4832330560795092e-06 -9.8407643725381258e-07 -1.3970795134601407e-09 -7.9717370539115632e-06 2.0822891451964305e-07 -5.5299303566173733e-11 -8.5010714907394457e-06 -1.6152382263123876e-06 -8.7527316410873433e-07 -0.037011082242534118 -2.6068321184459597e-10 -7.5913391299472029e-07 -0.044493327485174074 -6.2751146629419372e-07 -6.0428346065622185e-07 -0.084080607414070224 -9.128843690641434e-07 2.9968971670537297e-08 -0.044618578492471715 2.7706982072829557e-07 2.8115503271524774e-07 -5.4361537268082005e-06 -1.1391025220958715e-07 -1.1504872342325818e-07 -6.0595696428798811e-06 -9.1288436906414329e-07 2.9968971670537356e-08 -0.044618578492471694 2.6998146304866315e-07 -5.6686939412747549e-08 -5.4832330560674517e-06 -1.6152382263123876e-06 -8.7527316410873433e-07 -0.037011082242534118 2.7706982072829535e-07 2.8115503271524758e-07 -5.4361537268130608e-06 -9.1288436906414329e-07 2.9968971670537336e-08 -0.044618578492471694 -1.6240251027551397e-06 -2.2216301741657166e-07 -0.029522635680216899 -7.3938137653997203e-07 1.191326233949517e-07 -5.9289463123755629e-06 2.6998146304866315e-07 -5.6686939412747549e-08 -5.4832330560674517e-06 -1.6240251027551397e-06 -2.2216301741657166e-07 -0.029522635680216899 -9.8407643725381152e-07 -1.3970795134601947e-09 -7.971737053896835e-06 -9.1288436906414329e-07 2.9968971670537356e-08 -0.044618578492471694 2.6998146304866262e-07 -5.6686939412747509e-08 -5.4832330560741178e-06 -1.6240251027551397e-06 -2.2216301741657166e-07 -0.029522635680216899 -9.8407643725381152e-07 -1.3970795134599819e-09 -7.9717370538830656e-06 2.7706982072829557e-07 2.8115503271524774e-07 -5.4361537268082005e-06 -9.1288436906414329e-07 2.9968971670537356e-08 -0.044618578492471694 2.6998146304866315e-07 -5.6686939412747549e-08 -5.4832330560674517e-06 -1.6240251027551397e-06 -2.2216301741657166e-07 -0.029522635680216899 -1.6152382263123876e-06 -8.7527316410873433e-07 -0.037011082242534118 -1.5003321662189771e-06 -5.4903324989626649e-07 -0.064694901845269659 -9.1288436906414329e-07 2.9968971670537303e-08 -0.044618578492471694 -1.6240251027551397e-06 -2.2216301741657166e-07 -0.029522635680216899 -9.1288436906414329e-07 2.9968971670537356e-08 -0.044618578492471694 -1.6240251027551397e-06 -2.2216301741657166e-07 -0.029522635680216899 -9.8407643725381088e-07 -1.3970795134599958e-09 -7.9717370538831435e-06 -2.425982606078597e-06 -1.237969012852025e-07 -0.045893159383620923 -1.5003321662189774e-06 -5.4903324989626649e-07 -0.064694901845269673 -9.1288436906414287e-07 2.9968971670537436e-08 -0.044618578492471687 -1.6240251027551397e-06 -2.2216301741657166e-07 -0.029522635680216899 -2.425982606078597e-06 -1.2379690128520255e-07 -0.04589315938362093 -9.1288436906414329e-07 2.9968971670537356e-08 -0.044618578492471694 -9.8407643725381152e-07 -1.3970795134601563e-09 -7.9717370538893675e-06 2.0822891451964353e-07 -5.5299303566173526e-11 -8.5010714907293948e-06 -2.425982606078597e-06 -1.2379690128520255e-07 -0.04589315938362093 -9.59939993382428e-07 1.5549201814604428e-09 -7.7333402548311077e-06 2.6255775025369143e-07 5.6788874906214086e-08 -4.9237590276597403e-06 2.0822891451964358e-07 -5.5299303566190709e-11 -8.5010714907295388e-06 -2.425982606078597e-06 -1.2379690128520255e-07 -0.04589315938362093 -9.1288436906414329e-07 2.9968971670537356e-08 -0.044618578492471694 2.0822891451964358e-07 -5.529930356609104e-11 -8.5010714907388037e-06 -6.9396802081444852e-07 3.7899307944494422e-07 -0.042350590920845255 -2.425982606078597e-06 -1.2379690128520255e-07 -0.04589315938362093 -9.1288436906414329e-07 2.9968971670537356e-08 -0.044618578492471694 2.0822891451964268e-07 -5.5299303566081153e-11 -8.5010714907349175e-06 -6.9396802081444788e-07 3.7899307944494411e-07 -0.042350590920845262 -7.0300616238713566e-07 2.5936240157912023e-07 -0.065459204618209976 -9.1288436906414329e-07 2.9968971670537356e-08 -0.044618578492471694 -6.939680208144482e-07 3.7899307944494438e-07 -0.042350590920845262 -2.425982606078597e-06 -1.2379690128520255e-07 -0.04589315938362093 -7.0300616238713587e-07 2.5936240157912017e-07 -0.065459204618209976 -6.9396802081444873e-07 3.7899307944494427e-07 -0.042350590920845269 -2.4259826060785974e-06 -1.2379690128520271e-07 -0.045893159383620909 -1.4818811298558086e-06 5.7026482358988332e-07 -0.06469464787568939 -7.0300616238713566e-07 2.5936240157912023e-07 -0.065459204618209976 2.0822891451964358e-07 -5.5299303566190709e-11 -8.5010714907295388e-06 -6.9396802081444873e-07 3.7899307944494422e-07 -0.042350590920845275 -7.0300616238713566e-07 2.5936240157912023e-07 -0.065459204618209976 -1.1090668213198408e-07 1.1501261410548672e-07 -6.2179918858892361e-06 -9.8407643725381152e-07 -1.3970795134601947e-09 -7.971737053896835e-06 -9.59939993382428e-07 1.5549201814604428e-09 -7.7333402548311077e-06 2.0822891451964358e-07 -5.5299303566190709e-11 -8.5010714907295388e-06 -2.425982606078597e-06 -1.2379690128520255e-07 -0.04589315938362093 -9.59939993382428e-07 1.5549201814604428e-09 -7.7333402548311077e-06 2.6255775025369143e-07 5.6788874906214086e-08 -4.9237590276597403e-06 -1.5351901453414571e-06 3.9393196955235752e-07 -0.029187006568548234 -2.425982606078597e-06 -1.2379690128520255e-07 -0.04589315938362093 -9.59939993382428e-07 1.5549201814604428e-09 -7.7333402548311077e-06 2.6255775025369143e-07 5.6788874906214086e-08 -4.9237590276597403e-06 -1.5351901453414571e-06 3.9393196955235752e-07 -0.029187006568548234 -7.1633536860020691e-07 -1.1907485619006024e-07 -6.1669868537518197e-06 2.6255775025369143e-07 5.6788874906214086e-08 -4.9237590276597403e-06 -6.9396802081444873e-07 3.7899307944494427e-07 -0.042350590920845269 -1.5351901453414571e-06 3.9393196955235752e-07 -0.029187006568548234 2.6285343120508982e-07 -2.8150944187102608e-07 -5.4059750492108392e-06 2.6255775025369143e-07 5.6788874906214086e-08 -4.9237590276597403e-06 2.0822891451964361e-07 -5.529930356619922e-11 -8.501071490728004e-06 -6.9396802081444873e-07 3.7899307944494427e-07 -0.042350590920845269 -1.1090668213198408e-07 1.1501261410548672e-07 -6.2179918858892361e-06 2.6255775025369143e-07 5.6788874906214086e-08 -4.9237590276597403e-06 -6.9396802081444873e-07 3.7899307944494427e-07 -0.042350590920845269 2.6285343120508982e-07 -2.8150944187102608e-07 -5.4059750492108392e-06 -1.1090668213198408e-07 1.1501261410548672e-07 -6.2179918858892361e-06 2.6255775025369143e-07 5.6788874906214086e-08 -4.9237590276597403e-06 2.0822891451964347e-07 -5.5299303566221347e-11 -8.501071490729942e-06 -6.9396802081444873e-07 3.7899307944494427e-07 -0.042350590920845269 -2.425982606078597e-06 -1.2379690128520255e-07 -0.04589315938362093 -6.9396802081444873e-07 3.7899307944494427e-07 -0.042350590920845269 -1.5351901453414571e-06 3.9393196955235752e-07 -0.029187006568548234 -2.4259826060785974e-06 -1.2379690128520287e-07 -0.045893159383620923 -1.4818811298558086e-06 5.7026482358988332e-07 -0.06469464787568939 -6.9396802081444873e-07 3.7899307944494427e-07 -0.042350590920845269 -1.5351901453414573e-06 3.9393196955235757e-07 -0.029187006568548224 -1.4818811298558086e-06 5.7026482358988354e-07 -0.06469464787568939 -1.6250547533707467e-06 1.0985624591590762e-06 -0.035335343561512293 2.6255775025369143e-07 5.6788874906214086e-08 -4.9237590276597403e-06 -6.9396802081444873e-07 3.7899307944494427e-07 -0.042350590920845269 -1.5351901453414571e-06 3.9393196955235752e-07 -0.029187006568548234 -2.425982606078597e-06 -1.2379690128520255e-07 -0.04589315938362093 -1.7879555561617263e-06 -2.0031189925152842e-07 -0.086305432420556216 -1.7963410941392817e-06 4.3439888079753688e-07 -0.096834932874743901 -7.0300616238713566e-07 2.5936240157912023e-07 -0.065459204618209976 -8.3676624714368647e-07 -8.5966934200822674e-08 -0.11356349935481504 -1.7879555561617263e-06 -2.0031189925152842e-07 -0.086305432420556216 -2.425982606078597e-06 -1.2379690128520255e-07 -0.04589315938362093 -1.7963410941392817e-06 4.3439888079753688e-07 -0.096834932874743901 -7.0300616238713566e-07 2.5936240157912023e-07 -0.065459204618209976 -1.7963410941392817e-06 4.3439888079753688e-07 -0.096834932874743901 -9.5655384939971851e-07 9.7284563197609415e-07 -0.0868691360013846 -1.0430846506335409e-06 1.0162707339153611e-06 -0.13749253292993865 -8.3676624714368637e-07 -8.596693420082282e-08 -0.11356349935481502 -1.7963410941392817e-06 4.3439888079753688e-07 -0.096834932874743901 -9.5655384939971851e-07 9.7284563197609436e-07 -0.086869136001384614 -7.0300616238713577e-07 2.5936240157912017e-07 -0.065459204618209976 -8.3676624714368658e-07 -8.5966934200822648e-08 -0.11356349935481505 -1.7963410941392817e-06 4.3439888079753688e-07 -0.096834932874743901 -1.4818811298558086e-06 5.7026482358988322e-07 -0.06469464787568939 -9.5655384939971872e-07 9.7284563197609458e-07 -0.086869136001384628 -7.0300616238713566e-07 2.5936240157912001e-07 -0.065459204618209962 -2.425982606078597e-06 -1.2379690128520255e-07 -0.04589315938362093 -1.7963410941392817e-06 4.3439888079753688e-07 -0.096834932874743901 -1.4818811298558086e-06 5.7026482358988332e-07 -0.06469464787568939 -7.0300616238713566e-07 2.5936240157912023e-07 -0.065459204618209976 -6.9396802081444873e-07 3.7899307944494427e-07 -0.042350590920845269 -1.4818811298558086e-06 5.7026482358988332e-07 -0.06469464787568939 -9.5655384939971872e-07 9.7284563197609415e-07 -0.0868691360013846 -7.0300616238713566e-07 2.5936240157912023e-07 -0.065459204618209976 -1.7879555561617263e-06 -2.0031189925152842e-07 -0.086305432420556216 -6.0747646535540187e-07 -6.448880012924008e-08 -0.1125076548539244 -1.7963410941392817e-06 4.3439888079753688e-07 -0.096834932874743901 -8.3676624714368679e-07 -8.5966934200822595e-08 -0.11356349935481504 -1.7963410941392817e-06 4.3439888079753688e-07 -0.096834932874743901 -1.4818811298558086e-06 5.7026482358988332e-07 -0.06469464787568939 -9.565538493997183e-07 9.7284563197609415e-07 -0.0868691360013846 -2.1447826988592403e-06 1.0824821020826862e-06 -0.11483101382096716 -6.9396802081444873e-07 3.7899307944494427e-07 -0.042350590920845269 -1.4818811298558084e-06 5.7026482358988343e-07 -0.064694647875689376 -1.3634682568172667e-06 1.1381325498255229e-06 -0.069975310539544741 -9.5655384939971872e-07 9.7284563197609415e-07 -0.0868691360013846 -1.4818811298558086e-06 5.7026482358988332e-07 -0.06469464787568939 -1.3634682568172667e-06 1.1381325498255229e-06 -0.069975310539544741 -9.5655384939971872e-07 9.7284563197609415e-07 -0.0868691360013846 -2.1447826988592403e-06 1.0824821020826862e-06 -0.11483101382096716 -6.9396802081444873e-07 3.7899307944494427e-07 -0.042350590920845269 -1.3634682568172667e-06 1.1381325498255229e-06 -0.069975310539544741 -9.5655384939971872e-07 9.7284563197609415e-07 -0.0868691360013846 -1.2073181796912526e-06 1.1678907019083093e-06 -0.070221600253354791 -6.9396802081444873e-07 3.7899307944494427e-07 -0.042350590920845269 -9.5655384939971872e-07 9.7284563197609415e-07 -0.0868691360013846 -1.2073181796912526e-06 1.1678907019083091e-06 -0.070221600253354791 -6.3254051040334446e-07 1.4826190538465533e-06 -0.06469472308037813 -9.5655384939971872e-07 9.7284563197609415e-07 -0.0868691360013846 -1.0688332475515227e-06 2.1075437629560993e-06 -0.11018423174631624 -2.1447826988592403e-06 1.0824821020826862e-06 -0.11483101382096716 -1.0430846506335411e-06 1.0162707339153611e-06 -0.13749253292993868 -1.3634682568172667e-06 1.1381325498255229e-06 -0.069975310539544741 -9.5655384939971872e-07 9.7284563197609415e-07 -0.0868691360013846 -1.9768428880320797e-06 1.9389084194611628e-06 -0.090007727968619694 -2.1447826988592403e-06 1.0824821020826862e-06 -0.11483101382096716 -1.7963410941392817e-06 4.3439888079753688e-07 -0.096834932874743901 -9.5655384939971851e-07 9.7284563197609415e-07 -0.086869136001384586 -2.1447826988592403e-06 1.0824821020826862e-06 -0.11483101382096716 -1.0430846506335409e-06 1.0162707339153611e-06 -0.13749253292993865 -1.9768428880320797e-06 1.9389084194611628e-06 -0.090007727968619694 -1.0688332475515227e-06 2.1075437629560993e-06 -0.11018423174631625 -1.9292813609029117e-06 1.9976937430218228e-06 -0.13500781298076095 -2.1447826988592403e-06 1.0824821020826862e-06 -0.11483101382096716 -9.5655384939971872e-07 9.7284563197609415e-07 -0.0868691360013846 -1.9768428880320797e-06 1.9389084194611632e-06 -0.090007727968619708 -1.0688332475515227e-06 2.1075437629560993e-06 -0.11018423174631625 -2.1447826988592403e-06 1.0824821020826862e-06 -0.11483101382096716 -9.5655384939971872e-07 9.7284563197609415e-07 -0.0868691360013846 -1.9768428880320788e-06 1.9389084194611619e-06 -0.09000772796861968 -1.0688332475515227e-06 2.1075437629560993e-06 -0.11018423174631625 -1.2073181796912528e-06 1.1678907019083093e-06 -0.070221600253354791 -9.5655384939971872e-07 9.7284563197609415e-07 -0.0868691360013846 -1.0688332475515227e-06 2.1075437629560993e-06 -0.11018423174631625 -1.2073181796912526e-06 1.1678907019083093e-06 -0.070221600253354791 -6.3254051040334446e-07 1.4826190538465537e-06 -0.064694723080378144 -1.3634682568172667e-06 1.1381325498255229e-06 -0.069975310539544741 -9.5655384939971894e-07 9.7284563197609415e-07 -0.0868691360013846 -1.9768428880320797e-06 1.9389084194611628e-06 -0.090007727968619694 -1.2073181796912526e-06 1.1678907019083093e-06 -0.070221600253354791 -1.3634682568172667e-06 1.1381325498255229e-06 -0.069975310539544741 -1.9768428880320797e-06 1.9389084194611628e-06 -0.090007727968619694 -1.2073181796912526e-06 1.1678907019083093e-06 -0.070221600253354791 -1.5082590701290567e-06 1.6632914651171498e-06 -0.04500774215962549 -6.9396802081444873e-07 3.7899307944494427e-07 -0.042350590920845269 -1.049750092627379e-06 1.6284160064601184e-06 -0.03760091077766535 -2.8849621666731591e-07 1.6187816587774515e-06 -0.02964017333719721 -6.3254051040334414e-07 1.4826190538465533e-06 -0.06469472308037813 -6.9396802081444873e-07 3.7899307944494427e-07 -0.042350590920845269 -1.3634682568172667e-06 1.1381325498255229e-06 -0.069975310539544741 -1.6250547533707467e-06 1.0985624591590762e-06 -0.035335343561512286 -1.0497500926273796e-06 1.6284160064601184e-06 -0.037600910777665378 -6.9396802081444873e-07 3.7899307944494427e-07 -0.042350590920845269 -1.2073181796912526e-06 1.1678907019083093e-06 -0.070221600253354791 -1.0497500926273798e-06 1.6284160064601187e-06 -0.037600910777665378 -6.3254051040334435e-07 1.4826190538465531e-06 -0.064694723080378144 -6.9396802081444873e-07 3.7899307944494427e-07 -0.042350590920845269 -1.3634682568172669e-06 1.1381325498255234e-06 -0.069975310539544713 -1.2073181796912526e-06 1.1678907019083093e-06 -0.070221600253354791 -1.0497500926273796e-06 1.6284160064601184e-06 -0.037600910777665378 -6.9396802081444873e-07 3.7899307944494427e-07 -0.042350590920845269 2.6285343120508971e-07 -2.8150944187102597e-07 -5.4059750492117176e-06 -1.0497500926273792e-06 1.6284160064601182e-06 -0.037600910777665364 -2.8849621666731596e-07 1.6187816587774515e-06 -0.029640173337197217 -1.5082590701290567e-06 1.6632914651171498e-06 -0.04500774215962549 -1.0714616078464796e-06 1.1626874113527918e-06 -9.3083487626066068e-06 -1.6250547533707467e-06 1.0985624591590762e-06 -0.035335343561512286 -1.0497500926273796e-06 1.6284160064601184e-06 -0.037600910777665378 -6.9396802081444873e-07 3.7899307944494427e-07 -0.042350590920845269 2.6285343120508992e-07 -2.815094418710256e-07 -5.4059750492158299e-06 -2.8849621666731543e-07 1.6187816587774513e-06 -0.029640173337197217 -5.1600919470868438e-08 -2.7175572469354448e-07 -5.475853483256038e-06 -1.3634682568172667e-06 1.1381325498255229e-06 -0.069975310539544741 -1.2073181796912526e-06 1.1678907019083093e-06 -0.070221600253354791 -1.5082590701290565e-06 1.6632914651171496e-06 -0.04500774215962549 -1.0497500926273796e-06 1.6284160064601184e-06 -0.037600910777665378 -6.9396802081444873e-07 3.7899307944494427e-07 -0.042350590920845269 -1.6250547533707467e-06 1.098562459159076e-06 -0.035335343561512286 2.6285343120508987e-07 -2.8150944187102602e-07 -5.4059750492077992e-06 -1.0497500926273794e-06 1.6284160064601182e-06 -0.037600910777665371 -1.3634682568172667e-06 1.1381325498255229e-06 -0.069975310539544741 -1.5082590701290567e-06 1.6632914651171498e-06 -0.045007742159625497 -1.6250547533707467e-06 1.0985624591590762e-06 -0.035335343561512286 -1.0497500926273796e-06 1.6284160064601184e-06 -0.037600910777665378 -1.0714616078464796e-06 1.1626874113527918e-06 -9.3083487626068355e-06 -1.6250547533707467e-06 1.0985624591590762e-06 -0.035335343561512286 2.6285343120508982e-07 -2.8150944187102608e-07 -5.4059750492108392e-06 -1.0497500926273796e-06 1.6284160064601184e-06 -0.037600910777665378 2.6255775025369143e-07 5.6788874906214086e-08 -4.9237590276597403e-06 -1.5351901453414568e-06 3.9393196955235741e-07 -0.029187006568548227 -7.1633536860020702e-07 -1.1907485619006026e-07 -6.1669868537488771e-06 2.6285343120508982e-07 -2.8150944187102608e-07 -5.4059750492108392e-06 -1.0714616078464796e-06 1.1626874113527918e-06 -9.3083487626068355e-06 -7.1633536860020691e-07 -1.1907485619006024e-07 -6.1669868537518197e-06 -1.6250547533707467e-06 1.0985624591590762e-06 -0.035335343561512286 2.6285343120508982e-07 -2.8150944187102608e-07 -5.4059750492108392e-06 -6.9396802081444873e-07 3.7899307944494427e-07 -0.042350590920845269 -1.5351901453414571e-06 3.9393196955235752e-07 -0.029187006568548234 -1.6250547533707467e-06 1.0985624591590762e-06 -0.035335343561512286 2.6285343120508976e-07 -2.8150944187102613e-07 -5.4059750492110188e-06 -1.5351901453414571e-06 3.9393196955235752e-07 -0.029187006568548234 -7.1633536860020691e-07 -1.1907485619006024e-07 -6.1669868537518197e-06 -1.6250547533707467e-06 1.0985624591590762e-06 -0.035335343561512286 2.6285343120508982e-07 -2.8150944187102608e-07 -5.4059750492108392e-06 -6.9396802081444873e-07 3.7899307944494427e-07 -0.042350590920845269 -1.4818811298558086e-06 5.7026482358988332e-07 -0.06469464787568939 -1.3634682568172667e-06 1.1381325498255229e-06 -0.069975310539544741 -1.6250547533707467e-06 1.0985624591590762e-06 -0.035335343561512286 -6.9396802081444873e-07 3.7899307944494427e-07 -0.042350590920845269 2.6285343120508982e-07 -2.8150944187102597e-07 -5.4059750492103149e-06 -5.1600919470868438e-08 -2.7175572469354448e-07 -5.475853483256038e-06 -1.1090668213198399e-07 1.1501261410548677e-07 -6.2179918858798331e-06 2.6285343120508982e-07 -2.8150944187102608e-07 -5.4059750492108392e-06 1.0835833322029098e-07 7.475743203313313e-07 -5.9348103946526318e-06 -1.0497500926273796e-06 1.6284160064601184e-06 -0.037600910777665378 -2.8849621666731543e-07 1.6187816587774513e-06 -0.029640173337197217 -1.0714616078464796e-06 1.1626874113527918e-06 -9.3083487626068355e-06 2.6285343120508982e-07 -2.8150944187102608e-07 -5.4059750492108392e-06 1.0835833322029089e-07 7.4757432033133141e-07 -5.9348103946575378e-06 -1.0497500926273796e-06 1.6284160064601184e-06 -0.037600910777665378 2.6285343120508982e-07 -2.8150944187102608e-07 -5.4059750492108392e-06 1.083583332202909e-07 7.4757432033133151e-07 -5.934810394652631e-06 -2.8849621666731543e-07 1.6187816587774513e-06 -0.029640173337197217 -5.1600919470868438e-08 -2.7175572469354448e-07 -5.475853483256038e-06 -6.9396802081444873e-07 3.7899307944494427e-07 -0.042350590920845269 -5.1600919470868399e-08 -2.7175572469354443e-07 -5.4758534832564565e-06 -2.070580466088287e-08 9.6445986032050384e-07 -0.062167379013275181 -1.1090668213198396e-07 1.1501261410548677e-07 -6.2179918858798331e-06 -6.9396802081444873e-07 3.7899307944494427e-07 -0.042350590920845269 -2.8849621666731543e-07 1.6187816587774513e-06 -0.029640173337197217 -6.3254051040334435e-07 1.4826190538465535e-06 -0.064694723080378144 -2.0705804660882866e-08 9.6445986032050384e-07 -0.062167379013275181 -6.9396802081444873e-07 3.7899307944494427e-07 -0.042350590920845269 -2.8849621666731554e-07 1.6187816587774518e-06 -0.029640173337197227 -5.1600919470868405e-08 -2.7175572469354443e-07 -5.475853483257074e-06 -2.0705804660882734e-08 9.6445986032050363e-07 -0.062167379013275167 -2.8849621666731543e-07 1.6187816587774513e-06 -0.029640173337197217 -5.1600919470868412e-08 -2.7175572469354432e-07 -5.4758534832555366e-06 -2.070580466088283e-08 9.6445986032050384e-07 -0.062167379013275174 1.1353829118337418e-07 2.3819502689394441e-06 -0.045893443915219691 -5.1600919470868438e-08 -2.7175572469354448e-07 -5.475853483256038e-06 -2.0705804660882793e-08 9.6445986032050426e-07 -0.062167379013275174 1.1353829118337418e-07 2.3819502689394441e-06 -0.045893443915219691 6.8466918286825928e-12 -2.0964518389268244e-07 -8.3824109698248829e-06 -5.1600919470868438e-08 -2.7175572469354448e-07 -5.475853483256038e-06 -2.070580466088283e-08 9.6445986032050384e-07 -0.062167379013275174 -1.1090668213198408e-07 1.1501261410548672e-07 -6.2179918858892361e-06 6.8466918286825928e-12 -2.0964518389268244e-07 -8.3824109698248829e-06 1.0835833322029089e-07 7.4757432033133141e-07 -5.9348103946575378e-06 -2.8849621666731543e-07 1.6187816587774513e-06 -0.029640173337197217 -5.1600919470868458e-08 -2.7175572469354448e-07 -5.4758534832577448e-06 -1.5107097930768825e-09 9.9117677121109506e-07 -7.9939094316803291e-06 -5.1600919470868438e-08 -2.7175572469354448e-07 -5.475853483256038e-06 -1.5107097930768775e-09 9.9117677121109506e-07 -7.9939094316851013e-06 1.1353829118337418e-07 2.3819502689394441e-06 -0.045893443915219691 6.8466918286825928e-12 -2.0964518389268244e-07 -8.3824109698248829e-06 -2.8849621666731543e-07 1.6187816587774513e-06 -0.029640173337197217 -5.1600919470868425e-08 -2.7175572469354443e-07 -5.4758534832581429e-06 -1.5107097930768608e-09 9.9117677121109527e-07 -7.9939094316812083e-06 1.1353829118337418e-07 2.3819502689394441e-06 -0.045893443915219691 -2.8849621666731543e-07 1.6187816587774513e-06 -0.029640173337197217 -6.3254051040334446e-07 1.4826190538465533e-06 -0.06469472308037813 -2.070580466088283e-08 9.6445986032050384e-07 -0.062167379013275174 1.1353829118337418e-07 2.3819502689394441e-06 -0.045893443915219691 -9.5655384939971872e-07 9.7284563197609415e-07 -0.0868691360013846 -6.3254051040334446e-07 1.4826190538465529e-06 -0.06469472308037813 -2.1431205910637998e-07 1.7464461821016602e-06 -0.086182151307495652 -2.070580466088283e-08 9.6445986032050384e-07 -0.062167379013275174 -6.3254051040334446e-07 1.4826190538465533e-06 -0.06469472308037813 -2.1431205910638003e-07 1.74644618210166e-06 -0.086182151307495639 -2.070580466088283e-08 9.6445986032050384e-07 -0.062167379013275174 1.1353829118337418e-07 2.3819502689394441e-06 -0.045893443915219691 -6.9396802081444873e-07 3.7899307944494427e-07 -0.042350590920845269 -9.5655384939971872e-07 9.7284563197609415e-07 -0.0868691360013846 -6.3254051040334435e-07 1.4826190538465535e-06 -0.064694723080378144 -2.0705804660882737e-08 9.6445986032050384e-07 -0.062167379013275167 -9.5655384939971872e-07 9.7284563197609415e-07 -0.0868691360013846 -2.1431205910638019e-07 1.7464461821016602e-06 -0.086182151307495652 -2.070580466088283e-08 9.6445986032050384e-07 -0.062167379013275174 -2.0473406890101282e-07 7.3344753203025611e-07 -0.11630640651542713 -9.5655384939971872e-07 9.7284563197609415e-07 -0.0868691360013846 -2.1431205910638011e-07 1.74644618210166e-06 -0.086182151307495666 -2.0473406890101276e-07 7.33447532030256e-07 -0.11630640651542712 -4.7353340373397363e-07 1.780182073085981e-06 -0.12818034135432485 -9.5655384939971872e-07 9.7284563197609415e-07 -0.0868691360013846 -1.0688332475515227e-06 2.1075437629560997e-06 -0.11018423174631625 -2.1431205910638003e-07 1.74644618210166e-06 -0.086182151307495652 -4.7353340373397352e-07 1.7801820730859808e-06 -0.12818034135432485 -9.5655384939971872e-07 9.7284563197609415e-07 -0.0868691360013846 -1.0688332475515227e-06 2.1075437629560989e-06 -0.11018423174631624 -6.3254051040334478e-07 1.4826190538465535e-06 -0.06469472308037813 -2.1431205910637995e-07 1.74644618210166e-06 -0.086182151307495652 -2.1431205910638003e-07 1.74644618210166e-06 -0.086182151307495652 -1.5784179921489687e-07 4.7898444584149938e-07 -0.1125077709215445 -2.0473406890101263e-07 7.3344753203025622e-07 -0.11630640651542712 -4.7353340373397363e-07 1.780182073085981e-06 -0.12818034135432485 -2.1431205910638003e-07 1.74644618210166e-06 -0.086182151307495652 -2.070580466088283e-08 9.6445986032050384e-07 -0.062167379013275174 -1.5784179921489687e-07 4.7898444584149938e-07 -0.1125077709215445 -2.0473406890101271e-07 7.3344753203025622e-07 -0.11630640651542713 -7.0300616238713566e-07 2.5936240157912023e-07 -0.065459204618209976 2.4766520402843237e-08 -2.8604385172197635e-08 -0.11250737590774498 -2.047340689010125e-07 7.334475320302559e-07 -0.11630640651542712 -8.3676624714368668e-07 -8.5966934200822502e-08 -0.11356349935481502 -6.9396802081444873e-07 3.7899307944494427e-07 -0.042350590920845269 -9.5655384939971872e-07 9.7284563197609415e-07 -0.0868691360013846 -2.070580466088283e-08 9.6445986032050384e-07 -0.062167379013275174 -7.0300616238713566e-07 2.5936240157912023e-07 -0.065459204618209976 -2.070580466088283e-08 9.6445986032050384e-07 -0.062167379013275174 -7.0300616238713566e-07 2.5936240157912039e-07 -0.06545920461820999 2.4766520402843267e-08 -2.8604385172197645e-08 -0.11250737590774497 -2.0473406890101279e-07 7.3344753203025622e-07 -0.11630640651542713 -9.5655384939971872e-07 9.7284563197609415e-07 -0.0868691360013846 -2.070580466088283e-08 9.6445986032050384e-07 -0.062167379013275174 -7.0300616238713566e-07 2.5936240157912039e-07 -0.065459204618209976 -2.0473406890101263e-07 7.33447532030256e-07 -0.11630640651542712 -2.070580466088283e-08 9.6445986032050384e-07 -0.062167379013275174 -7.0300616238713566e-07 2.5936240157912023e-07 -0.065459204618209962 1.9737882396863822e-11 2.1593026879005257e-08 -0.055160151058131733 2.4766520402843164e-08 -2.8604385172197467e-08 -0.112507375907745 -9.5655384939971872e-07 9.7284563197609415e-07 -0.0868691360013846 -7.0300616238713577e-07 2.5936240157912028e-07 -0.06545920461820999 -2.0473406890101263e-07 7.33447532030256e-07 -0.11630640651542712 -8.3676624714368668e-07 -8.5966934200822595e-08 -0.11356349935481502 -2.070580466088283e-08 9.6445986032050384e-07 -0.062167379013275174 -7.0300616238713556e-07 2.5936240157912028e-07 -0.065459204618209962 -1.1090668213198404e-07 1.1501261410548653e-07 -6.2179918858796993e-06 -1.6422411136071629e-08 1.5860007184970833e-08 -7.0289596901512471e-06 -1.5659848334702012e-08 -1.5817412780979291e-08 -7.421500331351487e-06 -7.0300616238713556e-07 2.5936240157912017e-07 -0.065459204618209962 -1.6422411136071682e-08 1.5860007184970946e-08 -7.0289596901644007e-06 1.9737882396863822e-11 2.1593026879005257e-08 -0.055160151058131733 -6.9396802081444873e-07 3.7899307944494427e-07 -0.042350590920845269 -2.0705804660882853e-08 9.6445986032050384e-07 -0.062167379013275174 -7.0300616238713566e-07 2.5936240157912023e-07 -0.065459204618209976 -1.1090668213198396e-07 1.1501261410548656e-07 -6.2179918858774284e-06 2.0822891451964358e-07 -5.5299303566190709e-11 -8.5010714907295388e-06 -7.0300616238713566e-07 2.5936240157912023e-07 -0.065459204618209976 -1.1090668213198408e-07 1.1501261410548672e-07 -6.2179918858892361e-06 -1.6422411136071682e-08 1.5860007184970946e-08 -7.0289596901644007e-06 -2.070580466088283e-08 9.6445986032050384e-07 -0.062167379013275174 -1.1090668213198399e-07 1.1501261410548667e-07 -6.2179918858889777e-06 -1.6422411136071705e-08 1.5860007184971141e-08 -7.0289596901647251e-06 6.8466918286058928e-12 -2.0964518389268241e-07 -8.3824109698248829e-06 -1.5659848334702012e-08 -1.5817412780979291e-08 -7.421500331351487e-06 2.0822891451964355e-07 -5.5299303566180169e-11 -8.5010714907322222e-06 -7.0300616238713566e-07 2.5936240157912023e-07 -0.065459204618209976 -1.6422411136071682e-08 1.5860007184970946e-08 -7.0289596901644007e-06 -2.070580466088283e-08 9.6445986032050384e-07 -0.062167379013275174 -7.0300616238713556e-07 2.5936240157912028e-07 -0.065459204618209962 -1.6422411136071643e-08 1.5860007184970797e-08 -7.0289596901473567e-06 1.9737882396863822e-11 2.1593026879005257e-08 -0.055160151058131733 -1.5659848334702012e-08 -1.5817412780979291e-08 -7.421500331351487e-06 -1.6422411136071676e-08 1.5860007184970946e-08 -7.0289596901640212e-06 1.3971513625683939e-10 9.2148327237189734e-11 -2.1157460880597512e-06 1.9737882396863822e-11 2.1593026879005257e-08 -0.055160151058131733 1.6349152756096898e-08 1.5981235644658146e-08 -6.9302504994445217e-06 5.6933496658924143e-07 4.9348591998447598e-07 -0.071117429320817535 -2.0965299839369072e-07 1.4411364856857559e-09 -8.6271102403972998e-06 9.9076822050275325e-07 -5.1479713813275268e-09 -0.078343150827848623 -2.070580466088283e-08 9.6445986032050384e-07 -0.062167379013275174 1.6349152756096898e-08 1.5981235644658146e-08 -6.9302504994445217e-06 1.9737882396863822e-11 2.1593026879005257e-08 -0.055160151058131733 5.6933496658924185e-07 4.9348591998447566e-07 -0.071117429320817549 -1.6422411136071682e-08 1.5860007184970946e-08 -7.0289596901644007e-06 1.6349152756096898e-08 1.5981235644658146e-08 -6.9302504994445217e-06 1.3971513625683939e-10 9.2148327237189734e-11 -2.1157460880597512e-06 1.9737882396863822e-11 2.1593026879005257e-08 -0.055160151058131733 -2.070580466088283e-08 9.6445986032050384e-07 -0.062167379013275174 1.6349152756096898e-08 1.5981235644658146e-08 -6.9302504994445217e-06 5.6933496658924185e-07 4.9348591998447566e-07 -0.071117429320817549 6.8466918286825928e-12 -2.0964518389268244e-07 -8.3824109698248829e-06 1.6349152756096898e-08 1.5981235644658146e-08 -6.9302504994445217e-06 1.9737882396849851e-11 2.1593026879005085e-08 -0.055160151058131733 5.6933496658924153e-07 4.9348591998447587e-07 -0.071117429320817549 9.9076822050275304e-07 -5.1479713813274887e-09 -0.078343150827848609 1.6349152756096898e-08 1.5981235644658146e-08 -6.9302504994445217e-06 1.115027173206751e-07 1.1136359937534544e-07 -6.5221534439196455e-06 5.6933496658924174e-07 4.9348591998447577e-07 -0.071117429320817549 6.8466918286825928e-12 -2.0964518389268244e-07 -8.3824109698248829e-06 -2.070580466088283e-08 9.6445986032050384e-07 -0.062167379013275174 -1.6422411136071702e-08 1.5860007184971329e-08 -7.0289596901768961e-06 1.6349152756096898e-08 1.5981235644658146e-08 -6.9302504994445217e-06 6.8466918286932928e-12 -2.0964518389268228e-07 -8.3824109698386861e-06 1.6349152756096898e-08 1.5981235644658146e-08 -6.9302504994445217e-06 1.115027173206751e-07 1.1136359937534544e-07 -6.5221534439196675e-06 5.6933496658924174e-07 4.9348591998447577e-07 -0.071117429320817549 -2.0965299839369072e-07 1.4411364856857559e-09 -8.6271102403972998e-06 -2.070580466088283e-08 9.6445986032050384e-07 -0.062167379013275174 -1.6422411136071692e-08 1.5860007184970644e-08 -7.0289596901490812e-06 1.6349152756096898e-08 1.5981235644658146e-08 -6.9302504994445217e-06 1.9737882396863822e-11 2.1593026879005257e-08 -0.055160151058131733 5.6933496658924174e-07 4.9348591998447577e-07 -0.071117429320817549 2.4766520402843111e-08 -2.8604385172197606e-08 -0.11250737590774498 9.9076822050275304e-07 -5.1479713813272993e-09 -0.078343150827848609 8.5184772986595065e-07 6.3619711028215958e-08 -0.13122680368519005 5.6933496658924174e-07 4.9348591998447577e-07 -0.071117429320817549 9.9076822050275262e-07 -5.1479713813273332e-09 -0.078343150827848609 8.5184772986595023e-07 6.3619711028215654e-08 -0.13122680368519005 1.0120020272109792e-06 9.1729334063151407e-07 -0.12106967681622173 5.6933496658924174e-07 4.9348591998447577e-07 -0.071117429320817549 2.4766520402843055e-08 -2.8604385172197632e-08 -0.11250737590774497 1.0120020272109792e-06 9.1729334063151407e-07 -0.12106967681622173 -2.0473406890101263e-07 7.33447532030256e-07 -0.11630640651542712 -2.070580466088283e-08 9.6445986032050384e-07 -0.062167379013275174 5.6933496658924185e-07 4.9348591998447577e-07 -0.071117429320817549 2.4766520402843055e-08 -2.8604385172197632e-08 -0.11250737590774497 -2.0473406890101263e-07 7.33447532030256e-07 -0.11630640651542712 -2.070580466088283e-08 9.6445986032050384e-07 -0.062167379013275174 1.9737882396863822e-11 2.1593026879005257e-08 -0.055160151058131733 5.6933496658924174e-07 4.9348591998447577e-07 -0.071117429320817549 2.4766520402843055e-08 -2.8604385172197632e-08 -0.11250737590774497 5.6933496658924174e-07 4.9348591998447577e-07 -0.071117429320817549 2.4766520402843263e-08 -2.8604385172197801e-08 -0.11250737590774496 8.5184772986595065e-07 6.3619711028216117e-08 -0.13122680368519005 1.0120020272109792e-06 9.1729334063151407e-07 -0.12106967681622173 1.9737882396863822e-11 2.1593026879005257e-08 -0.055160151058131733 5.6933496658924164e-07 4.9348591998447566e-07 -0.071117429320817535 2.4766520402843048e-08 -2.8604385172197606e-08 -0.11250737590774497 9.9076822050275283e-07 -5.1479713813271951e-09 -0.078343150827848609 5.6933496658924174e-07 4.9348591998447577e-07 -0.071117429320817549 3.535885943050052e-07 1.7331601878342536e-06 -0.095229053596919105 1.0120020272109792e-06 9.1729334063151407e-07 -0.12106967681622173 -2.0473406890101255e-07 7.3344753203025611e-07 -0.1163064065154271 -2.070580466088283e-08 9.6445986032050384e-07 -0.062167379013275174 5.6933496658924185e-07 4.9348591998447556e-07 -0.071117429320817549 3.5358859430500525e-07 1.7331601878342534e-06 -0.095229053596919092 -2.0473406890101263e-07 7.33447532030256e-07 -0.11630640651542712 -2.070580466088283e-08 9.6445986032050384e-07 -0.062167379013275174 6.0483940668447253e-07 1.5411400121001068e-06 -0.064694504149067009 3.5358859430500525e-07 1.7331601878342534e-06 -0.095229053596919092 1.1353829118337418e-07 2.3819502689394441e-06 -0.045893443915219691 -2.070580466088283e-08 9.6445986032050384e-07 -0.062167379013275174 5.6933496658924174e-07 4.9348591998447566e-07 -0.071117429320817549 6.0483940668447253e-07 1.5411400121001068e-06 -0.064694504149067009 3.5358859430500525e-07 1.7331601878342534e-06 -0.095229053596919092 5.6933496658924174e-07 4.9348591998447577e-07 -0.071117429320817549 6.0483940668447231e-07 1.5411400121001068e-06 -0.064694504149067023 3.5358859430500493e-07 1.7331601878342534e-06 -0.095229053596919105 1.0120020272109794e-06 9.1729334063151407e-07 -0.12106967681622173 -2.070580466088283e-08 9.6445986032050384e-07 -0.062167379013275174 5.6933496658924185e-07 4.9348591998447566e-07 -0.071117429320817563 6.0483940668447263e-07 1.5411400121001071e-06 -0.064694504149067036 3.6804407750497666e-07 1.532148064180285e-06 -0.029186788197080187 6.0483940668447253e-07 1.5411400121001068e-06 -0.064694504149067009 3.535885943050052e-07 1.7331601878342536e-06 -0.095229053596919105 1.0120020272109792e-06 9.1729334063151407e-07 -0.12106967681622173 1.08037812526043e-06 2.1924556078641093e-06 -0.11483093926902747 -2.070580466088283e-08 9.6445986032050384e-07 -0.062167379013275174 -1.5784179921489634e-07 4.7898444584150086e-07 -0.11250777092154449 3.5358859430500525e-07 1.7331601878342534e-06 -0.095229053596919092 -2.0473406890101263e-07 7.33447532030256e-07 -0.11630640651542712 -2.1431205910638003e-07 1.74644618210166e-06 -0.086182151307495652 -2.070580466088283e-08 9.6445986032050384e-07 -0.062167379013275174 -1.5784179921489687e-07 4.7898444584149938e-07 -0.1125077709215445 3.5358859430500525e-07 1.7331601878342534e-06 -0.095229053596919092 -2.1431205910638003e-07 1.74644618210166e-06 -0.086182151307495652 -2.070580466088283e-08 9.6445986032050384e-07 -0.062167379013275174 3.5358859430500525e-07 1.7331601878342534e-06 -0.095229053596919092 1.1353829118337418e-07 2.3819502689394441e-06 -0.045893443915219691 1.115027173206751e-07 1.1136359937534544e-07 -6.5221534439196455e-06 5.6933496658924174e-07 4.9348591998447577e-07 -0.071117429320817549 5.12557618763412e-08 -2.6408504701881362e-07 -4.9646836398744638e-06 -2.6278070835418143e-07 -2.6275836249268899e-07 -5.3363155997572148e-06 5.6933496658924174e-07 4.9348591998447577e-07 -0.071117429320817549 6.0483940668447295e-07 1.5411400121001068e-06 -0.064694504149066981 3.6804407750497587e-07 1.532148064180285e-06 -0.029186788197080222 1.0407288586989865e-06 1.6168170056290008e-06 -0.03533510759521194 -2.070580466088283e-08 9.6445986032050384e-07 -0.062167379013275174 1.1353829118337377e-07 2.3819502689394441e-06 -0.04589344391521967 5.1255761876340716e-08 -2.640850470188142e-07 -4.9646836398459476e-06 3.6804407750497809e-07 1.5321480641802867e-06 -0.029186788197080309 -2.070580466088283e-08 9.6445986032050384e-07 -0.062167379013275174 5.6933496658924185e-07 4.9348591998447566e-07 -0.071117429320817549 6.8466918286742515e-12 -2.0964518389268244e-07 -8.3824109698238411e-06 5.1255761876341266e-08 -2.6408504701881367e-07 -4.964683639875897e-06 1.115027173206751e-07 1.1136359937534544e-07 -6.5221534439196455e-06 5.6933496658924174e-07 4.9348591998447577e-07 -0.071117429320817549 6.8466918286825928e-12 -2.0964518389268244e-07 -8.3824109698248829e-06 5.12557618763412e-08 -2.6408504701881362e-07 -4.9646836398744638e-06 -2.070580466088283e-08 9.6445986032050384e-07 -0.062167379013275174 6.0483940668447253e-07 1.5411400121001068e-06 -0.064694504149067009 1.1353829118337422e-07 2.3819502689394445e-06 -0.045893443915219718 3.6804407750497672e-07 1.5321480641802833e-06 -0.029186788197080198 -2.070580466088283e-08 9.6445986032050384e-07 -0.062167379013275174 1.1353829118337418e-07 2.3819502689394441e-06 -0.045893443915219684 6.8466918286915447e-12 -2.0964518389268241e-07 -8.3824109698206698e-06 5.12557618763412e-08 -2.6408504701881362e-07 -4.9646836398744638e-06 -2.070580466088283e-08 9.6445986032050384e-07 -0.062167379013275174 5.6933496658924185e-07 4.9348591998447545e-07 -0.071117429320817549 5.1255761876341114e-08 -2.6408504701881446e-07 -4.9646836398634329e-06 3.6804407750497703e-07 1.5321480641802865e-06 -0.02918678819708025 5.6933496658924174e-07 4.9348591998447577e-07 -0.071117429320817549 5.12557618763412e-08 -2.6408504701881362e-07 -4.9646836398744638e-06 3.6804407750497677e-07 1.532148064180285e-06 -0.029186788197080225 -2.6278070835418143e-07 -2.6275836249268899e-07 -5.3363155997572148e-06 -1.5107097930768825e-09 9.9117677121109506e-07 -7.9939094316803291e-06 1.1353829118337418e-07 2.3819502689394441e-06 -0.045893443915219691 1.652270470756548e-09 9.6694591458456784e-07 -7.8448792665205119e-06 6.8466918286825928e-12 -2.0964518389268244e-07 -8.3824109698248829e-06 1.1353829118337418e-07 2.3819502689394441e-06 -0.045893443915219691 1.6522704707564789e-09 9.6694591458456784e-07 -7.8448792665032443e-06 6.84669182864085e-12 -2.0964518389268222e-07 -8.3824109698186996e-06 5.1255761876341246e-08 -2.640850470188133e-07 -4.9646836398846511e-06 1.1353829118337418e-07 2.3819502689394441e-06 -0.045893443915219691 1.6522704707566541e-09 9.6694591458456826e-07 -7.844879266517876e-06 5.12557618763412e-08 -2.6408504701881362e-07 -4.9646836398744638e-06 3.6804407750497677e-07 1.532148064180285e-06 -0.029186788197080225 1.652270470756548e-09 9.6694591458456784e-07 -7.8448792665205119e-06 5.12557618763412e-08 -2.6408504701881362e-07 -4.9646836398744638e-06 3.6804407750497677e-07 1.532148064180285e-06 -0.029186788197080225 -1.0836562169677441e-07 7.1721775382114012e-07 -5.9724000908230423e-06 5.6933496658924174e-07 4.9348591998447577e-07 -0.071117429320817549 1.0407288586989855e-06 1.6168170056290008e-06 -0.035335107595211863 1.6167800085132889e-06 1.0214742137008209e-06 -0.035335247418276684 1.1190038831553571e-06 1.3441078907760101e-06 -0.069975015636690202 5.6933496658924174e-07 4.9348591998447577e-07 -0.071117429320817549 -2.6278070835418143e-07 -2.6275836249268899e-07 -5.3363155997572148e-06 1.6167800085132882e-06 1.021474213700819e-06 -0.035335247418276657 1.5321831577913745e-06 3.0375520856483878e-07 -0.029187082577802254 5.6933496658924174e-07 4.9348591998447577e-07 -0.071117429320817549 1.0407288586989859e-06 1.6168170056290008e-06 -0.035335107595211905 -2.6278070835418143e-07 -2.6275836249268899e-07 -5.3363155997572148e-06 1.6167800085132884e-06 1.0214742137008205e-06 -0.03533524741827667 5.6933496658924174e-07 4.9348591998447577e-07 -0.071117429320817549 3.680440775049755e-07 1.532148064180284e-06 -0.029186788197080201 1.040728858698987e-06 1.616817005629001e-06 -0.035335107595211926 -2.6278070835418143e-07 -2.6275836249268899e-07 -5.3363155997572148e-06 5.12557618763412e-08 -2.6408504701881362e-07 -4.9646836398744638e-06 3.6804407750497677e-07 1.532148064180285e-06 -0.029186788197080225 -1.0836562169677441e-07 7.1721775382114012e-07 -5.9724000908230423e-06 -2.6278070835418143e-07 -2.6275836249268899e-07 -5.3363155997572148e-06 3.6804407750497677e-07 1.532148064180285e-06 -0.029186788197080225 1.0407288586989859e-06 1.616817005629001e-06 -0.035335107595211905 -1.0836562169677441e-07 7.1721775382114012e-07 -5.9724000908230423e-06 -2.6278070835418143e-07 -2.6275836249268899e-07 -5.3363155997572148e-06 1.0407288586989859e-06 1.6168170056290008e-06 -0.035335107595211905 -1.0836562169677441e-07 7.1721775382114012e-07 -5.9724000908230423e-06 -2.6278070835418143e-07 -2.6275836249268899e-07 -5.3363155997572148e-06 1.071877925701011e-06 1.0718669797801932e-06 -9.1651552669313696e-06 -2.6278070835418143e-07 -2.6275836249268899e-07 -5.3363155997572148e-06 7.1722659407686898e-07 -1.0825825531820941e-07 -5.8979255984833964e-06 1.5321831577913743e-06 3.0375520856483968e-07 -0.029187082577802271 -2.6400789241346979e-07 5.1279251990958558e-08 -5.4446524801829694e-06 -2.6278070835418143e-07 -2.6275836249268899e-07 -5.3363155997572148e-06 1.6167800085132891e-06 1.0214742137008205e-06 -0.03533524741827667 7.1722659407686898e-07 -1.0825825531820941e-07 -5.8979255984833964e-06 1.071877925701011e-06 1.0718669797801932e-06 -9.1651552669313696e-06 -2.6278070835418143e-07 -2.6275836249268899e-07 -5.3363155997572148e-06 1.6167800085132889e-06 1.0214742137008205e-06 -0.035335247418276663 7.1722659407686898e-07 -1.0825825531820941e-07 -5.8979255984833964e-06 1.5321831577913743e-06 3.0375520856483942e-07 -0.029187082577802267 1.0407288586989859e-06 1.6168170056290008e-06 -0.035335107595211905 -2.6278070835418143e-07 -2.6275836249268904e-07 -5.3363155997535912e-06 1.6167800085132893e-06 1.0214742137008207e-06 -0.035335247418276677 1.071877925701011e-06 1.0718669797801932e-06 -9.1651552669313696e-06 1.6167800085132893e-06 1.0214742137008207e-06 -0.035335247418276677 1.5195101026801787e-06 1.5194652187857068e-06 -0.045007556327979224 1.1190038831553569e-06 1.3441078907760105e-06 -0.069975015636690216 1.3440570001804069e-06 1.0882145354523032e-06 -0.069975093201658997 1.0407288586989859e-06 1.6168170056290008e-06 -0.035335107595211905 1.6167800085132893e-06 1.0214742137008207e-06 -0.035335247418276677 1.071877925701011e-06 1.0718669797801932e-06 -9.1651552669313696e-06 1.5195101026801787e-06 1.5194652187857068e-06 -0.045007556327979224 1.0407288586989859e-06 1.6168170056290008e-06 -0.035335107595211905 1.6167800085132893e-06 1.0214742137008207e-06 -0.035335247418276677 1.5195101026801787e-06 1.5194652187857068e-06 -0.045007556327979224 1.1190038831553569e-06 1.3441078907760105e-06 -0.069975015636690216 6.0483940668447253e-07 1.5411400121001068e-06 -0.064694504149067009 1.1190038831553569e-06 1.3441078907760105e-06 -0.069975015636690216 1.0120020272109792e-06 9.1729334063151407e-07 -0.12106967681622173 1.08037812526043e-06 2.1924556078641093e-06 -0.11483093926902747 1.5195101026801787e-06 1.5194652187857068e-06 -0.045007556327979224 1.1190038831553569e-06 1.3441078907760105e-06 -0.069975015636690216 1.9644027722717384e-06 1.9643390109533121e-06 -0.090007674710414862 1.3440570001804069e-06 1.0882145354523032e-06 -0.069975093201658997 5.6933496658924174e-07 4.9348591998447577e-07 -0.071117429320817549 1.1190038831553569e-06 1.3441078907760101e-06 -0.069975015636690216 1.3440570001804066e-06 1.0882145354523034e-06 -0.069975093201659011 1.0120020272109792e-06 9.1729334063151407e-07 -0.12106967681622173 5.6933496658924174e-07 4.9348591998447577e-07 -0.071117429320817549 1.3440570001804075e-06 1.0882145354523026e-06 -0.069975093201659011 1.5412560369019306e-06 5.7393587297644859e-07 -0.064694752728358632 1.0120020272109792e-06 9.1729334063151407e-07 -0.12106967681622173 1.1190038831553569e-06 1.3441078907760105e-06 -0.069975015636690216 1.3440570001804069e-06 1.0882145354523032e-06 -0.069975093201658997 1.0120020272109803e-06 9.1729334063151428e-07 -0.12106967681622174 2.1924062950081485e-06 1.1932612232189673e-06 -0.11483096715198758 1.3440570001804069e-06 1.0882145354523032e-06 -0.069975093201658997 1.5412560369019306e-06 5.7393587297644859e-07 -0.064694752728358632 1.0120020272109799e-06 9.1729334063151417e-07 -0.12106967681622174 2.1924062950081489e-06 1.1932612232189675e-06 -0.1148309671519876 5.6933496658924174e-07 4.9348591998447577e-07 -0.071117429320817549 6.0483940668447253e-07 1.5411400121001068e-06 -0.064694504149067023 1.1190038831553564e-06 1.3441078907760105e-06 -0.069975015636690244 1.0120020272109792e-06 9.1729334063151385e-07 -0.12106967681622172 5.6933496658924174e-07 4.9348591998447577e-07 -0.071117429320817549 6.0483940668447295e-07 1.5411400121001066e-06 -0.064694504149066981 1.0407288586989853e-06 1.6168170056290012e-06 -0.03533510759521187 1.1190038831553566e-06 1.3441078907760105e-06 -0.06997501563669023 1.1190038831553569e-06 1.3441078907760105e-06 -0.069975015636690216 1.0120020272109792e-06 9.1729334063151407e-07 -0.12106967681622173 2.1924062950081485e-06 1.193261223218967e-06 -0.11483096715198758 1.08037812526043e-06 2.1924556078641093e-06 -0.11483093926902747 5.6933496658924174e-07 4.9348591998447577e-07 -0.071117429320817549 1.6167800085132897e-06 1.0214742137008199e-06 -0.035335247418276684 1.3440570001804071e-06 1.0882145354523022e-06 -0.069975093201658997 1.5412560369019306e-06 5.7393587297644859e-07 -0.064694752728358632 5.6933496658924174e-07 4.9348591998447577e-07 -0.071117429320817549 1.6167800085132889e-06 1.0214742137008209e-06 -0.035335247418276691 1.1190038831553566e-06 1.3441078907760101e-06 -0.069975015636690216 1.3440570001804066e-06 1.0882145354523034e-06 -0.069975093201658969 1.1190038831553569e-06 1.3441078907760105e-06 -0.069975015636690216 1.9644027722717384e-06 1.9643390109533121e-06 -0.090007674710414862 2.1924062950081489e-06 1.1932612232189675e-06 -0.1148309671519876 1.08037812526043e-06 2.1924556078641093e-06 -0.11483093926902747 1.1190038831553569e-06 1.3441078907760105e-06 -0.069975015636690216 1.9644027722717384e-06 1.9643390109533121e-06 -0.090007674710414862 1.3440570001804069e-06 1.0882145354523032e-06 -0.069975093201658997 2.1924062950081489e-06 1.1932612232189675e-06 -0.1148309671519876 5.6933496658924174e-07 4.9348591998447577e-07 -0.071117429320817549 1.7332579571571734e-06 4.3408559544197888e-07 -0.095229126536803793 9.9076822050275304e-07 -5.1479713813272993e-09 -0.078343150827848609 1.0120020272109792e-06 9.1729334063151407e-07 -0.12106967681622173 1.7332579571571734e-06 4.3408559544197888e-07 -0.095229126536803793 9.9076822050275304e-07 -5.1479713813275979e-09 -0.078343150827848623 8.5184772986595044e-07 6.3619711028215985e-08 -0.13122680368519005 1.0120020272109792e-06 9.1729334063151364e-07 -0.12106967681622173 5.6933496658924174e-07 4.9348591998447577e-07 -0.071117429320817549 1.5412560369019306e-06 5.7393587297644859e-07 -0.064694752728358632 1.7332579571571736e-06 4.3408559544197893e-07 -0.095229126536803793 1.0120020272109792e-06 9.1729334063151407e-07 -0.12106967681622173 1.5412560369019306e-06 5.7393587297644859e-07 -0.064694752728358632 1.7332579571571736e-06 4.3408559544197888e-07 -0.095229126536803807 2.3816285138692313e-06 -1.2333034557135714e-07 -0.045893317521383675 9.9076822050275389e-07 -5.1479713813274424e-09 -0.078343150827848623 1.5412560369019306e-06 5.7393587297644859e-07 -0.064694752728358632 1.7332579571571734e-06 4.3408559544197888e-07 -0.095229126536803793 1.0120020272109792e-06 9.1729334063151396e-07 -0.12106967681622174 2.1924062950081489e-06 1.1932612232189675e-06 -0.1148309671519876 5.6933496658924174e-07 4.9348591998447577e-07 -0.071117429320817549 1.5412560369019306e-06 5.7393587297644859e-07 -0.064694752728358632 1.7332579571571734e-06 4.3408559544197888e-07 -0.095229126536803793 9.9076822050275304e-07 -5.1479713813272993e-09 -0.078343150827848609 5.6933496658924174e-07 4.9348591998447577e-07 -0.071117429320817549 1.5412560369019306e-06 5.7393587297644859e-07 -0.064694752728358632 2.3816285138692322e-06 -1.2333034557135772e-07 -0.045893317521383613 9.9076822050275304e-07 -5.1479713813272993e-09 -0.078343150827848609 4.7895878934081058e-07 -1.3902183479394602e-07 -0.11250770360087502 1.7332579571571734e-06 4.3408559544197888e-07 -0.095229126536803793 9.9076822050275283e-07 -5.147971381327291e-09 -0.078343150827848609 1.7466844018634029e-06 -1.7384558117232813e-07 -0.086182033084373375 4.7895878934081058e-07 -1.3902183479394602e-07 -0.11250770360087502 1.7332579571571734e-06 4.3408559544197888e-07 -0.095229126536803793 9.9076822050275304e-07 -5.1479713813272993e-09 -0.078343150827848609 8.5184772986595065e-07 6.3619711028215958e-08 -0.13122680368519005 1.7332579571571734e-06 4.3408559544197888e-07 -0.095229126536803793 2.3816285138692309e-06 -1.2333034557135714e-07 -0.045893317521383668 9.9076822050275304e-07 -5.1479713813272993e-09 -0.078343150827848609 1.7466844018634029e-06 -1.7384558117232813e-07 -0.086182033084373375 5.6933496658924174e-07 4.9348591998447577e-07 -0.071117429320817549 2.3816285138692309e-06 -1.2333034557135767e-07 -0.045893317521383661 1.5321831577913752e-06 3.0375520856484032e-07 -0.029187082577802285 -2.6400789241347016e-07 5.1279251990958208e-08 -5.4446524801647015e-06 5.6933496658924174e-07 4.9348591998447577e-07 -0.071117429320817549 1.5412560369019306e-06 5.7393587297644859e-07 -0.064694752728358632 2.3816285138692318e-06 -1.2333034557135759e-07 -0.045893317521383668 1.5321831577913735e-06 3.0375520856483963e-07 -0.029187082577802229 1.115027173206751e-07 1.1136359937534544e-07 -6.5221534439196455e-06 5.6933496658924174e-07 4.9348591998447577e-07 -0.071117429320817549 -2.6400789241346979e-07 5.1279251990958558e-08 -5.4446524801829694e-06 -2.0965299839369072e-07 1.4411364856857559e-09 -8.6271102403972998e-06 1.115027173206751e-07 1.1136359937534544e-07 -6.5221534439196455e-06 5.6933496658924174e-07 4.9348591998447577e-07 -0.071117429320817549 -2.6278070835418143e-07 -2.6275836249268904e-07 -5.3363155997578222e-06 -2.6400789241346979e-07 5.1279251990958558e-08 -5.4446524801829694e-06 5.6933496658924174e-07 4.9348591998447577e-07 -0.071117429320817549 1.6167800085132895e-06 1.0214742137008196e-06 -0.035335247418276684 1.5412560369019306e-06 5.7393587297644859e-07 -0.064694752728358632 1.5321831577913743e-06 3.0375520856483883e-07 -0.029187082577802236 5.6933496658924174e-07 4.9348591998447577e-07 -0.071117429320817549 -2.6278070835417973e-07 -2.627583624926892e-07 -5.3363155997876699e-06 1.532183157791376e-06 3.0375520856483979e-07 -0.029187082577802288 -2.6400789241347058e-07 5.1279251990958876e-08 -5.4446524801699471e-06 5.6933496658924174e-07 4.9348591998447577e-07 -0.071117429320817549 2.3816285138692326e-06 -1.2333034557135719e-07 -0.045893317521383675 -2.0965299839369022e-07 1.441136485685754e-09 -8.6271102404189872e-06 9.9076822050275304e-07 -5.1479713813272993e-09 -0.078343150827848609 5.6933496658924174e-07 4.9348591998447577e-07 -0.071117429320817549 2.3816285138692326e-06 -1.233303455713573e-07 -0.045893317521383675 -2.6400789241346957e-07 5.1279251990958499e-08 -5.4446524801820546e-06 -2.0965299839369059e-07 1.4411364856857954e-09 -8.6271102404000814e-06 7.1722659407686898e-07 -1.0825825531820941e-07 -5.8979255984833964e-06 1.5321831577913743e-06 3.0375520856483968e-07 -0.029187082577802271 -2.6400789241346979e-07 5.1279251990958558e-08 -5.4446524801829694e-06 9.6694579485595909e-07 1.046049935636471e-09 -7.9437576967777498e-06 2.3816285138692309e-06 -1.2333034557135714e-07 -0.045893317521383661 9.6694579485595909e-07 1.046049935636471e-09 -7.9437576967777498e-06 9.9143491181305745e-07 -1.3164888737914806e-09 -7.7059478667602536e-06 -2.0965299839369072e-07 1.4411364856857559e-09 -8.6271102403972998e-06 2.3816285138692309e-06 -1.2333034557135714e-07 -0.045893317521383661 1.5321831577913743e-06 3.0375520856483968e-07 -0.029187082577802271 -2.6400789241346979e-07 5.1279251990958558e-08 -5.4446524801829694e-06 9.6694579485595909e-07 1.046049935636471e-09 -7.9437576967777498e-06 2.3816285138692309e-06 -1.2333034557135714e-07 -0.045893317521383661 -2.6400789241346957e-07 5.1279251990958578e-08 -5.444652480176532e-06 9.6694579485595909e-07 1.0460499356364703e-09 -7.9437576967780192e-06 -2.0965299839369051e-07 1.4411364856857331e-09 -8.6271102403871134e-06 2.3816285138692309e-06 -1.2333034557135714e-07 -0.045893317521383661 -2.0965299839369064e-07 1.4411364856856759e-09 -8.6271102403945978e-06 6.3688810104416454e-07 -2.4455641938322216e-07 -0.046033282304531783 9.9076822050275283e-07 -5.1479713813273142e-09 -0.078343150827848609 2.3816285138692309e-06 -1.2333034557135714e-07 -0.045893317521383661 9.9143491181305745e-07 -1.3164888737914806e-09 -7.7059478667602536e-06 -2.0965299839369072e-07 1.4411364856857559e-09 -8.6271102403972998e-06 1.6189002423166183e-06 -1.2884301714177695e-07 -0.029640074706383263 9.9143491181305745e-07 -1.3164888737914806e-09 -7.7059478667602536e-06 -2.0965299839369077e-07 1.4411364856857607e-09 -8.6271102403958175e-06 1.6189002423166183e-06 -1.2884301714177695e-07 -0.029640074706383263 -2.7207483998643652e-07 -5.7682384223620963e-08 -4.8858645587917739e-06 2.3816285138692309e-06 -1.2333034557135714e-07 -0.045893317521383661 -2.0965299839369064e-07 1.4411364856857197e-09 -8.6271102404048231e-06 1.6189002423166183e-06 -1.2884301714177695e-07 -0.029640074706383263 6.3688810104416464e-07 -2.4455641938322226e-07 -0.046033282304531763 2.3816285138692309e-06 -1.2333034557135714e-07 -0.045893317521383661 1.6189002423166183e-06 -1.2884301714177695e-07 -0.029640074706383263 6.3688810104416485e-07 -2.4455641938322237e-07 -0.046033282304531777 1.4824594926524055e-06 -5.5805087844542488e-07 -0.064694654731114548 1.6189002423166183e-06 -1.2884301714177695e-07 -0.029640074706383263 6.3688810104416443e-07 -2.4455641938322232e-07 -0.04603328230453177 1.6285964643160721e-06 -9.5020743832034766e-07 -0.03760092686141453 1.4824594926524055e-06 -5.5805087844542488e-07 -0.064694654731114548 1.6189002423166183e-06 -1.2884301714177695e-07 -0.029640074706383263 6.3688810104416443e-07 -2.4455641938322232e-07 -0.04603328230453177 -2.7207483998643626e-07 -5.7682384223620917e-08 -4.8858645587977929e-06 1.6285964643160721e-06 -9.5020743832034766e-07 -0.03760092686141453 -2.0965299839369072e-07 1.4411364856857559e-09 -8.6271102403972998e-06 6.3688810104416443e-07 -2.4455641938322232e-07 -0.04603328230453177 -2.7207483998643652e-07 -5.7682384223620963e-08 -4.8858645587917739e-06 1.1524275586414271e-07 -1.1558122107247062e-07 -6.2859904271787017e-06 -2.0965299839369072e-07 1.4411364856857559e-09 -8.6271102403972998e-06 1.6189002423166185e-06 -1.2884301714177692e-07 -0.02964007470638326 6.3688810104416443e-07 -2.4455641938322232e-07 -0.04603328230453177 -2.7207483998643652e-07 -5.7682384223620963e-08 -4.8858645587917739e-06 6.3688810104416443e-07 -2.4455641938322232e-07 -0.04603328230453177 -2.7207483998643652e-07 -5.7682384223620963e-08 -4.8858645587917739e-06 -2.8140274459447945e-07 2.8607067447710134e-07 -5.4081259236522425e-06 1.1524275586414266e-07 -1.1558122107247057e-07 -6.2859904271838127e-06 9.9143491181305745e-07 -1.3164888737914806e-09 -7.7059478667602536e-06 1.6189002423166185e-06 -1.28843017141777e-07 -0.02964007470638327 -2.7207483998643652e-07 -5.7682384223620963e-08 -4.8858645587917739e-06 7.4746070389748922e-07 1.1744078203220766e-07 -6.186312644897213e-06 6.3688810104416443e-07 -2.4455641938322232e-07 -0.04603328230453177 1.6285964643160721e-06 -9.5020743832034776e-07 -0.037600926861414544 1.0955215059558976e-06 -1.6393216399766243e-06 -0.037600901766762021 1.1679899337150734e-06 -1.0353424404377744e-06 -0.070221626408612431 6.3688810104416443e-07 -2.4455641938322232e-07 -0.04603328230453177 1.0955215059558978e-06 -1.6393216399766247e-06 -0.037600901766762028 -2.8140274459448004e-07 2.8607067447710182e-07 -5.408125923638053e-06 2.9770132645569665e-07 -1.4927146811728997e-06 -0.02981935292648482 7.4746070389748922e-07 1.1744078203220766e-07 -6.186312644897213e-06 1.6285964643160721e-06 -9.5020743832034766e-07 -0.03760092686141453 1.1626606916513719e-06 -1.160573541060097e-06 -9.290661154345931e-06 -2.8140274459447945e-07 2.8607067447710134e-07 -5.4081259236522425e-06 6.3688810104416443e-07 -2.4455641938322232e-07 -0.04603328230453177 1.0955215059558971e-06 -1.6393216399766243e-06 -0.037600901766762021 6.2002839722718608e-07 -1.4517630552928309e-06 -0.064694727805285582 1.0979236175896119e-06 -1.2846415764362929e-06 -0.070428333021431089 6.3688810104416443e-07 -2.4455641938322232e-07 -0.04603328230453177 -2.8140274459447966e-07 2.8607067447710134e-07 -5.4081259236476025e-06 5.6560239462642141e-08 2.7044540927312568e-07 -5.3846003997851736e-06 2.9770132645569665e-07 -1.4927146811728997e-06 -0.02981935292648482 -2.7207483998643652e-07 -5.7682384223620963e-08 -4.8858645587917739e-06 7.4746070389748922e-07 1.1744078203220766e-07 -6.186312644897213e-06 1.6285964643160721e-06 -9.5020743832034766e-07 -0.03760092686141453 -2.8140274459447945e-07 2.8607067447710134e-07 -5.4081259236522425e-06 6.3688810104416443e-07 -2.4455641938322232e-07 -0.04603328230453177 1.6285964643160715e-06 -9.5020743832034744e-07 -0.037600926861414523 1.0955215059558978e-06 -1.6393216399766247e-06 -0.037600901766762035 -2.814027445944794e-07 2.8607067447710145e-07 -5.4081259236513108e-06 6.3688810104416443e-07 -2.4455641938322232e-07 -0.04603328230453177 1.0955215059558973e-06 -1.6393216399766245e-06 -0.037600901766762035 2.977013264556966e-07 -1.4927146811728995e-06 -0.029819352926484799 6.2002839722718724e-07 -1.4517630552928307e-06 -0.064694727805285623 6.3688810104416443e-07 -2.4455641938322232e-07 -0.04603328230453177 1.0955215059558976e-06 -1.6393216399766243e-06 -0.037600901766762021 1.0979236175896117e-06 -1.2846415764362929e-06 -0.070428333021431103 1.1679899337150734e-06 -1.0353424404377744e-06 -0.070221626408612431 1.6189002423166183e-06 -1.2884301714177695e-07 -0.029640074706383263 -2.7207483998643599e-07 -5.7682384223620705e-08 -4.8858645587932909e-06 7.4746070389748912e-07 1.1744078203220753e-07 -6.1863126448983031e-06 1.6285964643160721e-06 -9.5020743832034766e-07 -0.03760092686141453 6.3688810104416443e-07 -2.4455641938322232e-07 -0.04603328230453177 1.6285964643160717e-06 -9.5020743832034776e-07 -0.037600926861414537 1.1679899337150734e-06 -1.0353424404377744e-06 -0.070221626408612431 1.4824594926524055e-06 -5.5805087844542488e-07 -0.064694654731114548 1.6631138305633832e-06 -1.6147997739446911e-06 -0.045007735071497378 1.0955215059558976e-06 -1.6393216399766243e-06 -0.037600901766762021 1.0979236175896117e-06 -1.2846415764362929e-06 -0.070428333021431103 1.1679899337150734e-06 -1.0353424404377744e-06 -0.070221626408612431 1.6285964643160721e-06 -9.5020743832034766e-07 -0.03760092686141453 1.6631138305633832e-06 -1.6147997739446911e-06 -0.045007735071497378 1.1626606916513719e-06 -1.160573541060097e-06 -9.290661154345931e-06 1.0955215059558976e-06 -1.6393216399766243e-06 -0.037600901766762021 1.6285964643160721e-06 -9.5020743832034766e-07 -0.03760092686141453 1.6631138305633832e-06 -1.6147997739446911e-06 -0.045007735071497378 1.0955215059558976e-06 -1.6393216399766243e-06 -0.037600901766762021 1.1679899337150734e-06 -1.0353424404377744e-06 -0.070221626408612431 1.6285964643160721e-06 -9.5020743832034766e-07 -0.03760092686141453 1.1626606916513719e-06 -1.1605735410600968e-06 -9.2906611543447621e-06 1.0955215059558976e-06 -1.6393216399766243e-06 -0.037600901766762021 -2.8140274459447945e-07 2.8607067447710134e-07 -5.4081259236522425e-06 -1.1905982992065833e-07 -7.7306709204330934e-07 -5.9817924894378561e-06 -2.8140274459447945e-07 2.860706744771014e-07 -5.4081259236515056e-06 5.6560239462642181e-08 2.7044540927312557e-07 -5.3846003997881196e-06 2.9770132645569665e-07 -1.4927146811728997e-06 -0.02981935292648482 1.1626606916513719e-06 -1.160573541060097e-06 -9.290661154345931e-06 -1.1905982992065833e-07 -7.7306709204330934e-07 -5.9817924894378561e-06 1.0955215059558976e-06 -1.6393216399766243e-06 -0.037600901766762021 -2.8140274459447945e-07 2.8607067447710134e-07 -5.4081259236522425e-06 -1.1905982992065833e-07 -7.7306709204330934e-07 -5.9817924894378561e-06 1.0955215059558973e-06 -1.6393216399766243e-06 -0.037600901766762021 -2.814027445944794e-07 2.8607067447710129e-07 -5.4081259236519071e-06 2.9770132645569665e-07 -1.4927146811728997e-06 -0.02981935292648482 6.3688810104416443e-07 -2.4455641938322232e-07 -0.04603328230453177 -2.8140274459447961e-07 2.860706744771014e-07 -5.4081259236498556e-06 5.6560239462642141e-08 2.7044540927312568e-07 -5.3846003997851736e-06 1.1524275586414271e-07 -1.155812210724705e-07 -6.2859904271838118e-06 6.3688810104416443e-07 -2.4455641938322232e-07 -0.04603328230453177 -2.7207483998643636e-07 -5.7682384223621049e-08 -4.8858645587935162e-06 1.6285964643160719e-06 -9.5020743832034755e-07 -0.037600926861414516 -2.8140274459447945e-07 2.8607067447710134e-07 -5.4081259236522425e-06 6.3688810104416443e-07 -2.4455641938322232e-07 -0.04603328230453177 5.6560239462642155e-08 2.7044540927312573e-07 -5.3846003997840513e-06 2.9770132645569665e-07 -1.4927146811728997e-06 -0.02981935292648482 2.0328949825509535e-07 -6.8846666520494179e-07 -0.066363563835468362 5.6560239462642141e-08 2.7044540927312568e-07 -5.3846003997851736e-06 2.9770132645569665e-07 -1.4927146811728997e-06 -0.02981935292648482 -1.487319352488291e-07 -2.3682850484680753e-06 -0.045893277902572735 2.0328949825509535e-07 -6.8846666520494168e-07 -0.066363563835468362 -3.2540468105906591e-10 2.0914835553017084e-07 -8.8082577350680283e-06 5.6560239462642141e-08 2.7044540927312568e-07 -5.3846003997851736e-06 1.1524275586414271e-07 -1.1558122107247062e-07 -6.2859904271787017e-06 2.0328949825509535e-07 -6.8846666520494168e-07 -0.066363563835468362 6.3688810104416443e-07 -2.4455641938322232e-07 -0.04603328230453177 2.9770132645569633e-07 -1.4927146811728999e-06 -0.029819352926484799 2.0328949825509532e-07 -6.8846666520494168e-07 -0.066363563835468362 6.200283972271865e-07 -1.45176305529283e-06 -0.064694727805285623 -3.2540468105906591e-10 2.0914835553017084e-07 -8.8082577350680283e-06 5.6560239462642141e-08 2.7044540927312568e-07 -5.3846003997851736e-06 -1.4873193524882949e-07 -2.3682850484680753e-06 -0.045893277902572735 2.0328949825509535e-07 -6.8846666520494168e-07 -0.066363563835468362 2.9770132645569665e-07 -1.4927146811728997e-06 -0.02981935292648482 -1.4873193524882952e-07 -2.3682850484680753e-06 -0.045893277902572728 2.0328949825509535e-07 -6.8846666520494168e-07 -0.066363563835468362 6.2002839722718618e-07 -1.4517630552928302e-06 -0.06469472780528561 -1.1905982992065833e-07 -7.7306709204330934e-07 -5.9817924894378561e-06 5.6560239462642168e-08 2.7044540927312594e-07 -5.3846003997855286e-06 2.9770132645569665e-07 -1.4927146811728997e-06 -0.02981935292648482 1.6971311894934541e-09 -9.6222839755641411e-07 -7.9076054456412815e-06 -3.2540468105906591e-10 2.0914835553017084e-07 -8.8082577350680283e-06 5.6560239462642141e-08 2.7044540927312568e-07 -5.3846003997851736e-06 1.6971311894934541e-09 -9.6222839755641411e-07 -7.9076054456412815e-06 -1.4873193524882952e-07 -2.3682850484680753e-06 -0.045893277902572728 5.6560239462642141e-08 2.7044540927312568e-07 -5.3846003997851736e-06 2.9770132645569665e-07 -1.4927146811728997e-06 -0.02981935292648482 1.6971311894934541e-09 -9.6222839755641411e-07 -7.9076054456412815e-06 -1.4873193524882926e-07 -2.3682850484680753e-06 -0.045893277902572728 6.3688810104416443e-07 -2.4455641938322232e-07 -0.04603328230453177 1.5686957438113438e-08 -1.5858432917108708e-08 -7.3730241147462026e-06 1.1524275586414299e-07 -1.1558122107247039e-07 -6.2859904271853415e-06 2.0328949825509524e-07 -6.8846666520494168e-07 -0.066363563835468348 1.6349152756096898e-08 1.5981235644658146e-08 -6.9302504994445217e-06 -2.0965299839369072e-07 1.4411364856857559e-09 -8.6271102403972998e-06 6.3688810104416443e-07 -2.4455641938322232e-07 -0.04603328230453177 9.9076822050275304e-07 -5.1479713813272993e-09 -0.078343150827848609 1.9737882396863822e-11 2.1593026879005257e-08 -0.055160151058131733 6.3688810104416464e-07 -2.4455641938322195e-07 -0.04603328230453177 1.5686957438114239e-08 -1.5858432917107775e-08 -7.3730241147475968e-06 2.0328949825509543e-07 -6.8846666520494158e-07 -0.066363563835468348 1.6349152756096898e-08 1.5981235644658146e-08 -6.9302504994445217e-06 1.9737882396811332e-11 2.1593026879005276e-08 -0.055160151058131726 6.3688810104416443e-07 -2.4455641938322232e-07 -0.04603328230453177 1.5686957438114249e-08 -1.5858432917107802e-08 -7.3730241147480533e-06 1.6349152756096898e-08 1.5981235644658146e-08 -6.9302504994445217e-06 1.9737882396863822e-11 2.1593026879005257e-08 -0.055160151058131733 6.3688810104416443e-07 -2.4455641938322232e-07 -0.04603328230453177 9.9076822050275304e-07 -5.1479713813272993e-09 -0.078343150827848609 -3.2540468105906591e-10 2.0914835553017084e-07 -8.8082577350680283e-06 1.5686957438114249e-08 -1.5858432917107802e-08 -7.3730241147480533e-06 1.1524275586414271e-07 -1.1558122107247062e-07 -6.2859904271787017e-06 2.0328949825509535e-07 -6.8846666520494168e-07 -0.066363563835468362 1.6349152756096898e-08 1.5981235644658146e-08 -6.9302504994445217e-06 -2.0965299839369072e-07 1.4411364856857559e-09 -8.6271102403972998e-06 6.3688810104416443e-07 -2.4455641938322232e-07 -0.04603328230453177 1.5686957438114249e-08 -1.5858432917107802e-08 -7.3730241147480533e-06 6.3688810104416443e-07 -2.4455641938322232e-07 -0.04603328230453177 5.6560239462642069e-08 2.7044540927312557e-07 -5.3846003997786786e-06 1.1524275586414283e-07 -1.1558122107247054e-07 -6.2859904271881376e-06 2.0328949825509527e-07 -6.8846666520494179e-07 -0.066363563835468362 -3.2540468105906591e-10 2.0914835553017084e-07 -8.8082577350680283e-06 -2.60683211844807e-10 -7.591339129947206e-07 -0.044493327485174101 1.5686957438114249e-08 -1.5858432917107802e-08 -7.3730241147480533e-06 2.032894982550954e-07 -6.8846666520494147e-07 -0.066363563835468362 -2.6068321184476497e-10 -7.591339129947205e-07 -0.044493327485174108 1.9737882396859845e-11 2.1593026879005267e-08 -0.055160151058131747 1.5686957438114249e-08 -1.5858432917107802e-08 -7.3730241147480152e-06 2.0328949825509532e-07 -6.8846666520494158e-07 -0.066363563835468348 1.6349152756096898e-08 1.5981235644658146e-08 -6.9302504994445217e-06 1.3971513625683939e-10 9.2148327237189734e-11 -2.1157460880597512e-06 1.9737882396863822e-11 2.1593026879005257e-08 -0.055160151058131733 1.5686957438114249e-08 -1.5858432917107802e-08 -7.3730241147480533e-06 -2.0965299839369072e-07 1.4411364856857559e-09 -8.6271102403972998e-06 6.3688810104416443e-07 -2.4455641938322232e-07 -0.04603328230453177 1.5686957438114256e-08 -1.5858432917107808e-08 -7.3730241147439232e-06 1.1524275586414271e-07 -1.1558122107247062e-07 -6.2859904271787017e-06 2.4766520402843055e-08 -2.8604385172197632e-08 -0.11250737590774497 2.0328949825509519e-07 -6.8846666520494147e-07 -0.066363563835468348 9.9256299549138854e-07 -8.7757408569423391e-07 -0.1100343260261071 -4.1782557278883479e-08 -8.3805439706533232e-07 -0.11416303671339981 1.9737882396863822e-11 2.1593026879005257e-08 -0.055160151058131733 6.3688810104416454e-07 -2.44556419383222e-07 -0.046033282304531756 2.0328949825509535e-07 -6.8846666520494147e-07 -0.066363563835468348 9.9076822050275262e-07 -5.1479713813273175e-09 -0.078343150827848596 2.4766520402843055e-08 -2.8604385172197632e-08 -0.11250737590774497 2.0328949825509527e-07 -6.8846666520494147e-07 -0.066363563835468348 9.9256299549138854e-07 -8.7757408569423391e-07 -0.1100343260261071 9.9076822050275304e-07 -5.1479713813272993e-09 -0.078343150827848609 2.4766520402843055e-08 -2.8604385172197632e-08 -0.11250737590774497 9.9256299549138832e-07 -8.7757408569423412e-07 -0.11003432602610712 9.9076822050275304e-07 -5.1479713813271802e-09 -0.078343150827848623 8.5184772986595076e-07 6.3619711028216064e-08 -0.13122680368519002 6.3688810104416443e-07 -2.4455641938322232e-07 -0.04603328230453177 2.0328949825509535e-07 -6.8846666520494168e-07 -0.066363563835468348 9.9256299549138854e-07 -8.775740856942338e-07 -0.1100343260261071 9.9076822050275304e-07 -5.1479713813274151e-09 -0.078343150827848609 1.9737882396863822e-11 2.1593026879005257e-08 -0.055160151058131733 2.4766520402843055e-08 -2.8604385172197632e-08 -0.11250737590774497 2.0328949825509545e-07 -6.8846666520494158e-07 -0.066363563835468362 9.9076822050275262e-07 -5.1479713813274631e-09 -0.078343150827848609 -1.4873193524882952e-07 -2.3682850484680753e-06 -0.045893277902572728 2.032894982550953e-07 -6.8846666520494179e-07 -0.066363563835468362 6.2002839722718618e-07 -1.4517630552928302e-06 -0.06469472780528561 3.9977859941118256e-07 -1.8240835949667931e-06 -0.095513505353309214 2.0328949825509535e-07 -6.8846666520494168e-07 -0.066363563835468362 6.2002839722718618e-07 -1.4517630552928302e-06 -0.06469472780528561 3.9977859941118251e-07 -1.8240835949667931e-06 -0.095513505353309214 9.9256299549138854e-07 -8.7757408569423391e-07 -0.1100343260261071 2.0328949825509535e-07 -6.8846666520494168e-07 -0.066363563835468362 3.9977859941118256e-07 -1.8240835949667931e-06 -0.095513505353309214 9.9256299549138854e-07 -8.7757408569423391e-07 -0.1100343260261071 -4.1782557278883479e-08 -8.3805439706533232e-07 -0.11416303671339981 6.3688810104416443e-07 -2.4455641938322232e-07 -0.04603328230453177 2.0328949825509535e-07 -6.8846666520494179e-07 -0.066363563835468362 6.2002839722718618e-07 -1.4517630552928302e-06 -0.06469472780528561 9.9256299549138854e-07 -8.7757408569423391e-07 -0.1100343260261071 -1.8372557287275365e-07 -1.7201407338673707e-06 -0.086193261424062292 2.0328949825509543e-07 -6.8846666520494168e-07 -0.066363563835468362 3.9977859941118256e-07 -1.8240835949667931e-06 -0.095513505353309214 -4.1782557278883479e-08 -8.3805439706533232e-07 -0.11416303671339981 -1.8372557287275365e-07 -1.7201407338673707e-06 -0.086193261424062292 -1.4873193524882952e-07 -2.3682850484680753e-06 -0.045893277902572728 2.0328949825509527e-07 -6.8846666520494168e-07 -0.066363563835468362 3.9977859941118256e-07 -1.8240835949667931e-06 -0.095513505353309214 6.2002839722718618e-07 -1.4517630552928302e-06 -0.06469472780528561 3.9977859941118256e-07 -1.8240835949667931e-06 -0.095513505353309214 9.9256299549138875e-07 -8.7757408569423412e-07 -0.11003432602610712 1.1355844641838544e-06 -2.230113964484587e-06 -0.1148311063736433 -1.8372557287275365e-07 -1.7201407338673707e-06 -0.086193261424062292 3.9977859941118267e-07 -1.8240835949667935e-06 -0.095513505353309228 -3.7551287088917289e-08 -5.3757547439151771e-07 -0.11250770888502609 -4.1782557278883479e-08 -8.3805439706533232e-07 -0.11416303671339981 6.2002839722718618e-07 -1.4517630552928302e-06 -0.06469472780528561 1.0979236175896117e-06 -1.2846415764362929e-06 -0.070428333021431103 9.9256299549138854e-07 -8.7757408569423391e-07 -0.1100343260261071 1.1355844641838544e-06 -2.230113964484587e-06 -0.1148311063736433 6.3688810104416443e-07 -2.4455641938322232e-07 -0.04603328230453177 6.2002839722718597e-07 -1.45176305529283e-06 -0.064694727805285596 1.0979236175896117e-06 -1.2846415764362927e-06 -0.070428333021431089 9.9256299549138832e-07 -8.7757408569423391e-07 -0.1100343260261071 6.3688810104416443e-07 -2.4455641938322232e-07 -0.04603328230453177 1.1679899337150734e-06 -1.0353424404377744e-06 -0.070221626408612431 9.9256299549138854e-07 -8.7757408569423391e-07 -0.1100343260261071 1.4824594926524055e-06 -5.5805087844542488e-07 -0.064694654731114548 6.3688810104416443e-07 -2.4455641938322232e-07 -0.04603328230453177 1.0979236175896117e-06 -1.2846415764362929e-06 -0.070428333021431089 1.1679899337150734e-06 -1.0353424404377744e-06 -0.070221626408612431 9.9256299549138854e-07 -8.7757408569423391e-07 -0.1100343260261071 1.0979236175896117e-06 -1.2846415764362929e-06 -0.070428333021431103 1.1679899337150734e-06 -1.0353424404377744e-06 -0.070221626408612431 2.1075067866266993e-06 -1.1511708150281795e-06 -0.11018431591000447 9.9256299549138811e-07 -8.7757408569423369e-07 -0.11003432602610708 1.0979236175896117e-06 -1.2846415764362929e-06 -0.070428333021431103 2.1075067866266993e-06 -1.1511708150281797e-06 -0.11018431591000448 9.9256299549138875e-07 -8.7757408569423422e-07 -0.1100343260261071 1.1355844641838544e-06 -2.230113964484587e-06 -0.1148311063736433 1.9389662133087606e-06 -1.9690481973269038e-06 -0.090007918396784348 2.1075067866266993e-06 -1.1511708150281795e-06 -0.11018431591000447 1.9976880123385215e-06 -1.9043466416511888e-06 -0.13500788728958504 1.1355844641838544e-06 -2.230113964484587e-06 -0.1148311063736433 1.0979236175896117e-06 -1.2846415764362929e-06 -0.070428333021431103 1.9389662133087602e-06 -1.9690481973269034e-06 -0.090007918396784362 1.1679899337150734e-06 -1.0353424404377744e-06 -0.070221626408612431 2.1075067866266993e-06 -1.1511708150281795e-06 -0.11018431591000447 1.0979236175896117e-06 -1.2846415764362929e-06 -0.070428333021431103 1.9389662133087606e-06 -1.9690481973269034e-06 -0.090007918396784362 2.1075067866266993e-06 -1.1511708150281795e-06 -0.11018431591000447 1.1355844641838544e-06 -2.230113964484587e-06 -0.1148311063736433 1.6631138305633832e-06 -1.6147997739446911e-06 -0.045007735071497378 1.0979236175896115e-06 -1.2846415764362927e-06 -0.070428333021431103 1.9389662133087606e-06 -1.9690481973269038e-06 -0.090007918396784348 1.1679899337150734e-06 -1.0353424404377744e-06 -0.070221626408612431 1.1679899337150734e-06 -1.0353424404377744e-06 -0.070221626408612431 2.1075067866266993e-06 -1.1511708150281795e-06 -0.11018431591000447 9.9256299549138854e-07 -8.7757408569423391e-07 -0.1100343260261071 1.4824594926524055e-06 -5.5805087844542488e-07 -0.064694654731114548 6.3688810104416443e-07 -2.4455641938322232e-07 -0.04603328230453177 9.9256299549138832e-07 -8.775740856942338e-07 -0.1100343260261071 1.4824594926524055e-06 -5.5805087844542488e-07 -0.064694654731114548 1.7466844018634029e-06 -1.7384558117232813e-07 -0.086182033084373375 2.1075067866266993e-06 -1.1511708150281795e-06 -0.11018431591000447 9.9256299549138854e-07 -8.7757408569423391e-07 -0.1100343260261071 1.4824594926524058e-06 -5.5805087844542509e-07 -0.064694654731114548 1.7466844018634029e-06 -1.7384558117232813e-07 -0.086182033084373375 2.1075067866266993e-06 -1.1511708150281795e-06 -0.11018431591000447 9.9256299549138854e-07 -8.7757408569423391e-07 -0.1100343260261071 1.7466844018634029e-06 -1.7384558117232813e-07 -0.086182033084373375 1.7800308126136452e-06 -4.3447065650519003e-07 -0.12818032648175323 6.3688810104416443e-07 -2.4455641938322232e-07 -0.04603328230453177 9.9256299549138832e-07 -8.775740856942338e-07 -0.11003432602610712 9.9076822050275304e-07 -5.147971381327444e-09 -0.078343150827848609 1.7466844018634029e-06 -1.7384558117232813e-07 -0.086182033084373375 2.3816285138692309e-06 -1.2333034557135714e-07 -0.045893317521383661 6.3688810104416464e-07 -2.4455641938322221e-07 -0.046033282304531777 9.9076822050275304e-07 -5.1479713813272993e-09 -0.078343150827848609 1.7466844018634029e-06 -1.7384558117232813e-07 -0.086182033084373375 2.3816285138692309e-06 -1.2333034557135714e-07 -0.045893317521383661 6.3688810104416475e-07 -2.4455641938322237e-07 -0.046033282304531777 1.4824594926524055e-06 -5.5805087844542478e-07 -0.064694654731114548 1.7466844018634029e-06 -1.7384558117232813e-07 -0.086182033084373375 4.7895878934081058e-07 -1.3902183479394602e-07 -0.11250770360087502 9.9256299549138832e-07 -8.7757408569423359e-07 -0.11003432602610709 9.9076822050275304e-07 -5.1479713813272993e-09 -0.078343150827848609 8.5184772986595065e-07 6.3619711028215958e-08 -0.13122680368519005 4.7895878934081058e-07 -1.3902183479394602e-07 -0.11250770360087502 9.9256299549138854e-07 -8.7757408569423359e-07 -0.11003432602610709 9.9076822050275304e-07 -5.1479713813272993e-09 -0.078343150827848609 1.7466844018634029e-06 -1.7384558117232813e-07 -0.086182033084373375 4.7895878934081058e-07 -1.3902183479394602e-07 -0.11250770360087502 9.9256299549138981e-07 -8.7757408569423391e-07 -0.1100343260261071 1.7466844018634029e-06 -1.7384558117232813e-07 -0.086182033084373375 1.7800308126136452e-06 -4.3447065650519003e-07 -0.12818032648175323 4.7895878934081058e-07 -1.3902183479394602e-07 -0.11250770360087502 9.9256299549138938e-07 -8.7757408569423359e-07 -0.11003432602610713 8.5184772986595065e-07 6.3619711028215958e-08 -0.13122680368519005 1.7800308126136452e-06 -4.3447065650519003e-07 -0.12818032648175323 4.7895878934081058e-07 -1.3902183479394602e-07 -0.11250770360087502 8.5184772986595065e-07 6.3619711028215958e-08 -0.13122680368519005 1.7800308126136452e-06 -4.3447065650519003e-07 -0.12818032648175323 1.8625218763408936e-06 2.6019857086038072e-07 -0.13878678912217698 8.5184772986595065e-07 6.3619711028215958e-08 -0.13122680368519005 1.0061627859999819e-06 -4.5564339669420751e-07 -0.18119170855610664 2.2076495334551073e-06 -4.8370688718095365e-08 -0.17912261002578175 7.5272775911822898e-07 4.7381673468751976e-08 -0.1799308925512387 8.5184772986595065e-07 6.3619711028215958e-08 -0.13122680368519005 1.7800308126136449e-06 -4.3447065650519003e-07 -0.1281803264817532 9.5681590985007115e-07 -9.5042420831920296e-07 -0.151519323363457 1.0061627859999819e-06 -4.5564339669420756e-07 -0.18119170855610664 9.9256299549138854e-07 -8.7757408569423391e-07 -0.1100343260261071 8.5184772986595065e-07 6.3619711028215958e-08 -0.13122680368519005 1.7800308126136452e-06 -4.3447065650519003e-07 -0.12818032648175323 9.5681590985007115e-07 -9.5042420831920307e-07 -0.15151932336345697 8.5184772986595065e-07 6.3619711028215958e-08 -0.13122680368519005 1.7800308126136452e-06 -4.3447065650519014e-07 -0.12818032648175323 2.2076495334551073e-06 -4.8370688718095577e-08 -0.17912261002578175 1.8625218763408934e-06 2.6019857086038077e-07 -0.13878678912217696 8.5184772986595065e-07 6.3619711028215958e-08 -0.13122680368519005 1.7800308126136454e-06 -4.3447065650518998e-07 -0.1281803264817532 1.0061627859999815e-06 -4.5564339669420772e-07 -0.18119170855610664 2.2076495334551073e-06 -4.8370688718095365e-08 -0.17912261002578175 1.5303635558477947e-06 -7.2468839903768669e-07 -0.16032047279889713 1.7800308126136452e-06 -4.3447065650519009e-07 -0.12818032648175323 9.5681590985007093e-07 -9.5042420831920296e-07 -0.15151932336345694 1.0061627859999819e-06 -4.5564339669420751e-07 -0.18119170855610664 1.5303635558477947e-06 -7.2468839903768669e-07 -0.16032047279889713 1.7800308126136452e-06 -4.3447065650519003e-07 -0.12818032648175323 1.0061627859999819e-06 -4.5564339669420751e-07 -0.18119170855610664 2.2076495334551073e-06 -4.8370688718095365e-08 -0.17912261002578175 2.1075067866266993e-06 -1.1511708150281795e-06 -0.11018431591000447 9.9256299549138854e-07 -8.7757408569423391e-07 -0.1100343260261071 1.7800308126136452e-06 -4.3447065650519003e-07 -0.12818032648175323 9.5681590985007072e-07 -9.5042420831920296e-07 -0.15151932336345697 2.1075067866266993e-06 -1.1511708150281795e-06 -0.11018431591000447 1.5303635558477947e-06 -7.2468839903768691e-07 -0.16032047279889713 1.7800308126136452e-06 -4.3447065650519003e-07 -0.12818032648175323 9.5681590985007072e-07 -9.5042420831920296e-07 -0.15151932336345694 2.1075067866266993e-06 -1.1511708150281795e-06 -0.11018431591000447 9.9256299549138854e-07 -8.7757408569423391e-07 -0.1100343260261071 1.1355844641838544e-06 -2.230113964484587e-06 -0.1148311063736433 9.5681590985007115e-07 -9.5042420831920296e-07 -0.15151932336345697 2.1075067866266993e-06 -1.1511708150281795e-06 -0.11018431591000447 1.3706455932286114e-06 -1.2251985987414974e-06 -0.15458702664646856 1.9976880123385215e-06 -1.9043466416511888e-06 -0.13500788728958504 9.5681590985007072e-07 -9.5042420831920296e-07 -0.15151932336345694 1.5303635558477947e-06 -7.2468839903768669e-07 -0.16032047279889713 1.3706455932286114e-06 -1.2251985987414974e-06 -0.15458702664646856 9.5681590985007115e-07 -9.5042420831920307e-07 -0.15151932336345697 1.3567141713834168e-06 -1.1268655201702024e-06 -0.1874144069249796 2.1075067866266993e-06 -1.1511708150281795e-06 -0.11018431591000447 1.5303635558477949e-06 -7.246883990376868e-07 -0.16032047279889713 1.3706455932286114e-06 -1.2251985987414974e-06 -0.15458702664646856 9.5681590985007093e-07 -9.5042420831920307e-07 -0.15151932336345694 1.3706455932286114e-06 -1.2251985987414974e-06 -0.15458702664646856 1.2662811177769173e-06 -1.2214033004742302e-06 -0.15479382328719729 9.5681590985007115e-07 -9.5042420831920307e-07 -0.15151932336345697 1.3567141713834168e-06 -1.1268655201702024e-06 -0.1874144069249796 1.3706455932286114e-06 -1.2251985987414974e-06 -0.15458702664646856 1.9976880123385215e-06 -1.9043466416511888e-06 -0.13500788728958504 1.2662811177769173e-06 -1.2214033004742302e-06 -0.15479382328719729 1.4819189762161223e-06 -1.5475450794426757e-06 -0.18000832726153601 1.3706455932286114e-06 -1.2251985987414974e-06 -0.15458702664646856 1.9976880123385215e-06 -1.9043466416511888e-06 -0.13500788728958504 1.2662811177769171e-06 -1.22140330047423e-06 -0.15479382328719735 9.5681590985007115e-07 -9.5042420831920307e-07 -0.15151932336345697 2.1075067866266993e-06 -1.1511708150281795e-06 -0.11018431591000447 1.9976880123385215e-06 -1.9043466416511888e-06 -0.13500788728958504 1.1355844641838544e-06 -2.230113964484587e-06 -0.1148311063736433 9.5681590985007136e-07 -9.5042420831920307e-07 -0.151519323363457 1.9976880123385215e-06 -1.9043466416511888e-06 -0.13500788728958504 1.1355844641838544e-06 -2.230113964484587e-06 -0.1148311063736433 1.2662811177769173e-06 -1.2214033004742302e-06 -0.15479382328719732 9.5681590985007115e-07 -9.5042420831920307e-07 -0.15151932336345697 1.1355844641838544e-06 -2.230113964484587e-06 -0.1148311063736433 1.2662811177769175e-06 -1.2214033004742304e-06 -0.15479382328719732 9.5681590985007115e-07 -9.5042420831920307e-07 -0.15151932336345697 7.536780395654318e-07 -1.5105984760746193e-06 -0.16032049983550836 1.2662811177769173e-06 -1.2214033004742302e-06 -0.15479382328719732 9.5681590985007115e-07 -9.5042420831920307e-07 -0.15151932336345694 7.536780395654318e-07 -1.5105984760746193e-06 -0.16032049983550836 1.0649487330862182e-06 -1.3601398726270118e-06 -0.18741441924600821 9.5681590985007115e-07 -9.5042420831920307e-07 -0.15151932336345697 7.536780395654318e-07 -1.5105984760746193e-06 -0.16032049983550836 3.6902190995362277e-07 -7.1550844906574841e-07 -0.15776330921577936 6.2262601913652522e-07 -1.3712975006944943e-06 -0.19537491197777118 9.9256299549138854e-07 -8.7757408569423391e-07 -0.1100343260261071 9.5681590985007115e-07 -9.5042420831920307e-07 -0.15151932336345697 2.6577348630654871e-07 -1.8530876144823991e-06 -0.14213063811804053 3.6902190995362262e-07 -7.1550844906574841e-07 -0.15776330921577936 9.9256299549138854e-07 -8.7757408569423391e-07 -0.1100343260261071 1.1355844641838542e-06 -2.2301139644845866e-06 -0.1148311063736433 9.5681590985007093e-07 -9.5042420831920296e-07 -0.15151932336345694 2.6577348630654876e-07 -1.8530876144823991e-06 -0.14213063811804053 7.536780395654318e-07 -1.5105984760746193e-06 -0.16032049983550836 2.6577348630654876e-07 -1.8530876144823991e-06 -0.14213063811804053 3.6902190995362277e-07 -7.1550844906574841e-07 -0.15776330921577936 -3.4689862935125648e-08 -2.1263917566593409e-06 -0.17912266840537353 3.9977859941118256e-07 -1.8240835949667931e-06 -0.095513505353309214 9.9256299549138832e-07 -8.775740856942338e-07 -0.1100343260261071 2.6577348630654876e-07 -1.8530876144823991e-06 -0.14213063811804053 -4.1782557278883479e-08 -8.3805439706533232e-07 -0.11416303671339981 9.9256299549138854e-07 -8.7757408569423391e-07 -0.1100343260261071 2.6577348630654871e-07 -1.8530876144823993e-06 -0.14213063811804053 3.6902190995362267e-07 -7.155084490657483e-07 -0.15776330921577936 -4.1782557278883545e-08 -8.3805439706533221e-07 -0.11416303671339981 9.5681590985007115e-07 -9.5042420831920307e-07 -0.15151932336345697 7.536780395654318e-07 -1.5105984760746193e-06 -0.16032049983550836 2.6577348630654876e-07 -1.8530876144823991e-06 -0.14213063811804053 3.6902190995362262e-07 -7.1550844906574852e-07 -0.1577633092157793 3.9977859941118256e-07 -1.8240835949667931e-06 -0.095513505353309214 9.9256299549138875e-07 -8.7757408569423391e-07 -0.1100343260261071 1.1355844641838544e-06 -2.230113964484587e-06 -0.1148311063736433 2.6577348630654876e-07 -1.8530876144823991e-06 -0.14213063811804053 2.6577348630654876e-07 -1.8530876144823991e-06 -0.14213063811804053 3.6902190995362299e-07 -7.1550844906574852e-07 -0.15776330921577933 -4.1782557278883605e-08 -8.3805439706533242e-07 -0.11416303671339981 -3.4689862935125648e-08 -2.1263917566593409e-06 -0.17912266840537353 1.1355844641838544e-06 -2.230113964484587e-06 -0.1148311063736433 9.5681590985007115e-07 -9.5042420831920296e-07 -0.15151932336345697 7.536780395654318e-07 -1.5105984760746193e-06 -0.16032049983550836 2.6577348630654876e-07 -1.8530876144823991e-06 -0.14213063811804053 3.9977859941118256e-07 -1.8240835949667931e-06 -0.095513505353309214 -3.7551287088917335e-08 -5.3757547439151749e-07 -0.11250770888502608 2.6577348630654876e-07 -1.8530876144823991e-06 -0.14213063811804053 -4.1782557278883479e-08 -8.3805439706533232e-07 -0.11416303671339981 8.5184772986595065e-07 6.3619711028215958e-08 -0.13122680368519005 3.6902190995362267e-07 -7.1550844906574862e-07 -0.15776330921577936 7.5272775911822898e-07 4.7381673468751943e-08 -0.1799308925512387 -4.1482650579244681e-08 -4.0170451579357953e-08 -0.17056303157081279 8.5184772986595065e-07 6.3619711028215958e-08 -0.13122680368519005 9.5681590985007115e-07 -9.5042420831920296e-07 -0.15151932336345697 3.6902190995362246e-07 -7.1550844906574852e-07 -0.15776330921577936 1.0061627859999821e-06 -4.5564339669420767e-07 -0.18119170855610664 9.9256299549138854e-07 -8.7757408569423391e-07 -0.1100343260261071 8.5184772986595076e-07 6.3619711028215932e-08 -0.13122680368519005 9.5681590985007115e-07 -9.5042420831920307e-07 -0.15151932336345697 3.6902190995362277e-07 -7.1550844906574841e-07 -0.15776330921577936 2.4766520402843055e-08 -2.8604385172197632e-08 -0.11250737590774497 8.5184772986595065e-07 6.3619711028215866e-08 -0.13122680368519007 3.6902190995362288e-07 -7.1550844906574862e-07 -0.15776330921577936 -4.1482650579244728e-08 -4.0170451579357807e-08 -0.17056303157081276 2.4766520402843055e-08 -2.8604385172197632e-08 -0.11250737590774497 9.9256299549138854e-07 -8.7757408569423391e-07 -0.1100343260261071 8.5184772986595065e-07 6.3619711028215945e-08 -0.13122680368519007 3.6902190995362283e-07 -7.155084490657483e-07 -0.15776330921577936 2.4766520402843055e-08 -2.8604385172197632e-08 -0.11250737590774497 9.9256299549138875e-07 -8.775740856942338e-07 -0.11003432602610709 3.6902190995362267e-07 -7.1550844906574852e-07 -0.15776330921577938 -4.1782557278883519e-08 -8.3805439706533232e-07 -0.11416303671339981 2.4766520402843055e-08 -2.8604385172197632e-08 -0.11250737590774497 3.6902190995362267e-07 -7.1550844906574841e-07 -0.15776330921577933 -4.1482650579244668e-08 -4.0170451579357834e-08 -0.17056303157081276 -4.1782557278883373e-08 -8.3805439706533242e-07 -0.11416303671339981 8.5184772986595065e-07 6.3619711028215958e-08 -0.13122680368519005 3.6902190995362251e-07 -7.1550844906574862e-07 -0.15776330921577936 1.0061627859999817e-06 -4.5564339669420751e-07 -0.18119170855610664 7.5272775911822898e-07 4.7381673468751936e-08 -0.1799308925512387 3.6902190995362277e-07 -7.1550844906574841e-07 -0.15776330921577936 7.0674396185742409e-07 -6.822080321735142e-07 -0.22500839978443951 6.4462206557292253e-07 -1.1748181738653381e-06 -0.22500838390354297 1.0061627859999821e-06 -4.5564339669420762e-07 -0.18119170855610661 3.6902190995362277e-07 -7.1550844906574841e-07 -0.15776330921577936 7.067439618574243e-07 -6.8220803217351451e-07 -0.22500839978443954 2.3620121993876427e-07 -4.7445898415098838e-07 -0.22500838205245949 -3.5799432469191707e-08 -1.2108393619467843e-06 -0.22500843951266941 3.6902190995362277e-07 -7.1550844906574841e-07 -0.15776330921577936 2.3620121993876422e-07 -4.7445898415098806e-07 -0.22500838205245949 1.0061627859999819e-06 -4.5564339669420751e-07 -0.18119170855610664 7.5272775911822898e-07 4.7381673468751976e-08 -0.1799308925512387 3.6902190995362277e-07 -7.1550844906574841e-07 -0.15776330921577936 2.3620121993876414e-07 -4.7445898415098801e-07 -0.22500838205245949 7.5272775911822898e-07 4.7381673468751976e-08 -0.1799308925512387 -4.148265057924492e-08 -4.0170451579357642e-08 -0.17056303157081273 3.6902190995362277e-07 -7.1550844906574841e-07 -0.15776330921577936 2.3620121993876385e-07 -4.7445898415098833e-07 -0.22500838205245952 -4.1482650579244853e-08 -4.0170451579357807e-08 -0.17056303157081276 -3.5799432469191766e-08 -1.2108393619467843e-06 -0.22500843951266938 3.6902190995362277e-07 -7.1550844906574841e-07 -0.15776330921577936 7.067439618574242e-07 -6.8220803217351441e-07 -0.22500839978443951 2.3620121993876422e-07 -4.7445898415098844e-07 -0.22500838205245949 1.0061627859999819e-06 -4.556433966942073e-07 -0.18119170855610664 7.0674396185742441e-07 -6.822080321735143e-07 -0.22500839978443951 2.3620121993876414e-07 -4.7445898415098812e-07 -0.22500838205245949 1.0061627859999819e-06 -4.5564339669420751e-07 -0.18119170855610664 1.1093302899540176e-06 -7.5277872335761749e-08 -0.22500840603251848 2.3620121993876414e-07 -4.7445898415098812e-07 -0.22500838205245949 1.1093302899540174e-06 -7.527787233576167e-08 -0.22500840603251848 7.5272775911822898e-07 4.7381673468751962e-08 -0.1799308925512387 3.6714400362002728e-07 1.9171151278346873e-07 -0.22500834829679947 2.3620121993876414e-07 -4.7445898415098812e-07 -0.22500838205245949 1.0061627859999819e-06 -4.5564339669420751e-07 -0.18119170855610664 1.1093302899540176e-06 -7.5277872335761749e-08 -0.22500840603251848 7.5272775911822909e-07 4.7381673468751784e-08 -0.17993089255123873 2.3620121993876414e-07 -4.7445898415098812e-07 -0.22500838205245949 -2.0439690626744669e-08 -4.6616004639096278e-08 -0.22500836866314489 7.5272775911822877e-07 4.738167346875191e-08 -0.17993089255123867 -4.1482650579244986e-08 -4.0170451579357827e-08 -0.17056303157081273 2.3620121993876414e-07 -4.7445898415098812e-07 -0.22500838205245949 -2.0439690626744758e-08 -4.6616004639096245e-08 -0.22500836866314489 7.5272775911822898e-07 4.7381673468751936e-08 -0.17993089255123873 3.6714400362002728e-07 1.9171151278346873e-07 -0.22500834829679947 9.5681590985007115e-07 -9.5042420831920307e-07 -0.15151932336345697 3.6902190995362277e-07 -7.1550844906574841e-07 -0.15776330921577936 6.4462206557292253e-07 -1.1748181738653381e-06 -0.22500838390354294 1.0061627859999819e-06 -4.5564339669420746e-07 -0.18119170855610664 9.5681590985007115e-07 -9.5042420831920307e-07 -0.15151932336345697 3.6902190995362277e-07 -7.1550844906574841e-07 -0.15776330921577936 6.2262601913652522e-07 -1.3712975006944943e-06 -0.19537491197777118 6.4462206557292253e-07 -1.1748181738653381e-06 -0.22500838390354297 7.536780395654318e-07 -1.5105984760746193e-06 -0.16032049983550836 3.6902190995362277e-07 -7.1550844906574841e-07 -0.15776330921577936 6.2262601913652522e-07 -1.3712975006944943e-06 -0.19537491197777118 -3.4689862935125648e-08 -2.1263917566593409e-06 -0.17912266840537353 3.6902190995362277e-07 -7.1550844906574841e-07 -0.15776330921577936 7.067439618574242e-07 -6.822080321735143e-07 -0.22500839978443951 6.4462206557292253e-07 -1.1748181738653381e-06 -0.225008383903543 -3.5799432469191813e-08 -1.2108393619467841e-06 -0.22500843951266941 3.6902190995362277e-07 -7.1550844906574841e-07 -0.15776330921577936 6.2262601913652553e-07 -1.3712975006944941e-06 -0.19537491197777118 -3.4689862935125423e-08 -2.1263917566593404e-06 -0.17912266840537353 -3.5799432469191766e-08 -1.2108393619467843e-06 -0.22500843951266938 3.6902190995362277e-07 -7.1550844906574841e-07 -0.15776330921577936 6.226260191365249e-07 -1.3712975006944945e-06 -0.19537491197777115 6.4462206557292253e-07 -1.1748181738653381e-06 -0.22500838390354297 -3.5799432469191766e-08 -1.2108393619467843e-06 -0.22500843951266938 4.4413949212422063e-07 -1.9922402756440854e-06 -0.22500860505310974 6.2262601913652522e-07 -1.3712975006944943e-06 -0.19537491197777118 6.4462206557292253e-07 -1.1748181738653381e-06 -0.22500838390354297 -3.5799432469191766e-08 -1.2108393619467843e-06 -0.22500843951266938 4.4413949212422063e-07 -1.9922402756440854e-06 -0.22500860505310974 6.2262601913652522e-07 -1.3712975006944943e-06 -0.19537491197777118 -3.4689862935125648e-08 -2.1263917566593409e-06 -0.17912266840537353 -3.5799432469191766e-08 -1.2108393619467843e-06 -0.22500843951266938 4.4413949212422063e-07 -1.9922402756440854e-06 -0.22500860505310974 6.2262601913652522e-07 -1.3712975006944943e-06 -0.19537491197777118 6.4462206557292253e-07 -1.1748181738653381e-06 -0.22500838390354297 1.0807084797285274e-06 -1.4818025548146097e-06 -0.22500848661653097 9.5681590985007115e-07 -9.5042420831920307e-07 -0.15151932336345697 1.1633099159774282e-06 -1.1690551892239777e-06 -0.2250083315392058 1.0649487330862182e-06 -1.3601398726270118e-06 -0.18741441924600821 1.3567141713834166e-06 -1.1268655201702026e-06 -0.1874144069249796 9.5681590985007115e-07 -9.5042420831920307e-07 -0.15151932336345697 6.4462206557292317e-07 -1.1748181738653379e-06 -0.225008383903543 1.1633099159774278e-06 -1.1690551892239777e-06 -0.22500833153920582 1.0649487330862182e-06 -1.3601398726270118e-06 -0.18741441924600821 9.5681590985007115e-07 -9.5042420831920307e-07 -0.15151932336345697 1.1633099159774282e-06 -1.1690551892239777e-06 -0.2250083315392058 1.3567141713834168e-06 -1.1268655201702026e-06 -0.18741440692497963 1.0061627859999819e-06 -4.5564339669420751e-07 -0.18119170855610664 7.0674396185742441e-07 -6.822080321735143e-07 -0.22500839978443951 6.4462206557292253e-07 -1.1748181738653381e-06 -0.22500838390354297 1.1633099159774282e-06 -1.1690551892239777e-06 -0.2250083315392058 1.0061627859999819e-06 -4.5564339669420751e-07 -0.18119170855610664 9.5681590985007115e-07 -9.5042420831920307e-07 -0.15151932336345697 6.4462206557292317e-07 -1.1748181738653385e-06 -0.22500838390354297 1.163309915977428e-06 -1.1690551892239775e-06 -0.22500833153920582 1.0061627859999821e-06 -4.5564339669420751e-07 -0.18119170855610664 9.5681590985007115e-07 -9.5042420831920307e-07 -0.15151932336345697 6.2262601913652543e-07 -1.3712975006944943e-06 -0.19537491197777118 6.4462206557292253e-07 -1.1748181738653381e-06 -0.22500838390354297 1.0649487330862182e-06 -1.3601398726270118e-06 -0.18741441924600821 1.2662811177769173e-06 -1.2214033004742302e-06 -0.15479382328719732 9.5681590985007115e-07 -9.5042420831920307e-07 -0.15151932336345694 1.0649487330862182e-06 -1.3601398726270118e-06 -0.18741441924600821 1.3567141713834168e-06 -1.1268655201702024e-06 -0.1874144069249796 9.5681590985007115e-07 -9.5042420831920307e-07 -0.15151932336345697 7.536780395654318e-07 -1.5105984760746193e-06 -0.16032049983550836 6.2262601913652522e-07 -1.3712975006944943e-06 -0.19537491197777118 1.0649487330862182e-06 -1.3601398726270118e-06 -0.18741441924600821 6.4462206557292253e-07 -1.1748181738653381e-06 -0.22500838390354297 1.1633099159774282e-06 -1.1690551892239777e-06 -0.2250083315392058 1.064948733086218e-06 -1.3601398726270116e-06 -0.18741441924600821 1.0807084797285274e-06 -1.4818025548146097e-06 -0.22500848661653097 6.2262601913652522e-07 -1.3712975006944943e-06 -0.19537491197777118 6.4462206557292243e-07 -1.1748181738653381e-06 -0.22500838390354297 1.0649487330862182e-06 -1.3601398726270118e-06 -0.18741441924600821 1.0807084797285274e-06 -1.4818025548146097e-06 -0.22500848661653097 1.1633099159774282e-06 -1.1690551892239777e-06 -0.2250083315392058 1.0649487330862182e-06 -1.3601398726270118e-06 -0.18741441924600821 1.0807084797285274e-06 -1.4818025548146097e-06 -0.22500848661653097 2.3231732472906734e-06 -2.3214465808945899e-06 -0.22500883349400896 1.1633099159774282e-06 -1.1690551892239777e-06 -0.2250083315392058 1.064948733086218e-06 -1.3601398726270118e-06 -0.18741441924600821 2.3231732472906734e-06 -2.3214465808945899e-06 -0.22500883349400896 1.3567141713834168e-06 -1.1268655201702022e-06 -0.18741440692497957 1.0649487330862182e-06 -1.3601398726270118e-06 -0.18741441924600821 2.3231732472906734e-06 -2.3214465808945899e-06 -0.22500883349400899 1.4819189762161223e-06 -1.5475450794426757e-06 -0.18000832726153601 1.3567141713834168e-06 -1.1268655201702024e-06 -0.1874144069249796 1.3706455932286114e-06 -1.2251985987414974e-06 -0.15458702664646856 1.2662811177769175e-06 -1.2214033004742302e-06 -0.15479382328719732 1.4819189762161223e-06 -1.5475450794426757e-06 -0.18000832726153601 1.3567141713834168e-06 -1.1268655201702024e-06 -0.1874144069249796 1.2662811177769173e-06 -1.2214033004742302e-06 -0.15479382328719732 1.0649487330862182e-06 -1.3601398726270118e-06 -0.18741441924600821 1.4819189762161223e-06 -1.5475450794426757e-06 -0.18000832726153601 1.3567141713834168e-06 -1.1268655201702024e-06 -0.1874144069249796 1.5303635558477947e-06 -7.2468839903768669e-07 -0.16032047279889713 9.5681590985007093e-07 -9.5042420831920296e-07 -0.15151932336345694 1.3567141713834168e-06 -1.1268655201702024e-06 -0.1874144069249796 1.0061627859999817e-06 -4.5564339669420746e-07 -0.18119170855610664 1.1633099159774282e-06 -1.1690551892239777e-06 -0.2250083315392058 1.3567141713834166e-06 -1.1268655201702024e-06 -0.18741440692497957 1.5473167036760485e-06 -1.1043553361537061e-06 -0.22500849484652008 1.2488541464777312e-06 -6.3668633838504844e-07 -0.22500835294744459 1.1633099159774282e-06 -1.1690551892239777e-06 -0.2250083315392058 1.3567141713834168e-06 -1.1268655201702024e-06 -0.1874144069249796 1.2488541464777312e-06 -6.3668633838504844e-07 -0.22500835294744459 1.0061627859999819e-06 -4.5564339669420746e-07 -0.18119170855610664 1.1633099159774282e-06 -1.1690551892239777e-06 -0.2250083315392058 2.3231732472906734e-06 -2.3214465808945899e-06 -0.22500883349400896 1.3567141713834166e-06 -1.1268655201702022e-06 -0.1874144069249796 1.5473167036760485e-06 -1.1043553361537061e-06 -0.22500849484652008 1.3567141713834168e-06 -1.1268655201702024e-06 -0.1874144069249796 1.5473167036760482e-06 -1.1043553361537059e-06 -0.22500849484652011 1.2488541464777312e-06 -6.3668633838504844e-07 -0.22500835294744459 1.2212154340925245e-06 -6.8957847239385833e-07 -0.19519560963483254 1.2488541464777312e-06 -6.3668633838504844e-07 -0.22500835294744459 1.0061627859999819e-06 -4.556433966942074e-07 -0.18119170855610664 1.2212154340925245e-06 -6.8957847239385833e-07 -0.19519560963483251 1.9115841410468879e-06 -3.7585108080574286e-07 -0.22500841663213836 1.0061627859999819e-06 -4.5564339669420751e-07 -0.18119170855610664 2.2076495334551073e-06 -4.8370688718095279e-08 -0.17912261002578175 1.1093302899540176e-06 -7.5277872335761696e-08 -0.22500840603251848 7.5272775911822909e-07 4.7381673468751976e-08 -0.1799308925512387 1.5473167036760485e-06 -1.1043553361537061e-06 -0.22500849484652008 1.2488541464777312e-06 -6.3668633838504834e-07 -0.22500835294744459 1.2212154340925245e-06 -6.8957847239385833e-07 -0.19519560963483254 1.9115841410468879e-06 -3.7585108080574286e-07 -0.22500841663213836 1.3567141713834168e-06 -1.1268655201702024e-06 -0.1874144069249796 1.2488541464777312e-06 -6.3668633838504844e-07 -0.22500835294744459 1.0061627859999819e-06 -4.5564339669420746e-07 -0.18119170855610661 1.2212154340925245e-06 -6.8957847239385833e-07 -0.19519560963483254 7.0674396185742441e-07 -6.822080321735143e-07 -0.22500839978443951 1.2488541464777312e-06 -6.3668633838504844e-07 -0.22500835294744459 1.0061627859999819e-06 -4.5564339669420751e-07 -0.18119170855610664 1.1093302899540176e-06 -7.5277872335761749e-08 -0.22500840603251848 7.0674396185742441e-07 -6.822080321735143e-07 -0.22500839978443951 1.163309915977428e-06 -1.1690551892239777e-06 -0.2250083315392058 1.2488541464777312e-06 -6.3668633838504844e-07 -0.22500835294744459 1.0061627859999819e-06 -4.5564339669420751e-07 -0.18119170855610664 1.5303635558477947e-06 -7.2468839903768669e-07 -0.16032047279889713 1.0061627859999819e-06 -4.5564339669420751e-07 -0.18119170855610664 1.2212154340925245e-06 -6.8957847239385833e-07 -0.19519560963483254 2.2076495334551073e-06 -4.8370688718095365e-08 -0.17912261002578175 1.5303635558477947e-06 -7.2468839903768669e-07 -0.16032047279889713 1.3567141713834168e-06 -1.1268655201702024e-06 -0.1874144069249796 1.0061627859999819e-06 -4.5564339669420751e-07 -0.18119170855610664 1.2212154340925245e-06 -6.8957847239385833e-07 -0.19519560963483254 1.0061627859999819e-06 -4.5564339669420751e-07 -0.18119170855610664 1.2212154340925249e-06 -6.8957847239385812e-07 -0.19519560963483254 2.2076495334551077e-06 -4.8370688718095286e-08 -0.17912261002578173 1.9115841410468879e-06 -3.7585108080574286e-07 -0.22500841663213836 1.2488541464777312e-06 -6.3668633838504844e-07 -0.22500835294744459 1.0061627859999819e-06 -4.5564339669420751e-07 -0.18119170855610664 1.1093302899540176e-06 -7.5277872335761749e-08 -0.22500840603251848 1.9115841410468879e-06 -3.7585108080574286e-07 -0.22500841663213836 2.2076495334551073e-06 -4.8370688718095365e-08 -0.17912261002578175 1.1093302899540179e-06 -7.5277872335761749e-08 -0.22500840603251845 1.9115841410468879e-06 -3.7585108080574286e-07 -0.22500841663213836 1.9712811455840705e-06 3.8909755101966426e-07 -0.2250084101762411 1.0061627859999819e-06 -4.5564339669420751e-07 -0.18119170855610664 2.2076495334551073e-06 -4.8370688718095153e-08 -0.17912261002578175 1.1093302899540176e-06 -7.527787233576159e-08 -0.22500840603251848 1.9115841410468879e-06 -3.7585108080574286e-07 -0.22500841663213836 1.3610620182132345e-06 5.8378654731556333e-07 -0.19549275754613374 1.5842809798261254e-06 6.5198699854086698e-07 -0.16032039460356654 8.6581830183534478e-07 8.7526268039519831e-07 -0.16871248639725367 7.5272775911822898e-07 4.738167346875234e-08 -0.17993089255123873 2.2076495334551073e-06 -4.8370688718095365e-08 -0.17912261002578175 1.3610620182132345e-06 5.8378654731556333e-07 -0.19549275754613374 1.5842809798261256e-06 6.5198699854086698e-07 -0.16032039460356654 7.5272775911822898e-07 4.7381673468751976e-08 -0.1799308925512387 1.1396122608215951e-06 5.569257106108935e-07 -0.22500829467477526 8.6581830183534467e-07 8.7526268039519884e-07 -0.16871248639725367 7.5272775911822898e-07 4.7381673468751976e-08 -0.1799308925512387 6.2565793607917586e-07 6.3302704172421705e-07 -0.22500828640395124 2.2076495334551073e-06 -4.8370688718095365e-08 -0.17912261002578175 1.1093302899540179e-06 -7.5277872335761736e-08 -0.22500840603251851 1.9712811455840705e-06 3.8909755101966426e-07 -0.2250084101762411 1.1396122608215951e-06 5.569257106108935e-07 -0.22500829467477526 1.1396122608215951e-06 5.569257106108935e-07 -0.22500829467477526 1.3610620182132345e-06 5.8378654731556322e-07 -0.19549275754613374 8.6581830183534467e-07 8.7526268039519884e-07 -0.16871248639725367 7.5272775911822898e-07 4.7381673468751976e-08 -0.1799308925512387 2.2076495334551073e-06 -4.8370688718095365e-08 -0.17912261002578175 1.9712811455840705e-06 3.8909755101966426e-07 -0.2250084101762411 1.1396122608215951e-06 5.569257106108935e-07 -0.22500829467477526 1.3610620182132345e-06 5.8378654731556333e-07 -0.19549275754613374 2.2076495334551073e-06 -4.8370688718095365e-08 -0.17912261002578175 1.1093302899540179e-06 -7.5277872335761723e-08 -0.22500840603251845 1.1396122608215953e-06 5.569257106108935e-07 -0.22500829467477526 7.5272775911822898e-07 4.7381673468752082e-08 -0.1799308925512387 2.2076495334551073e-06 -4.8370688718095365e-08 -0.17912261002578175 1.1396122608215951e-06 5.569257106108934e-07 -0.22500829467477523 1.3610620182132345e-06 5.8378654731556333e-07 -0.19549275754613377 7.527277591182294e-07 4.7381673468751837e-08 -0.17993089255123876 1.9712811455840705e-06 3.8909755101966426e-07 -0.2250084101762411 1.1396122608215951e-06 5.569257106108935e-07 -0.22500829467477526 1.3610620182132345e-06 5.8378654731556333e-07 -0.19549275754613374 1.4746947657810866e-06 1.0679013384451363e-06 -0.22500840008561901 1.1093302899540176e-06 -7.5277872335761749e-08 -0.22500840603251848 1.1396122608215951e-06 5.569257106108935e-07 -0.22500829467477526 7.5272775911822898e-07 4.7381673468751989e-08 -0.1799308925512387 6.2565793607917586e-07 6.3302704172421705e-07 -0.22500828640395124 8.5184772986595065e-07 6.3619711028215958e-08 -0.13122680368519005 1.8625218763408936e-06 2.6019857086038072e-07 -0.13878678912217698 1.0120020272109792e-06 9.1729334063151407e-07 -0.12106967681622173 7.5272775911822898e-07 4.7381673468751976e-08 -0.1799308925512387 2.2076495334551073e-06 -4.8370688718095365e-08 -0.17912261002578175 1.8625218763408936e-06 2.6019857086038072e-07 -0.13878678912217698 1.5842809798261256e-06 6.5198699854086698e-07 -0.16032039460356654 7.5272775911822898e-07 4.7381673468751976e-08 -0.1799308925512387 8.5184772986595065e-07 6.3619711028215958e-08 -0.13122680368519005 2.2076495334551081e-06 -4.8370688718095723e-08 -0.17912261002578175 1.8625218763408932e-06 2.601985708603812e-07 -0.13878678912217698 7.5272775911822898e-07 4.7381673468751976e-08 -0.1799308925512387 1.8625218763408936e-06 2.6019857086038072e-07 -0.13878678912217698 1.0120020272109792e-06 9.1729334063151396e-07 -0.12106967681622172 8.6581830183534478e-07 8.7526268039519905e-07 -0.16871248639725367 7.5272775911822909e-07 4.7381673468752048e-08 -0.1799308925512387 1.8625218763408936e-06 2.6019857086038072e-07 -0.13878678912217698 1.5842809798261256e-06 6.5198699854086698e-07 -0.16032039460356654 8.6581830183534478e-07 8.7526268039519905e-07 -0.16871248639725364 7.527277591182294e-07 4.7381673468752082e-08 -0.1799308925512387 1.7332579571571734e-06 4.3408559544197888e-07 -0.095229126536803793 8.5184772986595065e-07 6.3619711028215958e-08 -0.13122680368519005 1.8625218763408936e-06 2.6019857086038072e-07 -0.13878678912217698 1.0120020272109792e-06 9.1729334063151375e-07 -0.12106967681622173 4.7895878934081058e-07 -1.3902183479394602e-07 -0.11250770360087502 1.7332579571571734e-06 4.3408559544197888e-07 -0.095229126536803793 8.5184772986595065e-07 6.3619711028215958e-08 -0.13122680368519005 1.8625218763408936e-06 2.6019857086038072e-07 -0.13878678912217698 1.7332579571571734e-06 4.3408559544197888e-07 -0.095229126536803793 1.8625218763408936e-06 2.6019857086038072e-07 -0.13878678912217698 1.0120020272109797e-06 9.1729334063151407e-07 -0.12106967681622173 2.1924062950081489e-06 1.1932612232189675e-06 -0.1148309671519876 1.8625218763408936e-06 2.6019857086038072e-07 -0.13878678912217698 1.012002027210979e-06 9.1729334063151396e-07 -0.12106967681622173 1.5842809798261256e-06 6.5198699854086698e-07 -0.16032039460356654 2.1924062950081489e-06 1.1932612232189675e-06 -0.1148309671519876 1.8625218763408936e-06 2.6019857086038072e-07 -0.13878678912217698 1.0120020272109792e-06 9.1729334063151449e-07 -0.1210696768162217 1.5842809798261256e-06 6.5198699854086698e-07 -0.16032039460356654 8.6581830183534467e-07 8.7526268039519884e-07 -0.16871248639725367 1.0120020272109792e-06 9.1729334063151407e-07 -0.12106967681622173 2.1924062950081485e-06 1.1932612232189673e-06 -0.1148309671519876 1.08037812526043e-06 2.1924556078641093e-06 -0.11483093926902747 1.0952736170145917e-06 1.2330710449221903e-06 -0.1556343484720189 1.0120020272109792e-06 9.1729334063151407e-07 -0.12106967681622173 1.2330079938250077e-06 1.0610109652246767e-06 -0.15563427279957204 2.1924062950081489e-06 1.1932612232189673e-06 -0.1148309671519876 1.095273617014591e-06 1.2330710449221899e-06 -0.15563434847201893 1.0120020272109792e-06 9.1729334063151407e-07 -0.12106967681622173 8.6581830183534467e-07 8.7526268039519884e-07 -0.16871248639725367 1.0952736170145917e-06 1.2330710449221901e-06 -0.15563434847201893 6.5125936145615941e-07 1.5842450044505379e-06 -0.16032039614855564 1.0120020272109792e-06 9.1729334063151407e-07 -0.12106967681622173 1.5842809798261256e-06 6.5198699854086698e-07 -0.16032039460356654 1.2330079938250077e-06 1.0610109652246767e-06 -0.15563427279957201 8.6581830183534488e-07 8.7526268039519884e-07 -0.16871248639725367 1.0120020272109792e-06 9.1729334063151407e-07 -0.12106967681622173 1.08037812526043e-06 2.1924556078641093e-06 -0.11483093926902747 1.0952736170145917e-06 1.2330710449221903e-06 -0.1556343484720189 6.5125936145615941e-07 1.5842450044505379e-06 -0.16032039614855564 1.0120020272109792e-06 9.1729334063151407e-07 -0.12106967681622173 1.2330079938250079e-06 1.0610109652246769e-06 -0.15563427279957201 8.6581830183534457e-07 8.7526268039519884e-07 -0.16871248639725367 1.0952736170145917e-06 1.2330710449221901e-06 -0.1556343484720189 1.5842809798261256e-06 6.5198699854086698e-07 -0.16032039460356654 1.2330079938250077e-06 1.0610109652246767e-06 -0.15563427279957204 8.6581830183534467e-07 8.7526268039519884e-07 -0.16871248639725367 1.3432404333728581e-06 1.0595831200836855e-06 -0.18800408779455779 1.0120020272109792e-06 9.1729334063151407e-07 -0.12106967681622173 1.5842809798261256e-06 6.5198699854086698e-07 -0.16032039460356654 1.2330079938250077e-06 1.0610109652246767e-06 -0.15563427279957204 2.1924062950081489e-06 1.1932612232189675e-06 -0.1148309671519876 1.2330079938250077e-06 1.0610109652246767e-06 -0.15563427279957204 2.1924062950081489e-06 1.1932612232189677e-06 -0.11483096715198761 1.9363647696677392e-06 1.9362817189773654e-06 -0.13500753403426471 1.0952736170145917e-06 1.2330710449221903e-06 -0.1556343484720189 2.1924062950081489e-06 1.1932612232189675e-06 -0.1148309671519876 1.9363647696677392e-06 1.9362817189773654e-06 -0.13500753403426471 1.08037812526043e-06 2.1924556078641093e-06 -0.11483093926902747 1.0952736170145917e-06 1.2330710449221903e-06 -0.1556343484720189 1.9644027722717384e-06 1.9643390109533121e-06 -0.090007674710414862 2.1924062950081489e-06 1.1932612232189675e-06 -0.1148309671519876 1.9363647696677392e-06 1.9362817189773654e-06 -0.13500753403426471 1.08037812526043e-06 2.1924556078641093e-06 -0.11483093926902747 8.6581830183534467e-07 8.7526268039519884e-07 -0.16871248639725367 1.0952736170145917e-06 1.2330710449221901e-06 -0.1556343484720189 1.033925887722504e-06 1.3432194815062639e-06 -0.18800412978768893 6.5125936145615941e-07 1.5842450044505379e-06 -0.16032039614855564 1.2330079938250077e-06 1.0610109652246767e-06 -0.15563427279957204 8.6581830183534467e-07 8.7526268039519894e-07 -0.16871248639725367 1.0952736170145917e-06 1.2330710449221903e-06 -0.1556343484720189 1.3432404333728581e-06 1.0595831200836855e-06 -0.18800408779455779 1.2330079938250077e-06 1.0610109652246767e-06 -0.15563427279957204 1.9363647696677392e-06 1.9362817189773654e-06 -0.13500753403426471 1.0952736170145917e-06 1.2330710449221903e-06 -0.1556343484720189 1.4976373238771459e-06 1.4976284074218001e-06 -0.1800082967303358 8.6581830183534467e-07 8.7526268039519884e-07 -0.16871248639725367 1.3432404333728581e-06 1.0595831200836855e-06 -0.18800408779455782 1.1095362353420289e-06 1.1287232828114805e-06 -0.22500824272647035 1.033925887722504e-06 1.3432194815062639e-06 -0.18800412978768893 1.1396122608215951e-06 5.569257106108935e-07 -0.22500829467477526 8.6581830183534467e-07 8.7526268039519884e-07 -0.16871248639725367 1.1095362353420289e-06 1.1287232828114805e-06 -0.22500824272647035 6.2565793607917586e-07 6.3302704172421705e-07 -0.22500828640395124 1.2330079938250077e-06 1.0610109652246767e-06 -0.15563427279957204 1.0952736170145917e-06 1.2330710449221903e-06 -0.1556343484720189 1.4976373238771459e-06 1.4976284074218001e-06 -0.1800082967303358 1.3432404333728581e-06 1.0595831200836855e-06 -0.18800408779455779 8.6581830183534467e-07 8.7526268039519884e-07 -0.16871248639725367 1.0952736170145917e-06 1.2330710449221905e-06 -0.15563434847201887 1.3432404333728581e-06 1.0595831200836857e-06 -0.18800408779455785 1.033925887722504e-06 1.3432194815062639e-06 -0.18800412978768891 1.4976373238771459e-06 1.4976284074218001e-06 -0.1800082967303358 2.2851795412438112e-06 2.2852071150592485e-06 -0.22500879482981748 1.3432404333728581e-06 1.0595831200836855e-06 -0.18800408779455779 1.033925887722504e-06 1.3432194815062639e-06 -0.18800412978768891 8.6581830183534467e-07 8.7526268039519884e-07 -0.16871248639725367 1.1095362353420298e-06 1.1287232828114807e-06 -0.22500824272647033 5.6233987513802446e-07 1.1480587915979472e-06 -0.22500828175629831 6.2565793607917596e-07 6.3302704172421736e-07 -0.22500828640395124 8.6581830183534467e-07 8.7526268039519884e-07 -0.16871248639725367 1.1095362353420293e-06 1.1287232828114805e-06 -0.22500824272647035 1.0339258877225042e-06 1.3432194815062639e-06 -0.18800412978768893 5.6233987513802446e-07 1.1480587915979472e-06 -0.22500828175629831 8.6581830183534467e-07 8.7526268039519884e-07 -0.16871248639725367 1.033925887722504e-06 1.3432194815062641e-06 -0.18800412978768891 5.5313544633607375e-07 1.3611350577461153e-06 -0.19549278131573708 5.6233987513802435e-07 1.1480587915979474e-06 -0.22500828175629831 1.0952736170145917e-06 1.2330710449221903e-06 -0.1556343484720189 1.4976373238771459e-06 1.4976284074218001e-06 -0.18000829673033578 1.3432404333728581e-06 1.0595831200836855e-06 -0.18800408779455779 1.033925887722504e-06 1.3432194815062639e-06 -0.18800412978768891 1.1396122608215951e-06 5.569257106108935e-07 -0.22500829467477526 1.3610620182132345e-06 5.8378654731556333e-07 -0.19549275754613377 8.6581830183534467e-07 8.7526268039519894e-07 -0.16871248639725367 1.1095362353420289e-06 1.1287232828114805e-06 -0.22500824272647035 1.3610620182132345e-06 5.8378654731556333e-07 -0.19549275754613374 8.6581830183534467e-07 8.7526268039519894e-07 -0.1687124863972537 1.3432404333728581e-06 1.0595831200836855e-06 -0.18800408779455779 1.1095362353420289e-06 1.1287232828114805e-06 -0.22500824272647035 2.2851795412438112e-06 2.2852071150592485e-06 -0.22500879482981748 1.3432404333728579e-06 1.0595831200836853e-06 -0.18800408779455779 1.1095362353420291e-06 1.1287232828114807e-06 -0.22500824272647035 1.033925887722504e-06 1.3432194815062639e-06 -0.18800412978768891 1.3610620182132345e-06 5.8378654731556333e-07 -0.19549275754613374 1.4746947657810866e-06 1.0679013384451363e-06 -0.22500840008561901 1.3432404333728581e-06 1.0595831200836855e-06 -0.18800408779455779 1.1095362353420289e-06 1.1287232828114805e-06 -0.22500824272647035 1.1396122608215951e-06 5.569257106108935e-07 -0.22500829467477526 1.3610620182132345e-06 5.8378654731556333e-07 -0.19549275754613374 1.4746947657810866e-06 1.0679013384451363e-06 -0.22500840008561901 1.1095362353420289e-06 1.1287232828114805e-06 -0.22500824272647035 2.2851795412438112e-06 2.2852071150592485e-06 -0.22500879482981748 1.4746947657810866e-06 1.0679013384451363e-06 -0.22500840008561901 1.3432404333728581e-06 1.0595831200836855e-06 -0.18800408779455779 1.1095362353420289e-06 1.1287232828114805e-06 -0.22500824272647035 1.3610620182132345e-06 5.8378654731556333e-07 -0.19549275754613374 1.5842809798261256e-06 6.5198699854086687e-07 -0.16032039460356656 8.6581830183534499e-07 8.7526268039519884e-07 -0.16871248639725367 1.3432404333728581e-06 1.0595831200836855e-06 -0.18800408779455779 1.0376433552659765e-06 1.4746916460794955e-06 -0.22500842940588969 1.033925887722504e-06 1.3432194815062639e-06 -0.18800412978768891 5.5313544633607354e-07 1.3611350577461155e-06 -0.19549278131573708 5.6233987513802446e-07 1.1480587915979472e-06 -0.22500828175629831 1.1095362353420289e-06 1.1287232828114805e-06 -0.22500824272647035 1.0376433552659765e-06 1.4746916460794955e-06 -0.22500842940588969 1.033925887722504e-06 1.3432194815062639e-06 -0.18800412978768891 5.6233987513802446e-07 1.1480587915979472e-06 -0.22500828175629831 2.2851795412438112e-06 2.2852071150592485e-06 -0.22500879482981748 1.1095362353420289e-06 1.1287232828114805e-06 -0.22500824272647033 1.0376433552659765e-06 1.4746916460794955e-06 -0.22500842940588969 1.033925887722504e-06 1.3432194815062639e-06 -0.18800412978768891 8.6581830183534467e-07 8.7526268039519884e-07 -0.16871248639725367 1.033925887722504e-06 1.3432194815062639e-06 -0.18800412978768893 5.5313544633607375e-07 1.3611350577461157e-06 -0.19549278131573708 6.5125936145615941e-07 1.5842450044505379e-06 -0.16032039614855564 8.6581830183534467e-07 8.7526268039519884e-07 -0.16871248639725367 5.6233987513802446e-07 1.1480587915979472e-06 -0.22500828175629831 3.0536742990822179e-07 7.0015092078551954e-07 -0.15999472950949969 6.2565793607917575e-07 6.3302704172421736e-07 -0.22500828640395124 5.5313544633607354e-07 1.3611350577461155e-06 -0.19549278131573708 6.5125936145615941e-07 1.5842450044505379e-06 -0.16032039614855564 3.0536742990822179e-07 7.0015092078551954e-07 -0.15999472950949969 -7.1951795077741841e-08 2.2076246424072709e-06 -0.17912262032708967 5.5313544633607354e-07 1.3611350577461155e-06 -0.19549278131573708 -5.1036658329711313e-08 1.1433502950306018e-06 -0.22500840181502496 3.0536742990822179e-07 7.0015092078551954e-07 -0.15999472950949969 -7.1951795077741841e-08 2.2076246424072709e-06 -0.17912262032708967 5.5313544633607354e-07 1.3611350577461155e-06 -0.19549278131573708 5.6233987513802446e-07 1.1480587915979472e-06 -0.22500828175629831 -5.1036658329711584e-08 1.1433502950306022e-06 -0.22500840181502493 3.0536742990822179e-07 7.0015092078551954e-07 -0.15999472950949969 8.6581830183534467e-07 8.7526268039519884e-07 -0.16871248639725367 5.5313544633607365e-07 1.3611350577461153e-06 -0.19549278131573711 5.6233987513802446e-07 1.1480587915979472e-06 -0.22500828175629828 3.0536742990822179e-07 7.0015092078551954e-07 -0.15999472950949969 8.6581830183534467e-07 8.7526268039519884e-07 -0.16871248639725367 5.5313544633607365e-07 1.3611350577461155e-06 -0.19549278131573705 6.5125936145615941e-07 1.5842450044505379e-06 -0.16032039614855564 3.0536742990822179e-07 7.0015092078551954e-07 -0.15999472950949969 5.6233987513802446e-07 1.1480587915979472e-06 -0.22500828175629831 -5.103665832971124e-08 1.143350295030602e-06 -0.22500840181502493 3.0536742990822179e-07 7.0015092078551944e-07 -0.15999472950949969 6.2565793607917586e-07 6.3302704172421705e-07 -0.22500828640395124 1.0376433552659765e-06 1.4746916460794955e-06 -0.22500842940588969 5.5313544633607354e-07 1.3611350577461155e-06 -0.19549278131573708 5.6233987513802435e-07 1.1480587915979472e-06 -0.22500828175629831 3.9472356040458907e-07 1.9711866253649119e-06 -0.22500851820792328 5.5313544633607354e-07 1.3611350577461155e-06 -0.19549278131573708 5.6233987513802446e-07 1.1480587915979472e-06 -0.22500828175629831 -5.1036658329711511e-08 1.143350295030602e-06 -0.22500840181502496 3.9472356040458907e-07 1.9711866253649119e-06 -0.22500851820792328 5.5313544633607354e-07 1.3611350577461155e-06 -0.19549278131573708 -5.103665832971122e-08 1.1433502950306015e-06 -0.22500840181502493 3.9472356040458907e-07 1.9711866253649119e-06 -0.22500851820792328 -7.1951795077741841e-08 2.2076246424072709e-06 -0.17912262032708967 3.5358859430500525e-07 1.7331601878342534e-06 -0.095229053596919092 1.012002027210979e-06 9.1729334063151407e-07 -0.12106967681622173 2.0828386817882389e-07 1.8624924620490133e-06 -0.13878674870946411 -2.0473406890101263e-07 7.33447532030256e-07 -0.11630640651542712 1.0120020272109792e-06 9.1729334063151407e-07 -0.12106967681622173 2.0828386817882389e-07 1.8624924620490133e-06 -0.13878674870946411 3.0536742990822179e-07 7.0015092078551954e-07 -0.15999472950949969 -2.0473406890101263e-07 7.33447532030256e-07 -0.11630640651542712 3.5358859430500525e-07 1.7331601878342534e-06 -0.095229053596919092 1.012002027210979e-06 9.1729334063151417e-07 -0.12106967681622173 1.08037812526043e-06 2.1924556078641093e-06 -0.11483093926902747 2.0828386817882389e-07 1.8624924620490133e-06 -0.13878674870946411 1.0120020272109792e-06 9.1729334063151407e-07 -0.12106967681622173 8.6581830183534467e-07 8.7526268039519884e-07 -0.16871248639725367 6.5125936145615941e-07 1.5842450044505379e-06 -0.16032039614855564 3.0536742990822179e-07 7.0015092078551954e-07 -0.15999472950949969 1.0120020272109792e-06 9.1729334063151407e-07 -0.12106967681622173 1.0803781252604298e-06 2.1924556078641093e-06 -0.11483093926902747 6.5125936145615941e-07 1.5842450044505379e-06 -0.16032039614855564 2.0828386817882389e-07 1.8624924620490133e-06 -0.13878674870946411 1.0120020272109792e-06 9.1729334063151407e-07 -0.12106967681622173 6.5125936145615941e-07 1.5842450044505379e-06 -0.16032039614855564 2.0828386817882386e-07 1.8624924620490133e-06 -0.13878674870946411 3.0536742990822179e-07 7.0015092078551954e-07 -0.15999472950949969 6.5125936145615941e-07 1.5842450044505379e-06 -0.16032039614855564 2.0828386817882391e-07 1.8624924620490133e-06 -0.13878674870946411 3.0536742990822179e-07 7.0015092078551954e-07 -0.15999472950949969 -7.1951795077741841e-08 2.2076246424072709e-06 -0.17912262032708967 2.0828386817882389e-07 1.8624924620490133e-06 -0.13878674870946411 3.0536742990822153e-07 7.0015092078551933e-07 -0.15999472950949967 -7.1951795077741841e-08 2.2076246424072709e-06 -0.17912262032708967 -3.3353582164740718e-07 1.0362657720744731e-06 -0.1808317586209876 -1.5784179921489687e-07 4.7898444584149938e-07 -0.1125077709215445 3.5358859430500525e-07 1.7331601878342534e-06 -0.095229053596919092 2.0828386817882389e-07 1.8624924620490133e-06 -0.13878674870946411 -2.0473406890101263e-07 7.33447532030256e-07 -0.11630640651542712 8.5184772986595065e-07 6.3619711028215958e-08 -0.13122680368519005 1.0120020272109792e-06 9.1729334063151417e-07 -0.12106967681622173 3.0536742990822222e-07 7.0015092078551965e-07 -0.15999472950949969 7.5272775911822898e-07 4.7381673468751976e-08 -0.1799308925512387 8.5184772986595065e-07 6.3619711028215958e-08 -0.13122680368519005 3.0536742990822179e-07 7.0015092078551954e-07 -0.15999472950949969 7.5272775911822887e-07 4.7381673468751903e-08 -0.1799308925512387 -4.1482650579244589e-08 -4.0170451579357794e-08 -0.17056303157081279 2.4766520402843055e-08 -2.8604385172197632e-08 -0.11250737590774497 8.5184772986595076e-07 6.3619711028215945e-08 -0.13122680368519002 1.0120020272109792e-06 9.1729334063151438e-07 -0.12106967681622173 3.0536742990822179e-07 7.0015092078551954e-07 -0.15999472950949969 1.0120020272109792e-06 9.1729334063151407e-07 -0.12106967681622173 8.6581830183534457e-07 8.7526268039519884e-07 -0.16871248639725367 3.0536742990822179e-07 7.0015092078551954e-07 -0.15999472950949969 7.5272775911822898e-07 4.7381673468751976e-08 -0.1799308925512387 2.4766520402843055e-08 -2.8604385172197632e-08 -0.11250737590774497 8.5184772986595065e-07 6.3619711028215919e-08 -0.13122680368519007 3.0536742990822179e-07 7.0015092078551954e-07 -0.15999472950949969 -4.1482650579244728e-08 -4.0170451579357807e-08 -0.17056303157081276 2.4766520402843055e-08 -2.8604385172197632e-08 -0.11250737590774497 1.0120020272109794e-06 9.1729334063151428e-07 -0.1210696768162217 3.0536742990822179e-07 7.0015092078551954e-07 -0.15999472950949969 -2.0473406890101263e-07 7.3344753203025622e-07 -0.1163064065154271 2.4766520402843055e-08 -2.8604385172197632e-08 -0.11250737590774497 3.05367429908222e-07 7.0015092078551954e-07 -0.15999472950949967 -2.0473406890101282e-07 7.3344753203025611e-07 -0.11630640651542713 -4.1482650579244767e-08 -4.0170451579357807e-08 -0.17056303157081276 -5.103665832971124e-08 1.143350295030602e-06 -0.22500840181502493 3.0536742990822179e-07 7.0015092078551954e-07 -0.15999472950949969 6.2565793607917586e-07 6.3302704172421705e-07 -0.22500828640395124 3.6714400362002728e-07 1.9171151278346873e-07 -0.22500834829679947 -2.0439690626744652e-08 -4.6616004639096278e-08 -0.22500836866314489 3.0536742990822179e-07 7.0015092078551954e-07 -0.15999472950949969 7.5272775911822919e-07 4.7381673468751698e-08 -0.17993089255123865 3.6714400362002728e-07 1.9171151278346873e-07 -0.22500834829679947 3.0536742990822179e-07 7.0015092078551954e-07 -0.15999472950949969 7.5272775911822887e-07 4.7381673468752022e-08 -0.17993089255123873 6.2565793607917586e-07 6.3302704172421705e-07 -0.22500828640395124 3.6714400362002759e-07 1.9171151278346881e-07 -0.22500834829679947 -2.0439690626744652e-08 -4.6616004639096278e-08 -0.22500836866314489 3.0536742990822179e-07 7.0015092078551954e-07 -0.15999472950949969 3.6714400362002728e-07 1.9171151278346873e-07 -0.22500834829679947 -2.5058915848299093e-07 4.4447238134942948e-07 -0.2250083794659728 -5.103665832971124e-08 1.143350295030602e-06 -0.22500840181502493 3.0536742990822179e-07 7.0015092078551954e-07 -0.15999472950949969 3.6714400362002728e-07 1.9171151278346873e-07 -0.22500834829679947 -2.5058915848299093e-07 4.4447238134942948e-07 -0.2250083794659728 -2.0439690626744652e-08 -4.6616004639096278e-08 -0.22500836866314489 3.0536742990822179e-07 7.0015092078551954e-07 -0.15999472950949969 -2.5058915848299093e-07 4.4447238134942948e-07 -0.2250083794659728 -4.1482650579244767e-08 -4.0170451579357807e-08 -0.17056303157081276 -2.0439690626744652e-08 -4.6616004639096278e-08 -0.22500836866314489 3.0536742990822179e-07 7.0015092078551954e-07 -0.15999472950949969 7.5272775911822919e-07 4.7381673468751863e-08 -0.1799308925512387 -4.1482650579244767e-08 -4.0170451579357807e-08 -0.17056303157081276 8.6581830183534467e-07 8.7526268039519884e-07 -0.16871248639725367 3.0536742990822179e-07 7.0015092078551954e-07 -0.15999472950949969 7.5272775911822877e-07 4.7381673468751969e-08 -0.17993089255123867 6.2565793607917596e-07 6.3302704172421705e-07 -0.22500828640395121 1.1093302899540176e-06 -7.5277872335761749e-08 -0.22500840603251848 7.5272775911822887e-07 4.7381673468752002e-08 -0.1799308925512387 6.2565793607917575e-07 6.3302704172421694e-07 -0.22500828640395124 3.6714400362002728e-07 1.9171151278346873e-07 -0.22500834829679947 -2.5058915848299093e-07 4.4447238134942948e-07 -0.2250083794659728 -7.0631422300176664e-07 3.7370137095920183e-07 -0.15776329752566051 -3.3353582164740718e-07 1.0362657720744731e-06 -0.1808317586209876 -4.1482650579244767e-08 -4.0170451579357807e-08 -0.17056303157081276 -2.5058915848299093e-07 4.4447238134942948e-07 -0.2250083794659728 -7.0631422300176664e-07 3.7370137095920183e-07 -0.15776329752566051 -4.383941105983855e-07 -2.9632474110605005e-07 -0.22500839860799918 -4.1482650579244767e-08 -4.0170451579357807e-08 -0.17056303157081276 -5.103665832971124e-08 1.143350295030602e-06 -0.22500840181502493 3.0536742990822179e-07 7.0015092078551954e-07 -0.15999472950949969 -2.5058915848299093e-07 4.4447238134942948e-07 -0.2250083794659728 -3.3353582164740718e-07 1.0362657720744731e-06 -0.1808317586209876 -2.0439690626744652e-08 -4.6616004639096278e-08 -0.22500836866314489 -2.5058915848299093e-07 4.4447238134942948e-07 -0.2250083794659728 -4.3839411059838556e-07 -2.9632474110605e-07 -0.22500839860799918 -4.1482650579244767e-08 -4.0170451579357807e-08 -0.17056303157081276 -2.5058915848299093e-07 4.4447238134942948e-07 -0.2250083794659728 -6.6968188548393698e-07 7.0221702311427221e-07 -0.22500838930920111 -7.0631422300176664e-07 3.7370137095920183e-07 -0.15776329752566051 -1.1485455934847671e-06 -1.43769323422269e-08 -0.22500843795872177 -2.5058915848299093e-07 4.4447238134942948e-07 -0.2250083794659728 -6.6968188548393688e-07 7.0221702311427221e-07 -0.22500838930920111 -7.0631422300176664e-07 3.7370137095920183e-07 -0.15776329752566051 -3.3353582164740718e-07 1.0362657720744731e-06 -0.1808317586209876 -2.5058915848299093e-07 4.4447238134942948e-07 -0.2250083794659728 -7.0631422300176664e-07 3.7370137095920183e-07 -0.15776329752566051 -1.1485455934847671e-06 -1.4376932342226808e-08 -0.22500843795872177 -4.3839411059838556e-07 -2.9632474110605e-07 -0.22500839860799918 -6.6968188548393698e-07 7.0221702311427221e-07 -0.22500838930920111 -7.0631422300176664e-07 3.7370137095920183e-07 -0.15776329752566051 -3.3353582164740718e-07 1.0362657720744731e-06 -0.1808317586209876 -1.1511764783559833e-06 6.280978303236004e-07 -0.22500835392776336 3.0536742990822179e-07 7.0015092078551954e-07 -0.15999472950949969 -2.5058915848299104e-07 4.4447238134942943e-07 -0.22500837946597282 -3.3353582164740744e-07 1.0362657720744731e-06 -0.1808317586209876 -4.1482650579244615e-08 -4.0170451579357556e-08 -0.17056303157081276 -5.103665832971124e-08 1.143350295030602e-06 -0.22500840181502493 -2.5058915848299093e-07 4.4447238134942948e-07 -0.2250083794659728 -6.6968188548393698e-07 7.0221702311427221e-07 -0.22500838930920111 -3.3353582164740718e-07 1.0362657720744731e-06 -0.1808317586209876 3.0536742990822179e-07 7.0015092078551954e-07 -0.15999472950949969 -7.0631422300176664e-07 3.7370137095920183e-07 -0.15776329752566051 -3.3353582164740723e-07 1.0362657720744731e-06 -0.1808317586209876 -4.1482650579244767e-08 -4.0170451579357688e-08 -0.17056303157081276 3.0536742990822179e-07 7.0015092078551954e-07 -0.15999472950949969 -7.0631422300176664e-07 3.7370137095920183e-07 -0.15776329752566051 -2.0473406890101258e-07 7.334475320302559e-07 -0.11630640651542712 -4.1482650579244814e-08 -4.0170451579357675e-08 -0.17056303157081276 2.4766520402843055e-08 -2.8604385172197632e-08 -0.11250737590774497 -7.0631422300176696e-07 3.7370137095920188e-07 -0.15776329752566054 -2.0473406890101247e-07 7.3344753203025622e-07 -0.11630640651542713 -4.1482650579244542e-08 -4.0170451579357754e-08 -0.17056303157081279 3.0536742990822179e-07 7.0015092078551954e-07 -0.15999472950949969 -7.0631422300176664e-07 3.7370137095920183e-07 -0.15776329752566051 -2.0473406890101252e-07 7.3344753203025611e-07 -0.11630640651542712 -3.3353582164740712e-07 1.0362657720744733e-06 -0.1808317586209876 2.4766520402843055e-08 -2.8604385172197632e-08 -0.11250737590774497 -7.0631422300176654e-07 3.7370137095920188e-07 -0.15776329752566051 -2.047340689010126e-07 7.3344753203025611e-07 -0.11630640651542712 -8.3676624714368668e-07 -8.5966934200822595e-08 -0.11356349935481502 -7.0631422300176664e-07 3.7370137095920183e-07 -0.15776329752566051 -2.0473406890101263e-07 7.33447532030256e-07 -0.11630640651542712 -1.0430846506335411e-06 1.0162707339153611e-06 -0.13749253292993868 -8.3676624714368668e-07 -8.5966934200822595e-08 -0.11356349935481502 -9.5655384939971872e-07 9.7284563197609415e-07 -0.0868691360013846 -2.0473406890101263e-07 7.334475320302559e-07 -0.1163064065154271 -1.0430846506335411e-06 1.0162707339153611e-06 -0.13749253292993865 -8.3676624714368668e-07 -8.5966934200822635e-08 -0.11356349935481502 2.4766520402843055e-08 -2.8604385172197632e-08 -0.11250737590774497 -7.0631422300176675e-07 3.7370137095920236e-07 -0.15776329752566051 -4.1482650579244754e-08 -4.0170451579358006e-08 -0.17056303157081276 -8.3676624714368668e-07 -8.5966934200822595e-08 -0.11356349935481502 -7.0631422300176664e-07 3.7370137095920183e-07 -0.15776329752566051 -2.0473406890101268e-07 7.334475320302559e-07 -0.11630640651542712 -3.3353582164740723e-07 1.0362657720744729e-06 -0.18083175862098758 -1.0430846506335411e-06 1.0162707339153611e-06 -0.13749253292993868 -2.0473406890101263e-07 7.33447532030256e-07 -0.11630640651542712 -4.7353340373397363e-07 1.780182073085981e-06 -0.12818034135432485 -3.3353582164740728e-07 1.0362657720744731e-06 -0.1808317586209876 -1.0430846506335411e-06 1.0162707339153611e-06 -0.13749253292993868 2.0828386817882389e-07 1.8624924620490133e-06 -0.13878674870946411 -2.0473406890101268e-07 7.33447532030256e-07 -0.11630640651542709 -4.7353340373397363e-07 1.780182073085981e-06 -0.12818034135432485 -3.3353582164740723e-07 1.0362657720744733e-06 -0.1808317586209876 2.0828386817882389e-07 1.8624924620490133e-06 -0.13878674870946411 3.0536742990822153e-07 7.0015092078551965e-07 -0.15999472950949967 -2.0473406890101247e-07 7.334475320302559e-07 -0.11630640651542712 -3.3353582164740712e-07 1.0362657720744731e-06 -0.1808317586209876 -9.5655384939971872e-07 9.7284563197609415e-07 -0.0868691360013846 -2.0473406890101258e-07 7.33447532030256e-07 -0.11630640651542712 -4.7353340373397363e-07 1.780182073085981e-06 -0.12818034135432485 -1.0430846506335411e-06 1.0162707339153611e-06 -0.13749253292993868 -1.5784179921489687e-07 4.7898444584149938e-07 -0.1125077709215445 2.0828386817882389e-07 1.8624924620490133e-06 -0.13878674870946411 -2.0473406890101263e-07 7.33447532030256e-07 -0.11630640651542712 -4.7353340373397363e-07 1.780182073085981e-06 -0.12818034135432485 -1.0688332475515227e-06 2.1075437629560993e-06 -0.11018423174631625 -4.7353340373397363e-07 1.780182073085981e-06 -0.12818034135432485 -7.3619130623091108e-07 1.5303354190524968e-06 -0.1603204680122102 -1.0430846506335411e-06 1.0162707339153611e-06 -0.13749253292993868 -4.7353340373397363e-07 1.780182073085981e-06 -0.12818034135432485 -7.361913062309113e-07 1.5303354190524968e-06 -0.16032046801221017 -3.3353582164740712e-07 1.0362657720744731e-06 -0.1808317586209876 -1.0430846506335409e-06 1.0162707339153613e-06 -0.13749253292993868 -7.3619130623091108e-07 1.5303354190524968e-06 -0.1603204680122102 -3.3353582164740718e-07 1.0362657720744729e-06 -0.1808317586209876 -1.0956636194879431e-06 1.3567238789877252e-06 -0.18741439218920924 -1.0430846506335411e-06 1.0162707339153611e-06 -0.13749253292993868 2.0828386817882389e-07 1.8624924620490133e-06 -0.13878674870946411 -4.7353340373397363e-07 1.780182073085981e-06 -0.12818034135432485 -7.1951795077741841e-08 2.2076246424072709e-06 -0.17912262032708967 -3.3353582164740718e-07 1.0362657720744731e-06 -0.1808317586209876 -4.7353340373397363e-07 1.780182073085981e-06 -0.12818034135432485 -7.3619130623091119e-07 1.5303354190524968e-06 -0.1603204680122102 -7.1951795077741841e-08 2.2076246424072709e-06 -0.17912262032708967 -3.3353582164740718e-07 1.0362657720744731e-06 -0.1808317586209876 -5.103665832971124e-08 1.143350295030602e-06 -0.22500840181502493 3.0536742990822174e-07 7.0015092078551933e-07 -0.15999472950949969 -7.1951795077741894e-08 2.2076246424072713e-06 -0.17912262032708967 -3.3353582164740718e-07 1.0362657720744731e-06 -0.1808317586209876 -7.1951795077741841e-08 2.2076246424072709e-06 -0.17912262032708967 -3.8490482959179699e-07 1.9116386105074762e-06 -0.22500843153147729 -3.3353582164740718e-07 1.0362657720744729e-06 -0.1808317586209876 -6.5049890784228068e-07 1.2212118932238224e-06 -0.19519560438387518 -5.103665832971124e-08 1.143350295030602e-06 -0.22500840181502493 3.9472356040458907e-07 1.9711866253649119e-06 -0.22500851820792328 -7.1951795077741841e-08 2.2076246424072709e-06 -0.17912262032708967 -3.8490482959179699e-07 1.9116386105074762e-06 -0.22500843153147729 -5.103665832971124e-08 1.143350295030602e-06 -0.22500840181502493 -7.1951795077741841e-08 2.2076246424072709e-06 -0.17912262032708967 -3.8490482959179699e-07 1.9116386105074762e-06 -0.22500843153147729 -3.3353582164740718e-07 1.0362657720744731e-06 -0.1808317586209876 -5.103665832971124e-08 1.143350295030602e-06 -0.22500840181502493 -3.8490482959179699e-07 1.9116386105074762e-06 -0.22500843153147729 -3.3353582164740718e-07 1.0362657720744731e-06 -0.1808317586209876 -6.3760538883850714e-07 1.2582331176632311e-06 -0.22500833471902118 -5.103665832971124e-08 1.143350295030602e-06 -0.22500840181502493 -6.6968188548393698e-07 7.0221702311427221e-07 -0.22500838930920108 -3.3353582164740718e-07 1.0362657720744731e-06 -0.1808317586209876 -6.3760538883850714e-07 1.2582331176632311e-06 -0.22500833471902118 -6.6968188548393698e-07 7.0221702311427221e-07 -0.22500838930920111 -3.3353582164740718e-07 1.0362657720744731e-06 -0.18083175862098755 -6.3760538883850714e-07 1.2582331176632311e-06 -0.22500833471902118 -1.2000189600266751e-06 1.1938552412367507e-06 -0.22500830767558347 -3.3353582164740718e-07 1.0362657720744731e-06 -0.1808317586209876 -6.3760538883850714e-07 1.2582331176632311e-06 -0.22500833471902118 -1.0956636194879431e-06 1.356723878987725e-06 -0.18741439218920924 -1.2000189600266751e-06 1.1938552412367507e-06 -0.22500830767558347 -3.8490482959179699e-07 1.9116386105074762e-06 -0.22500843153147729 -3.3353582164740718e-07 1.0362657720744731e-06 -0.1808317586209876 -6.3760538883850714e-07 1.2582331176632311e-06 -0.22500833471902118 -6.5049890784228068e-07 1.2212118932238224e-06 -0.19519560438387518 -3.3353582164740718e-07 1.0362657720744731e-06 -0.1808317586209876 -6.3760538883850703e-07 1.2582331176632311e-06 -0.22500833471902118 -6.5049890784228068e-07 1.2212118932238224e-06 -0.19519560438387518 -1.0956636194879429e-06 1.3567238789877252e-06 -0.18741439218920924 -3.8490482959179699e-07 1.9116386105074762e-06 -0.22500843153147729 -6.3760538883850714e-07 1.2582331176632311e-06 -0.22500833471902118 -6.5049890784228068e-07 1.2212118932238224e-06 -0.19519560438387518 -1.098349869696142e-06 1.5473124363039565e-06 -0.2250084759070087 -7.3619130623091108e-07 1.5303354190524968e-06 -0.1603204680122102 -7.1951795077741841e-08 2.2076246424072709e-06 -0.17912262032708967 -3.3353582164740718e-07 1.0362657720744731e-06 -0.1808317586209876 -6.5049890784228068e-07 1.2212118932238224e-06 -0.19519560438387518 -7.3619130623091108e-07 1.5303354190524968e-06 -0.1603204680122102 -3.3353582164740712e-07 1.0362657720744731e-06 -0.1808317586209876 -6.5049890784228068e-07 1.2212118932238224e-06 -0.19519560438387518 -1.0956636194879431e-06 1.3567238789877252e-06 -0.18741439218920924 -3.3353582164740718e-07 1.0362657720744731e-06 -0.1808317586209876 -1.3557637678670718e-06 9.9377451958690671e-07 -0.18741436571446848 -1.0430846506335411e-06 1.0162707339153611e-06 -0.13749253292993868 -1.366495321105271e-06 5.7811602966304928e-07 -0.19537484628210583 -6.6968188548393698e-07 7.0221702311427221e-07 -0.22500838930920111 -3.3353582164740718e-07 1.0362657720744731e-06 -0.1808317586209876 -1.2000189600266751e-06 1.1938552412367507e-06 -0.22500830767558347 -1.1511764783559833e-06 6.280978303236004e-07 -0.22500835392776336 -3.3353582164740718e-07 1.0362657720744731e-06 -0.1808317586209876 -1.0956636194879431e-06 1.3567238789877254e-06 -0.18741439218920919 -1.3557637678670718e-06 9.9377451958690671e-07 -0.18741436571446848 -1.0430846506335411e-06 1.0162707339153611e-06 -0.13749253292993868 -3.3353582164740718e-07 1.0362657720744731e-06 -0.1808317586209876 -1.0956636194879433e-06 1.3567238789877256e-06 -0.18741439218920924 -1.2000189600266751e-06 1.1938552412367507e-06 -0.22500830767558347 -1.3557637678670716e-06 9.937745195869065e-07 -0.18741436571446846 -1.3557637678670718e-06 9.9377451958690671e-07 -0.18741436571446848 -1.0430846506335411e-06 1.0162707339153609e-06 -0.13749253292993865 -1.5325867982794033e-06 7.278134116329659e-07 -0.16032044113932492 -1.366495321105271e-06 5.7811602966304928e-07 -0.19537484628210583 -3.3353582164740718e-07 1.0362657720744731e-06 -0.1808317586209876 -1.2000189600266751e-06 1.1938552412367504e-06 -0.22500830767558347 -1.3557637678670718e-06 9.9377451958690671e-07 -0.18741436571446848 -1.1511764783559833e-06 6.2809783032360019e-07 -0.22500835392776336 -3.3353582164740718e-07 1.0362657720744731e-06 -0.1808317586209876 -1.3557637678670718e-06 9.9377451958690671e-07 -0.18741436571446848 -1.366495321105271e-06 5.7811602966304928e-07 -0.19537484628210583 -1.1511764783559833e-06 6.280978303236005e-07 -0.22500835392776339 -6.3760538883850714e-07 1.2582331176632311e-06 -0.22500833471902118 -1.0956636194879429e-06 1.3567238789877252e-06 -0.18741439218920922 -1.098349869696142e-06 1.5473124363039565e-06 -0.2250084759070087 -1.2000189600266751e-06 1.1938552412367507e-06 -0.22500830767558347 -6.3760538883850714e-07 1.2582331176632311e-06 -0.22500833471902118 -6.5049890784228068e-07 1.2212118932238224e-06 -0.19519560438387518 -1.0956636194879433e-06 1.3567238789877252e-06 -0.18741439218920922 -1.098349869696142e-06 1.5473124363039565e-06 -0.2250084759070087 -1.0956636194879431e-06 1.3567238789877252e-06 -0.18741439218920924 -1.0983498696961417e-06 1.5473124363039565e-06 -0.2250084759070087 -1.2000189600266751e-06 1.1938552412367507e-06 -0.22500830767558347 -2.3246459064099547e-06 2.3231786392163709e-06 -0.22500883663998167 -1.2000189600266751e-06 1.1938552412367507e-06 -0.22500830767558347 -1.3557637678670718e-06 9.9377451958690671e-07 -0.18741436571446848 -1.4843112412072276e-06 1.0490742358092994e-06 -0.2250084460263739 -1.1511764783559833e-06 6.280978303236004e-07 -0.22500835392776336 -1.3557637678670718e-06 9.9377451958690671e-07 -0.18741436571446848 -1.4843112412072278e-06 1.0490742358092994e-06 -0.22500844602637393 -1.366495321105271e-06 5.7811602966304928e-07 -0.19537484628210583 -1.1511764783559833e-06 6.280978303236004e-07 -0.22500835392776336 -1.2000189600266751e-06 1.1938552412367507e-06 -0.22500830767558347 -1.3557637678670718e-06 9.9377451958690671e-07 -0.18741436571446848 -1.4843112412072276e-06 1.0490742358092994e-06 -0.2250084460263739 -2.3246459064099547e-06 2.3231786392163709e-06 -0.22500883663998167 -1.0956636194879431e-06 1.3567238789877252e-06 -0.18741439218920924 -1.2000189600266751e-06 1.1938552412367507e-06 -0.22500830767558347 -1.355763767867072e-06 9.9377451958690692e-07 -0.18741436571446848 -2.3246459064099547e-06 2.3231786392163709e-06 -0.22500883663998167 -1.0956636194879431e-06 1.3567238789877252e-06 -0.18741439218920924 -1.5410139098498079e-06 1.4818958078167827e-06 -0.18000829301429272 -1.2365171305048992e-06 1.3706358854166889e-06 -0.15458702201953123 -1.2312738286192907e-06 1.2406821508586835e-06 -0.15479380164423953 -1.0956636194879431e-06 1.3567238789877252e-06 -0.18741439218920924 -1.3557637678670718e-06 9.9377451958690671e-07 -0.18741436571446848 -1.5410139098498077e-06 1.4818958078167825e-06 -0.18000829301429269 -1.2312738286192909e-06 1.2406821508586835e-06 -0.15479380164423948 -1.0956636194879431e-06 1.3567238789877252e-06 -0.18741439218920924 -1.3557637678670718e-06 9.9377451958690671e-07 -0.18741436571446848 -2.3246459064099547e-06 2.3231786392163709e-06 -0.22500883663998167 -1.5410139098498079e-06 1.4818958078167827e-06 -0.18000829301429272 -1.5410139098498079e-06 1.4818958078167827e-06 -0.18000829301429272 -1.2365171305048992e-06 1.3706358854166889e-06 -0.1545870220195312 -1.9292813609029117e-06 1.9976937430218228e-06 -0.13500781298076095 -1.2312738286192909e-06 1.2406821508586835e-06 -0.1547938016442395 -1.0956636194879431e-06 1.3567238789877252e-06 -0.18741439218920924 -1.3557637678670716e-06 9.9377451958690671e-07 -0.18741436571446846 -1.0430846506335411e-06 1.0162707339153611e-06 -0.13749253292993868 -1.2312738286192909e-06 1.2406821508586838e-06 -0.1547938016442395 -1.2365171305048992e-06 1.3706358854166889e-06 -0.15458702201953123 -1.9292813609029117e-06 1.9976937430218228e-06 -0.13500781298076095 -1.0430846506335411e-06 1.0162707339153611e-06 -0.13749253292993868 -1.2312738286192909e-06 1.2406821508586835e-06 -0.1547938016442395 -1.0956636194879431e-06 1.3567238789877252e-06 -0.18741439218920924 -1.2365171305048992e-06 1.3706358854166889e-06 -0.15458702201953123 -1.0430846506335411e-06 1.0162707339153611e-06 -0.13749253292993868 -1.2312738286192911e-06 1.2406821508586838e-06 -0.1547938016442395 -7.3619130623091108e-07 1.5303354190524968e-06 -0.1603204680122102 -1.0956636194879431e-06 1.3567238789877252e-06 -0.18741439218920924 -1.2365171305048992e-06 1.3706358854166889e-06 -0.15458702201953123 -1.0430846506335411e-06 1.0162707339153611e-06 -0.13749253292993868 -1.0688332475515227e-06 2.1075437629560993e-06 -0.11018423174631625 -7.3619130623091108e-07 1.530335419052497e-06 -0.1603204680122102 -1.2365171305048992e-06 1.3706358854166889e-06 -0.15458702201953123 -1.0430846506335411e-06 1.0162707339153611e-06 -0.13749253292993868 -9.5655384939971872e-07 9.7284563197609415e-07 -0.0868691360013846 -1.0688332475515229e-06 2.1075437629560993e-06 -0.11018423174631625 -4.7353340373397347e-07 1.7801820730859808e-06 -0.12818034135432485 -1.0430846506335411e-06 1.0162707339153611e-06 -0.13749253292993868 -1.0688332475515227e-06 2.1075437629560993e-06 -0.11018423174631625 -1.2365171305048994e-06 1.3706358854166891e-06 -0.15458702201953123 -1.9292813609029117e-06 1.9976937430218228e-06 -0.13500781298076095 -1.0430846506335411e-06 1.0162707339153611e-06 -0.13749253292993868 -1.0688332475515227e-06 2.1075437629560993e-06 -0.11018423174631625 -1.9292813609029117e-06 1.9976937430218228e-06 -0.13500781298076095 -2.1447826988592403e-06 1.0824821020826862e-06 -0.11483101382096718 -1.0430846506335411e-06 1.0162707339153609e-06 -0.13749253292993865 -1.9292813609029117e-06 1.9976937430218228e-06 -0.13500781298076095 -2.1447826988592403e-06 1.0824821020826862e-06 -0.11483101382096716 -1.0430846506335411e-06 1.0162707339153611e-06 -0.13749253292993868 -1.2312738286192909e-06 1.2406821508586835e-06 -0.1547938016442395 -2.1447826988592403e-06 1.0824821020826862e-06 -0.11483101382096716 -1.0430846506335409e-06 1.0162707339153611e-06 -0.13749253292993871 -1.2312738286192907e-06 1.2406821508586835e-06 -0.1547938016442395 -1.5325867982794035e-06 7.2781341163296601e-07 -0.16032044113932492 -1.3557637678670718e-06 9.9377451958690671e-07 -0.18741436571446848 -1.0430846506335411e-06 1.0162707339153613e-06 -0.13749253292993868 -1.2312738286192909e-06 1.2406821508586835e-06 -0.1547938016442395 -1.5325867982794035e-06 7.2781341163296601e-07 -0.16032044113932492 -7.0631422300176664e-07 3.7370137095920183e-07 -0.15776329752566051 -1.8312112375581303e-06 2.4120404985965065e-07 -0.14208459809555418 -2.1301506794976643e-06 -4.3772311330413616e-08 -0.17912262625432562 -8.3676624714368668e-07 -8.5966934200822701e-08 -0.11356349935481504 -7.0631422300176664e-07 3.7370137095920183e-07 -0.15776329752566051 -1.0430846506335413e-06 1.0162707339153611e-06 -0.13749253292993865 -1.5325867982794035e-06 7.278134116329659e-07 -0.16032044113932495 -1.8312112375581303e-06 2.4120404985965055e-07 -0.14208459809555418 -7.0631422300176664e-07 3.7370137095920183e-07 -0.15776329752566051 -3.3353582164740723e-07 1.0362657720744729e-06 -0.18083175862098758 -1.0430846506335411e-06 1.0162707339153611e-06 -0.13749253292993868 -1.366495321105271e-06 5.7811602966304928e-07 -0.19537484628210583 -1.7963410941392817e-06 4.3439888079753688e-07 -0.096834932874743901 -1.0430846506335411e-06 1.0162707339153611e-06 -0.13749253292993865 -1.8312112375581303e-06 2.4120404985965055e-07 -0.14208459809555418 -8.3676624714368668e-07 -8.5966934200822595e-08 -0.11356349935481502 -7.0631422300176664e-07 3.7370137095920183e-07 -0.15776329752566051 -1.5325867982794035e-06 7.2781341163296601e-07 -0.16032044113932492 -1.8312112375581303e-06 2.4120404985965055e-07 -0.14208459809555418 -2.1301506794976643e-06 -4.3772311330413662e-08 -0.1791226262543256 -7.0631422300176664e-07 3.7370137095920183e-07 -0.15776329752566051 -1.0430846506335409e-06 1.0162707339153613e-06 -0.13749253292993868 -1.5325867982794037e-06 7.278134116329659e-07 -0.16032044113932492 -1.3664953211052714e-06 5.7811602966304907e-07 -0.19537484628210583 -7.0631422300176664e-07 3.7370137095920183e-07 -0.15776329752566051 -1.0430846506335409e-06 1.0162707339153611e-06 -0.13749253292993868 -1.8312112375581303e-06 2.412040498596506e-07 -0.14208459809555418 -8.3676624714368658e-07 -8.5966934200822648e-08 -0.11356349935481501 -2.1447826988592403e-06 1.0824821020826862e-06 -0.11483101382096716 -1.0430846506335411e-06 1.0162707339153609e-06 -0.13749253292993865 -1.5325867982794035e-06 7.2781341163296601e-07 -0.16032044113932492 -1.8312112375581303e-06 2.4120404985965055e-07 -0.14208459809555418 -1.7963410941392817e-06 4.3439888079753688e-07 -0.096834932874743901 -2.1447826988592403e-06 1.0824821020826862e-06 -0.11483101382096715 -1.0430846506335411e-06 1.0162707339153611e-06 -0.13749253292993868 -1.8312112375581303e-06 2.4120404985965055e-07 -0.14208459809555418 -6.0747646535540187e-07 -6.448880012924008e-08 -0.1125076548539244 -1.7963410941392817e-06 4.3439888079753688e-07 -0.096834932874743901 -1.8312112375581303e-06 2.4120404985965055e-07 -0.14208459809555418 -8.3676624714368668e-07 -8.5966934200822595e-08 -0.11356349935481502 -7.0631422300176664e-07 3.7370137095920183e-07 -0.15776329752566051 -1.532586798279403e-06 7.2781341163296601e-07 -0.16032044113932492 -1.366495321105271e-06 5.7811602966304949e-07 -0.1953748462821058 -2.1301506794976643e-06 -4.3772311330413662e-08 -0.1791226262543256 -7.0631422300176664e-07 3.7370137095920183e-07 -0.15776329752566051 -3.3353582164740723e-07 1.0362657720744727e-06 -0.18083175862098763 -1.366495321105271e-06 5.7811602966304928e-07 -0.19537484628210583 -1.1511764783559833e-06 6.2809783032360061e-07 -0.22500835392776336 -7.0631422300176664e-07 3.7370137095920183e-07 -0.15776329752566051 -1.366495321105271e-06 5.7811602966304896e-07 -0.19537484628210586 -1.1485455934847671e-06 -1.4376932342226869e-08 -0.22500843795872177 -1.1511764783559837e-06 6.2809783032359976e-07 -0.22500835392776333 -6.6968188548393698e-07 7.0221702311427221e-07 -0.22500838930920111 -7.0631422300176664e-07 3.7370137095920183e-07 -0.15776329752566051 -1.1485455934847671e-06 -1.43769323422269e-08 -0.22500843795872177 -1.1511764783559833e-06 6.280978303236004e-07 -0.22500835392776336 -7.0631422300176664e-07 3.7370137095920183e-07 -0.15776329752566051 -1.3664953211052714e-06 5.7811602966304907e-07 -0.19537484628210583 -1.1485455934847671e-06 -1.4376932342226945e-08 -0.22500843795872177 -2.1301506794976643e-06 -4.3772311330413662e-08 -0.1791226262543256 -1.4843112412072276e-06 1.0490742358092994e-06 -0.2250084460263739 -1.3664953211052708e-06 5.7811602966304928e-07 -0.19537484628210583 -1.1511764783559833e-06 6.280978303236004e-07 -0.22500835392776336 -1.9923101440542291e-06 4.0525859574589245e-07 -0.22500855144518819 -1.366495321105271e-06 5.7811602966304928e-07 -0.19537484628210583 -1.1485455934847667e-06 -1.4376932342226437e-08 -0.22500843795872177 -1.1511764783559833e-06 6.280978303236004e-07 -0.22500835392776336 -1.9923101440542291e-06 4.0525859574589245e-07 -0.22500855144518819 -1.366495321105271e-06 5.7811602966304928e-07 -0.19537484628210583 -1.1485455934847671e-06 -1.4376932342226894e-08 -0.22500843795872177 -1.9923101440542291e-06 4.0525859574589245e-07 -0.22500855144518819 -2.1301506794976643e-06 -4.3772311330413662e-08 -0.1791226262543256 -1.1485455934847671e-06 -1.43769323422269e-08 -0.22500843795872177 -1.9923101440542291e-06 4.0525859574589245e-07 -0.22500855144518819 -1.9319943460822557e-06 -4.3822087196244182e-07 -0.22500847998043116 -2.1301506794976643e-06 -4.3772311330413709e-08 -0.17912262625432557 -1.9319943460822557e-06 -4.3822087196244182e-07 -0.22500847998043116 -2.1301506794976639e-06 -4.3772311330413735e-08 -0.17912262625432557 -1.2297490855591259e-06 -6.5808429762151307e-07 -0.19519566160392049 -1.1347861874682238e-06 -6.0317553137017295e-07 -0.22500837912997837 -1.1347861874682238e-06 -6.0317553137017295e-07 -0.22500837912997837 -6.7635226600089135e-07 -7.0090168177643465e-07 -0.22500840920865919 -6.0322831609475632e-07 -5.9879807646174868e-07 -0.15389730798114587 -1.1487749790163167e-06 -1.147821269363224e-06 -0.22500834109196183 -7.0631422300176664e-07 3.7370137095920183e-07 -0.15776329752566051 -1.1485455934847671e-06 -1.437693234222695e-08 -0.2250084379587218 -2.1301506794976643e-06 -4.3772311330413662e-08 -0.1791226262543256 -6.0322831609475621e-07 -5.9879807646174889e-07 -0.15389730798114584 -1.1485455934847671e-06 -1.43769323422269e-08 -0.22500843795872177 -1.1347861874682236e-06 -6.0317553137017295e-07 -0.22500837912997837 -6.7635226600089145e-07 -7.0090168177643476e-07 -0.22500840920865919 -6.0322831609475653e-07 -5.9879807646174868e-07 -0.15389730798114584 -1.1485455934847671e-06 -1.43769323422269e-08 -0.22500843795872177 -1.9319943460822557e-06 -4.3822087196244182e-07 -0.22500847998043116 -2.1301506794976643e-06 -4.3772311330413676e-08 -0.17912262625432557 -1.1347861874682238e-06 -6.0317553137017295e-07 -0.22500837912997837 -2.1301506794976643e-06 -4.3772311330413662e-08 -0.1791226262543256 -1.2297490855591259e-06 -6.5808429762151296e-07 -0.19519566160392049 -1.1347861874682238e-06 -6.0317553137017295e-07 -0.22500837912997837 -6.0322831609475632e-07 -5.9879807646174868e-07 -0.15389730798114587 -1.2297490855591259e-06 -6.5808429762151296e-07 -0.19519566160392049 -1.134786187468224e-06 -6.0317553137017306e-07 -0.22500837912997837 -6.0322831609475621e-07 -5.9879807646174857e-07 -0.15389730798114584 -1.35203629105034e-06 -1.0647732720833673e-06 -0.18741444851437347 -1.2297490855591259e-06 -6.5808429762151296e-07 -0.19519566160392049 -6.03228316094756e-07 -5.9879807646174868e-07 -0.15389730798114587 -1.5547965307989827e-06 -7.5781359527009662e-07 -0.160320479771945 -1.35203629105034e-06 -1.0647732720833673e-06 -0.18741444851437347 -1.1485455934847671e-06 -1.43769323422269e-08 -0.22500843795872177 -2.1301506794976648e-06 -4.3772311330413583e-08 -0.17912262625432557 -1.1347861874682238e-06 -6.0317553137017295e-07 -0.22500837912997837 -6.032283160947559e-07 -5.9879807646174868e-07 -0.15389730798114581 -2.1301506794976643e-06 -4.3772311330413662e-08 -0.1791226262543256 -1.2297490855591262e-06 -6.5808429762151296e-07 -0.19519566160392046 -6.0322831609475632e-07 -5.9879807646174868e-07 -0.15389730798114587 -1.5547965307989827e-06 -7.5781359527009662e-07 -0.160320479771945 -1.9319943460822557e-06 -4.3822087196244182e-07 -0.22500847998043116 -1.2297490855591259e-06 -6.5808429762151296e-07 -0.19519566160392049 -1.1347861874682236e-06 -6.0317553137017285e-07 -0.22500837912997834 -1.5421887901363899e-06 -1.0707528685389841e-06 -0.22500854336095788 2.3620121993876414e-07 -4.7445898415098812e-07 -0.22500838205245949 -4.3839411059838556e-07 -2.9632474110605e-07 -0.22500839860799915 -4.1482650579244688e-08 -4.017045157935788e-08 -0.17056303157081276 -3.5799432469191766e-08 -1.2108393619467843e-06 -0.22500843951266938 -4.3839411059838556e-07 -2.9632474110605e-07 -0.22500839860799918 -4.1482650579244972e-08 -4.017045157935788e-08 -0.17056303157081276 -6.0322831609475632e-07 -5.9879807646174868e-07 -0.15389730798114587 -3.5799432469191766e-08 -1.2108393619467843e-06 -0.22500843951266938 3.6902190995362277e-07 -7.1550844906574841e-07 -0.15776330921577936 -4.1482650579244747e-08 -4.0170451579357662e-08 -0.17056303157081273 -6.0322831609475632e-07 -5.9879807646174868e-07 -0.15389730798114587 -3.5799432469191766e-08 -1.2108393619467843e-06 -0.22500843951266938 -7.0631422300176664e-07 3.7370137095920183e-07 -0.15776329752566051 -4.3839411059838524e-07 -2.9632474110604984e-07 -0.22500839860799915 -4.1482650579244628e-08 -4.0170451579357787e-08 -0.17056303157081273 -6.0322831609475632e-07 -5.9879807646174879e-07 -0.15389730798114587 -1.1485455934847671e-06 -1.43769323422269e-08 -0.22500843795872177 -6.7635226600089124e-07 -7.0090168177643476e-07 -0.22500840920865919 -4.3839411059838556e-07 -2.9632474110605e-07 -0.22500839860799918 -6.0322831609475621e-07 -5.9879807646174857e-07 -0.15389730798114584 -7.0631422300176664e-07 3.7370137095920183e-07 -0.15776329752566051 -1.1485455934847667e-06 -1.437693234222691e-08 -0.22500843795872177 -4.3839411059838651e-07 -2.9632474110605e-07 -0.22500839860799915 -6.0322831609475632e-07 -5.9879807646174879e-07 -0.15389730798114584 -6.7635226600089145e-07 -7.0090168177643476e-07 -0.22500840920865919 -4.3839411059838556e-07 -2.9632474110605e-07 -0.22500839860799918 -6.0322831609475621e-07 -5.9879807646174857e-07 -0.15389730798114584 -3.5799432469191766e-08 -1.2108393619467843e-06 -0.22500843951266938 2.3620121993876414e-07 -4.7445898415098812e-07 -0.22500838205245949 -2.0439690626744652e-08 -4.6616004639096278e-08 -0.22500836866314489 -4.3839411059838556e-07 -2.9632474110605e-07 -0.22500839860799918 -4.1482650579244767e-08 -4.0170451579357801e-08 -0.17056303157081276 -6.2751146629419361e-07 -6.0428346065622259e-07 -0.084080607414070266 -6.0322831609475611e-07 -5.9879807646174847e-07 -0.1538973079811459 -8.3676624714368668e-07 -8.5966934200822555e-08 -0.11356349935481504 -4.1782557278883479e-08 -8.3805439706533232e-07 -0.11416303671339981 2.4766520402843055e-08 -2.8604385172197632e-08 -0.11250737590774497 -4.1482650579244767e-08 -4.0170451579357807e-08 -0.17056303157081276 -6.0322831609475621e-07 -5.9879807646174879e-07 -0.15389730798114587 -4.1782557278883545e-08 -8.3805439706533242e-07 -0.11416303671339979 2.4766520402843055e-08 -2.8604385172197632e-08 -0.11250737590774497 -6.0322831609475632e-07 -5.9879807646174879e-07 -0.15389730798114584 -8.3676624714368668e-07 -8.5966934200822595e-08 -0.11356349935481502 -4.1782557278883506e-08 -8.3805439706533221e-07 -0.11416303671339981 2.4766520402843055e-08 -2.8604385172197632e-08 -0.11250737590774497 -4.1482650579244767e-08 -4.0170451579357807e-08 -0.17056303157081276 -6.0322831609475632e-07 -5.9879807646174868e-07 -0.15389730798114587 -8.3676624714368668e-07 -8.5966934200822595e-08 -0.11356349935481502 -7.0631422300176664e-07 3.7370137095920183e-07 -0.15776329752566051 -4.1482650579244622e-08 -4.0170451579357887e-08 -0.17056303157081276 -6.0322831609475664e-07 -5.9879807646174889e-07 -0.15389730798114587 -8.3676624714368668e-07 -8.5966934200822595e-08 -0.11356349935481502 3.6902190995362277e-07 -7.1550844906574841e-07 -0.15776330921577936 -4.1482650579244774e-08 -4.0170451579357576e-08 -0.17056303157081276 -6.0322831609475632e-07 -5.9879807646174868e-07 -0.15389730798114587 -4.1782557278883446e-08 -8.3805439706533221e-07 -0.11416303671339979 -2.1301506794976643e-06 -4.3772311330413662e-08 -0.1791226262543256 -6.0322831609475621e-07 -5.9879807646174889e-07 -0.15389730798114587 -8.367662471436869e-07 -8.5966934200821999e-08 -0.11356349935481502 -1.7271124640385462e-06 -5.925152010108466e-07 -0.12802320450099705 -6.2751146629419361e-07 -6.0428346065622259e-07 -0.084080607414070266 -6.0322831609475632e-07 -5.9879807646174857e-07 -0.15389730798114587 -8.3676624714368668e-07 -8.5966934200822436e-08 -0.11356349935481502 -1.7271124640385462e-06 -5.925152010108466e-07 -0.12802320450099705 -7.0631422300176664e-07 3.7370137095920183e-07 -0.15776329752566051 -2.1301506794976643e-06 -4.3772311330413662e-08 -0.1791226262543256 -6.0322831609475611e-07 -5.9879807646174879e-07 -0.15389730798114584 -8.3676624714368658e-07 -8.5966934200822595e-08 -0.11356349935481502 -1.8312112375581303e-06 2.4120404985965055e-07 -0.14208459809555418 -2.1301506794976643e-06 -4.3772311330413662e-08 -0.1791226262543256 -8.3676624714368668e-07 -8.5966934200822608e-08 -0.11356349935481501 -1.7271124640385462e-06 -5.925152010108466e-07 -0.12802320450099705 -2.1301506794976643e-06 -4.3772311330413662e-08 -0.1791226262543256 -6.0322831609475632e-07 -5.9879807646174868e-07 -0.15389730798114587 -1.5547965307989827e-06 -7.5781359527009662e-07 -0.160320479771945 -1.7271124640385462e-06 -5.925152010108466e-07 -0.12802320450099705 -2.1224227223848272e-06 -1.2254363624401295e-06 -0.11018438916285876 -6.2751146629419372e-07 -6.0428346065622259e-07 -0.084080607414070266 -6.0322831609475632e-07 -5.9879807646174868e-07 -0.15389730798114587 -1.7271124640385462e-06 -5.925152010108466e-07 -0.12802320450099705 -2.1224227223848272e-06 -1.2254363624401295e-06 -0.11018438916285876 -6.0322831609475632e-07 -5.9879807646174868e-07 -0.15389730798114587 -1.5547965307989827e-06 -7.5781359527009662e-07 -0.160320479771945 -1.7271124640385462e-06 -5.925152010108466e-07 -0.12802320450099705 -6.0747646535540187e-07 -6.448880012924008e-08 -0.1125076548539244 -1.8312112375581303e-06 2.4120404985965055e-07 -0.14208459809555418 -8.3676624714368668e-07 -8.5966934200822595e-08 -0.11356349935481502 -1.7271124640385462e-06 -5.925152010108466e-07 -0.12802320450099705 -6.0322831609475632e-07 -5.9879807646174868e-07 -0.15389730798114587 -1.3640355176022897e-06 -1.1646448849997835e-06 -0.1545870747571827 -1.1815491477078552e-06 -1.3661288950028878e-06 -0.15458718148673253 -1.0507424389813274e-06 -1.3522718779864108e-06 -0.18741450606736468 -6.0322831609475632e-07 -5.9879807646174868e-07 -0.15389730798114587 -1.1815491477078552e-06 -1.3661288950028878e-06 -0.15458718148673253 -7.4621452375710008e-07 -1.5521487176741981e-06 -0.16032051138369172 -1.050742438981327e-06 -1.3522718779864113e-06 -0.18741450606736471 -1.1146520123542337e-06 -2.1105469420275787e-06 -0.11018439928886237 -2.1224227223848272e-06 -1.2254363624401295e-06 -0.11018438916285876 -6.2751146629419372e-07 -6.042834606562227e-07 -0.08408060741407028 -6.0322831609475632e-07 -5.9879807646174868e-07 -0.15389730798114587 -2.1224227223848272e-06 -1.2254363624401295e-06 -0.11018438916285876 -6.0322831609475621e-07 -5.9879807646174868e-07 -0.15389730798114587 -1.3640355176022897e-06 -1.1646448849997833e-06 -0.15458707475718267 -1.181549147707855e-06 -1.366128895002888e-06 -0.15458718148673251 -1.1146520123542337e-06 -2.1105469420275787e-06 -0.11018439928886237 -2.1224227223848272e-06 -1.2254363624401295e-06 -0.11018438916285878 -6.0322831609475632e-07 -5.9879807646174879e-07 -0.15389730798114584 -1.1815491477078552e-06 -1.3661288950028878e-06 -0.15458718148673253 -2.1224227223848272e-06 -1.2254363624401295e-06 -0.11018438916285876 -6.0322831609475632e-07 -5.9879807646174868e-07 -0.15389730798114587 -1.5547965307989827e-06 -7.5781359527009662e-07 -0.160320479771945 -1.3640355176022897e-06 -1.1646448849997833e-06 -0.15458707475718267 -1.1146520123542337e-06 -2.1105469420275787e-06 -0.11018439928886237 -6.0322831609475632e-07 -5.9879807646174868e-07 -0.15389730798114587 -1.1815491477078552e-06 -1.3661288950028878e-06 -0.15458718148673253 -7.4621452375710008e-07 -1.5521487176741981e-06 -0.16032051138369169 -6.0322831609475632e-07 -5.9879807646174868e-07 -0.15389730798114587 -1.5547965307989827e-06 -7.5781359527009662e-07 -0.160320479771945 -1.3640355176022897e-06 -1.1646448849997833e-06 -0.15458707475718267 -1.35203629105034e-06 -1.0647732720833673e-06 -0.18741444851437347 -1.3640355176022897e-06 -1.1646448849997833e-06 -0.15458707475718267 -1.1815491477078552e-06 -1.3661288950028878e-06 -0.15458718148673253 -1.9919384224063511e-06 -1.9978515390068843e-06 -0.13500775542255167 -1.4861945930402155e-06 -1.4843510826096394e-06 -0.18000838735777103 -1.1146520123542337e-06 -2.1105469420275787e-06 -0.11018439928886237 -2.1224227223848272e-06 -1.2254363624401297e-06 -0.11018438916285875 -1.1815491477078552e-06 -1.3661288950028878e-06 -0.15458718148673253 -1.9919384224063511e-06 -1.9978515390068843e-06 -0.13500775542255167 -2.1224227223848272e-06 -1.2254363624401295e-06 -0.11018438916285876 -1.3640355176022897e-06 -1.1646448849997833e-06 -0.15458707475718267 -1.1815491477078552e-06 -1.3661288950028878e-06 -0.15458718148673253 -1.9919384224063511e-06 -1.9978515390068843e-06 -0.13500775542255167 -6.0322831609475632e-07 -5.9879807646174868e-07 -0.15389730798114587 -5.2452855148204712e-07 -1.7558241027339148e-06 -0.12802521977277168 -7.4621452375710018e-07 -1.5521487176741979e-06 -0.16032051138369172 -3.4689862935125648e-08 -2.1263917566593409e-06 -0.17912266840537353 -1.1146520123542337e-06 -2.1105469420275787e-06 -0.11018439928886237 -6.0322831609475632e-07 -5.9879807646174868e-07 -0.15389730798114587 -5.2452855148204765e-07 -1.7558241027339146e-06 -0.1280252197727717 -7.4621452375710008e-07 -1.5521487176741981e-06 -0.16032051138369169 -1.1146520123542337e-06 -2.1105469420275787e-06 -0.11018439928886237 -6.2751146629419372e-07 -6.042834606562227e-07 -0.08408060741407028 -6.0322831609475632e-07 -5.9879807646174868e-07 -0.15389730798114587 -5.2452855148204765e-07 -1.7558241027339146e-06 -0.1280252197727717 3.6902190995362277e-07 -7.1550844906574841e-07 -0.15776330921577936 -6.0322831609475632e-07 -5.9879807646174868e-07 -0.15389730798114587 -4.1782557278883439e-08 -8.3805439706533242e-07 -0.11416303671339981 -3.4689862935125668e-08 -2.1263917566593409e-06 -0.17912266840537353 -6.2751146629419361e-07 -6.0428346065622259e-07 -0.084080607414070266 -6.0322831609475621e-07 -5.9879807646174868e-07 -0.15389730798114584 -5.2452855148204765e-07 -1.7558241027339146e-06 -0.1280252197727717 -4.1782557278883479e-08 -8.3805439706533232e-07 -0.11416303671339981 -6.0322831609475632e-07 -5.9879807646174868e-07 -0.15389730798114587 -5.2452855148204733e-07 -1.7558241027339148e-06 -0.1280252197727717 -4.1782557278883539e-08 -8.3805439706533232e-07 -0.11416303671339981 -3.4689862935125681e-08 -2.1263917566593409e-06 -0.17912266840537353 2.6577348630654876e-07 -1.8530876144823991e-06 -0.14213063811804053 -5.2452855148204765e-07 -1.7558241027339146e-06 -0.1280252197727717 -4.1782557278883545e-08 -8.38054397065332e-07 -0.11416303671339981 -3.4689862935125648e-08 -2.1263917566593409e-06 -0.17912266840537353 -3.7551287088917289e-08 -5.3757547439151771e-07 -0.11250770888502609 2.6577348630654876e-07 -1.8530876144823991e-06 -0.14213063811804053 -5.2452855148204765e-07 -1.7558241027339146e-06 -0.1280252197727717 -4.1782557278883479e-08 -8.3805439706533232e-07 -0.11416303671339981 -6.0322831609475632e-07 -5.9879807646174868e-07 -0.15389730798114587 -7.4621452375710008e-07 -1.5521487176741988e-06 -0.16032051138369166 -6.1157749565589826e-07 -1.2309859383901317e-06 -0.19519568818122929 -3.4689862935125609e-08 -2.1263917566593413e-06 -0.1791226684053735 -6.7635226600089145e-07 -7.0090168177643476e-07 -0.22500840920865919 -6.0322831609475621e-07 -5.9879807646174868e-07 -0.15389730798114584 -3.5799432469191766e-08 -1.2108393619467843e-06 -0.22500843951266938 -6.5343145791721898e-07 -1.1628477189652362e-06 -0.22500838025933495 -6.0322831609475632e-07 -5.9879807646174868e-07 -0.15389730798114587 -6.1157749565589816e-07 -1.2309859383901323e-06 -0.19519568818122926 -6.5343145791721898e-07 -1.1628477189652362e-06 -0.22500838025933495 -1.0507424389813272e-06 -1.3522718779864108e-06 -0.18741450606736468 -6.0322831609475632e-07 -5.9879807646174868e-07 -0.15389730798114587 -6.1157749565589816e-07 -1.2309859383901323e-06 -0.19519568818122926 -3.4689862935125357e-08 -2.1263917566593409e-06 -0.17912266840537353 -3.5799432469191766e-08 -1.2108393619467843e-06 -0.22500843951266938 -6.0322831609475632e-07 -5.9879807646174868e-07 -0.15389730798114587 -7.4621452375710061e-07 -1.5521487176741981e-06 -0.16032051138369166 -6.1157749565589826e-07 -1.2309859383901321e-06 -0.19519568818122929 -1.050742438981327e-06 -1.3522718779864113e-06 -0.18741450606736468 3.6902190995362277e-07 -7.1550844906574841e-07 -0.15776330921577936 -6.0322831609475632e-07 -5.9879807646174868e-07 -0.1538973079811459 -3.4689862935125648e-08 -2.1263917566593409e-06 -0.17912266840537353 -3.5799432469191766e-08 -1.2108393619467843e-06 -0.22500843951266938 -6.7635226600089145e-07 -7.0090168177643476e-07 -0.22500840920865919 -6.0322831609475632e-07 -5.9879807646174868e-07 -0.15389730798114584 -6.5343145791721898e-07 -1.1628477189652362e-06 -0.22500838025933495 -1.1487749790163167e-06 -1.147821269363224e-06 -0.22500834109196183 -6.0322831609475632e-07 -5.9879807646174868e-07 -0.15389730798114587 -6.1157749565589816e-07 -1.2309859383901323e-06 -0.19519568818122926 -3.5799432469191766e-08 -1.2108393619467843e-06 -0.22500843951266938 -6.5343145791721898e-07 -1.1628477189652362e-06 -0.22500838025933495 -6.1157749565589816e-07 -1.2309859383901323e-06 -0.19519568818122926 -4.6450840750203914e-07 -1.9328892277280504e-06 -0.22500861733087399 -3.5799432469191766e-08 -1.2108393619467843e-06 -0.22500843951266938 -6.5343145791721898e-07 -1.1628477189652362e-06 -0.22500838025933495 4.4413949212422063e-07 -1.9922402756440854e-06 -0.22500860505310974 -3.4689862935125648e-08 -2.1263917566593409e-06 -0.17912266840537353 -4.6450840750203925e-07 -1.9328892277280504e-06 -0.22500861733087399 -3.5799432469191766e-08 -1.2108393619467843e-06 -0.22500843951266938 -6.1157749565589816e-07 -1.2309859383901323e-06 -0.19519568818122926 -3.4689862935125648e-08 -2.1263917566593409e-06 -0.17912266840537353 -4.6450840750203919e-07 -1.93288922772805e-06 -0.22500861733087399 -3.5799432469191766e-08 -1.2108393619467843e-06 -0.22500843951266938 -6.1157749565589816e-07 -1.2309859383901323e-06 -0.19519568818122926 -4.6450840750203925e-07 -1.9328892277280504e-06 -0.22500861733087399 -6.5343145791721898e-07 -1.1628477189652362e-06 -0.22500838025933495 -1.0845071629270808e-06 -1.5414710419911711e-06 -0.22500857472587199 -6.5343145791721898e-07 -1.1628477189652362e-06 -0.22500838025933495 -1.0845071629270808e-06 -1.5414710419911711e-06 -0.22500857472587199 -1.0507424389813272e-06 -1.3522718779864108e-06 -0.18741450606736468 -1.1487749790163167e-06 -1.147821269363224e-06 -0.22500834109196183 -1.1347861874682238e-06 -6.0317553137017295e-07 -0.22500837912997837 -6.0322831609475621e-07 -5.9879807646174857e-07 -0.15389730798114587 -1.1487749790163167e-06 -1.147821269363224e-06 -0.22500834109196183 -1.35203629105034e-06 -1.0647732720833673e-06 -0.18741444851437347 -6.1157749565589816e-07 -1.2309859383901323e-06 -0.19519568818122926 -6.5343145791721898e-07 -1.1628477189652362e-06 -0.22500838025933495 -1.0845071629270808e-06 -1.5414710419911711e-06 -0.22500857472587199 -1.0507424389813272e-06 -1.3522718779864108e-06 -0.18741450606736468 -6.0322831609475632e-07 -5.9879807646174868e-07 -0.15389730798114587 -6.5343145791721898e-07 -1.1628477189652362e-06 -0.22500838025933495 -1.0507424389813268e-06 -1.3522718779864106e-06 -0.18741450606736462 -1.1487749790163167e-06 -1.1478212693632238e-06 -0.22500834109196183 -6.0322831609475632e-07 -5.9879807646174868e-07 -0.15389730798114587 -1.3640355176022897e-06 -1.1646448849997835e-06 -0.1545870747571827 -1.0507424389813274e-06 -1.3522718779864108e-06 -0.18741450606736471 -1.35203629105034e-06 -1.0647732720833673e-06 -0.18741444851437347 -1.0845071629270808e-06 -1.5414710419911711e-06 -0.22500857472587199 -1.0507424389813272e-06 -1.3522718779864108e-06 -0.18741450606736468 -1.1487749790163167e-06 -1.147821269363224e-06 -0.22500834109196183 -2.325729945053198e-06 -2.326260596315612e-06 -0.22500892096591807 -6.0322831609475632e-07 -5.9879807646174868e-07 -0.15389730798114587 -1.0507424389813272e-06 -1.3522718779864108e-06 -0.18741450606736465 -1.1487749790163167e-06 -1.147821269363224e-06 -0.22500834109196186 -1.35203629105034e-06 -1.0647732720833673e-06 -0.18741444851437347 -1.1487749790163167e-06 -1.147821269363224e-06 -0.22500834109196183 -1.5421887901363899e-06 -1.0707528685389841e-06 -0.22500854336095788 -1.35203629105034e-06 -1.0647732720833673e-06 -0.18741444851437347 -2.325729945053198e-06 -2.326260596315612e-06 -0.22500892096591807 -1.2297490855591259e-06 -6.5808429762151296e-07 -0.19519566160392049 -1.1347861874682238e-06 -6.0317553137017285e-07 -0.22500837912997837 -1.5421887901363899e-06 -1.0707528685389839e-06 -0.22500854336095788 -1.35203629105034e-06 -1.0647732720833673e-06 -0.18741444851437347 -1.1347861874682238e-06 -6.0317553137017295e-07 -0.22500837912997837 -1.1487749790163167e-06 -1.147821269363224e-06 -0.22500834109196183 -1.5421887901363899e-06 -1.0707528685389841e-06 -0.22500854336095788 -1.35203629105034e-06 -1.0647732720833673e-06 -0.18741444851437347 -1.0507424389813272e-06 -1.3522718779864108e-06 -0.18741450606736468 -1.35203629105034e-06 -1.0647732720833673e-06 -0.18741444851437347 -1.4861945930402155e-06 -1.4843510826096394e-06 -0.18000838735777103 -2.325729945053198e-06 -2.326260596315612e-06 -0.22500892096591807 -1.3640355176022897e-06 -1.1646448849997833e-06 -0.15458707475718267 -1.1815491477078552e-06 -1.3661288950028878e-06 -0.15458718148673253 -1.0507424389813272e-06 -1.3522718779864108e-06 -0.18741450606736468 -1.4861945930402155e-06 -1.4843510826096394e-06 -0.18000838735777103 -1.3640355176022897e-06 -1.1646448849997833e-06 -0.15458707475718267 -1.0507424389813272e-06 -1.3522718779864108e-06 -0.18741450606736468 -1.35203629105034e-06 -1.0647732720833673e-06 -0.18741444851437347 -1.4861945930402155e-06 -1.4843510826096394e-06 -0.18000838735777103 -1.0507424389813272e-06 -1.3522718779864108e-06 -0.18741450606736468 -1.1487749790163165e-06 -1.147821269363224e-06 -0.2250083410919618 -1.35203629105034e-06 -1.0647732720833673e-06 -0.18741444851437344 -2.325729945053198e-06 -2.326260596315612e-06 -0.22500892096591807 
</DataArray>
</PointData>
<CellData Scalars="displacement_divergence," Vectors="" Tensors="effective_stress,">
<DataArray type="Float64" Name="effective_stress" NumberOfComponents="9" format="ascii">
-2.4996495416779343 7.6658794562509887e-05 9.0172215463590888e-05 7.6658794562509887e-05 -2.4996286886834351 0.0001235670134351885 9.0172215463590888e-05 0.0001235670134351885 -9.9998110971085978 -2.4998061748428806 -5.6322286740737796e-07 1.4697740818192528e-05 -5.6322286740737796e-07 -2.4997198729814243 6.7393302686014067e-05 1.4697740818192528e-05 6.7393302686014067e-05 -9.9999524060583944 -2.4998564798242464 5.5353861231937854e-05 2.7809218995145102e-05 5.5353861231937854e-05 -2.4998748430411641 6.2609679329028722e-05 2.7809218995145102e-05 6.2609679329028722e-05 -9.9999852296568932 -2.4998430260917779 7.5724307089116833e-06 -9.65437256214563e-05 7.5724307089116833e-06 -2.4998549080362102 -0.00011161546274651712 -9.65437256214563e-05 -0.00011161546274651712 -10.000305677553058 -2.499812621907699 7.5515457772553931e-06 5.6061633801673949e-05 7.5515457772553931e-06 -2.4997907006594229 2.0962723790152182e-05 5.6061633801673949e-05 2.0962723790152182e-05 -10.000040448137284 -2.4998427918368318 2.6749777158712927e-05 -0.00010061639443215142 2.6749777158712927e-05 -2.499833479563593 -7.7713835375137208e-05 -0.00010061639443215142 -7.7713835375137208e-05 -10.000306773854319 -2.4997980198013807 1.4171637158126001e-05 9.4275982582381346e-05 1.4171637158126001e-05 -2.4997712183046992 6.0474865603232786e-05 9.4275982582381346e-05 6.0474865603232786e-05 -10.000012277754941 -2.4997414327230119 -1.3431146536967619e-05 3.5439007191939709e-05 -1.3431146536967619e-05 -2.4996957999411333 5.64439114745241e-05 3.5439007191939709e-05 5.64439114745241e-05 -9.9995885620675544 -2.4998294043090818 5.812938972203598e-05 6.1348737770305917e-05 5.812938972203598e-05 -2.4998837813996655 9.240897397688741e-05 6.1348737770305917e-05 9.240897397688741e-05 -9.999963799712658 -2.499790671095425 4.6783998686811567e-06 -5.3241344969978677e-05 4.6783998686811567e-06 -2.499877803864575 -0.00013428839322848773 -5.3241344969978677e-05 -0.00013428839322848773 -10.000240192210216 -2.4998556045235323 3.395811643737934e-05 -8.3292521158257447e-05 3.395811643737934e-05 -2.5001410537744353 -5.2753963805505675e-06 -8.3292521158257447e-05 -5.2753963805505675e-06 -10.000412699973033 -2.4996789830327528 7.0903647452056834e-05 2.2874895396685383e-05 7.0903647452056834e-05 -2.4996813800254882 0.0002024893271193091 2.2874895396685383e-05 0.0002024893271193091 -10.000009893385004 -2.4998265952080208 -9.1780056699342059e-05 -0.00013067723495296946 -9.1780056699342059e-05 -2.4996487645331684 9.0365301403938503e-05 -0.00013067723495296946 9.0365301403938503e-05 -10.000174188608922 -2.4996870955861095 7.1325783938447834e-05 0.00016325925597306405 7.1325783938447834e-05 -2.4996784229056055 4.4389815928486923e-05 0.00016325925597306405 4.4389815928486923e-05 -10.000017671433033 -2.500088011337346 3.3510682320767252e-05 -4.0667708968631072e-05 3.3510682320767252e-05 -2.4998009260136724 7.7235158863056866e-06 -4.0667708968631072e-05 7.7235158863056866e-06 -10.000205625100714 -2.4999015724403022 -2.9451588209423063e-05 -0.00028596473909558995 -2.9451588209423063e-05 -2.4997215547090095 5.5436351413806761e-05 -0.00028596473909558995 5.5436351413806761e-05 -10.000239061239277 -2.4999513794548283 -3.3970851475442578e-05 -0.00016959001506349148 -3.3970851475442578e-05 -2.4996402774520114 0.00017141531187730313 -0.00016959001506349148 0.00017141531187730313 -9.9999983788040296 -2.4998465214581054 -2.023705071367381e-05 -7.246376427394452e-05 -2.023705071367381e-05 -2.4997553667506147 -1.4781036803857006e-05 -7.246376427394452e-05 -1.4781036803857006e-05 -10.000393720740114 -2.4998203214324537 6.1928090293105018e-06 -6.1834975501273703e-05 6.1928090293105018e-06 -2.4995814626129 -5.8530193004280306e-05 -6.1834975501273703e-05 -5.8530193004280306e-05 -9.9996034573328885 -2.500118191373065 0.0001232765644674663 3.245280023167485e-05 0.0001232765644674663 -2.4999468457636111 -0.00013104717112177866 3.245280023167485e-05 -0.00013104717112177866 -10.000491107429658 -2.5002421083819133 -2.4165359139427632e-05 5.7906957247911184e-05 -2.4165359139427632e-05 -2.5002464964289008 -0.00018742576048364401 5.7906957247911184e-05 -0.00018742576048364401 -10.000468485101802 -2.5000131772420615 5.0327712572981485e-06 -0.00029398525715550796 5.0327712572981485e-06 -2.5001078326307433 -0.00024928530996428798 -0.00029398525715550796 -0.00024928530996428798 -10.000044993422286 -2.4999365743034763 -5.7969610120263753e-05 -0.00039580725727144186 -5.7969610120263753e-05 -2.4997037376716533 -2.5527399736802593e-05 -0.00039580725727144186 -2.5527399736802593e-05 -10.000054208153601 -2.4999339467554531 2.64989472948677e-06 -3.3913166336616354e-05 2.64989472948677e-06 -2.4997400951133555 -0.00019909478222281693 -3.3913166336616354e-05 -0.00019909478222281693 -9.9999326845949472 -2.4999088410585237 -2.7294555910899778e-05 -0.00015633840150552913 -2.7294555910899778e-05 -2.4996603062391802 -0.00012341179455921392 -0.00015633840150552913 -0.00012341179455921392 -9.9997444101539159 -2.4998485566531725 -1.0800899748422839e-06 -7.3496787772242556e-05 -1.0800899748422839e-06 -2.49966551616565 -6.5150317658746459e-05 -7.3496787772242556e-05 -6.5150317658746459e-05 -9.9998660201129077 -2.4997544207724274 5.9267346270264984e-06 -1.5173693917125419e-05 5.9267346270264984e-06 -2.4997818456498586 3.9214063317860592e-05 -1.5173693917125419e-05 3.9214063317860592e-05 -9.999945532158856 -2.4998878327598875 -3.8333307913496906e-05 -5.8228831244289125e-05 -3.8333307913496906e-05 -2.4997424252474052 4.2794120421518755e-05 -5.8228831244289125e-05 4.2794120421518755e-05 -9.999977623220726 -2.4998112780850681 -9.1182918869553337e-06 -3.0073350512971331e-05 -9.1182918869553337e-06 -2.4998312276731616 -8.9938742555695228e-06 -3.0073350512971331e-05 -8.9938742555695228e-06 -10.000024364052591 -2.4999311038288941 -1.1797794196747018e-05 -6.7814249860020936e-06 -1.1797794196747018e-05 -2.4998222172672278 1.6914899402031836e-05 -6.7814249860020936e-06 1.6914899402031836e-05 -10.000025585459809 -2.4998162995555373 6.2986507580392928e-06 -2.7598487352342715e-05 6.2986507580392928e-06 -2.4998122852988227 -3.6029883237809202e-05 -2.7598487352342715e-05 -3.6029883237809202e-05 -10.00000329590589 -2.4998627827988744 -3.4300743135975174e-05 -4.0728161756931058e-05 -3.4300743135975174e-05 -2.4998264567196977 -2.884527276414417e-05 -4.0728161756931058e-05 -2.884527276414417e-05 -10.000028978452402 -2.499910095214199 -3.7242886954024244e-05 -2.1439041295145955e-05 -3.7242886954024244e-05 -2.4997205331151626 8.1925547791072972e-05 -2.1439041295145955e-05 8.1925547791072972e-05 -9.9999285360972507 -2.4998126466826269 1.7884027118662588e-08 -1.177502121230134e-05 1.7884027118662588e-08 -2.4998062928873193 1.4179164844918546e-05 -1.177502121230134e-05 1.4179164844918546e-05 -9.9999659613704708 -2.4997881073659398 3.4967136532096507e-05 -1.2926496291143508e-05 3.4967136532096507e-05 -2.4997657698013143 2.2676245548414187e-05 -1.2926496291143508e-05 2.2676245548414187e-05 -9.9999550765749419 -2.4997941134808048 1.5189100823294774e-05 -1.1346532057032732e-05 1.5189100823294774e-05 -2.4997997481468524 4.8690152096853012e-06 -1.1346532057032732e-05 4.8690152096853012e-06 -10.000003160316892 -2.4998326071928023 -1.6504501664212087e-05 -1.3622938088264647e-05 -1.6504501664212087e-05 -2.4996991763414815 7.9036377173213879e-05 -1.3622938088264647e-05 7.9036377173213879e-05 -9.9999159928566463 -2.4998754486277561 0.00018326543938928995 -1.3104195240032368e-07 0.00018326543938928995 -2.5000175357693153 6.3066926260013645e-05 -1.3104195240032368e-07 6.3066926260013645e-05 -10.000011305643849 -2.4998867581830178 3.6212025971748838e-05 -8.0350334958456671e-05 3.6212025971748838e-05 -2.4999086421465329 -2.5886881160008812e-05 -8.0350334958456671e-05 -2.5886881160008812e-05 -10.000001951555017 -2.4999103172838013 2.5951807478496163e-05 -3.6312094974011444e-05 2.5951807478496163e-05 -2.4999273776830297 7.8569833603658878e-06 -3.6312094974011444e-05 7.8569833603658878e-06 -10.000023337241071 -2.4998038123866526 -8.6630214529323507e-05 3.2495663024656452e-05 -8.6630214529323507e-05 -2.4998628664039599 2.3815185267395123e-05 3.2495663024656452e-05 2.3815185267395123e-05 -10.000047656076436 -2.499901143540372 -3.0664691162811808e-05 6.0449558762165623e-05 -3.0664691162811808e-05 -2.4998706619167832 2.8285393085525357e-06 6.0449558762165623e-05 2.8285393085525357e-06 -10.000081318805513 -2.4998441983173025 -4.3309836372144178e-05 -2.3249225614918601e-05 -4.3309836372144178e-05 -2.4997968766828293 -5.8975183795162422e-05 -2.3249225614918601e-05 -5.8975183795162422e-05 -9.9999959352594185 -2.4997957207926911 -3.7636855884394611e-05 -6.0830133417510979e-05 -3.7636855884394611e-05 -2.499838575800065 -2.0575984103210487e-05 -6.0830133417510979e-05 -2.0575984103210487e-05 -9.9999825677509442 -2.4997881052026956 -2.4876779256831365e-05 -2.7227117124883904e-05 -2.4876779256831365e-05 -2.4998201006175518 -7.4129556887125858e-05 -2.7227117124883904e-05 -7.4129556887125858e-05 -9.999995327204271 -2.4997296678118941 3.3923424910847922e-05 -6.1928052379478515e-06 3.3923424910847922e-05 -2.4996966530519211 -6.6168770771923846e-05 -6.1928052379478515e-06 -6.6168770771923846e-05 -9.9999843585164108 -2.4998396230834747 9.4571495742254891e-05 -5.5991818016742911e-05 9.4571495742254891e-05 -2.499776119762827 -1.8698009986550801e-05 -5.5991818016742911e-05 -1.8698009986550801e-05 -9.9999924496122539 -2.4997618821966139 -2.4332431597602489e-05 4.845177112855481e-06 -2.4332431597602489e-05 -2.4997808530122141 3.9817584971402198e-06 4.845177112855481e-06 3.9817584971402198e-06 -9.9998676520673904 -2.4996947637617573 0.00015973991908381805 2.3662962025383649e-05 0.00015973991908381805 -2.4996886062084687 1.6966540854923551e-05 2.3662962025383649e-05 1.6966540854923551e-05 -9.9999093210168279 -2.4997898148868192 9.8001230002636398e-06 8.3330389268887473e-06 9.8001230002636398e-06 -2.4997999287531067 -2.3247635789758192e-05 8.3330389268887473e-06 -2.3247635789758192e-05 -9.9999569640764179 -2.49984752654548 1.0563080866480459e-05 1.5599934052201725e-05 1.0563080866480459e-05 -2.4998076960895474 -3.9860749368791915e-05 1.5599934052201725e-05 -3.9860749368791915e-05 -9.999989408269272 -2.4998286663816516 -2.0274352797349388e-05 -8.5121281158118123e-06 -2.0274352797349388e-05 -2.4998167046721984 -4.0552690997230911e-05 -8.5121281158118123e-06 -4.0552690997230911e-05 -9.9999811797719271 -2.4997550256107264 3.955758815716969e-05 3.0177576986645249e-05 3.955758815716969e-05 -2.4997720030762496 -1.3934781659230566e-05 3.0177576986645249e-05 -1.3934781659230566e-05 -9.9999518026760406 -2.4998139850520618 -5.7646425295541733e-06 1.0720326468316443e-05 -5.7646425295541733e-06 -2.4999112397252561 1.5284883244426339e-05 1.0720326468316443e-05 1.5284883244426339e-05 -10.000002690916155 -2.4998045068370471 -1.8910930951435624e-06 2.1302778173470927e-05 -1.8910930951435624e-06 -2.4998197697063 -1.3810776154699056e-05 2.1302778173470927e-05 -1.3810776154699056e-05 -9.9999678475419209 -2.4997170972453047 -2.8271125606305556e-05 7.2755536098867424e-05 -2.8271125606305556e-05 -2.4998993340461899 3.6170184753991919e-06 7.2755536098867424e-05 3.6170184753991919e-06 -9.9999128278936311 -2.4998107106733394 3.8748364431877676e-06 -3.9362896688821536e-05 3.8748364431877676e-06 -2.4998119416159752 -3.6465344070535366e-05 -3.9362896688821536e-05 -3.6465344070535366e-05 -10.000001717709369 -2.4997245906496954 -2.4134007976367765e-05 5.2041730920660001e-05 -2.4134007976367765e-05 -2.4998471486679708 -1.3213423002866875e-05 5.2041730920660001e-05 -1.3213423002866875e-05 -9.9999357853560031 -2.5000065792978807 0.0001727915972952064 6.9248079614836477e-05 0.0001727915972952064 -2.4998638538032996 9.8199384446218119e-07 6.9248079614836477e-05 9.8199384446218119e-07 -10.000006491188682 -2.4998972023456356 -1.6801422946691407e-05 -2.837240517550299e-05 -1.6801422946691407e-05 -2.4998781436615354 5.3558902779471396e-06 -2.837240517550299e-05 5.3558902779471396e-06 -10.000046827917703 -2.4998571044570417 -1.3027721251268386e-06 2.0666761466170414e-05 -1.3027721251268386e-06 -2.4998657673490765 9.7199923758672924e-06 2.0666761466170414e-05 9.7199923758672924e-06 -10.000045254728215 -2.4998504900636846 -1.3610919282238916e-05 2.0915069680604859e-05 -1.3610919282238916e-05 -2.4998719035752228 -1.3897543339913554e-05 2.0915069680604859e-05 -1.3897543339913554e-05 -9.9999735426890872 -2.4998865909326886 -5.5407651669478288e-05 -9.180602384972758e-07 -5.5407651669478288e-05 -2.4999044590058701 2.8805296263811897e-06 -9.180602384972758e-07 2.8805296263811897e-06 -10.000033237449452 -2.4998261292577011 -3.6137249873293995e-05 1.1028277329128144e-05 -3.6137249873293995e-05 -2.4998404315665788 -1.310333416171261e-05 1.1028277329128144e-05 -1.310333416171261e-05 -9.9999815328650605 -2.4998636933545146 -4.0169453300112664e-05 4.0851485954007671e-05 -4.0169453300112664e-05 -2.499870557922077 1.3384106600788925e-06 4.0851485954007671e-05 1.3384106600788925e-06 -10.00000463257431 -2.4998589113319287 -3.4834473585046923e-07 1.3625882501422382e-05 -3.4834473585046923e-07 -2.4998494944578087 8.4257011216948285e-06 1.3625882501422382e-05 8.4257011216948285e-06 -10.00001651713171 -2.4998671398277299 1.2696272687509293e-07 1.0981521409103578e-05 1.2696272687509293e-07 -2.4998604751857543 1.939385070226507e-05 1.0981521409103578e-05 1.939385070226507e-05 -10.000046369577271 -2.4998376615212932 5.0976649890709139e-06 1.5967361606805675e-06 5.0976649890709139e-06 -2.4998451095368379 -4.5600700993020382e-07 1.5967361606805675e-06 -4.5600700993020382e-07 -10.000010741405376 -2.4998420843421587 3.6581365356765801e-07 9.0451129644009143e-06 3.6581365356765801e-07 -2.499859776241522 8.7229275238520643e-06 9.0451129644009143e-06 8.7229275238520643e-06 -10.000020921044625 -2.4999377965637368 5.2901956094400835e-05 1.723661492802897e-05 5.2901956094400835e-05 -2.4999143437372493 -4.1508348898045e-05 1.723661492802897e-05 -4.1508348898045e-05 -9.9997847458387881 -2.4998319313437145 7.814727456519534e-07 -6.2828667850567399e-06 7.814727456519534e-07 -2.4998824190824633 -3.8035126306290579e-06 -6.2828667850567399e-06 -3.8035126306290579e-06 -9.9998612112439709 -2.4999396259532736 8.1150044852283621e-06 5.9890999198446149e-06 8.1150044852283621e-06 -2.4998648031877098 -7.5981271901027602e-06 5.9890999198446149e-06 -7.5981271901027602e-06 -9.9998610748977299 -2.4997891733242792 -3.7096879233977222e-05 -4.5651407234448271e-06 -3.7096879233977222e-05 -2.4998094799306561 -2.4366913797813083e-07 -4.5651407234448271e-06 -2.4366913797813083e-07 -9.9998404879497258 -2.5002490371478205 -8.597078939066549e-08 0.00020457346940456995 -8.597078939066549e-08 -2.500248434105568 0.0008838353895859178 0.00020457346940456995 0.0008838353895859178 -10.001025129194959 -2.4999536051430145 3.0533167112345108e-05 -0.00023088471687886394 3.0533167112345108e-05 -2.4999822121917687 -9.3551513992605083e-05 -0.00023088471687886394 -9.3551513992605083e-05 -9.999922954953929 -2.4998939800454418 -4.0414545561047772e-06 3.2219946133656011e-05 -4.0414545561047772e-06 -2.4999368626651655 3.4248467592419606e-05 3.2219946133656011e-05 3.4248467592419606e-05 -9.9995639890279602 -2.4998821441296801 -5.634791229987156e-05 -0.00012237189398511816 -5.634791229987156e-05 -2.4999334776185762 -0.00012803643776937434 -0.00012237189398511816 -0.00012803643776937434 -10.000164566182029 -2.5000258754868527 -0.00012654810618083499 -6.0388451995851966e-05 -0.00012654810618083499 -2.5000339009814012 -7.0888182162054392e-05 -6.0388451995851966e-05 -7.0888182162054392e-05 -10.000225124898932 -2.5000241640144378 2.222441099570659e-05 -5.8870903972830981e-05 2.222441099570659e-05 -2.4999777414612883 -0.00016510151722712746 -5.8870903972830981e-05 -0.00016510151722712746 -9.9999819940065073 -2.5001155653059297 4.1091599355088343e-06 -0.00018784750141497946 4.1091599355088343e-06 -2.5000231220116023 -0.00021311437613993835 -0.00018784750141497946 -0.00021311437613993835 -10.000080070145726 -2.4997018986415536 -5.4063681945818507e-05 -6.3755512261546524e-07 -5.4063681945818507e-05 -2.4999401065670281 -0.00029234151729294893 -6.3755512261546524e-07 -0.00029234151729294893 -10.00006959791841 -2.4997782255997132 -6.3585743381484352e-06 -1.3802841695387258e-05 -6.3585743381484352e-06 -2.499788580929807 -3.6704148093757993e-05 -1.3802841695387258e-05 -3.6704148093757993e-05 -9.9999597628768875 -2.5002219679058251 -2.4287374335413978e-05 -0.00014535033725800325 -2.4287374335413978e-05 -2.5002196917923691 8.8146493231370344e-06 -0.00014535033725800325 8.8146493231370344e-06 -10.000375326967738 -2.4997730115767247 6.1573758208345939e-06 -3.6296413731040644e-05 6.1573758208345939e-06 -2.4998658899132389 -0.00013032183733141522 -3.6296413731040644e-05 -0.00013032183733141522 -10.000200426217535 -2.4996330386274539 -3.4024273216738396e-05 0.00010752222411731691 -3.4024273216738396e-05 -2.4999435750211569 -0.00020498432197443796 0.00010752222411731691 -0.00020498432197443796 -9.9999643067754231 -2.4997068227345478 -4.169797340974167e-05 2.4350738373648813e-05 -4.169797340974167e-05 -2.4998967925415321 -0.00027181651606962825 2.4350738373648813e-05 -0.00027181651606962825 -10.000117828813462 -2.4998731959949465 5.441164828412219e-05 -9.0321208645161022e-05 5.441164828412219e-05 -2.5001311824818999 1.761305201175567e-05 -9.0321208645161022e-05 1.761305201175567e-05 -10.000411116195423 -2.4998231821552488 1.2236226400187961e-06 2.6872321312598757e-05 1.2236226400187961e-06 -2.4997957955629393 -4.49990497841668e-05 2.6872321312598757e-05 -4.49990497841668e-05 -9.9999737216995186 -2.499665375976893 -9.4583085101704775e-06 -9.8542436215431906e-05 -9.4583085101704775e-06 -2.4998511408964337 -7.4214927296534228e-05 -9.8542436215431906e-05 -7.4214927296534228e-05 -9.9997695408880745 -2.4997625764975169 -4.5211783788434435e-05 1.8897721671073953e-05 -4.5211783788434435e-05 -2.4999017452606225 -5.9272572312085714e-05 1.8897721671073953e-05 -5.9272572312085714e-05 -9.9999853091964628 -2.4996698129840786 -1.832513815707179e-05 -0.00010945542663098884 -1.832513815707179e-05 -2.4999146427854702 -7.4476631785724834e-05 -0.00010945542663098884 -7.4476631785724834e-05 -9.9997641481680066 -2.4995646958765576 5.5530256789918307e-05 6.5202365883193416e-06 5.5530256789918307e-05 -2.4997892715782064 0.00036973040691931262 6.5202365883193416e-06 0.00036973040691931262 -9.999458652682236 -2.4995500079102819 3.4745337005432424e-05 -2.1483148683554276e-05 3.4745337005432424e-05 -2.4997773710486104 5.9537656242947268e-05 -2.1483148683554276e-05 5.9537656242947268e-05 -9.9995514005395307 -2.4996427444707745 3.3378492657656144e-06 -0.00024025252521830964 3.3378492657656144e-06 -2.4998075862816997 5.2419641074774592e-05 -0.00024025252521830964 5.2419641074774592e-05 -9.9996001110876929 -2.4996991113981677 3.2379549361869617e-05 -6.3381843500132096e-05 3.2379549361869617e-05 -2.4999254112686708 2.2428113496619773e-05 -6.3381843500132096e-05 2.2428113496619773e-05 -10.000131357011242 -2.4998109111542619 6.539460690711238e-05 5.6640738428370696e-05 6.539460690711238e-05 -2.4998710994218123 9.8955566858016653e-05 5.6640738428370696e-05 9.8955566858016653e-05 -10.000031838641689 -2.4999718146750123 -4.0852960214123601e-05 5.9066259191206455e-05 -4.0852960214123601e-05 -2.499950298175778 0.00015943382220253756 5.9066259191206455e-05 0.00015943382220253756 -9.9999573476668235 -2.4997331473175857 1.9879452201225409e-06 -0.00017293551525035446 1.9879452201225409e-06 -2.4999253617834474 9.730171707961221e-06 -0.00017293551525035446 9.730171707961221e-06 -9.999896613599347 -2.4995917562076078 1.1801807614684517e-05 0.00018431997359602548 1.1801807614684517e-05 -2.4997419306377613 0.0001132862399826351 0.00018431997359602548 0.0001132862399826351 -9.9997465606866047 -2.4996135698614292 3.3919606017027269e-05 0.00017826700133184687 3.3919606017027269e-05 -2.4999142746418146 0.00018817566554919351 0.00017826700133184687 0.00018817566554919351 -9.9998371735712723 -2.4998082754651239 -3.1423290037283098e-05 -1.6354231424136717e-05 -3.1423290037283098e-05 -2.5001163356720566 -3.7099615662719988e-05 -1.6354231424136717e-05 -3.7099615662719988e-05 -10.000317530814286 -2.5002026628193357 -5.3001041040824222e-06 -0.00025086630909172767 -5.3001041040824222e-06 -2.5001108775959118 0.0002877580345095655 -0.00025086630909172767 0.0002877580345095655 -10.000440305349699 -2.5001963978983439 2.2902360966432958e-05 -0.00021063925645533379 2.2902360966432958e-05 -2.5001968568258719 1.4053848199549045e-05 -0.00021063925645533379 1.4053848199549045e-05 -10.000284242919991 -2.4998431919547146 6.7717966553441493e-05 -0.00033704048968230538 6.7717966553441493e-05 -2.4999932205170028 0.00026615216786218809 -0.00033704048968230538 0.00026615216786218809 -10.000312813252295 -2.4998519704615605 6.0390658367539911e-05 2.4751783972210006e-05 6.0390658367539911e-05 -2.4998556752871424 7.3643191041306011e-05 2.4751783972210006e-05 7.3643191041306011e-05 -10.000052338255459 -2.4997711333151709 -3.6089410403203954e-05 5.9898594589880005e-05 -3.6089410403203954e-05 -2.4997677484206817 -3.3245614178945004e-05 5.9898594589880005e-05 -3.3245614178945004e-05 -9.9999880350632449 -2.4997914033603186 8.4629984922435357e-06 -4.8369501292611083e-05 8.4629984922435357e-06 -2.4998912372626947 3.3611152595369731e-05 -4.8369501292611083e-05 3.3611152595369731e-05 -10.000322567870615 -2.4998126883616187 -7.0810508825613882e-06 1.9938623670334721e-05 -7.0810508825613882e-06 -2.4998367823080123 1.7955657571677719e-05 1.9938623670334721e-05 1.7955657571677719e-05 -9.999995637885867 -2.4997315964789784 -1.013566112873224e-05 8.5778285613180572e-05 -1.013566112873224e-05 -2.4998092872793016 2.8189239865028526e-05 8.5778285613180572e-05 2.8189239865028526e-05 -9.999889512360161 -2.4998161700174633 -2.5331895578173223e-06 1.0296367226381165e-05 -2.5331895578173223e-06 -2.4998321808780251 3.9525217561120485e-06 1.0296367226381165e-05 3.9525217561120485e-06 -10.000055825341622 -2.4998055103836361 1.5966627842687534e-06 1.9431352563437088e-05 1.5966627842687534e-06 -2.4998188909931249 1.2418092389054891e-05 1.9431352563437088e-05 1.2418092389054891e-05 -10.000004278927971 -2.4998486182995814 1.8164337644580803e-05 -1.4670961782314862e-05 1.8164337644580803e-05 -2.4998388947865031 2.5791656470541824e-05 -1.4670961782314862e-05 2.5791656470541824e-05 -10.000011780211548 -2.4997756648135891 7.7447086525811437e-05 3.3576373234200929e-05 7.7447086525811437e-05 -2.4998198984632851 6.0007438053233386e-05 3.3576373234200929e-05 6.0007438053233386e-05 -9.9999439832998807 -2.4998816666902388 1.3117753424363672e-05 -7.4243686793984409e-06 1.3117753424363672e-05 -2.4999024630244953 7.2349070546984251e-05 -7.4243686793984409e-06 7.2349070546984251e-05 -10.000118361920974 -2.5000265736480851 -4.5825357232699811e-05 0.00020838523194743885 -4.5825357232699811e-05 -2.4998757818316286 1.9276254370481638e-06 0.00020838523194743885 1.9276254370481638e-06 -10.000011512499734 -2.4998011557891702 -1.1536053093250776e-05 -2.3643022669439517e-05 -1.1536053093250776e-05 -2.4998248704845993 1.6316166389529485e-05 -2.3643022669439517e-05 1.6316166389529485e-05 -10.00001394344846 -2.499864210265458 1.0591005278727502e-05 1.0043524924174818e-05 1.0591005278727502e-05 -2.4998566024722244 6.6679115695578162e-06 1.0043524924174818e-05 6.6679115695578162e-06 -10.000072189062823 -2.4998121520682344 2.3235632904280163e-05 -2.9413994484528416e-05 2.3235632904280163e-05 -2.4998213641477123 -1.8082956508402859e-05 -2.9413994484528416e-05 -1.8082956508402859e-05 -9.9999844534351681 -2.4999252034841191 -3.6270362836857215e-05 1.7579344746554426e-05 -3.6270362836857215e-05 -2.4999457408937045 1.1579683396156781e-05 1.7579344746554426e-05 1.1579683396156781e-05 -10.000099777511133 -2.4998501230334291 3.0909001982859377e-05 -5.6711738727344141e-06 3.0909001982859377e-05 -2.4998808641537771 -3.5066900689884051e-06 -5.6711738727344141e-06 -3.5066900689884051e-06 -10.000064526434603 -2.4997211975634279 -1.4962376475107636e-05 8.4831580329236544e-06 -1.4962376475107636e-05 -2.4997271869385207 -1.4150912516441849e-05 8.4831580329236544e-06 -1.4150912516441849e-05 -10.000014397515024 -2.4998205407736425 -1.8343230184236164e-05 -4.2793959850406793e-05 -1.8343230184236164e-05 -2.4997524254229262 1.0737470865329612e-05 -4.2793959850406793e-05 1.0737470865329612e-05 -9.9999555766730754 -2.4997384582125841 -4.2129831719342008e-05 9.4514247992449896e-06 -4.2129831719342008e-05 -2.4997970407052881 7.5172854048233262e-06 9.4514247992449896e-06 7.5172854048233262e-06 -10.000033908793725 -2.4997630565604014 2.7496758608357361e-05 1.7429645650324233e-05 2.7496758608357361e-05 -2.4997627019399076 -5.7752084501316858e-06 1.7429645650324233e-05 -5.7752084501316858e-06 -9.999922154129564 -2.4997436647858908 6.9303012193861139e-06 2.5816599276140551e-06 6.9303012193861139e-06 -2.4997488299468014 -3.2092976427477993e-06 2.5816599276140551e-06 -3.2092976427477993e-06 -9.9999730377644127 -2.499764031029069 -2.870532627150364e-05 -1.426612848742792e-06 -2.870532627150364e-05 -2.4998486704266627 7.1073544939181943e-05 -1.426612848742792e-06 7.1073544939181943e-05 -9.9999699910950923 -2.4998166206985832 4.1820491323888098e-05 1.2230662504109091e-05 4.1820491323888098e-05 -2.4998238215529707 4.1679560980778518e-05 1.2230662504109091e-05 4.1679560980778518e-05 -9.999979726222481 -2.4998504235800487 -6.2973484965147842e-05 -4.5649003995507087e-05 -6.2973484965147842e-05 -2.4998723188134262 7.2635390147901546e-05 -4.5649003995507087e-05 7.2635390147901546e-05 -9.9999636251677728 -2.499752104974323 -0.00013375862917410441 -6.0973873945435741e-06 -0.00013375862917410441 -2.4997195812259307 -5.6462663109435596e-06 -6.0973873945435741e-06 -5.6462663109435596e-06 -9.9998914990651233 -2.4997554747262698 -2.2943243282026042e-05 5.7910989821330361e-06 -2.2943243282026042e-05 -2.4997586367731457 -6.3616089160722922e-05 5.7910989821330361e-06 -6.3616089160722922e-05 -9.9999938507457315 -2.4997784687843794 -3.5259578497967414e-05 8.0704150856147905e-05 -3.5259578497967414e-05 -2.499759488106597 -5.5024028372763212e-05 8.0704150856147905e-05 -5.5024028372763212e-05 -9.9999644287031977 -2.4998038575633483 8.2627860448823514e-06 1.8443711234716886e-05 8.2627860448823514e-06 -2.4997667789691684 -9.4918224997964096e-05 1.8443711234716886e-05 -9.4918224997964096e-05 -9.9999874968434206 -2.4998632215340661 -8.4854020979089327e-05 4.0924026359023813e-05 -8.4854020979089327e-05 -2.4998023274931542 -0.00011366992759409555 4.0924026359023813e-05 -0.00011366992759409555 -9.9999906725429781 -2.4998536190952407 -3.5726619013917683e-06 -9.467263490492428e-05 -3.5726619013917683e-06 -2.499793888590276 4.2434685055936505e-05 -9.467263490492428e-05 4.2434685055936505e-05 -10.00021380422319 -2.4997777989479721 2.710257616124202e-05 4.7306011396130998e-05 2.710257616124202e-05 -2.4997578825551874 -4.9593397720482102e-05 4.7306011396130998e-05 -4.9593397720482102e-05 -9.9995938984931048 -2.5001149851711264 5.5757335670400928e-06 -5.8578514904147633e-05 5.5757335670400928e-06 -2.4997857187214723 6.4783024035018611e-05 -5.8578514904147633e-05 6.4783024035018611e-05 -10.000260106429144 -2.4998845701053907 -3.9669870464094348e-05 4.5891792713970148e-05 -3.9669870464094348e-05 -2.4999346419315223 -0.00010577654397492253 4.5891792713970148e-05 -0.00010577654397492253 -10.000019176537801 -2.4997923379372478 -5.9531693408575096e-05 -4.4050526808669943e-05 -5.9531693408575096e-05 -2.499792170538127 5.122017146064195e-05 -4.4050526808669943e-05 5.122017146064195e-05 -10.000211238155556 -2.4998377506139913 8.7092343636061866e-08 8.0918442170840876e-05 8.7092343636061866e-08 -2.4998164933704961 -5.5967686384938986e-05 8.0918442170840876e-05 -5.5967686384938986e-05 -9.9999859978743597 -2.499659928316015 -8.1483234767518298e-05 9.598196862437014e-05 -8.1483234767518298e-05 -2.499656632489843 -0.00010657963825555505 9.598196862437014e-05 -0.00010657963825555505 -9.9998071719640755 -2.4998462790808826 -3.337461684255064e-05 -3.4228705245074225e-05 -3.337461684255064e-05 -2.5001247522491936 -4.1518116126115551e-05 -3.4228705245074225e-05 -4.1518116126115551e-05 -10.000336452070352 -2.4996794139109801 -6.6839867456498683e-05 3.9127547022004428e-05 -6.6839867456498683e-05 -2.4996727966738739 -0.00016177335439055145 3.9127547022004428e-05 -0.00016177335439055145 -9.9999663317259326 -2.4997643777453247 -3.9599941850739684e-05 -1.9800408104920768e-05 -3.9599941850739684e-05 -2.4998437338314905 6.4890316158982644e-05 -1.9800408104920768e-05 6.4890316158982644e-05 -10.000191478345958 -2.4997742669109826 -1.9574959731397574e-05 -1.6885681046636849e-05 -1.9574959731397574e-05 -2.4998510801397789 8.3760584324465981e-05 -1.6885681046636849e-05 8.3760584324465981e-05 -10.000173452237568 -2.4997574871818236 -2.1939927704804152e-05 8.250872870618764e-05 -2.1939927704804152e-05 -2.4997998004133377 -4.1144891244626614e-05 8.250872870618764e-05 -4.1144891244626614e-05 -9.9999728578351075 -2.5001646047043447 2.4332262119314328e-05 -0.00010252508328125221 2.4332262119314328e-05 -2.5001731384519714 0.00012073386997223405 -0.00010252508328125221 0.00012073386997223405 -10.000181799191108 -2.4998495779726295 -6.3870414301664044e-06 -9.403437909005774e-05 -6.3870414301664044e-06 -2.4997764464970769 3.7462756302564237e-05 -9.403437909005774e-05 3.7462756302564237e-05 -10.000214309968822 -2.4997094443677921 -6.9373186175761061e-05 0.00018497560608495738 -6.9373186175761061e-05 -2.4996871474668434 -2.7086538183078511e-05 0.00018497560608495738 -2.7086538183078511e-05 -10.000039894313179 -2.500096298514821 -3.372348573416934e-05 -1.6175285004986517e-05 -3.372348573416934e-05 -2.4998135576025877 7.7923155450794875e-05 -1.6175285004986517e-05 7.7923155450794875e-05 -10.000262344614125 -2.4999388030711898 2.4464683511397836e-05 -7.8455407893363759e-05 2.4464683511397836e-05 -2.500129477235451 0.00013283307394514954 -7.8455407893363759e-05 0.00013283307394514954 -10.000160568071809 -2.4998554845229233 2.7635214326244532e-05 -7.4200166922278044e-05 2.7635214326244532e-05 -2.4998312210322711 -2.3951061765004056e-05 -7.4200166922278044e-05 -2.3951061765004056e-05 -10.000057824678446 -2.4998728295951103 -2.0074937621464856e-05 -4.4332446992978447e-05 -2.0074937621464856e-05 -2.4997413901277117 7.8604635132872858e-05 -4.4332446992978447e-05 7.8604635132872858e-05 -10.000224822068189 -2.4998727788362443 1.8638015237654502e-05 -7.7170705781171023e-05 1.8638015237654502e-05 -2.4996926014806444 4.7647659716876234e-05 -7.7170705781171023e-05 4.7647659716876234e-05 -10.000180714409577 -2.499889090058522 5.8343085102415925e-05 -0.00023697525170483216 5.8343085102415925e-05 -2.4996602557871417 0.00011096908020932235 -0.00023697525170483216 0.00011096908020932235 -9.9998747712267857 -2.4999909002033771 -4.0261507163003427e-06 -0.00020387033443894712 -4.0261507163003427e-06 -2.5000832026317998 0.00017862334343547484 -0.00020387033443894712 0.00017862334343547484 -9.9999469383769277 -2.4999036704395512 3.2688256457941868e-05 -0.00021395793593259794 3.2688256457941868e-05 -2.4995925444059495 -0.00011244518599303502 -0.00021395793593259794 -0.00011244518599303502 -9.9998159387487959 -2.4997939401965796 5.4114918429892567e-05 -0.00028509644424849691 5.4114918429892567e-05 -2.4995528845381045 -4.0102459612694342e-05 -0.00028509644424849691 -4.0102459612694342e-05 -9.9994813529253879 -2.4997586664018225 9.6944969662005108e-06 -0.00013114055161267402 9.6944969662005108e-06 -2.4995527695477406 -0.00014114516449614811 -0.00013114055161267402 -0.00014114516449614811 -9.9996971116526332 -2.4998582634851214 5.6586807334434944e-05 -0.00010414971569394638 5.6586807334434944e-05 -2.4997706497755554 -4.0325493942727775e-05 -0.00010414971569394638 -4.0325493942727775e-05 -10.000057623172797 -2.4998257994280362 1.3282965503143797e-05 -3.842744374837892e-05 1.3282965503143797e-05 -2.4998447191400412 2.1695096286578064e-05 -3.842744374837892e-05 2.1695096286578064e-05 -9.9999688352050171 -2.4997923794479404 5.1588124217559681e-05 -5.3631841659296242e-05 5.1588124217559681e-05 -2.4997371857728674 -5.3143941054267785e-05 -5.3631841659296242e-05 -5.3143941054267785e-05 -9.9998735216664745 -2.4998667580837677 1.3256494679933351e-05 -7.0476385069628833e-05 1.3256494679933351e-05 -2.4998652335937734 2.142829251727818e-05 -7.0476385069628833e-05 2.142829251727818e-05 -10.00006711353703 -2.4998118892607408 -2.0534065463837723e-06 -3.4916230062354003e-05 -2.0534065463837723e-06 -2.4998038757328782 -1.4915822914574051e-05 -3.4916230062354003e-05 -1.4915822914574051e-05 -9.9999530895407922 -2.4998200048717409 -7.2410797873245276e-06 -2.6244003662689863e-05 -7.2410797873245276e-06 -2.4997996526107853 -1.2404956719613836e-05 -2.6244003662689863e-05 -1.2404956719613836e-05 -9.9999950706315346 -2.4997880836724686 -3.6750317367301315e-05 -1.2952556116552216e-05 -3.6750317367301315e-05 -2.4997247467859864 -3.2418885691498645e-05 -1.2952556116552216e-05 -3.2418885691498645e-05 -9.9999650848620725 -2.4998234179843735 -5.8665602078901554e-06 -2.5493703512680099e-05 -5.8665602078901554e-06 -2.4998091199523014 2.9376031867922592e-05 -2.5493703512680099e-05 2.9376031867922592e-05 -10.000015113111457 -2.4999086204736187 -0.00020066446803471515 -2.1863449992665096e-05 -0.00020066446803471515 -2.4999121329977267 -6.6911297519123281e-05 -2.1863449992665096e-05 -6.6911297519123281e-05 -10.000026689262503 -2.4999073217489478 -0.00022639496014430541 -3.9552879387727558e-05 -0.00022639496014430541 -2.4998838461293191 -4.2819955349493455e-05 -3.9552879387727558e-05 -4.2819955349493455e-05 -9.9999884253117841 -2.4998459454464803 2.2639036556544552e-06 1.0187514732251657e-05 2.2639036556544552e-06 -2.4998543909457376 -1.028880004128041e-05 1.0187514732251657e-05 -1.028880004128041e-05 -10.000045393438926 -2.4998685331617594 3.3460021561007443e-05 -7.5656852001421138e-05 3.3460021561007443e-05 -2.4998624310227169 2.9935588348628528e-05 -7.5656852001421138e-05 2.9935588348628528e-05 -10.000072131534186 -2.4998016297567651 1.4679279836858499e-05 -3.2402245628837534e-05 1.4679279836858499e-05 -2.4998203958806604 -3.0047350046302768e-05 -3.2402245628837534e-05 -3.0047350046302768e-05 -9.9999575872258895 -2.499806928171012 7.4876399526184732e-06 -3.5533804054743712e-05 7.4876399526184732e-06 -2.4997923686309487 -2.7358320914050438e-05 -3.5533804054743712e-05 -2.7358320914050438e-05 -9.9999532047286088 -2.4998385450770644 1.6155359183183291e-05 6.480877705605792e-07 1.6155359183183291e-05 -2.4998272801742432 -4.3679833993226502e-05 6.480877705605792e-07 -4.3679833993226502e-05 -10.000045789251871 -2.4998448913061067 -5.6447801429340765e-06 -8.1784469916357239e-06 -5.6447801429340765e-06 -2.4998354897733517 4.7997770362684378e-06 -8.1784469916357239e-06 4.7997770362684378e-06 -10.000035319217908 -2.499905801537579 5.2234097649772432e-05 -9.944800872097834e-05 5.2234097649772432e-05 -2.4998614307632416 5.6295186457070855e-05 -9.944800872097834e-05 5.6295186457070855e-05 -10.000030560597812 -2.4998680863655212 -2.6625347702311482e-05 1.233948018519726e-05 -2.6625347702311482e-05 -2.4999397267724186 3.065383186862114e-05 1.233948018519726e-05 3.065383186862114e-05 -9.9999117517561125 -2.499866645023149 3.7238693828848967e-05 -7.7689665507325065e-05 3.7238693828848967e-05 -2.4998676571037501 2.489379338247073e-05 -7.7689665507325065e-05 2.489379338247073e-05 -10.000052540450612 -2.4999823866802937 -2.9998905636791854e-05 -3.3772567540954718e-05 -2.9998905636791854e-05 -2.4999529898438926 0.00019696298125583116 -3.3772567540954718e-05 0.00019696298125583116 -9.9999211527924103 -2.4999672874601644 -2.2033810552932838e-05 -0.00013467943515353442 -2.2033810552932838e-05 -2.5000131944139654 -5.8004584928040854e-06 -0.00013467943515353442 -5.8004584928040854e-06 -9.9999356064849465 -2.500014255700155 5.8100714373690854e-06 6.0593637408273631e-05 5.8100714373690854e-06 -2.4999693625984496 1.2738275629681824e-05 6.0593637408273631e-05 1.2738275629681824e-05 -9.9998651019602285 -2.4998182022900943 2.1833003132580362e-05 -1.0174227092818455e-05 2.1833003132580362e-05 -2.4998046280576451 -2.3258535184478291e-05 -1.0174227092818455e-05 -2.3258535184478291e-05 -9.9999286972726242 -2.500229319810749 -7.3761810411347358e-08 0.00078357364820605575 -7.3761810411347358e-08 -2.5002294063061554 -0.00021052225401468476 0.00078357364820605575 -0.00021052225401468476 -10.000946414553828 -2.5000429144405789 -1.6885775412468608e-05 -0.00011310004107745186 -1.6885775412468608e-05 -2.4998770772847161 -5.037556505271823e-06 -0.00011310004107745186 -5.037556505271823e-06 -9.9998740588471566 -2.4998353230991075 -7.8192370704038903e-06 4.7866235279414582e-05 -7.8192370704038903e-06 -2.4998079433007963 -3.5976672241311292e-05 4.7866235279414582e-05 -3.5976672241311292e-05 -9.9998891523097093 -2.5001564483633887 6.5043296089965868e-08 -0.00021264120141761285 6.5043296089965868e-08 -2.5001571612536373 -0.0007331633198171979 -0.00021264120141761285 -0.0007331633198171979 -10.000657934785474 -2.4998633112101296 -4.0481384598018757e-05 8.4390263873020165e-06 -4.0481384598018757e-05 -2.5000632260428448 -5.5108348498278739e-05 8.4390263873020165e-06 -5.5108348498278739e-05 -9.9998754192670258 -2.4998142698860617 -6.6168118293713133e-06 -1.6100055375112277e-05 -6.6168118293713133e-06 -2.49985159353812 3.6108976087412259e-05 -1.6100055375112277e-05 3.6108976087412259e-05 -9.9999173595879949 -2.4999784921528212 2.827349649763832e-05 0.00016046180653881429 2.827349649763832e-05 -2.5000108216083885 -2.2601336297257805e-05 0.00016046180653881429 -2.2601336297257805e-05 -10.000011815435487 -2.4999786693903765 -5.7821216156915027e-06 -2.9030342841590903e-05 -5.7821216156915027e-06 -2.5000245603455196 -5.5291499997857309e-05 -2.9030342841590903e-05 -5.5291499997857309e-05 -9.9999048243910433 -2.5000328781992494 2.2814033201682145e-05 -7.5706670215903104e-05 2.2814033201682145e-05 -2.4999908428859374 0.00014101006258927996 -7.5706670215903104e-05 0.00014101006258927996 -10.000034167468977 -2.499950821779477 1.8155960437954639e-05 -6.602748083839316e-06 1.8155960437954639e-05 -2.4998310804526307 -2.7539562788447824e-05 -6.602748083839316e-06 -2.7539562788447824e-05 -9.9999556865286596 -2.4998402263907087 -6.6856354703441615e-06 -1.037721680763326e-05 -6.6856354703441615e-06 -2.4998763316235912 2.8953005416720856e-05 -1.037721680763326e-05 2.8953005416720856e-05 -10.000009098140721 -2.4996956431874269 6.0113713837529206e-05 -7.3468239055074491e-05 6.0113713837529206e-05 -2.4997984480427844 7.7236738338370969e-06 -7.3468239055074491e-05 7.7236738338370969e-06 -9.9999610641856549 -2.4998379735246385 1.0288316516766214e-05 2.2001471227106606e-05 1.0288316516766214e-05 -2.4998533658865951 7.4223578625520759e-06 2.2001471227106606e-05 7.4223578625520759e-06 -10.000058820389819 -2.4998515669837471 -1.6615546411262214e-05 4.3141673256918978e-05 -1.6615546411262214e-05 -2.499844266764554 -1.3515978809053308e-05 4.3141673256918978e-05 -1.3515978809053308e-05 -9.9999459031396043 -2.4998654475111737 -3.4030349378210352e-06 5.0173068657510811e-05 -3.4030349378210352e-06 -2.4998410947346654 -3.4464584047988467e-05 5.0173068657510811e-05 -3.4464584047988467e-05 -10.000043713527324 -2.4998544177309823 1.0827896113924214e-05 1.4479097970365729e-05 1.0827896113924214e-05 -2.4998311238337685 1.7755847860456697e-05 1.4479097970365729e-05 1.7755847860456697e-05 -10.000055532087732 -2.4998308448739706 -1.80411170014953e-06 -9.1878274952605921e-06 -1.80411170014953e-06 -2.4998806701321166 2.471895729083684e-05 -9.1878274952605921e-06 2.471895729083684e-05 -10.000045845879283 -2.4998296233673369 8.1567749433188874e-06 2.2245090990580252e-05 8.1567749433188874e-06 -2.4998229290637011 -3.9624217751388358e-06 2.2245090990580252e-05 -3.9624217751388358e-06 -10.000045718122625 -2.4998370906339979 -5.6475083819051177e-06 3.4817720432123167e-05 -5.6475083819051177e-06 -2.4997935306837311 -3.4390904870562622e-05 3.4817720432123167e-05 -3.4390904870562622e-05 -9.9999407245214851 -2.4998160690130078 -6.1002979109838707e-05 7.5915089348121967e-05 -6.1002979109838707e-05 -2.4996762665790113 -7.1688497864652589e-05 7.5915089348121967e-05 -7.1688497864652589e-05 -9.9998994908987804 -2.4998603101547898 -1.6615454637207898e-05 4.7088194982558562e-05 -1.6615454637207898e-05 -2.4998314890655182 -4.291086875829464e-06 4.7088194982558562e-05 -4.291086875829464e-06 -9.9999903706342117 -2.4998325816268721 -7.7585980575809322e-06 2.1725822641371906e-05 -7.7585980575809322e-06 -2.4998382649151956 3.249205735883498e-06 2.1725822641371906e-05 3.249205735883498e-06 -10.000048965001177 -2.4998893617318547 -1.3021817411043383e-05 7.1855397477782468e-05 -1.3021817411043383e-05 -2.4998571396041331 -1.8337406923918387e-05 7.1855397477782468e-05 -1.8337406923918387e-05 -10.000076207269103 -2.4998116382184654 2.1975415471368171e-05 2.4237155260564691e-05 2.1975415471368171e-05 -2.4997701061456703 2.465900282633271e-05 2.4237155260564691e-05 2.465900282633271e-05 -10.000028500353936 -2.4998642552867656 0.00016151840966474804 3.500726769090079e-05 0.00016151840966474804 -2.5001303215170125 -2.5049327351922557e-05 3.500726769090079e-05 -2.5049327351922557e-05 -10.000013617083003 -2.4997744613875987 4.9604406422582595e-05 -9.9833407070093472e-06 4.9604406422582595e-05 -2.4995603984394776 -0.00019094796818475146 -9.9833407070093472e-06 -0.00019094796818475146 -9.9999696466841712 -2.499784274035961 7.0494312387124502e-06 -5.7677112873522063e-06 7.0494312387124502e-06 -2.49971605262491 -7.7784164592920035e-05 -5.7677112873522063e-06 -7.7784164592920035e-05 -9.9998106878765221 -2.5001313644229857 -2.1025752493233424e-05 1.4779562233352677e-05 -2.1025752493233424e-05 -2.5001357854501607 0.00018099130367537611 1.4779562233352677e-05 0.00018099130367537611 -10.000052181656105 -2.4997999140865579 6.3002852889564845e-06 -2.2796045644035701e-05 6.3002852889564845e-06 -2.4998349169227776 -1.1886512660819193e-05 -2.2796045644035701e-05 -1.1886512660819193e-05 -10.000027166373137 -2.4998901865777654 -3.0115368062851836e-05 0.0001076297801070325 -3.0115368062851836e-05 -2.4996774078144566 -9.0473165187399118e-07 0.0001076297801070325 -9.0473165187399118e-07 -10.000191969785188 -2.4998218252296525 -7.5899979615132813e-05 0.00017076276286114109 -7.5899979615132813e-05 -2.4997639822791564 0.00042537091233095005 0.00017076276286114109 0.00042537091233095005 -9.9996397117261431 -2.4999906032321904 4.9937568986916088e-06 0.00025919897614499771 4.9937568986916088e-06 -2.5000817008094498 0.00021496530142098801 0.00025919897614499771 0.00021496530142098801 -9.9999543235729327 -2.4998725062001501 -6.3743201210404298e-05 0.00012314713382677311 -6.3743201210404298e-05 -2.4996897029496479 -6.6258390933660039e-05 0.00012314713382677311 -6.6258390933660039e-05 -10.000054117074065 -2.4998305930542406 -5.1670239353046848e-05 0.00034381234266851388 -5.1670239353046848e-05 -2.4995519742085852 -3.1572860860610338e-06 0.00034381234266851388 -3.1572860860610338e-06 -9.9996114252043142 -2.4999005993094516 4.6245093149637677e-07 7.9841919448542242e-05 4.6245093149637677e-07 -2.4997436572627265 4.0251957976078501e-05 7.9841919448542242e-05 4.0251957976078501e-05 -10.000254433370824 -2.5001033002608883 3.6830494415605866e-05 -2.6754761963989444e-05 3.6830494415605866e-05 -2.4997968780815207 4.3021480846169448e-05 -2.6754761963989444e-05 4.3021480846169448e-05 -10.000308477473627 -2.4999364620710822 -2.0006668502894735e-06 2.1678985511778539e-05 -2.0006668502894735e-06 -2.4997428992396342 0.00015322251869794956 2.1678985511778539e-05 0.00015322251869794956 -9.9999425740960408 -2.4998052807949023 -5.5268015211378042e-05 0.00037161833860623029 -5.5268015211378042e-05 -2.4995777367965522 -2.1990033192943455e-05 0.00037161833860623029 -2.1990033192943455e-05 -9.9995165082453585 -2.4997873950068836 -2.054272030904629e-05 0.00017286352357359647 -2.054272030904629e-05 -2.4995920148230382 -0.00016227843814808907 0.00017286352357359647 -0.00016227843814808907 -9.9997381167647656 -2.4998948269984895 -3.351994347554731e-05 0.00020971148740625979 -3.351994347554731e-05 -2.4995927664202706 -0.00016930509727845549 0.00020971148740625979 -0.00016930509727845549 -9.9997713506800086 -2.4998286706789594 -1.6275069709090743e-05 -2.5377978825513736e-05 -1.6275069709090743e-05 -2.4998392750092808 -3.6375848565750601e-05 -2.5377978825513736e-05 -3.6375848565750601e-05 -9.9999842857508501 -2.4997558903711923 3.4166246184261464e-05 1.9423720119871035e-05 3.4166246184261464e-05 -2.499837798149052 8.1587976531238837e-05 1.9423720119871035e-05 8.1587976531238837e-05 -10.000194031711199 -2.4997774111483393 6.1040688340002942e-05 4.3429521788151959e-05 6.1040688340002942e-05 -2.4997724631494385 5.5661398603912282e-05 4.3429521788151959e-05 5.5661398603912282e-05 -10.000212037518216 -2.4998508204774068 3.5204067245333356e-05 6.6237428846243086e-05 3.5204067245333356e-05 -2.4997533573756692 3.2440371793243444e-05 6.6237428846243086e-05 3.2440371793243444e-05 -10.000197806030712 -2.5001064038091712 3.2542916153773174e-05 -2.820030176072701e-05 3.2542916153773174e-05 -2.4998282906029945 4.7138350557023902e-05 -2.820030176072701e-05 4.7138350557023902e-05 -10.000289913339055 -2.4998536957875532 1.9192162754960274e-05 7.83435901218126e-05 1.9192162754960274e-05 -2.4997694095032532 2.71800860799649e-05 7.83435901218126e-05 2.71800860799649e-05 -10.000163261913659 -2.4996901848330939 6.6455346614443866e-05 -0.00017101570490492073 6.6455346614443866e-05 -2.499675497296125 -3.4554002202679643e-05 -0.00017101570490492073 -3.4554002202679643e-05 -9.9999556704167425 -2.4998264616648895 3.204531901601774e-05 6.7140292112774112e-05 3.204531901601774e-05 -2.5001022407812794 2.4745877966945193e-05 6.7140292112774112e-05 2.4745877966945193e-05 -10.000283089104034 -2.4996895274118391 6.6462007641443266e-05 -2.8352708079482108e-05 6.6462007641443266e-05 -2.4997042410641872 -0.00017927444678284173 -2.8352708079482108e-05 -0.00017927444678284173 -10.000011803144197 -2.4997848917793126 2.0417931137843829e-05 3.9578551375596405e-05 2.0417931137843829e-05 -2.4998578461676453 9.7200120718454741e-05 3.9578551375596405e-05 9.7200120718454741e-05 -10.000236541373088 -2.4996518197527586 7.3082787114329907e-05 -0.00010653477685350349 7.3082787114329907e-05 -2.4996497753626929 -9.2713356801707393e-05 -0.00010653477685350349 -9.2713356801707393e-05 -9.9997877317462081 -2.4999008144060522 1.8239365567943172e-05 -8.2130795737711537e-05 1.8239365567943172e-05 -2.4998469828418992 -4.5323547259279451e-05 -8.2130795737711537e-05 -4.5323547259279451e-05 -9.9999758741551439 -2.4997738972009005 -4.1082784254989276e-05 -6.0302154700320187e-05 -4.1082784254989276e-05 -2.49976981750758 -4.5463083020891304e-05 -6.0302154700320187e-05 -4.5463083020891304e-05 -9.99958697750405 -2.4998336913745636 -1.2533966234622129e-05 -5.7291133097159275e-05 -1.2533966234622129e-05 -2.4998139923577201 -7.0978144200317672e-05 -5.7291133097159275e-05 -7.0978144200317672e-05 -9.999966208459778 -2.4998250992529321 -2.9579015472062067e-05 -1.0118408819703717e-06 -2.9579015472062067e-05 -2.4997477043846881 4.8992218383503428e-05 -1.0118408819703717e-06 4.8992218383503428e-05 -10.000000681046931 -2.4997266366853057 0.0001085266362708818 -1.50098129436671e-05 0.0001085266362708818 -2.4997187373313072 -5.0433807832206412e-06 -1.50098129436671e-05 -5.0433807832206412e-06 -9.9999127513166819 -2.499900425803919 1.5412060965502213e-05 -3.0664903408195165e-06 1.5412060965502213e-05 -2.4998924221307961 8.2691126483402932e-06 -3.0664903408195165e-06 8.2691126483402932e-06 -10.000049011701051 -2.4998441549552748 -2.2275805223027652e-05 -9.568985468000335e-06 -2.2275805223027652e-05 -2.4998512761571483 2.0210476353810236e-05 -9.568985468000335e-06 2.0210476353810236e-05 -10.00003016711582 -2.499770680731829 6.422650904812889e-05 7.6306001657755473e-05 6.422650904812889e-05 -2.4998451402483708 2.1038656388583377e-05 7.6306001657755473e-05 2.1038656388583377e-05 -9.9999878444805184 -2.4997203558995014 -1.9416725661076481e-05 4.4839567753029996e-05 -1.9416725661076481e-05 -2.4998173102399499 2.690149729978053e-05 4.4839567753029996e-05 2.690149729978053e-05 -9.9999689120232809 -2.4998466920176883 -2.6314510812900048e-05 -2.4240687042098585e-06 -2.6314510812900048e-05 -2.4998312755274004 1.3183306559305663e-05 -2.4240687042098585e-06 1.3183306559305663e-05 -10.000028324893224 -2.4998330979549142 -2.0020328218424161e-05 -2.0382954537545572e-05 -2.0020328218424161e-05 -2.4998333081953725 -3.8207126169570175e-05 -2.0382954537545572e-05 -3.8207126169570175e-05 -9.9999859388677557 -2.4997289169487065 3.6871274791672781e-06 1.6236441319206207e-05 3.6871274791672781e-06 -2.4997296694520248 6.2115645910409967e-05 1.6236441319206207e-05 6.2115645910409967e-05 -9.9999745356638829 -2.4998413979801075 -1.7802410107899053e-05 -5.2568951131704011e-05 -1.7802410107899053e-05 -2.4998327975157846 -4.1463747155745523e-06 -5.2568951131704011e-05 -4.1463747155745523e-06 -9.9999787842966565 -2.4998878796234107 1.4726909371445571e-05 -5.1482069268082853e-05 1.4726909371445571e-05 -2.4998792797537916 -1.0660926875516452e-05 -5.1482069268082853e-05 -1.0660926875516452e-05 -9.9999935236764639 -2.4997209625766863 2.2109838628638133e-05 -1.0878502205713403e-06 2.2109838628638133e-05 -2.4996848148882562 5.166260563527203e-05 -1.0878502205713403e-06 5.166260563527203e-05 -9.9999794540592024 -2.499823522066551 7.6694724207155462e-05 4.5087940003796234e-05 7.6694724207155462e-05 -2.4997610626892555 1.5316508919838157e-05 4.5087940003796234e-05 1.5316508919838157e-05 -10.000000181322687 -2.4998624372610703 -1.4205201843600624e-05 -1.862560199850094e-06 -1.4205201843600624e-05 -2.4998905191138698 4.6687465759365221e-05 -1.862560199850094e-06 4.6687465759365221e-05 -10.000063325737056 -2.4998431880795677 -6.6253934737719956e-07 -2.415612722028726e-05 -6.6253934737719956e-07 -2.4998246162282891 1.943043329788452e-06 -2.415612722028726e-05 1.943043329788452e-06 -9.9999906363680804 -2.4998470310941521 -9.5555656434290811e-06 -1.1468138960191165e-05 -9.5555656434290811e-06 -2.4998513823953612 1.4234549803759933e-05 -1.1468138960191165e-05 1.4234549803759933e-05 -10.000027892663631 -2.4997085428300956 -6.9248050866464075e-05 -6.7187069602958616e-05 -6.9248050866464075e-05 -2.499802236043938 6.4880406649869826e-05 -6.7187069602958616e-05 6.4880406649869826e-05 -9.9999033939271236 -2.4997582872141959 3.1057687621693218e-05 2.2665266619981139e-05 3.1057687621693218e-05 -2.4998063442625602 3.1308058362711222e-05 2.2665266619981139e-05 3.1308058362711222e-05 -9.9999812268099113 -2.4998417189785975 -9.8543134612956309e-06 -1.2699437933666458e-05 -9.8543134612956309e-06 -2.499871154494814 3.4561123651855041e-05 -1.2699437933666458e-05 3.4561123651855041e-05 -9.9999817658566528 -2.4998277578982711 -2.6515214957892807e-05 -0.00011946203231705255 -2.6515214957892807e-05 -2.4998323222305396 6.7569832769898142e-05 -0.00011946203231705255 6.7569832769898142e-05 -9.9998510569219725 -2.4997520816439929 4.3913063711353817e-05 -0.00021309801735736045 4.3913063711353817e-05 -2.4998085564972845 -3.3478763265648581e-05 -0.00021309801735736045 -3.3478763265648581e-05 -10.000005363167102 -2.5000659443157991 0.00013725324318576067 -5.3418046111808337e-05 0.00013725324318576067 -2.4998390618604738 9.4325386967852864e-07 -5.3418046111808337e-05 9.4325386967852864e-07 -10.000039050449775 -2.4997848526128577 2.8518611787911289e-06 -7.1384940681262776e-05 2.8518611787911289e-06 -2.4998097914575634 4.3201063224529435e-06 -7.1384940681262776e-05 4.3201063224529435e-06 -9.9998484829104815 -2.4997263981165641 -2.7650549693922519e-05 4.1833495380507683e-05 -2.7650549693922519e-05 -2.4998635298623508 6.8488457021679167e-05 4.1833495380507683e-05 6.8488457021679167e-05 -10.000186261312448 -2.4998444628055614 -7.1450798844210198e-05 -2.5182384375710409e-05 -7.1450798844210198e-05 -2.4998657787360541 9.0002629857588445e-05 -2.5182384375710409e-05 9.0002629857588445e-05 -10.000061919154511 -2.5000860714983002 4.1627171432654186e-06 0.00017046702793517381 4.1627171432654186e-06 -2.4999966777851648 0.00023351897339249578 0.00017046702793517381 0.00023351897339249578 -9.9999715979674697 -2.5001357835149682 -2.1697091990066374e-05 0.00014074463176525973 -2.1697091990066374e-05 -2.5001291285598555 5.5026234143469002e-05 0.00014074463176525973 5.5026234143469002e-05 -10.000051734096441 -2.499840722733651 8.5262825777050328e-06 -2.6240258446635674e-05 8.5262825777050328e-06 -2.4997888029620676 -3.1335050310055124e-06 -2.6240258446635674e-05 -3.1335050310055124e-06 -10.000019402618095 -2.4997870289144197 3.3138030248833847e-05 4.2894144190078036e-05 3.3138030248833847e-05 -2.5000869985312617 2.3572944148304051e-05 4.2894144190078036e-05 2.3572944148304051e-05 -10.000242130249076 -2.4995733632385035 9.0770670868407515e-06 6.8127155305575116e-05 9.0770670868407515e-06 -2.4997783257607629 4.4494871527689384e-05 6.8127155305575116e-05 4.4494871527689384e-05 -9.9997072203664423 -2.4997193991034918 -6.6701610423453738e-05 0.00017631249897884436 -6.6701610423453738e-05 -2.499912936682577 0.00025324028015529231 0.00017631249897884436 0.00025324028015529231 -9.9999928229297765 -2.4996146720176919 -3.3270842112698467e-05 -0.00011615534080620699 -3.3270842112698467e-05 -2.4999179055524006 0.0002159308825103927 -0.00011615534080620699 0.0002159308825103927 -9.999865551439056 -2.4997395420881627 -2.1795564468818575e-06 0.00018128589006357644 -2.1795564468818575e-06 -2.499933671839035 -2.989559686041943e-05 0.00018128589006357644 -2.989559686041943e-05 -9.9999311796458219 -2.499581217831504 -1.521704168226133e-05 -0.00014366338247612806 -1.521704168226133e-05 -2.4997597400765659 0.00012018628438417711 -0.00014366338247612806 0.00012018628438417711 -9.999725913708124 -2.499570807611573 -5.2727242477426103e-05 -1.761815505233117e-05 -5.2727242477426103e-05 -2.4998065511760581 0.00030113736824765978 -1.761815505233117e-05 0.00030113736824765978 -9.9995250099457635 -2.4995781950810612 -8.1149253713244643e-06 9.0857806767097316e-05 -8.1149253713244643e-06 -2.4998104537527559 -9.7769874451536509e-05 9.0857806767097316e-05 -9.7769874451536509e-05 -9.9997378799544467 -2.4996675886352291 3.0499279987088907e-05 0.00012468167961476873 3.0499279987088907e-05 -2.4998786799001858 -0.00012375853755042243 0.00012468167961476873 -0.00012375853755042243 -9.9997873883120363 -2.4997581498185704 5.7767710542967438e-05 1.9711937797734652e-05 5.7767710542967438e-05 -2.4999896454859862 -0.00040147267238726375 1.9711937797734652e-05 -0.00040147267238726375 -10.000269636584644 -2.4996636974780717 3.3155395202988645e-05 0.00012572146939904272 3.3155395202988645e-05 -2.4998776382736572 -0.00012444239494624476 0.00012572146939904272 -0.00012444239494624476 -9.9997944988123777 -2.4998274164114225 5.8888000843636314e-05 -1.3830787279012213e-05 5.8888000843636314e-05 -2.4999449282813115 -0.00011458259264429671 -1.3830787279012213e-05 -0.00011458259264429671 -10.000092776556553 -2.4997686531622625 -1.1713277044055677e-05 -2.5296399943641745e-05 -1.1713277044055677e-05 -2.499746425013964 1.0301354720576583e-05 -2.5296399943641745e-05 1.0301354720576583e-05 -9.999996783368438 -2.4997344555790049 2.7986321379897547e-05 6.0931769203576014e-05 2.7986321379897547e-05 -2.4997930671002666 -1.19093462291886e-06 6.0931769203576014e-05 -1.19093462291886e-06 -10.000327151885203 -2.5001703341197055 -5.2140984249124798e-06 0.00025334803167089141 -5.2140984249124798e-06 -2.5000751462171014 -0.00028617859904775487 0.00025334803167089141 -0.00028617859904775487 -10.000296231526226 -2.4998030437445955 5.8183600692620626e-05 7.8557355221179227e-05 5.8183600692620626e-05 -2.5000274976749171 -0.00038056723021735999 7.8557355221179227e-05 -0.00038056723021735999 -10.000421614321173 -2.5002134408533374 2.441773506954455e-05 0.00020604098127480739 2.441773506954455e-05 -2.5002117476284522 1.2131371237160339e-05 0.00020604098127480739 1.2131371237160339e-05 -10.000333937439597 -2.4995917935139693 3.3989225368690164e-05 -0.00017784427928374015 3.3989225368690164e-05 -2.4999024627797333 -0.00014931300354424106 -0.00017784427928374015 -0.00014931300354424106 -9.9998017631137923 -2.4998009947997728 -1.7243446941841607e-05 -7.8399661751160643e-05 -1.7243446941841607e-05 -2.4997779409948868 2.8592303600860625e-05 -7.8399661751160643e-05 2.8592303600860625e-05 -9.9999928170550234 -2.4998555955222783 -2.320887793211504e-05 9.359269741393561e-05 -2.320887793211504e-05 -2.4998067048559225 -6.6474676129690824e-05 9.359269741393561e-05 -6.6474676129690824e-05 -10.000266127471219 -2.4996690378400857 -7.2402467786489478e-05 -4.7512217888862973e-05 -7.2402467786489478e-05 -2.4996749279110548 0.00017317866542817661 -4.7512217888862973e-05 0.00017317866542817661 -9.9999836160382749 -2.4998260255805791 -5.5621024914743312e-06 -2.7813127518427905e-05 -5.5621024914743312e-06 -2.4997845610026981 5.8236591759392928e-05 -2.7813127518427905e-05 5.8236591759392928e-05 -9.9999838307810585 -2.500138727865743 -1.8349506208776831e-06 4.159224529209915e-05 -1.8349506208776831e-06 -2.4998398208101347 -8.2943857701245349e-05 4.159224529209915e-05 -8.2943857701245349e-05 -10.000326608430258 -2.4997932995195522 -3.4044161356771939e-05 -1.0808862181381365e-05 -3.4044161356771939e-05 -2.5000827488479795 -3.1409817183428168e-05 -1.0808862181381365e-05 -3.1409817183428168e-05 -10.000173374894393 -2.4998170907623876 -4.7881030383461105e-05 7.3506771247866878e-05 -4.7881030383461105e-05 -2.4998054690911546 -7.173461526072285e-05 7.3506771247866878e-05 -7.173461526072285e-05 -10.000263890673436 -2.4997500430774586 -3.5942863801810031e-05 -1.4507410072805982e-05 -3.5942863801810031e-05 -2.4997755525396563 2.7947587034837795e-05 -1.4507410072805982e-05 2.7947587034837795e-05 -10.000015391900325 -2.4998908119500038 -5.6107529729670932e-05 -3.6831465328290847e-05 -5.6107529729670932e-05 -2.4998169286488841 6.7380485432755322e-05 -3.6831465328290847e-05 6.7380485432755322e-05 -9.9999947120107677 -2.4996246094484826 0.0001036470816065669 -4.6948003745939104e-05 0.0001036470816065669 -2.4997741596634975 -6.3395506427532666e-05 -4.6948003745939104e-05 -6.3395506427532666e-05 -10.000103164963877 -2.4997455395103958 3.2585995191355364e-06 -6.1206989538042933e-05 3.2585995191355364e-06 -2.4998216968208977 3.4869329186726361e-05 -6.1206989538042933e-05 3.4869329186726361e-05 -9.9999836586589712 -2.4998273474547013 -5.6142703355062336e-05 -6.9152203638012111e-05 -5.6142703355062336e-05 -2.4998712944759265 8.5274838358628813e-05 -6.9152203638012111e-05 8.5274838358628813e-05 -9.9999782598774143 -2.4997452831902742 1.4676190828747613e-05 -4.2019155488404181e-05 1.4676190828747613e-05 -2.4997244137260743 4.3368189902383405e-05 -4.2019155488404181e-05 4.3368189902383405e-05 -9.9995828214717744 -2.4997909171865502 -1.3358722850807389e-05 -0.00010971314744812055 -1.3358722850807389e-05 -2.4997913057437415 5.710986174900512e-05 -0.00010971314744812055 5.710986174900512e-05 -9.9999760829817355 -2.4996537166800796 -8.3217879888643431e-05 -0.00010298104065920157 -8.3217879888643431e-05 -2.4996378942339361 0.00010685358410164586 -0.00010298104065920157 0.00010685358410164586 -9.9998140138914113 -2.5000974841885797 -3.4049040260945177e-05 4.2253538508381242e-06 -3.4049040260945177e-05 -2.4998034824392352 -5.1040324162923527e-05 4.2253538508381242e-06 -5.1040324162923527e-05 -10.00024689762026 -2.4996820875842558 -6.9528388675062271e-05 -0.00017562618757459921 -6.9528388675062271e-05 -2.4996716847545577 3.1498628963639664e-05 -0.00017562618757459921 3.1498628963639664e-05 -10.00002047368829 -2.4998295620990376 -2.5236032835826032e-05 8.8711136646324462e-05 -2.5236032835826032e-05 -2.4997516446541899 -2.6129221656234769e-05 8.8711136646324462e-05 -2.6129221656234769e-05 -10.00018713459791 -2.5001698428713972 2.5398613673369292e-05 8.0218636158353273e-05 2.5398613673369292e-05 -2.5001728806918986 -0.00011256719076344231 8.0218636158353273e-05 -0.00011256719076344231 -10.000174892874233 -2.4998875806564005 -9.8969732383943335e-05 8.6032359077579403e-05 -9.8969732383943335e-05 -2.5001029139098589 2.0152480786940702e-05 8.6032359077579403e-05 2.0152480786940702e-05 -10.000379699952266 -2.4998865954131397 -2.7420206609926682e-05 -1.3976465186082976e-05 -2.7420206609926682e-05 -2.4997734121715642 -7.5077150557101291e-05 -1.3976465186082976e-05 -7.5077150557101291e-05 -10.000242890248447 -2.4998566269055571 3.5942101253825314e-05 7.7740372971923932e-05 3.5942101253825314e-05 -2.4997259162254251 -4.488899122812029e-05 7.7740372971923932e-05 -4.488899122812029e-05 -10.000185530464545 -2.4999764427969562 -4.1952656549972852e-06 0.00024703906731669172 -4.1952656549972852e-06 -2.5000693693714067 -0.00017138976383220504 0.00024703906731669172 -0.00017138976383220504 -9.9998932550789998 -2.4998644616407151 2.8233756978501053e-05 2.5454859775564387e-05 2.8233756978501053e-05 -2.4998486951626369 8.7612835679706791e-06 2.5454859775564387e-05 8.7612835679706791e-06 -10.000065850342772 -2.4998883690686671 6.311774563140662e-05 0.00027515837562464007 6.311774563140662e-05 -2.4996811822784486 -0.00014722968912384005 0.00027515837562464007 -0.00014722968912384005 -9.9998890615889255 -2.4998518206778044 7.4796282248723952e-05 9.7845887506053941e-05 7.4796282248723952e-05 -2.49980636777466 3.0491991864778356e-05 9.7845887506053941e-05 3.0491991864778356e-05 -10.000082577897086 -2.499903574282027 2.9354968974512272e-05 0.00020439612629929462 2.9354968974512272e-05 -2.4995922968885393 0.00013605454724311674 0.00020439612629929462 0.00013605454724311674 -9.9998048175604861 -2.4997995194368552 5.3180209491180427e-05 0.0003172481083523751 5.3180209491180427e-05 -2.4995656315021035 1.0403897827257719e-05 0.0003172481083523751 1.0403897827257719e-05 -9.9995029456929529 -2.4997526158358427 2.0953745442894601e-05 0.0001301417070860289 2.0953745442894601e-05 -2.4995881101313411 0.00014250082122302388 0.0001301417070860289 0.00014250082122302388 -9.9997136021832631 -2.4998741990803968 6.8906440798603897e-05 3.7529582748163648e-05 6.8906440798603897e-05 -2.4998595511993971 -0.00019005669506277911 3.7529582748163648e-05 -0.00019005669506277911 -10.000036879776797 -2.5000425575313332 -7.0623662343805241e-06 -0.00016723631745962919 -7.0623662343805241e-06 -2.4999334002629405 -0.00012640437568478546 -0.00016723631745962919 -0.00012640437568478546 -9.9999252762931299 -2.4998365590570102 2.5063872222775953e-05 4.0870968106787586e-05 2.5063872222775953e-05 -2.4998054042890065 2.2777667016526948e-05 4.0870968106787586e-05 2.2777667016526948e-05 -9.9998596766839363 -2.4998833175158821 -1.9560972981178695e-05 3.5535040773616801e-05 -1.9560972981178695e-05 -2.4999408002819714 2.9824190127341948e-05 3.5535040773616801e-05 2.9824190127341948e-05 -9.9998855177714994 -2.4998303535604909 2.5796144547444081e-05 -1.440333611935074e-05 2.5796144547444081e-05 -2.4999137966701879 -4.1715757871152448e-05 -1.440333611935074e-05 -4.1715757871152448e-05 -9.9999829436200613 -2.4999677736702322 -2.327516921627038e-05 0.00017774631447967928 -2.327516921627038e-05 -2.5000101250301796 1.2484330151546128e-05 0.00017774631447967928 1.2484330151546128e-05 -9.9999470156274075 -2.4999096453733687 4.1318473720727426e-06 -5.367436413696513e-05 4.1318473720727426e-06 -2.4998660352722939 4.815188135117983e-05 -5.367436413696513e-05 4.815188135117983e-05 -9.9994537328698865 -2.4999310101454961 2.9745951903039303e-05 3.3808812608171479e-05 2.9745951903039303e-05 -2.5001187393189976 -0.00011829171454091902 3.3808812608171479e-05 -0.00011829171454091902 -10.000105836170878 -2.4999305174336746 4.5867654893193873e-05 -0.00011988488299774502 4.5867654893193873e-05 -2.5000521266677884 0.0001377437212268795 -0.00011988488299774502 0.0001377437212268795 -9.9997823283675622 -2.4999084439262709 -1.1148621783198716e-05 -1.7591330377264569e-05 -1.1148621783198716e-05 -2.4998494713338419 7.9366219196685961e-07 -1.7591330377264569e-05 7.9366219196685961e-07 -9.9998879308968789 -2.5001682412218447 5.055220033513814e-08 -0.00082577253376511328 5.055220033513814e-08 -2.5001682416697499 0.00021755736569543298 -0.00082577253376511328 0.00021755736569543298 -10.000704642239999 -2.5000250818274186 -2.8851832252482756e-05 4.4244088677225914e-05 -2.8851832252482756e-05 -2.4999920857208617 -0.00020173268374087179 4.4244088677225914e-05 -0.00020173268374087179 -10.000071868584291 -2.4998118740639903 -4.8487013814763608e-06 1.6808808442014822e-05 -4.8487013814763608e-06 -2.4998390663621075 6.4018814969202253e-06 1.6808808442014822e-05 6.4018814969202253e-06 -10.00001214215871 -2.4998625930637473 3.57626646194081e-05 3.2487273492698421e-05 3.57626646194081e-05 -2.4998632193899195 -1.6796328181634124e-05 3.2487273492698421e-05 -1.6796328181634124e-05 -10.000105187303934 -2.4997852009409969 1.2645898744528908e-05 2.1685566720108795e-06 1.2645898744528908e-05 -2.4997934235256083 -1.5131824304681629e-05 2.1685566720108795e-06 -1.5131824304681629e-05 -9.9999787442310666 -2.4998145824724887 3.0948585661435743e-06 -1.3493994764246509e-05 3.0948585661435743e-06 -2.4997886502003523 -6.6796087310194707e-06 -1.3493994764246509e-05 -6.6796087310194707e-06 -9.9999741384393701 -2.4998579960953573 4.3384013060914068e-05 3.5765157759506949e-05 4.3384013060914068e-05 -2.4998456266789781 -3.9680213446580126e-05 3.5765157759506949e-05 -3.9680213446580126e-05 -10.000035060768043 -2.4998091974263925 2.2146251331241037e-05 -1.0474636333412946e-05 2.2146251331241037e-05 -2.4998337947648444 1.1894401853229652e-05 -1.0474636333412946e-05 1.1894401853229652e-05 -10.000034790244777 -2.4998025303197733 7.1448049262884378e-05 6.2159710727538453e-05 7.1448049262884378e-05 -2.4997728689849934 3.3985838943539903e-05 6.2159710727538453e-05 3.3985838943539903e-05 -9.9999330006538045 -2.4998219163233046 2.3403566735919071e-05 2.3141120999881082e-05 2.3403566735919071e-05 -2.4998392052972114 -1.6716373425484932e-05 2.3141120999881082e-05 -1.6716373425484932e-05 -10.000021201662925 -2.4998028096559701 -9.7316843263584978e-06 1.5838382974919796e-05 -9.7316843263584978e-06 -2.4998071593444355 1.1739247631314953e-05 1.5838382974919796e-05 1.1739247631314953e-05 -10.000002553839392 -2.4998570079701623 1.6229869615780366e-05 3.2322729832223729e-05 1.6229869615780366e-05 -2.4998494451826403 -1.5739782852852713e-05 3.2322729832223729e-05 -1.5739782852852713e-05 -10.000028636968564 -2.4998422086905547 -1.4989554391645572e-05 1.9305700639682399e-05 -1.4989554391645572e-05 -2.4998132912026252 1.5866068377334841e-05 1.9305700639682399e-05 1.5866068377334841e-05 -9.9999938918095381 -2.4998094634125541 -1.9909617820759506e-05 2.5671370199376042e-05 -1.9909617820759506e-05 -2.4997283855944539 8.5437049295311596e-05 2.5671370199376042e-05 8.5437049295311596e-05 -9.9998769086617294 -2.4998115301794939 -1.0757286829844183e-05 1.8853413866537494e-05 -1.0757286829844183e-05 -2.4997763669608966 -3.9253960632201768e-05 1.8853413866537494e-05 -3.9253960632201768e-05 -10.00001176001369 -2.4998844157486584 -5.0893526095536386e-05 -1.6190277287719823e-06 -5.0893526095536386e-05 -2.5000484155823219 0.00021395441233806878 -1.6190277287719823e-06 0.00021395441233806878 -10.000016219881239 -2.4998390334449683 2.8924147482334565e-05 6.6275277552652057e-06 2.8924147482334565e-05 -2.4997679666726977 -5.6718678965950176e-05 6.6275277552652057e-06 -5.6718678965950176e-05 -10.000000145642314 -2.4998655695109973 1.7720950074893263e-05 1.3582588666238848e-05 1.7720950074893263e-05 -2.4998530916475761 -1.1083847445192418e-05 1.3582588666238848e-05 -1.1083847445192418e-05 -10.000035837149712 -2.499838701571671 2.994583626734644e-05 2.1838735786872121e-05 2.994583626734644e-05 -2.4998625510496004 -1.5730872204855473e-06 2.1838735786872121e-05 -1.5730872204855473e-06 -10.000027622032929 -2.4999413053718875 -2.3972990650047221e-05 -2.3739510348619319e-06 -2.3972990650047221e-05 -2.4998987933292094 -2.0507602935815328e-05 -2.3739510348619319e-06 -2.0507602935815328e-05 -10.000064951543989 -2.4998193387401759 -6.1054654186072963e-05 9.486815416082095e-05 -6.1054654186072963e-05 -2.4998652630238061 -2.3789119535599923e-05 9.486815416082095e-05 -2.3789119535599923e-05 -9.9999819470126958 -2.4997620461218917 6.7189149307014787e-06 1.9720365746156432e-05 6.7189149307014787e-06 -2.4997604319491202 -6.6394419732773713e-05 1.9720365746156432e-05 -6.6394419732773713e-05 -9.9999813483363589 -2.4997731481303527 3.5874783887270418e-05 -8.5444904005527178e-06 3.5874783887270418e-05 -2.4997808151453258 2.3287493448265195e-05 -8.5444904005527178e-06 2.3287493448265195e-05 -9.9999045712165255 -2.4998554450327908 -8.6668789576442346e-05 5.6161115542963103e-05 -8.6668789576442346e-05 -2.4997616543798951 -1.3360799157702274e-05 5.6161115542963103e-05 -1.3360799157702274e-05 -9.9999969257050001 -2.4997325945839979 -2.8405501064151891e-05 -3.2424211360293498e-06 -2.8405501064151891e-05 -2.4996879403691104 -5.2639254267017321e-05 -3.2424211360293498e-06 -5.2639254267017321e-05 -9.9999831837460427 -2.4997016339554325 -0.00014882614430166075 -3.1367283853001027e-05 -0.00014882614430166075 -2.4996884102747998 1.3169867539630786e-05 -3.1367283853001027e-05 1.3169867539630786e-05 -9.9999146739296734 -2.4997550110989506 3.8290104374190254e-05 6.3199900793398101e-05 3.8290104374190254e-05 -2.4998374215511276 2.5017183507003438e-06 6.3199900793398101e-05 2.5017183507003438e-06 -9.9999916269166782 -2.4998286011905053 2.3280843531375578e-06 1.7761561047047181e-05 2.3280843531375578e-06 -2.4998084224800676 -3.5152569727969762e-05 1.7761561047047181e-05 -3.5152569727969762e-05 -10.000025530983926 -2.4997866029918812 -5.4251561659386602e-06 3.4551832863716214e-05 -5.4251561659386602e-06 -2.4998122449752507 -2.5351984268340289e-05 3.4551832863716214e-05 -2.5351984268340289e-05 -10.000027134471466 -2.4997891120859927 -3.0053746901543016e-05 -2.0273465318965123e-05 -3.0053746901543016e-05 -2.4997799138956722 2.8442095576508564e-06 -2.0273465318965123e-05 2.8442095576508564e-06 -9.9999893058791294 -2.4998568377552486 2.239533012884139e-05 2.3554930163705023e-05 2.239533012884139e-05 -2.4998519454556254 -4.4196255366890647e-05 2.3554930163705023e-05 -4.4196255366890647e-05 -10.000040582355485 -2.4998067787526672 6.5135650868793668e-05 -4.3958749228245608e-05 6.5135650868793668e-05 -2.49990076352511 -5.642630657209935e-05 -4.3958749228245608e-05 -5.642630657209935e-05 -9.9999244982117119 -2.499735367209996 2.649194080761413e-05 -7.0514941335808601e-05 2.649194080761413e-05 -2.4998325858961215 -3.0814536416734484e-05 -7.0514941335808601e-05 -3.0814536416734484e-05 -9.9998773439485085 -2.5000430606831179 -2.3247086952012721e-05 -2.5068449883036692e-05 -2.3247086952012721e-05 -2.49984701389522 -7.5473173399842608e-06 -2.5068449883036692e-05 -7.5473173399842608e-06 -10.000032129441184 -2.4998354467826216 -8.9631853713920015e-05 -0.00012980753143931878 -8.9631853713920015e-05 -2.4998412175804452 -3.7810798799498002e-05 -0.00012980753143931878 -3.7810798799498002e-05 -10.000016122530607 -2.4995938663645259 -0.00017144502336497602 -6.4167179580465472e-05 -0.00017144502336497602 -2.4998411719161098 -2.0840951235001626e-05 -6.4167179580465472e-05 -2.0840951235001626e-05 -9.9999701816967708 -2.4998966602454509 -7.9561156572522843e-05 0.00015108256468820969 -7.9561156572522843e-05 -2.4998494395270932 3.2002265937691732e-05 0.00015108256468820969 3.2002265937691732e-05 -10.000002799115173 -2.4998442008096484 -5.0388508757258957e-05 0.00021207813041801415 -5.0388508757258957e-05 -2.4998447715221781 2.6108777455569054e-05 0.00021207813041801415 2.6108777455569054e-05 -9.9999835453273356 -2.4997630488267015 2.2057417406218505e-05 3.4070403742703093e-07 2.2057417406218505e-05 -2.4998453179926896 -3.1278677461443749e-06 3.4070403742703093e-07 -3.1278677461443749e-06 -10.000004144710164 -2.4998133114721277 -1.5126248491805302e-06 -1.053704912745701e-05 -1.5126248491805302e-06 -2.4998331259532662 1.1545773917376323e-05 -1.053704912745701e-05 1.1545773917376323e-05 -9.9999974982748299 -2.4998271792545204 -2.3623024914640911e-06 -2.9085087783542463e-05 -2.3623024914640911e-06 -2.4998277005026805 2.6238342194950803e-05 -2.9085087783542463e-05 2.6238342194950803e-05 -10.000030082170554 -2.4998100472127955 -4.3940863000267534e-06 1.7767972659399334e-05 -4.3940863000267534e-06 -2.4998240686502458 1.1836982505286642e-06 1.7767972659399334e-05 1.1836982505286642e-06 -9.9999856117417778 -2.4997725075625246 2.6266313696857934e-05 4.7149029116511088e-06 2.6266313696857934e-05 -2.4998232169589221 1.0722170976862344e-05 4.7149029116511088e-06 1.0722170976862344e-05 -9.9999884529331169 -2.4998655571234432 1.1491215366406511e-05 -1.5262797435688924e-05 1.1491215366406511e-05 -2.4998367648023878 7.7517236363178199e-07 -1.5262797435688924e-05 7.7517236363178199e-07 -9.9999855097245991 -2.4998138007782131 4.7842833448681625e-05 2.0626820367297682e-06 4.7842833448681625e-05 -2.4998230224548053 -4.0200913282717465e-06 2.0626820367297682e-06 -4.0200913282717465e-06 -9.9999796330586292 -2.4997952024662489 -2.2747593583624579e-05 -3.9716044376358894e-05 -2.2747593583624579e-05 -2.4998120501945831 2.8721275505461108e-05 -3.9716044376358894e-05 2.8721275505461108e-05 -10.000019421624458 -2.4998042838068355 -3.0973719199820537e-05 -3.211706907002565e-05 -3.0973719199820537e-05 -2.4997869154975327 4.7032767618304661e-06 -3.211706907002565e-05 4.7032767618304661e-06 -9.9999689292587846 -2.4997635992454361 4.5345664141932498e-06 -3.120429865977048e-05 4.5345664141932498e-06 -2.4997422059961583 4.1194665024724131e-05 -3.120429865977048e-05 4.1194665024724131e-05 -9.9999959996968428 -2.4998854247665752 -3.3868710249309705e-05 -6.7824726180276684e-05 -3.3868710249309705e-05 -2.4998002159962511 2.5760540092178985e-05 -6.7824726180276684e-05 2.5760540092178985e-05 -9.9999860588088954 -2.4998750700514414 1.1118850389734737e-05 -1.1800581445342573e-06 1.1118850389734737e-05 -2.4998461373515042 -2.855680740765365e-07 -1.1800581445342573e-06 -2.855680740765365e-07 -10.000001714153598 -2.4998611184381057 1.7143298253266033e-05 -4.8251613888439238e-05 1.7143298253266033e-05 -2.499847542679797 1.3802173032928522e-05 -4.8251613888439238e-05 1.3802173032928522e-05 -9.999994399519089 -2.499925908166615 -3.3928415781536389e-05 5.5999887338398224e-06 -3.3928415781536389e-05 -2.499948920970132 3.5823917639010716e-06 5.5999887338398224e-06 3.5823917639010716e-06 -10.000029571075729 -2.499810976291382 -0.00011712341652902955 -5.926289415292274e-05 -0.00011712341652902955 -2.4998053295786562 4.5951392994680873e-05 -5.926289415292274e-05 4.5951392994680873e-05 -10.000011255540507 -2.4999007079821851 -4.3602740984530062e-05 -8.5384193072357562e-05 -4.3602740984530062e-05 -2.4999225779196586 9.3182176012618356e-05 -8.5384193072357562e-05 9.3182176012618356e-05 -9.999984465445813 -2.4997555621633287 1.0135870715512319e-05 -1.7905187154276803e-05 1.0135870715512319e-05 -2.4997496443284746 3.7964058923201094e-05 -1.7905187154276803e-05 3.7964058923201094e-05 -9.9999665603868877 -2.499785031599254 -1.7129325912861916e-05 -2.3714837545263379e-05 -1.7129325912861916e-05 -2.4998936570092933 9.6105925750933352e-05 -2.3714837545263379e-05 9.6105925750933352e-05 -9.9999799993966292 -2.4998402220468101 3.5653693056346517e-05 -7.4028009500182179e-06 3.5653693056346517e-05 -2.4998555317869684 7.3454269315043064e-05 -7.4028009500182179e-06 7.3454269315043064e-05 -9.9999892976175886 -2.4998510634762106 2.1863596053103827e-05 -9.0919663962019115e-06 2.1863596053103827e-05 -2.499889485454565 -1.3163151133976925e-05 -9.0919663962019115e-06 -1.3163151133976925e-05 -10.000007499477107 -2.4998474193683418 3.9622501324266125e-06 -1.7135338632456865e-05 3.9622501324266125e-06 -2.4998568747400629 1.6975140414210443e-05 -1.7135338632456865e-05 1.6975140414210443e-05 -10.000012669265615 -2.4998439713876328 1.4850252380050583e-05 -2.2758838571945716e-05 1.4850252380050583e-05 -2.4998386953923992 2.3751829225204801e-05 -2.2758838571945716e-05 2.3751829225204801e-05 -10.000035971942058 -2.4998215705967102 -1.3029267353483441e-05 -2.5834028701154921e-05 -1.3029267353483441e-05 -2.4997618087671949 4.3774716267153124e-05 -2.5834028701154921e-05 4.3774716267153124e-05 -10.000012287558356 -2.4998249192532258 3.8860474785424277e-05 2.9382112209930256e-07 3.8860474785424277e-05 -2.49982788672731 -1.8964020194189857e-06 2.9382112209930256e-07 -1.8964020194189857e-06 -9.9999945612096859 -2.4997993455596452 -7.1452720644814581e-06 6.9839163492346756e-06 -7.1452720644814581e-06 -2.499800377979299 6.8629759235605547e-06 6.9839163492346756e-06 6.8629759235605547e-06 -9.9999807961217719 -2.499805620941332 -1.3516515831269745e-05 -5.5213905705286948e-06 -1.3516515831269745e-05 -2.4998043850920939 3.7287106757766253e-06 -5.5213905705286948e-06 3.7287106757766253e-06 -10.000005104638118 -2.4998266144667163 1.0746833899571149e-05 -3.3535891716951483e-06 1.0746833899571149e-05 -2.4998350005473675 4.4359893078826929e-05 -3.3535891716951483e-06 4.4359893078826929e-05 -9.9999558063234275 -2.4997882890172995 -3.1870825146691634e-05 1.4147712876777518e-06 -3.1870825146691634e-05 -2.4997632283382103 4.7246416113727596e-06 1.4147712876777518e-06 4.7246416113727596e-06 -9.9999743166093111 -2.4998245704434998 1.1875974589332499e-05 -6.9349085727310467e-06 1.1875974589332499e-05 -2.4998087421170121 -1.3166687895471707e-05 -6.9349085727310467e-06 -1.3166687895471707e-05 -9.9999984636003489 -2.499813324170026 -4.9588863268643622e-06 -6.7363504818729325e-06 -4.9588863268643622e-06 -2.4998154431540196 5.8463277095022192e-05 -6.7363504818729325e-06 5.8463277095022192e-05 -9.9999780814765273 -2.4998605799446079 -0.0002154620558211387 7.8209079283908522e-06 -0.0002154620558211387 -2.5000420243167385 -4.0096351392016061e-05 7.8209079283908522e-06 -4.0096351392016061e-05 -10.000040869121761 -2.4998232415197168 2.9881627860810546e-06 1.1696529416127532e-06 2.9881627860810546e-06 -2.4998235066016314 -2.1841638790931484e-06 1.1696529416127532e-06 -2.1841638790931484e-06 -10.00001154353483 -2.4998234408354811 1.5119772906571714e-05 -4.2179486765547836e-06 1.5119772906571714e-05 -2.4998318606982473 9.2776174724917837e-06 -4.2179486765547836e-06 9.2776174724917837e-06 -10.000001530116123 -2.4998432947571105 1.6895526545306644e-05 -2.4315782283679255e-05 1.6895526545306644e-05 -2.4998271316791918 2.3193702650914361e-05 -2.4315782283679255e-05 2.3193702650914361e-05 -10.000034703503658 -2.4998325161765313 9.983959521147042e-06 -4.8435843780225696e-06 9.983959521147042e-06 -2.4998209050438405 9.5980152998720314e-06 -4.8435843780225696e-06 9.5980152998720314e-06 -10.000013701745452 -2.4998235174663925 9.9634793275622669e-07 -1.3503555254867905e-05 9.9634793275622669e-07 -2.4998112424432879 1.1953546450449437e-05 -1.3503555254867905e-05 1.1953546450449437e-05 -10.000016141522412 -2.4998170133581588 -5.208813543292542e-06 -7.4543457921905087e-06 -5.208813543292542e-06 -2.4998407435676024 1.0593194969210629e-05 -7.4543457921905087e-06 1.0593194969210629e-05 -10.000016738522822 -2.4998441353090213 -5.1513929500739608e-06 -1.9482685154059709e-06 -5.1513929500739608e-06 -2.4998469477601688 1.0965588711719931e-05 -1.9482685154059709e-06 1.0965588711719931e-05 -10.000020890673873 -2.4998353548615242 2.1037872392008495e-05 2.4796375548419292e-06 2.1037872392008495e-05 -2.4998456417291752 1.2990374926857839e-06 2.4796375548419292e-06 1.2990374926857839e-06 -10.000017109115326 -2.499824036249942 8.7242698653816484e-06 -3.8565924143085795e-07 8.7242698653816484e-06 -2.4998434328768315 -8.3442439091641063e-07 -3.8565924143085795e-07 -8.3442439091641063e-07 -9.9999976326776903 -2.4998277532835598 1.478916931619254e-05 3.6946740404886214e-06 1.478916931619254e-05 -2.4998195451801815 4.0721329757076319e-06 3.6946740404886214e-06 4.0721329757076319e-06 -9.9999951011453039 -2.499829952982596 1.7651052229136527e-05 -2.4731304890668326e-06 1.7651052229136527e-05 -2.4998460169105359 7.4123373661194591e-06 -2.4731304890668326e-06 7.4123373661194591e-06 -10.000003432334939 -2.4998205226973393 2.9184206819185571e-06 -1.8679946673927361e-06 2.9184206819185571e-06 -2.4998271559544349 3.2481420646490733e-06 -1.8679946673927361e-06 3.2481420646490733e-06 -9.9999977447382165 -2.4998376491525822 8.2458510393116946e-06 -1.2420623818343302e-06 8.2458510393116946e-06 -2.4998119129868424 3.1702878668937728e-06 -1.2420623818343302e-06 3.1702878668937728e-06 -9.9999981484931393 -2.4998265572128817 1.209263055672148e-05 -3.1264589317459013e-07 1.209263055672148e-05 -2.4998409302519509 6.3037163400281315e-07 -3.1264589317459013e-07 6.3037163400281315e-07 -9.9999972106527721 -2.4998186272179339 1.4642884055854999e-05 3.5610307307365474e-06 1.4642884055854999e-05 -2.4998503993645436 -1.82648721747114e-06 3.5610307307365474e-06 -1.82648721747114e-06 -9.9999969127387978 -2.4998019070902524 -3.2294634397548633e-07 -4.3045754534176695e-06 -3.2294634397548633e-07 -2.4998231781457934 4.4459817409858715e-06 -4.3045754534176695e-06 4.4459817409858715e-06 -9.9999991899345595 -2.4998225568279935 1.5706922694964462e-05 -1.7981304623049255e-07 1.5706922694964462e-05 -2.4998503267595691 2.366105912088301e-06 -1.7981304623049255e-07 2.366105912088301e-06 -10.000006985680415 -2.4998194005596579 -8.7752003358146165e-08 -1.770503120113176e-06 -8.7752003358146165e-08 -2.4998242622774098 -1.0404335553104715e-06 -1.770503120113176e-06 -1.0404335553104715e-06 -10.000003855872965 -2.4998324678082895 -3.9014620907984786e-06 -5.6965191284064076e-06 -3.9014620907984786e-06 -2.4998264065782863 3.6743275799722142e-07 -5.6965191284064076e-06 3.6743275799722142e-07 -10.000000200841541 -2.4998243371349949 1.0418452191610681e-05 -3.5839570173834545e-06 1.0418452191610681e-05 -2.4998378575598368 7.3633264179306934e-06 -3.5839570173834545e-06 7.3633264179306934e-06 -9.9999841054024401 -2.4998392432111984 -4.4612703680987624e-06 -3.8585005341928991e-06 -4.4612703680987624e-06 -2.4998902713268354 -5.4289716189259707e-07 -3.8585005341928991e-06 -5.4289716189259707e-07 -9.9999973433045994 -2.4998251141736825 4.9890349945393191e-05 -2.5714349440875139e-06 4.9890349945393191e-05 -2.4998173316104859 2.8341245773333412e-05 -2.5714349440875139e-06 2.8341245773333412e-05 -9.9999948725734704 -2.4998364324653477 1.9413359989704359e-05 6.3724962124922513e-06 1.9413359989704359e-05 -2.4998511190388784 -4.6440107133172148e-06 6.3724962124922513e-06 -4.6440107133172148e-06 -10.000005616493151 -2.4998333039993188 5.5570538653192374e-05 3.7394954128799895e-06 5.5570538653192374e-05 -2.4998273937187108 2.177557757399029e-05 3.7394954128799895e-06 2.177557757399029e-05 -9.999997061718858 -2.4998419109993417 1.4844930306137337e-05 1.0538956345840234e-05 1.4844930306137337e-05 -2.4998858299961544 -1.4555055631859659e-06 1.0538956345840234e-05 -1.4555055631859659e-06 -10.000001732312271 -2.4998277744208393 2.2973563234752225e-05 2.452526098473129e-05 2.2973563234752225e-05 -2.4997696359345101 -3.6316188467111488e-05 2.452526098473129e-05 -3.6316188467111488e-05 -10.000004559433066 -2.4998197759982714 6.3074804354477392e-05 1.7688149338113135e-05 6.3074804354477392e-05 -2.4997141553920814 -1.238766873257191e-05 1.7688149338113135e-05 -1.238766873257191e-05 -10.000001046306057 -2.4998326044833128 3.1883822383819239e-05 2.2331853518409162e-05 3.1883822383819239e-05 -2.4997870052371152 -2.882913886637084e-05 2.2331853518409162e-05 -2.882913886637084e-05 -10.000012586167067 -2.4999190579614461 -3.8212450820409411e-06 6.4974217792723721e-06 -3.8212450820409411e-06 -2.4999170183293509 -6.0450555119384575e-06 6.4974217792723721e-06 -6.0450555119384575e-06 -10.000009318330838 -2.4998451191134672 -7.1064768988884515e-07 8.270266468546339e-06 -7.1064768988884515e-07 -2.4998987357014144 -5.7174036172114029e-06 8.270266468546339e-06 -5.7174036172114029e-06 -9.9999926837125592 -2.499900058160593 -5.5780650158629883e-06 6.2537929906847367e-06 -5.5780650158629883e-06 -2.4998400937131144 -2.5457325669719921e-06 6.2537929906847367e-06 -2.5457325669719921e-06 -9.9999899633408802 -2.4998294349788992 -1.0681131870218428e-05 6.0497193210551359e-06 -1.0681131870218428e-05 -2.4998357096176633 -1.0352367856292233e-05 6.0497193210551359e-06 -1.0352367856292233e-05 -9.9999892012736922 -2.4998247328616801 -8.703457533106465e-06 7.7727323457565944e-06 -8.703457533106465e-06 -2.4998226090293132 -1.4273727302338557e-06 7.7727323457565944e-06 -1.4273727302338557e-06 -9.9999731690722378 -2.4998558957526891 1.0042034944922318e-06 7.1034029751615435e-06 1.0042034944922318e-06 -2.4998952087745581 -3.3643038515052126e-06 7.1034029751615435e-06 -3.3643038515052126e-06 -9.9999932343919191 -2.499889885148217 -1.1990425973871098e-05 -8.8896293650719826e-06 -1.1990425973871098e-05 -2.4999275999503392 -1.8926537883601213e-05 -8.8896293650719826e-06 -1.8926537883601213e-05 -10.000021151031715 -2.4998539454688578 1.0079931552428047e-07 -2.0793088424397865e-06 1.0079931552428047e-07 -2.4998518123931133 9.7494949535814612e-06 -2.0793088424397865e-06 9.7494949535814612e-06 -10.000006818926405 -2.499844560091768 -1.2479273129340678e-05 1.5764691724484692e-05 -1.2479273129340678e-05 -2.4998899012293716 2.4437855081771431e-06 1.5764691724484692e-05 2.4437855081771431e-06 -10.000021505935457 -2.4998528373911544 -1.2048276657457953e-05 1.5120605143081889e-05 -1.2048276657457953e-05 -2.499883861248632 3.2991480907185178e-06 1.5120605143081889e-05 3.2991480907185178e-06 -10.000021892795033 -2.4997138962576941 -8.9548455613283216e-05 -6.9365074075733446e-06 -8.9548455613283216e-05 -2.4998162669472426 -1.5457054329814923e-06 -6.9365074075733446e-06 -1.5457054329814923e-06 -9.9999956791087943 -2.4997753301457308 -9.6533762820284375e-05 2.3372191288117961e-05 -9.6533762820284375e-05 -2.4997819577973832 -1.9108525682653976e-05 2.3372191288117961e-05 -1.9108525682653976e-05 -10.000008016741901 -2.4998439339914942 -5.7699524443248151e-05 4.6031400712465143e-05 -5.7699524443248151e-05 -2.4998454054782169 -3.9189652643045747e-05 4.6031400712465143e-05 -3.9189652643045747e-05 -10.000039114364839 -2.4999226323476815 -5.4749594524078352e-05 -2.1184201250079582e-05 -5.4749594524078352e-05 -2.4998908391866621 2.3831182641487203e-05 -2.1184201250079582e-05 2.3831182641487203e-05 -10.000032495346325 -2.4998857442348927 -3.2668270972200996e-05 -3.5594424478091469e-05 -3.2668270972200996e-05 -2.4998710994260498 1.5334224201524194e-06 -3.5594424478091469e-05 1.5334224201524194e-06 -10.000023935226478 -2.4998633237620735 5.5608668164646292e-06 -8.4713216850218487e-06 5.5608668164646292e-06 -2.499839856093522 3.6693478495664067e-06 -8.4713216850218487e-06 3.6693478495664067e-06 -9.9999902575191406 -2.4998748054902551 -7.6449948493385022e-06 1.0215036692073909e-06 -7.6449948493385022e-06 -2.4998330969951672 -8.9542390746544243e-06 1.0215036692073909e-06 -8.9542390746544243e-06 -10.000022867522379 -2.4998899935375176 1.2643940930874178e-06 7.2049914248140112e-06 1.2643940930874178e-06 -2.499833626722002 -4.7430165901474197e-06 7.2049914248140112e-06 -4.7430165901474197e-06 -9.9999942887048263 -2.4998026631460917 -8.5554162935703559e-05 6.6894484298529733e-06 -8.5554162935703559e-05 -2.4997167388828387 1.0484688910850082e-05 6.6894484298529733e-06 1.0484688910850082e-05 -9.9999981225128494 -2.4999319581318513 -3.8213550078098314e-05 6.1868510385920672e-06 -3.8213550078098314e-05 -2.4998695261289789 -6.5157166275753298e-06 6.1868510385920672e-06 -6.5157166275753298e-06 -10.000041914459835 -2.499912421642962 7.6681893739026681e-05 2.5798985942238062e-05 7.6681893739026681e-05 -2.499838598476662 -6.5756432618968574e-06 2.5798985942238062e-05 -6.5756432618968574e-06 -10.0000014711107 -2.499760312795825 2.1802179118476069e-05 -9.226574693599332e-06 2.1802179118476069e-05 -2.4998417096286474 3.7889107122879295e-06 -9.226574693599332e-06 3.7889107122879295e-06 -9.9999919932096972 -2.4998104140696054 2.0266049880895227e-05 5.3825947395225171e-05 2.0266049880895227e-05 -2.4998157220150947 5.68947022827615e-06 5.3825947395225171e-05 5.68947022827615e-06 -9.999996700261228 -2.4999510944269874 -2.9491284523526517e-05 1.01105346601571e-05 -2.9491284523526517e-05 -2.4998713265575452 -3.5153080659711122e-06 1.01105346601571e-05 -3.5153080659711122e-06 -10.000014082366864 -2.4998327490419574 8.6377466941066538e-06 8.4849838311029657e-06 8.6377466941066538e-06 -2.4998435777562915 -7.8234400504584301e-06 8.4849838311029657e-06 -7.8234400504584301e-06 -9.9999924575760719 -2.4998232209642364 -3.4517975752293426e-06 5.9539267631691928e-06 -3.4517975752293426e-06 -2.4998186026226001 -6.3280510431695802e-06 5.9539267631691928e-06 -6.3280510431695802e-06 -9.999985935260014 -2.4998594152463163 6.6047165973708193e-05 -4.6416285917061373e-05 6.6047165973708193e-05 -2.4998328207726317 -5.8638920261699923e-06 -4.6416285917061373e-05 -5.8638920261699923e-06 -10.000000590765488 -2.499911324853981 -1.7793780081944174e-05 -3.3351132218584212e-05 -1.7793780081944174e-05 -2.4998625081025061 -4.7697961882420259e-06 -3.3351132218584212e-05 -4.7697961882420259e-06 -10.000016923488225 -2.4999007732095269 9.097525539563429e-05 1.8532094465228965e-05 9.097525539563429e-05 -2.4998377986198879 -5.8683816028803903e-07 1.8532094465228965e-05 -5.8683816028803903e-07 -10.000008462602189 -2.499786159840041 1.4418816303851903e-05 -5.0081678502067462e-06 1.4418816303851903e-05 -2.4998318624135303 -1.1146093685354685e-05 -5.0081678502067462e-06 -1.1146093685354685e-05 -9.9999750333782735 -2.4997934850246146 8.4404268010875517e-06 -2.2638203482472363e-05 8.4404268010875517e-06 -2.4998014972101643 1.8046737828569803e-06 -2.2638203482472363e-05 1.8046737828569803e-06 -9.9999789496580327 -2.4997735212216803 2.7539482260412311e-05 -1.2137874945139515e-05 2.7539482260412311e-05 -2.4998310041856833 -5.454259632386993e-06 -1.2137874945139515e-05 -5.454259632386993e-06 -9.9999821659631074 -2.4998546290336607 -1.0891940531627e-05 -3.1936270427301849e-05 -1.0891940531627e-05 -2.4998493767785019 7.8203032867207867e-06 -3.1936270427301849e-05 7.8203032867207867e-06 -10.00000477249945 -2.4997851315538249 -5.6880410853898941e-05 -3.8527163381374407e-05 -5.6880410853898941e-05 -2.4998276424374524 7.0705033552442842e-06 -3.8527163381374407e-05 7.0705033552442842e-06 -9.9999869221518196 -2.4998422307837345 -1.0882630808260033e-05 -1.8626978395275273e-06 -1.0882630808260033e-05 -2.4998438668831913 6.4948721920643493e-06 -1.8626978395275273e-06 6.4948721920643493e-06 -10.000003578278577 -2.4997581354392402 -1.7736159773465326e-05 -1.0304840968089479e-05 -1.7736159773465326e-05 -2.4998324516307697 2.1078780630290339e-05 -1.0304840968089479e-05 2.1078780630290339e-05 -9.9999927763661702 -2.4998893327246723 1.3334011033152708e-07 2.8847355171279787e-08 1.3334011033152708e-07 -2.499857597944521 7.7626299042066194e-06 2.8847355171279787e-08 7.7626299042066194e-06 -10.000008210531625 -2.4998462531708672 -6.8065539300073057e-05 1.3637474154393203e-05 -6.8065539300073057e-05 -2.4998504913495907 1.506930622241498e-05 1.3637474154393203e-05 1.506930622241498e-05 -10.00000691090758 -2.4997734379354197 -2.4383374228188321e-05 -1.5257144683644697e-05 -2.4383374228188321e-05 -2.4998266622537555 1.100410336452029e-05 -1.5257144683644697e-05 1.100410336452029e-05 -9.9999894360926298 -2.4997904733301466 -8.4751923225050732e-05 3.7377241545399897e-05 -8.4751923225050732e-05 -2.499825073457564 3.4629458856016981e-06 3.7377241545399897e-05 3.4629458856016981e-06 -9.9999787625000955 -2.4997753972845338 -2.4955319771407081e-05 3.5799885212739468e-05 -2.4955319771407081e-05 -2.4998183616406759 1.3855031845366739e-05 3.5799885212739468e-05 1.3855031845366739e-05 -9.9999952147062601 -2.4998465995248633 -1.6255735677398082e-05 3.8236698891580545e-06 -1.6255735677398082e-05 -2.4998446531953569 1.0026996713818903e-05 3.8236698891580545e-06 1.0026996713818903e-05 -10.000014063023819 -2.4998130330357959 4.4095494257837349e-06 -9.3805900860388647e-06 4.4095494257837349e-06 -2.4998261706777249 -5.6075674321753866e-06 -9.3805900860388647e-06 -5.6075674321753866e-06 -10.000013931950946 -2.4997754410772028 -4.032743152769761e-05 6.9039497088141388e-06 -4.032743152769761e-05 -2.4998281336668757 3.2378974630375978e-06 6.9039497088141388e-06 3.2378974630375978e-06 -9.9999740942399171 -2.4997854823511565 -3.8422137805896007e-05 5.1858907630375484e-06 -3.8422137805896007e-05 -2.4998528836486047 -2.0809984629721612e-05 5.1858907630375484e-06 -2.0809984629721612e-05 -10.000004889789732 -2.4998397473915683 -2.0621155584003906e-05 -2.7643774728858261e-05 -2.0621155584003906e-05 -2.4998496306470339 -9.1375603723520271e-06 -2.7643774728858261e-05 -9.1375603723520271e-06 -10.000018202113903 -2.4998530543268682 -1.2236464272489437e-05 -3.2764828843623306e-05 -1.2236464272489437e-05 -2.4998480097273443 3.4077395678622224e-06 -3.2764828843623306e-05 3.4077395678622224e-06 -9.9999930056472905 -2.4998093276004507 4.6519121434281243e-06 -2.1653462742854401e-06 4.6519121434281243e-06 -2.499815312131382 5.1829530605118634e-06 -2.1653462742854401e-06 5.1829530605118634e-06 -9.9999840885101143 -2.4999768934625317 0.0002033279820908282 4.1636580580650673e-05 0.0002033279820908282 -2.4997977634691164 1.2584502915302664e-05 4.1636580580650673e-05 1.2584502915302664e-05 -10.000012904487235 -2.4997620707630368 3.5779162167889696e-05 1.962736681626609e-06 3.5779162167889696e-05 -2.4997764251864032 5.7112276863335865e-06 1.962736681626609e-06 5.7112276863335865e-06 -9.9999678047339877 -2.499765548782948 2.915209417977705e-06 -6.6229762588854157e-05 2.915209417977705e-06 -2.499799201988198 -1.2199587266614742e-05 -6.6229762588854157e-05 -1.2199587266614742e-05 -9.9999646383782874 -2.4998603488227609 -2.223607853871049e-05 -1.3942699748525911e-05 -2.223607853871049e-05 -2.4998267649388808 -3.2500835942528283e-06 -1.3942699748525911e-05 -3.2500835942528283e-06 -10.000028315638602 -2.4997525576169348 -1.7098360219431863e-05 -4.4880598869534438e-05 -1.7098360219431863e-05 -2.4997716123054765 -9.5559113914900351e-05 -4.4880598869534438e-05 -9.5559113914900351e-05 -9.9999809897810508 -2.499830589706213 5.2260796328686597e-05 -0.00011516261161759189 5.2260796328686597e-05 -2.4998903672711252 -4.3787366831082863e-05 -0.00011516261161759189 -4.3787366831082863e-05 -9.9999916393766703 -2.4998712619953993 -4.0657721246291709e-05 -2.9373233456198022e-05 -4.0657721246291709e-05 -2.4998803434649552 -2.3084207856349792e-05 -2.9373233456198022e-05 -2.3084207856349792e-05 -10.000015906181526 -2.4998809238623032 -4.1931986973228943e-05 -1.8019808820213257e-05 -4.1931986973228943e-05 -2.49988116938035 -1.8876443667714682e-05 -1.8019808820213257e-05 -1.8876443667714682e-05 -10.000024849307039 -2.4998484679667712 -4.9254104705090965e-05 -2.9128067989603323e-05 -4.9254104705090965e-05 -2.4997809123727297 -8.0435550890101126e-05 -2.9128067989603323e-05 -8.0435550890101126e-05 -10.000002762140845 -2.4999392640541087 9.1722923686467144e-06 -2.2999046801253087e-05 9.1722923686467144e-06 -2.4999357178998105 -2.6921314235650584e-05 -2.2999046801253087e-05 -2.6921314235650584e-05 -10.000041158306077 -2.4998659379693162 -3.4490210699798222e-05 -4.937253126335861e-06 -3.4490210699798222e-05 -2.4998648523393125 7.133786956270427e-06 -4.937253126335861e-06 7.133786956270427e-06 -9.9999980087897242 -2.4997570687889201 -4.0385581066628394e-05 -8.3720156020206105e-05 -4.0385581066628394e-05 -2.4998526240570502 -3.1838509446657781e-05 -8.3720156020206105e-05 -3.1838509446657781e-05 -9.9999843660425114 -2.499866011972681 8.0028311914097144e-05 -6.6267784081475156e-05 8.0028311914097144e-05 -2.499783909273757 -2.3353606136922167e-05 -6.6267784081475156e-05 -2.3353606136922167e-05 -10.000016173008387 -2.4997374704574487 1.4983948137686671e-05 -9.1162943274269992e-06 1.4983948137686671e-05 -2.4996992600623571 -7.1282139104233977e-05 -9.1162943274269992e-06 -7.1282139104233977e-05 -9.9999986048259899 -2.4997617288045699 -3.9805386133828622e-05 -4.5762122269366046e-06 -3.9805386133828622e-05 -2.4997801917456988 -2.2990800969679981e-06 -4.5762122269366046e-06 -2.2990800969679981e-06 -9.9998802488812792 -2.4998562247720861 -3.3702472307028486e-05 -6.756491938375575e-06 -3.3702472307028486e-05 -2.4998646559977629 -7.8780380849963194e-06 -6.756491938375575e-06 -7.8780380849963194e-06 -9.9999908926800583 -2.4999163723277036 1.9752432702841812e-05 1.0031149987987931e-05 1.9752432702841812e-05 -2.4999191545911756 -8.7923746008300441e-06 1.0031149987987931e-05 -8.7923746008300441e-06 -10.000025729078004 -2.4997684314882918 0.00012761234724905745 -2.5281304333546473e-05 0.00012761234724905745 -2.4997597376578229 -3.4889487130485008e-05 -2.5281304333546473e-05 -3.4889487130485008e-05 -10.000058173019749 -2.4999023760570198 7.1524734282686631e-06 3.7620890438461174e-06 7.1524734282686631e-06 -2.4999049728335452 1.5464584279811788e-07 3.7620890438461174e-06 1.5464584279811788e-07 -10.000018152003786 -2.4998248186658389 1.1516829089298723e-05 6.3356514488077664e-06 1.1516829089298723e-05 -2.4998075744010477 1.2549789404125988e-05 6.3356514488077664e-06 1.2549789404125988e-05 -9.9999918423856684 -2.4998888137721309 4.4204051912936893e-05 -1.3211053371264825e-06 4.4204051912936893e-05 -2.4998691820619765 -1.7551936185355999e-05 -1.3211053371264825e-06 -1.7551936185355999e-05 -10.000017376623717 -2.4998912349649789 9.5444682145429582e-06 -6.9241345919124342e-06 9.5444682145429582e-06 -2.4999019149791923 8.0281110825808355e-07 -6.9241345919124342e-06 8.0281110825808355e-07 -10.000004106079707 -2.4998254922307428 5.9657859837408022e-05 3.8649025707826468e-05 5.9657859837408022e-05 -2.4998306929534415 3.4396464805297455e-05 3.8649025707826468e-05 3.4396464805297455e-05 -10.000030856909476 -2.499810464435924 1.2545497384299172e-05 1.1065168287416327e-05 1.2545497384299172e-05 -2.4998253575252813 7.8202725610765356e-06 1.1065168287416327e-05 7.8202725610765356e-06 -9.9999925281645368 -2.4998261132407751 4.4657818019820314e-06 8.4728279432511044e-06 4.4657818019820314e-06 -2.4998868398547809 -1.1173194214286752e-06 8.4728279432511044e-06 -1.1173194214286752e-06 -10.000001969470222 -2.4998476202040649 2.4828923280751569e-06 3.2256808326636133e-06 2.4828923280751569e-06 -2.4998865870584783 -3.8751307371853727e-06 3.2256808326636133e-06 -3.8751307371853727e-06 -10.00000700912458 -2.4998551669699829 3.5876651013806902e-05 -1.8858486503958716e-05 3.5876651013806902e-05 -2.4998546297522246 -9.8340088485748822e-06 -1.8858486503958716e-05 -9.8340088485748822e-06 -9.999995392732572 -2.4998719788322643 1.3992650799623303e-05 1.7175066897578972e-06 1.3992650799623303e-05 -2.499814893711926 9.5087427389728418e-06 1.7175066897578972e-06 9.5087427389728418e-06 -9.9999991463297153 -2.4998877667913799 1.7130648249151997e-06 2.225591315685449e-06 1.7130648249151997e-06 -2.4998460752052694 1.1324216624863936e-05 2.225591315685449e-06 1.1324216624863936e-05 -10.00000792194848 -2.4997791311088289 8.8124429330985096e-05 2.5712054130266893e-05 8.8124429330985096e-05 -2.4997836749761415 2.1131065535584526e-05 2.5712054130266893e-05 2.1131065535584526e-05 -10.000014898128008 -2.499884652912387 7.0884808999624813e-06 -2.0782669913899099e-06 7.0884808999624813e-06 -2.4998460758828109 1.4547477032778033e-05 -2.0782669913899099e-06 1.4547477032778033e-05 -10.00002394774117 -2.4998762988117633 1.3333797439605345e-05 -5.4421772546220382e-06 1.3333797439605345e-05 -2.4998200998088382 7.1135016099788118e-06 -5.4421772546220382e-06 7.1135016099788118e-06 -10.000018908450492 -2.4998213377990446 8.3296813139168164e-05 4.8610736520515729e-06 8.3296813139168164e-05 -2.4997216530919157 -1.0132241200722092e-05 4.8610736520515729e-06 -1.0132241200722092e-05 -10.000004233437139 -2.4998454269850976 -3.1349146286514763e-06 -3.2838475256369293e-05 -3.1349146286514763e-06 -2.4998403238825899 3.9641232270071214e-06 -3.2838475256369293e-05 3.9641232270071214e-06 -10.000002772763143 -2.4998419242680257 1.4347438120031685e-05 1.2331637471163504e-05 1.4347438120031685e-05 -2.4998746230319391 -4.9147170706476118e-06 1.2331637471163504e-05 -4.9147170706476118e-06 -10.000018990427137 -2.4998234740189904 1.292998405018762e-05 1.4564855948862032e-05 1.292998405018762e-05 -2.4998805897943921 -4.2263397928010704e-06 1.4564855948862032e-05 -4.2263397928010704e-06 -10.00001622698084 -2.4997150231839171 8.2721799357631041e-05 -7.6107655999635426e-06 8.2721799357631041e-05 -2.4998236346666065 2.4200775818883358e-06 -7.6107655999635426e-06 2.4200775818883358e-06 -9.9999990174389595 -2.499843139336436 -3.0856738552215293e-06 -1.9333863008341723e-06 -3.0856738552215293e-06 -2.4998494847357531 -3.4597144058068352e-05 -1.9333863008341723e-06 -3.4597144058068352e-05 -10.00001086180162 -2.499856289898319 -1.0448249044960949e-05 4.9051181747472583e-06 -1.0448249044960949e-05 -2.4998437015331101 -1.6269159530679644e-07 4.9051181747472583e-06 -1.6269159530679644e-07 -10.000005177269397 -2.4998286086103425 -6.005588467370481e-05 3.7186364316710296e-06 -6.005588467370481e-05 -2.4997896334062384 -3.7862393091891988e-05 3.7186364316710296e-06 -3.7862393091891988e-05 -9.9999937979410269 -2.4998313924088515 -6.5869057185781774e-05 1.5300411142504799e-06 -6.5869057185781774e-05 -2.4998092131090983 -2.0045727676887282e-05 1.5300411142504799e-06 -2.0045727676887282e-05 -9.9999967999620551 -2.4998394090128127 -1.5984758963362055e-05 1.2735616381487347e-05 -1.5984758963362055e-05 -2.4998808467593427 -5.8734258434611775e-07 1.2735616381487347e-05 -5.8734258434611775e-07 -10.000001430615043 -2.499866575604357 -2.6544145277753513e-06 8.6141756430180294e-06 -2.6544145277753513e-06 -2.4998922578544169 -1.9093678029769023e-06 8.6141756430180294e-06 -1.9093678029769023e-06 -10.000005890651265 -2.4998594272577614 -3.1680824913832794e-06 5.5455620948663409e-06 -3.1680824913832794e-06 -2.4998495398873404 -3.0275149974556825e-05 5.5455620948663409e-06 -3.0275149974556825e-05 -10.000010849691581 -2.4998351634810616 -1.9780673117967361e-05 6.7230581919375254e-06 -1.9780673117967361e-05 -2.4998429686576049 4.7037367671975971e-06 6.7230581919375254e-06 4.7037367671975971e-06 -10.000005844595709 -2.4998321433312896 -2.5229417272032233e-05 2.3027816297371828e-05 -2.5229417272032233e-05 -2.4997879639776919 2.5027010464029331e-05 2.3027816297371828e-05 2.5027010464029331e-05 -10.000015672473623 -2.4998309152033649 -1.8296107740080138e-05 3.1739940739683448e-05 -1.8296107740080138e-05 -2.4997684857878326 3.8424330863762179e-05 3.1739940739683448e-05 3.8424330863762179e-05 -9.9999945041138218 -2.4998277219440768 -6.4909678970026549e-05 2.0701067905193327e-05 -6.4909678970026549e-05 -2.4997183770376203 1.0714657884491885e-05 2.0701067905193327e-05 1.0714657884491885e-05 -9.9999988719014468 -2.499813927836644 3.5735021630260065e-06 1.0161059999624911e-05 3.5735021630260065e-06 -2.4998075701669271 5.5559662897053386e-06 1.0161059999624911e-05 5.5559662897053386e-06 -9.9999889711305467 -2.4998128306608902 7.9651324463869021e-06 5.1620331920076978e-07 7.9651324463869021e-06 -2.4998004802809368 -3.1870924876997719e-06 5.1620331920076978e-07 -3.1870924876997719e-06 -9.9999998725175505 -2.4997880548252507 3.0771727904066619e-05 4.7822757931470505e-06 3.0771727904066619e-05 -2.4997637092746441 6.0842239668623677e-06 4.7822757931470505e-06 6.0842239668623677e-06 -9.999978507985599 -2.4998515623422235 -6.244739909673112e-06 -9.6164870626580523e-06 -6.244739909673112e-06 -2.4998480008653581 -2.3375691764471185e-05 -9.6164870626580523e-06 -2.3375691764471185e-05 -10.000018444723693 -2.499803667347551 -2.7630516467536603e-06 -5.6742740657256263e-06 -2.7630516467536603e-06 -2.499774572424823 -6.1943312869350287e-05 -5.6742740657256263e-06 -6.1943312869350287e-05 -9.9999757834329088 -2.4998218714826788 -1.9674257170435671e-05 -2.937509222533663e-07 -1.9674257170435671e-05 -2.49983124928736 -3.1940658084650408e-05 -2.937509222533663e-07 -3.1940658084650408e-05 -10.000008625777159 -2.499830250302657 -4.3400238443578709e-05 6.0896758018458286e-06 -4.3400238443578709e-05 -2.4998060553791754 7.0091092654323006e-06 6.0896758018458286e-06 7.0091092654323006e-06 -9.9999935158461675 -2.4998344864644171 3.0382296138317151e-05 7.7719431956779772e-07 3.0382296138317151e-05 -2.4997640232198535 4.2367576868151957e-05 7.7719431956779772e-07 4.2367576868151957e-05 -9.9999889538221254 -2.4998619547163052 0.00019929265863409282 3.4321291630945439e-05 0.00019929265863409282 -2.5001538578885754 3.6040936885584074e-05 3.4321291630945439e-05 3.6040936885584074e-05 -10.000056945166008 -2.4997820757049087 7.4267782231747328e-06 1.4493446883534489e-05 7.4267782231747328e-06 -2.4998165235929068 -5.606026062032754e-06 1.4493446883534489e-05 -5.606026062032754e-06 -9.9999954390086501 -2.499821143774787 -3.9723388349518297e-06 4.033261436831026e-06 -3.9723388349518297e-06 -2.4998298197093178 -1.1974934943204119e-05 4.033261436831026e-06 -1.1974934943204119e-05 -10.000007933165842 -2.4998314369337482 1.2516739975380389e-05 -1.0805142088177178e-05 1.2516739975380389e-05 -2.499831196720975 2.9853163852067155e-07 -1.0805142088177178e-05 2.9853163852067155e-07 -10.000029574335947 -2.4998367014875891 -2.0721599288205554e-05 -9.3901858448930398e-06 -2.0721599288205554e-05 -2.499849657636922 -1.5503987716769529e-05 -9.3901858448930398e-06 -1.5503987716769529e-05 -10.000019780358876 -2.499836922224171 4.4817308337216104e-06 -4.9298632927019526e-06 4.4817308337216104e-06 -2.4998383568838358 -5.7458731994586287e-07 -4.9298632927019526e-06 -5.7458731994586287e-07 -10.000018752103454 -2.4998220985098132 1.2967328218498251e-05 1.5541757596437833e-06 1.2967328218498251e-05 -2.4998374312571188 -9.4964700618760389e-06 1.5541757596437833e-06 -9.4964700618760389e-06 -10.000010845459759 -2.4998427698831334 9.2775883357123637e-06 9.4469243894224064e-06 9.2775883357123637e-06 -2.4998445956387316 -7.6870732304001876e-06 9.4469243894224064e-06 -7.6870732304001876e-06 -10.000020674356033 -2.4998340194300446 -2.1217515049845049e-05 7.4596305523755291e-06 -2.1217515049845049e-05 -2.4998120026106863 1.2359959207230986e-06 7.4596305523755291e-06 1.2359959207230986e-06 -9.9999988950379652 -2.4998198928925817 -1.1192657164424358e-05 -1.5974440543686796e-06 -1.1192657164424358e-05 -2.4998215619741018 -8.3025086183852181e-07 -1.5974440543686796e-06 -8.3025086183852181e-07 -9.9999956194989181 -2.4998257938984132 -1.4523952644950307e-05 8.7228743694822697e-07 -1.4523952644950307e-05 -2.4998258941791978 1.0680177293664883e-06 8.7228743694822697e-07 1.0680177293664883e-06 -9.9999955553625348 -2.4998322715690655 -4.5026814090487594e-06 2.9828873895354491e-06 -4.5026814090487594e-06 -2.4998231085095721 -2.0998999268329044e-06 2.9828873895354491e-06 -2.0998999268329044e-06 -10.000000341818989 -2.4998301479176761 -6.8195305093299034e-06 -5.0735332024487434e-07 -6.8195305093299034e-06 -2.4997942636073129 -3.8888321896024536e-07 -5.0735332024487434e-07 -3.8888321896024536e-07 -9.9999975353887809 -2.4998351795056513 -4.6400755626134593e-06 -7.010778215743585e-07 -4.6400755626134593e-06 -2.4998248492769699 -3.7579321201519633e-06 -7.010778215743585e-07 -3.7579321201519633e-06 -10.000006987744381 -2.499815177897891 -7.7237600571437592e-06 -1.1308003884380469e-06 -7.7237600571437592e-06 -2.4998207860671853 -3.6101950673383953e-06 -1.1308003884380469e-06 -3.6101950673383953e-06 -10.000002163375555 -2.4998407608490378 -2.1897200113837268e-05 1.8520829296875263e-06 -2.1897200113837268e-05 -2.4998348951007543 2.6901048775229697e-06 1.8520829296875263e-06 2.6901048775229697e-06 -9.9999992754526659 -2.4998168906196181 -1.1893159949078989e-05 -2.0280560555363536e-06 -1.1893159949078989e-05 -2.499836640010586 9.217633886393628e-06 -2.0280560555363536e-06 9.217633886393628e-06 -10.000004867525632 -2.4998168289600864 1.0376132106837704e-05 3.3770414820111228e-06 1.0376132106837704e-05 -2.4998189162863964 -3.0962764951958377e-06 3.3770414820111228e-06 -3.0962764951958377e-06 -9.9999962245055265 -2.4998249052373387 6.3318744680491309e-06 7.1552437912458799e-06 6.3318744680491309e-06 -2.499824837179264 7.3674804346168798e-07 7.1552437912458799e-06 7.3674804346168798e-07 -10.000001988999763 -2.4998485485427873 4.4218725188728975e-06 -1.1076816246458066e-06 4.4218725188728975e-06 -2.499808380851106 2.3213072406491619e-06 -1.1076816246458066e-06 2.3213072406491619e-06 -10.000001573203232 -2.4998247821999895 -1.601559677281205e-06 3.4592347724071715e-06 -1.601559677281205e-06 -2.499821001119849 -1.5104451929204288e-06 3.4592347724071715e-06 -1.5104451929204288e-06 -10.000004622670641 -2.4998260628935269 1.8336040589690421e-05 2.5075990901513023e-06 1.8336040589690421e-05 -2.4998256353198518 4.5834770183716955e-06 2.5075990901513023e-06 4.5834770183716955e-06 -9.9999974950894224 -2.4998367282289453 1.0959789726998424e-05 1.9505711765788192e-06 1.0959789726998424e-05 -2.4998217968614251 -1.1211030948032885e-06 1.9505711765788192e-06 -1.1211030948032885e-06 -9.9999956062537656 -2.4998034084301479 2.1757482297585304e-06 3.1510925246891475e-07 2.1757482297585304e-06 -2.4998172991350738 2.6100898082859203e-06 3.1510925246891475e-07 2.6100898082859203e-06 -9.9999924622564453 -2.4998437221585172 9.0294125640456684e-06 -2.3857106228319935e-06 9.0294125640456684e-06 -2.4998176061610389 3.6698718375305361e-07 -2.3857106228319935e-06 3.6698718375305361e-07 -9.9999981390761654 -2.4998458117828681 1.4459744239957121e-06 2.3295993418770422e-06 1.4459744239957121e-06 -2.4998306679923905 -3.5928910140370363e-06 2.3295993418770422e-06 -3.5928910140370363e-06 -10.000004422993307 -2.4998468815969712 5.0691947178057781e-06 -5.3088394906808389e-06 5.0691947178057781e-06 -2.4998074712930087 3.926523627129086e-06 -5.3088394906808389e-06 3.926523627129086e-06 -9.9999947669403753 -2.4998322814969089 4.1117358324497511e-06 1.3771785036365003e-05 4.1117358324497511e-06 -2.4998271272407511 2.4461544914089473e-06 1.3771785036365003e-05 2.4461544914089473e-06 -10.000000230009718 -2.4998266042543147 -1.6649317201402774e-07 -1.0389405264987772e-06 -1.6649317201402774e-07 -2.499823088053466 5.5146895547864005e-06 -1.0389405264987772e-06 5.5146895547864005e-06 -9.9999942898296972 -2.4998343251014212 -4.7783846038622635e-07 -1.5548187946023972e-06 -4.7783846038622635e-07 -2.4998498523146697 -1.1032334503280339e-05 -1.5548187946023972e-06 -1.1032334503280339e-05 -10.000021001753574 -2.4998359287021419 1.0764377261698197e-05 4.1720491514851687e-06 1.0764377261698197e-05 -2.499830344930059 3.4581754810858456e-06 4.1720491514851687e-06 3.4581754810858456e-06 -9.9999989392339614 -2.4998362855080876 2.7841997665285309e-06 3.7176019818119244e-06 2.7841997665285309e-06 -2.4998451020165495 -6.1668712301177209e-06 3.7176019818119244e-06 -6.1668712301177209e-06 -10.000004809482871 -2.499828193311834 -7.595031463617911e-06 -1.0633412519389651e-06 -7.595031463617911e-06 -2.4998262291263407 -4.2964434028291976e-06 -1.0633412519389651e-06 -4.2964434028291976e-06 -10.000002118844881 -2.4998435071251035 -8.0688569394967896e-06 -8.8773783031292908e-06 -8.0688569394967896e-06 -2.4998406982795198 1.2477233921615039e-06 -8.8773783031292908e-06 1.2477233921615039e-06 -10.000064218028415 -2.4998369580298423 -4.7120906100565519e-07 5.4931806774405345e-06 -4.7120906100565519e-07 -2.4998367271289643 -8.849539590016775e-08 5.4931806774405345e-06 -8.849539590016775e-08 -10.00001767773858 -2.4998156803294682 -5.2705861816602949e-07 5.8542746863565753e-06 -5.2705861816602949e-07 -2.4998135374975661 1.6101531317147533e-06 5.8542746863565753e-06 1.6101531317147533e-06 -9.9999915780109419 -2.4998138021111784 -5.932084911524152e-06 6.2719194513505272e-06 -5.932084911524152e-06 -2.4997969401175779 -3.0239105064389094e-06 6.2719194513505272e-06 -3.0239105064389094e-06 -9.9999865199897702 -2.4998256701993347 1.1702374882884298e-06 9.3382076138404102e-06 1.1702374882884298e-06 -2.4997948185514627 -1.2633084898183711e-06 9.3382076138404102e-06 -1.2633084898183711e-06 -9.9999875194762033 -2.4998382509993342 6.2672449115902006e-06 5.0183876627585278e-06 6.2672449115902006e-06 -2.4998023193997794 1.5386196077216141e-06 5.0183876627585278e-06 1.5386196077216141e-06 -9.9999936366219373 -2.4998373402681038 -6.9609725273069104e-06 -1.0025239103761407e-05 -6.9609725273069104e-06 -2.4998145011047042 -4.7876732951479539e-06 -1.0025239103761407e-05 -4.7876732951479539e-06 -10.000057264272058 -2.4998617176771258 -5.3928979369654307e-05 2.2468621851956527e-05 -5.3928979369654307e-05 -2.4999417692884034 0.00021343252345928931 2.2468621851956527e-05 0.00021343252345928931 -9.9999712796444911 -2.4998122609352986 -1.7243681258651418e-05 -6.9839816916328346e-06 -1.7243681258651418e-05 -2.4997915865473734 -3.2879567880783611e-05 -6.9839816916328346e-06 -3.2879567880783611e-05 -9.9999778350862485 -2.4998271220826487 1.7578171764351196e-05 -9.0516804718276944e-08 1.7578171764351196e-05 -2.4998579962492276 -1.8377281600479023e-05 -9.0516804718276944e-08 -1.8377281600479023e-05 -9.9999846571290281 -2.4998383676818916 1.0510215515572679e-05 6.6686227082612959e-06 1.0510215515572679e-05 -2.4998635443720625 -1.132094360389857e-05 6.6686227082612959e-06 -1.132094360389857e-05 -9.9999964594040502 -2.4998051273692479 -6.2851072345945747e-06 8.0902401893290232e-06 -6.2851072345945747e-06 -2.4997148929700179 2.4243284787672792e-05 8.0902401893290232e-06 2.4243284787672792e-05 -9.9999683870099787 -2.4998208052712991 4.9425727802941552e-05 -3.6471486772882145e-06 4.9425727802941552e-05 -2.4997886682695407 6.4218400908089279e-07 -3.6471486772882145e-06 6.4218400908089279e-07 -9.9999710708531744 -2.499832381315489 1.3608275804023943e-05 -1.6796858091083777e-06 1.3608275804023943e-05 -2.499746351387369 -3.5494055081741749e-06 -1.6796858091083777e-06 -3.5494055081741749e-06 -9.9999853432607182 -2.499842889377426 9.5551126532277285e-05 -4.2420727837111372e-06 9.5551126532277285e-05 -2.4998530324455714 1.7600720132904257e-05 -4.2420727837111372e-06 1.7600720132904257e-05 -10.000002899251754 -2.4998022798434532 1.2824179319194108e-05 -4.2311925803062422e-06 1.2824179319194108e-05 -2.4998012718284972 -2.8343622744841923e-05 -4.2311925803062422e-06 -2.8343622744841923e-05 -9.9999897557787705 -2.4998382065590246 3.1814573916325533e-05 -5.99911859922031e-06 3.1814573916325533e-05 -2.4997700166206096 -1.2367746713870531e-05 -5.99911859922031e-06 -1.2367746713870531e-05 -9.9999841852863867 -2.4998366237798528 1.6308806291568864e-05 -1.4149681192066055e-05 1.6308806291568864e-05 -2.4997897466172381 -6.336714116983444e-06 -1.4149681192066055e-05 -6.336714116983444e-06 -9.9999775955662997 -2.4998511982402247 7.9215586276365135e-06 -8.7197799363281092e-06 7.9215586276365135e-06 -2.4998325309592877 9.7983694082870443e-06 -8.7197799363281092e-06 9.7983694082870443e-06 -9.999995382512612 -2.4998119070766061 -9.3665346558887807e-06 -3.0479134203176272e-06 -9.3665346558887807e-06 -2.4998172450118021 3.0531991246363077e-06 -3.0479134203176272e-06 3.0531991246363077e-06 -9.9999853111537824 -2.4998346083458798 5.9705658298359873e-06 -5.308765349099076e-06 5.9705658298359873e-06 -2.4998994963505381 5.9364941229489432e-06 -5.308765349099076e-06 5.9364941229489432e-06 -9.9999958101995237 -2.4998486617995219 6.9996684817443433e-05 -1.1262062354688851e-05 6.9996684817443433e-05 -2.4998914922157436 3.0851866497982883e-05 -1.1262062354688851e-05 3.0851866497982883e-05 -10.000001265695566 -2.4998715382115981 -2.3237700487623372e-05 -5.9734510315934131e-06 -2.3237700487623372e-05 -2.499964615796276 5.1038246100532092e-06 -5.9734510315934131e-06 5.1038246100532092e-06 -10.000016231855392 -2.4998196671778405 2.2020536042096679e-05 -2.3520491616579875e-06 2.2020536042096679e-05 -2.4998123191336568 5.1716137546620189e-05 -2.3520491616579875e-06 5.1716137546620189e-05 -9.9999994617956531 -2.4998322945024789 6.8933808416057619e-05 -1.2279007002291564e-06 6.8933808416057619e-05 -2.4998231273366489 -4.7647366559822046e-05 -1.2279007002291564e-06 -4.7647366559822046e-05 -9.9999925935051479 -2.4998662268715703 -1.5063287485503774e-05 -4.1185295174273051e-07 -1.5063287485503774e-05 -2.4999225910314022 -3.448246315862491e-05 -4.1185295174273051e-07 -3.448246315862491e-05 -10.000019364971028 -2.4998628580040476 1.0472362724388334e-05 1.6017123867673178e-05 1.0472362724388334e-05 -2.4998602877401099 3.0275714024696754e-07 1.6017123867673178e-05 3.0275714024696754e-07 -9.9999984146540477 -2.4998343248238584 -1.4924995792542203e-05 -1.2436284297479006e-05 -1.4924995792542203e-05 -2.4998138863854926 6.2121192065944797e-06 -1.2436284297479006e-05 6.2121192065944797e-06 -9.9999900786288478 -2.4998769333326152 -1.3494062966099196e-05 1.7227473074865607e-05 -1.3494062966099196e-05 -2.4999002538711039 -4.3764869400719775e-06 1.7227473074865607e-05 -4.3764869400719775e-06 -10.000008236246252 -2.499882795075492 -9.6474560420433731e-06 -2.2383372259682233e-05 -9.6474560420433731e-06 -2.4999027304075474 1.0883923048154998e-05 -2.2383372259682233e-05 1.0883923048154998e-05 -10.000001833163349 -2.4998589321527174 5.0823591911623039e-06 1.3393251457216593e-05 5.0823591911623039e-06 -2.4998646424845905 -5.9329699269028424e-06 1.3393251457216593e-05 -5.9329699269028424e-06 -10.000009078964474 -2.4998625956382101 -5.4520679080285136e-06 -2.2117918671904491e-05 -5.4520679080285136e-06 -2.4998214973940307 1.4356852744867865e-05 -2.2117918671904491e-05 1.4356852744867865e-05 -9.9999837889703009 -2.4998687837948381 3.2322455995836236e-06 -1.4456908011606373e-05 3.2322455995836236e-06 -2.499859381215078 2.9558444740729328e-06 -1.4456908011606373e-05 2.9558444740729328e-06 -9.9999941181388294 -2.4998319882873994 -5.8505877885744117e-06 -1.2224768383362061e-05 -5.8505877885744117e-06 -2.4998810930548019 1.0200967537343786e-06 -1.2224768383362061e-05 1.0200967537343786e-06 -10.000022628893911 -2.4998661236140212 -3.4311483067552577e-05 -1.0589307333219722e-05 -3.4311483067552577e-05 -2.4999354724208533 5.2567289721139332e-06 -1.0589307333219722e-05 5.2567289721139332e-06 -10.000040339842379 -2.4997168172450581 -8.1840769252177883e-05 9.6606681552202645e-06 -8.1840769252177883e-05 -2.4998107607389133 5.6616630113026645e-06 9.6606681552202645e-06 5.6616630113026645e-06 -9.999999621523088 -2.499890553188572 -1.3471413425960238e-05 -1.1158029851188189e-06 -1.3471413425960238e-05 -2.4998306235953249 2.0581983086742639e-05 -1.1158029851188189e-06 2.0581983086742639e-05 -10.000022084827833 -2.4998778056195374 -1.3842931401817726e-05 -3.6521777957432278e-07 -1.3842931401817726e-05 -2.4998576310157845 1.6844410108518559e-05 -3.6521777957432278e-07 1.6844410108518559e-05 -10.000025583989419 -2.4998238609784802 -8.3727628191598315e-05 -3.0214765596170423e-06 -8.3727628191598315e-05 -2.4997102076445166 -6.1176111927352395e-06 -3.0214765596170423e-06 -6.1176111927352395e-06 -10.000001281647512 -2.4997825565973937 -8.8551059137579192e-05 -2.3177138373853268e-05 -8.8551059137579192e-05 -2.4997717988068331 2.5174498691882263e-05 -2.3177138373853268e-05 2.5174498691882263e-05 -10.000012914624296 -2.4998833445443545 -5.6467665357963529e-05 2.6022640582379353e-05 -5.6467665357963529e-05 -2.4999118649932157 -2.1042115378122617e-05 2.6022640582379353e-05 -2.1042115378122617e-05 -10.000024742896514 -2.4998589817939596 -3.1367759784871303e-05 6.96521436971409e-07 -3.1367759784871303e-05 -2.4998651215887708 -4.0576251502333349e-05 6.96521436971409e-07 -4.0576251502333349e-05 -10.000009310785188 -2.4998357625413288 -5.7641493224975035e-05 -4.1332913546909822e-05 -5.7641493224975035e-05 -2.4998253367329628 4.3496264959586028e-05 -4.1332913546909822e-05 4.3496264959586028e-05 -10.000040944968951 -2.4998054342319636 -0.00011727837963515508 4.1961303846704823e-05 -0.00011727837963515508 -2.4998046239195508 -5.4856343144393804e-05 4.1961303846704823e-05 -5.4856343144393804e-05 -10.000018018312968 -2.4999437324223326 7.1052555875637075e-07 -1.2219643441113703e-05 7.1052555875637075e-07 -2.4998806610899447 -1.9405402371219793e-05 -1.2219643441113703e-05 -1.9405402371219793e-05 -10.000017421332217 -2.4998907086457685 -6.6574934052751502e-05 7.8427839872219351e-05 -6.6574934052751502e-05 -2.4998667450592595 -7.3621675252155683e-05 7.8427839872219351e-05 -7.3621675252155683e-05 -10.000008902681465 -2.4999562665880823 -2.583020194713225e-05 1.1813683006067777e-05 -2.583020194713225e-05 -2.4999346473162163 -8.4769650587901424e-07 1.1813683006067777e-05 -8.4769650587901424e-07 -10.000031675756233 -2.4998484023452416 1.8198327402503794e-05 4.5984461216619366e-06 1.8198327402503794e-05 -2.4998780482769103 -6.8264624815128627e-06 4.5984461216619366e-06 -6.8264624815128627e-06 -9.999999887222863 -2.4998392095110411 2.5035595900533311e-05 7.3851634780908171e-06 2.5035595900533311e-05 -2.4998271420892673 -5.1253315163535262e-05 7.3851634780908171e-06 -5.1253315163535262e-05 -10.00000113427037 -2.4998072965592026 -3.900379334441936e-05 5.6083697685949119e-09 -3.900379334441936e-05 -2.4997481520598281 -1.4877220460896012e-05 5.6083697685949119e-09 -1.4877220460896012e-05 -10.00003639977189 -2.499778710850765 -2.6563779009235763e-05 1.6372106131257169e-05 -2.6563779009235763e-05 -2.4998393463397397 -7.2000177624431672e-05 1.6372106131257169e-05 -7.2000177624431672e-05 -9.9999917617258838 -2.4997479550924897 8.4530793532185984e-06 2.1702141125956587e-05 8.4530793532185984e-06 -2.49974766818712 -1.6379910530162078e-05 2.1702141125956587e-05 -1.6379910530162078e-05 -9.9999737762740857 -2.499842013306214 -2.3106859043624279e-05 9.3373525695383819e-05 -2.3106859043624279e-05 -2.4997660629751799 -2.0956985897768732e-05 9.3373525695383819e-05 -2.0956985897768732e-05 -9.9999835292581452 -2.4998297802968876 3.9491212582819409e-05 6.6108348245386139e-05 3.9491212582819409e-05 -2.4998351302746702 -9.724165085600589e-06 6.6108348245386139e-05 -9.724165085600589e-06 -9.9999945263037695 -2.4999167153996273 2.3635963989335683e-05 -7.4267738554567586e-06 2.3635963989335683e-05 -2.4998585428733682 -1.806699090778352e-05 -7.4267738554567586e-06 -1.806699090778352e-05 -10.000007668136202 -2.4998112461117721 1.5947738668956342e-05 -1.6503100536358062e-05 1.5947738668956342e-05 -2.4998183629440316 -3.4857452515524301e-06 -1.6503100536358062e-05 -3.4857452515524301e-06 -10.000001859264978 -2.4998359727204367 1.2231610414785364e-05 3.5042436945076361e-05 1.2231610414785364e-05 -2.4998238789258167 -4.6709863639193827e-06 3.5042436945076361e-05 -4.6709863639193827e-06 -9.9999777515030743 -2.4998522599904165 3.9812123200092961e-06 1.7417781450035363e-05 3.9812123200092961e-06 -2.4998203475971352 -4.0107349197349151e-06 1.7417781450035363e-05 -4.0107349197349151e-06 -9.999993309909593 -2.4998046878450362 -3.9222197170081956e-06 2.8481519542822298e-07 -3.9222197170081956e-06 -2.4998207586794488 -3.1982383017492566e-06 2.8481519542822298e-07 -3.1982383017492566e-06 -10.000001974031289 -2.4998277360091627 3.7398715077224949e-05 -8.6049105001428927e-06 3.7398715077224949e-05 -2.4998280869637277 1.7425768046308576e-06 -8.6049105001428927e-06 1.7425768046308576e-06 -9.999999455249192 -2.4998535151052561 1.2776790956871086e-06 1.7424938224763764e-05 1.2776790956871086e-06 -2.4998404556660887 -1.5418736271755051e-05 1.7424938224763764e-05 -1.5418736271755051e-05 -10.000007491308473 -2.4998089575275193 -3.1124363307499074e-06 -3.8785470404256728e-06 -3.1124363307499074e-06 -2.4998198454444625 -5.1589778991001367e-06 -3.8785470404256728e-06 -5.1589778991001367e-06 -9.9999978880276608 -2.4998007916048817 3.0348750489167002e-08 4.9475269063403715e-05 3.0348750489167002e-08 -2.4998143119626759 -4.1365215022182156e-06 4.9475269063403715e-05 -4.1365215022182156e-06 -9.9999811304321558 -2.4997118466505617 -3.8979107917631002e-05 -1.1394174596723872e-05 -3.8979107917631002e-05 -2.4997840956297432 7.2209428658709385e-07 -1.1394174596723872e-05 7.2209428658709385e-07 -9.9999743619125461 -2.500022824842544 -0.000182348888975022 -4.9184914209909891e-05 -0.000182348888975022 -2.4998556219943122 1.4297870976953675e-05 -4.9184914209909891e-05 1.4297870976953675e-05 -10.000041096461501 -2.4998133925738228 5.0581742739735278e-05 2.9040400150392998e-05 5.0581742739735278e-05 -2.4998289582089308 -3.2975819728164879e-06 2.9040400150392998e-05 -3.2975819728164879e-06 -9.999992421530532 -2.4998779120705912 2.4133720134463228e-05 -6.63436664005701e-06 2.4133720134463228e-05 -2.4998279399606922 -4.5549951011025769e-06 -6.63436664005701e-06 -4.5549951011025769e-06 -9.9999948773972491 -2.4998832882284612 1.5732593730766477e-05 -3.5472062460684128e-06 1.5732593730766477e-05 -2.4998351244384933 1.1380212608713691e-05 -3.5472062460684128e-06 1.1380212608713691e-05 -10.000003358856478 -2.4998509482032438 2.0063006800412502e-05 -6.1727281490675523e-06 2.0063006800412502e-05 -2.4998302516284538 7.2388388119293268e-06 -6.1727281490675523e-06 7.2388388119293268e-06 -10.000006120595327 -2.4998288237485022 5.7016374531619725e-05 1.8182208893158247e-05 5.7016374531619725e-05 -2.4998384299338214 2.6274941617998593e-06 1.8182208893158247e-05 2.6274941617998593e-06 -10.000000196506921 -2.4997831976357858 3.2430395254663559e-05 -3.2152028621723616e-05 3.2430395254663559e-05 -2.499831266069318 2.2358377641751304e-05 -3.2152028621723616e-05 2.2358377641751304e-05 -10.000016948350876 -2.4997641267007218 2.3397224739391342e-05 -4.1473797967483961e-05 2.3397224739391342e-05 -2.499823077047008 2.7940143830562647e-05 -4.1473797967483961e-05 2.7940143830562647e-05 -10.000003369571438 -2.4997216526305284 6.2414149263388747e-05 -1.6493369963122007e-05 6.2414149263388747e-05 -2.4998282855223133 1.8721960390877257e-05 -1.6493369963122007e-05 1.8721960390877257e-05 -10.000004664851872 -2.4997962734044723 -8.4134165325479168e-06 2.0640214806633139e-05 -8.4134165325479168e-06 -2.4997891867781927 -7.2840873315271892e-06 2.0640214806633139e-05 -7.2840873315271892e-06 -9.9999931399542064 -2.4998810981499577 -7.9466537206862519e-05 -1.1328091087392522e-05 -7.9466537206862519e-05 -2.4998486738518277 -6.3911108618697199e-06 -1.1328091087392522e-05 -6.3911108618697199e-06 -10.000013630625325 -2.4998400210662641 1.2385389575562355e-05 -2.1115988042552658e-06 1.2385389575562355e-05 -2.49981955930674 -5.1073986746530409e-06 -2.1115988042552658e-06 -5.1073986746530409e-06 -9.9999920513890714 -2.4997702892105336 -2.2907606233714266e-06 2.020164349136877e-06 -2.2907606233714266e-06 -2.4998257915666748 2.561856145000263e-06 2.020164349136877e-06 2.561856145000263e-06 -9.9999858632089946 -2.4998603015373897 -2.0432889614967213e-05 -5.1104588614236945e-06 -2.0432889614967213e-05 -2.4998513589277582 -4.6062404770452758e-06 -5.1104588614236945e-06 -4.6062404770452758e-06 -10.000002058978929 -2.4997757557864722 -2.1088156277384376e-05 1.026876634213636e-05 -2.1088156277384376e-05 -2.4998451519594616 -1.9766539530507998e-05 1.026876634213636e-05 -1.9766539530507998e-05 -10.000002135991814 -2.4999039341108857 -8.6016088741319602e-05 -8.4209645381250198e-06 -8.6016088741319602e-05 -2.4998388144985468 8.262361399502538e-06 -8.4209645381250198e-06 8.262361399502538e-06 -9.9999952787991067 -2.4999150062164901 2.1290367108130859e-05 -7.6958562103546235e-06 2.1290367108130859e-05 -2.4998732406060356 -4.3015215211994473e-07 -7.6958562103546235e-06 -4.3015215211994473e-07 -10.000004503194122 -2.4998492917007891 1.0493618740614794e-05 3.2851275290290971e-05 1.0493618740614794e-05 -2.4998628613719287 2.9901641980245586e-06 3.2851275290290971e-05 2.9901641980245586e-06 -10.000016183958232 -2.4997949588798027 -2.8891063833191474e-05 1.1155332531487261e-05 -2.8891063833191474e-05 -2.4998347988653515 -5.1526649880173636e-06 1.1155332531487261e-05 -5.1526649880173636e-06 -9.9999826171592083 -2.4998210862355741 -6.295478636816112e-05 4.4147350719114797e-05 -6.295478636816112e-05 -2.4998251261687834 2.3676122031801583e-06 4.4147350719114797e-05 2.3676122031801583e-06 -10.000003501323285 -2.4997728291316861 -1.8265113421082539e-05 -5.0435731203890555e-05 -1.8265113421082539e-05 -2.4998266254754782 -2.045567594421982e-06 -5.0435731203890555e-05 -2.045567594421982e-06 -9.9999928302422916 -2.4998214847998099 -3.1390863399069121e-06 2.5357797728275955e-07 -3.1390863399069121e-06 -2.4997987235264727 5.7674430387066877e-06 2.5357797728275955e-07 5.7674430387066877e-06 -9.9999987411037949 -2.4998237498754969 -1.2849892298751202e-05 5.639763173803658e-06 -1.2849892298751202e-05 -2.4998090110090567 2.966972978413196e-06 5.639763173803658e-06 2.966972978413196e-06 -9.9999931910988842 -2.4998377095401727 -2.1552341844637349e-06 5.289349007453481e-06 -2.1552341844637349e-06 -2.4998234130009287 -1.6166148331109298e-07 5.289349007453481e-06 -1.6166148331109298e-07 -9.999991077511325 -2.4998330940222457 -1.0229098126673684e-06 7.6517326146330333e-06 -1.0229098126673684e-06 -2.4998409148227241 2.4316382418732019e-06 7.6517326146330333e-06 2.4316382418732019e-06 -10.000000670098284 -2.4998226490327582 -1.4845174642720445e-05 3.5921901115898436e-06 -1.4845174642720445e-05 -2.4998411490712549 -1.9403194695399861e-06 3.5921901115898436e-06 -1.9403194695399861e-06 -9.9999904057824587 -2.4998088390579154 -2.8526941706419506e-06 1.1895619014268277e-06 -2.8526941706419506e-06 -2.4998347529293845 2.7079520403816559e-06 1.1895619014268277e-06 2.7079520403816559e-06 -9.9999921136656695 -2.4998414170041161 -2.2991526800321184e-05 -1.3977941044629461e-06 -2.2991526800321184e-05 -2.4998199574314852 9.5950615452977672e-07 -1.3977941044629461e-06 9.5950615452977672e-07 -9.9999902298893151 -2.4998256630853559 -7.7234921673939371e-07 1.7541163721546127e-06 -7.7234921673939371e-07 -2.4998244012273636 1.139716285791792e-06 1.7541163721546127e-06 1.139716285791792e-06 -10.000005546849852 -2.4998578184373068 -8.4961935230462831e-06 8.4498725190229607e-06 -8.4961935230462831e-06 -2.4998722940727998 1.020679036756178e-05 8.4498725190229607e-06 1.020679036756178e-05 -10.000024397891913 -2.4998508806600497 2.859584166309788e-06 4.7580379423095565e-06 2.859584166309788e-06 -2.4998490905800907 1.0997884502650379e-05 4.7580379423095565e-06 1.0997884502650379e-05 -10.000022217416843 -2.4998388483486362 5.5789643352377191e-06 9.7126639691278472e-06 5.5789643352377191e-06 -2.4998457874960724 1.3717264672585827e-05 9.7126639691278472e-06 1.3717264672585827e-05 -10.000017734308155 -2.4998410546103025 1.2143506373621914e-06 5.3480502719693845e-06 1.2143506373621914e-06 -2.4998534325180768 1.0407872171214194e-05 5.3480502719693845e-06 1.0407872171214194e-05 -10.000021120594495 -2.4998413109089714 -3.3499725845994513e-06 1.1084010938411382e-05 -3.3499725845994513e-06 -2.4998510175569084 1.0445447653384399e-05 1.1084010938411382e-05 1.0445447653384399e-05 -10.000036702495496 -2.4998478808162741 -1.7116237245155626e-06 3.8526070429423243e-06 -1.7116237245155626e-06 -2.4998377873844078 1.025125058840004e-05 3.8526070429423243e-06 1.025125058840004e-05 -10.000029780788893 -2.4998083095093402 -1.0042430730038977e-05 -1.3007814002818918e-05 -1.0042430730038977e-05 -2.4998185578698027 2.4502659839775731e-05 -1.3007814002818918e-05 2.4502659839775731e-05 -9.999992832988891 -2.4998290242243089 9.5952415385930058e-06 6.7407964294829981e-06 9.5952415385930058e-06 -2.4998525651549763 8.7683563063656322e-06 6.7407964294829981e-06 8.7683563063656322e-06 -10.000014515012966 -2.4997851802624975 3.5512038934609126e-08 -1.1260477285279791e-05 3.5512038934609126e-08 -2.4998339881689784 8.6343817444212156e-06 -1.1260477285279791e-05 8.6343817444212156e-06 -10.000009398167823 -2.4998303332443941 9.3799634541798867e-07 -1.8302731317199061e-05 9.3799634541798867e-07 -2.4997998939126411 1.3986349332029135e-05 -1.8302731317199061e-05 1.3986349332029135e-05 -9.9999862299001876 -2.4998319492872572 -4.0642940564878405e-05 -5.0195445175926778e-06 -4.0642940564878405e-05 -2.4998311564388178 6.5485217692895503e-06 -5.0195445175926778e-06 6.5485217692895503e-06 -9.9999737681488199 -2.4997959747890919 5.4447359358211878e-05 2.8777473595198444e-06 5.4447359358211878e-05 -2.499799998942724 1.6667960078819988e-06 2.8777473595198444e-06 1.6667960078819988e-06 -9.9999964526421579 -2.4998358914606729 2.82797342668172e-05 3.3857748317878134e-05 2.82797342668172e-05 -2.4998226637185952 1.1102171425747542e-05 3.3857748317878134e-05 1.1102171425747542e-05 -9.9999693658449704 -2.5000031539174818 4.7279013013035567e-05 -0.00016958372342928962 4.7279013013035567e-05 -2.4998435966431929 1.3736880497106085e-05 -0.00016958372342928962 1.3736880497106085e-05 -10.000035997242623 -2.4998972479134824 2.0245422569740813e-05 3.2740417958421197e-06 2.0245422569740813e-05 -2.4998951330907744 9.3470888296864896e-06 3.2740417958421197e-06 9.3470888296864896e-06 -9.9999977754484064 -2.4998559272449494 -1.7258206850958301e-05 1.720450560682707e-05 -1.7258206850958301e-05 -2.4998422789850743 6.8579858747419564e-06 1.720450560682707e-05 6.8579858747419564e-06 -9.999988749881048 -2.4997491587559399 7.3235078915186021e-06 3.7495640596851842e-06 7.3235078915186021e-06 -2.4997538013817291 3.2694237561692319e-06 3.7495640596851842e-06 3.2694237561692319e-06 -9.999978037562002 -2.4998963080623917 2.0736054061507996e-05 6.4686721400697422e-05 2.0736054061507996e-05 -2.4998947168738241 2.8021368210673359e-05 6.4686721400697422e-05 2.8021368210673359e-05 -9.9999980071012775 -2.4997924032507202 -3.0742504156086051e-05 2.4979851237283413e-05 -3.0742504156086051e-05 -2.4998301225858333 6.0947571227210062e-05 2.4979851237283413e-05 6.0947571227210062e-05 -9.9999887728874874 -2.4998317411982707 -2.2595311575126274e-05 5.2842179860235206e-05 -2.2595311575126274e-05 -2.4998664682015703 2.4908816826041402e-05 5.2842179860235206e-05 2.4908816826041402e-05 -9.9999838534404244 -2.4998576738045353 -2.4014117816165018e-05 2.4628096369383456e-05 -2.4014117816165018e-05 -2.4998321299132282 5.2328032223769583e-05 2.4628096369383456e-05 5.2328032223769583e-05 -9.9999939866426892 -2.4998466960556094 -1.6935309840414244e-05 5.4223467076397469e-06 -1.6935309840414244e-05 -2.4998653749758883 6.8836319657705758e-06 5.4223467076397469e-06 6.8836319657705758e-06 -10.000000692128374 -2.4997844467809838 0.00010328253122030062 3.2650746405238351e-05 0.00010328253122030062 -2.4997795260048452 4.6803395399308556e-05 3.2650746405238351e-05 4.6803395399308556e-05 -10.000039181663453 -2.4997268881572143 3.4151880786423619e-05 5.1352195757914387e-06 3.4151880786423619e-05 -2.4996915407704909 5.4474851761909804e-05 5.1352195757914387e-06 5.4474851761909804e-05 -9.9999699453794477 -2.4998208077810111 8.6585695029028266e-05 4.7483897297695421e-05 8.6585695029028266e-05 -2.4997624604850093 2.1205457141348916e-05 4.7483897297695421e-05 2.1205457141348916e-05 -9.9999775916066884 -2.4998264131199788 -4.3300823254433437e-05 8.8099531048158042e-07 -4.3300823254433437e-05 -2.499830315970752 -4.7150248855265531e-07 8.8099531048158042e-07 -4.7150248855265531e-07 -9.9999759483939776 -2.4998257547227265 2.2264045965183403e-05 3.6931375166915359e-06 2.2264045965183403e-05 -2.4998358906572413 3.6463539799136413e-05 3.6931375166915359e-06 3.6463539799136413e-05 -9.9999735320136978 -2.4998126384491215 4.5520535087180251e-05 2.1893324984034734e-06 4.5520535087180251e-05 -2.4997954776434685 2.8961952045492012e-06 2.1893324984034734e-06 2.8961952045492012e-06 -9.999998860483224 -2.4998330172774708 -2.8817799455317924e-06 3.7592952628617837e-06 -2.8817799455317924e-06 -2.4997854506167254 -9.2171380714489715e-06 3.7592952628617837e-06 -9.2171380714489715e-06 -10.000005519593214 -2.4998379951243521 5.7633673963903073e-06 6.9861404821125461e-06 5.7633673963903073e-06 -2.4998201640051079 6.2372121569786998e-06 6.9861404821125461e-06 6.2372121569786998e-06 -10.000009548367174 -2.4998173486791124 -1.0432579484889487e-05 1.7274691352042737e-05 -1.0432579484889487e-05 -2.4998041929632757 -1.0972480571913579e-05 1.7274691352042737e-05 -1.0972480571913579e-05 -9.9999918957328084 -2.4998055386342628 6.6683838553768712e-07 7.6497028578259574e-06 6.6683838553768712e-07 -2.4998238409112759 -1.4803462090817732e-05 7.6497028578259574e-06 -1.4803462090817732e-05 -9.9999852415938619 -2.4998557920040607 5.4033980244601001e-05 1.1587774539023599e-05 5.4033980244601001e-05 -2.5000103678612593 -0.00018254809147499884 1.1587774539023599e-05 -0.00018254809147499884 -10.000037757065186 -2.4998296431544151 -6.2981324345026354e-05 5.2502512062346796e-06 -6.2981324345026354e-05 -2.4998217854811546 4.5523108340717044e-05 5.2502512062346796e-06 4.5523108340717044e-05 -10.000002800689188 -2.4998396398346703 -1.8084772063917557e-05 -2.4600038504019039e-06 -1.8084772063917557e-05 -2.4998568774764323 -6.9028890763433992e-06 -2.4600038504019039e-06 -6.9028890763433992e-06 -9.9999990887743806 -2.4998598925627329 1.5995964336192509e-05 -2.148963414327909e-06 1.5995964336192509e-05 -2.499913222426156 -7.6347334937235112e-06 -2.148963414327909e-06 -7.6347334937235112e-06 -9.9999986587261596 -2.4998397914540655 -7.3890995694595674e-05 1.6793154467009686e-06 -7.3890995694595674e-05 -2.499849801756838 2.8885493537522677e-05 1.6793154467009686e-06 2.8885493537522677e-05 -9.9999992271560032 -2.4998549732070185 9.6626454560504139e-06 9.8429009831590974e-06 9.6626454560504139e-06 -2.4998471867214893 3.3778838181675042e-05 9.8429009831590974e-06 3.3778838181675042e-05 -10.000014242601056 -2.499826401013503 -2.7563646586077342e-06 4.6455969059389091e-06 -2.7563646586077342e-06 -2.4997739238249999 5.6482951293901351e-07 4.6455969059389091e-06 5.6482951293901351e-07 -9.9999834478754863 -2.4998266464017433 1.5327802042804849e-05 -3.4944159033045707e-06 1.5327802042804849e-05 -2.4998427420128202 -3.7245815769360036e-06 -3.4944159033045707e-06 -3.7245815769360036e-06 -9.9999940129973908 -2.4998431832940611 -1.5681990861099633e-05 -1.0554889104952281e-05 -1.5681990861099633e-05 -2.4999093452224432 -8.4737192338479872e-06 -1.0554889104952281e-05 -8.4737192338479872e-06 -9.9999950725925757 -2.4998335394554818 -2.1866308303136164e-05 -2.9606888830358002e-05 -2.1866308303136164e-05 -2.4997892401773232 -4.5104807968598948e-05 -2.9606888830358002e-05 -4.5104807968598948e-05 -10.000000715468701 -2.4997815541005073 -3.2052635688350724e-06 -8.0818982439723186e-07 -3.2052635688350724e-06 -2.4998106265149751 2.7721548903514304e-05 -8.0818982439723186e-07 2.7721548903514304e-05 -10.00000579188718 -2.4998290197716813 -8.0683050942631894e-05 -1.735565347615875e-05 -8.0683050942631894e-05 -2.4997252295871739 -9.5576848693212924e-06 -1.735565347615875e-05 -9.5576848693212924e-06 -10.000003083949245 -2.4998378375279167 -2.0514922511472228e-05 -1.9341017019058881e-05 -2.0514922511472228e-05 -2.4997910889366608 -3.9002211469352233e-05 -1.9341017019058881e-05 -3.9002211469352233e-05 -10.000018097458337 -2.499836740032428 1.4079191360338286e-05 -1.3966374623919364e-05 1.4079191360338286e-05 -2.4998711859875757 3.4647657436437385e-06 -1.3966374623919364e-05 3.4647657436437385e-06 -10.000018340351074 -2.4998907287882766 3.5377712257625096e-06 -4.5611902574904661e-06 3.5377712257625096e-06 -2.4998319045186683 -5.5312458115963636e-06 -4.5611902574904661e-06 -5.5312458115963636e-06 -9.9999914230908651 -2.4998567230694562 2.9680533169847628e-05 -1.0447114366485266e-05 2.9680533169847628e-05 -2.4999001151285007 -8.8797552777464261e-07 -1.0447114366485266e-05 -8.8797552777464261e-07 -10.000029320970626 -2.4998403227863983 7.8590392372703411e-07 -6.5533600697165184e-06 7.8590392372703411e-07 -2.4998890064184898 -1.8641275509878596e-06 -6.5533600697165184e-06 -1.8641275509878596e-06 -9.9999877441052671 -2.4998942976384892 1.4653877435635342e-05 -8.07925570001089e-07 1.4653877435635342e-05 -2.4998931704326832 7.5464383169077109e-06 -8.07925570001089e-07 7.5464383169077109e-06 -10.000015253895519 -2.4997131369127041 8.1237014319810808e-05 5.1077704057433948e-06 8.1237014319810808e-05 -2.4998119585506382 -1.8455162669184233e-06 5.1077704057433948e-06 -1.8455162669184233e-06 -9.9999949487950044 -2.4999018849398502 6.4374382316097933e-06 -9.9004910065758622e-06 6.4374382316097933e-06 -2.4999022339801606 -3.8502785812966067e-06 -9.9004910065758622e-06 -3.8502785812966067e-06 -9.9999992569579792 -2.4998133734587373 8.0092994664552578e-05 -4.5338595429100792e-06 8.0092994664552578e-05 -2.4997120782115623 1.0258576942590025e-05 -4.5338595429100792e-06 1.0258576942590025e-05 -10.000002525326858 -2.4998967309285121 3.6721267686503717e-05 -2.3212865922772608e-06 3.6721267686503717e-05 -2.4998684075521691 -9.8497559264387746e-06 -2.3212865922772608e-06 -9.8497559264387746e-06 -10.00003579295133 -2.4998685279605688 1.6801513724649386e-05 -5.7855280033436429e-07 1.6801513724649386e-05 -2.4998278085942882 -1.2590832423775566e-05 -5.7855280033436429e-07 -1.2590832423775566e-05 -10.000021986164533 -2.4998399428317146 5.416212542939355e-05 -4.8104578439733814e-05 5.416212542939355e-05 -2.4998430318284406 -4.2561478045932688e-05 -4.8104578439733814e-05 -4.2561478045932688e-05 -10.000043316561445 -2.4998748714339234 3.2939771907997513e-05 2.194499517926829e-05 3.2939771907997513e-05 -2.4998819089139852 2.9127732538825057e-05 2.194499517926829e-05 2.9127732538825057e-05 -10.000002740231746 -2.4998745875484643 2.6684548264051906e-05 1.6796053031953306e-05 2.6684548264051906e-05 -2.4998790513240197 2.5828307286701602e-05 1.6796053031953306e-05 2.5828307286701602e-05 -10.000019779523111 -2.4997780710648154 8.9982122139443206e-05 -2.6005252474092799e-05 8.9982122139443206e-05 -2.499779296723454 -1.9530483035268276e-05 -2.6005252474092799e-05 -1.9530483035268276e-05 -10.000007022797938 
</DataArray>
<DataArray type="Float64" Name="displacement_divergence" format="ascii">
-0.11249316995602476 -0.11249608840412023 -0.11249787414391726 -0.11250002708760784 -0.11249732828028305 -0.11249987283941057 -0.11249686136895765 -0.11249269346048775 -0.11249757739066052 -0.11249931500377661 -0.11250307018703251 -0.11249527692332435 -0.11249737161262581 -0.11249537392443561 -0.11250070921838799 -0.1124989664129144 -0.11249692526783152 -0.11249996706711625 -0.11249253931033683 -0.11250417108424751 -0.11250717817434464 -0.11250124502471318 -0.11249770890096548 -0.11249705044847817 -0.11249485168088716 -0.11249535069698798 -0.11249611348935856 -0.11249705910921014 -0.11249750152358118 -0.11249834179916948 -0.11249723910570192 -0.11249788663478233 -0.11249669373319962 -0.11249688675705312 -0.11249631715306646 -0.11249697766458411 -0.112495858322932 -0.11249928217530694 -0.11249848013913431 -0.11249895774155924 -0.11249785751150285 -0.11249889843197 -0.11249727757694666 -0.11249712648257776 -0.11249702649768391 -0.11249558009535171 -0.11249706144343921 -0.11249557790457163 -0.11249469518240289 -0.11249660030787258 -0.11249733473178224 -0.11249719913119333 -0.11249609123522269 -0.11249795936770104 -0.1124969409306395 -0.11249646944388841 -0.11249718277499013 -0.1124963064350525 -0.11249907693217392 -0.11249866630443656 -0.11249826094900751 -0.11249771952245995 -0.11249868215541008 -0.11249736070267009 -0.11249804162888175 -0.11249793692191085 -0.11249830488443065 -0.11249770134347636 -0.11249792086221225 -0.11249727664604831 -0.11249681671252612 -0.11249749128029035 -0.11249579355903494 -0.1125114195033626 -0.11249894079216534 -0.11249546123803925 -0.11249985140947713 -0.11250213676025389 -0.11249987924611674 -0.11250164068097442 -0.11249783702345241 -0.11249644927054804 -0.11250612739999449 -0.11249879495780626 -0.11249655690318026 -0.11249791083067157 -0.11250311621004203 -0.11249694524563282 -0.1124946454332105 -0.11249737223215955 -0.11249511452953166 -0.11249109465102751 -0.11249159084623818 -0.11249287831380124 -0.11249816909758559 -0.11249785386913322 -0.11249909595388211 -0.11249666342025283 -0.11249310185648981 -0.11249523763555888 -0.11250181606463601 -0.1125056538432371 -0.11250508123233156 -0.11250111919293007 -0.11249819988003125 -0.11249645187599321 -0.11250003906370221 -0.11249733831416628 -0.11249572797088832 -0.11249778132177832 -0.1124972151022855 -0.11249774469973228 -0.11249654659932565 -0.1124992686872678 -0.1124993540098459 -0.11249729977291673 -0.1124984475135038 -0.11249713477238329 -0.11249978041416717 -0.1124984663521635 -0.1124959708651273 -0.11249646407152238 -0.11249677055783699 -0.11249585934472406 -0.11249599149372824 -0.11249687019413118 -0.11249715126355524 -0.11249764775670934 -0.11249522388949035 -0.11249630971683858 -0.1124962678919563 -0.11249668600031953 -0.11249742166177648 -0.11249895983931528 -0.11249347184997199 -0.11250120607741307 -0.11249878791431037 -0.11249846809973199 -0.11249730181394139 -0.1124934279957745 -0.11250230612550319 -0.11249488906733091 -0.11249849692442081 -0.11249849099466247 -0.11249647609072698 -0.11250389656760568 -0.11249880250828896 -0.11249577364610862 -0.11250129150548646 -0.11250171636283834 -0.11249808397675232 -0.11249879281343259 -0.1124980957104485 -0.11249568087804336 -0.1125001578090908 -0.11249484115195721 -0.11249121133245053 -0.11249256410701647 -0.11249764902325106 -0.11249729515329822 -0.11249552315165462 -0.11249849328910928 -0.1124967664090081 -0.11249711046085548 -0.11249608436490394 -0.11249735738286096 -0.11249885582050387 -0.11249834694892537 -0.11249809297373362 -0.11249852321788995 -0.11249684709647487 -0.11249664376147922 -0.11249783710877384 -0.11249786775223025 -0.11249848344673974 -0.11249789673670541 -0.11249840131933134 -0.11249892396987446 -0.11249937066269307 -0.11249886540194125 -0.11249663645715273 -0.11251053855503049 -0.11249845537929339 -0.11249649314032209 -0.11250728658301874 -0.1124985146739 -0.11249687417259131 -0.11250000846897523 -0.11249931040595205 -0.11250043416415623 -0.11249803191570576 -0.11249794242116265 -0.11249591366561894 -0.11249812619850794 -0.11249731302665933 -0.11249812691829873 -0.11249805805239362 -0.11249818020664024 -0.11249773702915243 -0.11249678509379414 -0.11249543869868101 -0.11249761627390883 -0.11249789858657434 -0.11249867031453815 -0.11249707683538554 -0.1125000614541509 -0.11249478379883424 -0.11249483260903044 -0.11250239498646941 -0.11249746498036854 -0.1124981967313306 -0.11249419139426212 -0.1125001997071093 -0.11249712244667898 -0.11249245494350354 -0.11249924017457252 -0.11250156491862025 -0.1124971645155507 -0.11249174644377613 -0.11249338144946017 -0.11249444208074076 -0.11249739173579316 -0.11249840790173582 -0.11249821433861995 -0.11249851487912842 -0.11250168455813417 -0.11249839775403347 -0.11249491014409473 -0.11250158843662654 -0.11249554178715168 -0.11249909459490035 -0.11249316995146245 -0.11249792753552321 -0.11249348019159398 -0.11249710419144046 -0.11249680113513411 -0.1124951859399997 -0.11249881394726824 -0.11249794198671181 -0.11249702749095541 -0.11249629933622046 -0.11249779719328729 -0.11249739258763532 -0.11249574841548465 -0.11249739734844411 -0.11249820512290251 -0.1124953892364311 -0.11249688574558867 -0.11249862211584 -0.11249743830506953 -0.11249794729614856 -0.11249560629600863 -0.11249659393715 -0.11249770979497539 -0.11249633352788091 -0.11249674500981283 -0.11249958042469532 -0.11249582345235674 -0.1124983214196852 -0.11249829120522092 -0.11250040760438203 -0.1125023748462845 -0.1124973669623536 -0.1125008711827107 -0.11249294182024282 -0.11249718869036886 -0.11249548596756863 -0.11249703295179764 -0.11249300153712143 -0.11249176776550043 -0.11249344896591197 -0.11249500242635588 -0.11250013073916899 -0.11249501875923082 -0.11249898840936966 -0.11249633896158501 -0.11249891005923357 -0.11250406283897274 -0.11250189116805513 -0.1125056934444104 -0.1124947201455562 -0.11249678814637262 -0.11249946320887065 -0.11249495686342063 -0.11249695813023253 -0.11250228867829601 -0.11250037067446444 -0.11249914837895232 -0.1124965574063808 -0.11249776839457237 -0.11249626450556893 -0.11249663171242699 -0.11249757676356029 -0.11249289388791091 -0.11249668729434026 -0.11249329218604071 -0.11250110898186057 -0.11249530684520327 -0.11249826256013354 -0.11250388212328147 -0.11250277645888894 -0.11249927173374863 -0.11249826055196643 -0.1124995430043552 -0.11249834255359595 -0.1124959395970203 -0.11249805574762162 -0.11249475516548291 -0.11249151072473934 -0.11249290746112836 -0.11249827972542445 -0.11249925925565553 -0.11249626230022464 -0.11249782226677013 -0.11249795320388056 -0.11249943685745864 -0.11249422060136662 -0.11250116689226528 -0.11249823729351768 -0.11249734384617743 -0.11250780843848694 -0.11250066777099427 -0.11249747311938606 -0.11249873249818196 -0.1124966802652325 -0.11249683028334156 -0.11249804012656786 -0.11249758336827011 -0.11249631299968926 -0.11249761742462577 -0.1124970939212985 -0.11249801317591024 -0.11249737043777033 -0.11249561068251554 -0.11249699742865565 -0.11249961788409168 -0.11249705359319986 -0.11249815873731216 -0.11249796655990653 -0.11249928787683813 -0.11249749911582504 -0.11249627869805526 -0.11249593900869156 -0.11249710518838263 -0.11249552789024361 -0.11249478538619929 -0.1124968804467507 -0.11249746915990871 -0.11249719486828945 -0.11249668748895597 -0.11249812024174771 -0.11249724030367117 -0.11249583972790972 -0.11249941653014642 -0.11249769590170261 -0.11249553914983063 -0.11249811674165788 -0.11249754388244387 -0.11249709383647161 -0.11249732951775165 -0.11249763721445813 -0.11249714795703611 -0.11249688133090915 -0.11249765873737827 -0.11249712342218732 -0.11249720005713976 -0.11249670096422365 -0.11249626353703818 -0.11249753774678789 -0.11249792191167418 -0.11249777295477748 -0.11249928300159351 -0.11249720671057911 -0.11249855813510745 -0.11249603825159024 -0.11249744016003882 -0.11249763788588524 -0.11249811036305912 -0.11249787722530524 -0.11249788979041569 -0.11249696750191698 -0.11249735525392662 -0.11249685389745537 -0.11249711333003654 -0.1124971306600312 -0.11249644375473611 -0.11249723832120648 -0.11249705136600432 -0.11249957605037331 -0.11249743718742132 -0.11249742623737385 -0.11249778847454971 -0.11249750342224363 -0.11249738176074073 -0.11249755871586434 -0.11249783980307296 -0.11249773579279518 -0.11249748826353348 -0.11249731799706786 -0.11249759551671057 -0.11249734067542497 -0.11249735782974417 -0.11249748523588202 -0.11249749454490937 -0.11249718206377951 -0.11249759901950984 -0.11249735639032526 -0.11249744306421083 -0.11249734725072946 -0.11249795143381974 -0.11249727988768227 -0.11249769875998042 -0.1124974331957766 -0.1124979710498083 -0.11249701477341323 -0.11249651233272301 -0.11249724146915607 -0.11249884045966228 -0.11249802403895585 -0.11249797586410941 -0.11249740759402699 -0.11249715383222424 -0.1124980825418937 -0.11249878977097703 -0.11249784432591288 -0.11249816975442439 -0.11249818943576129 -0.11249644381735294 -0.11249673978513769 -0.11249796340375906 -0.11249884475160499 -0.11249835584165568 -0.11249770078031052 -0.11249798077505863 -0.11249788431723262 -0.11249638143406349 -0.11249882549040499 -0.11249814368422748 -0.11249695511725616 -0.11249717127259445 -0.11249877377513551 -0.11249751588280746 -0.11249720819135134 -0.11249769620088336 -0.11249843067333526 -0.11249810275823702 -0.1124969479172388 -0.11249680448919602 -0.1124969001852785 -0.11249781583733715 -0.11249699772107313 -0.11249767256959134 -0.11249687522577123 -0.11249816355900599 -0.11249777741571043 -0.11249692152211349 -0.11249695731965853 -0.1124969173022361 -0.11249778986808029 -0.11249739851748342 -0.11249683251737999 -0.1124973244184212 -0.11249780685114386 -0.11249770552276117 -0.1124970654618147 -0.11249840671064165 -0.11249629725512569 -0.11249647041862076 -0.11249786572050174 -0.11249628869777595 -0.1124978444726551 -0.11249825633731413 -0.11249840206912276 -0.11249724106860265 -0.11249937105195001 -0.11249796599323758 -0.1124969554416636 -0.1124974957069112 -0.1124957650150934 -0.11249566627073659 -0.11249783830087427 -0.11249895941997656 -0.11249689756624398 -0.11249869125670765 -0.11249718176589421 -0.11249831529343357 -0.11249847942017893 -0.1124976528157024 -0.11249721262594309 -0.1124978619192433 -0.11249805912290334 -0.11249778892091095 -0.11249764514155425 -0.11249806322958844 -0.11249683278159739 -0.11249816007402269 -0.11249786480303336 -0.11249660418246077 -0.11249766392723122 -0.11249801653295327 -0.11249790218095662 -0.11249653256467118 -0.11249777614405365 -0.11249778876525621 -0.11249709029968211 -0.1124972805411 -0.11249791264790399 -0.11249823543082529 -0.11249789862627513 -0.11249762982550782 -0.11249726834836948 -0.11249695428828754 -0.11249658728162354 -0.11249707851850585 -0.11249709887594533 -0.11249647704064114 -0.11249788505948455 -0.11249665517403964 -0.11249746309910397 -0.11249722366145998 -0.11249690597629791 -0.11250054568328172 -0.11249695528729842 -0.11249744172487471 -0.11249769155993 -0.11249779604612545 -0.112497705234086 -0.11249752781420025 -0.11249781029908423 -0.1124973368780902 -0.11249727805774201 -0.11249735432580116 -0.11249741791423212 -0.11249716460185334 -0.11249750262395253 -0.11249728595505476 -0.11249756198551847 -0.11249743798616871 -0.11249723977314011 -0.11249738798562273 -0.11249743876947843 -0.11249737804492849 -0.11249736894977104 -0.11249740598508101 -0.11249709877366243 -0.11249744600546796 -0.11249760677076409 -0.11249736839872765 -0.11249744729060529 -0.11249732986603109 -0.11249778884377251 -0.11249748909649621 -0.11249764647755636 -0.11249742405962287 -0.11249811317574783 -0.11249768522173043 -0.1124971559687848 -0.11249697946663891 -0.11249706006170249 -0.11249725655265791 -0.11249781829233649 -0.11249831074957517 -0.11249686261926695 -0.1124975233159568 -0.112497737785935 -0.11249616305511934 -0.11249685408295515 -0.11249673056972696 -0.11249774115806077 -0.11249694980588043 -0.11249694306349517 -0.11249702974472536 -0.11249759333784107 -0.11249710847431649 -0.11249797436171956 -0.1124980606478313 -0.11249889289397447 -0.11249723586080362 -0.11249736011508193 -0.11249856137155501 -0.11249791170298659 -0.1124972871737866 -0.11249839067587475 -0.11249840518984788 -0.11249799490201323 -0.11249750911501906 -0.11249791712361545 -0.11249801782677092 -0.1124988145190795 -0.11249645399630286 -0.11249807446208807 -0.11249820765468546 -0.11249651512702881 -0.1124967545252139 -0.11249864964325551 -0.11249800060625925 -0.11249776533182437 -0.11249721057348361 -0.11249881361133379 -0.11249824767289873 -0.11249941942245395 -0.11249794753383768 -0.11249750614403015 -0.11249693886293188 -0.11249707364187289 -0.11249602049665269 -0.11249693704154651 -0.11249744577656495 -0.112498371948069 -0.11249723601240585 -0.11249728202361986 -0.11249749438122866 -0.11249720565416826 -0.11249741458666573 -0.11249776096559849 -0.11249720018249726 -0.1124969717549979 -0.11249602728144636 -0.11249939657473768 -0.11249726079234967 -0.11249775547071394 -0.11249791328642578 -0.11249765490320271 -0.1124975058764193 -0.1124972355904198 -0.11249692929989386 -0.11249665952253529 -0.11249683950102635 -0.11249807551970337 -0.11249738723821559 -0.11249686457989654 -0.11249785289583061 -0.11249717282803318 -0.11249803520556398 -0.11249844562512483 -0.11249796252773213 -0.11249709281178275 -0.1124973728529573 -0.1124969421363709 -0.11249714212072559 -0.11249719463987574 -0.11249739150039331 -0.1124975600920744 -0.11249740652914852 -0.11249726779239733 -0.11249738703243686 -0.11249741708371924 -0.11249815882801514 -0.11249791641492739 -0.11249776777614648 -0.11249786705792153 -0.11249796773221032 -0.11249786586742178 -0.11249714775276037 -0.11249772078294187 -0.11249721424949477 -0.11249712342792917 -0.11249727655406172 -0.11249694319780482 -0.11249720940768171 -0.11249912060852474 -0.11249842617339512 -0.11249765217083307 -0.11249610748274758 -0.11249841774028121 -0.11249708474043033 -0.11249761547130196 -0.11249762842770336 -0.11249784572369914 -0.11249702365836961 -0.11249541280730369 -0.1124967064490453 -0.11249724508113534 -0.1124972638304525 -0.1124970523243186 -0.11249717990615558 -0.11249750780622474 -0.112497100780314 -0.11249710965854548 -0.11249927937697896 -0.11249740671993566 -0.11249771704564114 -0.11249828830286293 -0.11249766615275178 -0.11249787301897184 -0.11249687829535493 -0.11249747551058967 -0.11249810700831808 -0.11249717621326116 -0.11249698479376996 -0.11249667999981083 -0.11249735267942174 -0.11249794699778309 -0.11249785542298363 -0.11249839619376428 -0.11249787804982617 -0.11249852041475017 -0.11249640033193749 -0.11249852531908497 -0.11249645982747879 -0.1124985069857401 -0.11249788742039535 -0.11249794718416195 -0.11249819640434741 -0.11249830063796695 -0.11249673292939655 
</DataArray>
</CellData>
</Piece>
</UnstructuredGrid>
</VTKFile>
