<?xml version="1.0"?>
<VTKFile type="UnstructuredGrid" version="0.1" byte_order="LittleEndian">
<UnstructuredGrid>
<Piece NumberOfPoints="2824" NumberOfCells="706">
<Points>
<DataArray type="Float64" NumberOfComponents="3" format="ascii">
0 0 0 0 0.32892434865109021 0.32892434865109021 0.33416666666749117 0.33416666666791067 0 0.33416666666645822 0 0.33416666666687761 0.33416666666645822 0 0.33416666666687761 0.77789883252811276 0.39570480562063071 0.39543357482263919 0.57500000000061269 0 0.57499999999949769 0.26500093005959219 0 0.62412558229931248 0.33416666666645822 0 0.33416666666687761 0.77789883252811276 0.39570480562063071 0.39543357482263919 0.26500093005959219 0 0.62412558229931248 0 0.26235908848024581 0.61665443494884975 0 0.32892434865109021 0.32892434865109021 0.33416666666749117 0.33416666666791067 0 0.77789883252811276 0.39570480562063071 0.39543357482263919 0.39531730444687918 0.80019605692788165 0.39654492749411491 0 0.32892434865109021 0.32892434865109021 0.33416666666645822 0 0.33416666666687761 0.77789883252811276 0.39570480562063071 0.39543357482263919 0 0.26235908848024581 0.61665443494884975 0 0.32892434865109021 0.32892434865109021 0.33416666666749117 0.33416666666791067 0 0.33416666666645822 0 0.33416666666687761 0.77789883252811276 0.39570480562063071 0.39543357482263919 0 0 0.40000000000166441 0 0.32892434865109021 0.32892434865109021 0.33416666666645822 0 0.33416666666687761 0 0.26235908848024581 0.61665443494884975 0 0 0 0 0 0.40000000000166441 0 0.32892434865109021 0.32892434865109021 0.33416666666645822 0 0.33416666666687761 0 0 0.40000000000166441 0.33416666666645822 0 0.33416666666687761 0.26500093005959219 0 0.62412558229931248 0 0.26235908848024581 0.61665443494884975 0 0.32892434865109021 0.32892434865109021 0 0.40000000000166441 0 0.33416666666749117 0.33416666666791067 0 0 0.62491530451403432 0.26235908848027167 0 0.40000000000166441 0 0.33416666666749117 0.33416666666791067 0 0.26340755208406552 0.6259637681177177 0 0 0.62491530451403432 0.26235908848027167 0 0 0 0 0.32892434865109021 0.32892434865109021 0 0.40000000000166441 0 0.33416666666749117 0.33416666666791067 0 0.33416666666645822 0 0.33416666666687761 0.39999999999911567 0 0 0.62412558229828341 0.26500093006025072 0 0.62596376811530841 0 0.26340755208326921 0 0 0 0.33416666666749117 0.33416666666791067 0 0.33416666666645822 0 0.33416666666687761 0.39999999999911567 0 0 0.33416666666749117 0.33416666666791067 0 0.33416666666645822 0 0.33416666666687761 0.39999999999911567 0 0 0.62412558229828341 0.26500093006025072 0 0.62412558229828341 0.26500093006025072 0 0.7999999999979498 0 0 0.77789883252811276 0.39570480562063071 0.39543357482263919 0.62596376811530841 0 0.26340755208326921 0.39999999999911567 0 0 0.62412558229828341 0.26500093006025072 0 0.7999999999979498 0 0 0.62596376811530841 0 0.26340755208326921 0.33416666666645822 0 0.33416666666687761 0.62412558229828341 0.26500093006025072 0 0.77789883252811276 0.39570480562063071 0.39543357482263919 0.62596376811530841 0 0.26340755208326921 0.97934782608699855 0.40787109375058261 0 0.77789883252811276 0.39570480562063071 0.39543357482263919 1.0206521739124059 0 0.40787109374997071 1.19811642196055 0.57789440443542173 0.58983547034755146 0.33416666666749117 0.33416666666791067 0 0.33416666666645822 0 0.33416666666687761 0.62412558229828341 0.26500093006025072 0 0.77789883252811276 0.39570480562063071 0.39543357482263919 0.33416666666749117 0.33416666666791067 0 0.62412558229828341 0.26500093006025072 0 0.77789883252811276 0.39570480562063071 0.39543357482263919 0.57500000000222118 0.57500000000110618 0 0.62412558229828341 0.26500093006025072 0 0.97934782608699855 0.40787109375058261 0 0.77789883252811276 0.39570480562063071 0.39543357482263919 0.57500000000222118 0.57500000000110618 0 0.62412558229828341 0.26500093006025072 0 0.97934782608699855 0.40787109375058261 0 0.7999999999979498 0 0 0.77789883252811276 0.39570480562063071 0.39543357482263919 0.97934782608699855 0.40787109375058261 0 0.7999999999979498 0 0 1.1999999999978941 0 0 1.0206521739124059 0 0.40787109374997071 0.97934782608699855 0.40787109375058261 0 0.7999999999979498 0 0 0.77789883252811276 0.39570480562063071 0.39543357482263919 1.0206521739124059 0 0.40787109374997071 0.7999999999979498 0 0 0.77789883252811276 0.39570480562063071 0.39543357482263919 0.62596376811530841 0 0.26340755208326921 1.0206521739124059 0 0.40787109374997071 0.33416666666645822 0 0.33416666666687761 0.77789883252811276 0.39570480562063071 0.39543357482263919 0.62596376811530841 0 0.26340755208326921 0.57500000000061269 0 0.57499999999949769 0.77789883252811276 0.39570480562063071 0.39543357482263919 0.62596376811530841 0 0.26340755208326921 0.57500000000061269 0 0.57499999999949769 1.0206521739124059 0 0.40787109374997071 0.77789883252811276 0.39570480562063071 0.39543357482263919 0.57500000000061269 0 0.57499999999949769 0.849152677791018 0 0.76609408500333809 0.59772980397989239 0.59772980397970443 0.74731771606769093 0.77789883252811276 0.39570480562063071 0.39543357482263919 0.849152677791018 0 0.76609408500333809 1.19811642196055 0.57789440443542173 0.58983547034755146 0.98528458949709452 0.48395451161029718 1.014715410503322 0.57500000000061269 0 0.57499999999949769 0.849152677791018 0 0.76609408500333809 0.40787109375015718 0 0.97934782608792492 0.59772980397989239 0.59772980397970443 0.74731771606769093 0.77789883252811276 0.39570480562063071 0.39543357482263919 0.57500000000061269 0 0.57499999999949769 0.26500093005959219 0 0.62412558229931248 0.59772980397989239 0.59772980397970443 0.74731771606769093 0.77789883252811276 0.39570480562063071 0.39543357482263919 0.849152677791018 0 0.76609408500333809 1.0206521739124059 0 0.40787109374997071 1.19811642196055 0.57789440443542173 0.58983547034755146 0.849152677791018 0 0.76609408500333809 0.59772980397989239 0.59772980397970443 0.74731771606769093 0.73709538452274337 0 1.137931943365984 0.98528458949709452 0.48395451161029718 1.014715410503322 0.849152677791018 0 0.76609408500333809 0.40787109375015718 0 0.97934782608792492 0.59772980397989239 0.59772980397970443 0.74731771606769093 0.73709538452274337 0 1.137931943365984 0.77789883252811276 0.39570480562063071 0.39543357482263919 0.849152677791018 0 0.76609408500333809 0.59772980397989239 0.59772980397970443 0.74731771606769093 0.98528458949709452 0.48395451161029718 1.014715410503322 0.77789883252811276 0.39570480562063071 0.39543357482263919 0.57500000000061269 0 0.57499999999949769 0.849152677791018 0 0.76609408500333809 1.0206521739124059 0 0.40787109374997071 0.849152677791018 0 0.76609408500333809 1.0000000000002141 0 0.99999999999992895 0.73709538452274337 0 1.137931943365984 0.98528458949709452 0.48395451161029718 1.014715410503322 0.26500093005959219 0 0.62412558229931248 0 0.26235908848024581 0.61665443494884975 0 0.40787109374995661 0.97934782608798243 0.59772980397989239 0.59772980397970443 0.74731771606769093 0.77789883252811276 0.39570480562063071 0.39543357482263919 0.26500093005959219 0 0.62412558229931248 0 0.26235908848024581 0.61665443494884975 0.59772980397989239 0.59772980397970443 0.74731771606769093 0 0.32892434865109021 0.32892434865109021 0.77789883252811276 0.39570480562063071 0.39543357482263919 0 0.26235908848024581 0.61665443494884975 0.59772980397989239 0.59772980397970443 0.74731771606769093 0 0.32892434865109021 0.32892434865109021 0 0.26235908848024581 0.61665443494884975 0 0.57500000000018214 0.57500000000018214 0.59772980397989239 0.59772980397970443 0.74731771606769093 0.57500000000061269 0 0.57499999999949769 0.40787109375015718 0 0.97934782608792492 0.26500093005959219 0 0.62412558229931248 0.59772980397989239 0.59772980397970443 0.74731771606769093 0 0.26235908848024581 0.61665443494884975 0 0.40787109374995661 0.97934782608798243 0 0.57500000000018214 0.57500000000018214 0.59772980397989239 0.59772980397970443 0.74731771606769093 0.40787109375015718 0 0.97934782608792492 0.26500093005959219 0 0.62412558229931248 0 0.40787109374995661 0.97934782608798243 0.59772980397989239 0.59772980397970443 0.74731771606769093 0.40787109375015718 0 0.97934782608792492 0 0 0.80000000000332872 0.26500093005959219 0 0.62412558229931248 0 0.40787109374995661 0.97934782608798243 0 0 0.80000000000332872 0.26500093005959219 0 0.62412558229931248 0 0.26235908848024581 0.61665443494884975 0 0.40787109374995661 0.97934782608798243 0.40787109375015718 0 0.97934782608792492 0 0 0.80000000000332872 0 0.40787109374995661 0.97934782608798243 0 0 1.200000000002774 0 0 0.40000000000166441 0 0 0.80000000000332872 0.26500093005959219 0 0.62412558229931248 0 0.26235908848024581 0.61665443494884975 0 0.85167501661028155 0.7670914684099619 0.59772980397989239 0.59772980397970443 0.74731771606769093 0.39531730444687918 0.80019605692788165 0.39654492749411491 0.48528811404415773 0.99061345538166756 1.009386544617999 0 0.32892434865109021 0.32892434865109021 0 0.57500000000018214 0.57500000000018214 0.59772980397989239 0.59772980397970443 0.74731771606769093 0.39531730444687918 0.80019605692788165 0.39654492749411491 0 0.57500000000018214 0.57500000000018214 0 0.85167501661028155 0.7670914684099619 0.59772980397989239 0.59772980397970443 0.74731771606769093 0.39531730444687918 0.80019605692788165 0.39654492749411491 0 0.40787109374995661 0.97934782608798243 0 0.85167501661028155 0.7670914684099619 0.59772980397989239 0.59772980397970443 0.74731771606769093 0 0.73703553820768952 1.137914212601322 0 0.85167501661028155 0.7670914684099619 0.39531730444687918 0.80019605692788165 0.39654492749411491 0.58179751944592217 1.199262271083781 0.58179751944619096 0.48528811404415773 0.99061345538166756 1.009386544617999 0 0.85167501661028155 0.7670914684099619 0.59772980397989239 0.59772980397970443 0.74731771606769093 0.48528811404415773 0.99061345538166756 1.009386544617999 0 0.73703553820768952 1.137914212601322 0 0.85167501661028155 0.7670914684099619 0.39531730444687918 0.80019605692788165 0.39654492749411491 0 1.0206521739139061 0.40787109375008618 0.58179751944592217 1.199262271083781 0.58179751944619096 0 0.40787109374995661 0.97934782608798243 0 0.57500000000018214 0.57500000000018214 0 0.85167501661028155 0.7670914684099619 0.59772980397989239 0.59772980397970443 0.74731771606769093 0 0.57500000000018214 0.57500000000018214 0 0.85167501661028155 0.7670914684099619 0.39531730444687918 0.80019605692788165 0.39654492749411491 0 1.0206521739139061 0.40787109375008618 0 0.85167501661028155 0.7670914684099619 0 1.0000000000000291 0.99999999999996969 0.48528811404415773 0.99061345538166756 1.009386544617999 0 0.73703553820768952 1.137914212601322 0.77789883252811276 0.39570480562063071 0.39543357482263919 0.59772980397989239 0.59772980397970443 0.74731771606769093 1.0362039003897969 1.032400726930619 0.49025282767413908 1.19811642196055 0.57789440443542173 0.58983547034755146 0.59772980397989239 0.59772980397970443 0.74731771606769093 0.58179751944592217 1.199262271083781 0.58179751944619096 1.0362039003897969 1.032400726930619 0.49025282767413908 1 0.99999999999999978 0.99999999999999978 0.59772980397989239 0.59772980397970443 0.74731771606769093 0.39531730444687918 0.80019605692788165 0.39654492749411491 0.58179751944592217 1.199262271083781 0.58179751944619096 1.0362039003897969 1.032400726930619 0.49025282767413908 0.77789883252811276 0.39570480562063071 0.39543357482263919 0.59772980397989239 0.59772980397970443 0.74731771606769093 1.19811642196055 0.57789440443542173 0.58983547034755146 0.98528458949709452 0.48395451161029718 1.014715410503322 0.77789883252811276 0.39570480562063071 0.39543357482263919 0.59772980397989239 0.59772980397970443 0.74731771606769093 0.39531730444687918 0.80019605692788165 0.39654492749411491 1.0362039003897969 1.032400726930619 0.49025282767413908 0.59772980397989239 0.59772980397970443 0.74731771606769093 0.39531730444687918 0.80019605692788165 0.39654492749411491 0.58179751944592217 1.199262271083781 0.58179751944619096 0.48528811404415773 0.99061345538166756 1.009386544617999 0.59772980397989239 0.59772980397970443 0.74731771606769093 1 0.99999999999999978 0.99999999999999978 1.19811642196055 0.57789440443542173 0.58983547034755146 0.98528458949709452 0.48395451161029718 1.014715410503322 0.59772980397989239 0.59772980397970443 0.74731771606769093 1.0362039003897969 1.032400726930619 0.49025282767413908 1 0.99999999999999978 0.99999999999999978 1.19811642196055 0.57789440443542173 0.58983547034755146 0.59772980397989239 0.59772980397970443 0.74731771606769093 1 0.99999999999999978 0.99999999999999978 0.48528811404415773 0.99061345538166756 1.009386544617999 0.98528458949709452 0.48395451161029718 1.014715410503322 0.59772980397989239 0.59772980397970443 0.74731771606769093 0.58179751944592217 1.199262271083781 0.58179751944619096 1 0.99999999999999978 0.99999999999999978 0.48528811404415773 0.99061345538166756 1.009386544617999 0.73668669749125271 0.86068862301695703 0 0.39531730444687918 0.80019605692788165 0.39654492749411491 0.40787109375061498 1.0206521739145791 0 0.58179751944592217 1.199262271083781 0.58179751944619096 0.73668669749125271 0.86068862301695703 0 0.39531730444687918 0.80019605692788165 0.39654492749411491 0.58179751944592217 1.199262271083781 0.58179751944619096 1.0362039003897969 1.032400726930619 0.49025282767413908 0.77789883252811276 0.39570480562063071 0.39543357482263919 0.73668669749125271 0.86068862301695703 0 1.0362039003897969 1.032400726930619 0.49025282767413908 1.151058336609301 0.76640924832138713 0 0.77789883252811276 0.39570480562063071 0.39543357482263919 0.73668669749125271 0.86068862301695703 0 0.39531730444687918 0.80019605692788165 0.39654492749411491 1.0362039003897969 1.032400726930619 0.49025282767413908 0.73668669749125271 0.86068862301695703 0 1.0000000000013569 1.0000000000020031 0 1.0362039003897969 1.032400726930619 0.49025282767413908 1.151058336609301 0.76640924832138713 0 0.97934782608699855 0.40787109375058261 0 0.77789883252811276 0.39570480562063071 0.39543357482263919 0.57500000000222118 0.57500000000110618 0 0.73668669749125271 0.86068862301695703 0 0.97934782608699855 0.40787109375058261 0 0.77789883252811276 0.39570480562063071 0.39543357482263919 0.73668669749125271 0.86068862301695703 0 1.151058336609301 0.76640924832138713 0 0.77789883252811276 0.39570480562063071 0.39543357482263919 0.57500000000222118 0.57500000000110618 0 0.73668669749125271 0.86068862301695703 0 0.39531730444687918 0.80019605692788165 0.39654492749411491 0.33416666666749117 0.33416666666791067 0 0.77789883252811276 0.39570480562063071 0.39543357482263919 0.57500000000222118 0.57500000000110618 0 0.39531730444687918 0.80019605692788165 0.39654492749411491 0.57500000000222118 0.57500000000110618 0 0.73668669749125271 0.86068862301695703 0 0.39531730444687918 0.80019605692788165 0.39654492749411491 0.40787109375061498 1.0206521739145791 0 0.57500000000222118 0.57500000000110618 0 0.39531730444687918 0.80019605692788165 0.39654492749411491 0.26340755208406552 0.6259637681177177 0 0.40787109375061498 1.0206521739145791 0 0.39531730444687918 0.80019605692788165 0.39654492749411491 0.26340755208406552 0.6259637681177177 0 0 0.80000000000332872 0 0.40787109375061498 1.0206521739145791 0 0 0.32892434865109021 0.32892434865109021 0.77789883252811276 0.39570480562063071 0.39543357482263919 0.59772980397989239 0.59772980397970443 0.74731771606769093 0.39531730444687918 0.80019605692788165 0.39654492749411491 0.33416666666749117 0.33416666666791067 0 0.57500000000222118 0.57500000000110618 0 0.39531730444687918 0.80019605692788165 0.39654492749411491 0.26340755208406552 0.6259637681177177 0 0 0.32892434865109021 0.32892434865109021 0.33416666666749117 0.33416666666791067 0 0.39531730444687918 0.80019605692788165 0.39654492749411491 0 0.62491530451403432 0.26235908848027167 0 0.40000000000166441 0 0.26340755208406552 0.6259637681177177 0 0 0.62491530451403432 0.26235908848027167 0 0.80000000000332872 0 0.39531730444687918 0.80019605692788165 0.39654492749411491 0.26340755208406552 0.6259637681177177 0 0 0.62491530451403432 0.26235908848027167 0 0.80000000000332872 0 0.33416666666749117 0.33416666666791067 0 0.39531730444687918 0.80019605692788165 0.39654492749411491 0.26340755208406552 0.6259637681177177 0 0 0.62491530451403432 0.26235908848027167 0 0.32892434865109021 0.32892434865109021 0 0.57500000000018214 0.57500000000018214 0.39531730444687918 0.80019605692788165 0.39654492749411491 0 0.62491530451403432 0.26235908848027167 0.39531730444687918 0.80019605692788165 0.39654492749411491 0 0.62491530451403432 0.26235908848027167 0 0.80000000000332872 0 0 1.0206521739139061 0.40787109375008618 0 0.57500000000018214 0.57500000000018214 0.39531730444687918 0.80019605692788165 0.39654492749411491 0 0.62491530451403432 0.26235908848027167 0 1.0206521739139061 0.40787109375008618 0.39531730444687918 0.80019605692788165 0.39654492749411491 0 0.80000000000332872 0 0.40787109375061498 1.0206521739145791 0 0 1.0206521739139061 0.40787109375008618 0 1.200000000002774 0 0.26500093005965231 1.375874417702696 0 0.40787109375061498 1.0206521739145791 0 0 1.0206521739139061 0.40787109375008618 0.39531730444687918 0.80019605692788165 0.39654492749411491 0.40787109375061498 1.0206521739145791 0 0.37819010083105031 1.488109359197332 0.37639255045733749 0 1.0206521739139061 0.40787109375008618 0.39531730444687918 0.80019605692788165 0.39654492749411491 0.40787109375061498 1.0206521739145791 0 0.37819010083105031 1.488109359197332 0.37639255045733749 0.58179751944592217 1.199262271083781 0.58179751944619096 0.39531730444687918 0.80019605692788165 0.39654492749411491 0.37819010083105031 1.488109359197332 0.37639255045733749 0 1.0206521739139061 0.40787109375008618 0.58179751944592217 1.199262271083781 0.58179751944619096 0.37819010083105031 1.488109359197332 0.37639255045733749 0 1.0206521739139061 0.40787109375008618 0 1.4250000000002421 0.57500000000014528 0.58179751944592217 1.199262271083781 0.58179751944619096 0.40787109375061498 1.0206521739145791 0 0.37819010083105031 1.488109359197332 0.37639255045733749 0.58179751944592217 1.199262271083781 0.58179751944619096 0.57499999999972717 1.4249999999995451 0 0 0.80000000000332872 0 0 1.200000000002774 0 0.40787109375061498 1.0206521739145791 0 0 1.0206521739139061 0.40787109375008618 0 1.200000000002774 0 0.26500093005965231 1.375874417702696 0 0 1.3863248792278431 0.25937977430558068 0 1.0206521739139061 0.40787109375008618 0 1.200000000002774 0 0.26500093005965231 1.375874417702696 0 0 1.3863248792278431 0.25937977430558068 0 1.6000000000000001 0 0.26500093005965231 1.375874417702696 0 0.37819010083105031 1.488109359197332 0.37639255045733749 0 1.3863248792278431 0.25937977430558068 0.33416666666678929 1.6658333333334849 0 0.26500093005965231 1.375874417702696 0 0.40787109375061498 1.0206521739145791 0 0.37819010083105031 1.488109359197332 0.37639255045733749 0.57499999999972717 1.4249999999995451 0 0.26500093005965231 1.375874417702696 0 0.37819010083105031 1.488109359197332 0.37639255045733749 0.33416666666678929 1.6658333333334849 0 0.57499999999972717 1.4249999999995451 0 0.26500093005965231 1.375874417702696 0 0.40787109375061498 1.0206521739145791 0 0.37819010083105031 1.488109359197332 0.37639255045733749 0 1.0206521739139061 0.40787109375008618 0.37819010083105031 1.488109359197332 0.37639255045733749 0 1.3863248792278431 0.25937977430558068 0 1.0206521739139061 0.40787109375008618 0 1.4250000000002421 0.57500000000014528 0.37819010083105031 1.488109359197332 0.37639255045733749 0 1.3863248792278431 0.25937977430558068 0 1.4250000000002421 0.57500000000014528 0 1.685972222222293 0.31402777777767188 0.26500093005965231 1.375874417702696 0 0.37819010083105031 1.488109359197332 0.37639255045733749 0 1.3863248792278431 0.25937977430558068 0 1.0206521739139061 0.40787109375008618 0 0.85167501661028155 0.7670914684099619 0 1.263313302510646 0.86068862301506388 0.58179751944592217 1.199262271083781 0.58179751944619096 0.48528811404415773 0.99061345538166756 1.009386544617999 0 0.85167501661028155 0.7670914684099619 0 1.0206521739139061 0.40787109375008618 0 1.263313302510646 0.86068862301506388 0.58179751944592217 1.199262271083781 0.58179751944619096 0 1.263313302510646 0.86068862301506388 0.41010551790091843 1.5854304871968741 0.7721068750782103 0.39539622647752048 1.604332214875325 1.222086277851258 0.48528811404415773 0.99061345538166756 1.009386544617999 0 1.263313302510646 0.86068862301506388 0.41010551790091843 1.5854304871968741 0.7721068750782103 0.58179751944592217 1.199262271083781 0.58179751944619096 0.48528811404415773 0.99061345538166756 1.009386544617999 0 1.263313302510646 0.86068862301506388 0 1.4250000000002421 0.57500000000014528 0.41010551790091843 1.5854304871968741 0.7721068750782103 0.58179751944592217 1.199262271083781 0.58179751944619096 0 1.0206521739139061 0.40787109375008618 0 1.263313302510646 0.86068862301506388 0 1.4250000000002421 0.57500000000014528 0.58179751944592217 1.199262271083781 0.58179751944619096 0.37819010083105031 1.488109359197332 0.37639255045733749 0 1.4250000000002421 0.57500000000014528 0.41010551790091843 1.5854304871968741 0.7721068750782103 0.58179751944592217 1.199262271083781 0.58179751944619096 0 0.85167501661028155 0.7670914684099619 0 1.0000000000000291 0.99999999999996969 0 1.263313302510646 0.86068862301506388 0.48528811404415773 0.99061345538166756 1.009386544617999 0 1.263313302510646 0.86068862301506388 0 1.4250000000002421 0.57500000000014528 0.41010551790091843 1.5854304871968741 0.7721068750782103 0 1.592128906249999 1.0206521739122849 0.37819010083105031 1.488109359197332 0.37639255045733749 0 1.4250000000002421 0.57500000000014528 0 1.740620225694506 0.62193599033743363 0.41010551790091843 1.5854304871968741 0.7721068750782103 0 1.4250000000002421 0.57500000000014528 0 1.740620225694506 0.62193599033743363 0.41010551790091843 1.5854304871968741 0.7721068750782103 0 1.592128906249999 1.0206521739122849 0.37819010083105031 1.488109359197332 0.37639255045733749 0 1.740620225694506 0.62193599033743363 0.41010551790091843 1.5854304871968741 0.7721068750782103 0.26500093005947722 2 0.6241255822972791 0.37819010083105031 1.488109359197332 0.37639255045733749 0.41010551790091843 1.5854304871968741 0.7721068750782103 0.26500093005947722 2 0.6241255822972791 0.57499999999943696 2 0.57500000000055196 0.41010551790091843 1.5854304871968741 0.7721068750782103 0.40787109375045588 2 0.9793478260856453 0 1.592128906249999 1.0206521739122849 0.39539622647752048 1.604332214875325 1.222086277851258 0 1.740620225694506 0.62193599033743363 0.41010551790091843 1.5854304871968741 0.7721068750782103 0 2 0.7999999999979498 0 1.592128906249999 1.0206521739122849 0 1.263313302510646 0.86068862301506388 0.41010551790091843 1.5854304871968741 0.7721068750782103 0 1.592128906249999 1.0206521739122849 0.39539622647752048 1.604332214875325 1.222086277851258 0 2 0.7999999999979498 0.40787109375045588 2 0.9793478260856453 0 2 1.1999999999978941 0 1.592128906249999 1.0206521739122849 0.41010551790091843 1.5854304871968741 0.7721068750782103 0 2 0.7999999999979498 0.40787109375045588 2 0.9793478260856453 0 1.592128906249999 1.0206521739122849 0.41010551790091843 1.5854304871968741 0.7721068750782103 0 2 0.7999999999979498 0.40787109375045588 2 0.9793478260856453 0.26500093005947722 2 0.6241255822972791 0.41010551790091843 1.5854304871968741 0.7721068750782103 0.40787109375045588 2 0.9793478260856453 0.26500093005947722 2 0.6241255822972791 0.57499999999943696 2 0.57500000000055196 0 1.740620225694506 0.62193599033743363 0.41010551790091843 1.5854304871968741 0.7721068750782103 0 2 0.7999999999979498 0.26500093005947722 2 0.6241255822972791 0 1.740620225694506 0.62193599033743363 0 2 0.7999999999979498 0.26500093005947722 2 0.6241255822972791 0 2 0.39999999999911567 0.37819010083105031 1.488109359197332 0.37639255045733749 0.3341666666668387 2 0.3341666666664192 0.62596376811713206 2 0.26340755208327649 0.57499999999943696 2 0.57500000000055196 0.37819010083105031 1.488109359197332 0.37639255045733749 0 1.740620225694506 0.62193599033743363 0 1.685972222222293 0.31402777777767188 0.3341666666668387 2 0.3341666666664192 0.37819010083105031 1.488109359197332 0.37639255045733749 0.26500093005947722 2 0.6241255822972791 0.3341666666668387 2 0.3341666666664192 0.57499999999943696 2 0.57500000000055196 0.37819010083105031 1.488109359197332 0.37639255045733749 0 1.740620225694506 0.62193599033743363 0.26500093005947722 2 0.6241255822972791 0.3341666666668387 2 0.3341666666664192 0.37819010083105031 1.488109359197332 0.37639255045733749 0.33416666666678929 1.6658333333334849 0 0.3341666666668387 2 0.3341666666664192 0.62596376811713206 2 0.26340755208327649 0 2 0.39999999999911567 0 2 0 0 1.685972222222293 0.31402777777767188 0.3341666666668387 2 0.3341666666664192 0.37819010083105031 1.488109359197332 0.37639255045733749 0.33416666666678929 1.6658333333334849 0 0.62596376811713206 2 0.26340755208327649 0.62596376811718013 1.7365924479167429 0 0 1.740620225694506 0.62193599033743363 0.26500093005947722 2 0.6241255822972791 0 2 0.39999999999911567 0.3341666666668387 2 0.3341666666664192 0.37819010083105031 1.488109359197332 0.37639255045733749 0 1.685972222222293 0.31402777777767188 0.33416666666678929 1.6658333333334849 0 0.3341666666668387 2 0.3341666666664192 0 1.740620225694506 0.62193599033743363 0 2 0.39999999999911567 0 1.685972222222293 0.31402777777767188 0.3341666666668387 2 0.3341666666664192 0 2 0 0 1.685972222222293 0.31402777777767188 0.33416666666678929 1.6658333333334849 0 0.3341666666668387 2 0.3341666666664192 0.26500093005965231 1.375874417702696 0 0 1.3863248792278431 0.25937977430558068 0 1.6000000000000001 0 0.33416666666678929 1.6658333333334849 0 0 2 0 0 1.6000000000000001 0 0 1.685972222222293 0.31402777777767188 0.33416666666678929 1.6658333333334849 0 0.37819010083105031 1.488109359197332 0.37639255045733749 0 1.3863248792278431 0.25937977430558068 0 1.685972222222293 0.31402777777767188 0.33416666666678929 1.6658333333334849 0 0 1.3863248792278431 0.25937977430558068 0 1.6000000000000001 0 0 1.685972222222293 0.31402777777767188 0.33416666666678929 1.6658333333334849 0 0.37819010083105031 1.488109359197332 0.37639255045733749 0 1.4250000000002421 0.57500000000014528 0 1.740620225694506 0.62193599033743363 0 1.685972222222293 0.31402777777767188 0.37819010083105031 1.488109359197332 0.37639255045733749 0.33416666666678929 1.6658333333334849 0 0.62596376811718013 1.7365924479167429 0 0.57499999999972717 1.4249999999995451 0 0.33416666666678929 1.6658333333334849 0 0.40000000000166441 2 0 0.3341666666668387 2 0.3341666666664192 0.62596376811713206 2 0.26340755208327649 0 2 0 0.33416666666678929 1.6658333333334849 0 0.40000000000166441 2 0 0.3341666666668387 2 0.3341666666664192 0.33416666666678929 1.6658333333334849 0 0.40000000000166441 2 0 0.62596376811713206 2 0.26340755208327649 0.62596376811718013 1.7365924479167429 0 0.37819010083105031 1.488109359197332 0.37639255045733749 0.62596376811718013 1.7365924479167429 0 0.92204894738342102 1.545944433704725 0.55253256161165365 0.57499999999972717 1.4249999999995451 0 0.37819010083105031 1.488109359197332 0.37639255045733749 0.62596376811713206 2 0.26340755208327649 0.57499999999943696 2 0.57500000000055196 0.92204894738342102 1.545944433704725 0.55253256161165365 0.37819010083105031 1.488109359197332 0.37639255045733749 0.62596376811713206 2 0.26340755208327649 0.62596376811718013 1.7365924479167429 0 0.92204894738342102 1.545944433704725 0.55253256161165365 0.62596376811713206 2 0.26340755208327649 0.62596376811718013 1.7365924479167429 0 0.92204894738342102 1.545944433704725 0.55253256161165365 1.020652173914391 2 0.4078710937494115 0.62596376811718013 1.7365924479167429 0 0.92204894738342102 1.545944433704725 0.55253256161165365 1.020652173914391 2 0.4078710937494115 1.0206521739143919 1.592128906250684 0 0.62596376811718013 1.7365924479167429 0 0.92204894738342102 1.545944433704725 0.55253256161165365 0.57499999999972717 1.4249999999995451 0 1.0206521739143919 1.592128906250684 0 0.40000000000166441 2 0 0.62596376811713206 2 0.26340755208327649 0.62596376811718013 1.7365924479167429 0 0.80000000000332872 2 0 0.62596376811718013 1.7365924479167429 0 0.80000000000332872 2 0 1.020652173914391 2 0.4078710937494115 1.0206521739143919 1.592128906250684 0 0.62596376811713206 2 0.26340755208327649 0.62596376811718013 1.7365924479167429 0 0.80000000000332872 2 0 1.020652173914391 2 0.4078710937494115 0.62596376811713206 2 0.26340755208327649 0.57499999999943696 2 0.57500000000055196 0.92204894738342102 1.545944433704725 0.55253256161165365 1.020652173914391 2 0.4078710937494115 0.41010551790091843 1.5854304871968741 0.7721068750782103 0.57499999999943696 2 0.57500000000055196 0.84920286521341182 2 0.76599646645041963 0.92204894738342102 1.545944433704725 0.55253256161165365 0.57499999999943696 2 0.57500000000055196 0.84920286521341182 2 0.76599646645041963 0.92204894738342102 1.545944433704725 0.55253256161165365 1.020652173914391 2 0.4078710937494115 0.37819010083105031 1.488109359197332 0.37639255045733749 0.41010551790091843 1.5854304871968741 0.7721068750782103 0.57499999999943696 2 0.57500000000055196 0.92204894738342102 1.545944433704725 0.55253256161165365 0.41010551790091843 1.5854304871968741 0.7721068750782103 0.84920286521341182 2 0.76599646645041963 0.92204894738342102 1.545944433704725 0.55253256161165365 0.86620738987133672 1.5000000000001401 1.0337672479303861 0.41010551790091843 1.5854304871968741 0.7721068750782103 0.84920286521341182 2 0.76599646645041963 0.86620738987133672 1.5000000000001401 1.0337672479303861 0.73668669749101645 2 1.139311376982779 0.41010551790091843 1.5854304871968741 0.7721068750782103 0.40787109375045588 2 0.9793478260856453 0.84920286521341182 2 0.76599646645041963 0.73668669749101645 2 1.139311376982779 0.41010551790091843 1.5854304871968741 0.7721068750782103 0.40787109375045588 2 0.9793478260856453 0.57499999999943696 2 0.57500000000055196 0.84920286521341182 2 0.76599646645041963 0.84920286521341182 2 0.76599646645041963 1.000000000000635 2 0.99999999999835598 0.86620738987133672 1.5000000000001401 1.0337672479303861 0.73668669749101645 2 1.139311376982779 0.84920286521341182 2 0.76599646645041963 0.92204894738342102 1.545944433704725 0.55253256161165365 1.000000000000635 2 0.99999999999835598 0.86620738987133672 1.5000000000001401 1.0337672479303861 0.58179751944592217 1.199262271083781 0.58179751944619096 1 0.99999999999999978 0.99999999999999978 0.86620738987133672 1.5000000000001401 1.0337672479303861 0.48528811404415773 0.99061345538166756 1.009386544617999 0.37819010083105031 1.488109359197332 0.37639255045733749 0.41010551790091843 1.5854304871968741 0.7721068750782103 0.92204894738342102 1.545944433704725 0.55253256161165365 0.58179751944592217 1.199262271083781 0.58179751944619096 0.92204894738342102 1.545944433704725 0.55253256161165365 0.58179751944592217 1.199262271083781 0.58179751944619096 1 0.99999999999999978 0.99999999999999978 0.86620738987133672 1.5000000000001401 1.0337672479303861 0.41010551790091843 1.5854304871968741 0.7721068750782103 0.92204894738342102 1.545944433704725 0.55253256161165365 0.58179751944592217 1.199262271083781 0.58179751944619096 0.86620738987133672 1.5000000000001401 1.0337672479303861 0.92204894738342102 1.545944433704725 0.55253256161165365 0.58179751944592217 1.199262271083781 0.58179751944619096 1.0362039003897969 1.032400726930619 0.49025282767413908 1 0.99999999999999978 0.99999999999999978 0.41010551790091843 1.5854304871968741 0.7721068750782103 0.58179751944592217 1.199262271083781 0.58179751944619096 0.86620738987133672 1.5000000000001401 1.0337672479303861 0.48528811404415773 0.99061345538166756 1.009386544617999 0.92204894738342102 1.545944433704725 0.55253256161165365 0.58179751944592217 1.199262271083781 0.58179751944619096 0.57499999999972717 1.4249999999995451 0 0.86206805663365538 1.262904615478279 0 0.73668669749125271 0.86068862301695703 0 0.58179751944592217 1.199262271083781 0.58179751944619096 0.86206805663365538 1.262904615478279 0 1.0362039003897969 1.032400726930619 0.49025282767413908 0.37819010083105031 1.488109359197332 0.37639255045733749 0.92204894738342102 1.545944433704725 0.55253256161165365 0.58179751944592217 1.199262271083781 0.58179751944619096 0.57499999999972717 1.4249999999995451 0 0.40787109375061498 1.0206521739145791 0 0.58179751944592217 1.199262271083781 0.58179751944619096 0.57499999999972717 1.4249999999995451 0 0.86206805663365538 1.262904615478279 0 0.92204894738342102 1.545944433704725 0.55253256161165365 0.57499999999972717 1.4249999999995451 0 0.86206805663365538 1.262904615478279 0 1.0206521739143919 1.592128906250684 0 0.73668669749125271 0.86068862301695703 0 0.40787109375061498 1.0206521739145791 0 0.58179751944592217 1.199262271083781 0.58179751944619096 0.86206805663365538 1.262904615478279 0 0.92204894738342102 1.545944433704725 0.55253256161165365 0.58179751944592217 1.199262271083781 0.58179751944619096 0.86206805663365538 1.262904615478279 0 1.0362039003897969 1.032400726930619 0.49025282767413908 0.73668669749125271 0.86068862301695703 0 0.86206805663365538 1.262904615478279 0 1.0000000000013569 1.0000000000020031 0 1.0362039003897969 1.032400726930619 0.49025282767413908 1.2339059149979039 1.1508473222113209 0 1.367905405405516 1.367905405405516 0.63209459459450335 1.592128906250452 0.97934782608882909 0 1.5147705253128161 0.91852444755677043 0.69631892236242632 0.92204894738342102 1.545944433704725 0.55253256161165365 1.2339059149979039 1.1508473222113209 0 1.0362039003897969 1.032400726930619 0.49025282767413908 1.367905405405516 1.367905405405516 0.63209459459450335 0.86206805663365538 1.262904615478279 0 1.2339059149979039 1.1508473222113209 0 1.0000000000013569 1.0000000000020031 0 1.0362039003897969 1.032400726930619 0.49025282767413908 0.92204894738342102 1.545944433704725 0.55253256161165365 1.2339059149979039 1.1508473222113209 0 1.367905405405516 1.367905405405516 0.63209459459450335 1.0206521739143919 1.592128906250684 0 1.2339059149979039 1.1508473222113209 0 1.0362039003897969 1.032400726930619 0.49025282767413908 1.367905405405516 1.367905405405516 0.63209459459450335 1.5147705253128161 0.91852444755677043 0.69631892236242632 1.2339059149979039 1.1508473222113209 0 1.425000000001621 1.425000000001621 0 1.367905405405516 1.367905405405516 0.63209459459450335 1.0206521739143919 1.592128906250684 0 0.92204894738342102 1.545944433704725 0.55253256161165365 0.86206805663365538 1.262904615478279 0 1.2339059149979039 1.1508473222113209 0 1.0206521739143919 1.592128906250684 0 1.2339059149979039 1.1508473222113209 0 1.425000000001621 1.425000000001621 0 1.367905405405516 1.367905405405516 0.63209459459450335 1.592128906250452 0.97934782608882909 0 0.92204894738342102 1.545944433704725 0.55253256161165365 0.86206805663365538 1.262904615478279 0 1.2339059149979039 1.1508473222113209 0 1.0362039003897969 1.032400726930619 0.49025282767413908 1.367905405405516 1.367905405405516 0.63209459459450335 1 0.99999999999999978 0.99999999999999978 1.5147705253128161 0.91852444755677043 0.69631892236242632 1.500000000000274 0.99883321436442229 1.16639307242336 1.367905405405516 1.367905405405516 0.63209459459450335 1.5147705253128161 0.91852444755677043 0.69631892236242632 1.500000000000274 0.99883321436442229 1.16639307242336 1.532347752213032 1.4746298915713509 1.076108883276101 1.367905405405516 1.367905405405516 0.63209459459450335 1 0.99999999999999978 0.99999999999999978 1.532347752213032 1.4746298915713509 1.076108883276101 0.86620738987133672 1.5000000000001401 1.0337672479303861 0.92204894738342102 1.545944433704725 0.55253256161165365 1.367905405405516 1.367905405405516 0.63209459459450335 1 0.99999999999999978 0.99999999999999978 0.86620738987133672 1.5000000000001401 1.0337672479303861 0.92204894738342102 1.545944433704725 0.55253256161165365 1.0362039003897969 1.032400726930619 0.49025282767413908 1.367905405405516 1.367905405405516 0.63209459459450335 1 0.99999999999999978 0.99999999999999978 1.367905405405516 1.367905405405516 0.63209459459450335 1 0.99999999999999978 0.99999999999999978 1.500000000000274 0.99883321436442229 1.16639307242336 1.532347752213032 1.4746298915713509 1.076108883276101 1.0362039003897969 1.032400726930619 0.49025282767413908 1.367905405405516 1.367905405405516 0.63209459459450335 1 0.99999999999999978 0.99999999999999978 1.5147705253128161 0.91852444755677043 0.69631892236242632 1.367905405405516 1.367905405405516 0.63209459459450335 1.2345896428056129 2 0.84641423559720264 1.532347752213032 1.4746298915713509 1.076108883276101 0.86620738987133672 1.5000000000001401 1.0337672479303861 0.92204894738342102 1.545944433704725 0.55253256161165365 1.367905405405516 1.367905405405516 0.63209459459450335 1.2345896428056129 2 0.84641423559720264 0.86620738987133672 1.5000000000001401 1.0337672479303861 0.92204894738342102 1.545944433704725 0.55253256161165365 1.425000000001911 2 0.5749999999984764 1.2345896428056129 2 0.84641423559720264 1.020652173914391 2 0.4078710937494115 0.92204894738342102 1.545944433704725 0.55253256161165365 1.367905405405516 1.367905405405516 0.63209459459450335 1.425000000001911 2 0.5749999999984764 1.2345896428056129 2 0.84641423559720264 1.367905405405516 1.367905405405516 0.63209459459450335 1.425000000001911 2 0.5749999999984764 1.2345896428056129 2 0.84641423559720264 1.532347752213032 1.4746298915713509 1.076108883276101 0.92204894738342102 1.545944433704725 0.55253256161165365 1.367905405405516 1.367905405405516 0.63209459459450335 1.425000000001911 2 0.5749999999984764 1.3863248792284211 2 0.25937977430496501 1.425000000001911 2 0.5749999999984764 1.2345896428056129 2 0.84641423559720264 1.532347752213032 1.4746298915713509 1.076108883276101 1.5921289062505879 2 1.0206521739114489 0.92204894738342102 1.545944433704725 0.55253256161165365 1.000000000000635 2 0.99999999999835598 1.2345896428056129 2 0.84641423559720264 0.86620738987133672 1.5000000000001401 1.0337672479303861 0.84920286521341182 2 0.76599646645041963 0.92204894738342102 1.545944433704725 0.55253256161165365 1.000000000000635 2 0.99999999999835598 1.2345896428056129 2 0.84641423559720264 0.84920286521341182 2 0.76599646645041963 0.92204894738342102 1.545944433704725 0.55253256161165365 1.2345896428056129 2 0.84641423559720264 1.020652173914391 2 0.4078710937494115 1.425000000001621 1.425000000001621 0 1.367905405405516 1.367905405405516 0.63209459459450335 1.383345565053743 1.737640911520447 0 1.671075651349931 1.671075651349931 0 1.367905405405516 1.367905405405516 0.63209459459450335 1.425000000001911 2 0.5749999999984764 1.3863248792284211 2 0.25937977430496501 1.685972222223028 2 0.31402777777693691 0.92204894738342102 1.545944433704725 0.55253256161165365 1.020652173914391 2 0.4078710937494115 1.383345565053743 1.737640911520447 0 1.3863248792284211 2 0.25937977430496501 0.92204894738342102 1.545944433704725 0.55253256161165365 1.367905405405516 1.367905405405516 0.63209459459450335 1.0206521739143919 1.592128906250684 0 1.383345565053743 1.737640911520447 0 1.425000000001621 1.425000000001621 0 1.367905405405516 1.367905405405516 0.63209459459450335 1.0206521739143919 1.592128906250684 0 1.383345565053743 1.737640911520447 0 0.92204894738342102 1.545944433704725 0.55253256161165365 1.425000000001911 2 0.5749999999984764 1.020652173914391 2 0.4078710937494115 1.3863248792284211 2 0.25937977430496501 0.92204894738342102 1.545944433704725 0.55253256161165365 1.020652173914391 2 0.4078710937494115 1.0206521739143919 1.592128906250684 0 1.383345565053743 1.737640911520447 0 0.92204894738342102 1.545944433704725 0.55253256161165365 1.367905405405516 1.367905405405516 0.63209459459450335 1.383345565053743 1.737640911520447 0 1.3863248792284211 2 0.25937977430496501 1.367905405405516 1.367905405405516 0.63209459459450335 1.383345565053743 1.737640911520447 0 1.3863248792284211 2 0.25937977430496501 1.671075651349931 1.671075651349931 0 0.80000000000332872 2 0 1.020652173914391 2 0.4078710937494115 1.200000000002774 2 0 1.0206521739143919 1.592128906250684 0 1.020652173914391 2 0.4078710937494115 1.200000000002774 2 0 1.0206521739143919 1.592128906250684 0 1.383345565053743 1.737640911520447 0 1.020652173914391 2 0.4078710937494115 1.200000000002774 2 0 1.383345565053743 1.737640911520447 0 1.3863248792284211 2 0.25937977430496501 1.200000000002774 2 0 1.383345565053743 1.737640911520447 0 1.3863248792284211 2 0.25937977430496501 1.6000000000000001 2 0 1.367905405405516 1.367905405405516 0.63209459459450335 1.685972222223028 2 0.31402777777693691 2 1.685972222223028 0.31402777777693691 1.740620225695106 2 0.62193599033678559 1.367905405405516 1.367905405405516 0.63209459459450335 1.671075651349931 1.671075651349931 0 2 1.685972222223028 0.31402777777693691 2 1.3863248792284211 0.25937977430496489 1.367905405405516 1.367905405405516 0.63209459459450335 1.685972222223028 2 0.31402777777693691 1.671075651349931 1.671075651349931 0 2 1.685972222223028 0.31402777777693691 1.367905405405516 1.367905405405516 0.63209459459450335 1.3863248792284211 2 0.25937977430496501 1.685972222223028 2 0.31402777777693691 1.671075651349931 1.671075651349931 0 1.383345565053743 1.737640911520447 0 1.3863248792284211 2 0.25937977430496501 1.6000000000000001 2 0 1.671075651349931 1.671075651349931 0 1.3863248792284211 2 0.25937977430496501 1.685972222223028 2 0.31402777777693691 1.6000000000000001 2 0 1.671075651349931 1.671075651349931 0 1.685972222223028 2 0.31402777777693691 1.6000000000000001 2 0 1.671075651349931 1.671075651349931 0 2 2 0 1.671075651349931 1.671075651349931 0 2 1.6000000000000001 0 2 1.3863248792284211 0.25937977430496489 1.737640911520401 1.3750846954886311 0 1.671075651349931 1.671075651349931 0 2 1.685972222223028 0.31402777777693691 2 1.6000000000000001 0 2 2 0 1.671075651349931 1.671075651349931 0 2 1.685972222223028 0.31402777777693691 2 1.6000000000000001 0 2 1.3863248792284211 0.25937977430496489 1.685972222223028 2 0.31402777777693691 1.671075651349931 1.671075651349931 0 2 1.685972222223028 0.31402777777693691 2 2 0 2 1.685972222223028 0.31402777777693691 2 2 0.39999999999911567 1.740620225695106 2 0.62193599033678559 2 1.740620225695106 0.62193599033678559 1.685972222223028 2 0.31402777777693691 2 1.685972222223028 0.31402777777693691 2 2 0 2 2 0.39999999999911567 1.685972222223028 2 0.31402777777693691 2 1.685972222223028 0.31402777777693691 2 2 0.39999999999911567 1.740620225695106 2 0.62193599033678559 1.425000000001911 2 0.5749999999984764 1.740620225695106 2 0.62193599033678559 1.532347752213032 1.4746298915713509 1.076108883276101 1.5921289062505879 2 1.0206521739114489 2 2 0.39999999999911567 1.740620225695106 2 0.62193599033678559 2 2 0.7999999999979498 2 1.740620225695106 0.62193599033678559 1.367905405405516 1.367905405405516 0.63209459459450335 1.740620225695106 2 0.62193599033678559 2 1.740620225695106 0.62193599033678559 1.532347752213032 1.4746298915713509 1.076108883276101 1.367905405405516 1.367905405405516 0.63209459459450335 2 1.740620225695106 0.62193599033678559 2 1.425000000001911 0.57499999999847629 1.532347752213032 1.4746298915713509 1.076108883276101 1.740620225695106 2 0.62193599033678559 2 1.740620225695106 0.62193599033678559 1.532347752213032 1.4746298915713509 1.076108883276101 2 1.592128906250589 1.0206521739114489 2 1.740620225695106 0.62193599033678559 2 1.425000000001911 0.57499999999847629 1.532347752213032 1.4746298915713509 1.076108883276101 2 1.592128906250589 1.0206521739114489 1.367905405405516 1.367905405405516 0.63209459459450335 1.425000000001911 2 0.5749999999984764 1.740620225695106 2 0.62193599033678559 1.532347752213032 1.4746298915713509 1.076108883276101 1.367905405405516 1.367905405405516 0.63209459459450335 1.425000000001911 2 0.5749999999984764 1.685972222223028 2 0.31402777777693691 1.740620225695106 2 0.62193599033678559 1.740620225695106 2 0.62193599033678559 1.532347752213032 1.4746298915713509 1.076108883276101 2 1.592128906250589 1.0206521739114489 1.5921289062505879 2 1.0206521739114489 1.367905405405516 1.367905405405516 0.63209459459450335 2 1.685972222223028 0.31402777777693691 2 1.740620225695106 0.62193599033678559 2 1.425000000001911 0.57499999999847629 1.367905405405516 1.367905405405516 0.63209459459450335 2 1.685972222223028 0.31402777777693691 1.740620225695106 2 0.62193599033678559 2 1.740620225695106 0.62193599033678559 1.740620225695106 2 0.62193599033678559 2 2 0.7999999999979498 2 1.592128906250589 1.0206521739114489 1.5921289062505879 2 1.0206521739114489 1.740620225695106 2 0.62193599033678559 2 2 0.7999999999979498 2 1.740620225695106 0.62193599033678559 2 1.592128906250589 1.0206521739114489 1.367905405405516 1.367905405405516 0.63209459459450335 2 1.2345896428056129 0.84641423559720252 1.5147705253128161 0.91852444755677043 0.69631892236242632 1.532347752213032 1.4746298915713509 1.076108883276101 2 1.2345896428056129 0.84641423559720252 1.5147705253128161 0.91852444755677043 0.69631892236242632 1.500000000000274 0.99883321436442229 1.16639307242336 1.532347752213032 1.4746298915713509 1.076108883276101 1.367905405405516 1.367905405405516 0.63209459459450335 2 1.425000000001911 0.57499999999847629 2 1.2345896428056129 0.84641423559720252 1.532347752213032 1.4746298915713509 1.076108883276101 2 1.425000000001911 0.57499999999847629 2 1.2345896428056129 0.84641423559720252 2 1.020652173914391 0.40787109374941138 1.5147705253128161 0.91852444755677043 0.69631892236242632 2 1.425000000001911 0.57499999999847629 2 1.2345896428056129 0.84641423559720252 1.532347752213032 1.4746298915713509 1.076108883276101 2 1.592128906250589 1.0206521739114489 1.367905405405516 1.367905405405516 0.63209459459450335 2 1.425000000001911 0.57499999999847629 2 1.2345896428056129 0.84641423559720252 1.5147705253128161 0.91852444755677043 0.69631892236242632 1.367905405405516 1.367905405405516 0.63209459459450335 2 1.425000000001911 0.57499999999847629 2 1.020652173914391 0.40787109374941138 1.5147705253128161 0.91852444755677043 0.69631892236242632 2 1.000000000000635 0.99999999999835576 2 1.2345896428056129 0.84641423559720252 1.5147705253128161 0.91852444755677043 0.69631892236242632 2 0.84920286521341182 0.76599646645041952 2 1.000000000000635 0.99999999999835576 2 1.2345896428056129 0.84641423559720252 1.5147705253128161 0.91852444755677043 0.69631892236242632 1.500000000000274 0.99883321436442229 1.16639307242336 2 1.2345896428056129 0.84641423559720252 2 1.020652173914391 0.40787109374941138 1.5147705253128161 0.91852444755677043 0.69631892236242632 2 0.84920286521341182 0.76599646645041952 1.367905405405516 1.367905405405516 0.63209459459450335 2 1.020652173914391 0.40787109374941138 2 1.3863248792284211 0.25937977430496489 1.737640911520401 1.3750846954886311 0 1.367905405405516 1.367905405405516 0.63209459459450335 2 1.425000000001911 0.57499999999847629 2 1.020652173914391 0.40787109374941138 2 1.3863248792284211 0.25937977430496489 1.425000000001621 1.425000000001621 0 1.367905405405516 1.367905405405516 0.63209459459450335 1.737640911520401 1.3750846954886311 0 1.592128906250452 0.97934782608882909 0 1.425000000001621 1.425000000001621 0 1.367905405405516 1.367905405405516 0.63209459459450335 1.671075651349931 1.671075651349931 0 1.737640911520401 1.3750846954886311 0 1.367905405405516 1.367905405405516 0.63209459459450335 2 1.685972222223028 0.31402777777693691 2 1.425000000001911 0.57499999999847629 2 1.3863248792284211 0.25937977430496489 1.367905405405516 1.367905405405516 0.63209459459450335 1.671075651349931 1.671075651349931 0 2 1.3863248792284211 0.25937977430496489 1.737640911520401 1.3750846954886311 0 1.367905405405516 1.367905405405516 0.63209459459450335 2 1.020652173914391 0.40787109374941138 1.592128906250452 0.97934782608882909 0 1.5147705253128161 0.91852444755677043 0.69631892236242632 1.367905405405516 1.367905405405516 0.63209459459450335 2 1.020652173914391 0.40787109374941138 1.737640911520401 1.3750846954886311 0 1.592128906250452 0.97934782608882909 0 2 1.6000000000000001 0 2 1.3863248792284211 0.25937977430496489 1.737640911520401 1.3750846954886311 0 2 1.200000000002774 0 2 1.020652173914391 0.40787109374941138 2 1.200000000002774 0 2 0.80000000000332872 0 1.592128906250452 0.97934782608882909 0 2 1.020652173914391 0.40787109374941138 2 1.3863248792284211 0.25937977430496489 1.737640911520401 1.3750846954886311 0 2 1.200000000002774 0 2 1.020652173914391 0.40787109374941138 1.737640911520401 1.3750846954886311 0 2 1.200000000002774 0 1.592128906250452 0.97934782608882909 0 2 1.020652173914391 0.40787109374941138 1.592128906250452 0.97934782608882909 0 1.5919037892070651 0.60245787335453693 0.40912424902564543 1.5147705253128161 0.91852444755677043 0.69631892236242632 2 1.020652173914391 0.40787109374941138 2 0.80000000000332872 0 1.592128906250452 0.97934782608882909 0 2 0.62596376811713206 0.26340755208327649 2 0.80000000000332872 0 1.592128906250452 0.97934782608882909 0 2 0.62596376811713206 0.26340755208327649 1.7349990699406379 0.62412558229936677 0 2 1.020652173914391 0.40787109374941138 1.592128906250452 0.97934782608882909 0 2 0.62596376811713206 0.26340755208327649 1.5919037892070651 0.60245787335453693 0.40912424902564543 2 1.020652173914391 0.40787109374941138 2 0.62596376811713206 0.26340755208327649 1.5919037892070651 0.60245787335453693 0.40912424902564543 2 0.57499999999943696 0.57500000000055196 2 0.62596376811713206 0.26340755208327649 1.5919037892070651 0.60245787335453693 0.40912424902564543 2 0.3341666666668387 0.3341666666664192 2 0.57499999999943696 0.57500000000055196 2 0.62596376811713206 0.26340755208327649 1.5919037892070651 0.60245787335453693 0.40912424902564543 1.7349990699406379 0.62412558229936677 0 2 0.3341666666668387 0.3341666666664192 1.592128906250452 0.97934782608882909 0 1.5919037892070651 0.60245787335453693 0.40912424902564543 1.7349990699406379 0.62412558229936677 0 1.424999999999718 0.57500000000001494 0 1.592128906250452 0.97934782608882909 0 2 0.62596376811713206 0.26340755208327649 1.5919037892070651 0.60245787335453693 0.40912424902564543 1.7349990699406379 0.62412558229936677 0 1.5919037892070651 0.60245787335453693 0.40912424902564543 1.7349990699406379 0.62412558229936677 0 1.665833333333407 0.33416666666669298 0 1.424999999999718 0.57500000000001494 0 2 0.80000000000332872 0 2 0.62596376811713206 0.26340755208327649 1.7349990699406379 0.62412558229936677 0 2 0.40000000000166441 0 1.5919037892070651 0.60245787335453693 0.40912424902564543 2 0.3341666666668387 0.3341666666664192 1.665833333333216 0 0.33416666666646572 2 0.26500093005947722 0.62412558229727921 1.5919037892070651 0.60245787335453693 0.40912424902564543 1.665833333333216 0 0.33416666666646572 1.665833333333407 0.33416666666669298 0 1.3758744177011391 0 0.26500093005953979 2 0.40000000000166441 0 2 0.3341666666668387 0.3341666666664192 2 0 0 1.665833333333407 0.33416666666669298 0 1.5919037892070651 0.60245787335453693 0.40912424902564543 1.665833333333216 0 0.33416666666646572 1.425000000000477 0 0.57500000000037066 1.7365924479167549 0 0.62596376811523924 1.5919037892070651 0.60245787335453693 0.40912424902564543 1.665833333333407 0.33416666666669298 0 1.374036231883393 0.26340755208345812 0 1.3758744177011391 0 0.26500093005953979 1.7349990699406379 0.62412558229936677 0 2 0.40000000000166441 0 2 0.3341666666668387 0.3341666666664192 1.665833333333407 0.33416666666669298 0 1.5919037892070651 0.60245787335453693 0.40912424902564543 2 0.3341666666668387 0.3341666666664192 1.665833333333216 0 0.33416666666646572 1.665833333333407 0.33416666666669298 0 1.5919037892070651 0.60245787335453693 0.40912424902564543 1.665833333333216 0 0.33416666666646572 1.3758744177011391 0 0.26500093005953979 1.425000000000477 0 0.57500000000037066 1.5919037892070651 0.60245787335453693 0.40912424902564543 1.665833333333216 0 0.33416666666646572 1.7365924479167549 0 0.62596376811523924 2 0.26500093005947722 0.62412558229727921 2 0.62596376811713206 0.26340755208327649 1.7349990699406379 0.62412558229936677 0 2 0.40000000000166441 0 2 0.3341666666668387 0.3341666666664192 1.5919037892070651 0.60245787335453693 0.40912424902564543 2 0.3341666666668387 0.3341666666664192 2 0.26500093005947722 0.62412558229727921 2 0.57499999999943696 0.57500000000055196 2 0 0.39999999999911567 1.665833333333216 0 0.33416666666646572 1.7365924479167549 0 0.62596376811523924 2 0.26500093005947722 0.62412558229727921 2 0.3341666666668387 0.3341666666664192 2 0 0.39999999999911567 2 0 0 1.665833333333216 0 0.33416666666646572 2 0.3341666666668387 0.3341666666664192 2 0 0.39999999999911567 1.665833333333216 0 0.33416666666646572 2 0.26500093005947722 0.62412558229727921 2 0.3341666666668387 0.3341666666664192 2 0 0 1.665833333333216 0 0.33416666666646572 1.665833333333407 0.33416666666669298 0 1.5999999999989469 0 0 1.665833333333407 0.33416666666669298 0 1.374036231883393 0.26340755208345812 0 1.3758744177011391 0 0.26500093005953979 2 0 0 1.5999999999989469 0 0 1.665833333333216 0 0.33416666666646572 1.665833333333407 0.33416666666669298 0 1.5999999999989469 0 0 1.665833333333216 0 0.33416666666646572 1.665833333333407 0.33416666666669298 0 1.3758744177011391 0 0.26500093005953979 1.5919037892070651 0.60245787335453693 0.40912424902564543 1.665833333333407 0.33416666666669298 0 1.374036231883393 0.26340755208345812 0 1.424999999999718 0.57500000000001494 0 1.5919037892070651 0.60245787335453693 0.40912424902564543 1.7349990699406379 0.62412558229936677 0 2 0.3341666666668387 0.3341666666664192 1.665833333333407 0.33416666666669298 0 1.5919037892070651 0.60245787335453693 0.40912424902564543 1.374036231883393 0.26340755208345812 0 1.3758744177011391 0 0.26500093005953979 1.19811642196055 0.57789440443542173 0.58983547034755146 1.374036231883393 0.26340755208345812 0 1.3758744177011391 0 0.26500093005953979 1.0206521739124059 0 0.40787109374997071 1.19811642196055 0.57789440443542173 0.58983547034755146 0.97934782608699855 0.40787109375058261 0 1.374036231883393 0.26340755208345812 0 1.424999999999718 0.57500000000001494 0 1.19811642196055 0.57789440443542173 0.58983547034755146 1.5919037892070651 0.60245787335453693 0.40912424902564543 1.3758744177011391 0 0.26500093005953979 1.19811642196055 0.57789440443542173 0.58983547034755146 1.425000000000477 0 0.57500000000037066 0.97934782608699855 0.40787109375058261 0 1.374036231883393 0.26340755208345812 0 1.0206521739124059 0 0.40787109374997071 1.19811642196055 0.57789440443542173 0.58983547034755146 1.3758744177011391 0 0.26500093005953979 1.0206521739124059 0 0.40787109374997071 1.19811642196055 0.57789440443542173 0.58983547034755146 1.425000000000477 0 0.57500000000037066 1.5999999999989469 0 0 1.374036231883393 0.26340755208345812 0 1.3758744177011391 0 0.26500093005953979 1.1999999999978941 0 0 0.97934782608699855 0.40787109375058261 0 1.374036231883393 0.26340755208345812 0 1.1999999999978941 0 0 1.0206521739124059 0 0.40787109374997071 1.374036231883393 0.26340755208345812 0 1.3758744177011391 0 0.26500093005953979 1.1999999999978941 0 0 1.0206521739124059 0 0.40787109374997071 1.5919037892070651 0.60245787335453693 0.40912424902564543 1.151058336609301 0.76640924832138713 0 1.424999999999718 0.57500000000001494 0 1.19811642196055 0.57789440443542173 0.58983547034755146 1.2339059149979039 1.1508473222113209 0 1.592128906250452 0.97934782608882909 0 1.5919037892070651 0.60245787335453693 0.40912424902564543 1.5147705253128161 0.91852444755677043 0.69631892236242632 1.0362039003897969 1.032400726930619 0.49025282767413908 1.5919037892070651 0.60245787335453693 0.40912424902564543 1.151058336609301 0.76640924832138713 0 1.19811642196055 0.57789440443542173 0.58983547034755146 1.2339059149979039 1.1508473222113209 0 1.0362039003897969 1.032400726930619 0.49025282767413908 1.5919037892070651 0.60245787335453693 0.40912424902564543 1.151058336609301 0.76640924832138713 0 1.2339059149979039 1.1508473222113209 0 1.0362039003897969 1.032400726930619 0.49025282767413908 1.5919037892070651 0.60245787335453693 0.40912424902564543 1.5147705253128161 0.91852444755677043 0.69631892236242632 0.97934782608699855 0.40787109375058261 0 1.151058336609301 0.76640924832138713 0 1.424999999999718 0.57500000000001494 0 1.19811642196055 0.57789440443542173 0.58983547034755146 1.2339059149979039 1.1508473222113209 0 1.592128906250452 0.97934782608882909 0 1.5919037892070651 0.60245787335453693 0.40912424902564543 1.151058336609301 0.76640924832138713 0 1.5919037892070651 0.60245787335453693 0.40912424902564543 1.374036231883393 0.26340755208345812 0 1.424999999999718 0.57500000000001494 0 1.19811642196055 0.57789440443542173 0.58983547034755146 0.97934782608699855 0.40787109375058261 0 0.77789883252811276 0.39570480562063071 0.39543357482263919 1.151058336609301 0.76640924832138713 0 1.19811642196055 0.57789440443542173 0.58983547034755146 0.77789883252811276 0.39570480562063071 0.39543357482263919 1.0362039003897969 1.032400726930619 0.49025282767413908 1.151058336609301 0.76640924832138713 0 1.19811642196055 0.57789440443542173 0.58983547034755146 1.2339059149979039 1.1508473222113209 0 1.0000000000013569 1.0000000000020031 0 1.0362039003897969 1.032400726930619 0.49025282767413908 1.151058336609301 0.76640924832138713 0 1.592128906250452 0.97934782608882909 0 1.5919037892070651 0.60245787335453693 0.40912424902564543 1.151058336609301 0.76640924832138713 0 1.424999999999718 0.57500000000001494 0 1 0.99999999999999978 0.99999999999999978 1.19811642196055 0.57789440443542173 0.58983547034755146 1.5137040598352169 0.53344955263790295 0.97801656337898046 0.98528458949709452 0.48395451161029718 1.014715410503322 1.0362039003897969 1.032400726930619 0.49025282767413908 1.5919037892070651 0.60245787335453693 0.40912424902564543 1.19811642196055 0.57789440443542173 0.58983547034755146 1.5147705253128161 0.91852444755677043 0.69631892236242632 1 0.99999999999999978 0.99999999999999978 1.19811642196055 0.57789440443542173 0.58983547034755146 1.5137040598352169 0.53344955263790295 0.97801656337898046 1.5147705253128161 0.91852444755677043 0.69631892236242632 1 0.99999999999999978 0.99999999999999978 1.5137040598352169 0.53344955263790295 0.97801656337898046 1.5147705253128161 0.91852444755677043 0.69631892236242632 1.500000000000274 0.99883321436442229 1.16639307242336 1.5919037892070651 0.60245787335453693 0.40912424902564543 1.19811642196055 0.57789440443542173 0.58983547034755146 1.5137040598352169 0.53344955263790295 0.97801656337898046 1.5147705253128161 0.91852444755677043 0.69631892236242632 1.0362039003897969 1.032400726930619 0.49025282767413908 1 0.99999999999999978 0.99999999999999978 1.19811642196055 0.57789440443542173 0.58983547034755146 1.5147705253128161 0.91852444755677043 0.69631892236242632 1.0206521739124059 0 0.40787109374997071 1.19811642196055 0.57789440443542173 0.58983547034755146 1.425000000000477 0 0.57500000000037066 1.2335907516799069 0 0.84894166339084287 1.19811642196055 0.57789440443542173 0.58983547034755146 1.425000000000477 0 0.57500000000037066 1.2335907516799069 0 0.84894166339084287 1.5137040598352169 0.53344955263790295 0.97801656337898046 1.19811642196055 0.57789440443542173 0.58983547034755146 1.2335907516799069 0 0.84894166339084287 1.5137040598352169 0.53344955263790295 0.97801656337898046 0.98528458949709452 0.48395451161029718 1.014715410503322 1.5919037892070651 0.60245787335453693 0.40912424902564543 1.19811642196055 0.57789440443542173 0.58983547034755146 1.425000000000477 0 0.57500000000037066 1.5137040598352169 0.53344955263790295 0.97801656337898046 0.849152677791018 0 0.76609408500333809 1.19811642196055 0.57789440443542173 0.58983547034755146 1.2335907516799069 0 0.84894166339084287 0.98528458949709452 0.48395451161029718 1.014715410503322 0.849152677791018 0 0.76609408500333809 1.0206521739124059 0 0.40787109374997071 1.19811642196055 0.57789440443542173 0.58983547034755146 1.2335907516799069 0 0.84894166339084287 1.425000000000477 0 0.57500000000037066 1.2335907516799069 0 0.84894166339084287 1.5137040598352169 0.53344955263790295 0.97801656337898046 1.592128906250083 0 1.020652173912294 0.849152677791018 0 0.76609408500333809 1.2335907516799069 0 0.84894166339084287 1.0000000000002141 0 0.99999999999992895 0.98528458949709452 0.48395451161029718 1.014715410503322 1.425000000000477 0 0.57500000000037066 1.7365924479167549 0 0.62596376811523924 1.5137040598352169 0.53344955263790295 0.97801656337898046 1.592128906250083 0 1.020652173912294 1.5919037892070651 0.60245787335453693 0.40912424902564543 1.425000000000477 0 0.57500000000037066 1.7365924479167549 0 0.62596376811523924 1.5137040598352169 0.53344955263790295 0.97801656337898046 1.5919037892070651 0.60245787335453693 0.40912424902564543 2 0.26500093005947722 0.62412558229727921 1.5137040598352169 0.53344955263790295 0.97801656337898046 2 0.57499999999943696 0.57500000000055196 1.5919037892070651 0.60245787335453693 0.40912424902564543 1.7365924479167549 0 0.62596376811523924 2 0.26500093005947722 0.62412558229727921 1.5137040598352169 0.53344955263790295 0.97801656337898046 1.7365924479167549 0 0.62596376811523924 2 0.26500093005947722 0.62412558229727921 2 0.40787109375045588 0.9793478260856453 1.5137040598352169 0.53344955263790295 0.97801656337898046 1.7365924479167549 0 0.62596376811523924 2 0.40787109375045588 0.9793478260856453 1.5137040598352169 0.53344955263790295 0.97801656337898046 1.592128906250083 0 1.020652173912294 2 0 0.7999999999979498 2 0.40787109375045588 0.9793478260856453 2 0 1.1999999999978941 1.592128906250083 0 1.020652173912294 1.7365924479167549 0 0.62596376811523924 2 0 0.7999999999979498 2 0.26500093005947722 0.62412558229727921 2 0.40787109375045588 0.9793478260856453 1.7365924479167549 0 0.62596376811523924 2 0 0.7999999999979498 2 0.40787109375045588 0.9793478260856453 1.592128906250083 0 1.020652173912294 2 0 0.39999999999911567 1.7365924479167549 0 0.62596376811523924 2 0 0.7999999999979498 2 0.26500093005947722 0.62412558229727921 2 0.26500093005947722 0.62412558229727921 2 0.40787109375045588 0.9793478260856453 1.5137040598352169 0.53344955263790295 0.97801656337898046 2 0.57499999999943696 0.57500000000055196 1.5919037892070651 0.60245787335453693 0.40912424902564543 1.5137040598352169 0.53344955263790295 0.97801656337898046 2 0.57499999999943696 0.57500000000055196 2 0.84920286521341182 0.76599646645041952 2 0.40787109375045588 0.9793478260856453 1.5137040598352169 0.53344955263790295 0.97801656337898046 2 0.57499999999943696 0.57500000000055196 2 0.84920286521341182 0.76599646645041952 2 0.40787109375045588 0.9793478260856453 1.5137040598352169 0.53344955263790295 0.97801656337898046 2 0.84920286521341182 0.76599646645041952 2 0.73668669749101645 1.139311376982779 1.5919037892070651 0.60245787335453693 0.40912424902564543 1.5137040598352169 0.53344955263790295 0.97801656337898046 1.5147705253128161 0.91852444755677043 0.69631892236242632 2 0.84920286521341182 0.76599646645041952 2 1.020652173914391 0.40787109374941138 1.5919037892070651 0.60245787335453693 0.40912424902564543 1.5147705253128161 0.91852444755677043 0.69631892236242632 2 0.84920286521341182 0.76599646645041952 2 1.020652173914391 0.40787109374941138 1.5919037892070651 0.60245787335453693 0.40912424902564543 2 0.57499999999943696 0.57500000000055196 2 0.84920286521341182 0.76599646645041952 2 1.000000000000635 0.99999999999835576 1.5137040598352169 0.53344955263790295 0.97801656337898046 1.5147705253128161 0.91852444755677043 0.69631892236242632 1.500000000000274 0.99883321436442229 1.16639307242336 2 1.000000000000635 0.99999999999835576 1.5137040598352169 0.53344955263790295 0.97801656337898046 1.5147705253128161 0.91852444755677043 0.69631892236242632 2 0.84920286521341182 0.76599646645041952 2 1.000000000000635 0.99999999999835576 1.5137040598352169 0.53344955263790295 0.97801656337898046 2 0.84920286521341182 0.76599646645041952 2 0.73668669749101645 1.139311376982779 2 1.000000000000635 0.99999999999835576 1.5137040598352169 0.53344955263790295 0.97801656337898046 1.500000000000274 0.99883321436442229 1.16639307242336 2 0.73668669749101645 1.139311376982779 2 1.000000000000635 0.99999999999835576 1.500000000000274 0.99883321436442229 1.16639307242336 2 0.73668669749101645 1.139311376982779 2 1.1510583366092999 1.2335907516785649 1.500000000000274 0.99883321436442229 1.16639307242336 1.6049090527780649 0.68972037691419241 1.610520945894512 2 0.97934782608697624 1.5921289062492749 1.416074976583422 1.0640336752305579 1.5993145461844129 1.500000000000274 0.99883321436442229 1.16639307242336 2 0.73668669749101645 1.139311376982779 1.592055221591679 0.37998381655983821 1.346767458941071 1.6049090527780649 0.68972037691419241 1.610520945894512 1.5137040598352169 0.53344955263790295 0.97801656337898046 1.500000000000274 0.99883321436442229 1.16639307242336 2 0.73668669749101645 1.139311376982779 1.592055221591679 0.37998381655983821 1.346767458941071 1.500000000000274 0.99883321436442229 1.16639307242336 2 0.73668669749101645 1.139311376982779 2 0.97934782608697624 1.5921289062492749 2 1.1510583366092999 1.2335907516785649 1.500000000000274 0.99883321436442229 1.16639307242336 2 0.73668669749101645 1.139311376982779 1.6049090527780649 0.68972037691419241 1.610520945894512 2 0.97934782608697624 1.5921289062492749 2 0.57500000000210227 1.4249999999987459 2 0.73668669749101645 1.139311376982779 1.592055221591679 0.37998381655983821 1.346767458941071 1.6049090527780649 0.68972037691419241 1.610520945894512 2 0.57500000000210227 1.4249999999987459 2 0.73668669749101645 1.139311376982779 1.6049090527780649 0.68972037691419241 1.610520945894512 2 0.97934782608697624 1.5921289062492749 2 0.40787109375045588 0.9793478260856453 1.5137040598352169 0.53344955263790295 0.97801656337898046 2 0.73668669749101645 1.139311376982779 1.592055221591679 0.37998381655983821 1.346767458941071 2 0.40787109375045588 0.9793478260856453 2 0.57500000000210227 1.4249999999987459 2 0.73668669749101645 1.139311376982779 1.592055221591679 0.37998381655983821 1.346767458941071 2 0.40787109375045588 0.9793478260856453 1.5137040598352169 0.53344955263790295 0.97801656337898046 1.592128906250083 0 1.020652173912294 1.592055221591679 0.37998381655983821 1.346767458941071 2 0.40787109375045588 0.9793478260856453 2 0.26340755208402722 1.3740362318826671 2 0 1.1999999999978941 1.592055221591679 0.37998381655983821 1.346767458941071 2 0.57500000000210227 1.4249999999987459 2 0.26340755208402722 1.3740362318826671 1.592055221591679 0.37998381655983821 1.346767458941071 2 0.33416666666757772 1.665833333332104 2 0.40787109375045588 0.9793478260856453 2 0.57500000000210227 1.4249999999987459 2 0.26340755208402722 1.3740362318826671 1.592055221591679 0.37998381655983821 1.346767458941071 2 0.26340755208402722 1.3740362318826671 1.734999069940508 0 1.3758744177011299 1.592055221591679 0.37998381655983821 1.346767458941071 2 0.33416666666757772 1.665833333332104 2 0.26340755208402722 1.3740362318826671 2 0 1.1999999999978941 1.734999069940508 0 1.3758744177011299 2 0 1.5999999999989469 2 0.26340755208402722 1.3740362318826671 2 0 1.1999999999978941 1.734999069940508 0 1.3758744177011299 1.592055221591679 0.37998381655983821 1.346767458941071 2 0.40787109375045588 0.9793478260856453 2 0 1.1999999999978941 1.592128906250083 0 1.020652173912294 1.592055221591679 0.37998381655983821 1.346767458941071 2 0 1.1999999999978941 1.592128906250083 0 1.020652173912294 1.734999069940508 0 1.3758744177011299 1.592055221591679 0.37998381655983821 1.346767458941071 1.592128906250083 0 1.020652173912294 1.734999069940508 0 1.3758744177011299 1.592055221591679 0.37998381655983821 1.346767458941071 1.4249999999997249 0 1.425000000000185 1.734999069940508 0 1.3758744177011299 1.592055221591679 0.37998381655983821 1.346767458941071 1.4249999999997249 0 1.425000000000185 1.6658333333334381 0 1.665833333333264 1.592055221591679 0.37998381655983821 1.346767458941071 1.4249999999997249 0 1.425000000000185 1.2526822839324241 0.59772980398008735 1.402270196020621 1.3740362318847941 0 1.736592447916669 1.5137040598352169 0.53344955263790295 0.97801656337898046 1.592055221591679 0.37998381655983821 1.346767458941071 1.1393113769850489 0 1.263313302510394 1.2526822839324241 0.59772980398008735 1.402270196020621 1.5137040598352169 0.53344955263790295 0.97801656337898046 1.592128906250083 0 1.020652173912294 1.592055221591679 0.37998381655983821 1.346767458941071 1.1393113769850489 0 1.263313302510394 1.4249999999997249 0 1.425000000000185 1.1393113769850489 0 1.263313302510394 1.2526822839324241 0.59772980398008735 1.402270196020621 0.97934782608803661 0 1.5921289062498969 1.2335907516799069 0 0.84894166339084287 1.5137040598352169 0.53344955263790295 0.97801656337898046 1.1393113769850489 0 1.263313302510394 0.98528458949709452 0.48395451161029718 1.014715410503322 1.5137040598352169 0.53344955263790295 0.97801656337898046 1.1393113769850489 0 1.263313302510394 1.2526822839324241 0.59772980398008735 1.402270196020621 0.98528458949709452 0.48395451161029718 1.014715410503322 1.592055221591679 0.37998381655983821 1.346767458941071 1.4249999999997249 0 1.425000000000185 1.1393113769850489 0 1.263313302510394 1.2526822839324241 0.59772980398008735 1.402270196020621 1.2335907516799069 0 0.84894166339084287 1.5137040598352169 0.53344955263790295 0.97801656337898046 1.592128906250083 0 1.020652173912294 1.1393113769850489 0 1.263313302510394 1.1393113769850489 0 1.263313302510394 1.2526822839324241 0.59772980398008735 1.402270196020621 0.98528458949709452 0.48395451161029718 1.014715410503322 0.97934782608803661 0 1.5921289062498969 1.592128906250083 0 1.020652173912294 1.592055221591679 0.37998381655983821 1.346767458941071 1.4249999999997249 0 1.425000000000185 1.1393113769850489 0 1.263313302510394 1.2335907516799069 0 0.84894166339084287 1.0000000000002141 0 0.99999999999992895 1.1393113769850489 0 1.263313302510394 0.98528458949709452 0.48395451161029718 1.014715410503322 1.500000000000274 0.99883321436442229 1.16639307242336 1.2526822839324241 0.59772980398008735 1.402270196020621 1.416074976583422 1.0640336752305579 1.5993145461844129 0.98528458949676634 0.98528458949702458 1.516045488389935 1.500000000000274 0.99883321436442229 1.16639307242336 1.592055221591679 0.37998381655983821 1.346767458941071 1.2526822839324241 0.59772980398008735 1.402270196020621 1.6049090527780649 0.68972037691419241 1.610520945894512 1.5137040598352169 0.53344955263790295 0.97801656337898046 1.500000000000274 0.99883321436442229 1.16639307242336 1.592055221591679 0.37998381655983821 1.346767458941071 1.2526822839324241 0.59772980398008735 1.402270196020621 1 0.99999999999999978 0.99999999999999978 1.500000000000274 0.99883321436442229 1.16639307242336 1.2526822839324241 0.59772980398008735 1.402270196020621 0.98528458949676634 0.98528458949702458 1.516045488389935 1 0.99999999999999978 0.99999999999999978 1.5137040598352169 0.53344955263790295 0.97801656337898046 1.500000000000274 0.99883321436442229 1.16639307242336 1.2526822839324241 0.59772980398008735 1.402270196020621 1 0.99999999999999978 0.99999999999999978 1.5137040598352169 0.53344955263790295 0.97801656337898046 1.2526822839324241 0.59772980398008735 1.402270196020621 0.98528458949709452 0.48395451161029718 1.014715410503322 1 0.99999999999999978 0.99999999999999978 1.2526822839324241 0.59772980398008735 1.402270196020621 0.98528458949676634 0.98528458949702458 1.516045488389935 0.98528458949709452 0.48395451161029718 1.014715410503322 1.500000000000274 0.99883321436442229 1.16639307242336 1.2526822839324241 0.59772980398008735 1.402270196020621 1.6049090527780649 0.68972037691419241 1.610520945894512 1.416074976583422 1.0640336752305579 1.5993145461844129 1.2526822839324241 0.59772980398008735 1.402270196020621 1.425000000001911 0.57499999999847629 2 1.3780640096633039 0.25937977430496151 2 1.6049090527780649 0.68972037691419241 1.610520945894512 1.2526822839324241 0.59772980398008735 1.402270196020621 1.425000000001911 0.57499999999847629 2 1.1535857644027949 0.76541035719405237 2 0.979347826088805 0.40787109374939401 2 1.2526822839324241 0.59772980398008735 1.402270196020621 1.1535857644027949 0.76541035719405237 2 1.6049090527780649 0.68972037691419241 1.610520945894512 1.416074976583422 1.0640336752305579 1.5993145461844129 1.2526822839324241 0.59772980398008735 1.402270196020621 1.1535857644027949 0.76541035719405237 2 1.416074976583422 1.0640336752305579 1.5993145461844129 0.98528458949676634 0.98528458949702458 1.516045488389935 1.2526822839324241 0.59772980398008735 1.402270196020621 1.1535857644027949 0.76541035719405237 2 0.98528458949676634 0.98528458949702458 1.516045488389935 0.979347826088805 0.40787109374939401 2 1.2526822839324241 0.59772980398008735 1.402270196020621 1.425000000001911 0.57499999999847629 2 1.1535857644027949 0.76541035719405237 2 1.6049090527780649 0.68972037691419241 1.610520945894512 1.425000000001911 0.57499999999847629 2 1.1535857644027949 0.76541035719405237 2 1.6049090527780649 0.68972037691419241 1.610520945894512 1.5921289062508031 0.97934782608568471 2 1.1535857644027949 0.76541035719405237 2 1.5921289062508031 0.97934782608568471 2 1.416074976583422 1.0640336752305579 1.5993145461844129 1.2340035335497621 1.1507971347859809 2 1.1535857644027949 0.76541035719405237 2 1.6049090527780649 0.68972037691419241 1.610520945894512 1.5921289062508031 0.97934782608568471 2 1.416074976583422 1.0640336752305579 1.5993145461844129 1.1535857644027949 0.76541035719405237 2 1.000000000001781 0.99999999999894518 2 1.416074976583422 1.0640336752305579 1.5993145461844129 0.98528458949676634 0.98528458949702458 1.516045488389935 1.1535857644027949 0.76541035719405237 2 1.000000000001781 0.99999999999894518 2 1.416074976583422 1.0640336752305579 1.5993145461844129 1.2340035335497621 1.1507971347859809 2 1.592055221591679 0.37998381655983821 1.346767458941071 1.2526822839324241 0.59772980398008735 1.402270196020621 1.3780640096633039 0.25937977430496151 2 1.6049090527780649 0.68972037691419241 1.610520945894512 1.592055221591679 0.37998381655983821 1.346767458941071 1.2526822839324241 0.59772980398008735 1.402270196020621 1.3740362318847941 0 1.736592447916669 1.3780640096633039 0.25937977430496151 2 1.4249999999997249 0 1.425000000000185 1.2526822839324241 0.59772980398008735 1.402270196020621 1.3740362318847941 0 1.736592447916669 0.97934782608803661 0 1.5921289062498969 1.2526822839324241 0.59772980398008735 1.402270196020621 1.425000000001911 0.57499999999847629 2 1.3780640096633039 0.25937977430496151 2 0.979347826088805 0.40787109374939401 2 1.2526822839324241 0.59772980398008735 1.402270196020621 1.3740362318847941 0 1.736592447916669 0.97934782608803661 0 1.5921289062498969 0.979347826088805 0.40787109374939401 2 1.2526822839324241 0.59772980398008735 1.402270196020621 1.3740362318847941 0 1.736592447916669 1.3780640096633039 0.25937977430496151 2 0.979347826088805 0.40787109374939401 2 1.200000000002774 0 2 1.3740362318847941 0 1.736592447916669 1.3780640096633039 0.25937977430496151 2 0.979347826088805 0.40787109374939401 2 1.200000000002774 0 2 1.3740362318847941 0 1.736592447916669 0.97934782608803661 0 1.5921289062498969 0.979347826088805 0.40787109374939401 2 1.200000000002774 0 2 1.3740362318847941 0 1.736592447916669 1.3780640096633039 0.25937977430496151 2 1.6000000000000001 0 2 1.592055221591679 0.37998381655983821 1.346767458941071 1.685972222223028 0.31402777777693702 2 1.6658333333334381 0 1.665833333333264 2 0.33416666666757772 1.665833333332104 1.592055221591679 0.37998381655983821 1.346767458941071 1.3780640096633039 0.25937977430496151 2 1.685972222223028 0.31402777777693702 2 1.6658333333334381 0 1.665833333333264 1.592055221591679 0.37998381655983821 1.346767458941071 1.685972222223028 0.31402777777693702 2 2 0.33416666666757772 1.665833333332104 1.6049090527780649 0.68972037691419241 1.610520945894512 1.425000000001911 0.57499999999847629 2 1.3780640096633039 0.25937977430496151 2 1.685972222223028 0.31402777777693702 2 1.6049090527780649 0.68972037691419241 1.610520945894512 1.592055221591679 0.37998381655983821 1.346767458941071 1.3780640096633039 0.25937977430496151 2 1.685972222223028 0.31402777777693702 2 1.6049090527780649 0.68972037691419241 1.610520945894512 1.592055221591679 0.37998381655983821 1.346767458941071 1.3740362318847941 0 1.736592447916669 1.3780640096633039 0.25937977430496151 2 1.6658333333334381 0 1.665833333333264 1.734999069940508 0 1.3758744177011299 1.592055221591679 0.37998381655983821 1.346767458941071 1.6658333333334381 0 1.665833333333264 2 0.33416666666757772 1.665833333332104 1.592055221591679 0.37998381655983821 1.346767458941071 1.4249999999997249 0 1.425000000000185 1.3740362318847941 0 1.736592447916669 1.6658333333334381 0 1.665833333333264 1.3780640096633039 0.25937977430496151 2 1.685972222223028 0.31402777777693702 2 1.6658333333334381 0 1.665833333333264 1.6000000000000001 0 2 1.3740362318847941 0 1.736592447916669 1.3780640096633039 0.25937977430496151 2 1.6658333333334381 0 1.665833333333264 1.6000000000000001 0 2 1.685972222223028 0.31402777777693702 2 1.6658333333334381 0 1.665833333333264 1.6000000000000001 0 2 2 0 2 1.685972222223028 0.31402777777693702 2 1.6658333333334381 0 1.665833333333264 2 0 2 2 0.33416666666757772 1.665833333332104 1.6658333333334381 0 1.665833333333264 2 0 2 2 0 1.5999999999989469 2 0.33416666666757772 1.665833333332104 2 0.26340755208402722 1.3740362318826671 1.734999069940508 0 1.3758744177011299 2 0 1.5999999999989469 2 0.33416666666757772 1.665833333332104 1.734999069940508 0 1.3758744177011299 1.6658333333334381 0 1.665833333333264 2 0 1.5999999999989469 2 0.33416666666757772 1.665833333332104 2 0.57500000000210227 1.4249999999987459 1.592055221591679 0.37998381655983821 1.346767458941071 2 0.33416666666757772 1.665833333332104 1.6049090527780649 0.68972037691419241 1.610520945894512 1.685972222223028 0.31402777777693702 2 2 0.33416666666757772 1.665833333332104 2 0.39999999999911567 2 1.7406202256951491 0.61367512077163267 2 1.685972222223028 0.31402777777693702 2 2 0.33416666666757772 1.665833333332104 1.7406202256951491 0.61367512077163267 2 1.6049090527780649 0.68972037691419241 1.610520945894512 1.685972222223028 0.31402777777693702 2 2 0 2 2 0.33416666666757772 1.665833333332104 2 0.39999999999911567 2 2 0.33416666666757772 1.665833333332104 2 0.39999999999911567 2 1.7406202256951491 0.61367512077163267 2 2 0.62412558229832538 1.734999069939664 1.7406202256951491 0.61367512077163267 2 1.6049090527780649 0.68972037691419241 1.610520945894512 2 0.62412558229832538 1.734999069939664 2 0.7999999999979498 2 1.6049090527780649 0.68972037691419241 1.610520945894512 2 0.97934782608697624 1.5921289062492749 1.5921289062508031 0.97934782608568471 2 1.416074976583422 1.0640336752305579 1.5993145461844129 2 0.39999999999911567 2 1.7406202256951491 0.61367512077163267 2 2 0.62412558229832538 1.734999069939664 2 0.7999999999979498 2 2 0.33416666666757772 1.665833333332104 1.7406202256951491 0.61367512077163267 2 1.6049090527780649 0.68972037691419241 1.610520945894512 2 0.62412558229832538 1.734999069939664 1.425000000001911 0.57499999999847629 2 1.7406202256951491 0.61367512077163267 2 1.6049090527780649 0.68972037691419241 1.610520945894512 1.5921289062508031 0.97934782608568471 2 1.425000000001911 0.57499999999847629 2 1.685972222223028 0.31402777777693702 2 1.7406202256951491 0.61367512077163267 2 1.6049090527780649 0.68972037691419241 1.610520945894512 2 0.57500000000210227 1.4249999999987459 1.6049090527780649 0.68972037691419241 1.610520945894512 2 0.62412558229832538 1.734999069939664 2 0.97934782608697624 1.5921289062492749 2 0.57500000000210227 1.4249999999987459 2 0.33416666666757772 1.665833333332104 1.6049090527780649 0.68972037691419241 1.610520945894512 2 0.62412558229832538 1.734999069939664 1.6049090527780649 0.68972037691419241 1.610520945894512 2 0.62412558229832538 1.734999069939664 2 0.97934782608697624 1.5921289062492749 2 0.7999999999979498 2 1.7406202256951491 0.61367512077163267 2 1.6049090527780649 0.68972037691419241 1.610520945894512 1.5921289062508031 0.97934782608568471 2 2 0.7999999999979498 2 2 0.97934782608697624 1.5921289062492749 1.5921289062508031 0.97934782608568471 2 2 0.7999999999979498 2 2 1.1999999999978941 2 1.6049090527780649 0.68972037691419241 1.610520945894512 2 0.97934782608697624 1.5921289062492749 1.5921289062508031 0.97934782608568471 2 2 0.7999999999979498 2 2 1.3750846954865119 1.737640911519603 2 1.4249999999998371 1.4249999999998371 1.5950886193190319 1.5950886193190319 1.4995967914346211 1.416074976583422 1.0640336752305579 1.5993145461844129 2 0.97934782608697624 1.5921289062492749 2 1.3750846954865119 1.737640911519603 2 1.4249999999998371 1.4249999999998371 1.416074976583422 1.0640336752305579 1.5993145461844129 1.737640911519909 1.3750846954862539 2 1.5950886193190319 1.5950886193190319 1.4995967914346211 1.416074976583422 1.0640336752305579 1.5993145461844129 1.4249999999998371 1.4249999999998371 2 2 0.97934782608697624 1.5921289062492749 1.5921289062508031 0.97934782608568471 2 2 1.1999999999978941 2 1.737640911519909 1.3750846954862539 2 1.737640911519909 1.3750846954862539 2 2 1.3750846954865119 1.737640911519603 1.5950886193190319 1.5950886193190319 1.4995967914346211 1.416074976583422 1.0640336752305579 1.5993145461844129 2 0.97934782608697624 1.5921289062492749 2 1.1999999999978941 2 1.737640911519909 1.3750846954862539 2 2 1.3750846954865119 1.737640911519603 2 0.97934782608697624 1.5921289062492749 1.5921289062508031 0.97934782608568471 2 1.737640911519909 1.3750846954862539 2 1.416074976583422 1.0640336752305579 1.5993145461844129 2 0.97934782608697624 1.5921289062492749 1.737640911519909 1.3750846954862539 2 2 1.3750846954865119 1.737640911519603 1.416074976583422 1.0640336752305579 1.5993145461844129 2 1.1999999999978941 2 1.737640911519909 1.3750846954862539 2 2 1.3750846954865119 1.737640911519603 2 1.5999999999989469 2 1.5921289062508031 0.97934782608568471 2 1.737640911519909 1.3750846954862539 2 1.416074976583422 1.0640336752305579 1.5993145461844129 1.4249999999998371 1.4249999999998371 2 1.500000000000274 0.99883321436442229 1.16639307242336 2 1.1510583366092999 1.2335907516785649 1.532347752213032 1.4746298915713509 1.076108883276101 1.416074976583422 1.0640336752305579 1.5993145461844129 2 0.97934782608697624 1.5921289062492749 2 1.1510583366092999 1.2335907516785649 2 1.4249999999998371 1.4249999999998371 1.416074976583422 1.0640336752305579 1.5993145461844129 1.500000000000274 0.99883321436442229 1.16639307242336 2 0.97934782608697624 1.5921289062492749 2 1.1510583366092999 1.2335907516785649 1.416074976583422 1.0640336752305579 1.5993145461844129 2 1.1510583366092999 1.2335907516785649 1.532347752213032 1.4746298915713509 1.076108883276101 1.5950886193190319 1.5950886193190319 1.4995967914346211 1.416074976583422 1.0640336752305579 1.5993145461844129 2 1.1510583366092999 1.2335907516785649 2 1.4249999999998371 1.4249999999998371 1.5950886193190319 1.5950886193190319 1.4995967914346211 1.416074976583422 1.0640336752305579 1.5993145461844129 2 1.2345896428056129 0.84641423559720252 1.500000000000274 0.99883321436442229 1.16639307242336 2 1.1510583366092999 1.2335907516785649 1.532347752213032 1.4746298915713509 1.076108883276101 2 1.000000000000635 0.99999999999835576 2 1.2345896428056129 0.84641423559720252 1.500000000000274 0.99883321436442229 1.16639307242336 2 1.1510583366092999 1.2335907516785649 2 1.2345896428056129 0.84641423559720252 2 1.1510583366092999 1.2335907516785649 1.532347752213032 1.4746298915713509 1.076108883276101 2 1.592128906250589 1.0206521739114489 2 1.1510583366092999 1.2335907516785649 1.532347752213032 1.4746298915713509 1.076108883276101 2 1.4249999999998371 1.4249999999998371 2 1.592128906250589 1.0206521739114489 2 1.1510583366092999 1.2335907516785649 1.532347752213032 1.4746298915713509 1.076108883276101 2 1.4249999999998371 1.4249999999998371 1.5950886193190319 1.5950886193190319 1.4995967914346211 1.532347752213032 1.4746298915713509 1.076108883276101 2 1.592128906250589 1.0206521739114489 1.5921289062505879 2 1.0206521739114489 1.7376409115198661 2 1.3833455650514059 1.532347752213032 1.4746298915713509 1.076108883276101 2 1.7376409115198661 1.3833455650514059 2 1.592128906250589 1.0206521739114489 1.7376409115198661 2 1.3833455650514059 1.532347752213032 1.4746298915713509 1.076108883276101 1.5950886193190319 1.5950886193190319 1.4995967914346211 1.7376409115198661 2 1.3833455650514059 1.4249999999998371 2 1.4249999999998371 1.532347752213032 1.4746298915713509 1.076108883276101 2 1.4249999999998371 1.4249999999998371 2 1.7376409115198661 1.3833455650514059 1.5950886193190319 1.5950886193190319 1.4995967914346211 1.532347752213032 1.4746298915713509 1.076108883276101 1.5921289062505879 2 1.0206521739114489 1.7376409115198661 2 1.3833455650514059 1.4249999999998371 2 1.4249999999998371 1.532347752213032 1.4746298915713509 1.076108883276101 2 1.7376409115198661 1.3833455650514059 1.5950886193190319 1.5950886193190319 1.4995967914346211 1.7376409115198661 2 1.3833455650514059 2 1.4249999999998371 1.4249999999998371 2 1.7376409115198661 1.3833455650514059 1.5950886193190319 1.5950886193190319 1.4995967914346211 2 1.671075651348906 1.671075651348906 1.532347752213032 1.4746298915713509 1.076108883276101 2 1.4249999999998371 1.4249999999998371 2 1.7376409115198661 1.3833455650514059 2 1.592128906250589 1.0206521739114489 2 1.7376409115198661 1.3833455650514059 2 1.592128906250589 1.0206521739114489 2 2 1.1999999999978941 1.7376409115198661 2 1.3833455650514059 2 1.592128906250589 1.0206521739114489 2 2 1.1999999999978941 1.5921289062505879 2 1.0206521739114489 1.7376409115198661 2 1.3833455650514059 2 2 0.7999999999979498 2 1.592128906250589 1.0206521739114489 2 2 1.1999999999978941 1.5921289062505879 2 1.0206521739114489 1.5950886193190319 1.5950886193190319 1.4995967914346211 1.7376409115198661 2 1.3833455650514059 1.671075651348906 2 1.671075651348906 1.4249999999998371 2 1.4249999999998371 2 1.7376409115198661 1.3833455650514059 1.5950886193190319 1.5950886193190319 1.4995967914346211 1.7376409115198661 2 1.3833455650514059 2 1.671075651348906 1.671075651348906 2 1.7376409115198661 1.3833455650514059 2 2 1.1999999999978941 1.7376409115198661 2 1.3833455650514059 2 2 1.5999999999989469 1.5950886193190319 1.5950886193190319 1.4995967914346211 2 1.671075651348906 1.671075651348906 1.671075651348906 1.671075651348906 2 1.671075651348906 2 1.671075651348906 1.737640911519909 1.3750846954862539 2 1.5950886193190319 1.5950886193190319 1.4995967914346211 1.671075651348906 1.671075651348906 2 1.4249999999998371 1.4249999999998371 2 2 1.7376409115198661 1.3833455650514059 1.7376409115198661 2 1.3833455650514059 2 2 1.5999999999989469 2 1.671075651348906 1.671075651348906 1.5950886193190319 1.5950886193190319 1.4995967914346211 1.7376409115198661 2 1.3833455650514059 2 1.671075651348906 1.671075651348906 1.671075651348906 2 1.671075651348906 2 2 1.5999999999989469 2 2 2 2 1.671075651348906 1.671075651348906 1.671075651348906 2 1.671075651348906 1.5950886193190319 1.5950886193190319 1.4995967914346211 1.671075651348906 1.671075651348906 2 1.3833455650517461 1.737640911519633 2 1.4249999999998371 1.4249999999998371 2 1.5950886193190319 1.5950886193190319 1.4995967914346211 1.671075651348906 1.671075651348906 2 1.671075651348906 2 1.671075651348906 1.3833455650517461 1.737640911519633 2 1.5950886193190319 1.5950886193190319 1.4995967914346211 1.671075651348906 2 1.671075651348906 1.3750846954865119 2 1.737640911519603 1.3833455650517461 1.737640911519633 2 1.7376409115198661 2 1.3833455650514059 2 2 1.5999999999989469 2 1.671075651348906 1.671075651348906 1.671075651348906 2 1.671075651348906 1.737640911519909 1.3750846954862539 2 2 1.3750846954865119 1.737640911519603 1.5950886193190319 1.5950886193190319 1.4995967914346211 1.671075651348906 1.671075651348906 2 2 1.3750846954865119 1.737640911519603 1.5950886193190319 1.5950886193190319 1.4995967914346211 2 1.671075651348906 1.671075651348906 1.671075651348906 1.671075651348906 2 2 2 2 2 1.671075651348906 1.671075651348906 1.671075651348906 1.671075651348906 2 1.671075651348906 2 1.671075651348906 2 1.3750846954865119 1.737640911519603 2 1.5999999999989469 2 2 1.671075651348906 1.671075651348906 1.671075651348906 1.671075651348906 2 1.737640911519909 1.3750846954862539 2 2 1.3750846954865119 1.737640911519603 2 1.5999999999989469 2 1.671075651348906 1.671075651348906 2 2 2 2 2 1.5999999999989469 2 2 1.671075651348906 1.671075651348906 1.671075651348906 1.671075651348906 2 2 1.3750846954865119 1.737640911519603 2 1.4249999999998371 1.4249999999998371 1.5950886193190319 1.5950886193190319 1.4995967914346211 2 1.671075651348906 1.671075651348906 1.5999999999989469 2 2 1.671075651348906 2 1.671075651348906 1.3750846954865119 2 1.737640911519603 1.3833455650517461 1.737640911519633 2 1.671075651348906 1.671075651348906 2 1.5999999999989469 2 2 1.671075651348906 2 1.671075651348906 1.3833455650517461 1.737640911519633 2 2 2 2 1.671075651348906 1.671075651348906 2 1.5999999999989469 2 2 1.671075651348906 2 1.671075651348906 1.5950886193190319 1.5950886193190319 1.4995967914346211 1.671075651348906 2 1.671075651348906 1.3750846954865119 2 1.737640911519603 1.4249999999998371 2 1.4249999999998371 1.5950886193190319 1.5950886193190319 1.4995967914346211 1.3833455650517461 1.737640911519633 2 1.1981164219601721 1.4101645296525169 1.4221055955645681 1.4249999999998371 1.4249999999998371 2 1.3750846954865119 2 1.737640911519603 1.4249999999998371 2 1.4249999999998371 1.1981164219601721 1.4101645296525169 1.4221055955645681 0.97934782608697635 2 1.5921289062492749 1.3750846954865119 2 1.737640911519603 1.0206521739131471 1.5921289062494219 2 1.1981164219601721 1.4101645296525169 1.4221055955645681 0.97934782608697635 2 1.5921289062492749 1.3750846954865119 2 1.737640911519603 1.3833455650517461 1.737640911519633 2 1.0206521739131471 1.5921289062494219 2 1.1981164219601721 1.4101645296525169 1.4221055955645681 1.5950886193190319 1.5950886193190319 1.4995967914346211 1.3750846954865119 2 1.737640911519603 1.3833455650517461 1.737640911519633 2 1.1981164219601721 1.4101645296525169 1.4221055955645681 1.5950886193190319 1.5950886193190319 1.4995967914346211 1.3750846954865119 2 1.737640911519603 1.4249999999998371 2 1.4249999999998371 1.1981164219601721 1.4101645296525169 1.4221055955645681 1.3833455650517461 1.737640911519633 2 1.0206521739131471 1.5921289062494219 2 1.1981164219601721 1.4101645296525169 1.4221055955645681 1.4249999999998371 1.4249999999998371 2 1.5999999999989469 2 2 1.3750846954865119 2 1.737640911519603 1.3833455650517461 1.737640911519633 2 1.1999999999978941 2 2 1.3750846954865119 2 1.737640911519603 1.3833455650517461 1.737640911519633 2 1.0206521739131471 1.5921289062494219 2 1.1999999999978941 2 2 1.3750846954865119 2 1.737640911519603 1.0206521739131471 1.5921289062494219 2 1.1999999999978941 2 2 0.97934782608697635 2 1.5921289062492749 1.2345896428056129 2 0.84641423559720264 1.532347752213032 1.4746298915713509 1.076108883276101 1.1510583366092999 2 1.2335907516785649 0.86620738987133672 1.5000000000001401 1.0337672479303861 1.532347752213032 1.4746298915713509 1.076108883276101 1.1510583366092999 2 1.2335907516785649 1.1981164219601721 1.4101645296525169 1.4221055955645681 0.86620738987133672 1.5000000000001401 1.0337672479303861 1.2345896428056129 2 0.84641423559720264 1.532347752213032 1.4746298915713509 1.076108883276101 1.5921289062505879 2 1.0206521739114489 1.1510583366092999 2 1.2335907516785649 1.532347752213032 1.4746298915713509 1.076108883276101 1.5950886193190319 1.5950886193190319 1.4995967914346211 1.4249999999998371 2 1.4249999999998371 1.1981164219601721 1.4101645296525169 1.4221055955645681 1.532347752213032 1.4746298915713509 1.076108883276101 1.5921289062505879 2 1.0206521739114489 1.4249999999998371 2 1.4249999999998371 1.1510583366092999 2 1.2335907516785649 1.532347752213032 1.4746298915713509 1.076108883276101 1.4249999999998371 2 1.4249999999998371 1.1510583366092999 2 1.2335907516785649 1.1981164219601721 1.4101645296525169 1.4221055955645681 1.4249999999998371 2 1.4249999999998371 1.1510583366092999 2 1.2335907516785649 1.1981164219601721 1.4101645296525169 1.4221055955645681 0.97934782608697635 2 1.5921289062492749 1.1510583366092999 2 1.2335907516785649 1.1981164219601721 1.4101645296525169 1.4221055955645681 0.97934782608697635 2 1.5921289062492749 0.77911601688602494 1.603176022082401 1.607321515253783 1.000000000000635 2 0.99999999999835598 1.2345896428056129 2 0.84641423559720264 1.1510583366092999 2 1.2335907516785649 0.86620738987133672 1.5000000000001401 1.0337672479303861 1.500000000000274 0.99883321436442229 1.16639307242336 1.532347752213032 1.4746298915713509 1.076108883276101 1.1981164219601721 1.4101645296525169 1.4221055955645681 1.416074976583422 1.0640336752305579 1.5993145461844129 1.500000000000274 0.99883321436442229 1.16639307242336 1.1981164219601721 1.4101645296525169 1.4221055955645681 1.416074976583422 1.0640336752305579 1.5993145461844129 0.98528458949676634 0.98528458949702458 1.516045488389935 1 0.99999999999999978 0.99999999999999978 1.500000000000274 0.99883321436442229 1.16639307242336 1.532347752213032 1.4746298915713509 1.076108883276101 1.1981164219601721 1.4101645296525169 1.4221055955645681 1.532347752213032 1.4746298915713509 1.076108883276101 1.5950886193190319 1.5950886193190319 1.4995967914346211 1.1981164219601721 1.4101645296525169 1.4221055955645681 1.416074976583422 1.0640336752305579 1.5993145461844129 1 0.99999999999999978 0.99999999999999978 1.500000000000274 0.99883321436442229 1.16639307242336 1.1981164219601721 1.4101645296525169 1.4221055955645681 0.98528458949676634 0.98528458949702458 1.516045488389935 1 0.99999999999999978 0.99999999999999978 1.532347752213032 1.4746298915713509 1.076108883276101 1.1981164219601721 1.4101645296525169 1.4221055955645681 0.86620738987133672 1.5000000000001401 1.0337672479303861 1 0.99999999999999978 0.99999999999999978 1.1981164219601721 1.4101645296525169 1.4221055955645681 0.86620738987133672 1.5000000000001401 1.0337672479303861 0.98528458949676634 0.98528458949702458 1.516045488389935 1.0206521739131471 1.5921289062494219 2 1.1981164219601721 1.4101645296525169 1.4221055955645681 1.4249999999998371 1.4249999999998371 2 1.2340035335497621 1.1507971347859809 2 1.000000000001781 0.99999999999894518 2 1.1981164219601721 1.4101645296525169 1.4221055955645681 1.416074976583422 1.0640336752305579 1.5993145461844129 1.2340035335497621 1.1507971347859809 2 1.1981164219601721 1.4101645296525169 1.4221055955645681 1.416074976583422 1.0640336752305579 1.5993145461844129 1.4249999999998371 1.4249999999998371 2 1.2340035335497621 1.1507971347859809 2 1.000000000001781 0.99999999999894518 2 1.1981164219601721 1.4101645296525169 1.4221055955645681 1.2340035335497621 1.1507971347859809 2 0.86068862301746607 1.2633133025089971 2 1.0206521739131471 1.5921289062494219 2 1.1981164219601721 1.4101645296525169 1.4221055955645681 1.2340035335497621 1.1507971347859809 2 0.86068862301746607 1.2633133025089971 2 1.000000000001781 0.99999999999894518 2 1.1981164219601721 1.4101645296525169 1.4221055955645681 0.86068862301746607 1.2633133025089971 2 0.98528458949676634 0.98528458949702458 1.516045488389935 1.000000000001781 0.99999999999894518 2 1.1981164219601721 1.4101645296525169 1.4221055955645681 1.416074976583422 1.0640336752305579 1.5993145461844129 0.98528458949676634 0.98528458949702458 1.516045488389935 1.5950886193190319 1.5950886193190319 1.4995967914346211 1.1981164219601721 1.4101645296525169 1.4221055955645681 1.416074976583422 1.0640336752305579 1.5993145461844129 1.4249999999998371 1.4249999999998371 2 1.5921289062508031 0.97934782608568471 2 1.416074976583422 1.0640336752305579 1.5993145461844129 1.4249999999998371 1.4249999999998371 2 1.2340035335497621 1.1507971347859809 2 0.86068862301746607 1.2633133025089971 2 0.59772980397967113 1.252682283932151 1.4022701960199091 0.77911601688602494 1.603176022082401 1.607321515253783 0.98528458949676634 0.98528458949702458 1.516045488389935 0.86068862301746607 1.2633133025089971 2 0.59772980397967113 1.252682283932151 1.4022701960199091 0.76640924832151791 0.84894166339049981 2 0.98528458949676634 0.98528458949702458 1.516045488389935 1.0206521739131471 1.5921289062494219 2 1.1981164219601721 1.4101645296525169 1.4221055955645681 0.86068862301746607 1.2633133025089971 2 0.77911601688602494 1.603176022082401 1.607321515253783 1.000000000001781 0.99999999999894518 2 0.86068862301746607 1.2633133025089971 2 0.76640924832151791 0.84894166339049981 2 0.98528458949676634 0.98528458949702458 1.516045488389935 0.86068862301746607 1.2633133025089971 2 0.5750000000018145 1.424999999998573 2 0.59772980397967113 1.252682283932151 1.4022701960199091 0.4078710937509023 1.020652173913281 2 0.86068862301746607 1.2633133025089971 2 0.5750000000018145 1.424999999998573 2 0.59772980397967113 1.252682283932151 1.4022701960199091 0.77911601688602494 1.603176022082401 1.607321515253783 0.86068862301746607 1.2633133025089971 2 0.59772980397967113 1.252682283932151 1.4022701960199091 0.4078710937509023 1.020652173913281 2 0.76640924832151791 0.84894166339049981 2 0.5750000000018145 1.424999999998573 2 0.59772980397967113 1.252682283932151 1.4022701960199091 0.77911601688602494 1.603176022082401 1.607321515253783 0.25937977430622478 1.3863248792272369 2 1.1981164219601721 1.4101645296525169 1.4221055955645681 0.86068862301746607 1.2633133025089971 2 0.77911601688602494 1.603176022082401 1.607321515253783 0.98528458949676634 0.98528458949702458 1.516045488389935 1.0206521739131471 1.5921289062494219 2 0.86068862301746607 1.2633133025089971 2 0.5750000000018145 1.424999999998573 2 0.77911601688602494 1.603176022082401 1.607321515253783 1.1981164219601721 1.4101645296525169 1.4221055955645681 0.59772980397967113 1.252682283932151 1.4022701960199091 0.77911601688602494 1.603176022082401 1.607321515253783 0.98528458949676634 0.98528458949702458 1.516045488389935 1.1981164219601721 1.4101645296525169 1.4221055955645681 0.59772980397967113 1.252682283932151 1.4022701960199091 0.86620738987133672 1.5000000000001401 1.0337672479303861 0.98528458949676634 0.98528458949702458 1.516045488389935 1 0.99999999999999978 0.99999999999999978 0.59772980397967113 1.252682283932151 1.4022701960199091 0.86620738987133672 1.5000000000001401 1.0337672479303861 0.98528458949676634 0.98528458949702458 1.516045488389935 1.1981164219601721 1.4101645296525169 1.4221055955645681 0.59772980397967113 1.252682283932151 1.4022701960199091 0.86620738987133672 1.5000000000001401 1.0337672479303861 0.77911601688602494 1.603176022082401 1.607321515253783 1 0.99999999999999978 0.99999999999999978 0.59772980397967113 1.252682283932151 1.4022701960199091 0.86620738987133672 1.5000000000001401 1.0337672479303861 0.48528811404415773 0.99061345538166756 1.009386544617999 0.59772980397967113 1.252682283932151 1.4022701960199091 0.86620738987133672 1.5000000000001401 1.0337672479303861 0.39539622647752048 1.604332214875325 1.222086277851258 0.48528811404415773 0.99061345538166756 1.009386544617999 0.41010551790091843 1.5854304871968741 0.7721068750782103 0.86620738987133672 1.5000000000001401 1.0337672479303861 0.39539622647752048 1.604332214875325 1.222086277851258 0.48528811404415773 0.99061345538166756 1.009386544617999 1 0.99999999999999978 0.99999999999999978 0.59772980397967113 1.252682283932151 1.4022701960199091 0.98528458949676634 0.98528458949702458 1.516045488389935 0.48528811404415773 0.99061345538166756 1.009386544617999 0.59772980397967113 1.252682283932151 1.4022701960199091 0.86620738987133672 1.5000000000001401 1.0337672479303861 0.77911601688602494 1.603176022082401 1.607321515253783 0.39539622647752048 1.604332214875325 1.222086277851258 0.86620738987133672 1.5000000000001401 1.0337672479303861 0.73668669749101645 2 1.139311376982779 0.77911601688602494 1.603176022082401 1.607321515253783 0.39539622647752048 1.604332214875325 1.222086277851258 1.1510583366092999 2 1.2335907516785649 0.86620738987133672 1.5000000000001401 1.0337672479303861 0.73668669749101645 2 1.139311376982779 0.77911601688602494 1.603176022082401 1.607321515253783 1.1510583366092999 2 1.2335907516785649 1.1981164219601721 1.4101645296525169 1.4221055955645681 0.86620738987133672 1.5000000000001401 1.0337672479303861 0.77911601688602494 1.603176022082401 1.607321515253783 0.41010551790091843 1.5854304871968741 0.7721068750782103 0.86620738987133672 1.5000000000001401 1.0337672479303861 0.73668669749101645 2 1.139311376982779 0.39539622647752048 1.604332214875325 1.222086277851258 1.000000000000635 2 0.99999999999835598 1.1510583366092999 2 1.2335907516785649 0.86620738987133672 1.5000000000001401 1.0337672479303861 0.73668669749101645 2 1.139311376982779 0.40787109375045588 2 0.9793478260856453 0.73668669749101645 2 1.139311376982779 0.57500000000210227 2 1.4249999999987459 0.39539622647752048 1.604332214875325 1.222086277851258 0.73668669749101645 2 1.139311376982779 0.57500000000210227 2 1.4249999999987459 0.77911601688602494 1.603176022082401 1.607321515253783 0.39539622647752048 1.604332214875325 1.222086277851258 0.57500000000210227 2 1.4249999999987459 0.77911601688602494 1.603176022082401 1.607321515253783 0.33416666666757772 2 1.665833333332104 0.39539622647752048 1.604332214875325 1.222086277851258 1.1510583366092999 2 1.2335907516785649 0.73668669749101645 2 1.139311376982779 0.97934782608697635 2 1.5921289062492749 0.77911601688602494 1.603176022082401 1.607321515253783 0.73668669749101645 2 1.139311376982779 0.57500000000210227 2 1.4249999999987459 0.97934782608697635 2 1.5921289062492749 0.77911601688602494 1.603176022082401 1.607321515253783 1.0206521739131471 1.5921289062494219 2 1.1981164219601721 1.4101645296525169 1.4221055955645681 0.97934782608697635 2 1.5921289062492749 0.77911601688602494 1.603176022082401 1.607321515253783 0.97934782608697635 2 1.5921289062492749 0.7999999999979498 2 2 0.77911601688602494 1.603176022082401 1.607321515253783 0.62412558229832538 2 1.734999069939664 1.0206521739131471 1.5921289062494219 2 1.1999999999978941 2 2 0.97934782608697635 2 1.5921289062492749 0.7999999999979498 2 2 1.0206521739131471 1.5921289062494219 2 0.97934782608697635 2 1.5921289062492749 0.7999999999979498 2 2 0.77911601688602494 1.603176022082401 1.607321515253783 1.0206521739131471 1.5921289062494219 2 0.7999999999979498 2 2 0.77911601688602494 1.603176022082401 1.607321515253783 0.62193599033808677 1.7406202256939109 2 1.0206521739131471 1.5921289062494219 2 0.5750000000018145 1.424999999998573 2 0.77911601688602494 1.603176022082401 1.607321515253783 0.62193599033808677 1.7406202256939109 2 0.5750000000018145 1.424999999998573 2 0.77911601688602494 1.603176022082401 1.607321515253783 0.62193599033808677 1.7406202256939109 2 0.31402777777840701 1.6859722222215581 2 0.77911601688602494 1.603176022082401 1.607321515253783 0.62193599033808677 1.7406202256939109 2 0.33416666666757772 2 1.665833333332104 0.31402777777840701 1.6859722222215581 2 0.7999999999979498 2 2 0.77911601688602494 1.603176022082401 1.607321515253783 0.62193599033808677 1.7406202256939109 2 0.62412558229832538 2 1.734999069939664 0.77911601688602494 1.603176022082401 1.607321515253783 0.62193599033808677 1.7406202256939109 2 0.62412558229832538 2 1.734999069939664 0.33416666666757772 2 1.665833333332104 0.7999999999979498 2 2 0.62193599033808677 1.7406202256939109 2 0.62412558229832538 2 1.734999069939664 0.39999999999911567 2 2 0.57500000000210227 2 1.4249999999987459 0.97934782608697635 2 1.5921289062492749 0.77911601688602494 1.603176022082401 1.607321515253783 0.62412558229832538 2 1.734999069939664 0.57500000000210227 2 1.4249999999987459 0.77911601688602494 1.603176022082401 1.607321515253783 0.62412558229832538 2 1.734999069939664 0.33416666666757772 2 1.665833333332104 0.77911601688602494 1.603176022082401 1.607321515253783 0 1.665833333333429 1.665833333333256 0.39539622647752048 1.604332214875325 1.222086277851258 0 1.374036231884781 1.736592447916667 0.5750000000018145 1.424999999998573 2 0.77911601688602494 1.603176022082401 1.607321515253783 0.31402777777840701 1.6859722222215581 2 0.25937977430622478 1.3863248792272369 2 0.77911601688602494 1.603176022082401 1.607321515253783 0.33416666666757772 2 1.665833333332104 0 1.665833333333429 1.665833333333256 0.39539622647752048 1.604332214875325 1.222086277851258 0.77911601688602494 1.603176022082401 1.607321515253783 0.33416666666757772 2 1.665833333332104 0.31402777777840701 1.6859722222215581 2 0 1.665833333333429 1.665833333333256 0 1.665833333333429 1.665833333333256 0.39539622647752048 1.604332214875325 1.222086277851258 0 1.4249999999997121 1.4250000000001719 0 1.374036231884781 1.736592447916667 0.77911601688602494 1.603176022082401 1.607321515253783 0.31402777777840701 1.6859722222215581 2 0 1.665833333333429 1.665833333333256 0.25937977430622478 1.3863248792272369 2 0.77911601688602494 1.603176022082401 1.607321515253783 0 1.665833333333429 1.665833333333256 0 1.374036231884781 1.736592447916667 0.25937977430622478 1.3863248792272369 2 0.62193599033808677 1.7406202256939109 2 0.33416666666757772 2 1.665833333332104 0.39999999999911567 2 2 0.31402777777840701 1.6859722222215581 2 0.62193599033808677 1.7406202256939109 2 0.62412558229832538 2 1.734999069939664 0.33416666666757772 2 1.665833333332104 0.39999999999911567 2 2 0.33416666666757772 2 1.665833333332104 0.39999999999911567 2 2 0.31402777777840701 1.6859722222215581 2 0 2 2 0.31402777777840701 1.6859722222215581 2 0 1.665833333333429 1.665833333333256 0 1.6000000000000001 2 0.25937977430622478 1.3863248792272369 2 0 1.665833333333429 1.665833333333256 0 1.6000000000000001 2 0 1.374036231884781 1.736592447916667 0.25937977430622478 1.3863248792272369 2 0.31402777777840701 1.6859722222215581 2 0 1.665833333333429 1.665833333333256 0 1.6000000000000001 2 0 2 2 0.33416666666757772 2 1.665833333332104 0.31402777777840701 1.6859722222215581 2 0 1.665833333333429 1.665833333333256 0 2 2 0.33416666666757772 2 1.665833333332104 0 2 1.5999999999989469 0.26340755208402722 2 1.3740362318826671 0 1.73499906994049 1.375874417701122 0.33416666666757772 2 1.665833333332104 0 1.665833333333429 1.665833333333256 0 2 1.5999999999989469 0 1.73499906994049 1.375874417701122 0.33416666666757772 2 1.665833333332104 0 1.665833333333429 1.665833333333256 0 2 2 0 2 1.5999999999989469 0 2 1.5999999999989469 0.26340755208402722 2 1.3740362318826671 0 2 1.1999999999978941 0 1.73499906994049 1.375874417701122 0.33416666666757772 2 1.665833333332104 0 1.665833333333429 1.665833333333256 0.39539622647752048 1.604332214875325 1.222086277851258 0 1.73499906994049 1.375874417701122 0.26340755208402722 2 1.3740362318826671 0 2 1.1999999999978941 0.39539622647752048 1.604332214875325 1.222086277851258 0 1.73499906994049 1.375874417701122 0.33416666666757772 2 1.665833333332104 0.26340755208402722 2 1.3740362318826671 0.39539622647752048 1.604332214875325 1.222086277851258 0 1.73499906994049 1.375874417701122 0.57500000000210227 2 1.4249999999987459 0.33416666666757772 2 1.665833333332104 0.26340755208402722 2 1.3740362318826671 0.39539622647752048 1.604332214875325 1.222086277851258 0.40787109375045588 2 0.9793478260856453 0.57500000000210227 2 1.4249999999987459 0.26340755208402722 2 1.3740362318826671 0.39539622647752048 1.604332214875325 1.222086277851258 0.41010551790091843 1.5854304871968741 0.7721068750782103 0.40787109375045588 2 0.9793478260856453 0.73668669749101645 2 1.139311376982779 0.39539622647752048 1.604332214875325 1.222086277851258 0.40787109375045588 2 0.9793478260856453 0.26340755208402722 2 1.3740362318826671 0 2 1.1999999999978941 0.39539622647752048 1.604332214875325 1.222086277851258 0.40787109375045588 2 0.9793478260856453 0 2 1.1999999999978941 0 1.592128906249999 1.0206521739122849 0.39539622647752048 1.604332214875325 1.222086277851258 0 2 1.1999999999978941 0 1.592128906249999 1.0206521739122849 0.39539622647752048 1.604332214875325 1.222086277851258 0 1.73499906994049 1.375874417701122 0 1.592128906249999 1.0206521739122849 0.39539622647752048 1.604332214875325 1.222086277851258 0 1.73499906994049 1.375874417701122 0 1.4249999999997121 1.4250000000001719 0 1.665833333333429 1.665833333333256 0.39539622647752048 1.604332214875325 1.222086277851258 0 1.73499906994049 1.375874417701122 0 1.4249999999997121 1.4250000000001719 0.59772980397967113 1.252682283932151 1.4022701960199091 0 1.1379319433661621 1.2629046154773571 0 0.97934782608799098 1.5921289062499051 0.48528811404415773 0.99061345538166756 1.009386544617999 0.59772980397967113 1.252682283932151 1.4022701960199091 0.39539622647752048 1.604332214875325 1.222086277851258 0 1.4249999999997121 1.4250000000001719 0 1.1379319433661621 1.2629046154773571 0.59772980397967113 1.252682283932151 1.4022701960199091 0.77911601688602494 1.603176022082401 1.607321515253783 0.39539622647752048 1.604332214875325 1.222086277851258 0 1.374036231884781 1.736592447916667 0 1.263313302510646 0.86068862301506388 0.39539622647752048 1.604332214875325 1.222086277851258 0 1.1379319433661621 1.2629046154773571 0.48528811404415773 0.99061345538166756 1.009386544617999 0.59772980397967113 1.252682283932151 1.4022701960199091 0 1.4249999999997121 1.4250000000001719 0 1.1379319433661621 1.2629046154773571 0 0.97934782608799098 1.5921289062499051 0.59772980397967113 1.252682283932151 1.4022701960199091 0.39539622647752048 1.604332214875325 1.222086277851258 0 1.4249999999997121 1.4250000000001719 0 1.374036231884781 1.736592447916667 0.59772980397967113 1.252682283932151 1.4022701960199091 0.39539622647752048 1.604332214875325 1.222086277851258 0 1.1379319433661621 1.2629046154773571 0.48528811404415773 0.99061345538166756 1.009386544617999 0 1.592128906249999 1.0206521739122849 0.39539622647752048 1.604332214875325 1.222086277851258 0 1.4249999999997121 1.4250000000001719 0 1.1379319433661621 1.2629046154773571 0 1.263313302510646 0.86068862301506388 0 1.592128906249999 1.0206521739122849 0.39539622647752048 1.604332214875325 1.222086277851258 0 1.1379319433661621 1.2629046154773571 0 1.0000000000000291 0.99999999999996969 0 1.263313302510646 0.86068862301506388 0 1.1379319433661621 1.2629046154773571 0.48528811404415773 0.99061345538166756 1.009386544617999 0.59772980397967113 1.252682283932151 1.4022701960199091 0 1.4249999999997121 1.4250000000001719 0 1.374036231884781 1.736592447916667 0 0.97934782608799098 1.5921289062499051 0.59772980397967113 1.252682283932151 1.4022701960199091 0.77911601688602494 1.603176022082401 1.607321515253783 0 1.374036231884781 1.736592447916667 0.25937977430622478 1.3863248792272369 2 0.59772980397967113 1.252682283932151 1.4022701960199091 0 1.374036231884781 1.736592447916667 0.4078710937509023 1.020652173913281 2 0.25937977430622478 1.3863248792272369 2 0.5750000000018145 1.424999999998573 2 0.59772980397967113 1.252682283932151 1.4022701960199091 0.4078710937509023 1.020652173913281 2 0.25937977430622478 1.3863248792272369 2 0.59772980397967113 1.252682283932151 1.4022701960199091 0 1.374036231884781 1.736592447916667 0.4078710937509023 1.020652173913281 2 0 0.97934782608799098 1.5921289062499051 0 1.6000000000000001 2 0 1.374036231884781 1.736592447916667 0.25937977430622478 1.3863248792272369 2 0 1.200000000002774 2 0 1.374036231884781 1.736592447916667 0.4078710937509023 1.020652173913281 2 0.25937977430622478 1.3863248792272369 2 0 1.200000000002774 2 0 1.374036231884781 1.736592447916667 0.4078710937509023 1.020652173913281 2 0 1.200000000002774 2 0 0.97934782608799098 1.5921289062499051 0.4078710937509023 1.020652173913281 2 0 1.200000000002774 2 0 0.80000000000332872 2 0 0.97934782608799098 1.5921289062499051 0 0.80000000000332872 2 0 0.97934782608799098 1.5921289062499051 0 0.62412558229928472 1.7349990699404849 0.26235908848041961 0.62491530451389399 2 0.26235908848041961 0.62491530451389399 2 0.57500000000013385 0.57500000000013385 2 0.63209459459459538 0.63209459459460771 1.3679054054053961 0.32892434865106179 0.32892434865106179 2 0.59772980397967113 1.252682283932151 1.4022701960199091 0.4078710937509023 1.020652173913281 2 0 0.97934782608799098 1.5921289062499051 0.63209459459459538 0.63209459459460771 1.3679054054053961 0.4078710937509023 1.020652173913281 2 0.26235908848041961 0.62491530451389399 2 0.57500000000013385 0.57500000000013385 2 0.63209459459459538 0.63209459459460771 1.3679054054053961 0.4078710937509023 1.020652173913281 2 0 0.80000000000332872 2 0 0.97934782608799098 1.5921289062499051 0.26235908848041961 0.62491530451389399 2 0 0.97934782608799098 1.5921289062499051 0 0.62412558229928472 1.7349990699404849 0.26235908848041961 0.62491530451389399 2 0.63209459459459538 0.63209459459460771 1.3679054054053961 0 0.62412558229928472 1.7349990699404849 0.26235908848041961 0.62491530451389399 2 0.63209459459459538 0.63209459459460771 1.3679054054053961 0 0.33416666666678929 1.6658333333334849 0 0.62412558229928472 1.7349990699404849 0.63209459459459538 0.63209459459460771 1.3679054054053961 0 0.57499999999972706 1.4249999999995451 0 0.33416666666678929 1.6658333333334849 0.4078710937509023 1.020652173913281 2 0 0.97934782608799098 1.5921289062499051 0.26235908848041961 0.62491530451389399 2 0.63209459459459538 0.63209459459460771 1.3679054054053961 0 0.97934782608799098 1.5921289062499051 0 0.62412558229928472 1.7349990699404849 0.63209459459459538 0.63209459459460771 1.3679054054053961 0 0.57499999999972706 1.4249999999995451 0 0.80000000000332872 2 0 0.62412558229928472 1.7349990699404849 0.26235908848041961 0.62491530451389399 2 0 0.40000000000166441 2 1.1535857644027949 0.76541035719405237 2 0.76640924832151791 0.84894166339049981 2 0.98528458949676634 0.98528458949702458 1.516045488389935 0.979347826088805 0.40787109374939401 2 0.76640924832151791 0.84894166339049981 2 0.98528458949676634 0.98528458949702458 1.516045488389935 0.63209459459459538 0.63209459459460771 1.3679054054053961 0.979347826088805 0.40787109374939401 2 1.2526822839324241 0.59772980398008735 1.402270196020621 0.98528458949676634 0.98528458949702458 1.516045488389935 0.63209459459459538 0.63209459459460771 1.3679054054053961 0.979347826088805 0.40787109374939401 2 0.59772980397967113 1.252682283932151 1.4022701960199091 0.76640924832151791 0.84894166339049981 2 0.98528458949676634 0.98528458949702458 1.516045488389935 0.63209459459459538 0.63209459459460771 1.3679054054053961 0.4078710937509023 1.020652173913281 2 0.57500000000013385 0.57500000000013385 2 0.76640924832151791 0.84894166339049981 2 0.63209459459459538 0.63209459459460771 1.3679054054053961 0.59772980397967113 1.252682283932151 1.4022701960199091 0.4078710937509023 1.020652173913281 2 0.76640924832151791 0.84894166339049981 2 0.63209459459459538 0.63209459459460771 1.3679054054053961 0.57500000000013385 0.57500000000013385 2 0.76640924832151791 0.84894166339049981 2 0.63209459459459538 0.63209459459460771 1.3679054054053961 0.979347826088805 0.40787109374939401 2 1.1535857644027949 0.76541035719405237 2 1.000000000001781 0.99999999999894518 2 0.76640924832151791 0.84894166339049981 2 0.98528458949676634 0.98528458949702458 1.516045488389935 0.59772980397989239 0.59772980397970443 0.74731771606769093 0.63209459459459538 0.63209459459460771 1.3679054054053961 0.48528811404415773 0.99061345538166756 1.009386544617999 0.98528458949709452 0.48395451161029718 1.014715410503322 1 0.99999999999999978 0.99999999999999978 0.98528458949676634 0.98528458949702458 1.516045488389935 0.63209459459459538 0.63209459459460771 1.3679054054053961 0.98528458949709452 0.48395451161029718 1.014715410503322 1 0.99999999999999978 0.99999999999999978 0.63209459459459538 0.63209459459460771 1.3679054054053961 0.48528811404415773 0.99061345538166756 1.009386544617999 0.98528458949709452 0.48395451161029718 1.014715410503322 1 0.99999999999999978 0.99999999999999978 0.98528458949676634 0.98528458949702458 1.516045488389935 0.63209459459459538 0.63209459459460771 1.3679054054053961 0.48528811404415773 0.99061345538166756 1.009386544617999 0.59772980397967113 1.252682283932151 1.4022701960199091 0.98528458949676634 0.98528458949702458 1.516045488389935 0.63209459459459538 0.63209459459460771 1.3679054054053961 0.48528811404415773 0.99061345538166756 1.009386544617999 1.2526822839324241 0.59772980398008735 1.402270196020621 0.98528458949676634 0.98528458949702458 1.516045488389935 0.63209459459459538 0.63209459459460771 1.3679054054053961 0.98528458949709452 0.48395451161029718 1.014715410503322 0 0.97934782608799098 1.5921289062499051 0.63209459459459538 0.63209459459460771 1.3679054054053961 0.48528811404415773 0.99061345538166756 1.009386544617999 0 0.73703553820768952 1.137914212601322 0.59772980397989239 0.59772980397970443 0.74731771606769093 0.63209459459459538 0.63209459459460771 1.3679054054053961 0.48528811404415773 0.99061345538166756 1.009386544617999 0 0.73703553820768952 1.137914212601322 0.59772980397967113 1.252682283932151 1.4022701960199091 0 0.97934782608799098 1.5921289062499051 0.63209459459459538 0.63209459459460771 1.3679054054053961 0.48528811404415773 0.99061345538166756 1.009386544617999 0 1.1379319433661621 1.2629046154773571 0 0.97934782608799098 1.5921289062499051 0.48528811404415773 0.99061345538166756 1.009386544617999 0 0.73703553820768952 1.137914212601322 0 0.97934782608799098 1.5921289062499051 0.63209459459459538 0.63209459459460771 1.3679054054053961 0 0.57499999999972706 1.4249999999995451 0 0.73703553820768952 1.137914212601322 0 0.40787109374995661 0.97934782608798243 0.59772980397989239 0.59772980397970443 0.74731771606769093 0.63209459459459538 0.63209459459460771 1.3679054054053961 0 0.73703553820768952 1.137914212601322 0 0.40787109374995661 0.97934782608798243 0.63209459459459538 0.63209459459460771 1.3679054054053961 0 0.57499999999972706 1.4249999999995451 0 0.73703553820768952 1.137914212601322 0 1.0000000000000291 0.99999999999996969 0 1.1379319433661621 1.2629046154773571 0.48528811404415773 0.99061345538166756 1.009386544617999 0 0.73703553820768952 1.137914212601322 0.63209459459459538 0.63209459459460771 1.3679054054053961 0 0.26340755208329458 1.374036231884757 0.26340755208335531 0 1.374036231884725 0.33416666666682932 0 1.665833333333445 0.63209459459459538 0.63209459459460771 1.3679054054053961 0.26340755208335531 0 1.374036231884725 0.57499999999978968 0 1.424999999999482 0.33416666666682932 0 1.665833333333445 0.40787109375015718 0 0.97934782608792492 0 0.40787109374995661 0.97934782608798243 0.59772980397989239 0.59772980397970443 0.74731771606769093 0.63209459459459538 0.63209459459460771 1.3679054054053961 0 0.40787109374995661 0.97934782608798243 0.63209459459459538 0.63209459459460771 1.3679054054053961 0 0.26340755208329458 1.374036231884757 0.26340755208335531 0 1.374036231884725 0.40787109375015718 0 0.97934782608792492 0 0.40787109374995661 0.97934782608798243 0.63209459459459538 0.63209459459460771 1.3679054054053961 0.26340755208335531 0 1.374036231884725 0 0.40787109374995661 0.97934782608798243 0.63209459459459538 0.63209459459460771 1.3679054054053961 0 0.57499999999972706 1.4249999999995451 0 0.26340755208329458 1.374036231884757 0.40787109375015718 0 0.97934782608792492 0.63209459459459538 0.63209459459460771 1.3679054054053961 0.26340755208335531 0 1.374036231884725 0.57499999999978968 0 1.424999999999482 0.63209459459459538 0.63209459459460771 1.3679054054053961 0 0.57499999999972706 1.4249999999995451 0 0.26340755208329458 1.374036231884757 0 0.33416666666678929 1.6658333333334849 0 0.26340755208329458 1.374036231884757 0.26340755208335531 0 1.374036231884725 0 0 1.200000000002774 0 0 1.6000000000000001 0.40787109375015718 0 0.97934782608792492 0 0.40787109374995661 0.97934782608798243 0.26340755208335531 0 1.374036231884725 0 0 1.200000000002774 0 0.40787109374995661 0.97934782608798243 0 0.26340755208329458 1.374036231884757 0.26340755208335531 0 1.374036231884725 0 0 1.200000000002774 0.63209459459459538 0.63209459459460771 1.3679054054053961 0.73709538452274337 0 1.137931943365984 0.57499999999978968 0 1.424999999999482 0.97934782608803661 0 1.5921289062498969 0.40787109375015718 0 0.97934782608792492 0.63209459459459538 0.63209459459460771 1.3679054054053961 0.73709538452274337 0 1.137931943365984 0.57499999999978968 0 1.424999999999482 0.40787109375015718 0 0.97934782608792492 0.59772980397989239 0.59772980397970443 0.74731771606769093 0.63209459459459538 0.63209459459460771 1.3679054054053961 0.73709538452274337 0 1.137931943365984 1.2526822839324241 0.59772980398008735 1.402270196020621 0.63209459459459538 0.63209459459460771 1.3679054054053961 0.98528458949709452 0.48395451161029718 1.014715410503322 0.97934782608803661 0 1.5921289062498969 0.59772980397989239 0.59772980397970443 0.74731771606769093 0.63209459459459538 0.63209459459460771 1.3679054054053961 0.73709538452274337 0 1.137931943365984 0.98528458949709452 0.48395451161029718 1.014715410503322 0.63209459459459538 0.63209459459460771 1.3679054054053961 0.73709538452274337 0 1.137931943365984 0.98528458949709452 0.48395451161029718 1.014715410503322 0.97934782608803661 0 1.5921289062498969 1.1393113769850489 0 1.263313302510394 0.73709538452274337 0 1.137931943365984 0.98528458949709452 0.48395451161029718 1.014715410503322 0.97934782608803661 0 1.5921289062498969 1.0000000000002141 0 0.99999999999992895 1.1393113769850489 0 1.263313302510394 0.73709538452274337 0 1.137931943365984 0.98528458949709452 0.48395451161029718 1.014715410503322 0.63209459459459538 0.63209459459460771 1.3679054054053961 0.57499999999978968 0 1.424999999999482 0.62412558229932147 0 1.7349990699404549 0.97934782608803661 0 1.5921289062498969 0.57500000000013385 0.57500000000013385 2 0.63209459459459538 0.63209459459460771 1.3679054054053961 0.979347826088805 0.40787109374939401 2 0.61665443494899885 0.26235908848011791 2 0.63209459459459538 0.63209459459460771 1.3679054054053961 0.62412558229932147 0 1.7349990699404549 0.61665443494899885 0.26235908848011791 2 0.33416666666682932 0 1.665833333333445 0.63209459459459538 0.63209459459460771 1.3679054054053961 0.62412558229932147 0 1.7349990699404549 0.97934782608803661 0 1.5921289062498969 0.979347826088805 0.40787109374939401 2 0.63209459459459538 0.63209459459460771 1.3679054054053961 0.57499999999978968 0 1.424999999999482 0.62412558229932147 0 1.7349990699404549 0.33416666666682932 0 1.665833333333445 1.2526822839324241 0.59772980398008735 1.402270196020621 0.63209459459459538 0.63209459459460771 1.3679054054053961 0.97934782608803661 0 1.5921289062498969 0.979347826088805 0.40787109374939401 2 0.57500000000013385 0.57500000000013385 2 0.63209459459459538 0.63209459459460771 1.3679054054053961 0.61665443494899885 0.26235908848011791 2 0.32892434865106179 0.32892434865106179 2 0.63209459459459538 0.63209459459460771 1.3679054054053961 0.62412558229932147 0 1.7349990699404549 0.979347826088805 0.40787109374939401 2 0.61665443494899885 0.26235908848011791 2 0.62412558229932147 0 1.7349990699404549 0.80000000000332872 0 2 0.979347826088805 0.40787109374939401 2 0.61665443494899885 0.26235908848011791 2 1.200000000002774 0 2 0.97934782608803661 0 1.5921289062498969 0.80000000000332872 0 2 0.979347826088805 0.40787109374939401 2 0.62412558229932147 0 1.7349990699404549 0.97934782608803661 0 1.5921289062498969 0.80000000000332872 0 2 0.979347826088805 0.40787109374939401 2 0.62412558229932147 0 1.7349990699404549 0.80000000000332872 0 2 0.61665443494899885 0.26235908848011791 2 0.40000000000166441 0 2 0.61665443494899885 0.26235908848011791 2 0.40000000000166441 0 2 0.33416666666682932 0 1.665833333333445 0.32892434865106179 0.32892434865106179 2 0.26235908848041961 0.62491530451389399 2 0.63209459459459538 0.63209459459460771 1.3679054054053961 0.32892434865106179 0.32892434865106179 2 0 0.33416666666678929 1.6658333333334849 0.62412558229932147 0 1.7349990699404549 0.61665443494899885 0.26235908848011791 2 0.40000000000166441 0 2 0.33416666666682932 0 1.665833333333445 0.63209459459459538 0.63209459459460771 1.3679054054053961 0.61665443494899885 0.26235908848011791 2 0.33416666666682932 0 1.665833333333445 0.32892434865106179 0.32892434865106179 2 0.63209459459459538 0.63209459459460771 1.3679054054053961 0 0.26340755208329458 1.374036231884757 0.33416666666682932 0 1.665833333333445 0 0.33416666666678929 1.6658333333334849 0.40000000000166441 0 2 0.33416666666682932 0 1.665833333333445 0.32892434865106179 0.32892434865106179 2 0 0 2 0.63209459459459538 0.63209459459460771 1.3679054054053961 0.33416666666682932 0 1.665833333333445 0.32892434865106179 0.32892434865106179 2 0 0.33416666666678929 1.6658333333334849 0.32892434865106179 0.32892434865106179 2 0 0.40000000000166441 2 0 0.33416666666678929 1.6658333333334849 0 0 2 0 0.62412558229928472 1.7349990699404849 0.26235908848041961 0.62491530451389399 2 0 0.40000000000166441 2 0 0.33416666666678929 1.6658333333334849 0.26235908848041961 0.62491530451389399 2 0.32892434865106179 0.32892434865106179 2 0 0.40000000000166441 2 0 0.33416666666678929 1.6658333333334849 0.33416666666682932 0 1.665833333333445 0 0.33416666666678929 1.6658333333334849 0 0 1.6000000000000001 0 0 2 0 0.26340755208329458 1.374036231884757 0.26340755208335531 0 1.374036231884725 0.33416666666682932 0 1.665833333333445 0 0 1.6000000000000001 0 0.26340755208329458 1.374036231884757 0.33416666666682932 0 1.665833333333445 0 0.33416666666678929 1.6658333333334849 0 0 1.6000000000000001 0.33416666666682932 0 1.665833333333445 0.32892434865106179 0.32892434865106179 2 0 0.33416666666678929 1.6658333333334849 0 0 2 
</DataArray>
</Points>
<Cells>
<DataArray type="UInt32" Name="connectivity" format="ascii">
0 1 2 3 4 5 6 7 8 9 10 11 12 13 14 15 16 17 18 19 20 21 22 23 24 25 26 27 28 29 30 31 32 33 34 35 36 37 38 39 40 41 42 43 44 45 46 47 48 49 50 51 52 53 54 55 56 57 58 59 60 61 62 63 64 65 66 67 68 69 70 71 72 73 74 75 76 77 78 79 80 81 82 83 84 85 86 87 88 89 90 91 92 93 94 95 96 97 98 99 100 101 102 103 104 105 106 107 108 109 110 111 112 113 114 115 116 117 118 119 120 121 122 123 124 125 126 127 128 129 130 131 132 133 134 135 136 137 138 139 140 141 142 143 144 145 146 147 148 149 150 151 152 153 154 155 156 157 158 159 160 161 162 163 164 165 166 167 168 169 170 171 172 173 174 175 176 177 178 179 180 181 182 183 184 185 186 187 188 189 190 191 192 193 194 195 196 197 198 199 200 201 202 203 204 205 206 207 208 209 210 211 212 213 214 215 216 217 218 219 220 221 222 223 224 225 226 227 228 229 230 231 232 233 234 235 236 237 238 239 240 241 242 243 244 245 246 247 248 249 250 251 252 253 254 255 256 257 258 259 260 261 262 263 264 265 266 267 268 269 270 271 272 273 274 275 276 277 278 279 280 281 282 283 284 285 286 287 288 289 290 291 292 293 294 295 296 297 298 299 300 301 302 303 304 305 306 307 308 309 310 311 312 313 314 315 316 317 318 319 320 321 322 323 324 325 326 327 328 329 330 331 332 333 334 335 336 337 338 339 340 341 342 343 344 345 346 347 348 349 350 351 352 353 354 355 356 357 358 359 360 361 362 363 364 365 366 367 368 369 370 371 372 373 374 375 376 377 378 379 380 381 382 383 384 385 386 387 388 389 390 391 392 393 394 395 396 397 398 399 400 401 402 403 404 405 406 407 408 409 410 411 412 413 414 415 416 417 418 419 420 421 422 423 424 425 426 427 428 429 430 431 432 433 434 435 436 437 438 439 440 441 442 443 444 445 446 447 448 449 450 451 452 453 454 455 456 457 458 459 460 461 462 463 464 465 466 467 468 469 470 471 472 473 474 475 476 477 478 479 480 481 482 483 484 485 486 487 488 489 490 491 492 493 494 495 496 497 498 499 500 501 502 503 504 505 506 507 508 509 510 511 512 513 514 515 516 517 518 519 520 521 522 523 524 525 526 527 528 529 530 531 532 533 534 535 536 537 538 539 540 541 542 543 544 545 546 547 548 549 550 551 552 553 554 555 556 557 558 559 560 561 562 563 564 565 566 567 568 569 570 571 572 573 574 575 576 577 578 579 580 581 582 583 584 585 586 587 588 589 590 591 592 593 594 595 596 597 598 599 600 601 602 603 604 605 606 607 608 609 610 611 612 613 614 615 616 617 618 619 620 621 622 623 624 625 626 627 628 629 630 631 632 633 634 635 636 637 638 639 640 641 642 643 644 645 646 647 648 649 650 651 652 653 654 655 656 657 658 659 660 661 662 663 664 665 666 667 668 669 670 671 672 673 674 675 676 677 678 679 680 681 682 683 684 685 686 687 688 689 690 691 692 693 694 695 696 697 698 699 700 701 702 703 704 705 706 707 708 709 710 711 712 713 714 715 716 717 718 719 720 721 722 723 724 725 726 727 728 729 730 731 732 733 734 735 736 737 738 739 740 741 742 743 744 745 746 747 748 749 750 751 752 753 754 755 756 757 758 759 760 761 762 763 764 765 766 767 768 769 770 771 772 773 774 775 776 777 778 779 780 781 782 783 784 785 786 787 788 789 790 791 792 793 794 795 796 797 798 799 800 801 802 803 804 805 806 807 808 809 810 811 812 813 814 815 816 817 818 819 820 821 822 823 824 825 826 827 828 829 830 831 832 833 834 835 836 837 838 839 840 841 842 843 844 845 846 847 848 849 850 851 852 853 854 855 856 857 858 859 860 861 862 863 864 865 866 867 868 869 870 871 872 873 874 875 876 877 878 879 880 881 882 883 884 885 886 887 888 889 890 891 892 893 894 895 896 897 898 899 900 901 902 903 904 905 906 907 908 909 910 911 912 913 914 915 916 917 918 919 920 921 922 923 924 925 926 927 928 929 930 931 932 933 934 935 936 937 938 939 940 941 942 943 944 945 946 947 948 949 950 951 952 953 954 955 956 957 958 959 960 961 962 963 964 965 966 967 968 969 970 971 972 973 974 975 976 977 978 979 980 981 982 983 984 985 986 987 988 989 990 991 992 993 994 995 996 997 998 999 1000 1001 1002 1003 1004 1005 1006 1007 1008 1009 1010 1011 1012 1013 1014 1015 1016 1017 1018 1019 1020 1021 1022 1023 1024 1025 1026 1027 1028 1029 1030 1031 1032 1033 1034 1035 1036 1037 1038 1039 1040 1041 1042 1043 1044 1045 1046 1047 1048 1049 1050 1051 1052 1053 1054 1055 1056 1057 1058 1059 1060 1061 1062 1063 1064 1065 1066 1067 1068 1069 1070 1071 1072 1073 1074 1075 1076 1077 1078 1079 1080 1081 1082 1083 1084 1085 1086 1087 1088 1089 1090 1091 1092 1093 1094 1095 1096 1097 1098 1099 1100 1101 1102 1103 1104 1105 1106 1107 1108 1109 1110 1111 1112 1113 1114 1115 1116 1117 1118 1119 1120 1121 1122 1123 1124 1125 1126 1127 1128 1129 1130 1131 1132 1133 1134 1135 1136 1137 1138 1139 1140 1141 1142 1143 1144 1145 1146 1147 1148 1149 1150 1151 1152 1153 1154 1155 1156 1157 1158 1159 1160 1161 1162 1163 1164 1165 1166 1167 1168 1169 1170 1171 1172 1173 1174 1175 1176 1177 1178 1179 1180 1181 1182 1183 1184 1185 1186 1187 1188 1189 1190 1191 1192 1193 1194 1195 1196 1197 1198 1199 1200 1201 1202 1203 1204 1205 1206 1207 1208 1209 1210 1211 1212 1213 1214 1215 1216 1217 1218 1219 1220 1221 1222 1223 1224 1225 1226 1227 1228 1229 1230 1231 1232 1233 1234 1235 1236 1237 1238 1239 1240 1241 1242 1243 1244 1245 1246 1247 1248 1249 1250 1251 1252 1253 1254 1255 1256 1257 1258 1259 1260 1261 1262 1263 1264 1265 1266 1267 1268 1269 1270 1271 1272 1273 1274 1275 1276 1277 1278 1279 1280 1281 1282 1283 1284 1285 1286 1287 1288 1289 1290 1291 1292 1293 1294 1295 1296 1297 1298 1299 1300 1301 1302 1303 1304 1305 1306 1307 1308 1309 1310 1311 1312 1313 1314 1315 1316 1317 1318 1319 1320 1321 1322 1323 1324 1325 1326 1327 1328 1329 1330 1331 1332 1333 1334 1335 1336 1337 1338 1339 1340 1341 1342 1343 1344 1345 1346 1347 1348 1349 1350 1351 1352 1353 1354 1355 1356 1357 1358 1359 1360 1361 1362 1363 1364 1365 1366 1367 1368 1369 1370 1371 1372 1373 1374 1375 1376 1377 1378 1379 1380 1381 1382 1383 1384 1385 1386 1387 1388 1389 1390 1391 1392 1393 1394 1395 1396 1397 1398 1399 1400 1401 1402 1403 1404 1405 1406 1407 1408 1409 1410 1411 1412 1413 1414 1415 1416 1417 1418 1419 1420 1421 1422 1423 1424 1425 1426 1427 1428 1429 1430 1431 1432 1433 1434 1435 1436 1437 1438 1439 1440 1441 1442 1443 1444 1445 1446 1447 1448 1449 1450 1451 1452 1453 1454 1455 1456 1457 1458 1459 1460 1461 1462 1463 1464 1465 1466 1467 1468 1469 1470 1471 1472 1473 1474 1475 1476 1477 1478 1479 1480 1481 1482 1483 1484 1485 1486 1487 1488 1489 1490 1491 1492 1493 1494 1495 1496 1497 1498 1499 1500 1501 1502 1503 1504 1505 1506 1507 1508 1509 1510 1511 1512 1513 1514 1515 1516 1517 1518 1519 1520 1521 1522 1523 1524 1525 1526 1527 1528 1529 1530 1531 1532 1533 1534 1535 1536 1537 1538 1539 1540 1541 1542 1543 1544 1545 1546 1547 1548 1549 1550 1551 1552 1553 1554 1555 1556 1557 1558 1559 1560 1561 1562 1563 1564 1565 1566 1567 1568 1569 1570 1571 1572 1573 1574 1575 1576 1577 1578 1579 1580 1581 1582 1583 1584 1585 1586 1587 1588 1589 1590 1591 1592 1593 1594 1595 1596 1597 1598 1599 1600 1601 1602 1603 1604 1605 1606 1607 1608 1609 1610 1611 1612 1613 1614 1615 1616 1617 1618 1619 1620 1621 1622 1623 1624 1625 1626 1627 1628 1629 1630 1631 1632 1633 1634 1635 1636 1637 1638 1639 1640 1641 1642 1643 1644 1645 1646 1647 1648 1649 1650 1651 1652 1653 1654 1655 1656 1657 1658 1659 1660 1661 1662 1663 1664 1665 1666 1667 1668 1669 1670 1671 1672 1673 1674 1675 1676 1677 1678 1679 1680 1681 1682 1683 1684 1685 1686 1687 1688 1689 1690 1691 1692 1693 1694 1695 1696 1697 1698 1699 1700 1701 1702 1703 1704 1705 1706 1707 1708 1709 1710 1711 1712 1713 1714 1715 1716 1717 1718 1719 1720 1721 1722 1723 1724 1725 1726 1727 1728 1729 1730 1731 1732 1733 1734 1735 1736 1737 1738 1739 1740 1741 1742 1743 1744 1745 1746 1747 1748 1749 1750 1751 1752 1753 1754 1755 1756 1757 1758 1759 1760 1761 1762 1763 1764 1765 1766 1767 1768 1769 1770 1771 1772 1773 1774 1775 1776 1777 1778 1779 1780 1781 1782 1783 1784 1785 1786 1787 1788 1789 1790 1791 1792 1793 1794 1795 1796 1797 1798 1799 1800 1801 1802 1803 1804 1805 1806 1807 1808 1809 1810 1811 1812 1813 1814 1815 1816 1817 1818 1819 1820 1821 1822 1823 1824 1825 1826 1827 1828 1829 1830 1831 1832 1833 1834 1835 1836 1837 1838 1839 1840 1841 1842 1843 1844 1845 1846 1847 1848 1849 1850 1851 1852 1853 1854 1855 1856 1857 1858 1859 1860 1861 1862 1863 1864 1865 1866 1867 1868 1869 1870 1871 1872 1873 1874 1875 1876 1877 1878 1879 1880 1881 1882 1883 1884 1885 1886 1887 1888 1889 1890 1891 1892 1893 1894 1895 1896 1897 1898 1899 1900 1901 1902 1903 1904 1905 1906 1907 1908 1909 1910 1911 1912 1913 1914 1915 1916 1917 1918 1919 1920 1921 1922 1923 1924 1925 1926 1927 1928 1929 1930 1931 1932 1933 1934 1935 1936 1937 1938 1939 1940 1941 1942 1943 1944 1945 1946 1947 1948 1949 1950 1951 1952 1953 1954 1955 1956 1957 1958 1959 1960 1961 1962 1963 1964 1965 1966 1967 1968 1969 1970 1971 1972 1973 1974 1975 1976 1977 1978 1979 1980 1981 1982 1983 1984 1985 1986 1987 1988 1989 1990 1991 1992 1993 1994 1995 1996 1997 1998 1999 2000 2001 2002 2003 2004 2005 2006 2007 2008 2009 2010 2011 2012 2013 2014 2015 2016 2017 2018 2019 2020 2021 2022 2023 2024 2025 2026 2027 2028 2029 2030 2031 2032 2033 2034 2035 2036 2037 2038 2039 2040 2041 2042 2043 2044 2045 2046 2047 2048 2049 2050 2051 2052 2053 2054 2055 2056 2057 2058 2059 2060 2061 2062 2063 2064 2065 2066 2067 2068 2069 2070 2071 2072 2073 2074 2075 2076 2077 2078 2079 2080 2081 2082 2083 2084 2085 2086 2087 2088 2089 2090 2091 2092 2093 2094 2095 2096 2097 2098 2099 2100 2101 2102 2103 2104 2105 2106 2107 2108 2109 2110 2111 2112 2113 2114 2115 2116 2117 2118 2119 2120 2121 2122 2123 2124 2125 2126 2127 2128 2129 2130 2131 2132 2133 2134 2135 2136 2137 2138 2139 2140 2141 2142 2143 2144 2145 2146 2147 2148 2149 2150 2151 2152 2153 2154 2155 2156 2157 2158 2159 2160 2161 2162 2163 2164 2165 2166 2167 2168 2169 2170 2171 2172 2173 2174 2175 2176 2177 2178 2179 2180 2181 2182 2183 2184 2185 2186 2187 2188 2189 2190 2191 2192 2193 2194 2195 2196 2197 2198 2199 2200 2201 2202 2203 2204 2205 2206 2207 2208 2209 2210 2211 2212 2213 2214 2215 2216 2217 2218 2219 2220 2221 2222 2223 2224 2225 2226 2227 2228 2229 2230 2231 2232 2233 2234 2235 2236 2237 2238 2239 2240 2241 2242 2243 2244 2245 2246 2247 2248 2249 2250 2251 2252 2253 2254 2255 2256 2257 2258 2259 2260 2261 2262 2263 2264 2265 2266 2267 2268 2269 2270 2271 2272 2273 2274 2275 2276 2277 2278 2279 2280 2281 2282 2283 2284 2285 2286 2287 2288 2289 2290 2291 2292 2293 2294 2295 2296 2297 2298 2299 2300 2301 2302 2303 2304 2305 2306 2307 2308 2309 2310 2311 2312 2313 2314 2315 2316 2317 2318 2319 2320 2321 2322 2323 2324 2325 2326 2327 2328 2329 2330 2331 2332 2333 2334 2335 2336 2337 2338 2339 2340 2341 2342 2343 2344 2345 2346 2347 2348 2349 2350 2351 2352 2353 2354 2355 2356 2357 2358 2359 2360 2361 2362 2363 2364 2365 2366 2367 2368 2369 2370 2371 2372 2373 2374 2375 2376 2377 2378 2379 2380 2381 2382 2383 2384 2385 2386 2387 2388 2389 2390 2391 2392 2393 2394 2395 2396 2397 2398 2399 2400 2401 2402 2403 2404 2405 2406 2407 2408 2409 2410 2411 2412 2413 2414 2415 2416 2417 2418 2419 2420 2421 2422 2423 2424 2425 2426 2427 2428 2429 2430 2431 2432 2433 2434 2435 2436 2437 2438 2439 2440 2441 2442 2443 2444 2445 2446 2447 2448 2449 2450 2451 2452 2453 2454 2455 2456 2457 2458 2459 2460 2461 2462 2463 2464 2465 2466 2467 2468 2469 2470 2471 2472 2473 2474 2475 2476 2477 2478 2479 2480 2481 2482 2483 2484 2485 2486 2487 2488 2489 2490 2491 2492 2493 2494 2495 2496 2497 2498 2499 2500 2501 2502 2503 2504 2505 2506 2507 2508 2509 2510 2511 2512 2513 2514 2515 2516 2517 2518 2519 2520 2521 2522 2523 2524 2525 2526 2527 2528 2529 2530 2531 2532 2533 2534 2535 2536 2537 2538 2539 2540 2541 2542 2543 2544 2545 2546 2547 2548 2549 2550 2551 2552 2553 2554 2555 2556 2557 2558 2559 2560 2561 2562 2563 2564 2565 2566 2567 2568 2569 2570 2571 2572 2573 2574 2575 2576 2577 2578 2579 2580 2581 2582 2583 2584 2585 2586 2587 2588 2589 2590 2591 2592 2593 2594 2595 2596 2597 2598 2599 2600 2601 2602 2603 2604 2605 2606 2607 2608 2609 2610 2611 2612 2613 2614 2615 2616 2617 2618 2619 2620 2621 2622 2623 2624 2625 2626 2627 2628 2629 2630 2631 2632 2633 2634 2635 2636 2637 2638 2639 2640 2641 2642 2643 2644 2645 2646 2647 2648 2649 2650 2651 2652 2653 2654 2655 2656 2657 2658 2659 2660 2661 2662 2663 2664 2665 2666 2667 2668 2669 2670 2671 2672 2673 2674 2675 2676 2677 2678 2679 2680 2681 2682 2683 2684 2685 2686 2687 2688 2689 2690 2691 2692 2693 2694 2695 2696 2697 2698 2699 2700 2701 2702 2703 2704 2705 2706 2707 2708 2709 2710 2711 2712 2713 2714 2715 2716 2717 2718 2719 2720 2721 2722 2723 2724 2725 2726 2727 2728 2729 2730 2731 2732 2733 2734 2735 2736 2737 2738 2739 2740 2741 2742 2743 2744 2745 2746 2747 2748 2749 2750 2751 2752 2753 2754 2755 2756 2757 2758 2759 2760 2761 2762 2763 2764 2765 2766 2767 2768 2769 2770 2771 2772 2773 2774 2775 2776 2777 2778 2779 2780 2781 2782 2783 2784 2785 2786 2787 2788 2789 2790 2791 2792 2793 2794 2795 2796 2797 2798 2799 2800 2801 2802 2803 2804 2805 2806 2807 2808 2809 2810 2811 2812 2813 2814 2815 2816 2817 2818 2819 2820 2821 2822 2823 
</DataArray>
<DataArray type="UInt32" Name="offsets" format="ascii">
4 8 12 16 20 24 28 32 36 40 44 48 52 56 60 64 68 72 76 80 84 88 92 96 100 104 108 112 116 120 124 128 132 136 140 144 148 152 156 160 164 168 172 176 180 184 188 192 196 200 204 208 212 216 220 224 228 232 236 240 244 248 252 256 260 264 268 272 276 280 284 288 292 296 300 304 308 312 316 320 324 328 332 336 340 344 348 352 356 360 364 368 372 376 380 384 388 392 396 400 404 408 412 416 420 424 428 432 436 440 444 448 452 456 460 464 468 472 476 480 484 488 492 496 500 504 508 512 516 520 524 528 532 536 540 544 548 552 556 560 564 568 572 576 580 584 588 592 596 600 604 608 612 616 620 624 628 632 636 640 644 648 652 656 660 664 668 672 676 680 684 688 692 696 700 704 708 712 716 720 724 728 732 736 740 744 748 752 756 760 764 768 772 776 780 784 788 792 796 800 804 808 812 816 820 824 828 832 836 840 844 848 852 856 860 864 868 872 876 880 884 888 892 896 900 904 908 912 916 920 924 928 932 936 940 944 948 952 956 960 964 968 972 976 980 984 988 992 996 1000 1004 1008 1012 1016 1020 1024 1028 1032 1036 1040 1044 1048 1052 1056 1060 1064 1068 1072 1076 1080 1084 1088 1092 1096 1100 1104 1108 1112 1116 1120 1124 1128 1132 1136 1140 1144 1148 1152 1156 1160 1164 1168 1172 1176 1180 1184 1188 1192 1196 1200 1204 1208 1212 1216 1220 1224 1228 1232 1236 1240 1244 1248 1252 1256 1260 1264 1268 1272 1276 1280 1284 1288 1292 1296 1300 1304 1308 1312 1316 1320 1324 1328 1332 1336 1340 1344 1348 1352 1356 1360 1364 1368 1372 1376 1380 1384 1388 1392 1396 1400 1404 1408 1412 1416 1420 1424 1428 1432 1436 1440 1444 1448 1452 1456 1460 1464 1468 1472 1476 1480 1484 1488 1492 1496 1500 1504 1508 1512 1516 1520 1524 1528 1532 1536 1540 1544 1548 1552 1556 1560 1564 1568 1572 1576 1580 1584 1588 1592 1596 1600 1604 1608 1612 1616 1620 1624 1628 1632 1636 1640 1644 1648 1652 1656 1660 1664 1668 1672 1676 1680 1684 1688 1692 1696 1700 1704 1708 1712 1716 1720 1724 1728 1732 1736 1740 1744 1748 1752 1756 1760 1764 1768 1772 1776 1780 1784 1788 1792 1796 1800 1804 1808 1812 1816 1820 1824 1828 1832 1836 1840 1844 1848 1852 1856 1860 1864 1868 1872 1876 1880 1884 1888 1892 1896 1900 1904 1908 1912 1916 1920 1924 1928 1932 1936 1940 1944 1948 1952 1956 1960 1964 1968 1972 1976 1980 1984 1988 1992 1996 2000 2004 2008 2012 2016 2020 2024 2028 2032 2036 2040 2044 2048 2052 2056 2060 2064 2068 2072 2076 2080 2084 2088 2092 2096 2100 2104 2108 2112 2116 2120 2124 2128 2132 2136 2140 2144 2148 2152 2156 2160 2164 2168 2172 2176 2180 2184 2188 2192 2196 2200 2204 2208 2212 2216 2220 2224 2228 2232 2236 2240 2244 2248 2252 2256 2260 2264 2268 2272 2276 2280 2284 2288 2292 2296 2300 2304 2308 2312 2316 2320 2324 2328 2332 2336 2340 2344 2348 2352 2356 2360 2364 2368 2372 2376 2380 2384 2388 2392 2396 2400 2404 2408 2412 2416 2420 2424 2428 2432 2436 2440 2444 2448 2452 2456 2460 2464 2468 2472 2476 2480 2484 2488 2492 2496 2500 2504 2508 2512 2516 2520 2524 2528 2532 2536 2540 2544 2548 2552 2556 2560 2564 2568 2572 2576 2580 2584 2588 2592 2596 2600 2604 2608 2612 2616 2620 2624 2628 2632 2636 2640 2644 2648 2652 2656 2660 2664 2668 2672 2676 2680 2684 2688 2692 2696 2700 2704 2708 2712 2716 2720 2724 2728 2732 2736 2740 2744 2748 2752 2756 2760 2764 2768 2772 2776 2780 2784 2788 2792 2796 2800 2804 2808 2812 2816 2820 2824 
</DataArray>
<DataArray type="UInt32" Name="types" format="ascii">
10 10 10 10 10 10 10 10 10 10 10 10 10 10 10 10 10 10 10 10 10 10 10 10 10 10 10 10 10 10 10 10 10 10 10 10 10 10 10 10 10 10 10 10 10 10 10 10 10 10 10 10 10 10 10 10 10 10 10 10 10 10 10 10 10 10 10 10 10 10 10 10 10 10 10 10 10 10 10 10 10 10 10 10 10 10 10 10 10 10 10 10 10 10 10 10 10 10 10 10 10 10 10 10 10 10 10 10 10 10 10 10 10 10 10 10 10 10 10 10 10 10 10 10 10 10 10 10 10 10 10 10 10 10 10 10 10 10 10 10 10 10 10 10 10 10 10 10 10 10 10 10 10 10 10 10 10 10 10 10 10 10 10 10 10 10 10 10 10 10 10 10 10 10 10 10 10 10 10 10 10 10 10 10 10 10 10 10 10 10 10 10 10 10 10 10 10 10 10 10 10 10 10 10 10 10 10 10 10 10 10 10 10 10 10 10 10 10 10 10 10 10 10 10 10 10 10 10 10 10 10 10 10 10 10 10 10 10 10 10 10 10 10 10 10 10 10 10 10 10 10 10 10 10 10 10 10 10 10 10 10 10 10 10 10 10 10 10 10 10 10 10 10 10 10 10 10 10 10 10 10 10 10 10 10 10 10 10 10 10 10 10 10 10 10 10 10 10 10 10 10 10 10 10 10 10 10 10 10 10 10 10 10 10 10 10 10 10 10 10 10 10 10 10 10 10 10 10 10 10 10 10 10 10 10 10 10 10 10 10 10 10 10 10 10 10 10 10 10 10 10 10 10 10 10 10 10 10 10 10 10 10 10 10 10 10 10 10 10 10 10 10 10 10 10 10 10 10 10 10 10 10 10 10 10 10 10 10 10 10 10 10 10 10 10 10 10 10 10 10 10 10 10 10 10 10 10 10 10 10 10 10 10 10 10 10 10 10 10 10 10 10 10 10 10 10 10 10 10 10 10 10 10 10 10 10 10 10 10 10 10 10 10 10 10 10 10 10 10 10 10 10 10 10 10 10 10 10 10 10 10 10 10 10 10 10 10 10 10 10 10 10 10 10 10 10 10 10 10 10 10 10 10 10 10 10 10 10 10 10 10 10 10 10 10 10 10 10 10 10 10 10 10 10 10 10 10 10 10 10 10 10 10 10 10 10 10 10 10 10 10 10 10 10 10 10 10 10 10 10 10 10 10 10 10 10 10 10 10 10 10 10 10 10 10 10 10 10 10 10 10 10 10 10 10 10 10 10 10 10 10 10 10 10 10 10 10 10 10 10 10 10 10 10 10 10 10 10 10 10 10 10 10 10 10 10 10 10 10 10 10 10 10 10 10 10 10 10 10 10 10 10 10 10 10 10 10 10 10 10 10 10 10 10 10 10 10 10 10 10 10 10 10 10 10 10 10 10 10 10 10 10 10 10 10 10 10 10 10 10 10 10 10 10 10 10 10 10 10 10 10 10 10 10 10 10 10 10 10 10 10 10 10 10 10 10 10 10 10 10 10 10 10 10 10 10 10 10 10 10 10 10 10 10 10 10 10 10 10 10 10 10 10 10 10 10 10 10 10 10 10 10 10 10 10 10 
</DataArray>
</Cells>
<PointData Scalars="" Vectors="displacement," Tensors="">
<DataArray type="Float64" Name="displacement" NumberOfComponents="3" format="ascii">
2.755239619968371e-06 2.4810488862690165e-06 2.1295260201078262e-05 5.6875235467796327e-06 0.018417257410526595 0.065892427694764041 9.1695010200299586e-07 1.5232227455291276e-06 2.0051176355952758e-05 0.011201486032566581 9.7109254654451827e-06 0.070777675160433984 0.011201486032566581 9.7109254654451827e-06 0.070777675160433984 0.020736113443154635 0.026560206258636379 0.077490678716586645 0.020406446605248311 4.2424947718699285e-06 0.097561821895556455 0.011456443147016396 8.3979698225876409e-06 0.10426782582687044 0.011201486032566581 9.7109254654451827e-06 0.070777675160433984 0.020736113443154635 0.026560206258636379 0.077490678716586645 0.011456443147016396 8.3979698225876409e-06 0.10426782582687044 6.9931225892433539e-06 0.022393086592888748 0.10284541439404854 5.6875235467796327e-06 0.018417257410526595 0.065892427694764041 9.1695010200299586e-07 1.5232227455291276e-06 2.0051176355952758e-05 0.020736113443154635 0.026560206258636379 0.077490678716586645 0.013814665720598307 0.037710494219946822 0.074868770381809446 5.6875235467796327e-06 0.018417257410526595 0.065892427694764041 0.011201486032566581 9.7109254654451827e-06 0.070777675160433984 0.020736113443154635 0.026560206258636379 0.077490678716586645 6.9931225892433539e-06 0.022393086592888748 0.10284541439404854 5.6875235467796327e-06 0.018417257410526595 0.065892427694764041 9.1695010200299586e-07 1.5232227455291276e-06 2.0051176355952758e-05 0.011201486032566581 9.7109254654451827e-06 0.070777675160433984 0.020736113443154635 0.026560206258636379 0.077490678716586645 4.6628328281732451e-06 6.0125865075231209e-06 0.076703325604933884 5.6875235467796327e-06 0.018417257410526595 0.065892427694764041 0.011201486032566581 9.7109254654451827e-06 0.070777675160433984 6.9931225892433539e-06 0.022393086592888748 0.10284541439404854 2.755239619968371e-06 2.4810488862690165e-06 2.1295260201078262e-05 4.6628328281732451e-06 6.0125865075231209e-06 0.076703325604933884 5.6875235467796327e-06 0.018417257410526595 0.065892427694764041 0.011201486032566581 9.7109254654451827e-06 0.070777675160433984 4.6628328281732451e-06 6.0125865075231209e-06 0.076703325604933884 0.011201486032566581 9.7109254654451827e-06 0.070777675160433984 0.011456443147016396 8.3979698225876409e-06 0.10426782582687044 6.9931225892433539e-06 0.022393086592888748 0.10284541439404854 5.6875235467796327e-06 0.018417257410526595 0.065892427694764041 5.2860126296796959e-07 2.575187032687415e-06 8.4928419737330417e-06 9.1695010200299586e-07 1.5232227455291276e-06 2.0051176355952758e-05 6.1336909820613497e-06 0.024120642461081247 0.054881076263589484 5.2860126296796959e-07 2.575187032687415e-06 8.4928419737330417e-06 9.1695010200299586e-07 1.5232227455291276e-06 2.0051176355952758e-05 3.9553748267255923e-07 2.2705649498936771e-06 8.922233150212458e-06 6.1336909820613497e-06 0.024120642461081247 0.054881076263589484 2.755239619968371e-06 2.4810488862690165e-06 2.1295260201078262e-05 5.6875235467796327e-06 0.018417257410526595 0.065892427694764041 5.2860126296796959e-07 2.575187032687415e-06 8.4928419737330417e-06 9.1695010200299586e-07 1.5232227455291276e-06 2.0051176355952758e-05 0.011201486032566581 9.7109254654451827e-06 0.070777675160433984 7.2800395157500672e-07 -4.294951077687525e-07 8.4351600362961825e-06 1.5703893652981398e-06 3.2463053177569242e-06 1.0091821946237967e-05 0.013908044374820105 7.6422131857394904e-06 0.055227450772549001 2.755239619968371e-06 2.4810488862690165e-06 2.1295260201078262e-05 9.1695010200299586e-07 1.5232227455291276e-06 2.0051176355952758e-05 0.011201486032566581 9.7109254654451827e-06 0.070777675160433984 7.2800395157500672e-07 -4.294951077687525e-07 8.4351600362961825e-06 9.1695010200299586e-07 1.5232227455291276e-06 2.0051176355952758e-05 0.011201486032566581 9.7109254654451827e-06 0.070777675160433984 7.2800395157500672e-07 -4.294951077687525e-07 8.4351600362961825e-06 1.5703893652981398e-06 3.2463053177569242e-06 1.0091821946237967e-05 1.5703893652981398e-06 3.2463053177569242e-06 1.0091821946237967e-05 1.0398411044581089e-06 -2.2489479114337572e-07 2.0105674685487232e-05 0.020736113443154635 0.026560206258636379 0.077490678716586645 0.013908044374820105 7.6422131857394904e-06 0.055227450772549001 7.2800395157500672e-07 -4.294951077687525e-07 8.4351600362961825e-06 1.5703893652981398e-06 3.2463053177569242e-06 1.0091821946237967e-05 1.0398411044581089e-06 -2.2489479114337572e-07 2.0105674685487232e-05 0.013908044374820105 7.6422131857394904e-06 0.055227450772549001 0.011201486032566581 9.7109254654451827e-06 0.070777675160433984 1.5703893652981398e-06 3.2463053177569242e-06 1.0091821946237967e-05 0.020736113443154635 0.026560206258636379 0.077490678716586645 0.013908044374820105 7.6422131857394904e-06 0.055227450772549001 2.4202613038464056e-06 2.8462520516578126e-06 1.8155847773432332e-05 0.020736113443154635 0.026560206258636379 0.077490678716586645 0.021866302512317581 1.2661007924295017e-05 0.077725771435206467 0.026885119690010686 0.041853381374923067 0.097972303769597022 9.1695010200299586e-07 1.5232227455291276e-06 2.0051176355952758e-05 0.011201486032566581 9.7109254654451827e-06 0.070777675160433984 1.5703893652981398e-06 3.2463053177569242e-06 1.0091821946237967e-05 0.020736113443154635 0.026560206258636379 0.077490678716586645 9.1695010200299586e-07 1.5232227455291276e-06 2.0051176355952758e-05 1.5703893652981398e-06 3.2463053177569242e-06 1.0091821946237967e-05 0.020736113443154635 0.026560206258636379 0.077490678716586645 1.7079428458278439e-06 2.2105020237096295e-06 1.020602384220561e-05 1.5703893652981398e-06 3.2463053177569242e-06 1.0091821946237967e-05 2.4202613038464056e-06 2.8462520516578126e-06 1.8155847773432332e-05 0.020736113443154635 0.026560206258636379 0.077490678716586645 1.7079428458278439e-06 2.2105020237096295e-06 1.020602384220561e-05 1.5703893652981398e-06 3.2463053177569242e-06 1.0091821946237967e-05 2.4202613038464056e-06 2.8462520516578126e-06 1.8155847773432332e-05 1.0398411044581089e-06 -2.2489479114337572e-07 2.0105674685487232e-05 0.020736113443154635 0.026560206258636379 0.077490678716586645 2.4202613038464056e-06 2.8462520516578126e-06 1.8155847773432332e-05 1.0398411044581089e-06 -2.2489479114337572e-07 2.0105674685487232e-05 1.3306349517579429e-06 4.4859162624633607e-07 1.1203428333709211e-05 0.021866302512317581 1.2661007924295017e-05 0.077725771435206467 2.4202613038464056e-06 2.8462520516578126e-06 1.8155847773432332e-05 1.0398411044581089e-06 -2.2489479114337572e-07 2.0105674685487232e-05 0.020736113443154635 0.026560206258636379 0.077490678716586645 0.021866302512317581 1.2661007924295017e-05 0.077725771435206467 1.0398411044581089e-06 -2.2489479114337572e-07 2.0105674685487232e-05 0.020736113443154635 0.026560206258636379 0.077490678716586645 0.013908044374820105 7.6422131857394904e-06 0.055227450772549001 0.021866302512317581 1.2661007924295017e-05 0.077725771435206467 0.011201486032566581 9.7109254654451827e-06 0.070777675160433984 0.020736113443154635 0.026560206258636379 0.077490678716586645 0.013908044374820105 7.6422131857394904e-06 0.055227450772549001 0.020406446605248311 4.2424947718699285e-06 0.097561821895556455 0.020736113443154635 0.026560206258636379 0.077490678716586645 0.013908044374820105 7.6422131857394904e-06 0.055227450772549001 0.020406446605248311 4.2424947718699285e-06 0.097561821895556455 0.021866302512317581 1.2661007924295017e-05 0.077725771435206467 0.020736113443154635 0.026560206258636379 0.077490678716586645 0.020406446605248311 4.2424947718699285e-06 0.097561821895556455 0.0296021253852768 9.8471036582973582e-06 0.11303876204983923 0.025156436676608763 0.047859731329670668 0.11490284367200337 0.020736113443154635 0.026560206258636379 0.077490678716586645 0.0296021253852768 9.8471036582973582e-06 0.11303876204983923 0.026885119690010686 0.041853381374923067 0.097972303769597022 0.033669279780451075 0.045709885445968233 0.12732842903705105 0.020406446605248311 4.2424947718699285e-06 0.097561821895556455 0.0296021253852768 9.8471036582973582e-06 0.11303876204983923 0.020229697340915186 1.1225942387533291e-05 0.12411379129233592 0.025156436676608763 0.047859731329670668 0.11490284367200337 0.020736113443154635 0.026560206258636379 0.077490678716586645 0.020406446605248311 4.2424947718699285e-06 0.097561821895556455 0.011456443147016396 8.3979698225876409e-06 0.10426782582687044 0.025156436676608763 0.047859731329670668 0.11490284367200337 0.020736113443154635 0.026560206258636379 0.077490678716586645 0.0296021253852768 9.8471036582973582e-06 0.11303876204983923 0.021866302512317581 1.2661007924295017e-05 0.077725771435206467 0.026885119690010686 0.041853381374923067 0.097972303769597022 0.0296021253852768 9.8471036582973582e-06 0.11303876204983923 0.025156436676608763 0.047859731329670668 0.11490284367200337 0.031418686427105748 9.032429064907382e-06 0.1266789986037001 0.033669279780451075 0.045709885445968233 0.12732842903705105 0.0296021253852768 9.8471036582973582e-06 0.11303876204983923 0.020229697340915186 1.1225942387533291e-05 0.12411379129233592 0.025156436676608763 0.047859731329670668 0.11490284367200337 0.031418686427105748 9.032429064907382e-06 0.1266789986037001 0.020736113443154635 0.026560206258636379 0.077490678716586645 0.0296021253852768 9.8471036582973582e-06 0.11303876204983923 0.025156436676608763 0.047859731329670668 0.11490284367200337 0.033669279780451075 0.045709885445968233 0.12732842903705105 0.020736113443154635 0.026560206258636379 0.077490678716586645 0.020406446605248311 4.2424947718699285e-06 0.097561821895556455 0.0296021253852768 9.8471036582973582e-06 0.11303876204983923 0.021866302512317581 1.2661007924295017e-05 0.077725771435206467 0.0296021253852768 9.8471036582973582e-06 0.11303876204983923 0.031971831172431846 6.8392004003666995e-07 0.12312101967391526 0.031418686427105748 9.032429064907382e-06 0.1266789986037001 0.033669279780451075 0.045709885445968233 0.12732842903705105 0.011456443147016396 8.3979698225876409e-06 0.10426782582687044 6.9931225892433539e-06 0.022393086592888748 0.10284541439404854 7.9192985321635247e-06 0.039725907060325798 0.1267078894927236 0.025156436676608763 0.047859731329670668 0.11490284367200337 0.020736113443154635 0.026560206258636379 0.077490678716586645 0.011456443147016396 8.3979698225876409e-06 0.10426782582687044 6.9931225892433539e-06 0.022393086592888748 0.10284541439404854 0.025156436676608763 0.047859731329670668 0.11490284367200337 5.6875235467796327e-06 0.018417257410526595 0.065892427694764041 0.020736113443154635 0.026560206258636379 0.077490678716586645 6.9931225892433539e-06 0.022393086592888748 0.10284541439404854 0.025156436676608763 0.047859731329670668 0.11490284367200337 5.6875235467796327e-06 0.018417257410526595 0.065892427694764041 6.9931225892433539e-06 0.022393086592888748 0.10284541439404854 3.5441212273657472e-06 0.038539287692413063 0.096528836990299613 0.025156436676608763 0.047859731329670668 0.11490284367200337 0.020406446605248311 4.2424947718699285e-06 0.097561821895556455 0.020229697340915186 1.1225942387533291e-05 0.12411379129233592 0.011456443147016396 8.3979698225876409e-06 0.10426782582687044 0.025156436676608763 0.047859731329670668 0.11490284367200337 6.9931225892433539e-06 0.022393086592888748 0.10284541439404854 7.9192985321635247e-06 0.039725907060325798 0.1267078894927236 3.5441212273657472e-06 0.038539287692413063 0.096528836990299613 0.025156436676608763 0.047859731329670668 0.11490284367200337 0.020229697340915186 1.1225942387533291e-05 0.12411379129233592 0.011456443147016396 8.3979698225876409e-06 0.10426782582687044 7.9192985321635247e-06 0.039725907060325798 0.1267078894927236 0.025156436676608763 0.047859731329670668 0.11490284367200337 0.020229697340915186 1.1225942387533291e-05 0.12411379129233592 5.381224367322785e-06 8.8177685719100421e-06 0.11607070695163114 0.011456443147016396 8.3979698225876409e-06 0.10426782582687044 7.9192985321635247e-06 0.039725907060325798 0.1267078894927236 5.381224367322785e-06 8.8177685719100421e-06 0.11607070695163114 0.011456443147016396 8.3979698225876409e-06 0.10426782582687044 6.9931225892433539e-06 0.022393086592888748 0.10284541439404854 7.9192985321635247e-06 0.039725907060325798 0.1267078894927236 0.020229697340915186 1.1225942387533291e-05 0.12411379129233592 5.381224367322785e-06 8.8177685719100421e-06 0.11607070695163114 7.9192985321635247e-06 0.039725907060325798 0.1267078894927236 5.2620141275727254e-06 7.3735490591790755e-06 0.12421618710722943 4.6628328281732451e-06 6.0125865075231209e-06 0.076703325604933884 5.381224367322785e-06 8.8177685719100421e-06 0.11607070695163114 0.011456443147016396 8.3979698225876409e-06 0.10426782582687044 6.9931225892433539e-06 0.022393086592888748 0.10284541439404854 6.0083811206568953e-06 0.054644962626614883 0.11137614368475078 0.025156436676608763 0.047859731329670668 0.11490284367200337 0.013814665720598307 0.037710494219946822 0.074868770381809446 0.025490618472485588 0.063048652053835072 0.12638948012127929 5.6875235467796327e-06 0.018417257410526595 0.065892427694764041 3.5441212273657472e-06 0.038539287692413063 0.096528836990299613 0.025156436676608763 0.047859731329670668 0.11490284367200337 0.013814665720598307 0.037710494219946822 0.074868770381809446 3.5441212273657472e-06 0.038539287692413063 0.096528836990299613 6.0083811206568953e-06 0.054644962626614883 0.11137614368475078 0.025156436676608763 0.047859731329670668 0.11490284367200337 0.013814665720598307 0.037710494219946822 0.074868770381809446 7.9192985321635247e-06 0.039725907060325798 0.1267078894927236 6.0083811206568953e-06 0.054644962626614883 0.11137614368475078 0.025156436676608763 0.047859731329670668 0.11490284367200337 5.3264614231986014e-06 0.058339399684063771 0.12720949561254055 6.0083811206568953e-06 0.054644962626614883 0.11137614368475078 0.013814665720598307 0.037710494219946822 0.074868770381809446 0.024042420483752242 0.048661857827025951 0.093905753689219759 0.025490618472485588 0.063048652053835072 0.12638948012127929 6.0083811206568953e-06 0.054644962626614883 0.11137614368475078 0.025156436676608763 0.047859731329670668 0.11490284367200337 0.025490618472485588 0.063048652053835072 0.12638948012127929 5.3264614231986014e-06 0.058339399684063771 0.12720949561254055 6.0083811206568953e-06 0.054644962626614883 0.11137614368475078 0.013814665720598307 0.037710494219946822 0.074868770381809446 8.4945774603307451e-06 0.039797988508900213 0.074436472665425052 0.024042420483752242 0.048661857827025951 0.093905753689219759 7.9192985321635247e-06 0.039725907060325798 0.1267078894927236 3.5441212273657472e-06 0.038539287692413063 0.096528836990299613 6.0083811206568953e-06 0.054644962626614883 0.11137614368475078 0.025156436676608763 0.047859731329670668 0.11490284367200337 3.5441212273657472e-06 0.038539287692413063 0.096528836990299613 6.0083811206568953e-06 0.054644962626614883 0.11137614368475078 0.013814665720598307 0.037710494219946822 0.074868770381809446 8.4945774603307451e-06 0.039797988508900213 0.074436472665425052 6.0083811206568953e-06 0.054644962626614883 0.11137614368475078 7.2094595526344344e-07 0.058922455229927867 0.12251584416132552 0.025490618472485588 0.063048652053835072 0.12638948012127929 5.3264614231986014e-06 0.058339399684063771 0.12720949561254055 0.020736113443154635 0.026560206258636379 0.077490678716586645 0.025156436676608763 0.047859731329670668 0.11490284367200337 0.023059844464787767 0.042207100034879035 0.078249290055001058 0.026885119690010686 0.041853381374923067 0.097972303769597022 0.025156436676608763 0.047859731329670668 0.11490284367200337 0.024042420483752242 0.048661857827025951 0.093905753689219759 0.023059844464787767 0.042207100034879035 0.078249290055001058 0.034660221819671426 0.062994668463912704 0.12547154285796544 0.025156436676608763 0.047859731329670668 0.11490284367200337 0.013814665720598307 0.037710494219946822 0.074868770381809446 0.024042420483752242 0.048661857827025951 0.093905753689219759 0.023059844464787767 0.042207100034879035 0.078249290055001058 0.020736113443154635 0.026560206258636379 0.077490678716586645 0.025156436676608763 0.047859731329670668 0.11490284367200337 0.026885119690010686 0.041853381374923067 0.097972303769597022 0.033669279780451075 0.045709885445968233 0.12732842903705105 0.020736113443154635 0.026560206258636379 0.077490678716586645 0.025156436676608763 0.047859731329670668 0.11490284367200337 0.013814665720598307 0.037710494219946822 0.074868770381809446 0.023059844464787767 0.042207100034879035 0.078249290055001058 0.025156436676608763 0.047859731329670668 0.11490284367200337 0.013814665720598307 0.037710494219946822 0.074868770381809446 0.024042420483752242 0.048661857827025951 0.093905753689219759 0.025490618472485588 0.063048652053835072 0.12638948012127929 0.025156436676608763 0.047859731329670668 0.11490284367200337 0.034660221819671426 0.062994668463912704 0.12547154285796544 0.026885119690010686 0.041853381374923067 0.097972303769597022 0.033669279780451075 0.045709885445968233 0.12732842903705105 0.025156436676608763 0.047859731329670668 0.11490284367200337 0.023059844464787767 0.042207100034879035 0.078249290055001058 0.034660221819671426 0.062994668463912704 0.12547154285796544 0.026885119690010686 0.041853381374923067 0.097972303769597022 0.025156436676608763 0.047859731329670668 0.11490284367200337 0.034660221819671426 0.062994668463912704 0.12547154285796544 0.025490618472485588 0.063048652053835072 0.12638948012127929 0.033669279780451075 0.045709885445968233 0.12732842903705105 0.025156436676608763 0.047859731329670668 0.11490284367200337 0.024042420483752242 0.048661857827025951 0.093905753689219759 0.034660221819671426 0.062994668463912704 0.12547154285796544 0.025490618472485588 0.063048652053835072 0.12638948012127929 2.6013943990438521e-06 4.2685469689318692e-06 1.7555674952720806e-05 0.013814665720598307 0.037710494219946822 0.074868770381809446 1.202453423251587e-06 4.7958398527582987e-06 1.7118195526708405e-05 0.024042420483752242 0.048661857827025951 0.093905753689219759 2.6013943990438521e-06 4.2685469689318692e-06 1.7555674952720806e-05 0.013814665720598307 0.037710494219946822 0.074868770381809446 0.024042420483752242 0.048661857827025951 0.093905753689219759 0.023059844464787767 0.042207100034879035 0.078249290055001058 0.020736113443154635 0.026560206258636379 0.077490678716586645 2.6013943990438521e-06 4.2685469689318692e-06 1.7555674952720806e-05 0.023059844464787767 0.042207100034879035 0.078249290055001058 1.6915140659660221e-06 4.2102111663655184e-06 1.414767600576106e-05 0.020736113443154635 0.026560206258636379 0.077490678716586645 2.6013943990438521e-06 4.2685469689318692e-06 1.7555674952720806e-05 0.013814665720598307 0.037710494219946822 0.074868770381809446 0.023059844464787767 0.042207100034879035 0.078249290055001058 2.6013943990438521e-06 4.2685469689318692e-06 1.7555674952720806e-05 -5.2796289586262454e-07 -6.0298860918059014e-07 7.5371160505302219e-07 0.023059844464787767 0.042207100034879035 0.078249290055001058 1.6915140659660221e-06 4.2102111663655184e-06 1.414767600576106e-05 2.4202613038464056e-06 2.8462520516578126e-06 1.8155847773432332e-05 0.020736113443154635 0.026560206258636379 0.077490678716586645 1.7079428458278439e-06 2.2105020237096295e-06 1.020602384220561e-05 2.6013943990438521e-06 4.2685469689318692e-06 1.7555674952720806e-05 2.4202613038464056e-06 2.8462520516578126e-06 1.8155847773432332e-05 0.020736113443154635 0.026560206258636379 0.077490678716586645 2.6013943990438521e-06 4.2685469689318692e-06 1.7555674952720806e-05 1.6915140659660221e-06 4.2102111663655184e-06 1.414767600576106e-05 0.020736113443154635 0.026560206258636379 0.077490678716586645 1.7079428458278439e-06 2.2105020237096295e-06 1.020602384220561e-05 2.6013943990438521e-06 4.2685469689318692e-06 1.7555674952720806e-05 0.013814665720598307 0.037710494219946822 0.074868770381809446 9.1695010200299586e-07 1.5232227455291276e-06 2.0051176355952758e-05 0.020736113443154635 0.026560206258636379 0.077490678716586645 1.7079428458278439e-06 2.2105020237096295e-06 1.020602384220561e-05 0.013814665720598307 0.037710494219946822 0.074868770381809446 1.7079428458278439e-06 2.2105020237096295e-06 1.020602384220561e-05 2.6013943990438521e-06 4.2685469689318692e-06 1.7555674952720806e-05 0.013814665720598307 0.037710494219946822 0.074868770381809446 1.202453423251587e-06 4.7958398527582987e-06 1.7118195526708405e-05 1.7079428458278439e-06 2.2105020237096295e-06 1.020602384220561e-05 0.013814665720598307 0.037710494219946822 0.074868770381809446 3.9553748267255923e-07 2.2705649498936771e-06 8.922233150212458e-06 1.202453423251587e-06 4.7958398527582987e-06 1.7118195526708405e-05 0.013814665720598307 0.037710494219946822 0.074868770381809446 3.9553748267255923e-07 2.2705649498936771e-06 8.922233150212458e-06 8.0984820122250815e-07 3.1072978703696452e-06 1.9688629541698497e-05 1.202453423251587e-06 4.7958398527582987e-06 1.7118195526708405e-05 5.6875235467796327e-06 0.018417257410526595 0.065892427694764041 0.020736113443154635 0.026560206258636379 0.077490678716586645 0.025156436676608763 0.047859731329670668 0.11490284367200337 0.013814665720598307 0.037710494219946822 0.074868770381809446 9.1695010200299586e-07 1.5232227455291276e-06 2.0051176355952758e-05 1.7079428458278439e-06 2.2105020237096295e-06 1.020602384220561e-05 0.013814665720598307 0.037710494219946822 0.074868770381809446 3.9553748267255923e-07 2.2705649498936771e-06 8.922233150212458e-06 5.6875235467796327e-06 0.018417257410526595 0.065892427694764041 9.1695010200299586e-07 1.5232227455291276e-06 2.0051176355952758e-05 0.013814665720598307 0.037710494219946822 0.074868770381809446 6.1336909820613497e-06 0.024120642461081247 0.054881076263589484 5.2860126296796959e-07 2.575187032687415e-06 8.4928419737330417e-06 3.9553748267255923e-07 2.2705649498936771e-06 8.922233150212458e-06 6.1336909820613497e-06 0.024120642461081247 0.054881076263589484 8.0984820122250815e-07 3.1072978703696452e-06 1.9688629541698497e-05 0.013814665720598307 0.037710494219946822 0.074868770381809446 3.9553748267255923e-07 2.2705649498936771e-06 8.922233150212458e-06 6.1336909820613497e-06 0.024120642461081247 0.054881076263589484 8.0984820122250815e-07 3.1072978703696452e-06 1.9688629541698497e-05 9.1695010200299586e-07 1.5232227455291276e-06 2.0051176355952758e-05 0.013814665720598307 0.037710494219946822 0.074868770381809446 3.9553748267255923e-07 2.2705649498936771e-06 8.922233150212458e-06 6.1336909820613497e-06 0.024120642461081247 0.054881076263589484 5.6875235467796327e-06 0.018417257410526595 0.065892427694764041 3.5441212273657472e-06 0.038539287692413063 0.096528836990299613 0.013814665720598307 0.037710494219946822 0.074868770381809446 6.1336909820613497e-06 0.024120642461081247 0.054881076263589484 0.013814665720598307 0.037710494219946822 0.074868770381809446 6.1336909820613497e-06 0.024120642461081247 0.054881076263589484 8.0984820122250815e-07 3.1072978703696452e-06 1.9688629541698497e-05 8.4945774603307451e-06 0.039797988508900213 0.074436472665425052 3.5441212273657472e-06 0.038539287692413063 0.096528836990299613 0.013814665720598307 0.037710494219946822 0.074868770381809446 6.1336909820613497e-06 0.024120642461081247 0.054881076263589484 8.4945774603307451e-06 0.039797988508900213 0.074436472665425052 0.013814665720598307 0.037710494219946822 0.074868770381809446 8.0984820122250815e-07 3.1072978703696452e-06 1.9688629541698497e-05 1.202453423251587e-06 4.7958398527582987e-06 1.7118195526708405e-05 8.4945774603307451e-06 0.039797988508900213 0.074436472665425052 6.4022604501361707e-07 3.3686473859735734e-06 1.1888679181615595e-05 1.32563854554283e-06 1.7672381983854721e-06 9.8104947762398433e-06 1.202453423251587e-06 4.7958398527582987e-06 1.7118195526708405e-05 8.4945774603307451e-06 0.039797988508900213 0.074436472665425052 0.013814665720598307 0.037710494219946822 0.074868770381809446 1.202453423251587e-06 4.7958398527582987e-06 1.7118195526708405e-05 0.013828669195319434 0.029102220868258498 0.062258205140290512 8.4945774603307451e-06 0.039797988508900213 0.074436472665425052 0.013814665720598307 0.037710494219946822 0.074868770381809446 1.202453423251587e-06 4.7958398527582987e-06 1.7118195526708405e-05 0.013828669195319434 0.029102220868258498 0.062258205140290512 0.024042420483752242 0.048661857827025951 0.093905753689219759 0.013814665720598307 0.037710494219946822 0.074868770381809446 0.013828669195319434 0.029102220868258498 0.062258205140290512 8.4945774603307451e-06 0.039797988508900213 0.074436472665425052 0.024042420483752242 0.048661857827025951 0.093905753689219759 0.013828669195319434 0.029102220868258498 0.062258205140290512 8.4945774603307451e-06 0.039797988508900213 0.074436472665425052 3.4075655772467218e-06 0.039809932757448874 0.088582108877683877 0.024042420483752242 0.048661857827025951 0.093905753689219759 1.202453423251587e-06 4.7958398527582987e-06 1.7118195526708405e-05 0.013828669195319434 0.029102220868258498 0.062258205140290512 0.024042420483752242 0.048661857827025951 0.093905753689219759 8.2343289160876037e-07 3.882050078532079e-06 1.118161282820573e-05 8.0984820122250815e-07 3.1072978703696452e-06 1.9688629541698497e-05 6.4022604501361707e-07 3.3686473859735734e-06 1.1888679181615595e-05 1.202453423251587e-06 4.7958398527582987e-06 1.7118195526708405e-05 8.4945774603307451e-06 0.039797988508900213 0.074436472665425052 6.4022604501361707e-07 3.3686473859735734e-06 1.1888679181615595e-05 1.32563854554283e-06 1.7672381983854721e-06 9.8104947762398433e-06 4.6219967390832855e-06 0.02292364963382083 0.04738172584236116 8.4945774603307451e-06 0.039797988508900213 0.074436472665425052 6.4022604501361707e-07 3.3686473859735734e-06 1.1888679181615595e-05 1.32563854554283e-06 1.7672381983854721e-06 9.8104947762398433e-06 4.6219967390832855e-06 0.02292364963382083 0.04738172584236116 3.1331085905031596e-07 1.9361426369903438e-06 9.7292971518199665e-06 1.32563854554283e-06 1.7672381983854721e-06 9.8104947762398433e-06 0.013828669195319434 0.029102220868258498 0.062258205140290512 4.6219967390832855e-06 0.02292364963382083 0.04738172584236116 6.2530327353136482e-07 4.1136109016897063e-06 8.8137373076666945e-06 1.32563854554283e-06 1.7672381983854721e-06 9.8104947762398433e-06 1.202453423251587e-06 4.7958398527582987e-06 1.7118195526708405e-05 0.013828669195319434 0.029102220868258498 0.062258205140290512 8.2343289160876037e-07 3.882050078532079e-06 1.118161282820573e-05 1.32563854554283e-06 1.7672381983854721e-06 9.8104947762398433e-06 0.013828669195319434 0.029102220868258498 0.062258205140290512 6.2530327353136482e-07 4.1136109016897063e-06 8.8137373076666945e-06 8.2343289160876037e-07 3.882050078532079e-06 1.118161282820573e-05 1.32563854554283e-06 1.7672381983854721e-06 9.8104947762398433e-06 1.202453423251587e-06 4.7958398527582987e-06 1.7118195526708405e-05 0.013828669195319434 0.029102220868258498 0.062258205140290512 8.4945774603307451e-06 0.039797988508900213 0.074436472665425052 0.013828669195319434 0.029102220868258498 0.062258205140290512 4.6219967390832855e-06 0.02292364963382083 0.04738172584236116 8.4945774603307451e-06 0.039797988508900213 0.074436472665425052 3.4075655772467218e-06 0.039809932757448874 0.088582108877683877 0.013828669195319434 0.029102220868258498 0.062258205140290512 4.6219967390832855e-06 0.02292364963382083 0.04738172584236116 3.4075655772467218e-06 0.039809932757448874 0.088582108877683877 3.800972521919516e-06 0.018836231887904415 0.052931181565357095 1.32563854554283e-06 1.7672381983854721e-06 9.8104947762398433e-06 0.013828669195319434 0.029102220868258498 0.062258205140290512 4.6219967390832855e-06 0.02292364963382083 0.04738172584236116 8.4945774603307451e-06 0.039797988508900213 0.074436472665425052 6.0083811206568953e-06 0.054644962626614883 0.11137614368475078 5.4754262454245824e-06 0.054660833744854878 0.11611019615416956 0.024042420483752242 0.048661857827025951 0.093905753689219759 0.025490618472485588 0.063048652053835072 0.12638948012127929 6.0083811206568953e-06 0.054644962626614883 0.11137614368475078 8.4945774603307451e-06 0.039797988508900213 0.074436472665425052 5.4754262454245824e-06 0.054660833744854878 0.11611019615416956 0.024042420483752242 0.048661857827025951 0.093905753689219759 5.4754262454245824e-06 0.054660833744854878 0.11611019615416956 0.020503504661558678 0.037552638517564886 0.10830222629743343 0.022272270304155326 0.042177769350719416 0.13169188310647267 0.025490618472485588 0.063048652053835072 0.12638948012127929 5.4754262454245824e-06 0.054660833744854878 0.11611019615416956 0.020503504661558678 0.037552638517564886 0.10830222629743343 0.024042420483752242 0.048661857827025951 0.093905753689219759 0.025490618472485588 0.063048652053835072 0.12638948012127929 5.4754262454245824e-06 0.054660833744854878 0.11611019615416956 3.4075655772467218e-06 0.039809932757448874 0.088582108877683877 0.020503504661558678 0.037552638517564886 0.10830222629743343 0.024042420483752242 0.048661857827025951 0.093905753689219759 8.4945774603307451e-06 0.039797988508900213 0.074436472665425052 5.4754262454245824e-06 0.054660833744854878 0.11611019615416956 3.4075655772467218e-06 0.039809932757448874 0.088582108877683877 0.024042420483752242 0.048661857827025951 0.093905753689219759 0.013828669195319434 0.029102220868258498 0.062258205140290512 3.4075655772467218e-06 0.039809932757448874 0.088582108877683877 0.020503504661558678 0.037552638517564886 0.10830222629743343 0.024042420483752242 0.048661857827025951 0.093905753689219759 6.0083811206568953e-06 0.054644962626614883 0.11137614368475078 7.2094595526344344e-07 0.058922455229927867 0.12251584416132552 5.4754262454245824e-06 0.054660833744854878 0.11611019615416956 0.025490618472485588 0.063048652053835072 0.12638948012127929 5.4754262454245824e-06 0.054660833744854878 0.11611019615416956 3.4075655772467218e-06 0.039809932757448874 0.088582108877683877 0.020503504661558678 0.037552638517564886 0.10830222629743343 4.4207724800555732e-06 0.039610057815849198 0.12430717791828 0.013828669195319434 0.029102220868258498 0.062258205140290512 3.4075655772467218e-06 0.039809932757448874 0.088582108877683877 4.1351525059799314e-06 0.022358479887421713 0.092798335858593137 0.020503504661558678 0.037552638517564886 0.10830222629743343 3.4075655772467218e-06 0.039809932757448874 0.088582108877683877 4.1351525059799314e-06 0.022358479887421713 0.092798335858593137 0.020503504661558678 0.037552638517564886 0.10830222629743343 4.4207724800555732e-06 0.039610057815849198 0.12430717791828 0.013828669195319434 0.029102220868258498 0.062258205140290512 4.1351525059799314e-06 0.022358479887421713 0.092798335858593137 0.020503504661558678 0.037552638517564886 0.10830222629743343 0.012115059490464706 3.3264613159009383e-06 0.090907066425236563 0.013828669195319434 0.029102220868258498 0.062258205140290512 0.020503504661558678 0.037552638517564886 0.10830222629743343 0.012115059490464706 3.3264613159009383e-06 0.090907066425236563 0.021351997367905738 4.3761634002351422e-06 0.084626438563279421 0.020503504661558678 0.037552638517564886 0.10830222629743343 0.021644915491579035 6.5900241760269374e-06 0.12127545151208298 4.4207724800555732e-06 0.039610057815849198 0.12430717791828 0.022272270304155326 0.042177769350719416 0.13169188310647267 4.1351525059799314e-06 0.022358479887421713 0.092798335858593137 0.020503504661558678 0.037552638517564886 0.10830222629743343 4.2551844060376293e-06 5.8973520218559496e-06 0.10817505466446468 4.4207724800555732e-06 0.039610057815849198 0.12430717791828 5.4754262454245824e-06 0.054660833744854878 0.11611019615416956 0.020503504661558678 0.037552638517564886 0.10830222629743343 4.4207724800555732e-06 0.039610057815849198 0.12430717791828 0.022272270304155326 0.042177769350719416 0.13169188310647267 4.2551844060376293e-06 5.8973520218559496e-06 0.10817505466446468 0.021644915491579035 6.5900241760269374e-06 0.12127545151208298 3.4367852701098657e-06 8.432573050015858e-06 0.12819366258890161 4.4207724800555732e-06 0.039610057815849198 0.12430717791828 0.020503504661558678 0.037552638517564886 0.10830222629743343 4.2551844060376293e-06 5.8973520218559496e-06 0.10817505466446468 0.021644915491579035 6.5900241760269374e-06 0.12127545151208298 4.4207724800555732e-06 0.039610057815849198 0.12430717791828 0.020503504661558678 0.037552638517564886 0.10830222629743343 4.2551844060376293e-06 5.8973520218559496e-06 0.10817505466446468 0.021644915491579035 6.5900241760269374e-06 0.12127545151208298 0.012115059490464706 3.3264613159009383e-06 0.090907066425236563 0.020503504661558678 0.037552638517564886 0.10830222629743343 0.021644915491579035 6.5900241760269374e-06 0.12127545151208298 0.012115059490464706 3.3264613159009383e-06 0.090907066425236563 0.021351997367905738 4.3761634002351422e-06 0.084626438563279421 4.1351525059799314e-06 0.022358479887421713 0.092798335858593137 0.020503504661558678 0.037552638517564886 0.10830222629743343 4.2551844060376293e-06 5.8973520218559496e-06 0.10817505466446468 0.012115059490464706 3.3264613159009383e-06 0.090907066425236563 4.1351525059799314e-06 0.022358479887421713 0.092798335858593137 4.2551844060376293e-06 5.8973520218559496e-06 0.10817505466446468 0.012115059490464706 3.3264613159009383e-06 0.090907066425236563 2.6392833620210499e-06 2.2209929754705514e-06 0.06402564088989468 0.013828669195319434 0.029102220868258498 0.062258205140290512 0.012274994989659886 1.3461906711278277e-06 0.0545382668451415 0.013136646587719023 3.2498514692274014e-07 0.041427438213678391 0.021351997367905738 4.3761634002351422e-06 0.084626438563279421 0.013828669195319434 0.029102220868258498 0.062258205140290512 4.1351525059799314e-06 0.022358479887421713 0.092798335858593137 3.800972521919516e-06 0.018836231887904415 0.052931181565357095 0.012274994989659886 1.3461906711278277e-06 0.0545382668451415 0.013828669195319434 0.029102220868258498 0.062258205140290512 0.012115059490464706 3.3264613159009383e-06 0.090907066425236563 0.012274994989659886 1.3461906711278277e-06 0.0545382668451415 0.021351997367905738 4.3761634002351422e-06 0.084626438563279421 0.013828669195319434 0.029102220868258498 0.062258205140290512 4.1351525059799314e-06 0.022358479887421713 0.092798335858593137 0.012115059490464706 3.3264613159009383e-06 0.090907066425236563 0.012274994989659886 1.3461906711278277e-06 0.0545382668451415 0.013828669195319434 0.029102220868258498 0.062258205140290512 6.2530327353136482e-07 4.1136109016897063e-06 8.8137373076666945e-06 0.012274994989659886 1.3461906711278277e-06 0.0545382668451415 0.013136646587719023 3.2498514692274014e-07 0.041427438213678391 2.6392833620210499e-06 2.2209929754705514e-06 0.06402564088989468 2.5850672109485417e-06 -1.2567168997902374e-06 1.5503851662237797e-05 3.800972521919516e-06 0.018836231887904415 0.052931181565357095 0.012274994989659886 1.3461906711278277e-06 0.0545382668451415 0.013828669195319434 0.029102220868258498 0.062258205140290512 6.2530327353136482e-07 4.1136109016897063e-06 8.8137373076666945e-06 0.013136646587719023 3.2498514692274014e-07 0.041427438213678391 2.69856267978986e-06 1.5779488033661733e-06 8.4287283841277367e-06 4.1351525059799314e-06 0.022358479887421713 0.092798335858593137 0.012115059490464706 3.3264613159009383e-06 0.090907066425236563 2.6392833620210499e-06 2.2209929754705514e-06 0.06402564088989468 0.012274994989659886 1.3461906711278277e-06 0.0545382668451415 0.013828669195319434 0.029102220868258498 0.062258205140290512 3.800972521919516e-06 0.018836231887904415 0.052931181565357095 6.2530327353136482e-07 4.1136109016897063e-06 8.8137373076666945e-06 0.012274994989659886 1.3461906711278277e-06 0.0545382668451415 4.1351525059799314e-06 0.022358479887421713 0.092798335858593137 2.6392833620210499e-06 2.2209929754705514e-06 0.06402564088989468 3.800972521919516e-06 0.018836231887904415 0.052931181565357095 0.012274994989659886 1.3461906711278277e-06 0.0545382668451415 2.5850672109485417e-06 -1.2567168997902374e-06 1.5503851662237797e-05 3.800972521919516e-06 0.018836231887904415 0.052931181565357095 6.2530327353136482e-07 4.1136109016897063e-06 8.8137373076666945e-06 0.012274994989659886 1.3461906711278277e-06 0.0545382668451415 1.32563854554283e-06 1.7672381983854721e-06 9.8104947762398433e-06 4.6219967390832855e-06 0.02292364963382083 0.04738172584236116 3.1331085905031596e-07 1.9361426369903438e-06 9.7292971518199665e-06 6.2530327353136482e-07 4.1136109016897063e-06 8.8137373076666945e-06 2.5850672109485417e-06 -1.2567168997902374e-06 1.5503851662237797e-05 3.1331085905031596e-07 1.9361426369903438e-06 9.7292971518199665e-06 3.800972521919516e-06 0.018836231887904415 0.052931181565357095 6.2530327353136482e-07 4.1136109016897063e-06 8.8137373076666945e-06 0.013828669195319434 0.029102220868258498 0.062258205140290512 4.6219967390832855e-06 0.02292364963382083 0.04738172584236116 3.800972521919516e-06 0.018836231887904415 0.052931181565357095 6.2530327353136482e-07 4.1136109016897063e-06 8.8137373076666945e-06 4.6219967390832855e-06 0.02292364963382083 0.04738172584236116 3.1331085905031596e-07 1.9361426369903438e-06 9.7292971518199665e-06 3.800972521919516e-06 0.018836231887904415 0.052931181565357095 6.2530327353136482e-07 4.1136109016897063e-06 8.8137373076666945e-06 0.013828669195319434 0.029102220868258498 0.062258205140290512 3.4075655772467218e-06 0.039809932757448874 0.088582108877683877 4.1351525059799314e-06 0.022358479887421713 0.092798335858593137 3.800972521919516e-06 0.018836231887904415 0.052931181565357095 0.013828669195319434 0.029102220868258498 0.062258205140290512 6.2530327353136482e-07 4.1136109016897063e-06 8.8137373076666945e-06 2.69856267978986e-06 1.5779488033661733e-06 8.4287283841277367e-06 8.2343289160876037e-07 3.882050078532079e-06 1.118161282820573e-05 6.2530327353136482e-07 4.1136109016897063e-06 8.8137373076666945e-06 7.2654541319003188e-07 -2.1329364209420424e-06 9.3463278251770166e-06 0.012274994989659886 1.3461906711278277e-06 0.0545382668451415 0.013136646587719023 3.2498514692274014e-07 0.041427438213678391 2.5850672109485417e-06 -1.2567168997902374e-06 1.5503851662237797e-05 6.2530327353136482e-07 4.1136109016897063e-06 8.8137373076666945e-06 7.2654541319003188e-07 -2.1329364209420424e-06 9.3463278251770166e-06 0.012274994989659886 1.3461906711278277e-06 0.0545382668451415 6.2530327353136482e-07 4.1136109016897063e-06 8.8137373076666945e-06 7.2654541319003188e-07 -2.1329364209420424e-06 9.3463278251770166e-06 0.013136646587719023 3.2498514692274014e-07 0.041427438213678391 2.69856267978986e-06 1.5779488033661733e-06 8.4287283841277367e-06 0.013828669195319434 0.029102220868258498 0.062258205140290512 2.69856267978986e-06 1.5779488033661733e-06 8.4287283841277367e-06 0.026659304963377383 0.034934521992122311 0.083699649139696242 8.2343289160876037e-07 3.882050078532079e-06 1.118161282820573e-05 0.013828669195319434 0.029102220868258498 0.062258205140290512 0.013136646587719023 3.2498514692274014e-07 0.041427438213678391 0.021351997367905738 4.3761634002351422e-06 0.084626438563279421 0.026659304963377383 0.034934521992122311 0.083699649139696242 0.013828669195319434 0.029102220868258498 0.062258205140290512 0.013136646587719023 3.2498514692274014e-07 0.041427438213678391 2.69856267978986e-06 1.5779488033661733e-06 8.4287283841277367e-06 0.026659304963377383 0.034934521992122311 0.083699649139696242 0.013136646587719023 3.2498514692274014e-07 0.041427438213678391 2.69856267978986e-06 1.5779488033661733e-06 8.4287283841277367e-06 0.026659304963377383 0.034934521992122311 0.083699649139696242 0.021078357429308414 7.8383391250129837e-06 0.060821004632975004 2.69856267978986e-06 1.5779488033661733e-06 8.4287283841277367e-06 0.026659304963377383 0.034934521992122311 0.083699649139696242 0.021078357429308414 7.8383391250129837e-06 0.060821004632975004 2.3823765677980021e-06 3.7959039612739023e-06 1.2348412557682169e-05 2.69856267978986e-06 1.5779488033661733e-06 8.4287283841277367e-06 0.026659304963377383 0.034934521992122311 0.083699649139696242 8.2343289160876037e-07 3.882050078532079e-06 1.118161282820573e-05 2.3823765677980021e-06 3.7959039612739023e-06 1.2348412557682169e-05 7.2654541319003188e-07 -2.1329364209420424e-06 9.3463278251770166e-06 0.013136646587719023 3.2498514692274014e-07 0.041427438213678391 2.69856267978986e-06 1.5779488033661733e-06 8.4287283841277367e-06 1.3388443978663745e-06 -2.9582290605618004e-06 1.1974728210232941e-05 2.69856267978986e-06 1.5779488033661733e-06 8.4287283841277367e-06 1.3388443978663745e-06 -2.9582290605618004e-06 1.1974728210232941e-05 0.021078357429308414 7.8383391250129837e-06 0.060821004632975004 2.3823765677980021e-06 3.7959039612739023e-06 1.2348412557682169e-05 0.013136646587719023 3.2498514692274014e-07 0.041427438213678391 2.69856267978986e-06 1.5779488033661733e-06 8.4287283841277367e-06 1.3388443978663745e-06 -2.9582290605618004e-06 1.1974728210232941e-05 0.021078357429308414 7.8383391250129837e-06 0.060821004632975004 0.013136646587719023 3.2498514692274014e-07 0.041427438213678391 0.021351997367905738 4.3761634002351422e-06 0.084626438563279421 0.026659304963377383 0.034934521992122311 0.083699649139696242 0.021078357429308414 7.8383391250129837e-06 0.060821004632975004 0.020503504661558678 0.037552638517564886 0.10830222629743343 0.021351997367905738 4.3761634002351422e-06 0.084626438563279421 0.029853290856881556 3.9982947653531694e-06 0.1034199000556683 0.026659304963377383 0.034934521992122311 0.083699649139696242 0.021351997367905738 4.3761634002351422e-06 0.084626438563279421 0.029853290856881556 3.9982947653531694e-06 0.1034199000556683 0.026659304963377383 0.034934521992122311 0.083699649139696242 0.021078357429308414 7.8383391250129837e-06 0.060821004632975004 0.013828669195319434 0.029102220868258498 0.062258205140290512 0.020503504661558678 0.037552638517564886 0.10830222629743343 0.021351997367905738 4.3761634002351422e-06 0.084626438563279421 0.026659304963377383 0.034934521992122311 0.083699649139696242 0.020503504661558678 0.037552638517564886 0.10830222629743343 0.029853290856881556 3.9982947653531694e-06 0.1034199000556683 0.026659304963377383 0.034934521992122311 0.083699649139696242 0.033602367308275628 0.046593767814472206 0.12613800685979917 0.020503504661558678 0.037552638517564886 0.10830222629743343 0.029853290856881556 3.9982947653531694e-06 0.1034199000556683 0.033602367308275628 0.046593767814472206 0.12613800685979917 0.032482293327686609 9.1038999611178548e-06 0.12871791771897667 0.020503504661558678 0.037552638517564886 0.10830222629743343 0.021644915491579035 6.5900241760269374e-06 0.12127545151208298 0.029853290856881556 3.9982947653531694e-06 0.1034199000556683 0.032482293327686609 9.1038999611178548e-06 0.12871791771897667 0.020503504661558678 0.037552638517564886 0.10830222629743343 0.021644915491579035 6.5900241760269374e-06 0.12127545151208298 0.021351997367905738 4.3761634002351422e-06 0.084626438563279421 0.029853290856881556 3.9982947653531694e-06 0.1034199000556683 0.029853290856881556 3.9982947653531694e-06 0.1034199000556683 0.032891616928997836 1.501990668617594e-06 0.12217905367839715 0.033602367308275628 0.046593767814472206 0.12613800685979917 0.032482293327686609 9.1038999611178548e-06 0.12871791771897667 0.029853290856881556 3.9982947653531694e-06 0.1034199000556683 0.026659304963377383 0.034934521992122311 0.083699649139696242 0.032891616928997836 1.501990668617594e-06 0.12217905367839715 0.033602367308275628 0.046593767814472206 0.12613800685979917 0.024042420483752242 0.048661857827025951 0.093905753689219759 0.034660221819671426 0.062994668463912704 0.12547154285796544 0.033602367308275628 0.046593767814472206 0.12613800685979917 0.025490618472485588 0.063048652053835072 0.12638948012127929 0.013828669195319434 0.029102220868258498 0.062258205140290512 0.020503504661558678 0.037552638517564886 0.10830222629743343 0.026659304963377383 0.034934521992122311 0.083699649139696242 0.024042420483752242 0.048661857827025951 0.093905753689219759 0.026659304963377383 0.034934521992122311 0.083699649139696242 0.024042420483752242 0.048661857827025951 0.093905753689219759 0.034660221819671426 0.062994668463912704 0.12547154285796544 0.033602367308275628 0.046593767814472206 0.12613800685979917 0.020503504661558678 0.037552638517564886 0.10830222629743343 0.026659304963377383 0.034934521992122311 0.083699649139696242 0.024042420483752242 0.048661857827025951 0.093905753689219759 0.033602367308275628 0.046593767814472206 0.12613800685979917 0.026659304963377383 0.034934521992122311 0.083699649139696242 0.024042420483752242 0.048661857827025951 0.093905753689219759 0.023059844464787767 0.042207100034879035 0.078249290055001058 0.034660221819671426 0.062994668463912704 0.12547154285796544 0.020503504661558678 0.037552638517564886 0.10830222629743343 0.024042420483752242 0.048661857827025951 0.093905753689219759 0.033602367308275628 0.046593767814472206 0.12613800685979917 0.025490618472485588 0.063048652053835072 0.12638948012127929 0.026659304963377383 0.034934521992122311 0.083699649139696242 0.024042420483752242 0.048661857827025951 0.093905753689219759 8.2343289160876037e-07 3.882050078532079e-06 1.118161282820573e-05 1.8691381487840018e-06 2.555104383406349e-06 1.1543667529884671e-05 2.6013943990438521e-06 4.2685469689318692e-06 1.7555674952720806e-05 0.024042420483752242 0.048661857827025951 0.093905753689219759 1.8691381487840018e-06 2.555104383406349e-06 1.1543667529884671e-05 0.023059844464787767 0.042207100034879035 0.078249290055001058 0.013828669195319434 0.029102220868258498 0.062258205140290512 0.026659304963377383 0.034934521992122311 0.083699649139696242 0.024042420483752242 0.048661857827025951 0.093905753689219759 8.2343289160876037e-07 3.882050078532079e-06 1.118161282820573e-05 1.202453423251587e-06 4.7958398527582987e-06 1.7118195526708405e-05 0.024042420483752242 0.048661857827025951 0.093905753689219759 8.2343289160876037e-07 3.882050078532079e-06 1.118161282820573e-05 1.8691381487840018e-06 2.555104383406349e-06 1.1543667529884671e-05 0.026659304963377383 0.034934521992122311 0.083699649139696242 8.2343289160876037e-07 3.882050078532079e-06 1.118161282820573e-05 1.8691381487840018e-06 2.555104383406349e-06 1.1543667529884671e-05 2.3823765677980021e-06 3.7959039612739023e-06 1.2348412557682169e-05 2.6013943990438521e-06 4.2685469689318692e-06 1.7555674952720806e-05 1.202453423251587e-06 4.7958398527582987e-06 1.7118195526708405e-05 0.024042420483752242 0.048661857827025951 0.093905753689219759 1.8691381487840018e-06 2.555104383406349e-06 1.1543667529884671e-05 0.026659304963377383 0.034934521992122311 0.083699649139696242 0.024042420483752242 0.048661857827025951 0.093905753689219759 1.8691381487840018e-06 2.555104383406349e-06 1.1543667529884671e-05 0.023059844464787767 0.042207100034879035 0.078249290055001058 2.6013943990438521e-06 4.2685469689318692e-06 1.7555674952720806e-05 1.8691381487840018e-06 2.555104383406349e-06 1.1543667529884671e-05 -5.2796289586262454e-07 -6.0298860918059014e-07 7.5371160505302219e-07 0.023059844464787767 0.042207100034879035 0.078249290055001058 4.5280090698591382e-06 7.0836338382208879e-06 1.2927628335817074e-05 0.024860462035020053 0.045574182951927326 0.092103444678209995 2.1888153967181819e-06 4.9795664418949668e-06 1.5388319903795358e-05 0.022338166101023349 0.055213244989373481 0.10214593197651595 0.026659304963377383 0.034934521992122311 0.083699649139696242 4.5280090698591382e-06 7.0836338382208879e-06 1.2927628335817074e-05 0.023059844464787767 0.042207100034879035 0.078249290055001058 0.024860462035020053 0.045574182951927326 0.092103444678209995 1.8691381487840018e-06 2.555104383406349e-06 1.1543667529884671e-05 4.5280090698591382e-06 7.0836338382208879e-06 1.2927628335817074e-05 -5.2796289586262454e-07 -6.0298860918059014e-07 7.5371160505302219e-07 0.023059844464787767 0.042207100034879035 0.078249290055001058 0.026659304963377383 0.034934521992122311 0.083699649139696242 4.5280090698591382e-06 7.0836338382208879e-06 1.2927628335817074e-05 0.024860462035020053 0.045574182951927326 0.092103444678209995 2.3823765677980021e-06 3.7959039612739023e-06 1.2348412557682169e-05 4.5280090698591382e-06 7.0836338382208879e-06 1.2927628335817074e-05 0.023059844464787767 0.042207100034879035 0.078249290055001058 0.024860462035020053 0.045574182951927326 0.092103444678209995 0.022338166101023349 0.055213244989373481 0.10214593197651595 4.5280090698591382e-06 7.0836338382208879e-06 1.2927628335817074e-05 4.7124027420157512e-07 1.2966384981579955e-06 9.6413268972948115e-06 0.024860462035020053 0.045574182951927326 0.092103444678209995 2.3823765677980021e-06 3.7959039612739023e-06 1.2348412557682169e-05 0.026659304963377383 0.034934521992122311 0.083699649139696242 1.8691381487840018e-06 2.555104383406349e-06 1.1543667529884671e-05 4.5280090698591382e-06 7.0836338382208879e-06 1.2927628335817074e-05 2.3823765677980021e-06 3.7959039612739023e-06 1.2348412557682169e-05 4.5280090698591382e-06 7.0836338382208879e-06 1.2927628335817074e-05 4.7124027420157512e-07 1.2966384981579955e-06 9.6413268972948115e-06 0.024860462035020053 0.045574182951927326 0.092103444678209995 2.1888153967181819e-06 4.9795664418949668e-06 1.5388319903795358e-05 0.026659304963377383 0.034934521992122311 0.083699649139696242 1.8691381487840018e-06 2.555104383406349e-06 1.1543667529884671e-05 4.5280090698591382e-06 7.0836338382208879e-06 1.2927628335817074e-05 0.023059844464787767 0.042207100034879035 0.078249290055001058 0.024860462035020053 0.045574182951927326 0.092103444678209995 0.034660221819671426 0.062994668463912704 0.12547154285796544 0.022338166101023349 0.055213244989373481 0.10214593197651595 0.025834317387587846 0.063290174978989283 0.13131765835671894 0.024860462035020053 0.045574182951927326 0.092103444678209995 0.022338166101023349 0.055213244989373481 0.10214593197651595 0.025834317387587846 0.063290174978989283 0.13131765835671894 0.025278538396047365 0.05054428704874938 0.12716913261508658 0.024860462035020053 0.045574182951927326 0.092103444678209995 0.034660221819671426 0.062994668463912704 0.12547154285796544 0.025278538396047365 0.05054428704874938 0.12716913261508658 0.033602367308275628 0.046593767814472206 0.12613800685979917 0.026659304963377383 0.034934521992122311 0.083699649139696242 0.024860462035020053 0.045574182951927326 0.092103444678209995 0.034660221819671426 0.062994668463912704 0.12547154285796544 0.033602367308275628 0.046593767814472206 0.12613800685979917 0.026659304963377383 0.034934521992122311 0.083699649139696242 0.023059844464787767 0.042207100034879035 0.078249290055001058 0.024860462035020053 0.045574182951927326 0.092103444678209995 0.034660221819671426 0.062994668463912704 0.12547154285796544 0.024860462035020053 0.045574182951927326 0.092103444678209995 0.034660221819671426 0.062994668463912704 0.12547154285796544 0.025834317387587846 0.063290174978989283 0.13131765835671894 0.025278538396047365 0.05054428704874938 0.12716913261508658 0.023059844464787767 0.042207100034879035 0.078249290055001058 0.024860462035020053 0.045574182951927326 0.092103444678209995 0.034660221819671426 0.062994668463912704 0.12547154285796544 0.022338166101023349 0.055213244989373481 0.10214593197651595 0.024860462035020053 0.045574182951927326 0.092103444678209995 0.029965785037672842 7.7865154485314946e-06 0.10912825883635877 0.025278538396047365 0.05054428704874938 0.12716913261508658 0.033602367308275628 0.046593767814472206 0.12613800685979917 0.026659304963377383 0.034934521992122311 0.083699649139696242 0.024860462035020053 0.045574182951927326 0.092103444678209995 0.029965785037672842 7.7865154485314946e-06 0.10912825883635877 0.033602367308275628 0.046593767814472206 0.12613800685979917 0.026659304963377383 0.034934521992122311 0.083699649139696242 0.021429061862684177 3.105835828529858e-06 0.080499762608523082 0.029965785037672842 7.7865154485314946e-06 0.10912825883635877 0.021078357429308414 7.8383391250129837e-06 0.060821004632975004 0.026659304963377383 0.034934521992122311 0.083699649139696242 0.024860462035020053 0.045574182951927326 0.092103444678209995 0.021429061862684177 3.105835828529858e-06 0.080499762608523082 0.029965785037672842 7.7865154485314946e-06 0.10912825883635877 0.024860462035020053 0.045574182951927326 0.092103444678209995 0.021429061862684177 3.105835828529858e-06 0.080499762608523082 0.029965785037672842 7.7865154485314946e-06 0.10912825883635877 0.025278538396047365 0.05054428704874938 0.12716913261508658 0.026659304963377383 0.034934521992122311 0.083699649139696242 0.024860462035020053 0.045574182951927326 0.092103444678209995 0.021429061862684177 3.105835828529858e-06 0.080499762608523082 0.012416029064067136 -1.4768745140352346e-07 0.037406022754459534 0.021429061862684177 3.105835828529858e-06 0.080499762608523082 0.029965785037672842 7.7865154485314946e-06 0.10912825883635877 0.025278538396047365 0.05054428704874938 0.12716913261508658 0.021956681931756941 7.5626341852221065e-06 0.12003127179583643 0.026659304963377383 0.034934521992122311 0.083699649139696242 0.032891616928997836 1.501990668617594e-06 0.12217905367839715 0.029965785037672842 7.7865154485314946e-06 0.10912825883635877 0.033602367308275628 0.046593767814472206 0.12613800685979917 0.029853290856881556 3.9982947653531694e-06 0.1034199000556683 0.026659304963377383 0.034934521992122311 0.083699649139696242 0.032891616928997836 1.501990668617594e-06 0.12217905367839715 0.029965785037672842 7.7865154485314946e-06 0.10912825883635877 0.029853290856881556 3.9982947653531694e-06 0.1034199000556683 0.026659304963377383 0.034934521992122311 0.083699649139696242 0.029965785037672842 7.7865154485314946e-06 0.10912825883635877 0.021078357429308414 7.8383391250129837e-06 0.060821004632975004 4.7124027420157512e-07 1.2966384981579955e-06 9.6413268972948115e-06 0.024860462035020053 0.045574182951927326 0.092103444678209995 1.937770894844491e-06 1.8598314463654277e-06 6.3133013363927581e-06 1.79584330727392e-06 3.1076914505787213e-06 6.3818412538198441e-06 0.024860462035020053 0.045574182951927326 0.092103444678209995 0.021429061862684177 3.105835828529858e-06 0.080499762608523082 0.012416029064067136 -1.4768745140352346e-07 0.037406022754459534 0.0088149345542328592 2.7068614378916793e-06 0.043632221842409925 0.026659304963377383 0.034934521992122311 0.083699649139696242 0.021078357429308414 7.8383391250129837e-06 0.060821004632975004 1.937770894844491e-06 1.8598314463654277e-06 6.3133013363927581e-06 0.012416029064067136 -1.4768745140352346e-07 0.037406022754459534 0.026659304963377383 0.034934521992122311 0.083699649139696242 0.024860462035020053 0.045574182951927326 0.092103444678209995 2.3823765677980021e-06 3.7959039612739023e-06 1.2348412557682169e-05 1.937770894844491e-06 1.8598314463654277e-06 6.3133013363927581e-06 4.7124027420157512e-07 1.2966384981579955e-06 9.6413268972948115e-06 0.024860462035020053 0.045574182951927326 0.092103444678209995 2.3823765677980021e-06 3.7959039612739023e-06 1.2348412557682169e-05 1.937770894844491e-06 1.8598314463654277e-06 6.3133013363927581e-06 0.026659304963377383 0.034934521992122311 0.083699649139696242 0.021429061862684177 3.105835828529858e-06 0.080499762608523082 0.021078357429308414 7.8383391250129837e-06 0.060821004632975004 0.012416029064067136 -1.4768745140352346e-07 0.037406022754459534 0.026659304963377383 0.034934521992122311 0.083699649139696242 0.021078357429308414 7.8383391250129837e-06 0.060821004632975004 2.3823765677980021e-06 3.7959039612739023e-06 1.2348412557682169e-05 1.937770894844491e-06 1.8598314463654277e-06 6.3133013363927581e-06 0.026659304963377383 0.034934521992122311 0.083699649139696242 0.024860462035020053 0.045574182951927326 0.092103444678209995 1.937770894844491e-06 1.8598314463654277e-06 6.3133013363927581e-06 0.012416029064067136 -1.4768745140352346e-07 0.037406022754459534 0.024860462035020053 0.045574182951927326 0.092103444678209995 1.937770894844491e-06 1.8598314463654277e-06 6.3133013363927581e-06 0.012416029064067136 -1.4768745140352346e-07 0.037406022754459534 1.79584330727392e-06 3.1076914505787213e-06 6.3818412538198441e-06 1.3388443978663745e-06 -2.9582290605618004e-06 1.1974728210232941e-05 0.021078357429308414 7.8383391250129837e-06 0.060821004632975004 1.5375516073844314e-06 -2.9310293995748537e-06 1.1818252599861613e-05 2.3823765677980021e-06 3.7959039612739023e-06 1.2348412557682169e-05 0.021078357429308414 7.8383391250129837e-06 0.060821004632975004 1.5375516073844314e-06 -2.9310293995748537e-06 1.1818252599861613e-05 2.3823765677980021e-06 3.7959039612739023e-06 1.2348412557682169e-05 1.937770894844491e-06 1.8598314463654277e-06 6.3133013363927581e-06 0.021078357429308414 7.8383391250129837e-06 0.060821004632975004 1.5375516073844314e-06 -2.9310293995748537e-06 1.1818252599861613e-05 1.937770894844491e-06 1.8598314463654277e-06 6.3133013363927581e-06 0.012416029064067136 -1.4768745140352346e-07 0.037406022754459534 1.5375516073844314e-06 -2.9310293995748537e-06 1.1818252599861613e-05 1.937770894844491e-06 1.8598314463654277e-06 6.3133013363927581e-06 0.012416029064067136 -1.4768745140352346e-07 0.037406022754459534 9.6604696584173597e-07 -1.8196279895983899e-06 8.6550131357526066e-06 0.024860462035020053 0.045574182951927326 0.092103444678209995 0.0088149345542328592 2.7068614378916793e-06 0.043632221842409925 1.3242029897281653e-06 0.017523690610608867 0.043860907039735872 0.012223133652028307 8.048850110626977e-06 0.083214367337219999 0.024860462035020053 0.045574182951927326 0.092103444678209995 1.79584330727392e-06 3.1076914505787213e-06 6.3818412538198441e-06 1.3242029897281653e-06 0.017523690610608867 0.043860907039735872 -7.391890117981295e-07 0.022192315360183922 0.038798234162938865 0.024860462035020053 0.045574182951927326 0.092103444678209995 0.0088149345542328592 2.7068614378916793e-06 0.043632221842409925 1.79584330727392e-06 3.1076914505787213e-06 6.3818412538198441e-06 1.3242029897281653e-06 0.017523690610608867 0.043860907039735872 0.024860462035020053 0.045574182951927326 0.092103444678209995 0.012416029064067136 -1.4768745140352346e-07 0.037406022754459534 0.0088149345542328592 2.7068614378916793e-06 0.043632221842409925 1.79584330727392e-06 3.1076914505787213e-06 6.3818412538198441e-06 1.937770894844491e-06 1.8598314463654277e-06 6.3133013363927581e-06 0.012416029064067136 -1.4768745140352346e-07 0.037406022754459534 9.6604696584173597e-07 -1.8196279895983899e-06 8.6550131357526066e-06 1.79584330727392e-06 3.1076914505787213e-06 6.3818412538198441e-06 0.012416029064067136 -1.4768745140352346e-07 0.037406022754459534 0.0088149345542328592 2.7068614378916793e-06 0.043632221842409925 9.6604696584173597e-07 -1.8196279895983899e-06 8.6550131357526066e-06 1.79584330727392e-06 3.1076914505787213e-06 6.3818412538198441e-06 0.0088149345542328592 2.7068614378916793e-06 0.043632221842409925 9.6604696584173597e-07 -1.8196279895983899e-06 8.6550131357526066e-06 1.79584330727392e-06 3.1076914505787213e-06 6.3818412538198441e-06 -1.2927837455539599e-06 -7.7220848535782204e-07 1.0579987130503742e-05 1.79584330727392e-06 3.1076914505787213e-06 6.3818412538198441e-06 -1.6515745781630893e-06 1.4723514149983942e-06 8.3679074630403836e-06 -7.391890117981295e-07 0.022192315360183922 0.038798234162938865 2.1542895801268518e-06 4.0442659935291552e-06 8.3050145917424119e-06 1.79584330727392e-06 3.1076914505787213e-06 6.3818412538198441e-06 1.3242029897281653e-06 0.017523690610608867 0.043860907039735872 -1.6515745781630893e-06 1.4723514149983942e-06 8.3679074630403836e-06 -1.2927837455539599e-06 -7.7220848535782204e-07 1.0579987130503742e-05 1.79584330727392e-06 3.1076914505787213e-06 6.3818412538198441e-06 1.3242029897281653e-06 0.017523690610608867 0.043860907039735872 -1.6515745781630893e-06 1.4723514149983942e-06 8.3679074630403836e-06 -7.391890117981295e-07 0.022192315360183922 0.038798234162938865 0.0088149345542328592 2.7068614378916793e-06 0.043632221842409925 1.79584330727392e-06 3.1076914505787213e-06 6.3818412538198441e-06 1.3242029897281653e-06 0.017523690610608867 0.043860907039735872 -1.2927837455539599e-06 -7.7220848535782204e-07 1.0579987130503742e-05 1.3242029897281653e-06 0.017523690610608867 0.043860907039735872 4.0783839283692141e-07 6.8437508921861541e-07 0.055941756645383547 0.012223133652028307 8.048850110626977e-06 0.083214367337219999 4.2434593560967647e-06 0.021899246096067717 0.082929802482097109 0.0088149345542328592 2.7068614378916793e-06 0.043632221842409925 1.3242029897281653e-06 0.017523690610608867 0.043860907039735872 -1.2927837455539599e-06 -7.7220848535782204e-07 1.0579987130503742e-05 4.0783839283692141e-07 6.8437508921861541e-07 0.055941756645383547 0.0088149345542328592 2.7068614378916793e-06 0.043632221842409925 1.3242029897281653e-06 0.017523690610608867 0.043860907039735872 4.0783839283692141e-07 6.8437508921861541e-07 0.055941756645383547 0.012223133652028307 8.048850110626977e-06 0.083214367337219999 0.021429061862684177 3.105835828529858e-06 0.080499762608523082 0.012223133652028307 8.048850110626977e-06 0.083214367337219999 0.025278538396047365 0.05054428704874938 0.12716913261508658 0.021956681931756941 7.5626341852221065e-06 0.12003127179583643 4.0783839283692141e-07 6.8437508921861541e-07 0.055941756645383547 0.012223133652028307 8.048850110626977e-06 0.083214367337219999 3.5215153115795919e-06 6.3908028983557843e-06 0.101659897901617 4.2434593560967647e-06 0.021899246096067717 0.082929802482097109 0.024860462035020053 0.045574182951927326 0.092103444678209995 0.012223133652028307 8.048850110626977e-06 0.083214367337219999 4.2434593560967647e-06 0.021899246096067717 0.082929802482097109 0.025278538396047365 0.05054428704874938 0.12716913261508658 0.024860462035020053 0.045574182951927326 0.092103444678209995 4.2434593560967647e-06 0.021899246096067717 0.082929802482097109 1.0519166151326166e-06 0.039126552826475661 0.081217950168278194 0.025278538396047365 0.05054428704874938 0.12716913261508658 0.012223133652028307 8.048850110626977e-06 0.083214367337219999 4.2434593560967647e-06 0.021899246096067717 0.082929802482097109 0.025278538396047365 0.05054428704874938 0.12716913261508658 4.9859417623041531e-06 0.041482891712628207 0.12071285316482815 4.2434593560967647e-06 0.021899246096067717 0.082929802482097109 1.0519166151326166e-06 0.039126552826475661 0.081217950168278194 0.025278538396047365 0.05054428704874938 0.12716913261508658 4.9859417623041531e-06 0.041482891712628207 0.12071285316482815 0.024860462035020053 0.045574182951927326 0.092103444678209995 0.021429061862684177 3.105835828529858e-06 0.080499762608523082 0.012223133652028307 8.048850110626977e-06 0.083214367337219999 0.025278538396047365 0.05054428704874938 0.12716913261508658 0.024860462035020053 0.045574182951927326 0.092103444678209995 0.021429061862684177 3.105835828529858e-06 0.080499762608523082 0.0088149345542328592 2.7068614378916793e-06 0.043632221842409925 0.012223133652028307 8.048850110626977e-06 0.083214367337219999 0.012223133652028307 8.048850110626977e-06 0.083214367337219999 0.025278538396047365 0.05054428704874938 0.12716913261508658 4.9859417623041531e-06 0.041482891712628207 0.12071285316482815 0.021956681931756941 7.5626341852221065e-06 0.12003127179583643 0.024860462035020053 0.045574182951927326 0.092103444678209995 1.3242029897281653e-06 0.017523690610608867 0.043860907039735872 4.2434593560967647e-06 0.021899246096067717 0.082929802482097109 1.0519166151326166e-06 0.039126552826475661 0.081217950168278194 0.024860462035020053 0.045574182951927326 0.092103444678209995 1.3242029897281653e-06 0.017523690610608867 0.043860907039735872 0.012223133652028307 8.048850110626977e-06 0.083214367337219999 4.2434593560967647e-06 0.021899246096067717 0.082929802482097109 0.012223133652028307 8.048850110626977e-06 0.083214367337219999 3.5215153115795919e-06 6.3908028983557843e-06 0.101659897901617 4.9859417623041531e-06 0.041482891712628207 0.12071285316482815 0.021956681931756941 7.5626341852221065e-06 0.12003127179583643 0.012223133652028307 8.048850110626977e-06 0.083214367337219999 3.5215153115795919e-06 6.3908028983557843e-06 0.101659897901617 4.2434593560967647e-06 0.021899246096067717 0.082929802482097109 4.9859417623041531e-06 0.041482891712628207 0.12071285316482815 0.024860462035020053 0.045574182951927326 0.092103444678209995 4.5205484918975686e-06 0.054550415125677813 0.11010256819127727 0.022338166101023349 0.055213244989373481 0.10214593197651595 0.025278538396047365 0.05054428704874938 0.12716913261508658 4.5205484918975686e-06 0.054550415125677813 0.11010256819127727 0.022338166101023349 0.055213244989373481 0.10214593197651595 0.025834317387587846 0.063290174978989283 0.13131765835671894 0.025278538396047365 0.05054428704874938 0.12716913261508658 0.024860462035020053 0.045574182951927326 0.092103444678209995 1.0519166151326166e-06 0.039126552826475661 0.081217950168278194 4.5205484918975686e-06 0.054550415125677813 0.11010256819127727 0.025278538396047365 0.05054428704874938 0.12716913261508658 1.0519166151326166e-06 0.039126552826475661 0.081217950168278194 4.5205484918975686e-06 0.054550415125677813 0.11010256819127727 1.656241113764708e-06 0.038861073774645906 0.063970527678912883 0.022338166101023349 0.055213244989373481 0.10214593197651595 1.0519166151326166e-06 0.039126552826475661 0.081217950168278194 4.5205484918975686e-06 0.054550415125677813 0.11010256819127727 0.025278538396047365 0.05054428704874938 0.12716913261508658 4.9859417623041531e-06 0.041482891712628207 0.12071285316482815 0.024860462035020053 0.045574182951927326 0.092103444678209995 1.0519166151326166e-06 0.039126552826475661 0.081217950168278194 4.5205484918975686e-06 0.054550415125677813 0.11010256819127727 0.022338166101023349 0.055213244989373481 0.10214593197651595 0.024860462035020053 0.045574182951927326 0.092103444678209995 1.0519166151326166e-06 0.039126552826475661 0.081217950168278194 1.656241113764708e-06 0.038861073774645906 0.063970527678912883 0.022338166101023349 0.055213244989373481 0.10214593197651595 4.423460449865167e-07 0.06036349761625897 0.12250909402535549 4.5205484918975686e-06 0.054550415125677813 0.11010256819127727 0.022338166101023349 0.055213244989373481 0.10214593197651595 2.2376361707154096e-06 0.054179477893082098 0.10684694814752405 4.423460449865167e-07 0.06036349761625897 0.12250909402535549 4.5205484918975686e-06 0.054550415125677813 0.11010256819127727 0.022338166101023349 0.055213244989373481 0.10214593197651595 0.025834317387587846 0.063290174978989283 0.13131765835671894 4.5205484918975686e-06 0.054550415125677813 0.11010256819127727 1.656241113764708e-06 0.038861073774645906 0.063970527678912883 0.022338166101023349 0.055213244989373481 0.10214593197651595 2.2376361707154096e-06 0.054179477893082098 0.10684694814752405 0.024860462035020053 0.045574182951927326 0.092103444678209995 1.656241113764708e-06 0.038861073774645906 0.063970527678912883 -7.391890117981295e-07 0.022192315360183922 0.038798234162938865 2.1542895801268518e-06 4.0442659935291552e-06 8.3050145917424119e-06 0.024860462035020053 0.045574182951927326 0.092103444678209995 1.0519166151326166e-06 0.039126552826475661 0.081217950168278194 1.656241113764708e-06 0.038861073774645906 0.063970527678912883 -7.391890117981295e-07 0.022192315360183922 0.038798234162938865 4.7124027420157512e-07 1.2966384981579955e-06 9.6413268972948115e-06 0.024860462035020053 0.045574182951927326 0.092103444678209995 2.1542895801268518e-06 4.0442659935291552e-06 8.3050145917424119e-06 2.1888153967181819e-06 4.9795664418949668e-06 1.5388319903795358e-05 4.7124027420157512e-07 1.2966384981579955e-06 9.6413268972948115e-06 0.024860462035020053 0.045574182951927326 0.092103444678209995 1.79584330727392e-06 3.1076914505787213e-06 6.3818412538198441e-06 2.1542895801268518e-06 4.0442659935291552e-06 8.3050145917424119e-06 0.024860462035020053 0.045574182951927326 0.092103444678209995 1.3242029897281653e-06 0.017523690610608867 0.043860907039735872 1.0519166151326166e-06 0.039126552826475661 0.081217950168278194 -7.391890117981295e-07 0.022192315360183922 0.038798234162938865 0.024860462035020053 0.045574182951927326 0.092103444678209995 1.79584330727392e-06 3.1076914505787213e-06 6.3818412538198441e-06 -7.391890117981295e-07 0.022192315360183922 0.038798234162938865 2.1542895801268518e-06 4.0442659935291552e-06 8.3050145917424119e-06 0.024860462035020053 0.045574182951927326 0.092103444678209995 1.656241113764708e-06 0.038861073774645906 0.063970527678912883 2.1888153967181819e-06 4.9795664418949668e-06 1.5388319903795358e-05 0.022338166101023349 0.055213244989373481 0.10214593197651595 0.024860462035020053 0.045574182951927326 0.092103444678209995 1.656241113764708e-06 0.038861073774645906 0.063970527678912883 2.1542895801268518e-06 4.0442659935291552e-06 8.3050145917424119e-06 2.1888153967181819e-06 4.9795664418949668e-06 1.5388319903795358e-05 -1.6515745781630893e-06 1.4723514149983942e-06 8.3679074630403836e-06 -7.391890117981295e-07 0.022192315360183922 0.038798234162938865 2.1542895801268518e-06 4.0442659935291552e-06 8.3050145917424119e-06 -2.1581009962587706e-06 2.6177120755171435e-06 1.1290196178910492e-05 1.656241113764708e-06 0.038861073774645906 0.063970527678912883 -2.1581009962587706e-06 2.6177120755171435e-06 1.1290196178910492e-05 -2.7613708053166161e-06 2.5442473033153096e-06 1.296363544658435e-05 2.1888153967181819e-06 4.9795664418949668e-06 1.5388319903795358e-05 1.656241113764708e-06 0.038861073774645906 0.063970527678912883 -7.391890117981295e-07 0.022192315360183922 0.038798234162938865 2.1542895801268518e-06 4.0442659935291552e-06 8.3050145917424119e-06 -2.1581009962587706e-06 2.6177120755171435e-06 1.1290196178910492e-05 1.656241113764708e-06 0.038861073774645906 0.063970527678912883 2.1542895801268518e-06 4.0442659935291552e-06 8.3050145917424119e-06 -2.1581009962587706e-06 2.6177120755171435e-06 1.1290196178910492e-05 2.1888153967181819e-06 4.9795664418949668e-06 1.5388319903795358e-05 1.656241113764708e-06 0.038861073774645906 0.063970527678912883 2.1888153967181819e-06 4.9795664418949668e-06 1.5388319903795358e-05 0.014518575086234659 0.033651091105388733 0.07061205902268318 0.022338166101023349 0.055213244989373481 0.10214593197651595 1.656241113764708e-06 0.038861073774645906 0.063970527678912883 -2.7613708053166161e-06 2.5442473033153096e-06 1.296363544658435e-05 2.1888153967181819e-06 4.9795664418949668e-06 1.5388319903795358e-05 -1.4767474515617131e-07 0.024031686210387579 0.046291989149280476 -2.7613708053166161e-06 2.5442473033153096e-06 1.296363544658435e-05 2.1888153967181819e-06 4.9795664418949668e-06 1.5388319903795358e-05 -1.4767474515617131e-07 0.024031686210387579 0.046291989149280476 2.9757458809727959e-06 2.6236418002906977e-06 8.3673012738257582e-06 1.656241113764708e-06 0.038861073774645906 0.063970527678912883 2.1888153967181819e-06 4.9795664418949668e-06 1.5388319903795358e-05 -1.4767474515617131e-07 0.024031686210387579 0.046291989149280476 0.014518575086234659 0.033651091105388733 0.07061205902268318 1.656241113764708e-06 0.038861073774645906 0.063970527678912883 -1.4767474515617131e-07 0.024031686210387579 0.046291989149280476 0.014518575086234659 0.033651091105388733 0.07061205902268318 -1.732769496006002e-07 0.038696956143817421 0.090713289541790337 -1.4767474515617131e-07 0.024031686210387579 0.046291989149280476 0.014518575086234659 0.033651091105388733 0.07061205902268318 -8.8241443200115304e-09 0.021139179178003543 0.060856534048275367 -1.732769496006002e-07 0.038696956143817421 0.090713289541790337 -1.4767474515617131e-07 0.024031686210387579 0.046291989149280476 0.014518575086234659 0.033651091105388733 0.07061205902268318 2.9757458809727959e-06 2.6236418002906977e-06 8.3673012738257582e-06 -8.8241443200115304e-09 0.021139179178003543 0.060856534048275367 2.1888153967181819e-06 4.9795664418949668e-06 1.5388319903795358e-05 0.014518575086234659 0.033651091105388733 0.07061205902268318 2.9757458809727959e-06 2.6236418002906977e-06 8.3673012738257582e-06 4.1142022593593603e-07 3.6972757534566412e-06 8.4154917766616293e-06 2.1888153967181819e-06 4.9795664418949668e-06 1.5388319903795358e-05 -1.4767474515617131e-07 0.024031686210387579 0.046291989149280476 0.014518575086234659 0.033651091105388733 0.07061205902268318 2.9757458809727959e-06 2.6236418002906977e-06 8.3673012738257582e-06 0.014518575086234659 0.033651091105388733 0.07061205902268318 2.9757458809727959e-06 2.6236418002906977e-06 8.3673012738257582e-06 4.8937542202798959e-07 2.8285632285117353e-06 1.1910578686750602e-05 4.1142022593593603e-07 3.6972757534566412e-06 8.4154917766616293e-06 -2.7613708053166161e-06 2.5442473033153096e-06 1.296363544658435e-05 -1.4767474515617131e-07 0.024031686210387579 0.046291989149280476 2.9757458809727959e-06 2.6236418002906977e-06 8.3673012738257582e-06 -2.1456443107387007e-06 1.2942202643756172e-06 1.0025886088121503e-05 0.014518575086234659 0.033651091105388733 0.07061205902268318 -8.8241443200115304e-09 0.021139179178003543 0.060856534048275367 0.012253791599195599 6.0152672734359899e-06 0.062335986085686419 2.1656826465106679e-06 0.02272744069971171 0.098082106200514441 0.014518575086234659 0.033651091105388733 0.07061205902268318 0.012253791599195599 6.0152672734359899e-06 0.062335986085686419 4.8937542202798959e-07 2.8285632285117353e-06 1.1910578686750602e-05 0.012606036515208321 6.0465179253723126e-06 0.052013584700940273 -2.1456443107387007e-06 1.2942202643756172e-06 1.0025886088121503e-05 -8.8241443200115304e-09 0.021139179178003543 0.060856534048275367 -1.0184791381699252e-06 2.8441539781235028e-06 1.9312686077479992e-05 4.8937542202798959e-07 2.8285632285117353e-06 1.1910578686750602e-05 0.014518575086234659 0.033651091105388733 0.07061205902268318 0.012253791599195599 6.0152672734359899e-06 0.062335986085686419 0.021628085201829086 6.2493716303747262e-06 0.093725890835404002 0.013399543437658533 7.2512458347725476e-06 0.099743821351704717 0.014518575086234659 0.033651091105388733 0.07061205902268318 4.8937542202798959e-07 2.8285632285117353e-06 1.1910578686750602e-05 3.6137810047927679e-06 -3.3703107853019433e-07 1.7258498399713481e-05 0.012606036515208321 6.0465179253723126e-06 0.052013584700940273 2.9757458809727959e-06 2.6236418002906977e-06 8.3673012738257582e-06 -2.1456443107387007e-06 1.2942202643756172e-06 1.0025886088121503e-05 -8.8241443200115304e-09 0.021139179178003543 0.060856534048275367 4.8937542202798959e-07 2.8285632285117353e-06 1.1910578686750602e-05 0.014518575086234659 0.033651091105388733 0.07061205902268318 -8.8241443200115304e-09 0.021139179178003543 0.060856534048275367 0.012253791599195599 6.0152672734359899e-06 0.062335986085686419 4.8937542202798959e-07 2.8285632285117353e-06 1.1910578686750602e-05 0.014518575086234659 0.033651091105388733 0.07061205902268318 0.012253791599195599 6.0152672734359899e-06 0.062335986085686419 0.012606036515208321 6.0465179253723126e-06 0.052013584700940273 0.021628085201829086 6.2493716303747262e-06 0.093725890835404002 0.014518575086234659 0.033651091105388733 0.07061205902268318 0.012253791599195599 6.0152672734359899e-06 0.062335986085686419 0.013399543437658533 7.2512458347725476e-06 0.099743821351704717 2.1656826465106679e-06 0.02272744069971171 0.098082106200514441 -1.4767474515617131e-07 0.024031686210387579 0.046291989149280476 2.9757458809727959e-06 2.6236418002906977e-06 8.3673012738257582e-06 -2.1456443107387007e-06 1.2942202643756172e-06 1.0025886088121503e-05 -8.8241443200115304e-09 0.021139179178003543 0.060856534048275367 0.014518575086234659 0.033651091105388733 0.07061205902268318 -8.8241443200115304e-09 0.021139179178003543 0.060856534048275367 2.1656826465106679e-06 0.02272744069971171 0.098082106200514441 -1.732769496006002e-07 0.038696956143817421 0.090713289541790337 -1.6297750952379636e-06 6.3687828488174295e-06 0.070333669876533153 0.012253791599195599 6.0152672734359899e-06 0.062335986085686419 0.013399543437658533 7.2512458347725476e-06 0.099743821351704717 2.1656826465106679e-06 0.02272744069971171 0.098082106200514441 -8.8241443200115304e-09 0.021139179178003543 0.060856534048275367 -1.6297750952379636e-06 6.3687828488174295e-06 0.070333669876533153 -1.0184791381699252e-06 2.8441539781235028e-06 1.9312686077479992e-05 0.012253791599195599 6.0152672734359899e-06 0.062335986085686419 -8.8241443200115304e-09 0.021139179178003543 0.060856534048275367 -1.6297750952379636e-06 6.3687828488174295e-06 0.070333669876533153 0.012253791599195599 6.0152672734359899e-06 0.062335986085686419 2.1656826465106679e-06 0.02272744069971171 0.098082106200514441 -8.8241443200115304e-09 0.021139179178003543 0.060856534048275367 -1.0184791381699252e-06 2.8441539781235028e-06 1.9312686077479992e-05 0.012253791599195599 6.0152672734359899e-06 0.062335986085686419 4.8937542202798959e-07 2.8285632285117353e-06 1.1910578686750602e-05 9.3194655057057601e-07 2.90429475685755e-07 7.8042732864222297e-06 4.8937542202798959e-07 2.8285632285117353e-06 1.1910578686750602e-05 3.6137810047927679e-06 -3.3703107853019433e-07 1.7258498399713481e-05 0.012606036515208321 6.0465179253723126e-06 0.052013584700940273 -1.0184791381699252e-06 2.8441539781235028e-06 1.9312686077479992e-05 9.3194655057057601e-07 2.90429475685755e-07 7.8042732864222297e-06 0.012253791599195599 6.0152672734359899e-06 0.062335986085686419 4.8937542202798959e-07 2.8285632285117353e-06 1.1910578686750602e-05 9.3194655057057601e-07 2.90429475685755e-07 7.8042732864222297e-06 0.012253791599195599 6.0152672734359899e-06 0.062335986085686419 4.8937542202798959e-07 2.8285632285117353e-06 1.1910578686750602e-05 0.012606036515208321 6.0465179253723126e-06 0.052013584700940273 0.014518575086234659 0.033651091105388733 0.07061205902268318 4.8937542202798959e-07 2.8285632285117353e-06 1.1910578686750602e-05 3.6137810047927679e-06 -3.3703107853019433e-07 1.7258498399713481e-05 4.1142022593593603e-07 3.6972757534566412e-06 8.4154917766616293e-06 0.014518575086234659 0.033651091105388733 0.07061205902268318 2.9757458809727959e-06 2.6236418002906977e-06 8.3673012738257582e-06 -8.8241443200115304e-09 0.021139179178003543 0.060856534048275367 4.8937542202798959e-07 2.8285632285117353e-06 1.1910578686750602e-05 0.014518575086234659 0.033651091105388733 0.07061205902268318 3.6137810047927679e-06 -3.3703107853019433e-07 1.7258498399713481e-05 0.012606036515208321 6.0465179253723126e-06 0.052013584700940273 0.026885119690010686 0.041853381374923067 0.097972303769597022 3.6137810047927679e-06 -3.3703107853019433e-07 1.7258498399713481e-05 0.012606036515208321 6.0465179253723126e-06 0.052013584700940273 0.021866302512317581 1.2661007924295017e-05 0.077725771435206467 0.026885119690010686 0.041853381374923067 0.097972303769597022 2.4202613038464056e-06 2.8462520516578126e-06 1.8155847773432332e-05 3.6137810047927679e-06 -3.3703107853019433e-07 1.7258498399713481e-05 4.1142022593593603e-07 3.6972757534566412e-06 8.4154917766616293e-06 0.026885119690010686 0.041853381374923067 0.097972303769597022 0.014518575086234659 0.033651091105388733 0.07061205902268318 0.012606036515208321 6.0465179253723126e-06 0.052013584700940273 0.026885119690010686 0.041853381374923067 0.097972303769597022 0.021628085201829086 6.2493716303747262e-06 0.093725890835404002 2.4202613038464056e-06 2.8462520516578126e-06 1.8155847773432332e-05 3.6137810047927679e-06 -3.3703107853019433e-07 1.7258498399713481e-05 0.021866302512317581 1.2661007924295017e-05 0.077725771435206467 0.026885119690010686 0.041853381374923067 0.097972303769597022 0.012606036515208321 6.0465179253723126e-06 0.052013584700940273 0.021866302512317581 1.2661007924295017e-05 0.077725771435206467 0.026885119690010686 0.041853381374923067 0.097972303769597022 0.021628085201829086 6.2493716303747262e-06 0.093725890835404002 9.3194655057057601e-07 2.90429475685755e-07 7.8042732864222297e-06 3.6137810047927679e-06 -3.3703107853019433e-07 1.7258498399713481e-05 0.012606036515208321 6.0465179253723126e-06 0.052013584700940273 1.3306349517579429e-06 4.4859162624633607e-07 1.1203428333709211e-05 2.4202613038464056e-06 2.8462520516578126e-06 1.8155847773432332e-05 3.6137810047927679e-06 -3.3703107853019433e-07 1.7258498399713481e-05 1.3306349517579429e-06 4.4859162624633607e-07 1.1203428333709211e-05 0.021866302512317581 1.2661007924295017e-05 0.077725771435206467 3.6137810047927679e-06 -3.3703107853019433e-07 1.7258498399713481e-05 0.012606036515208321 6.0465179253723126e-06 0.052013584700940273 1.3306349517579429e-06 4.4859162624633607e-07 1.1203428333709211e-05 0.021866302512317581 1.2661007924295017e-05 0.077725771435206467 0.014518575086234659 0.033651091105388733 0.07061205902268318 1.6915140659660221e-06 4.2102111663655184e-06 1.414767600576106e-05 4.1142022593593603e-07 3.6972757534566412e-06 8.4154917766616293e-06 0.026885119690010686 0.041853381374923067 0.097972303769597022 4.5280090698591382e-06 7.0836338382208879e-06 1.2927628335817074e-05 2.1888153967181819e-06 4.9795664418949668e-06 1.5388319903795358e-05 0.014518575086234659 0.033651091105388733 0.07061205902268318 0.022338166101023349 0.055213244989373481 0.10214593197651595 0.023059844464787767 0.042207100034879035 0.078249290055001058 0.014518575086234659 0.033651091105388733 0.07061205902268318 1.6915140659660221e-06 4.2102111663655184e-06 1.414767600576106e-05 0.026885119690010686 0.041853381374923067 0.097972303769597022 4.5280090698591382e-06 7.0836338382208879e-06 1.2927628335817074e-05 0.023059844464787767 0.042207100034879035 0.078249290055001058 0.014518575086234659 0.033651091105388733 0.07061205902268318 1.6915140659660221e-06 4.2102111663655184e-06 1.414767600576106e-05 4.5280090698591382e-06 7.0836338382208879e-06 1.2927628335817074e-05 0.023059844464787767 0.042207100034879035 0.078249290055001058 0.014518575086234659 0.033651091105388733 0.07061205902268318 0.022338166101023349 0.055213244989373481 0.10214593197651595 2.4202613038464056e-06 2.8462520516578126e-06 1.8155847773432332e-05 1.6915140659660221e-06 4.2102111663655184e-06 1.414767600576106e-05 4.1142022593593603e-07 3.6972757534566412e-06 8.4154917766616293e-06 0.026885119690010686 0.041853381374923067 0.097972303769597022 4.5280090698591382e-06 7.0836338382208879e-06 1.2927628335817074e-05 2.1888153967181819e-06 4.9795664418949668e-06 1.5388319903795358e-05 0.014518575086234659 0.033651091105388733 0.07061205902268318 1.6915140659660221e-06 4.2102111663655184e-06 1.414767600576106e-05 0.014518575086234659 0.033651091105388733 0.07061205902268318 3.6137810047927679e-06 -3.3703107853019433e-07 1.7258498399713481e-05 4.1142022593593603e-07 3.6972757534566412e-06 8.4154917766616293e-06 0.026885119690010686 0.041853381374923067 0.097972303769597022 2.4202613038464056e-06 2.8462520516578126e-06 1.8155847773432332e-05 0.020736113443154635 0.026560206258636379 0.077490678716586645 1.6915140659660221e-06 4.2102111663655184e-06 1.414767600576106e-05 0.026885119690010686 0.041853381374923067 0.097972303769597022 0.020736113443154635 0.026560206258636379 0.077490678716586645 0.023059844464787767 0.042207100034879035 0.078249290055001058 1.6915140659660221e-06 4.2102111663655184e-06 1.414767600576106e-05 0.026885119690010686 0.041853381374923067 0.097972303769597022 4.5280090698591382e-06 7.0836338382208879e-06 1.2927628335817074e-05 -5.2796289586262454e-07 -6.0298860918059014e-07 7.5371160505302219e-07 0.023059844464787767 0.042207100034879035 0.078249290055001058 1.6915140659660221e-06 4.2102111663655184e-06 1.414767600576106e-05 2.1888153967181819e-06 4.9795664418949668e-06 1.5388319903795358e-05 0.014518575086234659 0.033651091105388733 0.07061205902268318 1.6915140659660221e-06 4.2102111663655184e-06 1.414767600576106e-05 4.1142022593593603e-07 3.6972757534566412e-06 8.4154917766616293e-06 0.034660221819671426 0.062994668463912704 0.12547154285796544 0.026885119690010686 0.041853381374923067 0.097972303769597022 0.025325310968879737 0.049305950272552544 0.12374306047139626 0.033669279780451075 0.045709885445968233 0.12732842903705105 0.023059844464787767 0.042207100034879035 0.078249290055001058 0.014518575086234659 0.033651091105388733 0.07061205902268318 0.026885119690010686 0.041853381374923067 0.097972303769597022 0.022338166101023349 0.055213244989373481 0.10214593197651595 0.034660221819671426 0.062994668463912704 0.12547154285796544 0.026885119690010686 0.041853381374923067 0.097972303769597022 0.025325310968879737 0.049305950272552544 0.12374306047139626 0.022338166101023349 0.055213244989373481 0.10214593197651595 0.034660221819671426 0.062994668463912704 0.12547154285796544 0.025325310968879737 0.049305950272552544 0.12374306047139626 0.022338166101023349 0.055213244989373481 0.10214593197651595 0.025834317387587846 0.063290174978989283 0.13131765835671894 0.014518575086234659 0.033651091105388733 0.07061205902268318 0.026885119690010686 0.041853381374923067 0.097972303769597022 0.025325310968879737 0.049305950272552544 0.12374306047139626 0.022338166101023349 0.055213244989373481 0.10214593197651595 0.023059844464787767 0.042207100034879035 0.078249290055001058 0.034660221819671426 0.062994668463912704 0.12547154285796544 0.026885119690010686 0.041853381374923067 0.097972303769597022 0.022338166101023349 0.055213244989373481 0.10214593197651595 0.021866302512317581 1.2661007924295017e-05 0.077725771435206467 0.026885119690010686 0.041853381374923067 0.097972303769597022 0.021628085201829086 6.2493716303747262e-06 0.093725890835404002 0.029988974476316918 8.5405925094518818e-06 0.11702533407031475 0.026885119690010686 0.041853381374923067 0.097972303769597022 0.021628085201829086 6.2493716303747262e-06 0.093725890835404002 0.029988974476316918 8.5405925094518818e-06 0.11702533407031475 0.025325310968879737 0.049305950272552544 0.12374306047139626 0.026885119690010686 0.041853381374923067 0.097972303769597022 0.029988974476316918 8.5405925094518818e-06 0.11702533407031475 0.025325310968879737 0.049305950272552544 0.12374306047139626 0.033669279780451075 0.045709885445968233 0.12732842903705105 0.014518575086234659 0.033651091105388733 0.07061205902268318 0.026885119690010686 0.041853381374923067 0.097972303769597022 0.021628085201829086 6.2493716303747262e-06 0.093725890835404002 0.025325310968879737 0.049305950272552544 0.12374306047139626 0.0296021253852768 9.8471036582973582e-06 0.11303876204983923 0.026885119690010686 0.041853381374923067 0.097972303769597022 0.029988974476316918 8.5405925094518818e-06 0.11702533407031475 0.033669279780451075 0.045709885445968233 0.12732842903705105 0.0296021253852768 9.8471036582973582e-06 0.11303876204983923 0.021866302512317581 1.2661007924295017e-05 0.077725771435206467 0.026885119690010686 0.041853381374923067 0.097972303769597022 0.029988974476316918 8.5405925094518818e-06 0.11702533407031475 0.021628085201829086 6.2493716303747262e-06 0.093725890835404002 0.029988974476316918 8.5405925094518818e-06 0.11702533407031475 0.025325310968879737 0.049305950272552544 0.12374306047139626 0.022324931413459193 9.4996248313561719e-06 0.12407731033009664 0.0296021253852768 9.8471036582973582e-06 0.11303876204983923 0.029988974476316918 8.5405925094518818e-06 0.11702533407031475 0.031971831172431846 6.8392004003666995e-07 0.12312101967391526 0.033669279780451075 0.045709885445968233 0.12732842903705105 0.021628085201829086 6.2493716303747262e-06 0.093725890835404002 0.013399543437658533 7.2512458347725476e-06 0.099743821351704717 0.025325310968879737 0.049305950272552544 0.12374306047139626 0.022324931413459193 9.4996248313561719e-06 0.12407731033009664 0.014518575086234659 0.033651091105388733 0.07061205902268318 0.021628085201829086 6.2493716303747262e-06 0.093725890835404002 0.013399543437658533 7.2512458347725476e-06 0.099743821351704717 0.025325310968879737 0.049305950272552544 0.12374306047139626 0.014518575086234659 0.033651091105388733 0.07061205902268318 2.1656826465106679e-06 0.02272744069971171 0.098082106200514441 0.025325310968879737 0.049305950272552544 0.12374306047139626 -1.732769496006002e-07 0.038696956143817421 0.090713289541790337 0.014518575086234659 0.033651091105388733 0.07061205902268318 0.013399543437658533 7.2512458347725476e-06 0.099743821351704717 2.1656826465106679e-06 0.02272744069971171 0.098082106200514441 0.025325310968879737 0.049305950272552544 0.12374306047139626 0.013399543437658533 7.2512458347725476e-06 0.099743821351704717 2.1656826465106679e-06 0.02272744069971171 0.098082106200514441 2.768216436660304e-06 0.040232101839614169 0.12342594204369883 0.025325310968879737 0.049305950272552544 0.12374306047139626 0.013399543437658533 7.2512458347725476e-06 0.099743821351704717 2.768216436660304e-06 0.040232101839614169 0.12342594204369883 0.025325310968879737 0.049305950272552544 0.12374306047139626 0.022324931413459193 9.4996248313561719e-06 0.12407731033009664 3.6456505934702671e-07 7.0632830037168779e-06 0.11263653699557095 2.768216436660304e-06 0.040232101839614169 0.12342594204369883 3.5712975617820384e-06 8.6148245000852907e-06 0.12665475428044279 0.022324931413459193 9.4996248313561719e-06 0.12407731033009664 0.013399543437658533 7.2512458347725476e-06 0.099743821351704717 3.6456505934702671e-07 7.0632830037168779e-06 0.11263653699557095 2.1656826465106679e-06 0.02272744069971171 0.098082106200514441 2.768216436660304e-06 0.040232101839614169 0.12342594204369883 0.013399543437658533 7.2512458347725476e-06 0.099743821351704717 3.6456505934702671e-07 7.0632830037168779e-06 0.11263653699557095 2.768216436660304e-06 0.040232101839614169 0.12342594204369883 0.022324931413459193 9.4996248313561719e-06 0.12407731033009664 -1.6297750952379636e-06 6.3687828488174295e-06 0.070333669876533153 0.013399543437658533 7.2512458347725476e-06 0.099743821351704717 3.6456505934702671e-07 7.0632830037168779e-06 0.11263653699557095 2.1656826465106679e-06 0.02272744069971171 0.098082106200514441 2.1656826465106679e-06 0.02272744069971171 0.098082106200514441 2.768216436660304e-06 0.040232101839614169 0.12342594204369883 0.025325310968879737 0.049305950272552544 0.12374306047139626 -1.732769496006002e-07 0.038696956143817421 0.090713289541790337 0.014518575086234659 0.033651091105388733 0.07061205902268318 0.025325310968879737 0.049305950272552544 0.12374306047139626 -1.732769496006002e-07 0.038696956143817421 0.090713289541790337 2.2376361707154096e-06 0.054179477893082098 0.10684694814752405 2.768216436660304e-06 0.040232101839614169 0.12342594204369883 0.025325310968879737 0.049305950272552544 0.12374306047139626 -1.732769496006002e-07 0.038696956143817421 0.090713289541790337 2.2376361707154096e-06 0.054179477893082098 0.10684694814752405 2.768216436660304e-06 0.040232101839614169 0.12342594204369883 0.025325310968879737 0.049305950272552544 0.12374306047139626 2.2376361707154096e-06 0.054179477893082098 0.10684694814752405 4.3093174096767653e-06 0.058846885072159218 0.12858048575596723 0.014518575086234659 0.033651091105388733 0.07061205902268318 0.025325310968879737 0.049305950272552544 0.12374306047139626 0.022338166101023349 0.055213244989373481 0.10214593197651595 2.2376361707154096e-06 0.054179477893082098 0.10684694814752405 1.656241113764708e-06 0.038861073774645906 0.063970527678912883 0.014518575086234659 0.033651091105388733 0.07061205902268318 0.022338166101023349 0.055213244989373481 0.10214593197651595 2.2376361707154096e-06 0.054179477893082098 0.10684694814752405 1.656241113764708e-06 0.038861073774645906 0.063970527678912883 0.014518575086234659 0.033651091105388733 0.07061205902268318 -1.732769496006002e-07 0.038696956143817421 0.090713289541790337 2.2376361707154096e-06 0.054179477893082098 0.10684694814752405 4.423460449865167e-07 0.06036349761625897 0.12250909402535549 0.025325310968879737 0.049305950272552544 0.12374306047139626 0.022338166101023349 0.055213244989373481 0.10214593197651595 0.025834317387587846 0.063290174978989283 0.13131765835671894 4.423460449865167e-07 0.06036349761625897 0.12250909402535549 0.025325310968879737 0.049305950272552544 0.12374306047139626 0.022338166101023349 0.055213244989373481 0.10214593197651595 2.2376361707154096e-06 0.054179477893082098 0.10684694814752405 4.423460449865167e-07 0.06036349761625897 0.12250909402535549 0.025325310968879737 0.049305950272552544 0.12374306047139626 2.2376361707154096e-06 0.054179477893082098 0.10684694814752405 4.3093174096767653e-06 0.058846885072159218 0.12858048575596723 4.423460449865167e-07 0.06036349761625897 0.12250909402535549 0.025325310968879737 0.049305950272552544 0.12374306047139626 0.025834317387587846 0.063290174978989283 0.13131765835671894 4.3093174096767653e-06 0.058846885072159218 0.12858048575596723 4.423460449865167e-07 0.06036349761625897 0.12250909402535549 0.025834317387587846 0.063290174978989283 0.13131765835671894 4.3093174096767653e-06 0.058846885072159218 0.12858048575596723 4.916290706985825e-06 0.063107787611224139 0.13054007094389802 0.025834317387587846 0.063290174978989283 0.13131765835671894 0.023007084535250941 0.058096380859706989 0.12248860827043462 6.2139517094424394e-06 0.064636053854048442 0.12797441485185812 0.030149513584360434 0.064369409906589681 0.12738923085647488 0.025834317387587846 0.063290174978989283 0.13131765835671894 4.3093174096767653e-06 0.058846885072159218 0.12858048575596723 0.023276895865286286 0.039805648938727241 0.12890672828680858 0.023007084535250941 0.058096380859706989 0.12248860827043462 0.025325310968879737 0.049305950272552544 0.12374306047139626 0.025834317387587846 0.063290174978989283 0.13131765835671894 4.3093174096767653e-06 0.058846885072159218 0.12858048575596723 0.023276895865286286 0.039805648938727241 0.12890672828680858 0.025834317387587846 0.063290174978989283 0.13131765835671894 4.3093174096767653e-06 0.058846885072159218 0.12858048575596723 6.2139517094424394e-06 0.064636053854048442 0.12797441485185812 4.916290706985825e-06 0.063107787611224139 0.13054007094389802 0.025834317387587846 0.063290174978989283 0.13131765835671894 4.3093174096767653e-06 0.058846885072159218 0.12858048575596723 0.023007084535250941 0.058096380859706989 0.12248860827043462 6.2139517094424394e-06 0.064636053854048442 0.12797441485185812 2.8659047045735197e-06 0.052729883809919054 0.12616191682244854 4.3093174096767653e-06 0.058846885072159218 0.12858048575596723 0.023276895865286286 0.039805648938727241 0.12890672828680858 0.023007084535250941 0.058096380859706989 0.12248860827043462 2.8659047045735197e-06 0.052729883809919054 0.12616191682244854 4.3093174096767653e-06 0.058846885072159218 0.12858048575596723 0.023007084535250941 0.058096380859706989 0.12248860827043462 6.2139517094424394e-06 0.064636053854048442 0.12797441485185812 2.768216436660304e-06 0.040232101839614169 0.12342594204369883 0.025325310968879737 0.049305950272552544 0.12374306047139626 4.3093174096767653e-06 0.058846885072159218 0.12858048575596723 0.023276895865286286 0.039805648938727241 0.12890672828680858 2.768216436660304e-06 0.040232101839614169 0.12342594204369883 2.8659047045735197e-06 0.052729883809919054 0.12616191682244854 4.3093174096767653e-06 0.058846885072159218 0.12858048575596723 0.023276895865286286 0.039805648938727241 0.12890672828680858 2.768216436660304e-06 0.040232101839614169 0.12342594204369883 0.025325310968879737 0.049305950272552544 0.12374306047139626 0.022324931413459193 9.4996248313561719e-06 0.12407731033009664 0.023276895865286286 0.039805648938727241 0.12890672828680858 2.768216436660304e-06 0.040232101839614169 0.12342594204369883 1.8953006894894384e-06 0.029127006966427459 0.12473808374902561 3.5712975617820384e-06 8.6148245000852907e-06 0.12665475428044279 0.023276895865286286 0.039805648938727241 0.12890672828680858 2.8659047045735197e-06 0.052729883809919054 0.12616191682244854 1.8953006894894384e-06 0.029127006966427459 0.12473808374902561 0.023276895865286286 0.039805648938727241 0.12890672828680858 4.1754749066255443e-06 0.036121289806926575 0.11363120350123827 2.768216436660304e-06 0.040232101839614169 0.12342594204369883 2.8659047045735197e-06 0.052729883809919054 0.12616191682244854 1.8953006894894384e-06 0.029127006966427459 0.12473808374902561 0.023276895865286286 0.039805648938727241 0.12890672828680858 1.8953006894894384e-06 0.029127006966427459 0.12473808374902561 0.016344516990559506 4.1932423712686251e-06 0.12506187512707059 0.023276895865286286 0.039805648938727241 0.12890672828680858 4.1754749066255443e-06 0.036121289806926575 0.11363120350123827 1.8953006894894384e-06 0.029127006966427459 0.12473808374902561 3.5712975617820384e-06 8.6148245000852907e-06 0.12665475428044279 0.016344516990559506 4.1932423712686251e-06 0.12506187512707059 2.5463225590990231e-06 4.1790710815597168e-06 0.1155853490726378 1.8953006894894384e-06 0.029127006966427459 0.12473808374902561 3.5712975617820384e-06 8.6148245000852907e-06 0.12665475428044279 0.016344516990559506 4.1932423712686251e-06 0.12506187512707059 0.023276895865286286 0.039805648938727241 0.12890672828680858 2.768216436660304e-06 0.040232101839614169 0.12342594204369883 3.5712975617820384e-06 8.6148245000852907e-06 0.12665475428044279 0.022324931413459193 9.4996248313561719e-06 0.12407731033009664 0.023276895865286286 0.039805648938727241 0.12890672828680858 3.5712975617820384e-06 8.6148245000852907e-06 0.12665475428044279 0.022324931413459193 9.4996248313561719e-06 0.12407731033009664 0.016344516990559506 4.1932423712686251e-06 0.12506187512707059 0.023276895865286286 0.039805648938727241 0.12890672828680858 0.022324931413459193 9.4996248313561719e-06 0.12407731033009664 0.016344516990559506 4.1932423712686251e-06 0.12506187512707059 0.023276895865286286 0.039805648938727241 0.12890672828680858 0.029005212964049603 4.2641746391271792e-06 0.12204661827977585 0.016344516990559506 4.1932423712686251e-06 0.12506187512707059 0.023276895865286286 0.039805648938727241 0.12890672828680858 0.029005212964049603 4.2641746391271792e-06 0.12204661827977585 0.019665724103761044 6.2209565899279282e-06 0.11093278982508069 0.023276895865286286 0.039805648938727241 0.12890672828680858 0.029005212964049603 4.2641746391271792e-06 0.12204661827977585 0.032813848633643942 0.054384993373160752 0.12774861876831753 0.03003644322695 6.7275453545298085e-06 0.10478926141474666 0.025325310968879737 0.049305950272552544 0.12374306047139626 0.023276895865286286 0.039805648938727241 0.12890672828680858 0.03540621333929652 8.5660585547809231e-06 0.12557253931826576 0.032813848633643942 0.054384993373160752 0.12774861876831753 0.025325310968879737 0.049305950272552544 0.12374306047139626 0.022324931413459193 9.4996248313561719e-06 0.12407731033009664 0.023276895865286286 0.039805648938727241 0.12890672828680858 0.03540621333929652 8.5660585547809231e-06 0.12557253931826576 0.029005212964049603 4.2641746391271792e-06 0.12204661827977585 0.03540621333929652 8.5660585547809231e-06 0.12557253931826576 0.032813848633643942 0.054384993373160752 0.12774861876831753 0.035357291632886555 9.938880239168617e-06 0.11482570102329959 0.029988974476316918 8.5405925094518818e-06 0.11702533407031475 0.025325310968879737 0.049305950272552544 0.12374306047139626 0.03540621333929652 8.5660585547809231e-06 0.12557253931826576 0.033669279780451075 0.045709885445968233 0.12732842903705105 0.025325310968879737 0.049305950272552544 0.12374306047139626 0.03540621333929652 8.5660585547809231e-06 0.12557253931826576 0.032813848633643942 0.054384993373160752 0.12774861876831753 0.033669279780451075 0.045709885445968233 0.12732842903705105 0.023276895865286286 0.039805648938727241 0.12890672828680858 0.029005212964049603 4.2641746391271792e-06 0.12204661827977585 0.03540621333929652 8.5660585547809231e-06 0.12557253931826576 0.032813848633643942 0.054384993373160752 0.12774861876831753 0.029988974476316918 8.5405925094518818e-06 0.11702533407031475 0.025325310968879737 0.049305950272552544 0.12374306047139626 0.022324931413459193 9.4996248313561719e-06 0.12407731033009664 0.03540621333929652 8.5660585547809231e-06 0.12557253931826576 0.03540621333929652 8.5660585547809231e-06 0.12557253931826576 0.032813848633643942 0.054384993373160752 0.12774861876831753 0.033669279780451075 0.045709885445968233 0.12732842903705105 0.035357291632886555 9.938880239168617e-06 0.11482570102329959 0.022324931413459193 9.4996248313561719e-06 0.12407731033009664 0.023276895865286286 0.039805648938727241 0.12890672828680858 0.029005212964049603 4.2641746391271792e-06 0.12204661827977585 0.03540621333929652 8.5660585547809231e-06 0.12557253931826576 0.029988974476316918 8.5405925094518818e-06 0.11702533407031475 0.031971831172431846 6.8392004003666995e-07 0.12312101967391526 0.03540621333929652 8.5660585547809231e-06 0.12557253931826576 0.033669279780451075 0.045709885445968233 0.12732842903705105 0.025834317387587846 0.063290174978989283 0.13131765835671894 0.032813848633643942 0.054384993373160752 0.12774861876831753 0.030149513584360434 0.064369409906589681 0.12738923085647488 0.035512350397156014 0.066472756800316543 0.1278098647019946 0.025834317387587846 0.063290174978989283 0.13131765835671894 0.023276895865286286 0.039805648938727241 0.12890672828680858 0.032813848633643942 0.054384993373160752 0.12774861876831753 0.023007084535250941 0.058096380859706989 0.12248860827043462 0.025325310968879737 0.049305950272552544 0.12374306047139626 0.025834317387587846 0.063290174978989283 0.13131765835671894 0.023276895865286286 0.039805648938727241 0.12890672828680858 0.032813848633643942 0.054384993373160752 0.12774861876831753 0.034660221819671426 0.062994668463912704 0.12547154285796544 0.025834317387587846 0.063290174978989283 0.13131765835671894 0.032813848633643942 0.054384993373160752 0.12774861876831753 0.035512350397156014 0.066472756800316543 0.1278098647019946 0.034660221819671426 0.062994668463912704 0.12547154285796544 0.025325310968879737 0.049305950272552544 0.12374306047139626 0.025834317387587846 0.063290174978989283 0.13131765835671894 0.032813848633643942 0.054384993373160752 0.12774861876831753 0.034660221819671426 0.062994668463912704 0.12547154285796544 0.025325310968879737 0.049305950272552544 0.12374306047139626 0.032813848633643942 0.054384993373160752 0.12774861876831753 0.033669279780451075 0.045709885445968233 0.12732842903705105 0.034660221819671426 0.062994668463912704 0.12547154285796544 0.032813848633643942 0.054384993373160752 0.12774861876831753 0.035512350397156014 0.066472756800316543 0.1278098647019946 0.033669279780451075 0.045709885445968233 0.12732842903705105 0.025834317387587846 0.063290174978989283 0.13131765835671894 0.032813848633643942 0.054384993373160752 0.12774861876831753 0.023007084535250941 0.058096380859706989 0.12248860827043462 0.030149513584360434 0.064369409906589681 0.12738923085647488 0.032813848633643942 0.054384993373160752 0.12774861876831753 0.025593786025879011 0.047002153215578671 0.082927291530177541 0.027157207847256816 0.027254666930147997 0.080352077264281493 0.023007084535250941 0.058096380859706989 0.12248860827043462 0.032813848633643942 0.054384993373160752 0.12774861876831753 0.025593786025879011 0.047002153215578671 0.082927291530177541 0.031239443917527296 0.055520908860759687 0.087238688648250809 0.032885324545012286 0.041763582410186621 0.078140734314536983 0.032813848633643942 0.054384993373160752 0.12774861876831753 0.031239443917527296 0.055520908860759687 0.087238688648250809 0.023007084535250941 0.058096380859706989 0.12248860827043462 0.030149513584360434 0.064369409906589681 0.12738923085647488 0.032813848633643942 0.054384993373160752 0.12774861876831753 0.031239443917527296 0.055520908860759687 0.087238688648250809 0.030149513584360434 0.064369409906589681 0.12738923085647488 0.035512350397156014 0.066472756800316543 0.1278098647019946 0.032813848633643942 0.054384993373160752 0.12774861876831753 0.031239443917527296 0.055520908860759687 0.087238688648250809 0.035512350397156014 0.066472756800316543 0.1278098647019946 0.032885324545012286 0.041763582410186621 0.078140734314536983 0.032813848633643942 0.054384993373160752 0.12774861876831753 0.025593786025879011 0.047002153215578671 0.082927291530177541 0.031239443917527296 0.055520908860759687 0.087238688648250809 0.023007084535250941 0.058096380859706989 0.12248860827043462 0.025593786025879011 0.047002153215578671 0.082927291530177541 0.031239443917527296 0.055520908860759687 0.087238688648250809 0.023007084535250941 0.058096380859706989 0.12248860827043462 0.020569978945620668 0.057245797629114928 0.098035207207011948 0.031239443917527296 0.055520908860759687 0.087238688648250809 0.020569978945620668 0.057245797629114928 0.098035207207011948 0.030149513584360434 0.064369409906589681 0.12738923085647488 0.029301840366252416 0.057535220864788877 0.096096579484003741 0.031239443917527296 0.055520908860759687 0.087238688648250809 0.023007084535250941 0.058096380859706989 0.12248860827043462 0.020569978945620668 0.057245797629114928 0.098035207207011948 0.030149513584360434 0.064369409906589681 0.12738923085647488 0.031239443917527296 0.055520908860759687 0.087238688648250809 0.032197486063894339 0.059017672266061756 0.094141441359433892 0.030149513584360434 0.064369409906589681 0.12738923085647488 0.035512350397156014 0.066472756800316543 0.1278098647019946 0.031239443917527296 0.055520908860759687 0.087238688648250809 0.032197486063894339 0.059017672266061756 0.094141441359433892 0.030149513584360434 0.064369409906589681 0.12738923085647488 0.029301840366252416 0.057535220864788877 0.096096579484003741 0.023276895865286286 0.039805648938727241 0.12890672828680858 0.032813848633643942 0.054384993373160752 0.12774861876831753 0.027157207847256816 0.027254666930147997 0.080352077264281493 0.023007084535250941 0.058096380859706989 0.12248860827043462 0.023276895865286286 0.039805648938727241 0.12890672828680858 0.032813848633643942 0.054384993373160752 0.12774861876831753 0.03003644322695 6.7275453545298085e-06 0.10478926141474666 0.027157207847256816 0.027254666930147997 0.080352077264281493 0.029005212964049603 4.2641746391271792e-06 0.12204661827977585 0.032813848633643942 0.054384993373160752 0.12774861876831753 0.03003644322695 6.7275453545298085e-06 0.10478926141474666 0.035357291632886555 9.938880239168617e-06 0.11482570102329959 0.032813848633643942 0.054384993373160752 0.12774861876831753 0.025593786025879011 0.047002153215578671 0.082927291530177541 0.027157207847256816 0.027254666930147997 0.080352077264281493 0.032885324545012286 0.041763582410186621 0.078140734314536983 0.032813848633643942 0.054384993373160752 0.12774861876831753 0.03003644322695 6.7275453545298085e-06 0.10478926141474666 0.035357291632886555 9.938880239168617e-06 0.11482570102329959 0.032885324545012286 0.041763582410186621 0.078140734314536983 0.032813848633643942 0.054384993373160752 0.12774861876831753 0.03003644322695 6.7275453545298085e-06 0.10478926141474666 0.027157207847256816 0.027254666930147997 0.080352077264281493 0.032885324545012286 0.041763582410186621 0.078140734314536983 0.030119838015280748 3.8616814628397939e-06 0.073518394001180792 0.03003644322695 6.7275453545298085e-06 0.10478926141474666 0.027157207847256816 0.027254666930147997 0.080352077264281493 0.032885324545012286 0.041763582410186621 0.078140734314536983 0.030119838015280748 3.8616814628397939e-06 0.073518394001180792 0.03003644322695 6.7275453545298085e-06 0.10478926141474666 0.035357291632886555 9.938880239168617e-06 0.11482570102329959 0.032885324545012286 0.041763582410186621 0.078140734314536983 0.030119838015280748 3.8616814628397939e-06 0.073518394001180792 0.03003644322695 6.7275453545298085e-06 0.10478926141474666 0.027157207847256816 0.027254666930147997 0.080352077264281493 0.019989212341523267 1.666199874192754e-06 0.076261692639912892 0.023276895865286286 0.039805648938727241 0.12890672828680858 0.015580255616667749 0.030414977989286756 0.083280349797607373 0.019665724103761044 6.2209565899279282e-06 0.11093278982508069 4.1754749066255443e-06 0.036121289806926575 0.11363120350123827 0.023276895865286286 0.039805648938727241 0.12890672828680858 0.027157207847256816 0.027254666930147997 0.080352077264281493 0.015580255616667749 0.030414977989286756 0.083280349797607373 0.019665724103761044 6.2209565899279282e-06 0.11093278982508069 0.023276895865286286 0.039805648938727241 0.12890672828680858 0.015580255616667749 0.030414977989286756 0.083280349797607373 4.1754749066255443e-06 0.036121289806926575 0.11363120350123827 0.023007084535250941 0.058096380859706989 0.12248860827043462 0.025593786025879011 0.047002153215578671 0.082927291530177541 0.027157207847256816 0.027254666930147997 0.080352077264281493 0.015580255616667749 0.030414977989286756 0.083280349797607373 0.023007084535250941 0.058096380859706989 0.12248860827043462 0.023276895865286286 0.039805648938727241 0.12890672828680858 0.027157207847256816 0.027254666930147997 0.080352077264281493 0.015580255616667749 0.030414977989286756 0.083280349797607373 0.023007084535250941 0.058096380859706989 0.12248860827043462 0.023276895865286286 0.039805648938727241 0.12890672828680858 0.03003644322695 6.7275453545298085e-06 0.10478926141474666 0.027157207847256816 0.027254666930147997 0.080352077264281493 0.019665724103761044 6.2209565899279282e-06 0.11093278982508069 0.016344516990559506 4.1932423712686251e-06 0.12506187512707059 0.023276895865286286 0.039805648938727241 0.12890672828680858 0.019665724103761044 6.2209565899279282e-06 0.11093278982508069 4.1754749066255443e-06 0.036121289806926575 0.11363120350123827 0.023276895865286286 0.039805648938727241 0.12890672828680858 0.029005212964049603 4.2641746391271792e-06 0.12204661827977585 0.03003644322695 6.7275453545298085e-06 0.10478926141474666 0.019665724103761044 6.2209565899279282e-06 0.11093278982508069 0.027157207847256816 0.027254666930147997 0.080352077264281493 0.015580255616667749 0.030414977989286756 0.083280349797607373 0.019665724103761044 6.2209565899279282e-06 0.11093278982508069 0.019989212341523267 1.666199874192754e-06 0.076261692639912892 0.03003644322695 6.7275453545298085e-06 0.10478926141474666 0.027157207847256816 0.027254666930147997 0.080352077264281493 0.019665724103761044 6.2209565899279282e-06 0.11093278982508069 0.019989212341523267 1.666199874192754e-06 0.076261692639912892 0.015580255616667749 0.030414977989286756 0.083280349797607373 0.019665724103761044 6.2209565899279282e-06 0.11093278982508069 0.019989212341523267 1.666199874192754e-06 0.076261692639912892 5.116963073291739e-06 6.2719227656781061e-06 0.079729293685049843 0.015580255616667749 0.030414977989286756 0.083280349797607373 0.019665724103761044 6.2209565899279282e-06 0.11093278982508069 5.116963073291739e-06 6.2719227656781061e-06 0.079729293685049843 4.1754749066255443e-06 0.036121289806926575 0.11363120350123827 0.019665724103761044 6.2209565899279282e-06 0.11093278982508069 5.116963073291739e-06 6.2719227656781061e-06 0.079729293685049843 2.5463225590990231e-06 4.1790710815597168e-06 0.1155853490726378 4.1754749066255443e-06 0.036121289806926575 0.11363120350123827 1.8953006894894384e-06 0.029127006966427459 0.12473808374902561 0.016344516990559506 4.1932423712686251e-06 0.12506187512707059 2.5463225590990231e-06 4.1790710815597168e-06 0.1155853490726378 4.1754749066255443e-06 0.036121289806926575 0.11363120350123827 0.016344516990559506 4.1932423712686251e-06 0.12506187512707059 0.019665724103761044 6.2209565899279282e-06 0.11093278982508069 2.5463225590990231e-06 4.1790710815597168e-06 0.1155853490726378 4.1754749066255443e-06 0.036121289806926575 0.11363120350123827 2.8659047045735197e-06 0.052729883809919054 0.12616191682244854 0.023276895865286286 0.039805648938727241 0.12890672828680858 4.1754749066255443e-06 0.036121289806926575 0.11363120350123827 0.023007084535250941 0.058096380859706989 0.12248860827043462 0.015580255616667749 0.030414977989286756 0.083280349797607373 4.1754749066255443e-06 0.036121289806926575 0.11363120350123827 3.2880850476781083e-06 0.035758316845055343 0.082050537731581497 0.014249093964098944 0.048187483816517343 0.088085208631801803 0.015580255616667749 0.030414977989286756 0.083280349797607373 4.1754749066255443e-06 0.036121289806926575 0.11363120350123827 0.014249093964098944 0.048187483816517343 0.088085208631801803 0.023007084535250941 0.058096380859706989 0.12248860827043462 0.015580255616667749 0.030414977989286756 0.083280349797607373 5.116963073291739e-06 6.2719227656781061e-06 0.079729293685049843 4.1754749066255443e-06 0.036121289806926575 0.11363120350123827 3.2880850476781083e-06 0.035758316845055343 0.082050537731581497 4.1754749066255443e-06 0.036121289806926575 0.11363120350123827 3.2880850476781083e-06 0.035758316845055343 0.082050537731581497 0.014249093964098944 0.048187483816517343 0.088085208631801803 3.2216912844582784e-06 0.052407428916203223 0.1130910642780756 0.014249093964098944 0.048187483816517343 0.088085208631801803 0.023007084535250941 0.058096380859706989 0.12248860827043462 3.2216912844582784e-06 0.052407428916203223 0.1130910642780756 5.5117600157077043e-06 0.055406910277239492 0.09469664272410408 0.023007084535250941 0.058096380859706989 0.12248860827043462 6.2139517094424394e-06 0.064636053854048442 0.12797441485185812 0.020569978945620668 0.057245797629114928 0.098035207207011948 0.030149513584360434 0.064369409906589681 0.12738923085647488 3.2880850476781083e-06 0.035758316845055343 0.082050537731581497 0.014249093964098944 0.048187483816517343 0.088085208631801803 3.2216912844582784e-06 0.052407428916203223 0.1130910642780756 5.5117600157077043e-06 0.055406910277239492 0.09469664272410408 4.1754749066255443e-06 0.036121289806926575 0.11363120350123827 0.014249093964098944 0.048187483816517343 0.088085208631801803 0.023007084535250941 0.058096380859706989 0.12248860827043462 3.2216912844582784e-06 0.052407428916203223 0.1130910642780756 0.025593786025879011 0.047002153215578671 0.082927291530177541 0.014249093964098944 0.048187483816517343 0.088085208631801803 0.023007084535250941 0.058096380859706989 0.12248860827043462 0.020569978945620668 0.057245797629114928 0.098035207207011948 0.025593786025879011 0.047002153215578671 0.082927291530177541 0.015580255616667749 0.030414977989286756 0.083280349797607373 0.014249093964098944 0.048187483816517343 0.088085208631801803 0.023007084535250941 0.058096380859706989 0.12248860827043462 2.8659047045735197e-06 0.052729883809919054 0.12616191682244854 0.023007084535250941 0.058096380859706989 0.12248860827043462 3.2216912844582784e-06 0.052407428916203223 0.1130910642780756 6.2139517094424394e-06 0.064636053854048442 0.12797441485185812 2.8659047045735197e-06 0.052729883809919054 0.12616191682244854 4.1754749066255443e-06 0.036121289806926575 0.11363120350123827 0.023007084535250941 0.058096380859706989 0.12248860827043462 3.2216912844582784e-06 0.052407428916203223 0.1130910642780756 0.023007084535250941 0.058096380859706989 0.12248860827043462 3.2216912844582784e-06 0.052407428916203223 0.1130910642780756 6.2139517094424394e-06 0.064636053854048442 0.12797441485185812 5.5117600157077043e-06 0.055406910277239492 0.09469664272410408 0.014249093964098944 0.048187483816517343 0.088085208631801803 0.023007084535250941 0.058096380859706989 0.12248860827043462 0.020569978945620668 0.057245797629114928 0.098035207207011948 5.5117600157077043e-06 0.055406910277239492 0.09469664272410408 6.2139517094424394e-06 0.064636053854048442 0.12797441485185812 0.020569978945620668 0.057245797629114928 0.098035207207011948 5.5117600157077043e-06 0.055406910277239492 0.09469664272410408 5.6888113347067705e-06 0.054244429425952131 0.10440723371927357 0.023007084535250941 0.058096380859706989 0.12248860827043462 6.2139517094424394e-06 0.064636053854048442 0.12797441485185812 0.020569978945620668 0.057245797629114928 0.098035207207011948 5.5117600157077043e-06 0.055406910277239492 0.09469664272410408 5.2229186179276168e-06 0.053013629880990183 0.12696408526765665 4.5153346502931563e-06 0.050619236661177847 0.1353217842499754 0.023362535992635804 0.041289775928664861 0.1364333729186672 0.030149513584360434 0.064369409906589681 0.12738923085647488 6.2139517094424394e-06 0.064636053854048442 0.12797441485185812 5.2229186179276168e-06 0.053013629880990183 0.12696408526765665 4.5153346502931563e-06 0.050619236661177847 0.1353217842499754 0.030149513584360434 0.064369409906589681 0.12738923085647488 0.013555945822379286 0.051023055197457173 0.11150747929811808 0.023362535992635804 0.041289775928664861 0.1364333729186672 0.030149513584360434 0.064369409906589681 0.12738923085647488 0.025392067538840168 0.047380152920968657 0.10728423583932627 6.2139517094424394e-06 0.064636053854048442 0.12797441485185812 0.020569978945620668 0.057245797629114928 0.098035207207011948 5.6888113347067705e-06 0.054244429425952131 0.10440723371927357 0.013555945822379286 0.051023055197457173 0.11150747929811808 0.013555945822379286 0.051023055197457173 0.11150747929811808 5.2229186179276168e-06 0.053013629880990183 0.12696408526765665 0.023362535992635804 0.041289775928664861 0.1364333729186672 0.030149513584360434 0.064369409906589681 0.12738923085647488 6.2139517094424394e-06 0.064636053854048442 0.12797441485185812 5.6888113347067705e-06 0.054244429425952131 0.10440723371927357 0.013555945822379286 0.051023055197457173 0.11150747929811808 5.2229186179276168e-06 0.053013629880990183 0.12696408526765665 6.2139517094424394e-06 0.064636053854048442 0.12797441485185812 0.020569978945620668 0.057245797629114928 0.098035207207011948 0.013555945822379286 0.051023055197457173 0.11150747929811808 0.030149513584360434 0.064369409906589681 0.12738923085647488 6.2139517094424394e-06 0.064636053854048442 0.12797441485185812 0.013555945822379286 0.051023055197457173 0.11150747929811808 5.2229186179276168e-06 0.053013629880990183 0.12696408526765665 0.030149513584360434 0.064369409906589681 0.12738923085647488 5.6888113347067705e-06 0.054244429425952131 0.10440723371927357 0.013555945822379286 0.051023055197457173 0.11150747929811808 5.2229186179276168e-06 0.053013629880990183 0.12696408526765665 4.4277003935316851e-06 0.03626425159045301 0.11311165838965626 0.020569978945620668 0.057245797629114928 0.098035207207011948 0.013555945822379286 0.051023055197457173 0.11150747929811808 0.030149513584360434 0.064369409906589681 0.12738923085647488 0.025392067538840168 0.047380152920968657 0.10728423583932627 0.025834317387587846 0.063290174978989283 0.13131765835671894 4.916290706985825e-06 0.063107787611224139 0.13054007094389802 0.025278538396047365 0.05054428704874938 0.12716913261508658 0.030149513584360434 0.064369409906589681 0.12738923085647488 6.2139517094424394e-06 0.064636053854048442 0.12797441485185812 4.916290706985825e-06 0.063107787611224139 0.13054007094389802 4.5153346502931563e-06 0.050619236661177847 0.1353217842499754 0.030149513584360434 0.064369409906589681 0.12738923085647488 0.025834317387587846 0.063290174978989283 0.13131765835671894 6.2139517094424394e-06 0.064636053854048442 0.12797441485185812 4.916290706985825e-06 0.063107787611224139 0.13054007094389802 0.030149513584360434 0.064369409906589681 0.12738923085647488 4.916290706985825e-06 0.063107787611224139 0.13054007094389802 0.025278538396047365 0.05054428704874938 0.12716913261508658 0.023362535992635804 0.041289775928664861 0.1364333729186672 0.030149513584360434 0.064369409906589681 0.12738923085647488 4.916290706985825e-06 0.063107787611224139 0.13054007094389802 4.5153346502931563e-06 0.050619236661177847 0.1353217842499754 0.023362535992635804 0.041289775928664861 0.1364333729186672 0.030149513584360434 0.064369409906589681 0.12738923085647488 4.5205484918975686e-06 0.054550415125677813 0.11010256819127727 0.025834317387587846 0.063290174978989283 0.13131765835671894 4.916290706985825e-06 0.063107787611224139 0.13054007094389802 0.025278538396047365 0.05054428704874938 0.12716913261508658 4.423460449865167e-07 0.06036349761625897 0.12250909402535549 4.5205484918975686e-06 0.054550415125677813 0.11010256819127727 0.025834317387587846 0.063290174978989283 0.13131765835671894 4.916290706985825e-06 0.063107787611224139 0.13054007094389802 4.5205484918975686e-06 0.054550415125677813 0.11010256819127727 4.916290706985825e-06 0.063107787611224139 0.13054007094389802 0.025278538396047365 0.05054428704874938 0.12716913261508658 4.9859417623041531e-06 0.041482891712628207 0.12071285316482815 4.916290706985825e-06 0.063107787611224139 0.13054007094389802 0.025278538396047365 0.05054428704874938 0.12716913261508658 4.5153346502931563e-06 0.050619236661177847 0.1353217842499754 4.9859417623041531e-06 0.041482891712628207 0.12071285316482815 4.916290706985825e-06 0.063107787611224139 0.13054007094389802 0.025278538396047365 0.05054428704874938 0.12716913261508658 4.5153346502931563e-06 0.050619236661177847 0.1353217842499754 0.023362535992635804 0.041289775928664861 0.1364333729186672 0.025278538396047365 0.05054428704874938 0.12716913261508658 4.9859417623041531e-06 0.041482891712628207 0.12071285316482815 0.021956681931756941 7.5626341852221065e-06 0.12003127179583643 0.015742535027514718 8.6049749449877289e-06 0.13725346689001888 0.025278538396047365 0.05054428704874938 0.12716913261508658 5.1261543940914775e-06 0.027308481027966142 0.13548037186154635 4.9859417623041531e-06 0.041482891712628207 0.12071285316482815 0.015742535027514718 8.6049749449877289e-06 0.13725346689001888 0.025278538396047365 0.05054428704874938 0.12716913261508658 0.023362535992635804 0.041289775928664861 0.1364333729186672 0.015742535027514718 8.6049749449877289e-06 0.13725346689001888 0.029216484313236289 6.943251114770232e-06 0.13645743238302177 0.025278538396047365 0.05054428704874938 0.12716913261508658 4.5153346502931563e-06 0.050619236661177847 0.1353217842499754 5.1261543940914775e-06 0.027308481027966142 0.13548037186154635 0.023362535992635804 0.041289775928664861 0.1364333729186672 0.025278538396047365 0.05054428704874938 0.12716913261508658 0.021956681931756941 7.5626341852221065e-06 0.12003127179583643 0.015742535027514718 8.6049749449877289e-06 0.13725346689001888 0.029216484313236289 6.943251114770232e-06 0.13645743238302177 0.025278538396047365 0.05054428704874938 0.12716913261508658 5.1261543940914775e-06 0.027308481027966142 0.13548037186154635 0.023362535992635804 0.041289775928664861 0.1364333729186672 0.015742535027514718 8.6049749449877289e-06 0.13725346689001888 4.5153346502931563e-06 0.050619236661177847 0.1353217842499754 5.1261543940914775e-06 0.027308481027966142 0.13548037186154635 0.023362535992635804 0.041289775928664861 0.1364333729186672 5.2619156312026874e-06 0.034598907424702431 0.13475388925405546 0.025278538396047365 0.05054428704874938 0.12716913261508658 4.5153346502931563e-06 0.050619236661177847 0.1353217842499754 5.1261543940914775e-06 0.027308481027966142 0.13548037186154635 4.9859417623041531e-06 0.041482891712628207 0.12071285316482815 5.1261543940914775e-06 0.027308481027966142 0.13548037186154635 4.9859417623041531e-06 0.041482891712628207 0.12071285316482815 5.6491380633817988e-06 8.2361571818583853e-06 0.13023557506529587 0.015742535027514718 8.6049749449877289e-06 0.13725346689001888 4.9859417623041531e-06 0.041482891712628207 0.12071285316482815 5.6491380633817988e-06 8.2361571818583853e-06 0.13023557506529587 0.021956681931756941 7.5626341852221065e-06 0.12003127179583643 0.015742535027514718 8.6049749449877289e-06 0.13725346689001888 3.5215153115795919e-06 6.3908028983557843e-06 0.101659897901617 4.9859417623041531e-06 0.041482891712628207 0.12071285316482815 5.6491380633817988e-06 8.2361571818583853e-06 0.13023557506529587 0.021956681931756941 7.5626341852221065e-06 0.12003127179583643 0.023362535992635804 0.041289775928664861 0.1364333729186672 0.015742535027514718 8.6049749449877289e-06 0.13725346689001888 0.019236748098040948 7.3556568244717235e-06 0.13549429078765171 0.029216484313236289 6.943251114770232e-06 0.13645743238302177 5.1261543940914775e-06 0.027308481027966142 0.13548037186154635 0.023362535992635804 0.041289775928664861 0.1364333729186672 0.015742535027514718 8.6049749449877289e-06 0.13725346689001888 5.2619156312026874e-06 0.034598907424702431 0.13475388925405546 5.1261543940914775e-06 0.027308481027966142 0.13548037186154635 5.6491380633817988e-06 8.2361571818583853e-06 0.13023557506529587 0.015742535027514718 8.6049749449877289e-06 0.13725346689001888 4.5513695211404762e-06 5.8834389951662323e-06 0.13688573657450487 0.023362535992635804 0.041289775928664861 0.1364333729186672 5.2619156312026874e-06 0.034598907424702431 0.13475388925405546 0.016751981758550135 0.031728194125173345 0.11588140457367808 0.019236748098040948 7.3556568244717235e-06 0.13549429078765171 0.013555945822379286 0.051023055197457173 0.11150747929811808 0.023362535992635804 0.041289775928664861 0.1364333729186672 0.016751981758550135 0.031728194125173345 0.11588140457367808 0.025392067538840168 0.047380152920968657 0.10728423583932627 5.1261543940914775e-06 0.027308481027966142 0.13548037186154635 0.015742535027514718 8.6049749449877289e-06 0.13725346689001888 4.5513695211404762e-06 5.8834389951662323e-06 0.13688573657450487 5.2619156312026874e-06 0.034598907424702431 0.13475388925405546 0.023362535992635804 0.041289775928664861 0.1364333729186672 0.015742535027514718 8.6049749449877289e-06 0.13725346689001888 5.2619156312026874e-06 0.034598907424702431 0.13475388925405546 0.019236748098040948 7.3556568244717235e-06 0.13549429078765171 4.5513695211404762e-06 5.8834389951662323e-06 0.13688573657450487 8.6485416456230517e-06 1.2516383760785384e-05 0.12171068443602681 5.2619156312026874e-06 0.034598907424702431 0.13475388925405546 0.019236748098040948 7.3556568244717235e-06 0.13549429078765171 0.023362535992635804 0.041289775928664861 0.1364333729186672 0.016751981758550135 0.031728194125173345 0.11588140457367808 0.026961065672281428 0.025367288864950537 0.11449639004182401 0.025392067538840168 0.047380152920968657 0.10728423583932627 0.023362535992635804 0.041289775928664861 0.1364333729186672 0.016751981758550135 0.031728194125173345 0.11588140457367808 0.019236748098040948 7.3556568244717235e-06 0.13549429078765171 0.026961065672281428 0.025367288864950537 0.11449639004182401 0.023362535992635804 0.041289775928664861 0.1364333729186672 0.019236748098040948 7.3556568244717235e-06 0.13549429078765171 0.029090990777855874 9.1795666692812483e-06 0.12999669400745975 0.026961065672281428 0.025367288864950537 0.11449639004182401 0.015742535027514718 8.6049749449877289e-06 0.13725346689001888 4.5513695211404762e-06 5.8834389951662323e-06 0.13688573657450487 5.2619156312026874e-06 0.034598907424702431 0.13475388925405546 0.019236748098040948 7.3556568244717235e-06 0.13549429078765171 0.013555945822379286 0.051023055197457173 0.11150747929811808 5.2229186179276168e-06 0.053013629880990183 0.12696408526765665 0.023362535992635804 0.041289775928664861 0.1364333729186672 0.016751981758550135 0.031728194125173345 0.11588140457367808 5.2229186179276168e-06 0.053013629880990183 0.12696408526765665 0.023362535992635804 0.041289775928664861 0.1364333729186672 5.2619156312026874e-06 0.034598907424702431 0.13475388925405546 0.016751981758550135 0.031728194125173345 0.11588140457367808 8.6485416456230517e-06 1.2516383760785384e-05 0.12171068443602681 5.2619156312026874e-06 0.034598907424702431 0.13475388925405546 0.016751981758550135 0.031728194125173345 0.11588140457367808 0.019236748098040948 7.3556568244717235e-06 0.13549429078765171 5.2229186179276168e-06 0.053013629880990183 0.12696408526765665 4.4277003935316851e-06 0.03626425159045301 0.11311165838965626 5.2619156312026874e-06 0.034598907424702431 0.13475388925405546 0.016751981758550135 0.031728194125173345 0.11588140457367808 0.013555945822379286 0.051023055197457173 0.11150747929811808 5.2229186179276168e-06 0.053013629880990183 0.12696408526765665 4.4277003935316851e-06 0.03626425159045301 0.11311165838965626 0.016751981758550135 0.031728194125173345 0.11588140457367808 8.6485416456230517e-06 1.2516383760785384e-05 0.12171068443602681 4.4277003935316851e-06 0.03626425159045301 0.11311165838965626 5.2619156312026874e-06 0.034598907424702431 0.13475388925405546 0.016751981758550135 0.031728194125173345 0.11588140457367808 5.2229186179276168e-06 0.053013629880990183 0.12696408526765665 4.5153346502931563e-06 0.050619236661177847 0.1353217842499754 0.023362535992635804 0.041289775928664861 0.1364333729186672 5.2619156312026874e-06 0.034598907424702431 0.13475388925405546 0.019622166859185986 5.8502616810617224e-06 0.11496966347868563 0.019236748098040948 7.3556568244717235e-06 0.13549429078765171 0.029090990777855874 9.1795666692812483e-06 0.12999669400745975 0.026961065672281428 0.025367288864950537 0.11449639004182401 0.016751981758550135 0.031728194125173345 0.11588140457367808 0.019622166859185986 5.8502616810617224e-06 0.11496966347868563 0.019236748098040948 7.3556568244717235e-06 0.13549429078765171 0.026961065672281428 0.025367288864950537 0.11449639004182401 8.6485416456230517e-06 1.2516383760785384e-05 0.12171068443602681 0.016751981758550135 0.031728194125173345 0.11588140457367808 0.019622166859185986 5.8502616810617224e-06 0.11496966347868563 0.019236748098040948 7.3556568244717235e-06 0.13549429078765171 0.023362535992635804 0.041289775928664861 0.1364333729186672 0.019236748098040948 7.3556568244717235e-06 0.13549429078765171 0.029090990777855874 9.1795666692812483e-06 0.12999669400745975 0.029216484313236289 6.943251114770232e-06 0.13645743238302177 0.023362535992635804 0.041289775928664861 0.1364333729186672 0.026961065672281428 0.025367288864950537 0.11449639004182401 0.034875774693646208 0.054987791233528649 0.13515485274494113 0.025392067538840168 0.047380152920968657 0.10728423583932627 0.029090990777855874 9.1795666692812483e-06 0.12999669400745975 0.029216484313236289 6.943251114770232e-06 0.13645743238302177 0.034875774693646208 0.054987791233528649 0.13515485274494113 0.035018445724935267 1.0417558444519896e-05 0.13041751009536312 0.029090990777855874 9.1795666692812483e-06 0.12999669400745975 0.032203967806594451 0.037699486044679251 0.10590900077751263 0.034875774693646208 0.054987791233528649 0.13515485274494113 0.035018445724935267 1.0417558444519896e-05 0.13041751009536312 0.029090990777855874 9.1795666692812483e-06 0.12999669400745975 0.026961065672281428 0.025367288864950537 0.11449639004182401 0.032203967806594451 0.037699486044679251 0.10590900077751263 0.034875774693646208 0.054987791233528649 0.13515485274494113 0.023362535992635804 0.041289775928664861 0.1364333729186672 0.029090990777855874 9.1795666692812483e-06 0.12999669400745975 0.026961065672281428 0.025367288864950537 0.11449639004182401 0.034875774693646208 0.054987791233528649 0.13515485274494113 0.023362535992635804 0.041289775928664861 0.1364333729186672 0.029090990777855874 9.1795666692812483e-06 0.12999669400745975 0.029216484313236289 6.943251114770232e-06 0.13645743238302177 0.034875774693646208 0.054987791233528649 0.13515485274494113 0.026961065672281428 0.025367288864950537 0.11449639004182401 0.032203967806594451 0.037699486044679251 0.10590900077751263 0.034875774693646208 0.054987791233528649 0.13515485274494113 0.025392067538840168 0.047380152920968657 0.10728423583932627 0.019622166859185986 5.8502616810617224e-06 0.11496966347868563 0.029090990777855874 9.1795666692812483e-06 0.12999669400745975 0.026961065672281428 0.025367288864950537 0.11449639004182401 0.028721139512196583 7.8698303676102603e-06 0.10861019079818643 0.029090990777855874 9.1795666692812483e-06 0.12999669400745975 0.026961065672281428 0.025367288864950537 0.11449639004182401 0.032203967806594451 0.037699486044679251 0.10590900077751263 0.028721139512196583 7.8698303676102603e-06 0.10861019079818643 0.029090990777855874 9.1795666692812483e-06 0.12999669400745975 0.032203967806594451 0.037699486044679251 0.10590900077751263 0.028721139512196583 7.8698303676102603e-06 0.10861019079818643 0.035018445724935267 1.0417558444519896e-05 0.13041751009536312 0.029965785037672842 7.7865154485314946e-06 0.10912825883635877 0.025278538396047365 0.05054428704874938 0.12716913261508658 0.035769297482416092 9.3411031330082701e-06 0.13268452132827482 0.033602367308275628 0.046593767814472206 0.12613800685979917 0.025278538396047365 0.05054428704874938 0.12716913261508658 0.035769297482416092 9.3411031330082701e-06 0.13268452132827482 0.034875774693646208 0.054987791233528649 0.13515485274494113 0.033602367308275628 0.046593767814472206 0.12613800685979917 0.029965785037672842 7.7865154485314946e-06 0.10912825883635877 0.025278538396047365 0.05054428704874938 0.12716913261508658 0.021956681931756941 7.5626341852221065e-06 0.12003127179583643 0.035769297482416092 9.3411031330082701e-06 0.13268452132827482 0.025278538396047365 0.05054428704874938 0.12716913261508658 0.023362535992635804 0.041289775928664861 0.1364333729186672 0.029216484313236289 6.943251114770232e-06 0.13645743238302177 0.034875774693646208 0.054987791233528649 0.13515485274494113 0.025278538396047365 0.05054428704874938 0.12716913261508658 0.021956681931756941 7.5626341852221065e-06 0.12003127179583643 0.029216484313236289 6.943251114770232e-06 0.13645743238302177 0.035769297482416092 9.3411031330082701e-06 0.13268452132827482 0.025278538396047365 0.05054428704874938 0.12716913261508658 0.029216484313236289 6.943251114770232e-06 0.13645743238302177 0.035769297482416092 9.3411031330082701e-06 0.13268452132827482 0.034875774693646208 0.054987791233528649 0.13515485274494113 0.029216484313236289 6.943251114770232e-06 0.13645743238302177 0.035769297482416092 9.3411031330082701e-06 0.13268452132827482 0.034875774693646208 0.054987791233528649 0.13515485274494113 0.035018445724935267 1.0417558444519896e-05 0.13041751009536312 0.035769297482416092 9.3411031330082701e-06 0.13268452132827482 0.034875774693646208 0.054987791233528649 0.13515485274494113 0.035018445724935267 1.0417558444519896e-05 0.13041751009536312 0.033671613847448822 0.041628981703756597 0.12844073092875044 0.032891616928997836 1.501990668617594e-06 0.12217905367839715 0.029965785037672842 7.7865154485314946e-06 0.10912825883635877 0.035769297482416092 9.3411031330082701e-06 0.13268452132827482 0.033602367308275628 0.046593767814472206 0.12613800685979917 0.025834317387587846 0.063290174978989283 0.13131765835671894 0.025278538396047365 0.05054428704874938 0.12716913261508658 0.034875774693646208 0.054987791233528649 0.13515485274494113 0.030149513584360434 0.064369409906589681 0.12738923085647488 0.025834317387587846 0.063290174978989283 0.13131765835671894 0.034875774693646208 0.054987791233528649 0.13515485274494113 0.030149513584360434 0.064369409906589681 0.12738923085647488 0.035512350397156014 0.066472756800316543 0.1278098647019946 0.034660221819671426 0.062994668463912704 0.12547154285796544 0.025834317387587846 0.063290174978989283 0.13131765835671894 0.025278538396047365 0.05054428704874938 0.12716913261508658 0.034875774693646208 0.054987791233528649 0.13515485274494113 0.025278538396047365 0.05054428704874938 0.12716913261508658 0.023362535992635804 0.041289775928664861 0.1364333729186672 0.034875774693646208 0.054987791233528649 0.13515485274494113 0.030149513584360434 0.064369409906589681 0.12738923085647488 0.034660221819671426 0.062994668463912704 0.12547154285796544 0.025834317387587846 0.063290174978989283 0.13131765835671894 0.034875774693646208 0.054987791233528649 0.13515485274494113 0.035512350397156014 0.066472756800316543 0.1278098647019946 0.034660221819671426 0.062994668463912704 0.12547154285796544 0.025278538396047365 0.05054428704874938 0.12716913261508658 0.034875774693646208 0.054987791233528649 0.13515485274494113 0.033602367308275628 0.046593767814472206 0.12613800685979917 0.034660221819671426 0.062994668463912704 0.12547154285796544 0.034875774693646208 0.054987791233528649 0.13515485274494113 0.033602367308275628 0.046593767814472206 0.12613800685979917 0.035512350397156014 0.066472756800316543 0.1278098647019946 0.032203967806594451 0.037699486044679251 0.10590900077751263 0.034875774693646208 0.054987791233528649 0.13515485274494113 0.025392067538840168 0.047380152920968657 0.10728423583932627 0.029301840366252416 0.057535220864788877 0.096096579484003741 0.032197486063894339 0.059017672266061756 0.094141441359433892 0.034875774693646208 0.054987791233528649 0.13515485274494113 0.030149513584360434 0.064369409906589681 0.12738923085647488 0.029301840366252416 0.057535220864788877 0.096096579484003741 0.034875774693646208 0.054987791233528649 0.13515485274494113 0.030149513584360434 0.064369409906589681 0.12738923085647488 0.025392067538840168 0.047380152920968657 0.10728423583932627 0.029301840366252416 0.057535220864788877 0.096096579484003741 0.032197486063894339 0.059017672266061756 0.094141441359433892 0.034875774693646208 0.054987791233528649 0.13515485274494113 0.029301840366252416 0.057535220864788877 0.096096579484003741 0.031492853544924648 0.053632043128645467 0.097406255555307145 0.032203967806594451 0.037699486044679251 0.10590900077751263 0.034875774693646208 0.054987791233528649 0.13515485274494113 0.029301840366252416 0.057535220864788877 0.096096579484003741 0.031492853544924648 0.053632043128645467 0.097406255555307145 0.032197486063894339 0.059017672266061756 0.094141441359433892 0.034875774693646208 0.054987791233528649 0.13515485274494113 0.031492853544924648 0.053632043128645467 0.097406255555307145 0.035512350397156014 0.066472756800316543 0.1278098647019946 0.032197486063894339 0.059017672266061756 0.094141441359433892 0.034875774693646208 0.054987791233528649 0.13515485274494113 0.030149513584360434 0.064369409906589681 0.12738923085647488 0.035512350397156014 0.066472756800316543 0.1278098647019946 0.023362535992635804 0.041289775928664861 0.1364333729186672 0.034875774693646208 0.054987791233528649 0.13515485274494113 0.030149513584360434 0.064369409906589681 0.12738923085647488 0.025392067538840168 0.047380152920968657 0.10728423583932627 0.020569978945620668 0.057245797629114928 0.098035207207011948 0.030149513584360434 0.064369409906589681 0.12738923085647488 0.025392067538840168 0.047380152920968657 0.10728423583932627 0.029301840366252416 0.057535220864788877 0.096096579484003741 0.031492853544924648 0.053632043128645467 0.097406255555307145 0.029860864909722777 0.060690550173669477 0.13087476716759605 0.033671613847448822 0.041628981703756597 0.12844073092875044 0.035512350397156014 0.066472756800316543 0.1278098647019946 0.031492853544924648 0.053632043128645467 0.097406255555307145 0.029860864909722777 0.060690550173669477 0.13087476716759605 0.030539665741967984 0.058264306268656245 0.085161005525151448 0.035512350397156014 0.066472756800316543 0.1278098647019946 0.032203967806594451 0.037699486044679251 0.10590900077751263 0.034875774693646208 0.054987791233528649 0.13515485274494113 0.031492853544924648 0.053632043128645467 0.097406255555307145 0.033671613847448822 0.041628981703756597 0.12844073092875044 0.032197486063894339 0.059017672266061756 0.094141441359433892 0.031492853544924648 0.053632043128645467 0.097406255555307145 0.030539665741967984 0.058264306268656245 0.085161005525151448 0.035512350397156014 0.066472756800316543 0.1278098647019946 0.031492853544924648 0.053632043128645467 0.097406255555307145 0.025403742229073895 0.047040017828671704 0.093210565429690737 0.029860864909722777 0.060690550173669477 0.13087476716759605 0.022388434970680941 0.059483122649578654 0.083441303564984415 0.031492853544924648 0.053632043128645467 0.097406255555307145 0.025403742229073895 0.047040017828671704 0.093210565429690737 0.029860864909722777 0.060690550173669477 0.13087476716759605 0.033671613847448822 0.041628981703756597 0.12844073092875044 0.031492853544924648 0.053632043128645467 0.097406255555307145 0.029860864909722777 0.060690550173669477 0.13087476716759605 0.022388434970680941 0.059483122649578654 0.083441303564984415 0.030539665741967984 0.058264306268656245 0.085161005525151448 0.025403742229073895 0.047040017828671704 0.093210565429690737 0.029860864909722777 0.060690550173669477 0.13087476716759605 0.033671613847448822 0.041628981703756597 0.12844073092875044 0.014245358030931637 0.049203647279000423 0.093213058238125826 0.034875774693646208 0.054987791233528649 0.13515485274494113 0.031492853544924648 0.053632043128645467 0.097406255555307145 0.033671613847448822 0.041628981703756597 0.12844073092875044 0.035512350397156014 0.066472756800316543 0.1278098647019946 0.032203967806594451 0.037699486044679251 0.10590900077751263 0.031492853544924648 0.053632043128645467 0.097406255555307145 0.025403742229073895 0.047040017828671704 0.093210565429690737 0.033671613847448822 0.041628981703756597 0.12844073092875044 0.034875774693646208 0.054987791233528649 0.13515485274494113 0.029860864909722777 0.060690550173669477 0.13087476716759605 0.033671613847448822 0.041628981703756597 0.12844073092875044 0.035512350397156014 0.066472756800316543 0.1278098647019946 0.034875774693646208 0.054987791233528649 0.13515485274494113 0.029860864909722777 0.060690550173669477 0.13087476716759605 0.033602367308275628 0.046593767814472206 0.12613800685979917 0.035512350397156014 0.066472756800316543 0.1278098647019946 0.034660221819671426 0.062994668463912704 0.12547154285796544 0.029860864909722777 0.060690550173669477 0.13087476716759605 0.033602367308275628 0.046593767814472206 0.12613800685979917 0.035512350397156014 0.066472756800316543 0.1278098647019946 0.034875774693646208 0.054987791233528649 0.13515485274494113 0.029860864909722777 0.060690550173669477 0.13087476716759605 0.033602367308275628 0.046593767814472206 0.12613800685979917 0.033671613847448822 0.041628981703756597 0.12844073092875044 0.034660221819671426 0.062994668463912704 0.12547154285796544 0.029860864909722777 0.060690550173669477 0.13087476716759605 0.033602367308275628 0.046593767814472206 0.12613800685979917 0.025490618472485588 0.063048652053835072 0.12638948012127929 0.029860864909722777 0.060690550173669477 0.13087476716759605 0.033602367308275628 0.046593767814472206 0.12613800685979917 0.022272270304155326 0.042177769350719416 0.13169188310647267 0.025490618472485588 0.063048652053835072 0.12638948012127929 0.020503504661558678 0.037552638517564886 0.10830222629743343 0.033602367308275628 0.046593767814472206 0.12613800685979917 0.022272270304155326 0.042177769350719416 0.13169188310647267 0.025490618472485588 0.063048652053835072 0.12638948012127929 0.034660221819671426 0.062994668463912704 0.12547154285796544 0.029860864909722777 0.060690550173669477 0.13087476716759605 0.035512350397156014 0.066472756800316543 0.1278098647019946 0.025490618472485588 0.063048652053835072 0.12638948012127929 0.029860864909722777 0.060690550173669477 0.13087476716759605 0.033602367308275628 0.046593767814472206 0.12613800685979917 0.033671613847448822 0.041628981703756597 0.12844073092875044 0.022272270304155326 0.042177769350719416 0.13169188310647267 0.033602367308275628 0.046593767814472206 0.12613800685979917 0.032482293327686609 9.1038999611178548e-06 0.12871791771897667 0.033671613847448822 0.041628981703756597 0.12844073092875044 0.022272270304155326 0.042177769350719416 0.13169188310647267 0.035769297482416092 9.3411031330082701e-06 0.13268452132827482 0.033602367308275628 0.046593767814472206 0.12613800685979917 0.032482293327686609 9.1038999611178548e-06 0.12871791771897667 0.033671613847448822 0.041628981703756597 0.12844073092875044 0.035769297482416092 9.3411031330082701e-06 0.13268452132827482 0.034875774693646208 0.054987791233528649 0.13515485274494113 0.033602367308275628 0.046593767814472206 0.12613800685979917 0.033671613847448822 0.041628981703756597 0.12844073092875044 0.020503504661558678 0.037552638517564886 0.10830222629743343 0.033602367308275628 0.046593767814472206 0.12613800685979917 0.032482293327686609 9.1038999611178548e-06 0.12871791771897667 0.022272270304155326 0.042177769350719416 0.13169188310647267 0.032891616928997836 1.501990668617594e-06 0.12217905367839715 0.035769297482416092 9.3411031330082701e-06 0.13268452132827482 0.033602367308275628 0.046593767814472206 0.12613800685979917 0.032482293327686609 9.1038999611178548e-06 0.12871791771897667 0.021644915491579035 6.5900241760269374e-06 0.12127545151208298 0.032482293327686609 9.1038999611178548e-06 0.12871791771897667 0.028857284661771062 5.8547991763935737e-06 0.13160720752783081 0.022272270304155326 0.042177769350719416 0.13169188310647267 0.032482293327686609 9.1038999611178548e-06 0.12871791771897667 0.028857284661771062 5.8547991763935737e-06 0.13160720752783081 0.033671613847448822 0.041628981703756597 0.12844073092875044 0.022272270304155326 0.042177769350719416 0.13169188310647267 0.028857284661771062 5.8547991763935737e-06 0.13160720752783081 0.033671613847448822 0.041628981703756597 0.12844073092875044 0.018990382291590828 8.7378350459106193e-06 0.12592842671583321 0.022272270304155326 0.042177769350719416 0.13169188310647267 0.035769297482416092 9.3411031330082701e-06 0.13268452132827482 0.032482293327686609 9.1038999611178548e-06 0.12871791771897667 0.035018445724935267 1.0417558444519896e-05 0.13041751009536312 0.033671613847448822 0.041628981703756597 0.12844073092875044 0.032482293327686609 9.1038999611178548e-06 0.12871791771897667 0.028857284661771062 5.8547991763935737e-06 0.13160720752783081 0.035018445724935267 1.0417558444519896e-05 0.13041751009536312 0.033671613847448822 0.041628981703756597 0.12844073092875044 0.032203967806594451 0.037699486044679251 0.10590900077751263 0.034875774693646208 0.054987791233528649 0.13515485274494113 0.035018445724935267 1.0417558444519896e-05 0.13041751009536312 0.033671613847448822 0.041628981703756597 0.12844073092875044 0.035018445724935267 1.0417558444519896e-05 0.13041751009536312 0.03101704690321699 9.3807670301520349e-06 0.10533838729592261 0.033671613847448822 0.041628981703756597 0.12844073092875044 0.02850092886028327 5.3192901022442114e-06 0.12232474339324365 0.032203967806594451 0.037699486044679251 0.10590900077751263 0.028721139512196583 7.8698303676102603e-06 0.10861019079818643 0.035018445724935267 1.0417558444519896e-05 0.13041751009536312 0.03101704690321699 9.3807670301520349e-06 0.10533838729592261 0.032203967806594451 0.037699486044679251 0.10590900077751263 0.035018445724935267 1.0417558444519896e-05 0.13041751009536312 0.03101704690321699 9.3807670301520349e-06 0.10533838729592261 0.033671613847448822 0.041628981703756597 0.12844073092875044 0.032203967806594451 0.037699486044679251 0.10590900077751263 0.03101704690321699 9.3807670301520349e-06 0.10533838729592261 0.033671613847448822 0.041628981703756597 0.12844073092875044 0.02698254023006991 0.02604332050999239 0.10079828105574311 0.032203967806594451 0.037699486044679251 0.10590900077751263 0.025403742229073895 0.047040017828671704 0.093210565429690737 0.033671613847448822 0.041628981703756597 0.12844073092875044 0.02698254023006991 0.02604332050999239 0.10079828105574311 0.025403742229073895 0.047040017828671704 0.093210565429690737 0.033671613847448822 0.041628981703756597 0.12844073092875044 0.02698254023006991 0.02604332050999239 0.10079828105574311 0.016526302389377079 0.029747528745955213 0.099194715581360185 0.033671613847448822 0.041628981703756597 0.12844073092875044 0.02698254023006991 0.02604332050999239 0.10079828105574311 0.018990382291590828 8.7378350459106193e-06 0.12592842671583321 0.016526302389377079 0.029747528745955213 0.099194715581360185 0.03101704690321699 9.3807670301520349e-06 0.10533838729592261 0.033671613847448822 0.041628981703756597 0.12844073092875044 0.02698254023006991 0.02604332050999239 0.10079828105574311 0.02850092886028327 5.3192901022442114e-06 0.12232474339324365 0.033671613847448822 0.041628981703756597 0.12844073092875044 0.02698254023006991 0.02604332050999239 0.10079828105574311 0.02850092886028327 5.3192901022442114e-06 0.12232474339324365 0.018990382291590828 8.7378350459106193e-06 0.12592842671583321 0.03101704690321699 9.3807670301520349e-06 0.10533838729592261 0.02698254023006991 0.02604332050999239 0.10079828105574311 0.02850092886028327 5.3192901022442114e-06 0.12232474339324365 0.019831191108319893 5.4468146349108988e-06 0.098915020829976899 0.028857284661771062 5.8547991763935737e-06 0.13160720752783081 0.035018445724935267 1.0417558444519896e-05 0.13041751009536312 0.033671613847448822 0.041628981703756597 0.12844073092875044 0.02850092886028327 5.3192901022442114e-06 0.12232474339324365 0.028857284661771062 5.8547991763935737e-06 0.13160720752783081 0.033671613847448822 0.041628981703756597 0.12844073092875044 0.02850092886028327 5.3192901022442114e-06 0.12232474339324365 0.018990382291590828 8.7378350459106193e-06 0.12592842671583321 0.033671613847448822 0.041628981703756597 0.12844073092875044 2.5889691288198762e-06 0.03468048525979036 0.12129047042912318 0.022272270304155326 0.042177769350719416 0.13169188310647267 4.0573074986265968e-06 0.054183101508520654 0.11315506967598006 0.025403742229073895 0.047040017828671704 0.093210565429690737 0.033671613847448822 0.041628981703756597 0.12844073092875044 0.016526302389377079 0.029747528745955213 0.099194715581360185 0.014245358030931637 0.049203647279000423 0.093213058238125826 0.033671613847448822 0.041628981703756597 0.12844073092875044 0.018990382291590828 8.7378350459106193e-06 0.12592842671583321 2.5889691288198762e-06 0.03468048525979036 0.12129047042912318 0.022272270304155326 0.042177769350719416 0.13169188310647267 0.033671613847448822 0.041628981703756597 0.12844073092875044 0.018990382291590828 8.7378350459106193e-06 0.12592842671583321 0.016526302389377079 0.029747528745955213 0.099194715581360185 2.5889691288198762e-06 0.03468048525979036 0.12129047042912318 2.5889691288198762e-06 0.03468048525979036 0.12129047042912318 0.022272270304155326 0.042177769350719416 0.13169188310647267 1.3975316369671201e-06 0.051730209757734603 0.12508927512063767 4.0573074986265968e-06 0.054183101508520654 0.11315506967598006 0.033671613847448822 0.041628981703756597 0.12844073092875044 0.016526302389377079 0.029747528745955213 0.099194715581360185 2.5889691288198762e-06 0.03468048525979036 0.12129047042912318 0.014245358030931637 0.049203647279000423 0.093213058238125826 0.033671613847448822 0.041628981703756597 0.12844073092875044 2.5889691288198762e-06 0.03468048525979036 0.12129047042912318 4.0573074986265968e-06 0.054183101508520654 0.11315506967598006 0.014245358030931637 0.049203647279000423 0.093213058238125826 0.02698254023006991 0.02604332050999239 0.10079828105574311 0.018990382291590828 8.7378350459106193e-06 0.12592842671583321 0.019831191108319893 5.4468146349108988e-06 0.098915020829976899 0.016526302389377079 0.029747528745955213 0.099194715581360185 0.02698254023006991 0.02604332050999239 0.10079828105574311 0.02850092886028327 5.3192901022442114e-06 0.12232474339324365 0.018990382291590828 8.7378350459106193e-06 0.12592842671583321 0.019831191108319893 5.4468146349108988e-06 0.098915020829976899 0.018990382291590828 8.7378350459106193e-06 0.12592842671583321 0.019831191108319893 5.4468146349108988e-06 0.098915020829976899 0.016526302389377079 0.029747528745955213 0.099194715581360185 1.1818265547972459e-06 9.4290117793510447e-06 0.099743279937167709 0.016526302389377079 0.029747528745955213 0.099194715581360185 2.5889691288198762e-06 0.03468048525979036 0.12129047042912318 -7.8869603646987224e-07 0.035981275862696616 0.09237916033663611 0.014245358030931637 0.049203647279000423 0.093213058238125826 2.5889691288198762e-06 0.03468048525979036 0.12129047042912318 -7.8869603646987224e-07 0.035981275862696616 0.09237916033663611 4.0573074986265968e-06 0.054183101508520654 0.11315506967598006 0.014245358030931637 0.049203647279000423 0.093213058238125826 0.016526302389377079 0.029747528745955213 0.099194715581360185 2.5889691288198762e-06 0.03468048525979036 0.12129047042912318 -7.8869603646987224e-07 0.035981275862696616 0.09237916033663611 1.1818265547972459e-06 9.4290117793510447e-06 0.099743279937167709 0.018990382291590828 8.7378350459106193e-06 0.12592842671583321 0.016526302389377079 0.029747528745955213 0.099194715581360185 2.5889691288198762e-06 0.03468048525979036 0.12129047042912318 1.1818265547972459e-06 9.4290117793510447e-06 0.099743279937167709 0.018990382291590828 8.7378350459106193e-06 0.12592842671583321 1.0844516334502467e-06 5.030896771451742e-06 0.12617671590505983 0.015954980829020346 5.3942664002243344e-06 0.13023996480552744 1.3712536239965687e-06 0.029736266303323895 0.12991089756936611 0.018990382291590828 8.7378350459106193e-06 0.12592842671583321 2.5889691288198762e-06 0.03468048525979036 0.12129047042912318 1.0844516334502467e-06 5.030896771451742e-06 0.12617671590505983 1.3712536239965687e-06 0.029736266303323895 0.12991089756936611 0.018990382291590828 8.7378350459106193e-06 0.12592842671583321 2.5889691288198762e-06 0.03468048525979036 0.12129047042912318 1.1818265547972459e-06 9.4290117793510447e-06 0.099743279937167709 1.0844516334502467e-06 5.030896771451742e-06 0.12617671590505983 1.0844516334502467e-06 5.030896771451742e-06 0.12617671590505983 0.015954980829020346 5.3942664002243344e-06 0.13023996480552744 3.4367852701098657e-06 8.432573050015858e-06 0.12819366258890161 1.3712536239965687e-06 0.029736266303323895 0.12991089756936611 0.018990382291590828 8.7378350459106193e-06 0.12592842671583321 2.5889691288198762e-06 0.03468048525979036 0.12129047042912318 0.022272270304155326 0.042177769350719416 0.13169188310647267 1.3712536239965687e-06 0.029736266303323895 0.12991089756936611 0.015954980829020346 5.3942664002243344e-06 0.13023996480552744 3.4367852701098657e-06 8.432573050015858e-06 0.12819366258890161 0.022272270304155326 0.042177769350719416 0.13169188310647267 1.3712536239965687e-06 0.029736266303323895 0.12991089756936611 0.018990382291590828 8.7378350459106193e-06 0.12592842671583321 0.015954980829020346 5.3942664002243344e-06 0.13023996480552744 0.022272270304155326 0.042177769350719416 0.13169188310647267 1.3712536239965687e-06 0.029736266303323895 0.12991089756936611 0.028857284661771062 5.8547991763935737e-06 0.13160720752783081 0.018990382291590828 8.7378350459106193e-06 0.12592842671583321 0.015954980829020346 5.3942664002243344e-06 0.13023996480552744 0.022272270304155326 0.042177769350719416 0.13169188310647267 0.021644915491579035 6.5900241760269374e-06 0.12127545151208298 0.028857284661771062 5.8547991763935737e-06 0.13160720752783081 0.015954980829020346 5.3942664002243344e-06 0.13023996480552744 0.022272270304155326 0.042177769350719416 0.13169188310647267 0.020503504661558678 0.037552638517564886 0.10830222629743343 0.021644915491579035 6.5900241760269374e-06 0.12127545151208298 0.032482293327686609 9.1038999611178548e-06 0.12871791771897667 0.022272270304155326 0.042177769350719416 0.13169188310647267 0.021644915491579035 6.5900241760269374e-06 0.12127545151208298 0.015954980829020346 5.3942664002243344e-06 0.13023996480552744 3.4367852701098657e-06 8.432573050015858e-06 0.12819366258890161 0.022272270304155326 0.042177769350719416 0.13169188310647267 0.021644915491579035 6.5900241760269374e-06 0.12127545151208298 3.4367852701098657e-06 8.432573050015858e-06 0.12819366258890161 4.4207724800555732e-06 0.039610057815849198 0.12430717791828 0.022272270304155326 0.042177769350719416 0.13169188310647267 3.4367852701098657e-06 8.432573050015858e-06 0.12819366258890161 4.4207724800555732e-06 0.039610057815849198 0.12430717791828 0.022272270304155326 0.042177769350719416 0.13169188310647267 1.3712536239965687e-06 0.029736266303323895 0.12991089756936611 4.4207724800555732e-06 0.039610057815849198 0.12430717791828 0.022272270304155326 0.042177769350719416 0.13169188310647267 1.3712536239965687e-06 0.029736266303323895 0.12991089756936611 1.3975316369671201e-06 0.051730209757734603 0.12508927512063767 2.5889691288198762e-06 0.03468048525979036 0.12129047042912318 0.022272270304155326 0.042177769350719416 0.13169188310647267 1.3712536239965687e-06 0.029736266303323895 0.12991089756936611 1.3975316369671201e-06 0.051730209757734603 0.12508927512063767 0.029860864909722777 0.060690550173669477 0.13087476716759605 3.7810999547824921e-06 0.062655221560320731 0.12600318107481465 5.2912571128799121e-06 0.064521784514638497 0.11800398865063251 0.025490618472485588 0.063048652053835072 0.12638948012127929 0.029860864909722777 0.060690550173669477 0.13087476716759605 0.022272270304155326 0.042177769350719416 0.13169188310647267 1.3975316369671201e-06 0.051730209757734603 0.12508927512063767 3.7810999547824921e-06 0.062655221560320731 0.12600318107481465 0.029860864909722777 0.060690550173669477 0.13087476716759605 0.033671613847448822 0.041628981703756597 0.12844073092875044 0.022272270304155326 0.042177769350719416 0.13169188310647267 4.0573074986265968e-06 0.054183101508520654 0.11315506967598006 5.4754262454245824e-06 0.054660833744854878 0.11611019615416956 0.022272270304155326 0.042177769350719416 0.13169188310647267 3.7810999547824921e-06 0.062655221560320731 0.12600318107481465 0.025490618472485588 0.063048652053835072 0.12638948012127929 0.029860864909722777 0.060690550173669477 0.13087476716759605 1.3975316369671201e-06 0.051730209757734603 0.12508927512063767 3.7810999547824921e-06 0.062655221560320731 0.12600318107481465 5.2912571128799121e-06 0.064521784514638497 0.11800398865063251 0.029860864909722777 0.060690550173669477 0.13087476716759605 0.022272270304155326 0.042177769350719416 0.13169188310647267 1.3975316369671201e-06 0.051730209757734603 0.12508927512063767 4.0573074986265968e-06 0.054183101508520654 0.11315506967598006 0.029860864909722777 0.060690550173669477 0.13087476716759605 0.022272270304155326 0.042177769350719416 0.13169188310647267 3.7810999547824921e-06 0.062655221560320731 0.12600318107481465 0.025490618472485588 0.063048652053835072 0.12638948012127929 4.4207724800555732e-06 0.039610057815849198 0.12430717791828 0.022272270304155326 0.042177769350719416 0.13169188310647267 1.3975316369671201e-06 0.051730209757734603 0.12508927512063767 3.7810999547824921e-06 0.062655221560320731 0.12600318107481465 5.4754262454245824e-06 0.054660833744854878 0.11611019615416956 4.4207724800555732e-06 0.039610057815849198 0.12430717791828 0.022272270304155326 0.042177769350719416 0.13169188310647267 3.7810999547824921e-06 0.062655221560320731 0.12600318107481465 7.2094595526344344e-07 0.058922455229927867 0.12251584416132552 5.4754262454245824e-06 0.054660833744854878 0.11611019615416956 3.7810999547824921e-06 0.062655221560320731 0.12600318107481465 0.025490618472485588 0.063048652053835072 0.12638948012127929 0.029860864909722777 0.060690550173669477 0.13087476716759605 1.3975316369671201e-06 0.051730209757734603 0.12508927512063767 4.0573074986265968e-06 0.054183101508520654 0.11315506967598006 5.2912571128799121e-06 0.064521784514638497 0.11800398865063251 0.029860864909722777 0.060690550173669477 0.13087476716759605 0.033671613847448822 0.041628981703756597 0.12844073092875044 4.0573074986265968e-06 0.054183101508520654 0.11315506967598006 0.014245358030931637 0.049203647279000423 0.093213058238125826 0.029860864909722777 0.060690550173669477 0.13087476716759605 4.0573074986265968e-06 0.054183101508520654 0.11315506967598006 0.022388434970680941 0.059483122649578654 0.083441303564984415 0.014245358030931637 0.049203647279000423 0.093213058238125826 0.025403742229073895 0.047040017828671704 0.093210565429690737 0.029860864909722777 0.060690550173669477 0.13087476716759605 0.022388434970680941 0.059483122649578654 0.083441303564984415 0.014245358030931637 0.049203647279000423 0.093213058238125826 0.029860864909722777 0.060690550173669477 0.13087476716759605 4.0573074986265968e-06 0.054183101508520654 0.11315506967598006 0.022388434970680941 0.059483122649578654 0.083441303564984415 5.2912571128799121e-06 0.064521784514638497 0.11800398865063251 -7.8869603646987224e-07 0.035981275862696616 0.09237916033663611 4.0573074986265968e-06 0.054183101508520654 0.11315506967598006 0.014245358030931637 0.049203647279000423 0.093213058238125826 1.4104745141203555e-07 0.054271579034887614 0.083223384164582068 4.0573074986265968e-06 0.054183101508520654 0.11315506967598006 0.022388434970680941 0.059483122649578654 0.083441303564984415 0.014245358030931637 0.049203647279000423 0.093213058238125826 1.4104745141203555e-07 0.054271579034887614 0.083223384164582068 4.0573074986265968e-06 0.054183101508520654 0.11315506967598006 0.022388434970680941 0.059483122649578654 0.083441303564984415 1.4104745141203555e-07 0.054271579034887614 0.083223384164582068 5.2912571128799121e-06 0.064521784514638497 0.11800398865063251 0.022388434970680941 0.059483122649578654 0.083441303564984415 1.4104745141203555e-07 0.054271579034887614 0.083223384164582068 2.3136270938434996e-06 0.054060225716217609 0.07030607705746203 5.2912571128799121e-06 0.064521784514638497 0.11800398865063251 2.3136270938434996e-06 0.054060225716217609 0.07030607705746203 5.2912571128799121e-06 0.064521784514638497 0.11800398865063251 2.7108498279317718e-06 0.050550964275196175 0.099040837379663543 0.016050411232105509 0.050164216285931137 0.071183646134797912 0.016050411232105509 0.050164216285931137 0.071183646134797912 0.026040445036635478 0.047179775263722246 0.068198084222979072 0.031582400335629125 0.057276960290726944 0.12621045286820881 0.018069166781897763 0.032813184800547207 0.065264570577288281 0.029860864909722777 0.060690550173669477 0.13087476716759605 0.022388434970680941 0.059483122649578654 0.083441303564984415 5.2912571128799121e-06 0.064521784514638497 0.11800398865063251 0.031582400335629125 0.057276960290726944 0.12621045286820881 0.022388434970680941 0.059483122649578654 0.083441303564984415 0.016050411232105509 0.050164216285931137 0.071183646134797912 0.026040445036635478 0.047179775263722246 0.068198084222979072 0.031582400335629125 0.057276960290726944 0.12621045286820881 0.022388434970680941 0.059483122649578654 0.083441303564984415 2.3136270938434996e-06 0.054060225716217609 0.07030607705746203 5.2912571128799121e-06 0.064521784514638497 0.11800398865063251 0.016050411232105509 0.050164216285931137 0.071183646134797912 5.2912571128799121e-06 0.064521784514638497 0.11800398865063251 2.7108498279317718e-06 0.050550964275196175 0.099040837379663543 0.016050411232105509 0.050164216285931137 0.071183646134797912 0.031582400335629125 0.057276960290726944 0.12621045286820881 2.7108498279317718e-06 0.050550964275196175 0.099040837379663543 0.016050411232105509 0.050164216285931137 0.071183646134797912 0.031582400335629125 0.057276960290726944 0.12621045286820881 4.7749889598096918e-06 0.033980706831085145 0.10052224074547167 2.7108498279317718e-06 0.050550964275196175 0.099040837379663543 0.031582400335629125 0.057276960290726944 0.12621045286820881 2.0435673432340196e-06 0.051019433666913784 0.11850416655360024 4.7749889598096918e-06 0.033980706831085145 0.10052224074547167 0.022388434970680941 0.059483122649578654 0.083441303564984415 5.2912571128799121e-06 0.064521784514638497 0.11800398865063251 0.016050411232105509 0.050164216285931137 0.071183646134797912 0.031582400335629125 0.057276960290726944 0.12621045286820881 5.2912571128799121e-06 0.064521784514638497 0.11800398865063251 2.7108498279317718e-06 0.050550964275196175 0.099040837379663543 0.031582400335629125 0.057276960290726944 0.12621045286820881 2.0435673432340196e-06 0.051019433666913784 0.11850416655360024 2.3136270938434996e-06 0.054060225716217609 0.07030607705746203 2.7108498279317718e-06 0.050550964275196175 0.099040837379663543 0.016050411232105509 0.050164216285931137 0.071183646134797912 1.4158155059971855e-06 0.035645389116802352 0.061410095389183857 0.031239443917527296 0.055520908860759687 0.087238688648250809 0.030539665741967984 0.058264306268656245 0.085161005525151448 0.035512350397156014 0.066472756800316543 0.1278098647019946 0.032885324545012286 0.041763582410186621 0.078140734314536983 0.030539665741967984 0.058264306268656245 0.085161005525151448 0.035512350397156014 0.066472756800316543 0.1278098647019946 0.031582400335629125 0.057276960290726944 0.12621045286820881 0.032885324545012286 0.041763582410186621 0.078140734314536983 0.032813848633643942 0.054384993373160752 0.12774861876831753 0.035512350397156014 0.066472756800316543 0.1278098647019946 0.031582400335629125 0.057276960290726944 0.12621045286820881 0.032885324545012286 0.041763582410186621 0.078140734314536983 0.029860864909722777 0.060690550173669477 0.13087476716759605 0.030539665741967984 0.058264306268656245 0.085161005525151448 0.035512350397156014 0.066472756800316543 0.1278098647019946 0.031582400335629125 0.057276960290726944 0.12621045286820881 0.022388434970680941 0.059483122649578654 0.083441303564984415 0.026040445036635478 0.047179775263722246 0.068198084222979072 0.030539665741967984 0.058264306268656245 0.085161005525151448 0.031582400335629125 0.057276960290726944 0.12621045286820881 0.029860864909722777 0.060690550173669477 0.13087476716759605 0.022388434970680941 0.059483122649578654 0.083441303564984415 0.030539665741967984 0.058264306268656245 0.085161005525151448 0.031582400335629125 0.057276960290726944 0.12621045286820881 0.026040445036635478 0.047179775263722246 0.068198084222979072 0.030539665741967984 0.058264306268656245 0.085161005525151448 0.031582400335629125 0.057276960290726944 0.12621045286820881 0.032885324545012286 0.041763582410186621 0.078140734314536983 0.031239443917527296 0.055520908860759687 0.087238688648250809 0.032197486063894339 0.059017672266061756 0.094141441359433892 0.030539665741967984 0.058264306268656245 0.085161005525151448 0.035512350397156014 0.066472756800316543 0.1278098647019946 0.025156436676608763 0.047859731329670668 0.11490284367200337 0.031582400335629125 0.057276960290726944 0.12621045286820881 0.025490618472485588 0.063048652053835072 0.12638948012127929 0.033669279780451075 0.045709885445968233 0.12732842903705105 0.034660221819671426 0.062994668463912704 0.12547154285796544 0.035512350397156014 0.066472756800316543 0.1278098647019946 0.031582400335629125 0.057276960290726944 0.12621045286820881 0.033669279780451075 0.045709885445968233 0.12732842903705105 0.034660221819671426 0.062994668463912704 0.12547154285796544 0.031582400335629125 0.057276960290726944 0.12621045286820881 0.025490618472485588 0.063048652053835072 0.12638948012127929 0.033669279780451075 0.045709885445968233 0.12732842903705105 0.034660221819671426 0.062994668463912704 0.12547154285796544 0.035512350397156014 0.066472756800316543 0.1278098647019946 0.031582400335629125 0.057276960290726944 0.12621045286820881 0.025490618472485588 0.063048652053835072 0.12638948012127929 0.029860864909722777 0.060690550173669477 0.13087476716759605 0.035512350397156014 0.066472756800316543 0.1278098647019946 0.031582400335629125 0.057276960290726944 0.12621045286820881 0.025490618472485588 0.063048652053835072 0.12638948012127929 0.032813848633643942 0.054384993373160752 0.12774861876831753 0.035512350397156014 0.066472756800316543 0.1278098647019946 0.031582400335629125 0.057276960290726944 0.12621045286820881 0.033669279780451075 0.045709885445968233 0.12732842903705105 5.2912571128799121e-06 0.064521784514638497 0.11800398865063251 0.031582400335629125 0.057276960290726944 0.12621045286820881 0.025490618472485588 0.063048652053835072 0.12638948012127929 5.3264614231986014e-06 0.058339399684063771 0.12720949561254055 0.025156436676608763 0.047859731329670668 0.11490284367200337 0.031582400335629125 0.057276960290726944 0.12621045286820881 0.025490618472485588 0.063048652053835072 0.12638948012127929 5.3264614231986014e-06 0.058339399684063771 0.12720949561254055 0.029860864909722777 0.060690550173669477 0.13087476716759605 5.2912571128799121e-06 0.064521784514638497 0.11800398865063251 0.031582400335629125 0.057276960290726944 0.12621045286820881 0.025490618472485588 0.063048652053835072 0.12638948012127929 3.7810999547824921e-06 0.062655221560320731 0.12600318107481465 5.2912571128799121e-06 0.064521784514638497 0.11800398865063251 0.025490618472485588 0.063048652053835072 0.12638948012127929 5.3264614231986014e-06 0.058339399684063771 0.12720949561254055 5.2912571128799121e-06 0.064521784514638497 0.11800398865063251 0.031582400335629125 0.057276960290726944 0.12621045286820881 2.0435673432340196e-06 0.051019433666913784 0.11850416655360024 5.3264614231986014e-06 0.058339399684063771 0.12720949561254055 7.9192985321635247e-06 0.039725907060325798 0.1267078894927236 0.025156436676608763 0.047859731329670668 0.11490284367200337 0.031582400335629125 0.057276960290726944 0.12621045286820881 5.3264614231986014e-06 0.058339399684063771 0.12720949561254055 7.9192985321635247e-06 0.039725907060325798 0.1267078894927236 0.031582400335629125 0.057276960290726944 0.12621045286820881 2.0435673432340196e-06 0.051019433666913784 0.11850416655360024 5.3264614231986014e-06 0.058339399684063771 0.12720949561254055 7.2094595526344344e-07 0.058922455229927867 0.12251584416132552 3.7810999547824921e-06 0.062655221560320731 0.12600318107481465 0.025490618472485588 0.063048652053835072 0.12638948012127929 5.3264614231986014e-06 0.058339399684063771 0.12720949561254055 0.031582400335629125 0.057276960290726944 0.12621045286820881 5.0383663334531809e-06 0.028077337139136273 0.11810987829187694 0.015442365241544218 8.3607500910216162e-06 0.11936497390752822 0.018901695115287841 7.5528520424942137e-06 0.10192015084218256 0.031582400335629125 0.057276960290726944 0.12621045286820881 0.015442365241544218 8.3607500910216162e-06 0.11936497390752822 0.027866702752501159 3.4009699886575802e-06 0.11807613389211859 0.018901695115287841 7.5528520424942137e-06 0.10192015084218256 0.020229697340915186 1.1225942387533291e-05 0.12411379129233592 7.9192985321635247e-06 0.039725907060325798 0.1267078894927236 0.025156436676608763 0.047859731329670668 0.11490284367200337 0.031582400335629125 0.057276960290726944 0.12621045286820881 7.9192985321635247e-06 0.039725907060325798 0.1267078894927236 0.031582400335629125 0.057276960290726944 0.12621045286820881 5.0383663334531809e-06 0.028077337139136273 0.11810987829187694 0.015442365241544218 8.3607500910216162e-06 0.11936497390752822 0.020229697340915186 1.1225942387533291e-05 0.12411379129233592 7.9192985321635247e-06 0.039725907060325798 0.1267078894927236 0.031582400335629125 0.057276960290726944 0.12621045286820881 0.015442365241544218 8.3607500910216162e-06 0.11936497390752822 7.9192985321635247e-06 0.039725907060325798 0.1267078894927236 0.031582400335629125 0.057276960290726944 0.12621045286820881 2.0435673432340196e-06 0.051019433666913784 0.11850416655360024 5.0383663334531809e-06 0.028077337139136273 0.11810987829187694 0.020229697340915186 1.1225942387533291e-05 0.12411379129233592 0.031582400335629125 0.057276960290726944 0.12621045286820881 0.015442365241544218 8.3607500910216162e-06 0.11936497390752822 0.027866702752501159 3.4009699886575802e-06 0.11807613389211859 0.031582400335629125 0.057276960290726944 0.12621045286820881 2.0435673432340196e-06 0.051019433666913784 0.11850416655360024 5.0383663334531809e-06 0.028077337139136273 0.11810987829187694 4.7749889598096918e-06 0.033980706831085145 0.10052224074547167 5.0383663334531809e-06 0.028077337139136273 0.11810987829187694 0.015442365241544218 8.3607500910216162e-06 0.11936497390752822 5.2620141275727254e-06 7.3735490591790755e-06 0.12421618710722943 2.9616338380795024e-06 4.4547009741222525e-06 0.1040865246608229 0.020229697340915186 1.1225942387533291e-05 0.12411379129233592 7.9192985321635247e-06 0.039725907060325798 0.1267078894927236 0.015442365241544218 8.3607500910216162e-06 0.11936497390752822 5.2620141275727254e-06 7.3735490591790755e-06 0.12421618710722943 7.9192985321635247e-06 0.039725907060325798 0.1267078894927236 5.0383663334531809e-06 0.028077337139136273 0.11810987829187694 0.015442365241544218 8.3607500910216162e-06 0.11936497390752822 5.2620141275727254e-06 7.3735490591790755e-06 0.12421618710722943 0.031582400335629125 0.057276960290726944 0.12621045286820881 0.031418686427105748 9.032429064907382e-06 0.1266789986037001 0.027866702752501159 3.4009699886575802e-06 0.11807613389211859 0.035357291632886555 9.938880239168617e-06 0.11482570102329959 0.020229697340915186 1.1225942387533291e-05 0.12411379129233592 0.031582400335629125 0.057276960290726944 0.12621045286820881 0.031418686427105748 9.032429064907382e-06 0.1266789986037001 0.027866702752501159 3.4009699886575802e-06 0.11807613389211859 0.020229697340915186 1.1225942387533291e-05 0.12411379129233592 0.025156436676608763 0.047859731329670668 0.11490284367200337 0.031582400335629125 0.057276960290726944 0.12621045286820881 0.031418686427105748 9.032429064907382e-06 0.1266789986037001 0.032813848633643942 0.054384993373160752 0.12774861876831753 0.031582400335629125 0.057276960290726944 0.12621045286820881 0.033669279780451075 0.045709885445968233 0.12732842903705105 0.035357291632886555 9.938880239168617e-06 0.11482570102329959 0.025156436676608763 0.047859731329670668 0.11490284367200337 0.031582400335629125 0.057276960290726944 0.12621045286820881 0.031418686427105748 9.032429064907382e-06 0.1266789986037001 0.033669279780451075 0.045709885445968233 0.12732842903705105 0.031582400335629125 0.057276960290726944 0.12621045286820881 0.031418686427105748 9.032429064907382e-06 0.1266789986037001 0.033669279780451075 0.045709885445968233 0.12732842903705105 0.035357291632886555 9.938880239168617e-06 0.11482570102329959 0.03540621333929652 8.5660585547809231e-06 0.12557253931826576 0.031418686427105748 9.032429064907382e-06 0.1266789986037001 0.033669279780451075 0.045709885445968233 0.12732842903705105 0.035357291632886555 9.938880239168617e-06 0.11482570102329959 0.031971831172431846 6.8392004003666995e-07 0.12312101967391526 0.03540621333929652 8.5660585547809231e-06 0.12557253931826576 0.031418686427105748 9.032429064907382e-06 0.1266789986037001 0.033669279780451075 0.045709885445968233 0.12732842903705105 0.031582400335629125 0.057276960290726944 0.12621045286820881 0.027866702752501159 3.4009699886575802e-06 0.11807613389211859 0.028894076836882797 6.4761077877879025e-06 0.098092635626647509 0.035357291632886555 9.938880239168617e-06 0.11482570102329959 0.026040445036635478 0.047179775263722246 0.068198084222979072 0.031582400335629125 0.057276960290726944 0.12621045286820881 0.032885324545012286 0.041763582410186621 0.078140734314536983 0.027031059568293398 0.028162415797613641 0.068085274871538315 0.031582400335629125 0.057276960290726944 0.12621045286820881 0.028894076836882797 6.4761077877879025e-06 0.098092635626647509 0.027031059568293398 0.028162415797613641 0.068085274871538315 0.018901695115287841 7.5528520424942137e-06 0.10192015084218256 0.031582400335629125 0.057276960290726944 0.12621045286820881 0.028894076836882797 6.4761077877879025e-06 0.098092635626647509 0.035357291632886555 9.938880239168617e-06 0.11482570102329959 0.032885324545012286 0.041763582410186621 0.078140734314536983 0.031582400335629125 0.057276960290726944 0.12621045286820881 0.027866702752501159 3.4009699886575802e-06 0.11807613389211859 0.028894076836882797 6.4761077877879025e-06 0.098092635626647509 0.018901695115287841 7.5528520424942137e-06 0.10192015084218256 0.032813848633643942 0.054384993373160752 0.12774861876831753 0.031582400335629125 0.057276960290726944 0.12621045286820881 0.035357291632886555 9.938880239168617e-06 0.11482570102329959 0.032885324545012286 0.041763582410186621 0.078140734314536983 0.026040445036635478 0.047179775263722246 0.068198084222979072 0.031582400335629125 0.057276960290726944 0.12621045286820881 0.027031059568293398 0.028162415797613641 0.068085274871538315 0.018069166781897763 0.032813184800547207 0.065264570577288281 0.031582400335629125 0.057276960290726944 0.12621045286820881 0.028894076836882797 6.4761077877879025e-06 0.098092635626647509 0.032885324545012286 0.041763582410186621 0.078140734314536983 0.027031059568293398 0.028162415797613641 0.068085274871538315 0.028894076836882797 6.4761077877879025e-06 0.098092635626647509 0.029943405014396834 4.4165074445431966e-06 0.068219662294258993 0.032885324545012286 0.041763582410186621 0.078140734314536983 0.027031059568293398 0.028162415797613641 0.068085274871538315 0.030119838015280748 3.8616814628397939e-06 0.073518394001180792 0.035357291632886555 9.938880239168617e-06 0.11482570102329959 0.029943405014396834 4.4165074445431966e-06 0.068219662294258993 0.032885324545012286 0.041763582410186621 0.078140734314536983 0.028894076836882797 6.4761077877879025e-06 0.098092635626647509 0.035357291632886555 9.938880239168617e-06 0.11482570102329959 0.029943405014396834 4.4165074445431966e-06 0.068219662294258993 0.032885324545012286 0.041763582410186621 0.078140734314536983 0.028894076836882797 6.4761077877879025e-06 0.098092635626647509 0.029943405014396834 4.4165074445431966e-06 0.068219662294258993 0.027031059568293398 0.028162415797613641 0.068085274871538315 0.019611715517346608 2.9323456830771678e-06 0.060662341635656584 0.027031059568293398 0.028162415797613641 0.068085274871538315 0.019611715517346608 2.9323456830771678e-06 0.060662341635656584 0.018901695115287841 7.5528520424942137e-06 0.10192015084218256 0.018069166781897763 0.032813184800547207 0.065264570577288281 0.016050411232105509 0.050164216285931137 0.071183646134797912 0.031582400335629125 0.057276960290726944 0.12621045286820881 0.018069166781897763 0.032813184800547207 0.065264570577288281 4.7749889598096918e-06 0.033980706831085145 0.10052224074547167 0.028894076836882797 6.4761077877879025e-06 0.098092635626647509 0.027031059568293398 0.028162415797613641 0.068085274871538315 0.019611715517346608 2.9323456830771678e-06 0.060662341635656584 0.018901695115287841 7.5528520424942137e-06 0.10192015084218256 0.031582400335629125 0.057276960290726944 0.12621045286820881 0.027031059568293398 0.028162415797613641 0.068085274871538315 0.018901695115287841 7.5528520424942137e-06 0.10192015084218256 0.018069166781897763 0.032813184800547207 0.065264570577288281 0.031582400335629125 0.057276960290726944 0.12621045286820881 5.0383663334531809e-06 0.028077337139136273 0.11810987829187694 0.018901695115287841 7.5528520424942137e-06 0.10192015084218256 4.7749889598096918e-06 0.033980706831085145 0.10052224074547167 0.019611715517346608 2.9323456830771678e-06 0.060662341635656584 0.018901695115287841 7.5528520424942137e-06 0.10192015084218256 0.018069166781897763 0.032813184800547207 0.065264570577288281 4.228173358618288e-06 7.959883810554008e-06 0.058432619606848958 0.031582400335629125 0.057276960290726944 0.12621045286820881 0.018901695115287841 7.5528520424942137e-06 0.10192015084218256 0.018069166781897763 0.032813184800547207 0.065264570577288281 4.7749889598096918e-06 0.033980706831085145 0.10052224074547167 0.018069166781897763 0.032813184800547207 0.065264570577288281 1.4158155059971855e-06 0.035645389116802352 0.061410095389183857 4.7749889598096918e-06 0.033980706831085145 0.10052224074547167 4.228173358618288e-06 7.959883810554008e-06 0.058432619606848958 2.7108498279317718e-06 0.050550964275196175 0.099040837379663543 0.016050411232105509 0.050164216285931137 0.071183646134797912 1.4158155059971855e-06 0.035645389116802352 0.061410095389183857 4.7749889598096918e-06 0.033980706831085145 0.10052224074547167 0.016050411232105509 0.050164216285931137 0.071183646134797912 0.018069166781897763 0.032813184800547207 0.065264570577288281 1.4158155059971855e-06 0.035645389116802352 0.061410095389183857 4.7749889598096918e-06 0.033980706831085145 0.10052224074547167 0.018901695115287841 7.5528520424942137e-06 0.10192015084218256 4.7749889598096918e-06 0.033980706831085145 0.10052224074547167 2.9616338380795024e-06 4.4547009741222525e-06 0.1040865246608229 4.228173358618288e-06 7.959883810554008e-06 0.058432619606848958 5.0383663334531809e-06 0.028077337139136273 0.11810987829187694 0.015442365241544218 8.3607500910216162e-06 0.11936497390752822 0.018901695115287841 7.5528520424942137e-06 0.10192015084218256 2.9616338380795024e-06 4.4547009741222525e-06 0.1040865246608229 5.0383663334531809e-06 0.028077337139136273 0.11810987829187694 0.018901695115287841 7.5528520424942137e-06 0.10192015084218256 4.7749889598096918e-06 0.033980706831085145 0.10052224074547167 2.9616338380795024e-06 4.4547009741222525e-06 0.1040865246608229 0.018901695115287841 7.5528520424942137e-06 0.10192015084218256 0.018069166781897763 0.032813184800547207 0.065264570577288281 4.7749889598096918e-06 0.033980706831085145 0.10052224074547167 4.228173358618288e-06 7.959883810554008e-06 0.058432619606848958 
</DataArray>
</PointData>
<CellData Scalars="displacement_divergence," Vectors="" Tensors="initial_stress,effective_stress,">
<DataArray type="Float64" Name="initial_stress" NumberOfComponents="9" format="ascii">
0.16708333333348735 0.66571217432647511 0.99856826148893796 0.66571217432647511 0.66309101531900083 1.6577275382962109 0.99856826148893796 1.6577275382962109 0.99463652297695182 0.4880166073136939 1.173885617437703 2.9105941897823269 1.173885617437703 0.39570480562063071 2.905538286761197 2.9105941897823269 2.905538286761197 2.8930887356824906 0.34426660731354075 1.0175651616775196 2.5105850159938816 1.0175651616775196 0.65806389410087651 3.285555191048195 2.5105850159938816 3.285555191048195 2.9555703881065192 0.37684570091062075 1.6831873407549982 1.9712142409577456 1.6831873407549982 1.8589918778675132 3.7248684110441967 1.9712142409577456 3.7248684110441967 1.6813542764517664 0.27801637479864272 1.0495268709732688 2.0904333932130208 1.0495268709732688 0.98698824275196673 3.3277090848017794 2.0904333932130208 3.3277090848017794 2.5127685376341851 0.36155804146551551 1.2525139934008469 1.8785675670020017 1.2525139934008469 1.0587958209396315 2.6466505138502985 1.8785675670020017 2.6466505138502985 1.5877868852109107 0.083541666666614556 0.46272505189889712 1.5104340877012052 0.46272505189889712 0.59128343713133602 2.8387861092497726 1.5104340877012052 2.8387861092497726 2.5196181754027229 0.083541666666614556 0.33154550765877422 1.0479432614895678 0.33154550765877422 0.32892434865109021 1.7400192049634031 1.0479432614895678 1.7400192049634031 1.5946365229794484 0.14979189918151259 0.43076334260314808 1.9305857104820658 0.43076334260314808 0.26235908848024581 2.7966322154961878 1.9305857104820658 2.7966322154961878 2.9624200258750566 0.083541666666872794 1.0110864932510952 0.69408757784913977 1.0110864932510952 1.6880063198346995 2.8491121962075767 0.69408757784913977 2.8491121962075767 0.88692515569704278 0.14939355468788917 1.2913099790264417 0.64494998042387131 1.2913099790264417 1.985045739301327 2.8092560347269986 0.64494998042387131 2.8092560347269986 0.39353863272040751 0.083541666666872794 0.69862884099407818 0.49731826148893604 0.69862884099407818 1.0630910153206652 1.7400192049646943 0.49731826148893604 1.7400192049646943 0.49338652297663532 0.49606400426979147 1.1246284735697083 1.9363726768719844 1.1246284735697083 0.26500093006025072 1.078218936012997 1.9363726768719844 1.078218936012997 0.89636132812522029 0.26708333333326628 0.70125000000048787 1.051874999999957 0.70125000000048787 0.33416666666791067 0.83541666666848535 1.051874999999957 0.83541666666848535 0.50125000000031639 0.42311472890783713 1.1458132561797549 1.5199691867236695 1.1458132561797549 0.59916759672816133 1.1666678292437989 1.5199691867236695 1.1666678292437989 0.50125000000031639 0.70699704573491351 1.7443469593102678 2.615121982384172 1.7443469593102678 0.66070573568088142 1.6494335782334875 2.615121982384172 1.6494335782334875 0.98826169035886269 0.61252233760266428 1.3575451402354539 2.0351226768704449 1.3575451402354539 0.26500093006025072 0.66051060267939998 2.0351226768704449 0.66051060267939998 0.39511132812490379 0.5905387124020407 1.5114302926445222 2.5163719823857118 1.5114302926445222 0.66070573568088142 2.0671419115670844 2.5163719823857118 2.0671419115670844 1.4895116903591792 0.99400381362201684 2.6787427791473513 4.0268665450561718 2.6787427791473513 1.3814703038066352 3.4682630534084957 4.0268665450561718 3.4682630534084957 2.0897102083802421 0.51758943704008642 1.5326150752545689 2.0999684922373971 1.5326150752545689 0.99487240234879204 2.1555908047978862 2.0999684922373971 2.1555908047978862 1.0944003622342753 0.57779777037402713 1.9405317419230035 2.0299684922390604 1.9405317419230035 1.5698724023498982 2.4566324714656718 2.0299684922390604 2.4566324714656718 0.59315036223395878 0.73909306022890398 2.2999745351740932 2.5138543618036913 2.2999745351740932 1.6435768294325703 2.548763005319012 2.5138543618036913 2.548763005319012 0.59315036223395878 0.79534306022783607 2.124974535171404 2.6826043618004878 2.124974535171404 1.0685768294314641 1.8300130053176291 2.6826043618004878 1.8300130053176291 0.59315036223395878 0.99999999999881217 2.2039355468729158 3.3059033203089148 2.2039355468729158 0.40787109375058261 1.0196777343756915 3.3059033203089148 1.0196777343756915 0.61180664062495604 0.89447470813136676 2.19073736594834 3.2859026258235575 2.19073736594834 0.80357589937121332 2.0086007099297793 3.2859026258235575 2.0086007099297793 1.2049570028589149 0.80612869363844419 1.8101097900872039 3.2184202464072422 1.8101097900872039 0.39570480562063071 1.8280212828456375 3.2184202464072422 1.8280212828456375 1.6000683309838188 0.57825731682762294 1.3543670364655611 2.9107777956620815 1.3543670364655611 0.39570480562063071 2.4546407489911433 2.9107777956620815 2.4546407489911433 2.3520116903584256 0.74987869363910997 1.6976097900885354 3.4809202464088624 1.6976097900885354 0.39570480562063071 2.5467712828450093 3.4809202464088624 2.5467712828450093 2.4625683309830655 0.69994532857490888 1.8966079619499854 3.9627200176446014 1.8966079619499854 0.99343460960033514 4.346599981866877 3.9627200176446014 4.346599981866877 3.725768063839749 0.95261313044419382 2.6340031217215625 4.93239829684022 2.6340031217215625 1.4575537216663497 5.2795403279290012 4.93239829684022 5.2795403279290012 4.1491178110152767 0.60743839388041998 1.5137416897506921 4.1231349020100989 1.5137416897506921 0.59772980397970443 4.5818617889226951 4.1231349020100989 4.5818617889226951 4.6016394407376779 0.55390739164205249 1.6045320880842726 3.4181298298180129 1.6045320880842726 0.99343460960033514 4.1691393534868446 3.4181298298180129 4.1691393534868446 3.5128153097837109 0.96145502654802173 2.4097096581240698 4.5037907475866898 2.4097096581240698 0.97359921005605243 3.9160417924744406 4.5037907475866898 3.9160417924744406 3.2388513358852498 0.79231561394768701 2.1254733856903747 5.1264912080483125 2.1254733856903747 1.0816843155900016 5.9346793381629208 5.1264912080483125 5.9346793381629208 5.4990887324105024 0.64796224001095271 1.5947893820117576 4.6669053979265609 1.5947893820117576 0.59772980397970443 5.2855267181308028 4.6669053979265609 5.2855267181308028 5.4460373557874062 0.80251647594902953 2.3437275125033752 4.6002200176448316 2.3437275125033752 1.4773891212106323 5.501187384509528 4.6002200176448316 5.501187384509528 4.3853411795954855 0.80567592105803731 1.8092042449263901 4.0253268283556958 1.8092042449263901 0.39570480562063071 3.1751294489950954 4.0253268283556958 3.1751294489950954 3.2165981303631681 0.8928831629527676 2.0277435817106837 5.6177055680127328 2.0277435817106837 0.48395451161029718 5.503369938103587 5.6177055680127328 5.503369938103587 5.8781121583088591 0.21568268350987113 1.0653453601246956 2.8726322200824903 1.0653453601246956 1.2679599862099069 5.2942569320171788 2.8726322200824903 5.2942569320171788 4.4511683391057542 0.41015739164189935 1.4482116323240892 3.0181206560295668 1.4482116323240892 1.2557936980805811 4.5491562577738414 3.0181206560295668 4.5491562577738414 3.5752969622077382 0.34390715912700132 1.4801733416198382 2.5979690332487064 1.4801733416198382 1.584718046731671 4.5913101515274262 2.5979690332487064 4.5913101515274262 3.132495111735405 0.1494324509949731 1.1808715225455573 2.1492197277357796 1.1808715225455573 1.7640132411112224 5.039887175973794 2.1492197277357796 5.039887175973794 3.4018447495017199 0.4614004569475636 1.2216658158849794 3.5785447141835101 1.2216658158849794 0.59772980397970443 4.4044011605426627 3.5785447141835101 4.4044011605426627 4.3886866866816385 0.1494324509949731 1.2203448950949904 2.6370373358134485 1.2203448950949904 1.8429599862100887 5.9515999541434912 2.6370373358134485 5.9515999541434912 4.3774799656570575 0.31765045694741045 1.1381013627596515 3.4505555837494142 1.1381013627596515 1.0056008977296611 5.419674810340716 3.4505555837494142 5.419674810340716 4.9952084258143667 0.16821800595243735 0.54037155877985299 3.0417699437162238 0.54037155877985299 0.40787109374995661 4.7383654102856312 3.0417699437162238 4.7383654102856312 5.0742318517178227 0.066250232514898047 0.46761555614489725 2.463846580049299 0.46761555614489725 0.67023018223020236 4.6129475319620949 2.463846580049299 4.6129475319620949 4.5301917650092101 0.10196777343753929 0.40787109375005692 3.2749250594491253 0.40787109375005692 0.40787109374995661 5.458208432414958 3.2749250594491253 5.458208432414958 5.9380434782730154 0.066250232514898047 0.26368000926991897 2.0293357104845606 0.26368000926991897 0.26235908848024581 3.3789238821667515 2.0293357104845606 3.3789238821667515 3.6611700258797333 0.3695838056177323 2.3592747776852323 3.2990069092955219 2.3592747776852323 3.2402143328995354 7.7006937368616279 3.2990069092955219 7.7006937368616279 4.3805109848846504 0.24826177710669289 1.6474486589928148 2.2806255754798874 1.6474486589928148 2.3018502095588582 5.4370465022149208 2.2806255754798874 5.4370465022149208 3.0716804883196174 0.24826177710669289 1.9088239929724105 2.6092509152990404 1.9088239929724105 2.8246008775180496 6.6381937368624993 2.6092509152990404 6.6381937368624993 3.7289311679579242 0.1494324509949731 1.5960206282637621 3.1720507703601371 1.5960206282637621 2.5943114525476321 7.782478344643236 3.1720507703601371 7.782478344643236 5.4475068347504347 0.3656007344842398 2.6520748689702858 3.1629175484289194 2.6520748689702858 3.8417468000036119 8.2457090749648483 3.1629175484289194 8.2457090749648483 4.1322306899523999 0.2707544795060125 2.1300358661016965 3.5585458947907682 2.1300358661016965 3.1770538141793434 8.5484546948453968 3.5585458947907682 8.5484546948453968 5.4925649125454612 0.24427870597320034 2.424450171214326 2.3478148747448664 2.424450171214326 3.8717855185358507 7.5313631595452559 2.3478148747448664 7.5313631595452559 3.2299575136505307 0.1494324509949731 1.5150028591600084 2.7498651109092824 1.5150028591600084 2.4322759143401247 6.876291156132428 2.7498651109092824 6.876291156132428 4.6031355158487255 0.098829326111719795 1.8214202759495652 1.906368595575918 1.8214202759495652 3.2475232474522513 6.7425384213832453 1.906368595575918 6.7425384213832453 3.219761234481517 0.12132202851103943 2.0323060621219127 3.299760254755058 2.0323060621219127 3.5793240101996679 9.36714529478615 3.299760254755058 9.36714529478615 5.8715883384438783 0.902487239714588 3.1068393499123639 4.3745914108277795 3.1068393499123639 2.6037297409663758 6.0332116623479957 4.3745914108277795 6.0332116623479957 3.3342593833680314 0.80393280595390282 3.5225620129048578 4.5263244652527241 3.5225620129048578 3.8293928019941044 8.3109510814776559 4.5263244652527241 8.3109510814776559 4.2290520947820314 0.65276213206562272 3.1203186935922385 3.62022113920847 3.1203186935922385 3.629588858921986 7.3068773120051524 3.62022113920847 7.3068773120051524 3.3238694860232036 0.88975741199141245 2.8071565868058519 4.7297488647801398 2.8071565868058519 2.055283525646054 6.0032321217340723 4.7297488647801398 6.0032321217340723 4.1209532576118058 0.70178746033617034 2.8165906174017588 3.6275241655524493 2.8165906174017588 2.8260313934588357 6.069475549396774 3.6275241655524493 6.069475549396774 3.0443235690878758 0.51503318547921284 2.8239671646449431 3.5963845871571349 2.8239671646449431 3.5878015873730349 7.9035603687487876 3.5963845871571349 7.9035603687487876 4.1025700614389935 0.94528270385938429 3.2203547677314801 5.3497495592670763 3.2203547677314801 2.6595787200254231 7.5143091461799836 5.3497495592670763 7.5143091461799836 5.027802895377846 0.95801253158255983 3.5200375308379921 4.994592105314716 3.5200375308379921 3.2080249353457448 7.544288686793907 4.994592105314716 7.544288686793907 4.2411090211340721 0.76707562688028608 3.0703001392464069 5.1297916340326175 3.0703001392464069 3.072297770971669 8.5546468027008515 5.1297916340326175 8.5546468027008515 5.6571295067835177 0.66620385936749305 3.2262104839575629 4.5024879132013895 3.2262104839575629 3.7876055304451532 8.907634138221292 4.5024879132013895 8.907634138221292 5.0077526701978208 0.53041815378366719 3.0012358700389337 2.3250112965562311 3.0012358700389337 3.8807991249431986 6.0739269648543806 2.3250112965562311 6.0739269648543806 1.467513670410459 0.6875013554434628 3.3212765498665449 3.1639505222912225 3.3212765498665449 3.8925476779592385 6.7014286907171039 3.1639505222912225 6.7014286907171039 2.2028929119216674 0.92546194175461594 3.3785255854540286 3.4406506271364319 3.3785255854540286 3.0552034038895934 4.9261122579829646 3.4406506271364319 4.9261122579829646 1.3285296037451675 0.73652668371401042 3.0175484736760652 3.1712535486352014 3.0175484736760652 3.0889902124960882 5.4640269281087273 3.1712535486352014 5.4640269281087273 1.9233469949863398 0.98098723362292684 3.7917237663813368 3.3106513216243849 3.7917237663813368 3.6594985982709662 5.1871892824313814 3.3106513216243849 5.1871892824313814 0.73537924151120859 0.76723333902714619 2.6540989392489305 2.5982751981984178 2.6540989392489305 2.2392645223892762 3.293372621514894 2.5982751981984178 3.293372621514894 0.59315036223395878 0.91124792317891634 3.0378327317126113 3.0303189506537285 3.0378327317126113 2.4306737707095571 3.5326341819152454 3.0303189506537285 3.5326341819152454 0.59315036223395878 0.62122570861711646 2.5582461600175206 2.4576610025889147 2.5582461600175206 2.6315894855665753 4.2794599848541619 2.4576610025889147 4.2794599848541619 1.1879677534751312 0.52059570091117602 2.0937251664311169 2.155770979471094 2.0937251664311169 2.1050675292175294 3.6213075394178542 2.155770979471094 3.6213075394178542 1.1879677534751312 0.52871877392274202 2.6857059747757459 1.8835650173888121 2.6857059747757459 3.2565368538605242 4.566352226693299 1.8835650173888121 4.566352226693299 0.59481739124117239 0.41039898757094517 2.331703974622533 1.5286056583334218 2.331703974622533 3.0218119989612848 4.2729461580692494 1.5286056583334218 4.2729461580692494 0.59481739124117239 0.26664898757038991 2.1567039746225332 1.0973556583317559 2.1567039746225332 3.2468119989635067 4.5541961580720267 1.0973556583317559 4.5541961580720267 0.59481739124117239 0.44273648523872111 1.9467504780670957 2.7293748809928147 1.9467504780670957 2.1225550151793069 4.9884694777685521 2.7293748809928147 4.9884694777685521 2.8023308505533029 0.39197288080016424 1.9516090074576364 1.473327338021079 1.9516090074576364 2.3353264917146159 3.4148392740109133 1.473327338021079 3.4148392740109133 0.59481739124117239 0.18237099277859259 1.4088431739376435 1.2879842518048854 1.4088431739376435 2.0882023767609166 3.8450384267329918 1.2879842518048854 3.8450384267329918 1.4817425469382151 0.06585188802101638 1.3571433123604053 0.39432498042325292 1.3571433123604053 2.4508790726367451 3.3915477013962709 0.39432498042325292 3.3915477013962709 0.39353863272040751 0.16468121413273618 1.7548999930469535 0.98822165437899856 1.7548999930469535 2.8510751295629624 4.3874739319216864 0.98822165437899856 4.3874739319216864 0.98835602396157995 0.24822288079960897 1.68906665971299 1.2388466543796168 1.68906665971299 2.3852417962275441 3.8051822652524137 1.2388466543796168 3.8051822652524137 0.98835602396157995 0.098829326111719795 1.3621765072700336 1.4686092518044038 1.3621765072700336 2.329035710093188 4.8648300933985587 1.4686092518044038 4.8648300933985587 2.3442425469384887 0.098829326111719795 1.8205404199030149 1.0965693106285141 1.8205404199030149 3.2457635353591505 5.3906733063545298 1.0965693106285141 5.3906733063545298 1.6001626645867093 0.098829326111719795 1.7080404199014416 1.5278193106286504 1.7080404199014416 3.0207635353560041 5.8281733063508234 1.5278193106286504 5.8281733063508234 2.4626626645869822 0.20079709954937353 2.2223444014785949 1.2057033145812714 2.2223444014785949 3.6415004047596953 5.5573955325048709 1.2057033145812714 5.5573955325048709 1.2066240318663017 0.16821800595256681 2.6450253946721114 0.8105573381702651 2.6450253946721114 4.6171787655339553 6.2813123241050519 0.8105573381702651 6.2813123241050519 0.61180664062512924 0.29534462475713608 2.7554941314911212 1.771640303047562 2.7554941314911212 4.3296097639536981 6.8880229195690461 1.771640303047562 6.8880229195690461 1.7712128575523081 0.44079400461861662 3.1356979397990203 2.3384332619040822 3.1356979397990203 4.5082198611235738 7.3286935731515213 2.3384332619040822 7.3286935731515213 2.0321024960964649 0.33882623118096289 2.931762392923376 2.3384332619036861 2.931762392923376 4.5082198611229005 7.8385324403382883 2.3384332619036861 7.8385324403382883 2.6439091367215948 0.23999690506924312 3.046505712236117 2.1757865879480489 3.046505712236117 5.1330238041952612 8.8426062098112759 2.1757865879480489 8.8426062098112759 2.9115917454806395 0.4857146785068287 3.537941259111276 2.1757865879481324 3.537941259111276 5.1330238041952372 7.6140173426234572 2.1757865879481324 7.6140173426234572 1.4372851048552926 0.10196777343765374 2.2245877207926017 0.61180664062552581 2.2245877207926017 4.041304347834588 5.5614693019808428 0.61180664062552581 5.5614693019808428 0.61180664062512924 0.066250232514913077 2.6239262004534356 0.69918884858648933 2.6239262004534356 4.9828514708472191 7.0626279236286074 0.69918884858648933 7.0626279236286074 1.0008763020835003 0.066250232514913077 2.9136001134964826 0.39328552827392471 2.9136001134964826 5.5621992969333132 7.2769738390486172 0.39328552827392471 7.2769738390486172 0.38906966145837102 0.24433942438937298 3.4467498435094237 1.2098475167403073 3.4467498435094237 5.9161419894613552 8.1898928927803425 1.2098475167403073 8.1898928927803425 0.95365848714437718 0.40651553116026118 3.4678490377275981 1.5018410063237866 3.4678490377275981 5.309635950814152 7.1075356265893621 1.5018410063237866 7.1075356265893621 0.56458882568600621 0.38808942438930477 3.7535874038951382 1.4465626860109175 3.7535874038951382 5.9548171102330576 7.9140120758629937 1.4465626860109175 7.9140120758629937 0.56458882568600621 0.26276553116032941 2.9781751246849151 1.3764943266365559 2.9781751246849151 4.9052881247285125 7.1119397111699199 1.3764943266365559 7.1119397111699199 1.1763954663111356 0.094547525207762578 2.8491382565851868 1.4976251395081497 2.8491382565851868 5.3200864123393234 8.6734122885655918 1.4976251395081497 8.6734122885655918 2.4279651277697241 0.094547525207762578 3.1817982807393799 1.4272426525288391 3.1817982807393799 5.9854064606477095 9.3877582039855572 1.4272426525288391 9.3877582039855572 2.2872001538111029 0.16079775772267565 2.9570759304662393 1.2651258370527803 2.9570759304662393 5.2709608300417763 7.8932553106934753 1.2651258370527803 7.8932553106934753 1.5654651277695066 0.26677140837252 2.6859748395382281 3.2145373417344723 2.6859748395382281 4.3048640455863758 9.4047852513444887 3.2145373417344723 9.4047852513444887 4.8284462332338238 0.14544937986148054 2.4583501417822688 2.3994346680504188 2.4583501417822688 4.3349027641186151 8.6904393359248981 2.3994346680504188 8.6904393359248981 3.9261730569319546 0.32269746460564919 3.3672396591935545 3.8662936342388456 3.3672396591935545 5.4436894599645127 11.634947225658806 3.8662936342388456 11.634947225658806 5.7964024808437973 0.36929778784774958 3.2579053337819834 3.5258780351613468 3.2579053337819834 5.0386195161729681 10.32824884791304 3.5258780351613468 10.32824884791304 4.8359693432361972 0.24797575933671015 3.2324545490691921 2.8361220411648382 3.2324545490691921 5.4730060607915432 10.32824884791394 2.8361220411648382 10.32824884791394 4.1843895263094151 0.14544937986148054 2.7450126334772484 2.2553660667430564 2.7450126334772484 4.9082277475085752 9.1669812296500766 2.2553660667430564 9.1669812296500766 3.6380358543172298 0.34252328454447273 3.5339476278280606 2.7565425623698312 3.5339476278280606 5.6978021174782301 10.003873828075143 2.7565425623698312 10.003873828075143 3.4579454174728261 0.12132202851103943 2.2954449442733909 3.0918410625653641 2.2954449442733909 4.1056017745026239 9.6784605131820225 3.0918410625653641 9.6784605131820225 5.4557499540644905 0.10252637947522961 3.1379891069293397 2.7289148924299669 3.1379891069293397 5.8658726959577612 11.367900459954331 2.7289148924299669 11.367900459954331 4.8426715080085572 0.19707390468299218 3.513727845410461 2.350298275953822 3.513727845410461 6.2391600720889535 10.730744359952599 2.350298275953822 10.730744359952599 3.5181531238096904 0.10252637947522961 3.37664256852127 2.5498504179217445 3.37664256852127 6.3431796191416217 11.666093323087118 2.5498504179217445 11.666093323087118 4.4845425589921115 0.26332413719786152 3.9337283104400793 2.5858931602212798 3.9337283104400793 6.8141600720887121 11.510901337823716 2.5858931602212798 11.510901337823716 3.5918414972553907 0.40707413719772079 4.3509181975925451 2.9819411674681966 4.3509181975925451 7.0735398463942065 11.776456067784482 2.9819411674681966 11.776456067784482 3.5214375117500687 0.30334320953222371 3.9976322232255463 3.9056744932922203 3.9976322232255463 6.7818916083221978 13.470105951561994 3.9056744932922203 13.470105951561994 5.9912897293910978 0.10252637947522961 3.6641425685211488 2.7186004179200975 3.6641425685211488 6.9181796191413794 12.666093323084073 2.7186004179200975 12.666093323084073 4.8220425589888176 0.20137543609460973 3.4253533276056416 3.5107767706764417 3.4253533276056416 6.0452049108328438 12.400923575862075 3.5107767706764417 12.400923575862075 5.8133009247852261 0.10196777343761397 4.0000000000002274 3.3059033203081718 4.0000000000002274 7.5921289062499993 14.490161132804715 3.3059033203081718 14.490161132804715 5.9999999999906608 0.20449415291284356 3.9977680025491233 3.2925626150440981 3.9977680025491233 7.1775593934468729 13.437082835651204 3.2925626150440981 13.437082835651204 5.358160312611135 0.27074438542771284 4.3342040144538627 3.1939183688774517 4.3342040144538627 7.5854304871968736 13.451263463319947 3.1939183688774517 13.451263463319947 4.7633704251886275 0.41449438542757211 4.6217040144535808 3.4564183688789809 4.6217040144535808 7.5854304871968736 13.170013463323201 3.4564183688789809 13.170013463323201 4.4258704251925298 0.16877661199009891 4.0005785804258878 2.6199561717534512 4.0005785804258878 7.3260507128913801 12.680273950752817 2.6199561717534512 12.680273950752817 4.2272526715663092 0.066250232514869306 4.0028105778769918 2.0332968770184414 4.0028105778769918 7.7406202256945065 12.733352247907856 2.0332968770184414 12.733352247907856 3.6690923589476672 0.47833013390361456 4.7007149474058956 2.5967154786165327 4.7007149474058956 7.488109359197332 11.296345160506148 2.5967154786165327 11.296345160506148 2.3234501538113781 0.17808919187447225 3.81352928730601 1.7691598145525633 3.81352928730601 6.9147018071141311 10.701530990441242 1.7691598145525633 10.701530990441242 2.4697844778582931 0.3880894243892008 4.5202335283770676 2.5965318727337934 4.5202335283770676 7.488109359197332 11.74724269827365 2.5965318727337934 11.74724269827365 2.8645271991323815 0.24433942438934156 4.1030436412246019 2.2004838654868766 4.1030436412246019 7.2287295848918376 11.481687968312883 2.2004838654868766 11.481687968312883 2.934931184637704 0.41812180057045256 4.4132149474063134 1.9848404786166325 4.4132149474063134 7.1539426925308174 10.159886827172313 1.9848404786166325 10.159886827172313 1.4609501538105498 0.083541666666709674 4.0100694444445661 1.0367708333325343 4.0100694444445661 7.6859722222222935 10.917708333331875 1.0367708333325343 10.917708333331875 1.5722916666648101 0.49107107593303795 4.4274097220898563 1.9530633047045745 4.4274097220898563 6.8905351404475601 9.4129190537352176 1.9530633047045745 9.4129190537352176 0.95970015381092089 0.14979189918157898 4.1698939112104112 1.9345468770199226 4.1698939112104112 7.7406202256945065 12.151060581243442 1.9345468770199226 12.151060581243442 2.9703423589503712 0.26163085854116958 3.943219174458894 1.5533328217995803 3.943219174458894 6.83991491475311 9.8306273870681729 1.5533328217995803 9.8306273870681729 1.5368804923521429 0.083541666666709674 3.8803795572918189 1.5032228260856093 3.8803795572918189 7.4265924479167991 11.370903603371797 1.5032228260856093 11.370903603371797 2.5051956521709604 0.167083333333407 4.0100694444447029 0.98739583333328917 4.0100694444447029 7.351805555555778 9.9999999999998366 0.98739583333328917 9.9999999999998366 0.97229166666613653 0.1497918991816104 3.3136001134952329 0.64391052827401674 3.3136001134952329 6.0280326302640237 7.8592655057120053 0.64391052827401674 7.8592655057120053 0.38906966145837102 0.083541666666697323 3.6429861111112833 0.48614583333334588 3.6429861111112833 6.9518055555557776 9.0822916666668121 0.48614583333334588 9.0822916666668121 0.47104166666650782 0.1780891918744599 3.4692982807393964 1.2466176525288222 3.4692982807393964 6.2262397939809535 8.9700498706519287 1.2466176525288222 8.9700498706519287 1.424700153810885 0.083541666666697323 3.3361485507252047 0.68068066406253136 3.3361485507252047 6.3381304347836203 8.6394224835835907 0.68068066406253136 8.6394224835835907 0.86011132812487889 0.094547525207762578 3.3589459539727118 1.6991598145527289 3.3589459539727118 6.3397018071143734 10.283822657108704 1.6991598145527289 10.283822657108704 2.8310344778588825 0.47833013390368673 4.1144278380309256 1.7172848145540633 4.1144278380309256 6.3155351404471052 8.3649096136305534 1.7172848145540633 8.3649096136305534 0.56458882568600621 0.4235742753631061 4.6800652173929542 1.7189034901515903 4.6800652173929542 7.6658333333334845 10.329259440103975 1.7189034901515903 10.329259440103975 0.89636132812454361 0.26708333333382306 4.3670833333343886 1.0518750000012835 4.3670833333343886 7.6658333333334845 9.9999999999998792 1.0518750000012835 9.9999999999998792 0.50124999999962883 0.49652355072569143 4.6942599920764962 1.6871263162395316 4.6942599920764962 7.4024257812502272 9.5822916666668796 1.6871263162395316 9.5822916666668796 0.39511132812491473 0.62530070408284466 4.3484245285748617 2.572595946300277 4.3484245285748617 6.1956462408183448 8.9057141911091691 2.572595946300277 8.9057141911091691 1.3933876681034869 0.62530070408276006 4.7676283046165491 3.2014016103628951 4.7676283046165491 7.034053792902057 11.001733071318595 3.2014016103628951 11.001733071318595 2.6509989962292293 0.63804164611219583 4.6614064126337915 2.8083744364507881 4.6614064126337915 6.7706462408187997 9.9537236312138351 2.8083744364507881 9.9537236312138351 1.7884989962284012 0.79865716438303103 5.2385827695767961 3.3138298987323491 5.2385827695767961 7.2825368816214677 10.632935111332262 3.3138298987323491 10.632935111332262 1.8357168111665125 0.89732926583234607 5.2319914256007678 3.4122905390178371 5.2319914256007678 6.8746657878721518 9.793836804041522 3.4122905390178371 9.793836804041522 1.4406054830415975 0.78591622235368008 4.7216653386432084 2.7721480882697804 4.7216653386432084 6.2996657878716968 8.5652479368541883 2.7721480882697804 8.5652479368541883 0.82879884241748047 0.61298188405982634 5.0942599920780243 2.0365013162419361 5.0942599920780243 7.7365924479167427 10.000000000000025 2.0365013162419361 10.000000000000025 0.39511132812491473 0.86681702898732294 5.3979947350583597 2.9063544072740273 5.3979947350583597 7.3287213541674268 9.6707405598960481 2.9063544072740273 9.6707405598960481 0.61180664062411727 0.768144927538008 5.4045860790343871 2.8078937669885402 5.4045860790343871 7.7365924479167427 10.50983886718679 2.8078937669885402 10.50983886718679 1.0069179687490322 0.78591622235359526 5.3448046615595528 3.7068570726444561 5.3448046615595528 7.545944433704725 11.680944551437022 3.7068570726444561 11.680944551437022 2.6982168111673399 0.68908933262429706 4.9438661256993939 4.0664949252285183 4.9438661256993939 7.1313749209015986 12.246263530053042 4.0664949252285183 12.246263530053042 3.9984538547112538 0.84172599662766523 5.4564242101076932 4.2512280812420231 5.4564242101076932 7.545944433704725 12.309180694395954 4.2512280812420231 12.309180694395954 3.4521001827180555 0.5713361415287066 4.4524144231068785 3.4210324149469349 4.4524144231068785 6.6194842800989315 11.119395334058355 3.4210324149469349 11.119395334058355 3.4140479807216302 0.76189118009227197 4.8394698206354141 4.6289759035798177 4.8394698206354141 6.6313749209017399 12.194722589965512 4.6289759035798177 12.194722589965512 4.6866047266060038 0.71555061761917083 4.9738164788368486 4.9300383276888589 4.9738164788368486 7.085430487197014 13.49576556704851 4.9300383276888589 13.49576556704851 5.5667729496626919 0.60096654358895063 4.9946483307763376 4.5454715392146428 4.9946483307763376 7.5854304871968736 14.052741289742411 4.5454715392146428 14.052741289742411 5.4851438168955813 0.56054486921605573 4.9138049820305483 4.0009729833592882 4.9138049820305483 7.5854304871968736 13.347352068514626 4.0009729833592882 13.347352068514626 4.6386767514222402 0.86302423814410001 5.4760484762882697 5.5433790329537551 5.4760484762882697 7.5000000000001403 14.298843864202603 5.5433790329537551 14.298843864202603 5.9086126370429106 0.90936480061720115 5.3417018180868352 5.2423166088447148 5.3417018180868352 7.0459444337048653 12.997800887119602 5.2423166088447148 12.997800887119602 5.0284444139862234 0.73332325584035418 3.8115843749135023 4.9186832515169945 3.8115843749135023 4.6898757264655879 10.393533798075206 4.9186832515169945 10.393533798075206 5.4374269679918648 0.57303552139032798 4.0554443183720119 3.4312286941160286 4.0554443183720119 5.8187465511827119 10.126970072220129 3.4312286941160286 10.126970072220129 3.4242442598900888 0.84251346417517003 4.3076302807446636 4.9036133892666829 4.3076302807446636 5.2452067047886466 10.516630042221095 4.9036133892666829 10.516630042221095 4.7521459934823458 0.69503984365039961 4.3053982832935596 4.2902726840010299 4.3053982832935596 5.8306371919855202 10.963551745064953 4.2902726840010299 10.963551745064953 4.4103063060996615 0.88501259180478509 4.1588288994691327 4.6234749569633422 4.1588288994691327 4.7776074317191251 9.2527379255638849 4.6234749569633422 9.2527379255638849 3.9368743630979752 0.58584963531558376 3.8093523774623987 4.3053425462513406 3.8093523774623987 5.2753062136624624 10.84045550091906 4.3053425462513406 10.84045550091906 5.0955872806091786 0.73522863086568147 4.187012921864528 3.0564334533904276 4.187012921864528 5.4331113202663301 8.209301751655218 3.0564334533904276 8.209301751655218 1.7014951215867671 0.80418904349015685 3.7860062052351315 3.2166048908107179 3.7860062052351315 4.3552562365096357 6.7841332295374563 3.2166048908107179 6.7841332295374563 1.6080755206804951 0.61425914191503017 4.0576763158227518 2.9758193993814772 4.0576763158227518 5.6583160639853833 8.961298369375708 2.9758193993814772 8.961298369375708 2.2660839472727732 0.60668416745747988 3.6672778651530518 2.2564006419570828 3.6672778651530518 4.907819060476184 6.862020724902969 2.2564006419570828 6.862020724902969 0.87269627916928649 0.84494229448279889 4.6028735666822147 2.9492263046571368 4.6028735666822147 5.8259779554332329 7.9731381463061082 2.9492263046571368 7.9731381463061082 0.82879884241748047 0.64710584183036124 3.4659655254075203 2.3776656650757269 3.4659655254075203 4.3435076834935957 6.156631503674733 2.3776656650757269 6.156631503674733 0.87269627916928649 0.85052960596319882 4.2213152355250996 3.7700259994385847 4.2213152355250996 5.0405120471974039 8.3313686949117347 3.7700259994385847 8.3313686949117347 2.4368743630979757 0.90873966362901548 3.89547630997196 3.0939086116426506 3.89547630997196 4.1559939654278582 5.8078084913774966 3.0939086116426506 5.8078084913774966 0.73537924151120859 1.427177687991672 5.0626678766145625 5.277843201692713 5.0626678766145625 4.4166250012624371 7.1812981477742088 5.277843201692713 7.1812981477742088 1.9926202754353943 1.1400160420441594 4.8285810282144093 4.6762081140427005 4.8285810282144093 5.0970978882521809 8.4649723401655965 4.6762081140427005 8.4649723401655965 2.5123199758204442 1.0330444680056783 4.289165268322467 3.4668230247726388 4.289165268322467 4.4461526646222218 6.1705068653704505 3.4668230247726388 6.1705068653704505 0.73537924151120859 1.1361281104253083 5.10066925463674 4.2968546984305425 5.10066925463674 5.6568260675722462 8.5518165297230038 4.2968546984305425 8.5518165297230038 1.7769407343092354 1.2881964365265082 4.8112318241051302 5.228589068052826 4.8112318241051302 4.4696779021042268 7.8604303084191196 5.228589068052826 7.8604303084191196 2.7279995169466034 1.261865873579858 5.291672564094287 4.2596685666854519 5.291672564094287 5.5358816338691419 7.7099702855795567 4.2596685666854519 7.7099702855795567 0.94814189189175502 1.0096687732323431 4.7952501852871903 3.443405740905769 4.7952501852871903 5.5518252776450083 7.630447299070827 3.443405740905769 7.630447299070827 0.82879884241748047 1.4047350566638732 5.2710203901813895 4.6882761159374979 5.2710203901813895 4.9231005537072869 6.9439939353772377 4.6882761159374979 6.9439939353772377 0.94814189189175502 1.0135567048511942 4.5231619588648604 3.8227591565179275 4.5231619588648604 4.992097098324944 7.5436031095134215 3.8227591565179275 7.5436031095134215 1.5641780839286892 1.3456689826796513 4.8339694990226567 6.6581118900741707 4.8339694990226567 4.2852630673267083 9.7250870708837471 6.6581118900741707 9.7250870708837471 5.2422098840704345 1.4787559207329095 5.3374583209148492 7.1144543666910209 5.3374583209148492 4.7598929588980603 10.413510539443065 7.1144543666910209 10.413510539443065 5.3563732089845857 1.1916151368724712 5.0544979222334465 6.3813234549681557 5.0544979222334465 5.3425352969770072 11.355632528472498 6.3813234549681557 11.355632528472498 5.6129560887014858 1.0390404356650684 4.785005790885327 5.5309171100976124 4.785005790885327 5.4138498391103811 10.790305304058654 5.5309171100976124 10.790305304058654 4.8275916062048143 1.0815395632946836 4.636204409609797 5.2507786777942727 4.636204409609797 4.9462505660408596 9.5264131874014453 5.2507786777942727 9.5264131874014453 4.0123199758204446 1.3500632894047055 5.1208108344800554 6.9561372809345894 5.1208108344800554 4.8413685113412894 10.894956327044065 6.9561372809345894 10.894956327044065 5.8118948254409455 1.2297199577770321 4.618855205500517 5.8031596318043981 4.618855205500517 4.3188305798929054 8.9218711556549675 5.8031596318043981 8.9218711556549675 4.2279995169466025 1.2502625475738744 5.671792743636253 6.4420763637702674 5.671792743636253 6.3425352969770072 12.413650322969001 6.4420763637702674 12.413650322969001 5.3825774420972898 1.0976878463664717 5.4023006122881334 5.591670018899725 5.4023006122881334 6.4138498391103811 11.848323098555158 5.591670018899725 11.848323098555158 4.5972129596006184 1.1505726910263339 6.0741175989050298 5.2380814912965601 6.0741175989050298 7.545944433704725 12.409702905826837 5.2380814912965601 12.409702905826837 3.5727268364351161 1.2373859988991152 5.9316969173533511 5.6666890405487225 5.9316969173533511 6.9138498391102408 11.899864038640096 5.6666890405487225 11.899864038640096 3.9090620877027535 1.389960700106518 6.2011890487014689 6.5170953854192657 6.2011890487014689 6.8425352969768669 12.465191263053939 6.5170953854192657 12.465191263053939 4.6944265701994246 1.2753198080048171 6.0075645355647547 5.3402146218966502 6.0075645355647547 6.9138498391102408 11.166070962024799 5.3402146218966502 11.166070962024799 3.0285103957643975 1.446016575317786 6.6293480964212481 6.9766811955407793 6.6293480964212481 7.4746298915713512 13.741006480443225 6.9766811955407793 13.741006480443225 5.2772629391748431 1.0057114950152513 5.5343952068829356 5.5916700188989523 5.5343952068829356 7.0459444337048653 13.098323098553079 5.5916700188989523 13.098323098553079 5.149071067706398 1.0014603638507702 5.7758929445539025 5.3780885392955344 5.7758929445539025 7.545944433704725 13.388609621702944 5.3780885392955344 13.388609621702944 4.7474148954864477 1.0066234073292093 5.7862190315107807 4.949480990044143 5.7862190315107807 7.545944433704725 12.648448488891766 4.949480990044143 12.648448488891766 3.8592215361130311 1.4618316554527029 6.024474295044163 4.8595659123039869 6.024474295044163 6.2016219682775144 8.5421457035900232 4.8595659123039869 8.5421457035900232 0.94814189189175502 1.4663006267147189 6.6165539561321953 5.7342784901503183 6.6165539561321953 7.3679054054055158 11.435509440100498 5.7342784901503183 11.435509440100498 2.6707532200123225 1.178092891394994 5.9979784554025741 4.4491162464345049 5.9979784554025741 7.2835853452251715 10.629210968614002 4.4491162464345049 10.629210968614002 1.8296751444990451 1.1734880229392679 5.4687858743192219 4.4089344359724212 5.4687858743192219 6.2436196568813713 9.2853085163594109 4.4089344359724212 9.2853085163594109 1.7769407343092354 1.2992257860938179 5.6597891837767698 4.3717483042273315 5.6597891837767698 6.122675223178268 8.4434622722159638 4.3717483042273315 8.4434622722159638 0.94814189189175502 1.1885065001320361 6.1499852171164342 4.9116070726444878 6.1499852171164342 7.545944433704725 11.675909829211539 4.9116070726444878 11.675909829211539 2.6921751444967597 1.0866747150664866 5.6112065558709006 3.9803268867202588 5.6112065558709006 6.8757142514758556 9.7951473835461513 3.9803268867202588 9.7951473835461513 1.4406054830415975 1.2649061992677753 5.8555577738508937 4.8777237956866673 5.8555577738508937 6.6514907506306873 10.119372101427262 4.8777237956866673 10.119372101427262 2.166010395766683 1.4521628752594027 6.2926367346567522 5.025094402452809 6.2926367346567522 6.7766219682758937 9.5851204214692025 5.025094402452809 9.5851204214692025 1.3372115533492026 1.0103260869587214 5.8167166270427852 3.3368815811882229 5.8167166270427852 7.592128906250684 10.000000000000121 3.3368815811882229 10.000000000000121 0.61180664062411727 1.1561624782213249 5.9772098653282155 3.7743907549760336 5.9772098653282155 7.3297698177711315 9.6720511394006792 3.7743907549760336 9.6720511394006792 0.61180664062411727 1.2475806545498322 6.3639817648598882 4.2431801146902792 6.3639817648598882 7.7376409115204474 10.50611472446853 4.2431801146902792 10.50611472446853 1.0008763020815648 1.3924176110712345 6.6536556779026927 4.3717876639424276 6.6536556779026927 7.7376409115204474 9.9962758572817663 4.3717876639424276 9.9962758572817663 0.38906966145744748 1.6986244633309124 6.9241877404760963 6.5074379953566091 6.9241877404760963 7.0538776276285438 11.169954710142134 6.5074379953566091 11.169954710142134 2.8231292107277444 1.7597452641888618 6.5751296074811716 6.1833624025738887 6.5751296074811716 6.111278158206896 9.145975381104126 6.1833624025738887 9.145975381104126 1.8082532200146075 1.6812383197446188 6.7249532789784752 5.9888275718451389 6.7249532789784752 6.7249532789784743 9.9813792864085649 5.9888275718451389 9.9813792864085649 1.8902252252225658 1.5278195395517238 6.5751296074811707 5.4875852286624749 6.5751296074811707 7.0389810567554463 10.305604004289815 5.4875852286624749 10.305604004289815 1.808253220014608 1.5101865239080237 6.7247313292512363 4.725094402452795 6.7247313292512363 7.4087165628703779 9.5851204214691794 4.725094402452795 9.5851204214691794 0.38906966145744748 1.5858431882003448 7.0072242020756548 5.18758522866246 7.0072242020756548 7.6710756513499305 10.305604004289791 5.18758522866246 10.305604004289791 0.86011132812285296 1.7392619683932398 7.3140617624614448 5.4533067385124223 7.3140617624614448 7.6710756513499305 9.9813792864085844 5.4533067385124223 9.9813792864085844 0.47104166666540537 1.8521791407175829 6.7206008944686575 5.7510722528814728 6.7206008944686575 6.0324852260669832 7.8648312504649356 5.7510722528814728 7.8648312504649356 0.38906966145744737 1.9177689128374826 7.3140617624614448 5.9888275718451514 7.3140617624614448 6.9570478735729591 9.0888445641873705 5.9888275718451514 9.0888445641873705 0.47104166666540537 1.9177689128374826 7.0072242020756548 6.1833624025738736 7.0072242020756548 6.3433727528013799 8.6459753811041011 6.1833624025738736 8.6459753811041011 0.86011132812285263 1.8392619683932399 7.3570478735729594 5.9888275718451247 7.3570478735729594 7.3570478735729594 9.9813792864085418 5.9888275718451247 9.9813792864085418 0.94208333333081073 1.9351550564237765 7.5836063368066196 7.2738899881085466 7.5836063368066196 7.426592447918134 11.730615257959698 7.2738899881085466 11.730615257959698 2.9368496376744355 1.921493055555757 7.685972222223028 6.5355208333320132 7.685972222223028 7.685972222223028 10.892534722220022 6.5355208333320132 10.892534722220022 1.5420833333294843 1.8566481119795335 7.5562823350705806 6.8074379953559312 7.5562823350705806 7.685972222223028 11.669954710141004 6.8074379953559312 11.669954710141004 2.4749873188346627 1.5725242210401593 6.8823633878659942 7.1878454487625865 6.8823633878659942 7.4746298915713512 13.460408673867704 7.1878454487625865 13.460408673867704 4.9405455712842183 1.9351550564237765 7.740620225695106 7.6383691547743071 7.740620225695106 7.740620225695106 12.730615257957179 7.6383691547743071 12.730615257957179 3.6658079710059552 1.6602183458284134 6.6120144529928133 7.1947116313933721 6.6120144529928133 6.5831555226719729 11.919038726520185 7.1947116313933721 11.919038726520185 4.4281131878162636 1.7250632894046369 6.4542043401462159 7.3540444693683105 6.4542043401462159 6.0081555226738841 11.141618738599687 7.3540444693683105 11.141618738599687 4.3577092023087989 1.8182419944770345 7.0401735007125925 7.9602007618269441 7.0401735007125925 6.8073790235170462 12.68501507672271 7.9602007618269441 12.68501507672271 5.0109495567916813 1.883086938053258 6.8823633878659951 8.1195335998018834 6.8823633878659951 6.2323790235189573 11.907595088802212 8.1195335998018834 11.907595088802212 4.9405455712842175 1.5164683458288912 6.4542043401462159 6.7282596386410738 6.4542043401462159 6.8425352969768669 12.184593456478417 6.7282596386410738 12.184593456478417 4.3577092023087989 1.5548744633313902 6.7937016293655379 6.2719171620241978 6.7937016293655379 7.3679054054055158 11.888704710140273 6.2719171620241978 11.888704710140273 3.2145875440600538 1.7162742210396815 6.9659278409903331 7.9533345791958823 6.9659278409903331 7.0667587978219402 13.507635024072155 7.9533345791958823 13.507635024072155 5.6090238321536763 1.8419763513513789 6.7937016293655379 7.1332228260841628 6.7937016293655379 6.2194978533255609 10.453195270040329 7.1332228260841628 10.453195270040329 3.2145875440600529 1.7771314077751554 6.9515117422121353 6.9738899881092244 6.9515117422121353 6.7944978533236497 11.230615257960824 6.9738899881092244 11.230615257960824 3.2849915295675172 1.8331872829864235 7.4624390190981416 8.0969921025774951 7.4624390190981416 7.592128906250589 13.819211555510279 8.0969921025774951 13.819211555510279 5.1948605072364504 1.9351550564237765 7.5366846788204001 8.1038582852085561 7.5366846788204001 7.332749131945695 12.996591608160832 8.1038582852085561 12.996591608160832 4.5967862318744555 1.6037559207328409 5.7053365351353067 7.2494702390711971 5.7053365351353067 4.9956493873392498 10.308232528961854 7.2494702390711971 10.308232528961854 4.8764049537453502 1.6367795693815304 5.586847736912139 7.7492650433889088 5.586847736912139 4.6265771962981566 10.514765387446555 7.7492650433889088 10.514765387446555 5.6778526704886341 1.7250632894046369 6.2011890487014689 7.5224031533136237 6.2011890487014689 5.502124939784391 10.789678316563343 7.5224031533136237 10.789678316563343 4.6944265701994246 1.878692631328204 6.0567683947957507 7.5302810827652493 6.0567683947957507 4.5987662642786855 8.9054631449827522 7.5302810827652493 8.9054631449827522 3.7884063775612749 1.883086938053258 6.6293480964212481 8.2878922837471958 6.6293480964212481 5.7263484406294642 11.555654666765866 8.2878922837471958 11.555654666765866 5.2772629391748431 1.7206689826795829 5.9143477132440712 7.2243777624532051 5.9143477132440712 4.9460194957698107 9.6198090604030249 7.2243777624532051 9.6198090604030249 4.1247416288289127 1.7206689826795829 5.80737897879846 6.8954704060673615 5.80737897879846 4.7320820268785884 8.8042082969792563 6.8954704060673615 8.8042082969792563 3.4669269160572265 1.878692631328204 5.7585437404446225 8.1176251122909147 5.7585437404446225 4.00231695557643 9.1388082249810427 8.1176251122909147 9.1388082249810427 4.9630944366126064 1.7536926313282724 5.5833589150202645 8.0429225667708248 5.5833589150202645 4.1519473047274404 9.8263419188859817 8.0429225667708248 9.8263419188859817 5.5636893455720173 1.878692631328204 5.7688698274015007 7.6735284326042059 5.7688698274015007 4.0229691294901864 8.4244623095620579 7.6735284326042059 8.4244623095620579 4.0749010772391898 1.7763865792314792 6.1277567354814382 6.3036688346810976 6.1277567354814382 5.1499671540369594 8.0616407708572986 6.3036688346810976 8.0616407708572986 1.9490181939733193 1.8419763513513789 6.283893931977877 6.9316881510396531 6.283893931977877 5.1998824585502392 8.8427849014969944 6.9316881510396531 8.8427849014969944 2.8115181939710339 1.5306688057944975 5.6350065750812934 5.0660773633293701 5.6350065750812934 5.1473379269845969 7.2242906519738748 5.0660773633293701 7.2242906519738748 0.94814189189175502 1.5504054920693673 6.0203438602615842 5.1252874221539795 6.0203438602615842 5.8390657522456992 8.0889504335502522 5.1252874221539795 8.0889504335502522 0.94814189189175502 1.8419763513513789 6.6165539561321953 6.8613056640602972 6.6165539561321953 5.8652025068588758 9.557130816917196 6.8613056640602972 9.557130816917196 2.6707532200123221 1.6941554920689621 6.2885062998741734 5.751072252881487 6.2885062998741734 5.8003906314724993 8.3648312504649596 5.751072252881487 8.3648312504649596 1.3372115533492024 1.618701209242196 5.3806173449671455 6.1583170857563436 5.3806173449671455 4.2864298529655063 7.5283930795898089 6.1583170857563436 7.5283930795898089 2.6044269160595115 1.6744188057940923 5.7203326620368689 5.803230683640213 5.7203326620368689 4.7429901008973676 7.2286947365516028 5.803230683640213 7.2286947365516028 1.5599485325158722 1.9344102278801003 6.6495252431201139 5.9977655143690249 6.6495252431201139 5.5614095747198267 7.2759866862809899 5.9977655143690249 7.2759866862809899 0.38906966145744737 1.8980322265626131 5.7960644531298868 5.999999999999897 5.7960644531298868 4.0000000000093223 5.5098388671984164 5.999999999999897 5.5098388671984164 0.61180664062411705 1.9344102278801003 6.3598513300773094 6.3036688346810834 6.3598513300773094 4.9820617486342176 7.061640770860742 6.3036688346810834 7.061640770860742 1.0008763020815645 1.8324424544427134 5.9524272566327392 5.8032306836401979 5.9524272566327392 4.5750846954946249 6.2286947365550454 5.8032306836401979 6.2286947365550454 0.61180664062411705 1.6747008051925834 5.1098927708424302 6.1590881144308618 5.1098927708424302 3.5209823209145275 6.2928707325650137 6.1590881144308618 6.2928707325650137 2.2699713977062248 1.8980322265626131 5.5090463371870664 6.1975556640623557 5.5090463371870664 3.425963768123681 5.1215530174454615 6.1975556640623557 5.1215530174454615 1.0069179687490317 1.8317819940477724 5.178282576349873 5.6929016462057751 5.178282576349873 3.0294371765086567 4.1160559107399166 5.6929016462057751 4.1160559107399166 0.39511132812491473 1.7960081738643794 5.2062271684662029 6.1983266927368881 5.2062271684662029 3.2284216414748892 5.3860306704165284 6.1983266927368881 5.3860306704165284 1.6206043422874998 1.8979759473017663 5.2079888022962812 6.9354800130494629 5.2079888022962812 2.8240738153854972 5.5993458878054785 6.9354800130494629 5.5993458878054785 2.4831043422883279 1.8979759473017663 4.8647460486725054 6.8802016927372183 4.8647460486725054 2.137588308137945 4.6491084698922975 6.8802016927372183 4.6491084698922975 2.3725477016638394 1.8317257147869257 4.7568083747927883 6.2502009951922819 4.7568083747927883 2.1867138904378747 3.9917654477665199 6.2502009951922819 3.9917654477665199 1.5100477016630114 1.5860079413494683 4.5624815235703107 5.0648670108176397 4.5624815235703107 2.7809312817427476 3.9875694134604913 5.0648670108176397 3.9875694134604913 0.61368637353846811 1.729757941349539 4.8754634076290104 5.6936726748803084 4.8754634076290104 2.831895049859865 4.3805335637109835 5.6936726748803084 4.3805335637109835 1.0087977016633829 1.6044340481202071 4.2767431574007198 5.120145331129855 4.2767431574007198 2.1357501223206117 3.1810929641828212 5.120145331129855 3.1810929641828212 0.61368637353846811 1.9337497674851596 5.0925442101810656 5.9988049665179366 5.0925442101810656 2.450089350421492 3.3918711281309606 5.9988049665179366 3.3918711281309606 0.39511132812491473 1.8144342806350704 4.2296812963105674 6.7194902153970677 4.2296812963105674 1.2016254700808529 3.6290107934208282 6.7194902153970677 3.6290107934208282 2.5523747469837144 1.5748612183937067 3.6180347067980283 5.4808025394948583 3.6180347067980283 0.93662454002122986 2.4311454822161012 5.4808025394948583 2.4311454822161012 1.5124377686274766 1.9164583333333518 4.3670833333343015 5.9999999999998703 4.3670833333343015 1.0683333333351961 1.7531250000020191 5.9999999999998703 1.7531250000020191 0.50124999999962883 1.6048323926143784 3.510893721906025 6.2726881906989256 3.510893721906025 0.60245787335453693 3.1833906964528227 6.2726881906989256 3.1833906964528227 2.9163820257115818 1.5019119430312511 3.6038399321148464 5.0113297134076422 3.6038399321148464 1.2000320921046881 2.3426965889873417 5.0113297134076422 2.3426965889873417 1.0111877686277779 1.8502081008185114 4.5466456594543043 5.8012493024553491 4.5466456594543043 1.6924589156345629 2.5332819778762277 5.8012493024553491 2.5332819778762277 0.50124999999962883 1.7308926139684222 4.0971808312808786 6.0007710286741638 4.0971808312808786 1.2707912066880687 2.9353109863082487 6.0007710286741638 2.9353109863082487 1.6161863735377957 1.5146528850604741 3.3305347067982165 5.7314275394954386 3.3305347067982165 0.60245787335453693 2.7321871488831984 5.7314275394954386 2.7321871488831984 2.3749377686280324 1.748582392614259 3.9308941869355252 6.7407823774212492 3.9308941869355252 0.86745880341401416 3.5760488368983046 6.7407823774212492 3.5760488368983046 2.9900703991569442 1.9337497674851596 4.8596275435128202 6.2494299665177504 4.8596275435128202 1.9842560170850021 3.227287794793372 6.2494299665177504 3.227287794793372 0.89636132812454361 1.8979759473017663 4.6842646296436774 7.15074021539772 4.6842646296436774 1.7766254700802899 4.6488024600877322 7.15074021539772 4.6488024600877322 2.9136247469848437 1.8506064453124929 3.8337133556547243 7.0400113487460541 3.8337133556547243 0.26500093005947722 2.8115711839219708 7.0400113487460541 2.8115711839219708 2.9763840256171497 1.9164583333333041 4.0000000000000275 6.550624999998913 4.0000000000000275 0.3341666666668387 1.7531249999985494 6.550624999998913 1.7531249999985494 1.602499999998001 1.9164583333333041 4.1325004650297661 7.0187191867218717 4.1325004650297661 0.59916759672631592 2.8645331404444945 7.0187191867218717 2.8645331404444945 2.5386883734439198 1.8329166666666559 4.0000000000000773 5.9999999999996305 4.0000000000000773 0.66833333333353173 1.6708333333330208 5.9999999999996305 1.6708333333330208 1.0024999999993274 1.5039359957292215 3.3066591008335187 4.7105586847323195 3.3066591008335187 0.59757421875015115 1.0782189360121137 4.7105586847323195 1.0782189360121137 0.39750139508930971 1.7329166666663927 3.6329166666661319 5.4493749999990273 3.6329166666661319 0.33416666666669298 0.83541666666644843 5.4493749999990273 0.83541666666644843 0.50124999999969855 1.5768852710916772 3.320853875516701 5.1800315108195356 3.320853875516701 0.33416666666669298 1.166667829240873 5.1800315108195356 1.166667829240873 0.89875139508900825 1.5141933386058959 3.9159027232641432 4.8494232025869222 3.9159027232641432 1.7750320921047029 2.7301954264129353 4.8494232025869222 2.7301954264129353 0.61368637353846811 1.7481840481202775 4.4438264907342724 5.8020203311298806 4.4438264907342724 1.8949167889874354 3.2977596308493751 5.8020203311298806 3.2977596308493751 1.114936373538097 1.3849827151880367 3.4918453453127816 5.1029186326386631 3.4918453453127816 1.4437598298734167 3.3846505991326916 5.1029186326386631 3.3846505991326916 1.8959409741491049 1.242169811364372 2.9049906009881838 4.6735400547109123 2.9049906009881838 0.84130195651887985 2.6300118133449275 4.6735400547109123 2.6300118133449275 1.8940612412355931 1.2441251199826648 3.4003367651000684 4.1747519627086582 3.4003367651000684 1.8241730502694775 3.0175106507712863 4.1747519627086582 3.0175106507712863 0.88475320552132719 1.3977236572173077 3.385623453329595 5.572391458726754 3.385623453329595 1.1803522777899587 3.7741411590288325 5.572391458726754 3.7741411590288325 2.7584409741496612 1.1430381634608369 2.9106628520564048 4.1773944134556524 2.9106628520564048 1.2491730502694625 2.8085995179587311 4.1773944134556524 2.8085995179587311 1.4965598461462832 1.254910753393643 2.7987687090049969 5.1430128807990032 2.7987687090049969 0.57789440443542173 3.019502373241068 5.1430128807990032 3.019502373241068 2.7565612412361489 1.3874776623953433 2.9066591008324156 4.3611836847306851 2.9066591008324156 0.26340755208345812 0.6605106026787475 4.3611836847306851 0.6605106026787475 0.39750139508930971 1.143509057970173 2.6226574388573662 3.7364304942229971 2.6226574388573662 0.67127864583404073 1.3489371744800143 3.7364304942229971 1.3489371744800143 0.61180664062495604 1.2426407058737081 2.6169851877891452 4.2325761354782578 2.6169851877891452 0.26340755208345812 1.1703494698662107 4.2325761354782578 1.1703494698662107 1.0093080357142656 1.3415196369441584 3.9439200369439975 4.7737787003623726 3.9439200369439975 2.5217615261113608 4.4009015568556977 4.7737787003623726 4.4009015568556977 1.4984395790597955 1.4831772839420592 4.7919433024898472 5.2786142303672312 4.7919433024898472 3.6511774692114574 5.945775800749411 5.2786142303672312 5.945775800749411 1.6581647570821074 1.2443206120416783 3.978222350604339 4.8498712464105367 3.978222350604339 2.9791622530419648 5.5854685001116255 4.8498712464105367 5.5854685001116255 2.2338188205710043 1.2532679853010169 4.2825935560109656 4.434336763427889 4.2825935560109656 3.5521151708178644 5.5643653093970613 4.434336763427889 5.5643653093970613 1.3490656150496767 1.3441960324768956 4.5405072499804149 5.229360096727345 4.5405072499804149 3.7042303700532475 6.6249079613943227 5.229360096727345 6.6249079613943227 2.3935439985933162 1.188380646164142 3.5403486655819871 4.0075185412530896 3.5403486655819871 2.3271747465074064 3.6462627710686975 4.0075185412530896 3.6462627710686975 0.88475320552132719 1.3922492367661805 4.5340296085203979 4.483590897067776 4.5340296085203979 3.4990622699760738 4.8852331487521488 4.483590897067776 4.8852331487521488 0.61368637353846811 1.3972641107626815 3.8039081364620788 4.9410121218179421 3.8039081364620788 2.0187598298734315 3.7721494365582853 4.9410121218179421 3.7721494365582853 1.4984395790597955 1.0266053542962406 3.1271504846564921 3.8187678467663648 3.1271504846564921 2.1478795521280221 3.9164357466227662 3.8187678467663648 3.9164357466227662 1.4779035677552859 1.0408193728719402 3.4678433383979095 4.2290995232490678 3.4678433383979095 2.7724091853080584 5.3099138226904854 4.2290995232490678 5.3099138226904854 2.2132828092664947 1.1052920379995896 4.1854127247318438 3.6835657347543731 4.1854127247318438 3.9496572974653299 5.5498876564243362 3.6835657347543731 5.5498876564243362 0.73537924151120859 1.440022758016634 4.3416529899156524 4.6269114608191364 4.3416529899156524 2.9232149477647682 4.165423995988017 4.6269114608191364 4.165423995988017 0.61368637353846811 1.1742762678232153 3.6462017699882412 6.2097543866420368 3.6462017699882412 2.5952984686836214 7.722332391141844 6.2097543866420368 7.722332391141844 5.3738511663447808 1.335248659217557 4.2361360445737883 5.6448945797099928 4.2361360445737883 3.1312774522773483 6.6460111521088887 5.6448945797099928 6.6460111521088887 3.2782972041146436 1.3066477517771458 4.1282297058693391 6.3680714723981549 4.1282297058693391 3.0298684046300948 7.8675492008988162 6.3680714723981549 7.8675492008988162 4.8962564341334369 1.3821186462870769 4.4896408998537014 7.026902357484806 4.4896408998537014 3.4508072145590951 9.1144197159048268 7.026902357484806 9.1144197159048268 5.7610928372471495 1.4546236990789119 4.2254105371501396 6.3688425010726881 4.2254105371501396 2.6323262779846321 6.632026853874045 6.3688425010726881 6.632026853874045 4.009942807671905 1.1872727119157906 4.138955213292987 5.6441235510354595 4.138955213292987 3.528819578922811 7.8815334991336599 5.6441235510354595 7.8815334991336599 4.1646108305761746 1.219339836888335 2.7276268759943809 5.4742556812815568 2.7276268759943809 0.57789440443542173 3.7494282899051967 5.4742556812815568 3.7494282899051967 3.6324723412331035 1.3426028083690378 3.2408775952747382 6.2716536979454229 3.2408775952747382 1.1113439570733248 5.1289220677388379 6.2716536979454229 5.1289220677388379 4.4876905456766183 1.2326739557431921 3.2629971458281952 6.2716536979450979 3.2629971458281952 1.595298468683622 6.2835094703803982 6.2716536979450979 6.2835094703803982 5.1472636614310447 1.4321810677508271 3.7212630507155851 6.2105254153168925 3.7212630507155851 1.7138018304278617 5.3322226414755125 6.2105254153168925 5.3322226414755125 3.8279644241288224 1.0665361102321425 2.6639966784871443 5.6142983026302176 2.6639966784871443 1.061848916045719 5.3517944316134658 5.6142983026302176 5.3517944316134658 4.8293799438675808 1.0753780063359704 2.4397032148896516 5.1856907533766883 2.4397032148896516 0.57789440443542173 3.9882958961589061 5.1856907533766883 3.9882958961589061 3.9191134687375548 1.4411059294414208 3.1489366352017929 6.8902755888361282 3.1489366352017929 0.53344955263790295 4.9450749416504891 6.8902755888361282 4.9450749416504891 5.1339156010237321 1.0170070047420583 2.2759912652892651 5.7733343833992485 2.2759912652892651 0.48395451161029718 5.1421320881346606 5.7733343833992485 5.1421320881346606 5.4446267383461482 1.566856353500633 3.4004374833202173 7.1002934395570625 3.4004374833202173 0.53344955263790295 4.6663525725559847 7.1002934395570625 4.6663525725559847 4.7994487581103265 1.5668000742398784 3.7015538614759769 6.6414786581098122 3.7015538614759769 1.13590742599244 4.655015008140845 6.6414786581098122 4.655015008140845 3.8821568707803538 1.7764019622605707 4.5407581025468184 7.2689056828085539 4.5407581025468184 1.9759083560513542 5.7027184384422638 7.2689056828085539 5.7027184384422638 3.879399592053685 1.7105500742397592 4.1215543265054766 7.1095728448321367 4.1215543265054766 1.4009083560519171 5.0476731485863269 7.1095728448321367 5.0476731485863269 3.9558452442257166 1.8125741269379931 4.2283090420999043 7.8433126857218385 4.2283090420999043 1.2063215764478361 5.5172191454062256 7.8433126857218385 5.5172191454062256 4.8111806098157164 1.7106063535005138 3.8918730301952071 7.8348043091206607 3.8918730301952071 0.94132064638835877 5.6816262223506477 7.8348043091206607 5.6816262223506477 5.4059704972382381 1.8980322265625207 4.0000000000002691 8.6940966796829002 4.0000000000002691 0.40787109375045588 5.5098388671802994 8.6940966796829002 5.5098388671802994 5.999999999990675 1.9341481119791888 4.2047322358633439 8.074522218309653 4.2047322358633439 0.67287202380993305 4.6278865003825578 8.074522218309653 4.6278865003825578 4.5441557647441702 1.8321803385417095 3.8682962239586467 8.0660138417084752 3.8682962239586467 0.40787109375045588 4.7922935773269799 8.0660138417084752 4.7922935773269799 5.1389456521666927 1.9341481119791888 4.0007966889881166 7.6400113487447534 4.0007966889881166 0.26500093005947722 3.3938628505863262 7.6400113487447534 3.3938628505863262 3.6751340256143754 1.8784260149588041 4.6475128181412444 8.0026455236982557 4.6475128181412444 1.7813215764472732 6.1722644352621625 8.0026455236982557 6.1722644352621625 4.7347349576436848 1.7764019622605705 4.832859070123785 7.37530884592341 4.832859070123785 2.5601102912052891 6.6103094625761081 7.37530884592341 6.6103094625761081 4.0922059182833959 1.8784260149588041 4.9396137857182119 8.1090486868131109 4.9396137857182119 2.3655235116012072 7.079855459396005 8.1090486868131109 7.079855459396005 4.9475412838733961 1.8784260149588041 5.0204571344640012 8.5322822195497796 5.0204571344640012 2.5272102090927868 7.9873530524882641 8.5322822195497796 7.9873530524882641 5.7940083493467363 1.6550945935887744 4.7620065565588598 7.1023759316794273 4.7620065565588598 2.903634738762622 7.1913636749751175 7.1023759316794273 7.1913636749751175 4.2741843018262076 1.7766685786299703 5.2487558372794956 7.039488784580838 5.2487558372794956 3.39083736003911 7.087685114533766 7.039488784580838 7.087685114533766 3.4189660973818543 1.8979759473017663 5.3196083508444207 7.3124216988248207 5.3196083508444207 3.047312912481777 6.5066309021347566 7.3124216988248207 6.5066309021347566 3.2369877138390426 1.6321186462870769 4.9896408998540194 7.7769023574835732 4.9896408998540194 3.4508072145597311 9.1144197159035674 7.7769023574835732 9.1144197159035674 5.7610928372446839 1.7571186462870083 5.1648257252783765 7.8516049030036612 5.1648257252783765 3.3011768654087206 8.4268860219986266 7.8516049030036612 8.4268860219986266 5.160497928285273 1.8784260149588041 5.3165215875890919 8.5477713499843126 5.3165215875890919 3.1193391153429664 8.7533294026918753 8.5477713499843126 8.7533294026918753 5.8249866102158023 1.7534260149588727 5.1413367621647339 8.4730688044642264 5.1413367621647339 3.2689694644939769 9.4408630965968161 8.4730688044642264 9.4408630965968161 6.4255815191752133 1.8750000000000684 5.6932891242328232 9.0294714008125005 5.6932891242328232 3.8865782484653737 10.532341811935542 9.0294714008125005 10.532341811935542 6.808942801624589 1.6302460073404403 5.1264595609789554 9.3670061250849912 5.1264595609789554 3.731935092596149 12.125365704184636 9.3670061250849912 12.125365704184636 8.9525362061273395 1.6742410685925044 4.7510941898497432 8.9699678464588057 4.7510941898497432 2.8052241053294695 10.085271199463989 8.9699678464588057 10.085271199463989 7.8944892813625831 1.6514398203567926 4.627356281240175 8.4271858148650196 4.627356281240175 2.64895328105318 9.0993021909742122 8.4271858148650196 9.0993021909742122 6.9457327075892854 1.8750000000000684 5.6829630372759947 9.473568080500689 5.6829630372759947 3.865926074551715 11.246687727357116 9.473568080500689 11.246687727357116 7.6971361610009685 1.7762272631945848 5.2547485838174737 9.4599475157461974 5.2547485838174737 3.4045881148566073 11.141178020508168 9.4599475157461974 11.141178020508168 8.2625314523248878 1.7992410685924358 4.7891775826684464 9.538923042140139 4.7891775826684464 2.3813908909671495 9.8787383409803216 9.538923042140139 9.8787383409803216 8.2823996727256617 1.9012272631945162 5.292831976636176 10.028902711427532 5.292831976636176 2.9807549004942873 10.934645162024502 10.028902711427532 10.934645162024502 8.6504418436879682 1.7764398203567238 4.5818752209330542 8.6619018801115271 4.5818752209330542 2.0579911604392134 8.126792982284611 8.6619018801115271 8.126792982284611 6.6651648380827133 1.8980138053979196 4.8457984146975459 9.3618614126999411 4.8457984146975459 2.0995416078034128 8.7374603372645669 9.3618614126999411 8.7374603372645669 7.3356399930123608 1.6744720469192447 4.0095963253125877 8.2670041574962276 4.0095963253125877 1.3213044629481969 7.0576106065827338 8.2670041574962276 7.0576106065827338 6.4871760334769855 1.8980138053979196 4.321658841993 9.3691550538742163 4.321658841993 1.0512624623943212 7.4392674741269982 9.3691550538742163 7.4392674741269982 7.3502272753609157 1.8980138053979196 4.5723066284526119 10.0527691843097 4.5723066284526119 1.5525580353135455 9.2052438243351666 10.0527691843097 9.2052438243351666 8.7174555362318813 1.8980138053979196 4.6091588419940512 9.5379050538748551 4.6091588419940512 1.6262624623964235 8.4392674741306912 9.5379050538748551 8.4392674741306912 7.6877272753621941 1.8317635728830468 4.152306163421815 9.8171743000418701 4.152306163421815 0.97755803531144325 8.4250868464605198 9.8171743000418701 8.4250868464605198 8.6437671627854584 1.9337497674851269 3.9992033110122676 9.9636822896408592 3.9992033110122676 0.26340755208402722 7.2666477520808321 9.9636822896408592 7.2666477520808321 8.3248659743709581 1.8317635728830468 3.9852228300880261 9.4677993000412126 3.9852228300880261 0.64339136864386548 7.4250868464582842 9.4677993000412126 7.4250868464582842 7.9450171627841435 1.7960460319604405 3.9860195190760281 8.7982136900839993 3.9860195190760281 0.78785491031029409 6.6682779615589984 8.7982136900839993 6.6682779615589984 6.8201511884053563 1.7297957994455673 3.6495835071710538 8.8968579362509939 3.6495835071710538 0.37998381655983821 6.6540973338902845 8.8968579362509939 6.6540973338902845 7.4149410758285832 1.5860457994454986 3.3620835071709165 8.6343579362525062 3.3620835071709165 0.37998381655983821 6.9353473338931479 8.6343579362525062 6.9353473338931479 7.7524410758320199 1.6044719062163377 3.3989357207125948 9.1735221261307505 3.3989357207125948 0.37998381655983821 7.7418237831693606 9.1735221261307505 7.7418237831693606 8.7202128149634746 1.4109434343521556 3.3107436789742741 8.6658028802153773 3.3107436789742741 0.9777136205399255 8.6104296542730889 8.6658028802153773 8.6104296542730889 8.8659451543178189 1.3744382355860922 3.5044580577610986 7.8660903473965771 3.5044580577610986 1.5111631731778286 8.1269133675361189 7.8660903473965771 8.1269133675361189 7.4855512812765994 1.4592998911655068 3.3753164669298843 7.8344617975535744 3.3753164669298843 0.91343336919774121 6.9027285849256002 7.8344617975535744 6.9027285849256002 6.9131242481141086 1.1990853717513088 2.6970356454926612 7.8592904188397492 2.6970356454926612 0.59772980398008735 7.85055276095148 7.8592904188397492 7.85055276095148 8.5240686071716461 1.2179726944993168 2.9446474211227338 6.7326582883356041 2.9446474211227338 1.0174040642482001 6.402988755039674 6.7326582883356041 6.402988755039674 6.1574804096753084 1.2227455775624463 3.2530580892390364 7.1619733369973275 3.2530580892390364 1.6151338682282874 7.8418116758020062 7.1619733369973275 7.8418116758020062 6.987473208619976 1.3522622206272192 3.1933812515244013 8.1347998799858612 3.1933812515244013 0.9777136205399255 8.0188307225152453 8.1347998799858612 8.0188307225152453 8.1560264362084069 1.3696837736875638 3.0060923236940789 7.1922440984570741 3.0060923236940789 0.53344955263790295 5.8054665697880168 7.1922440984570741 5.8054665697880168 6.166385554788766 1.0891565191256511 2.7191551960464944 7.2217904188401292 2.7191551960464944 1.0816843155903846 7.9426401635932731 7.2217904188401292 7.9426401635932731 7.908641722926351 1.4371238762066341 3.0642396606931874 8.1031713301428603 3.0642396606931874 0.37998381655983821 6.7946459399047292 8.1031713301428603 6.7946459399047292 7.5835994030459162 1.0895466795405662 2.4210706148862808 6.3638678209250639 2.4210706148862808 0.48395451161029718 5.7636561100184815 6.3638678209250639 5.7636561100184815 6.1904555646067321 1.2885104625032215 4.3999615665424887 8.1285488647734105 4.3999615665424887 3.6458812830720921 11.662380732613027 8.1285488647734105 11.662380732613027 8.5260349545274927 1.4874116395756105 4.3079568850604915 8.6066986736865037 4.3079568850604915 2.66626721181854 10.240273606372629 8.6066986736865037 10.240273606372629 8.2889275099193451 1.4646103913398987 4.1842189764509232 8.0639166420927211 4.1842189764509232 2.5099963875422509 9.2543045978828538 8.0639166420927211 9.2543045978828538 7.3401709361460483 1.184491718357366 4.1599072406354995 7.3670067226975346 4.1599072406354995 3.5818476078415342 10.833195455844313 7.3670067226975346 10.833195455844313 7.6270631352508733 1.3165965859419788 4.1981994573751642 7.3597996316931571 4.1981994573751642 3.1300125709824123 9.5958655035067171 7.3597996316931571 9.5958655035067171 6.8200197477344418 1.1879177333161839 3.6834024007465112 6.860004827375743 3.6834024007465112 2.6151338682282868 8.7626700476640114 6.860004827375743 8.7626700476640114 6.5925032548543836 1.0558128657315713 3.6451101840068469 6.8672119183801215 3.6451101840068469 3.0669689050874087 10.000000000001608 6.8672119183801215 10.000000000001608 7.3995466423708161 1.4434165783235462 4.5619916918917225 8.6641238053628165 4.5619916918917225 3.3503170704892602 11.411019788765206 8.6641238053628165 11.411019788765206 8.667748140784358 1.4151638365939259 3.8912426507867104 9.5050848662181266 3.8912426507867104 2.1218299551977173 11.418276371391062 9.5050848662181266 11.418276371391062 10.519186712872699 1.2026539686064837 3.5783135646739721 9.159664552834915 3.5783135646739721 2.34601125492201 12.185351813678288 9.159664552834915 12.185351813678288 11.103405294030932 1.3568130194241765 4.2720731455077985 9.0295183243471886 4.2720731455077985 3.1168942133188899 12.161249876773045 9.0295183243471886 12.161249876773045 9.9181585321493184 1.2019069036038519 4.1100430201585647 8.4939433837577827 4.1100430201585647 3.4124584259017223 12.412610820620865 8.4939433837577827 12.412610820620865 9.7764453458924532 1.0927251159801976 3.5635981541706743 8.466912111248508 3.5635981541706743 2.7562958444205585 12.093264411038893 8.466912111248508 12.093264411038893 10.377473526615834 1.3590442752787988 4.0320188196010012 9.3367261822727468 4.0320188196010012 2.6278605380868081 12.050814600002425 9.3367261822727468 12.050814600002425 10.519186712872699 1.4439059308583935 4.3925511418129899 10.039608501996064 4.3925511418129899 3.0094785601924059 13.274999382608648 10.039608501996064 13.274999382608648 11.415781418841767 1.3489482951966956 4.6776910870415289 9.7463307952283955 4.6776910870415289 3.959588993296276 14.448629424350861 9.7463307952283955 14.448629424350861 11.398971819276619 1.4416746750037712 4.6326054677197863 9.7324006440705091 4.6326054677197863 3.4985122354244877 13.385434659379264 9.7324006440705091 13.385434659379264 10.814753238118389 1.138736332621191 4.1848369762026723 8.752729023794334 4.1848369762026723 3.81472862192058 13.66261082061866 8.752729023794334 13.66261082061866 10.673040051861522 1.20091606863444 4.3919527208736486 9.3022341155416299 4.3919527208736486 3.9802411672095364 14.474444641742437 9.3022341155416299 14.474444641742437 11.398971819276619 1.4569276419913679 3.8772621698622753 9.1404518766162575 3.8772621698622753 1.9268137717590794 10.357965465769103 9.1404518766162575 10.357965465769103 9.5393379012843056 1.3992094367680503 3.4169655709585443 9.0618508874629207 3.4169655709585443 1.237093394844887 9.6534043721540606 9.0618508874629207 9.6534043721540606 9.7284451543175408 1.257766585476245 2.8143980729425335 8.3902934190692626 2.8143980729425335 0.59772980398008735 8.4421516927093236 8.3902934190692626 8.4421516927093236 9.233987325281058 1.258773529921611 3.4375373958596818 9.3280232367802984 3.4375373958596818 1.8399806720329193 11.552813585066925 9.3280232367802984 11.552813585066925 11.103405294030932 1.1463535419985149 2.7955075328617704 8.4873042886359364 2.7955075328617704 1.0056008977294812 9.6707405598958349 8.4873042886359364 9.6707405598958349 10.09648732528078 1.2460325878923317 3.1245555118018848 9.0922447466299623 3.1245555118018848 1.2649806720344428 10.504804144964666 9.0922447466299623 10.504804144964666 10.708293965905934 1.2328620169099194 2.7993494678470165 9.5010303866672601 2.7993494678470165 0.66725086805435552 10.50480414496378 9.5010303866672601 10.50480414496378 11.604888671875003 1.1331829710161025 2.4703014889069022 8.8960899286732307 2.4703014889069022 0.40787109374939401 9.6707405598949503 8.8960899286732307 9.6707405598949503 10.993082031249848 1.3880250603877182 2.9057400079279172 9.9665195171006573 2.9057400079279172 0.25937977430496151 9.9949652777770375 9.9665195171006573 9.9949652777770375 11.604888671875003 1.7359651942870362 3.9860195190762489 10.216721177065939 3.9860195190762489 1.0281782610043531 9.6332654832634894 10.216721177065939 9.6332654832634894 10.017651188409658 1.5804811967028622 3.6376580777265928 10.000894184314339 3.6376580777265928 0.95339136864173668 9.9574902011450899 10.000894184314339 9.9574902011450899 10.518901188411503 1.720734124148193 4.3004175672556588 10.129543676070345 4.3004175672556588 1.7178986379185455 10.426275470107791 10.129543676070345 10.426275470107791 9.9346826072515313 1.5234863211665768 3.9660366068304373 10.278349672920614 3.9660366068304373 1.8381279289945673 11.810811093611349 10.278349672920614 11.810811093611349 11.415781418841767 1.5652501265640189 3.9520561259060023 9.9137166833187429 3.9520561259060023 1.6431117455559292 10.750500187989388 9.9137166833187429 10.750500187989388 10.435932607253374 1.5024971991183038 3.3246761936690072 9.569386527498164 3.3246761936690072 0.63936359086479966 9.2356960388197535 9.569386527498164 9.2356960388197535 10.123789860286506 1.7482219062164064 3.8535190540465205 9.7853971261298955 3.8535190540465205 0.71415048322741592 8.4605737831687318 9.7853971261298955 8.4605737831687318 9.0814628149613537 1.5142311967024091 3.2184543016847376 9.1733385202506188 3.2184543016847376 0.37998381655983821 8.1927213209387855 9.1733385202506188 8.1927213209387855 9.2612898602867837 1.5824673913049425 3.4516385586508345 10.496777173914776 3.4516385586508345 0.57340755208189853 10.299051106768953 10.496777173914776 10.299051106768953 11.498749999999896 1.5044833937203839 3.1386566745932485 10.065269517098601 3.1386566745932485 0.25937977430496151 9.5772569444436186 10.065269517098601 9.5772569444436186 11.103638671874901 1.7379513888891167 3.6329166666667021 10.963229166667299 3.6329166666667021 0.31402777777693702 9.9748263888877524 10.963229166667299 9.9748263888877524 11.498749999999896 1.8379513888891166 4.0000000000004903 11.012604166666375 4.0000000000004903 0.64819444444451468 9.9748263888873545 11.012604166666375 9.9748263888873545 10.997499999998052 1.9164583333333596 4.000000000000508 10.948124999998317 4.000000000000508 0.33416666666757772 9.082291666664867 10.948124999998317 9.082291666664867 10.397499999996473 1.9337497674851269 4.166286644346056 10.313057289641517 4.166286644346056 0.59757421875160488 8.2666477520830668 10.313057289641517 8.2666477520830668 9.023615974372273 1.8502081008184865 3.8674995349707619 10.281280115729544 3.8674995349707619 0.33416666666757772 8.3021346887912788 10.281280115729544 8.3021346887912788 9.4613116265481665 1.7992410685924358 4.5879175672567269 9.9338145094021328 4.5879175672567269 1.9788708601437106 10.033740747887681 9.9338145094021328 10.033740747887681 9.0721826072496494 1.8566481119795442 4.5442310065667195 11.31931933593771 4.5442310065667195 1.6618695652152631 11.659628623184208 11.31931933593771 11.659628623184208 11.498749999998157 1.7578753751740603 4.4915457214132903 10.730891834942142 4.4915457214132903 1.9515899421303398 11.534930276696196 10.730891834942142 11.534930276696196 10.914531418839925 1.921493055555757 4.367083333333329 11.513854166666349 4.367083333333329 1.0481944444436304 10.892534722219668 11.513854166666349 10.892534722219668 11.498749999998157 1.9351550564237874 4.8562937977159004 11.356089471725188 4.8562937977159004 1.9719673697366513 11.715999716260526 11.356089471725188 11.715999716260526 11.101248604907653 1.8363823196183036 5.0365251792276577 11.018286970730543 5.0365251792276577 2.7275210799821004 12.591301369770346 11.018286970730543 12.591301369770346 11.018280023751265 1.6532782339030725 5.16278131996485 10.061308000455368 5.16278131996485 3.7124497043174109 13.143017628307012 10.061308000455368 13.143017628307012 10.2029465974923 1.9351550564237874 5.089210464381086 11.606714471726111 5.089210464381086 2.4378007030670235 12.715999716258359 11.606714471726111 12.715999716258359 11.602498604909496 1.8363823196183036 4.8036085125624712 10.767661970729622 4.8036085125624712 2.2616877466517282 11.591301369772511 10.767661970729622 11.591301369772511 10.51703002374942 1.5906645461814819 4.6102007542479573 10.479884347965331 4.6102007542479573 2.8577433237699861 13.085330337080624 10.479884347965331 13.085330337080624 11.415781418841767 1.6141253751745384 4.324462388079696 10.5502668349445 4.324462388079696 2.1924232754612385 12.25368027669469 10.5502668349445 12.25368027669469 11.415781418841767 1.9012272631945162 5.2365514190398308 10.475668481145197 5.2365514190398308 2.8681937853015964 11.538553384229742 10.475668481145197 11.538553384229742 9.543973383123296 1.9012272631945162 4.9139608393301311 10.530946801457318 4.9139608393301311 2.2230126258821978 10.82420746880903 10.530946801457318 10.82420746880903 9.6545300237475402 1.9012272631945162 5.3490514190377541 10.906918481146137 5.3490514190377541 3.0931937852974438 12.53855338422612 10.906918481146137 12.53855338422612 10.406473383125176 1.7344145461810043 5.0102007542467391 10.911134347963896 5.0102007542467391 3.0827433237694599 13.366580337079965 10.911134347963896 13.366580337079965 11.415781418841767 1.8980322265627008 5.7754122792096538 11.388193359375059 5.7754122792096538 3.9586956521685046 14.438530698022225 11.388193359375059 14.438530698022225 11.388193359373913 1.7992594897572169 5.3227269940568354 10.799765858379491 5.3227269940568354 3.4484160290848029 13.313832351535737 10.799765858379491 13.313832351535737 10.803974778215681 1.7527908989756136 6.2351852929691969 9.9545368837806958 6.2351852929691969 5.4592069900359386 14.650949048968016 9.9545368837806958 14.650949048968016 9.392328373707711 1.8540187441458555 6.1297705866936525 10.327619505402414 6.1297705866936525 4.8434661968038828 13.996938200946264 10.327619505402414 13.996938200946264 9.531126545929693 1.54345112685555 5.8165057487289404 9.9545368837809249 5.8165057487289404 5.459206990035681 15.697647909568392 9.9545368837809249 15.697647909568392 10.64836700642855 1.8324424544426781 5.9317750827137603 11.19142404301499 5.9317750827137603 4.5337803476568084 15.157386567382606 11.19142404301499 15.157386567382606 11.388193359373913 1.6872011268555909 6.0790480964723592 10.189017567420752 6.0790480964723592 5.4092916855223558 15.307304918326242 10.189017567420752 15.307304918326242 10.254828373707955 1.9344102278799773 6.3335790642887728 11.300558046966591 6.3335790642887728 4.9295172170576365 15.324108793533142 11.300558046966591 15.324108793533142 10.994654726653318 1.6864611985885336 5.5718294086218041 10.452966185090867 5.5718294086218041 4.3978140228894729 14.486571844153953 10.452966185090867 14.486571844153953 10.787165178650532 1.7884289720258328 5.9736333901968157 10.562100189042466 5.9736333901968157 4.7935508922903001 14.65329407030449 10.562100189042466 14.65329407030449 10.393626545929937 1.9344102278799773 6.6439051512447582 11.606461367279636 6.6439051512447582 5.5501693909696073 16.609762878111511 11.606461367279636 16.609762878111511 11.606461367279405 1.5427111985884929 5.5071554955781528 10.327619505403788 5.5071554955781528 4.8434661968023338 15.553475928733434 10.327619505403788 15.553475928733434 11.398971819276619 1.6121056821991822 5.5684889232861803 8.6428724867693756 5.5684889232861803 4.6885551177756311 12.204952964172588 8.6428724867693756 12.204952964172588 7.6131108803436582 1.8540187441458555 6.017757407255047 9.9495818855216349 6.017757407255047 4.619439837926671 13.086842552548452 9.9495818855216349 13.086842552548452 8.7750513061681339 1.7290187441459239 5.5546740144374755 9.380626689839481 5.5546740144374755 4.1932730522912562 12.230875411033587 9.380626689839481 12.230875411033587 8.3871409148034193 1.6358778370288716 5.9141609354228635 8.9640917405168903 5.9141609354228635 5.2848105227302407 13.366776869129925 8.9640917405168903 13.366776869129925 8.1129164588605498 1.7527908989756136 6.1231721135305905 9.5764992638999171 6.1231721135305905 5.2351806311587268 13.740853400570202 9.5764992638999171 13.740853400570202 8.6362531339461537 1.7580869380533264 5.9457294187819958 8.5161410213913999 5.9457294187819958 4.859111085350686 11.477022535407393 8.5161410213913999 11.477022535407393 6.4837604144628429 1.8750000000000684 5.9422405968901222 8.8097985447733187 5.9422405968901222 4.3844811937799708 10.788599066846817 8.8097985447733187 10.788599066846817 6.3695970895462253 1.883086938053258 6.4923772647249418 8.7818353475072612 6.4923772647249418 5.4524067772368525 12.036466027125211 8.7818353475072612 12.036466027125211 6.2651490666949758 1.883086938053258 6.587582443322054 9.215774670809239 6.587582443322054 5.6428171344310769 12.997711179121287 9.215774670809239 12.997711179121287 7.1330277132989277 1.781859092883016 6.3866066095157921 9.2712995984408906 6.3866066095157921 5.64577684749952 13.600091592360805 9.2712995984408906 13.600091592360805 7.8514446395836863 1.7155293924958714 6.964438183902713 8.5221572746004171 6.964438183902713 7.0667587978219402 14.459396992465429 8.5221572746004171 14.459396992465429 6.7511381942256072 1.8174971659332244 7.0371941865373522 9.1000806382674444 7.0371941865373522 6.8043997093418058 14.584814870790211 9.1000806382674444 14.584814870790211 7.2951782809355423 1.5725193207629418 6.6798978969710747 8.7555963921102986 6.6798978969710747 7.0697185108903824 15.567212188315436 8.7555963921102986 15.567212188315436 8.0760768596429475 1.781859092883016 6.6798978969710756 9.3836157084705221 6.6798978969710756 6.2323594224100862 14.520513327715063 9.3836157084705221 14.520513327715063 8.0760768596429475 1.5717793924958308 6.8808737307773367 8.3941681441665885 6.8808737307773367 7.4746298915713512 15.47467064226268 8.3941681441665885 15.47467064226268 7.3576599333581889 1.7162693207629824 6.8362183527310894 9.1556055658990978 6.8362183527310894 6.8073594224102489 15.187195284029729 9.1556055658990978 15.187195284029729 8.0135952072203018 1.898772154829758 7.0119469007533368 10.180579970365352 7.0119469007533368 6.4288051821876415 15.509778987528016 10.180579970365352 15.509778987528016 8.9685270117521565 1.883086938053258 6.8808737307773375 9.3280907808388687 6.8808737307773375 6.2293997093416431 13.918132914475546 9.3280907808388687 13.918132914475546 7.3576599333581889 1.9344102278799666 7.5337053646451606 9.5437381616490171 7.5337053646451606 7.3297698177704547 15.396391402228263 9.5437381616490171 15.396391402228263 7.4810149560182326 1.8324424544426137 7.4609493620105223 8.965814797981988 7.4609493620105223 7.592128906250589 15.270973523903484 8.965814797981988 15.270973523903484 6.9369748693082975 1.898032226562647 7.5921289062505881 8.7250749405519983 7.5921289062505881 7.592128906250589 14.541791567586664 8.7250749405519983 14.541791567586664 6.0619565217281135 1.6072012955469104 7.0119469007533368 9.3058673925168094 7.0119469007533368 7.5950886193190321 16.967633283942256 9.3058673925168094 16.967633283942256 8.9685270117521565 1.8331823827097247 7.1682673565133515 9.9525698277939281 7.1682673565133515 7.0038051821878042 16.176460943842677 9.9525698277939281 16.176460943842677 8.9060453593295072 1.9344102278799666 7.7376409115198665 9.9782490312146415 7.7376409115198665 7.7376409115198665 16.6304150520244 9.9782490312146415 16.6304150520244 8.3500366951494804 1.7343099805042108 6.9372399220168433 10.334241012111956 6.9372399220168433 6.9372399220168433 17.223735020186595 10.334241012111956 17.223735020186595 10.262622141198648 1.607201295546921 6.2475270741708568 10.446301480216729 6.2475270741708568 6.0662489661540295 16.957307196985813 10.446301480216729 16.957307196985813 11.249395187151933 1.9344102278799666 7.5731787371943193 10.331555769727899 7.5731787371943193 7.4087165628687721 16.808104180399297 10.331555769727899 16.808104180399297 9.0566501721759991 1.7509512955469511 7.134984726427871 9.9216741310287322 7.134984726427871 7.2661642706679377 16.864072412314719 9.9216741310287322 16.864072412314719 9.337640488775758 1.9177689128372264 7.6710756513489056 10.959920215534249 7.6710756513489056 7.6710756513489056 18.266533692557083 10.959920215534249 18.266533692557083 10.41322695404514 1.5186274589298803 6.2516575089534641 10.180579970365606 6.2516575089534641 6.4288051821874079 17.410502467027538 10.180579970365606 17.410502467027538 11.249395187151933 1.5801463717671473 6.6621953346280804 10.118443447389087 6.6621953346280804 7.0038051821875706 17.718097031213873 10.118443447389087 17.718097031213873 10.75600866417529 1.506148632801549 6.6786620310224301 9.6996809141319957 6.6786620310224301 7.3327295308386651 17.801303606427243 9.6996809141319957 17.801303606427243 10.362470031454695 1.852179140717193 7.5398961071088388 10.300660072962703 7.5398961071088388 7.6710756513489056 17.495715648871336 10.300660072962703 17.495715648871336 9.4882453016222463 1.7509512955469617 6.5100694219142756 10.680782163856554 6.5100694219142756 6.0163336616407044 16.566964205743663 10.680782163856554 16.566964205743663 10.855856554431336 1.8165410676669844 6.7892444440856465 10.630858218728301 6.7892444440856465 6.3123246175033554 16.525797464758107 10.630858218728301 16.525797464758107 10.362470031454695 1.8355378256744528 7.3421513026978111 11.013226954046717 7.3421513026978111 7.342151302697812 18.35537825674453 11.013226954046717 18.35537825674453 11.013226954046717 1.9177689128372264 6.9941558247660884 11.309844160663062 6.9941558247660884 6.3172359981832713 17.157440701314727 11.309844160663062 17.157440701314727 11.113074844302764 1.8521791407172037 6.7149808025947166 11.359768105791312 6.7149808025947166 6.0212450423206185 17.198607442300275 11.359768105791312 17.198607442300275 11.606461367279405 1.9177689128372264 7.3066134770228324 11.506613477023357 7.3066134770228324 6.9421513026967592 18.266533692557083 11.506613477023357 18.266533692557083 11.506613477023357 1.898772154829758 6.8306687927366596 10.4463014802165 6.8306687927366596 6.0662489661542871 15.499452900571569 10.4463014802165 15.499452900571569 9.4999700314544526 1.5073764779715277 6.883573411702872 10.078666856065965 6.883573411702872 7.737640911519633 18.932946842985178 10.078666856065965 18.932946842985178 11.113074844302764 1.5813742169371263 6.8671067153085215 10.497429389323058 6.8671067153085215 7.4087165628685385 18.849740267771807 10.497429389323058 18.849740267771807 11.506613477023357 1.7355378256741898 7.3066134770228324 10.959920215534249 7.3066134770228324 7.6710756513489056 19.177689128372265 10.959920215534249 19.177689128372265 11.506613477023357 1.5165622415385718 6.8306687927366596 9.2996717403429408 6.8306687927366596 7.5950886193190321 17.410502467027499 9.2996717403429408 17.410502467027499 9.4999700314544508 1.400387651582697 5.8847223334109033 9.3924397449974837 5.8847223334109033 6.1678940604910188 16.361995559362761 9.3924397449974837 16.361995559362761 10.382553580498785 1.2443872358833743 6.1938567365930073 8.3658182676500843 6.1938567365930073 7.4101645296525174 16.98379992873225 8.3658182676500843 16.98379992873225 9.2653131199999237 1.143300279361702 5.7877472766743736 8.4938073980851918 5.7877472766743736 7.0022934359019384 17.19271106154423 8.4938073980851918 17.19271106154423 10.12781312000017 1.2442997141028944 5.858566601916575 9.102709022621811 5.858566601916575 6.7399343474215723 17.374601068132179 9.102709022621811 17.374601068132179 10.739619760626255 1.3879088254543657 6.1472646811543221 9.1582339502521908 6.1472646811543221 6.7428940604911816 16.752796698762467 9.1582339502521908 16.752796698762467 9.9890149477781875 1.3983224341913882 6.2992714428685517 8.7582247764631358 6.2992714428685517 7.0052531489715495 16.361995559362722 8.7582247764631358 16.361995559362722 9.1265149477779435 1.2567785402312257 5.5960242541731562 9.3369148173671039 5.5960242541731562 6.1649343474214096 16.983799928732473 9.3369148173671039 16.983799928732473 11.133158393346854 1.3896075651337747 6.6480355860273654 9.9720533790410268 6.6480355860273654 7.737640911519633 19.344102278799046 9.9720533790410268 19.344102278799046 11.606461367279405 1.2447706086123249 6.1544261261091773 9.5375425094766761 6.1544261261091773 7.3297698177690549 18.83426341161082 9.5375425094766761 18.83426341161082 11.606461367279405 1.1437711738711325 6.0836068008669759 8.9286408849400551 6.0836068008669759 7.5921289062494219 18.652373405022871 8.9286408849400551 18.652373405022871 10.994654726653316 1.1960507803748204 5.8794165065353869 6.7305631799861523 5.8794165065353869 6.9746298915714915 13.955638762567183 6.7305631799861523 13.955638762567183 6.2848216777233823 1.1869324751634602 5.5662621609389245 7.1349767843275957 5.5662621609389245 6.384794421224008 13.937958624592035 7.1349767843275957 13.937958624592035 7.1483587176744301 1.3775311594696333 6.4923772647249418 7.2651680117563879 6.4923772647249418 7.4746298915713512 14.564244920043334 7.2651680117563879 14.564244920043334 6.2651490666949758 1.4376381983730184 6.1152179170174872 8.3800230478254019 6.1152179170174872 6.4798830405428998 14.878367888522535 8.3800230478254019 14.878367888522535 8.1342169054126927 1.4251337487681894 6.587582443322054 7.841915102954033 6.587582443322054 7.4746298915713512 15.28747712554663 7.841915102954033 15.28747712554663 7.1330277132989277 1.3266306276955855 6.0956584660031048 7.8474958059760596 6.0956584660031048 6.8847944212238676 15.051999564678674 7.8474958059760596 15.051999564678674 7.7352078457786062 1.1883806461640714 6.0818435571544018 7.8197608786113975 6.0818435571544018 7.4101645296525174 16.353737228930953 7.8197608786113975 16.353737228930953 8.5092378802383681 1.0269096503856183 5.5604895766386964 7.472089027716498 5.5604895766386964 7.0133405517349185 16.085609150601389 7.472089027716498 16.085609150601389 8.7827201531192873 1.0629638423217211 5.8759276846435124 6.2742207033685453 5.8759276846435124 7.5000000000001403 14.517215294005812 6.2742207033685453 14.517215294005812 6.1706583528067638 1.411634787689225 5.2971002307878745 8.1828459361540062 5.2971002307878745 4.9476613108188481 12.764479260334111 8.1828459361540062 12.764479260334111 7.895883146172662 1.2748689970101585 4.7788959983925778 8.1025010179521821 4.7788959983925778 4.4583160087445215 12.702718389133496 8.1025010179521821 12.702718389133496 8.555788053843413 1.3076160435433697 5.0570459048808845 7.4213037940781303 5.0570459048808845 4.8836276355882902 11.935293983565398 7.4213037940781303 11.935293983565398 6.9969113268960426 1.4354069425189147 5.6427722429245577 8.5040651899015209 5.6427722429245577 5.5439167157734577 13.926303165291451 8.5040651899015209 13.926303165291451 8.3956887246895562 1.170850252864303 4.5388416724855878 7.3409588758763071 4.5388416724855878 4.3942823335139636 11.873533112364782 7.3409588758763071 11.873533112364782 7.6568162345667954 1.1491678910111354 4.9907329926342747 6.8464899681116966 4.9907329926342747 5.384794421224008 12.395970184993828 6.8464899681116966 12.395970184993828 6.7979725901565828 1.0124021003320689 4.4725287602389781 6.7661450499098734 4.4725287602389781 4.8954491191496814 12.334209313793213 6.7661450499098734 12.334209313793213 7.457877497827333 1.2194430323557297 5.2279313500553375 9.2249082937406151 5.2279313500553375 5.5780905706877562 16.250245207815407 9.2249082937406151 16.250245207815407 11.133158393346854 1.2120487330237844 4.7365951358815686 8.9022113053830907 4.7365951358815686 4.6249953396680006 14.558019351771227 8.9022113053830907 14.558019351771227 10.532130212623471 1.3182987330232983 5.1615951358810435 9.2209613053816302 5.1615951358810435 5.049995339668893 15.089269351772343 9.2209613053816302 15.089269351772343 10.532130212623471 1.0732021446322952 4.5585417727378106 8.7861856305703121 4.5585417727378106 4.8242749669464402 15.30797570313876 8.7861856305703121 15.30797570313876 11.133158393346854 1.0783651881101368 4.8649323128187323 8.8016747610038362 4.8649323128187323 5.4164038731969164 16.048136835951855 8.8016747610038362 16.048136835951855 11.133158393346854 1.0110224086190465 4.3514260280668342 8.2366805388230162 4.3514260280668342 4.6587624216574834 14.496141882014983 8.2366805388230162 14.496141882014983 10.407226625931756 1.1498689970105354 4.5294793912105931 8.3527062136357948 4.5294793912105931 4.4594827943790447 13.74618553064745 8.3527062136357948 13.74618553064745 9.8061984452083735 1.4085700044656158 5.5642834210322034 9.1164727132845478 5.5642834210322034 5.4942868242019438 15.019129696731932 9.1164727132845478 15.019129696731932 9.7815253997754024 1.4168018540959562 5.1431930262429431 9.9498914719261791 5.1431930262429431 4.6191786361020615 15.273116477858093 9.9498914719261791 15.273116477858093 11.398971819276619 0.80570475834498212 4.1636376157002513 7.3113421747826663 4.1636376157002513 5.104456198020574 14.537616747105254 7.3113421747826663 14.537616747105254 9.7884557994954413 0.80252806620385542 3.7801670520720472 7.5963209619189493 3.7801670520720472 4.3502218393286727 14.085671904673145 7.5963209619189493 14.085671904673145 10.377473526614766 0.96464330894420258 4.8636779981350742 8.1660002599463724 4.8636779981350742 5.8687827604933371 16.122762339139612 8.1660002599463724 16.122762339139612 10.544140666227527 0.90309561520938275 3.8549610081164989 8.3463209619205987 3.8549610081164989 4.0975395553954668 14.516981304731754 8.3463209619205987 14.516981304731754 11.274068232584902 0.61032238018746343 3.7014686405514281 7.3826697875773224 3.7014686405514281 4.961647760353002 15.454897445466141 7.3826697875773224 15.454897445466141 11.103405294029864 0.70313361097124405 4.1783530262035491 7.3665946163690013 4.1783530262035491 5.544171608522122 15.692204149744768 7.3665946163690013 15.692204149744768 10.514387566910539 0.65817469226738934 3.5091440964072431 7.5262267238170999 3.5091440964072431 4.3855894237449293 14.734824524706047 7.5262267238170999 14.734824524706047 11.103405294029864 0.55280639879343385 3.939204390207049 6.9156129798355703 3.939204390207049 5.6671831852403622 15.845968620642568 6.9156129798355703 15.845968620642568 10.514387566910539 0.95580141284010733 4.542572047550685 7.7765086879265368 4.542572047550685 5.2619384437409398 14.759263803686533 7.7765086879265368 14.759263803686533 9.8182088988124292 0.80886420345461318 4.559537522328923 8.1320837468041773 4.559537522328923 5.8836182308393932 16.86367468261647 8.1320837468041773 16.86367468261647 11.410982272880675 0.89006170808065854 4.405777128743364 7.1309922206631207 4.405777128743364 5.2513074251640939 13.998812775490359 7.1309922206631207 13.998812775490359 8.9216141928422914 0.91183455132698654 4.39773480419489 6.766145049909559 4.39773480419489 5.148131403081833 13.15289991373329 6.766145049909559 13.15289991373329 8.061282791857197 0.86230544583694346 4.0935943283885443 6.3009785367660021 4.0935943283885443 4.7379668734293157 12.112562257211932 6.3009785367660021 12.112562257211932 7.4281243985103451 0.8602924081743013 4.6035962341822074 6.6799756405993884 4.6035962341822074 5.7660228356672096 14.03935923804482 6.6799756405993884 14.03935923804482 8.1981968321529699 0.73730632697379139 3.8462605236045619 5.5459869723475945 3.8462605236045619 4.7432957393139583 11.485899659852814 5.5459869723475945 11.485899659852814 6.6681359828524407 0.58615538359317154 3.8461247442809849 5.259098850594178 3.8461247442809849 5.3476279541892833 12.518922775761045 5.259098850594178 12.518922775761045 7.0012653996293288 0.53924931207348337 3.9186867028739698 4.6457581453288403 3.9186867028739698 5.6803761574540061 12.147153878664824 4.6457581453288403 12.147153878664824 6.0560204182167805 0.76707562688014885 3.648441418165719 5.9970035524113285 3.648441418165719 4.2285803288108426 11.445353197298358 5.9970035524113285 11.445353197298358 7.391553343541764 0.65961235930363837 4.2993199790522851 5.9279210057024168 4.2993199790522851 5.9601905208900172 14.03204469743169 5.9279210057024168 14.03204469743169 7.8981678555830026 0.69435158268147468 4.7424572838418824 5.8349195615580793 4.7424572838418824 6.7075082369578665 14.63749331872009 5.8349195615580793 14.63749331872009 7.5037296270273091 0.88326711021441962 5.3181222314701095 6.4102944995273941 5.3181222314701095 7.1031760220825415 15.146458642410067 6.4102944995273941 15.146458642410067 7.5209863377682691 0.9986245413317083 5.2539193585309452 6.9684624568156019 5.2539193585309452 6.513340551735058 14.762657077702951 6.9684624568156019 14.762657077702951 7.9451776656409532 0.60209895793519796 4.5490792669065652 4.9317507071875681 4.5490792669065652 6.6897627020723389 13.571293099893715 4.9317507071875681 13.571293099893715 6.2509076667639505 0.93848810599307209 5.6269762119862143 6.1204663504217809 5.6269762119862143 7.5000000000001403 14.883336720737784 6.1204663504217809 14.883336720737784 6.6100040648851293 0.52873850443027381 4.8596431162982103 5.1605246239796418 4.8596431162982103 7.604332214875325 15.462597119742192 5.1605246239796418 15.462597119742192 7.1486182213776415 0.62154973521416601 4.8468535889071953 5.9099385832074223 4.8468535889071953 7.2075082369577261 15.751534258805364 5.9099385832074223 15.751534258805364 8.0905787551298491 0.5209197275083064 4.6455935734954759 6.0029400273518387 4.6455935734954759 7.2075082369577261 16.409686704242024 6.0029400273518387 16.409686704242024 8.8803616896538387 0.91155221926832941 5.624692449577859 6.9139210704282901 5.624692449577859 7.6031760220824012 16.469410715308502 6.9139210704282901 16.469410715308502 8.3585288252466015 0.76753763511652995 5.3366632812742605 6.6254342542130278 5.3366632812742605 7.6031760220824012 16.708672275708732 6.6254342542130278 16.708672275708732 8.6456426977268759 0.99430810971158023 5.2913509484153298 7.9490913419354605 5.2913509484153298 6.6054694579843396 16.533781843814957 7.9490913419354605 16.533781843814957 9.9323340256014383 0.7956473563173192 5.3928827236758394 7.5877791875339984 5.3928827236758394 7.6031760220824012 18.172031891906403 7.5877791875339984 18.172031891906403 10.401674237164084 0.99999999999899192 5.7960644531226944 8.6940966796839323 5.7960644531226944 7.5921289062494219 18.980322265623371 8.6940966796839323 18.980322265623371 11.388193359373913 0.89477900422102463 5.3872104726079613 8.0839248287903676 5.3872104726079613 7.1953049283318231 17.993444187293601 8.0839248287903676 17.993444187293601 10.799175632254588 0.80542604528380224 5.0788146675804713 8.1217692722917434 5.0788146675804713 6.9359251540257336 18.179058336599397 8.1217692722917434 18.179058336599397 11.410982272880675 0.74917604528476833 4.6788146675816895 7.9530192722946422 4.6788146675816895 6.3609251540243061 17.460308336597613 7.9530192722946422 17.460308336597613 11.410982272880675 0.57251994625108327 4.3724241275003877 7.423050975193588 4.3724241275003877 6.4547684699964432 17.577612481562785 7.423050975193588 17.577612481562785 11.410982272880675 0.51231161291752414 4.5395074608339829 6.9918009751919872 4.5395074608339829 7.0297684699978698 17.878654148229696 6.9918009751919872 17.878654148229696 10.909732272878831 0.70629439738009669 5.0844869186483495 7.625623631035376 5.0844869186483495 7.3437962477763126 18.357646041212199 7.625623631035376 18.357646041212199 11.013480877790171 0.58983606404750377 4.8515702519831638 7.0256236310366749 4.8515702519831638 7.3437962477763117 17.939937707877327 7.0256236310366749 17.939937707877327 10.512230877788326 0.61151539315836945 5.0933408991636941 7.6357954819298559 5.0933408991636941 7.7406202256939114 19.344524119541969 7.6357954819298559 19.344524119541969 11.602498604909496 0.73939735631835724 5.2803827236779153 6.9877791875361721 5.2803827236779153 7.6031760220824012 17.453281891904837 6.9877791875361721 17.453281891904837 9.5391742371622019 0.57810206646350759 4.9577921439682155 6.5591716382837451 4.9577921439682155 7.6031760220824012 17.545412425758371 6.5591716382837451 17.545412425758371 9.6497308777864461 0.29362806084088633 3.7109450227697405 5.5547593632888814 3.7109450227697405 6.2473778021759356 15.599014220663623 5.5547593632888814 15.599014220663623 9.3477503615324444 0.48188089224311781 4.0139983462511202 7.1511338131696913 4.0139983462511202 6.1004731235297687 17.134743298479439 7.1511338131696913 17.134743298479439 11.410982272880675 0.37716972750778077 4.1910102401611393 5.752315027351143 4.1910102401611393 6.8733415702911556 16.293020037576945 5.752315027351143 16.293020037576945 9.2416116896556009 0.35682761533300245 4.191146019484699 6.2747239824383643 4.191146019484699 6.9549815776373887 17.367462199445665 6.2747239824383643 17.367462199445665 10.408482272878715 0.098849056619380121 3.2322990032853838 4.8336812141841552 3.2322990032853838 6.0692017800932474 15.148392298993251 4.8336812141841552 15.148392298993251 9.0742680886520297 0.33813089224266418 3.8469150129176413 6.4692588131682722 3.8469150129176413 6.3413064568646256 17.01807663181458 6.4692588131682722 17.01807663181458 10.909732272880557 0.25962394779806242 3.5339331288600486 6.0361823157719661 3.5339331288600486 6.0293704665278476 16.298897203789441 6.0361823157719661 16.298897203789441 10.51462094475556 0.41753260869579684 4.5483614413493285 7.0019728260864689 4.5483614413493285 7.4265924479154695 18.865532226559466 7.0019728260864689 18.865532226559466 11.498749999998157 0.49505705982577641 4.8604242324985085 7.0357954819311548 4.8604242324985085 7.7406202256939114 18.926815786207101 7.0357954819311548 18.926815786207101 11.101248604907653 0.26204861111127509 4.367083333333329 6.5355208333329031 4.367083333333329 7.6859722222215581 19.189756944442077 6.5355208333329031 19.189756944442077 11.498749999998157 0.14335188802115795 3.4557689934334279 6.1794306640634167 3.4557689934334279 6.338130434782224 17.50495471014435 6.1794306640634167 17.50495471014435 11.498749999999884 0.064844943576556194 3.1427871093758357 5.7463541666671105 3.1427871093758357 6.0261944444454469 16.785775282119214 5.7463541666671105 16.785775282119214 11.103638671874885 0.078506944444601753 3.6329166666666972 5.9848958333337476 3.6329166666666972 6.9518055555549871 18.272048611110307 5.9848958333337476 18.272048611110307 11.498749999999884 0.16204861111149618 4.0000000000004858 5.9848958333335087 4.0000000000004858 7.3518055555549875 18.354340277775435 5.9848958333335087 18.354340277775435 10.997499999998041 0.14939355468790122 4.1662866443460471 4.9599886512498346 4.1662866443460471 7.73499906994049 17.188428816069163 4.9599886512498346 17.188428816069163 9.0236159743722606 0.083541666666894429 3.8674995349707486 4.981280813274755 3.8674995349707486 7.4008324032739194 17.135466859549187 4.981280813274755 17.135466859549187 9.4613116265481434 0.083541666666894429 4.0000000000005036 5.4493749999989136 4.0000000000005036 7.6658333333334294 18.246874999997171 5.4493749999989136 18.246874999997171 10.397499999996461 0.065851888021006805 3.9992033110122587 4.3599886512484938 3.9992033110122587 7.73499906994049 16.606137149401402 4.3599886512484938 16.606137149401402 8.3248659743709457 0.18239072328627454 3.8673637556471707 4.9943926915221288 3.8673637556471707 7.0051646181492435 16.16848997545873 4.9943926915221288 16.16848997545873 8.8944410433266103 0.16470094464038693 3.9990675316886812 4.3731005294958667 3.9990675316886812 7.339331284815815 15.639160265310945 4.3731005294958667 15.639160265310945 7.7579953911494117 0.24824261130728134 4.1661508650224706 4.9731005294972075 4.1661508650224706 7.339331284815815 16.221451931978706 4.9731005294972075 16.221451931978706 8.4567453911507275 0.39199261130780694 4.5861513300532764 5.441194716222002 4.5861513300532764 7.604332214875325 16.614110072425127 5.441194716222002 16.614110072425127 8.5304337645971628 0.41041871807852648 4.6230035435947157 4.9816089060993169 4.6230035435947157 7.604332214875325 15.756003188367051 4.9816089060993169 15.756003188367051 7.5007055037274739 0.48751488390497777 4.5699111188460551 4.5471839187133529 4.5699111188460551 7.1897627020721986 14.128268822587614 4.5471839187133529 14.128268822587614 6.169278533996839 0.26666871807800085 4.3355035435936644 4.3816089060971013 4.3355035435936644 7.604332214875325 15.474753188365987 4.3816089060971013 15.474753188365987 7.1632055037261972 0.20081683005699408 3.9998642206766504 3.919015198556294 3.9998642206766504 7.1964611211253242 14.523184248715509 3.919015198556294 14.523184248715509 6.6331294167706236 0.098849056619380121 3.6634282087716672 3.9105068219550594 3.6634282087716672 6.9314601910658142 14.687591325660465 3.9105068219550594 14.687591325660465 7.2279193041938381 0.098849056619380121 3.3759282087715232 4.0792568219567684 3.3759282087715232 6.3564601910655263 14.250091325662954 4.0792568219567684 14.250091325662954 7.5654193041972562 0.098849056619380121 3.4127804223132383 4.5631426915224962 3.4127804223132383 6.4301646181489565 15.148698308793456 4.5631426915224962 15.148698308793456 8.5331910433287117 0.27075447950595721 2.7217967133959 4.7622811352917491 2.7217967133959 4.3605755087679716 12.034082213916427 4.7622811352917491 12.034082213916427 7.9000353935477552 0.2482815076142979 3.2065362363152707 4.7290403398544161 3.2065362363152707 5.4199464421733499 13.415259414402559 4.7290403398544161 13.415259414402559 7.9683916340230443 0.44306051183580419 3.8032344000589373 5.8053843632886259 3.8032344000589373 5.8342267527746579 14.753121487270345 5.8053843632886259 14.753121487270345 8.9524056555624263 0.22017108513041955 2.9384376283277391 3.9268128011125167 2.9384376283277391 4.9961909161338003 11.689071221369346 3.9268128011125167 11.689071221369346 6.532599091442516 0.14943245099491778 2.6963459286828435 4.7100251412952616 2.6963459286828435 4.7949620533860156 13.096582213916699 4.7100251412952616 13.096582213916699 8.5234555766210143 0.2482815076142979 3.3245883805745802 5.0843062141838988 3.3245883805745802 5.6560507306919687 14.30249956559997 5.0843062141838988 14.30249956559997 8.6789233826820098 0.36960353612533736 3.2319870210283272 4.7812963338509036 3.2319870210283272 4.985559897555305 12.352759414402286 4.7812963338509036 12.352759414402286 7.3449714509497834 0.098849056619380121 3.0773946454843593 3.9945294702889442 3.0773946454843593 5.7593930644911984 13.362545164665338 3.9945294702889442 13.362545164665338 7.3959646008616087 0.098849056619380121 2.9965512967398262 3.5712959375501132 2.9965512967398262 5.5977063670021323 12.455047571572621 3.5712959375501132 12.455047571572621 6.5494975353839457 0.12132202851103943 2.4385734076513312 3.4637009228659106 2.4385734076513312 4.3918587012585046 10.656048105461117 3.4637009228659106 10.656048105461117 6.1994696746655844 0.14943245099491778 2.8143980729421529 5.0652910156247435 2.8143980729421529 5.0310663419046344 13.98382236511411 5.0652910156247435 13.98382236511411 9.2339873252799798 0.40905639879298022 3.6262225061492455 6.2868073157717106 3.6262225061492455 5.6162194171265698 15.453004470396161 6.2868073157717106 15.453004470396161 10.119276238785538 0.31624516800919955 3.149338120497124 6.3028824869800317 3.149338120497124 5.0336955689574499 15.215697766117533 6.3028824869800317 15.215697766117533 10.708293965904865 0.45999516800965318 3.4623200045549276 6.9316881510438915 3.4623200045549276 5.0846593370712423 15.608661916363939 6.9316881510438915 15.608661916363939 11.103405294029864 0.25140022443264337 2.8161597067743886 5.8024443359377917 2.8161597067743886 4.6267185158182036 14.197137582505857 5.8024443359377917 14.197137582505857 10.096487325279723 0.064844943576556194 2.9098704427105084 5.9969791666671686 2.9098704427105084 5.5603611111147924 16.621191948789324 5.9969791666671686 16.621191948789324 11.604888671875001 0.16681271701428177 2.8241320765425999 6.3028824869803461 2.8241320765425999 4.9810132850280731 15.897007166180925 6.3028824869803461 15.897007166180925 11.604888671875001 0.10196777343772558 2.4909536628198645 5.8024443359381062 2.4909536628198645 4.5740362318888268 14.878446982569249 5.8024443359381062 14.878446982569249 10.993082031249859 0.10196777343772558 2.2039355468791384 6.0000000000006057 2.2039355468791384 4.0000000000073745 14.4901611328216 6.0000000000006057 14.4901611328216 11.388193359374858 0.065589772120104903 1.645373900692459 5.6921152985031069 1.645373900692459 3.0283887129044986 12.944395861368609 5.6921152985031069 12.944395861368609 10.990691964285585 0.4495945079315527 1.979656139742954 6.8747125778487055 1.979656139742954 2.1609342477596973 11.911049566456366 6.8747125778487055 11.911049566456366 11.051858108108094 0.40942387308129224 2.7612361854265997 6.0000000000002851 2.7612361854265997 3.8847768785280308 12.808851732754052 6.0000000000002851 12.808851732754052 9.5434567615128145 0.46933119420651281 2.3649934249239841 6.9339226366735858 2.3649934249239841 2.8526620730219165 12.775709348034141 6.9339226366735858 12.775709348034141 11.051858108108094 0.16755754555783048 2.047572743374908 6.1967693163609212 2.047572743374908 3.4249153045184944 13.771305263460501 6.1967693163609212 13.771305263460501 11.388193359374858 0.22361342076875373 1.8774684952853962 5.6921152985031007 1.8774684952853962 2.8604833074957776 11.944395861364454 5.6921152985031007 11.944395861364454 10.042550072393679 0.22361342076875373 1.5548779155747954 5.747393618815785 1.5548779155747954 2.215302148074576 11.230049945942426 5.747393618815785 11.230049945942426 10.153106713019048 0.15802364864864885 1.3987407190775021 5.1193743024551299 1.3987407190775021 2.1653868435604089 10.448905815299149 5.1193743024551299 10.448905815299149 9.2906067130183665 0.32558119420647935 2.2796673379678456 6.1967693163609141 2.2796673379678456 3.2570098991097733 12.771305263456343 6.1967693163609141 12.771305263456343 10.440051467482952 0.15802364864864885 1.7213312987881029 5.0640959821424447 1.7213312987881029 2.8105680029816105 11.163251730721178 5.0640959821424447 11.163251730721178 9.1800500723929961 0.065589772120104903 1.3556999876492954 5.9980186188156779 1.3556999876492954 2.4490408868181714 12.73004994594832 5.9980186188156779 12.73004994594832 11.602498604910727 0.97115685707747113 3.4460675660704276 8.5505046875248638 3.4460675660704276 3.0075077038309708 13.154441490276131 8.5505046875248638 13.154441490276131 11.274068232584902 0.84078406462542121 3.1186640998666055 7.6853153642227623 3.1186640998666055 2.8741919412315262 12.197678543783571 7.6853153642227623 12.197678543783571 10.325926340692996 0.9623523235281477 3.2361946879668522 7.6017227879464073 3.2361946879668522 2.6229800818211135 11.136501464546331 7.6017227879464073 11.136501464546331 9.429331634723928 0.74537955909813758 3.3502606839034166 6.9508044946558432 3.3502606839034166 3.7190031314142828 12.506530276536903 6.9508044946558432 12.506530276536903 9.4293316347228604 0.59534373416678732 2.7290316842828357 7.3119602565544088 2.7290316842828357 3.0766884318985221 13.055742296629898 7.3119602565544088 13.055742296629898 11.051858108108094 0.60102618516167172 3.0792377282386134 6.8807102565539937 3.0792377282386134 3.7543707158305395 13.155682896569804 6.8807102565539937 13.155682896569804 10.155263402137958 0.73821291725126303 2.708379510369844 7.740567805807836 2.708379510369844 2.4639073517346355 12.289765946425039 7.740567805807836 12.289765946425039 11.051858108108094 0.97631990055571505 3.7524581061516908 8.5659938179595958 3.7524581061516908 3.5996366100805219 13.894602623088071 8.5659938179595958 13.894602623088071 11.274068232584902 0.67509927552893512 2.7023947338410084 5.1297916340326113 2.7023947338410084 2.7043923655662767 8.5546468027008551 5.1297916340326113 8.5546468027008551 6.2089876148916119 0.90066594339711403 3.3519987346451927 6.3759975584153308 3.3519987346451927 3.1013336957019293 10.000000000000728 6.3759975584153308 10.000000000000728 7.3479994564479787 0.77566682453396196 3.1046649298612099 5.6210059939969232 3.1046649298612099 3.1066625615865719 9.3733374026416101 5.6210059939969232 9.3733374026416101 6.5880110407900752 0.77566682453387992 3.3553299688044098 5.9970035524116376 3.3553299688044098 3.6079926394733 10.626662597358287 5.9970035524116376 10.626662597358287 7.3400061576199942 0.67509927552879767 3.2805360127603205 5.9970035524113223 3.2805360127603205 3.8606749234054507 11.445353197298363 5.9970035524113223 11.445353197298363 7.9434114516498582 0.96383651438022011 3.2772047786014484 6.8672119183801152 3.2772047786014484 2.6990634996820164 10.000000000001613 6.8672119183801152 10.000000000001613 7.9514047504789112 0.27934567715968828 2.2282370614553546 4.6685383331350305 2.2282370614553546 3.3390914142719561 10.558033103933223 4.6685383331350305 10.558033103933223 7.6610026033119318 0.42877812815466143 2.3362929523911573 4.4832272934832904 2.3362929523911573 2.9574733921636693 9.0249965885700956 4.4832272934832904 9.0249965885700956 6.3937858180386113 0.42877812815460603 2.7849253363074205 5.3151026736837252 2.7849253363074205 3.8547381599964172 11.533036515362035 5.3151026736837252 11.533036515362035 8.0575365784398141 0.12132202851103943 2.1651084385438342 4.1157167947430553 2.1651084385438342 3.8449287630435105 11.059078802487615 4.1157167947430553 11.059078802487615 7.5035014184198738 0.15802364864864885 1.7777862767423054 4.6162823391380723 1.7777862767423054 2.9234779588900155 10.558033103932729 4.6162823391380723 10.558033103932729 8.2844227863842512 0.30745609964362197 1.8022777145532232 4.0967321690526592 1.8022777145532232 2.3747310305319584 8.2590202383679383 4.0967321690526592 8.2590202383679383 6.3487277402435875 0.15802364864864885 1.492047910573288 4.1566965290166307 1.492047910573288 2.3520012265519807 9.077710838307782 4.1566965290166307 9.077710838307782 7.365251166141368 0.12132202851103943 2.1754345254998531 3.671620115055604 2.1754345254998531 3.8655809369555487 10.344732887065245 3.671620115055604 10.344732887065245 6.6153080590449704 0.30741720333619499 1.0625854800113412 5.2586100118898269 1.0625854800113412 0.89550214667790229 8.3466416864827799 5.2586100118898269 8.3466416864827799 8.6727168037624836 0.45116720333614241 1.2183817039695888 5.7280828379757125 1.2183817039695888 0.63209459459460771 8.0810869565220695 5.7280828379757125 8.0810869565220695 8.7491624559345702 0.40942387308116124 1.6376954923244569 4.2837106994802294 1.6376954923244569 1.6376954923242688 7.1395178324665798 4.2837106994802294 7.1395178324665798 6.1108781604734919 0.22387553666948767 1.0994376935529049 4.4931208814556083 1.0994376935529049 1.3033732404278588 7.9983736696133985 4.4931208814556083 7.9983736696133985 7.6429885428942903 0.32584331010702694 1.1716694643863361 4.503007897420602 1.1716694643863361 1.0399656883445643 7.1757537222632406 4.503007897420602 7.1757537222632406 7.0509559341990427 0.15802364864864885 1.2552339175110907 4.3337880434792071 1.2552339175110907 1.8783732404275859 8.7808283797565831 4.3337880434792071 8.7808283797565831 7.7194341950665208 0.46959331010697436 1.2552339175112526 5.2684970278540693 1.2552339175112526 0.63209459459460771 7.2229800724651696 5.2684970278540693 7.2229800724651696 7.7194341950662917 0.15802364864864885 1.2183817039695071 4.848652173913333 1.2183817039695071 1.8046688133444186 9.5468047299595007 4.848652173913333 9.5468047299595007 8.7491624559347727 0.065851888020838828 0.26340755208332495 4.3586100118917077 0.26340755208332495 0.26340755208329458 7.264350019819438 4.3586100118917077 7.264350019819438 8.3221086956583825 0.16781966145837812 0.53957486979173452 3.9030078974226896 0.53957486979173452 0.40787109374995661 6.1757537222667036 3.9030078974226896 6.1757537222667036 6.7990978260951103 0.065851888020838828 0.46734309895830323 3.893120881457695 0.46734309895830323 0.67127864583325114 6.9983736696168624 3.893120881457695 6.9983736696168624 7.3911304347903579 0.73088445130129132 1.7778161998998865 6.3348780451694431 1.7778161998998865 0.63209459459460771 7.6938260620192089 6.3348780451694431 7.6938260620192089 8.2844493825311396 0.58801526821682137 1.4920778337309466 5.4466846857945548 1.4920778337309466 0.63209459459460771 6.9278497118167435 5.4466846857945548 6.9278497118167435 7.3652777622881809 0.59369771921184711 1.8023076377108502 4.9554703258307882 1.8023076377108502 1.229824398574312 6.827909111876636 4.9554703258307882 6.827909111876636 6.3487543363904946 0.96235232352803779 2.7815941021485715 6.9198219092185411 2.7815941021485715 1.7137789101849923 8.8634985354552853 6.9198219092185411 8.8634985354552853 8.0655298772688546 0.73805109314858153 2.3329916413894676 5.4150561359525398 2.3329916413894676 1.7137789101846093 7.4770617319087531 5.4150561359525398 7.4770617319087531 6.4018057130135899 0.83345559867561758 2.2249357504536875 6.3348780451703028 2.2249357504536875 1.1160491062049049 7.7859134646618795 6.3348780451703028 7.7859134646618795 7.6690224982868989 0.96025979427323094 2.1624968443516104 6.63684655479189 2.1624968443516104 0.48395451161029718 6.8650550927998673 6.63684655479189 6.8650550927998673 7.5121343439443962 0.96542283775127524 2.172822931307699 6.2082390055385481 2.172822931307699 0.48395451161029718 6.124893959987407 6.2082390055385481 6.124893959987407 6.6239409845694439 0.7026420007454357 1.7213312987881753 6.6979510384327288 1.7213312987881753 0.63209459459460771 8.4401599702372962 6.6979510384327288 8.4401599702372962 9.1800500723928451 0.70077421390813321 2.3402108162283932 7.628251695778447 2.3402108162283932 1.8773247768242536 11.556537727787061 7.628251695778447 11.556537727787061 11.051858108108094 0.55176031962743621 1.5507474807922352 6.7318343153917812 1.5507474807922352 0.89445368307472561 9.5789893646925268 6.7318343153917812 9.5789893646925268 10.153106713018943 0.80372895726768956 2.12744075870738 7.4324619079998806 2.12744075870738 1.0399656883440018 9.6687488374246868 7.4324619079998806 9.6687488374246868 10.042550072393622 0.54134671089013398 1.3987407190775718 6.2693434891794846 1.3987407190775718 0.63209459459460771 8.5322905040917316 6.2693434891794846 8.5322905040917316 9.2906067130181675 0.96086813267596538 2.7405840115139752 7.6543327787848314 2.7405840115139752 1.637695492324089 10.000000000000004 7.6543327787848314 10.000000000000004 9.5434567615138697 0.53816834454869744 1.9755257049603556 7.1404340877001395 1.9755257049603556 1.7983780317259213 11.457854296414148 7.1404340877001395 11.457854296414148 11.051858108108094 0.71305560948293012 2.0772736073779203 7.4663451849581781 2.0772736073779203 1.3023247768241197 10.506536565212464 7.4663451849581781 10.506536565212464 10.654356713018776 0.75503196083511348 1.845179012784983 8.0663451849606815 1.845179012784983 0.67023018222951192 10.506536565212459 8.0663451849606815 10.506536565212459 11.602498604910682 0.98967391304573615 2.1832833729661694 8.6631184188246309 2.1832833729661694 0.40787109374939401 9.9999999999991136 8.6631184188246309 9.9999999999991136 11.388193359374846 0.84570530861987292 1.8953461641144429 8.0324619080023822 1.8953461641144429 0.40787109374939401 9.6687488374246815 8.0324619080023822 9.6687488374246815 10.990691964285528 0.61019500431332829 1.3515695528667155 7.6318343153953272 1.3515695528667155 0.26235908848011791 9.9966976980257165 7.6318343153953272 9.9966976980257165 11.602498604910682 0.41993636256713857 1.135514443699867 7.0091840877014988 1.135514443699867 0.5912834371311797 10.321395963080782 7.0091840877014988 10.321395963080782 11.498750000000168 0.30584450793151918 1.5717394730762146 6.1928375778487181 1.5717394730762146 1.9201009144263528 11.192299566456542 6.1928375778487181 11.192299566456542 10.550608108108321 0.49373667097920348 1.1186528861984659 7.0318343153930361 1.1186528861984659 0.26235908848011791 9.5789893646925233 7.0318343153930361 9.5789893646925233 11.10124860491085 0.47796001121537135 1.5676090382936363 6.709184087700244 1.5676090382936363 1.2233780317257874 10.321395963080784 6.709184087700244 10.321395963080784 10.550608108108261 0.24156531531535619 1.0979650373030583 5.2799021739138796 1.0979650373030583 1.2296688133446916 9.1290963966272169 5.2799021739138796 9.1290963966272169 9.1104124559356237 0.26577275382988885 0.6960076819853086 6.5466932614897502 0.6960076819853086 0.32892434865106179 9.9934471024806335 6.5466932614897502 9.9934471024806335 11.498750000000168 0.32379640247812164 1.2951856099124726 5.9960682614886096 1.2951856099124726 1.2951856099124588 9.9934471024809817 5.9960682614886096 9.9934471024809817 10.049358108108489 0.082231087162765448 0.69600768198528862 5.9960682614884098 0.69600768198528862 1.0630910153195154 10.911155435816248 5.9960682614884098 10.911155435816248 11.498750000000227 0.065589772120104903 1.1227833209810261 5.7473936188157921 1.1227833209810261 1.9832075534816325 11.730049945944502 5.7473936188157921 11.730049945944502 11.101248604910955 0.14782085928287036 1.1396448784824456 6.1928375778487244 1.1396448784824456 1.6880063198334094 11.692299566458617 6.1928375778487244 11.692299566458617 11.498750000000227 0.083541666666707329 0.33416666666680928 5.4493750000003187 0.33416666666680928 0.33416666666678929 9.0822916666671478 5.4493750000003187 9.0822916666671478 10.397500000000395 0.14939355468754617 0.43049088541673963 4.9586100118898342 0.43049088541673963 0.26340755208329458 7.8466416864827773 4.9586100118898342 7.8466416864827773 9.0208586956543897 0.083541666666707329 0.46587044270845657 4.9799021739138869 0.46587044270845657 0.59757421875008387 8.6290963966272134 4.9799021739138869 8.6290963966272134 9.4585543478275298 0.16577275382947276 0.66309101531787107 5.9960682614886149 0.66309101531787107 0.66309101531785108 9.9934471024809763 5.9960682614886149 9.9934471024809763 10.997500000000395 
</DataArray>
<DataArray type="Float64" Name="effective_stress" NumberOfComponents="9" format="ascii">
6.855506534717029 -0.82553893292390712 1.7485788871566801 -0.82553893292390712 8.1002589047936091 2.3998622653347272 1.7485788871566801 2.3998622653347272 20.29998554687479 7.2077762404178989 0.80793530107537226 3.0643041845547572 0.80793530107537226 9.5797522424350667 3.0082534045974931 3.0643041845547572 3.0082534045974931 15.247796805333898 7.3820398287528173 0.33746529064604802 2.8055205289316296 0.33746529064604802 10.744849240916729 3.1666293233776042 2.8055205289316296 3.1666293233776042 15.63110781185058 7.6010404592218253 1.9632474459814173 2.7441822825722664 1.9632474459814173 9.4828724047973729 5.4250099986553879 2.7441822825722664 5.4250099986553879 20.550446406707177 6.8402348817598337 0.93939960587388804 2.201015149043231 0.93939960587388804 9.6919463776004093 3.9806082494405133 2.201015149043231 3.9806082494405133 15.692749662924316 8.2992423998482572 1.0041006416838294 2.6931228294617489 1.0041006416838294 11.152277763645706 4.1404776660600682 2.6931228294617489 4.1404776660600682 21.116529709868427 7.2674796172302027 0.64826598878829289 1.7547349959745908 0.64826598878829289 9.67886707569434 3.5984818661567894 1.7547349959745908 3.5984818661567894 15.948606979277031 8.5660228766848761 0.33211059035229173 1.7159260397233531 0.33211059035229173 10.309296675500484 2.0255528701966297 1.7159260397233531 2.0255528701966297 20.623613299235725 7.7820349014413157 0.17516248422767366 2.4165399272974342 0.17516248422767366 11.227323590739424 2.9040857781913623 2.4165399272974342 2.9040857781913623 16.022386291159897 5.3186070229707809 1.2310603309841119 0.74994328069858451 1.2310603309841119 9.1553513978341883 5.2312821788852588 0.74994328069858451 5.2312821788852588 19.594024997901396 4.7978993898114668 1.2911647565620878 0.64665505874352036 1.2911647565620878 6.6336207235757749 5.8724172299889315 0.64665505874352036 5.8724172299889315 18.987152523529709 4.5345363396763023 0.69833989919744022 0.49874374363158996 0.69833989919744022 5.5140970126792963 3.6051057573996914 0.49874374363158996 3.6051057573996914 18.297327698613945 6.8182401906002248 0.60949216806323236 3.1058981037768287 0.60949216806323236 5.3696424510399794 1.1367645452409105 3.1058981037768287 1.1367645452409105 20.091939966421897 4.9727739592460383 0.70099302044786838 2.1680526396400066 0.70099302044786838 5.0404891683483815 0.83732797357206745 2.1680526396400066 0.83732797357206745 19.325407863552101 5.129565240144399 1.1461051672994365 2.6363568913143447 1.1461051672994365 5.3059417035233007 1.168709057868514 2.6363568913143447 1.168709057868514 19.325725966262723 5.961803397846329 3.5013649890610505 4.0104632700922878 3.5013649890610505 8.2758865095222163 2.576413208906271 4.0104632700922878 2.576413208906271 19.761296103245229 5.270853635538078 1.3576461721941404 3.7959966983010238 1.3576461721941404 4.924176141303982 0.66090327610888466 3.7959966983010238 0.66090327610888466 19.027280769405362 7.9201792602226906 1.6879769794920891 3.9113241672647132 1.6879769794920891 9.7517872115807194 3.3427451866208999 3.9113241672647132 3.3427451866208999 20.82850285108303 5.7782284228581844 1.9484945985707827 4.6930683963523236 1.9484945985707827 10.47134011057406 5.0509754547741057 4.6930683963523236 5.0509754547741057 19.314422564838573 6.3065916522831591 2.3508609318817051 3.5708804612305096 2.3508609318817051 9.7168319757383603 3.3587934486499655 3.5708804612305096 3.3587934486499655 20.048450959565283 4.9324914386832779 1.9407377396734775 3.7765726339886823 1.9407377396734775 5.9242363396400703 4.6950512399953714 3.7765726339886823 4.6950512399953714 18.011273929190743 5.0931786346619097 2.3000071413285945 4.2623575349115645 2.3000071413285945 5.9973030527584354 4.7875574948045747 4.2623575349115645 4.7875574948045747 18.00901945801111 5.1497289890410389 2.1249007443027943 4.4313860022236957 2.1249007443027943 5.4235291727193191 4.0680096126884138 4.4313860022236957 4.0680096126884138 18.009626520823957 5.2341554008641324 2.2040938302310971 5.0920906045593854 2.2040938302310971 4.6424306517229157 1.0208673305289397 5.0920906045593854 1.0208673305289397 17.547733293131923 5.9243181877889963 0.016229711609543236 4.8787279180626006 0.016229711609543236 7.6561760711916209 3.2533118482613834 4.8787279180626006 3.2533118482613834 19.048161080463654 6.7815750992126134 1.784549201283228 4.4641008647698364 1.784549201283228 10.798859400901557 1.6932704893018968 4.4641008647698364 1.6932704893018968 20.803948242495579 6.3384485413884963 1.4790993442353344 2.9811590465768956 1.4790993442353344 9.6349147072789396 3.1282765604185263 2.9811590465768956 3.1282765604185263 15.943855632568935 6.335975128688272 1.8685584914257398 4.4693177659055801 1.8685584914257398 9.6669026652232688 2.8105511581328209 4.4693177659055801 2.8105511581328209 16.392990569458998 6.2664861541592876 1.651648172564514 4.2532667994948277 1.651648172564514 10.448130335615758 4.7783543767807517 4.2532667994948277 4.7783543767807517 14.673080683844525 5.204924853435017 2.144464168750214 6.2359407329922218 2.144464168750214 10.95862287776723 5.5232741492081923 6.2359407329922218 5.5232741492081923 12.969183185208133 6.2575680830689109 1.645375241217349 4.7470215096932904 1.645375241217349 9.8331656729543333 4.8751028203863855 4.7470215096932904 4.8751028203863855 13.106260647068511 7.5270751402632206 1.6286339688328411 4.2879996171594792 1.6286339688328411 10.668642042155682 4.7887517165083668 4.2879996171594792 4.7887517165083668 15.175996019712471 5.0582828794337562 2.5785716724081795 5.329044232140955 2.5785716724081795 9.4987546160299789 4.1060929775621018 5.329044232140955 4.1060929775621018 13.702068475156477 4.9470205406952701 2.6541148793411602 5.6888628823134466 2.6541148793411602 10.034937623343749 6.3498260617004707 5.6888628823134466 6.3498260617004707 11.23377088767373 5.6396459601848745 1.7478374024924654 4.819694888927776 1.7478374024924654 9.0845897344583033 5.3040999939038747 4.819694888927776 5.3040999939038747 10.868443511431863 5.4578216095214689 2.4872845117589182 4.0589359195274195 2.4872845117589182 11.184004853749807 5.7592356029055605 4.0589359195274195 5.7592356029055605 14.72968094171596 5.621957063083002 2.0277195340380363 4.6600132146825821 2.0277195340380363 8.7611744694396236 3.0660875030042618 4.6600132146825821 3.0660875030042618 13.387171621818124 4.3451240854794371 2.142329802956854 6.0624110319459685 2.142329802956854 9.8632004930337693 5.7603222041009507 6.0624110319459685 5.7603222041009507 11.542656291487344 7.2139488550740873 0.8494290496508381 3.0516028562816588 0.8494290496508381 10.770371030500911 5.8688448342806296 3.0516028562816588 5.8688448342806296 12.965136462531863 7.9104119089075571 1.1122435583182235 4.1248421572025995 1.1122435583182235 11.634325695978529 4.8164042876035573 4.1248421572025995 4.8164042876035573 15.77184527578895 6.490849852704998 2.5950097352925572 3.0464911148453329 2.5950097352925572 10.161479851547387 4.7342477896480526 3.0464911148453329 4.7342477896480526 15.918837843647083 7.9538722873584939 1.3748579713736344 1.9509321325451481 1.3748579713736344 10.442191488449993 5.8196869984577617 1.9509321325451481 5.8196869984577617 16.913655589506213 6.3289983140986728 1.3288927579983378 3.5881730371093319 1.3288927579983378 9.747883569726385 4.8037876325685964 3.5881730371093319 4.8037876325685964 12.248301211727146 6.6723967903416845 1.4230465351561268 3.001579225320897 1.4230465351561268 9.2318542467735707 6.4462058384180771 3.001579225320897 6.4462058384180771 12.771734361771218 7.5280672601888936 0.6184352448672028 3.6587475047878417 0.6184352448672028 10.874760108862898 5.7876126683061671 3.6587475047878417 5.7876126683061671 12.882454283901065 7.8080249173706706 0.45600983375046111 3.0380406390064669 0.45600983375046111 11.40291231786583 4.7543177388327686 3.0380406390064669 4.7543177388327686 13.460195594943816 7.460619388341005 0.70204845497215862 2.4654235418978256 0.70204845497215862 11.36516465310407 4.8505904385472434 2.4654235418978256 4.8505904385472434 13.522523575668444 7.1260268629637231 0.40833261557115491 3.6337620756983231 0.40833261557115491 10.618127582038589 6.0289381403883588 3.6337620756983231 6.0289381403883588 11.014002624957893 7.9905377436994653 0.26402898043514256 2.7220229634688913 0.26402898043514256 10.994080670941008 3.9914602252765512 2.7220229634688913 3.9914602252765512 15.265848113915492 6.8062106548678294 2.4203825295434189 3.4169017706606191 2.4203825295434189 7.4133200972173974 7.7495791190063743 3.4169017706606191 7.7495791190063743 14.227990507993349 7.263911885897083 1.4747721489296228 2.339135516662739 1.4747721489296228 8.8500160203598028 7.2127196784225953 2.339135516662739 7.2127196784225953 15.331488839904249 6.7414279049510126 1.8229895844324076 2.8828084575918016 1.8229895844324076 8.4754739836629085 7.5084594546191266 2.8828084575918016 7.5084594546191266 14.387102959686857 5.7252017814588108 1.8816202682093424 3.1752860410798855 1.8816202682093424 8.3678699036338866 8.0261773999411297 3.1752860410798855 8.0261773999411297 10.72324474776504 6.5856371305374104 2.402863389522238 3.1156230337531277 2.402863389522238 7.7552900572175929 10.084546296144655 3.1156230337531277 10.084546296144655 12.634525774542535 6.031710485014818 2.5469025260887213 3.9632656826272834 2.5469025260887213 7.5658527218497653 9.2432644073314734 3.9632656826272834 9.2432644073314734 11.003473969392243 6.0907877847898071 2.6272692760343728 2.5559413842883796 2.6272692760343728 7.6077731317644108 8.973331646360446 2.5559413842883796 8.973331646360446 13.324427998867959 6.5313596277714598 1.7779127229753233 3.0501638836615914 1.7779127229753233 8.9189308633723421 7.6232553531278509 3.0501638836615914 7.6232553531278509 13.195149639850003 5.843598694035947 2.1088082903003649 1.7864832740970025 2.1088082903003649 8.1469239036150629 8.0235589686563884 1.7864832740970025 8.0235589686563884 13.072214444557682 5.9737053582948132 2.3125229889236745 3.540429671961268 2.3125229889236745 6.52220596641952 9.9715630017583834 3.540429671961268 9.9715630017583834 11.180611834715686 4.4840302362570332 3.2023404881721516 5.0220867587972791 3.2023404881721516 6.6572064981284935 7.2880426951125106 5.0220867587972791 7.2880426951125106 14.229548838900968 3.4778625743461058 3.6398063099068705 4.6356549236697342 3.6398063099068705 7.0672150868299894 9.3436944997677731 4.6356549236697342 9.3436944997677731 12.654896223337525 4.1841033771644565 3.2777570801615541 4.325592408991346 3.2777570801615541 7.4545374242821598 8.4610809532623961 4.325592408991346 8.4610809532623961 14.337194872236779 4.7016579831450027 2.6013800583769315 5.1363033962888283 2.6013800583769315 9.6655932521294829 8.3063932156336211 5.1363033962888283 8.3063932156336211 12.490521934458652 4.7701278335739561 2.4174337921706295 4.1526680537177114 2.4174337921706295 7.4121546121131194 7.1456140642661961 4.1526680537177114 7.1456140642661961 13.607971668017472 5.8043026785569198 2.760480756857036 5.5682504313927659 2.760480756857036 7.2379256178137261 8.8008887664694164 5.5682504313927659 8.8008887664694164 12.356879450763721 3.8435092465012506 3.122419503610375 5.6467411552695284 3.122419503610375 7.2689850737434192 7.9317795542845779 5.6467411552695284 7.9317795542845779 11.559698398102313 4.0027464297671944 3.5582899022587355 5.5989559470123575 3.5582899022587355 6.3394956309485 8.0814820177297637 5.5989559470123575 8.0814820177297637 12.728347934359768 4.1480259516803368 3.1038891668612782 5.3189479663739974 3.1038891668612782 7.5072517209123308 8.7186954804169083 5.3189479663739974 8.7186954804169083 10.964687158401272 4.0452643456869879 3.2651843036363326 4.7547055210759819 3.2651843036363326 6.7887684541157789 9.6918506306094105 4.7547055210759819 9.6918506306094105 11.724523919066437 4.4112375681632479 3.0309670541528502 3.1731362291156824 3.0309670541528502 6.8100663960228287 8.1388166660860684 3.1731362291156824 8.1388166660860684 16.707747890608431 4.9158976665747485 3.3827337570370388 4.2221792785431393 3.3827337570370388 6.6544958248926722 8.786764495420865 4.2221792785431393 8.786764495420865 17.668306032843098 4.9018982558410533 3.3563150014127006 4.8938719129856558 3.3563150014127006 7.8504224214518432 6.8695248916655007 4.8938719129856558 6.8695248916655007 16.715770126319406 5.9270542570047375 2.3917205467758826 4.1639965411429758 2.3917205467758826 8.6505947274045152 7.7333861110640392 4.1639965411429758 7.7333861110640392 18.028938733723006 4.5269989958017147 3.7911081741572237 4.8777845804286173 3.7911081741572237 7.2042332011152972 8.0545993296494576 4.8777845804286173 8.0545993296494576 14.922747213871787 5.1215846216917935 2.6542793979770227 4.3468976779707162 2.6542793979770227 6.5937919196262262 5.5325049937430535 4.3468976779707162 5.5325049937430535 18.009389276941725 5.2647295657589348 3.0378250317635627 4.7777139790385661 3.0378250317635627 6.7845479658195327 5.7711013630552097 4.7777139790385661 5.7711013630552097 18.007643205744778 6.1369712978406561 1.7405505569774613 4.0681750396317664 1.7405505569774613 8.0700475554162026 6.8952817801630486 4.0681750396317664 6.8952817801630486 18.768186777447944 5.8970805378648095 1.3302061668125396 3.7376732086882218 1.3302061668125396 7.8279928316741731 6.1920081963038527 3.7376732086882218 6.1920081963038527 18.804446403832692 4.7241694750161081 2.6857744654262965 3.045093736799767 2.6857744654262965 7.4521096401532407 7.7366432124950499 3.045093736799767 7.7366432124950499 17.374686530206777 4.6058026060616521 2.3317466374082292 2.6900069704276857 2.3317466374082292 7.2173365375968022 7.4431845984953 2.6900069704276857 7.4431845984953 17.374595136953978 4.4617656580358833 2.1568025090804883 2.2578173115997267 2.1568025090804883 7.442346489504299 7.7247876664529933 2.2578173115997267 7.7247876664529933 17.374937794438864 5.741228172198845 2.2728389176619581 3.6391605714298745 2.2728389176619581 7.8811985485832388 6.4280905482609745 3.6391605714298745 6.4280905482609745 13.816964859439674 4.5879043144573703 1.9515902851851954 2.6344396673439974 1.9515902851851954 6.5311603737243713 6.5832402769249594 2.6344396673439974 6.5832402769249594 17.377008058195539 7.166043335210988 1.6169153753315215 1.6260286411414961 1.6169153753315215 9.6061488075558632 5.9038460676869615 1.6260286411414961 5.9038460676869615 19.233249252537398 4.7130427427526236 1.3570901615065956 0.39427100839121287 1.3570901615065956 7.0982325012588978 6.4566992977153479 0.39427100839121287 6.4566992977153479 18.982582810261889 6.1788215525357204 2.6822797166489423 1.2341260422877265 2.6822797166489423 7.8683901847480628 6.9943098133144863 1.2341260422877265 6.9943098133144863 19.105705765023185 6.7360243820508146 1.9568560635111028 1.5774070965115188 1.9568560635111028 7.3014227651991668 6.8276390827504274 1.5774070965115188 6.8276390827504274 18.86806174447872 6.8208406720932029 1.4763180512373375 1.7710685100035191 1.4763180512373375 8.7717848496934092 6.3153018630371678 1.7710685100035191 6.3153018630371678 15.538252408026592 7.6266441317181926 1.8220398257670249 0.9092348749129795 1.8220398257670249 8.7565630800153809 7.8233761108929496 0.9092348749129795 7.8233761108929496 19.758770765419907 6.6409338849445252 1.977442382943589 1.6989263126171061 1.977442382943589 8.6610359687298679 7.4929965872848996 1.6989263126171061 7.4929965872848996 15.561382786603932 5.9271370248047326 1.1062813749869504 1.892887978256752 1.1062813749869504 8.3581338823015479 8.5734791840831761 1.892887978256752 8.5734791840831761 18.14416954745468 4.2229158665974049 2.645051769937008 0.8113681743886263 2.645051769937008 8.6711761010196486 9.5327832828143784 0.8113681743886263 9.5327832828143784 16.830554667422092 7.4033047281060105 2.5445089160875471 2.9770096578958878 2.5445089160875471 8.2888673037111644 9.4267377213561918 2.9770096578958878 9.4267377213561918 18.503004299663587 5.605837943130549 2.9092890900536679 2.0193729613833291 2.9092890900536679 7.9474681861847607 9.8284027506526286 2.0193729613833291 9.8284027506526286 18.105739744569679 6.367947338174802 2.6993175826233622 2.7658235298181464 2.6993175826233622 7.4536233149129902 10.33518785907019 2.7658235298181464 10.33518785907019 15.384084013361512 6.1432623627525773 3.1421726991549535 2.4053126097706352 3.1421726991549535 6.7891599966135887 10.137900669374424 2.4053126097706352 10.137900669374424 14.673459506363979 4.5491513296812549 3.7310932325077864 3.3443778091432215 3.7310932325077864 8.5683630842133134 10.425930028303652 3.3443778091432215 10.425930028303652 15.919572271268443 4.1568054172392399 2.2246997998064972 0.61258389224104948 2.2246997998064972 8.0961060845914847 8.8130508446654989 0.61258389224104948 8.8130508446654989 16.830716331092429 3.9463495123342347 2.7993776899520051 0.69653050364546676 2.7993776899520051 8.3329559195050145 10.202901072501177 0.69653050364546676 10.202901072501177 17.049338316789253 4.1249201892863798 2.9134506625855376 0.39367482360284894 2.9134506625855376 9.6204219118100305 10.222403704827833 0.39367482360284894 10.222403704827833 16.622945283819487 6.6249868332254218 2.9226950809128867 1.7554076600891826 2.9226950809128867 10.495076449725318 10.94276304632851 1.7554076600891826 10.94276304632851 16.627509602649713 4.0814697937820377 3.4680955997408955 2.7266502734132319 3.4680955997408955 8.984332809168027 9.6840606028923979 2.7266502734132319 9.6840606028923979 15.265293127309183 4.0632670865406677 3.7537090274898941 2.6713185085715598 3.7537090274898941 9.6305284155572046 10.490868820411603 2.6713185085715598 10.490868820411603 15.265280182715916 6.2202480234058246 2.8496459242672247 1.8381042693552745 2.8496459242672247 8.7569870346215648 9.7272149011266507 1.8381042693552745 9.7272149011266507 16.773606968204774 5.7823723296375533 3.0208340032634409 1.6164753515553407 3.0208340032634409 7.019936382566037 9.8857119307507784 1.6164753515553407 9.8857119307507784 14.544424097960681 5.7275890226473054 3.3589774639191528 1.4337123735786961 3.3589774639191528 7.5859262330136401 11.088655733267068 1.4337123735786961 11.088655733267068 14.229950683835698 5.9570532652382449 3.1095212174946165 1.723604560910484 3.1095212174946165 8.5181334333046124 10.495079865694931 1.723604560910484 10.495079865694931 17.009997412482367 5.9063618677530707 2.7174782433469846 3.5048581840859794 2.7174782433469846 6.3398191255078844 10.273480008223185 3.5048581840859794 10.273480008223185 12.174736447488488 5.8026938506221759 2.6804953740704347 2.6501055729017446 2.6804953740704347 6.6743732871370627 9.5777929741205341 2.6501055729017446 9.5777929741205341 13.34823151614064 5.1440490171949236 3.0982714685330679 4.0448036566513288 3.0982714685330679 4.2493872421191314 11.705283167411457 4.0448036566513288 11.705283167411457 10.711639252040593 5.6161676206902449 3.1325062472598599 4.0162242834148332 3.1325062472598599 4.3662784892153219 10.730242588366032 4.0162242834148332 10.730242588366032 11.759433325338032 5.3086134296076022 3.4470600929728543 3.1842730167545632 3.4470600929728543 4.6901108115348205 11.047128275219299 3.1842730167545632 11.047128275219299 12.477571374619224 5.5232535027440077 3.010443712209506 2.4729536366505269 3.010443712209506 6.3725363918725781 10.440861159378276 2.4729536366505269 10.440861159378276 12.537298619990345 5.8098727568966932 3.5460541735206164 3.1269810163798537 3.5460541735206164 5.229623065247619 10.317820995221069 3.1269810163798537 10.317820995221069 14.24046914111439 5.7352896823802686 2.5620681171722781 3.3269942271191928 2.5620681171722781 5.8953189153166177 10.417719107375962 3.3269942271191928 10.417719107375962 10.725523327409871 5.232453926427457 3.3533295876349665 3.168627478249503 3.3533295876349665 3.9486278424566486 11.475853246639147 3.168627478249503 11.475853246639147 12.414597180598983 5.3943366486527298 3.4729609009519882 2.5784439804128438 3.4729609009519882 4.4478002377186341 11.798394982810635 2.5784439804128438 11.798394982810635 13.635093229627692 5.0147116404913348 3.6116884438377013 2.8577584408596239 3.6116884438377013 4.023795480509639 12.433023485154873 2.8577584408596239 12.433023485154873 11.370517069056598 5.1516298449460347 3.6838516474901652 2.8241423412105378 3.6838516474901652 3.4456064619015203 12.815728965115447 2.8241423412105378 12.815728965115447 13.285503037592271 4.2090087755788046 4.4392638926957648 3.4280468470770211 4.4392638926957648 3.7674364687084285 13.051309522591289 3.4280468470770211 13.051309522591289 12.958462193968632 4.0235348443725742 4.0761264691417409 3.8370358776274127 4.0761264691417409 0.42175345957469546 14.135621357069841 3.8370358776274127 14.135621357069841 9.582929611526712 4.2841617105577114 3.626433522033079 3.0465295066194233 3.626433522033079 1.615073345746207 13.096275424399566 3.0465295066194233 13.096275424399566 11.039193493599923 4.949951633512196 3.3885734301425918 3.4481968867728785 3.3885734301425918 3.7729803824929835 12.809988665799512 3.4481968867728785 12.809988665799512 10.447665041777348 3.7727286179539141 3.9999132825906161 3.6429238378240285 3.9999132825906161 1.2525719241081452 14.074452605432496 3.6429238378240285 14.074452605432496 9.469962357353495 4.2371202196522413 3.9585606308321157 3.4625355439245018 3.9585606308321157 1.5109712906724413 13.555003550858768 3.4625355439245018 13.555003550858768 10.477304325284091 4.6729088752808181 4.3237918262951442 3.1945323213703425 4.3237918262951442 2.6077670892361553 13.024408856527362 3.1945323213703425 13.024408856527362 11.701501809842938 3.2031867328126085 4.4868589662007743 3.7112221285666083 4.4868589662007743 2.2022559492590208 12.745390416652576 3.7112221285666083 12.745390416652576 10.949307448311 4.6202465872913336 4.0005507773568185 2.7097653259188426 4.0005507773568185 2.6807804345131139 12.546237052831426 2.7097653259188426 12.546237052831426 11.96745747391865 4.6663581377329777 4.0026135046830209 2.3031026467714111 4.0026135046830209 3.5482598802604159 12.184035276318681 2.3031026467714111 12.184035276318681 12.580524625844207 3.1181942621230476 4.7043047744342008 3.1359914037402143 4.7043047744342008 5.6892265731728688 11.136216171403053 3.1359914037402143 11.136216171403053 13.428672883333494 5.0923467186362767 3.6360896459710292 1.8005281532273618 3.6360896459710292 5.6837942891209625 11.269678274349097 1.8005281532273618 11.269678274349097 13.62507194586523 4.6545164498421343 4.5264651596758982 2.8103598233665661 4.5264651596758982 5.9061934518360744 11.588278993118804 2.8103598233665661 11.588278993118804 13.428014394246055 5.6081393852387418 3.2897064313944684 2.425835653863583 3.2897064313944684 5.681203494848253 11.106263606632689 2.425835653863583 11.106263606632689 13.671286698406831 3.9756551805921871 4.8601809016081914 3.0151077713111887 4.8601809016081914 6.5006092635662309 11.814258723181753 3.0151077713111887 11.814258723181753 15.24714725936569 5.5712853193032839 4.009914729374616 1.1412768651649152 4.009914729374616 6.7268304309118392 10.635297568563328 1.1412768651649152 10.635297568563328 15.280039446604826 2.7730593573041435 5.1351383545423195 3.3673884173090523 5.1351383545423195 5.87851872526491 10.949370387245137 3.3673884173090523 10.949370387245137 14.227187022314851 4.4166617007207538 4.4153261517046918 2.0929131883808294 4.4153261517046918 3.7003015704528792 12.004733618707188 2.0929131883808294 12.004733618707188 12.976138390516438 5.6107983588097916 3.7114673485213228 2.576898326261726 3.7114673485213228 6.4869331775307479 11.547067045478896 2.576898326261726 11.547067045478896 15.732339679085005 4.7517970152809816 4.0325814749658822 1.4073239220718694 4.0325814749658822 5.2244504109472114 12.140498412168585 1.4073239220718694 12.140498412168585 13.358368562656308 4.8176889980985189 3.6228123394144136 1.5102151788156184 3.6228123394144136 8.7787226725390983 10.910874369665061 1.5102151788156184 10.910874369665061 15.455266947677696 4.2085925778672362 3.3136799979989413 0.64431609033802073 3.3136799979989413 10.087192053112197 10.805064661060536 0.64431609033802073 10.805064661060536 16.623322041729843 3.8282544020819604 3.6434450460588255 0.48627808174000342 3.6434450460588255 10.695998497005371 11.082063316165183 0.48627808174000342 11.082063316165183 15.450486498036 5.7304955607981212 3.3859495036837428 2.0184022130143187 3.3859495036837428 8.1767514232252854 10.771559846449977 2.0184022130143187 10.771559846449977 15.81656938014369 3.332020953548172 3.5060888951267661 0.76543326621158581 3.5060888951267661 7.8617721018521731 10.446177244367188 0.76543326621158581 10.446177244367188 15.57809737044477 4.9443028023572904 3.1229825838798266 1.6980303872920577 3.1229825838798266 4.849782522589658 10.809586072182318 1.6980303872920577 10.809586072182318 13.947178611999922 4.153823157254994 4.1143569989819477 2.9419819420616178 4.1143569989819477 9.9902215630979292 10.941469625299169 2.9419819420616178 10.941469625299169 15.265015915631544 5.1318188863832361 4.5982503922761468 2.8373809330125765 4.5982503922761468 11.542513351350777 10.366627109524966 2.8373809330125765 10.366627109524966 15.578913281960979 3.8923930054884082 4.3670509258990355 2.2756972907249127 4.3670509258990355 11.290235335441604 10.000486876037611 2.2756972907249127 10.000486876037611 15.005254880462186 3.9910306189778555 4.6940760832850597 3.3491616201591881 4.6940760832850597 10.895251693756151 9.5827924288062309 3.3491616201591881 9.5827924288062309 14.371866976492663 5.0915204044678966 3.8826910349675781 3.5760200111869609 3.8826910349675781 10.124283062657128 11.322616024703471 3.5760200111869609 11.322616024703471 15.766605592678394 3.5498661764582122 5.2559119423826504 4.0133160245315747 5.2559119423826504 4.7040174209691674 10.822043038113236 4.0133160245315747 10.822043038113236 13.803749509415207 3.8494263927775396 4.8317559617496615 3.932635719859995 4.8317559617496615 6.3003049395614461 11.502687624531184 3.932635719859995 11.502687624531184 14.941471004031481 3.2862687209271533 4.6439654350102506 4.6327090755760061 4.6439654350102506 5.9215200423309788 12.50356819721436 4.6327090755760061 12.50356819721436 14.552470484247507 3.1307261047444266 4.6603901856079064 5.0103712438640935 4.6603901856079064 5.3674417689539551 11.559187678043276 5.0103712438640935 11.559187678043276 13.678259196216413 4.1516728766333335 4.7219503390068747 4.3805487664795217 4.7219503390068747 9.6648113407351151 10.672223743221045 4.3805487664795217 10.672223743221045 14.291907602978544 4.1068530937439967 5.0939854372332789 3.6989827569115246 5.0939854372332789 11.229304411857594 10.000674056190542 3.6989827569115246 10.000674056190542 14.371143113620244 4.1791914212046937 5.397852029516498 4.6293151755383439 5.397852029516498 10.640116360547877 9.6718180624309884 4.6293151755383439 9.6718180624309884 13.863150219554713 4.2959154315013155 5.3716518603303482 4.2774602119306637 5.3716518603303482 11.16235302143483 10.660156818516338 4.2774602119306637 10.660156818516338 14.617919106389518 3.0301432239346235 5.1611899583757239 4.5889952731301644 5.1611899583757239 4.0035478640844246 11.482566863836174 4.5889952731301644 11.482566863836174 13.509882058197871 2.8802838898181768 4.7827011043298127 4.492911164896082 4.7827011043298127 2.5062340227269786 12.383760544187311 4.492911164896082 12.383760544187311 11.832995812172761 2.5903883012986149 5.2845625265320475 4.8768916898332817 5.2845625265320475 3.4694989231639375 11.915689296394007 4.8768916898332817 11.915689296394007 12.091337549339462 3.1652136592422089 4.7094173264616321 3.9806024874614057 4.7094173264616321 3.0208178445629477 12.34708669816092 3.9806024874614057 12.34708669816092 12.555392122466296 2.5342282958898581 4.7460664878905607 4.8364770679142453 4.7460664878905607 1.4386904687485877 12.739199697285056 4.8364770679142453 12.739199697285056 10.964562731081102 2.027192698091322 5.0563876256517659 5.3332600743418057 5.0563876256517659 0.80572497398117804 13.203778654445689 5.3332600743418057 13.203778654445689 9.9629300427717595 2.3232297798448318 4.8443779089206309 4.738593779318645 4.8443779089206309 1.5523839928070444 14.010760223288937 4.738593779318645 14.010760223288937 9.8269739462832426 2.705616835092906 4.8345279988910539 4.4912804330071818 4.8345279988910539 2.1138746297591346 12.852133860610515 4.4912804330071818 12.852133860610515 11.363136680822516 0.94455186937230629 5.3918891525497532 6.2782555351911018 5.3918891525497532 0.95090116346045406 14.079617849083501 6.2782555351911018 14.079617849083501 10.35248867054575 0.74842077094682624 4.6434800970695012 5.3610845939270177 4.6434800970695012 1.2350289462319135 13.475380685227458 5.3610845939270177 13.475380685227458 10.796314874178176 3.2226647511851048 3.909518105356026 5.1886712111333306 3.909518105356026 3.7336241861949606 10.846775259406991 5.1886712111333306 10.846775259406991 11.668033018531258 4.018253662385062 3.9079280014683921 4.0997137954669798 3.9079280014683921 5.2107837116468954 10.45157529873808 4.0997137954669798 10.45157529873808 13.708287235214804 2.8260445732278163 4.1900535714602754 4.9463745711608089 4.1900535714602754 4.2555652007593769 10.926234796431981 4.9463745711608089 10.926234796431981 11.810887386099944 3.3497477700690244 4.035358740738725 4.4109610903948058 4.035358740738725 4.7077667414702065 11.30580706388597 4.4109610903948058 11.30580706388597 11.580506258034671 2.8147387288114536 3.8448841367001316 4.8132966309039515 3.8448841367001316 4.9407502885661856 10.385136189251869 4.8132966309039515 10.385136189251869 11.643702713871644 3.5739019088633439 3.8451184479573324 4.4314658654907353 3.8451184479573324 4.2937271750602735 11.368700845916949 4.4314658654907353 11.368700845916949 11.459004750889228 4.1227025607311418 4.026184087887235 4.3304605413454693 4.026184087887235 7.1224857771704313 10.378938758043114 4.3304605413454693 10.378938758043114 15.310727953865081 4.8883378558316544 3.8094465147298604 4.6203437687856672 3.8094465147298604 7.9844721567809804 9.6297485543787111 4.6203437687856672 9.6297485543787111 15.993436288285423 4.5571246133027792 3.7263385225983594 3.9697104343529692 3.7263385225983594 7.457822660930022 11.324065570452484 3.9697104343529692 11.324065570452484 16.204247038698217 4.1931758343787928 3.667052429916422 3.6336161582942208 3.667052429916422 8.494123560255268 9.6494035798541375 3.6336161582942208 9.6494035798541375 15.217840402914135 4.2111807209109893 4.6028030730838809 4.5574822610387296 4.6028030730838809 9.1922935550762048 10.080498010497514 4.5574822610387296 10.080498010497514 14.29225304571183 4.233570206373507 3.4657680456090216 3.7549028840897241 3.4657680456090216 7.9295593687306383 8.9439952653197743 3.7549028840897241 8.9439952653197743 15.217796334058743 4.5159175154965023 4.0659539780665321 5.078296795014003 4.0659539780665321 6.4709461259641738 10.569888792499254 5.078296795014003 10.569888792499254 16.033522473609587 4.4545747861009941 3.8949029921885452 4.6596282401268301 3.8949029921885452 7.7028212988782876 8.6778413285195448 4.6596282401268301 8.6778413285195448 14.922958830937855 4.9345062922358149 5.2790346971419506 6.3784843192388436 5.2790346971419506 6.7098921489988905 9.7105796197574161 6.3784843192388436 9.7105796197574161 14.867683378248838 2.9343835065140444 4.8040843340770607 5.6620965097418052 4.8040843340770607 6.0868653360629885 10.788354435052629 5.6620965097418052 10.788354435052629 15.227621190852728 4.581325287067636 4.2903003351559574 5.0353212814130099 4.2903003351559574 7.9951068486580361 9.0419063715125603 5.0353212814130099 9.0419063715125603 14.923126245494435 3.2858639181590972 5.3553332212930558 5.473712527809699 5.3553332212930558 9.2814748610682685 10.611786347396322 5.473712527809699 10.611786347396322 14.879447448566287 2.7623892354230382 4.6676247121678367 6.0442214621538488 4.6676247121678367 6.2407932267023405 10.281720631921882 6.0442214621538488 10.281720631921882 15.48537262214434 4.4984923863078254 5.2909891629607086 5.5702995971238849 5.2909891629607086 8.7721998075934522 10.112980270202993 5.5702995971238849 10.112980270202993 13.898323305341194 4.3760427659071635 4.7955828632402273 5.0517365303336748 4.7955828632402273 8.9176335305896632 9.7378405837450597 5.0517365303336748 9.7378405837450597 14.292198775061234 4.641214786188689 5.2703649420840062 5.9992352287429895 5.2703649420840062 8.1594103188161 9.3467737233198633 5.9992352287429895 9.3467737233198633 13.898313921846006 3.9647112261056394 4.3152556004211968 5.3168983672101593 4.3152556004211968 6.2374762493769538 9.8101307220087755 5.3168983672101593 9.8101307220087755 14.910449158951678 0.55258146347670323 4.6272112708245459 6.5572759259424034 4.6272112708245459 3.4483201348673433 9.8639337516085774 6.5572759259424034 9.8639337516085774 10.079371766446632 0.93796501383728637 5.0088625596201144 8.7392372337031698 5.0088625596201144 3.8361067053861513 11.115160709092617 8.7392372337031698 11.115160709092617 10.127770706023231 1.0986078422923342 4.9677888978155327 6.4967676440337758 4.9677888978155327 3.9251618766974765 11.77632075122148 6.4967676440337758 11.77632075122148 11.842758200040572 1.5230837543248112 4.843562466366139 6.0115116135291711 4.843562466366139 4.299991087562641 11.381405040665854 6.0115116135291711 11.381405040665854 11.738012948873902 2.1517569200640136 5.0583651931782816 6.0731846921173673 5.0583651931782816 5.3554832106778107 10.868751611136929 6.0731846921173673 10.868751611136929 11.731260243923684 0.87827592181322256 4.9882482161690476 6.6951670704171118 4.9882482161690476 4.202554437212342 11.791375206085199 6.6951670704171118 11.791375206085199 12.222597066049358 2.1186463744461759 5.0246040542127872 6.8322075282595174 5.0246040542127872 4.960743211002641 10.057563966645795 6.8322075282595174 10.057563966645795 11.961183555651573 0.08774267950526804 5.8270772000112228 6.4784620125590884 5.8270772000112228 0.53626321722283565 13.397259222214604 6.4784620125590884 13.397259222214604 10.436184147769511 0.78532841845161272 5.1186517090492689 6.1275832720181587 5.1186517090492689 1.176009716413505 12.277401255121976 6.1275832720181587 12.277401255121976 10.542333722918308 1.0105205529339027 5.9959553309440539 6.1975744767813765 5.9959553309440539 2.9051887069742293 11.851372900643076 6.1975744767813765 11.851372900643076 11.275482317451782 1.0980904455942406 5.7092826370411274 6.392544515483034 5.7092826370411274 2.6029154559489909 11.50742324766925 6.392544515483034 11.50742324766925 11.284419820049223 -0.73462645151436323 7.0319647758768582 6.1466448677779706 7.0319647758768582 1.7338680176458143 12.817652600498903 6.1466448677779706 12.817652600498903 10.401691095710397 1.8434054056439937 5.7854266486605628 6.0740432999779932 5.7854266486605628 3.3803681987425946 11.011633213099532 6.0740432999779932 11.011633213099532 13.434603111990835 -1.0896805520194941 6.5662694357611953 6.8482453223468642 6.5662694357611953 0.40062976733351707 13.680319108705778 6.8482453223468642 13.680319108705778 10.919170207647392 0.56656282831100668 5.9067534827050663 6.1314716545906629 5.9067534827050663 0.49277638420983116 13.561203543971972 6.1314716545906629 13.561203543971972 10.805775021295503 0.85705857751908354 5.7642201219065807 5.7970975692883986 5.7642201219065807 2.459839343309393 13.545196560101601 5.7970975692883986 13.545196560101601 10.228728880383741 1.4540692075550141 5.646531471317684 5.392953193480631 5.646531471317684 3.157214720123608 12.251534319906238 5.392953193480631 12.251534319906238 12.238419947696654 4.6996080479039239 6.0247968616796026 6.1704903406985876 6.0247968616796026 9.4395213036511691 10.945076374585184 6.1704903406985876 10.945076374585184 13.898880217283564 1.3436361889739423 6.5813914142545729 6.6175788902660413 6.5813914142545729 3.613528423339476 11.249249357814861 6.6175788902660413 11.249249357814861 12.85961503420835 2.564009616883312 6.953305211033439 5.7941179706012118 6.953305211033439 4.8755316692292316 12.636480998745276 5.7941179706012118 12.636480998745276 13.377480911008918 3.626759924181997 6.2072990066356555 5.8861479463022288 6.2072990066356555 8.0694144510686705 11.727063387997237 5.8861479463022288 11.727063387997237 14.75922705727041 4.5366326163307642 5.6597406670181369 5.6823457099204013 5.6597406670181369 9.360347717764121 10.84631462583188 5.6823457099204013 10.84631462583188 13.89868358330437 1.5117875887763712 6.1413590700109504 5.6378408999329768 6.1413590700109504 3.5095831131335555 11.516624943808708 5.6378408999329768 11.516624943808708 12.952693045587205 2.9428785637980277 6.5592423486985254 5.6206094341293715 6.5592423486985254 4.6586412251799842 11.799385033354969 5.6206094341293715 11.799385033354969 13.482851381082451 2.6528670114811526 5.9641552699634435 6.0443319251811651 5.9641552699634435 5.6566454358163352 11.615028816650643 6.0443319251811651 11.615028816650643 13.849792752330178 3.7884055784358277 6.1235360966279835 6.4334265008804872 6.1235360966279835 6.0353572472934935 11.07238931620514 6.4334265008804872 11.07238931620514 13.26779580431946 4.3230932002117424 5.8166425689763397 5.0593824513789629 5.8166425689763397 10.903761388769533 10.000843531459488 5.0593824513789629 10.000843531459488 13.863811017160856 4.4686408980687471 5.9771996077791121 5.4962379975877882 5.9771996077791121 10.641135160581335 9.6731975530622716 5.4962379975877882 9.6731975530622716 13.86302516356003 4.2258618550649452 6.2867816609147074 5.7757697097763927 6.2867816609147074 10.933577199929696 10.40850080297764 5.7757697097763927 10.40850080297764 14.013363996991936 4.5957825007688813 6.6536641636338958 5.9669655658828642 6.6536641636338958 10.940013119526816 9.9970822200284744 5.9669655658828642 9.9970822200284744 13.204093406580862 0.44341705985662383 6.5164778305160036 6.8184074874988418 6.5164778305160036 3.401423197145315 10.970916628960298 6.8184074874988418 10.970916628960298 12.22620808293312 2.1627900267415732 6.3668507121092439 7.0033512019673978 6.3668507121092439 6.3717765243618514 10.809085760243505 7.0033512019673978 10.809085760243505 13.223327419508371 1.4123637706444749 6.9949005451280106 6.8140388279162067 6.9949005451280106 4.918294047626766 11.580319453710826 6.8140388279162067 11.580319453710826 12.891617147781488 2.1396919536134029 6.247053177848624 6.3265262912083644 6.247053177848624 5.8687669390435948 11.775627796431417 6.3265262912083644 11.775627796431417 13.053924653479379 4.7137919793425613 6.7246696448834573 6.3206084701201037 6.7246696448834573 10.611412128444206 9.5856047629791643 6.3206084701201037 9.5856047629791643 13.204854798711573 3.0984484776677759 6.8774635072902317 6.1279105433203966 6.8774635072902317 10.385263132523916 10.271705241203618 6.1279105433203966 10.271705241203618 12.923807968760142 4.8254385809779565 7.3140242805340945 6.3891013678581938 7.3140242805340945 10.756667784384435 9.9821008941035707 6.3891013678581938 9.9821008941035707 12.818591427265877 5.1742774210503919 6.720277738516554 5.7512488819429795 6.720277738516554 9.3550361887826963 10.716310339381126 5.7512488819429795 10.716310339381126 13.681526606772406 5.0199275939565355 7.3138855176468232 5.9893763601779861 7.3138855176468232 10.059518265404693 10.94902366935175 5.9893763601779861 10.94902366935175 12.883479504605386 4.4726181453416007 6.8119693329741908 6.1188401580494469 6.8119693329741908 7.0914980318133702 10.452559292929699 6.1188401580494469 10.452559292929699 12.889955321644322 3.0665084115167924 8.7543733668591006 6.4690711167636321 8.7543733668591006 7.6599462758213965 10.899533759193297 6.4690711167636321 10.899533759193297 12.390563144717778 -0.8427760285244652 8.3053617629552416 7.3684596934917455 8.3053617629552416 3.6069358584349875 12.706262338356794 7.3684596934917455 12.706262338356794 11.712411775075878 1.2935917418248282 7.6855882401701168 6.5662560164259034 7.6855882401701168 5.2093115131750807 10.898975155959157 6.5662560164259034 10.898975155959157 12.107406260449046 0.55102383874316718 7.4018380620173341 7.5100988258886385 7.4018380620173341 4.8391325587793945 11.786643088934696 7.5100988258886385 11.786643088934696 11.868868164153984 -1.3157779020335223 6.8351473423838298 7.4537399519585685 6.8351473423838298 0.24520010123631675 13.344646185439601 7.4537399519585685 13.344646185439601 10.159243305801798 -1.588934125590904 7.7398097860855417 7.3936392994138105 7.7398097860855417 1.729984724632013 12.522671375820943 7.3936392994138105 12.522671375820943 10.902491285663743 -1.9085528346187886 7.0475078316739497 7.4152381305739512 7.0475078316739497 0.72579892093576337 12.552233994666752 7.4152381305739512 12.552233994666752 9.2641673945185659 -1.0610141680854586 6.292812390923527 7.5696604130858312 6.292812390923527 1.8385615597830096 11.779156223735599 7.5696604130858312 11.779156223735599 9.6869427746653542 -2.58735081121206 6.9570803095493599 7.8117408288708114 6.9570803095493599 0.51563723295602593 13.274259280164134 7.8117408288708114 13.274259280164134 10.416109554426797 -2.186174747970651 6.8357291530238768 8.0907958581571489 6.8357291530238768 1.8568665179503077 12.543089454376622 8.0907958581571489 12.543089454376622 10.587823162915225 -0.93788131392118501 6.2601153283256519 7.0307991665127094 6.2601153283256519 1.8565524198416226 12.813558513757394 7.0307991665127094 12.813558513757394 9.5005144938740891 0.038809836250318419 6.7587262442923786 6.4680776335350858 6.7587262442923786 3.1554351376026544 11.702631784658918 6.4680776335350858 11.702631784658918 12.506383118912254 -3.1568499080504102 7.1445248252006683 8.0347108646091243 7.1445248252006683 -0.67287055879410307 13.448109385584093 8.0347108646091243 13.448109385584093 10.413440328353905 -0.073837273010756377 6.7032203688588048 6.9904351009181847 6.7032203688588048 3.0434250833376475 10.811061448627902 6.9904351009181847 10.811061448627902 12.54307915691783 -0.82508051952839967 7.3819562618927215 6.6705844474854317 7.3819562618927215 1.915388021378253 11.91799720155927 6.6705844474854317 11.91799720155927 12.040950936142041 -2.8451077210218649 7.5607900565028103 8.4843186123182122 7.5607900565028103 -0.47460240925928598 13.96844641277659 8.4843186123182122 13.96844641277659 10.21620701664664 -2.1900186315153709 7.2141182510006301 8.2573075659388682 7.2141182510006301 0.076864819126704731 13.655992957441926 8.2573075659388682 13.655992957441926 10.071338840432752 -1.1980027995625333 5.6700278621048286 7.8666581845770978 5.6700278621048286 4.2007551537410581 10.375828689707523 7.8666581845770978 10.375828689707523 10.74287071250658 -1.9401224459532844 5.9325936870457827 7.7702200790107963 5.9325936870457827 2.8200662420341676 11.335302632890826 7.7702200790107963 11.335302632890826 9.5096707962247464 -0.90105720606404827 6.6286557976623435 7.6817492702194663 6.6286557976623435 2.3974678430616323 10.704937196393763 7.6817492702194663 10.704937196393763 10.57874548896587 -0.25702453310112272 5.9374463194148657 7.0097599009115772 5.9374463194148657 4.3514970799553891 10.35137853169757 7.0097599009115772 10.35137853169757 11.767636730260566 -1.8772842210445386 6.4761714352353028 8.341336518700821 6.4761714352353028 2.3770927238233064 11.779236395426169 8.341336518700821 11.779236395426169 11.441199776986275 0.077288487339156831 5.4946943405650526 6.7944001523578548 5.4946943405650526 4.8106616305324827 10.775290256708109 6.7944001523578548 10.775290256708109 11.688277183678352 0.65732476599328482 5.4797257312471812 7.1081165582052401 5.4797257312471812 5.0581775359877641 9.9888537722094366 7.1081165582052401 9.9888537722094366 12.937333249805612 -0.75093284419678508 5.5200559728321972 8.0697212922666441 5.5200559728321972 4.0906495119162525 9.9201430162658895 8.0697212922666441 9.9201430162658895 10.138047694011206 -1.530591719344252 5.7187560796340717 8.3428539232271692 5.7187560796340717 3.3851056934532324 10.103774462891224 8.3428539232271692 10.103774462891224 9.8771644213245438 0.12672969620510033 5.4753968148230898 7.3863935844954165 5.4753968148230898 4.8571235110801858 9.2336181489823073 7.3863935844954165 9.2336181489823073 12.893547191330482 2.5093896096478749 6.7606886696438462 7.2219479479334812 6.7606886696438462 6.5982888879559836 10.330873769867626 7.2219479479334812 10.330873769867626 14.160315016258709 0.86612626309787677 6.181904140590496 6.8084293915063858 6.181904140590496 5.33466160574112 10.270999402384378 6.8084293915063858 10.270999402384378 13.528568780461525 4.7686518427947364 5.6352063289406393 6.3768469332335833 5.6352063289406393 8.3846305396328393 9.6270581279199874 6.3768469332335833 9.6270581279199874 13.898735798034766 4.7885241772123939 6.0206302397311013 6.4361047086491734 6.0206302397311013 9.0767434188139564 10.491988246444818 6.4361047086491734 10.491988246444818 13.898904342060845 0.77743242835694293 6.5259742590090948 6.718419502278592 6.5259742590090948 5.6928864445573959 11.191901547554904 6.718419502278592 11.191901547554904 13.251836632022169 2.8312652318504372 6.3838456061071849 6.6628950249234196 6.3838456061071849 8.69283102467692 10.949411844143158 6.6628950249234196 10.949411844143158 13.911485514147463 2.2221402368454775 5.8977665335937157 7.4158054887623557 5.8977665335937157 6.4870258214334164 10.268620827656063 7.4158054887623557 10.268620827656063 14.989144819370622 2.6174540349940392 6.5330359327842107 6.8607183025555321 6.5330359327842107 7.0164953952260136 9.8336573800465992 6.8607183025555321 9.8336573800465992 14.193404497412706 5.2561277708213945 6.6493225105205465 5.9981342983933326 6.6493225105205465 8.8839756845596103 10.12744728738379 5.9981342983933326 10.12744728738379 13.681328028375598 5.3816951485136295 5.7959183907255394 6.0000743557013161 5.7959183907255394 7.4844400643541622 8.6854159248075522 6.0000743557013161 8.6854159248075522 14.550270575625099 5.1695210799613385 6.1728046904513922 6.1645653186247156 6.1728046904513922 7.6587281275048689 9.90489792204305 6.1645653186247156 9.90489792204305 14.507233661358212 5.3158049362310935 5.9523989378490079 5.8035973497703104 5.9523989378490079 8.0593106915765382 9.4038132125997684 5.8035973497703104 9.4038132125997684 14.549691086626458 2.4270621524017484 5.3404728544443998 7.5727550912984265 5.3404728544443998 6.0039118802906373 8.0128341346425813 7.5727550912984265 8.0128341346425813 14.571970327141882 5.6453883074710216 5.5582391259894868 5.9673581455703051 5.5582391259894868 7.3986449897413706 7.712684556890764 5.9673581455703051 7.712684556890764 15.775738869754951 5.7350929219331661 5.1778715047364132 5.6931537385515956 5.1778715047364132 6.9341525984814645 7.1576791844171304 5.6931537385515956 7.1576791844171304 16.01332159275627 3.2027679139948564 5.1264130249928623 7.0256430375710046 5.1264130249928623 6.7106452315238556 7.8411531900494813 7.0256430375710046 7.8411531900494813 15.390489473327257 2.3048911468571553 4.9831143555488797 6.6456459532686205 4.9831143555488797 6.8825248039160449 7.0404555157861566 6.6456459532686205 7.0404555157861566 14.689925867510285 2.3390590198136483 4.6397902039868644 6.5901003626352956 4.6397902039868644 6.4308957447371915 5.8064828825278738 6.5901003626352956 5.8064828825278738 14.515353702174096 4.0080236982559585 5.147035756565173 7.2245754764150938 5.147035756565173 8.1736573988197527 6.5841398352905101 7.2245754764150938 6.5841398352905101 16.989460144093776 5.4217854696476673 4.5623748972952498 6.2475164994208816 4.5623748972952498 6.6164967396844068 6.7296495860877403 6.2475164994208816 6.7296495860877403 15.953765985554123 3.3555588280119544 4.7474535142408705 6.6339834608295387 4.7474535142408705 6.3472622963149137 7.2336633129758567 6.6339834608295387 7.2336633129758567 15.910420564285447 5.4400246643423928 4.2768557596093384 6.3029590637887569 4.2768557596093384 5.9708700273250486 5.9221340797615678 6.3029590637887569 5.9221340797615678 15.95364564269485 5.8363960585204531 5.0924137786671055 5.9995174968485889 5.0924137786671055 6.3543191670084198 6.4329912746398374 5.9995174968485889 6.4329912746398374 16.012364092985329 2.6656819058227468 4.4961389815699793 6.647441768869057 4.4961389815699793 8.0948999504880543 4.1653703439309799 6.647441768869057 4.1653703439309799 14.325832807953404 5.7434914944528837 3.1745538453629019 6.4210295538891753 3.1745538453629019 8.9684638502544765 3.7399090315589252 6.4210295538891753 3.7399090315589252 18.140846779009916 5.9619370924855755 4.3668617969474361 6.0001591089739099 4.3668617969474361 5.1140424499287684 3.8608428570600424 6.0001591089739099 3.8608428570600424 16.685866757529006 3.2002190101825585 3.4764594505134552 6.5738265095471249 3.4764594505134552 7.79875492558081 3.1009582649541549 6.5738265095471249 3.1009582649541549 14.963989124849999 6.783848480003221 2.9747813918257817 6.4723495402670883 2.9747813918257817 9.6009911295942274 3.4881654607819903 6.4723495402670883 3.4881654607819903 18.333447499479359 5.895592237892096 4.5468556449897877 5.8014214347356656 4.5468556449897877 5.7385400183386768 4.641421497092769 5.8014214347356656 4.641421497092769 16.686108302744081 3.9488817018193978 4.36344013037544 7.2013109758615386 4.36344013037544 9.0500629716248273 4.3681042945811663 7.2013109758615386 4.3681042945811663 17.89393161190204 4.9794424507651351 3.2948837694339588 6.8676775300155413 3.2948837694339588 8.3554964800489202 2.6493529460854632 6.8676775300155413 2.6493529460854632 15.336847711886673 1.7780812490481968 4.668690405607002 7.1583427999575013 4.668690405607002 8.0079964200302811 3.2780009623575124 7.1583427999575013 3.2780009623575124 14.733437775095535 6.541262751458131 5.6071082110550439 6.0793611664800826 5.6071082110550439 8.3609081009431634 5.3083582773373017 6.0793611664800826 5.3083582773373017 17.564622696889831 2.7792004387225742 4.9681297019748687 7.056911233290494 4.9681297019748687 8.6592020545476345 5.1455800564077858 7.056911233290494 5.1455800564077858 14.669022758056489 3.1164596799745947 3.4546500445301493 7.4424764647746393 3.4546500445301493 9.8683851497974153 2.6784359095118049 7.4424764647746393 2.6784359095118049 15.433028356924776 3.9682550636848113 4.0001290535892275 6.1939768021451371 4.0001290535892275 9.047052924294638 1.9624397125125643 6.1939768021451371 1.9624397125125643 17.818308035716086 2.9920109583651788 3.9910652436674168 6.9787638308796129 3.9910652436674168 8.6192170390739307 3.476435538206164 6.9787638308796129 3.476435538206164 14.56694891825261 5.0007707673371993 4.4429370041249392 6.5377686757484321 4.4429370041249392 7.1667067953871619 2.6510162551930514 6.5377686757484321 2.6510162551930514 17.678244888418089 5.863729703866456 3.3070018699382397 6.2950474880713267 3.3070018699382397 4.9584772181795911 1.0797661758572703 6.2950474880713267 1.0797661758572703 17.839929888157808 5.8773481133996164 3.6331173509997119 6.6725964443946566 3.6331173509997119 4.479345694724457 0.83616646714210885 6.6725964443946566 0.83616646714210885 17.080178631296786 4.8336691800913902 3.3893030209998565 6.1598914967932652 3.3893030209998565 4.2883410342441435 1.2289487692872056 6.1598914967932652 1.2289487692872056 17.409454336711267 5.3487860533593032 3.9158743599503523 6.0320272015899778 3.9158743599503523 5.6109707388958565 5.4705952941879197 6.0320272015899778 5.4705952941879197 15.954133116465181 3.3529353711526992 4.1815970321255387 6.9234851439973726 4.1815970321255387 5.4945663564561151 5.8226920945013596 6.9234851439973726 5.8226920945013596 16.153333680945281 5.4180256640787077 3.2847227544318685 7.0365921910445577 3.2847227544318685 9.2646198207485124 4.3412488415852195 7.0365921910445577 4.3412488415852195 18.606483648091366 5.5631542174170407 3.4782499763033137 6.1150789596181507 3.4782499763033137 9.0656971301568436 3.6306308507788287 6.1150789596181507 3.6306308507788287 18.508150734605831 4.9350810104759155 3.3998933657791417 5.6936802573143934 3.3998933657791417 5.516072727550581 5.3816357951504088 5.6936802573143934 5.3816357951504088 15.647911420597161 4.3150424993294232 2.6703939461335602 6.3896897141251694 2.6703939461335602 9.4424752747108904 3.9298795892803313 6.3896897141251694 3.9298795892803313 15.850941307890423 5.9480161271919512 3.3413897045041363 5.5632487064973262 3.3413897045041363 9.604669679540601 3.8633696621822278 5.5632487064973262 3.8633696621822278 18.0123045537918 4.7142854368388019 2.8979773919404743 5.6121035825300805 2.8979773919404743 9.7645463367117031 2.9223728443197006 5.6121035825300805 2.9223728443197006 16.267946537647838 5.7482253062373365 2.9069567965311842 5.9464145022261405 2.9069567965311842 4.6240402247841139 0.66217689272489655 5.9464145022261405 0.66217689272489655 17.841005629999806 5.3782002746980115 2.6225906773185503 5.5235869314280066 2.6225906773185503 4.9057631674595132 1.3504845090447535 5.5235869314280066 1.3504845090447535 17.548782278422998 5.0405010086512956 2.7376218807604862 6.1113481235744871 2.7376218807604862 4.4265252009062923 1.0582719549517434 6.1113481235744871 1.0582719549517434 18.026116981961565 4.4836664709566252 3.8248128448192142 6.3941334328426747 3.8248128448192142 7.6493121421686139 7.2790065371303605 6.3941334328426747 7.2790065371303605 16.661493627007989 4.3688696075686444 4.586038046596423 5.7987234391183993 4.586038046596423 6.4242862655975488 7.4661244786887302 5.7987234391183993 7.4661244786887302 14.151124431132022 4.4684764570080979 4.3473498240953852 6.5766563473880648 4.3473498240953852 8.3780862532857157 7.9759985524118129 6.5766563473880648 7.9759985524118129 17.069731483186452 4.2014392762261048 4.2531821129098644 6.1982317414862784 4.2531821129098644 7.0450854087330601 8.3424369846788355 6.1982317414862784 8.3424369846788355 15.644526548072207 2.5842096079274661 3.8071859736041813 5.7586694464733679 3.8071859736041813 5.7926427581733062 8.1417500732109254 5.7586694464733679 8.1417500732109254 14.502361139919156 4.8786870309122055 3.5403734175683539 5.526076037327571 3.5403734175683539 6.0180203075575527 6.0112892817091614 5.526076037327571 6.0112892817091614 15.647265708741186 5.2266658278955234 4.5342257170570388 5.6667173135627893 4.5342257170570388 7.3341881949707375 7.6266473758618361 5.6667173135627893 7.6266473758618361 15.951730317920852 3.9602816987058036 4.3548826202706561 6.5709845704168544 4.3548826202706561 5.2853019056257926 6.2764449154221369 6.5709845704168544 6.2764449154221369 16.20699002529668 4.0364200680140012 3.4512220846141894 4.0438120477567381 3.4512220846141894 5.6197439056589769 6.8955142578801603 4.0438120477567381 6.8955142578801603 16.824229280672089 4.4433946814457963 3.2590291699590508 5.0859307837724792 3.2590291699590508 7.6298370895120833 7.3588519797045633 5.0859307837724792 7.3588519797045633 16.899655188208833 4.6538202523709415 4.1866036320582749 5.2535285286250692 4.1866036320582749 7.496910697184374 8.4190409783564224 5.2535285286250692 8.4190409783564224 14.922935694438378 5.2749599059162611 4.341825515594401 5.8095529016419363 4.341825515594401 6.7584390118020128 6.9074993066660824 5.8095529016419363 6.9074993066660824 15.953645096080027 2.0626681261019546 3.898370979788329 6.4394763575774068 3.898370979788329 6.7716422019421021 8.3037231022937341 6.4394763575774068 8.3037231022937341 11.808485544517678 3.0434406925090913 4.1640370433414162 6.3598236856913655 4.1640370433414162 6.9969970345372907 7.9950400577657863 6.3598236856913655 7.9950400577657863 14.625286006556053 1.95859795261874 4.1965382318687956 6.5520498233340598 4.1965382318687956 6.9137401669281395 8.400458896839254 6.5520498233340598 8.400458896839254 11.388570499569992 1.5580375960390001 4.2881673180087905 6.9531383840013374 4.2881673180087905 6.6137055712853705 9.220118250612904 6.9531383840013374 9.220118250612904 11.501924234110927 2.1594613532257507 4.062419591637882 5.9581011965393254 4.062419591637882 7.4838780899069981 8.0070972380828103 5.9581011965393254 8.0070972380828103 12.380088559541916 2.420951241753678 4.2736550849797101 6.5343897678551484 4.2736550849797101 6.5720064211972895 8.5874295517350383 6.5343897678551484 8.5874295517350383 12.352802581769948 3.8609455189783439 2.8762863503445448 6.367190199863904 2.8762863503445448 8.729676020349256 3.964299800470874 6.367190199863904 3.964299800470874 12.786861859345688 2.7739573862695095 3.8560690045094477 6.3462819026615964 3.8560690045094477 9.3620066525376675 5.5834539792465563 6.3462819026615964 5.5834539792465563 12.540516189642972 3.2940538055952513 3.1971011031804384 6.4721845427090301 3.1971011031804384 10.332197840082028 7.1338170674277759 6.4721845427090301 7.1338170674277759 12.711558470684743 2.761621949202004 3.3863743574960572 5.7838867159426304 3.3863743574960572 9.1838252780526837 6.2794249615839188 5.7838867159426304 6.2794249615839188 12.688494105070079 4.1898265300056918 2.5281150623051749 5.9872701440563016 2.5281150623051749 9.8817686003159437 6.0629680851579977 5.9872701440563016 6.0629680851579977 12.526757195633195 4.4762403409724021 2.5529423441911385 5.5241904182341157 2.5529423441911385 9.0261958025597444 4.2716128728727689 5.5241904182341157 4.2716128728727689 13.797678900024497 2.7424966361685463 3.2353386330616352 6.7534183412298674 3.2353386330616352 9.7934716912161051 5.0443121256258143 6.7534183412298674 5.0443121256258143 13.168166050774552 3.9342804337841475 2.3805543390672108 6.1822643484243534 2.3805543390672108 9.7890836462322159 5.3888988075266511 6.1822643484243534 5.3888988075266511 11.272655009302056 2.5363394282383354 3.4813349153788447 7.79778964106446 3.4813349153788447 9.5574458644799591 4.8611003960809409 7.79778964106446 4.8611003960809409 11.985330152898415 2.5399808597675895 3.5231478577319941 7.2845752086935187 3.5231478577319941 8.5022261556029282 5.346050501111586 7.2845752086935187 5.346050501111586 12.930845316395466 1.4852587478895416 4.6820704946689711 8.0746051390307283 4.6820704946689711 8.2172474346526183 6.5630360854482159 8.0746051390307283 6.5630360854482159 12.570425310703286 1.308325266577163 4.4043288906011604 7.7643874266877502 4.4043288906011604 8.9125856495536677 5.8825858724489368 7.7643874266877502 5.8825858724489368 12.804829931342322 0.67315765647491488 4.3520608426426177 7.7684933669609135 4.3520608426426177 9.0622075739685126 5.915210586504946 7.7684933669609135 5.915210586504946 11.988112609049415 0.48652652242289385 4.012382771986708 7.9575055952550988 4.012382771986708 9.4456340651397301 5.8934213228141958 7.9575055952550988 5.8934213228141958 11.803089641786199 0.0034911288762335957 3.9999497705521736 8.3913353202089738 3.9999497705521736 8.7366810773540422 5.8780634688837221 8.3913353202089738 5.8780634688837221 10.090497234148888 1.1289216765166969 3.947732956406468 8.0817762399358948 3.947732956406468 9.4913243099295528 4.8179345985041397 8.0817762399358948 4.8179345985041397 12.046803203871203 0.73698932340400702 3.8212214837656124 8.3936568660996809 3.8212214837656124 9.4202856628955942 4.7350775915929333 8.3936568660996809 4.7350775915929333 11.848203335412242 1.6676510586230924 4.0010715185833554 6.9425433655082518 4.0010715185833554 9.105839852401985 3.9027930917155533 6.9425433655082518 3.9027930917155533 13.850575823243876 0.17914018240602392 4.5029166131840945 7.8732553768347859 4.5029166131840945 7.2715919844335826 6.6766090051932805 7.8732553768347859 6.6766090051932805 11.577662429281455 0.96906652061637344 4.6042060945654129 8.1381378794514294 4.6042060945654129 6.7789534786121886 7.4516376868283096 8.1381378794514294 7.4516376868283096 12.297715545839493 -0.0059751075462544101 4.6755225587991234 8.0967527838962283 4.6755225587991234 6.7384387711478606 7.8464886684889228 8.0967527838962283 7.8464886684889228 11.981246523140488 -0.5510390412726931 4.775519937835031 8.4108045561670419 4.775519937835031 6.5070590549224923 8.4792111502649981 8.4108045561670419 8.4792111502649981 10.495577474820429 0.38961535996317659 4.776532093754879 7.4564607690852363 4.776532093754879 7.3990230772932479 8.7003796878667927 7.4564607690852363 8.7003796878667927 12.497583209936401 0.75552715755840794 5.338373574947008 6.9225976441757613 5.338373574947008 6.6775085420406866 8.5660995036972665 6.9225976441757613 8.5660995036972665 13.156776975073932 1.6445536788697872 5.0675422551756508 7.4104654896798916 5.0675422551756508 6.4991113651626033 7.6377516876420035 7.4104654896798916 7.6377516876420035 12.749345718882839 -0.80299708571425654 4.8373630903594078 8.1107708654730679 4.8373630903594078 5.9701237577090351 9.22983968247501 8.1107708654730679 9.22983968247501 10.880633162355691 -0.36270003056608591 4.9793274593334216 7.9273693918715376 4.9793274593334216 5.9024668103508278 8.6403031401996238 7.9273693918715376 8.6403031401996238 10.860742865654988 -1.0668722802064909 5.5776631380956534 8.0767029130942056 5.5776631380956534 4.6264274437864561 9.625078461763577 8.0767029130942056 9.625078461763577 10.416895207807013 -1.48415346769678 5.225827504635661 8.3369576653103756 5.225827504635661 4.7902615998221085 10.282985739712275 8.3369576653103756 10.282985739712275 9.4427542978314563 -1.7026419369015979 5.5636856568085236 8.8506247600139893 5.5636856568085236 4.3478202491694091 10.610715564427775 8.8506247600139893 10.610715564427775 9.1237464595339972 -2.8828533643031689 4.9812924759292292 9.494232007699658 4.9812924759292292 3.954744850738706 12.611739597808732 9.494232007699658 12.611739597808732 7.2423522503677198 -2.4602952433297984 5.1871275694681325 8.841452025876503 5.1871275694681325 5.1758966644021767 10.507740573691137 8.841452025876503 10.507740573691137 5.9285887972628899 -1.8433901431940702 4.8508741609634658 8.5909966663542292 4.8508741609634658 5.0321428171303255 8.9728918562966378 8.5909966663542292 8.9728918562966378 8.1423586030257802 -2.6283458744668344 5.548485489171247 9.3834412406746459 5.548485489171247 3.3664073968949317 11.713919108061022 9.3834412406746459 11.713919108061022 6.3437262268676413 -2.8105230669377721 5.1410384654144412 9.6237911019932678 5.1410384654144412 3.782574944957958 11.721309451562091 9.6237911019932678 11.721309451562091 6.6511259213675853 -2.4728915345431144 4.9996028187307555 9.5664325692842898 4.9996028187307555 5.4198313431373375 9.8419163722045298 9.5664325692842898 9.8419163722045298 6.9452570108463263 -2.6912345233960941 5.0805218621124988 10.326206265786571 5.0805218621124988 4.3388394433024402 11.022034842234827 10.326206265786571 11.022034842234827 7.6191769937389822 -1.2606881025960037 4.3762165405361904 8.8593016876766502 4.3762165405361904 6.3436131626300831 8.3378989111345909 8.8593016876766502 8.3378989111345909 8.2631126577889127 -1.9984527298854053 5.0112626918312344 8.8881558818842166 5.0112626918312344 5.5105184430418515 9.5326207766562447 8.8881558818842166 9.5326207766562447 7.2640225447551146 -0.58287807751803911 4.140646152120901 8.4108593071241948 4.140646152120901 8.8469536900082399 7.4803386667947906 8.4108593071241948 7.4803386667947906 8.6853112068697769 -0.85089384026667547 4.4173883746092901 8.9545626305284927 4.4173883746092901 9.0385288293337744 7.5158280345361828 8.9545626305284927 7.5158280345361828 8.4404929373974351 -2.4177921988479376 4.3992810637341293 9.9103541047743633 4.3992810637341293 6.0267195494940351 9.7743538503979845 9.9103541047743633 9.7743538503979845 5.4859587514211228 -1.3838926591289171 4.4597276284558545 9.2229260552343568 4.4597276284558545 7.2020800367229176 8.5529638138121449 9.2229260552343568 8.5529638138121449 8.5236922412270424 -1.8462450093870295 4.1770295783544471 9.6383764889385919 4.1770295783544471 8.2564718386445826 8.5244100901013855 9.6383764889385919 8.5244100901013855 6.2263355120657131 -1.7058700258829997 3.999358500746772 9.5517512972588143 3.999358500746772 8.1049726524652463 7.6332029687920881 9.5517512972588143 7.6332029687920881 6.9513739942184074 -1.4259828769380416 4.0050456742415497 9.3946454968545581 4.0050456742415497 8.3859134889226059 7.816820077444623 9.3946454968545581 7.816820077444623 7.2487332086895258 -0.56666047995533475 3.9540237916158247 8.8522680880740126 3.9540237916158247 8.8579845248610791 6.8158436881603919 8.8522680880740126 6.8158436881603919 9.1409079609126138 -1.04662627043996 3.5530366972781509 9.3129757166847433 3.5530366972781509 8.4193565391355705 7.0692225985364985 9.3129757166847433 7.0692225985364985 8.4898926226331213 0.25410819431575771 3.4562584053056038 8.9400868654785803 3.4562584053056038 8.7577275803422463 7.3892639014613097 8.9400868654785803 7.3892639014613097 9.0758388597414665 -0.74489143011130743 3.5030487006810915 9.3022803472311715 3.5030487006810915 7.7176305732108395 7.9823220530381294 9.3022803472311715 7.9823220530381294 5.8593979535205065 -0.32459522794686091 3.8897002325603744 8.5762847611739659 3.8897002325603744 7.681669785180592 8.9546623954618632 8.5762847611739659 8.9546623954618632 5.4142625903458494 1.1361900454545344 3.9902936711871599 8.0624650468028136 3.9902936711871599 8.8838733687148697 8.3612292478974268 8.0624650468028136 8.3612292478974268 9.931980658219878 1.342348661712204 3.6435695385966933 8.0039772867497074 3.6435695385966933 8.9718915095607201 7.341437700688429 8.0039772867497074 7.341437700688429 9.5887897624740379 0.99085646677793093 2.729802808139441 7.7313969209028235 2.729802808139441 7.6213116021554299 8.1763810482164061 7.7313969209028235 8.1763810482164061 7.4603066873704051 2.4065681236371299 2.7677697954863913 6.8387463993380422 2.7677697954863913 9.4308612553458779 6.7674244860450283 6.8387463993380422 6.7674244860450283 9.6093295679099633 2.0560879823892853 3.063508255091937 7.237409401130904 3.063508255091937 9.577346899618945 7.8620149040775793 7.237409401130904 7.8620149040775793 9.1194354744913362 0.33202338330773884 3.6012584762943156 8.5880649930725852 3.6012584762943156 8.0486526980081976 7.5520632732691455 8.5880649930725852 7.5520632732691455 6.9519121070333441 1.7110458775474378 3.0912512616897483 7.7332879449198941 3.0912512616897483 8.6969742179652663 5.888167046956176 7.7332879449198941 5.888167046956176 9.6782041267728847 2.6490476299350343 2.4505193267616305 8.1388133444262962 2.4505193267616305 8.8353348128843159 7.9701578784411531 8.1388133444262962 7.9701578784411531 8.2469899541359695 1.2948620460055844 2.9790488210365256 8.0426797258875542 2.9790488210365256 8.9363900490725747 7.4524340626913954 8.0426797258875542 7.4524340626913954 8.6100914424728519 3.5676171112393007 2.5260198314194415 6.3007646486045719 2.5260198314194415 9.2613932393881964 6.0211340816360934 6.3007646486045719 6.0211340816360934 9.81945824735541 0.48088501704239239 3.9493276217813467 8.4077053452812294 3.9493276217813467 5.4441802723884685 11.661936046110403 8.4077053452812294 11.661936046110403 7.9647980046685598 -0.54113285085735097 3.889325163180307 8.5595683634330637 3.889325163180307 5.3104426799049573 10.84059777331381 8.5595683634330637 10.84059777331381 6.7117374630052247 0.044021185769646642 3.4068746780173544 8.4978828994557745 3.4068746780173544 5.1092297985311603 9.3539321719228905 8.4978828994557745 9.3539321719228905 8.8258118391582805 0.31226363939217627 3.9076294096402013 7.7344529800099364 3.9076294096402013 5.7575712409675068 11.270131102215334 7.7344529800099364 11.270131102215334 8.2860272205672771 0.45370668837991524 4.0820980217153222 7.8087527917677235 4.0820980217153222 5.3896932524396561 10.207098147667182 7.8087527917677235 10.207098147667182 8.0895051440563783 0.69618828284892142 3.9133477392564924 6.9158943540502777 3.9133477392564924 5.3993443884910368 8.9720360789369753 6.9158943540502777 8.9720360789369753 7.5479404631601881 1.3345113172712399 3.941401626032925 6.8088725388204612 3.941401626032925 6.0029399967246464 10.150244784170603 6.8088725388204612 10.150244784170603 8.3897791816560794 -1.1362649993560208 4.8544153613857723 8.4526795348479418 4.8544153613857723 4.1170583147782773 11.689794503557007 8.4526795348479418 11.689794503557007 7.3335589297405512 -1.2573374675112463 3.8515117533382934 10.482998073708266 3.8515117533382934 5.2530597784898667 11.186165189711115 10.482998073708266 11.186165189711115 3.8279154459410165 -1.1534969545041247 3.6066558376027622 8.983195395859509 3.6066558376027622 3.8552575452993105 12.680280045474541 8.983195395859509 12.680280045474541 4.9765858437424342 -1.9369576533180428 4.7151797959232598 9.4464743606729353 4.7151797959232598 2.7980555499699604 12.793797450882124 9.4464743606729353 12.793797450882124 3.5680445233736293 -0.86813437820059614 3.8371350437012977 8.6157445002235011 3.8371350437012977 3.9454739600920172 13.094247471838965 8.6157445002235011 13.094247471838965 3.5366497164891371 -0.71980947793913341 3.7318742571914565 8.4123020251011198 3.7318742571914565 4.1018943512684638 12.639142503303425 8.4123020251011198 12.639142503303425 4.3644611574241887 -1.3558101476317845 4.038466902992857 9.7765295927679912 4.038466902992857 4.8650462805092207 13.302854025463036 9.7765295927679912 13.302854025463036 4.1449140269344511 -1.8822885183717828 3.9418812091342179 10.146404020674357 3.9418812091342179 3.1884792314941377 13.589723425098773 10.146404020674357 13.589723425098773 3.7586548618263702 -2.3874229137000462 4.7308525692618755 9.8040325194739069 4.7308525692618755 2.1739724267518987 14.53034043753016 9.8040325194739069 14.53034043753016 4.2451267332575888 -2.3111850910102332 4.6975891228834143 9.883029091275322 4.6975891228834143 2.5182328358116122 13.565605094827511 9.883029091275322 13.565605094827511 3.7769364255360465 -1.1115254084405279 3.951623879473249 8.7563486470041934 3.951623879473249 3.0911661611406567 14.264548227628421 8.7563486470041934 14.264548227628421 4.4148014765734338 -1.4979641430693702 3.9240719640974389 8.8436051668135249 3.9240719640974389 2.4893367638198027 14.499516906070411 8.8436051668135249 14.499516906070411 3.6168957540232078 -0.89614790002584188 3.8873299252632814 9.5282631875317421 3.8873299252632814 5.7558950638694686 11.1958173575476 9.5282631875317421 11.1958173575476 4.7434725292755289 -1.0905220607662622 3.9611802822135864 8.3137163913629148 3.9611802822135864 7.4707305357158269 9.4923168405279323 8.3137163913629148 9.4923168405279323 3.9278625108922665 0.7987753816250337 2.8945531517694731 8.2628423469768837 2.8945531517694731 7.1279797457477905 8.6423699304666854 8.2628423469768837 8.6423699304666854 5.953821381718047 -0.38783232625329411 2.9352041684818677 9.3407539587768902 2.9352041684818677 5.5114979415101235 11.573561402065671 9.3407539587768902 11.573561402065671 5.3430526317297709 0.38351554021468282 2.678485106646038 8.4728938533416258 2.678485106646038 7.3235543046457661 9.6936810254061641 8.4728938533416258 9.6936810254061641 4.5710089030595773 0.12556316621250463 3.0058834448159293 8.9111063113359599 3.0058834448159293 7.5664177902347474 10.526264064573605 8.9111063113359599 10.526264064573605 4.9804473784159509 -0.24240140290511958 2.8306425928929069 9.5926970286908642 2.8306425928929069 7.0848721939673567 11.150790853894932 9.5926970286908642 11.150790853894932 3.7425207245458143 0.010049449089269746 2.4987555504000025 9.1492984957693313 2.4987555504000025 6.8402007950960027 10.309792202851806 9.1492984957693313 10.309792202851806 3.324746022190789 -1.0658955826414105 3.1043799811678938 9.6478965263159093 3.1043799811678938 6.4982420547100617 10.715750558894335 9.6478965263159093 10.715750558894335 3.2270488501519896 -2.4462766245045304 4.0376918379875342 10.698842372909553 4.0376918379875342 7.2347723586126707 9.1036994459379219 10.698842372909553 9.1036994459379219 4.5288962601824831 -1.0863372379866472 3.2712163179295355 10.158901419737523 3.2712163179295355 7.4625523961071476 9.471036238022295 10.158901419737523 9.471036238022295 5.4741336420464268 -3.1228333960779562 4.6139302343920239 10.701211998144037 4.6139302343920239 4.8574788836463867 11.386624974255961 10.701211998144037 11.386624974255961 4.0681042565092334 -2.5625946426079986 3.9590902551643996 10.201471953589763 3.9590902551643996 4.4460893259409611 11.69451223211912 10.201471953589763 11.69451223211912 3.4634085076890848 -1.8895549642339866 4.0917753570567887 9.829099443214119 4.0917753570567887 5.13052103876994 11.695870317792384 9.829099443214119 11.695870317792384 5.1087890089378591 -1.1760214153686186 3.2087482898403268 9.4223408920083571 3.2087482898403268 7.4340536700899049 8.6910576111767597 9.4223408920083571 8.6910576111767597 4.8221126341021279 -1.9490338138902896 3.8353946031232899 9.7630549241251376 3.8353946031232899 7.7898090641600053 8.7085811225723866 9.7630549241251376 8.7085811225723866 5.8820284317431861 -0.57535770834715194 3.2281654307870289 9.3510619068380265 3.2281654307870289 7.6850287561062167 8.3072580316482494 9.3510619068380265 8.3072580316482494 5.9775041625497636 -1.7811648057156821 3.0777502791383484 10.480945118309769 3.0777502791383484 6.2592194242239989 10.942640531328077 10.480945118309769 10.942640531328077 3.7547030438721727 -1.7810199188671572 3.0021526843292423 9.7103336410688232 3.0021526843292423 6.4500607375240016 9.9794575697644383 9.7103336410688232 9.9794575697644383 3.3164083864563665 -2.8185161962754393 3.6212246871314431 10.956379382445775 3.6212246871314431 5.5446401470535012 10.640350934235592 10.956379382445775 10.640350934235592 3.4698950833505364 -2.7437558437700744 4.033349753104007 10.804820924086851 4.033349753104007 6.5113199559810964 10.110541081000019 10.804820924086851 10.110541081000019 3.9129416770465788 -2.9040902133591717 3.9999509856125655 10.823775642146924 3.9999509856125655 6.6417021067807678 9.4761980953541425 10.823775642146924 9.4761980953541425 3.5236863011818969 -1.9914429907462292 4.2327008750225925 10.206215409416819 4.2327008750225925 8.0202430518177188 8.2460520548696934 10.206215409416819 8.2460520548696934 6.6443784995259811 -2.0846933132313552 3.8852883588353428 10.342179186859937 3.8852883588353428 7.5630097753990988 8.420287150998055 10.342179186859937 8.420287150998055 6.3084345597729801 -2.7789335674551356 4.6929910536985568 9.7824963968341887 4.6929910536985568 5.4779664599700642 10.282186776936815 9.7824963968341887 10.282186776936815 5.7225754298573506 -3.5331007225761897 4.7330480940280166 10.99598339993379 4.7330480940280166 3.6116286290266868 11.822558938914604 10.99598339993379 11.822558938914604 2.9724420130794282 -3.5658383123666368 4.6570944327210793 10.750364198757392 4.6570944327210793 4.12470801983181 11.589332478657234 10.750364198757392 11.589332478657234 3.3593145514787004 -2.6269297126563025 4.1184531182531758 11.330296160154344 4.1184531182531758 5.7652816264865256 10.462813253429974 11.330296160154344 10.462813253429974 3.880563756055988 -3.8264386888839814 4.8847602613042547 11.176369971153045 4.8847602613042547 3.8192699523056666 12.014308407476461 11.176369971153045 12.014308407476461 2.4159268164042347 -4.2197161218537405 5.0623949937334896 11.201059631977515 5.0623949937334896 3.2696980421993502 12.877461196759022 11.201059631977515 12.877461196759022 3.0317773391656129 -4.231983331770472 5.0040877094988563 10.044936593844689 5.0040877094988563 2.5263498707416785 13.029751207333003 10.044936593844689 13.029751207333003 3.0639523773443642 -3.8636322366337641 4.8409662185000553 11.699501022928278 4.8409662185000553 3.5749788724893996 13.060444167931887 11.699501022928278 13.060444167931887 3.4385833128375083 -3.8762262962082796 4.8160661031586312 10.913595869090315 4.8160661031586312 4.3377964933311954 11.762056606220263 10.913595869090315 11.762056606220263 2.8297848214039352 -2.9945883490703356 4.718469019871149 10.581184802697072 4.718469019871149 2.3597088242699824 13.467081612350322 10.581184802697072 13.467081612350322 3.4907793236699263 -2.2907194360947454 4.2767489142552124 10.725540378169494 4.2767489142552124 4.6992813363889532 12.282741925333028 10.725540378169494 12.282741925333028 3.868276873611606 -3.5832495931463577 4.9979123852122127 10.294387872441664 4.9979123852122127 3.3965225810103425 12.116539276502607 10.294387872441664 12.116539276502607 4.882372037623254 -2.9384140388673012 4.866845476527387 10.242263879727801 4.866845476527387 5.173830207082176 10.763717344275038 10.242263879727801 10.763717344275038 5.7956590712254084 -4.2957671393038188 5.1352189900443639 10.981102754757924 5.1352189900443639 2.828791763674539 12.603080513570191 10.981102754757924 12.603080513570191 2.9752717842419827 -4.1507634556389839 5.1398764507902035 10.895118693312902 5.1398764507902035 2.5344543602847862 13.579309267776065 10.895118693312902 13.579309267776065 3.3884901904419982 -4.224095160827706 5.5825467810476015 11.471123659977408 5.5825467810476015 1.0040775191285247 14.450896436205497 11.471123659977408 14.450896436205497 3.899710932851951 -4.2192264770332608 5.2013690467660618 10.660097548669068 5.2013690467660618 2.1470957602110903 13.342636417069389 10.660097548669068 13.342636417069389 3.3707040322383488 -4.6812468971370507 6.5768752710910752 9.9255625613038916 6.5768752710910752 -0.29499982720927254 15.101544552229967 9.9255625613038916 15.101544552229967 4.9823035521461128 -3.9798682719452563 5.9990729360663622 10.383794165961152 5.9990729360663622 0.42436922536815658 14.319537605070279 10.383794165961152 14.319537605070279 5.4297092129171389 -4.0230261492523951 5.9070465882976197 10.101670403998984 5.9070465882976197 -0.5833951327409177 15.722208673233128 10.101670403998984 15.722208673233128 4.1110455971003521 -4.7679777735133317 6.013454433428234 11.05676202695485 6.013454433428234 0.24785970500143151 15.778726458431329 11.05676202695485 15.778726458431329 3.059575568627583 -5.2229478040276778 6.4241762621061991 10.408148556950495 6.4241762621061991 -0.96311952923656352 15.390403424193309 10.408148556950495 15.390403424193309 3.5798185558447324 -4.77603207728915 6.1873785618891652 10.917536273620492 6.1873785618891652 -0.0021261586942573629 15.702908485349647 10.917536273620492 15.702908485349647 3.0338639139568464 -4.7448978440568377 5.5462287641071493 10.579435372640075 5.5462287641071493 0.39708543409488506 14.892552670916764 10.579435372640075 14.892552670916764 3.2154758403476897 -4.6076757398594888 5.861431893629379 10.660590204057133 5.861431893629379 0.14926419225631893 14.889682147098922 10.660590204057133 14.889682147098922 3.7067118428887191 -5.2434718037653738 6.0531641861168621 11.188420727988431 6.0531641861168621 -1.1810852453141205 16.491588577683686 11.188420727988431 16.491588577683686 3.1082480529578973 -3.9671680697057132 5.6752245165074315 10.664697771189536 5.6752245165074315 0.63576762907055118 15.616720353085077 10.664697771189536 15.616720353085077 3.4301113279587483 -3.7651310823385939 5.8600953447997446 8.7092831439774532 5.8600953447997446 1.0784202143029074 12.118312121679027 8.7092831439774532 12.118312121679027 5.2517760530119624 -3.5232420597854732 5.851561132469377 10.064766948418661 5.851561132469377 0.25769226292418512 13.208838562585656 10.064766948418661 13.208838562585656 6.8994042586209616 -3.1123017442400789 5.5552374420698065 9.3954742273065843 5.5552374420698065 2.6085607884078392 12.231834498904464 9.3954742273065843 12.231834498904464 6.4183313882905004 -3.5719199831269126 6.0384081714398903 9.4472635711067525 6.0384081714398903 0.51077090356850596 13.589403479690525 9.4472635711067525 13.589403479690525 7.3592196656272115 -4.2567372773770806 6.4242135461096135 9.4809334715240716 6.4242135461096135 0.020857907222175953 14.243488071456547 9.4809334715240716 14.243488071456547 6.562251725133919 -2.2561728137642603 6.1835080079377542 8.2234883986029885 6.1835080079377542 2.7519473653016528 12.109081627077243 8.2234883986029885 12.109081627077243 9.517105634199714 -1.9136105356084787 5.9652063815139087 8.7588794501048888 5.9652063815139087 3.2399101467384783 10.727610884303562 8.7588794501048888 10.727610884303562 9.2374952999713429 -2.6821170663082317 6.2559753984679141 8.5034394280248655 6.2559753984679141 1.6355968161131782 12.584474451202125 8.5034394280248655 12.584474451202125 8.8733460641902653 -3.2316946706931917 6.3520398270914695 8.9390961486058895 6.3520398270914695 0.95609396848378569 12.893296178924533 8.9390961486058895 12.893296178924533 7.8632471241244772 -3.7621567217813219 6.4408115448376613 9.519687114361755 6.4408115448376613 1.507124450896729 13.298630930241844 9.519687114361755 13.298630930241844 7.5689370704455499 -4.0932410124334613 7.1307094831028346 8.4686290490474025 7.1307094831028346 -1.6319755709595949 14.141204458491444 8.4686290490474025 14.141204458491444 7.8400062244776549 -4.3789600211083322 7.3714647106877429 8.7566974270147888 7.3714647106877429 -2.2714557573562257 14.543786437688862 8.7566974270147888 14.543786437688862 7.5528536366904557 -4.0248414833224144 6.6090260312623377 9.0156842246530822 6.6090260312623377 -2.3698476544474536 15.979605949040787 9.0156842246530822 15.979605949040787 6.6257867511451156 -4.4634609967840442 6.4249558773431357 9.5889652084664814 6.4249558773431357 -1.1931242736581753 14.646951604204846 9.5889652084664814 14.646951604204846 6.989405622583952 -3.4148285543507164 6.8342064719936202 8.6798909545095455 6.8342064719936202 -1.0530335551304049 15.145057138332723 8.6798909545095455 15.145057138332723 8.1832129961852242 -5.2120840650602682 7.0141303156061738 9.2888174008862148 7.0141303156061738 -3.0240107513772108 15.650846395997277 9.2888174008862148 15.650846395997277 6.2346001188847984 -4.9162447786338532 6.8028510019182855 10.076316512959682 6.8028510019182855 -1.4370903816084315 15.793842142371851 10.076316512959682 15.793842142371851 5.8336171265548344 -3.7488934478309019 6.834824829094293 8.9727416499723365 6.834824829094293 -0.84766213319470651 13.815763099751875 8.9727416499723365 13.815763099751875 7.8924189455524854 -4.8315204114060162 7.5822294832053627 9.5387786779107806 7.5822294832053627 -2.2774250802798544 15.686137042712492 9.5387786779107806 15.686137042712492 7.2515429781208525 -4.4123342643461356 7.38167055660813 9.3137824529268194 7.38167055660813 -1.685171806344119 15.382874297808943 9.3137824529268194 15.382874297808943 7.4699982118302515 -3.5582367740188037 7.592092567752549 8.5120998750990058 7.592092567752549 -1.055262077126951 14.273090628419038 8.5120998750990058 14.273090628419038 8.9563599576728841 -4.5894198514668165 6.9085264559038135 9.4401828609176146 6.9085264559038135 -2.545224794683286 16.959515996222244 9.4401828609176146 16.959515996222244 5.2450882873003142 -5.6508740786693252 7.2918519048728356 9.8365075750749664 7.2918519048728356 -3.4096014311214908 16.328831911889917 9.8365075750749664 16.328831911889917 5.1775357279323373 -5.3405260061621025 7.7374595554123955 9.4737982010427082 7.7374595554123955 -2.4757448782952647 16.351135496348476 9.4737982010427082 16.351135496348476 6.1824045922163364 -6.4877957937457715 7.162536481560549 10.572983300541225 7.162536481560549 -4.2770065682216369 17.558923104510381 10.572983300541225 17.558923104510381 2.7648355463055898 -4.1971188131594444 6.3695131855079685 10.732294953856881 6.3695131855079685 -1.565853375561763 17.258291771755218 10.732294953856881 17.258291771755218 4.8520250373086258 -5.7537258160662059 7.5435826315012786 10.314546371248953 7.5435826315012786 -3.2763995953735314 17.051705035512406 10.314546371248953 17.051705035512406 5.2956462100937003 -5.7768453808648932 7.2537736273895428 9.8324456337417203 7.2537736273895428 -3.2791499314790187 16.906873302779882 9.8324456337417203 16.906873302779882 5.2053826172342283 -6.4594583239826733 7.671047667323303 10.828012797022303 7.671047667323303 -3.8194057913797188 18.209870194625658 10.828012797022303 18.209870194625658 3.4046747904478138 -4.2065604725836927 6.4617820569948616 10.267063238326838 6.4617820569948616 -1.5762241257354752 17.910997247475869 10.267063238326838 17.910997247475869 4.7932660795057673 -4.7957924062134518 6.6190830646863859 10.135362633696266 6.6190830646863859 -3.6813786674669933 18.094204697743645 10.135362633696266 18.094204697743645 3.7750016734509764 -4.8188798700832516 6.6361652573819132 9.7363355797813984 6.6361652573819132 -3.3458832387724096 18.177951935163261 9.7363355797813984 18.177951935163261 3.4054723057913776 -5.8303730170344821 7.5291504022126379 10.354217848304827 7.5291504022126379 -3.1039361150333455 17.672634029166648 10.354217848304827 17.672634029166648 5.3642889740776951 -5.7054453818762605 6.4040924768642649 10.971842728610159 6.4040924768642649 -2.0683559628810082 16.859648371227429 10.971842728610159 16.859648371227429 4.0867440038993994 -5.5562656279776448 6.7367736017221214 10.877889802869978 6.7367736017221214 -1.6447134385677726 16.75436719619718 10.877889802869978 16.75436719619718 3.6688564621771818 -6.36839515683927 7.6139476906295798 11.145349463167197 7.6139476906295798 -3.9356810160785201 18.543067251622467 11.145349463167197 18.543067251622467 3.145615315222102 -5.4386765194039324 6.9914421714222188 11.116288934911596 6.9914421714222188 -1.9244440674490519 17.267459869234248 11.116288934911596 17.267459869234248 2.9390185771617574 -5.5683345248071081 6.6817602418549686 11.196123426765608 6.6817602418549686 -2.3454542161806859 17.386735370112781 11.196123426765608 17.386735370112781 3.296345256523054 -5.980817975591302 7.1138628815531657 11.380761138058416 7.1138628815531657 -3.6041349668150655 18.499097557930781 11.380761138058416 18.499097557930781 2.9255042244895293 -5.1425236461317141 6.7056757084763543 10.506271085442924 6.7056757084763543 -1.3122651571407737 16.122889826566144 10.506271085442924 16.122889826566144 4.7464179585549697 -5.0902274934739813 6.9065025106948452 10.026756417816102 6.9065025106948452 -2.9896139489372944 18.861499839259778 10.026756417816102 18.861499839259778 2.7386659920221028 -5.0593752985578941 6.8970891530168288 10.429174032415212 6.8970891530168288 -3.3164058756625163 18.787275334049138 10.429174032415212 18.787275334049138 3.1174219056609971 -6.0718378340785204 7.2448523404164593 11.207548037964504 7.2448523404164593 -3.2966518414164456 19.206646561565407 11.207548037964504 19.206646561565407 3.0509809885138779 -4.2349588747066989 6.7911729874470819 9.5835103169701608 6.7911729874470819 -2.6451083267447615 17.502213119520064 9.5835103169701608 17.502213119520064 4.8329201855241664 -3.8030389550375672 5.942487828188006 9.2858112300305464 5.942487828188006 -1.8217674213439503 16.754586265519812 9.2858112300305464 16.754586265519812 3.7738409076724793 -2.5094922652182978 6.053896381138907 8.4836462962927328 6.053896381138907 -1.6239482200288833 16.981694721482903 8.4836462962927328 16.981694721482903 5.1333530925470789 -3.0976333605563995 5.7267661380540433 8.8056818896089428 5.7267661380540433 -2.6266189904648862 17.590417403113364 8.8056818896089428 17.590417403113364 3.4093542324357102 -3.1950933482080242 5.9659285885917352 9.4519312320236395 5.9659285885917352 -3.1070637087490569 17.79813948854672 9.4519312320236395 17.79813948854672 4.0170531363873305 -4.316849264939906 6.5508204293888648 9.1635694642820216 6.5508204293888648 -3.4668755812190244 17.214800272140781 9.1635694642820216 17.214800272140781 3.1738505418081333 -3.7488469907766295 6.6974038566034277 8.8338568368265538 6.6974038566034277 -2.7107116803910825 16.401722489997169 8.8338568368265538 16.401722489997169 4.5933519651211485 -2.9190365438655324 5.511824976146972 9.4482954593089872 5.511824976146972 -1.7111372051985043 17.507083385349247 9.4482954593089872 17.507083385349247 4.3834522547418509 -4.3561403886260779 6.3415991530793336 9.9490042103030962 6.3415991530793336 -2.93579334575871 18.966319776457915 9.9490042103030962 18.966319776457915 2.6501285087451301 -3.4686550696493397 6.1904694965816311 10.043383489220769 6.1904694965816311 -2.7609401416952197 18.763776243582647 10.043383489220769 18.763776243582647 3.4869154084909333 -3.4090722633322574 5.9691200147661609 9.3971606702772625 5.9691200147661609 -2.3473364053615127 18.532689629383327 9.3971606702772625 18.532689629383327 2.814232681104885 -0.72475754367243295 6.1850437006664913 7.0485133395054183 6.1850437006664913 -0.3906057662642175 13.656015097302646 7.0485133395054183 13.656015097302646 9.2492635620991184 -1.5468544009240466 5.8344439863976714 7.6712418229898161 5.8344439863976714 -1.710136322028406 13.979804977027708 7.6712418229898161 13.979804977027708 6.8930648172445004 -1.7936449322592871 6.4158249407972114 7.597001720651174 6.4158249407972114 -0.31739336935989648 14.323238025423073 7.597001720651174 14.323238025423073 8.9530001135994226 -2.8869496804525738 6.5053025116501155 8.2801550056177007 6.5053025116501155 -2.3306040258189658 15.121484211286235 8.2801550056177007 15.121484211286235 7.2167079173290301 -2.4288963403797963 6.505963936758322 7.672641653201465 6.505963936758322 -0.90594725603028614 15.003918621171536 7.672641653201465 15.003918621171536 7.5611153290607565 -2.5719763994572604 6.1718370319349516 7.8870366912151999 6.1718370319349516 -1.5516097686242212 15.049811884175192 7.8870366912151999 15.049811884175192 7.0302455425628025 -2.3741135335598917 5.9791574125155593 7.9356605384093575 5.9791574125155593 -1.2446107523525995 16.252528272943458 7.9356605384093575 16.252528272943458 6.0821517183117884 -0.80173415705063356 5.0743509482636675 7.9645871513326529 5.0743509482636675 -1.5099838890908508 15.737835672534658 7.9645871513326529 15.737835672534658 6.7898246849800294 -0.019365818934716117 5.8895398744596097 6.138316452761325 5.8895398744596097 0.41120292996691532 14.54579786153141 6.138316452761325 14.54579786153141 9.0861738615647987 -1.5901567851587899 5.2687626528073679 7.0981369864498625 5.2687626528073679 1.8204456014833177 12.660769445095918 7.0981369864498625 12.660769445095918 5.4677814450932622 -0.86806055745849398 4.9733662398276506 8.2501321373473218 4.9733662398276506 1.64631601552346 13.417430778724196 8.2501321373473218 13.417430778724196 6.6285234267876607 -0.50820299962284832 5.0625665467050061 7.8068186109151974 5.0625665467050061 2.7334422042221567 12.015518083089091 7.8068186109151974 12.015518083089091 8.2377657880296304 -1.5335507634965935 5.058182432778735 8.1481528931788549 5.058182432778735 1.7256940590073673 14.447539746516139 8.1481528931788549 14.447539746516139 8.3761661680266837 -0.87628783290336099 4.7522649400242827 7.7193948253514098 4.7522649400242827 1.8877705094321744 12.520762786585266 7.7193948253514098 12.520762786585266 7.1620214481461364 -0.26709636792772118 4.9027070712253273 7.2942449906539917 4.9027070712253273 2.7118795181308317 12.744891163457542 7.2942449906539917 12.744891163457542 7.8289401254745563 0.57837263762650704 4.7382345291019066 7.5801659484604631 4.7382345291019066 2.3274924803657013 12.774642655420212 7.5801659484604631 12.774642655420212 7.2880675362752854 -2.5028412571533001 5.3860612929612373 9.4351297534075762 5.3860612929612373 0.25262712953482014 16.754067594722681 9.4351297534075762 16.754067594722681 4.9098843038333824 -2.0847991092137841 5.0957542342702844 9.03672219793979 5.0957542342702844 0.55001937610011442 14.107397290956104 9.03672219793979 14.107397290956104 3.3665709374079533 -2.4130628753148486 4.9814280520153336 10.18396269091464 4.9814280520153336 0.15784163639835924 15.190430784414133 10.18396269091464 15.190430784414133 3.7134241005785515 -1.4044728118220569 4.4994408575336138 8.3872930395854457 4.4994408575336138 1.6925744402008078 15.59686001694492 8.3872930395854457 15.59686001694492 5.0533115434647229 -1.6310624310620523 4.890203382486435 8.6796387262450363 4.890203382486435 -0.10263376054810847 16.305344052422413 8.6796387262450363 16.305344052422413 4.9250971967454138 -1.1258644429214648 3.9413236186007534 7.6726404867244398 3.9413236186007534 0.84489916232358553 14.25204947374081 7.6726404867244398 14.25204947374081 3.6591812873430349 -2.1571835667767751 4.7534045043103319 8.5803486927679984 4.7534045043103319 -0.21051188596941905 13.099104001854437 8.5803486927679984 13.099104001854437 2.6244599380748888 -2.8932968100705541 4.8885296236678277 9.3111690515042262 4.8885296236678277 0.22849941277101671 14.90591144191532 9.3111690515042262 14.90591144191532 3.6200594531108283 -2.9515757422665474 4.747894318513187 10.133725519712883 4.747894318513187 -0.012351967423689825 15.617077714365587 10.133725519712883 15.617077714365587 3.5501760937286191 0.035558064988921778 3.8337923436375716 7.9608616607980451 3.8337923436375716 0.10059473212689518 15.026241064650289 7.9608616607980451 15.026241064650289 3.2359339520509742 0.30087581121354523 4.0873453836879783 8.4105830866760307 4.0873453836879783 1.9504131446654722 14.319559468759852 8.4105830866760307 14.319559468759852 4.2905079568603774 -1.2977722111661707 5.0121964336161389 8.0763263660365308 5.0121964336161389 0.17849513027252151 16.51118456442985 8.0763263660365308 16.51118456442985 4.3245372639117949 -0.40044339149607122 4.2903540597088679 8.8662062683621183 4.2903540597088679 1.4243154317941054 14.818340254184449 8.8662062683621183 14.818340254184449 4.7986798297878224 0.24900936306973387 3.8177772109995112 7.9369924900315381 3.8177772109995112 1.0428676413063251 15.502088453037533 7.9369924900315381 15.502088453037533 4.9382187866016825 0.21485262392942084 4.1694165570268584 7.9703728059964449 4.1694165570268584 0.37499753833047778 16.023374631489332 7.9703728059964449 16.023374631489332 3.9737464136234264 0.93878022352743695 3.1597017810721755 7.8731491200799848 3.1597017810721755 2.6077083539569488 15.317960593554435 7.8731491200799848 15.317960593554435 5.6866448030791936 1.0113559958183529 3.7423183453444882 6.6009749786778134 3.7423183453444882 0.47594201306293971 16.855871729439578 6.6009749786778134 16.855871729439578 3.6103794175483186 -1.508197431326173 4.9495001817503823 7.1496498314885804 4.9495001817503823 0.5657674735597733 14.920572674884557 7.1496498314885804 14.920572674884557 2.7768725498247839 -0.2403684274999307 4.2313871987326959 8.4054954815901759 4.2313871987326959 0.53654334988328234 17.045275023994158 8.4054954815901759 17.045275023994158 4.4430390059629694 0.1967014617450058 4.3522525619823993 7.841715579772635 4.3522525619823993 1.6640032911092231 13.118279103198148 7.841715579772635 13.118279103198148 5.6506085778231352 2.0797345107519494 3.9391739748511996 6.496281733738952 3.9391739748511996 4.2675801946854559 14.651427513776115 6.496281733738952 14.651427513776115 10.415356714217499 1.5001714903728596 3.7638832833614995 6.0282451558554149 3.7638832833614995 1.9426429327617929 12.234573357093659 6.0282451558554149 12.234573357093659 7.3316894497557872 0.30948340839383226 5.0604628447855369 7.0565884369967611 5.0604628447855369 0.85177419607089622 13.526653931152328 7.0565884369967611 13.526653931152328 7.83030537576672 1.837682844344533 3.9518318741754719 5.6415933075087423 3.9518318741754719 2.4079650946360029 12.030956619198065 5.6415933075087423 12.030956619198065 7.3641893493902799 2.2434912366476771 3.9871802620787546 5.2431300467704691 3.9871802620787546 2.6881155115636011 13.243864303879418 5.2431300467704691 13.243864303879418 7.6546574069545557 3.1278956073888118 4.0084677635156662 5.053848551489116 4.0084677635156662 4.094507489893668 12.264951477581185 5.053848551489116 12.264951477581185 10.46272856733944 2.0410813427524293 3.8461129092975015 6.0111547361166426 3.8461129092975015 3.0871966612143806 12.011279531894186 6.0111547361166426 12.011279531894186 7.8007941926429929 1.7444500771803091 4.064428107082362 5.7106386194920571 4.064428107082362 1.8110048653089554 13.962305055465769 5.7106386194920571 13.962305055465769 7.5087993859605273 0.91850078233325083 4.5649411783757898 5.5978813124198332 4.5649411783757898 -1.294825184128348 14.951429625145124 5.5978813124198332 14.951429625145124 6.1126010797908759 -0.46696087563155775 5.2372260904538814 6.7438184691910958 5.2372260904538814 -1.1142254732824277 15.637710800517461 6.7438184691910958 15.637710800517461 5.9396491706042216 -0.53370953181986636 5.0731271889168372 7.6105173450871701 5.0731271889168372 -1.3913672455115718 14.971238642606943 7.6105173450871701 14.971238642606943 6.6150120427893313 1.9690372462367423 4.4512364574367433 5.3646330289236213 4.4512364574367433 -0.25182125488939544 13.918944003961348 5.3646330289236213 13.918944003961348 9.3287123138645498 0.41299096272351754 5.5446472459413281 6.3756651520789216 5.5446472459413281 0.36155648341819457 14.729975926098783 6.3756651520789216 14.729975926098783 8.7151586395578846 1.2870254977331275 4.8705286622987387 5.7794156283799785 4.8705286622987387 -0.78868899434982964 14.937847133925787 5.7794156283799785 14.937847133925787 7.0596279940071973 0.75338239734215362 4.9100326815089455 5.6020203461486506 4.9100326815089455 -1.5157697967223061 15.844699595134685 5.6020203461486506 15.844699595134685 6.6438947640357497 0.9585032901392716 4.7320971111082759 6.0688413542734105 4.7320971111082759 -1.7612947361997868 16.532096800145233 6.0688413542734105 16.532096800145233 5.8950930328973463 -0.77990790063701887 5.6122473298197662 7.2961395080388192 5.6122473298197662 -1.5857322658049817 16.466553356378554 7.2961395080388192 16.466553356378554 6.0570447807800321 0.064351552310086824 5.1668383569936642 6.3232143865399504 5.1668383569936642 -1.1989972777757822 16.980410517369059 6.3232143865399504 16.980410517369059 7.2923015111634086 -2.2128325683156742 4.8774484776546512 7.6137897879525518 4.8774484776546512 -3.2291103434023514 16.596147843680932 7.6137897879525518 16.596147843680932 3.0055000881552933 -1.3694801412157451 5.2095765347833742 7.4383214928769092 5.2095765347833742 -2.7208440868248704 18.298242995435661 7.4383214928769092 18.298242995435661 2.9015622218912576 -2.850204859763585 5.5954329299276644 8.5556028709069949 5.5954329299276644 -2.0360212653392575 19.081048424480951 8.5556028709069949 19.081048424480951 4.0612266231704357 -2.1203577880647115 4.9899982424520868 7.9718421556081864 4.9899982424520868 -2.8017417599220273 17.839601829235779 7.9718421556081864 17.839601829235779 3.4153917627135844 -1.4701987584910565 5.0368294877437352 8.2069841246861834 5.0368294877437352 -2.7369647238067003 18.119623763272408 8.2069841246861834 18.119623763272408 3.6887334106835645 -1.0272127707053622 4.9161201162197816 8.2281697992944896 4.9161201162197816 -0.83726474906359094 17.676248761478845 8.2281697992944896 17.676248761478845 4.0578031658428451 0.37268804868122452 4.3631430500985324 7.3412462613626257 4.3631430500985324 -0.44231421286071182 17.823862334973597 7.3412462613626257 17.823862334973597 3.7218395285046721 -0.27344002277486756 4.7668698978104693 6.9812236829217937 4.7668698978104693 -2.5597037335428903 18.056316468176572 6.9812236829217937 18.056316468176572 3.0860264529976811 -0.96343293204594538 5.1589014555632859 7.7172570578536455 5.1589014555632859 -2.8121352810483016 18.646068668775243 7.7172570578536455 18.646068668775243 3.01472660169226 -0.30799937636587771 4.9245235351362444 7.0483364547571377 4.9245235351362444 -2.7111250434630954 18.153584787075278 7.0483364547571377 18.153584787075278 2.5736762142521901 -0.79459480447464248 4.9722265735294444 7.8689202707744386 4.9722265735294444 -2.2215806049722788 19.560804486216785 7.8689202707744386 19.560804486216785 3.3482926524809251 -0.7978081943569677 5.1062786417318966 7.1971635693842213 5.1062786417318966 -2.0473296983875482 17.409149110531708 7.1971635693842213 17.409149110531708 4.7781628588051461 0.65639185556838009 5.0413205100840157 6.1561734045639547 5.0413205100840157 -1.6031906996412955 17.271960628959413 6.1561734045639547 17.271960628959413 5.4982754383429979 2.1198013654202952 3.7145786930430158 5.4684125322239412 3.7145786930430158 0.73825771820048969 16.22538397762068 5.4684125322239412 16.22538397762068 7.1676985800583832 0.34719697422794749 4.0912453684566144 6.9936830923191362 4.0912453684566144 -0.72376739930866929 17.309092478587484 6.9936830923191362 17.309092478587484 3.4786512100073494 1.5386312156483744 4.6548721790691108 5.5814729157579537 4.6548721790691108 -1.7938437524793303 16.406236793277511 5.5814729157579537 16.406236793277511 6.4002408522569354 0.44748640158785191 4.5935057123633332 6.6516732226539554 4.5935057123633332 -2.8472557020397189 17.395044745282405 6.6516732226539554 17.395044745282405 2.7863886417103192 2.822871649439211 3.3945251481217893 4.4968568875069082 3.3945251481217893 0.53057330690213256 15.687545729978496 4.4968568875069082 15.687545729978496 5.7006188361140318 1.1733762858389079 3.9229253575045879 6.9220472932754644 3.9229253575045879 -0.1049363979221648 17.207480377839559 6.9220472932754644 17.207480377839559 4.0091657781936636 0.83354212978038689 3.6811022798969342 6.5123176046610896 3.6811022798969342 -1.0812655255039774 16.00061995609299 6.5123176046610896 16.00061995609299 2.8148109010010742 -0.54060217389646126 4.7588028875339514 7.0523437599274956 4.7588028875339514 -2.1860038272489835 18.751056879793509 7.0523437599274956 18.751056879793509 2.8286632994274621 -0.5604947972654335 4.9047199281774354 7.1375414427360946 4.9047199281774354 -2.2603205714410306 18.889673786704904 7.1375414427360946 18.889673786704904 2.3095409455378366 0.77673753452292371 4.2651483494616604 6.2248154295153224 4.2651483494616604 -1.4182672023071559 19.178701304598686 6.2248154295153224 19.178701304598686 3.346424759776168 1.5894879496408998 3.3132875199324379 6.7350958861024832 3.3132875199324379 -0.064632853789326372 17.772441231247385 6.7350958861024832 17.772441231247385 3.8515040332995518 1.5177684333761194 2.9415920467986405 6.0521182007232817 2.9415920467986405 -0.79524950964874352 16.702661703391431 6.0521182007232817 16.702661703391431 3.2227327747920498 0.91610444353501497 3.7920585233636133 6.540039036271847 3.7920585233636133 -1.7144409894601285 18.42491967261947 6.540039036271847 18.42491967261947 3.3017666267511645 1.2146730401288348 3.9190217216980616 6.1169904000429351 3.9190217216980616 -1.8588781168541746 18.463894731716241 6.1169904000429351 18.463894731716241 3.5824170418108725 2.4287221063396078 4.2665546539741834 4.9176471155247068 4.2665546539741834 -1.3006950005159315 17.151149953089668 4.9176471155247068 17.151149953089668 6.4461112620746945 2.1814519835495307 3.9208045291702507 5.137449136124598 3.9208045291702507 -1.3135267085146616 17.172697918031133 5.137449136124598 17.172697918031133 5.9351492003502528 1.3603139880687465 4.0001490863486175 5.8585814999909545 4.0001490863486175 -1.7634317158815564 18.300682155250477 5.8585814999909545 18.300682155250477 3.4803142608693314 2.8440981849622942 3.9991358329982165 4.7297967856156014 3.9991358329982165 -1.003291713069693 16.278300324172317 4.7297967856156014 16.278300324172317 6.7294677403898753 2.4047639723335976 3.7427115454890174 4.9695476111745087 3.7427115454890174 -1.1820079043571781 16.434766549434645 4.9695476111745087 16.434766549434645 5.6038344338718318 3.0186846850045246 3.9755912615665974 4.6493550308804092 3.9755912615665974 -0.98067842695739671 15.664359114960348 4.6493550308804092 15.664359114960348 7.0055833778392156 2.5313144286560347 4.1718522881407054 4.8435996585749432 4.1718522881407054 -1.3562243383987587 16.311841033735437 4.8435996585749432 16.311841033735437 6.0039898306808492 1.3320018929574191 4.5088635377668744 5.6899254139218556 4.5088635377668744 -1.3180570428155667 16.782108946682303 5.6899254139218556 16.782108946682303 5.6144343588870242 2.2223168132681663 4.5410886055350153 5.0260402741597119 4.5410886055350153 -0.4422539825183982 15.346941766748561 5.0260402741597119 15.346941766748561 8.0893928311009642 2.1823572978937342 4.3560382209507473 4.6274771737141069 4.3560382209507473 0.3345896580075598 14.781858628357547 4.6274771737141069 14.781858628357547 9.2707039319216662 3.3719067900663426 4.3506945085129516 4.3953305806583991 4.3506945085129516 -0.15850212139782238 15.023988781177446 4.3953305806583991 15.023988781177446 7.878048613840539 3.5787292344796429 4.118711394860604 4.0730714558084582 4.118711394860604 0.18238303084274676 14.646428381091429 4.0730714558084582 14.646428381091429 8.6329222865867372 3.1364692129515692 3.7538351403913151 4.2831343521576146 3.7538351403913151 -0.65946538235389873 15.248322310846126 4.2831343521576146 15.248322310846126 7.4779570556376527 3.7299311426687636 3.6534250335324767 4.5321142264790213 3.6534250335324767 1.5101939163877636 14.838986689439819 4.5321142264790213 14.838986689439819 8.0383172042832278 2.9286343660850127 3.6820704887496456 4.4869637977636456 3.6820704887496456 0.77629645868125774 15.528732285809886 4.4869637977636456 15.528732285809886 5.8050211972996486 4.3552457156845241 2.5673436476932752 4.8714704621189693 2.5673436476932752 4.40429004345956 13.063676945663239 4.8714704621189693 13.063676945663239 7.9347078278379275 3.5354685499035909 3.4237000103534632 4.8269696285511543 3.4237000103534632 2.3208226484506369 13.913683194041845 4.8269696285511543 13.913683194041845 7.1665594760144913 2.4684681516337066 3.6621936350263242 5.9187517487516592 3.6621936350263242 1.4784587725290517 14.686295155697559 5.9187517487516592 14.686295155697559 6.545594511591549 4.7076442589181493 2.8030974940122704 4.4376067037596396 2.8030974940122704 3.3921897259050064 12.027051505479616 4.4376067037596396 12.027051505479616 9.1276944035341288 3.4175633318055283 2.8714314267341736 5.0865334111763136 2.8714314267341736 2.5705205765634052 13.040862674340286 5.0865334111763136 13.040862674340286 7.1076156170987304 2.8428718514389146 3.6308003805957969 5.2457581605379655 3.6308003805957969 1.1773402097080643 13.713099629832975 5.2457581605379655 13.713099629832975 5.0177818195719404 4.0410273897217914 3.3629596406983491 4.7592251978928486 3.3629596406983491 2.5084418055137627 13.345027131876817 4.7592251978928486 13.345027131876817 7.9494493056758166 4.125794953540117 3.1434928415924168 4.6118449097406629 3.1434928415924168 3.0596146408526348 13.63195540465358 4.6118449097406629 13.63195540465358 7.7015053482089488 4.6598330372931951 3.179829881522485 3.7048530651314762 3.179829881522485 3.1945906435341649 12.992550304052129 3.7048530651314762 12.992550304052129 9.2294744759178986 5.09214019289176 2.7067970423747463 3.7079582770933834 2.7067970423747463 5.4084050210157368 10.796423721402046 3.7079582770933834 10.796423721402046 9.0267658073683279 3.1349159648259821 3.0545550662579646 5.3556868217708988 3.0545550662579646 2.8574206684444086 14.151174160403656 5.3556868217708988 14.151174160403656 6.3536991271292065 2.184971587295232 2.8506929566867867 6.3611115638061975 2.8506929566867867 1.0952573236210856 16.326010206636692 6.3611115638061975 16.326010206636692 3.6733278855838662 2.6561834700112081 2.9998962908199633 6.2351412004008013 2.9998962908199633 1.9770457811784585 15.552492530581794 6.2351412004008013 15.552492530581794 4.8413916131611447 1.4646742898427372 3.102780741525395 6.6973166491208165 3.102780741525395 1.7088148848744267 15.97454579208275 6.6973166491208165 15.97454579208275 4.9916728091781195 2.6436658858696669 2.7896595351381777 5.5855178444435163 2.7896595351381777 2.0899711801748415 14.368419893991152 5.5855178444435163 14.368419893991152 3.9543192440018515 1.7415749711250736 3.3534043414254211 6.732136350989391 3.3534043414254211 0.52724212512439728 16.388319656783796 6.732136350989391 16.388319656783796 3.0528668866923532 2.3832149512066758 2.8418874286528846 6.8014536470835338 2.8418874286528846 1.6769398182035902 16.386813266699701 6.8014536470835338 16.386813266699701 4.0302183663521802 2.3315883641194564 2.6063073597783259 6.1656984524407701 2.6063073597783259 1.731397619197983 15.209547797529048 6.1656984524407701 15.209547797529048 3.0272508756837126 2.7094695608639565 2.6374134079378293 6.4908164299378495 2.6374134079378293 2.9835124321029713 14.719375385836823 6.4908164299378495 14.719375385836823 3.4869004137563167 3.7629962033666962 1.9346264548619825 5.9750304800898553 1.9346264548619825 4.9974880134799422 12.863165538466424 5.9750304800898553 12.863165538466424 3.0398430940665833 2.5814263910250808 1.9858426405688361 6.4602088299729976 1.9858426405688361 6.063586404186502 12.171516262744888 6.4602088299729976 12.171516262744888 5.0026595346659386 3.3496138320292466 2.4314395034943779 5.8466581600719998 2.4314395034943779 3.7545266507004391 13.083137259778896 5.8466581600719998 13.083137259778896 3.89853960469617 1.9519455743101748 2.3171408641502236 6.6069837277875614 2.3171408641502236 3.8659947502124092 13.389511398901345 6.6069837277875614 13.389511398901345 4.4127607188875508 3.4485499808206499 1.8973948596857944 6.7630983490487599 1.8973948596857944 4.4122098541064556 14.053864497607693 6.7630983490487599 14.053864497607693 3.7265282604655638 3.752229750960784 2.1686200880434932 5.5403709477410112 2.1686200880434932 5.2110645107803526 12.221523937491369 5.5403709477410112 12.221523937491369 3.7248120208037321 4.256627995835232 1.6881106990609334 5.594275811996833 1.6881106990609334 6.5691098290353542 11.562454914168264 5.594275811996833 11.562454914168264 4.3376283712590098 4.4959396983694075 1.5154492606517413 5.3010690831029077 1.5154492606517413 7.156913237653213 10.424664407705997 5.3010690831029077 10.424664407705997 6.0036744093464414 3.4037278054235363 2.1159109775845764 6.3322570672578644 2.1159109775845764 4.6109998534902772 13.399851836866397 6.3322570672578644 13.399851836866397 4.3549376902954329 3.9195605632534054 1.9200552589407835 5.1892342612484876 1.9200552589407835 5.6681737897836157 11.802130997894803 5.1892342612484876 11.802130997894803 5.1457946012958686 3.7883473817791531 1.8848690757896214 6.60414216066774 1.8848690757896214 5.1629417043397661 12.894341610932209 6.60414216066774 12.894341610932209 3.0344084835210161 0.14951100184625776 3.3173232281490121 8.4999499296784986 3.3173232281490121 4.6661909533403323 13.650588402236405 8.4999499296784986 13.650588402236405 5.2124457162850355 1.0376715750519172 2.9730516923634389 7.9919754845214417 2.9730516923634389 4.5793310738831874 12.636216492716137 7.9919754845214417 12.636216492716137 4.6597427988855991 0.31583016792604424 3.4119243111493418 7.9807105819124668 3.4119243111493418 4.0354769229638752 11.630791876304583 7.9807105819124668 11.630791876304583 3.9027548202791298 0.54986000671038893 4.0026614646922036 7.5710367981752604 4.0026614646922036 3.014893808627042 12.757404039176661 7.5710367981752604 12.757404039176661 3.3134232872307745 1.4470556746936296 3.1415784570950289 7.9504140183531966 3.1415784570950289 4.5397035044958933 14.118792851317766 7.9504140183531966 14.118792851317766 4.6762136039003259 1.1065358235382021 3.0125538440921535 7.0350154662619966 3.0125538440921535 3.1475062274571783 13.552474567182678 7.0350154662619966 13.552474567182678 4.4292688002638201 1.3413515515278989 2.9133658431343448 8.812390858826781 2.9133658431343448 4.4174306857379975 13.038626085484079 8.812390858826781 13.038626085484079 4.7531727876018319 -0.060839265840344048 3.8067002504219882 8.7829959503603359 3.8067002504219882 3.1508064586188365 14.652093465821922 8.7829959503603359 14.652093465821922 5.2848343860244569 2.9444159370594996 2.4178003979098386 6.4441823829638567 2.4178003979098386 5.7882679934672305 9.9486621844977492 6.4441823829638567 9.9486621844977492 8.4821911026168291 2.5217114678997961 3.0401500735801492 6.6489015807671841 3.0401500735801492 6.4184890893539448 10.124964424808065 6.6489015807671841 10.124964424808065 8.7040623082844135 3.0549575280336176 3.149183431154611 5.940225799495285 3.149183431154611 6.4546951440033835 9.8546689898072142 5.940225799495285 9.8546689898072142 7.4402146574499639 2.9956248944418773 3.0861644749813451 6.0025393627933319 3.0861644749813451 6.1839582635809593 11.018995234136 6.0025393627933319 11.018995234136 8.6676135646282884 1.9001669860058161 4.0510597501903689 6.1450706841584788 4.0510597501903689 4.974634301369619 11.044667037092735 6.1450706841584788 11.044667037092735 9.0986403599561498 1.7020042657217385 3.5051295393357043 6.7033821326996081 3.5051295393357043 4.7413476890141322 10.70941128266503 6.7033821326996081 10.70941128266503 8.3875593464867393 4.9311276216410391 2.3242410092461414 4.66654888894751 2.3242410092461414 5.8988291832068427 10.247059562715924 4.66654888894751 10.247059562715924 8.017587905699564 5.8273953692200555 2.6142565514233405 4.5406875940993787 2.6142565514233405 7.0190349412607587 10.012081680325476 4.5406875940993787 10.012081680325476 9.6965601354922679 4.9123246472935129 2.4267506854628356 5.8121239346385023 2.4267506854628356 5.4243928003566175 11.601913809225463 5.8121239346385023 11.601913809225463 9.3204526820638982 4.4660657994804271 2.4354851937352646 3.7927034951671308 2.4354851937352646 5.2099463959333328 11.506006466149151 3.7927034951671308 11.506006466149151 6.8546720515359212 4.8315425600594715 1.9846331290223362 4.919173144590359 1.9846331290223362 6.6411052552646339 10.683616117845354 4.919173144590359 10.683616117845354 7.9503896323331276 5.9843966449271182 1.7493393065488057 4.0351492682815779 1.7493393065488057 8.3346441598222114 8.4097527906456904 4.0351492682815779 8.4097527906456904 10.211590799066229 5.2867748890273667 1.6742319441490907 4.4547369434567834 1.6742319441490907 7.7578253321048862 9.6686970484669637 4.4547369434567834 9.6686970484669637 7.6189907331581406 5.3529593757844536 2.4568507405440818 3.9212868692790659 2.4568507405440818 6.1007901483711615 10.400743949734208 3.9212868692790659 10.400743949734208 9.5283663340931106 5.7954827398309039 0.54476561153253478 5.5399159169339844 0.54476561153253478 9.2741618638669259 8.584723463486883 5.5399159169339844 8.584723463486883 6.4796348079877362 4.6157761195007048 1.301711825071008 5.9997944600191522 1.301711825071008 8.2039943736464735 8.3081058498155187 5.9997944600191522 8.3081058498155187 6.1997661517569753 6.8859205369657097 1.1948991197935031 4.1862986561262447 1.1948991197935031 10.860757728927224 7.3509024589228638 4.1862986561262447 7.3509024589228638 10.776871318616775 6.6476970807495874 0.58210674280557051 4.7503173489416923 0.58210674280557051 10.619568303081577 8.3575734658979837 4.7503173489416923 8.3575734658979837 9.1935557468310058 6.3693260417371906 0.95865564479660526 4.7697553144786635 0.95865564479660526 10.124239614374382 7.4270849544632451 4.7697553144786635 7.4270849544632451 9.1946492890392371 5.7969638724438006 1.3547976119201572 4.6655510206908613 1.3547976119201572 9.1215108037025452 8.8520495187681902 4.6655510206908613 8.8520495187681902 8.6865031739758525 5.7096305875662097 1.3388109171154821 5.2778299202128371 1.3388109171154821 9.279867878081749 7.6192086820282192 5.2778299202128371 7.6192086820282192 9.4745438605623313 4.8244966703937013 1.3350261633242206 5.0302828723422044 1.3350261633242206 8.0218956885070742 10.015398780401103 5.0302828723422044 10.015398780401103 5.8793145313144635 6.5254563703241217 0.26379154390042059 4.8528376107447917 0.26379154390042059 9.9203715006737276 7.5996979815931267 4.8528376107447917 7.5996979815931267 7.5194898925279023 6.7643679036176216 0.67537739011377051 3.8722392960211032 0.67537739011377051 9.9198531921533206 6.1066273385620349 3.8722392960211032 6.1066273385620349 8.8114405072701274 6.9898059515200837 0.29924596816749116 3.8158338428880221 0.29924596816749116 10.455596708922187 7.0172319102911356 3.8158338428880221 7.0172319102911356 8.7828057586966679 3.8263028261296257 1.9120420028039549 6.4006861740003007 1.9120420028039549 8.4902087652240041 8.0276532176481687 6.4006861740003007 8.0276532176481687 8.2369568315973982 4.9463168365404293 1.6096793005545056 6.2078040263785867 1.6096793005545056 8.9372601110511471 7.2430639479324146 6.2078040263785867 7.2430639479324146 8.2898836043209982 5.5707190927140928 1.6999670607081732 5.2008411287160747 1.6999670607081732 9.9399591242818559 6.9263119600053544 5.2008411287160747 6.9263119600053544 10.583628899095084 2.9559234429885226 2.6114009258137361 6.9884106651658584 2.6114009258137361 9.5485976452168675 9.3134723411259319 6.9884106651658584 9.3134723411259319 9.4901743313487916 4.4625763977268385 2.7841663163080015 6.3638042013057809 2.7841663163080015 10.395930059543197 7.6604334401528931 6.3638042013057809 7.6604334401528931 10.274437281252618 3.321874556478646 2.3711429918291338 5.9875737581401154 2.3711429918291338 9.0910641477859127 7.8429337465251212 5.9875737581401154 7.8429337465251212 8.2684610812995771 3.1710834912378951 2.2040393878199986 6.987403505291427 2.2040393878199986 8.4137995704680275 6.5487788948674588 6.987403505291427 6.5487788948674588 7.1769281977168156 3.9732439479684905 2.2869528860336987 6.2938453313916476 2.2869528860336987 9.3214316355671727 6.3959790120445881 6.2938453313916476 6.3959790120445881 10.024352902164953 2.8453396507057684 1.8636546985681894 7.375113400928119 1.8636546985681894 7.5915240173441454 8.6058478954115447 7.375113400928119 8.6058478954115447 5.5910182824854955 1.5793076971433984 2.7223924164340927 8.2555288179985897 2.7223924164340927 5.819570301491285 11.377925922816274 8.2555288179985897 11.377925922816274 4.8907681723195759 3.6824979489265579 1.4740630254089113 6.8766962132932274 1.4740630254089113 8.0756997496955965 9.4775529309013322 6.8766962132932274 9.4775529309013322 4.2485744802806868 2.4137323133884485 2.2391816932908255 7.6506229749340315 2.2391816932908255 7.9354348054966017 9.7507548247024918 7.6506229749340315 9.7507548247024918 4.9487800535837501 4.2249831339680428 1.4823970018184687 6.2703694075356555 1.4823970018184687 8.0235372378548746 8.7596355590246091 6.2703694075356555 8.7596355590246091 6.3198972229692423 1.3667518802777663 2.5657975736761616 7.8494013876899009 2.5657975736761616 8.1747012349023258 10.036590492552465 7.8494013876899009 10.036590492552465 4.3423367971960047 2.6573657152209771 1.9373486598997331 7.2857538026744235 1.9373486598997331 5.861543186862308 11.158497529852678 7.2857538026744235 11.158497529852678 5.0322352319235746 2.0914582454624719 2.0389370559748077 8.3460494885845087 2.0389370559748077 8.055435443548582 10.407929345342454 8.3460494885845087 10.407929345342454 4.3603367221355285 1.6756242905660277 1.7051336888056041 8.569628417070188 1.7051336888056041 7.4713126994242227 11.093390319370078 8.569628417070188 11.093390319370078 2.9704214998712324 0.89426169722428561 2.417200954843016 8.6686936534543069 2.417200954843016 7.1086436700383411 10.616167784733234 8.6686936534543069 10.616167784733234 4.0339267030944796 1.9835115286041538 1.9070264128236232 7.8654204437289525 1.9070264128236232 7.3298454444287309 10.458734514304524 7.8654204437289525 10.458734514304524 3.5103790750836072 2.5075029531077644 1.5833513250387055 7.8221947794021141 1.5833513250387055 7.5929704543570224 10.4193919698555 7.8221947794021141 10.4193919698555 3.4267374859987161 2.6805788413352207 1.449681960449043 7.3297543801757099 1.449681960449043 7.4971767139771952 10.838409062274069 7.3297543801757099 10.838409062274069 3.2385391474815108 4.0066814524945542 1.8904115807284398 5.9622606438313843 1.8904115807284398 6.2642659927329554 11.518242796223726 5.9622606438313843 11.518242796223726 4.6629377271151853 3.2275927610114383 1.0805471447885711 7.4370863566738432 1.0805471447885711 7.776437506584589 10.052252223080014 7.4370863566738432 10.052252223080014 3.004905081683745 3.159470940153188 1.831504822022358 6.7894305626702725 1.831504822022358 7.9104154976537142 10.203647100938326 6.7894305626702725 10.203647100938326 4.5510714234542631 5.6068128623522302 0.68299392509854462 5.6220994310126953 0.68299392509854462 9.3270714767902181 9.2178879712470803 5.6220994310126953 9.2178879712470803 6.8826024297191317 4.0715363089286543 0.89234000065055197 6.4814266002952374 0.89234000065055197 7.5166021496304607 10.499611389500453 6.4814266002952374 10.499611389500453 3.7324026306082039 4.8667076995552865 0.96137973578214986 5.9420462036721595 0.96137973578214986 8.6864317770156472 9.8673548084405933 5.9420462036721595 9.8673548084405933 4.2775711608428457 4.3110407473152987 1.0504829895158403 6.4400091872010368 1.0504829895158403 7.5695863703010682 10.740261499073544 6.4400091872010368 10.740261499073544 4.1649878819119515 4.1025507547750255 1.2893431135673183 6.3048771178871315 1.2893431135673183 5.8562931920830383 12.308339674249636 6.3048771178871315 12.308339674249636 2.9425221812205962 3.7610274512640878 1.4756128011300977 6.7162746527481234 1.4756128011300977 5.5273832711725603 12.260064631211762 6.7162746527481234 12.260064631211762 3.250833838290351 4.8336492095091916 0.33457825372105854 5.9828968097819448 0.33457825372105854 8.0921844749015772 9.4765576263970672 5.9828968097819448 9.4765576263970672 3.7683440594210591 6.2204263810527172 0.37527363584740886 5.0788908692616843 0.37527363584740886 9.6432343460571648 7.8729928973324679 5.0788908692616843 7.8729928973324679 7.2204297197330938 6.04420499284765 0.49688813876541726 5.1615589240021524 0.49688813876541726 9.6272156573051166 8.516508647045482 5.1615589240021524 8.516508647045482 7.6101205805491912 4.7431293319216881 0.60378158807881854 6.3847758236404015 0.60378158807881854 8.23809820062014 10.237768985489934 6.3847758236404015 10.237768985489934 4.0151469698153406 
</DataArray>
<DataArray type="Float64" Name="displacement_divergence" format="ascii">
0.25073205086066985 0.21193886354677532 0.22350071993999396 0.25287875561622358 0.21335368325324822 0.28169931844309748 0.22275382794750681 0.28118872734842948 0.23742880327352867 0.23557132707380818 0.20918021032655496 0.2002945638450403 0.22966797259205129 0.2117712824335877 0.21178275438220581 0.23732266154129333 0.209622569628447 0.26819784888333259 0.23324105079346447 0.25098759289472738 0.19595385879417151 0.19592760670152018 0.19594360823018289 0.19053481208508466 0.22294235796812081 0.26686860684275143 0.2144343380132227 0.21590787399845801 0.19476411878703437 0.16930084689963421 0.17542640073370469 0.21233666918328958 0.17313900298598167 0.14131980292323407 0.1417571235472273 0.18529695471174068 0.17514243222974185 0.13872023277846471 0.18760984004460993 0.22556501121558609 0.2063253542272904 0.22495821692780088 0.17158024610957479 0.16729584747018264 0.18725116404346065 0.20265608909070076 0.20311226578019403 0.16732706043374776 0.22695515386260814 0.15342909102507496 0.19367718203381978 0.1710165826928858 0.12468799270923525 0.13976906053392968 0.11745497977519515 0.14757725382946948 0.16095447187357489 0.15372467425622396 0.10578216586706574 0.13897731906928124 0.10753197136337686 0.13777211397504438 0.14843834230862901 0.14413583768116245 0.12895277184632348 0.10529646299313247 0.10997582630259813 0.09842596444768853 0.098227459941440498 0.16537740679242888 0.16841818184239615 0.18119171890667193 0.20143292870201865 0.15958585753037777 0.19593838195957022 0.1959138651090061 0.21400817012284484 0.21536916592325878 0.18878169469763764 0.18878029427129273 0.18878078673152979 0.1655382692193782 0.18880466986965994 0.2418984410911989 0.20912691345671428 0.21861603850987266 0.21962766143054976 0.19769077760002354 0.23397916838321925 0.18960822835667709 0.20535389188789194 0.18245582417195622 0.20849256813913217 0.1850844713403475 0.16286024578067887 0.14490952058238754 0.16485797323204235 0.18246411803269338 0.17458999307387152 0.18263076145506979 0.19975074738454013 0.16537766566949122 0.16538685243379067 0.19054794678024134 0.14628100308635594 0.14382233849872555 0.1836597029661845 0.11265626815167548 0.1306408008974087 0.064067145794555164 0.086234945909900107 0.094281932019929834 0.11806031649689738 0.1183627060782238 0.095050936260214547 0.080884562745311583 0.10142132261563067 0.071090817243364579 0.084100602284233925 0.074496419571854003 0.0071377002617134533 0.03821759994223814 0.053330368395523853 0.0060087466480295837 0.026138864824784391 0.047719743574100193 0.029467161244242382 0.056598033744564735 0.069893848700104177 0.089596530537878138 0.11128978107581672 0.099359987349040127 0.109144720384312 0.12517797792459212 0.13677262230949599 0.10903094051019288 0.07674260383397713 0.14393733712334342 0.099894646665975279 0.15420373547069993 0.18264159361353957 0.16851262881175763 0.16421090418375597 0.14617580247202439 0.10856985095074384 0.16537954901960752 0.17450607437155391 0.16315287416043947 0.15723066471844374 0.17076055835099055 0.088104597102214077 0.11920511589908303 0.10382511292750975 0.097228698998765239 0.15145508225778101 0.15721961219340261 0.14906334733146312 0.15423399161341411 0.071351217592434388 0.040504467123605781 0.047335906205636741 0.061024164179416418 0.02143208001089647 -0.0042892975472595962 0.00023285153440277817 0.025484820283795395 -0.015177713788564917 -0.0015299179271353047 0.058227720042101389 0.098409737075877246 0.060394732482307367 0.065265280708787343 0.073497730084705531 0.062774180289192183 0.14014560914285903 0.16574044125163329 0.14760401369818371 0.16138455217833933 0.15147006172024133 0.16138212078502234 0.14019352574108762 0.15960181534011794 0.14006744141095531 0.11624577095484735 0.15963736505310749 0.14157668486615144 0.12002010921519286 0.14567344574926286 0.1514668663369742 0.14567221143440912 0.1315710356049708 0.024053485730354096 0.02480115252473334 0.035395660473595617 0.047104544323358227 0.068987927021321421 0.03975075599165992 0.06948017314862881 -0.014363889316129197 0.0029619090952946181 0.021914607121453072 0.021938458469102529 -0.011444924290807151 0.055805225051234766 -0.02975842487326924 -0.010017095719576319 0.0018810533112770811 0.033284358736712288 0.14569810539912514 0.047338652957919072 0.078942516120016876 0.12946014763793401 0.14569215762176563 0.049105782518727048 0.087610325403573899 0.090576733904718904 0.10144171674873212 0.14907302979231457 0.14906296714195155 0.1439002888787605 0.14415570632120572 0.033715627786858909 0.090589629961510737 0.066943936065803039 0.080154972973609517 0.1441656461869687 0.12217867058459027 0.13889488879664771 0.14952829641272611 0.13962800183168081 0.11499613878778187 0.097339684925692158 0.016334808472275419 0.05595570678255514 0.039310626814794858 -0.036742756341683502 -0.01723531026314995 -0.034425551816108346 -0.012198283860183068 -0.03969130948961247 -0.020981224499711681 -0.017231454339900254 0.026724455099762012 -0.058562527421294253 0.031774539138807997 0.0095597823549418148 -0.057927598575809786 -0.044298790441498842 0.017023596036507493 -0.011636961328970144 0.0011515599493125417 0.041971830029599977 -0.0070926752856939335 0.04338597895703758 0.065498682196284408 0.019752452536600851 0.0019676183535434488 0.059256281704186384 0.10794466189965603 0.074069847340709011 0.14569402166843623 0.14569919101410281 0.070081675700354479 0.12452868070338119 0.11391564674536728 0.11887497366319069 0.14952406514774419 0.15679925190972627 0.14563600942671401 0.15679104692904475 0.11652967377015697 0.16866643652649016 0.17569677460867164 0.13994151345914399 0.12504140784980919 0.12657897382216038 0.17731990450711252 0.17258566948691631 0.15032093246804643 0.17258002342787254 0.17568096654361978 0.14638485124923425 0.21621658947506145 0.18206853474956375 0.15629468076699654 0.23253866478984819 0.18207242656891615 0.19706254568363982 0.18134803586743259 0.14185052886741595 0.20739319827447317 0.14639399315219848 0.17494411339280749 0.20235368267773046 0.15842896959141139 0.197564793383572 0.1962234390047638 0.1865140432956606 0.17791245913649567 0.17258233578353455 0.15182098648431216 0.2142333421028102 0.21869601804795655 0.16609510337137642 0.18203956629580359 0.22257164475485827 0.19618058934099844 0.19623663413589862 0.19054613532113518 0.18733340173385793 0.17574563623513437 0.13613820595546941 0.17594244380869217 0.15552451846397108 0.11577932328672354 0.16607748336763553 0.17255689845379793 0.15403582582449277 0.16371003585124139 0.17209781693790163 0.15962503550263174 0.1725758995085882 0.086245274772825911 0.12690675313494662 0.082711020214321446 0.06809736527506477 0.10444901413454413 0.093487928424796057 0.14960832612087319 0.13301132187998374 0.1377193052287812 0.13244995507512941 0.14730440516857035 0.16295796873035773 0.13946747471292109 0.13537823125964943 0.12884520586025888 0.13041140970564985 0.1098091618715988 0.1196882787971682 0.1042005114471847 0.10258014549166283 0.078935745900566373 0.11636904967338119 0.1096986092793974 0.14062337749961937 0.079754340353034706 0.08712763029989104 0.071416645322315148 0.046889646863039258 0.08589981009761416 0.090025054789665659 0.095330506419694871 0.039028058521942299 0.046362871540940542 0.023652739731520572 0.009756640734965627 -0.0060119720871617544 -0.045003551769455002 -0.027973231777119634 0.00063739100972082241 -0.047672058646927612 -0.043651267732412347 -0.019281261096335156 -0.031992315702985885 0.021348314242082556 -0.00417830361226601 0.055998257070116575 0.047464682874835351 -0.023048559561570869 0.023474070567483823 0.0088760517775748338 0.021213399951454048 0.028413687872722693 0.060211349063567038 0.047534266496210509 0.062769029569215817 0.015956014191602919 0.011375512037772595 0.071856685367615719 0.07962879318952204 0.04313693230050536 0.09790426333852606 0.081956382765666386 0.036349394332302831 0.090125290058785168 0.07238917379484705 0.070804773313039665 0.11163383881668976 0.0032207744549745676 -0.0072116930194550122 0.019982138313231618 0.014718447296078879 0.019997071351628454 0.024359387085759715 0.031536765618466286 -0.023603471583257651 -0.046744070608085261 -0.052302930622663571 -0.074720425086501285 -0.058326160327631014 -0.048599613421973047 -0.051389560248198164 -0.081032402512078813 -0.095068746460951134 -0.088282169836569113 -0.069240470828472928 -0.089788955102602097 -0.024898947164366914 -0.015425077500664797 0.020933195957651085 -0.028015809367491484 0.0002222773718343618 -0.0041015916822712932 -0.021900075309234199 -0.017693548722294589 -0.034446736382602872 -0.025983019870578192 -0.0090181871519188217 -0.056779242189304517 -0.070728693584856561 -0.039709045469246328 -0.0088912932108465292 0.0013422635820578982 0.014487527525698526 -0.040664004607546905 -0.036615394760902809 -0.055160325994030208 -0.043523550330555633 -0.040401201040454388 0.0083867894999135051 0.0010579847092986316 -0.033215146602101397 -0.089747233182472796 -0.080293593579003342 -0.055871413725834956 -0.094497097134316282 -0.1012531812288034 -0.10657766714547917 -0.09619143311780376 -0.084928088036194505 -0.097562171174427434 -0.067091184716787988 -0.072133120545991247 -0.043107710050379777 -0.10419448517253321 -0.10845568645278321 -0.12423920960214266 -0.11064807736231147 -0.12448702076189609 -0.10765800990404545 -0.13609800606159561 -0.14411218996018288 -0.14968177472629057 -0.14702157370213123 -0.13502832727307107 -0.13295479586220385 -0.16805512486687946 -0.13264828745507895 -0.085115298715066512 -0.087109915698607349 -0.062961317090867525 -0.080516506744131341 -0.09973389231826113 -0.023160586890973167 -0.015489625291686848 -0.04330362725992408 -0.068034640229011401 -0.074738818353039638 -0.10063977557594112 -0.11260977973488503 -0.12365412808440768 -0.11068106267095734 -0.09516538748040948 -0.1390403898595966 -0.13361866786842752 -0.091307124121696587 -0.12451948136425256 -0.11241790566646115 -0.084069424110106705 -0.15045279964100916 -0.1621947952956414 -0.1474196559509276 -0.20200604144536136 -0.14875344450199096 -0.16600692123203081 -0.16654026562575247 -0.20157195632359387 -0.15139759760311969 -0.18031597213769604 -0.17970479248619403 -0.16936140188758853 -0.16732649139357658 -0.16517593740744965 -0.20512032705086006 -0.17829136323760864 -0.18072996776086458 -0.20269486807855633 -0.14380021497867013 -0.19274450763137316 -0.1931629764404133 -0.20423051730770653 -0.15494075931179513 -0.14851350570961158 -0.12689964208676935 -0.15441228715387037 -0.15756718307040354 -0.17047269103555898 -0.14547222927740577 -0.14101194581491255 -0.19031636302179356 -0.1719276119738582 -0.17004548095772068 -0.047412015731304151 -0.083130086398273906 -0.062065112293167912 -0.10539437949953349 -0.08854889715740849 -0.097799801401625447 -0.10983266717741741 -0.092586477873009637 -0.039417084168987093 -0.064178317374472216 -0.051616456310590933 -0.020438625100490715 -0.051050271895833541 -0.037863335222025868 -0.022936587200355463 -0.023788470472811879 -0.11453266365131579 -0.10903037310765729 -0.11581666067740201 -0.087669167498115819 -0.1082739483713899 -0.095240965870973443 -0.11369089313451941 -0.11796840129473751 -0.12636527944077186 -0.092448975050206508 -0.067413198895559273 -0.10629229914485196 -0.078391136498279279 -0.078339597326944455 -0.091485721578904347 -0.051855270221089572 -0.08727524793386035 -0.10651129622501315 -0.10023188084121271 -0.056637524965572728 0.01981067005041659 -0.016904196336646304 -0.043747118218222691 -0.004041755705770339 -0.0026158843668446508 0.040571143326582376 0.0040639717303279678 -0.025902873054951481 -0.068769845765031562 -0.083617249862812465 -0.080754056199373675 -0.018726307661696917 -0.041690895638840653 -0.057927933324695646 -0.075285970219846135 -0.086373660504622751 -0.09886389339194479 -0.081440254269210699 -0.14976415812645066 -0.14991944716284875 -0.15603991325666053 -0.15296975512560443 -0.147530726578533 -0.12245818369586889 -0.11089542993602269 -0.13649197244335726 -0.14868309850761419 -0.14168483546391697 -0.14716887735545842 -0.1196154198712675 -0.099596492790467062 -0.043972489206525772 -0.111684416277952 -0.077603210040214143 -0.13000254093442987 -0.046411913496819612 -0.093836729669080812 -0.10677395890352992 -0.1443061331874555 -0.14886150235196977 -0.12556406806004289 -0.094529048952391004 -0.09937069771033101 -0.12019224314380064 -0.11679856651184245 -0.070004026733267166 -0.076069584158278802 -0.11302258850205196 -0.056665820400374767 -0.069415544121854078 -0.04663828488539451 -0.066489295247517705 -0.081737845363135664 -0.042345005811229464 -0.015441789241132986 -0.029570648656278564 -0.0122727961203285 -0.032274507492327853 -0.0055671471640680592 -0.041641895220233482 0.031221586538702467 -0.0046032668208148553 -0.035528786133139367 0.041089254717379155 -0.0027911291665071447 -0.041589463052020159 0.013490877122107003 0.012245311654721341 0.036283838983048461 0.066109954626305145 -0.01551337768334949 -0.068932464436536778 -0.04937710378890528 -0.063621733614116188 -0.047149873166131506 -0.089313080577184012 -0.064967561536161872 -0.064341368831814461 -0.047327090445725362 -0.017132573537977258 -0.00011035900441370983 -0.02126233069272207 -0.031073627489447919 -0.025450335855438835 -0.0032890538858500323 0.01928507935700418 0.045318826051062307 -0.012397329086924688 0.019386654227322275 -0.015985737706567957 -0.039184388415162849 -0.028231176740469318 -0.035704515966780995 -0.052616529170003035 -0.030456881183126699 -0.043705120889032251 -0.028065175141696992 -0.056064173733136408 0.057197968328675554 0.047206978274933489 0.048596451769322646 0.045926483257679632 0.026206919975606091 0.024124549025110964 0.056760787618528985 0.095722148307121058 0.054870879473424006 0.037956990277314362 0.060428347903007384 0.11624787550047294 0.080912361847112951 0.077849286253028727 0.08755232443431743 0.068903342932791212 0.15274164043973093 0.12967937858002906 0.12953587509375131 0.1038686007448458 0.11732190169831808 0.060103889792155529 0.11485462220822423 0.13590654766303226 0.1357496058787086 0.081795299958929951 0.10191054695109725 0.13441522996435787 0.084397757314292166 0.12209481016631905 0.082971544367975353 0.073540969571961101 0.11434282613827201 0.041348214621018932 -0.01005233195914669 0.033055885973863094 0.025587768408476139 0.060782771822169387 0.013063271443966296 0.001220547372181139 0.013781199838655639 -0.0068280169358537202 -0.0056167972185965087 0.0043460076109627377 0.0078911864681952409 0.006797436773215787 0.016179987314073718 0.016136932386821984 0.025267587826588112 0.084261301381994447 0.024203204900146474 0.046217778876860335 0.025511571727843567 -0.0018650985182553093 -0.0059649946379213281 0.044092270578734521 0.10237822983313304 0.098564032480932262 0.038775080499070858 
</DataArray>
</CellData>
</Piece>
</UnstructuredGrid>
</VTKFile>
