<?xml version="1.0"?>
<VTKFile type="UnstructuredGrid" version="0.1" byte_order="LittleEndian">
<UnstructuredGrid>
<Piece NumberOfPoints="880" NumberOfCells="299">
<Points>
<DataArray type="Float64" NumberOfComponents="3" format="ascii">
-0 0 0 0.18653882694645291 0.22249173546702489 0 0 0.25000000000104189 0 -0 0 0 0.18653882694645291 0.22249173546702489 0 0.24999999999941089 0 0 0.24999999999941089 0 0 0.35015135319464608 0.1900339269648805 0 0.49999999999869182 0 0 0.18653882694645291 0.22249173546702489 0 0.24999999999941089 0 0 0.35015135319464608 0.1900339269648805 0 0.35015135319464608 0.1900339269648805 0 0.49924741621175961 0.21507969613896921 0 0.49999999999869182 0 0 0.35015135319464608 0.1900339269648805 0 0.49924741621175961 0.21507969613896921 0 0.40587285776242238 0.32419148732968017 0 0.37764981543668408 0.41341486499350411 0 0.41576443813007791 0.48093483781626972 0 0.45418244162583959 0.41624787166862259 0 0.37764981543668408 0.41341486499350411 0 0.45418244162583959 0.41624787166862259 0 0.40587285776242238 0.32419148732968017 0 0.41576443813007791 0.48093483781626972 0 0.46566719828045178 0.47702825415921918 0 0.45418244162583959 0.41624787166862259 0 0.41576443813007791 0.48093483781626972 0 0.46566719828045178 0.47702825415921918 0 0.4638583922372429 0.51470588235294135 0 0.46566719828045178 0.47702825415921918 0 0.49954900152271581 0.45107191084564019 0 0.5 0.5 0 0.46566719828045178 0.47702825415921918 0 0.4638583922372429 0.51470588235294135 0 0.5 0.5 0 0.46566719828045178 0.47702825415921918 0 0.49954900152271581 0.45107191084564019 0 0.45418244162583959 0.41624787166862259 0 0.45418244162583959 0.41624787166862259 0 0.49435464945626773 0.33318442629318029 0 0.54876010062294855 0.39662628167175101 0 0.45418244162583959 0.41624787166862259 0 0.49435464945626773 0.33318442629318029 0 0.40587285776242238 0.32419148732968017 0 0.49924741621175961 0.21507969613896921 0 0.49435464945626773 0.33318442629318029 0 0.40587285776242238 0.32419148732968017 0 0.35015135319464608 0.1900339269648805 0 0.40587285776242238 0.32419148732968017 0 0.29145599617909779 0.35026601625021492 0 0.37764981543668408 0.41341486499350411 0 0.40587285776242238 0.32419148732968017 0 0.29145599617909779 0.35026601625021492 0 0.18653882694645291 0.22249173546702489 0 0.35015135319464608 0.1900339269648805 0 0.29145599617909779 0.35026601625021492 0 0.29145599617909779 0.35026601625021492 0 0.32540781287085369 0.49175159894608172 0 0.17872124008781709 0.39692711089439497 0 0.37764981543668408 0.41341486499350411 0 0.29145599617909779 0.35026601625021492 0 0.32540781287085369 0.49175159894608172 0 0.37764981543668408 0.41341486499350411 0 0.41576443813007791 0.48093483781626972 0 0.32540781287085369 0.49175159894608172 0 0.17872124008781709 0.39692711089439497 0 0 0.25000000000104189 0 0 0.50000000000206157 0 0.17872124008781709 0.39692711089439497 0 0 0.50000000000206157 0 0.22453074737734591 0.51613635929252633 0 0.32540781287085369 0.49175159894608172 0 0.17872124008781709 0.39692711089439497 0 0.22453074737734591 0.51613635929252633 0 0.18653882694645291 0.22249173546702489 0 0.29145599617909779 0.35026601625021492 0 0.17872124008781709 0.39692711089439497 0 0.18653882694645291 0.22249173546702489 0 0.17872124008781709 0.39692711089439497 0 0 0.25000000000104189 0 0 0.50000000000206157 0 0.18442368612951149 0.62734948407416979 0 0 0.75000000000034772 0 0.18442368612951149 0.62734948407416979 0 0.22727208279115291 0.72949159435386135 0 0 0.75000000000034772 0 0.18442368612951149 0.62734948407416979 0 0.22727208279115291 0.72949159435386135 0 0.31346558946927339 0.67110784456164874 0 0.18442368612951149 0.62734948407416979 0 0.22453074737734591 0.51613635929252633 0 0.31771010312359771 0.58585679504088894 0 0 0.50000000000206157 0 0.18442368612951149 0.62734948407416979 0 0.22453074737734591 0.51613635929252633 0 0 1 0 0.096516139048187316 0.89789944498939644 0 0 0.75000000000034772 0 0 1 0 0.096516139048187316 0.89789944498939644 0 0.1596341872805197 1 0 0.096516139048187316 0.89789944498939644 0 0 0.75000000000034772 0 0.1644705180525495 0.8200994301041713 0 0.1644705180525495 0.8200994301041713 0 0.2386314078659193 0.92924778694987087 0 0.27155609766735261 0.80398965554903801 0 0.22727208279115291 0.72949159435386135 0 0 0.75000000000034772 0 0.1644705180525495 0.8200994301041713 0 0.22727208279115291 0.72949159435386135 0 0.1644705180525495 0.8200994301041713 0 0.27155609766735261 0.80398965554903801 0 0.096516139048187316 0.89789944498939644 0 0.1644705180525495 0.8200994301041713 0 0.2386314078659193 0.92924778694987087 0 0.096516139048187316 0.89789944498939644 0 0.2386314078659193 0.92924778694987087 0 0.1596341872805197 1 0 0.2386314078659193 0.92924778694987087 0 0.1596341872805197 1 0 0.27591592301363282 1 0 0.36061858902161292 1 0 0.32789203369730929 0.94219211037003092 0 0.27591592301363282 1 0 0.36061858902161292 1 0 0.32789203369730929 0.94219211037003092 0 0.39382242252278338 0.95440420122950598 0 0.2386314078659193 0.92924778694987087 0 0.32789203369730929 0.94219211037003092 0 0.27591592301363282 1 0 0.2386314078659193 0.92924778694987087 0 0.32789203369730929 0.94219211037003092 0 0.31834856208730472 0.88134829947972904 0 0.32789203369730929 0.94219211037003092 0 0.37746652222901839 0.8987532801416368 0 0.39382242252278338 0.95440420122950598 0 0.32789203369730929 0.94219211037003092 0 0.31834856208730472 0.88134829947972904 0 0.37746652222901839 0.8987532801416368 0 0.2386314078659193 0.92924778694987087 0 0.31834856208730472 0.88134829947972904 0 0.27155609766735261 0.80398965554903801 0 0.31834856208730472 0.88134829947972904 0 0.36493375430404612 0.82333914183704071 0 0.37746652222901839 0.8987532801416368 0 0.31834856208730472 0.88134829947972904 0 0.36493375430404612 0.82333914183704071 0 0.27155609766735261 0.80398965554903801 0 0.22727208279115291 0.72949159435386135 0 0.27155609766735261 0.80398965554903801 0 0.32984265945580837 0.74432890077789404 0 0.36493375430404612 0.82333914183704071 0 0.27155609766735261 0.80398965554903801 0 0.32984265945580837 0.74432890077789404 0 0.36493375430404612 0.82333914183704071 0 0.39746869305290999 0.7595658224757349 0 0.32984265945580837 0.74432890077789404 0 0.36493375430404612 0.82333914183704071 0 0.39746869305290999 0.7595658224757349 0 0.42893012659725649 0.81084715169569632 0 0.39746869305290999 0.7595658224757349 0 0.42893012659725649 0.81084715169569632 0 0.44651949253391748 0.77225997208621999 0 0.39746869305290999 0.7595658224757349 0 0.44651949253391748 0.77225997208621999 0 0.43412357948152142 0.72128778687215156 0 0.44651949253391748 0.77225997208621999 0 0.47786860714145291 0.77730227330627721 0 0.47220206448452873 0.74892462649306213 0 0.47786860714145291 0.77730227330627721 0 0.47220206448452873 0.74892462649306213 0 0.5 0.76470588235294124 0 0.47786860714145291 0.77730227330627721 0 0.5 0.79411764705882359 0 0.5 0.76470588235294124 0 0.47062147868881782 0.80650323854033878 0 0.5 0.82352941176470584 0 0.5 0.79411764705882359 0 0.47786860714145291 0.77730227330627721 0 0.47062147868881782 0.80650323854033878 0 0.5 0.79411764705882359 0 0.44651949253391748 0.77225997208621999 0 0.47786860714145291 0.77730227330627721 0 0.47062147868881782 0.80650323854033878 0 0.42893012659725649 0.81084715169569632 0 0.44651949253391748 0.77225997208621999 0 0.47062147868881782 0.80650323854033878 0 0.42893012659725649 0.81084715169569632 0 0.47062147868881782 0.80650323854033878 0 0.46181179062043481 0.83858979842637782 0 0.42893012659725649 0.81084715169569632 0 0.46181179062043481 0.83858979842637782 0 0.42880856207355889 0.86677159981903118 0 0.46181179062043481 0.83858979842637782 0 0.5 0.85294117647058831 0 0.5 0.82352941176470584 0 0.47062147868881782 0.80650323854033878 0 0.46181179062043481 0.83858979842637782 0 0.5 0.82352941176470584 0 0.46181179062043481 0.83858979842637782 0 0.47032448519202857 0.86718057681700655 0 0.5 0.85294117647058831 0 0.47032448519202857 0.86718057681700655 0 0.5 0.88235294117647056 0 0.5 0.85294117647058831 0 0.46181179062043481 0.83858979842637782 0 0.47032448519202857 0.86718057681700655 0 0.42880856207355889 0.86677159981903118 0 0.36493375430404612 0.82333914183704071 0 0.42880856207355889 0.86677159981903118 0 0.37746652222901839 0.8987532801416368 0 0.36493375430404612 0.82333914183704071 0 0.42893012659725649 0.81084715169569632 0 0.42880856207355889 0.86677159981903118 0 0.37746652222901839 0.8987532801416368 0 0.42822627495986648 0.92083108049218854 0 0.39382242252278338 0.95440420122950598 0 0.42880856207355889 0.86677159981903118 0 0.37746652222901839 0.8987532801416368 0 0.42822627495986648 0.92083108049218854 0 0.47032448519202857 0.86718057681700655 0 0.42880856207355889 0.86677159981903118 0 0.46100207326614928 0.89524736819256467 0 0.42880856207355889 0.86677159981903118 0 0.42822627495986648 0.92083108049218854 0 0.46100207326614928 0.89524736819256467 0 0.47032448519202857 0.86718057681700655 0 0.46100207326614928 0.89524736819256467 0 0.5 0.88235294117647056 0 0.46100207326614928 0.89524736819256467 0 0.5 0.91176470588235292 0 0.5 0.88235294117647056 0 0.46100207326614928 0.89524736819256467 0 0.46949408183482899 0.92833826413560594 0 0.5 0.91176470588235292 0 0.46949408183482899 0.92833826413560594 0 0.5 0.94117647058823528 0 0.5 0.91176470588235292 0 0.42822627495986648 0.92083108049218854 0 0.46100207326614928 0.89524736819256467 0 0.46949408183482899 0.92833826413560594 0 0.46949408183482899 0.92833826413560594 0 0.44768478605684647 0.9646709673379662 0 0.47596308696979028 0.95620709615192379 0 0.42822627495986648 0.92083108049218854 0 0.46949408183482899 0.92833826413560594 0 0.44768478605684647 0.9646709673379662 0 0.44768478605684647 0.9646709673379662 0 0.47596308696979028 0.95620709615192379 0 0.47818194888216242 0.97829325975680159 0 0.46949408183482899 0.92833826413560594 0 0.47596308696979028 0.95620709615192379 0 0.5 0.94117647058823528 0 0.47596308696979028 0.95620709615192379 0 0.47818194888216242 0.97829325975680159 0 0.5 0.97058823529411764 0 0.47596308696979028 0.95620709615192379 0 0.5 0.97058823529411764 0 0.5 0.94117647058823528 0 0.47818194888216242 0.97829325975680159 0 0.46726187138417491 1 0 0.5 1 0 0.47818194888216242 0.97829325975680159 0 0.5 0.97058823529411764 0 0.5 1 0 0.44768478605684647 0.9646709673379662 0 0.47818194888216242 0.97829325975680159 0 0.46726187138417491 1 0 0.44768478605684647 0.9646709673379662 0 0.46726187138417491 1 0 0.42231823435723009 1 0 0.44768478605684647 0.9646709673379662 0 0.42231823435723009 1 0 0.39382242252278338 0.95440420122950598 0 0.42822627495986648 0.92083108049218854 0 0.44768478605684647 0.9646709673379662 0 0.39382242252278338 0.95440420122950598 0 0.36061858902161292 1 0 0.42231823435723009 1 0 0.39382242252278338 0.95440420122950598 0 0.31771010312359771 0.58585679504088894 0 0.3872154068451229 0.6301386882447304 0 0.41980724897053312 0.55867199730355355 0 0.32540781287085369 0.49175159894608172 0 0.31771010312359771 0.58585679504088894 0 0.41980724897053312 0.55867199730355355 0 0.32540781287085369 0.49175159894608172 0 0.22453074737734591 0.51613635929252633 0 0.31771010312359771 0.58585679504088894 0 0.18442368612951149 0.62734948407416979 0 0.31771010312359771 0.58585679504088894 0 0.31346558946927339 0.67110784456164874 0 0.22727208279115291 0.72949159435386135 0 0.32984265945580837 0.74432890077789404 0 0.31346558946927339 0.67110784456164874 0 0.39746869305290999 0.7595658224757349 0 0.32984265945580837 0.74432890077789404 0 0.38513711431054509 0.69312683393047636 0 0.32984265945580837 0.74432890077789404 0 0.31346558946927339 0.67110784456164874 0 0.38513711431054509 0.69312683393047636 0 0.31771010312359771 0.58585679504088894 0 0.31346558946927339 0.67110784456164874 0 0.3872154068451229 0.6301386882447304 0 0.31346558946927339 0.67110784456164874 0 0.3872154068451229 0.6301386882447304 0 0.38513711431054509 0.69312683393047636 0 0.3872154068451229 0.6301386882447304 0 0.38513711431054509 0.69312683393047636 0 0.4390556798454946 0.66199025953586599 0 0.3872154068451229 0.6301386882447304 0 0.4390556798454946 0.66199025953586599 0 0.44702869549010399 0.61002701911053991 0 0.39746869305290999 0.7595658224757349 0 0.38513711431054509 0.69312683393047636 0 0.43412357948152142 0.72128778687215156 0 0.38513711431054509 0.69312683393047636 0 0.43412357948152142 0.72128778687215156 0 0.4390556798454946 0.66199025953586599 0 0.43412357948152142 0.72128778687215156 0 0.47636314644728822 0.72058823529411908 0 0.47220206448452873 0.74892462649306213 0 0.44651949253391748 0.77225997208621999 0 0.43412357948152142 0.72128778687215156 0 0.47220206448452873 0.74892462649306213 0 0.43412357948152142 0.72128778687215156 0 0.46330219403010409 0.69594601192744354 0 0.4390556798454946 0.66199025953586599 0 0.43412357948152142 0.72128778687215156 0 0.46330219403010409 0.69594601192744354 0 0.47636314644728822 0.72058823529411908 0 0.46330219403010409 0.69594601192744354 0 0.47636314644728822 0.72058823529411908 0 0.5 0.70588235294117663 0 0.46330219403010409 0.69594601192744354 0 0.5 0.67647058823529438 0 0.5 0.70588235294117663 0 0.47636314644728822 0.72058823529411908 0 0.5 0.73529411764705888 0 0.5 0.70588235294117663 0 0.47220206448452873 0.74892462649306213 0 0.5 0.73529411764705888 0 0.5 0.76470588235294124 0 0.47636314644728822 0.72058823529411908 0 0.47220206448452873 0.74892462649306213 0 0.5 0.73529411764705888 0 0.4390556798454946 0.66199025953586599 0 0.47501372853621993 0.66300743809067952 0 0.47271076880550111 0.63357150722538136 0 0.4390556798454946 0.66199025953586599 0 0.47271076880550111 0.63357150722538136 0 0.44702869549010399 0.61002701911053991 0 0.46330219403010409 0.69594601192744354 0 0.4390556798454946 0.66199025953586599 0 0.47501372853621993 0.66300743809067952 0 0.46330219403010409 0.69594601192744354 0 0.47501372853621993 0.66300743809067952 0 0.5 0.67647058823529438 0 0.47501372853621993 0.66300743809067952 0 0.5 0.64705882352941191 0 0.5 0.67647058823529438 0 0.47501372853621993 0.66300743809067952 0 0.47271076880550111 0.63357150722538136 0 0.5 0.64705882352941191 0 0.47271076880550111 0.63357150722538136 0 0.5 0.61764705882352966 0 0.5 0.64705882352941191 0 0.47784843225772261 0.60532339797118362 0 0.5 0.5882352941176473 0 0.5 0.61764705882352966 0 0.47271076880550111 0.63357150722538136 0 0.47784843225772261 0.60532339797118362 0 0.5 0.61764705882352966 0 0.46950269699300751 0.57713611057881953 0 0.5 0.55882352941176494 0 0.5 0.5882352941176473 0 0.47784843225772261 0.60532339797118362 0 0.46950269699300751 0.57713611057881953 0 0.5 0.5882352941176473 0 0.46950269699300751 0.57713611057881953 0 0.44702869549010399 0.61002701911053991 0 0.41980724897053312 0.55867199730355355 0 0.47784843225772261 0.60532339797118362 0 0.46950269699300751 0.57713611057881953 0 0.44702869549010399 0.61002701911053991 0 0.47271076880550111 0.63357150722538136 0 0.47784843225772261 0.60532339797118362 0 0.44702869549010399 0.61002701911053991 0 0.3872154068451229 0.6301386882447304 0 0.44702869549010399 0.61002701911053991 0 0.41980724897053312 0.55867199730355355 0 0.41576443813007791 0.48093483781626972 0 0.32540781287085369 0.49175159894608172 0 0.41980724897053312 0.55867199730355355 0 0.41576443813007791 0.48093483781626972 0 0.41980724897053312 0.55867199730355355 0 0.4638583922372429 0.51470588235294135 0 0.41980724897053312 0.55867199730355355 0 0.4638583922372429 0.51470588235294135 0 0.47063366764015668 0.5477498568705923 0 0.46950269699300751 0.57713611057881953 0 0.41980724897053312 0.55867199730355355 0 0.47063366764015668 0.5477498568705923 0 0.46950269699300751 0.57713611057881953 0 0.47063366764015668 0.5477498568705923 0 0.5 0.55882352941176494 0 0.47063366764015668 0.5477498568705923 0 0.5 0.52941176470588269 0 0.5 0.55882352941176494 0 0.4638583922372429 0.51470588235294135 0 0.47063366764015668 0.5477498568705923 0 0.5 0.52941176470588269 0 0.4638583922372429 0.51470588235294135 0 0.5 0.5 0 0.5 0.52941176470588269 0 0.5 0.52941176470588269 0 0.52629893369322589 0.51330452493555312 0 0.52820848765230954 0.54540076010342464 0 0.5 0.5 0 0.5 0.52941176470588269 0 0.52629893369322589 0.51330452493555312 0 0.5 0.5 0 0.5 0.52941176470588269 0 0.5 0.52941176470588269 0 0.5 0.55882352941176494 0 0.52820848765230954 0.54540076010342464 0 0.5 0.52941176470588269 0 0.5 0.55882352941176494 0 0.5 0.55882352941176494 0 0.52820848765230954 0.54540076010342464 0 0.52246722155046366 0.57417151085839346 0 0.52820848765230954 0.54540076010342464 0 0.56199650931215228 0.51957997397013023 0 0.55931585964581554 0.57571189932143541 0 0.52629893369322589 0.51330452493555312 0 0.56199650931215228 0.51957997397013023 0 0.54128967150166729 0.47213012589832831 0 0.52629893369322589 0.51330452493555312 0 0.52820848765230954 0.54540076010342464 0 0.56199650931215228 0.51957997397013023 0 0.56199650931215228 0.51957997397013023 0 0.61174067805461174 0.54148194547208961 0 0.60345082206666756 0.47575908627627911 0 0.56199650931215228 0.51957997397013023 0 0.61174067805461174 0.54148194547208961 0 0.55931585964581554 0.57571189932143541 0 0.61174067805461174 0.54148194547208961 0 0.61264973759093866 0.60999664295093947 0 0.55931585964581554 0.57571189932143541 0 0.61264973759093866 0.60999664295093947 0 0.55931585964581554 0.57571189932143541 0 0.55828304378107996 0.63546085023637511 0 0.55931585964581554 0.57571189932143541 0 0.52754891270107895 0.60396918438229519 0 0.55828304378107996 0.63546085023637511 0 0.52754891270107895 0.60396918438229519 0 0.52222323737415433 0.63323059203007803 0 0.55828304378107996 0.63546085023637511 0 0.52820848765230954 0.54540076010342464 0 0.55931585964581554 0.57571189932143541 0 0.52246722155046366 0.57417151085839346 0 0.55931585964581554 0.57571189932143541 0 0.52246722155046366 0.57417151085839346 0 0.52754891270107895 0.60396918438229519 0 0.52246722155046366 0.57417151085839346 0 0.5 0.5882352941176473 0 0.52754891270107895 0.60396918438229519 0 0.5 0.55882352941176494 0 0.52246722155046366 0.57417151085839346 0 0.5 0.5882352941176473 0 0.5 0.55882352941176494 0 0.5 0.5882352941176473 0 0.52754891270107895 0.60396918438229519 0 0.5 0.61764705882352966 0 0.52222323737415433 0.63323059203007803 0 0.5 0.5882352941176473 0 0.5 0.61764705882352966 0 0.5 0.5882352941176473 0 0.52754891270107895 0.60396918438229519 0 0.5 0.61764705882352966 0 0.5 0.61764705882352966 0 0.52222323737415433 0.63323059203007803 0 0.5 0.64705882352941191 0 0.5 0.61764705882352966 0 0.5 0.64705882352941191 0 0.52222323737415433 0.63323059203007803 0 0.5 0.64705882352941191 0 0.52736180768426655 0.66304505109048573 0 0.5 0.64705882352941191 0 0.5 0.67647058823529438 0 0.52736180768426655 0.66304505109048573 0 0.5 0.64705882352941191 0 0.5 0.67647058823529438 0 0.5 0.67647058823529438 0 0.52736180768426655 0.66304505109048573 0 0.52189318962165776 0.69193883095305098 0 0.52736180768426655 0.66304505109048573 0 0.52189318962165776 0.69193883095305098 0 0.55852327729743823 0.69498827241231187 0 0.52736180768426655 0.66304505109048573 0 0.55828304378107996 0.63546085023637511 0 0.55852327729743823 0.69498827241231187 0 0.52222323737415433 0.63323059203007803 0 0.52736180768426655 0.66304505109048573 0 0.55828304378107996 0.63546085023637511 0 0.5 0.73529411764705888 0 0.52547133540542634 0.72058823529411897 0 0.5211984712236245 0.75134107022269114 0 0.5 0.73529411764705888 0 0.52547133540542634 0.72058823529411897 0 0.5 0.70588235294117663 0 0.5 0.73529411764705888 0 0.5 0.70588235294117663 0 0.52547133540542634 0.72058823529411897 0 0.5 0.70588235294117663 0 0.52189318962165776 0.69193883095305098 0 0.5 0.67647058823529438 0 0.5 0.70588235294117663 0 0.52189318962165776 0.69193883095305098 0 0.5 0.67647058823529438 0 0.5 0.70588235294117663 0 0.52547133540542634 0.72058823529411897 0 0.52189318962165776 0.69193883095305098 0 0.55852327729743823 0.69498827241231187 0 0.52547133540542634 0.72058823529411897 0 0.5211984712236245 0.75134107022269114 0 0.55458114032207428 0.75544804615062711 0 0.52547133540542634 0.72058823529411897 0 0.55852327729743823 0.69498827241231187 0 0.55458114032207428 0.75544804615062711 0 0.55852327729743823 0.69498827241231187 0 0.6088970477846376 0.72715446211577472 0 0.55458114032207428 0.75544804615062711 0 0.55852327729743823 0.69498827241231187 0 0.6088970477846376 0.72715446211577472 0 0.60110770968787908 0.67045598539422102 0 0.61264973759093866 0.60999664295093947 0 0.55828304378107996 0.63546085023637511 0 0.60110770968787908 0.67045598539422102 0 0.55828304378107996 0.63546085023637511 0 0.55852327729743823 0.69498827241231187 0 0.60110770968787908 0.67045598539422102 0 0.61264973759093866 0.60999664295093947 0 0.60110770968787908 0.67045598539422102 0 0.66621429167335955 0.68470300534742679 0 0.6088970477846376 0.72715446211577472 0 0.66621429167335955 0.68470300534742679 0 0.6817340940367822 0.76923101696744944 0 0.6088970477846376 0.72715446211577472 0 0.60110770968787908 0.67045598539422102 0 0.66621429167335955 0.68470300534742679 0 0.66621429167335955 0.68470300534742679 0 0.6817340940367822 0.76923101696744944 0 0.7828103453665094 0.69876044407634474 0 0.66621429167335955 0.68470300534742679 0 0.69354174170208815 0.57892485983477626 0 0.7828103453665094 0.69876044407634474 0 0.69354174170208815 0.57892485983477626 0 0.77935529174931761 0.49004815756283893 0 0.66681557370681976 0.49435464945626773 0 0.61174067805461174 0.54148194547208961 0 0.69354174170208815 0.57892485983477626 0 0.66681557370681976 0.49435464945626773 0 0.61174067805461174 0.54148194547208961 0 0.60345082206666756 0.47575908627627911 0 0.66681557370681976 0.49435464945626773 0 0.61174067805461174 0.54148194547208961 0 0.61264973759093866 0.60999664295093947 0 0.69354174170208815 0.57892485983477626 0 0.61264973759093866 0.60999664295093947 0 0.66621429167335955 0.68470300534742679 0 0.69354174170208815 0.57892485983477626 0 0.60145933092659498 0.94808652648958736 0 0.57768176564240026 1 0 0.63938141097836054 1 0 0.60145933092659498 0.94808652648958736 0 0.55381003699196441 0.97073734537240042 0 0.55652711631508067 0.93435010280744335 0 0.60145933092659498 0.94808652648958736 0 0.57768176564240026 1 0 0.55381003699196441 0.97073734537240042 0 0.57768176564240026 1 0 0.53273812861558045 1 0 0.55381003699196441 0.97073734537240042 0 0.53273812861558045 1 0 0.55381003699196441 0.97073734537240042 0 0.52191028766292435 0.97912620202886635 0 0.53273812861558045 1 0 0.52191028766292435 0.97912620202886635 0 0.5 1 0 0.52191028766292435 0.97912620202886635 0 0.5 0.97058823529411764 0 0.5 1 0 0.5 0.97058823529411764 0 0.5 1 0 0.5 0.97058823529411764 0 0.5 0.94117647058823528 0 0.5 0.97058823529411764 0 0.5 0.94117647058823528 0 0.52554900427979434 0.95492408164812537 0 0.52191028766292435 0.97912620202886635 0 0.5 0.97058823529411764 0 0.52554900427979434 0.95492408164812537 0 0.5 0.94117647058823528 0 0.52554900427979434 0.95492408164812537 0 0.52149395742518578 0.9280464911497236 0 0.55381003699196441 0.97073734537240042 0 0.52554900427979434 0.95492408164812537 0 0.55652711631508067 0.93435010280744335 0 0.55381003699196441 0.97073734537240042 0 0.52191028766292435 0.97912620202886635 0 0.52554900427979434 0.95492408164812537 0 0.52554900427979434 0.95492408164812537 0 0.55652711631508067 0.93435010280744335 0 0.52149395742518578 0.9280464911497236 0 0.55652711631508067 0.93435010280744335 0 0.52982914238326484 0.89727189043838895 0 0.57507719038536997 0.89743529736491356 0 0.55652711631508067 0.93435010280744335 0 0.52149395742518578 0.9280464911497236 0 0.52982914238326484 0.89727189043838895 0 0.52149395742518578 0.9280464911497236 0 0.5 0.91176470588235292 0 0.52982914238326484 0.89727189043838895 0 0.5 0.94117647058823528 0 0.5 0.91176470588235292 0 0.5 0.94117647058823528 0 0.52149395742518578 0.9280464911497236 0 0.5 0.91176470588235292 0 0.5 0.91176470588235292 0 0.5 0.88235294117647056 0 0.52982914238326484 0.89727189043838895 0 0.5 0.91176470588235292 0 0.5 0.88235294117647056 0 0.5 0.88235294117647056 0 0.52982914238326484 0.89727189043838895 0 0.51991574276818808 0.86764705882352966 0 0.52982914238326484 0.89727189043838895 0 0.57507719038536997 0.89743529736491356 0 0.54799184932697576 0.8599032232094268 0 0.60145933092659498 0.94808652648958736 0 0.55652711631508067 0.93435010280744335 0 0.57507719038536997 0.89743529736491356 0 0.60145933092659498 0.94808652648958736 0 0.57507719038536997 0.89743529736491356 0 0.63427031498547037 0.88927276979110648 0 0.57507719038536997 0.89743529736491356 0 0.58994607995897996 0.84812355238296233 0 0.63427031498547037 0.88927276979110648 0 0.58994607995897996 0.84812355238296233 0 0.64153141236229239 0.83072478436463804 0 0.63427031498547037 0.88927276979110648 0 0.58994607995897996 0.84812355238296233 0 0.60049020024666178 0.78900583008989877 0 0.64153141236229239 0.83072478436463804 0 0.58994607995897996 0.84812355238296233 0 0.54799184932697576 0.8599032232094268 0 0.55206941203846505 0.81091931303809783 0 0.58994607995897996 0.84812355238296233 0 0.55206941203846505 0.81091931303809783 0 0.60049020024666178 0.78900583008989877 0 0.57507719038536997 0.89743529736491356 0 0.58994607995897996 0.84812355238296233 0 0.54799184932697576 0.8599032232094268 0 0.52982914238326484 0.89727189043838895 0 0.54799184932697576 0.8599032232094268 0 0.51991574276818808 0.86764705882352966 0 0.54799184932697576 0.8599032232094268 0 0.51991574276818808 0.86764705882352966 0 0.52395085592512047 0.83729395211968571 0 0.51991574276818808 0.86764705882352966 0 0.5 0.85294117647058831 0 0.52395085592512047 0.83729395211968571 0 0.5 0.88235294117647056 0 0.5 0.85294117647058831 0 0.5 0.88235294117647056 0 0.51991574276818808 0.86764705882352966 0 0.5 0.85294117647058831 0 0.5 0.82352941176470584 0 0.52395085592512047 0.83729395211968571 0 0.52039202967084142 0.80930587873000437 0 0.5 0.85294117647058831 0 0.5 0.82352941176470584 0 0.5 0.85294117647058831 0 0.5 0.82352941176470584 0 0.52395085592512047 0.83729395211968571 0 0.52395085592512047 0.83729395211968571 0 0.55206941203846505 0.81091931303809783 0 0.52039202967084142 0.80930587873000437 0 0.54799184932697576 0.8599032232094268 0 0.52395085592512047 0.83729395211968571 0 0.55206941203846505 0.81091931303809783 0 0.55206941203846505 0.81091931303809783 0 0.52039202967084142 0.80930587873000437 0 0.52593988039062167 0.78066906966870908 0 0.55206941203846505 0.81091931303809783 0 0.52593988039062167 0.78066906966870908 0 0.55458114032207428 0.75544804615062711 0 0.52039202967084142 0.80930587873000437 0 0.5 0.79411764705882359 0 0.52593988039062167 0.78066906966870908 0 0.5 0.82352941176470584 0 0.5 0.79411764705882359 0 0.5 0.82352941176470584 0 0.52039202967084142 0.80930587873000437 0 0.5 0.79411764705882359 0 0.5 0.73529411764705888 0 0.5 0.76470588235294124 0 0.5 0.73529411764705888 0 0.5 0.76470588235294124 0 0.5211984712236245 0.75134107022269114 0 0.5 0.79411764705882359 0 0.5 0.76470588235294124 0 0.52593988039062167 0.78066906966870908 0 0.5 0.79411764705882359 0 0.5 0.76470588235294124 0 0.5 0.76470588235294124 0 0.52593988039062167 0.78066906966870908 0 0.5211984712236245 0.75134107022269114 0 0.52593988039062167 0.78066906966870908 0 0.5211984712236245 0.75134107022269114 0 0.55458114032207428 0.75544804615062711 0 0.6088970477846376 0.72715446211577472 0 0.55458114032207428 0.75544804615062711 0 0.60049020024666178 0.78900583008989877 0 0.55206941203846505 0.81091931303809783 0 0.55458114032207428 0.75544804615062711 0 0.60049020024666178 0.78900583008989877 0 0.6817340940367822 0.76923101696744944 0 0.70916369539323409 0.86041409043207073 0 0.80987878298654392 0.8110307373443908 0 0.6088970477846376 0.72715446211577472 0 0.60049020024666178 0.78900583008989877 0 0.6817340940367822 0.76923101696744944 0 0.60049020024666178 0.78900583008989877 0 0.6817340940367822 0.76923101696744944 0 0.64153141236229239 0.83072478436463804 0 0.70916369539323409 0.86041409043207073 0 0.64153141236229239 0.83072478436463804 0 0.63427031498547037 0.88927276979110648 0 0.6817340940367822 0.76923101696744944 0 0.70916369539323409 0.86041409043207073 0 0.64153141236229239 0.83072478436463804 0 0.70916369539323409 0.86041409043207073 0 0.68173274398262862 0.93660593960145366 0 0.63427031498547037 0.88927276979110648 0 0.60145933092659498 0.94808652648958736 0 0.68173274398262862 0.93660593960145366 0 0.63427031498547037 0.88927276979110648 0 0.70916369539323409 0.86041409043207073 0 0.68173274398262862 0.93660593960145366 0 0.78222494485339233 0.91531439423588867 0 0.68173274398262862 0.93660593960145366 0 0.72408407698689681 1 0 0.78222494485339233 0.91531439423588867 0 0.60145933092659498 0.94808652648958736 0 0.68173274398262862 0.93660593960145366 0 0.63938141097836054 1 0 0.68173274398262862 0.93660593960145366 0 0.72408407698689681 1 0 0.63938141097836054 1 0 1 1 0 0.89611933618281592 0.89173516444576184 0 1 0.74999999999934008 0 0.72408407698689681 1 0 0.84036581271988753 1 0 0.78222494485339233 0.91531439423588867 0 0.84036581271988753 1 0 0.78222494485339233 0.91531439423588867 0 0.89611933618281592 0.89173516444576184 0 0.6817340940367822 0.76923101696744944 0 0.80987878298654392 0.8110307373443908 0 0.7828103453665094 0.69876044407634474 0 0.80987878298654392 0.8110307373443908 0 0.7828103453665094 0.69876044407634474 0 1 0.74999999999934008 0 0.78222494485339233 0.91531439423588867 0 0.80987878298654392 0.8110307373443908 0 0.89611933618281592 0.89173516444576184 0 0.70916369539323409 0.86041409043207073 0 0.78222494485339233 0.91531439423588867 0 0.80987878298654392 0.8110307373443908 0 0.80987878298654392 0.8110307373443908 0 0.89611933618281592 0.89173516444576184 0 1 0.74999999999934008 0 0.84036581271988753 1 0 1 1 0 0.89611933618281592 0.89173516444576184 0 0.84549316180028322 0.59867304496468476 0 1 0.74999999999934008 0 1 0.49999999999869182 0 0.69354174170208815 0.57892485983477626 0 0.84549316180028322 0.59867304496468476 0 0.77935529174931761 0.49004815756283893 0 0.84549316180028322 0.59867304496468476 0 1 0.49999999999869182 0 0.77935529174931761 0.49004815756283893 0 0.69354174170208815 0.57892485983477626 0 0.84549316180028322 0.59867304496468476 0 0.7828103453665094 0.69876044407634474 0 0.84549316180028322 0.59867304496468476 0 0.7828103453665094 0.69876044407634474 0 1 0.74999999999934008 0 1 0.49999999999869182 0 0.77935529174931761 0.49004815756283893 0 0.80451351819826811 0.35479918680564199 0 0.80451351819826811 0.35479918680564199 0 1 0.24999999999941089 0 0.79923457477009219 0.1751534052300894 0 1 0.49999999999869182 0 0.80451351819826811 0.35479918680564199 0 1 0.24999999999941089 0 1 0 0 0.79923457477009219 0.1751534052300894 0 0.74999999999934008 0 0 1 0.24999999999941089 0 1 0 0 0.79923457477009219 0.1751534052300894 0 0.49999999999869182 0 0 0.62537763927714929 0.14286513648320209 0 0.74999999999934008 0 0 0.79923457477009219 0.1751534052300894 0 0.62537763927714929 0.14286513648320209 0 0.6197279975813802 0.30020319976287241 0 0.79923457477009219 0.1751534052300894 0 0.62537763927714929 0.14286513648320209 0 0.74999999999934008 0 0 0.49924741621175961 0.21507969613896921 0 0.49999999999869182 0 0 0.62537763927714929 0.14286513648320209 0 0.49924741621175961 0.21507969613896921 0 0.62537763927714929 0.14286513648320209 0 0.6197279975813802 0.30020319976287241 0 0.49924741621175961 0.21507969613896921 0 0.49435464945626773 0.33318442629318029 0 0.6197279975813802 0.30020319976287241 0 0.49435464945626773 0.33318442629318029 0 0.6197279975813802 0.30020319976287241 0 0.54876010062294855 0.39662628167175101 0 0.6197279975813802 0.30020319976287241 0 0.54876010062294855 0.39662628167175101 0 0.66576775508844777 0.41353720431697111 0 0.49954900152271581 0.45107191084564019 0 0.45418244162583959 0.41624787166862259 0 0.54876010062294855 0.39662628167175101 0 0.49954900152271581 0.45107191084564019 0 0.54876010062294855 0.39662628167175101 0 0.54128967150166729 0.47213012589832831 0 0.49954900152271581 0.45107191084564019 0 0.5 0.5 0 0.54128967150166729 0.47213012589832831 0 0.5 0.5 0 0.52629893369322589 0.51330452493555312 0 0.54128967150166729 0.47213012589832831 0 0.54876010062294855 0.39662628167175101 0 0.54128967150166729 0.47213012589832831 0 0.60345082206666756 0.47575908627627911 0 0.56199650931215228 0.51957997397013023 0 0.54128967150166729 0.47213012589832831 0 0.60345082206666756 0.47575908627627911 0 0.54876010062294855 0.39662628167175101 0 0.60345082206666756 0.47575908627627911 0 0.66576775508844777 0.41353720431697111 0 0.77935529174931761 0.49004815756283893 0 0.80451351819826811 0.35479918680564199 0 0.66576775508844777 0.41353720431697111 0 0.60345082206666756 0.47575908627627911 0 0.66576775508844777 0.41353720431697111 0 0.66681557370681976 0.49435464945626773 0 0.77935529174931761 0.49004815756283893 0 0.66576775508844777 0.41353720431697111 0 0.66681557370681976 0.49435464945626773 0 0.80451351819826811 0.35479918680564199 0 0.79923457477009219 0.1751534052300894 0 0.6197279975813802 0.30020319976287241 0 0.80451351819826811 0.35479918680564199 0 0.6197279975813802 0.30020319976287241 0 0.66576775508844777 0.41353720431697111 0 
</DataArray>
</Points>
<Cells>
<DataArray type="UInt32" Name="connectivity" format="ascii">
0 1 2 3 4 5 6 7 8 9 10 11 12 13 14 15 16 17 18 19 20 21 22 23 24 25 26 27 28 29 30 31 32 33 34 35 36 37 38 39 40 41 42 43 44 45 46 47 48 49 50 51 52 53 54 55 56 57 58 59 60 61 62 63 64 65 66 67 68 69 70 71 72 73 74 75 76 77 78 79 80 81 82 83 84 85 86 87 88 89 90 91 92 93 94 95 96 97 98 99 100 101 102 103 104 105 106 107 108 109 110 111 112 113 114 115 116 117 118 119 120 121 122 123 124 125 126 127 128 129 130 131 132 133 134 135 136 137 138 139 140 141 142 143 144 145 146 147 148 149 150 151 152 153 154 155 156 157 158 159 160 161 162 163 164 165 166 167 168 169 170 171 172 173 174 175 176 177 178 179 180 181 182 183 184 185 186 187 188 189 190 191 192 193 194 195 196 197 198 199 200 201 202 203 204 205 206 207 208 209 210 211 212 213 214 215 216 217 218 219 220 221 222 223 224 225 226 227 228 229 230 231 232 233 234 235 236 237 238 239 240 241 242 243 244 245 246 247 248 249 250 251 252 253 254 255 256 257 258 259 260 261 262 263 264 265 266 267 268 269 270 271 272 273 274 275 276 277 278 279 280 281 282 283 284 285 286 287 288 289 290 291 292 293 294 295 296 297 298 299 300 301 302 303 304 305 306 307 308 309 310 311 312 313 314 315 316 317 318 319 320 321 322 323 324 325 326 327 328 329 330 331 332 333 334 335 336 337 338 339 340 341 342 343 344 345 346 347 348 349 350 351 352 353 354 355 356 357 358 359 360 361 362 363 364 365 366 367 368 369 370 371 372 373 374 375 376 377 378 379 380 381 382 383 384 385 386 387 388 389 390 391 392 393 394 395 396 397 398 399 400 401 402 403 404 405 406 407 408 409 410 411 412 413 414 415 416 417 418 419 420 421 422 423 424 425 426 427 428 429 430 431 432 433 434 435 436 437 438 439 440 441 442 443 444 445 446 447 448 449 450 451 452 453 454 455 456 457 458 459 460 461 462 463 464 465 466 467 468 469 470 471 472 473 474 475 476 477 478 479 480 481 482 483 484 485 486 487 488 489 490 491 492 493 494 495 496 497 498 499 500 501 502 503 504 505 506 507 508 509 510 511 512 513 514 515 516 517 518 519 520 521 522 523 524 525 526 527 528 529 530 531 532 533 534 535 536 537 538 539 540 541 542 543 544 545 546 547 548 549 550 551 552 553 554 555 556 557 558 559 560 561 562 563 564 565 566 567 568 569 570 571 572 573 574 575 576 577 578 579 580 581 582 583 584 585 586 587 588 589 590 591 592 593 594 595 596 597 598 599 600 601 602 603 604 605 606 607 608 609 610 611 612 613 614 615 616 617 618 619 620 621 622 623 624 625 626 627 628 629 630 631 632 633 634 635 636 637 638 639 640 641 642 643 644 645 646 647 648 649 650 651 652 653 654 655 656 657 658 659 660 661 662 663 664 665 666 667 668 669 670 671 672 673 674 675 676 677 678 679 680 681 682 683 684 685 686 687 688 689 690 691 692 693 694 695 696 697 698 699 700 701 702 703 704 705 706 707 708 709 710 711 712 713 714 715 716 717 718 719 720 721 722 723 724 725 726 727 728 729 730 731 732 733 734 735 736 737 738 739 740 741 742 743 744 745 746 747 748 749 750 751 752 753 754 755 756 757 758 759 760 761 762 763 764 765 766 767 768 769 770 771 772 773 774 775 776 777 778 779 780 781 782 783 784 785 786 787 788 789 790 791 792 793 794 795 796 797 798 799 800 801 802 803 804 805 806 807 808 809 810 811 812 813 814 815 816 817 818 819 820 821 822 823 824 825 826 827 828 829 830 831 832 833 834 835 836 837 838 839 840 841 842 843 844 845 846 847 848 849 850 851 852 853 854 855 856 857 858 859 860 861 862 863 864 865 866 867 868 869 870 871 872 873 874 875 876 877 878 879 
</DataArray>
<DataArray type="UInt32" Name="offsets" format="ascii">
3 6 9 12 15 18 21 24 27 30 33 36 39 42 45 48 51 54 57 60 63 66 69 72 75 78 81 84 87 90 93 96 99 102 105 108 111 114 117 120 123 126 129 132 135 138 141 144 147 150 153 156 159 162 165 168 171 174 177 180 183 186 189 192 195 198 201 204 207 210 213 216 219 222 225 228 231 234 237 240 243 246 249 252 255 258 261 264 267 270 273 276 279 282 285 288 291 294 297 300 303 306 309 312 315 318 321 324 327 330 333 336 339 342 345 348 351 354 357 360 363 366 369 372 375 378 381 384 387 390 393 396 399 402 405 408 411 414 417 420 423 425 428 430 433 436 439 442 445 448 451 454 457 460 463 466 469 472 474 477 479 482 485 487 490 493 495 498 501 504 507 510 513 515 518 521 523 526 529 532 535 538 541 544 547 550 553 556 559 562 565 568 571 574 577 580 583 586 589 592 595 597 599 602 605 608 611 614 617 620 623 626 628 631 634 636 639 642 645 648 651 654 657 660 663 666 669 672 675 677 680 683 685 688 691 694 697 700 703 705 708 710 713 716 718 721 724 727 730 733 736 739 742 745 748 751 754 757 760 763 766 769 772 775 778 781 784 787 790 793 796 799 802 805 808 811 814 817 820 823 826 829 832 835 838 841 844 847 850 853 856 859 862 865 868 871 874 877 880 
</DataArray>
<DataArray type="UInt32" Name="types" format="ascii">
5 5 5 5 5 5 5 5 5 5 5 5 5 5 5 5 5 5 5 5 5 5 5 5 5 5 5 5 5 5 5 5 5 5 5 5 5 5 5 5 5 5 5 5 5 5 5 5 5 5 5 5 5 5 5 5 5 5 5 5 5 5 5 5 5 5 5 5 5 5 5 5 5 5 5 5 5 5 5 5 5 5 5 5 5 5 5 5 5 5 5 5 5 5 5 5 5 5 5 5 5 5 5 5 5 5 5 5 5 5 5 5 5 5 5 5 5 5 5 5 5 5 5 5 5 5 5 5 5 5 5 5 5 5 5 5 5 5 5 5 5 3 5 3 5 5 5 5 5 5 5 5 5 5 5 5 5 5 3 5 3 5 5 3 5 5 3 5 5 5 5 5 5 3 5 5 3 5 5 5 5 5 5 5 5 5 5 5 5 5 5 5 5 5 5 5 5 5 5 5 5 3 3 5 5 5 5 5 5 5 5 5 3 5 5 3 5 5 5 5 5 5 5 5 5 5 5 5 5 3 5 5 3 5 5 5 5 5 5 3 5 3 5 5 3 5 5 5 5 5 5 5 5 5 5 5 5 5 5 5 5 5 5 5 5 5 5 5 5 5 5 5 5 5 5 5 5 5 5 5 5 5 5 5 5 5 5 5 5 5 5 5 5 5 5 5 5 5 5 
</DataArray>
</Cells>
<PointData Scalars="" Vectors="displacement," Tensors="">
<DataArray type="Float64" Name="displacement" NumberOfComponents="3" format="ascii">
-5.646896501915967e-05 -2.7457401802656503e-05 0 -0.030989264582155267 -0.0080354621279570115 0 -3.4931827685712057e-05 3.3145247673216366e-06 0 -5.646896501915967e-05 -2.7457401802656503e-05 0 -0.030989264582155267 -0.0080354621279570115 0 -0.049343890749754926 -0.023941602061187946 0 -0.049343890749754926 -0.023941602061187946 0 -0.06255274855849785 -0.01614230174016356 0 -0.09376622622279969 -0.030527048507588795 0 -0.030989264582155267 -0.0080354621279570115 0 -0.049343890749754926 -0.023941602061187946 0 -0.06255274855849785 -0.01614230174016356 0 -0.06255274855849785 -0.01614230174016356 0 -0.090033557660689267 -0.01723849104490793 0 -0.09376622622279969 -0.030527048507588795 0 -0.06255274855849785 -0.01614230174016356 0 -0.090033557660689267 -0.01723849104490793 0 -0.071090724268105629 -0.0095035707487246112 0 -0.064951239522425708 -0.0041245576084526902 0 -0.072045200336444098 -0.00063680486129771266 0 -0.079503093665182475 -0.004678543511057935 0 -0.064951239522425708 -0.0041245576084526902 0 -0.079503093665182475 -0.004678543511057935 0 -0.071090724268105629 -0.0095035707487246112 0 -0.072045200336444098 -0.00063680486129771266 0 -0.081529588004347009 -0.0011630679314050831 0 -0.079503093665182475 -0.004678543511057935 0 -0.072045200336444098 -0.00063680486129771266 0 -0.081529588004347009 -0.0011630679314050831 0 -0.081048763512152899 0.0011129612448157757 0 -0.081529588004347009 -0.0011630679314050831 0 -0.088032827106469036 -0.0029623626086093995 0 -0.087994616110167789 -7.4294901608215879e-05 0 -0.081529588004347009 -0.0011630679314050831 0 -0.081048763512152899 0.0011129612448157757 0 -0.087994616110167789 -7.4294901608215879e-05 0 -0.081529588004347009 -0.0011630679314050831 0 -0.088032827106469036 -0.0029623626086093995 0 -0.079503093665182475 -0.004678543511057935 0 -0.079503093665182475 -0.004678543511057935 0 -0.087791668419144528 -0.01001196401260507 0 -0.097621170815313907 -0.0066173074617978745 0 -0.079503093665182475 -0.004678543511057935 0 -0.087791668419144528 -0.01001196401260507 0 -0.071090724268105629 -0.0095035707487246112 0 -0.090033557660689267 -0.01723849104490793 0 -0.087791668419144528 -0.01001196401260507 0 -0.071090724268105629 -0.0095035707487246112 0 -0.06255274855849785 -0.01614230174016356 0 -0.071090724268105629 -0.0095035707487246112 0 -0.04912693162001279 -0.0059150274164726964 0 -0.064951239522425708 -0.0041245576084526902 0 -0.071090724268105629 -0.0095035707487246112 0 -0.04912693162001279 -0.0059150274164726964 0 -0.030989264582155267 -0.0080354621279570115 0 -0.06255274855849785 -0.01614230174016356 0 -0.04912693162001279 -0.0059150274164726964 0 -0.04912693162001279 -0.0059150274164726964 0 -0.055199222216272929 -1.4224725469654639e-05 0 -0.028788480197444233 -0.0025885509924337257 0 -0.064951239522425708 -0.0041245576084526902 0 -0.04912693162001279 -0.0059150274164726964 0 -0.055199222216272929 -1.4224725469654639e-05 0 -0.064951239522425708 -0.0041245576084526902 0 -0.072045200336444098 -0.00063680486129771266 0 -0.055199222216272929 -1.4224725469654639e-05 0 -0.028788480197444233 -0.0025885509924337257 0 -3.4931827685712057e-05 3.3145247673216366e-06 0 -4.0401080021494058e-05 -1.1867700963089851e-06 0 -0.028788480197444233 -0.0025885509924337257 0 -4.0401080021494058e-05 -1.1867700963089851e-06 0 -0.037338737028428784 0.00094733139931814933 0 -0.055199222216272929 -1.4224725469654639e-05 0 -0.028788480197444233 -0.0025885509924337257 0 -0.037338737028428784 0.00094733139931814933 0 -0.030989264582155267 -0.0080354621279570115 0 -0.04912693162001279 -0.0059150274164726964 0 -0.028788480197444233 -0.0025885509924337257 0 -0.030989264582155267 -0.0080354621279570115 0 -0.028788480197444233 -0.0025885509924337257 0 -3.4931827685712057e-05 3.3145247673216366e-06 0 -4.0401080021494058e-05 -1.1867700963089851e-06 0 -0.029808088813019801 0.0039836808914433504 0 -3.4764245866801942e-05 1.6459016664737467e-06 0 -0.029808088813019801 0.0039836808914433504 0 -0.038449693485847328 0.0087760298842984204 0 -3.4764245866801942e-05 1.6459016664737467e-06 0 -0.029808088813019801 0.0039836808914433504 0 -0.038449693485847328 0.0087760298842984204 0 -0.053578957557921893 0.0083990025117170672 0 -0.029808088813019801 0.0039836808914433504 0 -0.037338737028428784 0.00094733139931814933 0 -0.053841738522191929 0.0044469610036843472 0 -4.0401080021494058e-05 -1.1867700963089851e-06 0 -0.029808088813019801 0.0039836808914433504 0 -0.037338737028428784 0.00094733139931814933 0 -5.6670061166155282e-05 1.9910089127683994e-05 0 -0.016353436023635339 0.0074463901899397018 0 -3.4764245866801942e-05 1.6459016664737467e-06 0 -5.6670061166155282e-05 1.9910089127683994e-05 0 -0.016353436023635339 0.0074463901899397018 0 -0.033857609032400114 0.019108787823361686 0 -0.016353436023635339 0.0074463901899397018 0 -3.4764245866801942e-05 1.6459016664737467e-06 0 -0.028004112143389416 0.0089120531486407712 0 -0.028004112143389416 0.0089120531486407712 0 -0.045058235442873726 0.01978106989683117 0 -0.047681056228191319 0.01415691847259196 0 -0.038449693485847328 0.0087760298842984204 0 -3.4764245866801942e-05 1.6459016664737467e-06 0 -0.028004112143389416 0.0089120531486407712 0 -0.038449693485847328 0.0087760298842984204 0 -0.028004112143389416 0.0089120531486407712 0 -0.047681056228191319 0.01415691847259196 0 -0.016353436023635339 0.0074463901899397018 0 -0.028004112143389416 0.0089120531486407712 0 -0.045058235442873726 0.01978106989683117 0 -0.016353436023635339 0.0074463901899397018 0 -0.045058235442873726 0.01978106989683117 0 -0.033857609032400114 0.019108787823361686 0 -0.045058235442873726 0.01978106989683117 0 -0.033857609032400114 0.019108787823361686 0 -0.054830214343934008 0.025759384939805747 0 -0.069658632038651094 0.028658532196702568 0 -0.061981342901421335 0.024229151772493858 0 -0.054830214343934008 0.025759384939805747 0 -0.069658632038651094 0.028658532196702568 0 -0.061981342901421335 0.024229151772493858 0 -0.074240201796679409 0.02685609525121312 0 -0.045058235442873726 0.01978106989683117 0 -0.061981342901421335 0.024229151772493858 0 -0.054830214343934008 0.025759384939805747 0 -0.045058235442873726 0.01978106989683117 0 -0.061981342901421335 0.024229151772493858 0 -0.058379953806001396 0.020208596537364357 0 -0.061981342901421335 0.024229151772493858 0 -0.06977315553600491 0.023065766336108736 0 -0.074240201796679409 0.02685609525121312 0 -0.061981342901421335 0.024229151772493858 0 -0.058379953806001396 0.020208596537364357 0 -0.06977315553600491 0.023065766336108736 0 -0.045058235442873726 0.01978106989683117 0 -0.058379953806001396 0.020208596537364357 0 -0.047681056228191319 0.01415691847259196 0 -0.058379953806001396 0.020208596537364357 0 -0.065622728547090489 0.018198161231443247 0 -0.06977315553600491 0.023065766336108736 0 -0.058379953806001396 0.020208596537364357 0 -0.065622728547090489 0.018198161231443247 0 -0.047681056228191319 0.01415691847259196 0 -0.038449693485847328 0.0087760298842984204 0 -0.047681056228191319 0.01415691847259196 0 -0.057631329204689691 0.012664475251244168 0 -0.065622728547090489 0.018198161231443247 0 -0.047681056228191319 0.01415691847259196 0 -0.057631329204689691 0.012664475251244168 0 -0.065622728547090489 0.018198161231443247 0 -0.070581342964830998 0.015118760990705584 0 -0.057631329204689691 0.012664475251244168 0 -0.065622728547090489 0.018198161231443247 0 -0.070581342964830998 0.015118760990705584 0 -0.077366014155047569 0.018880823390812602 0 -0.070581342964830998 0.015118760990705584 0 -0.077366014155047569 0.018880823390812602 0 -0.080015678129008991 0.016817363676160955 0 -0.070581342964830998 0.015118760990705584 0 -0.080015678129008991 0.016817363676160955 0 -0.076904760863751143 0.013458885129257511 0 -0.080015678129008991 0.016817363676160955 0 -0.086001671219052625 0.017663119031765227 0 -0.08450248273450825 0.015776299468470607 0 -0.086001671219052625 0.017663119031765227 0 -0.08450248273450825 0.015776299468470607 0 -0.089987039985745906 0.017196879995999323 0 -0.086001671219052625 0.017663119031765227 0 -0.090432077123330373 0.019094274839844327 0 -0.089987039985745906 0.017196879995999323 0 -0.08511360883800094 0.019392532866655907 0 -0.090915505854592266 0.020986436799161644 0 -0.090432077123330373 0.019094274839844327 0 -0.086001671219052625 0.017663119031765227 0 -0.08511360883800094 0.019392532866655907 0 -0.090432077123330373 0.019094274839844327 0 -0.080015678129008991 0.016817363676160955 0 -0.086001671219052625 0.017663119031765227 0 -0.08511360883800094 0.019392532866655907 0 -0.077366014155047569 0.018880823390812602 0 -0.080015678129008991 0.016817363676160955 0 -0.08511360883800094 0.019392532866655907 0 -0.077366014155047569 0.018880823390812602 0 -0.08511360883800094 0.019392532866655907 0 -0.084054464477329893 0.021256456077927033 0 -0.077366014155047569 0.018880823390812602 0 -0.084054464477329893 0.021256456077927033 0 -0.078492228703788108 0.022345858966382491 0 -0.084054464477329893 0.021256456077927033 0 -0.091432201967925356 0.022857244455058 0 -0.090915505854592266 0.020986436799161644 0 -0.08511360883800094 0.019392532866655907 0 -0.084054464477329893 0.021256456077927033 0 -0.090915505854592266 0.020986436799161644 0 -0.084054464477329893 0.021256456077927033 0 -0.086193650067795988 0.023206366321896005 0 -0.091432201967925356 0.022857244455058 0 -0.086193650067795988 0.023206366321896005 0 -0.091969727019364136 0.024713344634922935 0 -0.091432201967925356 0.022857244455058 0 -0.084054464477329893 0.021256456077927033 0 -0.086193650067795988 0.023206366321896005 0 -0.078492228703788108 0.022345858966382491 0 -0.065622728547090489 0.018198161231443247 0 -0.078492228703788108 0.022345858966382491 0 -0.06977315553600491 0.023065766336108736 0 -0.065622728547090489 0.018198161231443247 0 -0.077366014155047569 0.018880823390812602 0 -0.078492228703788108 0.022345858966382491 0 -0.06977315553600491 0.023065766336108736 0 -0.07961944377148085 0.025646234871279171 0 -0.074240201796679409 0.02685609525121312 0 -0.078492228703788108 0.022345858966382491 0 -0.06977315553600491 0.023065766336108736 0 -0.07961944377148085 0.025646234871279171 0 -0.086193650067795988 0.023206366321896005 0 -0.078492228703788108 0.022345858966382491 0 -0.085046736778776041 0.024773256841757713 0 -0.078492228703788108 0.022345858966382491 0 -0.07961944377148085 0.025646234871279171 0 -0.085046736778776041 0.024773256841757713 0 -0.086193650067795988 0.023206366321896005 0 -0.085046736778776041 0.024773256841757713 0 -0.091969727019364136 0.024713344634922935 0 -0.085046736778776041 0.024773256841757713 0 -0.092518717590589841 0.026542427354673326 0 -0.091969727019364136 0.024713344634922935 0 -0.085046736778776041 0.024773256841757713 0 -0.087285238803292267 0.02697244699012058 0 -0.092518717590589841 0.026542427354673326 0 -0.087285238803292267 0.02697244699012058 0 -0.093074638071664134 0.02834405612860607 0 -0.092518717590589841 0.026542427354673326 0 -0.07961944377148085 0.025646234871279171 0 -0.085046736778776041 0.024773256841757713 0 -0.087285238803292267 0.02697244699012058 0 -0.087285238803292267 0.02697244699012058 0 -0.08414900866243992 0.028721886417460176 0 -0.089042917206732339 0.0287873344439574 0 -0.07961944377148085 0.025646234871279171 0 -0.087285238803292267 0.02697244699012058 0 -0.08414900866243992 0.028721886417460176 0 -0.08414900866243992 0.028721886417460176 0 -0.089042917206732339 0.0287873344439574 0 -0.089882887453687901 0.030155206583778581 0 -0.087285238803292267 0.02697244699012058 0 -0.089042917206732339 0.0287873344439574 0 -0.093074638071664134 0.02834405612860607 0 -0.089042917206732339 0.0287873344439574 0 -0.089882887453687901 0.030155206583778581 0 -0.093627114457212626 0.030110864188603814 0 -0.089042917206732339 0.0287873344439574 0 -0.093627114457212626 0.030110864188603814 0 -0.093074638071664134 0.02834405612860607 0 -0.089882887453687901 0.030155206583778581 0 -0.088402330764985534 0.031220725279670875 0 -0.094172371826207329 0.031861746533955314 0 -0.089882887453687901 0.030155206583778581 0 -0.093627114457212626 0.030110864188603814 0 -0.094172371826207329 0.031861746533955314 0 -0.08414900866243992 0.028721886417460176 0 -0.089882887453687901 0.030155206583778581 0 -0.088402330764985534 0.031220725279670875 0 -0.08414900866243992 0.028721886417460176 0 -0.088402330764985534 0.031220725279670875 0 -0.080483440267739778 0.030249224913970189 0 -0.08414900866243992 0.028721886417460176 0 -0.080483440267739778 0.030249224913970189 0 -0.074240201796679409 0.02685609525121312 0 -0.07961944377148085 0.025646234871279171 0 -0.08414900866243992 0.028721886417460176 0 -0.074240201796679409 0.02685609525121312 0 -0.069658632038651094 0.028658532196702568 0 -0.080483440267739778 0.030249224913970189 0 -0.074240201796679409 0.02685609525121312 0 -0.053841738522191929 0.0044469610036843472 0 -0.066982802028334829 0.0074160713106142659 0 -0.072742827099552917 0.0036714155022479823 0 -0.055199222216272929 -1.4224725469654639e-05 0 -0.053841738522191929 0.0044469610036843472 0 -0.072742827099552917 0.0036714155022479823 0 -0.055199222216272929 -1.4224725469654639e-05 0 -0.037338737028428784 0.00094733139931814933 0 -0.053841738522191929 0.0044469610036843472 0 -0.029808088813019801 0.0039836808914433504 0 -0.053841738522191929 0.0044469610036843472 0 -0.053578957557921893 0.0083990025117170672 0 -0.038449693485847328 0.0087760298842984204 0 -0.057631329204689691 0.012664475251244168 0 -0.053578957557921893 0.0083990025117170672 0 -0.070581342964830998 0.015118760990705584 0 -0.057631329204689691 0.012664475251244168 0 -0.067271157306853666 0.010962486655752656 0 -0.057631329204689691 0.012664475251244168 0 -0.053578957557921893 0.0083990025117170672 0 -0.067271157306853666 0.010962486655752656 0 -0.053841738522191929 0.0044469610036843472 0 -0.053578957557921893 0.0083990025117170672 0 -0.066982802028334829 0.0074160713106142659 0 -0.053578957557921893 0.0083990025117170672 0 -0.066982802028334829 0.0074160713106142659 0 -0.067271157306853666 0.010962486655752656 0 -0.066982802028334829 0.0074160713106142659 0 -0.067271157306853666 0.010962486655752656 0 -0.077094318382980032 0.009918226301388635 0 -0.066982802028334829 0.0074160713106142659 0 -0.077094318382980032 0.009918226301388635 0 -0.078163581024957726 0.0068559474848303679 0 -0.070581342964830998 0.015118760990705584 0 -0.067271157306853666 0.010962486655752656 0 -0.076904760863751143 0.013458885129257511 0 -0.067271157306853666 0.010962486655752656 0 -0.076904760863751143 0.013458885129257511 0 -0.077094318382980032 0.009918226301388635 0 -0.076904760863751143 0.013458885129257511 0 -0.084896249131236542 0.01404739004175698 0 -0.08450248273450825 0.015776299468470607 0 -0.080015678129008991 0.016817363676160955 0 -0.076904760863751143 0.013458885129257511 0 -0.08450248273450825 0.015776299468470607 0 -0.076904760863751143 0.013458885129257511 0 -0.082101269531741086 0.012319493326919439 0 -0.077094318382980032 0.009918226301388635 0 -0.076904760863751143 0.013458885129257511 0 -0.082101269531741086 0.012319493326919439 0 -0.084896249131236542 0.01404739004175698 0 -0.082101269531741086 0.012319493326919439 0 -0.084896249131236542 0.01404739004175698 0 -0.08920338886455538 0.013404328686101905 0 -0.082101269531741086 0.012319493326919439 0 -0.088866032791576371 0.011514742968389445 0 -0.08920338886455538 0.013404328686101905 0 -0.084896249131236542 0.01404739004175698 0 -0.089572476905638396 0.015304234485393956 0 -0.08920338886455538 0.013404328686101905 0 -0.08450248273450825 0.015776299468470607 0 -0.089572476905638396 0.015304234485393956 0 -0.089987039985745906 0.017196879995999323 0 -0.084896249131236542 0.01404739004175698 0 -0.08450248273450825 0.015776299468470607 0 -0.089572476905638396 0.015304234485393956 0 -0.077094318382980032 0.009918226301388635 0 -0.083960467308087997 0.010383470666287696 0 -0.083239770737642965 0.0085116203725183973 0 -0.077094318382980032 0.009918226301388635 0 -0.083239770737642965 0.0085116203725183973 0 -0.078163581024957726 0.0068559474848303679 0 -0.082101269531741086 0.012319493326919439 0 -0.077094318382980032 0.009918226301388635 0 -0.083960467308087997 0.010383470666287696 0 -0.082101269531741086 0.012319493326919439 0 -0.083960467308087997 0.010383470666287696 0 -0.088866032791576371 0.011514742968389445 0 -0.083960467308087997 0.010383470666287696 0 -0.088578245453213661 0.0096091244280746349 0 -0.088866032791576371 0.011514742968389445 0 -0.083960467308087997 0.010383470666287696 0 -0.083239770737642965 0.0085116203725183973 0 -0.088578245453213661 0.0096091244280746349 0 -0.083239770737642965 0.0085116203725183973 0 -0.088343822920094364 0.0077016023763729858 0 -0.088578245453213661 0.0096091244280746349 0 -0.084022118363159579 0.0067663465018864867 0 -0.088169266339717917 0.0057840454891934512 0 -0.088343822920094364 0.0077016023763729858 0 -0.083239770737642965 0.0085116203725183973 0 -0.084022118363159579 0.0067663465018864867 0 -0.088343822920094364 0.0077016023763729858 0 -0.082273757302572303 0.0049518624149100547 0 -0.088042011901396156 0.0038691033310935372 0 -0.088169266339717917 0.0057840454891934512 0 -0.084022118363159579 0.0067663465018864867 0 -0.082273757302572303 0.0049518624149100547 0 -0.088169266339717917 0.0057840454891934512 0 -0.082273757302572303 0.0049518624149100547 0 -0.078163581024957726 0.0068559474848303679 0 -0.072742827099552917 0.0036714155022479823 0 -0.084022118363159579 0.0067663465018864867 0 -0.082273757302572303 0.0049518624149100547 0 -0.078163581024957726 0.0068559474848303679 0 -0.083239770737642965 0.0085116203725183973 0 -0.084022118363159579 0.0067663465018864867 0 -0.078163581024957726 0.0068559474848303679 0 -0.066982802028334829 0.0074160713106142659 0 -0.078163581024957726 0.0068559474848303679 0 -0.072742827099552917 0.0036714155022479823 0 -0.072045200336444098 -0.00063680486129771266 0 -0.055199222216272929 -1.4224725469654639e-05 0 -0.072742827099552917 0.0036714155022479823 0 -0.072045200336444098 -0.00063680486129771266 0 -0.072742827099552917 0.0036714155022479823 0 -0.081048763512152899 0.0011129612448157757 0 -0.072742827099552917 0.0036714155022479823 0 -0.081048763512152899 0.0011129612448157757 0 -0.082388656613852321 0.0031329613113823956 0 -0.082273757302572303 0.0049518624149100547 0 -0.072742827099552917 0.0036714155022479823 0 -0.082388656613852321 0.0031329613113823956 0 -0.082273757302572303 0.0049518624149100547 0 -0.082388656613852321 0.0031329613113823956 0 -0.088042011901396156 0.0038691033310935372 0 -0.082388656613852321 0.0031329613113823956 0 -0.08797232014130614 0.001917925010877221 0 -0.088042011901396156 0.0038691033310935372 0 -0.081048763512152899 0.0011129612448157757 0 -0.082388656613852321 0.0031329613113823956 0 -0.08797232014130614 0.001917925010877221 0 -0.081048763512152899 0.0011129612448157757 0 -0.087994616110167789 -7.4294901608215879e-05 0 -0.08797232014130614 0.001917925010877221 0 -0.087972280273679815 0.0013898928012977918 0 -0.092928425831007064 0.00043439825904749327 0 -0.093324790564615415 0.0022294432349774743 0 -0.087994616110167789 -7.4294901608215879e-05 0 -0.087972280273679815 0.0013898928012977918 0 -0.092928425831007064 0.00043439825904749327 0 -0.088024749181095721 0.00028862540722622202 0 -0.088000391677561338 0.0016213957567090033 0 -0.087972280273679815 0.0013898928012977918 0 -0.088042007457722712 0.0029395153760878021 0 -0.093324790564615415 0.0022294432349774743 0 -0.088000391677561338 0.0016213957567090033 0 -0.088062540761462721 0.0034070168822483379 0 -0.088042007457722712 0.0029395153760878021 0 -0.093324790564615415 0.0022294432349774743 0 -0.09234373996030075 0.0038300766656493624 0 -0.093324790564615415 0.0022294432349774743 0 -0.099713979863380431 0.00068613178391288326 0 -0.099321734000008904 0.0039865830884938738 0 -0.092928425831007064 0.00043439825904749327 0 -0.099713979863380431 0.00068613178391288326 0 -0.095887778502491666 -0.0020370380243801265 0 -0.092928425831007064 0.00043439825904749327 0 -0.093324790564615415 0.0022294432349774743 0 -0.099713979863380431 0.00068613178391288326 0 -0.099713979863380431 0.00068613178391288326 0 -0.10921116437228817 0.0019624672395762285 0 -0.10767402783621123 -0.0020434674981917541 0 -0.099713979863380431 0.00068613178391288326 0 -0.10921116437228817 0.0019624672395762285 0 -0.099321734000008904 0.0039865830884938738 0 -0.10921116437228817 0.0019624672395762285 0 -0.10963794450975407 0.0061433114937306946 0 -0.099321734000008904 0.0039865830884938738 0 -0.10963794450975407 0.0061433114937306946 0 -0.099321734000008904 0.0039865830884938738 0 -0.099482757770123539 0.0074865158847426958 0 -0.099321734000008904 0.0039865830884938738 0 -0.09345383415283065 0.005522765591543099 0 -0.099482757770123539 0.0074865158847426958 0 -0.09345383415283065 0.005522765591543099 0 -0.092655952814859208 0.0071505489535557644 0 -0.099482757770123539 0.0074865158847426958 0 -0.093324790564615415 0.0022294432349774743 0 -0.099321734000008904 0.0039865830884938738 0 -0.09234373996030075 0.0038300766656493624 0 -0.099321734000008904 0.0039865830884938738 0 -0.09234373996030075 0.0038300766656493624 0 -0.09345383415283065 0.005522765591543099 0 -0.09234373996030075 0.0038300766656493624 0 -0.088169288594817277 0.0045206304441260626 0 -0.09345383415283065 0.005522765591543099 0 -0.088042007457722712 0.0029395153760878021 0 -0.09234373996030075 0.0038300766656493624 0 -0.088169288594817277 0.0045206304441260626 0 -0.088062540761462721 0.0034070168822483379 0 -0.088187719888088517 0.0051537703775871814 0 -0.09345383415283065 0.005522765591543099 0 -0.088343798528915926 0.0061316576885803468 0 -0.092655952814859208 0.0071505489535557644 0 -0.088187719888088517 0.0051537703775871814 0 -0.088361160094291361 0.0069165287924983672 0 -0.088169288594817277 0.0045206304441260626 0 -0.09345383415283065 0.005522765591543099 0 -0.088343798528915926 0.0061316576885803468 0 -0.088343798528915926 0.0061316576885803468 0 -0.092655952814859208 0.0071505489535557644 0 -0.088578199924137249 0.0077551455684323695 0 -0.088361160094291361 0.0069165287924983672 0 -0.088594224941433805 0.008683153213577521 0 -0.092655952814859208 0.0071505489535557644 0 -0.088578199924137249 0.0077551455684323695 0 -0.093884335723542947 0.0088881318327339084 0 -0.088578199924137249 0.0077551455684323695 0 -0.088866033742097353 0.0093993263390355335 0 -0.093884335723542947 0.0088881318327339084 0 -0.088594224941433805 0.008683153213577521 0 -0.088880479480262231 0.010456598129594832 0 -0.088866033742097353 0.0093993263390355335 0 -0.093884335723542947 0.0088881318327339084 0 -0.093156308032640092 0.010497723619268833 0 -0.093884335723542947 0.0088881318327339084 0 -0.093156308032640092 0.010497723619268833 0 -0.1000801762398377 0.010987897599743847 0 -0.093884335723542947 0.0088881318327339084 0 -0.099482757770123539 0.0074865158847426958 0 -0.1000801762398377 0.010987897599743847 0 -0.092655952814859208 0.0071505489535557644 0 -0.093884335723542947 0.0088881318327339084 0 -0.099482757770123539 0.0074865158847426958 0 -0.089572449637326537 0.012728125712097745 0 -0.094160120529125507 0.012187915091044402 0 -0.093759458829510978 0.013923755464436124 0 -0.089572449637326537 0.012728125712097745 0 -0.094160120529125507 0.012187915091044402 0 -0.089203404023750071 0.011055690133457332 0 -0.089585485333779843 0.014016077505824575 0 -0.089216582741668327 0.012231425484744728 0 -0.094160120529125507 0.012187915091044402 0 -0.089203404023750071 0.011055690133457332 0 -0.093156308032640092 0.010497723619268833 0 -0.088866033742097353 0.0093993263390355335 0 -0.089203404023750071 0.011055690133457332 0 -0.093156308032640092 0.010497723619268833 0 -0.088880479480262231 0.010456598129594832 0 -0.089216582741668327 0.012231425484744728 0 -0.094160120529125507 0.012187915091044402 0 -0.093156308032640092 0.010497723619268833 0 -0.1000801762398377 0.010987897599743847 0 -0.094160120529125507 0.012187915091044402 0 -0.093759458829510978 0.013923755464436124 0 -0.10006016245372132 0.014538326291745268 0 -0.094160120529125507 0.012187915091044402 0 -0.1000801762398377 0.010987897599743847 0 -0.10006016245372132 0.014538326291745268 0 -0.1000801762398377 0.010987897599743847 0 -0.10992712467904335 0.013267615522509414 0 -0.10006016245372132 0.014538326291745268 0 -0.1000801762398377 0.010987897599743847 0 -0.10992712467904335 0.013267615522509414 0 -0.10789362030316474 0.0097793586259013274 0 -0.10963794450975407 0.0061433114937306946 0 -0.099482757770123539 0.0074865158847426958 0 -0.10789362030316474 0.0097793586259013274 0 -0.099482757770123539 0.0074865158847426958 0 -0.1000801762398377 0.010987897599743847 0 -0.10789362030316474 0.0097793586259013274 0 -0.10963794450975407 0.0061433114937306946 0 -0.10789362030316474 0.0097793586259013274 0 -0.12033364328494635 0.010914639026086191 0 -0.10992712467904335 0.013267615522509414 0 -0.12033364328494635 0.010914639026086191 0 -0.12408617205404616 0.016247895620164127 0 -0.10992712467904335 0.013267615522509414 0 -0.10789362030316474 0.0097793586259013274 0 -0.12033364328494635 0.010914639026086191 0 -0.12033364328494635 0.010914639026086191 0 -0.12408617205404616 0.016247895620164127 0 -0.14248558438999864 0.012080190966428333 0 -0.12033364328494635 0.010914639026086191 0 -0.12487234452587015 0.0043332862324925751 0 -0.14248558438999864 0.012080190966428333 0 -0.12487234452587015 0.0043332862324925751 0 -0.14110177659866721 -0.0013212747428087914 0 -0.11971605355182974 -0.00099303765066761657 0 -0.10921116437228817 0.0019624672395762285 0 -0.12487234452587015 0.0043332862324925751 0 -0.11971605355182974 -0.00099303765066761657 0 -0.10921116437228817 0.0019624672395762285 0 -0.10767402783621123 -0.0020434674981917541 0 -0.11971605355182974 -0.00099303765066761657 0 -0.10921116437228817 0.0019624672395762285 0 -0.10963794450975407 0.0061433114937306946 0 -0.12487234452587015 0.0043332862324925751 0 -0.10963794450975407 0.0061433114937306946 0 -0.12033364328494635 0.010914639026086191 0 -0.12487234452587015 0.0043332862324925751 0 -0.1115285457248776 0.026640734306319743 0 -0.10790179952977846 0.029469791617790737 0 -0.11893636321689764 0.030096807635353284 0 -0.1115285457248776 0.026640734306319743 0 -0.10325113493694303 0.027428418708047516 0 -0.10318238513518438 0.02528156588265176 0 -0.1115285457248776 0.026640734306319743 0 -0.10790179952977846 0.029469791617790737 0 -0.10325113493694303 0.027428418708047516 0 -0.10790179952977846 0.029469791617790737 0 -0.099945304233195323 0.028851297382421828 0 -0.10325113493694303 0.027428418708047516 0 -0.099945304233195323 0.028851297382421828 0 -0.10325113493694303 0.027428418708047516 0 -0.097687465680825203 0.0274412199672435 0 -0.099945304233195323 0.028851297382421828 0 -0.097687465680825203 0.0274412199672435 0 -0.094172392173403646 0.028293081346456195 0 -0.097687465680825203 0.0274412199672435 0 -0.093627126237093239 0.026545869257308508 0 -0.094172392173403646 0.028293081346456195 0 -0.093711827694317781 0.028362635684423106 0 -0.093823768663066145 0.02970986747469271 0 -0.093711827694317781 0.028362635684423106 0 -0.093055711038994751 0.026562780023997631 0 -0.093627126237093239 0.026545869257308508 0 -0.093074653293450715 0.02479147778252681 0 -0.097922598324483592 0.026061678519460091 0 -0.097687465680825203 0.0274412199672435 0 -0.093627126237093239 0.026545869257308508 0 -0.097922598324483592 0.026061678519460091 0 -0.093074653293450715 0.02479147778252681 0 -0.097922598324483592 0.026061678519460091 0 -0.096722805976000983 0.024384799144995042 0 -0.10325113493694303 0.027428418708047516 0 -0.097922598324483592 0.026061678519460091 0 -0.10318238513518438 0.02528156588265176 0 -0.10325113493694303 0.027428418708047516 0 -0.097687465680825203 0.0274412199672435 0 -0.097922598324483592 0.026061678519460091 0 -0.097922598324483592 0.026061678519460091 0 -0.10318238513518438 0.02528156588265176 0 -0.096722805976000983 0.024384799144995042 0 -0.10318238513518438 0.02528156588265176 0 -0.097701493784374344 0.022681745455188276 0 -0.10598822852881154 0.023295625151800323 0 -0.10318238513518438 0.02528156588265176 0 -0.096722805976000983 0.024384799144995042 0 -0.097701493784374344 0.022681745455188276 0 -0.096722805976000983 0.024384799144995042 0 -0.092518738502308587 0.023037017973382357 0 -0.097701493784374344 0.022681745455188276 0 -0.093055711038994751 0.026562780023997631 0 -0.092527268373657032 0.024788938791461466 0 -0.093074653293450715 0.02479147778252681 0 -0.096722805976000983 0.024384799144995042 0 -0.092518738502308587 0.023037017973382357 0 -0.092518738502308587 0.023037017973382357 0 -0.091969721368157759 0.021284443791882691 0 -0.097701493784374344 0.022681745455188276 0 -0.092527268373657032 0.024788938791461466 0 -0.0919740931628827 0.022998233096827442 0 -0.091969721368157759 0.021284443791882691 0 -0.097701493784374344 0.022681745455188276 0 -0.095363566455631404 0.020750813196788703 0 -0.097701493784374344 0.022681745455188276 0 -0.10598822852881154 0.023295625151800323 0 -0.10040373206514562 0.020697472682445123 0 -0.1115285457248776 0.026640734306319743 0 -0.10318238513518438 0.02528156588265176 0 -0.10598822852881154 0.023295625151800323 0 -0.1115285457248776 0.026640734306319743 0 -0.10598822852881154 0.023295625151800323 0 -0.11674277307163988 0.023357466374380548 0 -0.10598822852881154 0.023295625151800323 0 -0.10797737961443547 0.020464719754356989 0 -0.11674277307163988 0.023357466374380548 0 -0.10797737961443547 0.020464719754356989 0 -0.11731516038103076 0.019812330902699276 0 -0.11674277307163988 0.023357466374380548 0 -0.10797737961443547 0.020464719754356989 0 -0.1091061130121956 0.016972900205384795 0 -0.11731516038103076 0.019812330902699276 0 -0.10797737961443547 0.020464719754356989 0 -0.10040373206514562 0.020697472682445123 0 -0.10038315139490132 0.01781761230856627 0 -0.10797737961443547 0.020464719754356989 0 -0.10038315139490132 0.01781761230856627 0 -0.1091061130121956 0.016972900205384795 0 -0.10598822852881154 0.023295625151800323 0 -0.10797737961443547 0.020464719754356989 0 -0.10040373206514562 0.020697472682445123 0 -0.097701493784374344 0.022681745455188276 0 -0.10040373206514562 0.020697472682445123 0 -0.095363566455631404 0.020750813196788703 0 -0.10040373206514562 0.020697472682445123 0 -0.095363566455631404 0.020750813196788703 0 -0.095585713965498947 0.019013215134556248 0 -0.095363566455631404 0.020750813196788703 0 -0.091432186009633543 0.019544766339506591 0 -0.095585713965498947 0.019013215134556248 0 -0.0919740931628827 0.022998233096827442 0 -0.091440083891560858 0.021201040387294413 0 -0.091969721368157759 0.021284443791882691 0 -0.095363566455631404 0.020750813196788703 0 -0.091432186009633543 0.019544766339506591 0 -0.090915520525557542 0.017818713790508523 0 -0.095585713965498947 0.019013215134556248 0 -0.094468958061156655 0.017303728793514619 0 -0.091440083891560858 0.021201040387294413 0 -0.090925083558292763 0.019402303571692574 0 -0.091432186009633543 0.019544766339506591 0 -0.090915520525557542 0.017818713790508523 0 -0.095585713965498947 0.019013215134556248 0 -0.095585713965498947 0.019013215134556248 0 -0.10038315139490132 0.01781761230856627 0 -0.094468958061156655 0.017303728793514619 0 -0.10040373206514562 0.020697472682445123 0 -0.095585713965498947 0.019013215134556248 0 -0.10038315139490132 0.01781761230856627 0 -0.10038315139490132 0.01781761230856627 0 -0.094468958061156655 0.017303728793514619 0 -0.095062095571473409 0.015697947412509114 0 -0.10038315139490132 0.01781761230856627 0 -0.095062095571473409 0.015697947412509114 0 -0.10006016245372132 0.014538326291745268 0 -0.094468958061156655 0.017303728793514619 0 -0.090432086095524805 0.016109141952490684 0 -0.095062095571473409 0.015697947412509114 0 -0.090925083558292763 0.019402303571692574 0 -0.090443489823988421 0.017601912435921092 0 -0.090915520525557542 0.017818713790508523 0 -0.094468958061156655 0.017303728793514619 0 -0.090432086095524805 0.016109141952490684 0 -0.089585485333779843 0.014016077505824575 0 -0.08999875389313973 0.015804703312502281 0 -0.089572449637326537 0.012728125712097745 0 -0.089987006482231777 0.014410354073066147 0 -0.093759458829510978 0.013923755464436124 0 -0.090432086095524805 0.016109141952490684 0 -0.089987006482231777 0.014410354073066147 0 -0.095062095571473409 0.015697947412509114 0 -0.090443489823988421 0.017601912435921092 0 -0.08999875389313973 0.015804703312502281 0 -0.089987006482231777 0.014410354073066147 0 -0.095062095571473409 0.015697947412509114 0 -0.093759458829510978 0.013923755464436124 0 -0.095062095571473409 0.015697947412509114 0 -0.093759458829510978 0.013923755464436124 0 -0.10006016245372132 0.014538326291745268 0 -0.10992712467904335 0.013267615522509414 0 -0.10006016245372132 0.014538326291745268 0 -0.1091061130121956 0.016972900205384795 0 -0.10038315139490132 0.01781761230856627 0 -0.10006016245372132 0.014538326291745268 0 -0.1091061130121956 0.016972900205384795 0 -0.12408617205404616 0.016247895620164127 0 -0.13025318935379518 0.022039744241137842 0 -0.14855409524456145 0.019328878408345494 0 -0.10992712467904335 0.013267615522509414 0 -0.1091061130121956 0.016972900205384795 0 -0.12408617205404616 0.016247895620164127 0 -0.1091061130121956 0.016972900205384795 0 -0.12408617205404616 0.016247895620164127 0 -0.11731516038103076 0.019812330902699276 0 -0.13025318935379518 0.022039744241137842 0 -0.11731516038103076 0.019812330902699276 0 -0.11674277307163988 0.023357466374380548 0 -0.12408617205404616 0.016247895620164127 0 -0.13025318935379518 0.022039744241137842 0 -0.11731516038103076 0.019812330902699276 0 -0.13025318935379518 0.022039744241137842 0 -0.12602427982191849 0.026574974116373561 0 -0.11674277307163988 0.023357466374380548 0 -0.1115285457248776 0.026640734306319743 0 -0.12602427982191849 0.026574974116373561 0 -0.11674277307163988 0.023357466374380548 0 -0.13025318935379518 0.022039744241137842 0 -0.12602427982191849 0.026574974116373561 0 -0.14434938722430243 0.025739355451636192 0 -0.12602427982191849 0.026574974116373561 0 -0.13428474126216849 0.030664276289705854 0 -0.14434938722430243 0.025739355451636192 0 -0.1115285457248776 0.026640734306319743 0 -0.12602427982191849 0.026574974116373561 0 -0.11893636321689764 0.030096807635353284 0 -0.12602427982191849 0.026574974116373561 0 -0.13428474126216849 0.030664276289705854 0 -0.11893636321689764 0.030096807635353284 0 -0.18561338959371651 0.032174224448587627 0 -0.16533902715756241 0.024751907447282034 0 -0.18376427364904352 0.016153622541997405 0 -0.13428474126216849 0.030664276289705854 0 -0.15573165876821421 0.031222906203201704 0 -0.14434938722430243 0.025739355451636192 0 -0.15573165876821421 0.031222906203201704 0 -0.14434938722430243 0.025739355451636192 0 -0.16533902715756241 0.024751907447282034 0 -0.12408617205404616 0.016247895620164127 0 -0.14855409524456145 0.019328878408345494 0 -0.14248558438999864 0.012080190966428333 0 -0.14855409524456145 0.019328878408345494 0 -0.14248558438999864 0.012080190966428333 0 -0.18376427364904352 0.016153622541997405 0 -0.14434938722430243 0.025739355451636192 0 -0.14855409524456145 0.019328878408345494 0 -0.16533902715756241 0.024751907447282034 0 -0.13025318935379518 0.022039744241137842 0 -0.14434938722430243 0.025739355451636192 0 -0.14855409524456145 0.019328878408345494 0 -0.14855409524456145 0.019328878408345494 0 -0.16533902715756241 0.024751907447282034 0 -0.18376427364904352 0.016153622541997405 0 -0.15573165876821421 0.031222906203201704 0 -0.18561338959371651 0.032174224448587627 0 -0.16533902715756241 0.024751907447282034 0 -0.15378315849430632 0.0057404967579525934 0 -0.18376427364904352 0.016153622541997405 0 -0.18277578344904147 -0.00075205137787476696 0 -0.12487234452587015 0.0043332862324925751 0 -0.15378315849430632 0.0057404967579525934 0 -0.14110177659866721 -0.0013212747428087914 0 -0.15378315849430632 0.0057404967579525934 0 -0.18277578344904147 -0.00075205137787476696 0 -0.14110177659866721 -0.0013212747428087914 0 -0.12487234452587015 0.0043332862324925751 0 -0.15378315849430632 0.0057404967579525934 0 -0.14248558438999864 0.012080190966428333 0 -0.15378315849430632 0.0057404967579525934 0 -0.14248558438999864 0.012080190966428333 0 -0.18376427364904352 0.016153622541997405 0 -0.18277578344904147 -0.00075205137787476696 0 -0.14110177659866721 -0.0013212747428087914 0 -0.14630480602217896 -0.010102722062221755 0 -0.14630480602217896 -0.010102722062221755 0 -0.18388033684271887 -0.017547736455004959 0 -0.14673830986992606 -0.021572872684509813 0 -0.18277578344904147 -0.00075205137787476696 0 -0.14630480602217896 -0.010102722062221755 0 -0.18388033684271887 -0.017547736455004959 0 -0.18552592246532623 -0.033466427960579498 0 -0.14673830986992606 -0.021572872684509813 0 -0.13894956109808679 -0.032308017890675257 0 -0.18388033684271887 -0.017547736455004959 0 -0.18552592246532623 -0.033466427960579498 0 -0.14673830986992606 -0.021572872684509813 0 -0.09376622622279969 -0.030527048507588795 0 -0.11462308903900917 -0.022874719165320363 0 -0.13894956109808679 -0.032308017890675257 0 -0.14673830986992606 -0.021572872684509813 0 -0.11462308903900917 -0.022874719165320363 0 -0.11180264921044666 -0.013012971409341536 0 -0.14673830986992606 -0.021572872684509813 0 -0.11462308903900917 -0.022874719165320363 0 -0.13894956109808679 -0.032308017890675257 0 -0.090033557660689267 -0.01723849104490793 0 -0.09376622622279969 -0.030527048507588795 0 -0.11462308903900917 -0.022874719165320363 0 -0.090033557660689267 -0.01723849104490793 0 -0.11462308903900917 -0.022874719165320363 0 -0.11180264921044666 -0.013012971409341536 0 -0.090033557660689267 -0.01723849104490793 0 -0.087791668419144528 -0.01001196401260507 0 -0.11180264921044666 -0.013012971409341536 0 -0.087791668419144528 -0.01001196401260507 0 -0.11180264921044666 -0.013012971409341536 0 -0.097621170815313907 -0.0066173074617978745 0 -0.11180264921044666 -0.013012971409341536 0 -0.097621170815313907 -0.0066173074617978745 0 -0.11974658884465228 -0.0060785357597613306 0 -0.088032827106469036 -0.0029623626086093995 0 -0.079503093665182475 -0.004678543511057935 0 -0.097621170815313907 -0.0066173074617978745 0 -0.088032827106469036 -0.0029623626086093995 0 -0.097621170815313907 -0.0066173074617978745 0 -0.095887778502491666 -0.0020370380243801265 0 -0.088032827106469036 -0.0029623626086093995 0 -0.087994616110167789 -7.4294901608215879e-05 0 -0.095887778502491666 -0.0020370380243801265 0 -0.087994616110167789 -7.4294901608215879e-05 0 -0.092928425831007064 0.00043439825904749327 0 -0.095887778502491666 -0.0020370380243801265 0 -0.097621170815313907 -0.0066173074617978745 0 -0.095887778502491666 -0.0020370380243801265 0 -0.10767402783621123 -0.0020434674981917541 0 -0.099713979863380431 0.00068613178391288326 0 -0.095887778502491666 -0.0020370380243801265 0 -0.10767402783621123 -0.0020434674981917541 0 -0.097621170815313907 -0.0066173074617978745 0 -0.10767402783621123 -0.0020434674981917541 0 -0.11974658884465228 -0.0060785357597613306 0 -0.14110177659866721 -0.0013212747428087914 0 -0.14630480602217896 -0.010102722062221755 0 -0.11974658884465228 -0.0060785357597613306 0 -0.10767402783621123 -0.0020434674981917541 0 -0.11974658884465228 -0.0060785357597613306 0 -0.11971605355182974 -0.00099303765066761657 0 -0.14110177659866721 -0.0013212747428087914 0 -0.11974658884465228 -0.0060785357597613306 0 -0.11971605355182974 -0.00099303765066761657 0 -0.14630480602217896 -0.010102722062221755 0 -0.14673830986992606 -0.021572872684509813 0 -0.11180264921044666 -0.013012971409341536 0 -0.14630480602217896 -0.010102722062221755 0 -0.11180264921044666 -0.013012971409341536 0 -0.11974658884465228 -0.0060785357597613306 0 
</DataArray>
</PointData>
<CellData Scalars="region_id,cross_section_updated," Vectors="" Tensors="effective_stress,">
<DataArray type="Float64" Name="region_id" format="ascii">
1 1 1 1 1 1 1 1 1 1 1 1 1 1 1 1 1 1 1 1 1 1 1 1 1 1 1 1 1 1 1 1 1 1 1 1 1 1 1 1 1 1 1 1 1 1 1 1 1 1 1 1 1 1 1 1 1 1 1 1 1 1 1 1 1 1 1 1 1 1 1 1 1 1 1 1 1 1 1 1 1 1 1 1 1 1 1 1 1 1 1 1 1 1 1 1 1 1 1 1 1 1 1 1 1 1 1 1 1 1 1 1 1 1 1 1 1 1 1 1 1 1 1 1 1 1 1 1 1 1 1 1 1 1 1 1 1 1 1 1 1 6 1 6 1 1 1 1 1 1 1 1 1 1 1 1 1 1 6 1 6 1 1 6 1 1 6 1 1 1 1 1 1 6 1 1 6 1 1 1 1 1 1 1 1 1 1 1 1 1 1 1 1 1 1 1 1 1 1 1 1 6 6 1 1 1 1 1 1 1 1 1 6 1 1 6 1 1 1 1 1 1 1 1 1 1 1 1 1 6 1 1 6 1 1 1 1 1 1 6 1 6 1 1 6 1 1 1 1 1 1 1 1 1 1 1 1 1 1 1 1 1 1 1 1 1 1 1 1 1 1 1 1 1 1 1 1 1 1 1 1 1 1 1 1 1 1 1 1 1 1 1 1 1 1 1 1 1 1 
</DataArray>
<DataArray type="Float64" Name="effective_stress" NumberOfComponents="9" format="ascii">
-0.19906403348931356 -0.017196035389469465 0 -0.017196035389469465 -0.066223384276406505 0 0 0 -0.066321854441430031 -0.21889688013275985 -0.027757475850214146 0 -0.027757475850214146 -0.025811641552175163 0 0 0 -0.061177130421233752 -0.19125752100628315 -0.00088165891770876359 0 -0.00088165891770876359 -0.0051666689622412304 0 0 0 -0.0491060474921311 -0.20024813268341091 -0.003347855202890139 0 -0.003347855202890139 -0.001897826178673151 0 0 0 -0.050536489715521021 -0.19985683358953879 -0.00040821837296265914 0 -0.00040821837296265914 -0.00078178637986314747 0 0 0 -0.050159654992350505 -0.20138608371399946 -0.0011832407930105343 0 -0.0011832407930105343 -0.0068845504468233315 0 0 0 -0.052067658540205675 -0.20549760864342317 -0.0028118942873490635 0 -0.0028118942873490635 -0.0077729419175196837 0 0 0 -0.053317637640235727 -0.20561710296819477 -0.00031810166034141598 0 -0.00031810166034141598 -0.007391190491747246 0 0 0 -0.053252073364985504 -0.20424703844299497 -0.0013586527212991438 0 -0.0013586527212991438 -0.0051921884704939636 0 0 0 -0.052359806728372246 -0.20367479698252941 -0.00087505886532887578 0 -0.00087505886532887578 -0.0037554167627727245 0 0 0 -0.051857553436325442 -0.2043592623045678 -0.0021191687991860006 0 -0.0021191687991860006 -0.0050808647783180082 0 0 0 -0.052360031770721557 -0.20485947798967383 -0.0019317694769945114 0 -0.0019317694769945114 -0.0042832654863270044 0 0 0 -0.052285685869000259 -0.20426027754976267 -0.0020507048141908471 0 -0.0020507048141908471 -0.0048432649707773612 0 0 0 -0.052275885630135036 -0.2037667047036637 -1.8075872084442196e-05 0 -1.8075872084442196e-05 -0.0035485871051237072 0 0 0 -0.05182882295219688 -0.2040674101123372 -0.001437860083322938 0 -0.001437860083322938 -0.0055669288392176594 0 0 0 -0.052408584737888675 -0.20357827765153047 -0.00031937177882590539 0 -0.00031937177882590539 -0.0031193032884970669 0 0 0 -0.051674395235006942 -0.20349361557432749 -0.0014607387280900358 0 -0.0014607387280900358 -0.0069180649436692415 0 0 0 -0.0526029201294992 -0.20626007575707428 -0.0041107864799481628 0 -0.0041107864799481628 -0.01085593297010402 0 0 0 -0.054279002181794628 -0.20842796695838964 -0.010250879132443087 0 -0.010250879132443087 -0.016935338369626164 0 0 0 -0.056340826332003976 -0.19857107126265094 -0.0043192698762623723 0 -0.0043192698762623723 -0.018852835110741106 0 0 0 -0.05435597659334801 -0.20369925176875486 -0.0041958580365560735 0 -0.0041958580365560735 -0.02037511991118978 0 0 0 -0.056018592919986177 -0.20289096160430262 -0.00019767164124154219 0 -0.00019767164124154219 -0.012133031105039112 0 0 0 -0.053755998177335444 -0.19304749675541685 -0.0058037420804997238 0 -0.0058037420804997238 -0.064368371109890368 0 0 0 -0.064353966966326809 -0.18710682364217238 -0.002384625729036752 0 -0.002384625729036752 -0.031612580593210524 0 0 0 -0.054679851058845728 -0.20124446566115037 -0.0022141707394853103 0 -0.0022141707394853103 -0.034557034688799226 0 0 0 -0.058950375087487385 -0.20201108986846661 -0.0049116513363989386 0 -0.0049116513363989386 -0.034837048566871733 0 0 0 -0.059212034608834598 -0.18641000408305777 -0.013412585222186722 0 -0.013412585222186722 -0.030681192144002185 0 0 0 -0.054272799056764999 -0.19370524383567905 0.0086487436641319217 0 0.0086487436641319217 -0.064556328545705047 0 0 0 -0.064565393095346021 -0.19241968374374863 0.011232236984643278 0 0.011232236984643278 -0.032564263493827988 0 0 0 -0.056245986809394161 -0.20238995765109288 0.0051195499919557547 0 0.0051195499919557547 -0.026966764004355138 0 0 0 -0.057339180413862018 -0.20238199028186399 0.0066060454629923056 0 0.0066060454629923056 -0.033149373807629584 0 0 0 -0.058882841022373358 -0.18875749330379338 0.0039258018815676761 0 0.0039258018815676761 -0.032948672485778263 0 0 0 -0.055426541447392917 -0.20270220655371321 0.030774053955679118 0 0.030774053955679118 -0.067489474984736494 0 0 0 -0.067547920384612423 -0.23796734588386764 0.031613976166444221 0 0.031613976166444221 -0.036334114698623049 0 0 0 -0.068575365145622652 -0.19621935169819027 0.018486424785644932 0 0.018486424785644932 -0.043267900574669976 0 0 0 -0.059871813068215068 -0.20158089416879812 0.01181640627323445 0 0.01181640627323445 -0.0030300857734735231 0 0 0 -0.051152744985567912 -0.19098910363886681 0.015732749905364142 0 0.015732749905364142 -0.031507262271237846 0 0 0 -0.055624091477526151 -0.20710335318352965 0.016580020967044973 0 0.016580020967044973 -0.026820793326875397 0 0 0 -0.058481036627601284 -0.21735288141728651 0.021558074904962567 0 0.021558074904962567 -0.021498907982949705 0 0 0 -0.059712947350059067 -0.20005052127131318 0.006957289612474736 0 0.006957289612474736 0.0081249473633850933 0 0 0 -0.047981393476982048 -0.1946895641538364 0.0056493268964090265 0 0.0056493268964090265 -0.0069158268477463869 0 0 0 -0.050401347750395675 -0.18717905636487686 0.0002115607796522867 0 0.0002115607796522867 -0.0013312291939407139 0 0 0 -0.047127571389704373 -0.1921246696284237 -0.00084538556248872632 0 -0.00084538556248872632 0.00038420009152984047 0 0 0 -0.04793511738422343 -0.19508990141404725 -0.00027134324874957677 0 -0.00027134324874957677 0.0022284494456533133 0 0 0 -0.048215362992098498 -0.19841790281874028 0.0044193076633869954 0 0.0044193076633869954 -0.002544919103680543 0 0 0 -0.050240705480605163 -0.19324242268156319 0.00067961606187100232 0 0.00067961606187100232 -0.00079200072502089158 0 0 0 -0.048508605851646042 -0.19600360992763075 -3.645349791486785e-05 0 -3.645349791486785e-05 8.5740872055248274e-05 0 0 0 -0.048979467263893933 -0.19821957417544625 0.0044440485677726335 0 0.0044440485677726335 -0.007410394264666248 0 0 0 -0.051407492110028138 -0.19894889899077187 0.0026578009117328161 0 0.0026578009117328161 -0.0029344363610623314 0 0 0 -0.050470833837958529 -0.200487776658407 0.0022807452968821931 0 0.0022807452968821931 -0.0033522325357446259 0 0 0 -0.050960002298537879 -0.200242068488099 0.0064383337822976477 0 0.0064383337822976477 -0.008754063279129573 0 0 0 -0.052249032941807161 -0.20385322356986357 0.0057085098656577161 0 0.0057085098656577161 -0.0082530283503494117 0 0 0 -0.053026562980053274 -0.2009920839623881 0.0019632767838859422 0 0.0019632767838859422 -0.0030884177237511939 0 0 0 -0.051020125421534834 -0.20045691632125656 0.0018797824599367519 0 0.0018797824599367519 -0.0031699811292570657 0 0 0 -0.050906724362628442 -0.20074482115262837 0.00063791320839520771 0 0.00063791320839520771 -0.0008326102799439683 0 0 0 -0.050394357858143154 -0.2015500527139403 0.0014175225975618551 0 0.0014175225975618551 -0.0017683007019674846 0 0 0 -0.050829588353976954 -0.20095171041576568 0.00065422512056945159 0 0.00065422512056945159 0.00035482787939977722 0 0 0 -0.050149220634091551 -0.20104769175927978 -3.4038174277328803e-05 0 -3.4038174277328803e-05 0.00069771104024635155 0 0 0 -0.050087495179758232 -0.20062318875736132 0.00020778035795296357 0 0.00020778035795296357 0.0019377900843250417 0 0 0 -0.049671349668259063 -0.19982097239690816 0.00021332838234652818 0 0.00021332838234652818 0.0020154162589388624 0 0 0 -0.049451389034492255 -0.20010882575933187 0.00013369126628837158 0 0.00013369126628837158 0.00085043415758553897 0 0 0 -0.049814597900436616 -0.20062849557359069 0.00018292900746928742 0 0.00018292900746928742 0.00073952867078719287 0 0 0 -0.049972241725700972 -0.20029815082012009 0.00075745628629589334 0 0.00075745628629589334 -0.00061623334586241585 0 0 0 -0.050228596041495585 -0.20000899951056095 0.00012897178062215228 0 0.00012897178062215228 0.00081867923815748256 0 0 0 -0.049797580068100755 -0.1984921827521158 -0.00024278803811481064 0 -0.00024278803811481064 -2.7995128555668991e-05 0 0 0 -0.049630044470167917 -0.19846750648344341 0.00017865084444024237 0 0.00017865084444024237 0.0016921221593598768 0 0 0 -0.049193846081020898 -0.19907077033471354 -0.00021576633743680684 0 -0.00021576633743680684 0.00080802429216614291 0 0 0 -0.049565686510636975 -0.19795292101224618 -0.00045515033876530886 0 -0.00045515033876530886 0.00093833873744278429 0 0 0 -0.04925364556870096 -0.19711364792853869 9.6300866302495569e-05 0 9.6300866302495569e-05 0.00161001721358911 0 0 0 -0.048875907678737285 -0.19748934083560912 0.00018747585486766916 0 0.00018747585486766916 0.00052945347480556904 0 0 0 -0.049239971840200986 -0.19770961804673431 -0.00022788879201654511 0 -0.00022788879201654511 -0.0012613371334142531 0 0 0 -0.049742738795037184 -0.20020819108620891 0.00089018685283417248 0 0.00089018685283417248 -0.00059342327835337771 0 0 0 -0.050200403591140585 -0.19447093152235828 -0.00093808033565515037 0 -0.00093808033565515037 0.00020105544800230746 0 0 0 -0.048567469018589104 -0.19633165194389163 0.00053440048398277484 0 0.00053440048398277484 -4.5309427604389718e-05 0 0 0 -0.049094240342874046 -0.19735888386695444 -0.00022918124982254564 0 -0.00022918124982254564 0.00088807992296979776 0 0 0 -0.049117700985995993 -0.19557596917197559 -0.00065169640329326706 0 -0.00065169640329326706 0.0001724369829735721 0 0 0 -0.048850883047250604 -0.19623756901073036 -0.00052922592502652188 0 -0.00052922592502652188 0.00087178366803536411 0 0 0 -0.048841446335673736 -0.195556915858416 0.00014415226090008781 0 0.00014415226090008781 0.001149094683475349 0 0 0 -0.048601955293735066 -0.19478210875421845 -0.00056551081362715694 0 -0.00056551081362715694 0.000674550934792989 0 0 0 -0.048526889454856198 -0.19368792550454714 0.00011274593271712319 0 0.00011274593271712319 0.00077642836644509217 0 0 0 -0.048227874284525574 -0.19390927810272368 2.9420188438267214e-05 0 2.9420188438267214e-05 0.00049698025702793469 0 0 0 -0.048353074461423839 -0.19120885448134201 -0.0004083857689874959 0 -0.0004083857689874959 0.00067931174162461083 0 0 0 -0.047632385684929501 -0.19363163429189684 -0.00065149359592220346 0 -0.00065149359592220346 0.00031135424349582053 0 0 0 -0.048330070012100212 -0.19091343832121954 8.0184918349462952e-05 0 8.0184918349462952e-05 0.00025527728064611566 0 0 0 -0.04766454026014344 -0.19284918073124457 -0.00064798466690108025 0 -0.00064798466690108025 0.00036355868690973736 0 0 0 -0.048121405511083612 -0.1904390858045899 -0.00036751952084179695 0 -0.00036751952084179695 0.00052947130777383777 0 0 0 -0.047477403624204051 -0.19134311436770751 0.00013511561569456987 0 0.00013511561569456987 0.00029520085334899804 0 0 0 -0.047761978378589587 -0.18792309576122906 -0.00035132281295457979 0 -0.00035132281295457979 0.00022542397737312925 0 0 0 -0.046924417945964081 -0.18997804994740347 0.00018073661992534795 0 0.00018073661992534795 0.00017264974228003993 0 0 0 -0.047451350051280872 -0.19031745317616028 -0.00042613410431577292 0 -0.00042613410431577292 -9.4036473779812724e-05 0 0 0 -0.04760287241248512 -0.1879343269154973 -0.00045567055884054852 0 -0.00045567055884054852 2.4320902330676741e-05 0 0 0 -0.046977501503291635 -0.19109574190588166 -0.00068048818181362658 0 -0.00068048818181362658 0.00020008961366752009 0 0 0 -0.047723913073053487 -0.19140663347528636 -0.00017457223695996338 0 -0.00017457223695996338 3.1836919541006203e-05 0 0 0 -0.047843699138936283 -0.18721024268741879 -0.00059930742011144941 0 -0.00059930742011144941 -0.00021119080784004485 0 0 0 -0.04685535837381466 -0.20126828192860641 0.0011501594355463364 0 0.0011501594355463364 -0.0076802546842977409 0 0 0 -0.052237134153226047 -0.20325806228217017 0.001761693767453219 0 0.001761693767453219 -0.016737558318710002 0 0 0 -0.054998905150220011 -0.19345251797164686 0.00076307325414362581 0 0.00076307325414362581 -0.013745810229492596 0 0 0 -0.05179958205028487 -0.19971058256288621 0.0048804397376460201 0 0.0048804397376460201 -0.016156013722588319 0 0 0 -0.053966649071368639 -0.20141026720939123 0.0066001006055383168 0 0.0066001006055383168 -0.012267572475476801 0 0 0 -0.053419459921217029 -0.20246072345572957 0.003304986274100228 0 0.003304986274100228 -0.0053450329200538382 0 0 0 -0.051951439093945867 -0.2026702016193877 0.0022571409069575832 0 0.0022571409069575832 -0.0099963182071220111 0 0 0 -0.053166629956627395 -0.20338994295769322 0.002656684311738787 0 0.002656684311738787 -0.017669843298929181 0 0 0 -0.055264946564155558 -0.2025154148165457 0.0030048887393386153 0 0.0030048887393386153 -0.0068051990838985665 0 0 0 -0.052330153475111052 -0.20340459228878352 0.0010426589366294287 0 0.0010426589366294287 -0.0072734434248938771 0 0 0 -0.052669508928419283 -0.20351247042125195 0.0009896767610276698 0 0.0009896767610276698 -0.0031736266280974756 0 0 0 -0.051671524262337377 -0.20192601105787383 0.00075075992585162121 0 0.00075075992585162121 -0.003904450342128829 0 0 0 -0.051457615350000666 -0.20291354579366533 0.0013265284252570939 0 0.0013265284252570939 -0.0025385739028244703 0 0 0 -0.051363029924122436 -0.2020245224694126 0.00042373359482685176 0 0.00042373359482685176 8.6140319545902067e-05 0 0 0 -0.050484595537466759 -0.2013890544272956 0.00025716944733583658 0 0.00025716944733583658 -0.00095563966475920026 0 0 0 -0.050586173523013755 -0.2024174680456951 0.00051451422438469896 0 0.00051451422438469896 -0.0025567944080239768 0 0 0 -0.051243565613429853 -0.20241665909313672 0.0007727680170131479 0 0.0007727680170131479 -0.0011374131325115333 0 0 0 -0.050888518056412008 -0.20269097844022907 -0.00012672963544244076 0 -0.00012672963544244076 0.00024942141106620852 0 0 0 -0.050610389257290833 -0.20281061210285325 0.00027836326628932762 0 0.00027836326628932762 0.00092543799475430788 0 0 0 -0.050471293527024758 -0.20219588364608923 0.00017384420161484226 0 0.00017384420161484226 0.0015046224389622109 0 0 0 -0.050172815301781776 -0.20141868165671381 0.00019054104999752242 0 0.00019054104999752242 0.0015003832990502231 0 0 0 -0.049979574589415904 -0.20181168230945978 2.1083502817570432e-05 0 2.1083502817570432e-05 -5.8370475332220062e-06 0 0 0 -0.05045437983924829 -0.20372706061158635 0.00063951948838051253 0 0.00063951948838051253 -0.0010106741239577222 0 0 0 -0.051184433683886046 -0.20364803148509331 0.00024245324740811841 0 0.00024245324740811841 -0.0035241079525653585 0 0 0 -0.051793034859414486 -0.20365546610495427 -6.8480284318939155e-05 0 -6.8480284318939155e-05 -0.00095603948854861009 0 0 0 -0.05115287639837568 -0.20321117947041056 8.1678882472291381e-05 0 8.1678882472291381e-05 -0.00071142938491169927 0 0 0 -0.050980652213830552 -0.20335340921459993 0.00023206383828708321 0 0.00023206383828708321 0.0013259626572165728 0 0 0 -0.050506861639346062 -0.2039380812965973 -0.0001622051915530498 0 -0.0001622051915530498 -0.00091225788126830798 0 0 0 -0.051212584794466331 -0.20408144078578422 7.723017890381989e-05 0 7.723017890381989e-05 0.0011523194797854464 0 0 0 -0.050732280326499624 -0.20407547739760828 5.8344244838887116e-06 0 5.8344244838887116e-06 0.0015182373091752743 0 0 0 -0.050639310022108128 -0.20416289821296901 2.1948746103617189e-05 0 2.1948746103617189e-05 -0.0007689504731983321 0 0 0 -0.051232962171541885 -0.20404218443041419 -0.00029398168866986985 0 -0.00029398168866986985 0.0014345074569522276 0 0 0 -0.050651919243365401 -0.20439355022624855 -0.00041733619627543073 0 -0.00041733619627543073 -0.00083334648771263287 0 0 0 -0.051306724178490297 -0.20389726880554074 -0.00058224570925430319 0 -0.00058224570925430319 -0.0037410918184619738 0 0 0 -0.051909590156000662 -0.20414988273903475 0.00044882535024916292 0 0.00044882535024916292 -0.0014761469743673483 0 0 0 -0.051406507428350498 -0.20420249437686616 -0.00014621184469032489 0 -0.00014621184469032489 -0.00086343976229282665 0 0 0 -0.051266483534789631 -0.20379237464751263 0.0017025883578905068 0 0.0017025883578905068 -0.0072983822278899074 0 0 0 -0.052772689218850706 -0.20145005111985168 0.00018525048055244948 0 0.00018525048055244948 -0.0080208789123899157 0 0 0 -0.052367732508060393 -0.20309274979484737 -0.00073546831331559002 0 -0.00073546831331559002 -0.0084366889801230603 0 0 0 -0.052882359693742435 -0.20388749885832375 0.00034701684987265002 0 0.00034701684987265002 -0.0032890449759544749 0 0 0 -0.051794135958569576 -0.20381775513219577 -0.00027708783841908467 0 -0.00027708783841908467 -0.0018044511711499539 0 0 0 -0.051405551575836345 -0.20466829290893185 -0.00069861024794024701 0 -0.00069861024794024701 -0.0021301257375368103 0 0 0 -0.051699604661617174 -0.20340549829182147 -0.00092718722208392362 0 -0.00092718722208392362 0.0029609009825716792 0 0 0 -0.050111149327312324 -0.20451930634831725 -0.0016895521613514396 0 -0.0016895521613514396 -0.002346343710804796 0 0 0 -0.051716412514780402 -0.2031569256022388 -0.0018122998597334319 0 -0.0018122998597334319 0.0045322002920581 0 0 0 -0.049656181327545179 -0.2045330176988705 -0.001241120885162459 0 -0.001241120885162459 -0.0083949710940531969 0 0 0 -0.053231997198230838 -0.20567399217545576 -0.002033023650507281 0 -0.002033023650507281 -0.015456790033094723 0 0 0 -0.055282695552137662 1.8128068810543241e-08 -1.0229382143522068e-08 0 -1.0229382143522068e-08 5.437782761142268e-08 0 0 0 1.8126474105491586e-08 -0.20501048107527498 -0.0009889079127639519 0 -0.0009889079127639519 -0.012137181646040435 0 0 0 -0.054286915680328854 2.4287105985321288e-08 -2.9997630832763721e-08 0 -2.9997630832763721e-08 7.2854228148000113e-08 0 0 0 2.4285333533330033e-08 -0.2044279989459484 -0.00087147766607602317 0 -0.00087147766607602317 -0.0084937679909826147 0 0 0 -0.053230441734232914 -0.20535511491557992 -0.0011563638806958605 0 -0.0011563638806958605 -0.0057729892501695718 0 0 0 -0.052782026041437377 -0.20509988079182437 -0.00031284393516753731 0 -0.00031284393516753731 -0.0056189050345474903 0 0 0 -0.052679696456593136 -0.20544193663582072 -0.0015441848210938532 0 -0.0015441848210938532 -0.0086469423332032787 0 0 0 -0.053522219742256044 -0.20504879621588204 -0.00020555197504674386 0 -0.00020555197504674386 -0.0031663072549553001 0 0 0 -0.052053775867709297 -0.20448766940979324 -0.00092459142276801916 0 -0.00092459142276801916 -0.0054560619448359576 0 0 0 -0.052485932838657226 -0.20486075313949295 -0.00098872756838810222 0 -0.00098872756838810222 -0.003215011432196639 0 0 0 -0.052018941142922437 -0.20405545856393648 -0.0012879746835432471 0 -0.0012879746835432471 -0.0054852753711294999 0 0 0 -0.052385183483766404 -0.20458647932389037 -0.00086949134710626041 0 -0.00086949134710626041 -0.0056428489911029278 0 0 0 -0.052557332078748333 -0.20398045520538408 -0.00051934854324960089 0 -0.00051934854324960089 -0.0075277494840848905 0 0 0 -0.052877051172367261 -0.20465362472135115 -0.0007015603718888222 0 -0.0007015603718888222 -0.0084692467903443591 0 0 0 -0.053280717877923899 -0.20439859907758431 -0.0012435863839053529 0 -0.0012435863839053529 -0.0078828081864165955 0 0 0 -0.053070351816000089 -0.2043159428913868 -0.00026925058249403083 0 -0.00026925058249403083 -0.0083048532316060686 0 0 0 -0.053155199030747988 -0.2047097579155521 -0.00056513210367942907 0 -0.00056513210367942907 -0.010894812837663109 0 0 0 -0.053901142688303823 2.3754778851052706e-08 -4.5562496123574954e-08 0 -4.5562496123574954e-08 7.1267186381306107e-08 0 0 0 2.3755491308089703e-08 -0.20414666259270289 -0.00042878844444591696 0 -0.00042878844444591696 -0.0075337600018814399 0 0 0 -0.052920105648646049 2.3973642607536921e-08 -5.9025981461557517e-08 0 -5.9025981461557517e-08 7.1920586049957189e-08 0 0 0 2.3973557164373316e-08 -0.2042125394618701 -0.00033605008852479606 0 -0.00033605008852479606 -0.009644258421748042 0 0 0 -0.053464199470904583 -0.20406002147285857 -0.00033134919516149275 0 -0.00033134919516149275 -0.0091415133816526994 0 0 0 -0.053300383713627858 2.4030287341965379e-08 -7.1648152869836506e-08 0 -7.1648152869836506e-08 7.2079674785126568e-08 0 0 0 2.4027490531773304e-08 -0.20389843331591484 -0.00018693195014060637 0 -0.00018693195014060637 -0.0073049913606378913 0 0 0 -0.052800856169138294 -0.20348777157072495 -0.00041591385759692789 0 -0.00041591385759692789 -0.0082003012430340409 0 0 0 -0.052922018203439905 2.412152557116147e-08 -8.3280971507989975e-08 0 -8.3280971507989975e-08 7.2357444144614081e-08 0 0 0 2.411974242894357e-08 -0.2032580309040237 -0.00038135078104978293 0 -0.00038135078104978293 -0.0064063801683049704 0 0 0 -0.052416102768082146 -0.20285059324233098 -0.00072243528328069795 0 -0.00072243528328069795 -0.0064579270133576783 0 0 0 -0.052327130063922284 -0.20367435978441178 -0.00086175115917534739 0 -0.00086175115917534739 -0.0051811400763511206 0 0 0 -0.052213874965190699 -0.20362584086518365 -0.0011559585184150178 0 -0.0011559585184150178 -0.0067715740602533395 0 0 0 -0.052599353731359356 -0.20190412744561376 -0.00026818240587207776 0 -0.00026818240587207776 -0.0052598438228949052 0 0 0 -0.05179099281712729 -0.20208142515722971 -0.00037054528739967341 0 -0.00037054528739967341 -0.0067068114003843715 0 0 0 -0.052197059139403743 2.4271994033714213e-08 -1.0351202177153201e-07 0 -1.0351202177153201e-07 7.2814044642400885e-08 0 0 0 2.4271509669028774e-08 -0.2024666363843699 -0.00014814348171571234 0 -0.00014814348171571234 -0.00605183208037674 0 0 0 -0.052129617116186799 -0.20290489466284861 -0.0004356747952634632 0 -0.0004356747952634632 -0.0075641712765854296 0 0 0 -0.05261726648485851 2.4136685447098184e-08 -9.3852107995092695e-08 0 -9.3852107995092695e-08 7.2412633895802477e-08 0 0 0 2.4137329835724742e-08 -0.20250107201435041 -0.0011963489413903683 0 -0.0011963489413903683 -0.0057118997729976584 0 0 0 -0.052053242946837101 -0.20137025922003102 -0.00068041406481780808 0 -0.00068041406481780808 -0.0052448343541183495 0 0 0 -0.051653773393537585 -0.20230284571858959 -0.00091454246239332238 0 -0.00091454246239332238 -0.0041233574729091504 0 0 0 -0.051606550797874684 -0.20175685059022497 -0.0017882267188807296 0 -0.0017882267188807296 -0.004095551652124052 0 0 0 -0.051463100560587227 -0.20275566517234195 -0.0013327595621191596 0 -0.0013327595621191596 -0.002919816623835142 0 0 0 -0.051418870449044279 -0.20400454871271778 -0.0014698647017352823 0 -0.0014698647017352823 -0.0030775671622134959 0 0 0 -0.051770528968732771 -0.20306962220317817 -0.0015125710959190547 0 -0.0015125710959190547 -0.0049725656000118839 0 0 0 -0.052010546950797591 -0.20299426264103204 -0.0012856833561756542 0 -0.0012856833561756542 -0.0026790199479599236 0 0 0 -0.051418320647248078 -0.20165321276335194 -0.0018943740791363961 0 -0.0018943740791363961 -0.00089587929331774729 0 0 0 -0.0506372730141674 -0.20229879856001098 -0.0023263510695249456 0 -0.0023263510695249456 -0.002408932769197264 0 0 0 -0.051176932832302069 -0.20152099283545616 -0.0029130666914571127 0 -0.0029130666914571127 -0.00035137802352107686 0 0 0 -0.050468092714744325 -0.20198265318216602 -0.0014275939165438248 0 -0.0014275939165438248 -0.00029439148377623583 0 0 0 -0.050569261166485573 -0.20281977890004613 -0.000562689603284323 0 -0.000562689603284323 -0.0002580444343736471 0 0 0 -0.050769455833604905 -0.20427621841920224 -0.00014595905754405392 0 -0.00014595905754405392 -0.00097306260702601649 0 0 0 -0.051312320256557041 -0.20381523242084565 -0.00030211520513415916 0 -0.00030211520513415916 -0.0027400045050300203 0 0 0 -0.051638809231468928 -0.20330398635330069 -0.0010613820924617046 0 -0.0010613820924617046 -0.0026937620072954626 0 0 0 -0.051499437090149133 -0.20387471696557027 -0.0018755469174642735 0 -0.0018755469174642735 -0.0011259024122235589 0 0 0 -0.051250154844448476 -0.19095177778301858 -0.00075622153752527566 0 -0.00075622153752527566 -0.00055700640549227742 0 0 0 -0.047877196047127771 -0.19329089075704264 -0.0013873135968906769 0 -0.0013873135968906769 -0.00054582470083885948 0 0 0 -0.048459178864470376 -0.19154097961100158 -0.0001686250302115333 0 -0.0001686250302115333 0.00013637286174605912 0 0 0 -0.047851151687313798 -0.18902568175893023 -0.00029918607354408608 0 -0.00029918607354408608 -0.00057227099978884866 0 0 0 -0.047399488189679706 -0.19035603911805055 -0.00011641654337546381 0 -0.00011641654337546381 0.00014990640122891641 0 0 0 -0.047551533179205352 -0.18812017514423665 0.00014215068345113657 0 0.00014215068345113657 -8.5187393328745031e-05 0 0 0 -0.047051340634391231 -0.18994868641552387 -0.00032942963755236421 0 -0.00032942963755236421 4.932962791448503e-05 0 0 0 -0.047474839196902319 1.8320424723050906e-08 -1.4419559955086772e-07 0 -1.4419559955086772e-07 5.4966414501461541e-08 0 0 0 1.8321709806127371e-08 2.4476416881756574e-08 -1.51274652059883e-07 0 -1.51274652059883e-07 7.343357091201395e-08 0 0 0 2.447749694844189e-08 -0.19171229997924666 -0.00046576095140171692 0 -0.00046576095140171692 -0.00027816917433276522 0 0 0 -0.047997617288394911 -0.19050400204538415 0.00019118869847870035 0 0.00019118869847870035 0.00012530935459831305 0 0 0 -0.047594673172696333 -0.19255362298047773 5.8321229978952616e-05 0 5.8321229978952616e-05 -0.00046354233037182446 0 0 0 -0.048254291327712417 -0.19192444135645886 -0.0002381540385960057 0 -0.0002381540385960057 0.00013212378165905481 0 0 0 -0.047948079393699883 -0.19100298338948485 -0.00079889509608191411 0 -0.00079889509608191411 -0.00043087913149242318 0 0 0 -0.047858465630244207 -0.19346408672402893 -0.0010069749417031815 0 -0.0010069749417031815 -0.00031659875114598002 0 0 0 -0.048445171368793893 -0.19549660894341792 -0.0010574865550467827 0 -0.0010574865550467827 -0.00062612665359801367 0 0 0 -0.049030683899254135 -0.19377575150344462 -0.00095271109299249063 0 -0.00095271109299249063 -0.0012544865184481724 0 0 0 -0.048757559505473058 -0.19473677201767331 -0.00012902133547004757 0 -0.00012902133547004757 -0.00090076361500046609 0 0 0 -0.048909383908168402 2.4122072752175348e-08 -1.4834657479599888e-07 0 -1.4834657479599888e-07 7.2371999617370238e-08 0 0 0 2.4123518092385761e-08 -0.19366971745669828 -0.00055296316948330593 0 -0.00055296316948330593 -0.00092816340726076252 0 0 0 -0.048649470215989643 -0.19554588574907197 -0.00065023264844360495 0 -0.00065023264844360495 -0.0016219382673028217 0 0 0 -0.049291956004093675 2.4352681816282171e-08 -1.4620938735315751e-07 0 -1.4620938735315751e-07 7.3060487130823511e-08 0 0 0 2.4353292236776315e-08 -0.19626585339468422 -0.00017922096369341056 0 -0.00017922096369341056 -0.0020034324804483195 0 0 0 -0.049567321468782899 -0.19586017396690394 -0.0013278580451288793 0 -0.0013278580451288793 -0.00172467123104314 0 0 0 -0.049396211299486764 -0.19346408931049791 -0.0012240396191855879 0 -0.0012240396191855879 -0.00069046665966987497 0 0 0 -0.048538638992541988 -0.19585641761801853 -0.001715722882000198 0 -0.001715722882000198 -0.00010281642555409753 0 0 0 -0.048989808510893171 -0.19642582127460542 -0.0022887503038495349 0 -0.0022887503038495349 -0.001232496019748619 0 0 0 -0.049414579323588413 -0.19794971008591408 -0.0020444238284438171 0 -0.0020444238284438171 -0.00032200609160054627 0 0 0 -0.049567929044378484 -0.19872234956853951 -0.0025186349727167601 0 -0.0025186349727167601 -0.0017649224426198595 0 0 0 -0.050121818002790031 -0.19806476034964751 -0.0018380828958988044 0 -0.0018380828958988044 -0.0023137480898109408 0 0 0 -0.050094627109864537 -0.19953445963302133 -0.0016327497629596149 0 -0.0016327497629596149 -0.0015865539258625438 0 0 0 -0.050280253389721009 -0.19745769123883561 -0.0015395891712630949 0 -0.0015395891712630949 -0.00086924466064325356 0 0 0 -0.049581733974869729 -0.19703035755173032 -0.0010135643347463086 0 -0.0010135643347463086 -0.0014058264296626932 0 0 0 -0.049609045995348267 -0.1974412936487186 -0.0011031017765113504 0 -0.0011031017765113504 -0.0027066944632354595 0 0 0 -0.050036997027988417 -0.19782785418421572 -0.00023196757245927402 0 -0.00023196757245927402 -0.0025187887570917722 0 0 0 -0.050086660735326916 2.4443117419541087e-08 -1.4209010526181109e-07 0 -1.4209010526181109e-07 7.3325894738911644e-08 0 0 0 2.4442253039612759e-08 -0.1970268742791354 -0.00055787044091049065 0 -0.00055787044091049065 -0.0025833224868717641 0 0 0 -0.049902549191501888 -0.19912787947416347 -0.00014507392402429709 0 -0.00014507392402429709 -0.0033862700081896957 0 0 0 -0.050628537370588506 2.4462897931775969e-08 -1.3660802701653651e-07 0 -1.3660802701653651e-07 7.3388487823085488e-08 0 0 0 2.4462846438715682e-08 -0.19839985542573002 -0.00056811788748700742 0 -0.00056811788748700742 -0.0035351126982470227 0 0 0 -0.050483742030994261 -0.19928635909764458 -0.0012278417271972264 0 -0.0012278417271972264 -0.0030676719147438858 0 0 0 -0.050588507753097173 -0.19861758954727776 -0.00086645043701516489 0 -0.00086645043701516489 -0.002278428135126298 0 0 0 -0.050224004420600779 -0.19965017402186955 -0.00082824010758605383 0 -0.00082824010758605383 -0.0040026249493114729 0 0 0 -0.050913199742795179 -0.2006466691988239 -0.00089766810538206843 0 -0.00089766810538206843 -0.0032422637070412264 0 0 0 -0.050972233226466157 -0.2002098951127429 -0.00028763359623165674 0 -0.00028763359623165674 -0.0038874638951179596 0 0 0 -0.051024339751965297 2.4483900856910176e-08 -1.296067927066751e-07 0 -1.296067927066751e-07 7.3455485476283666e-08 0 0 0 2.448484658329846e-08 -0.1996149254950953 -0.00045929630586399872 0 -0.00045929630586399872 -0.0045378365062512804 0 0 0 -0.051038190500336755 2.4328957280377893e-08 -1.1287314633188149e-07 0 -1.1287314633188149e-07 7.2977148348970043e-08 0 0 0 2.4326526407336243e-08 -0.20133570104884418 -0.00039585855154411487 0 -0.00039585855154411487 -0.0061030851251608377 0 0 0 -0.051859696543501498 -0.20049918997411822 -0.00041575545089064803 0 -0.00041575545089064803 -0.005223689564243128 0 0 0 -0.051430719884590498 2.4443515957680561e-08 -1.2148158486527764e-07 0 -1.2148158486527764e-07 7.3326622861881022e-08 0 0 0 2.444253470489029e-08 -0.20098570523492534 -0.00016721570795080742 0 -0.00016721570795080742 -0.0048438455725142715 0 0 0 -0.051457387701859952 -0.20092167947184275 -0.0011979099005076099 0 -0.0011979099005076099 -0.0043757505904394173 0 0 0 -0.051324357515570684 -0.20125156141012607 -0.0015524426205109215 0 -0.0015524426205109215 -0.0019651207097484136 0 0 0 -0.050804170529968676 -0.20011096217133509 -0.0019074319985344645 0 -0.0019074319985344645 -0.0031866801558916198 0 0 0 -0.050824410581806784 -0.19973883459235067 -0.003047588587668501 0 -0.003047588587668501 -8.6280706163080478e-06 0 0 0 -0.049936865665741743 -0.20054067296724043 -0.0025359420032823321 0 -0.0025359420032823321 -0.0020985859825094835 0 0 0 -0.050659814737437421 -0.20008727075743221 -0.0024977348161880145 0 -0.0024977348161880145 -0.00056751891964090806 0 0 0 -0.050163697419268294 -0.19807185026905211 -0.0028811724057942467 0 -0.0028811724057942467 -0.00063919566444614606 0 0 0 -0.04967776148337455 -0.19873022552462177 -0.0023209897218974263 0 -0.0023209897218974263 -0.00035707265733141147 0 0 0 -0.04977182454548839 -0.19684161752062249 -0.0019049341511022388 0 -0.0019049341511022388 0.00025996739370545696 0 0 0 -0.049145412531729347 -0.19488191281691852 -0.0021387299429063561 0 -0.0021387299429063561 -0.00078092352056791103 0 0 0 -0.048915709084371525 -0.1971381744747833 -0.0025341591201210045 0 -0.0025341591201210045 -0.00043455066213243798 0 0 0 -0.049393181284229058 -0.19616317595936983 -0.0010959299626793761 0 -0.0010959299626793761 7.7920750489596236e-05 0 0 0 -0.049021313802220065 -0.19404391472582902 -0.0007542189124192418 0 -0.0007542189124192418 0.00019151574596820709 0 0 0 -0.048463099744965182 -0.19343147079369638 -0.0010194113222661838 0 -0.0010194113222661838 -0.00044478002220937896 0 0 0 -0.048469062703976509 -0.19932037997872232 -0.0010931924347021317 0 -0.0010931924347021317 0.0019144414750305178 0 0 0 -0.04935148462592287 -0.19674567209142552 -0.0011901624498196158 0 -0.0011901624498196158 -3.137833181676708e-05 0 0 0 -0.049194262605810585 -0.19810073974875173 -0.0011018653577367921 0 -0.0011018653577367921 -1.2814452723108882e-06 0 0 0 -0.049525505298505995 -0.20020818148906472 -0.0021856545131664872 0 -0.0021856545131664872 0.0013003425843731153 0 0 0 -0.04972695972617297 -0.20013400025980291 -0.0019961292618420751 0 -0.0019961292618420751 0.0011969007855879288 0 0 0 -0.049734274868553772 -0.19835205821906376 -0.0019018530287252394 0 -0.0019018530287252394 0.00066632991187701163 0 0 0 -0.049421432076796709 -0.19838960386396454 -0.0021337118114402726 0 -0.0021337118114402726 0.00048832491073835804 0 0 0 -0.049475319738306565 -0.19980005217390473 -0.0015511692853617982 0 -0.0015511692853617982 0.00094321704385985639 0 0 0 -0.049714208782511204 -0.19949095039056811 -0.00067935925089075255 0 -0.00067935925089075255 0.00053128616774189563 0 0 0 -0.049739916055706587 -0.2011565440728342 -0.0011156136024403061 0 -0.0011156136024403061 0.005078694033656116 0 0 0 -0.049019462509794554 -0.20237430160318562 -3.8248804300894715e-05 0 -3.8248804300894715e-05 0.0013139624401685979 0 0 0 -0.050265084790754276 -0.20045890337929456 -0.00086309832525180647 0 -0.00086309832525180647 0.0027603505606996794 0 0 0 -0.049424638204648708 -0.20183539657418367 -0.0019428627045211299 0 -0.0019428627045211299 0.00092143820719284286 0 0 0 -0.050228489591747728 -0.20038371724099974 -0.00081591441163039735 0 -0.00081591441163039735 0.0029882603610586964 0 0 0 -0.049348864219985217 -0.20088219202358154 0.0011853129502924235 0 0.0011853129502924235 0.0022272157140198895 0 0 0 -0.049663744077390451 -0.19996891258975233 0.0016562248468506638 0 0.0016562248468506638 0.0015679593101060874 0 0 0 -0.04960023831991156 -0.20094320271448751 0.0009399794447602916 0 0.0009399794447602916 0.0046805220911323997 0 0 0 -0.049065670155838778 -0.19852955511989123 0.0013070205262417228 0 0.0013070205262417228 0.00058876013941736027 0 0 0 -0.049485198745118433 -0.19947734942878514 0.0011571785499008141 0 0.0011571785499008141 0.001427300614349691 0 0 0 -0.049512512203608867 -0.19295393418200693 0.0021987250708838946 0 0.0021987250708838946 -0.00051511614384575077 0 0 0 -0.048367262581463184 -0.19915440587911243 0.0028372979950002618 0 0.0028372979950002618 0.00031450156682732988 0 0 0 -0.049709976078071268 -0.1984417411853685 0.0015030847915332678 0 0.0015030847915332678 0.00046075489169494777 0 0 0 -0.049495246573418347 -0.19776564740807381 0.0029502537308177534 0 0.0029502537308177534 -5.3409336859510368e-05 0 0 0 -0.049454764186233326 -0.20133777539977557 0.00086822048356272052 0 0.00086822048356272052 -0.00059941248797804048 0 0 0 -0.05048429697193841 -0.2019492745312447 0.0012972875817289786 0 0.0012972875817289786 -0.0024000894115992879 0 0 0 -0.051087340985710952 -0.20326055035321045 -0.00018296253879436335 0 -0.00018296253879436335 -0.0033186732375401484 0 0 0 -0.05164480589768769 -0.2029451414372008 0.0010555874671765303 0 0.0010555874671765303 -0.00043233719300865558 0 0 0 -0.050844369657552249 -0.2050478459663993 -0.0017791527793692072 0 -0.0017791527793692072 -0.0045422794023269319 0 0 0 -0.05239753134218153 -0.20437607896169402 -0.0015610815011294441 0 -0.0015610815011294441 -0.0042664291377622898 0 0 0 -0.052160627024863938 -0.20371266190715751 -0.0020475588586326143 0 -0.0020475588586326143 -0.0048671403843936322 0 0 0 -0.052144950572887788 -0.20430254628278055 -0.002517307272540523 0 -0.002517307272540523 -0.0076906181037525098 0 0 0 -0.052998291096633204 -0.20370027279515618 0.00021982801439555076 0 0.00021982801439555076 -0.0035756418690159816 0 0 0 -0.051818978666043063 -0.20410617365611328 -0.00055280939381645994 0 -0.00055280939381645994 -0.0051691054528923107 0 0 0 -0.052318819777251391 -0.20334449126800277 -4.4130274272496939e-05 0 -4.4130274272496939e-05 -0.0030581130755767058 0 0 0 -0.051600651085894886 -0.20227174475723472 0.00058489498355212069 0 0.00058489498355212069 0.0015059629955574659 0 0 0 -0.050191445440419286 -0.20387602447346734 0.00038248219476102845 0 0.00038248219476102845 -0.00081165105199068784 0 0 0 -0.051171918881364568 -0.20273051588315352 0.00093269889765863366 0 0.00093269889765863366 -0.00044901028957479959 0 0 0 -0.050794881543182097 -0.20130648578529922 0.0019306101178046646 0 0.0019306101178046646 0.0011016212973253112 0 0 0 -0.050051216121993466 -0.20147239354977325 0.001558069716136621 0 0.001558069716136621 -0.0007460455052848286 0 0 0 -0.05055460976376451 
</DataArray>
<DataArray type="Float64" Name="cross_section_updated" format="ascii">
1 1 1 1 1 1 1 1 1 1 1 1 1 1 1 1 1 1 1 1 1 1 1 1 1 1 1 1 1 1 1 1 1 1 1 1 1 1 1 1 1 1 1 1 1 1 1 1 1 1 1 1 1 1 1 1 1 1 1 1 1 1 1 1 1 1 1 1 1 1 1 1 1 1 1 1 1 1 1 1 1 1 1 1 1 1 1 1 1 1 1 1 1 1 1 1 1 1 1 1 1 1 1 1 1 1 1 1 1 1 1 1 1 1 1 1 1 1 1 1 1 1 1 1 1 1 1 1 1 1 1 1 1 1 1 1 1 1 1 1 1 0.010000019933813151 1 0.010000022155649865 1 1 1 1 1 1 1 1 1 1 1 1 1 1 0.0099999910942870363 1 0.010000001068039541 1 1 0.010000034960127427 1 1 0.01000002228927771 1 1 1 1 1 1 0.010000006054558572 1 1 0.0099999919451421587 1 1 1 1 1 1 1 1 1 1 1 1 1 1 1 1 1 1 1 1 1 1 1 1 0.0099999839364615373 0.009999986499166405 1 1 1 1 1 1 1 1 1 0.0099999819332473455 1 1 0.009999992369743832 1 1 1 1 1 1 1 1 1 1 1 1 1 0.01000001080474909 1 1 0.01000000064366327 1 1 1 1 1 1 0.0099999881784201411 1 0.010000030385912989 1 1 0.010000012265659844 1 1 1 1 1 1 1 1 1 1 1 1 1 1 1 1 1 1 1 1 1 1 1 1 1 1 1 1 1 1 1 1 1 1 1 1 1 1 1 1 1 1 1 1 1 1 1 1 1 1 1 1 1 1 
</DataArray>
</CellData>
</Piece>
</UnstructuredGrid>
</VTKFile>
