<?xml version="1.0"?>
<VTKFile type="UnstructuredGrid" version="0.1" byte_order="LittleEndian">
<UnstructuredGrid>
<Piece NumberOfPoints="84" NumberOfCells="28">
<Points>
<DataArray type="Float64" NumberOfComponents="3" format="ascii">
0 0 0 0.29166666666652658 0.2916666666668038 0 0 0.33333333333472032 0 0 0 0 0.33333333333250248 0 0 0.29166666666652658 0.2916666666668038 0 0.33333333333250248 0 0 0.66666666666578889 0 0 0.49999999999981742 0.1726190476194705 0 0.33333333333250248 0 0 0.49999999999981742 0.1726190476194705 0 0.29166666666652658 0.2916666666668038 0 0.50000000000004996 0.49999999999997519 0 0.17261904761971569 0.50000000000021494 0 0.29166666666652658 0.2916666666668038 0 0.50000000000004996 0.49999999999997519 0 0.29166666666652658 0.2916666666668038 0 0.49999999999981742 0.1726190476194705 0 0 0.33333333333472032 0 0.29166666666652658 0.2916666666668038 0 0.17261904761971569 0.50000000000021494 0 0 0.66666666666759111 0 0 0.33333333333472032 0 0.17261904761971569 0.50000000000021494 0 0 0.66666666666759111 0 0.17261904761971569 0.50000000000021494 0 0.29166666666684449 0.7083333333334445 0 0 1 0 0.29166666666684449 0.7083333333334445 0 0.33333333333472032 1 0 0 1 0 0 0.66666666666759111 0 0.29166666666684449 0.7083333333334445 0 0.33333333333472032 1 0 0.29166666666684449 0.7083333333334445 0 0.50000000000021227 0.82738095238030207 0 0.50000000000004996 0.49999999999997519 0 0.29166666666684449 0.7083333333334445 0 0.17261904761971569 0.50000000000021494 0 0.50000000000004996 0.49999999999997519 0 0.50000000000021227 0.82738095238030207 0 0.29166666666684449 0.7083333333334445 0 0.50000000000004996 0.49999999999997519 0 0.82738095238054699 0.49999999999982031 0 0.70833333333346027 0.70833333333323512 0 0.50000000000004996 0.49999999999997519 0 0.70833333333346027 0.70833333333323512 0 0.50000000000021227 0.82738095238030207 0 0.66666666666759111 1 0 0.50000000000021227 0.82738095238030207 0 0.70833333333346027 0.70833333333323512 0 0.66666666666759111 1 0 0.33333333333472032 1 0 0.50000000000021227 0.82738095238030207 0 1 1 0 0.70833333333346027 0.70833333333323512 0 1 0.66666666666578889 0 1 1 0 0.66666666666759111 1 0 0.70833333333346027 0.70833333333323512 0 1 0.66666666666578889 0 0.70833333333346027 0.70833333333323512 0 0.82738095238054699 0.49999999999982031 0 1 0.33333333333250248 0 1 0.66666666666578889 0 0.82738095238054699 0.49999999999982031 0 1 0.33333333333250248 0 0.82738095238054699 0.49999999999982031 0 0.70833333333327586 0.2916666666665107 0 1 0 0 0.70833333333327586 0.2916666666665107 0 0.66666666666578889 0 0 1 0 0 1 0.33333333333250248 0 0.70833333333327586 0.2916666666665107 0 0.66666666666578889 0 0 0.70833333333327586 0.2916666666665107 0 0.49999999999981742 0.1726190476194705 0 0.50000000000004996 0.49999999999997519 0 0.70833333333327586 0.2916666666665107 0 0.82738095238054699 0.49999999999982031 0 0.50000000000004996 0.49999999999997519 0 0.49999999999981742 0.1726190476194705 0 0.70833333333327586 0.2916666666665107 0 
</DataArray>
</Points>
<Cells>
<DataArray type="UInt32" Name="connectivity" format="ascii">
0 1 2 3 4 5 6 7 8 9 10 11 12 13 14 15 16 17 18 19 20 21 22 23 24 25 26 27 28 29 30 31 32 33 34 35 36 37 38 39 40 41 42 43 44 45 46 47 48 49 50 51 52 53 54 55 56 57 58 59 60 61 62 63 64 65 66 67 68 69 70 71 72 73 74 75 76 77 78 79 80 81 82 83 
</DataArray>
<DataArray type="UInt32" Name="offsets" format="ascii">
3 6 9 12 15 18 21 24 27 30 33 36 39 42 45 48 51 54 57 60 63 66 69 72 75 78 81 84 
</DataArray>
<DataArray type="UInt32" Name="types" format="ascii">
5 5 5 5 5 5 5 5 5 5 5 5 5 5 5 5 5 5 5 5 5 5 5 5 5 5 5 5 
</DataArray>
</Cells>
<PointData Scalars="" Vectors="displacement," Tensors="">
<DataArray type="Float64" Name="displacement" NumberOfComponents="3" format="ascii">
-9.5453571006247248e-06 -7.5009049459047168e-05 0 -7.7286311130031422e-06 -0.065701600430641924 0 -2.1207085744164243e-05 -0.075079333692936692 0 -9.5453571006247248e-06 -7.5009049459047168e-05 0 3.1649162329849346e-06 -7.4995475270256781e-05 0 -7.7286311130031405e-06 -0.065701600430641924 0 3.1649162329849358e-06 -7.4995475270246074e-05 0 -3.1649162329694283e-06 -7.4995475270476508e-05 0 2.5344154229652101e-17 -0.038912734036143933 0 3.1649162329849358e-06 -7.4995475270246074e-05 0 2.5344154229652101e-17 -0.038912734036143933 0 -7.7286311130031405e-06 -0.065701600430641924 0 1.6959456462827543e-17 -0.11257826831280929 0 -1.3022528032606101e-05 -0.11257983106411684 0 -7.7286311130031405e-06 -0.065701600430641924 0 1.6959456462827543e-17 -0.11257826831280929 0 -7.7286311130031388e-06 -0.06570160043064191 0 2.5344154229652101e-17 -0.038912734036143933 0 -2.1207085744164243e-05 -0.075079333692936692 0 -7.7286311130031405e-06 -0.065701600430641924 0 -1.3022528032606101e-05 -0.11257983106411684 0 -1.8034888886796905e-05 -0.15008110431032998 0 -2.1207085744164243e-05 -0.075079333692936692 0 -1.3022528032606101e-05 -0.11257983106411684 0 -1.8034888886796905e-05 -0.15008110431032998 0 -1.3022528032606101e-05 -0.11257983106411684 0 -7.8595963711861657e-06 -0.15945621330600146 0 -1.9089521891353961e-05 -0.22508408706491009 0 -7.8595963711861657e-06 -0.15945621330600146 0 -6.4446203657806122e-06 -0.22508384632107689 0 -1.9089521891353961e-05 -0.22508408706491009 0 -1.8034888886796905e-05 -0.15008110431032998 0 -7.8595963711861657e-06 -0.15945621330600146 0 -6.4446203657806122e-06 -0.22508384632107689 0 -7.8595963711861657e-06 -0.15945621330600146 0 5.6499551865813234e-17 -0.186242740782986 0 1.6959456462827543e-17 -0.11257826831280929 0 -7.8595963711861657e-06 -0.15945621330600146 0 -1.3022528032606101e-05 -0.11257983106411684 0 1.6959456462827543e-17 -0.11257826831280929 0 5.6497038805214824e-17 -0.18624274078298603 0 -7.8595963711861657e-06 -0.15945621330600146 0 1.6959456462827543e-17 -0.11257826831280929 0 1.3022528032645616e-05 -0.11257983106402827 0 7.8595963712909403e-06 -0.15945621330595455 0 1.6959456462827543e-17 -0.11257826831280929 0 7.8595963712909403e-06 -0.15945621330595455 0 5.6499551865813234e-17 -0.186242740782986 0 6.4446203660112076e-06 -0.225083846321077 0 5.6499551865813234e-17 -0.186242740782986 0 7.8595963712909403e-06 -0.15945621330595455 0 6.4446203660112076e-06 -0.225083846321077 0 -6.4446203657806122e-06 -0.22508384632107689 0 5.6499551865813234e-17 -0.186242740782986 0 1.9089521891425363e-05 -0.2250840870649104 0 7.8595963712909403e-06 -0.15945621330595455 0 1.8034888886879925e-05 -0.15008110430992469 0 1.9089521891425363e-05 -0.2250840870649104 0 6.4446203660112076e-06 -0.225083846321077 0 7.8595963712909403e-06 -0.15945621330595455 0 1.8034888886879925e-05 -0.15008110430992469 0 7.8595963712909403e-06 -0.15945621330595455 0 1.3022528032645616e-05 -0.11257983106402827 0 2.1207085744095457e-05 -0.075079333692437994 0 1.8034888886879925e-05 -0.15008110430992469 0 1.3022528032645616e-05 -0.11257983106402827 0 2.1207085744095457e-05 -0.075079333692437994 0 1.3022528032645616e-05 -0.11257983106402827 0 7.7286311130233151e-06 -0.065701600430576143 0 9.5453571005457018e-06 -7.5009049459508388e-05 0 7.7286311130233151e-06 -0.065701600430576143 0 -3.1649162329694283e-06 -7.4995475270476508e-05 0 9.5453571005457018e-06 -7.5009049459508388e-05 0 2.1207085744095457e-05 -0.075079333692437994 0 7.7286311130233151e-06 -0.065701600430576143 0 -3.1649162329694283e-06 -7.4995475270476508e-05 0 7.7286311130233151e-06 -0.065701600430576143 0 2.5344154229652101e-17 -0.038912734036143933 0 1.6959456462827543e-17 -0.11257826831280929 0 7.7286311130233151e-06 -0.065701600430576143 0 1.3022528032645616e-05 -0.11257983106402827 0 1.6959456462827543e-17 -0.11257826831280929 0 2.5344154229652101e-17 -0.038912734036143933 0 7.7286311130233151e-06 -0.065701600430576143 0 
</DataArray>
</PointData>
<CellData Scalars="displacement_divergence," Vectors="" Tensors="stress,">
<DataArray type="Float64" Name="stress" NumberOfComponents="9" format="ascii">
-4.9966248463670198 -0.00091558067945474164 0 -0.00091558067945474164 -20.00023737238315 0 0 0 -4.9993724437500342 -4.9967327468113885 -0.0010620440873271308 0 -0.0010620440873271308 -19.999641260579196 0 0 0 -4.9992748014781165 -5.0014887815394076 -1.7182436029550274e-14 0 -1.7182436029550274e-14 -19.999625293691672 0 0 0 -5.0002228150462162 -4.9985559247751521 -0.00072824715585184663 0 -0.00072824715585184663 -19.999942169415956 0 0 0 -4.9996996188382203 -4.9967481714240281 6.9767342399310454e-05 0 6.9767342399310454e-05 -20.000251986965726 0 0 0 -4.9994000316779497 -4.9970296258752924 0.00022390157266549693 0 0.00022390157266549693 -20.000484313282016 0 0 0 -4.9995027878314602 -4.9961241629974023 0.00029588579496131473 0 0.00029588579496131473 -19.999952247852846 0 0 0 -4.9992152821700486 -4.9967202138576177 0.00039213171701035776 0 0.00039213171701035776 -19.999622707838746 0 0 0 -4.9992685843392728 -4.9971213536491534 0.0001967596072791622 0 0.0001967596072791622 -19.999863004513632 0 0 0 -4.9993968716325581 -4.9968309297325924 5.1444764288532951e-06 0 5.1444764288532951e-06 -19.999968620455896 0 0 0 -4.9993599100376969 -4.9970576322952311 -7.5309186854610743e-05 0 -7.5309186854610743e-05 -20.000010096770836 0 0 0 -4.9994135458132138 -4.9968217609009553 2.6029891415646489e-05 0 2.6029891415646489e-05 -19.999974001900121 0 0 0 -4.9993591525602188 -4.9966722412711553 0.00022751119884389936 0 0.00022751119884389936 -19.999948266354227 0 0 0 -4.9993241015250769 -4.9969016732304308 8.8547382620873805e-05 0 8.8547382620873805e-05 -20.000182047115683 0 0 0 -4.9994167440692241 -4.9966722412711633 -0.00022751119885722041 0 -0.00022751119885722041 -19.999948266354252 0 0 0 -4.9993241015250831 -4.996901673230421 -8.8547382652848228e-05 0 -8.8547382652848228e-05 -20.00018204711569 0 0 0 -4.9994167440692214 -4.9968217609009393 -2.6029891433410057e-05 0 -2.6029891433410057e-05 -19.999974001900114 0 0 0 -4.9993591525602064 -4.9967971452873741 -1.2036614229645275e-14 0 -1.2036614229645275e-14 -20.000077821881291 0 0 0 -4.999374993433733 -4.99705763229524 7.5309186843952602e-05 0 7.5309186843952602e-05 -20.000010096770858 0 0 0 -4.9994135458132192 -4.9968309297326083 -5.1444764383191484e-06 0 -5.1444764383191484e-06 -19.999968620455881 0 0 0 -4.9993599100376951 -4.9971213536491508 -0.00019675960727205677 0 -0.00019675960727205677 -19.999863004513621 0 0 0 -4.9993968716325536 -4.9967202138576292 -0.00039213171701391047 0 -0.00039213171701391047 -19.999622707838721 0 0 0 -4.9992685843392701 -4.9961241629974342 -0.00029588579497374923 0 -0.00029588579497374923 -19.999952247852853 0 0 0 -4.9992152821700557 -4.9967327468114249 0.0010620440872984409 0 0.0010620440872984409 -19.999641260579182 0 0 0 -4.999274801478121 -4.9966248463670215 0.00091558067944141897 0 0.00091558067944141897 -20.000237372383111 0 0 0 -4.9993724437500262 -4.9985559247751477 0.00072824715581631949 0 0.00072824715581631949 -19.999942169415899 0 0 0 -4.9996996188382097 -4.9967481714240254 -6.9767342420590239e-05 0 -6.9767342420590239e-05 -20.000251986965708 0 0 0 -4.9994000316779461 -4.9970296258753031 -0.00022390157269569499 0 -0.00022390157269569499 -20.000484313282012 0 0 0 -4.9995027878314628 
</DataArray>
<DataArray type="Float64" Name="displacement_divergence" format="ascii">
-0.22497175996875149 -0.2249673660665153 -0.2250100266770797 -0.22498648284771997 -0.22497300142550769 -0.22497762545241573 -0.2249646876976521 -0.22496708629526724 -0.22497285922346499 -0.22497119595169635 -0.22497360956159465 -0.22497116186520971 -0.22496958456862842 -0.22497375348311496 -0.2249695845686287 -0.22497375348311505 -0.22497116186520932 -0.22497187470451818 -0.2249736095615949 -0.22497119595169635 -0.22497285922346488 -0.22496708629526713 -0.22496468769765257 -0.22496736606651541 -0.22497175996875124 -0.22498648284771944 -0.22497300142550763 -0.22497762545241576 
</DataArray>
</CellData>
</Piece>
</UnstructuredGrid>
</VTKFile>
