<?xml version="1.0"?>
<VTKFile type="UnstructuredGrid" version="0.1" byte_order="LittleEndian">
<UnstructuredGrid>
<Piece NumberOfPoints="84" NumberOfCells="28">
<Points>
<DataArray type="Float64" NumberOfComponents="3" format="ascii">
0 0 0 0.29166666666652658 0.2916666666668038 0 0 0.33333333333472032 0 0 0 0 0.33333333333250248 0 0 0.29166666666652658 0.2916666666668038 0 0.49999999999981742 0.1726190476194705 0 0.33333333333250248 0 0 0.66666666666578889 0 0 0.49999999999981742 0.1726190476194705 0 0.33333333333250248 0 0 0.29166666666652658 0.2916666666668038 0 0.29166666666652658 0.2916666666668038 0 0.17261904761971569 0.50000000000021494 0 0.50000000000004996 0.49999999999997519 0 0.49999999999981742 0.1726190476194705 0 0.29166666666652658 0.2916666666668038 0 0.50000000000004996 0.49999999999997519 0 0.29166666666652658 0.2916666666668038 0 0 0.33333333333472032 0 0.17261904761971569 0.50000000000021494 0 0 0.33333333333472032 0 0.17261904761971569 0.50000000000021494 0 0 0.66666666666759111 0 0.17261904761971569 0.50000000000021494 0 0 0.66666666666759111 0 0.29166666666684449 0.7083333333334445 0 0 1 0 0.33333333333472032 1 0 0.29166666666684449 0.7083333333334445 0 0 0.66666666666759111 0 0 1 0 0.29166666666684449 0.7083333333334445 0 0.33333333333472032 1 0 0.29166666666684449 0.7083333333334445 0 0.50000000000021227 0.82738095238030207 0 0.17261904761971569 0.50000000000021494 0 0.29166666666684449 0.7083333333334445 0 0.50000000000004996 0.49999999999997519 0 0.29166666666684449 0.7083333333334445 0 0.50000000000021227 0.82738095238030207 0 0.50000000000004996 0.49999999999997519 0 0.70833333333346027 0.70833333333323512 0 0.82738095238054699 0.49999999999982031 0 0.50000000000004996 0.49999999999997519 0 0.70833333333346027 0.70833333333323512 0 0.50000000000021227 0.82738095238030207 0 0.50000000000004996 0.49999999999997519 0 0.70833333333346027 0.70833333333323512 0 0.66666666666759111 1 0 0.50000000000021227 0.82738095238030207 0 0.33333333333472032 1 0 0.66666666666759111 1 0 0.50000000000021227 0.82738095238030207 0 0.70833333333346027 0.70833333333323512 0 1 1 0 1 0.66666666666578889 0 0.70833333333346027 0.70833333333323512 0 0.66666666666759111 1 0 1 1 0 0.70833333333346027 0.70833333333323512 0 1 0.66666666666578889 0 0.82738095238054699 0.49999999999982031 0 1 0.66666666666578889 0 1 0.33333333333250248 0 0.82738095238054699 0.49999999999982031 0 1 0.33333333333250248 0 0.82738095238054699 0.49999999999982031 0 0.70833333333327586 0.2916666666665107 0 1 0 0 0.66666666666578889 0 0 0.70833333333327586 0.2916666666665107 0 1 0.33333333333250248 0 1 0 0 0.70833333333327586 0.2916666666665107 0 0.49999999999981742 0.1726190476194705 0 0.66666666666578889 0 0 0.70833333333327586 0.2916666666665107 0 0.82738095238054699 0.49999999999982031 0 0.50000000000004996 0.49999999999997519 0 0.70833333333327586 0.2916666666665107 0 0.49999999999981742 0.1726190476194705 0 0.50000000000004996 0.49999999999997519 0 0.70833333333327586 0.2916666666665107 0 
</DataArray>
</Points>
<Cells>
<DataArray type="UInt32" Name="connectivity" format="ascii">
0 1 2 3 4 5 6 7 8 9 10 11 12 13 14 15 16 17 18 19 20 21 22 23 24 25 26 27 28 29 30 31 32 33 34 35 36 37 38 39 40 41 42 43 44 45 46 47 48 49 50 51 52 53 54 55 56 57 58 59 60 61 62 63 64 65 66 67 68 69 70 71 72 73 74 75 76 77 78 79 80 81 82 83 
</DataArray>
<DataArray type="UInt32" Name="offsets" format="ascii">
3 6 9 12 15 18 21 24 27 30 33 36 39 42 45 48 51 54 57 60 63 66 69 72 75 78 81 84 
</DataArray>
<DataArray type="UInt32" Name="types" format="ascii">
5 5 5 5 5 5 5 5 5 5 5 5 5 5 5 5 5 5 5 5 5 5 5 5 5 5 5 5 
</DataArray>
</Cells>
<PointData Scalars="" Vectors="displacement," Tensors="">
<DataArray type="Float64" Name="displacement" NumberOfComponents="3" format="ascii">
-9.5453571006255431e-06 -7.500904945904748e-05 0 -7.7286311130053749e-06 -0.065701600430641868 0 -2.120708574416117e-05 -0.075079333692936623 0 -9.5453571006255431e-06 -7.500904945904748e-05 0 3.1649162329851954e-06 -7.4995475270255954e-05 0 -7.7286311130053733e-06 -0.065701600430641868 0 1.9645671310693555e-17 -0.038912734036143877 0 3.1649162329851967e-06 -7.4995475270245247e-05 0 -3.1649162329696443e-06 -7.4995475270476494e-05 0 1.9645671310693555e-17 -0.038912734036143877 0 3.1649162329851963e-06 -7.4995475270246101e-05 0 -7.7286311130053733e-06 -0.065701600430641868 0 -7.7286311130053733e-06 -0.065701600430641868 0 -1.3022528032606365e-05 -0.11257983106411679 0 -8.6883775187686631e-19 -0.11257826831280923 0 1.9645671310693555e-17 -0.038912734036143877 0 -7.7286311130053733e-06 -0.065701600430641868 0 -8.6883775187686631e-19 -0.11257826831280923 0 -7.7286311130053733e-06 -0.065701600430641868 0 -2.120708574416117e-05 -0.075079333692936637 0 -1.3022528032606365e-05 -0.11257983106411679 0 -2.120708574416117e-05 -0.075079333692936623 0 -1.3022528032606365e-05 -0.11257983106411679 0 -1.8034888886785436e-05 -0.15008110431032989 0 -1.3022528032606365e-05 -0.11257983106411679 0 -1.8034888886785436e-05 -0.15008110431032989 0 -7.8595963711951714e-06 -0.15945621330600135 0 -1.9089521891340236e-05 -0.22508408706491009 0 -6.4446203657563786e-06 -0.22508384632107675 0 -7.8595963711951714e-06 -0.15945621330600135 0 -1.8034888886785436e-05 -0.15008110431032989 0 -1.9089521891340236e-05 -0.22508408706491009 0 -7.8595963711951714e-06 -0.15945621330600135 0 -6.4446203657563794e-06 -0.22508384632107672 0 -7.8595963711951714e-06 -0.15945621330600135 0 5.5049916034966032e-17 -0.186242740782986 0 -1.3022528032606365e-05 -0.11257983106411679 0 -7.8595963711951714e-06 -0.15945621330600135 0 -8.6883775187686631e-19 -0.11257826831280923 0 -7.8595963711951714e-06 -0.15945621330600135 0 5.5050253532773671e-17 -0.186242740782986 0 -8.6883775187686631e-19 -0.11257826831280923 0 7.8595963712868712e-06 -0.15945621330595453 0 1.3022528032625642e-05 -0.11257983106402827 0 -8.6883775187686631e-19 -0.11257826831280923 0 7.8595963712868712e-06 -0.15945621330595453 0 5.5049916034966032e-17 -0.186242740782986 0 -8.6883775187686631e-19 -0.11257826831280923 0 7.8595963712868712e-06 -0.15945621330595453 0 6.4446203660710344e-06 -0.225083846321077 0 5.5049916034966032e-17 -0.186242740782986 0 -6.4446203657563794e-06 -0.22508384632107672 0 6.4446203660710344e-06 -0.225083846321077 0 5.5049916034966032e-17 -0.186242740782986 0 7.8595963712868712e-06 -0.15945621330595453 0 1.908952189147957e-05 -0.22508408706491043 0 1.8034888886881497e-05 -0.15008110430992477 0 7.8595963712868712e-06 -0.15945621330595453 0 6.4446203660710344e-06 -0.225083846321077 0 1.908952189147957e-05 -0.22508408706491045 0 7.8595963712868712e-06 -0.15945621330595453 0 1.8034888886881497e-05 -0.15008110430992477 0 1.3022528032625642e-05 -0.11257983106402827 0 1.8034888886881497e-05 -0.15008110430992477 0 2.1207085744073705e-05 -0.075079333692437966 0 1.3022528032625642e-05 -0.11257983106402827 0 2.1207085744073705e-05 -0.07507933369243798 0 1.3022528032625642e-05 -0.11257983106402827 0 7.728631113007396e-06 -0.065701600430576088 0 9.5453571005463015e-06 -7.5009049459508307e-05 0 -3.1649162329696443e-06 -7.4995475270476494e-05 0 7.728631113007396e-06 -0.065701600430576088 0 2.1207085744073705e-05 -0.07507933369243798 0 9.5453571005463015e-06 -7.5009049459508307e-05 0 7.728631113007396e-06 -0.065701600430576088 0 1.9645671310693555e-17 -0.038912734036143877 0 -3.1649162329696443e-06 -7.4995475270476494e-05 0 7.728631113007396e-06 -0.065701600430576088 0 1.3022528032625642e-05 -0.11257983106402827 0 -8.6883775187686631e-19 -0.11257826831280923 0 7.728631113007396e-06 -0.065701600430576088 0 1.9645671310693555e-17 -0.038912734036143877 0 -8.6883775187686631e-19 -0.11257826831280923 0 7.728631113007396e-06 -0.065701600430576088 0 
</DataArray>
</PointData>
<CellData Scalars="displacement_divergence," Vectors="" Tensors="effective_stress,">
<DataArray type="Float64" Name="effective_stress" NumberOfComponents="9" format="ascii">
-4.9966248463670162 -0.00091558067945385346 0 -0.00091558067945385346 -20.000237372383129 0 0 0 -4.9993724437500289 -4.996732746811384 -0.0010620440873272869 0 -0.0010620440873272869 -19.999641260579178 0 0 0 -4.9992748014781121 -5.0014887815394031 -1.894491508114271e-14 0 -1.894491508114271e-14 -19.999625293691658 0 0 0 -5.0002228150462118 -4.9985559247751485 -0.00072824715584918209 0 -0.00072824715584918209 -19.999942169415927 0 0 0 -4.999699618838215 -4.9967481714240343 6.97673423974976e-05 0 6.97673423974976e-05 -20.000251986965722 0 0 0 -4.9994000316779514 -4.9970296258752978 0.00022390157266460875 0 0.00022390157266460875 -20.000484313282012 0 0 0 -4.999502787831462 -4.9961241629974058 0.00029588579495953837 0 0.00029588579495953837 -19.999952247852853 0 0 0 -4.9992152821700522 -4.9967202138576221 0.00039213171700680505 0 0.00039213171700680505 -19.99962270783875 0 0 0 -4.9992685843392746 -4.9971213536491517 0.00019675960728093855 0 0.00019675960728093855 -19.999863004513596 0 0 0 -4.999396871632551 -4.996830929732587 5.1444764478091514e-06 0 5.1444764478091514e-06 -19.999968620455881 0 0 0 -4.9993599100376951 -4.9970576322952409 -7.5309186847505316e-05 0 -7.5309186847505316e-05 -20.000010096770847 0 0 0 -4.9994135458132183 -4.9968217609009518 2.6029891394330207e-05 0 2.6029891394330207e-05 -19.9999740019001 0 0 0 -4.9993591525602117 -4.9966722412711544 0.00022751119884389936 0 0.00022751119884389936 -19.999948266354213 0 0 0 -4.9993241015250725 -4.9969016732304343 8.8547382607551128e-05 0 8.8547382607551128e-05 -20.0001820471157 0 0 0 -4.9994167440692276 -4.9966722412711597 -0.00022751119885988658 0 -0.00022751119885988658 -19.999948266354266 0 0 0 -4.9993241015250831 -4.9969016732304237 -8.8547382652848228e-05 0 -8.8547382652848228e-05 -20.0001820471157 0 0 0 -4.9994167440692241 -4.996821760900934 -2.6029891429857344e-05 0 -2.6029891429857344e-05 -19.9999740019001 0 0 0 -4.9993591525602081 -4.9967971452873599 -1.5589327908445776e-14 0 -1.5589327908445776e-14 -20.000077821881263 0 0 0 -4.9993749934337295 -4.9970576322952365 7.5309186838623532e-05 0 7.5309186838623532e-05 -20.000010096770858 0 0 0 -4.9994135458132192 -4.9968309297326083 -5.1444764395114362e-06 0 -5.1444764395114362e-06 -19.999968620455874 0 0 0 -4.9993599100376969 -4.9971213536491526 -0.00019675960728049446 0 -0.00019675960728049446 -19.999863004513628 0 0 0 -4.9993968716325554 -4.9967202138576274 -0.00039213171701035776 0 -0.00039213171701035776 -19.999622707838729 0 0 0 -4.9992685843392719 -4.9961241629974396 -0.00029588579497819012 0 -0.00029588579497819012 -19.999952247852868 0 0 0 -4.9992152821700611 -4.9967327468114195 0.0010620440872980994 0 0.0010620440872980994 -19.99964126057916 0 0 0 -4.9992748014781156 -4.9966248463670224 0.00091558067943342536 0 0.00091558067943342536 -20.000237372383111 0 0 0 -4.9993724437500262 -4.9985559247751477 0.00072824715581099042 0 0.00072824715581099042 -19.999942169415895 0 0 0 -4.9996996188382079 -4.9967481714240307 -6.9767342428211788e-05 0 -6.9767342428211788e-05 -20.000251986965726 0 0 0 -4.9994000316779506 -4.9970296258753031 -0.00022390157269747135 0 -0.00022390157269747135 -20.000484313282005 0 0 0 -4.9995027878314611 
</DataArray>
<DataArray type="Float64" Name="displacement_divergence" format="ascii">
-0.22497175996875132 -0.2249673660665151 -0.22501002667707951 -0.22498648284771969 -0.22497300142550777 -0.22497762545241576 -0.22496468769765232 -0.22496708629526732 -0.22497285922346488 -0.22497119595169612 -0.22497360956159487 -0.22497116186520949 -0.22496958456862823 -0.22497375348311516 -0.22496958456862873 -0.2249737534831151 -0.22497116186520932 -0.22497187470451796 -0.2249736095615949 -0.22497119595169637 -0.22497285922346499 -0.22496708629526729 -0.22496468769765277 -0.22496736606651524 -0.22497175996875121 -0.22498648284771935 -0.2249730014255078 -0.22497762545241576 
</DataArray>
</CellData>
</Piece>
</UnstructuredGrid>
</VTKFile>
