<?xml version="1.0"?>
<VTKFile type="UnstructuredGrid" version="0.1" byte_order="LittleEndian">
<UnstructuredGrid>
<Piece NumberOfPoints="880" NumberOfCells="299">
<Points>
<DataArray type="Float64" NumberOfComponents="3" format="ascii">
-0 0 0 0.18653882694645291 0.22249173546702489 0 0 0.25000000000104189 0 -0 0 0 0.18653882694645291 0.22249173546702489 0 0.24999999999941089 0 0 0.24999999999941089 0 0 0.35015135319464608 0.1900339269648805 0 0.49999999999869182 0 0 0.18653882694645291 0.22249173546702489 0 0.24999999999941089 0 0 0.35015135319464608 0.1900339269648805 0 0.35015135319464608 0.1900339269648805 0 0.49924741621175961 0.21507969613896921 0 0.49999999999869182 0 0 0.35015135319464608 0.1900339269648805 0 0.49924741621175961 0.21507969613896921 0 0.40587285776242238 0.32419148732968017 0 0.37764981543668408 0.41341486499350411 0 0.41576443813007791 0.48093483781626972 0 0.45418244162583959 0.41624787166862259 0 0.37764981543668408 0.41341486499350411 0 0.45418244162583959 0.41624787166862259 0 0.40587285776242238 0.32419148732968017 0 0.41576443813007791 0.48093483781626972 0 0.46566719828045178 0.47702825415921918 0 0.45418244162583959 0.41624787166862259 0 0.41576443813007791 0.48093483781626972 0 0.46566719828045178 0.47702825415921918 0 0.4638583922372429 0.51470588235294135 0 0.46566719828045178 0.47702825415921918 0 0.49954900152271581 0.45107191084564019 0 0.5 0.5 0 0.46566719828045178 0.47702825415921918 0 0.4638583922372429 0.51470588235294135 0 0.5 0.5 0 0.46566719828045178 0.47702825415921918 0 0.49954900152271581 0.45107191084564019 0 0.45418244162583959 0.41624787166862259 0 0.45418244162583959 0.41624787166862259 0 0.49435464945626773 0.33318442629318029 0 0.54876010062294855 0.39662628167175101 0 0.45418244162583959 0.41624787166862259 0 0.49435464945626773 0.33318442629318029 0 0.40587285776242238 0.32419148732968017 0 0.49924741621175961 0.21507969613896921 0 0.49435464945626773 0.33318442629318029 0 0.40587285776242238 0.32419148732968017 0 0.35015135319464608 0.1900339269648805 0 0.40587285776242238 0.32419148732968017 0 0.29145599617909779 0.35026601625021492 0 0.37764981543668408 0.41341486499350411 0 0.40587285776242238 0.32419148732968017 0 0.29145599617909779 0.35026601625021492 0 0.18653882694645291 0.22249173546702489 0 0.35015135319464608 0.1900339269648805 0 0.29145599617909779 0.35026601625021492 0 0.29145599617909779 0.35026601625021492 0 0.32540781287085369 0.49175159894608172 0 0.17872124008781709 0.39692711089439497 0 0.37764981543668408 0.41341486499350411 0 0.29145599617909779 0.35026601625021492 0 0.32540781287085369 0.49175159894608172 0 0.37764981543668408 0.41341486499350411 0 0.41576443813007791 0.48093483781626972 0 0.32540781287085369 0.49175159894608172 0 0.17872124008781709 0.39692711089439497 0 0 0.25000000000104189 0 0 0.50000000000206157 0 0.17872124008781709 0.39692711089439497 0 0 0.50000000000206157 0 0.22453074737734591 0.51613635929252633 0 0.32540781287085369 0.49175159894608172 0 0.17872124008781709 0.39692711089439497 0 0.22453074737734591 0.51613635929252633 0 0.18653882694645291 0.22249173546702489 0 0.29145599617909779 0.35026601625021492 0 0.17872124008781709 0.39692711089439497 0 0.18653882694645291 0.22249173546702489 0 0.17872124008781709 0.39692711089439497 0 0 0.25000000000104189 0 0 0.50000000000206157 0 0.18442368612951149 0.62734948407416979 0 0 0.75000000000034772 0 0.18442368612951149 0.62734948407416979 0 0.22727208279115291 0.72949159435386135 0 0 0.75000000000034772 0 0.18442368612951149 0.62734948407416979 0 0.22727208279115291 0.72949159435386135 0 0.31346558946927339 0.67110784456164874 0 0.18442368612951149 0.62734948407416979 0 0.22453074737734591 0.51613635929252633 0 0.31771010312359771 0.58585679504088894 0 0 0.50000000000206157 0 0.18442368612951149 0.62734948407416979 0 0.22453074737734591 0.51613635929252633 0 0 1 0 0.096516139048187316 0.89789944498939644 0 0 0.75000000000034772 0 0 1 0 0.096516139048187316 0.89789944498939644 0 0.1596341872805197 1 0 0.096516139048187316 0.89789944498939644 0 0 0.75000000000034772 0 0.1644705180525495 0.8200994301041713 0 0.1644705180525495 0.8200994301041713 0 0.2386314078659193 0.92924778694987087 0 0.27155609766735261 0.80398965554903801 0 0.22727208279115291 0.72949159435386135 0 0 0.75000000000034772 0 0.1644705180525495 0.8200994301041713 0 0.22727208279115291 0.72949159435386135 0 0.1644705180525495 0.8200994301041713 0 0.27155609766735261 0.80398965554903801 0 0.096516139048187316 0.89789944498939644 0 0.1644705180525495 0.8200994301041713 0 0.2386314078659193 0.92924778694987087 0 0.096516139048187316 0.89789944498939644 0 0.2386314078659193 0.92924778694987087 0 0.1596341872805197 1 0 0.2386314078659193 0.92924778694987087 0 0.1596341872805197 1 0 0.27591592301363282 1 0 0.36061858902161292 1 0 0.32789203369730929 0.94219211037003092 0 0.27591592301363282 1 0 0.36061858902161292 1 0 0.32789203369730929 0.94219211037003092 0 0.39382242252278338 0.95440420122950598 0 0.2386314078659193 0.92924778694987087 0 0.32789203369730929 0.94219211037003092 0 0.27591592301363282 1 0 0.2386314078659193 0.92924778694987087 0 0.32789203369730929 0.94219211037003092 0 0.31834856208730472 0.88134829947972904 0 0.32789203369730929 0.94219211037003092 0 0.37746652222901839 0.8987532801416368 0 0.39382242252278338 0.95440420122950598 0 0.32789203369730929 0.94219211037003092 0 0.31834856208730472 0.88134829947972904 0 0.37746652222901839 0.8987532801416368 0 0.2386314078659193 0.92924778694987087 0 0.31834856208730472 0.88134829947972904 0 0.27155609766735261 0.80398965554903801 0 0.31834856208730472 0.88134829947972904 0 0.36493375430404612 0.82333914183704071 0 0.37746652222901839 0.8987532801416368 0 0.31834856208730472 0.88134829947972904 0 0.36493375430404612 0.82333914183704071 0 0.27155609766735261 0.80398965554903801 0 0.22727208279115291 0.72949159435386135 0 0.27155609766735261 0.80398965554903801 0 0.32984265945580837 0.74432890077789404 0 0.36493375430404612 0.82333914183704071 0 0.27155609766735261 0.80398965554903801 0 0.32984265945580837 0.74432890077789404 0 0.36493375430404612 0.82333914183704071 0 0.39746869305290999 0.7595658224757349 0 0.32984265945580837 0.74432890077789404 0 0.36493375430404612 0.82333914183704071 0 0.39746869305290999 0.7595658224757349 0 0.42893012659725649 0.81084715169569632 0 0.39746869305290999 0.7595658224757349 0 0.42893012659725649 0.81084715169569632 0 0.44651949253391748 0.77225997208621999 0 0.39746869305290999 0.7595658224757349 0 0.44651949253391748 0.77225997208621999 0 0.43412357948152142 0.72128778687215156 0 0.44651949253391748 0.77225997208621999 0 0.47786860714145291 0.77730227330627721 0 0.47220206448452873 0.74892462649306213 0 0.47786860714145291 0.77730227330627721 0 0.47220206448452873 0.74892462649306213 0 0.5 0.76470588235294124 0 0.47786860714145291 0.77730227330627721 0 0.5 0.79411764705882359 0 0.5 0.76470588235294124 0 0.47062147868881782 0.80650323854033878 0 0.5 0.82352941176470584 0 0.5 0.79411764705882359 0 0.47786860714145291 0.77730227330627721 0 0.47062147868881782 0.80650323854033878 0 0.5 0.79411764705882359 0 0.44651949253391748 0.77225997208621999 0 0.47786860714145291 0.77730227330627721 0 0.47062147868881782 0.80650323854033878 0 0.42893012659725649 0.81084715169569632 0 0.44651949253391748 0.77225997208621999 0 0.47062147868881782 0.80650323854033878 0 0.42893012659725649 0.81084715169569632 0 0.47062147868881782 0.80650323854033878 0 0.46181179062043481 0.83858979842637782 0 0.42893012659725649 0.81084715169569632 0 0.46181179062043481 0.83858979842637782 0 0.42880856207355889 0.86677159981903118 0 0.46181179062043481 0.83858979842637782 0 0.5 0.85294117647058831 0 0.5 0.82352941176470584 0 0.47062147868881782 0.80650323854033878 0 0.46181179062043481 0.83858979842637782 0 0.5 0.82352941176470584 0 0.46181179062043481 0.83858979842637782 0 0.47032448519202857 0.86718057681700655 0 0.5 0.85294117647058831 0 0.47032448519202857 0.86718057681700655 0 0.5 0.88235294117647056 0 0.5 0.85294117647058831 0 0.46181179062043481 0.83858979842637782 0 0.47032448519202857 0.86718057681700655 0 0.42880856207355889 0.86677159981903118 0 0.36493375430404612 0.82333914183704071 0 0.42880856207355889 0.86677159981903118 0 0.37746652222901839 0.8987532801416368 0 0.36493375430404612 0.82333914183704071 0 0.42893012659725649 0.81084715169569632 0 0.42880856207355889 0.86677159981903118 0 0.37746652222901839 0.8987532801416368 0 0.42822627495986648 0.92083108049218854 0 0.39382242252278338 0.95440420122950598 0 0.42880856207355889 0.86677159981903118 0 0.37746652222901839 0.8987532801416368 0 0.42822627495986648 0.92083108049218854 0 0.47032448519202857 0.86718057681700655 0 0.42880856207355889 0.86677159981903118 0 0.46100207326614928 0.89524736819256467 0 0.42880856207355889 0.86677159981903118 0 0.42822627495986648 0.92083108049218854 0 0.46100207326614928 0.89524736819256467 0 0.47032448519202857 0.86718057681700655 0 0.46100207326614928 0.89524736819256467 0 0.5 0.88235294117647056 0 0.46100207326614928 0.89524736819256467 0 0.5 0.91176470588235292 0 0.5 0.88235294117647056 0 0.46100207326614928 0.89524736819256467 0 0.46949408183482899 0.92833826413560594 0 0.5 0.91176470588235292 0 0.46949408183482899 0.92833826413560594 0 0.5 0.94117647058823528 0 0.5 0.91176470588235292 0 0.42822627495986648 0.92083108049218854 0 0.46100207326614928 0.89524736819256467 0 0.46949408183482899 0.92833826413560594 0 0.46949408183482899 0.92833826413560594 0 0.44768478605684647 0.9646709673379662 0 0.47596308696979028 0.95620709615192379 0 0.42822627495986648 0.92083108049218854 0 0.46949408183482899 0.92833826413560594 0 0.44768478605684647 0.9646709673379662 0 0.44768478605684647 0.9646709673379662 0 0.47596308696979028 0.95620709615192379 0 0.47818194888216242 0.97829325975680159 0 0.46949408183482899 0.92833826413560594 0 0.47596308696979028 0.95620709615192379 0 0.5 0.94117647058823528 0 0.47596308696979028 0.95620709615192379 0 0.47818194888216242 0.97829325975680159 0 0.5 0.97058823529411764 0 0.47596308696979028 0.95620709615192379 0 0.5 0.97058823529411764 0 0.5 0.94117647058823528 0 0.47818194888216242 0.97829325975680159 0 0.46726187138417491 1 0 0.5 1 0 0.47818194888216242 0.97829325975680159 0 0.5 0.97058823529411764 0 0.5 1 0 0.44768478605684647 0.9646709673379662 0 0.47818194888216242 0.97829325975680159 0 0.46726187138417491 1 0 0.44768478605684647 0.9646709673379662 0 0.46726187138417491 1 0 0.42231823435723009 1 0 0.44768478605684647 0.9646709673379662 0 0.42231823435723009 1 0 0.39382242252278338 0.95440420122950598 0 0.42822627495986648 0.92083108049218854 0 0.44768478605684647 0.9646709673379662 0 0.39382242252278338 0.95440420122950598 0 0.36061858902161292 1 0 0.42231823435723009 1 0 0.39382242252278338 0.95440420122950598 0 0.31771010312359771 0.58585679504088894 0 0.3872154068451229 0.6301386882447304 0 0.41980724897053312 0.55867199730355355 0 0.32540781287085369 0.49175159894608172 0 0.31771010312359771 0.58585679504088894 0 0.41980724897053312 0.55867199730355355 0 0.32540781287085369 0.49175159894608172 0 0.22453074737734591 0.51613635929252633 0 0.31771010312359771 0.58585679504088894 0 0.18442368612951149 0.62734948407416979 0 0.31771010312359771 0.58585679504088894 0 0.31346558946927339 0.67110784456164874 0 0.22727208279115291 0.72949159435386135 0 0.32984265945580837 0.74432890077789404 0 0.31346558946927339 0.67110784456164874 0 0.39746869305290999 0.7595658224757349 0 0.32984265945580837 0.74432890077789404 0 0.38513711431054509 0.69312683393047636 0 0.32984265945580837 0.74432890077789404 0 0.31346558946927339 0.67110784456164874 0 0.38513711431054509 0.69312683393047636 0 0.31771010312359771 0.58585679504088894 0 0.31346558946927339 0.67110784456164874 0 0.3872154068451229 0.6301386882447304 0 0.31346558946927339 0.67110784456164874 0 0.3872154068451229 0.6301386882447304 0 0.38513711431054509 0.69312683393047636 0 0.3872154068451229 0.6301386882447304 0 0.38513711431054509 0.69312683393047636 0 0.4390556798454946 0.66199025953586599 0 0.3872154068451229 0.6301386882447304 0 0.4390556798454946 0.66199025953586599 0 0.44702869549010399 0.61002701911053991 0 0.39746869305290999 0.7595658224757349 0 0.38513711431054509 0.69312683393047636 0 0.43412357948152142 0.72128778687215156 0 0.38513711431054509 0.69312683393047636 0 0.43412357948152142 0.72128778687215156 0 0.4390556798454946 0.66199025953586599 0 0.43412357948152142 0.72128778687215156 0 0.47636314644728822 0.72058823529411908 0 0.47220206448452873 0.74892462649306213 0 0.44651949253391748 0.77225997208621999 0 0.43412357948152142 0.72128778687215156 0 0.47220206448452873 0.74892462649306213 0 0.43412357948152142 0.72128778687215156 0 0.46330219403010409 0.69594601192744354 0 0.4390556798454946 0.66199025953586599 0 0.43412357948152142 0.72128778687215156 0 0.46330219403010409 0.69594601192744354 0 0.47636314644728822 0.72058823529411908 0 0.46330219403010409 0.69594601192744354 0 0.47636314644728822 0.72058823529411908 0 0.5 0.70588235294117663 0 0.46330219403010409 0.69594601192744354 0 0.5 0.67647058823529438 0 0.5 0.70588235294117663 0 0.47636314644728822 0.72058823529411908 0 0.5 0.73529411764705888 0 0.5 0.70588235294117663 0 0.47220206448452873 0.74892462649306213 0 0.5 0.73529411764705888 0 0.5 0.76470588235294124 0 0.47636314644728822 0.72058823529411908 0 0.47220206448452873 0.74892462649306213 0 0.5 0.73529411764705888 0 0.4390556798454946 0.66199025953586599 0 0.47501372853621993 0.66300743809067952 0 0.47271076880550111 0.63357150722538136 0 0.4390556798454946 0.66199025953586599 0 0.47271076880550111 0.63357150722538136 0 0.44702869549010399 0.61002701911053991 0 0.46330219403010409 0.69594601192744354 0 0.4390556798454946 0.66199025953586599 0 0.47501372853621993 0.66300743809067952 0 0.46330219403010409 0.69594601192744354 0 0.47501372853621993 0.66300743809067952 0 0.5 0.67647058823529438 0 0.47501372853621993 0.66300743809067952 0 0.5 0.64705882352941191 0 0.5 0.67647058823529438 0 0.47501372853621993 0.66300743809067952 0 0.47271076880550111 0.63357150722538136 0 0.5 0.64705882352941191 0 0.47271076880550111 0.63357150722538136 0 0.5 0.61764705882352966 0 0.5 0.64705882352941191 0 0.47784843225772261 0.60532339797118362 0 0.5 0.5882352941176473 0 0.5 0.61764705882352966 0 0.47271076880550111 0.63357150722538136 0 0.47784843225772261 0.60532339797118362 0 0.5 0.61764705882352966 0 0.46950269699300751 0.57713611057881953 0 0.5 0.55882352941176494 0 0.5 0.5882352941176473 0 0.47784843225772261 0.60532339797118362 0 0.46950269699300751 0.57713611057881953 0 0.5 0.5882352941176473 0 0.46950269699300751 0.57713611057881953 0 0.44702869549010399 0.61002701911053991 0 0.41980724897053312 0.55867199730355355 0 0.47784843225772261 0.60532339797118362 0 0.46950269699300751 0.57713611057881953 0 0.44702869549010399 0.61002701911053991 0 0.47271076880550111 0.63357150722538136 0 0.47784843225772261 0.60532339797118362 0 0.44702869549010399 0.61002701911053991 0 0.3872154068451229 0.6301386882447304 0 0.44702869549010399 0.61002701911053991 0 0.41980724897053312 0.55867199730355355 0 0.41576443813007791 0.48093483781626972 0 0.32540781287085369 0.49175159894608172 0 0.41980724897053312 0.55867199730355355 0 0.41576443813007791 0.48093483781626972 0 0.41980724897053312 0.55867199730355355 0 0.4638583922372429 0.51470588235294135 0 0.41980724897053312 0.55867199730355355 0 0.4638583922372429 0.51470588235294135 0 0.47063366764015668 0.5477498568705923 0 0.46950269699300751 0.57713611057881953 0 0.41980724897053312 0.55867199730355355 0 0.47063366764015668 0.5477498568705923 0 0.46950269699300751 0.57713611057881953 0 0.47063366764015668 0.5477498568705923 0 0.5 0.55882352941176494 0 0.47063366764015668 0.5477498568705923 0 0.5 0.52941176470588269 0 0.5 0.55882352941176494 0 0.4638583922372429 0.51470588235294135 0 0.47063366764015668 0.5477498568705923 0 0.5 0.52941176470588269 0 0.4638583922372429 0.51470588235294135 0 0.5 0.5 0 0.5 0.52941176470588269 0 0.5 0.52941176470588269 0 0.52629893369322589 0.51330452493555312 0 0.52820848765230954 0.54540076010342464 0 0.5 0.5 0 0.5 0.52941176470588269 0 0.52629893369322589 0.51330452493555312 0 0.5 0.5 0 0.5 0.52941176470588269 0 0.5 0.52941176470588269 0 0.5 0.55882352941176494 0 0.52820848765230954 0.54540076010342464 0 0.5 0.52941176470588269 0 0.5 0.55882352941176494 0 0.5 0.55882352941176494 0 0.52820848765230954 0.54540076010342464 0 0.52246722155046366 0.57417151085839346 0 0.52820848765230954 0.54540076010342464 0 0.56199650931215228 0.51957997397013023 0 0.55931585964581554 0.57571189932143541 0 0.52629893369322589 0.51330452493555312 0 0.56199650931215228 0.51957997397013023 0 0.54128967150166729 0.47213012589832831 0 0.52629893369322589 0.51330452493555312 0 0.52820848765230954 0.54540076010342464 0 0.56199650931215228 0.51957997397013023 0 0.56199650931215228 0.51957997397013023 0 0.61174067805461174 0.54148194547208961 0 0.60345082206666756 0.47575908627627911 0 0.56199650931215228 0.51957997397013023 0 0.61174067805461174 0.54148194547208961 0 0.55931585964581554 0.57571189932143541 0 0.61174067805461174 0.54148194547208961 0 0.61264973759093866 0.60999664295093947 0 0.55931585964581554 0.57571189932143541 0 0.61264973759093866 0.60999664295093947 0 0.55931585964581554 0.57571189932143541 0 0.55828304378107996 0.63546085023637511 0 0.55931585964581554 0.57571189932143541 0 0.52754891270107895 0.60396918438229519 0 0.55828304378107996 0.63546085023637511 0 0.52754891270107895 0.60396918438229519 0 0.52222323737415433 0.63323059203007803 0 0.55828304378107996 0.63546085023637511 0 0.52820848765230954 0.54540076010342464 0 0.55931585964581554 0.57571189932143541 0 0.52246722155046366 0.57417151085839346 0 0.55931585964581554 0.57571189932143541 0 0.52246722155046366 0.57417151085839346 0 0.52754891270107895 0.60396918438229519 0 0.52246722155046366 0.57417151085839346 0 0.5 0.5882352941176473 0 0.52754891270107895 0.60396918438229519 0 0.5 0.55882352941176494 0 0.52246722155046366 0.57417151085839346 0 0.5 0.5882352941176473 0 0.5 0.55882352941176494 0 0.5 0.5882352941176473 0 0.52754891270107895 0.60396918438229519 0 0.5 0.61764705882352966 0 0.52222323737415433 0.63323059203007803 0 0.5 0.5882352941176473 0 0.5 0.61764705882352966 0 0.5 0.5882352941176473 0 0.52754891270107895 0.60396918438229519 0 0.5 0.61764705882352966 0 0.5 0.61764705882352966 0 0.52222323737415433 0.63323059203007803 0 0.5 0.64705882352941191 0 0.5 0.61764705882352966 0 0.5 0.64705882352941191 0 0.52222323737415433 0.63323059203007803 0 0.5 0.64705882352941191 0 0.52736180768426655 0.66304505109048573 0 0.5 0.64705882352941191 0 0.5 0.67647058823529438 0 0.52736180768426655 0.66304505109048573 0 0.5 0.64705882352941191 0 0.5 0.67647058823529438 0 0.5 0.67647058823529438 0 0.52736180768426655 0.66304505109048573 0 0.52189318962165776 0.69193883095305098 0 0.52736180768426655 0.66304505109048573 0 0.52189318962165776 0.69193883095305098 0 0.55852327729743823 0.69498827241231187 0 0.52736180768426655 0.66304505109048573 0 0.55828304378107996 0.63546085023637511 0 0.55852327729743823 0.69498827241231187 0 0.52222323737415433 0.63323059203007803 0 0.52736180768426655 0.66304505109048573 0 0.55828304378107996 0.63546085023637511 0 0.5 0.73529411764705888 0 0.52547133540542634 0.72058823529411897 0 0.5211984712236245 0.75134107022269114 0 0.5 0.73529411764705888 0 0.52547133540542634 0.72058823529411897 0 0.5 0.70588235294117663 0 0.5 0.73529411764705888 0 0.5 0.70588235294117663 0 0.52547133540542634 0.72058823529411897 0 0.5 0.70588235294117663 0 0.52189318962165776 0.69193883095305098 0 0.5 0.67647058823529438 0 0.5 0.70588235294117663 0 0.52189318962165776 0.69193883095305098 0 0.5 0.67647058823529438 0 0.5 0.70588235294117663 0 0.52547133540542634 0.72058823529411897 0 0.52189318962165776 0.69193883095305098 0 0.55852327729743823 0.69498827241231187 0 0.52547133540542634 0.72058823529411897 0 0.5211984712236245 0.75134107022269114 0 0.55458114032207428 0.75544804615062711 0 0.52547133540542634 0.72058823529411897 0 0.55852327729743823 0.69498827241231187 0 0.55458114032207428 0.75544804615062711 0 0.55852327729743823 0.69498827241231187 0 0.6088970477846376 0.72715446211577472 0 0.55458114032207428 0.75544804615062711 0 0.55852327729743823 0.69498827241231187 0 0.6088970477846376 0.72715446211577472 0 0.60110770968787908 0.67045598539422102 0 0.61264973759093866 0.60999664295093947 0 0.55828304378107996 0.63546085023637511 0 0.60110770968787908 0.67045598539422102 0 0.55828304378107996 0.63546085023637511 0 0.55852327729743823 0.69498827241231187 0 0.60110770968787908 0.67045598539422102 0 0.61264973759093866 0.60999664295093947 0 0.60110770968787908 0.67045598539422102 0 0.66621429167335955 0.68470300534742679 0 0.6088970477846376 0.72715446211577472 0 0.66621429167335955 0.68470300534742679 0 0.6817340940367822 0.76923101696744944 0 0.6088970477846376 0.72715446211577472 0 0.60110770968787908 0.67045598539422102 0 0.66621429167335955 0.68470300534742679 0 0.66621429167335955 0.68470300534742679 0 0.6817340940367822 0.76923101696744944 0 0.7828103453665094 0.69876044407634474 0 0.66621429167335955 0.68470300534742679 0 0.69354174170208815 0.57892485983477626 0 0.7828103453665094 0.69876044407634474 0 0.69354174170208815 0.57892485983477626 0 0.77935529174931761 0.49004815756283893 0 0.66681557370681976 0.49435464945626773 0 0.61174067805461174 0.54148194547208961 0 0.69354174170208815 0.57892485983477626 0 0.66681557370681976 0.49435464945626773 0 0.61174067805461174 0.54148194547208961 0 0.60345082206666756 0.47575908627627911 0 0.66681557370681976 0.49435464945626773 0 0.61174067805461174 0.54148194547208961 0 0.61264973759093866 0.60999664295093947 0 0.69354174170208815 0.57892485983477626 0 0.61264973759093866 0.60999664295093947 0 0.66621429167335955 0.68470300534742679 0 0.69354174170208815 0.57892485983477626 0 0.60145933092659498 0.94808652648958736 0 0.57768176564240026 1 0 0.63938141097836054 1 0 0.60145933092659498 0.94808652648958736 0 0.55381003699196441 0.97073734537240042 0 0.55652711631508067 0.93435010280744335 0 0.60145933092659498 0.94808652648958736 0 0.57768176564240026 1 0 0.55381003699196441 0.97073734537240042 0 0.57768176564240026 1 0 0.53273812861558045 1 0 0.55381003699196441 0.97073734537240042 0 0.53273812861558045 1 0 0.55381003699196441 0.97073734537240042 0 0.52191028766292435 0.97912620202886635 0 0.53273812861558045 1 0 0.52191028766292435 0.97912620202886635 0 0.5 1 0 0.52191028766292435 0.97912620202886635 0 0.5 0.97058823529411764 0 0.5 1 0 0.5 0.97058823529411764 0 0.5 1 0 0.5 0.97058823529411764 0 0.5 0.94117647058823528 0 0.5 0.97058823529411764 0 0.5 0.94117647058823528 0 0.52554900427979434 0.95492408164812537 0 0.52191028766292435 0.97912620202886635 0 0.5 0.97058823529411764 0 0.52554900427979434 0.95492408164812537 0 0.5 0.94117647058823528 0 0.52554900427979434 0.95492408164812537 0 0.52149395742518578 0.9280464911497236 0 0.55381003699196441 0.97073734537240042 0 0.52554900427979434 0.95492408164812537 0 0.55652711631508067 0.93435010280744335 0 0.55381003699196441 0.97073734537240042 0 0.52191028766292435 0.97912620202886635 0 0.52554900427979434 0.95492408164812537 0 0.52554900427979434 0.95492408164812537 0 0.55652711631508067 0.93435010280744335 0 0.52149395742518578 0.9280464911497236 0 0.55652711631508067 0.93435010280744335 0 0.52982914238326484 0.89727189043838895 0 0.57507719038536997 0.89743529736491356 0 0.55652711631508067 0.93435010280744335 0 0.52149395742518578 0.9280464911497236 0 0.52982914238326484 0.89727189043838895 0 0.52149395742518578 0.9280464911497236 0 0.5 0.91176470588235292 0 0.52982914238326484 0.89727189043838895 0 0.5 0.94117647058823528 0 0.5 0.91176470588235292 0 0.5 0.94117647058823528 0 0.52149395742518578 0.9280464911497236 0 0.5 0.91176470588235292 0 0.5 0.91176470588235292 0 0.5 0.88235294117647056 0 0.52982914238326484 0.89727189043838895 0 0.5 0.91176470588235292 0 0.5 0.88235294117647056 0 0.5 0.88235294117647056 0 0.52982914238326484 0.89727189043838895 0 0.51991574276818808 0.86764705882352966 0 0.52982914238326484 0.89727189043838895 0 0.57507719038536997 0.89743529736491356 0 0.54799184932697576 0.8599032232094268 0 0.60145933092659498 0.94808652648958736 0 0.55652711631508067 0.93435010280744335 0 0.57507719038536997 0.89743529736491356 0 0.60145933092659498 0.94808652648958736 0 0.57507719038536997 0.89743529736491356 0 0.63427031498547037 0.88927276979110648 0 0.57507719038536997 0.89743529736491356 0 0.58994607995897996 0.84812355238296233 0 0.63427031498547037 0.88927276979110648 0 0.58994607995897996 0.84812355238296233 0 0.64153141236229239 0.83072478436463804 0 0.63427031498547037 0.88927276979110648 0 0.58994607995897996 0.84812355238296233 0 0.60049020024666178 0.78900583008989877 0 0.64153141236229239 0.83072478436463804 0 0.58994607995897996 0.84812355238296233 0 0.54799184932697576 0.8599032232094268 0 0.55206941203846505 0.81091931303809783 0 0.58994607995897996 0.84812355238296233 0 0.55206941203846505 0.81091931303809783 0 0.60049020024666178 0.78900583008989877 0 0.57507719038536997 0.89743529736491356 0 0.58994607995897996 0.84812355238296233 0 0.54799184932697576 0.8599032232094268 0 0.52982914238326484 0.89727189043838895 0 0.54799184932697576 0.8599032232094268 0 0.51991574276818808 0.86764705882352966 0 0.54799184932697576 0.8599032232094268 0 0.51991574276818808 0.86764705882352966 0 0.52395085592512047 0.83729395211968571 0 0.51991574276818808 0.86764705882352966 0 0.5 0.85294117647058831 0 0.52395085592512047 0.83729395211968571 0 0.5 0.88235294117647056 0 0.5 0.85294117647058831 0 0.5 0.88235294117647056 0 0.51991574276818808 0.86764705882352966 0 0.5 0.85294117647058831 0 0.5 0.82352941176470584 0 0.52395085592512047 0.83729395211968571 0 0.52039202967084142 0.80930587873000437 0 0.5 0.85294117647058831 0 0.5 0.82352941176470584 0 0.5 0.85294117647058831 0 0.5 0.82352941176470584 0 0.52395085592512047 0.83729395211968571 0 0.52395085592512047 0.83729395211968571 0 0.55206941203846505 0.81091931303809783 0 0.52039202967084142 0.80930587873000437 0 0.54799184932697576 0.8599032232094268 0 0.52395085592512047 0.83729395211968571 0 0.55206941203846505 0.81091931303809783 0 0.55206941203846505 0.81091931303809783 0 0.52039202967084142 0.80930587873000437 0 0.52593988039062167 0.78066906966870908 0 0.55206941203846505 0.81091931303809783 0 0.52593988039062167 0.78066906966870908 0 0.55458114032207428 0.75544804615062711 0 0.52039202967084142 0.80930587873000437 0 0.5 0.79411764705882359 0 0.52593988039062167 0.78066906966870908 0 0.5 0.82352941176470584 0 0.5 0.79411764705882359 0 0.5 0.82352941176470584 0 0.52039202967084142 0.80930587873000437 0 0.5 0.79411764705882359 0 0.5 0.73529411764705888 0 0.5 0.76470588235294124 0 0.5 0.73529411764705888 0 0.5 0.76470588235294124 0 0.5211984712236245 0.75134107022269114 0 0.5 0.79411764705882359 0 0.5 0.76470588235294124 0 0.52593988039062167 0.78066906966870908 0 0.5 0.79411764705882359 0 0.5 0.76470588235294124 0 0.5 0.76470588235294124 0 0.52593988039062167 0.78066906966870908 0 0.5211984712236245 0.75134107022269114 0 0.52593988039062167 0.78066906966870908 0 0.5211984712236245 0.75134107022269114 0 0.55458114032207428 0.75544804615062711 0 0.6088970477846376 0.72715446211577472 0 0.55458114032207428 0.75544804615062711 0 0.60049020024666178 0.78900583008989877 0 0.55206941203846505 0.81091931303809783 0 0.55458114032207428 0.75544804615062711 0 0.60049020024666178 0.78900583008989877 0 0.6817340940367822 0.76923101696744944 0 0.70916369539323409 0.86041409043207073 0 0.80987878298654392 0.8110307373443908 0 0.6088970477846376 0.72715446211577472 0 0.60049020024666178 0.78900583008989877 0 0.6817340940367822 0.76923101696744944 0 0.60049020024666178 0.78900583008989877 0 0.6817340940367822 0.76923101696744944 0 0.64153141236229239 0.83072478436463804 0 0.70916369539323409 0.86041409043207073 0 0.64153141236229239 0.83072478436463804 0 0.63427031498547037 0.88927276979110648 0 0.6817340940367822 0.76923101696744944 0 0.70916369539323409 0.86041409043207073 0 0.64153141236229239 0.83072478436463804 0 0.70916369539323409 0.86041409043207073 0 0.68173274398262862 0.93660593960145366 0 0.63427031498547037 0.88927276979110648 0 0.60145933092659498 0.94808652648958736 0 0.68173274398262862 0.93660593960145366 0 0.63427031498547037 0.88927276979110648 0 0.70916369539323409 0.86041409043207073 0 0.68173274398262862 0.93660593960145366 0 0.78222494485339233 0.91531439423588867 0 0.68173274398262862 0.93660593960145366 0 0.72408407698689681 1 0 0.78222494485339233 0.91531439423588867 0 0.60145933092659498 0.94808652648958736 0 0.68173274398262862 0.93660593960145366 0 0.63938141097836054 1 0 0.68173274398262862 0.93660593960145366 0 0.72408407698689681 1 0 0.63938141097836054 1 0 1 1 0 0.89611933618281592 0.89173516444576184 0 1 0.74999999999934008 0 0.72408407698689681 1 0 0.84036581271988753 1 0 0.78222494485339233 0.91531439423588867 0 0.84036581271988753 1 0 0.78222494485339233 0.91531439423588867 0 0.89611933618281592 0.89173516444576184 0 0.6817340940367822 0.76923101696744944 0 0.80987878298654392 0.8110307373443908 0 0.7828103453665094 0.69876044407634474 0 0.80987878298654392 0.8110307373443908 0 0.7828103453665094 0.69876044407634474 0 1 0.74999999999934008 0 0.78222494485339233 0.91531439423588867 0 0.80987878298654392 0.8110307373443908 0 0.89611933618281592 0.89173516444576184 0 0.70916369539323409 0.86041409043207073 0 0.78222494485339233 0.91531439423588867 0 0.80987878298654392 0.8110307373443908 0 0.80987878298654392 0.8110307373443908 0 0.89611933618281592 0.89173516444576184 0 1 0.74999999999934008 0 0.84036581271988753 1 0 1 1 0 0.89611933618281592 0.89173516444576184 0 0.84549316180028322 0.59867304496468476 0 1 0.74999999999934008 0 1 0.49999999999869182 0 0.69354174170208815 0.57892485983477626 0 0.84549316180028322 0.59867304496468476 0 0.77935529174931761 0.49004815756283893 0 0.84549316180028322 0.59867304496468476 0 1 0.49999999999869182 0 0.77935529174931761 0.49004815756283893 0 0.69354174170208815 0.57892485983477626 0 0.84549316180028322 0.59867304496468476 0 0.7828103453665094 0.69876044407634474 0 0.84549316180028322 0.59867304496468476 0 0.7828103453665094 0.69876044407634474 0 1 0.74999999999934008 0 1 0.49999999999869182 0 0.77935529174931761 0.49004815756283893 0 0.80451351819826811 0.35479918680564199 0 0.80451351819826811 0.35479918680564199 0 1 0.24999999999941089 0 0.79923457477009219 0.1751534052300894 0 1 0.49999999999869182 0 0.80451351819826811 0.35479918680564199 0 1 0.24999999999941089 0 1 0 0 0.79923457477009219 0.1751534052300894 0 0.74999999999934008 0 0 1 0.24999999999941089 0 1 0 0 0.79923457477009219 0.1751534052300894 0 0.49999999999869182 0 0 0.62537763927714929 0.14286513648320209 0 0.74999999999934008 0 0 0.79923457477009219 0.1751534052300894 0 0.62537763927714929 0.14286513648320209 0 0.6197279975813802 0.30020319976287241 0 0.79923457477009219 0.1751534052300894 0 0.62537763927714929 0.14286513648320209 0 0.74999999999934008 0 0 0.49924741621175961 0.21507969613896921 0 0.49999999999869182 0 0 0.62537763927714929 0.14286513648320209 0 0.49924741621175961 0.21507969613896921 0 0.62537763927714929 0.14286513648320209 0 0.6197279975813802 0.30020319976287241 0 0.49924741621175961 0.21507969613896921 0 0.49435464945626773 0.33318442629318029 0 0.6197279975813802 0.30020319976287241 0 0.49435464945626773 0.33318442629318029 0 0.6197279975813802 0.30020319976287241 0 0.54876010062294855 0.39662628167175101 0 0.6197279975813802 0.30020319976287241 0 0.54876010062294855 0.39662628167175101 0 0.66576775508844777 0.41353720431697111 0 0.49954900152271581 0.45107191084564019 0 0.45418244162583959 0.41624787166862259 0 0.54876010062294855 0.39662628167175101 0 0.49954900152271581 0.45107191084564019 0 0.54876010062294855 0.39662628167175101 0 0.54128967150166729 0.47213012589832831 0 0.49954900152271581 0.45107191084564019 0 0.5 0.5 0 0.54128967150166729 0.47213012589832831 0 0.5 0.5 0 0.52629893369322589 0.51330452493555312 0 0.54128967150166729 0.47213012589832831 0 0.54876010062294855 0.39662628167175101 0 0.54128967150166729 0.47213012589832831 0 0.60345082206666756 0.47575908627627911 0 0.56199650931215228 0.51957997397013023 0 0.54128967150166729 0.47213012589832831 0 0.60345082206666756 0.47575908627627911 0 0.54876010062294855 0.39662628167175101 0 0.60345082206666756 0.47575908627627911 0 0.66576775508844777 0.41353720431697111 0 0.77935529174931761 0.49004815756283893 0 0.80451351819826811 0.35479918680564199 0 0.66576775508844777 0.41353720431697111 0 0.60345082206666756 0.47575908627627911 0 0.66576775508844777 0.41353720431697111 0 0.66681557370681976 0.49435464945626773 0 0.77935529174931761 0.49004815756283893 0 0.66576775508844777 0.41353720431697111 0 0.66681557370681976 0.49435464945626773 0 0.80451351819826811 0.35479918680564199 0 0.79923457477009219 0.1751534052300894 0 0.6197279975813802 0.30020319976287241 0 0.80451351819826811 0.35479918680564199 0 0.6197279975813802 0.30020319976287241 0 0.66576775508844777 0.41353720431697111 0 
</DataArray>
</Points>
<Cells>
<DataArray type="UInt32" Name="connectivity" format="ascii">
0 1 2 3 4 5 6 7 8 9 10 11 12 13 14 15 16 17 18 19 20 21 22 23 24 25 26 27 28 29 30 31 32 33 34 35 36 37 38 39 40 41 42 43 44 45 46 47 48 49 50 51 52 53 54 55 56 57 58 59 60 61 62 63 64 65 66 67 68 69 70 71 72 73 74 75 76 77 78 79 80 81 82 83 84 85 86 87 88 89 90 91 92 93 94 95 96 97 98 99 100 101 102 103 104 105 106 107 108 109 110 111 112 113 114 115 116 117 118 119 120 121 122 123 124 125 126 127 128 129 130 131 132 133 134 135 136 137 138 139 140 141 142 143 144 145 146 147 148 149 150 151 152 153 154 155 156 157 158 159 160 161 162 163 164 165 166 167 168 169 170 171 172 173 174 175 176 177 178 179 180 181 182 183 184 185 186 187 188 189 190 191 192 193 194 195 196 197 198 199 200 201 202 203 204 205 206 207 208 209 210 211 212 213 214 215 216 217 218 219 220 221 222 223 224 225 226 227 228 229 230 231 232 233 234 235 236 237 238 239 240 241 242 243 244 245 246 247 248 249 250 251 252 253 254 255 256 257 258 259 260 261 262 263 264 265 266 267 268 269 270 271 272 273 274 275 276 277 278 279 280 281 282 283 284 285 286 287 288 289 290 291 292 293 294 295 296 297 298 299 300 301 302 303 304 305 306 307 308 309 310 311 312 313 314 315 316 317 318 319 320 321 322 323 324 325 326 327 328 329 330 331 332 333 334 335 336 337 338 339 340 341 342 343 344 345 346 347 348 349 350 351 352 353 354 355 356 357 358 359 360 361 362 363 364 365 366 367 368 369 370 371 372 373 374 375 376 377 378 379 380 381 382 383 384 385 386 387 388 389 390 391 392 393 394 395 396 397 398 399 400 401 402 403 404 405 406 407 408 409 410 411 412 413 414 415 416 417 418 419 420 421 422 423 424 425 426 427 428 429 430 431 432 433 434 435 436 437 438 439 440 441 442 443 444 445 446 447 448 449 450 451 452 453 454 455 456 457 458 459 460 461 462 463 464 465 466 467 468 469 470 471 472 473 474 475 476 477 478 479 480 481 482 483 484 485 486 487 488 489 490 491 492 493 494 495 496 497 498 499 500 501 502 503 504 505 506 507 508 509 510 511 512 513 514 515 516 517 518 519 520 521 522 523 524 525 526 527 528 529 530 531 532 533 534 535 536 537 538 539 540 541 542 543 544 545 546 547 548 549 550 551 552 553 554 555 556 557 558 559 560 561 562 563 564 565 566 567 568 569 570 571 572 573 574 575 576 577 578 579 580 581 582 583 584 585 586 587 588 589 590 591 592 593 594 595 596 597 598 599 600 601 602 603 604 605 606 607 608 609 610 611 612 613 614 615 616 617 618 619 620 621 622 623 624 625 626 627 628 629 630 631 632 633 634 635 636 637 638 639 640 641 642 643 644 645 646 647 648 649 650 651 652 653 654 655 656 657 658 659 660 661 662 663 664 665 666 667 668 669 670 671 672 673 674 675 676 677 678 679 680 681 682 683 684 685 686 687 688 689 690 691 692 693 694 695 696 697 698 699 700 701 702 703 704 705 706 707 708 709 710 711 712 713 714 715 716 717 718 719 720 721 722 723 724 725 726 727 728 729 730 731 732 733 734 735 736 737 738 739 740 741 742 743 744 745 746 747 748 749 750 751 752 753 754 755 756 757 758 759 760 761 762 763 764 765 766 767 768 769 770 771 772 773 774 775 776 777 778 779 780 781 782 783 784 785 786 787 788 789 790 791 792 793 794 795 796 797 798 799 800 801 802 803 804 805 806 807 808 809 810 811 812 813 814 815 816 817 818 819 820 821 822 823 824 825 826 827 828 829 830 831 832 833 834 835 836 837 838 839 840 841 842 843 844 845 846 847 848 849 850 851 852 853 854 855 856 857 858 859 860 861 862 863 864 865 866 867 868 869 870 871 872 873 874 875 876 877 878 879 
</DataArray>
<DataArray type="UInt32" Name="offsets" format="ascii">
3 6 9 12 15 18 21 24 27 30 33 36 39 42 45 48 51 54 57 60 63 66 69 72 75 78 81 84 87 90 93 96 99 102 105 108 111 114 117 120 123 126 129 132 135 138 141 144 147 150 153 156 159 162 165 168 171 174 177 180 183 186 189 192 195 198 201 204 207 210 213 216 219 222 225 228 231 234 237 240 243 246 249 252 255 258 261 264 267 270 273 276 279 282 285 288 291 294 297 300 303 306 309 312 315 318 321 324 327 330 333 336 339 342 345 348 351 354 357 360 363 366 369 372 375 378 381 384 387 390 393 396 399 402 405 408 411 414 417 420 423 425 428 430 433 436 439 442 445 448 451 454 457 460 463 466 469 472 474 477 479 482 485 487 490 493 495 498 501 504 507 510 513 515 518 521 523 526 529 532 535 538 541 544 547 550 553 556 559 562 565 568 571 574 577 580 583 586 589 592 595 597 599 602 605 608 611 614 617 620 623 626 628 631 634 636 639 642 645 648 651 654 657 660 663 666 669 672 675 677 680 683 685 688 691 694 697 700 703 705 708 710 713 716 718 721 724 727 730 733 736 739 742 745 748 751 754 757 760 763 766 769 772 775 778 781 784 787 790 793 796 799 802 805 808 811 814 817 820 823 826 829 832 835 838 841 844 847 850 853 856 859 862 865 868 871 874 877 880 
</DataArray>
<DataArray type="UInt32" Name="types" format="ascii">
5 5 5 5 5 5 5 5 5 5 5 5 5 5 5 5 5 5 5 5 5 5 5 5 5 5 5 5 5 5 5 5 5 5 5 5 5 5 5 5 5 5 5 5 5 5 5 5 5 5 5 5 5 5 5 5 5 5 5 5 5 5 5 5 5 5 5 5 5 5 5 5 5 5 5 5 5 5 5 5 5 5 5 5 5 5 5 5 5 5 5 5 5 5 5 5 5 5 5 5 5 5 5 5 5 5 5 5 5 5 5 5 5 5 5 5 5 5 5 5 5 5 5 5 5 5 5 5 5 5 5 5 5 5 5 5 5 5 5 5 5 3 5 3 5 5 5 5 5 5 5 5 5 5 5 5 5 5 3 5 3 5 5 3 5 5 3 5 5 5 5 5 5 3 5 5 3 5 5 5 5 5 5 5 5 5 5 5 5 5 5 5 5 5 5 5 5 5 5 5 5 3 3 5 5 5 5 5 5 5 5 5 3 5 5 3 5 5 5 5 5 5 5 5 5 5 5 5 5 3 5 5 3 5 5 5 5 5 5 3 5 3 5 5 3 5 5 5 5 5 5 5 5 5 5 5 5 5 5 5 5 5 5 5 5 5 5 5 5 5 5 5 5 5 5 5 5 5 5 5 5 5 5 5 5 5 5 5 5 5 5 5 5 5 5 5 5 5 5 
</DataArray>
</Cells>
<PointData Scalars="" Vectors="displacement," Tensors="">
<DataArray type="Float64" Name="displacement" NumberOfComponents="3" format="ascii">
-3.1370792735151343e-11 -1.17166216884738e-11 0 -2.283896811156298e-09 -2.6605826447748525e-08 0 2.8739110718232432e-12 -1.1936877516611146e-11 0 -3.1370792735151343e-11 -1.17166216884738e-11 0 -2.283896811156298e-09 -2.6605826447748525e-08 0 -8.8678937901612504e-09 -3.3850743761808076e-08 0 -8.8678937901612504e-09 -3.3850743761808076e-08 0 -2.3768407557760013e-09 -4.4675148017001667e-08 0 4.9406966671275601e-11 -4.7910963378524138e-08 0 -2.283896811156298e-09 -2.6605826447748525e-08 0 -8.8678937901612504e-09 -3.3850743761808076e-08 0 -2.3768407557760013e-09 -4.4675148017001667e-08 0 -2.3768407557760013e-09 -4.4675148017001667e-08 0 4.0381755945914852e-10 -5.0879728505609056e-08 0 4.9406966671275601e-11 -4.7910963378524138e-08 0 -2.3768407557760013e-09 -4.4675148017001667e-08 0 4.0381755945914852e-10 -5.0879728505609056e-08 0 -2.2119820316831258e-09 -5.2702235797444201e-08 0 -3.3302273280762495e-09 -5.5600461617006559e-08 0 -3.5498141021098828e-09 -6.4673265262141101e-08 0 -1.2924269830870712e-09 -6.0916729789782783e-08 0 -3.3302273280762495e-09 -5.5600461617006559e-08 0 -1.2924269830870712e-09 -6.0916729789782783e-08 0 -2.2119820316831258e-09 -5.2702235797444201e-08 0 -3.5498141021098828e-09 -6.4673265262141101e-08 0 -1.5829577217971529e-09 -6.6570251443882352e-08 0 -1.2924269830870712e-09 -6.0916729789782783e-08 0 -3.5498141021098828e-09 -6.4673265262141101e-08 0 -1.5829577217971529e-09 -6.6570251443882352e-08 0 -2.7532106923031391e-09 -7.0794838328425115e-08 0 -1.5829577217971529e-09 -6.6570251443882352e-08 0 1.0627976643799793e-10 -6.3995931374041372e-08 0 -1.3011593650180435e-10 -6.8928283528093584e-08 0 -1.5829577217971529e-09 -6.6570251443882352e-08 0 -2.7532106923031391e-09 -7.0794838328425115e-08 0 -1.3011593650180435e-10 -6.8928283528093584e-08 0 -1.5829577217971529e-09 -6.6570251443882352e-08 0 1.0627976643799793e-10 -6.3995931374041372e-08 0 -1.2924269830870712e-09 -6.0916729789782783e-08 0 -1.2924269830870712e-09 -6.0916729789782783e-08 0 -1.4791908827383725e-10 -5.5999069741199386e-08 0 1.5763555379446482e-09 -5.9129121531018218e-08 0 -1.2924269830870712e-09 -6.0916729789782783e-08 0 -1.4791908827383725e-10 -5.5999069741199386e-08 0 -2.2119820316831258e-09 -5.2702235797444201e-08 0 4.0381755945914852e-10 -5.0879728505609056e-08 0 -1.4791908827383725e-10 -5.5999069741199386e-08 0 -2.2119820316831258e-09 -5.2702235797444201e-08 0 -2.3768407557760013e-09 -4.4675148017001667e-08 0 -2.2119820316831258e-09 -5.2702235797444201e-08 0 -3.4208057099373179e-09 -4.3527871689927956e-08 0 -3.3302273280762495e-09 -5.5600461617006559e-08 0 -2.2119820316831258e-09 -5.2702235797444201e-08 0 -3.4208057099373179e-09 -4.3527871689927956e-08 0 -2.283896811156298e-09 -2.6605826447748525e-08 0 -2.3768407557760013e-09 -4.4675148017001667e-08 0 -3.4208057099373179e-09 -4.3527871689927956e-08 0 -3.4208057099373179e-09 -4.3527871689927956e-08 0 -6.1236314383948454e-09 -5.5479180821591811e-08 0 -4.11966005414906e-09 -2.9646885269514975e-08 0 -3.3302273280762495e-09 -5.5600461617006559e-08 0 -3.4208057099373179e-09 -4.3527871689927956e-08 0 -6.1236314383948454e-09 -5.5479180821591811e-08 0 -3.3302273280762495e-09 -5.5600461617006559e-08 0 -3.5498141021098828e-09 -6.4673265262141101e-08 0 -6.1236314383948454e-09 -5.5479180821591811e-08 0 -4.11966005414906e-09 -2.9646885269514975e-08 0 2.8739110718232432e-12 -1.1936877516611146e-11 0 -1.117579972677428e-11 -1.9266753575133056e-11 0 -4.11966005414906e-09 -2.9646885269514975e-08 0 -1.117579972677428e-11 -1.9266753575133056e-11 0 -6.4773380182667586e-09 -4.0581857922772208e-08 0 -6.1236314383948454e-09 -5.5479180821591811e-08 0 -4.11966005414906e-09 -2.9646885269514975e-08 0 -6.4773380182667586e-09 -4.0581857922772208e-08 0 -2.283896811156298e-09 -2.6605826447748525e-08 0 -3.4208057099373179e-09 -4.3527871689927956e-08 0 -4.11966005414906e-09 -2.9646885269514975e-08 0 -2.283896811156298e-09 -2.6605826447748525e-08 0 -4.11966005414906e-09 -2.9646885269514975e-08 0 2.8739110718232432e-12 -1.1936877516611146e-11 0 -1.117579972677428e-11 -1.9266753575133056e-11 0 -7.182072877517888e-09 -3.5420283378703041e-08 0 -1.1678099875060043e-11 -4.9495206340308074e-12 0 -7.182072877517888e-09 -3.5420283378703041e-08 0 -7.91941822575279e-09 -4.5287913124341323e-08 0 -1.1678099875060043e-11 -4.9495206340308074e-12 0 -7.182072877517888e-09 -3.5420283378703041e-08 0 -7.91941822575279e-09 -4.5287913124341323e-08 0 -1.1585050497077285e-08 -6.6635836639529862e-08 0 -7.182072877517888e-09 -3.5420283378703041e-08 0 -6.4773380182667586e-09 -4.0581857922772208e-08 0 -9.3253490840585103e-09 -6.186270255303425e-08 0 -1.117579972677428e-11 -1.9266753575133056e-11 0 -7.182072877517888e-09 -3.5420283378703041e-08 0 -6.4773380182667586e-09 -4.0581857922772208e-08 0 5.3653659743944797e-11 -1.5499348055351598e-11 0 5.7995263731375323e-09 -1.3368573138588977e-08 0 -1.1678099875060043e-11 -4.9495206340308074e-12 0 5.3653659743944797e-11 -1.5499348055351598e-11 0 5.7995263731375323e-09 -1.3368573138588977e-08 0 2.9318824393337801e-08 -3.0385838330069979e-08 0 5.7995263731375323e-09 -1.3368573138588977e-08 0 -1.1678099875060043e-11 -4.9495206340308074e-12 0 -6.3913645225792186e-10 -2.9653421020716139e-08 0 -6.3913645225792186e-10 -2.9653421020716139e-08 0 2.0317124987092273e-08 -4.9490329245517712e-08 0 -4.9183244068586464e-09 -6.0122103984738313e-08 0 -7.91941822575279e-09 -4.5287913124341323e-08 0 -1.1678099875060043e-11 -4.9495206340308074e-12 0 -6.3913645225792186e-10 -2.9653421020716139e-08 0 -7.91941822575279e-09 -4.5287913124341323e-08 0 -6.3913645225792186e-10 -2.9653421020716139e-08 0 -4.9183244068586464e-09 -6.0122103984738313e-08 0 5.7995263731375323e-09 -1.3368573138588977e-08 0 -6.3913645225792186e-10 -2.9653421020716139e-08 0 2.0317124987092273e-08 -4.9490329245517712e-08 0 5.7995263731375323e-09 -1.3368573138588977e-08 0 2.0317124987092273e-08 -4.9490329245517712e-08 0 2.9318824393337801e-08 -3.0385838330069979e-08 0 2.0317124987092273e-08 -4.9490329245517712e-08 0 2.9318824393337801e-08 -3.0385838330069979e-08 0 4.8677370759134649e-08 -6.438404050810014e-08 0 6.6411698897226203e-08 -1.0294000439364629e-07 0 2.9913745227363423e-08 -8.3754729189035818e-08 0 4.8677370759134649e-08 -6.438404050810014e-08 0 6.6411698897226203e-08 -1.0294000439364629e-07 0 2.9913745227363423e-08 -8.3754729189035818e-08 0 3.7473327462221561e-08 -1.2378052141076132e-07 0 2.0317124987092273e-08 -4.9490329245517712e-08 0 2.9913745227363423e-08 -8.3754729189035818e-08 0 4.8677370759134649e-08 -6.438404050810014e-08 0 2.0317124987092273e-08 -4.9490329245517712e-08 0 2.9913745227363423e-08 -8.3754729189035818e-08 0 8.2665675278925583e-09 -7.9058212069871305e-08 0 2.9913745227363423e-08 -8.3754729189035818e-08 0 9.8565243612229896e-09 -1.1140153910819096e-07 0 3.7473327462221561e-08 -1.2378052141076132e-07 0 2.9913745227363423e-08 -8.3754729189035818e-08 0 8.2665675278925583e-09 -7.9058212069871305e-08 0 9.8565243612229896e-09 -1.1140153910819096e-07 0 2.0317124987092273e-08 -4.9490329245517712e-08 0 8.2665675278925583e-09 -7.9058212069871305e-08 0 -4.9183244068586464e-09 -6.0122103984738313e-08 0 8.2665675278925583e-09 -7.9058212069871305e-08 0 -6.6008754733935709e-09 -9.7944296339091782e-08 0 9.8565243612229896e-09 -1.1140153910819096e-07 0 8.2665675278925583e-09 -7.9058212069871305e-08 0 -6.6008754733935709e-09 -9.7944296339091782e-08 0 -4.9183244068586464e-09 -6.0122103984738313e-08 0 -7.91941822575279e-09 -4.5287913124341323e-08 0 -4.9183244068586464e-09 -6.0122103984738313e-08 0 -1.0980341911239159e-08 -7.7174013941317291e-08 0 -6.6008754733935709e-09 -9.7944296339091782e-08 0 -4.9183244068586464e-09 -6.0122103984738313e-08 0 -1.0980341911239159e-08 -7.7174013941317291e-08 0 -6.6008754733935709e-09 -9.7944296339091782e-08 0 -1.0589930391985442e-08 -1.017461986642391e-07 0 -1.0980341911239159e-08 -7.7174013941317291e-08 0 -6.6008754733935709e-09 -9.7944296339091782e-08 0 -1.0589930391985442e-08 -1.017461986642391e-07 0 -6.6228517734771029e-09 -1.2635030491045958e-07 0 -1.0589930391985442e-08 -1.017461986642391e-07 0 -6.6228517734771029e-09 -1.2635030491045958e-07 0 -6.9422633318202433e-09 -1.2032727310411419e-07 0 -1.0589930391985442e-08 -1.017461986642391e-07 0 -6.9422633318202433e-09 -1.2032727310411419e-07 0 -9.226914967931081e-09 -1.0349185880365325e-07 0 -6.9422633318202433e-09 -1.2032727310411419e-07 0 -3.3397260315483133e-09 -1.2915760714470295e-07 0 -5.2954484581325687e-09 -1.1838367456467174e-07 0 -3.3397260315483133e-09 -1.2915760714470295e-07 0 -5.2954484581325687e-09 -1.1838367456467174e-07 0 -1.2443889199592103e-09 -1.270211082073236e-07 0 -3.3397260315483133e-09 -1.2915760714470295e-07 0 2.042376806150043e-10 -1.3900155508564916e-07 0 -1.2443889199592103e-09 -1.270211082073236e-07 0 -3.0640024103093274e-09 -1.3898660035888702e-07 0 2.0730859992598486e-09 -1.5319738538449058e-07 0 2.042376806150043e-10 -1.3900155508564916e-07 0 -3.3397260315483133e-09 -1.2915760714470295e-07 0 -3.0640024103093274e-09 -1.3898660035888702e-07 0 2.042376806150043e-10 -1.3900155508564916e-07 0 -6.9422633318202433e-09 -1.2032727310411419e-07 0 -3.3397260315483133e-09 -1.2915760714470295e-07 0 -3.0640024103093274e-09 -1.3898660035888702e-07 0 -6.6228517734771029e-09 -1.2635030491045958e-07 0 -6.9422633318202433e-09 -1.2032727310411419e-07 0 -3.0640024103093274e-09 -1.3898660035888702e-07 0 -6.6228517734771029e-09 -1.2635030491045958e-07 0 -3.0640024103093274e-09 -1.3898660035888702e-07 0 -2.3961640792270581e-09 -1.4961934669935825e-07 0 -6.6228517734771029e-09 -1.2635030491045958e-07 0 -2.3961640792270581e-09 -1.4961934669935825e-07 0 -1.4539726089849627e-09 -1.4176847270168423e-07 0 -2.3961640792270581e-09 -1.4961934669935825e-07 0 6.2599875070807674e-09 -1.6984812976390822e-07 0 2.0730859992598486e-09 -1.5319738538449058e-07 0 -3.0640024103093274e-09 -1.3898660035888702e-07 0 -2.3961640792270581e-09 -1.4961934669935825e-07 0 2.0730859992598486e-09 -1.5319738538449058e-07 0 -2.3961640792270581e-09 -1.4961934669935825e-07 0 2.8956945665677351e-09 -1.6751034245172346e-07 0 6.2599875070807674e-09 -1.6984812976390822e-07 0 2.8956945665677351e-09 -1.6751034245172346e-07 0 1.0978449361183853e-08 -1.9108593325427645e-07 0 6.2599875070807674e-09 -1.6984812976390822e-07 0 -2.3961640792270581e-09 -1.4961934669935825e-07 0 2.8956945665677351e-09 -1.6751034245172346e-07 0 -1.4539726089849627e-09 -1.4176847270168423e-07 0 -6.6008754733935709e-09 -9.7944296339091782e-08 0 -1.4539726089849627e-09 -1.4176847270168423e-07 0 9.8565243612229896e-09 -1.1140153910819096e-07 0 -6.6008754733935709e-09 -9.7944296339091782e-08 0 -6.6228517734771029e-09 -1.2635030491045958e-07 0 -1.4539726089849627e-09 -1.4176847270168423e-07 0 9.8565243612229896e-09 -1.1140153910819096e-07 0 1.4301079426003305e-08 -1.5398341588180763e-07 0 3.7473327462221561e-08 -1.2378052141076132e-07 0 -1.4539726089849627e-09 -1.4176847270168423e-07 0 9.8565243612229896e-09 -1.1140153910819096e-07 0 1.4301079426003305e-08 -1.5398341588180763e-07 0 2.8956945665677351e-09 -1.6751034245172346e-07 0 -1.4539726089849627e-09 -1.4176847270168423e-07 0 5.5345039602628492e-09 -1.7753418065669572e-07 0 -1.4539726089849627e-09 -1.4176847270168423e-07 0 1.4301079426003305e-08 -1.5398341588180763e-07 0 5.5345039602628492e-09 -1.7753418065669572e-07 0 2.8956945665677351e-09 -1.6751034245172346e-07 0 5.5345039602628492e-09 -1.7753418065669572e-07 0 1.0978449361183853e-08 -1.9108593325427645e-07 0 5.5345039602628492e-09 -1.7753418065669572e-07 0 1.771283631257612e-08 -2.1642123517982095e-07 0 1.0978449361183853e-08 -1.9108593325427645e-07 0 5.5345039602628492e-09 -1.7753418065669572e-07 0 1.5217094414328525e-08 -2.0514760491809088e-07 0 1.771283631257612e-08 -2.1642123517982095e-07 0 1.5217094414328525e-08 -2.0514760491809088e-07 0 3.0871348206774306e-08 -2.5390937406803224e-07 0 1.771283631257612e-08 -2.1642123517982095e-07 0 1.4301079426003305e-08 -1.5398341588180763e-07 0 5.5345039602628492e-09 -1.7753418065669572e-07 0 1.5217094414328525e-08 -2.0514760491809088e-07 0 1.5217094414328525e-08 -2.0514760491809088e-07 0 4.2459049556766088e-08 -1.8397688158759043e-07 0 3.2792507312234952e-08 -2.3558653281024125e-07 0 1.4301079426003305e-08 -1.5398341588180763e-07 0 1.5217094414328525e-08 -2.0514760491809088e-07 0 4.2459049556766088e-08 -1.8397688158759043e-07 0 4.2459049556766088e-08 -1.8397688158759043e-07 0 3.2792507312234952e-08 -2.3558653281024125e-07 0 5.9595457136561281e-08 -2.5601867915940214e-07 0 1.5217094414328525e-08 -2.0514760491809088e-07 0 3.2792507312234952e-08 -2.3558653281024125e-07 0 3.0871348206774306e-08 -2.5390937406803224e-07 0 3.2792507312234952e-08 -2.3558653281024125e-07 0 5.9595457136561281e-08 -2.5601867915940214e-07 0 5.0730884211995011e-08 -3.1512880809108432e-07 0 3.2792507312234952e-08 -2.3558653281024125e-07 0 5.0730884211995011e-08 -3.1512880809108432e-07 0 3.0871348206774306e-08 -2.5390937406803224e-07 0 5.9595457136561281e-08 -2.5601867915940214e-07 0 1.0934079735840492e-07 -2.2502156866529812e-07 0 1.1938245175404961e-07 -3.7279128209054325e-07 0 5.9595457136561281e-08 -2.5601867915940214e-07 0 5.0730884211995011e-08 -3.1512880809108432e-07 0 1.1938245175404961e-07 -3.7279128209054325e-07 0 4.2459049556766088e-08 -1.8397688158759043e-07 0 5.9595457136561281e-08 -2.5601867915940214e-07 0 1.0934079735840492e-07 -2.2502156866529812e-07 0 4.2459049556766088e-08 -1.8397688158759043e-07 0 1.0934079735840492e-07 -2.2502156866529812e-07 0 8.6363096984262285e-08 -1.5263656106892624e-07 0 4.2459049556766088e-08 -1.8397688158759043e-07 0 8.6363096984262285e-08 -1.5263656106892624e-07 0 3.7473327462221561e-08 -1.2378052141076132e-07 0 1.4301079426003305e-08 -1.5398341588180763e-07 0 4.2459049556766088e-08 -1.8397688158759043e-07 0 3.7473327462221561e-08 -1.2378052141076132e-07 0 6.6411698897226203e-08 -1.0294000439364629e-07 0 8.6363096984262285e-08 -1.5263656106892624e-07 0 3.7473327462221561e-08 -1.2378052141076132e-07 0 -9.3253490840585103e-09 -6.186270255303425e-08 0 -1.0086429023494305e-08 -7.8331711474625859e-08 0 -6.3660053604260969e-09 -7.3692737799567546e-08 0 -6.1236314383948454e-09 -5.5479180821591811e-08 0 -9.3253490840585103e-09 -6.186270255303425e-08 0 -6.3660053604260969e-09 -7.3692737799567546e-08 0 -6.1236314383948454e-09 -5.5479180821591811e-08 0 -6.4773380182667586e-09 -4.0581857922772208e-08 0 -9.3253490840585103e-09 -6.186270255303425e-08 0 -7.182072877517888e-09 -3.5420283378703041e-08 0 -9.3253490840585103e-09 -6.186270255303425e-08 0 -1.1585050497077285e-08 -6.6635836639529862e-08 0 -7.91941822575279e-09 -4.5287913124341323e-08 0 -1.0980341911239159e-08 -7.7174013941317291e-08 0 -1.1585050497077285e-08 -6.6635836639529862e-08 0 -1.0589930391985442e-08 -1.017461986642391e-07 0 -1.0980341911239159e-08 -7.7174013941317291e-08 0 -1.1347457019629428e-08 -8.7017514975819545e-08 0 -1.0980341911239159e-08 -7.7174013941317291e-08 0 -1.1585050497077285e-08 -6.6635836639529862e-08 0 -1.1347457019629428e-08 -8.7017514975819545e-08 0 -9.3253490840585103e-09 -6.186270255303425e-08 0 -1.1585050497077285e-08 -6.6635836639529862e-08 0 -1.0086429023494305e-08 -7.8331711474625859e-08 0 -1.1585050497077285e-08 -6.6635836639529862e-08 0 -1.0086429023494305e-08 -7.8331711474625859e-08 0 -1.1347457019629428e-08 -8.7017514975819545e-08 0 -1.0086429023494305e-08 -7.8331711474625859e-08 0 -1.1347457019629428e-08 -8.7017514975819545e-08 0 -8.6346628825652786e-09 -9.1836698203454449e-08 0 -1.0086429023494305e-08 -7.8331711474625859e-08 0 -8.6346628825652786e-09 -9.1836698203454449e-08 0 -7.0893953740837855e-09 -8.3546616295288507e-08 0 -1.0589930391985442e-08 -1.017461986642391e-07 0 -1.1347457019629428e-08 -8.7017514975819545e-08 0 -9.226914967931081e-09 -1.0349185880365325e-07 0 -1.1347457019629428e-08 -8.7017514975819545e-08 0 -9.226914967931081e-09 -1.0349185880365325e-07 0 -8.6346628825652786e-09 -9.1836698203454449e-08 0 -9.226914967931081e-09 -1.0349185880365325e-07 0 -5.6423326472856286e-09 -1.1053663809065897e-07 0 -5.2954484581325687e-09 -1.1838367456467174e-07 0 -6.9422633318202433e-09 -1.2032727310411419e-07 0 -9.226914967931081e-09 -1.0349185880365325e-07 0 -5.2954484581325687e-09 -1.1838367456467174e-07 0 -9.226914967931081e-09 -1.0349185880365325e-07 0 -7.2923850753656882e-09 -1.02311159669311e-07 0 -8.6346628825652786e-09 -9.1836698203454449e-08 0 -9.226914967931081e-09 -1.0349185880365325e-07 0 -7.2923850753656882e-09 -1.02311159669311e-07 0 -5.6423326472856286e-09 -1.1053663809065897e-07 0 -7.2923850753656882e-09 -1.02311159669311e-07 0 -5.6423326472856286e-09 -1.1053663809065897e-07 0 -3.6172247765286946e-09 -1.0790180270258072e-07 0 -7.2923850753656882e-09 -1.02311159669311e-07 0 -4.3874494501936761e-09 -9.9970529737947678e-08 0 -3.6172247765286946e-09 -1.0790180270258072e-07 0 -5.6423326472856286e-09 -1.1053663809065897e-07 0 -2.9356566875517209e-09 -1.1683158061097312e-07 0 -3.6172247765286946e-09 -1.0790180270258072e-07 0 -5.2954484581325687e-09 -1.1838367456467174e-07 0 -2.9356566875517209e-09 -1.1683158061097312e-07 0 -1.2443889199592103e-09 -1.270211082073236e-07 0 -5.6423326472856286e-09 -1.1053663809065897e-07 0 -5.2954484581325687e-09 -1.1838367456467174e-07 0 -2.9356566875517209e-09 -1.1683158061097312e-07 0 -8.6346628825652786e-09 -9.1836698203454449e-08 0 -6.1843672166876382e-09 -9.5633456549123247e-08 0 -6.2138501725607544e-09 -8.939378603678777e-08 0 -8.6346628825652786e-09 -9.1836698203454449e-08 0 -6.2138501725607544e-09 -8.939378603678777e-08 0 -7.0893953740837855e-09 -8.3546616295288507e-08 0 -7.2923850753656882e-09 -1.02311159669311e-07 0 -8.6346628825652786e-09 -9.1836698203454449e-08 0 -6.1843672166876382e-09 -9.5633456549123247e-08 0 -7.2923850753656882e-09 -1.02311159669311e-07 0 -6.1843672166876382e-09 -9.5633456549123247e-08 0 -4.3874494501936761e-09 -9.9970529737947678e-08 0 -6.1843672166876382e-09 -9.5633456549123247e-08 0 -4.3738625043579936e-09 -9.2942361297586191e-08 0 -4.3874494501936761e-09 -9.9970529737947678e-08 0 -6.1843672166876382e-09 -9.5633456549123247e-08 0 -6.2138501725607544e-09 -8.939378603678777e-08 0 -4.3738625043579936e-09 -9.2942361297586191e-08 0 -6.2138501725607544e-09 -8.939378603678777e-08 0 -4.1623991762535729e-09 -8.6727414174932632e-08 0 -4.3738625043579936e-09 -9.2942361297586191e-08 0 -5.1892742693127093e-09 -8.431138398751432e-08 0 -3.3374827677035064e-09 -8.1294309326957863e-08 0 -4.1623991762535729e-09 -8.6727414174932632e-08 0 -6.2138501725607544e-09 -8.939378603678777e-08 0 -5.1892742693127093e-09 -8.431138398751432e-08 0 -4.1623991762535729e-09 -8.6727414174932632e-08 0 -4.6441133859169894e-09 -7.9439781836438856e-08 0 -2.6422356274179937e-09 -7.6636100118020003e-08 0 -3.3374827677035064e-09 -8.1294309326957863e-08 0 -5.1892742693127093e-09 -8.431138398751432e-08 0 -4.6441133859169894e-09 -7.9439781836438856e-08 0 -3.3374827677035064e-09 -8.1294309326957863e-08 0 -4.6441133859169894e-09 -7.9439781836438856e-08 0 -7.0893953740837855e-09 -8.3546616295288507e-08 0 -6.3660053604260969e-09 -7.3692737799567546e-08 0 -5.1892742693127093e-09 -8.431138398751432e-08 0 -4.6441133859169894e-09 -7.9439781836438856e-08 0 -7.0893953740837855e-09 -8.3546616295288507e-08 0 -6.2138501725607544e-09 -8.939378603678777e-08 0 -5.1892742693127093e-09 -8.431138398751432e-08 0 -7.0893953740837855e-09 -8.3546616295288507e-08 0 -1.0086429023494305e-08 -7.8331711474625859e-08 0 -7.0893953740837855e-09 -8.3546616295288507e-08 0 -6.3660053604260969e-09 -7.3692737799567546e-08 0 -3.5498141021098828e-09 -6.4673265262141101e-08 0 -6.1236314383948454e-09 -5.5479180821591811e-08 0 -6.3660053604260969e-09 -7.3692737799567546e-08 0 -3.5498141021098828e-09 -6.4673265262141101e-08 0 -6.3660053604260969e-09 -7.3692737799567546e-08 0 -2.7532106923031391e-09 -7.0794838328425115e-08 0 -6.3660053604260969e-09 -7.3692737799567546e-08 0 -2.7532106923031391e-09 -7.0794838328425115e-08 0 -3.7149970936027708e-09 -7.5208981053083084e-08 0 -4.6441133859169894e-09 -7.9439781836438856e-08 0 -6.3660053604260969e-09 -7.3692737799567546e-08 0 -3.7149970936027708e-09 -7.5208981053083084e-08 0 -4.6441133859169894e-09 -7.9439781836438856e-08 0 -3.7149970936027708e-09 -7.5208981053083084e-08 0 -2.6422356274179937e-09 -7.6636100118020003e-08 0 -3.7149970936027708e-09 -7.5208981053083084e-08 0 -1.644377575445008e-09 -7.2500591715595067e-08 0 -2.6422356274179937e-09 -7.6636100118020003e-08 0 -2.7532106923031391e-09 -7.0794838328425115e-08 0 -3.7149970936027708e-09 -7.5208981053083084e-08 0 -1.644377575445008e-09 -7.2500591715595067e-08 0 -2.7532106923031391e-09 -7.0794838328425115e-08 0 -1.3011593650180435e-10 -6.8928283528093584e-08 0 -1.644377575445008e-09 -7.2500591715595067e-08 0 1.4491590581376696e-09 -7.2415254351728167e-08 0 1.9647955566398014e-09 -7.0612553677802757e-08 0 3.1958707000087105e-09 -7.4593890365709861e-08 0 -1.3011593650180435e-10 -6.8928283528093584e-08 0 1.4491590581376696e-09 -7.2415254351728167e-08 0 1.9647955566398014e-09 -7.0612553677802757e-08 0 -1.224730259508628e-10 -6.9875253148655592e-08 0 -1.0344183846677823e-10 -7.2366328320825216e-08 0 1.4491590581376696e-09 -7.2415254351728167e-08 0 2.159963209346843e-09 -7.6551840469781954e-08 0 3.1958707000087105e-09 -7.4593890365709861e-08 0 -1.0344183846677823e-10 -7.2366328320825216e-08 0 -2.357817277032534e-10 -7.6563831070593968e-08 0 2.159963209346843e-09 -7.6551840469781954e-08 0 3.1958707000087105e-09 -7.4593890365709861e-08 0 3.7305321862452779e-09 -7.8971808900079781e-08 0 3.1958707000087105e-09 -7.4593890365709861e-08 0 3.7983806298270072e-09 -6.9659431061518763e-08 0 5.7051376801673568e-09 -7.7306788157354532e-08 0 1.9647955566398014e-09 -7.0612553677802757e-08 0 3.7983806298270072e-09 -6.9659431061518763e-08 0 1.7733471323570581e-09 -6.5631254296090619e-08 0 1.9647955566398014e-09 -7.0612553677802757e-08 0 3.1958707000087105e-09 -7.4593890365709861e-08 0 3.7983806298270072e-09 -6.9659431061518763e-08 0 3.7983806298270072e-09 -6.9659431061518763e-08 0 6.4871743521964373e-09 -6.771218865657629e-08 0 3.9518729622031214e-09 -6.1684417877630784e-08 0 3.7983806298270072e-09 -6.9659431061518763e-08 0 6.4871743521964373e-09 -6.771218865657629e-08 0 5.7051376801673568e-09 -7.7306788157354532e-08 0 6.4871743521964373e-09 -6.771218865657629e-08 0 8.8931058577740358e-09 -7.5697647215758956e-08 0 5.7051376801673568e-09 -7.7306788157354532e-08 0 8.8931058577740358e-09 -7.5697647215758956e-08 0 5.7051376801673568e-09 -7.7306788157354532e-08 0 6.8971452901347318e-09 -8.7147876110867342e-08 0 5.7051376801673568e-09 -7.7306788157354532e-08 0 4.6321912716716733e-09 -8.3722159073056282e-08 0 6.8971452901347318e-09 -8.7147876110867342e-08 0 4.6321912716716733e-09 -8.3722159073056282e-08 0 4.6546016669200884e-09 -8.9434546792484847e-08 0 6.8971452901347318e-09 -8.7147876110867342e-08 0 3.1958707000087105e-09 -7.4593890365709861e-08 0 5.7051376801673568e-09 -7.7306788157354532e-08 0 3.7305321862452779e-09 -7.8971808900079781e-08 0 5.7051376801673568e-09 -7.7306788157354532e-08 0 3.7305321862452779e-09 -7.8971808900079781e-08 0 4.6321912716716733e-09 -8.3722159073056282e-08 0 3.7305321862452779e-09 -7.8971808900079781e-08 0 2.8277694892659976e-09 -8.1325236787646161e-08 0 4.6321912716716733e-09 -8.3722159073056282e-08 0 2.159963209346843e-09 -7.6551840469781954e-08 0 3.7305321862452779e-09 -7.8971808900079781e-08 0 2.8277694892659976e-09 -8.1325236787646161e-08 0 -2.357817277032534e-10 -7.6563831070593968e-08 0 -2.6885112005748071e-10 -8.1326039797677786e-08 0 4.6321912716716733e-09 -8.3722159073056282e-08 0 3.0407290078037933e-09 -8.6689015123234695e-08 0 4.6546016669200884e-09 -8.9434546792484847e-08 0 -2.6885112005748071e-10 -8.1326039797677786e-08 0 -5.4183880130228254e-10 -8.6764965866882253e-08 0 2.8277694892659976e-09 -8.1325236787646161e-08 0 4.6321912716716733e-09 -8.3722159073056282e-08 0 3.0407290078037933e-09 -8.6689015123234695e-08 0 3.0407290078037933e-09 -8.6689015123234695e-08 0 4.6546016669200884e-09 -8.9434546792484847e-08 0 3.347302813417508e-09 -9.2686554555372741e-08 0 -5.4183880130228254e-10 -8.6764965866882253e-08 0 -5.1640778579095262e-10 -9.2936960204078051e-08 0 4.6546016669200884e-09 -8.9434546792484847e-08 0 3.347302813417508e-09 -9.2686554555372741e-08 0 5.4223423667351679e-09 -9.5365293866714457e-08 0 3.347302813417508e-09 -9.2686554555372741e-08 0 3.2417828357542616e-09 -9.9492638927566934e-08 0 5.4223423667351679e-09 -9.5365293866714457e-08 0 -5.1640778579095262e-10 -9.2936960204078051e-08 0 -5.4862367955345334e-10 -9.9924716733015264e-08 0 3.2417828357542616e-09 -9.9492638927566934e-08 0 5.4223423667351679e-09 -9.5365293866714457e-08 0 5.074175165897796e-09 -1.0263906560934274e-07 0 5.4223423667351679e-09 -9.5365293866714457e-08 0 5.074175165897796e-09 -1.0263906560934274e-07 0 7.9125317671413081e-09 -9.9139261387401827e-08 0 5.4223423667351679e-09 -9.5365293866714457e-08 0 6.8971452901347318e-09 -8.7147876110867342e-08 0 7.9125317671413081e-09 -9.9139261387401827e-08 0 4.6546016669200884e-09 -8.9434546792484847e-08 0 5.4223423667351679e-09 -9.5365293866714457e-08 0 6.8971452901347318e-09 -8.7147876110867342e-08 0 2.5985054832047277e-09 -1.1602352474606314e-07 0 5.4561399128074162e-09 -1.0990176424770092e-07 0 4.5436651236443697e-09 -1.1978680103564376e-07 0 2.5985054832047277e-09 -1.1602352474606314e-07 0 5.4561399128074162e-09 -1.0990176424770092e-07 0 3.2166620764061423e-09 -1.0718778896985752e-07 0 -1.4728791312122525e-10 -1.1681279000296742e-07 0 -2.1246922948471034e-10 -1.0781945302534849e-07 0 5.4561399128074162e-09 -1.0990176424770092e-07 0 3.2166620764061423e-09 -1.0718778896985752e-07 0 5.074175165897796e-09 -1.0263906560934274e-07 0 3.2417828357542616e-09 -9.9492638927566934e-08 0 3.2166620764061423e-09 -1.0718778896985752e-07 0 5.074175165897796e-09 -1.0263906560934274e-07 0 -5.4862367955345334e-10 -9.9924716733015264e-08 0 -2.1246922948471034e-10 -1.0781945302534849e-07 0 5.4561399128074162e-09 -1.0990176424770092e-07 0 5.074175165897796e-09 -1.0263906560934274e-07 0 7.9125317671413081e-09 -9.9139261387401827e-08 0 5.4561399128074162e-09 -1.0990176424770092e-07 0 4.5436651236443697e-09 -1.1978680103564376e-07 0 7.8553340596296542e-09 -1.1505369039840078e-07 0 5.4561399128074162e-09 -1.0990176424770092e-07 0 7.9125317671413081e-09 -9.9139261387401827e-08 0 7.8553340596296542e-09 -1.1505369039840078e-07 0 7.9125317671413081e-09 -9.9139261387401827e-08 0 1.0857119564687288e-08 -9.4493345659477888e-08 0 7.8553340596296542e-09 -1.1505369039840078e-07 0 7.9125317671413081e-09 -9.9139261387401827e-08 0 1.0857119564687288e-08 -9.4493345659477888e-08 0 9.3464034512889229e-09 -8.6645801016298462e-08 0 8.8931058577740358e-09 -7.5697647215758956e-08 0 6.8971452901347318e-09 -8.7147876110867342e-08 0 9.3464034512889229e-09 -8.6645801016298462e-08 0 6.8971452901347318e-09 -8.7147876110867342e-08 0 7.9125317671413081e-09 -9.9139261387401827e-08 0 9.3464034512889229e-09 -8.6645801016298462e-08 0 8.8931058577740358e-09 -7.5697647215758956e-08 0 9.3464034512889229e-09 -8.6645801016298462e-08 0 1.0828595751322834e-08 -7.274137474412335e-08 0 1.0857119564687288e-08 -9.4493345659477888e-08 0 1.0828595751322834e-08 -7.274137474412335e-08 0 9.8080246521402666e-09 -7.4709961670616435e-08 0 1.0857119564687288e-08 -9.4493345659477888e-08 0 9.3464034512889229e-09 -8.6645801016298462e-08 0 1.0828595751322834e-08 -7.274137474412335e-08 0 1.0828595751322834e-08 -7.274137474412335e-08 0 9.8080246521402666e-09 -7.4709961670616435e-08 0 8.4930673540156884e-09 -4.2497513826826415e-08 0 1.0828595751322834e-08 -7.274137474412335e-08 0 9.3985857832202267e-09 -5.8310397596150253e-08 0 8.4930673540156884e-09 -4.2497513826826415e-08 0 9.3985857832202267e-09 -5.8310397596150253e-08 0 5.7910116213412573e-09 -3.8930702373021535e-08 0 5.6922157916491451e-09 -5.614973708953742e-08 0 6.4871743521964373e-09 -6.771218865657629e-08 0 9.3985857832202267e-09 -5.8310397596150253e-08 0 5.6922157916491451e-09 -5.614973708953742e-08 0 6.4871743521964373e-09 -6.771218865657629e-08 0 3.9518729622031214e-09 -6.1684417877630784e-08 0 5.6922157916491451e-09 -5.614973708953742e-08 0 6.4871743521964373e-09 -6.771218865657629e-08 0 8.8931058577740358e-09 -7.5697647215758956e-08 0 9.3985857832202267e-09 -5.8310397596150253e-08 0 8.8931058577740358e-09 -7.5697647215758956e-08 0 1.0828595751322834e-08 -7.274137474412335e-08 0 9.3985857832202267e-09 -5.8310397596150253e-08 0 -3.253626195375961e-08 -1.2722473265000052e-07 0 -8.4536086091349133e-08 -1.5211077304252119e-07 0 -6.6182359290730396e-08 -1.0301319723839501e-07 0 -3.253626195375961e-08 -1.2722473265000052e-07 0 -5.1396519085436007e-08 -1.8150389923534878e-07 0 -1.9360409709037639e-08 -1.7371864564752869e-07 0 -3.253626195375961e-08 -1.2722473265000052e-07 0 -8.4536086091349133e-08 -1.5211077304252119e-07 0 -5.1396519085436007e-08 -1.8150389923534878e-07 0 -8.4536086091349133e-08 -1.5211077304252119e-07 0 -1.1140644659633063e-07 -2.2462377300181465e-07 0 -5.1396519085436007e-08 -1.8150389923534878e-07 0 -1.1140644659633063e-07 -2.2462377300181465e-07 0 -5.1396519085436007e-08 -1.8150389923534878e-07 0 -6.071915369740532e-08 -2.5615178559389354e-07 0 -1.1140644659633063e-07 -2.2462377300181465e-07 0 -6.071915369740532e-08 -2.5615178559389354e-07 0 -1.2133541656805142e-07 -3.7444987187911567e-07 0 -6.071915369740532e-08 -2.5615178559389354e-07 0 -4.9098889447360408e-08 -3.1599815717466413e-07 0 -1.2133541656805142e-07 -3.7444987187911567e-07 0 5.3699445194906355e-10 -0.00066070317005014671 0 -1.3670682346427121e-12 -0.099900735091882423 0 5.3699445194906355e-10 -0.00066070317005014671 0 4.1309641592860175e-11 -4.6268595617573219e-06 0 -4.9098889447360408e-08 -3.1599815717466413e-07 0 -3.0905666462321407e-08 -2.5600424889837942e-07 0 -2.9468753240009378e-08 -2.3163904042021036e-07 0 -6.071915369740532e-08 -2.5615178559389354e-07 0 -4.9098889447360408e-08 -3.1599815717466413e-07 0 -2.9468753240009378e-08 -2.3163904042021036e-07 0 -3.0905666462321407e-08 -2.5600424889837942e-07 0 -2.9468753240009378e-08 -2.3163904042021036e-07 0 -1.8899711892400523e-08 -2.1534719479791607e-07 0 -5.1396519085436007e-08 -1.8150389923534878e-07 0 -2.9468753240009378e-08 -2.3163904042021036e-07 0 -1.9360409709037639e-08 -1.7371864564752869e-07 0 -5.1396519085436007e-08 -1.8150389923534878e-07 0 -6.071915369740532e-08 -2.5615178559389354e-07 0 -2.9468753240009378e-08 -2.3163904042021036e-07 0 -2.9468753240009378e-08 -2.3163904042021036e-07 0 -1.9360409709037639e-08 -1.7371864564752869e-07 0 -1.8899711892400523e-08 -2.1534719479791607e-07 0 -1.9360409709037639e-08 -1.7371864564752869e-07 0 -6.5184278763773462e-09 -1.8506988051193101e-07 0 -5.3906670966544364e-09 -1.4646854127243667e-07 0 -1.9360409709037639e-08 -1.7371864564752869e-07 0 -1.8899711892400523e-08 -2.1534719479791607e-07 0 -6.5184278763773462e-09 -1.8506988051193101e-07 0 -1.8899711892400523e-08 -2.1534719479791607e-07 0 -1.8984128963172352e-08 -2.1680901455885282e-07 0 -6.5184278763773462e-09 -1.8506988051193101e-07 0 4.1309641592860175e-11 -4.6268595617573219e-06 0 -6.5459237856409683e-10 -2.4933667290616631e-07 0 -3.0905666462321407e-08 -2.5600424889837942e-07 0 -1.8899711892400523e-08 -2.1534719479791607e-07 0 -1.8984128963172352e-08 -2.1680901455885282e-07 0 -1.8984128963172352e-08 -2.1680901455885282e-07 0 -1.0342153574432261e-08 -1.9015860416995792e-07 0 -6.5184278763773462e-09 -1.8506988051193101e-07 0 -6.5459237856409683e-10 -2.4933667290616631e-07 0 2.6532768711208935e-10 -1.9267959467305184e-07 0 -1.0342153574432261e-08 -1.9015860416995792e-07 0 -6.5184278763773462e-09 -1.8506988051193101e-07 0 -3.8793913775536122e-09 -1.7181644855604771e-07 0 -6.5184278763773462e-09 -1.8506988051193101e-07 0 -5.3906670966544364e-09 -1.4646854127243667e-07 0 1.5656467448889971e-09 -1.5356007122699445e-07 0 -3.253626195375961e-08 -1.2722473265000052e-07 0 -1.9360409709037639e-08 -1.7371864564752869e-07 0 -5.3906670966544364e-09 -1.4646854127243667e-07 0 -3.253626195375961e-08 -1.2722473265000052e-07 0 -5.3906670966544364e-09 -1.4646854127243667e-07 0 -7.2259810385086235e-09 -1.0374410009010871e-07 0 -5.3906670966544364e-09 -1.4646854127243667e-07 0 4.2247589824871702e-09 -1.2620861412747403e-07 0 -7.2259810385086235e-09 -1.0374410009010871e-07 0 4.2247589824871702e-09 -1.2620861412747403e-07 0 4.6602481020977968e-09 -9.6205596985577545e-08 0 -7.2259810385086235e-09 -1.0374410009010871e-07 0 4.2247589824871702e-09 -1.2620861412747403e-07 0 9.1514036504632335e-09 -1.083876205450899e-07 0 4.6602481020977968e-09 -9.6205596985577545e-08 0 4.2247589824871702e-09 -1.2620861412747403e-07 0 1.5656467448889971e-09 -1.5356007122699445e-07 0 5.7099590830960759e-09 -1.3312446209202185e-07 0 4.2247589824871702e-09 -1.2620861412747403e-07 0 5.7099590830960759e-09 -1.3312446209202185e-07 0 9.1514036504632335e-09 -1.083876205450899e-07 0 -5.3906670966544364e-09 -1.4646854127243667e-07 0 4.2247589824871702e-09 -1.2620861412747403e-07 0 1.5656467448889971e-09 -1.5356007122699445e-07 0 -6.5184278763773462e-09 -1.8506988051193101e-07 0 1.5656467448889971e-09 -1.5356007122699445e-07 0 -3.8793913775536122e-09 -1.7181644855604771e-07 0 1.5656467448889971e-09 -1.5356007122699445e-07 0 -3.8793913775536122e-09 -1.7181644855604771e-07 0 8.0605293711208686e-10 -1.5368288333379476e-07 0 -3.8793913775536122e-09 -1.7181644855604771e-07 0 -5.6649234575124471e-09 -1.686699915029228e-07 0 8.0605293711208686e-10 -1.5368288333379476e-07 0 2.6532768711208935e-10 -1.9267959467305184e-07 0 2.913409390254113e-10 -1.7079150461189518e-07 0 -1.0342153574432261e-08 -1.9015860416995792e-07 0 -3.8793913775536122e-09 -1.7181644855604771e-07 0 -5.6649234575124471e-09 -1.686699915029228e-07 0 -1.9597476703595987e-09 -1.5179931109996181e-07 0 8.0605293711208686e-10 -1.5368288333379476e-07 0 1.9271650983797949e-09 -1.4183751688327563e-07 0 2.913409390254113e-10 -1.7079150461189518e-07 0 6.5083738789040758e-11 -1.5347614534527552e-07 0 -5.6649234575124471e-09 -1.686699915029228e-07 0 -1.9597476703595987e-09 -1.5179931109996181e-07 0 8.0605293711208686e-10 -1.5368288333379476e-07 0 8.0605293711208686e-10 -1.5368288333379476e-07 0 5.7099590830960759e-09 -1.3312446209202185e-07 0 1.9271650983797949e-09 -1.4183751688327563e-07 0 1.5656467448889971e-09 -1.5356007122699445e-07 0 8.0605293711208686e-10 -1.5368288333379476e-07 0 5.7099590830960759e-09 -1.3312446209202185e-07 0 5.7099590830960759e-09 -1.3312446209202185e-07 0 1.9271650983797949e-09 -1.4183751688327563e-07 0 4.3422123820398054e-09 -1.2922397822533699e-07 0 5.7099590830960759e-09 -1.3312446209202185e-07 0 4.3422123820398054e-09 -1.2922397822533699e-07 0 7.8553340596296542e-09 -1.1505369039840078e-07 0 1.9271650983797949e-09 -1.4183751688327563e-07 0 -8.3080752915327179e-12 -1.3799226441950422e-07 0 4.3422123820398054e-09 -1.2922397822533699e-07 0 6.5083738789040758e-11 -1.5347614534527552e-07 0 1.1700006635419898e-10 -1.3916774527417688e-07 0 -1.9597476703595987e-09 -1.5179931109996181e-07 0 1.9271650983797949e-09 -1.4183751688327563e-07 0 -8.3080752915327179e-12 -1.3799226441950422e-07 0 -1.4728791312122525e-10 -1.1681279000296742e-07 0 2.7700833204196474e-10 -1.2715122855695281e-07 0 2.5985054832047277e-09 -1.1602352474606314e-07 0 1.8437806288807034e-09 -1.2620391836078207e-07 0 4.5436651236443697e-09 -1.1978680103564376e-07 0 -8.3080752915327179e-12 -1.3799226441950422e-07 0 1.8437806288807034e-09 -1.2620391836078207e-07 0 4.3422123820398054e-09 -1.2922397822533699e-07 0 1.1700006635419898e-10 -1.3916774527417688e-07 0 2.7700833204196474e-10 -1.2715122855695281e-07 0 1.8437806288807034e-09 -1.2620391836078207e-07 0 4.3422123820398054e-09 -1.2922397822533699e-07 0 4.5436651236443697e-09 -1.1978680103564376e-07 0 4.3422123820398054e-09 -1.2922397822533699e-07 0 4.5436651236443697e-09 -1.1978680103564376e-07 0 7.8553340596296542e-09 -1.1505369039840078e-07 0 1.0857119564687288e-08 -9.4493345659477888e-08 0 7.8553340596296542e-09 -1.1505369039840078e-07 0 9.1514036504632335e-09 -1.083876205450899e-07 0 5.7099590830960759e-09 -1.3312446209202185e-07 0 7.8553340596296542e-09 -1.1505369039840078e-07 0 9.1514036504632335e-09 -1.083876205450899e-07 0 9.8080246521402666e-09 -7.4709961670616435e-08 0 -3.0357486679382487e-09 -6.7543275655066247e-08 0 1.8709289798341671e-09 -3.5213137247950108e-08 0 1.0857119564687288e-08 -9.4493345659477888e-08 0 9.1514036504632335e-09 -1.083876205450899e-07 0 9.8080246521402666e-09 -7.4709961670616435e-08 0 9.1514036504632335e-09 -1.083876205450899e-07 0 9.8080246521402666e-09 -7.4709961670616435e-08 0 4.6602481020977968e-09 -9.6205596985577545e-08 0 -3.0357486679382487e-09 -6.7543275655066247e-08 0 4.6602481020977968e-09 -9.6205596985577545e-08 0 -7.2259810385086235e-09 -1.0374410009010871e-07 0 9.8080246521402666e-09 -7.4709961670616435e-08 0 -3.0357486679382487e-09 -6.7543275655066247e-08 0 4.6602481020977968e-09 -9.6205596985577545e-08 0 -3.0357486679382487e-09 -6.7543275655066247e-08 0 -2.6891281249452963e-08 -7.8895527819866363e-08 0 -7.2259810385086235e-09 -1.0374410009010871e-07 0 -3.253626195375961e-08 -1.2722473265000052e-07 0 -2.6891281249452963e-08 -7.8895527819866363e-08 0 -7.2259810385086235e-09 -1.0374410009010871e-07 0 -3.0357486679382487e-09 -6.7543275655066247e-08 0 -2.6891281249452963e-08 -7.8895527819866363e-08 0 -1.6047952910319871e-08 -4.2739176574491288e-08 0 -2.6891281249452963e-08 -7.8895527819866363e-08 0 -4.8434632015191349e-08 -6.3854260752251986e-08 0 -1.6047952910319871e-08 -4.2739176574491288e-08 0 -3.253626195375961e-08 -1.2722473265000052e-07 0 -2.6891281249452963e-08 -7.8895527819866363e-08 0 -6.6182359290730396e-08 -1.0301319723839501e-07 0 -2.6891281249452963e-08 -7.8895527819866363e-08 0 -4.8434632015191349e-08 -6.3854260752251986e-08 0 -6.6182359290730396e-08 -1.0301319723839501e-07 0 -5.4067964502306023e-11 -1.4972188855262497e-11 0 -5.7048676598401088e-09 -1.4637504990888325e-08 0 1.2180427278318867e-11 -5.1680498055248236e-12 0 -4.8434632015191349e-08 -6.3854260752251986e-08 0 -2.9300259051371537e-08 -3.0272181329790825e-08 0 -1.6047952910319871e-08 -4.2739176574491288e-08 0 -2.9300259051371537e-08 -3.0272181329790825e-08 0 -1.6047952910319871e-08 -4.2739176574491288e-08 0 -5.7048676598401088e-09 -1.4637504990888325e-08 0 9.8080246521402666e-09 -7.4709961670616435e-08 0 1.8709289798341671e-09 -3.5213137247950108e-08 0 8.4930673540156884e-09 -4.2497513826826415e-08 0 1.8709289798341671e-09 -3.5213137247950108e-08 0 8.4930673540156884e-09 -4.2497513826826415e-08 0 1.2180427278318867e-11 -5.1680498055248236e-12 0 -1.6047952910319871e-08 -4.2739176574491288e-08 0 1.8709289798341671e-09 -3.5213137247950108e-08 0 -5.7048676598401088e-09 -1.4637504990888325e-08 0 -3.0357486679382487e-09 -6.7543275655066247e-08 0 -1.6047952910319871e-08 -4.2739176574491288e-08 0 1.8709289798341671e-09 -3.5213137247950108e-08 0 1.8709289798341671e-09 -3.5213137247950108e-08 0 -5.7048676598401088e-09 -1.4637504990888325e-08 0 1.2180427278318867e-11 -5.1680498055248236e-12 0 -2.9300259051371537e-08 -3.0272181329790825e-08 0 -5.4067964502306023e-11 -1.4972188855262497e-11 0 -5.7048676598401088e-09 -1.4637504990888325e-08 0 5.6933965483567974e-09 -2.9007533275397854e-08 0 1.2180427278318867e-11 -5.1680498055248236e-12 0 1.0651112614574151e-11 -1.9772589953191441e-11 0 9.3985857832202267e-09 -5.8310397596150253e-08 0 5.6933965483567974e-09 -2.9007533275397854e-08 0 5.7910116213412573e-09 -3.8930702373021535e-08 0 5.6933965483567974e-09 -2.9007533275397854e-08 0 1.0651112614574151e-11 -1.9772589953191441e-11 0 5.7910116213412573e-09 -3.8930702373021535e-08 0 9.3985857832202267e-09 -5.8310397596150253e-08 0 5.6933965483567974e-09 -2.9007533275397854e-08 0 8.4930673540156884e-09 -4.2497513826826415e-08 0 5.6933965483567974e-09 -2.9007533275397854e-08 0 8.4930673540156884e-09 -4.2497513826826415e-08 0 1.2180427278318867e-11 -5.1680498055248236e-12 0 1.0651112614574151e-11 -1.9772589953191441e-11 0 5.7910116213412573e-09 -3.8930702373021535e-08 0 3.8890498968701739e-09 -3.1390500396013147e-08 0 3.8890498968701739e-09 -3.1390500396013147e-08 0 -1.763638363726127e-12 -1.1516062909954752e-11 0 2.679073988346371e-09 -2.7749895388537705e-08 0 1.0651112614574151e-11 -1.9772589953191441e-11 0 3.8890498968701739e-09 -3.1390500396013147e-08 0 -1.763638363726127e-12 -1.1516062909954752e-11 0 2.9609274229336945e-11 -1.1121948847170081e-11 0 2.679073988346371e-09 -2.7749895388537705e-08 0 1.0058170711298324e-08 -3.3905970955802516e-08 0 -1.763638363726127e-12 -1.1516062909954752e-11 0 2.9609274229336945e-11 -1.1121948847170081e-11 0 2.679073988346371e-09 -2.7749895388537705e-08 0 4.9406966671275601e-11 -4.7910963378524138e-08 0 2.7079746924080246e-09 -4.5195691200203451e-08 0 1.0058170711298324e-08 -3.3905970955802516e-08 0 2.679073988346371e-09 -2.7749895388537705e-08 0 2.7079746924080246e-09 -4.5195691200203451e-08 0 2.3754030726960696e-09 -5.0004750023199309e-08 0 2.679073988346371e-09 -2.7749895388537705e-08 0 2.7079746924080246e-09 -4.5195691200203451e-08 0 1.0058170711298324e-08 -3.3905970955802516e-08 0 4.0381755945914852e-10 -5.0879728505609056e-08 0 4.9406966671275601e-11 -4.7910963378524138e-08 0 2.7079746924080246e-09 -4.5195691200203451e-08 0 4.0381755945914852e-10 -5.0879728505609056e-08 0 2.7079746924080246e-09 -4.5195691200203451e-08 0 2.3754030726960696e-09 -5.0004750023199309e-08 0 4.0381755945914852e-10 -5.0879728505609056e-08 0 -1.4791908827383725e-10 -5.5999069741199386e-08 0 2.3754030726960696e-09 -5.0004750023199309e-08 0 -1.4791908827383725e-10 -5.5999069741199386e-08 0 2.3754030726960696e-09 -5.0004750023199309e-08 0 1.5763555379446482e-09 -5.9129121531018218e-08 0 2.3754030726960696e-09 -5.0004750023199309e-08 0 1.5763555379446482e-09 -5.9129121531018218e-08 0 4.1999168960082021e-09 -5.1129128051217894e-08 0 1.0627976643799793e-10 -6.3995931374041372e-08 0 -1.2924269830870712e-09 -6.0916729789782783e-08 0 1.5763555379446482e-09 -5.9129121531018218e-08 0 1.0627976643799793e-10 -6.3995931374041372e-08 0 1.5763555379446482e-09 -5.9129121531018218e-08 0 1.7733471323570581e-09 -6.5631254296090619e-08 0 1.0627976643799793e-10 -6.3995931374041372e-08 0 -1.3011593650180435e-10 -6.8928283528093584e-08 0 1.7733471323570581e-09 -6.5631254296090619e-08 0 -1.3011593650180435e-10 -6.8928283528093584e-08 0 1.9647955566398014e-09 -7.0612553677802757e-08 0 1.7733471323570581e-09 -6.5631254296090619e-08 0 1.5763555379446482e-09 -5.9129121531018218e-08 0 1.7733471323570581e-09 -6.5631254296090619e-08 0 3.9518729622031214e-09 -6.1684417877630784e-08 0 3.7983806298270072e-09 -6.9659431061518763e-08 0 1.7733471323570581e-09 -6.5631254296090619e-08 0 3.9518729622031214e-09 -6.1684417877630784e-08 0 1.5763555379446482e-09 -5.9129121531018218e-08 0 3.9518729622031214e-09 -6.1684417877630784e-08 0 4.1999168960082021e-09 -5.1129128051217894e-08 0 5.7910116213412573e-09 -3.8930702373021535e-08 0 3.8890498968701739e-09 -3.1390500396013147e-08 0 4.1999168960082021e-09 -5.1129128051217894e-08 0 3.9518729622031214e-09 -6.1684417877630784e-08 0 4.1999168960082021e-09 -5.1129128051217894e-08 0 5.6922157916491451e-09 -5.614973708953742e-08 0 5.7910116213412573e-09 -3.8930702373021535e-08 0 4.1999168960082021e-09 -5.1129128051217894e-08 0 5.6922157916491451e-09 -5.614973708953742e-08 0 3.8890498968701739e-09 -3.1390500396013147e-08 0 2.679073988346371e-09 -2.7749895388537705e-08 0 2.3754030726960696e-09 -5.0004750023199309e-08 0 3.8890498968701739e-09 -3.1390500396013147e-08 0 2.3754030726960696e-09 -5.0004750023199309e-08 0 4.1999168960082021e-09 -5.1129128051217894e-08 0 
</DataArray>
</PointData>
<CellData Scalars="region_id," Vectors="" Tensors="effective_stress,">
<DataArray type="Float64" Name="region_id" format="ascii">
1 1 1 1 1 1 1 1 1 1 1 1 1 1 1 1 1 1 1 1 1 1 1 1 1 1 1 1 1 1 1 1 1 1 1 1 1 1 1 1 1 1 1 1 1 1 1 1 1 1 1 1 1 1 1 1 1 1 1 1 1 1 1 1 1 1 1 1 1 1 1 1 1 1 1 1 1 1 1 1 1 1 1 1 1 1 1 1 1 1 1 1 1 1 1 1 1 1 1 1 1 1 1 1 1 1 1 1 1 1 1 1 1 1 1 1 1 1 1 1 1 1 1 1 1 1 1 1 1 1 1 1 1 1 1 1 1 1 1 1 1 6 1 6 1 1 1 1 1 1 1 1 1 1 1 1 1 1 6 1 6 1 1 6 1 1 6 1 1 1 1 1 1 6 1 1 6 1 1 1 1 1 1 1 1 1 1 1 1 1 1 1 1 1 1 1 1 1 1 1 1 6 6 1 1 1 1 1 1 1 1 1 6 1 1 6 1 1 1 1 1 1 1 1 1 1 1 1 1 6 1 1 6 1 1 1 1 1 1 6 1 6 1 1 6 1 1 1 1 1 1 1 1 1 1 1 1 1 1 1 1 1 1 1 1 1 1 1 1 1 1 1 1 1 1 1 1 1 1 1 1 1 1 1 1 1 1 1 1 1 1 1 1 1 1 1 1 1 1 
</DataArray>
<DataArray type="Float64" Name="effective_stress" NumberOfComponents="9" format="ascii">
-1.4686856297753391e-08 -5.6971221215563548e-08 0 -5.6971221215563548e-08 -4.896558524117808e-09 0 0 0 -4.8958537054677997e-09 -4.4833270070191955e-08 -4.6338301828886743e-08 0 -4.6338301828886743e-08 -2.1392315843255301e-08 0 0 0 -1.6556396478361817e-08 3.1874880952175042e-08 -1.6352745073119499e-08 0 -1.6352745073119499e-08 -1.8516806831259411e-08 0 0 0 3.3395185302288945e-09 7.194877553777776e-09 -3.1608470043796697e-08 0 -3.1608470043796697e-08 3.5990202064098965e-09 0 0 0 2.6984744400469049e-09 1.645881043868305e-08 -1.5024321110348381e-08 0 -1.5024321110348381e-08 -9.3836101333663579e-09 0 0 0 1.7688000763291928e-09 5.4963490578679216e-09 -1.6374883356580127e-08 0 -1.6374883356580127e-08 -4.6957485568123554e-08 0 0 0 -1.0365284127563875e-08 -6.0950656668341524e-09 -3.3815701614262619e-08 0 -3.3815701614262619e-08 -1.0570206516654539e-07 0 0 0 -2.7949282708344879e-08 1.0602206771375181e-08 -2.8613865159045164e-08 0 -2.8613865159045164e-08 -5.3879647143707286e-08 0 0 0 -1.0819360093082986e-08 1.2332002773059616e-08 -2.2673693321196078e-08 0 -2.2673693321196078e-08 -8.6109656936579779e-08 0 0 0 -1.8444413540880054e-08 -1.2055510932610838e-09 -3.0498086686000516e-08 0 -3.0498086686000516e-08 -1.224064832963944e-07 0 0 0 -3.0903008597413924e-08 1.4679457330823923e-08 -2.5973673563790685e-09 0 -2.5973673563790685e-09 -1.0262339801670311e-07 0 0 0 -2.1985985171469797e-08 2.8629432283604177e-08 -8.7928740374463845e-09 0 -8.7928740374463845e-09 -1.0974182326027104e-07 0 0 0 -2.0278097744166718e-08 1.0906220415907612e-08 -3.3121834131936556e-09 0 -3.3121834131936556e-09 -9.6412506383732275e-08 0 0 0 -2.1376571491956205e-08 1.438730856354403e-08 3.338738869920681e-09 0 3.338738869920681e-09 -5.4559838393630268e-08 0 0 0 -1.0043132457521573e-08 -1.1590114550320856e-09 -1.2863521520074032e-08 0 -1.2863521520074032e-08 -7.8899164508922048e-08 0 0 0 -2.001454399098852e-08 1.0562597284427968e-08 -1.4562573471178524e-08 0 -1.4562573471178524e-08 -4.4160356824028301e-08 0 0 0 -8.3994398849000951e-09 2.1946231104191982e-09 -3.5437136291511701e-08 0 -3.5437136291511701e-08 -2.5119696092103516e-08 0 0 0 -5.7312682454210529e-09 -1.4966775044768843e-08 -4.171825089754762e-08 0 -4.171825089754762e-08 -7.1485233553079963e-08 0 0 0 -2.1613002149462216e-08 -1.6769608218931168e-08 -4.992515953916707e-08 0 -4.992515953916707e-08 -4.3888328990551114e-08 0 0 0 -1.5164484302370577e-08 -2.1848499411153441e-08 -6.5015569458260312e-08 0 -6.5015569458260312e-08 -6.0574474150976816e-08 0 0 0 -2.0605743390532561e-08 -2.775997289667679e-09 -4.7334939878209355e-08 0 -4.7334939878209355e-08 -6.6747767230151331e-08 0 0 0 -1.7380941129954772e-08 2.7555141239767306e-09 -5.139531002656436e-08 0 -5.139531002656436e-08 -7.5948935706897848e-08 0 0 0 -1.8298355395730286e-08 -2.763649246559059e-08 -6.6339478115373983e-08 0 -6.6339478115373983e-08 -9.2434382930464728e-09 0 0 0 -9.2199826896592666e-09 -4.2962114575357123e-08 -7.5185854209230845e-08 0 -7.5185854209230845e-08 -3.8791152722573515e-08 0 0 0 -2.0438316824482663e-08 -1.4202068347752148e-08 -6.9897762003577965e-08 0 -6.9897762003577965e-08 -3.8874488103349406e-08 0 0 0 -1.3269139112775382e-08 -7.1006745035698558e-09 -5.7299551401077104e-08 0 -5.7299551401077104e-08 -2.731170829800104e-08 0 0 0 -8.603095700392719e-09 -2.627592894027124e-08 -6.2899390767635439e-08 0 -6.2899390767635439e-08 -3.4338891495865259e-08 0 0 0 -1.5153705109034134e-08 -4.6634707992552416e-08 -7.6798552466531534e-08 0 -7.6798552466531534e-08 -1.5483815803635041e-08 0 0 0 -1.5529630949046864e-08 -4.6002776288889189e-08 -7.7307915574179325e-08 0 -7.7307915574179325e-08 -2.8719584274445545e-08 0 0 0 -1.8680590140833685e-08 -4.20390129173343e-08 -9.422270190606398e-08 0 -9.422270190606398e-08 -7.9559729151427867e-09 0 0 0 -1.2498746458119308e-08 -3.5727971062470349e-08 -8.8348892903057451e-08 0 -8.8348892903057451e-08 -4.2108867368296957e-08 0 0 0 -1.9459209607691817e-08 -4.0458586193507998e-08 -7.8256930618209532e-08 0 -7.8256930618209532e-08 -3.2968958604845729e-08 0 0 0 -1.8356886199588432e-08 7.1754176258950755e-08 -5.5253598903431548e-08 0 -5.5253598903431548e-08 2.3873046155985904e-08 0 0 0 2.3906805603734166e-08 2.0036764034679758e-07 -2.9290729550635642e-08 0 -2.9290729550635642e-08 1.4458243337771399e-08 0 0 0 5.3706470921142231e-08 -1.9063431048985363e-08 -5.539784481959898e-08 0 -5.539784481959898e-08 3.3958818840679771e-08 0 0 0 3.7238469479236087e-09 -7.8571948874546609e-09 -3.364802845436685e-08 0 -3.364802845436685e-08 8.586487163467156e-09 0 0 0 1.8232306900311716e-10 -2.0557638024799115e-08 -5.4377852791030879e-08 0 -5.4377852791030879e-08 3.2347229259848058e-08 0 0 0 2.947397808762216e-09 -4.8352374117834924e-08 -9.1954567900441071e-08 0 -9.1954567900441071e-08 -4.5481203435577671e-08 0 0 0 -2.3458394388353169e-08 8.0158113980692412e-08 -4.3049307652028035e-08 0 -4.3049307652028035e-08 1.5370189288183752e-08 0 0 0 2.3882075817219051e-08 6.691711654352798e-08 -2.325228882329982e-08 0 -2.325228882329982e-08 1.05184868757745e-08 0 0 0 1.935890085482564e-08 1.7720362919592169e-07 8.292335159147065e-09 0 8.292335159147065e-09 -1.1240942216737377e-09 0 0 0 4.4019883743562042e-08 2.2157230227248865e-07 2.3057499865378387e-08 0 2.3057499865378387e-08 -5.2720405970868474e-09 0 0 0 5.4075065418850471e-08 2.2130322736436335e-09 9.3105961775007966e-09 0 9.3105961775007966e-09 1.4811437301928848e-08 0 0 0 4.2561173938931468e-09 6.0605457739236301e-08 -3.9669121375510271e-09 0 -3.9669121375510271e-09 1.0712353721079764e-08 0 0 0 1.7829452865079109e-08 6.171340981228921e-08 -1.3816715402638695e-08 0 -1.3816715402638695e-08 2.0385555083645412e-09 0 0 0 1.5937991330163372e-08 1.0240908638019497e-08 -4.3714986228349329e-08 0 -4.3714986228349329e-08 -4.6238203208047665e-08 0 0 0 -8.9993236425071216e-09 -9.4328579751263755e-08 -7.2469941336348906e-08 0 -7.2469941336348906e-08 -2.1798901522604645e-08 0 0 0 -2.903187031846702e-08 -4.8903727170863024e-08 -7.5137793470113832e-08 0 -7.5137793470113832e-08 -3.2283019220174053e-08 0 0 0 -2.029668659775921e-08 -8.3941358557964583e-08 -1.1810013650378422e-07 0 -1.1810013650378422e-07 -1.2614275730401594e-07 0 0 0 -5.2521028965495236e-08 -7.307559810011266e-08 -7.9109409907502496e-08 0 -7.9109409907502496e-08 -2.4091080736016097e-08 0 0 0 -2.429166970903215e-08 -5.3101739263477461e-08 -9.8047948387031882e-08 0 -9.8047948387031882e-08 -3.442497406924463e-08 0 0 0 -2.1881678333180496e-08 -7.5553615149692317e-08 -1.2649790856790977e-07 0 -1.2649790856790977e-07 -1.2267598615542444e-07 0 0 0 -4.9557400326279123e-08 -5.4070948058214965e-08 -1.1167904864462526e-07 0 -1.1167904864462526e-07 -1.3833292443981743e-07 0 0 0 -4.8100968124508131e-08 -5.8298192946921682e-08 -1.6430474868040783e-07 0 -1.6430474868040783e-07 -2.1706658054848084e-07 0 0 0 -6.8841193373850604e-08 -4.0107156244294532e-08 -1.0599295335300932e-07 0 -1.0599295335300932e-07 -3.2704754524096393e-07 0 0 0 -9.1788675371314589e-08 -2.1286293833700172e-08 -1.1380206829415827e-07 0 -1.1380206829415827e-07 -2.7819810630409102e-07 0 0 0 -7.4871100034447772e-08 -4.9266901629873392e-09 -7.2174183592232755e-08 0 -7.2174183592232755e-08 -3.5806728986407381e-07 0 0 0 -9.0748495006765128e-08 9.9434289911127115e-10 -2.497762878846774e-08 0 -2.497762878846774e-08 -3.8177646510982244e-07 0 0 0 -9.5195530552677924e-08 -1.5681656127805272e-08 -3.4420069194103422e-08 0 -3.4420069194103422e-08 -4.397180921632082e-07 0 0 0 -1.1384993707275342e-07 -2.7422647198446727e-08 -5.6180177915559578e-08 0 -5.6180177915559578e-08 -5.2397632790413205e-07 0 0 0 -1.3784974377564491e-07 4.0007387959471326e-09 -4.7070112488275047e-08 0 -4.7070112488275047e-08 -3.9981097977673502e-07 0 0 0 -9.8952560245196866e-08 -2.5506333702215308e-08 -7.2919276360240004e-08 0 -7.2919276360240004e-08 -4.2546328977396166e-07 0 0 0 -1.1274240586904435e-07 -1.4939820204795503e-08 -1.142948675086666e-07 0 -1.142948675086666e-07 -3.3449512389292236e-07 0 0 0 -8.7358736024429519e-08 -6.259155126124232e-08 -1.2080293991120765e-07 0 -1.2080293991120765e-07 -4.7612075553142719e-07 0 0 0 -1.3467807669816738e-07 -5.012824663999769e-08 -1.52658544817828e-07 0 -1.52658544817828e-07 -3.1188501126161489e-07 0 0 0 -9.0503314475403251e-08 -1.8642542830375697e-08 -6.9841824120700654e-08 0 -6.9841824120700654e-08 -6.1008117710367016e-07 0 0 0 -1.5718092998351125e-07 8.3522896045368745e-09 -7.6900669133184336e-08 0 -7.6900669133184336e-08 -4.2437708836687264e-07 0 0 0 -1.0400619969058429e-07 1.4843540056665468e-09 -7.9696567182829726e-08 0 -7.9696567182829726e-08 -5.6165164622927169e-07 0 0 0 -1.4004182305590113e-07 -6.0416028549363969e-08 -1.059334555471973e-07 0 -1.059334555471973e-07 -7.9036301610047989e-07 0 0 0 -2.1269476116246097e-07 -5.3076924343860498e-08 -1.8453678171936751e-07 0 -1.8453678171936751e-07 -4.896325839401446e-07 0 0 0 -1.3567737707100166e-07 -1.2078904116761578e-07 -1.6231038788759535e-07 0 -1.6231038788759535e-07 -1.1773797051067451e-07 0 0 0 -5.9631752919572652e-08 -8.9464815457173756e-08 -1.6217248128988962e-07 0 -1.6217248128988962e-07 -3.2505218429055416e-07 0 0 0 -1.0362924993693211e-07 -1.6544270535602653e-07 -1.2457440062331517e-07 0 -1.2457440062331517e-07 -2.5659057152213144e-08 0 0 0 -4.7775440627060023e-08 -1.4037818051798776e-07 -1.784560702287285e-07 0 -1.784560702287285e-07 -2.9627952722257949e-07 0 0 0 -1.0916442693514181e-07 -1.0029473702724946e-07 -1.9444821384692289e-07 0 -1.9444821384692289e-07 -6.3210402484699106e-07 0 0 0 -1.8309969046856034e-07 -1.4265648911536721e-07 -2.445985761387589e-07 0 -2.445985761387589e-07 -2.9893863169140352e-07 0 0 0 -1.1039878020169247e-07 1.7741707628693208e-08 -1.4612855630464048e-07 0 -1.4612855630464048e-07 -5.6034339156449062e-07 0 0 0 -1.3565042098394954e-07 -8.619647982292274e-08 -1.613387621974267e-07 0 -1.613387621974267e-07 -9.4755910977405242e-07 0 0 0 -2.5843889739924421e-07 -6.0695505090696695e-09 -1.9353832966028966e-07 0 -1.9353832966028966e-07 -6.9442912333823799e-07 0 0 0 -1.7512466846182665e-07 -1.1999002278105726e-07 -2.4585667117190904e-07 0 -2.4585667117190904e-07 -1.3995665112728152e-06 0 0 0 -3.7988913351346822e-07 -2.556971436034348e-07 -3.3613080864752344e-07 0 -3.3613080864752344e-07 -6.6292549951781104e-07 0 0 0 -2.2965566078031151e-07 -4.2182139859237995e-07 -5.3932014280730888e-07 0 -5.3932014280730888e-07 -8.0743267407784893e-07 0 0 0 -3.0731351816755722e-07 -1.8179880576103783e-07 -2.101313932115782e-07 0 -2.101313932115782e-07 -2.1593104703624749e-07 0 0 0 -9.9432463199321224e-08 -2.6312213302733015e-07 -3.3164684182193336e-07 0 -3.3164684182193336e-07 -8.5581907358986143e-07 0 0 0 -2.7973530165429747e-07 9.7819435114390556e-09 -2.7806335592559661e-07 0 -2.7806335592559661e-07 -8.4928872539238392e-07 0 0 0 -2.0987669547023558e-07 -2.2641163095266972e-07 -6.8820399511736893e-07 0 -6.8820399511736893e-07 -7.4806726257873941e-07 0 0 0 -2.4361972338285207e-07 -4.2182190393080437e-07 -5.554489051755396e-07 0 -5.554489051755396e-07 -2.3608321085462917e-06 0 0 0 -6.9566350311927391e-07 3.0983659289000775e-08 -8.2707295879553127e-07 0 -8.2707295879553127e-07 -8.8857409472161246e-07 0 0 0 -2.1439760885815218e-07 -2.8259919870473343e-07 -4.269737776457243e-07 0 -4.269737776457243e-07 -2.1854254566152884e-06 0 0 0 -6.1700616383000567e-07 -3.7416599744079209e-07 -1.3904236001160201e-07 0 -1.3904236001160201e-07 8.3969468275659414e-08 0 0 0 -7.2549132291282851e-08 5.0578422662473587e-07 -3.0726536033015748e-10 0 -3.0726536033015748e-10 -1.1866625542411142e-07 0 0 0 9.6779492800156139e-08 -1.2254136780247279e-07 7.9143308951245728e-09 0 7.9143308951245728e-09 3.8580591557353336e-08 0 0 0 -2.0990194061279969e-08 -1.2134674694605487e-07 -1.6866196603839184e-07 0 -1.6866196603839184e-07 -2.5964404567551197e-07 0 0 0 -9.5247698155391553e-08 3.3624322625438734e-07 2.5877018406210813e-08 0 2.5877018406210813e-08 -2.6032734071327156e-08 0 0 0 7.7552623045764861e-08 -3.2953341768076172e-08 -7.8305834581915757e-08 0 -7.8305834581915757e-08 -1.5394705131706605e-07 0 0 0 -4.6725098271285543e-08 -7.1690933040151954e-09 -6.7708241407473075e-08 0 -6.7708241407473075e-08 -8.6691914453660562e-08 0 0 0 -2.3465251939418913e-08 -3.83860361353442e-08 -8.0720593948598621e-08 0 -8.0720593948598621e-08 -9.9756217950977419e-08 0 0 0 -3.4535563521580431e-08 -5.6419261100181489e-08 -9.8780914252767478e-08 0 -9.8780914252767478e-08 -9.0170191032776758e-08 0 0 0 -3.6647363033239549e-08 -6.9241066521483569e-08 -1.1372651616781921e-07 0 -1.1372651616781921e-07 -1.0508471322325521e-07 0 0 0 -4.3581444936184615e-08 -6.0378491029306911e-08 -1.2652101130067217e-07 0 -1.2652101130067217e-07 -1.9183618745978673e-07 0 0 0 -6.3053669622273437e-08 -3.3495242116131977e-08 -9.9923404493216086e-08 0 -9.9923404493216086e-08 -1.0315832403822415e-07 0 0 0 -3.4163391538588998e-08 -1.9375160076029804e-08 -8.8522815146548924e-08 0 -8.8522815146548924e-08 -7.6540765161565848e-08 0 0 0 -2.397898130939894e-08 -4.7075593874527978e-08 -1.0371762309649239e-07 0 -1.0371762309649239e-07 -1.7121280866887611e-07 0 0 0 -5.4572100635851102e-08 -1.0026943637405216e-08 -7.6403864751050837e-08 0 -7.6403864751050837e-08 -1.5649500634622773e-07 0 0 0 -4.163048749590824e-08 -2.2181396570674087e-08 -6.8695690951343899e-08 0 -6.8695690951343899e-08 -2.0186966794968032e-07 0 0 0 -5.6012766130088602e-08 -2.1970511876117787e-08 -9.2016145126551002e-08 0 -9.2016145126551002e-08 -1.9750003351362503e-07 0 0 0 -5.4867636347435804e-08 -2.9560953303152375e-08 -8.7686414691749495e-08 0 -8.7686414691749495e-08 -2.3841928697415585e-07 0 0 0 -6.6995060069327137e-08 -1.8532220319108123e-08 -5.8808766268034059e-08 0 -5.8808766268034059e-08 -3.2847110914638553e-07 0 0 0 -8.6750832366373202e-08 -1.1187657457755935e-08 -6.3947754802438508e-08 0 -6.3947754802438508e-08 -3.0835445662970425e-07 0 0 0 -7.9885528521864979e-08 -8.757802541889488e-09 -5.8082517076395092e-08 0 -5.8082517076395092e-08 -2.2503176812020923e-07 0 0 0 -5.8447392665524705e-08 4.9637470554781693e-09 -5.9608264967611202e-08 0 -5.9608264967611202e-08 -2.57825593444084e-07 0 0 0 -6.3215461597151827e-08 -3.2700685089466126e-09 -2.2455986074451233e-08 0 -2.2455986074451233e-08 -3.1623778781610947e-07 0 0 0 -7.9876964081264073e-08 3.8018862422663849e-09 -2.1256287927972184e-08 0 -2.1256287927972184e-08 -2.8637353743660436e-07 0 0 0 -7.0642912798584388e-08 -1.3329565235239616e-09 -2.1700169350828467e-08 0 -2.1700169350828467e-08 -3.2429759765220614e-07 0 0 0 -8.1407638543932736e-08 -2.8730369105132229e-09 -2.2615285672291078e-08 0 -2.2615285672291078e-08 -3.704978797978158e-07 0 0 0 -9.3342729177082098e-08 1.704871652280124e-09 -2.3812785346924992e-08 0 -2.3812785346924992e-08 -3.0831286253958618e-07 0 0 0 -7.6651997721826687e-08 2.5286562392810424e-10 -4.1660964494604925e-08 0 -4.1660964494604925e-08 -2.1769236602523025e-07 0 0 0 -5.4359875100325429e-08 -3.6498667354440855e-09 -3.7144389478967075e-08 0 -3.7144389478967075e-08 -1.8307166412095346e-07 0 0 0 -4.6680382714099386e-08 -1.3064786819401021e-08 -4.3270320242943435e-08 0 -4.3270320242943435e-08 -2.5809586258853558e-07 0 0 0 -6.7790162351984123e-08 1.9053076505653672e-09 -2.4307327070092746e-08 0 -2.4307327070092746e-08 -2.3609129210662844e-07 0 0 0 -5.8546496114015769e-08 -8.9849528844881969e-09 -1.8113818958531521e-08 0 -1.8113818958531521e-08 -2.5788322639860484e-07 0 0 0 -6.6717044820773154e-08 -4.2022760152420887e-10 -1.2292848618282138e-08 0 -1.2292848618282138e-08 -2.2405266514322864e-07 0 0 0 -5.6118223186188259e-08 6.5133454064600699e-10 -1.3115760282263909e-08 0 -1.3115760282263909e-08 -2.2517830413468803e-07 0 0 0 -5.6131742398510294e-08 4.6218672266170416e-10 -1.3738503793994271e-08 0 -1.3738503793994271e-08 -1.9688654024566418e-07 0 0 0 -4.9106088380750566e-08 -5.486123104195584e-11 -1.3371773527768382e-08 0 -1.3371773527768382e-08 -1.9351378093940691e-07 0 0 0 -4.8392160542612137e-08 -1.6151334420902759e-09 -1.0722996418979601e-08 0 -1.0722996418979601e-08 -1.6947609845817636e-07 0 0 0 -4.2772807975066606e-08 -2.3205526887088583e-09 -1.3420517208444584e-08 0 -1.3420517208444584e-08 -1.8586507070947789e-07 0 0 0 -4.7046405849546699e-08 -5.4445499483677458e-09 -3.8256919301166237e-08 0 -3.8256919301166237e-08 -1.752563213471845e-07 0 0 0 -4.5175217823888088e-08 4.0644690162855416e-09 -3.3978952881444614e-08 0 -3.3978952881444614e-08 -1.6752872591004214e-07 0 0 0 -4.086606422343907e-08 -6.6162667113029021e-09 -3.1815327953540848e-08 0 -3.1815327953540848e-08 -2.0455075981076735e-07 0 0 0 -5.279175663051767e-08 -3.2430739244450864e-09 -6.5301110411125082e-08 0 -6.5301110411125082e-08 -1.3295191090466409e-07 0 0 0 -3.4048746207277348e-08 -1.5220674541943018e-08 -6.0961026803347938e-08 0 -6.0961026803347938e-08 -1.2245841987388297e-07 0 0 0 -3.4419773603956498e-08 6.8914793366174337e-09 -3.441703907309028e-08 0 -3.441703907309028e-08 -1.1882543407149798e-07 0 0 0 -2.7983488683720161e-08 3.9242833924449462e-09 -3.7675360879424606e-08 0 -3.7675360879424606e-08 -1.2891903862395705e-07 0 0 0 -3.124868880787792e-08 -3.6416625483312173e-09 -3.6453527308154949e-08 0 -3.6453527308154949e-08 -1.5729967965206625e-07 0 0 0 -4.0235335550099208e-08 -1.9080557298328437e-10 -9.6671096998435041e-09 0 -9.6671096998435041e-09 -1.5340348210698324e-07 0 0 0 -3.8398571919991631e-08 2.945677382800657e-09 -1.1801224295143899e-08 0 -1.1801224295143899e-08 -1.4899921226701091e-07 0 0 0 -3.6513383721052616e-08 1.5988097940513361e-09 -1.2323539039759006e-08 0 -1.2323539039759006e-08 -1.4366464541082693e-07 0 0 0 -3.5516458904193754e-08 1.3371703129841155e-08 -1.9704117338349696e-08 0 -1.9704117338349696e-08 -1.2509847589010537e-07 0 0 0 -2.7931693190066001e-08 4.528180692482115e-10 1.1486660118598178e-08 0 1.1486660118598178e-08 -1.3170766573036952e-07 0 0 0 -3.28137119152803e-08 1.5569273451038188e-08 1.9851830941518179e-08 0 1.9851830941518179e-08 -1.2127105072013306e-07 0 0 0 -2.6425444317273825e-08 1.517335756734532e-13 1.9655714271210875e-15 0 1.9655714271210875e-15 -3.976513435286911e-14 0 0 0 2.7992110330146128e-14 1.6101238951068268e-09 1.0661234408010629e-08 0 1.0661234408010629e-08 -1.4948348191638241e-07 0 0 0 -3.6968339505318948e-08 4.1665809082399426e-13 1.5921177484821953e-15 0 1.5921177484821953e-15 -1.3343402783619918e-14 0 0 0 1.0082867201009367e-13 -7.1444429494252177e-10 1.0127662062639133e-08 0 1.0127662062639133e-08 -1.6325291914420332e-07 0 0 0 -4.099184085978646e-08 8.7568784007326483e-10 3.1862310898275725e-08 0 3.1862310898275725e-08 -1.428129917344891e-07 0 0 0 -3.5484325973604038e-08 1.5180950725174353e-08 2.6811225812680993e-08 0 2.6811225812680993e-08 -1.0647780697549388e-07 0 0 0 -2.2824214062579828e-08 3.3279206200892256e-09 3.3876716665332027e-08 0 3.3876716665332027e-08 -1.3431478664184153e-07 0 0 0 -3.2746716505438057e-08 6.1627143723177741e-09 4.713119971314378e-08 0 4.713119971314378e-08 -1.0710392228588022e-07 0 0 0 -2.5235301978390586e-08 -6.6918465052458772e-09 5.3154598424097326e-08 0 5.3154598424097326e-08 -1.4260651503868118e-07 0 0 0 -3.732459038598179e-08 -2.1584932423732734e-09 5.6246265164772361e-08 0 5.6246265164772361e-08 -1.2654074644995208e-07 0 0 0 -3.2174809923081329e-08 -9.2327716533997635e-09 6.2123201613353439e-08 0 6.2123201613353439e-08 -1.762843996860382e-07 0 0 0 -4.6379292834859544e-08 -2.702070289370366e-09 3.0864606315009468e-08 0 3.0864606315009468e-08 -1.7555026743521757e-07 0 0 0 -4.4563084431147169e-08 1.0872999598428741e-09 3.463885937728191e-08 0 3.463885937728191e-08 -1.933795906659012e-07 0 0 0 -4.8073072676514474e-08 6.0620308104465713e-09 3.2061864604151778e-08 0 3.2061864604151778e-08 -1.4940812108618722e-07 0 0 0 -3.5836522568935373e-08 -4.0932189558263411e-09 2.9397715534597832e-08 0 2.9397715534597832e-08 -1.8091224278663228e-07 0 0 0 -4.6251365435614601e-08 3.0412634589877601e-11 1.0251316569039525e-08 0 1.0251316569039525e-08 -1.7085284331278901e-07 0 0 0 -4.2705607669550047e-08 3.5485910552788785e-10 1.0345152123051785e-08 0 1.0345152123051785e-08 -1.7299688675936568e-07 0 0 0 -4.3160506913459554e-08 5.9328102693571901e-13 6.1690001497677458e-16 0 6.1690001497677458e-16 2.5050905809663028e-14 0 0 0 1.5458298318634539e-13 -5.1533151396589224e-10 9.695696868012516e-09 0 9.695696868012516e-09 -2.0610722242428872e-07 0 0 0 -5.1655638484563918e-08 7.2813343192043313e-13 -3.5632006447366655e-15 0 -3.5632006447366655e-15 4.5459425196999607e-14 0 0 0 1.9339821427935826e-13 6.8885384886058946e-10 9.7559482103439778e-09 0 9.7559482103439778e-09 -1.9429674302105737e-07 0 0 0 -4.8401972293049461e-08 -3.1924886102161835e-09 1.1948745532984733e-08 0 1.1948745532984733e-08 -2.1857492627561246e-07 0 0 0 -5.544185372145716e-08 8.115184871241075e-13 6.2299776891823977e-15 0 6.2299776891823977e-15 4.6668501079063985e-14 0 0 0 2.1454674705079296e-13 1.4592742197895663e-10 1.3788479872177022e-08 0 1.3788479872177022e-08 -2.1587977144443852e-07 0 0 0 -5.3933461005614308e-08 9.5708286571739163e-10 1.3484754682840612e-08 0 1.3484754682840612e-08 -2.4651496560966939e-07 0 0 0 -6.1389470685988008e-08 8.2599036742986095e-13 1.4235814896714379e-14 0 1.4235814896714379e-14 2.19074856938329e-14 0 0 0 2.1197446328092343e-13 -8.1534362529467494e-10 1.3385151883056917e-08 0 1.3385151883056917e-08 -2.6271582001606e-07 0 0 0 -6.5882790910338404e-08 7.1359683817447079e-10 4.6907986843552583e-08 0 4.6907986843552583e-08 -2.4513166537532388e-07 0 0 0 -6.1104517134287265e-08 -5.4919493636305105e-09 4.1018316807305155e-08 0 4.1018316807305155e-08 -2.1707232542463529e-07 0 0 0 -5.5641068697066449e-08 -1.134512472205133e-08 3.6690518791493545e-08 0 3.6690518791493545e-08 -2.3003481443209734e-07 0 0 0 -6.0344984788537272e-08 -1.2451692225631345e-09 1.768912667769518e-08 0 1.768912667769518e-08 -3.3445574324832127e-07 0 0 0 -8.3925228117721048e-08 -9.8985690624321513e-11 1.8350876048399466e-08 0 1.8350876048399466e-08 -3.2047567938059913e-07 0 0 0 -8.0143666267805863e-08 6.1977355852585975e-13 3.1327857855206384e-14 0 3.1327857855206384e-14 -1.1956716821302637e-13 0 0 0 1.2505159757820828e-13 2.0563510223308637e-10 1.8175003151642032e-08 0 1.8175003151642032e-08 -2.7604983143965881e-07 0 0 0 -6.8961049084356591e-08 -3.4936042128940394e-09 1.6112946269847223e-08 0 1.6112946269847223e-08 -2.8024197627137167e-07 0 0 0 -7.0933895121066057e-08 7.6041873475723437e-13 2.8409791383013346e-14 0 2.8409791383013346e-14 -3.2842857949541394e-14 0 0 0 1.8189396920192341e-13 -1.4674267041420658e-08 4.8626880275926003e-08 0 4.8626880275926003e-08 -2.9099745213876975e-07 0 0 0 -7.6417929795047647e-08 2.6843339684962176e-09 6.5064205936870197e-08 0 6.5064205936870197e-08 -3.1554703966721595e-07 0 0 0 -7.8215676424679933e-08 -8.9448168595295148e-09 5.2932092112935118e-08 0 5.2932092112935118e-08 -2.7483541696349324e-07 0 0 0 -7.0945058455755715e-08 -3.0733686959308635e-08 1.0106250326457774e-07 0 1.0106250326457774e-07 -2.736354270271204e-07 0 0 0 -7.6092278496607311e-08 -1.1731828297218859e-08 8.7352497873470966e-08 0 8.7352497873470966e-08 -1.8055791016750332e-07 0 0 0 -4.8072434616180438e-08 -8.8743893702584157e-09 6.1631648763000237e-08 0 6.1631648763000237e-08 -1.6798171219022673e-07 0 0 0 -4.4214025390121233e-08 -2.8786501044623523e-08 7.7521379324792184e-08 0 7.7521379324792184e-08 -2.2522967984286815e-07 0 0 0 -6.3504045221872858e-08 -2.9540897886338092e-08 1.0176222191844708e-07 0 1.0176222191844708e-07 -1.5351183585266592e-07 0 0 0 -4.5763183434751055e-08 -4.2707430125784642e-08 1.233360932864557e-07 0 1.233360932864557e-07 -1.0153051053879346e-07 0 0 0 -3.6059485166144511e-08 -4.8227038045378101e-08 1.1026221801822469e-07 0 1.1026221801822469e-07 -2.0055298127192909e-07 0 0 0 -6.2195004829326726e-08 -5.1802884664844942e-08 1.0381897631225378e-07 0 1.0381897631225378e-07 -9.4622220548009395e-08 0 0 0 -3.660627630321364e-08 -5.2134836004856454e-08 1.1023928669042682e-07 0 1.1023928669042682e-07 -8.9183546328909545e-08 0 0 0 -3.5329595583441528e-08 -2.6178136335731092e-08 7.729523554636686e-08 0 7.729523554636686e-08 -8.6612519488204312e-08 0 0 0 -2.8197663955983878e-08 -7.1448343072793157e-09 7.4452909097614061e-08 0 7.4452909097614061e-08 -7.9538137306714655e-08 0 0 0 -2.1670742903498493e-08 -2.255410117518086e-08 6.2045969264822778e-08 0 6.2045969264822778e-08 -1.213113375300958e-07 0 0 0 -3.5966359676319113e-08 -2.3954431390318717e-08 8.1666867072030656e-08 0 8.1666867072030656e-08 -1.3470212232418672e-07 0 0 0 -3.9664138428626439e-08 -2.0680985194050322e-08 7.8899043473651634e-08 0 7.8899043473651634e-08 -1.0268981444826422e-07 0 0 0 -3.0842699910578656e-08 3.1100152611398331e-07 -2.7865760826038887e-08 0 -2.7865760826038887e-08 -1.8895962450126232e-08 0 0 0 7.3026390915964164e-08 -8.1707521875792325e-08 7.7372975987535916e-08 0 7.7372975987535916e-08 -1.6978340251687918e-07 0 0 0 -6.2872731098167876e-08 -1.0157565972538686e-07 4.6474442273534188e-08 0 4.6474442273534188e-08 2.3923896703047262e-08 0 0 0 -1.941294075558474e-08 5.9274995136754823e-07 -2.7165311753279915e-09 0 -2.7165311753279915e-09 -1.3492761225660352e-07 0 0 0 1.1445558477773607e-07 -2.61328019447629e-07 5.5405122144089706e-08 0 5.5405122144089706e-08 1.9123568768504672e-07 0 0 0 -1.7523082940645676e-08 1.8520534562316018e-08 7.9636221859195794e-07 0 7.9636221859195794e-07 -9.1494908990185885e-07 0 0 0 -2.2410713883488518e-07 -2.8289125801641097e-07 4.1992667488734958e-07 0 4.1992667488734958e-07 -2.2141459392869083e-06 0 0 0 -6.2425929932582981e-07 -1.3496848669954375e-06 -5.788049411754429e-14 0 -5.788049411754429e-14 -4.0490001133635952e-06 0 0 0 -1.3496712450897583e-06 -8.9323342299417999e-09 -5.2543164857697294e-14 0 -5.2543164857697294e-14 -2.6771145603692851e-08 0 0 0 -8.9258699584086622e-09 -3.4901360673143664e-07 5.7307361756368261e-07 0 5.7307361756368261e-07 -2.2921169423970716e-06 0 0 0 -6.6028263728212705e-07 -2.5836466789692126e-07 6.6320274200721762e-07 0 6.6320274200721762e-07 -6.9289021233717272e-07 0 0 0 -2.378137200585235e-07 2.327734262364921e-08 3.8227960016559794e-07 0 3.8227960016559794e-07 -8.6295963706090765e-07 0 0 0 -2.0992057360931429e-07 -3.575761816091201e-07 3.6681804497887918e-07 0 3.6681804497887918e-07 -2.0262724660104222e-07 0 0 0 -1.4005085705254026e-07 -3.3440140614035754e-07 3.441840420162382e-07 0 3.441840420162382e-07 -8.4557013752589268e-07 0 0 0 -2.9499288591656255e-07 -2.5188203212143585e-07 3.7254649499895034e-07 0 3.7254649499895034e-07 -9.4512380238469379e-07 0 0 0 -2.9925145862653262e-07 -9.2082091046829781e-08 1.9559046007442094e-07 0 1.9559046007442094e-07 -3.6022385563771225e-07 0 0 0 -1.1307648667113582e-07 -1.847116353968799e-07 3.6592814836474483e-07 0 3.6592814836474483e-07 -7.3489521735828505e-07 0 0 0 -2.2990171318879124e-07 -1.3062470006420456e-08 1.367503497222723e-07 0 1.367503497222723e-07 -8.5882623368631767e-07 0 0 0 -2.1797217592318443e-07 -6.5442750085066356e-11 -4.0188816713447382e-14 0 -4.0188816713447382e-14 -1.8057241346402399e-10 0 0 0 -6.1503790887272581e-11 -1.5989262779780846e-07 2.6886347712629627e-07 0 2.6886347712629627e-07 -1.4747780413127662e-06 0 0 0 -4.0866766727764356e-07 -3.2272431860318965e-08 1.3198340518854362e-07 0 1.3198340518854362e-07 -9.7727902739069415e-07 0 0 0 -2.5238786481275319e-07 -4.2515903566522376e-12 -1.7199187874633152e-15 0 -1.7199187874633152e-15 -3.4719601561383778e-12 0 0 0 -1.930887628197654e-12 6.6114809213581821e-09 1.2604404135292827e-07 0 1.2604404135292827e-07 -6.4404954553732778e-07 0 0 0 -1.5935951615399251e-07 -1.4033564495406856e-07 2.6031560701074672e-07 0 2.6031560701074672e-07 -5.0311951321866013e-07 0 0 0 -1.6086378954318217e-07 -2.6034534027999289e-07 2.5472563114299535e-07 0 2.5472563114299535e-07 -2.8854629056488952e-07 0 0 0 -1.3722290771122023e-07 -1.1596818789248853e-07 9.4936831397564887e-08 0 9.4936831397564887e-08 -3.46931923319225e-08 0 0 0 -3.7665345056102692e-08 -1.5312685628441908e-07 1.923095622790621e-07 0 1.923095622790621e-07 -2.6608137316683411e-07 0 0 0 -1.0480205736281347e-07 -9.882189749722669e-08 1.4035986138444284e-07 0 1.4035986138444284e-07 -9.5978002869620823e-08 0 0 0 -4.8699975091711931e-08 -1.0925638923254428e-07 1.6943911872857723e-07 0 1.6943911872857723e-07 -2.6081120125633947e-07 0 0 0 -9.2516897622220852e-08 -9.9953216540824195e-08 1.8654799199560052e-07 0 1.8654799199560052e-07 -4.2969810213359233e-07 0 0 0 -1.3241282966860403e-07 -4.7974290394228638e-08 1.3218486029254052e-07 0 1.3218486029254052e-07 -2.6004410423943732e-07 0 0 0 -7.7004598658416515e-08 -8.2321396823476161e-08 1.5762342159648687e-07 0 1.5762342159648687e-07 -2.771426480636706e-07 0 0 0 -8.986601122178661e-08 -5.7443600115381187e-08 1.3654638039025602e-07 0 1.3654638039025602e-07 -6.6851337265043093e-07 0 0 0 -1.8148924319145329e-07 -2.3622308232502607e-08 1.4818773576167563e-07 0 1.4818773576167563e-07 -5.7366214754803214e-07 0 0 0 -1.49321113945134e-07 -2.7353480644031934e-09 5.1250581784410771e-08 0 5.1250581784410771e-08 -6.0159814905871066e-07 0 0 0 -1.5108337428077867e-07 -2.2924088588442931e-12 4.1755566680057745e-14 0 4.1755566680057745e-14 -1.5579443524993878e-12 0 0 0 -9.6258830283591994e-13 -4.3749425949961145e-08 8.8989538139233234e-08 0 8.8989538139233234e-08 -7.9390349470779715e-07 0 0 0 -2.0941323016443915e-07 9.7832549849425344e-10 4.7402299055279636e-08 0 4.7402299055279636e-08 -4.7520131217948947e-07 0 0 0 -1.1855574667024891e-07 -1.1929535640787864e-12 5.4601348833497785e-14 0 5.4601348833497785e-14 -1.0256215507623327e-12 0 0 0 -5.5464377871027997e-13 -3.9895015701999363e-09 5.0012054477107661e-08 0 5.0012054477107661e-08 -6.1317317647078304e-07 0 0 0 -1.5429066951024574e-07 -3.7778449081894266e-08 9.7177893400702125e-08 0 9.7177893400702125e-08 -5.0452958693152148e-07 0 0 0 -1.3557700900335378e-07 -3.089221315251592e-08 1.1702953809461496e-07 0 1.1702953809461496e-07 -4.2257163742414319e-07 0 0 0 -1.1336596264416499e-07 -6.3548988915228567e-09 9.3593051172581874e-08 0 9.3593051172581874e-08 -4.1107382912190584e-07 0 0 0 -1.0435718200335712e-07 -1.5647241633690926e-08 7.2808400774748368e-08 0 7.2808400774748368e-08 -3.4224428594446578e-07 0 0 0 -8.9472881894539149e-08 -1.3350725482969749e-09 2.5710864608689993e-08 0 2.5710864608689993e-08 -4.4508354629257663e-07 0 0 0 -1.1160465471021835e-07 -4.4931700649850238e-13 4.7441236958587626e-14 0 4.7441236958587626e-14 -6.6869031141134977e-13 0 0 0 -2.7950182947746304e-13 -1.4578969940188236e-08 3.7891570231102148e-08 0 3.7891570231102148e-08 -5.0559521625799299e-07 0 0 0 -1.3004354654954568e-07 3.7673713884158142e-13 3.827534316324829e-14 0 3.827534316324829e-14 -2.4936165861067376e-13 0 0 0 3.1843870057726964e-14 -5.0323284246251888e-09 2.35327016160909e-08 0 2.35327016160909e-08 -3.7088638456868285e-07 0 0 0 -9.3979678248326854e-08 1.7601912812122272e-09 2.6901976123780396e-08 0 2.6901976123780396e-08 -4.2693728663591934e-07 0 0 0 -1.0629427383867699e-07 9.112800221756499e-15 3.4353497840375764e-14 0 3.4353497840375764e-14 -4.327614062040711e-13 0 0 0 -1.0591215149557855e-13 -5.8995385051416885e-10 2.6276391938793805e-08 0 2.6276391938793805e-08 -3.5905457345291693e-07 0 0 0 -8.9911131825857774e-08 -1.8184659655108762e-08 6.4671994175668112e-08 0 6.4671994175668112e-08 -3.8120553536127502e-07 0 0 0 -9.9847548754095946e-08 -2.1734802359427604e-08 1.0393910829848299e-07 0 1.0393910829848299e-07 -2.0605666316616208e-07 0 0 0 -5.6947866381397262e-08 -5.7957303815415571e-08 1.3393839905652374e-07 0 1.3393839905652374e-07 -3.4888421906398433e-07 0 0 0 -1.0171038071984998e-07 -2.7541925809539281e-08 7.1122138086427236e-08 0 7.1122138086427236e-08 -2.5882932724597034e-08 0 0 0 -1.335621463353409e-08 -6.7922417577920172e-08 1.37910015429823e-07 0 1.37910015429823e-07 -2.0830018480337902e-07 0 0 0 -6.9055650595324832e-08 -5.4911934380363408e-08 1.1940668182137728e-07 0 1.1940668182137728e-07 -1.1795202521307485e-07 0 0 0 -4.3215989898359591e-08 -5.6982574391656538e-08 9.9840221355646245e-08 0 9.9840221355646245e-08 -9.6076201523160352e-08 0 0 0 -3.826469397870417e-08 -9.4367105498406439e-08 1.3026971106243392e-07 0 1.3026971106243392e-07 -9.1538517566327027e-08 0 0 0 -4.6476405766183426e-08 -7.8517858099818495e-08 6.1767836421570404e-08 0 6.1767836421570404e-08 4.8236197300863491e-09 0 0 0 -1.8423559592433023e-08 -1.609991081772522e-08 6.6873222559443878e-08 0 6.6873222559443878e-08 -7.8812406258403383e-08 0 0 0 -2.3728079269032257e-08 4.556978115294689e-08 2.3372327861556731e-08 0 2.3372327861556731e-08 -7.2831079938014603e-09 0 0 0 9.5716682897863441e-09 3.6653679881276721e-08 -6.5004754800036065e-10 0 -6.5004754800036065e-10 9.3225894776682973e-09 0 0 0 1.1494067339736301e-08 -1.4676844178877698e-08 -1.1129001125708554e-08 0 -1.1129001125708554e-08 2.0785415918416232e-08 0 0 0 1.5271429348846601e-09 2.2280081688323551e-07 -7.0004740796666469e-09 0 -7.0004740796666469e-09 -2.0927056184732358e-09 0 0 0 5.5177027816190529e-08 6.559216344247931e-08 5.6215470066975102e-08 0 5.6215470066975102e-08 2.1822223487547638e-08 0 0 0 2.1853596732506739e-08 1.7703821382041195e-07 7.7351884248963877e-09 0 7.7351884248963877e-09 4.548770232573022e-09 0 0 0 4.5396746013246217e-08 5.3607164864350242e-08 2.0444559357358651e-08 0 2.0444559357358651e-08 -2.845751911981615e-09 0 0 0 1.269035323809216e-08 -5.9705612067009611e-08 1.0549937559281031e-07 0 1.0549937559281031e-07 -3.0818741638069277e-08 0 0 0 -2.2631088426269715e-08 -2.4466158536139929e-08 5.5462682356143297e-08 0 5.5462682356143297e-08 1.1876924478900252e-08 0 0 0 -3.1473085143099126e-09 6.7285679607809639e-08 3.5571632756554745e-08 0 3.5571632756554745e-08 1.4821474845372448e-08 0 0 0 2.0526788613295523e-08 -4.3056833791476668e-08 5.825926472466232e-08 0 5.825926472466232e-08 1.5318282709517594e-09 0 0 0 -1.0381251380131224e-08 -1.8665307447201779e-08 5.468378445019674e-08 0 5.468378445019674e-08 3.9096770254689892e-08 0 0 0 5.1078657018720408e-09 2.0112794095392784e-07 2.6378616581728538e-08 0 2.6378616581728538e-08 1.7119607955476313e-08 0 0 0 5.4561887227351044e-08 -4.4107819886399365e-08 7.5063267048533298e-08 0 7.5063267048533298e-08 -1.4640293924169908e-08 0 0 0 -1.4687028452642322e-08 -4.2944109141978593e-08 8.46673780311466e-08 0 8.46673780311466e-08 -4.4504221121634216e-08 0 0 0 -2.1862082565903209e-08 -3.8864293475100079e-08 7.7028508696932498e-08 0 7.7028508696932498e-08 -3.0526740386605454e-08 0 0 0 -1.7347758465426353e-08 -3.6273925870333517e-08 8.2508857192430413e-08 0 8.2508857192430413e-08 -2.5908282126698037e-08 0 0 0 -1.5545551999257908e-08 -5.1995564932884664e-08 8.0491630257638119e-08 0 8.0491630257638119e-08 -2.8718749391710304e-08 0 0 0 -2.0178578581148749e-08 -4.1032676621350439e-08 7.4596208909440391e-08 0 7.4596208909440391e-08 -3.7950426487902468e-08 0 0 0 -1.974577577731323e-08 -2.908567900171061e-08 6.1815569183889834e-08 0 6.1815569183889834e-08 -3.5929748153382755e-08 0 0 0 -1.6253856788773348e-08 -2.3865147065344647e-08 6.4219746753885323e-08 0 6.4219746753885323e-08 -7.9902768704994816e-09 0 0 0 -7.9638559839610322e-09 -4.9322611886505069e-08 4.1890373704950598e-08 0 4.1890373704950598e-08 -1.9602249265371024e-08 0 0 0 -1.7231215287969037e-08 -1.5968190739525546e-08 5.5215289986757502e-08 0 5.5215289986757502e-08 -5.3244117998430813e-09 0 0 0 -5.3231506348421576e-09 3.5979278704885364e-08 1.5797745478588943e-08 0 1.5797745478588943e-08 -2.0174339816237891e-08 0 0 0 3.9512347221618433e-09 -1.0443546109020967e-08 4.1285667236648035e-08 0 4.1285667236648035e-08 -3.2050082459204942e-08 0 0 0 -1.0623407142056474e-08 1.2624637892777109e-08 2.1834118701757175e-08 0 2.1834118701757175e-08 1.2018826623727905e-08 0 0 0 6.1608661291262569e-09 1.7630979987163968e-08 1.5580712048154511e-08 0 1.5580712048154511e-08 -8.7073256167596547e-09 0 0 0 2.2309135926010849e-09 9.0772896431673224e-09 1.0662119804037093e-08 0 1.0662119804037093e-08 -2.8499100248148137e-08 0 0 0 -4.855452651245197e-09 6.1985717145103714e-09 1.3172043558226507e-08 0 1.3172043558226507e-08 -4.2542691958604223e-08 0 0 0 -9.0860300610234687e-09 -2.7775144704183397e-09 1.4605799337201742e-08 0 1.4605799337201742e-08 -7.9550198495963226e-08 0 0 0 -2.0581928241595338e-08 9.599935982213631e-09 3.2634168616893857e-08 0 3.2634168616893857e-08 -3.9516571263665767e-08 0 0 0 -7.4791588203630307e-09 9.2940965884093647e-10 3.7980608942210713e-10 0 3.7980608942210713e-10 -9.4615484259826257e-08 0 0 0 -2.342151865024637e-08 9.8576920064881689e-09 4.1254150617450644e-09 0 4.1254150617450644e-09 -8.8142794980055519e-08 0 0 0 -1.9571275743391877e-08 1.0722448306292112e-08 2.604129447532749e-09 0 2.604129447532749e-09 -1.0406995966410973e-07 0 0 0 -2.3336877839454484e-08 2.9596315876748849e-08 1.0407703618603915e-08 0 1.0407703618603915e-08 -1.2011171320894159e-07 0 0 0 -2.2628849333048212e-08 9.8820650494547528e-09 2.9667694971968745e-08 0 2.9667694971968745e-08 -8.1373674649956988e-08 0 0 0 -1.7872902400125545e-08 -6.1309286852699507e-09 3.9335320888726659e-08 0 3.9335320888726659e-08 -1.2529196998277567e-07 0 0 0 -3.2855724667011465e-08 -1.1240424105095497e-08 3.8911303684870009e-08 0 3.8911303684870009e-08 -9.801005034540938e-08 0 0 0 -2.7312618612626153e-08 -7.8799965688954785e-09 5.7447383038879512e-08 0 5.7447383038879512e-08 -3.6536820057651485e-08 0 0 0 -1.1104204156636724e-08 1.1581537507471275e-09 4.9663536001843777e-08 0 4.9663536001843777e-08 -6.7343980289029933e-08 0 0 0 -1.6546456634570701e-08 -2.3729496441930268e-08 6.7598672844816365e-08 0 6.7598672844816365e-08 -7.625626906833543e-08 0 0 0 -2.4996441377566398e-08 -1.8647697487922926e-09 4.5683241011881358e-08 0 4.5683241011881358e-08 -2.5612505511684917e-08 0 0 0 -6.8693188151193024e-09 -1.8426599222896228e-08 5.2927091190903327e-08 0 5.2927091190903327e-08 -6.7770880191888267e-08 0 0 0 -2.154936985369615e-08 
</DataArray>
</CellData>
</Piece>
</UnstructuredGrid>
</VTKFile>
