<?xml version="1.0"?>
<VTKFile type="UnstructuredGrid" version="0.1" byte_order="LittleEndian">
<UnstructuredGrid>
<Piece NumberOfPoints="880" NumberOfCells="299">
<Points>
<DataArray type="Float64" NumberOfComponents="3" format="ascii">
0 0.25000000000104189 0 -0 0 0 0.18653882694645291 0.22249173546702489 0 -0 0 0 0.24999999999941089 0 0 0.18653882694645291 0.22249173546702489 0 0.24999999999941089 0 0 0.49999999999869182 0 0 0.35015135319464608 0.1900339269648805 0 0.24999999999941089 0 0 0.35015135319464608 0.1900339269648805 0 0.18653882694645291 0.22249173546702489 0 0.35015135319464608 0.1900339269648805 0 0.49999999999869182 0 0 0.49924741621175961 0.21507969613896921 0 0.40587285776242238 0.32419148732968017 0 0.35015135319464608 0.1900339269648805 0 0.49924741621175961 0.21507969613896921 0 0.45418244162583959 0.41624787166862259 0 0.41576443813007791 0.48093483781626972 0 0.37764981543668408 0.41341486499350411 0 0.40587285776242238 0.32419148732968017 0 0.45418244162583959 0.41624787166862259 0 0.37764981543668408 0.41341486499350411 0 0.45418244162583959 0.41624787166862259 0 0.46566719828045178 0.47702825415921918 0 0.41576443813007791 0.48093483781626972 0 0.46566719828045178 0.47702825415921918 0 0.4638583922372429 0.51470588235294135 0 0.41576443813007791 0.48093483781626972 0 0.49954900152271581 0.45107191084564019 0 0.5 0.5 0 0.46566719828045178 0.47702825415921918 0 0.46566719828045178 0.47702825415921918 0 0.5 0.5 0 0.4638583922372429 0.51470588235294135 0 0.49954900152271581 0.45107191084564019 0 0.46566719828045178 0.47702825415921918 0 0.45418244162583959 0.41624787166862259 0 0.45418244162583959 0.41624787166862259 0 0.49435464945626773 0.33318442629318029 0 0.54876010062294855 0.39662628167175101 0 0.49435464945626773 0.33318442629318029 0 0.45418244162583959 0.41624787166862259 0 0.40587285776242238 0.32419148732968017 0 0.49435464945626773 0.33318442629318029 0 0.40587285776242238 0.32419148732968017 0 0.49924741621175961 0.21507969613896921 0 0.35015135319464608 0.1900339269648805 0 0.40587285776242238 0.32419148732968017 0 0.29145599617909779 0.35026601625021492 0 0.40587285776242238 0.32419148732968017 0 0.37764981543668408 0.41341486499350411 0 0.29145599617909779 0.35026601625021492 0 0.18653882694645291 0.22249173546702489 0 0.35015135319464608 0.1900339269648805 0 0.29145599617909779 0.35026601625021492 0 0.32540781287085369 0.49175159894608172 0 0.17872124008781709 0.39692711089439497 0 0.29145599617909779 0.35026601625021492 0 0.37764981543668408 0.41341486499350411 0 0.32540781287085369 0.49175159894608172 0 0.29145599617909779 0.35026601625021492 0 0.41576443813007791 0.48093483781626972 0 0.32540781287085369 0.49175159894608172 0 0.37764981543668408 0.41341486499350411 0 0 0.50000000000206157 0 0 0.25000000000104189 0 0.17872124008781709 0.39692711089439497 0 0 0.50000000000206157 0 0.17872124008781709 0.39692711089439497 0 0.22453074737734591 0.51613635929252633 0 0.17872124008781709 0.39692711089439497 0 0.32540781287085369 0.49175159894608172 0 0.22453074737734591 0.51613635929252633 0 0.17872124008781709 0.39692711089439497 0 0.18653882694645291 0.22249173546702489 0 0.29145599617909779 0.35026601625021492 0 0.17872124008781709 0.39692711089439497 0 0 0.25000000000104189 0 0.18653882694645291 0.22249173546702489 0 0 0.75000000000034772 0 0 0.50000000000206157 0 0.18442368612951149 0.62734948407416979 0 0 0.75000000000034772 0 0.18442368612951149 0.62734948407416979 0 0.22727208279115291 0.72949159435386135 0 0.18442368612951149 0.62734948407416979 0 0.31346558946927339 0.67110784456164874 0 0.22727208279115291 0.72949159435386135 0 0.31771010312359771 0.58585679504088894 0 0.18442368612951149 0.62734948407416979 0 0.22453074737734591 0.51613635929252633 0 0.18442368612951149 0.62734948407416979 0 0 0.50000000000206157 0 0.22453074737734591 0.51613635929252633 0 0 1 0 0 0.75000000000034772 0 0.096516139048187316 0.89789944498939644 0 0.1596341872805197 1 0 0 1 0 0.096516139048187316 0.89789944498939644 0 0 0.75000000000034772 0 0.1644705180525495 0.8200994301041713 0 0.096516139048187316 0.89789944498939644 0 0.2386314078659193 0.92924778694987087 0 0.1644705180525495 0.8200994301041713 0 0.27155609766735261 0.80398965554903801 0 0.1644705180525495 0.8200994301041713 0 0 0.75000000000034772 0 0.22727208279115291 0.72949159435386135 0 0.1644705180525495 0.8200994301041713 0 0.22727208279115291 0.72949159435386135 0 0.27155609766735261 0.80398965554903801 0 0.1644705180525495 0.8200994301041713 0 0.2386314078659193 0.92924778694987087 0 0.096516139048187316 0.89789944498939644 0 0.2386314078659193 0.92924778694987087 0 0.1596341872805197 1 0 0.096516139048187316 0.89789944498939644 0 0.27591592301363282 1 0 0.1596341872805197 1 0 0.2386314078659193 0.92924778694987087 0 0.36061858902161292 1 0 0.27591592301363282 1 0 0.32789203369730929 0.94219211037003092 0 0.36061858902161292 1 0 0.32789203369730929 0.94219211037003092 0 0.39382242252278338 0.95440420122950598 0 0.32789203369730929 0.94219211037003092 0 0.27591592301363282 1 0 0.2386314078659193 0.92924778694987087 0 0.31834856208730472 0.88134829947972904 0 0.32789203369730929 0.94219211037003092 0 0.2386314078659193 0.92924778694987087 0 0.39382242252278338 0.95440420122950598 0 0.32789203369730929 0.94219211037003092 0 0.37746652222901839 0.8987532801416368 0 0.37746652222901839 0.8987532801416368 0 0.32789203369730929 0.94219211037003092 0 0.31834856208730472 0.88134829947972904 0 0.31834856208730472 0.88134829947972904 0 0.2386314078659193 0.92924778694987087 0 0.27155609766735261 0.80398965554903801 0 0.37746652222901839 0.8987532801416368 0 0.31834856208730472 0.88134829947972904 0 0.36493375430404612 0.82333914183704071 0 0.36493375430404612 0.82333914183704071 0 0.31834856208730472 0.88134829947972904 0 0.27155609766735261 0.80398965554903801 0 0.22727208279115291 0.72949159435386135 0 0.32984265945580837 0.74432890077789404 0 0.27155609766735261 0.80398965554903801 0 0.32984265945580837 0.74432890077789404 0 0.36493375430404612 0.82333914183704071 0 0.27155609766735261 0.80398965554903801 0 0.36493375430404612 0.82333914183704071 0 0.32984265945580837 0.74432890077789404 0 0.39746869305290999 0.7595658224757349 0 0.42893012659725649 0.81084715169569632 0 0.36493375430404612 0.82333914183704071 0 0.39746869305290999 0.7595658224757349 0 0.44651949253391748 0.77225997208621999 0 0.42893012659725649 0.81084715169569632 0 0.39746869305290999 0.7595658224757349 0 0.44651949253391748 0.77225997208621999 0 0.39746869305290999 0.7595658224757349 0 0.43412357948152142 0.72128778687215156 0 0.44651949253391748 0.77225997208621999 0 0.47220206448452873 0.74892462649306213 0 0.47786860714145291 0.77730227330627721 0 0.47220206448452873 0.74892462649306213 0 0.5 0.76470588235294124 0 0.47786860714145291 0.77730227330627721 0 0.5 0.76470588235294124 0 0.5 0.79411764705882359 0 0.47786860714145291 0.77730227330627721 0 0.5 0.79411764705882359 0 0.5 0.82352941176470584 0 0.47062147868881782 0.80650323854033878 0 0.5 0.79411764705882359 0 0.47062147868881782 0.80650323854033878 0 0.47786860714145291 0.77730227330627721 0 0.47062147868881782 0.80650323854033878 0 0.44651949253391748 0.77225997208621999 0 0.47786860714145291 0.77730227330627721 0 0.47062147868881782 0.80650323854033878 0 0.42893012659725649 0.81084715169569632 0 0.44651949253391748 0.77225997208621999 0 0.46181179062043481 0.83858979842637782 0 0.42893012659725649 0.81084715169569632 0 0.47062147868881782 0.80650323854033878 0 0.42880856207355889 0.86677159981903118 0 0.42893012659725649 0.81084715169569632 0 0.46181179062043481 0.83858979842637782 0 0.5 0.82352941176470584 0 0.5 0.85294117647058831 0 0.46181179062043481 0.83858979842637782 0 0.5 0.82352941176470584 0 0.46181179062043481 0.83858979842637782 0 0.47062147868881782 0.80650323854033878 0 0.46181179062043481 0.83858979842637782 0 0.5 0.85294117647058831 0 0.47032448519202857 0.86718057681700655 0 0.5 0.85294117647058831 0 0.5 0.88235294117647056 0 0.47032448519202857 0.86718057681700655 0 0.42880856207355889 0.86677159981903118 0 0.46181179062043481 0.83858979842637782 0 0.47032448519202857 0.86718057681700655 0 0.42880856207355889 0.86677159981903118 0 0.37746652222901839 0.8987532801416368 0 0.36493375430404612 0.82333914183704071 0 0.42880856207355889 0.86677159981903118 0 0.36493375430404612 0.82333914183704071 0 0.42893012659725649 0.81084715169569632 0 0.39382242252278338 0.95440420122950598 0 0.37746652222901839 0.8987532801416368 0 0.42822627495986648 0.92083108049218854 0 0.42822627495986648 0.92083108049218854 0 0.37746652222901839 0.8987532801416368 0 0.42880856207355889 0.86677159981903118 0 0.46100207326614928 0.89524736819256467 0 0.42880856207355889 0.86677159981903118 0 0.47032448519202857 0.86718057681700655 0 0.42822627495986648 0.92083108049218854 0 0.42880856207355889 0.86677159981903118 0 0.46100207326614928 0.89524736819256467 0 0.5 0.88235294117647056 0 0.46100207326614928 0.89524736819256467 0 0.47032448519202857 0.86718057681700655 0 0.5 0.88235294117647056 0 0.5 0.91176470588235292 0 0.46100207326614928 0.89524736819256467 0 0.46100207326614928 0.89524736819256467 0 0.5 0.91176470588235292 0 0.46949408183482899 0.92833826413560594 0 0.5 0.91176470588235292 0 0.5 0.94117647058823528 0 0.46949408183482899 0.92833826413560594 0 0.42822627495986648 0.92083108049218854 0 0.46100207326614928 0.89524736819256467 0 0.46949408183482899 0.92833826413560594 0 0.44768478605684647 0.9646709673379662 0 0.46949408183482899 0.92833826413560594 0 0.47596308696979028 0.95620709615192379 0 0.44768478605684647 0.9646709673379662 0 0.42822627495986648 0.92083108049218854 0 0.46949408183482899 0.92833826413560594 0 0.44768478605684647 0.9646709673379662 0 0.47596308696979028 0.95620709615192379 0 0.47818194888216242 0.97829325975680159 0 0.46949408183482899 0.92833826413560594 0 0.5 0.94117647058823528 0 0.47596308696979028 0.95620709615192379 0 0.47596308696979028 0.95620709615192379 0 0.5 0.97058823529411764 0 0.47818194888216242 0.97829325975680159 0 0.5 0.94117647058823528 0 0.5 0.97058823529411764 0 0.47596308696979028 0.95620709615192379 0 0.5 1 0 0.46726187138417491 1 0 0.47818194888216242 0.97829325975680159 0 0.5 0.97058823529411764 0 0.5 1 0 0.47818194888216242 0.97829325975680159 0 0.46726187138417491 1 0 0.44768478605684647 0.9646709673379662 0 0.47818194888216242 0.97829325975680159 0 0.46726187138417491 1 0 0.42231823435723009 1 0 0.44768478605684647 0.9646709673379662 0 0.44768478605684647 0.9646709673379662 0 0.42231823435723009 1 0 0.39382242252278338 0.95440420122950598 0 0.44768478605684647 0.9646709673379662 0 0.39382242252278338 0.95440420122950598 0 0.42822627495986648 0.92083108049218854 0 0.42231823435723009 1 0 0.36061858902161292 1 0 0.39382242252278338 0.95440420122950598 0 0.31771010312359771 0.58585679504088894 0 0.41980724897053312 0.55867199730355355 0 0.3872154068451229 0.6301386882447304 0 0.32540781287085369 0.49175159894608172 0 0.41980724897053312 0.55867199730355355 0 0.31771010312359771 0.58585679504088894 0 0.32540781287085369 0.49175159894608172 0 0.31771010312359771 0.58585679504088894 0 0.22453074737734591 0.51613635929252633 0 0.18442368612951149 0.62734948407416979 0 0.31771010312359771 0.58585679504088894 0 0.31346558946927339 0.67110784456164874 0 0.31346558946927339 0.67110784456164874 0 0.32984265945580837 0.74432890077789404 0 0.22727208279115291 0.72949159435386135 0 0.39746869305290999 0.7595658224757349 0 0.32984265945580837 0.74432890077789404 0 0.38513711431054509 0.69312683393047636 0 0.38513711431054509 0.69312683393047636 0 0.32984265945580837 0.74432890077789404 0 0.31346558946927339 0.67110784456164874 0 0.31771010312359771 0.58585679504088894 0 0.3872154068451229 0.6301386882447304 0 0.31346558946927339 0.67110784456164874 0 0.3872154068451229 0.6301386882447304 0 0.38513711431054509 0.69312683393047636 0 0.31346558946927339 0.67110784456164874 0 0.4390556798454946 0.66199025953586599 0 0.38513711431054509 0.69312683393047636 0 0.3872154068451229 0.6301386882447304 0 0.4390556798454946 0.66199025953586599 0 0.3872154068451229 0.6301386882447304 0 0.44702869549010399 0.61002701911053991 0 0.39746869305290999 0.7595658224757349 0 0.38513711431054509 0.69312683393047636 0 0.43412357948152142 0.72128778687215156 0 0.43412357948152142 0.72128778687215156 0 0.38513711431054509 0.69312683393047636 0 0.4390556798454946 0.66199025953586599 0 0.43412357948152142 0.72128778687215156 0 0.47636314644728822 0.72058823529411908 0 0.47220206448452873 0.74892462649306213 0 0.44651949253391748 0.77225997208621999 0 0.43412357948152142 0.72128778687215156 0 0.47220206448452873 0.74892462649306213 0 0.43412357948152142 0.72128778687215156 0 0.4390556798454946 0.66199025953586599 0 0.46330219403010409 0.69594601192744354 0 0.43412357948152142 0.72128778687215156 0 0.46330219403010409 0.69594601192744354 0 0.47636314644728822 0.72058823529411908 0 0.46330219403010409 0.69594601192744354 0 0.5 0.70588235294117663 0 0.47636314644728822 0.72058823529411908 0 0.5 0.67647058823529438 0 0.5 0.70588235294117663 0 0.46330219403010409 0.69594601192744354 0 0.5 0.70588235294117663 0 0.5 0.73529411764705888 0 0.47636314644728822 0.72058823529411908 0 0.5 0.73529411764705888 0 0.5 0.76470588235294124 0 0.47220206448452873 0.74892462649306213 0 0.47636314644728822 0.72058823529411908 0 0.5 0.73529411764705888 0 0.47220206448452873 0.74892462649306213 0 0.4390556798454946 0.66199025953586599 0 0.47271076880550111 0.63357150722538136 0 0.47501372853621993 0.66300743809067952 0 0.4390556798454946 0.66199025953586599 0 0.44702869549010399 0.61002701911053991 0 0.47271076880550111 0.63357150722538136 0 0.46330219403010409 0.69594601192744354 0 0.4390556798454946 0.66199025953586599 0 0.47501372853621993 0.66300743809067952 0 0.5 0.67647058823529438 0 0.46330219403010409 0.69594601192744354 0 0.47501372853621993 0.66300743809067952 0 0.5 0.64705882352941191 0 0.5 0.67647058823529438 0 0.47501372853621993 0.66300743809067952 0 0.47271076880550111 0.63357150722538136 0 0.5 0.64705882352941191 0 0.47501372853621993 0.66300743809067952 0 0.5 0.61764705882352966 0 0.5 0.64705882352941191 0 0.47271076880550111 0.63357150722538136 0 0.5 0.5882352941176473 0 0.5 0.61764705882352966 0 0.47784843225772261 0.60532339797118362 0 0.5 0.61764705882352966 0 0.47271076880550111 0.63357150722538136 0 0.47784843225772261 0.60532339797118362 0 0.5 0.55882352941176494 0 0.5 0.5882352941176473 0 0.46950269699300751 0.57713611057881953 0 0.46950269699300751 0.57713611057881953 0 0.5 0.5882352941176473 0 0.47784843225772261 0.60532339797118362 0 0.44702869549010399 0.61002701911053991 0 0.41980724897053312 0.55867199730355355 0 0.46950269699300751 0.57713611057881953 0 0.44702869549010399 0.61002701911053991 0 0.46950269699300751 0.57713611057881953 0 0.47784843225772261 0.60532339797118362 0 0.47271076880550111 0.63357150722538136 0 0.44702869549010399 0.61002701911053991 0 0.47784843225772261 0.60532339797118362 0 0.3872154068451229 0.6301386882447304 0 0.41980724897053312 0.55867199730355355 0 0.44702869549010399 0.61002701911053991 0 0.32540781287085369 0.49175159894608172 0 0.41576443813007791 0.48093483781626972 0 0.41980724897053312 0.55867199730355355 0 0.41576443813007791 0.48093483781626972 0 0.4638583922372429 0.51470588235294135 0 0.41980724897053312 0.55867199730355355 0 0.41980724897053312 0.55867199730355355 0 0.4638583922372429 0.51470588235294135 0 0.47063366764015668 0.5477498568705923 0 0.46950269699300751 0.57713611057881953 0 0.41980724897053312 0.55867199730355355 0 0.47063366764015668 0.5477498568705923 0 0.5 0.55882352941176494 0 0.46950269699300751 0.57713611057881953 0 0.47063366764015668 0.5477498568705923 0 0.5 0.52941176470588269 0 0.5 0.55882352941176494 0 0.47063366764015668 0.5477498568705923 0 0.4638583922372429 0.51470588235294135 0 0.5 0.52941176470588269 0 0.47063366764015668 0.5477498568705923 0 0.5 0.5 0 0.5 0.52941176470588269 0 0.4638583922372429 0.51470588235294135 0 0.52820848765230954 0.54540076010342464 0 0.5 0.52941176470588269 0 0.52629893369322589 0.51330452493555312 0 0.5 0.52941176470588269 0 0.5 0.5 0 0.52629893369322589 0.51330452493555312 0 0.5 0.52941176470588269 0 0.5 0.5 0 0.5 0.55882352941176494 0 0.5 0.52941176470588269 0 0.52820848765230954 0.54540076010342464 0 0.5 0.55882352941176494 0 0.5 0.52941176470588269 0 0.52246722155046366 0.57417151085839346 0 0.5 0.55882352941176494 0 0.52820848765230954 0.54540076010342464 0 0.56199650931215228 0.51957997397013023 0 0.55931585964581554 0.57571189932143541 0 0.52820848765230954 0.54540076010342464 0 0.54128967150166729 0.47213012589832831 0 0.56199650931215228 0.51957997397013023 0 0.52629893369322589 0.51330452493555312 0 0.56199650931215228 0.51957997397013023 0 0.52820848765230954 0.54540076010342464 0 0.52629893369322589 0.51330452493555312 0 0.61174067805461174 0.54148194547208961 0 0.56199650931215228 0.51957997397013023 0 0.60345082206666756 0.47575908627627911 0 0.61174067805461174 0.54148194547208961 0 0.55931585964581554 0.57571189932143541 0 0.56199650931215228 0.51957997397013023 0 0.61264973759093866 0.60999664295093947 0 0.55931585964581554 0.57571189932143541 0 0.61174067805461174 0.54148194547208961 0 0.61264973759093866 0.60999664295093947 0 0.55828304378107996 0.63546085023637511 0 0.55931585964581554 0.57571189932143541 0 0.55931585964581554 0.57571189932143541 0 0.55828304378107996 0.63546085023637511 0 0.52754891270107895 0.60396918438229519 0 0.55828304378107996 0.63546085023637511 0 0.52222323737415433 0.63323059203007803 0 0.52754891270107895 0.60396918438229519 0 0.55931585964581554 0.57571189932143541 0 0.52246722155046366 0.57417151085839346 0 0.52820848765230954 0.54540076010342464 0 0.55931585964581554 0.57571189932143541 0 0.52754891270107895 0.60396918438229519 0 0.52246722155046366 0.57417151085839346 0 0.52754891270107895 0.60396918438229519 0 0.5 0.5882352941176473 0 0.52246722155046366 0.57417151085839346 0 0.5 0.5882352941176473 0 0.5 0.55882352941176494 0 0.52246722155046366 0.57417151085839346 0 0.5 0.5882352941176473 0 0.5 0.55882352941176494 0 0.52222323737415433 0.63323059203007803 0 0.5 0.61764705882352966 0 0.52754891270107895 0.60396918438229519 0 0.5 0.61764705882352966 0 0.5 0.5882352941176473 0 0.5 0.61764705882352966 0 0.5 0.5882352941176473 0 0.52754891270107895 0.60396918438229519 0 0.5 0.64705882352941191 0 0.5 0.61764705882352966 0 0.52222323737415433 0.63323059203007803 0 0.5 0.64705882352941191 0 0.5 0.61764705882352966 0 0.52736180768426655 0.66304505109048573 0 0.5 0.64705882352941191 0 0.52222323737415433 0.63323059203007803 0 0.5 0.67647058823529438 0 0.5 0.64705882352941191 0 0.52736180768426655 0.66304505109048573 0 0.5 0.67647058823529438 0 0.5 0.64705882352941191 0 0.52189318962165776 0.69193883095305098 0 0.5 0.67647058823529438 0 0.52736180768426655 0.66304505109048573 0 0.55852327729743823 0.69498827241231187 0 0.52189318962165776 0.69193883095305098 0 0.52736180768426655 0.66304505109048573 0 0.55828304378107996 0.63546085023637511 0 0.55852327729743823 0.69498827241231187 0 0.52736180768426655 0.66304505109048573 0 0.55828304378107996 0.63546085023637511 0 0.52736180768426655 0.66304505109048573 0 0.52222323737415433 0.63323059203007803 0 0.5 0.73529411764705888 0 0.52547133540542634 0.72058823529411897 0 0.5211984712236245 0.75134107022269114 0 0.5 0.73529411764705888 0 0.5 0.70588235294117663 0 0.52547133540542634 0.72058823529411897 0 0.5 0.73529411764705888 0 0.5 0.70588235294117663 0 0.5 0.70588235294117663 0 0.52189318962165776 0.69193883095305098 0 0.52547133540542634 0.72058823529411897 0 0.5 0.70588235294117663 0 0.5 0.67647058823529438 0 0.52189318962165776 0.69193883095305098 0 0.5 0.70588235294117663 0 0.5 0.67647058823529438 0 0.52189318962165776 0.69193883095305098 0 0.55852327729743823 0.69498827241231187 0 0.52547133540542634 0.72058823529411897 0 0.52547133540542634 0.72058823529411897 0 0.55458114032207428 0.75544804615062711 0 0.5211984712236245 0.75134107022269114 0 0.55852327729743823 0.69498827241231187 0 0.55458114032207428 0.75544804615062711 0 0.52547133540542634 0.72058823529411897 0 0.6088970477846376 0.72715446211577472 0 0.55458114032207428 0.75544804615062711 0 0.55852327729743823 0.69498827241231187 0 0.6088970477846376 0.72715446211577472 0 0.55852327729743823 0.69498827241231187 0 0.60110770968787908 0.67045598539422102 0 0.60110770968787908 0.67045598539422102 0 0.55828304378107996 0.63546085023637511 0 0.61264973759093866 0.60999664295093947 0 0.60110770968787908 0.67045598539422102 0 0.55852327729743823 0.69498827241231187 0 0.55828304378107996 0.63546085023637511 0 0.66621429167335955 0.68470300534742679 0 0.60110770968787908 0.67045598539422102 0 0.61264973759093866 0.60999664295093947 0 0.6088970477846376 0.72715446211577472 0 0.66621429167335955 0.68470300534742679 0 0.6817340940367822 0.76923101696744944 0 0.66621429167335955 0.68470300534742679 0 0.6088970477846376 0.72715446211577472 0 0.60110770968787908 0.67045598539422102 0 0.6817340940367822 0.76923101696744944 0 0.66621429167335955 0.68470300534742679 0 0.7828103453665094 0.69876044407634474 0 0.66621429167335955 0.68470300534742679 0 0.69354174170208815 0.57892485983477626 0 0.7828103453665094 0.69876044407634474 0 0.69354174170208815 0.57892485983477626 0 0.66681557370681976 0.49435464945626773 0 0.77935529174931761 0.49004815756283893 0 0.61174067805461174 0.54148194547208961 0 0.66681557370681976 0.49435464945626773 0 0.69354174170208815 0.57892485983477626 0 0.66681557370681976 0.49435464945626773 0 0.61174067805461174 0.54148194547208961 0 0.60345082206666756 0.47575908627627911 0 0.61264973759093866 0.60999664295093947 0 0.61174067805461174 0.54148194547208961 0 0.69354174170208815 0.57892485983477626 0 0.66621429167335955 0.68470300534742679 0 0.61264973759093866 0.60999664295093947 0 0.69354174170208815 0.57892485983477626 0 0.63938141097836054 1 0 0.57768176564240026 1 0 0.60145933092659498 0.94808652648958736 0 0.60145933092659498 0.94808652648958736 0 0.55381003699196441 0.97073734537240042 0 0.55652711631508067 0.93435010280744335 0 0.57768176564240026 1 0 0.55381003699196441 0.97073734537240042 0 0.60145933092659498 0.94808652648958736 0 0.57768176564240026 1 0 0.53273812861558045 1 0 0.55381003699196441 0.97073734537240042 0 0.55381003699196441 0.97073734537240042 0 0.53273812861558045 1 0 0.52191028766292435 0.97912620202886635 0 0.53273812861558045 1 0 0.5 1 0 0.52191028766292435 0.97912620202886635 0 0.5 1 0 0.5 0.97058823529411764 0 0.52191028766292435 0.97912620202886635 0 0.5 1 0 0.5 0.97058823529411764 0 0.5 0.97058823529411764 0 0.5 0.94117647058823528 0 0.5 0.97058823529411764 0 0.5 0.94117647058823528 0 0.52554900427979434 0.95492408164812537 0 0.5 0.97058823529411764 0 0.52554900427979434 0.95492408164812537 0 0.52191028766292435 0.97912620202886635 0 0.5 0.94117647058823528 0 0.52149395742518578 0.9280464911497236 0 0.52554900427979434 0.95492408164812537 0 0.55381003699196441 0.97073734537240042 0 0.52554900427979434 0.95492408164812537 0 0.55652711631508067 0.93435010280744335 0 0.52554900427979434 0.95492408164812537 0 0.55381003699196441 0.97073734537240042 0 0.52191028766292435 0.97912620202886635 0 0.52554900427979434 0.95492408164812537 0 0.52149395742518578 0.9280464911497236 0 0.55652711631508067 0.93435010280744335 0 0.52982914238326484 0.89727189043838895 0 0.57507719038536997 0.89743529736491356 0 0.55652711631508067 0.93435010280744335 0 0.52149395742518578 0.9280464911497236 0 0.52982914238326484 0.89727189043838895 0 0.55652711631508067 0.93435010280744335 0 0.52149395742518578 0.9280464911497236 0 0.5 0.91176470588235292 0 0.52982914238326484 0.89727189043838895 0 0.5 0.94117647058823528 0 0.5 0.91176470588235292 0 0.5 0.94117647058823528 0 0.5 0.91176470588235292 0 0.52149395742518578 0.9280464911497236 0 0.5 0.91176470588235292 0 0.5 0.88235294117647056 0 0.52982914238326484 0.89727189043838895 0 0.5 0.91176470588235292 0 0.5 0.88235294117647056 0 0.52982914238326484 0.89727189043838895 0 0.5 0.88235294117647056 0 0.51991574276818808 0.86764705882352966 0 0.54799184932697576 0.8599032232094268 0 0.57507719038536997 0.89743529736491356 0 0.52982914238326484 0.89727189043838895 0 0.57507719038536997 0.89743529736491356 0 0.60145933092659498 0.94808652648958736 0 0.55652711631508067 0.93435010280744335 0 0.63427031498547037 0.88927276979110648 0 0.60145933092659498 0.94808652648958736 0 0.57507719038536997 0.89743529736491356 0 0.63427031498547037 0.88927276979110648 0 0.57507719038536997 0.89743529736491356 0 0.58994607995897996 0.84812355238296233 0 0.63427031498547037 0.88927276979110648 0 0.58994607995897996 0.84812355238296233 0 0.64153141236229239 0.83072478436463804 0 0.64153141236229239 0.83072478436463804 0 0.58994607995897996 0.84812355238296233 0 0.60049020024666178 0.78900583008989877 0 0.55206941203846505 0.81091931303809783 0 0.58994607995897996 0.84812355238296233 0 0.54799184932697576 0.8599032232094268 0 0.60049020024666178 0.78900583008989877 0 0.58994607995897996 0.84812355238296233 0 0.55206941203846505 0.81091931303809783 0 0.58994607995897996 0.84812355238296233 0 0.57507719038536997 0.89743529736491356 0 0.54799184932697576 0.8599032232094268 0 0.54799184932697576 0.8599032232094268 0 0.52982914238326484 0.89727189043838895 0 0.51991574276818808 0.86764705882352966 0 0.52395085592512047 0.83729395211968571 0 0.54799184932697576 0.8599032232094268 0 0.51991574276818808 0.86764705882352966 0 0.5 0.85294117647058831 0 0.52395085592512047 0.83729395211968571 0 0.51991574276818808 0.86764705882352966 0 0.5 0.88235294117647056 0 0.5 0.85294117647058831 0 0.5 0.88235294117647056 0 0.5 0.85294117647058831 0 0.51991574276818808 0.86764705882352966 0 0.52395085592512047 0.83729395211968571 0 0.5 0.82352941176470584 0 0.52039202967084142 0.80930587873000437 0 0.5 0.85294117647058831 0 0.5 0.82352941176470584 0 0.5 0.85294117647058831 0 0.5 0.82352941176470584 0 0.52395085592512047 0.83729395211968571 0 0.55206941203846505 0.81091931303809783 0 0.52395085592512047 0.83729395211968571 0 0.52039202967084142 0.80930587873000437 0 0.55206941203846505 0.81091931303809783 0 0.54799184932697576 0.8599032232094268 0 0.52395085592512047 0.83729395211968571 0 0.52593988039062167 0.78066906966870908 0 0.55206941203846505 0.81091931303809783 0 0.52039202967084142 0.80930587873000437 0 0.55458114032207428 0.75544804615062711 0 0.55206941203846505 0.81091931303809783 0 0.52593988039062167 0.78066906966870908 0 0.5 0.79411764705882359 0 0.52593988039062167 0.78066906966870908 0 0.52039202967084142 0.80930587873000437 0 0.5 0.82352941176470584 0 0.5 0.79411764705882359 0 0.5 0.82352941176470584 0 0.5 0.79411764705882359 0 0.52039202967084142 0.80930587873000437 0 0.5 0.76470588235294124 0 0.5 0.73529411764705888 0 0.5 0.76470588235294124 0 0.5 0.73529411764705888 0 0.5211984712236245 0.75134107022269114 0 0.5 0.79411764705882359 0 0.5 0.76470588235294124 0 0.52593988039062167 0.78066906966870908 0 0.5 0.79411764705882359 0 0.5 0.76470588235294124 0 0.52593988039062167 0.78066906966870908 0 0.5 0.76470588235294124 0 0.5211984712236245 0.75134107022269114 0 0.55458114032207428 0.75544804615062711 0 0.52593988039062167 0.78066906966870908 0 0.5211984712236245 0.75134107022269114 0 0.60049020024666178 0.78900583008989877 0 0.55458114032207428 0.75544804615062711 0 0.6088970477846376 0.72715446211577472 0 0.60049020024666178 0.78900583008989877 0 0.55206941203846505 0.81091931303809783 0 0.55458114032207428 0.75544804615062711 0 0.6817340940367822 0.76923101696744944 0 0.80987878298654392 0.8110307373443908 0 0.70916369539323409 0.86041409043207073 0 0.60049020024666178 0.78900583008989877 0 0.6088970477846376 0.72715446211577472 0 0.6817340940367822 0.76923101696744944 0 0.64153141236229239 0.83072478436463804 0 0.60049020024666178 0.78900583008989877 0 0.6817340940367822 0.76923101696744944 0 0.63427031498547037 0.88927276979110648 0 0.64153141236229239 0.83072478436463804 0 0.70916369539323409 0.86041409043207073 0 0.64153141236229239 0.83072478436463804 0 0.6817340940367822 0.76923101696744944 0 0.70916369539323409 0.86041409043207073 0 0.68173274398262862 0.93660593960145366 0 0.63427031498547037 0.88927276979110648 0 0.70916369539323409 0.86041409043207073 0 0.68173274398262862 0.93660593960145366 0 0.60145933092659498 0.94808652648958736 0 0.63427031498547037 0.88927276979110648 0 0.78222494485339233 0.91531439423588867 0 0.68173274398262862 0.93660593960145366 0 0.70916369539323409 0.86041409043207073 0 0.72408407698689681 1 0 0.68173274398262862 0.93660593960145366 0 0.78222494485339233 0.91531439423588867 0 0.68173274398262862 0.93660593960145366 0 0.63938141097836054 1 0 0.60145933092659498 0.94808652648958736 0 0.72408407698689681 1 0 0.63938141097836054 1 0 0.68173274398262862 0.93660593960145366 0 1 0.74999999999934008 0 1 1 0 0.89611933618281592 0.89173516444576184 0 0.84036581271988753 1 0 0.72408407698689681 1 0 0.78222494485339233 0.91531439423588867 0 0.84036581271988753 1 0 0.78222494485339233 0.91531439423588867 0 0.89611933618281592 0.89173516444576184 0 0.80987878298654392 0.8110307373443908 0 0.6817340940367822 0.76923101696744944 0 0.7828103453665094 0.69876044407634474 0 1 0.74999999999934008 0 0.80987878298654392 0.8110307373443908 0 0.7828103453665094 0.69876044407634474 0 0.78222494485339233 0.91531439423588867 0 0.80987878298654392 0.8110307373443908 0 0.89611933618281592 0.89173516444576184 0 0.80987878298654392 0.8110307373443908 0 0.78222494485339233 0.91531439423588867 0 0.70916369539323409 0.86041409043207073 0 0.80987878298654392 0.8110307373443908 0 1 0.74999999999934008 0 0.89611933618281592 0.89173516444576184 0 1 1 0 0.84036581271988753 1 0 0.89611933618281592 0.89173516444576184 0 1 0.49999999999869182 0 1 0.74999999999934008 0 0.84549316180028322 0.59867304496468476 0 0.84549316180028322 0.59867304496468476 0 0.69354174170208815 0.57892485983477626 0 0.77935529174931761 0.49004815756283893 0 1 0.49999999999869182 0 0.84549316180028322 0.59867304496468476 0 0.77935529174931761 0.49004815756283893 0 0.69354174170208815 0.57892485983477626 0 0.84549316180028322 0.59867304496468476 0 0.7828103453665094 0.69876044407634474 0 0.84549316180028322 0.59867304496468476 0 1 0.74999999999934008 0 0.7828103453665094 0.69876044407634474 0 0.80451351819826811 0.35479918680564199 0 1 0.49999999999869182 0 0.77935529174931761 0.49004815756283893 0 1 0.24999999999941089 0 0.80451351819826811 0.35479918680564199 0 0.79923457477009219 0.1751534052300894 0 1 0.24999999999941089 0 1 0.49999999999869182 0 0.80451351819826811 0.35479918680564199 0 0.74999999999934008 0 0 1 0 0 0.79923457477009219 0.1751534052300894 0 1 0 0 1 0.24999999999941089 0 0.79923457477009219 0.1751534052300894 0 0.49999999999869182 0 0 0.74999999999934008 0 0 0.62537763927714929 0.14286513648320209 0 0.62537763927714929 0.14286513648320209 0 0.79923457477009219 0.1751534052300894 0 0.6197279975813802 0.30020319976287241 0 0.62537763927714929 0.14286513648320209 0 0.74999999999934008 0 0 0.79923457477009219 0.1751534052300894 0 0.49999999999869182 0 0 0.62537763927714929 0.14286513648320209 0 0.49924741621175961 0.21507969613896921 0 0.62537763927714929 0.14286513648320209 0 0.6197279975813802 0.30020319976287241 0 0.49924741621175961 0.21507969613896921 0 0.6197279975813802 0.30020319976287241 0 0.49435464945626773 0.33318442629318029 0 0.49924741621175961 0.21507969613896921 0 0.54876010062294855 0.39662628167175101 0 0.49435464945626773 0.33318442629318029 0 0.6197279975813802 0.30020319976287241 0 0.66576775508844777 0.41353720431697111 0 0.54876010062294855 0.39662628167175101 0 0.6197279975813802 0.30020319976287241 0 0.49954900152271581 0.45107191084564019 0 0.45418244162583959 0.41624787166862259 0 0.54876010062294855 0.39662628167175101 0 0.54128967150166729 0.47213012589832831 0 0.49954900152271581 0.45107191084564019 0 0.54876010062294855 0.39662628167175101 0 0.54128967150166729 0.47213012589832831 0 0.5 0.5 0 0.49954900152271581 0.45107191084564019 0 0.5 0.5 0 0.54128967150166729 0.47213012589832831 0 0.52629893369322589 0.51330452493555312 0 0.60345082206666756 0.47575908627627911 0 0.54128967150166729 0.47213012589832831 0 0.54876010062294855 0.39662628167175101 0 0.60345082206666756 0.47575908627627911 0 0.56199650931215228 0.51957997397013023 0 0.54128967150166729 0.47213012589832831 0 0.66576775508844777 0.41353720431697111 0 0.60345082206666756 0.47575908627627911 0 0.54876010062294855 0.39662628167175101 0 0.66576775508844777 0.41353720431697111 0 0.80451351819826811 0.35479918680564199 0 0.77935529174931761 0.49004815756283893 0 0.66681557370681976 0.49435464945626773 0 0.60345082206666756 0.47575908627627911 0 0.66576775508844777 0.41353720431697111 0 0.66681557370681976 0.49435464945626773 0 0.66576775508844777 0.41353720431697111 0 0.77935529174931761 0.49004815756283893 0 0.79923457477009219 0.1751534052300894 0 0.80451351819826811 0.35479918680564199 0 0.6197279975813802 0.30020319976287241 0 0.80451351819826811 0.35479918680564199 0 0.66576775508844777 0.41353720431697111 0 0.6197279975813802 0.30020319976287241 0 
</DataArray>
</Points>
<Cells>
<DataArray type="UInt32" Name="connectivity" format="ascii">
0 1 2 3 4 5 6 7 8 9 10 11 12 13 14 15 16 17 18 19 20 21 22 23 24 25 26 27 28 29 30 31 32 33 34 35 36 37 38 39 40 41 42 43 44 45 46 47 48 49 50 51 52 53 54 55 56 57 58 59 60 61 62 63 64 65 66 67 68 69 70 71 72 73 74 75 76 77 78 79 80 81 82 83 84 85 86 87 88 89 90 91 92 93 94 95 96 97 98 99 100 101 102 103 104 105 106 107 108 109 110 111 112 113 114 115 116 117 118 119 120 121 122 123 124 125 126 127 128 129 130 131 132 133 134 135 136 137 138 139 140 141 142 143 144 145 146 147 148 149 150 151 152 153 154 155 156 157 158 159 160 161 162 163 164 165 166 167 168 169 170 171 172 173 174 175 176 177 178 179 180 181 182 183 184 185 186 187 188 189 190 191 192 193 194 195 196 197 198 199 200 201 202 203 204 205 206 207 208 209 210 211 212 213 214 215 216 217 218 219 220 221 222 223 224 225 226 227 228 229 230 231 232 233 234 235 236 237 238 239 240 241 242 243 244 245 246 247 248 249 250 251 252 253 254 255 256 257 258 259 260 261 262 263 264 265 266 267 268 269 270 271 272 273 274 275 276 277 278 279 280 281 282 283 284 285 286 287 288 289 290 291 292 293 294 295 296 297 298 299 300 301 302 303 304 305 306 307 308 309 310 311 312 313 314 315 316 317 318 319 320 321 322 323 324 325 326 327 328 329 330 331 332 333 334 335 336 337 338 339 340 341 342 343 344 345 346 347 348 349 350 351 352 353 354 355 356 357 358 359 360 361 362 363 364 365 366 367 368 369 370 371 372 373 374 375 376 377 378 379 380 381 382 383 384 385 386 387 388 389 390 391 392 393 394 395 396 397 398 399 400 401 402 403 404 405 406 407 408 409 410 411 412 413 414 415 416 417 418 419 420 421 422 423 424 425 426 427 428 429 430 431 432 433 434 435 436 437 438 439 440 441 442 443 444 445 446 447 448 449 450 451 452 453 454 455 456 457 458 459 460 461 462 463 464 465 466 467 468 469 470 471 472 473 474 475 476 477 478 479 480 481 482 483 484 485 486 487 488 489 490 491 492 493 494 495 496 497 498 499 500 501 502 503 504 505 506 507 508 509 510 511 512 513 514 515 516 517 518 519 520 521 522 523 524 525 526 527 528 529 530 531 532 533 534 535 536 537 538 539 540 541 542 543 544 545 546 547 548 549 550 551 552 553 554 555 556 557 558 559 560 561 562 563 564 565 566 567 568 569 570 571 572 573 574 575 576 577 578 579 580 581 582 583 584 585 586 587 588 589 590 591 592 593 594 595 596 597 598 599 600 601 602 603 604 605 606 607 608 609 610 611 612 613 614 615 616 617 618 619 620 621 622 623 624 625 626 627 628 629 630 631 632 633 634 635 636 637 638 639 640 641 642 643 644 645 646 647 648 649 650 651 652 653 654 655 656 657 658 659 660 661 662 663 664 665 666 667 668 669 670 671 672 673 674 675 676 677 678 679 680 681 682 683 684 685 686 687 688 689 690 691 692 693 694 695 696 697 698 699 700 701 702 703 704 705 706 707 708 709 710 711 712 713 714 715 716 717 718 719 720 721 722 723 724 725 726 727 728 729 730 731 732 733 734 735 736 737 738 739 740 741 742 743 744 745 746 747 748 749 750 751 752 753 754 755 756 757 758 759 760 761 762 763 764 765 766 767 768 769 770 771 772 773 774 775 776 777 778 779 780 781 782 783 784 785 786 787 788 789 790 791 792 793 794 795 796 797 798 799 800 801 802 803 804 805 806 807 808 809 810 811 812 813 814 815 816 817 818 819 820 821 822 823 824 825 826 827 828 829 830 831 832 833 834 835 836 837 838 839 840 841 842 843 844 845 846 847 848 849 850 851 852 853 854 855 856 857 858 859 860 861 862 863 864 865 866 867 868 869 870 871 872 873 874 875 876 877 878 879 
</DataArray>
<DataArray type="UInt32" Name="offsets" format="ascii">
3 6 9 12 15 18 21 24 27 30 33 36 39 42 45 48 51 54 57 60 63 66 69 72 75 78 81 84 87 90 93 96 99 102 105 108 111 114 117 120 123 126 129 132 135 138 141 144 147 150 153 156 159 162 165 168 171 174 177 180 183 186 189 192 195 198 201 204 207 210 213 216 219 222 225 228 231 234 237 240 243 246 249 252 255 258 261 264 267 270 273 276 279 282 285 288 291 294 297 300 303 306 309 312 315 318 321 324 327 330 333 336 339 342 345 348 351 354 357 360 363 366 369 372 375 378 381 384 387 390 393 396 399 402 405 408 411 414 417 420 423 425 428 430 433 436 439 442 445 448 451 454 457 460 463 466 469 472 474 477 479 482 485 487 490 493 495 498 501 504 507 510 513 515 518 521 523 526 529 532 535 538 541 544 547 550 553 556 559 562 565 568 571 574 577 580 583 586 589 592 595 597 599 602 605 608 611 614 617 620 623 626 628 631 634 636 639 642 645 648 651 654 657 660 663 666 669 672 675 677 680 683 685 688 691 694 697 700 703 705 708 710 713 716 718 721 724 727 730 733 736 739 742 745 748 751 754 757 760 763 766 769 772 775 778 781 784 787 790 793 796 799 802 805 808 811 814 817 820 823 826 829 832 835 838 841 844 847 850 853 856 859 862 865 868 871 874 877 880 
</DataArray>
<DataArray type="UInt32" Name="types" format="ascii">
5 5 5 5 5 5 5 5 5 5 5 5 5 5 5 5 5 5 5 5 5 5 5 5 5 5 5 5 5 5 5 5 5 5 5 5 5 5 5 5 5 5 5 5 5 5 5 5 5 5 5 5 5 5 5 5 5 5 5 5 5 5 5 5 5 5 5 5 5 5 5 5 5 5 5 5 5 5 5 5 5 5 5 5 5 5 5 5 5 5 5 5 5 5 5 5 5 5 5 5 5 5 5 5 5 5 5 5 5 5 5 5 5 5 5 5 5 5 5 5 5 5 5 5 5 5 5 5 5 5 5 5 5 5 5 5 5 5 5 5 5 3 5 3 5 5 5 5 5 5 5 5 5 5 5 5 5 5 3 5 3 5 5 3 5 5 3 5 5 5 5 5 5 3 5 5 3 5 5 5 5 5 5 5 5 5 5 5 5 5 5 5 5 5 5 5 5 5 5 5 5 3 3 5 5 5 5 5 5 5 5 5 3 5 5 3 5 5 5 5 5 5 5 5 5 5 5 5 5 3 5 5 3 5 5 5 5 5 5 3 5 3 5 5 3 5 5 5 5 5 5 5 5 5 5 5 5 5 5 5 5 5 5 5 5 5 5 5 5 5 5 5 5 5 5 5 5 5 5 5 5 5 5 5 5 5 5 5 5 5 5 5 5 5 5 5 5 5 5 
</DataArray>
</Cells>
<PointData Scalars="" Vectors="displacement," Tensors="">
<DataArray type="Float64" Name="displacement" NumberOfComponents="3" format="ascii">
2.6089271379576595e-06 5.4758750303444576e-06 0 -0.00010728837188777386 -1.3871083838465802e-05 0 -0.01566514917060537 -0.017037203817887408 0 -0.00010728837188777386 -1.3871083838465802e-05 0 -0.077640433439215201 -0.04852054420291587 0 -0.01566514917060537 -0.017037203817887408 0 -0.077640433439215201 -0.04852054420291587 0 -0.16002745848845495 -0.15281858742181051 0 -0.043235625569012497 -0.064750696472195696 0 -0.077640433439215201 -0.04852054420291587 0 -0.043235625569012497 -0.064750696472195696 0 -0.01566514917060537 -0.017037203817887408 0 -0.043235625569012497 -0.064750696472195696 0 -0.16002745848845495 -0.15281858742181051 0 -0.052058678234361777 -0.1396064277972433 0 0.00095598188124423249 -0.079662787853199593 0 -0.04323562556901249 -0.064750696472195696 0 -0.052058678234361777 -0.1396064277972433 0 0.038990192879408449 -0.092323755613757164 0 0.050823536145230858 -0.075667116554256481 0 0.029333978684369707 -0.065016970966657955 0 0.00095598188124423249 -0.079662787853199593 0 0.038990192879408449 -0.092323755613757164 0 0.029333978684369707 -0.065016970966657955 0 0.038990192879408449 -0.092323755613757164 0 0.06254555792310719 -0.091763108326812379 0 0.050823536145230858 -0.075667116554256481 0 0.06254555792310719 -0.091763108326812379 0 0.062065996449754614 -0.089706927451174409 0 0.050823536145230858 -0.075667116554256481 0 0.058380870596591146 -0.11443284018272805 0 0.08250061175466708 -0.10089948794018153 0 0.06254555792310719 -0.091763108326812379 0 0.06254555792310719 -0.091763108326812379 0 0.08250061175466708 -0.10089948794018151 0 0.062065996449754614 -0.089706927451174409 0 0.058380870596591146 -0.11443284018272805 0 0.06254555792310719 -0.091763108326812379 0 0.038990192879408449 -0.092323755613757164 0 0.038990192879408449 -0.092323755613757164 0 0.0030903236629183086 -0.12722109038285206 0 0.034951938908159473 -0.15972873517694844 0 0.0030903236629183086 -0.12722109038285206 0 0.038990192879408449 -0.092323755613757164 0 0.00095598188124423249 -0.079662787853199593 0 0.0030903236629183086 -0.12722109038285206 0 0.00095598188124423249 -0.079662787853199593 0 -0.052058678234361777 -0.1396064277972433 0 -0.043235625569012497 -0.064750696472195696 0 0.00095598188124423249 -0.079662787853199593 0 0.0079768890960128236 -0.040559359867675324 0 0.00095598188124423249 -0.079662787853199593 0 0.029333978684369707 -0.065016970966657955 0 0.0079768890960128236 -0.040559359867675324 0 -0.01566514917060537 -0.017037203817887408 0 -0.043235625569012497 -0.064750696472195696 0 0.0079768890960128236 -0.040559359867675324 0 0.034514467274517381 -0.052749556052425595 0 0.0077042193278696889 -0.017897816887209501 0 0.0079768890960128236 -0.040559359867675324 0 0.029333978684369707 -0.065016970966657955 0 0.034514467274517381 -0.052749556052425595 0 0.0079768890960128236 -0.040559359867675324 0 0.050823536145230858 -0.075667116554256481 0 0.034514467274517381 -0.052749556052425595 0 0.029333978684369707 -0.065016970966657955 0 1.8105022832482568e-05 -9.3256998450913225e-06 0 2.6089271379576595e-06 5.4758750303444576e-06 0 0.0077042193278696889 -0.017897816887209501 0 1.8105022832482568e-05 -9.3256998450913225e-06 0 0.0077042193278696889 -0.017897816887209501 0 0.021542504883462914 -0.032258357334663541 0 0.0077042193278696889 -0.017897816887209501 0 0.034514467274517381 -0.052749556052425595 0 0.021542504883462914 -0.032258357334663541 0 0.0077042193278696889 -0.017897816887209501 0 -0.01566514917060537 -0.017037203817887408 0 0.0079768890960128236 -0.040559359867675324 0 0.0077042193278696889 -0.017897816887209501 0 2.6089271379576595e-06 5.4758750303444576e-06 0 -0.01566514917060537 -0.017037203817887408 0 1.2522649730202528e-05 -1.410804706358081e-05 0 1.8105022832482568e-05 -9.3256998450913225e-06 0 0.015147611096742746 -0.029405870324629851 0 1.2522649730202528e-05 -1.410804706358081e-05 0 0.015147611096742746 -0.029405870324629851 0 0.015744674235629232 -0.036997935915312204 0 0.015147611096742746 -0.029405870324629851 0 0.023583966131123926 -0.051790949769282113 0 0.015744674235629232 -0.036997935915312204 0 0.030867452397999567 -0.052854240100146214 0 0.015147611096742746 -0.029405870324629851 0 0.021542504883462914 -0.032258357334663541 0 0.015147611096742746 -0.029405870324629851 0 1.8105022832482992e-05 -9.3256998450915123e-06 0 0.021542504883462914 -0.032258357334663541 0 4.0815172486491312e-05 -1.6879839071545452e-05 0 1.2522649730202528e-05 -1.410804706358081e-05 0 0.0073662484958460488 -0.015045143701330784 0 0.020536023121712203 -0.02781131330289453 0 4.0815172486491312e-05 -1.6879839071545452e-05 0 0.0073662484958460488 -0.015045143701330784 0 1.2522649730202528e-05 -1.410804706358081e-05 0 0.010631064024632299 -0.026577715101181849 0 0.0073662484958460488 -0.015045143701330784 0 0.018036878861353297 -0.039052363200414136 0 0.010631064024632299 -0.026577715101181849 0 0.016194227449084428 -0.043388115943689201 0 0.010631064024632299 -0.026577715101181849 0 1.2522649730202528e-05 -1.410804706358081e-05 0 0.015744674235629232 -0.036997935915312204 0 0.010631064024632299 -0.026577715101181849 0 0.015744674235629232 -0.036997935915312204 0 0.016194227449084428 -0.043388115943689201 0 0.010631064024632299 -0.026577715101181849 0 0.018036878861353297 -0.039052363200414136 0 0.0073662484958460488 -0.015045143701330784 0 0.018036878861353297 -0.039052363200414136 0 0.020536023121712203 -0.02781131330289453 0 0.0073662484958460488 -0.015045143701330784 0 0.02567768996337827 -0.044361939160214352 0 0.020536023121712203 -0.02781131330289453 0 0.018036878861353297 -0.039052363200414136 0 0.026237973460526059 -0.052315913155860878 0 0.02567768996337827 -0.044361939160214352 0 0.021761797745817244 -0.049456554085171106 0 0.026237973460526059 -0.052315913155860878 0 0.021761797745817244 -0.049456554085171106 0 0.023140589218885513 -0.054802601032018804 0 0.021761797745817244 -0.049456554085171106 0 0.02567768996337827 -0.044361939160214352 0 0.018036878861353297 -0.039052363200414136 0 0.018929379330452325 -0.048305748734736594 0 0.021761797745817244 -0.049456554085171106 0 0.018036878861353297 -0.039052363200414136 0 0.023140589218885513 -0.054802601032018804 0 0.021761797745817244 -0.049456554085171106 0 0.020251730736974137 -0.05376645220923966 0 0.020251730736974137 -0.05376645220923966 0 0.021761797745817244 -0.049456554085171106 0 0.018929379330452325 -0.048305748734736594 0 0.018929379330452325 -0.048305748734736594 0 0.018036878861353297 -0.039052363200414136 0 0.016194227449084428 -0.043388115943689201 0 0.020251730736974137 -0.05376645220923966 0 0.018929379330452321 -0.048305748734736594 0 0.018501704982022235 -0.053993758960220899 0 0.018501704982022235 -0.053993758960220899 0 0.018929379330452325 -0.048305748734736594 0 0.016194227449084428 -0.043388115943689201 0 0.015744674235629232 -0.036997935915312204 0 0.019742523599189436 -0.052190567424564453 0 0.016194227449084428 -0.043388115943689201 0 0.019742523599189436 -0.052190567424564453 0 0.018501704982022235 -0.053993758960220892 0 0.016194227449084428 -0.043388115943689201 0 0.018501704982022235 -0.053993758960220899 0 0.019742523599189436 -0.052190567424564453 0 0.020062601644350839 -0.058418866725382185 0 0.018765032263327736 -0.058265946809497253 0 0.018501704982022235 -0.053993758960220899 0 0.020062601644350839 -0.058418866725382185 0 0.019483817944961779 -0.059898218037254057 0 0.018765032263327736 -0.058265946809497253 0 0.020062601644350839 -0.058418866725382185 0 0.019483817944961779 -0.059898218037254057 0 0.020062601644350839 -0.058418866725382185 0 0.022148717270447812 -0.061820955042245725 0 0.019483817944961779 -0.059898218037254057 0 0.020345429761628304 -0.060636568692256053 0 0.019248504536583711 -0.05993690370211454 0 0.020345429761628304 -0.060636568692256053 0 0.019573075956328356 -0.059649478777925473 0 0.019248504536583711 -0.05993690370211454 0 0.019573075956328356 -0.059649478777925473 0 0.018820445530920986 -0.059585607921658443 0 0.019248504536583711 -0.05993690370211454 0 0.018820445530920986 -0.059585607921658443 0 0.018770024693027947 -0.059694260433257512 0 0.018731594614119884 -0.059460045369032287 0 0.018820445530920986 -0.059585607921658443 0 0.018731594614119884 -0.059460045369032287 0 0.019248504536583711 -0.05993690370211454 0 0.018731594614119884 -0.059460045369032287 0 0.019483817944961779 -0.059898218037254057 0 0.019248504536583711 -0.05993690370211454 0 0.018731594614119884 -0.059460045369032287 0 0.018765032263327736 -0.058265946809497253 0 0.019483817944961779 -0.059898218037254057 0 0.019007946651150326 -0.058903050346088559 0 0.018765032263327736 -0.058265946809497253 0 0.018731594614119884 -0.059460045369032287 0 0.019555394066420193 -0.057334739301366948 0 0.018765032263327736 -0.058265946809497253 0 0.019007946651150326 -0.058903050346088559 0 0.018770024693027947 -0.059694260433257512 0 0.019303475802734015 -0.059790547064665973 0 0.019007946651150326 -0.058903050346088559 0 0.018770024693027947 -0.059694260433257512 0 0.019007946651150326 -0.058903050346088559 0 0.018731594614119884 -0.059460045369032287 0 0.019007946651150326 -0.058903050346088559 0 0.019303475802734015 -0.059790547064665973 0 0.019623865207711359 -0.05900785862998266 0 0.019303475802734015 -0.059790547064665973 0 0.020128870043320216 -0.060015870094278577 0 0.019623865207711359 -0.05900785862998266 0 0.019555394066420193 -0.057334739301366948 0 0.019007946651150322 -0.058903050346088566 0 0.019623865207711359 -0.05900785862998266 0 0.019555394066420193 -0.057334739301366948 0 0.020251730736974137 -0.05376645220923966 0 0.018501704982022235 -0.053993758960220899 0 0.019555394066420193 -0.057334739301366948 0 0.018501704982022235 -0.053993758960220899 0 0.018765032263327736 -0.058265946809497253 0 0.023140589218885513 -0.054802601032018804 0 0.020251730736974137 -0.05376645220923966 0 0.021540821685872184 -0.056947783465518494 0 0.021540821685872184 -0.056947783465518494 0 0.020251730736974137 -0.05376645220923966 0 0.019555394066420193 -0.057334739301366948 0 0.02055983229371457 -0.058570411533967422 0 0.019555394066420193 -0.057334739301366948 0 0.019623865207711359 -0.05900785862998266 0 0.021540821685872184 -0.056947783465518494 0 0.019555394066420193 -0.057334739301366948 0 0.02055983229371457 -0.058570411533967422 0 0.020128870043320216 -0.060015870094278577 0 0.02055983229371457 -0.058570411533967422 0 0.019623865207711359 -0.05900785862998266 0 0.020128870043320216 -0.060015870094278577 0 0.021294537824843633 -0.060183719932411915 0 0.02055983229371457 -0.058570411533967422 0 0.02055983229371457 -0.058570411533967422 0 0.021294537824843633 -0.060183719932411915 0 0.021982985912803517 -0.05894813343904879 0 0.021294537824843633 -0.060183719932411915 0 0.022647212985721806 -0.06035918178404507 0 0.021982985912803517 -0.05894813343904879 0 0.021540821685872184 -0.056947783465518494 0 0.02055983229371457 -0.058570411533967422 0 0.021982985912803517 -0.05894813343904879 0 0.023805406524935509 -0.057913536786429159 0 0.021982985912803517 -0.05894813343904879 0 0.023384369869737125 -0.059273404282867224 0 0.023805406524935509 -0.057913536786429159 0 0.021540821685872184 -0.056947783465518494 0 0.021982985912803517 -0.05894813343904879 0 0.023805406524935509 -0.057913536786429159 0 0.023384369869737128 -0.059273404282867224 0 0.024540537217775032 -0.059407891571804664 0 0.021982985912803517 -0.05894813343904879 0 0.022647212985721806 -0.06035918178404507 0 0.023384369869737125 -0.059273404282867224 0 0.023384369869737125 -0.059273404282867224 0 0.024146214782132299 -0.060473166106617397 0 0.024540537217775032 -0.059407891571804664 0 0.022647212985721806 -0.06035918178404507 0 0.024146214782132299 -0.060473166106617397 0 0.023384369869737125 -0.059273404282867224 0 0.025671161870777802 -0.060506004753882812 0 0.025711481597917918 -0.058870328472211492 0 0.024540537217775032 -0.059407891571804664 0 0.024146214782132299 -0.060473166106617397 0 0.025671161870777802 -0.060506004753882812 0 0.024540537217775032 -0.059407891571804664 0 0.025711481597917918 -0.058870328472211492 0 0.023805406524935509 -0.057913536786429159 0 0.024540537217775032 -0.059407891571804664 0 0.025711481597917918 -0.058870328472211492 0 0.025913936809834424 -0.056484857147269293 0 0.023805406524935509 -0.057913536786429159 0 0.023805406524935509 -0.057913536786429159 0 0.025913936809834424 -0.056484857147269293 0 0.023140589218885513 -0.054802601032018804 0 0.023805406524935509 -0.057913536786429159 0 0.023140589218885513 -0.054802601032018804 0 0.021540821685872184 -0.056947783465518494 0 0.025913936809834424 -0.056484857147269293 0 0.026237973460526059 -0.052315913155860878 0 0.023140589218885513 -0.054802601032018804 0 0.030867452397999567 -0.052854240100146214 0 0.045885775390817479 -0.075707893479460484 0 0.031586692808647142 -0.065072384304593334 0 0.034514467274517381 -0.052749556052425595 0 0.045885775390817479 -0.075707893479460484 0 0.030867452397999567 -0.052854240100146214 0 0.034514467274517381 -0.052749556052425595 0 0.030867452397999567 -0.052854240100146214 0 0.021542504883462914 -0.032258357334663541 0 0.015147611096742746 -0.029405870324629851 0 0.030867452397999567 -0.052854240100146214 0 0.023583966131123926 -0.051790949769282113 0 0.023583966131123926 -0.051790949769282113 0 0.019742523599189436 -0.052190567424564453 0 0.015744674235629232 -0.036997935915312204 0 0.020062601644350839 -0.058418866725382185 0 0.019742523599189436 -0.052190567424564453 0 0.024200221902092756 -0.060710489344267607 0 0.024200221902092756 -0.060710489344267607 0 0.019742523599189436 -0.052190567424564453 0 0.023583966131123926 -0.051790949769282113 0 0.030867452397999567 -0.052854240100146214 0 0.031586692808647142 -0.065072384304593334 0 0.023583966131123926 -0.051790949769282113 0 0.031586692808647142 -0.065072384304593334 0 0.024200221902092756 -0.060710489344267607 0 0.023583966131123926 -0.051790949769282113 0 0.027686490231515207 -0.065886127796537131 0 0.024200221902092756 -0.060710489344267607 0 0.031586692808647142 -0.065072384304593334 0 0.027686490231515207 -0.065886127796537131 0 0.031586692808647142 -0.065072384304593334 0 0.035643660611875044 -0.071265855321669486 0 0.020062601644350839 -0.058418866725382185 0 0.024200221902092756 -0.060710489344267607 0 0.022148717270447812 -0.061820955042245725 0 0.022148717270447812 -0.061820955042245725 0 0.024200221902092759 -0.060710489344267607 0 0.027686490231515207 -0.065886127796537131 0 0.022148717270447812 -0.061820955042245725 0 0.021843206442788022 -0.061589560417000248 0 0.020345429761628304 -0.060636568692256053 0 0.019483817944961779 -0.059898218037254057 0 0.022148717270447812 -0.061820955042245725 0 0.020345429761628304 -0.060636568692256053 0 0.022148717270447812 -0.061820955042245725 0 0.027686490231515207 -0.065886127796537131 0 0.023958946349488319 -0.063178082922846227 0 0.022148717270447812 -0.061820955042245725 0 0.023958946349488319 -0.063178082922846227 0 0.021843206442788018 -0.061589560417000248 0 0.023958946349488319 -0.063178082922846227 0 0.022697337452564744 -0.060896388789321139 0 0.021843206442788018 -0.061589560417000248 0 0.025019871540564283 -0.062239753401856633 0 0.022697337452564744 -0.060896388789321139 0 0.023958946349488319 -0.063178082922846227 0 0.022697337452564744 -0.060896388789321139 0 0.020740208031448763 -0.060120255167089298 0 0.021843206442788018 -0.061589560417000248 0 0.020740208031448763 -0.060120255167089298 0 0.019573075956328356 -0.059649478777925473 0 0.020345429761628304 -0.060636568692256053 0 0.021843206442788018 -0.061589560417000248 0 0.020740208031448763 -0.060120255167089298 0 0.020345429761628304 -0.060636568692256053 0 0.027686490231515207 -0.065886127796537131 0 0.031147010474076583 -0.067893072348547134 0 0.027038933387785874 -0.065018709478472547 0 0.027686490231515207 -0.065886127796537131 0 0.035643660611875044 -0.071265855321669486 0 0.031147010474076583 -0.067893072348547134 0 0.023958946349488319 -0.063178082922846227 0 0.027686490231515207 -0.065886127796537131 0 0.027038933387785874 -0.065018709478472547 0 0.025019871540564283 -0.062239753401856633 0 0.023958946349488319 -0.063178082922846227 0 0.027038933387785874 -0.065018709478472547 0 0.028462460696783692 -0.064012265665030557 0 0.025019871540564283 -0.062239753401856633 0 0.027038933387785874 -0.065018709478472547 0 0.031147010474076583 -0.067893072348547134 0 0.028462460696783692 -0.064012265665030557 0 0.027038933387785874 -0.065018709478472547 0 0.032483562856818263 -0.066816510511193292 0 0.028462460696783692 -0.064012265665030557 0 0.031147010474076583 -0.067893072348547134 0 0.038211099226355016 -0.070701940898857618 0 0.032483562856818263 -0.066816510511193292 0 0.035550311776790473 -0.071177605336408073 0 0.032483562856818263 -0.066816510511193292 0 0.031147010474076583 -0.067893072348547134 0 0.035550311776790473 -0.071177605336408073 0 0.045561228017102287 -0.076651420166924028 0 0.038211099226355016 -0.070701940898857618 0 0.042396019549929449 -0.076805529628892116 0 0.042396019549929449 -0.076805529628892116 0 0.038211099226355016 -0.070701940898857618 0 0.035550311776790473 -0.071177605336408073 0 0.035643660611875044 -0.071265855321669486 0 0.045885775390817479 -0.075707893479460484 0 0.042396019549929449 -0.076805529628892116 0 0.035643660611875044 -0.071265855321669486 0 0.042396019549929442 -0.076805529628892102 0 0.035550311776790473 -0.071177605336408073 0 0.031147010474076583 -0.067893072348547134 0 0.035643660611875044 -0.071265855321669486 0 0.035550311776790473 -0.071177605336408073 0 0.031586692808647142 -0.065072384304593334 0 0.045885775390817479 -0.075707893479460484 0 0.035643660611875044 -0.071265855321669486 0 0.034514467274517381 -0.052749556052425595 0 0.050823536145230851 -0.075667116554256481 0 0.045885775390817479 -0.075707893479460484 0 0.050823536145230858 -0.075667116554256481 0 0.062065996449754614 -0.089706927451174409 0 0.045885775390817479 -0.075707893479460484 0 0.045885775390817479 -0.075707893479460484 0 0.062065996449754614 -0.089706927451174409 0 0.050561557200310976 -0.082456579171531527 0 0.042396019549929449 -0.076805529628892116 0 0.045885775390817486 -0.075707893479460484 0 0.050561557200310976 -0.082456579171531527 0 0.045561228017102287 -0.076651420166924028 0 0.042396019549929449 -0.076805529628892116 0 0.050561557200310976 -0.082456579171531527 0 0.056485180761580982 -0.086272371129771305 0 0.045561228017102287 -0.076651420166924028 0 0.050561557200310976 -0.082456579171531527 0 0.062065996449754614 -0.089706927451174409 0 0.056485180761580982 -0.086272371129771305 0 0.050561557200310976 -0.082456579171531527 0 0.08250061175466708 -0.10089948794018151 0 0.056485180761580982 -0.086272371129771305 0 0.062065996449754614 -0.089706927451174409 0 0.16038856082893438 -0.13810436023030548 0 0.13835447782324958 -0.10130373543174337 0 0.11533315929449653 -0.13750229762192087 0 0.13835447782324958 -0.10130373543174337 0 0.08250061175466708 -0.10089948794018151 0 0.11533315929449653 -0.13750229762192087 0 0.096444635780219168 -0.083104993993584036 0 0.082515486391023851 -0.084591316481104947 0 0.17702963393122412 -0.10256023068886275 0 0.13835447782324958 -0.10130373543174337 0 0.16038856082893438 -0.13810436023030548 0 0.11082950305086671 -0.082149237463758018 0 0.096444635780219168 -0.083104993993584036 0 0.19552879418383692 -0.12997667711159749 0 0.17702963393122412 -0.10256023068886275 0 0.16038856082893438 -0.13810436023030548 0 0.13151707534649398 -0.17418049799193572 0 0.19755053332649011 -0.17061302408726314 0 0.16038856082893438 -0.13810436023030548 0 0.079181613163822412 -0.15103396063351571 0 0.13151707534649398 -0.17418049799193572 0 0.11533315929449653 -0.13750229762192087 0 0.13151707534649398 -0.17418049799193572 0 0.16038856082893438 -0.13810436023030548 0 0.11533315929449653 -0.13750229762192087 0 0.16249406331612531 -0.2238704999926753 0 0.13151707534649398 -0.17418049799193572 0 0.096450225683037752 -0.2118450622284348 0 0.16249406331612531 -0.2238704999926753 0 0.19755053332649009 -0.17061302408726314 0 0.13151707534649398 -0.17418049799193572 0 0.23624093079046951 -0.22450782820377227 0 0.19755053332649011 -0.17061302408726314 0 0.16249406331612531 -0.2238704999926753 0 0.23624093079046951 -0.22450782820377227 0 0.26324589361534656 -0.16768760836960858 0 0.19755053332649011 -0.17061302408726314 0 0.19755053332649011 -0.17061302408726314 0 0.26324589361534656 -0.16768760836960858 0 0.22898468116048479 -0.13509321491129025 0 0.26324589361534656 -0.16768760836960858 0 0.26085421711963613 -0.12895903118457783 0 0.22898468116048479 -0.13509321491129025 0 0.19755053332649011 -0.17061302408726314 0 0.19552879418383692 -0.12997667711159749 0 0.16038856082893438 -0.13810436023030548 0 0.19755053332649011 -0.17061302408726314 0 0.22898468116048479 -0.13509321491129025 0 0.19552879418383692 -0.12997667711159749 0 0.22898468116048479 -0.13509321491129025 0 0.21154039489922968 -0.10399877648381267 0 0.19552879418383692 -0.12997667711159749 0 0.21154039489922968 -0.10399877648381267 0 0.17702963393122412 -0.10256023068886275 0 0.19552879418383692 -0.12997667711159749 0 0.12453048026829125 -0.08065383050297191 0 0.11082950305086671 -0.082149237463758018 0 0.26085421711963613 -0.12895903118457783 0 0.24395736713790903 -0.10459224310973335 0 0.22898468116048479 -0.13509321491129025 0 0.13802638127624076 -0.079509219590064795 0 0.12453048026829125 -0.08065383050297191 0 0.24395736713790903 -0.10459224310973335 0 0.21154039489922968 -0.10399877648381267 0 0.22898468116048479 -0.13509321491129025 0 0.27562347568861678 -0.10505012197040225 0 0.24395736713790903 -0.10459224310973335 0 0.26085421711963613 -0.12895903118457783 0 0.15189123924535325 -0.078624228803554075 0 0.13802638127624076 -0.079509219590064795 0 0.29256068054125195 -0.13425935569598538 0 0.27562347568861678 -0.10505012197040225 0 0.26085421711963613 -0.12895903118457783 0 0.30670872699100682 -0.10519199345194073 0 0.27562347568861678 -0.10505012197040225 0 0.29256068054125195 -0.13425935569598538 0 0.16578910776627134 -0.077988626428684191 0 0.15189123924535325 -0.078624228803554075 0 0.32288118289792145 -0.12824229894546443 0 0.30670872699100682 -0.10519199345194073 0 0.29256068054125195 -0.13425935569598538 0 0.3259365845831303 -0.16672288629102469 0 0.32288118289792145 -0.12824229894546443 0 0.29256068054125195 -0.13425935569598538 0 0.26324589361534656 -0.16768760836960858 0 0.32593658458313024 -0.16672288629102466 0 0.29256068054125195 -0.13425935569598538 0 0.26324589361534656 -0.16768760836960858 0 0.29256068054125195 -0.13425935569598538 0 0.26085421711963613 -0.12895903118457783 0 0.368212581163185 -0.10503211028096417 0 0.35281686351392655 -0.13177194036434164 0 0.38488015668379 -0.12705475632556582 0 0.368212581163185 -0.10503211028096417 0 0.33751230305478314 -0.10517444523136385 0 0.35281686351392655 -0.13177194036434164 0 0.19446275562898607 -0.077114912868425145 0 0.18004823424517311 -0.077481628071661132 0 0.33751230305478314 -0.10517444523136385 0 0.3228811828979215 -0.12824229894546443 0 0.35281686351392655 -0.13177194036434164 0 0.33751230305478314 -0.10517444523136385 0 0.30670872699100682 -0.10519199345194073 0 0.32288118289792145 -0.12824229894546443 0 0.18004823424517311 -0.077481628071661132 0 0.16578910776627134 -0.077988626428684191 0 0.32288118289792145 -0.12824229894546443 0 0.3259365845831303 -0.16672288629102469 0 0.35281686351392655 -0.13177194036434164 0 0.35281686351392655 -0.13177194036434164 0 0.38903588059337857 -0.16184458867343499 0 0.38488015668379 -0.12705475632556582 0 0.3259365845831303 -0.16672288629102469 0 0.38903588059337862 -0.16184458867343499 0 0.35281686351392655 -0.13177194036434164 0 0.35917616846084938 -0.21852766717662783 0 0.38903588059337862 -0.16184458867343501 0 0.3259365845831303 -0.16672288629102469 0 0.35917616846084938 -0.21852766717662783 0 0.3259365845831303 -0.16672288629102469 0 0.29996071806552282 -0.2113784985121393 0 0.29996071806552282 -0.2113784985121393 0 0.26324589361534656 -0.16768760836960858 0 0.23624093079046951 -0.22450782820377227 0 0.29996071806552282 -0.2113784985121393 0 0.3259365845831303 -0.16672288629102469 0 0.26324589361534656 -0.16768760836960858 0 0.31479082031130451 -0.27750487772157267 0 0.29996071806552282 -0.2113784985121393 0 0.23624093079046951 -0.22450782820377227 0 0.35917616846084938 -0.21852766717662783 0 0.31479082031130451 -0.27750487772157267 0 0.40273987456978982 -0.29286562188806853 0 0.31479082031130451 -0.27750487772157267 0 0.35917616846084938 -0.21852766717662783 0 0.29996071806552282 -0.2113784985121393 0 0.40273987456978982 -0.29286562188806853 0 0.31479082031130451 -0.27750487772157267 0 0.33032057081152311 -0.39451262297550849 0 0.31479082031130451 -0.27750487772157267 0 0.20694015166982135 -0.30432327765250539 0 0.33032057081152311 -0.39451262297550849 0 0.20694015166982135 -0.30432327765250539 0 0.12374141657962448 -0.27450506693010324 0 0.13087477941459713 -0.38265159656565612 0 0.16249406331612531 -0.2238704999926753 0 0.12374141657962448 -0.27450506693010324 0 0.20694015166982135 -0.30432327765250539 0 0.12374141657962448 -0.27450506693010324 0 0.16249406331612534 -0.2238704999926753 0 0.096450225683037752 -0.2118450622284348 0 0.23624093079046951 -0.22450782820377227 0 0.16249406331612531 -0.2238704999926753 0 0.20694015166982135 -0.30432327765250539 0 0.31479082031130451 -0.27750487772157267 0 0.23624093079046951 -0.22450782820377227 0 0.20694015166982135 -0.30432327765250539 0 0.64472793982368981 -0.24886070629232138 0 0.64453174358191001 -0.18488125895433219 0 0.59050164932131877 -0.20954398846089711 0 0.59050164932131877 -0.20954398846089711 0 0.61404147156579347 -0.16008057348673643 0 0.57611054795456029 -0.16292224313439368 0 0.64453174358191001 -0.18488125895433219 0 0.61404147156579358 -0.16008057348673646 0 0.59050164932131877 -0.20954398846089711 0 0.64453174358191001 -0.18488125895433219 0 0.64450205425727392 -0.13816206805283784 0 0.61404147156579358 -0.16008057348673646 0 0.61404147156579358 -0.16008057348673646 0 0.64450205425727392 -0.13816206805283784 0 0.62276714793013987 -0.12689164410602735 0 0.64450205425727392 -0.13816206805283784 0 0.64450406338013488 -0.1040739850723682 0 0.62276714793013987 -0.12689164410602735 0 0.64450406338013488 -0.1040739850723682 0 0.61387226083074309 -0.10407057522532287 0 0.62276714793013987 -0.12689164410602735 0 0.3379754146308942 -0.18115537184681271 0 0.31838047078123388 -0.077999709103981199 0 0.31838047078123388 -0.077999709103981199 0 0.30308481584011432 -0.077243324906251215 0 0.61387226083074309 -0.10407057522532287 0 0.58322510937392258 -0.10407122178942016 0 0.59755313570898205 -0.13068495536099073 0 0.61387226083074309 -0.10407057522532287 0 0.59755313570898205 -0.13068495536099073 0 0.62276714793013987 -0.12689164410602735 0 0.58322510937392258 -0.10407122178942016 0 0.56952556877396709 -0.12648566564037317 0 0.59755313570898205 -0.13068495536099073 0 0.61404147156579358 -0.16008057348673646 0 0.59755313570898205 -0.13068495536099073 0 0.57611054795456029 -0.16292224313439368 0 0.59755313570898205 -0.13068495536099073 0 0.61404147156579358 -0.16008057348673646 0 0.62276714793013987 -0.12689164410602735 0 0.59755313570898205 -0.13068495536099073 0 0.56952556877396709 -0.12648566564037317 0 0.57611054795456029 -0.16292224313439368 0 0.53736488877157107 -0.13522737437163423 0 0.53751235016410592 -0.18226976244505394 0 0.57611054795456029 -0.16292224313439368 0 0.56952556877396709 -0.12648566564037317 0 0.53736488877157107 -0.13522737437163423 0 0.57611054795456029 -0.16292224313439368 0 0.56952556877396709 -0.12648566564037317 0 0.55252428600718873 -0.10408527933596787 0 0.53736488877157107 -0.13522737437163423 0 0.30308481584011432 -0.077243324906251215 0 0.28689151921967226 -0.077130947648628073 0 0.58322510937392258 -0.10407122178942016 0 0.55252428600718873 -0.10408527933596787 0 0.56952556877396709 -0.12648566564037317 0 0.55252428600718873 -0.10408527933596787 0 0.52178969869308378 -0.10414422143969838 0 0.53736488877157107 -0.13522737437163423 0 0.28689151921967226 -0.077130947648628073 0 0.27098626439442247 -0.07702216185269635 0 0.53736488877157107 -0.13522737437163423 0 0.52178969869308378 -0.10414422143969838 0 0.50638354719609235 -0.12498529433641133 0 0.49824872352017463 -0.15425074200365688 0 0.53751235016410592 -0.18226976244505394 0 0.53736488877157107 -0.13522737437163423 0 0.53751235016410592 -0.18226976244505394 0 0.59050164932131877 -0.20954398846089711 0 0.57611054795456029 -0.16292224313439368 0 0.52899622052635964 -0.24356202552125131 0 0.59050164932131877 -0.20954398846089711 0 0.53751235016410592 -0.18226976244505394 0 0.52899622052635964 -0.24356202552125131 0 0.53751235016410592 -0.18226976244505394 0 0.48585937069813823 -0.19784668235002401 0 0.52899622052635964 -0.24356202552125131 0 0.48585937069813823 -0.19784668235002401 0 0.46751598316769838 -0.25121124442032128 0 0.46751598316769838 -0.25121124442032128 0 0.48585937069813823 -0.19784668235002401 0 0.42388851204849559 -0.20918035065444335 0 0.44699470320826773 -0.15875586842037917 0 0.48585937069813823 -0.19784668235002401 0 0.49824872352017463 -0.15425074200365688 0 0.42388851204849559 -0.20918035065444335 0 0.48585937069813823 -0.19784668235002401 0 0.44699470320826773 -0.15875586842037917 0 0.48585937069813823 -0.19784668235002401 0 0.53751235016410592 -0.18226976244505394 0 0.49824872352017463 -0.15425074200365688 0 0.49824872352017463 -0.15425074200365688 0 0.53736488877157107 -0.13522737437163423 0 0.50638354719609235 -0.12498529433641133 0 0.47463976457381812 -0.129327353147518 0 0.49824872352017463 -0.15425074200365688 0 0.50638354719609235 -0.12498529433641133 0 0.49103376349628253 -0.10425443484714185 0 0.47463976457381812 -0.129327353147518 0 0.50638354719609235 -0.12498529433641133 0 0.27098626439442247 -0.07702216185269635 0 0.25518636468098949 -0.076926371377109781 0 0.52178969869308378 -0.10414422143969838 0 0.49103376349628253 -0.10425443484714185 0 0.50638354719609235 -0.12498529433641133 0 0.47463976457381812 -0.129327353147518 0 0.4603005169577486 -0.10441173285379392 0 0.44539250960751103 -0.1257866305340811 0 0.25518636468098949 -0.076926371377109781 0 0.23955719353155563 -0.076872718304944479 0 0.49103376349628253 -0.10425443484714185 0 0.4603005169577486 -0.10441173285379392 0 0.47463976457381812 -0.129327353147518 0 0.44699470320826773 -0.15875586842037917 0 0.47463976457381812 -0.129327353147518 0 0.44539250960751103 -0.1257866305340811 0 0.44699470320826773 -0.15875586842037917 0 0.49824872352017463 -0.15425074200365688 0 0.47463976457381812 -0.129327353147518 0 0.41547786263004244 -0.13176862915217388 0 0.44699470320826773 -0.15875586842037917 0 0.44539250960751103 -0.1257866305340811 0 0.38903588059337857 -0.16184458867343499 0 0.44699470320826773 -0.15875586842037917 0 0.41547786263004244 -0.13176862915217388 0 0.42957814259741423 -0.10460958567983288 0 0.41547786263004244 -0.13176862915217388 0 0.44539250960751103 -0.1257866305340811 0 0.23955719353155563 -0.076872718304944479 0 0.22422318780376782 -0.07682545254760767 0 0.4603005169577486 -0.10441173285379392 0 0.42957814259741423 -0.10460958567983288 0 0.44539250960751103 -0.1257866305340811 0 0.20922797626730658 -0.07689183969063508 0 0.19446275562898607 -0.077114912868425145 0 0.39888424357293556 -0.10482375937540989 0 0.368212581163185 -0.10503211028096417 0 0.38488015668379 -0.12705475632556582 0 0.42957814259741423 -0.10460958567983288 0 0.39888424357293556 -0.10482375937540989 0 0.41547786263004244 -0.13176862915217388 0 0.22422318780376782 -0.07682545254760767 0 0.20922797626730658 -0.07689183969063508 0 0.41547786263004244 -0.13176862915217388 0 0.39888424357293556 -0.10482375937540989 0 0.38488015668379 -0.12705475632556582 0 0.38903588059337857 -0.16184458867343499 0 0.41547786263004244 -0.13176862915217388 0 0.38488015668379 -0.12705475632556582 0 0.42388851204849559 -0.20918035065444335 0 0.38903588059337851 -0.16184458867343499 0 0.35917616846084938 -0.21852766717662783 0 0.42388851204849559 -0.20918035065444335 0 0.44699470320826773 -0.15875586842037917 0 0.38903588059337857 -0.16184458867343499 0 0.40273987456978982 -0.29286562188806853 0 0.44707836128876405 -0.42504097184986855 0 0.49879055578042419 -0.32108485970411427 0 0.42388851204849559 -0.20918035065444335 0 0.35917616846084938 -0.21852766717662783 0 0.40273987456978982 -0.29286562188806853 0 0.46751598316769838 -0.25121124442032128 0 0.42388851204849559 -0.20918035065444335 0 0.40273987456978982 -0.29286562188806853 0 0.52899622052635964 -0.24356202552125131 0 0.46751598316769838 -0.25121124442032128 0 0.49879055578042419 -0.32108485970411427 0 0.46751598316769838 -0.25121124442032128 0 0.40273987456978982 -0.29286562188806853 0 0.49879055578042419 -0.32108485970411427 0 0.57878458600541371 -0.29264926636994587 0 0.52899622052635964 -0.24356202552125131 0 0.49879055578042419 -0.32108485970411427 0 0.57878458600541371 -0.29264926636994587 0 0.59050164932131877 -0.20954398846089711 0 0.52899622052635964 -0.24356202552125131 0 0.55695563437772799 -0.39684843919687346 0 0.57878458600541371 -0.29264926636994587 0 0.49879055578042419 -0.32108485970411427 0 0.64553359070758165 -0.33663427072716534 0 0.57878458600541371 -0.29264926636994587 0 0.55695563437772799 -0.39684843919687346 0 0.57878458600541371 -0.29264926636994587 0 0.64472793982368981 -0.24886070629232138 0 0.59050164932131877 -0.20954398846089711 0 0.64553359070758165 -0.33663427072716534 0 0.64472793982368981 -0.24886070629232138 0 0.57878458600541371 -0.29264926636994587 0 0.38469265265530428 -0.62389134067845187 0 0.64995165893540929 -0.63662909673877099 0 0.5324449985857026 -0.51812063646965634 0 0.64786799697759956 -0.45862106492685678 0 0.64553359070758165 -0.33663427072716534 0 0.55695563437772799 -0.39684843919687346 0 0.64786799697759956 -0.45862106492685678 0 0.55695563437772799 -0.39684843919687346 0 0.5324449985857026 -0.51812063646965634 0 0.44707836128876405 -0.42504097184986855 0 0.40273987456978982 -0.29286562188806853 0 0.33032057081152311 -0.39451262297550849 0 0.38469265265530428 -0.62389134067845187 0 0.44707836128876399 -0.42504097184986855 0 0.33032057081152311 -0.39451262297550849 0 0.55695563437772799 -0.39684843919687346 0 0.44707836128876405 -0.42504097184986855 0 0.5324449985857026 -0.51812063646965634 0 0.44707836128876405 -0.42504097184986855 0 0.55695563437772799 -0.39684843919687346 0 0.49879055578042419 -0.32108485970411427 0 0.44707836128876405 -0.42504097184986855 0 0.38469265265530433 -0.62389134067845187 0 0.5324449985857026 -0.51812063646965634 0 0.64995165893540929 -0.63662909673877099 0 0.64786799697759956 -0.45862106492685678 0 0.5324449985857026 -0.51812063646965634 0 0.14830388026264607 -0.59485005407485458 0 0.38469265265530428 -0.62389134067845187 0 0.23277117076718837 -0.45332945826813098 0 0.23277117076718837 -0.45332945826813098 0 0.20694015166982135 -0.30432327765250539 0 0.13087477941459713 -0.38265159656565612 0 0.14830388026264607 -0.59485005407485458 0 0.23277117076718837 -0.45332945826813098 0 0.13087477941459713 -0.38265159656565612 0 0.20694015166982135 -0.30432327765250539 0 0.23277117076718837 -0.45332945826813098 0 0.33032057081152311 -0.39451262297550849 0 0.23277117076718837 -0.45332945826813098 0 0.38469265265530428 -0.62389134067845187 0 0.33032057081152311 -0.39451262297550849 0 0.026357738852808864 -0.39707805374875882 0 0.1483038802626461 -0.59485005407485458 0 0.13087477941459713 -0.38265159656565612 0 -0.043419111281310256 -0.5698155420959371 0 0.026357738852808864 -0.39707805374875882 0 -0.096296397780096119 -0.38627746123035878 0 -0.043419111281310256 -0.5698155420959371 0 0.14830388026264607 -0.59485005407485458 0 0.026357738852808864 -0.39707805374875882 0 -0.22265993959796984 -0.34567373523395861 0 -0.23738809495492483 -0.56744974213961319 0 -0.096296397780096119 -0.38627746123035878 0 -0.23738809495492483 -0.56744974213961319 0 -0.043419111281310256 -0.5698155420959371 0 -0.096296397780096119 -0.38627746123035878 0 -0.16002745848845495 -0.15281858742181051 0 -0.22265993959796984 -0.34567373523395861 0 -0.10457175523085953 -0.23447911555324438 0 -0.10457175523085953 -0.23447911555324438 0 -0.096296397780096119 -0.38627746123035878 0 -0.015129485606320273 -0.22338526993722826 0 -0.10457175523085953 -0.23447911555324438 0 -0.22265993959796984 -0.34567373523395861 0 -0.096296397780096119 -0.38627746123035878 0 -0.16002745848845495 -0.15281858742181051 0 -0.10457175523085953 -0.23447911555324438 0 -0.052058678234361777 -0.1396064277972433 0 -0.10457175523085953 -0.23447911555324438 0 -0.015129485606320273 -0.22338526993722826 0 -0.052058678234361777 -0.1396064277972433 0 -0.015129485606320273 -0.22338526993722826 0 0.0030903236629183039 -0.12722109038285206 0 -0.052058678234361777 -0.1396064277972433 0 0.034951938908159473 -0.15972873517694844 0 0.0030903236629183086 -0.12722109038285206 0 -0.015129485606320273 -0.22338526993722826 0 0.059257267317500105 -0.26833533332177195 0 0.034951938908159466 -0.15972873517694844 0 -0.015129485606320273 -0.22338526993722826 0 0.058380870596591146 -0.11443284018272805 0 0.038990192879408449 -0.092323755613757164 0 0.034951938908159473 -0.15972873517694844 0 0.079181613163822412 -0.15103396063351571 0 0.058380870596591146 -0.11443284018272805 0 0.034951938908159473 -0.15972873517694844 0 0.079181613163822412 -0.15103396063351571 0 0.08250061175466708 -0.10089948794018151 0 0.058380870596591146 -0.11443284018272805 0 0.08250061175466708 -0.10089948794018151 0 0.079181613163822412 -0.15103396063351571 0 0.11533315929449653 -0.13750229762192087 0 0.096450225683037752 -0.2118450622284348 0 0.079181613163822412 -0.15103396063351571 0 0.034951938908159473 -0.15972873517694844 0 0.096450225683037752 -0.2118450622284348 0 0.13151707534649398 -0.17418049799193569 0 0.079181613163822412 -0.15103396063351571 0 0.059257267317500105 -0.26833533332177195 0 0.096450225683037752 -0.2118450622284348 0 0.034951938908159473 -0.15972873517694844 0 0.059257267317500105 -0.26833533332177195 0 0.026357738852808864 -0.39707805374875882 0 0.13087477941459713 -0.38265159656565612 0 0.12374141657962448 -0.27450506693010324 0 0.096450225683037752 -0.2118450622284348 0 0.059257267317500105 -0.26833533332177195 0 0.12374141657962448 -0.27450506693010324 0 0.059257267317500105 -0.26833533332177195 0 0.13087477941459713 -0.38265159656565612 0 -0.096296397780096119 -0.38627746123035878 0 0.026357738852808864 -0.39707805374875882 0 -0.015129485606320273 -0.22338526993722826 0 0.026357738852808864 -0.39707805374875882 0 0.059257267317500105 -0.26833533332177195 0 -0.015129485606320273 -0.22338526993722826 0 
</DataArray>
</PointData>
<CellData Scalars="region_id," Vectors="" Tensors="stress,">
<DataArray type="Float64" Name="region_id" format="ascii">
1 1 1 1 1 1 1 1 1 1 1 1 1 1 1 1 1 1 1 1 1 1 1 1 1 1 1 1 1 1 1 1 1 1 1 1 1 1 1 1 1 1 1 1 1 1 1 1 1 1 1 1 1 1 1 1 1 1 1 1 1 1 1 1 1 1 1 1 1 1 1 1 1 1 1 1 1 1 1 1 1 1 1 1 1 1 1 1 1 1 1 1 1 1 1 1 1 1 1 1 1 1 1 1 1 1 1 1 1 1 1 1 1 1 1 1 1 1 1 1 1 1 1 1 1 1 1 1 1 1 1 1 1 1 1 1 1 1 1 1 1 6 1 6 1 1 1 1 1 1 1 1 1 1 1 1 1 1 6 1 6 1 1 6 1 1 6 1 1 1 1 1 1 6 1 1 6 1 1 1 1 1 1 1 1 1 1 1 1 1 1 1 1 1 1 1 1 1 1 1 1 6 6 1 1 1 1 1 1 1 1 1 6 1 1 6 1 1 1 1 1 1 1 1 1 1 1 1 1 6 1 1 6 1 1 1 1 1 1 6 1 6 1 1 6 1 1 1 1 1 1 1 1 1 1 1 1 1 1 1 1 1 1 1 1 1 1 1 1 1 1 1 1 1 1 1 1 1 1 1 1 1 1 1 1 1 1 1 1 1 1 1 1 1 1 1 1 1 1 
</DataArray>
<DataArray type="Float64" Name="stress" NumberOfComponents="9" format="ascii">
-0.10068158402857472 -0.036364655471446322 0 -0.036364655471446322 -0.033477980985018335 0 0 0 -0.03353989125339827 -0.33769457325018643 -0.0015738627082261798 0 -0.0015738627082261798 -0.020659462886429641 0 0 0 -0.08958850903415401 -0.34167320124154654 -0.024987476820467668 0 -0.024987476820467668 0.029534316908662261 0 0 0 -0.078034721083221015 -0.11932400932756358 -0.014019889587999414 0 -0.014019889587999414 0.026168328541694 0 0 0 -0.02328892019646742 -0.14824874962821469 -0.0042357737709558529 0 -0.0042357737709558529 0.014196883684247874 0 0 0 -0.033512966485991696 -0.10584823865633328 -0.055647448394950838 0 -0.055647448394950838 0.076374919126549923 0 0 0 -0.0073683298824457899 0.15804132651164171 -0.04245256795252722 0 -0.04245256795252722 0.10026440099882516 0 0 0 0.064576431877616691 0.15596523846050789 -0.0019410933862783475 0 -0.0019410933862783475 0.10605970425473021 0 0 0 0.065506235678809616 0.34130313593162509 0.0084110940715897975 0 0.0084110940715897975 0.18752577949869587 0 0 0 0.1322072288575801 0.29743419019998596 -0.12837290806504653 0 -0.12837290806504653 0.14099623898486507 0 0 0 0.10960760729621286 0.41584938357099344 0.014660453519334871 0 0.014660453519334871 0.43811660656304385 0 0 0 0.21349149753350949 0.70186272569309849 -0.11140220165844739 0 -0.11140220165844739 0.27715084473946527 0 0 0 0.24475339260814111 0.22977215861831635 -0.087788700807236053 0 -0.087788700807236053 0.20298805997539371 0 0 0 0.10819005464842746 0.096192209000270479 -0.095139735474034204 0 -0.095139735474034204 0.12151530293161539 0 0 0 0.054426877982971522 0.038417359743096263 -0.051976509285680372 0 -0.051976509285680372 0.17565909447165046 0 0 0 0.053519113553686687 0.0050145391612795298 -0.031946112939485342 0 -0.031946112939485342 0.089409310424618527 0 0 0 0.023605962396474556 0.026276808641925137 -0.0044603452611381156 0 -0.0044603452611381156 0.038767088751786721 0 0 0 0.016260974348427965 0.038537979730561188 -0.00246125517938664 0 -0.00246125517938664 0.077267729978278049 0 0 0 0.028951427427209818 -0.11696572801180413 -0.0016335896478183939 0 -0.0016335896478183939 0.011795662605678048 0 0 0 -0.026292516351531528 0.073584817459385665 -0.018081758954936147 0 -0.018081758954936147 -0.012266588444913851 0 0 0 0.015329557253617981 0.15191748124481003 -0.044903822419049805 0 -0.044903822419049805 0.027255947656869284 0 0 0 0.044793357225419772 0.24025773427756725 -0.021033329009184143 0 -0.021033329009184143 0.065540242237217994 0 0 0 0.076449494128696283 0.051626607355112028 -0.040025496280495731 0 -0.040025496280495731 0.01714571573223575 0 0 0 0.017193080771836948 0.0811582570027259 -0.022923284357894279 0 -0.022923284357894279 -0.044547742860828465 0 0 0 0.0091526285354743692 0.15648447748225955 -0.060602999446703679 0 -0.060602999446703679 0.010772619760303193 0 0 0 0.041814274310640692 0.065073706471080198 -0.028112943444411218 0 -0.028112943444411218 0.0065380792417400156 0 0 0 0.017902946428205058 -0.081230883481925753 0.015348265244159977 0 0.015348265244159977 -0.036771176877431005 0 0 0 -0.029500515089839204 0.098454861650379102 -0.063762366345146509 0 -0.063762366345146509 0.032797882535327352 0 0 0 0.032813186046426621 0.078309081790988389 -0.074241410218166826 0 -0.074241410218166826 0.019870822073182914 0 0 0 0.024544975966042826 0.087963625025009068 -0.079205836379196926 0 -0.079205836379196926 0.02738425541688827 0 0 0 0.028836970110474397 0.11819962181597052 -0.082415832262089775 0 -0.082415832262089775 -0.0060135334860509926 0 0 0 0.028046522082479874 0.10676913504086211 -0.065658876289861959 0 -0.065658876289861959 0.0084028202677932096 0 0 0 0.028792988827163829 0.091217465944224307 -0.062242328697085847 0 -0.062242328697085847 0.030393995668840778 0 0 0 0.030402865403266272 0.14710658435147062 -0.049797676316542402 0 -0.049797676316542402 0.030476270497178853 0 0 0 0.044395713712162367 0.074185061452639617 -0.061288415649675881 0 -0.061288415649675881 0.030296028783883183 0 0 0 0.0261202725591307 0.06490348951246358 -0.051395281626724132 0 -0.051395281626724132 0.014250616329012811 0 0 0 0.019788526460369105 0.083033490691445638 -0.068615507457299704 0 -0.068615507457299704 0.030196489805030757 0 0 0 0.02830749512411905 0.060991184585750507 -0.071498885154678643 0 -0.071498885154678643 0.027710952505555442 0 0 0 0.02217553427282648 0.08508867301786624 -0.059700580945714003 0 -0.059700580945714003 0.028974312642617336 0 0 0 0.028515746415120884 0.055250045050642987 -0.027222349383967059 0 -0.027222349383967059 -0.0070322436746214634 0 0 0 0.012054450344005374 0.053045001109225054 -0.023055802847200851 0 -0.023055802847200851 0.017639575953812492 0 0 0 0.017671144265759414 0.0094171484495384483 -0.0080869959886769715 0 -0.0080869959886769715 0.0070843761715480014 0 0 0 0.0041253811552716124 0.0072180866407196287 -0.0028293783165751485 0 -0.0028293783165751485 -0.0018338764417186182 0 0 0 0.0013460525497502596 0.027973188236789681 -0.0085207545195375711 0 -0.0085207545195375711 -0.006406668055431608 0 0 0 0.0053916300453395183 0.042694473042713517 -0.030211230890395596 0 -0.030211230890395596 0.013542241400405955 0 0 0 0.014059178610779828 0.016542796150051164 -0.013483425193666423 0 -0.013483425193666423 0.011394554400829593 0 0 0 0.0069843376377202171 0.0090422787699090956 -0.018350311970827565 0 -0.018350311970827565 -0.001935245046955747 0 0 0 0.0017767584307383788 0.03050061303296181 -0.036874013271207276 0 -0.036874013271207276 0.01536424625015953 0 0 0 0.011466214820780363 0.027326097642375757 -0.031025469154688304 0 -0.031025469154688304 0.029705385596365708 0 0 0 0.014257870809685325 0.026197872591320975 -0.036583758289452151 0 -0.036583758289452151 0.014990505969171952 0 0 0 0.010297094640123267 0.051019445953618292 -0.066889806020381137 0 -0.066889806020381137 0.019655682353899917 0 0 0 0.017668782076879608 0.049128615955737642 -0.059706260902878117 0 -0.059706260902878117 0.048825548504009164 0 0 0 0.024488541114936702 0.019066547067692757 -0.046565164674757353 0 -0.046565164674757353 0.027787734796004326 0 0 0 0.011713570465924333 0.014811998138175242 -0.033579476444914463 0 -0.033579476444914463 0.04679186699678084 0 0 0 0.015400966283738993 0.0027250451108623008 -0.023296960705580072 0 -0.023296960705580072 0.028151195613843494 0 0 0 0.007719060181176407 0.021448895376091737 -0.038133415546746846 0 -0.038133415546746846 0.05843699864922125 0 0 0 0.019971473506328219 0.0086933081316845628 -0.01750435615529089 0 -0.01750435615529089 0.030341231264598534 0 0 0 0.0097586348490708019 2.0404242266569561e-05 -0.005230649206316107 0 -0.005230649206316107 0.021138150186790217 0 0 0 0.0052896386072641688 0.00098993193345717407 -0.0045464913515400607 0 -0.0045464913515400607 0.0026463603651032731 0 0 0 0.0009090730746401396 0.0012842698410556741 -0.0030182740634087102 0 -0.0030182740634087102 -0.0035123744736411666 0 0 0 -0.00055702615814634537 0.00087294397722159633 -0.0064065464041147546 0 -0.0064065464041147546 0.018481755918629883 0 0 0 0.0048386749739628421 0.00078735416094122268 -0.0090104576244741663 0 -0.0090104576244741663 0.016698575811120664 0 0 0 0.0043714824930154439 0.008825776488496917 -0.018153025462978617 0 -0.018153025462978617 0.035692188241404077 0 0 0 0.011129491182475193 0.0040277821326202279 -0.0075933063905192499 0 -0.0075933063905192499 0.011769247267757299 0 0 0 0.0039492573500942152 0.0011977838729362556 -0.0076961679577516318 0 -0.0076961679577516318 0.018083152124443853 0 0 0 0.0048202339993449715 -0.00020234930500702387 -0.0015489755746965761 0 -0.0015489755746965761 -0.0035594449340824305 0 0 0 -0.00094044855977244691 0.0014218420217421146 -0.0031268093975362898 0 -0.0031268093975362898 0.014434200254928697 0 0 0 0.0039640105691678418 0.00098299562406745089 -0.0011818559836150877 0 -0.0011818559836150877 0.0042356098014781907 0 0 0 0.0013046513563863549 0.00013892007705415603 -0.00079500251763353624 0 -0.00079500251763353624 -0.0081254085149324567 0 0 0 -0.0019966221094695198 0.0050727147080513735 -0.0077078288076555257 0 -0.0077078288076555257 0.010606035395086311 0 0 0 0.003919687525784421 0.0062495159878279694 -0.015283207507301888 0 -0.015283207507301888 0.016160877415214991 0 0 0 0.0056025983507607124 0.014856803805622765 -0.019754310824026677 0 -0.019754310824026677 0.022566204970752235 0 0 0 0.009355752194093736 0.0037856912287190236 -0.004645751005586729 0 -0.004645751005586729 0.0010189603188033858 0 0 0 0.0012011628868806024 0.013834440239384904 -0.011461245670428083 0 -0.011461245670428083 0.011494312143310648 0 0 0 0.0063321880956739296 0.0024568856165877451 -0.0026148632593389065 0 -0.0026148632593389065 0.0031580036128189271 0 0 0 0.0014037223073516403 0.0011443602735714689 -0.0030316035825155296 0 -0.0030316035825155296 0.007507730585596218 0 0 0 0.0021630227147919215 0.001438293224412468 -0.0010039974545946739 0 -0.0010039974545946739 0.0044034509927839416 0 0 0 0.0014604360542990191 0.00018133522982688444 0.00027229769881043087 0 0.00027229769881043087 -0.0060269090530269409 0 0 0 -0.0014613934557999864 0.00048197199089261566 0.00073518855018317453 0 0.00073518855018317453 -0.00079466185464216466 0 0 0 -7.8172465937331737e-05 0.00051619923131679499 0.00089867028046519692 0 0.00089867028046519692 -0.0061913500754568447 0 0 0 -0.00141878771103504 0.0040688450482421201 -0.0025754913168802851 0 -0.0025754913168802851 0.0025027509065194131 0 0 0 0.0016428989886904111 -9.0724884427295649e-06 0.0008075004290442056 0 0.0008075004290442056 -0.00051066514183695233 0 0 0 -0.00012993440756992047 0.0014961569856157264 0.0010596044231168111 0 0.0010596044231168111 -9.8200557642202924e-05 0 0 0 0.00034948910699345026 0.00041905556409638223 0.0015271139908473175 0 0.0015271139908473175 -0.0011630406044678132 0 0 0 -0.00018599626009296877 0.0003990655014873834 0.0017234681723529155 0 0.0017234681723529155 -0.00097187348002725216 0 0 0 -0.00014320199463491168 2.174878562732907e-05 0.0012314962879431679 0 0.0012314962879431679 -0.0012124352843141395 0 0 0 -0.00029767162467186914 -0.00010766062895908772 0.0013485689026903058 0 0.0013485689026903058 -0.004169718308276696 0 0 0 -0.0010693447343088905 -0.0016258805050406444 0.0013447256265974605 0 0.0013447256265974605 -0.00093657547672920671 0 0 0 -0.00064061399544246278 -0.00016229671630285658 0.0010514119199867 0 0.0010514119199867 -0.0012450471795930618 0 0 0 -0.0003518359739740351 4.6728081685487588e-05 0.0019625040056532317 0 0.0019625040056532317 0.00011514377433541334 0 0 0 4.0467964005252988e-05 -0.0044737606028953936 0.0013485284087526995 0 0.0013485284087526995 0.00099358803694782338 0 0 0 -0.00087004314148686479 0.00065769568603496475 0.0010835620978407734 0 0.0010835620978407734 -0.00074798986494906128 0 0 0 -2.2573544728510253e-05 0.0048489561077064147 -0.0032251708124541728 0 -0.0032251708124541728 0.0058189549313252265 0 0 0 0.0026669777597579936 -0.0041690355356809872 -0.0013846049637402493 0 -0.0013846049637402493 0.0042987806322254407 0 0 0 3.2436274136016241e-05 0.14942816439103257 -0.14442281685044908 0 -0.14442281685044908 0.10655133020383545 0 0 0 0.063994873648716977 0.1598477806327302 -0.10257840875594515 0 -0.10257840875594515 0.032104005580291695 0 0 0 0.047987946553255501 0.13872007791033075 -0.094523125296870708 0 -0.094523125296870708 0.026948410291756583 0 0 0 0.041417122050521837 0.11284695167864014 -0.10222669612976934 0 -0.10222669612976934 0.041639025270082342 0 0 0 0.038621494237180615 0.069185863961339744 -0.086192996462964994 0 -0.086192996462964994 0.05356510070797435 0 0 0 0.030687741167328531 0.045035679648185611 -0.068056528105834013 0 -0.068056528105834013 0.072438994310544569 0 0 0 0.029368668489682559 0.04145943893810064 -0.0760928436937931 0 -0.0760928436937931 0.039450482093950523 0 0 0 0.020227480258012798 0.076787419261447054 -0.10415767940511203 0 -0.10415767940511203 0.029442115458094165 0 0 0 0.026557383679885305 0.078808906028875789 -0.10402911083437116 0 -0.10402911083437116 0.095058446862139656 0 0 0 0.043466838222753865 0.023201803882555716 -0.069783391419778351 0 -0.069783391419778351 0.079590835587231679 0 0 0 0.025698159867446835 0.057636285845586555 -0.089184991558534349 0 -0.089184991558534349 0.11778194721813429 0 0 0 0.043854558265930321 0.0091644660164679759 -0.043435079004766508 0 -0.043435079004766508 0.049265105196795722 0 0 0 0.014607392803315966 0.038974140747500052 -0.060679551202910603 0 -0.060679551202910603 0.080860879028442634 0 0 0 0.029958754943985644 0.0040543416525021803 -0.019200284898743591 0 -0.019200284898743591 0.038172532719039864 0 0 0 0.010556718592885539 0.00093321497978676726 -0.017990830564520999 0 -0.017990830564520999 0.039373358443285267 0 0 0 0.010076643355768022 0.0032239473247472894 -0.032421976371056371 0 -0.032421976371056371 0.075446554095802892 0 0 0 0.019667625355137497 0.014114354682182473 -0.029928884572255066 0 -0.029928884572255066 0.069797290646753218 0 0 0 0.020977911332233812 -0.00088011903888784992 -0.010702275799519489 0 -0.010702275799519489 0.038947860347823493 0 0 0 0.0095169353272339663 0.0026729392467515385 -0.011663117197690198 0 -0.011663117197690198 0.04961033636353842 0 0 0 0.013070818902572379 0.0042381449314721443 -0.0083194581117955746 0 -0.0083194581117955746 0.029560494343432178 0 0 0 0.008449659818726165 9.4999744838755604e-05 -0.0053040262516839132 0 -0.0053040262516839132 0.017105156961954655 0 0 0 0.0043000391766984366 0.00052150856471755436 -0.0067702244544797785 0 -0.0067702244544797785 0.041965843331615016 0 0 0 0.010621837974083115 0.021478880254448773 -0.046819705349519625 0 -0.046819705349519625 0.10953104770297939 0 0 0 0.032752481989356985 0.0068621788056459632 -0.050349524162870973 0 -0.050349524162870973 0.11794385671474272 0 0 0 0.03120150888009729 0.0072736526579378902 -0.030638947834108921 0 -0.030638947834108921 0.070494781123699113 0 0 0 0.01944210844540939 0.0013950089422657408 -0.013806448267964622 0 -0.013806448267964622 0.085886798081233895 0 0 0 0.02182045175587477 0.0028195993205674306 -0.015320415714174418 0 -0.015320415714174418 0.065222977851296438 0 0 0 0.017010644292966188 -0.00069619685682997812 -0.015775822446930765 0 -0.015775822446930765 0.095770317802402971 0 0 0 0.023768530236393248 0.0011737877851798327 -0.016651947655269339 0 -0.016651947655269339 0.10209187568256246 0 0 0 0.02581641586693538 0.016715168642900347 -0.028542102764830934 0 -0.028542102764830934 0.14648333160692628 0 0 0 0.040799625062456379 -0.0011214247162201207 -0.017752284235821092 0 -0.017752284235821092 0.14694049723356617 0 0 0 0.03645476812933679 0.025385945519182381 -0.049355041721213189 0 -0.049355041721213189 0.22422976329493627 0 0 0 0.062403927203529608 -0.0027336328112861352 -0.033517960828713611 0 -0.033517960828713611 0.16694169120538094 0 0 0 0.04105201459852359 0.054708914185563395 -0.10780778634719601 0 -0.10780778634719601 0.14867692729921123 0 0 0 0.050846460371193614 0.030054423638366967 -0.079845240915358939 0 -0.079845240915358939 0.21291793242065093 0 0 0 0.060743089014754226 0.014950574121069704 -0.055879671270397835 0 -0.055879671270397835 0.13312189417091824 0 0 0 0.037018117072996737 0.048780874175112621 -0.1051928614710102 0 -0.1051928614710102 0.144256275559139 0 0 0 0.048259287433562836 0.21122264583966172 -0.12983286553396395 0 -0.12983286553396395 0.08383436552844703 0 0 0 0.073764252842027145 0.35278080282796942 -0.15246035671274111 0 -0.15246035671274111 0.13382066918485425 0 0 0 0.12165036800320606 0.114238100171978 -0.1734177419290418 0 -0.1734177419290418 0.29005948720240804 0 0 0 0.10107439684359665 0.11456460230267307 -0.14753366091295556 0 -0.14753366091295556 0.23952511500396456 0 0 0 0.088522429326659324 0.0013527080860831209 -0.062791368349294663 0 -0.062791368349294663 0.21063837601302904 0 0 0 0.052997771024778206 0.094582679965542926 -0.11883342138382669 0 -0.11883342138382669 0.3804473815744438 0 0 0 0.11875751538499668 0.070555963951041134 -0.13561116123209688 0 -0.13561116123209688 0.25618911247601028 0 0 0 0.081686269106762799 0.44552212858989826 -0.39674101287327512 0 -0.39674101287327512 0.67898414585417033 0 0 0 0.28112656861101715 0.0062872218897813692 0.026214344042516879 0 0.026214344042516879 0.06706899379190645 0 0 0 0.018339053920422455 0.33977112130121445 0.20567457939862033 0 0.20567457939862033 0.098596331406429094 0 0 0 0.10959186317691061 4.9323718095304003e-06 -1.1119085434638645e-07 0 -1.1119085434638645e-07 1.6980278987242249e-06 0 0 0 1.6575999270636565e-06 0.02584634384356119 0.01383043383630933 0 0.01383043383630933 -0.036953446710342362 0 0 0 -0.0027767757166952379 1.2813260467353057e-05 -6.2316930159740868e-07 0 -6.2316930159740868e-07 4.3057489259327125e-06 0 0 0 4.2797523483214427e-06 0.0021296104038350805 -0.0097061326766068046 0 -0.0097061326766068046 0.037307363155661299 0 0 0 0.009859243389874095 0.060655816642129531 0.048339953478838904 0 0.048339953478838904 0.0341288092826664 0 0 0 0.023696156481198757 0.32014883507394432 -0.01585490943467871 0 -0.01585490943467871 0.061164701912994612 0 0 0 0.095328384246734621 0.26765341554324151 0.14253649924748002 0 0.14253649924748002 0.1348911587455266 0 0 0 0.1006361435721923 0.20493082344827451 0.0033827478850179116 0 0.0033827478850179116 0.0039625601892954165 0 0 0 0.052223345909392593 0.12934152281181532 0.070220547762565144 0 0.070220547762565144 0.059673308530059366 0 0 0 0.047253707835468672 0.042220149433309873 0.025095198895739634 0 0.025095198895739634 0.018490334636388717 0 0 0 0.01517762101742437 0.03456759654533692 0.027720617156835048 0 0.027720617156835048 0.044747014761357118 0 0 0 0.019828652826673565 -0.0019495113934859011 0.0031823318066226403 0 0.0031823318066226403 0.031453120918481209 0 0 0 0.0073759023812494905 0.0043714381386559253 0.0056279482663843666 0 0.0056279482663843666 0.016393591418720987 0 0 0 0.0051912573893448943 0.029298973180048815 0.046704693943897715 0 0.046704693943897715 0.075811404474095845 0 0 0 0.026277594413535832 0.016176507505045512 0.0071705392483529806 0 0.0071705392483529806 0.022968699080412769 0 0 0 0.0097863016463646257 -0.0014678909520178252 -0.0070246271303642249 0 -0.0070246271303642249 0.024066621743849659 0 0 0 0.0056496826979579584 0.0066266047788959472 -0.0054033752908377863 0 -0.0054033752908377863 -0.049962392570552128 0 0 0 -0.010833946947914322 1.8308199629886476e-05 -9.9777963198090091e-07 0 -9.9777963198090091e-07 6.1569666357399992e-06 0 0 0 6.1162915664066202e-06 -4.9777076761126082e-05 -0.0056553736356570461 0 -0.0056553736356570461 0.0095140707213587916 0 0 0 0.0023660734111490278 2.3103752705653461e-05 -1.237907109961788e-06 0 -1.237907109961788e-06 7.7427621243259197e-06 0 0 0 7.711628707494846e-06 -0.0035953219269757287 -0.0059992583199623972 0 -0.0059992583199623972 -0.022721496942381812 0 0 0 -0.0065792047173396069 0.00019180111035628784 -0.0035564265927279237 0 -0.0035564265927279237 -0.016541806310139136 0 0 0 -0.0040875012999453232 2.7530125031071978e-05 -1.3877097096983056e-06 0 -1.3877097096983056e-06 9.2088040095481145e-06 0 0 0 9.1847322601550223e-06 -0.00033377806503342988 -0.0030599425245443346 0 -0.0030599425245443346 0.0072562814186092339 0 0 0 0.0017306258383940065 -0.00011447492527416614 -0.0031206616878405313 0 -0.0031206616878405313 -0.0051833640388867508 0 0 0 -0.0013244597410402292 3.1739636418834762e-05 -1.4907909152246306e-06 0 -1.4907909152246306e-06 1.0602929985740202e-05 0 0 0 1.0585641601143741e-05 0.00028708548935174605 -0.0038095761682785945 0 -0.0038095761682785945 0.0085426324368729212 0 0 0 0.0022074294815568329 -0.00095466428414625604 -0.0010592164258621528 0 -0.0010592164258621528 0.0095736425576138373 0 0 0 0.0021547445683673949 -0.0020402387739758944 -0.00384792623333996 0 -0.00384792623333996 0.021181724760559677 0 0 0 0.0047853714966457793 0.0036326702525104615 -0.0044418469612634848 0 -0.0044418469612634848 0.0091141323081336267 0 0 0 0.003186700640160911 3.8016801063855965e-05 -0.00113487916063848 0 -0.00113487916063848 0.0087436196870269711 0 0 0 0.0021954091220226513 -0.00021153350728438122 -0.0012789570983415821 0 -0.0012789570983415821 0.0050915030320670815 0 0 0 0.001219992381195231 3.9742227650801286e-05 -1.5877607402984971e-06 0 -1.5877607402984971e-06 1.3260708754971123e-05 0 0 0 1.3250734101443102e-05 -1.6029497988068186e-05 -0.0013918313907359536 0 -0.0013918313907359536 0.0082886769790739834 0 0 0 0.0020681618702718119 -0.0012833841749879671 -0.0023810943865325562 0 -0.0023810943865325562 0.00020862074125815866 0 0 0 -0.00026869085843306273 3.5797124440815165e-05 -1.5506818097294722e-06 0 -1.5506818097294722e-06 1.1950761954019759e-05 0 0 0 1.193697159870873e-05 -0.0011003844993628942 -0.0023373820682322799 0 -0.0023373820682322799 0.00825890179218014 0 0 0 0.0017896293232047 -0.0010836191510219528 -0.00043831690736606532 0 -0.00043831690736606532 0.008648869308115259 0 0 0 0.0018913125392736596 -0.0012758646951324532 -0.0018242957182688091 0 -0.0018242957182688091 0.012760959755876655 0 0 0 0.0028712737651859915 -0.0023328672231530678 0.0025927289367246864 0 0.0025927289367246864 0.013181720046679946 0 0 0 0.0027122132058816639 -0.0025960675845226877 0.0025638228084907677 0 0.0025638228084907677 0.01689945537164661 0 0 0 0.0035758469467810361 0.0036875115436134642 0.0068901888105070697 0 0.0068901888105070697 0.021891215429832744 0 0 0 0.0063946817433619962 0.0042220564639392499 0.0065051249849854553 0 0.0065051249849854553 0.023157647688238026 0 0 0 0.0068449260380443189 0.0056552432275198683 0.013142580125284908 0 0.013142580125284908 0.025704717345780281 0 0 0 0.0078399901433248154 -0.0014419341980962397 0.0067253711682260242 0 0.0067253711682260242 0.0062791829184436487 0 0 0 0.0012093121800869078 0.0046054634723069476 0.010321359303815392 0 0.010321359303815392 0.016318405636348565 0 0 0 0.0052309672771635451 0.010542873095412353 0.014069870111279137 0 0.014069870111279137 0.0062740687723470412 0 0 0 0.0042042354669397097 0.0097254706853479589 0.0077213643326123904 0 0.0077213643326123904 -0.0026800018825068328 0 0 0 0.0017613672007103509 0.1004631104846907 -0.0042302959541986596 0 -0.0042302959541986596 -0.018047351095576092 0 0 0 0.020603939847278596 0.11098906540498232 -0.0047019466986849556 0 -0.0047019466986849556 -0.015094148338700819 0 0 0 0.023973729266570265 0.14502961799996106 0.0063871052371771153 0 0.0063871052371771153 -0.01616879497542012 0 0 0 0.032215205756135346 0.062668296184905797 0.036178467980633178 0 0.036178467980633178 0.024911016929531647 0 0 0 0.021894828278609248 0.038582344613487973 0.016301353005801378 0 0.016301353005801378 0.011233469798250351 0 0 0 0.012453953602934553 0.0038665561190238673 0.0021114144531847808 0 0.0021114144531847808 0.001424115964885786 0 0 0 0.0013226680209779129 0.0021190935244574938 0.0019018390897960202 0 0.0019018390897960202 0.0013490184921618464 0 0 0 0.00086702800415494607 0.00091323128712161861 0.0011554208235060592 0 0.0011554208235060592 -0.00022363202521491488 0 0 0 0.00017239981547634287 0.00098579114176056137 0.00076261920950304867 0 0.00076261920950304867 0.00084348489466634646 0 0 0 0.00045731900910661594 0.00022189660091243013 0.00026077457225670564 0 0.00026077457225670564 -0.0001505173547897698 0 0 0 1.7844811530665083e-05 1.1344362036425082e-06 1.9992646082656051e-05 0 1.9992646082656051e-05 0.00019978573567946967 0 0 0 5.0230042970333955e-05 0.00010448775252873418 -1.6876940371446381e-05 0 -1.6876940371446381e-05 -8.8834535333689755e-05 0 0 0 3.9133042995382656e-06 7.1110619840175567e-05 -1.4768165523884348e-06 0 -1.4768165523884348e-06 1.9962427911251832e-05 0 0 0 2.2768261937856848e-05 6.9007949721119563e-05 -1.538168075282385e-06 0 -1.538168075282385e-06 2.297521837346885e-05 0 0 0 2.2995792023647106e-05 0.00014839849854020315 0.00012692689063253937 0 0.00012692689063253937 7.2914890774100627e-05 0 0 0 5.5328347327687766e-05 4.9403347968546285e-05 7.6112382553228386e-05 0 7.6112382553228386e-05 0.00015544550233848042 0 0 0 5.1212212576867699e-05 2.8347696410246925e-06 0.00024900841124630979 0 0.00024900841124630979 0.0010698382430547326 0 0 0 0.00026816825317399484 0.00033545064119655521 0.00082352897147597304 0 0.00082352897147597304 0.0005482111217887109 0 0 0 0.00022091544074775982 0.00067492070789154646 0.00062007274189523898 0 0.00062007274189523898 0.00057103079512632604 0 0 0 0.00031148787575419057 0.00068908087535007878 0.0010196390089534102 0 0.0010196390089534102 0.00097218365156015452 0 0 0 0.00041531613172790527 4.9382619356608259e-05 0.0022724190240082445 0 0.0022724190240082445 0.001799832708292648 0 0 0 0.00046230383191270263 0.00081688006122110357 0.0018225499661221889 0 0.0018225499661221889 0.0026723343883048312 0 0 0 0.00087230361238205267 -4.7286233282761714e-05 0.00064003359524789083 0 0.00064003359524789083 0.0015665526937631569 0 0 0 0.00037981661511921061 6.5506930343529069e-05 -1.5320431541406095e-06 0 -1.5320431541406095e-06 2.183156789929989e-05 0 0 0 2.1834624560707241e-05 0.00052054988625327425 0.00051784193913784193 0 0.00051784193913784193 0.00068333698354994254 0 0 0 0.00030097171745202544 0.00020809726345902068 0.00077355197796413755 0 0.00077355197796413755 0.0022069993831129943 0 0 0 0.00060377416164289271 6.1971955123101832e-05 -1.5442867493561205e-06 0 -1.5442867493561205e-06 2.0653373076168158e-05 0 0 0 2.0656332049817499e-05 0.00012895811599644702 0.0009305243083299608 0 0.0009305243083299608 0.0038517069466932341 0 0 0 0.00099516626567197619 0.00087586111464255101 0.002736648855904189 0 0.002736648855904189 0.0042927669562802251 0 0 0 0.0012921570177316655 0.0015930356568043536 0.0030227973002721065 0 0.0030227973002721065 0.0030339954961111637 0 0 0 0.0011567577882294344 0.00075890980417359089 0.0042471210431556106 0 0.0042471210431556106 0.0011074982302705649 0 0 0 0.000466602008611261 0.0022476304334577701 0.0050893773343061999 0 0.0050893773343061999 0.0048284652042376308 0 0 0 0.0017690239094236837 -0.00079640769404987211 0.0064943520906663998 0 0.0064943520906663998 0.0023523624821999434 0 0 0 0.00038898869703718475 0.00046900447809483659 0.0063880704996442939 0 0.0063880704996442939 0.00833219533375118 0 0 0 0.0022002999529613376 0.000373395448303393 0.0034625758332493817 0 0.0034625758332493817 0.0061001647782878976 0 0 0 0.0016183900566477671 -0.0010428804772917855 0.0037124478868093558 0 0.0037124478868093558 0.0065852210813432954 0 0 0 0.0013855851510131134 -0.00045668977721008419 0.0034946011861720638 0 0.0034946011861720638 0.0028300135695535911 0 0 0 0.00059333094808627918 -0.00029619627238042234 0.0018413563304768843 0 0.0018413563304768843 0.0029096522636882227 0 0 0 0.0006533639978270056 0.0002548769584040933 0.0018241423747853425 0 0.0018241423747853425 0.0050466433378337783 0 0 0 0.0013253800740584687 6.2564048531887906e-05 0.00062624730369442716 0 0.00062624730369442716 0.0045584027967411345 0 0 0 0.0011552417113189772 5.8402164230130737e-05 -1.5569661464552276e-06 0 -1.5569661464552276e-06 1.9463914075462308e-05 0 0 0 1.9466519576398263e-05 -0.00019928580584669401 0.00080261735871856033 0 0.00080261735871856033 0.0039306443080004529 0 0 0 0.00093283962553782898 8.0924461923981283e-05 0.00055498848292812042 0 0.00055498848292812042 0.006665439871420098 0 0 0 0.0016865910833363529 5.4794917115714695e-05 -1.5710704764279466e-06 0 -1.5710704764279466e-06 1.8263026553821036e-05 0 0 0 1.8264485917383933e-05 -5.2174398136317635e-05 0.00063032674964880187 0 0.00063032674964880187 0.0056872829085374832 0 0 0 0.001408777127600791 -0.00084812561853886415 0.0016991936277630515 0 0.0016991936277630515 0.0059791013959271666 0 0 0 0.0012827439443479083 -0.00012276230447155756 0.001815042481796425 0 0.001815042481796425 0.0055712740896922686 0 0 0 0.0013621279463042479 -0.00024677444868981269 0.0011881404006468532 0 0.0011881404006468532 0.0075858625659410706 0 0 0 0.0018347720293121483 -0.0005365193682973779 0.00082540970411915104 0 0.00082540970411915104 0.0088571595044441009 0 0 0 0.002080160034035855 3.9070263311291598e-05 0.00027364766004001062 0 0.00027364766004001062 0.0071930589346571594 0 0 0 0.0018080322994920017 5.1136648545573039e-05 -1.5862865256763025e-06 0 -1.5862865256763025e-06 1.7043835343724933e-05 0 0 0 1.7045120972324494e-05 -0.00029056199071035739 0.00042168110975637774 0 0.00042168110975637774 0.0070786084941097758 0 0 0 0.0016970116258498546 4.361004624011855e-05 -1.6009157135460245e-06 0 -1.6009157135460245e-06 1.4544772200620699e-05 0 0 0 1.453870461018481e-05 -0.00094628653917175375 -0.00056195646554302314 0 -0.00056195646554302314 0.0072407639950451677 0 0 0 0.0015736193639686866 -0.00011475680010808453 0.00014732773416969991 0 0.00014732773416969991 0.0077291137595558723 0 0 0 0.0019035892398615584 4.7405034746131188e-05 -1.6000302902173037e-06 0 -1.6000302902173037e-06 1.5804085889097527e-05 0 0 0 1.580228015880718e-05 8.2660775934551012e-05 1.927024258208121e-05 0 1.927024258208121e-05 0.0085589265087655519 0 0 0 0.0021603968211743041 -0.0015689238363287838 0.0003220944700832451 0 0.0003220944700832451 0.007915406468137931 0 0 0 0.0015866206579524533 -0.002124227377921617 0.0028737025280411999 0 0.0028737025280411999 0.0099467841263121137 0 0 0 0.0019556391870976242 -0.0018312069563664046 0.0028811358898637174 0 0.0028811358898637174 0.0086763488818113466 0 0 0 0.0017112854813612355 0.0035473391411826594 0.0083354584542142396 0 0.0083354584542142396 0.002131052730383054 0 0 0 0.0014195979678910398 -0.0024129320723359771 0.0072842917549262864 0 0.0072842917549262864 0.011463859732879556 0 0 0 0.0022627319151359016 -0.0037067769305247911 0.0085709527999791035 0 0.0085709527999791035 0.0037896324252453262 0 0 0 2.0713873679634176e-05 0.0026103853167962765 0.0064260720026658724 0 0.0064260720026658724 0.0034184449856120569 0 0 0 0.0015072075756024372 0.00061089889442988987 0.0078315060981790641 0 0.0078315060981790641 0.0018126212274958142 0 0 0 0.00060588003048145378 0.0019861019439193495 0.0062229364682016008 0 0.0062229364682016008 0.0013375902044421295 0 0 0 0.00083092303709020321 0.0050601746903045086 0.0051205759220427916 0 0.0051205759220427916 0.0026634078830145569 0 0 0 0.001930895643330155 0.0067470095169250843 0.0060117477661054686 0 0.0060117477661054686 0.0021393464746202184 0 0 0 0.0022215889978867143 0.0057706219593770536 0.0049569899776582549 0 0.0049569899776582549 0.0008709999200142704 0 0 0 0.0016604054698475812 0.0033256067622813301 0.0027464406833923594 0 0.0027464406833923594 5.125728198374091e-05 0 0 0 0.0008442160110659902 0.010794064808471893 0.0041250852229534132 0 0.0041250852229534132 0.0019453386575776221 0 0 0 0.0031848508665131003 0.010044150291263506 -0.010670433874159224 0 -0.010670433874159224 -0.050999709093463352 0 0 0 -0.010238889700549961 0.020409948580467407 0.0042731063728658203 0 0.0042731063728658203 -0.0030115419276839361 0 0 0 0.0043496016631960899 0.0079574764527761133 0.0019214516445638097 0 0.0019214516445638097 0.0041354265591957429 0 0 0 0.003023225752992964 -0.0012646876416630981 0.0059878538292645334 0 0.0059878538292645334 -0.027320051465115291 0 0 0 -0.0071461847766944864 -0.00097858656352656226 -0.005241385505861007 0 -0.005241385505861007 -0.019877432499045167 0 0 0 -0.0052140047656428212 -0.0013677056301790724 -0.005179672427542803 0 -0.005179672427542803 -0.014012970847866235 0 0 0 -0.0038451691195111604 0.0028341933043252165 0.008211477109633325 0 0.008211477109633325 -0.0031845247451176562 0 0 0 -8.7582860198276435e-05 -0.00042501145169770993 -0.0023028865189291814 0 -0.0023028865189291814 -0.028479208869729433 0 0 0 -0.0072260550803568968 0.0057942734910174654 -0.016904287788735945 0 -0.016904287788735945 -0.024385915776975686 0 0 0 -0.0046479105714896107 0.022140686372015193 -0.017832834765769023 0 -0.017832834765769023 -0.11652926071768933 0 0 0 -0.023597143586418259 0.039375190963590878 -0.026714574313897149 0 -0.026714574313897149 -0.048957262752274744 0 0 0 -0.0023955179471706334 0.018485138413269264 -0.017443374307430703 0 -0.017443374307430703 -0.065241720822396321 0 0 0 -0.011689145602281847 0.038281749622270711 0.0089202848210615249 0 0.0089202848210615249 -0.013365694171669773 0 0 0 0.006229013862650401 -0.0043764534997946525 -0.022072365412677653 0 -0.022072365412677653 -0.070020884126550165 0 0 0 -0.018599334406585899 0.023872880081067915 -0.071029046519053729 0 -0.071029046519053729 -0.068444199818068263 0 0 0 -0.011142829934249976 -0.002721355259781677 -0.087665162273780572 0 -0.087665162273780572 -0.036775056197747791 0 0 0 -0.0098741028643823947 0.024969047628578503 -0.068168114009575231 0 -0.068168114009575231 -0.098490901900828445 0 0 0 -0.018380463568062597 -0.063678522595035147 -0.059639631931146297 0 -0.059639631931146297 -0.0025151792165791775 0 0 0 -0.016548425452903581 -0.034832768335547014 -0.05391512128563114 0 -0.05391512128563114 -0.021705002592188445 0 0 0 -0.014134442731933837 -0.25847484789161135 -0.065355495054521637 0 -0.065355495054521637 0.026271214524878239 0 0 0 -0.05805090834168336 -0.053551545825995861 -0.12557695662539473 0 -0.12557695662539473 0.023641149133730943 0 0 0 -0.0074775991730661184 -0.10362882779824034 -0.051489668884585171 0 -0.051489668884585171 -0.019224491630431828 0 0 0 -0.030713329857168015 -0.13145868253300633 -0.086762757451477768 0 -0.086762757451477768 0.019023334673606285 0 0 0 -0.028108836964849976 -0.093564223848191547 -0.064644512711016233 0 -0.064644512711016233 0.016186487252980775 0 0 0 -0.019344434148802638 0.0022775247313722158 -0.11262987658130713 0 -0.11262987658130713 0.079582674609357751 0 0 0 0.020465049835182547 0.034511670158922703 -0.089743933037998769 0 -0.089743933037998769 0.13802343935858175 0 0 0 0.043133777379376237 0.13557471078659222 -0.1270228389328252 0 -0.1270228389328252 0.023035092722021311 0 0 0 0.039652450877153411 0.16123844841451895 -0.073044923494683112 0 -0.073044923494683112 0.30026409414470479 0 0 0 0.1153756356398058 0.24260833590113795 -0.11424418543935422 0 -0.11424418543935422 0.10972085423891365 0 0 0 0.088082297535013065 0.41536209012240088 -0.21220410419955893 0 -0.21220410419955893 0.44353074815662508 0 0 0 0.21472320956975643 0.75484136227973564 -0.0761763101279338 0 -0.0761763101279338 0.091204768847403805 0 0 0 0.21151153278178492 0.29795124568924392 -0.14783584260628022 0 -0.14783584260628022 0.11879340928655102 0 0 0 0.10418616374394862 0.23779621991904942 0.013105309662080677 0 0.013105309662080677 0.012613501129355775 0 0 0 0.062602430262101549 0.11959445194333496 -0.088622732891160627 0 -0.088622732891160627 0.019612896006007574 0 0 0 0.034801836987335633 0.088645912045915098 -0.066900129380042417 0 -0.066900129380042417 -0.046796641938265715 0 0 0 0.01046231752691229 0.21124550535320918 -0.069929803926588374 0 -0.069929803926588374 0.0024011244798676223 0 0 0 0.053411657458269035 0.087105422343053823 -0.06668989718250895 0 -0.06668989718250895 -0.039072375946369212 0 0 0 0.012008261599171208 0.014475199472067898 -0.099281318684736275 0 -0.099281318684736275 -0.030145561245493106 0 0 0 -0.0039175904433562479 0.035004548377566724 -0.11711330422183297 0 -0.11711330422183297 -0.0062368694796672841 0 0 0 0.007191919724474638 
</DataArray>
</CellData>
</Piece>
</UnstructuredGrid>
</VTKFile>
