<?xml version="1.0"?>
<VTKFile type="UnstructuredGrid" version="0.1" byte_order="LittleEndian">
<UnstructuredGrid>
<Piece NumberOfPoints="880" NumberOfCells="299">
<Points>
<DataArray type="Float64" NumberOfComponents="3" format="ascii">
-0 0 0 0.18653882694645291 0.22249173546702489 0 0 0.25000000000104189 0 -0 0 0 0.18653882694645291 0.22249173546702489 0 0.24999999999941089 0 0 0.24999999999941089 0 0 0.35015135319464608 0.1900339269648805 0 0.49999999999869182 0 0 0.18653882694645291 0.22249173546702489 0 0.24999999999941089 0 0 0.35015135319464608 0.1900339269648805 0 0.35015135319464608 0.1900339269648805 0 0.49924741621175961 0.21507969613896921 0 0.49999999999869182 0 0 0.35015135319464608 0.1900339269648805 0 0.49924741621175961 0.21507969613896921 0 0.40587285776242238 0.32419148732968017 0 0.37764981543668408 0.41341486499350411 0 0.41576443813007791 0.48093483781626972 0 0.45418244162583959 0.41624787166862259 0 0.37764981543668408 0.41341486499350411 0 0.45418244162583959 0.41624787166862259 0 0.40587285776242238 0.32419148732968017 0 0.41576443813007791 0.48093483781626972 0 0.46566719828045178 0.47702825415921918 0 0.45418244162583959 0.41624787166862259 0 0.41576443813007791 0.48093483781626972 0 0.46566719828045178 0.47702825415921918 0 0.4638583922372429 0.51470588235294135 0 0.46566719828045178 0.47702825415921918 0 0.49954900152271581 0.45107191084564019 0 0.5 0.5 0 0.46566719828045178 0.47702825415921918 0 0.4638583922372429 0.51470588235294135 0 0.5 0.5 0 0.46566719828045178 0.47702825415921918 0 0.49954900152271581 0.45107191084564019 0 0.45418244162583959 0.41624787166862259 0 0.45418244162583959 0.41624787166862259 0 0.49435464945626773 0.33318442629318029 0 0.54876010062294855 0.39662628167175101 0 0.45418244162583959 0.41624787166862259 0 0.49435464945626773 0.33318442629318029 0 0.40587285776242238 0.32419148732968017 0 0.49924741621175961 0.21507969613896921 0 0.49435464945626773 0.33318442629318029 0 0.40587285776242238 0.32419148732968017 0 0.35015135319464608 0.1900339269648805 0 0.40587285776242238 0.32419148732968017 0 0.29145599617909779 0.35026601625021492 0 0.37764981543668408 0.41341486499350411 0 0.40587285776242238 0.32419148732968017 0 0.29145599617909779 0.35026601625021492 0 0.18653882694645291 0.22249173546702489 0 0.35015135319464608 0.1900339269648805 0 0.29145599617909779 0.35026601625021492 0 0.29145599617909779 0.35026601625021492 0 0.32540781287085369 0.49175159894608172 0 0.17872124008781709 0.39692711089439497 0 0.37764981543668408 0.41341486499350411 0 0.29145599617909779 0.35026601625021492 0 0.32540781287085369 0.49175159894608172 0 0.37764981543668408 0.41341486499350411 0 0.41576443813007791 0.48093483781626972 0 0.32540781287085369 0.49175159894608172 0 0.17872124008781709 0.39692711089439497 0 0 0.25000000000104189 0 0 0.50000000000206157 0 0.17872124008781709 0.39692711089439497 0 0 0.50000000000206157 0 0.22453074737734591 0.51613635929252633 0 0.32540781287085369 0.49175159894608172 0 0.17872124008781709 0.39692711089439497 0 0.22453074737734591 0.51613635929252633 0 0.18653882694645291 0.22249173546702489 0 0.29145599617909779 0.35026601625021492 0 0.17872124008781709 0.39692711089439497 0 0.18653882694645291 0.22249173546702489 0 0.17872124008781709 0.39692711089439497 0 0 0.25000000000104189 0 0 0.50000000000206157 0 0.18442368612951149 0.62734948407416979 0 0 0.75000000000034772 0 0.18442368612951149 0.62734948407416979 0 0.22727208279115291 0.72949159435386135 0 0 0.75000000000034772 0 0.18442368612951149 0.62734948407416979 0 0.22727208279115291 0.72949159435386135 0 0.31346558946927339 0.67110784456164874 0 0.18442368612951149 0.62734948407416979 0 0.22453074737734591 0.51613635929252633 0 0.31771010312359771 0.58585679504088894 0 0 0.50000000000206157 0 0.18442368612951149 0.62734948407416979 0 0.22453074737734591 0.51613635929252633 0 0 1 0 0.096516139048187316 0.89789944498939644 0 0 0.75000000000034772 0 0 1 0 0.096516139048187316 0.89789944498939644 0 0.1596341872805197 1 0 0.096516139048187316 0.89789944498939644 0 0 0.75000000000034772 0 0.1644705180525495 0.8200994301041713 0 0.1644705180525495 0.8200994301041713 0 0.2386314078659193 0.92924778694987087 0 0.27155609766735261 0.80398965554903801 0 0.22727208279115291 0.72949159435386135 0 0 0.75000000000034772 0 0.1644705180525495 0.8200994301041713 0 0.22727208279115291 0.72949159435386135 0 0.1644705180525495 0.8200994301041713 0 0.27155609766735261 0.80398965554903801 0 0.096516139048187316 0.89789944498939644 0 0.1644705180525495 0.8200994301041713 0 0.2386314078659193 0.92924778694987087 0 0.096516139048187316 0.89789944498939644 0 0.2386314078659193 0.92924778694987087 0 0.1596341872805197 1 0 0.2386314078659193 0.92924778694987087 0 0.1596341872805197 1 0 0.27591592301363282 1 0 0.36061858902161292 1 0 0.32789203369730929 0.94219211037003092 0 0.27591592301363282 1 0 0.36061858902161292 1 0 0.32789203369730929 0.94219211037003092 0 0.39382242252278338 0.95440420122950598 0 0.2386314078659193 0.92924778694987087 0 0.32789203369730929 0.94219211037003092 0 0.27591592301363282 1 0 0.2386314078659193 0.92924778694987087 0 0.32789203369730929 0.94219211037003092 0 0.31834856208730472 0.88134829947972904 0 0.32789203369730929 0.94219211037003092 0 0.37746652222901839 0.8987532801416368 0 0.39382242252278338 0.95440420122950598 0 0.32789203369730929 0.94219211037003092 0 0.31834856208730472 0.88134829947972904 0 0.37746652222901839 0.8987532801416368 0 0.2386314078659193 0.92924778694987087 0 0.31834856208730472 0.88134829947972904 0 0.27155609766735261 0.80398965554903801 0 0.31834856208730472 0.88134829947972904 0 0.36493375430404612 0.82333914183704071 0 0.37746652222901839 0.8987532801416368 0 0.31834856208730472 0.88134829947972904 0 0.36493375430404612 0.82333914183704071 0 0.27155609766735261 0.80398965554903801 0 0.22727208279115291 0.72949159435386135 0 0.27155609766735261 0.80398965554903801 0 0.32984265945580837 0.74432890077789404 0 0.36493375430404612 0.82333914183704071 0 0.27155609766735261 0.80398965554903801 0 0.32984265945580837 0.74432890077789404 0 0.36493375430404612 0.82333914183704071 0 0.39746869305290999 0.7595658224757349 0 0.32984265945580837 0.74432890077789404 0 0.36493375430404612 0.82333914183704071 0 0.39746869305290999 0.7595658224757349 0 0.42893012659725649 0.81084715169569632 0 0.39746869305290999 0.7595658224757349 0 0.42893012659725649 0.81084715169569632 0 0.44651949253391748 0.77225997208621999 0 0.39746869305290999 0.7595658224757349 0 0.44651949253391748 0.77225997208621999 0 0.43412357948152142 0.72128778687215156 0 0.44651949253391748 0.77225997208621999 0 0.47786860714145291 0.77730227330627721 0 0.47220206448452873 0.74892462649306213 0 0.47786860714145291 0.77730227330627721 0 0.47220206448452873 0.74892462649306213 0 0.5 0.76470588235294124 0 0.47786860714145291 0.77730227330627721 0 0.5 0.79411764705882359 0 0.5 0.76470588235294124 0 0.47062147868881782 0.80650323854033878 0 0.5 0.82352941176470584 0 0.5 0.79411764705882359 0 0.47786860714145291 0.77730227330627721 0 0.47062147868881782 0.80650323854033878 0 0.5 0.79411764705882359 0 0.44651949253391748 0.77225997208621999 0 0.47786860714145291 0.77730227330627721 0 0.47062147868881782 0.80650323854033878 0 0.42893012659725649 0.81084715169569632 0 0.44651949253391748 0.77225997208621999 0 0.47062147868881782 0.80650323854033878 0 0.42893012659725649 0.81084715169569632 0 0.47062147868881782 0.80650323854033878 0 0.46181179062043481 0.83858979842637782 0 0.42893012659725649 0.81084715169569632 0 0.46181179062043481 0.83858979842637782 0 0.42880856207355889 0.86677159981903118 0 0.46181179062043481 0.83858979842637782 0 0.5 0.85294117647058831 0 0.5 0.82352941176470584 0 0.47062147868881782 0.80650323854033878 0 0.46181179062043481 0.83858979842637782 0 0.5 0.82352941176470584 0 0.46181179062043481 0.83858979842637782 0 0.47032448519202857 0.86718057681700655 0 0.5 0.85294117647058831 0 0.47032448519202857 0.86718057681700655 0 0.5 0.88235294117647056 0 0.5 0.85294117647058831 0 0.46181179062043481 0.83858979842637782 0 0.47032448519202857 0.86718057681700655 0 0.42880856207355889 0.86677159981903118 0 0.36493375430404612 0.82333914183704071 0 0.42880856207355889 0.86677159981903118 0 0.37746652222901839 0.8987532801416368 0 0.36493375430404612 0.82333914183704071 0 0.42893012659725649 0.81084715169569632 0 0.42880856207355889 0.86677159981903118 0 0.37746652222901839 0.8987532801416368 0 0.42822627495986648 0.92083108049218854 0 0.39382242252278338 0.95440420122950598 0 0.42880856207355889 0.86677159981903118 0 0.37746652222901839 0.8987532801416368 0 0.42822627495986648 0.92083108049218854 0 0.47032448519202857 0.86718057681700655 0 0.42880856207355889 0.86677159981903118 0 0.46100207326614928 0.89524736819256467 0 0.42880856207355889 0.86677159981903118 0 0.42822627495986648 0.92083108049218854 0 0.46100207326614928 0.89524736819256467 0 0.47032448519202857 0.86718057681700655 0 0.46100207326614928 0.89524736819256467 0 0.5 0.88235294117647056 0 0.46100207326614928 0.89524736819256467 0 0.5 0.91176470588235292 0 0.5 0.88235294117647056 0 0.46100207326614928 0.89524736819256467 0 0.46949408183482899 0.92833826413560594 0 0.5 0.91176470588235292 0 0.46949408183482899 0.92833826413560594 0 0.5 0.94117647058823528 0 0.5 0.91176470588235292 0 0.42822627495986648 0.92083108049218854 0 0.46100207326614928 0.89524736819256467 0 0.46949408183482899 0.92833826413560594 0 0.46949408183482899 0.92833826413560594 0 0.44768478605684647 0.9646709673379662 0 0.47596308696979028 0.95620709615192379 0 0.42822627495986648 0.92083108049218854 0 0.46949408183482899 0.92833826413560594 0 0.44768478605684647 0.9646709673379662 0 0.44768478605684647 0.9646709673379662 0 0.47596308696979028 0.95620709615192379 0 0.47818194888216242 0.97829325975680159 0 0.46949408183482899 0.92833826413560594 0 0.47596308696979028 0.95620709615192379 0 0.5 0.94117647058823528 0 0.47596308696979028 0.95620709615192379 0 0.47818194888216242 0.97829325975680159 0 0.5 0.97058823529411764 0 0.47596308696979028 0.95620709615192379 0 0.5 0.97058823529411764 0 0.5 0.94117647058823528 0 0.47818194888216242 0.97829325975680159 0 0.46726187138417491 1 0 0.5 1 0 0.47818194888216242 0.97829325975680159 0 0.5 0.97058823529411764 0 0.5 1 0 0.44768478605684647 0.9646709673379662 0 0.47818194888216242 0.97829325975680159 0 0.46726187138417491 1 0 0.44768478605684647 0.9646709673379662 0 0.46726187138417491 1 0 0.42231823435723009 1 0 0.44768478605684647 0.9646709673379662 0 0.42231823435723009 1 0 0.39382242252278338 0.95440420122950598 0 0.42822627495986648 0.92083108049218854 0 0.44768478605684647 0.9646709673379662 0 0.39382242252278338 0.95440420122950598 0 0.36061858902161292 1 0 0.42231823435723009 1 0 0.39382242252278338 0.95440420122950598 0 0.31771010312359771 0.58585679504088894 0 0.3872154068451229 0.6301386882447304 0 0.41980724897053312 0.55867199730355355 0 0.32540781287085369 0.49175159894608172 0 0.31771010312359771 0.58585679504088894 0 0.41980724897053312 0.55867199730355355 0 0.32540781287085369 0.49175159894608172 0 0.22453074737734591 0.51613635929252633 0 0.31771010312359771 0.58585679504088894 0 0.18442368612951149 0.62734948407416979 0 0.31771010312359771 0.58585679504088894 0 0.31346558946927339 0.67110784456164874 0 0.22727208279115291 0.72949159435386135 0 0.32984265945580837 0.74432890077789404 0 0.31346558946927339 0.67110784456164874 0 0.39746869305290999 0.7595658224757349 0 0.32984265945580837 0.74432890077789404 0 0.38513711431054509 0.69312683393047636 0 0.32984265945580837 0.74432890077789404 0 0.31346558946927339 0.67110784456164874 0 0.38513711431054509 0.69312683393047636 0 0.31771010312359771 0.58585679504088894 0 0.31346558946927339 0.67110784456164874 0 0.3872154068451229 0.6301386882447304 0 0.31346558946927339 0.67110784456164874 0 0.3872154068451229 0.6301386882447304 0 0.38513711431054509 0.69312683393047636 0 0.3872154068451229 0.6301386882447304 0 0.38513711431054509 0.69312683393047636 0 0.4390556798454946 0.66199025953586599 0 0.3872154068451229 0.6301386882447304 0 0.4390556798454946 0.66199025953586599 0 0.44702869549010399 0.61002701911053991 0 0.39746869305290999 0.7595658224757349 0 0.38513711431054509 0.69312683393047636 0 0.43412357948152142 0.72128778687215156 0 0.38513711431054509 0.69312683393047636 0 0.43412357948152142 0.72128778687215156 0 0.4390556798454946 0.66199025953586599 0 0.43412357948152142 0.72128778687215156 0 0.47636314644728822 0.72058823529411908 0 0.47220206448452873 0.74892462649306213 0 0.44651949253391748 0.77225997208621999 0 0.43412357948152142 0.72128778687215156 0 0.47220206448452873 0.74892462649306213 0 0.43412357948152142 0.72128778687215156 0 0.46330219403010409 0.69594601192744354 0 0.4390556798454946 0.66199025953586599 0 0.43412357948152142 0.72128778687215156 0 0.46330219403010409 0.69594601192744354 0 0.47636314644728822 0.72058823529411908 0 0.46330219403010409 0.69594601192744354 0 0.47636314644728822 0.72058823529411908 0 0.5 0.70588235294117663 0 0.46330219403010409 0.69594601192744354 0 0.5 0.67647058823529438 0 0.5 0.70588235294117663 0 0.47636314644728822 0.72058823529411908 0 0.5 0.73529411764705888 0 0.5 0.70588235294117663 0 0.47220206448452873 0.74892462649306213 0 0.5 0.73529411764705888 0 0.5 0.76470588235294124 0 0.47636314644728822 0.72058823529411908 0 0.47220206448452873 0.74892462649306213 0 0.5 0.73529411764705888 0 0.4390556798454946 0.66199025953586599 0 0.47501372853621993 0.66300743809067952 0 0.47271076880550111 0.63357150722538136 0 0.4390556798454946 0.66199025953586599 0 0.47271076880550111 0.63357150722538136 0 0.44702869549010399 0.61002701911053991 0 0.46330219403010409 0.69594601192744354 0 0.4390556798454946 0.66199025953586599 0 0.47501372853621993 0.66300743809067952 0 0.46330219403010409 0.69594601192744354 0 0.47501372853621993 0.66300743809067952 0 0.5 0.67647058823529438 0 0.47501372853621993 0.66300743809067952 0 0.5 0.64705882352941191 0 0.5 0.67647058823529438 0 0.47501372853621993 0.66300743809067952 0 0.47271076880550111 0.63357150722538136 0 0.5 0.64705882352941191 0 0.47271076880550111 0.63357150722538136 0 0.5 0.61764705882352966 0 0.5 0.64705882352941191 0 0.47784843225772261 0.60532339797118362 0 0.5 0.5882352941176473 0 0.5 0.61764705882352966 0 0.47271076880550111 0.63357150722538136 0 0.47784843225772261 0.60532339797118362 0 0.5 0.61764705882352966 0 0.46950269699300751 0.57713611057881953 0 0.5 0.55882352941176494 0 0.5 0.5882352941176473 0 0.47784843225772261 0.60532339797118362 0 0.46950269699300751 0.57713611057881953 0 0.5 0.5882352941176473 0 0.46950269699300751 0.57713611057881953 0 0.44702869549010399 0.61002701911053991 0 0.41980724897053312 0.55867199730355355 0 0.47784843225772261 0.60532339797118362 0 0.46950269699300751 0.57713611057881953 0 0.44702869549010399 0.61002701911053991 0 0.47271076880550111 0.63357150722538136 0 0.47784843225772261 0.60532339797118362 0 0.44702869549010399 0.61002701911053991 0 0.3872154068451229 0.6301386882447304 0 0.44702869549010399 0.61002701911053991 0 0.41980724897053312 0.55867199730355355 0 0.41576443813007791 0.48093483781626972 0 0.32540781287085369 0.49175159894608172 0 0.41980724897053312 0.55867199730355355 0 0.41576443813007791 0.48093483781626972 0 0.41980724897053312 0.55867199730355355 0 0.4638583922372429 0.51470588235294135 0 0.41980724897053312 0.55867199730355355 0 0.4638583922372429 0.51470588235294135 0 0.47063366764015668 0.5477498568705923 0 0.46950269699300751 0.57713611057881953 0 0.41980724897053312 0.55867199730355355 0 0.47063366764015668 0.5477498568705923 0 0.46950269699300751 0.57713611057881953 0 0.47063366764015668 0.5477498568705923 0 0.5 0.55882352941176494 0 0.47063366764015668 0.5477498568705923 0 0.5 0.52941176470588269 0 0.5 0.55882352941176494 0 0.4638583922372429 0.51470588235294135 0 0.47063366764015668 0.5477498568705923 0 0.5 0.52941176470588269 0 0.4638583922372429 0.51470588235294135 0 0.5 0.5 0 0.5 0.52941176470588269 0 0.5 0.52941176470588269 0 0.52629893369322589 0.51330452493555312 0 0.52820848765230954 0.54540076010342464 0 0.5 0.5 0 0.5 0.52941176470588269 0 0.52629893369322589 0.51330452493555312 0 0.5 0.5 0 0.5 0.52941176470588269 0 0.5 0.52941176470588269 0 0.5 0.55882352941176494 0 0.52820848765230954 0.54540076010342464 0 0.5 0.52941176470588269 0 0.5 0.55882352941176494 0 0.5 0.55882352941176494 0 0.52820848765230954 0.54540076010342464 0 0.52246722155046366 0.57417151085839346 0 0.52820848765230954 0.54540076010342464 0 0.56199650931215228 0.51957997397013023 0 0.55931585964581554 0.57571189932143541 0 0.52629893369322589 0.51330452493555312 0 0.56199650931215228 0.51957997397013023 0 0.54128967150166729 0.47213012589832831 0 0.52629893369322589 0.51330452493555312 0 0.52820848765230954 0.54540076010342464 0 0.56199650931215228 0.51957997397013023 0 0.56199650931215228 0.51957997397013023 0 0.61174067805461174 0.54148194547208961 0 0.60345082206666756 0.47575908627627911 0 0.56199650931215228 0.51957997397013023 0 0.61174067805461174 0.54148194547208961 0 0.55931585964581554 0.57571189932143541 0 0.61174067805461174 0.54148194547208961 0 0.61264973759093866 0.60999664295093947 0 0.55931585964581554 0.57571189932143541 0 0.61264973759093866 0.60999664295093947 0 0.55931585964581554 0.57571189932143541 0 0.55828304378107996 0.63546085023637511 0 0.55931585964581554 0.57571189932143541 0 0.52754891270107895 0.60396918438229519 0 0.55828304378107996 0.63546085023637511 0 0.52754891270107895 0.60396918438229519 0 0.52222323737415433 0.63323059203007803 0 0.55828304378107996 0.63546085023637511 0 0.52820848765230954 0.54540076010342464 0 0.55931585964581554 0.57571189932143541 0 0.52246722155046366 0.57417151085839346 0 0.55931585964581554 0.57571189932143541 0 0.52246722155046366 0.57417151085839346 0 0.52754891270107895 0.60396918438229519 0 0.52246722155046366 0.57417151085839346 0 0.5 0.5882352941176473 0 0.52754891270107895 0.60396918438229519 0 0.5 0.55882352941176494 0 0.52246722155046366 0.57417151085839346 0 0.5 0.5882352941176473 0 0.5 0.55882352941176494 0 0.5 0.5882352941176473 0 0.52754891270107895 0.60396918438229519 0 0.5 0.61764705882352966 0 0.52222323737415433 0.63323059203007803 0 0.5 0.5882352941176473 0 0.5 0.61764705882352966 0 0.5 0.5882352941176473 0 0.52754891270107895 0.60396918438229519 0 0.5 0.61764705882352966 0 0.5 0.61764705882352966 0 0.52222323737415433 0.63323059203007803 0 0.5 0.64705882352941191 0 0.5 0.61764705882352966 0 0.5 0.64705882352941191 0 0.52222323737415433 0.63323059203007803 0 0.5 0.64705882352941191 0 0.52736180768426655 0.66304505109048573 0 0.5 0.64705882352941191 0 0.5 0.67647058823529438 0 0.52736180768426655 0.66304505109048573 0 0.5 0.64705882352941191 0 0.5 0.67647058823529438 0 0.5 0.67647058823529438 0 0.52736180768426655 0.66304505109048573 0 0.52189318962165776 0.69193883095305098 0 0.52736180768426655 0.66304505109048573 0 0.52189318962165776 0.69193883095305098 0 0.55852327729743823 0.69498827241231187 0 0.52736180768426655 0.66304505109048573 0 0.55828304378107996 0.63546085023637511 0 0.55852327729743823 0.69498827241231187 0 0.52222323737415433 0.63323059203007803 0 0.52736180768426655 0.66304505109048573 0 0.55828304378107996 0.63546085023637511 0 0.5 0.73529411764705888 0 0.52547133540542634 0.72058823529411897 0 0.5211984712236245 0.75134107022269114 0 0.5 0.73529411764705888 0 0.52547133540542634 0.72058823529411897 0 0.5 0.70588235294117663 0 0.5 0.73529411764705888 0 0.5 0.70588235294117663 0 0.52547133540542634 0.72058823529411897 0 0.5 0.70588235294117663 0 0.52189318962165776 0.69193883095305098 0 0.5 0.67647058823529438 0 0.5 0.70588235294117663 0 0.52189318962165776 0.69193883095305098 0 0.5 0.67647058823529438 0 0.5 0.70588235294117663 0 0.52547133540542634 0.72058823529411897 0 0.52189318962165776 0.69193883095305098 0 0.55852327729743823 0.69498827241231187 0 0.52547133540542634 0.72058823529411897 0 0.5211984712236245 0.75134107022269114 0 0.55458114032207428 0.75544804615062711 0 0.52547133540542634 0.72058823529411897 0 0.55852327729743823 0.69498827241231187 0 0.55458114032207428 0.75544804615062711 0 0.55852327729743823 0.69498827241231187 0 0.6088970477846376 0.72715446211577472 0 0.55458114032207428 0.75544804615062711 0 0.55852327729743823 0.69498827241231187 0 0.6088970477846376 0.72715446211577472 0 0.60110770968787908 0.67045598539422102 0 0.61264973759093866 0.60999664295093947 0 0.55828304378107996 0.63546085023637511 0 0.60110770968787908 0.67045598539422102 0 0.55828304378107996 0.63546085023637511 0 0.55852327729743823 0.69498827241231187 0 0.60110770968787908 0.67045598539422102 0 0.61264973759093866 0.60999664295093947 0 0.60110770968787908 0.67045598539422102 0 0.66621429167335955 0.68470300534742679 0 0.6088970477846376 0.72715446211577472 0 0.66621429167335955 0.68470300534742679 0 0.6817340940367822 0.76923101696744944 0 0.6088970477846376 0.72715446211577472 0 0.60110770968787908 0.67045598539422102 0 0.66621429167335955 0.68470300534742679 0 0.66621429167335955 0.68470300534742679 0 0.6817340940367822 0.76923101696744944 0 0.7828103453665094 0.69876044407634474 0 0.66621429167335955 0.68470300534742679 0 0.69354174170208815 0.57892485983477626 0 0.7828103453665094 0.69876044407634474 0 0.69354174170208815 0.57892485983477626 0 0.77935529174931761 0.49004815756283893 0 0.66681557370681976 0.49435464945626773 0 0.61174067805461174 0.54148194547208961 0 0.69354174170208815 0.57892485983477626 0 0.66681557370681976 0.49435464945626773 0 0.61174067805461174 0.54148194547208961 0 0.60345082206666756 0.47575908627627911 0 0.66681557370681976 0.49435464945626773 0 0.61174067805461174 0.54148194547208961 0 0.61264973759093866 0.60999664295093947 0 0.69354174170208815 0.57892485983477626 0 0.61264973759093866 0.60999664295093947 0 0.66621429167335955 0.68470300534742679 0 0.69354174170208815 0.57892485983477626 0 0.60145933092659498 0.94808652648958736 0 0.57768176564240026 1 0 0.63938141097836054 1 0 0.60145933092659498 0.94808652648958736 0 0.55381003699196441 0.97073734537240042 0 0.55652711631508067 0.93435010280744335 0 0.60145933092659498 0.94808652648958736 0 0.57768176564240026 1 0 0.55381003699196441 0.97073734537240042 0 0.57768176564240026 1 0 0.53273812861558045 1 0 0.55381003699196441 0.97073734537240042 0 0.53273812861558045 1 0 0.55381003699196441 0.97073734537240042 0 0.52191028766292435 0.97912620202886635 0 0.53273812861558045 1 0 0.52191028766292435 0.97912620202886635 0 0.5 1 0 0.52191028766292435 0.97912620202886635 0 0.5 0.97058823529411764 0 0.5 1 0 0.5 0.97058823529411764 0 0.5 1 0 0.5 0.97058823529411764 0 0.5 0.94117647058823528 0 0.5 0.97058823529411764 0 0.5 0.94117647058823528 0 0.52554900427979434 0.95492408164812537 0 0.52191028766292435 0.97912620202886635 0 0.5 0.97058823529411764 0 0.52554900427979434 0.95492408164812537 0 0.5 0.94117647058823528 0 0.52554900427979434 0.95492408164812537 0 0.52149395742518578 0.9280464911497236 0 0.55381003699196441 0.97073734537240042 0 0.52554900427979434 0.95492408164812537 0 0.55652711631508067 0.93435010280744335 0 0.55381003699196441 0.97073734537240042 0 0.52191028766292435 0.97912620202886635 0 0.52554900427979434 0.95492408164812537 0 0.52554900427979434 0.95492408164812537 0 0.55652711631508067 0.93435010280744335 0 0.52149395742518578 0.9280464911497236 0 0.55652711631508067 0.93435010280744335 0 0.52982914238326484 0.89727189043838895 0 0.57507719038536997 0.89743529736491356 0 0.55652711631508067 0.93435010280744335 0 0.52149395742518578 0.9280464911497236 0 0.52982914238326484 0.89727189043838895 0 0.52149395742518578 0.9280464911497236 0 0.5 0.91176470588235292 0 0.52982914238326484 0.89727189043838895 0 0.5 0.94117647058823528 0 0.5 0.91176470588235292 0 0.5 0.94117647058823528 0 0.52149395742518578 0.9280464911497236 0 0.5 0.91176470588235292 0 0.5 0.91176470588235292 0 0.5 0.88235294117647056 0 0.52982914238326484 0.89727189043838895 0 0.5 0.91176470588235292 0 0.5 0.88235294117647056 0 0.5 0.88235294117647056 0 0.52982914238326484 0.89727189043838895 0 0.51991574276818808 0.86764705882352966 0 0.52982914238326484 0.89727189043838895 0 0.57507719038536997 0.89743529736491356 0 0.54799184932697576 0.8599032232094268 0 0.60145933092659498 0.94808652648958736 0 0.55652711631508067 0.93435010280744335 0 0.57507719038536997 0.89743529736491356 0 0.60145933092659498 0.94808652648958736 0 0.57507719038536997 0.89743529736491356 0 0.63427031498547037 0.88927276979110648 0 0.57507719038536997 0.89743529736491356 0 0.58994607995897996 0.84812355238296233 0 0.63427031498547037 0.88927276979110648 0 0.58994607995897996 0.84812355238296233 0 0.64153141236229239 0.83072478436463804 0 0.63427031498547037 0.88927276979110648 0 0.58994607995897996 0.84812355238296233 0 0.60049020024666178 0.78900583008989877 0 0.64153141236229239 0.83072478436463804 0 0.58994607995897996 0.84812355238296233 0 0.54799184932697576 0.8599032232094268 0 0.55206941203846505 0.81091931303809783 0 0.58994607995897996 0.84812355238296233 0 0.55206941203846505 0.81091931303809783 0 0.60049020024666178 0.78900583008989877 0 0.57507719038536997 0.89743529736491356 0 0.58994607995897996 0.84812355238296233 0 0.54799184932697576 0.8599032232094268 0 0.52982914238326484 0.89727189043838895 0 0.54799184932697576 0.8599032232094268 0 0.51991574276818808 0.86764705882352966 0 0.54799184932697576 0.8599032232094268 0 0.51991574276818808 0.86764705882352966 0 0.52395085592512047 0.83729395211968571 0 0.51991574276818808 0.86764705882352966 0 0.5 0.85294117647058831 0 0.52395085592512047 0.83729395211968571 0 0.5 0.88235294117647056 0 0.5 0.85294117647058831 0 0.5 0.88235294117647056 0 0.51991574276818808 0.86764705882352966 0 0.5 0.85294117647058831 0 0.5 0.82352941176470584 0 0.52395085592512047 0.83729395211968571 0 0.52039202967084142 0.80930587873000437 0 0.5 0.85294117647058831 0 0.5 0.82352941176470584 0 0.5 0.85294117647058831 0 0.5 0.82352941176470584 0 0.52395085592512047 0.83729395211968571 0 0.52395085592512047 0.83729395211968571 0 0.55206941203846505 0.81091931303809783 0 0.52039202967084142 0.80930587873000437 0 0.54799184932697576 0.8599032232094268 0 0.52395085592512047 0.83729395211968571 0 0.55206941203846505 0.81091931303809783 0 0.55206941203846505 0.81091931303809783 0 0.52039202967084142 0.80930587873000437 0 0.52593988039062167 0.78066906966870908 0 0.55206941203846505 0.81091931303809783 0 0.52593988039062167 0.78066906966870908 0 0.55458114032207428 0.75544804615062711 0 0.52039202967084142 0.80930587873000437 0 0.5 0.79411764705882359 0 0.52593988039062167 0.78066906966870908 0 0.5 0.82352941176470584 0 0.5 0.79411764705882359 0 0.5 0.82352941176470584 0 0.52039202967084142 0.80930587873000437 0 0.5 0.79411764705882359 0 0.5 0.73529411764705888 0 0.5 0.76470588235294124 0 0.5 0.73529411764705888 0 0.5 0.76470588235294124 0 0.5211984712236245 0.75134107022269114 0 0.5 0.79411764705882359 0 0.5 0.76470588235294124 0 0.52593988039062167 0.78066906966870908 0 0.5 0.79411764705882359 0 0.5 0.76470588235294124 0 0.5 0.76470588235294124 0 0.52593988039062167 0.78066906966870908 0 0.5211984712236245 0.75134107022269114 0 0.52593988039062167 0.78066906966870908 0 0.5211984712236245 0.75134107022269114 0 0.55458114032207428 0.75544804615062711 0 0.6088970477846376 0.72715446211577472 0 0.55458114032207428 0.75544804615062711 0 0.60049020024666178 0.78900583008989877 0 0.55206941203846505 0.81091931303809783 0 0.55458114032207428 0.75544804615062711 0 0.60049020024666178 0.78900583008989877 0 0.6817340940367822 0.76923101696744944 0 0.70916369539323409 0.86041409043207073 0 0.80987878298654392 0.8110307373443908 0 0.6088970477846376 0.72715446211577472 0 0.60049020024666178 0.78900583008989877 0 0.6817340940367822 0.76923101696744944 0 0.60049020024666178 0.78900583008989877 0 0.6817340940367822 0.76923101696744944 0 0.64153141236229239 0.83072478436463804 0 0.70916369539323409 0.86041409043207073 0 0.64153141236229239 0.83072478436463804 0 0.63427031498547037 0.88927276979110648 0 0.6817340940367822 0.76923101696744944 0 0.70916369539323409 0.86041409043207073 0 0.64153141236229239 0.83072478436463804 0 0.70916369539323409 0.86041409043207073 0 0.68173274398262862 0.93660593960145366 0 0.63427031498547037 0.88927276979110648 0 0.60145933092659498 0.94808652648958736 0 0.68173274398262862 0.93660593960145366 0 0.63427031498547037 0.88927276979110648 0 0.70916369539323409 0.86041409043207073 0 0.68173274398262862 0.93660593960145366 0 0.78222494485339233 0.91531439423588867 0 0.68173274398262862 0.93660593960145366 0 0.72408407698689681 1 0 0.78222494485339233 0.91531439423588867 0 0.60145933092659498 0.94808652648958736 0 0.68173274398262862 0.93660593960145366 0 0.63938141097836054 1 0 0.68173274398262862 0.93660593960145366 0 0.72408407698689681 1 0 0.63938141097836054 1 0 1 1 0 0.89611933618281592 0.89173516444576184 0 1 0.74999999999934008 0 0.72408407698689681 1 0 0.84036581271988753 1 0 0.78222494485339233 0.91531439423588867 0 0.84036581271988753 1 0 0.78222494485339233 0.91531439423588867 0 0.89611933618281592 0.89173516444576184 0 0.6817340940367822 0.76923101696744944 0 0.80987878298654392 0.8110307373443908 0 0.7828103453665094 0.69876044407634474 0 0.80987878298654392 0.8110307373443908 0 0.7828103453665094 0.69876044407634474 0 1 0.74999999999934008 0 0.78222494485339233 0.91531439423588867 0 0.80987878298654392 0.8110307373443908 0 0.89611933618281592 0.89173516444576184 0 0.70916369539323409 0.86041409043207073 0 0.78222494485339233 0.91531439423588867 0 0.80987878298654392 0.8110307373443908 0 0.80987878298654392 0.8110307373443908 0 0.89611933618281592 0.89173516444576184 0 1 0.74999999999934008 0 0.84036581271988753 1 0 1 1 0 0.89611933618281592 0.89173516444576184 0 0.84549316180028322 0.59867304496468476 0 1 0.74999999999934008 0 1 0.49999999999869182 0 0.69354174170208815 0.57892485983477626 0 0.84549316180028322 0.59867304496468476 0 0.77935529174931761 0.49004815756283893 0 0.84549316180028322 0.59867304496468476 0 1 0.49999999999869182 0 0.77935529174931761 0.49004815756283893 0 0.69354174170208815 0.57892485983477626 0 0.84549316180028322 0.59867304496468476 0 0.7828103453665094 0.69876044407634474 0 0.84549316180028322 0.59867304496468476 0 0.7828103453665094 0.69876044407634474 0 1 0.74999999999934008 0 1 0.49999999999869182 0 0.77935529174931761 0.49004815756283893 0 0.80451351819826811 0.35479918680564199 0 0.80451351819826811 0.35479918680564199 0 1 0.24999999999941089 0 0.79923457477009219 0.1751534052300894 0 1 0.49999999999869182 0 0.80451351819826811 0.35479918680564199 0 1 0.24999999999941089 0 1 0 0 0.79923457477009219 0.1751534052300894 0 0.74999999999934008 0 0 1 0.24999999999941089 0 1 0 0 0.79923457477009219 0.1751534052300894 0 0.49999999999869182 0 0 0.62537763927714929 0.14286513648320209 0 0.74999999999934008 0 0 0.79923457477009219 0.1751534052300894 0 0.62537763927714929 0.14286513648320209 0 0.6197279975813802 0.30020319976287241 0 0.79923457477009219 0.1751534052300894 0 0.62537763927714929 0.14286513648320209 0 0.74999999999934008 0 0 0.49924741621175961 0.21507969613896921 0 0.49999999999869182 0 0 0.62537763927714929 0.14286513648320209 0 0.49924741621175961 0.21507969613896921 0 0.62537763927714929 0.14286513648320209 0 0.6197279975813802 0.30020319976287241 0 0.49924741621175961 0.21507969613896921 0 0.49435464945626773 0.33318442629318029 0 0.6197279975813802 0.30020319976287241 0 0.49435464945626773 0.33318442629318029 0 0.6197279975813802 0.30020319976287241 0 0.54876010062294855 0.39662628167175101 0 0.6197279975813802 0.30020319976287241 0 0.54876010062294855 0.39662628167175101 0 0.66576775508844777 0.41353720431697111 0 0.49954900152271581 0.45107191084564019 0 0.45418244162583959 0.41624787166862259 0 0.54876010062294855 0.39662628167175101 0 0.49954900152271581 0.45107191084564019 0 0.54876010062294855 0.39662628167175101 0 0.54128967150166729 0.47213012589832831 0 0.49954900152271581 0.45107191084564019 0 0.5 0.5 0 0.54128967150166729 0.47213012589832831 0 0.5 0.5 0 0.52629893369322589 0.51330452493555312 0 0.54128967150166729 0.47213012589832831 0 0.54876010062294855 0.39662628167175101 0 0.54128967150166729 0.47213012589832831 0 0.60345082206666756 0.47575908627627911 0 0.56199650931215228 0.51957997397013023 0 0.54128967150166729 0.47213012589832831 0 0.60345082206666756 0.47575908627627911 0 0.54876010062294855 0.39662628167175101 0 0.60345082206666756 0.47575908627627911 0 0.66576775508844777 0.41353720431697111 0 0.77935529174931761 0.49004815756283893 0 0.80451351819826811 0.35479918680564199 0 0.66576775508844777 0.41353720431697111 0 0.60345082206666756 0.47575908627627911 0 0.66576775508844777 0.41353720431697111 0 0.66681557370681976 0.49435464945626773 0 0.77935529174931761 0.49004815756283893 0 0.66576775508844777 0.41353720431697111 0 0.66681557370681976 0.49435464945626773 0 0.80451351819826811 0.35479918680564199 0 0.79923457477009219 0.1751534052300894 0 0.6197279975813802 0.30020319976287241 0 0.80451351819826811 0.35479918680564199 0 0.6197279975813802 0.30020319976287241 0 0.66576775508844777 0.41353720431697111 0 
</DataArray>
</Points>
<Cells>
<DataArray type="UInt32" Name="connectivity" format="ascii">
0 1 2 3 4 5 6 7 8 9 10 11 12 13 14 15 16 17 18 19 20 21 22 23 24 25 26 27 28 29 30 31 32 33 34 35 36 37 38 39 40 41 42 43 44 45 46 47 48 49 50 51 52 53 54 55 56 57 58 59 60 61 62 63 64 65 66 67 68 69 70 71 72 73 74 75 76 77 78 79 80 81 82 83 84 85 86 87 88 89 90 91 92 93 94 95 96 97 98 99 100 101 102 103 104 105 106 107 108 109 110 111 112 113 114 115 116 117 118 119 120 121 122 123 124 125 126 127 128 129 130 131 132 133 134 135 136 137 138 139 140 141 142 143 144 145 146 147 148 149 150 151 152 153 154 155 156 157 158 159 160 161 162 163 164 165 166 167 168 169 170 171 172 173 174 175 176 177 178 179 180 181 182 183 184 185 186 187 188 189 190 191 192 193 194 195 196 197 198 199 200 201 202 203 204 205 206 207 208 209 210 211 212 213 214 215 216 217 218 219 220 221 222 223 224 225 226 227 228 229 230 231 232 233 234 235 236 237 238 239 240 241 242 243 244 245 246 247 248 249 250 251 252 253 254 255 256 257 258 259 260 261 262 263 264 265 266 267 268 269 270 271 272 273 274 275 276 277 278 279 280 281 282 283 284 285 286 287 288 289 290 291 292 293 294 295 296 297 298 299 300 301 302 303 304 305 306 307 308 309 310 311 312 313 314 315 316 317 318 319 320 321 322 323 324 325 326 327 328 329 330 331 332 333 334 335 336 337 338 339 340 341 342 343 344 345 346 347 348 349 350 351 352 353 354 355 356 357 358 359 360 361 362 363 364 365 366 367 368 369 370 371 372 373 374 375 376 377 378 379 380 381 382 383 384 385 386 387 388 389 390 391 392 393 394 395 396 397 398 399 400 401 402 403 404 405 406 407 408 409 410 411 412 413 414 415 416 417 418 419 420 421 422 423 424 425 426 427 428 429 430 431 432 433 434 435 436 437 438 439 440 441 442 443 444 445 446 447 448 449 450 451 452 453 454 455 456 457 458 459 460 461 462 463 464 465 466 467 468 469 470 471 472 473 474 475 476 477 478 479 480 481 482 483 484 485 486 487 488 489 490 491 492 493 494 495 496 497 498 499 500 501 502 503 504 505 506 507 508 509 510 511 512 513 514 515 516 517 518 519 520 521 522 523 524 525 526 527 528 529 530 531 532 533 534 535 536 537 538 539 540 541 542 543 544 545 546 547 548 549 550 551 552 553 554 555 556 557 558 559 560 561 562 563 564 565 566 567 568 569 570 571 572 573 574 575 576 577 578 579 580 581 582 583 584 585 586 587 588 589 590 591 592 593 594 595 596 597 598 599 600 601 602 603 604 605 606 607 608 609 610 611 612 613 614 615 616 617 618 619 620 621 622 623 624 625 626 627 628 629 630 631 632 633 634 635 636 637 638 639 640 641 642 643 644 645 646 647 648 649 650 651 652 653 654 655 656 657 658 659 660 661 662 663 664 665 666 667 668 669 670 671 672 673 674 675 676 677 678 679 680 681 682 683 684 685 686 687 688 689 690 691 692 693 694 695 696 697 698 699 700 701 702 703 704 705 706 707 708 709 710 711 712 713 714 715 716 717 718 719 720 721 722 723 724 725 726 727 728 729 730 731 732 733 734 735 736 737 738 739 740 741 742 743 744 745 746 747 748 749 750 751 752 753 754 755 756 757 758 759 760 761 762 763 764 765 766 767 768 769 770 771 772 773 774 775 776 777 778 779 780 781 782 783 784 785 786 787 788 789 790 791 792 793 794 795 796 797 798 799 800 801 802 803 804 805 806 807 808 809 810 811 812 813 814 815 816 817 818 819 820 821 822 823 824 825 826 827 828 829 830 831 832 833 834 835 836 837 838 839 840 841 842 843 844 845 846 847 848 849 850 851 852 853 854 855 856 857 858 859 860 861 862 863 864 865 866 867 868 869 870 871 872 873 874 875 876 877 878 879 
</DataArray>
<DataArray type="UInt32" Name="offsets" format="ascii">
3 6 9 12 15 18 21 24 27 30 33 36 39 42 45 48 51 54 57 60 63 66 69 72 75 78 81 84 87 90 93 96 99 102 105 108 111 114 117 120 123 126 129 132 135 138 141 144 147 150 153 156 159 162 165 168 171 174 177 180 183 186 189 192 195 198 201 204 207 210 213 216 219 222 225 228 231 234 237 240 243 246 249 252 255 258 261 264 267 270 273 276 279 282 285 288 291 294 297 300 303 306 309 312 315 318 321 324 327 330 333 336 339 342 345 348 351 354 357 360 363 366 369 372 375 378 381 384 387 390 393 396 399 402 405 408 411 414 417 420 423 425 428 430 433 436 439 442 445 448 451 454 457 460 463 466 469 472 474 477 479 482 485 487 490 493 495 498 501 504 507 510 513 515 518 521 523 526 529 532 535 538 541 544 547 550 553 556 559 562 565 568 571 574 577 580 583 586 589 592 595 597 599 602 605 608 611 614 617 620 623 626 628 631 634 636 639 642 645 648 651 654 657 660 663 666 669 672 675 677 680 683 685 688 691 694 697 700 703 705 708 710 713 716 718 721 724 727 730 733 736 739 742 745 748 751 754 757 760 763 766 769 772 775 778 781 784 787 790 793 796 799 802 805 808 811 814 817 820 823 826 829 832 835 838 841 844 847 850 853 856 859 862 865 868 871 874 877 880 
</DataArray>
<DataArray type="UInt32" Name="types" format="ascii">
5 5 5 5 5 5 5 5 5 5 5 5 5 5 5 5 5 5 5 5 5 5 5 5 5 5 5 5 5 5 5 5 5 5 5 5 5 5 5 5 5 5 5 5 5 5 5 5 5 5 5 5 5 5 5 5 5 5 5 5 5 5 5 5 5 5 5 5 5 5 5 5 5 5 5 5 5 5 5 5 5 5 5 5 5 5 5 5 5 5 5 5 5 5 5 5 5 5 5 5 5 5 5 5 5 5 5 5 5 5 5 5 5 5 5 5 5 5 5 5 5 5 5 5 5 5 5 5 5 5 5 5 5 5 5 5 5 5 5 5 5 3 5 3 5 5 5 5 5 5 5 5 5 5 5 5 5 5 3 5 3 5 5 3 5 5 3 5 5 5 5 5 5 3 5 5 3 5 5 5 5 5 5 5 5 5 5 5 5 5 5 5 5 5 5 5 5 5 5 5 5 3 3 5 5 5 5 5 5 5 5 5 3 5 5 3 5 5 5 5 5 5 5 5 5 5 5 5 5 3 5 5 3 5 5 5 5 5 5 3 5 3 5 5 3 5 5 5 5 5 5 5 5 5 5 5 5 5 5 5 5 5 5 5 5 5 5 5 5 5 5 5 5 5 5 5 5 5 5 5 5 5 5 5 5 5 5 5 5 5 5 5 5 5 5 5 5 5 5 
</DataArray>
</Cells>
<PointData Scalars="" Vectors="displacement," Tensors="">
<DataArray type="Float64" Name="displacement" NumberOfComponents="3" format="ascii">
-0.00010728839754821442 -1.3871078786627746e-05 0 -0.015665149804313553 -0.0170371959319979 0 2.6089326040676345e-06 5.4758840170750424e-06 0 -0.00010728839754821442 -1.3871078786627746e-05 0 -0.015665149804313553 -0.0170371959319979 0 -0.077640458157920214 -0.048520543163474379 0 -0.077640458157920214 -0.048520543163474379 0 -0.043235634230507768 -0.0647506961451213 0 -0.16002752689482924 -0.15281862563644277 0 -0.015665149804313553 -0.0170371959319979 0 -0.077640458157920214 -0.048520543163474379 0 -0.043235634230507768 -0.0647506961451213 0 -0.043235634230507768 -0.0647506961451213 0 -0.052058689579168593 -0.13960645769223823 0 -0.16002752689482924 -0.15281862563644277 0 -0.043235634230507768 -0.0647506961451213 0 -0.052058689579168593 -0.13960645769223823 0 0.00095600029371624288 -0.079662789662398009 0 0.029334011748893093 -0.065016968867232836 0 0.050823581749697054 -0.075667115928231971 0 0.038990236323203094 -0.092323756771835686 0 0.029334011748893093 -0.065016968867232836 0 0.038990236323203094 -0.092323756771835686 0 0.00095600029371624288 -0.079662789662398009 0 0.050823581749697054 -0.075667115928231971 0 0.062545615541580585 -0.091763107201680821 0 0.038990236323203094 -0.092323756771835686 0 0.050823581749697054 -0.075667115928231971 0 0.062545615541580585 -0.091763107201680821 0 0.062066047479704588 -0.089706927692262267 0 0.062545615541580585 -0.091763107201680821 0 0.058380928160087782 -0.11443284656004893 0 0.082500684348484857 -0.10089948101357372 0 0.062545615541580585 -0.091763107201680821 0 0.062066047479704588 -0.089706927692262267 0 0.082500684348484857 -0.10089948101357372 0 0.062545615541580585 -0.091763107201680821 0 0.058380928160087782 -0.11443284656004893 0 0.038990236323203094 -0.092323756771835686 0 0.038990236323203094 -0.092323756771835686 0 0.0030903455469986009 -0.12722111036350095 0 0.034951981767716557 -0.15972876744091694 0 0.038990236323203094 -0.092323756771835686 0 0.0030903455469986009 -0.12722111036350095 0 0.00095600029371624288 -0.079662789662398009 0 -0.052058689579168593 -0.13960645769223823 0 0.0030903455469986009 -0.12722111036350095 0 0.00095600029371624288 -0.079662789662398009 0 -0.043235634230507768 -0.0647506961451213 0 0.00095600029371624288 -0.079662789662398009 0 0.0079769060735621431 -0.040559354427690056 0 0.029334011748893093 -0.065016968867232836 0 0.00095600029371624288 -0.079662789662398009 0 0.0079769060735621431 -0.040559354427690056 0 -0.015665149804313553 -0.0170371959319979 0 -0.043235634230507768 -0.0647506961451213 0 0.0079769060735621431 -0.040559354427690056 0 0.0079769060735621431 -0.040559354427690056 0 0.034514497597044523 -0.052749556377945275 0 0.007704229936392715 -0.017897812449027065 0 0.029334011748893093 -0.065016968867232836 0 0.0079769060735621431 -0.040559354427690056 0 0.034514497597044523 -0.052749556377945275 0 0.029334011748893093 -0.065016968867232836 0 0.050823581749697054 -0.075667115928231971 0 0.034514497597044523 -0.052749556377945275 0 0.007704229936392715 -0.017897812449027065 0 2.6089326040676345e-06 5.4758840170750424e-06 0 1.810504010753643e-05 -9.3256998354639884e-06 0 0.007704229936392715 -0.017897812449027065 0 1.810504010753643e-05 -9.3256998354639884e-06 0 0.021542522460576769 -0.032258358635179972 0 0.034514497597044523 -0.052749556377945275 0 0.007704229936392715 -0.017897812449027065 0 0.021542522460576769 -0.032258358635179972 0 -0.015665149804313553 -0.0170371959319979 0 0.0079769060735621431 -0.040559354427690056 0 0.007704229936392715 -0.017897812449027065 0 -0.015665149804313553 -0.0170371959319979 0 0.007704229936392715 -0.017897812449027065 0 2.6089326040676345e-06 5.4758840170750424e-06 0 1.810504010753643e-05 -9.3256998354639884e-06 0 0.015147619331974081 -0.029405875858794853 0 1.2522648820276172e-05 -1.4108060097004555e-05 0 0.015147619331974081 -0.029405875858794853 0 0.015744677218367354 -0.0369979428784755 0 1.2522648820276172e-05 -1.4108060097004555e-05 0 0.015147619331974081 -0.029405875858794853 0 0.015744677218367354 -0.0369979428784755 0 0.023583977348870213 -0.051790953044589728 0 0.015147619331974081 -0.029405875858794853 0 0.021542522460576769 -0.032258358635179972 0 0.030867473584458717 -0.052854242715591637 0 1.810504010753643e-05 -9.3256998354639884e-06 0 0.015147619331974081 -0.029405875858794853 0 0.021542522460576769 -0.032258358635179972 0 4.0815154484456011e-05 -1.6879836049252451e-05 0 0.0073662437099733039 -0.015045148095644233 0 1.2522648820276172e-05 -1.4108060097004555e-05 0 4.0815154484456011e-05 -1.6879836049252451e-05 0 0.0073662437099733039 -0.015045148095644233 0 0.020536009946611127 -0.027811315652766247 0 0.0073662437099733039 -0.015045148095644233 0 1.2522648820276172e-05 -1.4108060097004555e-05 0 0.010631060341179376 -0.026577721642546518 0 0.010631060341179376 -0.026577721642546518 0 0.018036860284381985 -0.039052368026778264 0 0.016194222099200704 -0.043388121168132024 0 0.015744677218367354 -0.0369979428784755 0 1.2522648820276172e-05 -1.4108060097004555e-05 0 0.010631060341179376 -0.026577721642546518 0 0.015744677218367354 -0.0369979428784755 0 0.010631060341179376 -0.026577721642546518 0 0.016194222099200704 -0.043388121168132024 0 0.0073662437099733039 -0.015045148095644233 0 0.010631060341179376 -0.026577721642546518 0 0.018036860284381985 -0.039052368026778264 0 0.0073662437099733039 -0.015045148095644233 0 0.018036860284381985 -0.039052368026778264 0 0.020536009946611127 -0.027811315652766247 0 0.018036860284381985 -0.039052368026778264 0 0.020536009946611127 -0.027811315652766247 0 0.025677660358711451 -0.044361939573745547 0 0.026237925858604894 -0.052315905733925368 0 0.02176176683002223 -0.049456553795657006 0 0.025677660358711451 -0.044361939573745547 0 0.026237925858604894 -0.052315905733925368 0 0.02176176683002223 -0.049456553795657006 0 0.023140544929730784 -0.054802591679570814 0 0.018036860284381985 -0.039052368026778264 0 0.02176176683002223 -0.049456553795657006 0 0.025677660358711451 -0.044361939573745547 0 0.018036860284381985 -0.039052368026778264 0 0.02176176683002223 -0.049456553795657006 0 0.018929361007445883 -0.048305750460270316 0 0.02176176683002223 -0.049456553795657006 0 0.020251704942483892 -0.053766446820563057 0 0.023140544929730784 -0.054802591679570814 0 0.02176176683002223 -0.049456553795657006 0 0.018929361007445883 -0.048305750460270316 0 0.020251704942483892 -0.053766446820563057 0 0.018036860284381985 -0.039052368026778264 0 0.018929361007445883 -0.048305750460270316 0 0.016194222099200704 -0.043388121168132024 0 0.018929361007445883 -0.048305750460270316 0 0.018501695577323191 -0.053993755905177014 0 0.020251704942483892 -0.053766446820563057 0 0.018929361007445883 -0.048305750460270316 0 0.018501695577323191 -0.053993755905177014 0 0.016194222099200704 -0.043388121168132024 0 0.015744677218367354 -0.0369979428784755 0 0.016194222099200704 -0.043388121168132024 0 0.019742525987702122 -0.052190568750403288 0 0.018501695577323191 -0.053993755905177014 0 0.016194222099200704 -0.043388121168132024 0 0.019742525987702122 -0.052190568750403288 0 0.018501695577323191 -0.053993755905177014 0 0.020062601963863703 -0.058418859659970054 0 0.019742525987702122 -0.052190568750403288 0 0.018501695577323191 -0.053993755905177014 0 0.020062601963863703 -0.058418859659970054 0 0.018765024182484848 -0.058265932518696585 0 0.020062601963863703 -0.058418859659970054 0 0.018765024182484848 -0.058265932518696585 0 0.01948381582628381 -0.05989820211005837 0 0.020062601963863703 -0.058418859659970054 0 0.01948381582628381 -0.05989820211005837 0 0.022148722648984806 -0.061820943815325949 0 0.01948381582628381 -0.05989820211005837 0 0.019248500980125146 -0.059936881639364753 0 0.020345430615577836 -0.060636549580390921 0 0.019248500980125146 -0.059936881639364753 0 0.020345430615577836 -0.060636549580390921 0 0.019573073764620089 -0.059649453922937648 0 0.019248500980125146 -0.059936881639364753 0 0.01882043870948865 -0.059585580376257115 0 0.019573073764620089 -0.059649453922937648 0 0.018731586544271584 -0.059460022590699907 0 0.018770012674036919 -0.059694229720300418 0 0.01882043870948865 -0.059585580376257115 0 0.019248500980125146 -0.059936881639364753 0 0.018731586544271584 -0.059460022590699907 0 0.01882043870948865 -0.059585580376257115 0 0.01948381582628381 -0.05989820211005837 0 0.019248500980125146 -0.059936881639364753 0 0.018731586544271584 -0.059460022590699907 0 0.018765024182484848 -0.058265932518696585 0 0.01948381582628381 -0.05989820211005837 0 0.018731586544271584 -0.059460022590699907 0 0.018765024182484848 -0.058265932518696585 0 0.018731586544271584 -0.059460022590699907 0 0.019007932828888085 -0.058903027300919675 0 0.018765024182484848 -0.058265932518696585 0 0.019007932828888085 -0.058903027300919675 0 0.019555374656446262 -0.057334723627029863 0 0.019007932828888085 -0.058903027300919675 0 0.019303457535873127 -0.059790512789113306 0 0.018770012674036919 -0.059694229720300418 0 0.018731586544271584 -0.059460022590699907 0 0.019007932828888085 -0.058903027300919675 0 0.018770012674036919 -0.059694229720300418 0 0.019007932828888085 -0.058903027300919675 0 0.019623844525893174 -0.059007831195328743 0 0.019303457535873127 -0.059790512789113306 0 0.019623844525893174 -0.059007831195328743 0 0.020128843837333776 -0.060015831062678743 0 0.019303457535873127 -0.059790512789113306 0 0.019007932828888085 -0.058903027300919675 0 0.019623844525893174 -0.059007831195328743 0 0.019555374656446262 -0.057334723627029863 0 0.018501695577323191 -0.053993755905177014 0 0.019555374656446262 -0.057334723627029863 0 0.020251704942483892 -0.053766446820563057 0 0.018501695577323191 -0.053993755905177014 0 0.018765024182484848 -0.058265932518696585 0 0.019555374656446262 -0.057334723627029863 0 0.020251704942483892 -0.053766446820563057 0 0.021540785585538891 -0.056947767046300245 0 0.023140544929730784 -0.054802591679570814 0 0.019555374656446262 -0.057334723627029863 0 0.020251704942483892 -0.053766446820563057 0 0.021540785585538891 -0.056947767046300245 0 0.019623844525893174 -0.059007831195328743 0 0.019555374656446262 -0.057334723627029863 0 0.020559803640255291 -0.058570385195323239 0 0.019555374656446262 -0.057334723627029863 0 0.021540785585538891 -0.056947767046300245 0 0.020559803640255291 -0.058570385195323239 0 0.019623844525893174 -0.059007831195328743 0 0.020559803640255291 -0.058570385195323239 0 0.020128843837333776 -0.060015831062678743 0 0.020559803640255291 -0.058570385195323239 0 0.021294501426867313 -0.060183675995007596 0 0.020128843837333776 -0.060015831062678743 0 0.020559803640255291 -0.058570385195323239 0 0.021982943491137018 -0.058948101707675664 0 0.021294501426867313 -0.060183675995007596 0 0.021982943491137018 -0.058948101707675664 0 0.022647161784937118 -0.06035913145519959 0 0.021294501426867313 -0.060183675995007596 0 0.021540785585538891 -0.056947767046300245 0 0.020559803640255291 -0.058570385195323239 0 0.021982943491137018 -0.058948101707675664 0 0.021982943491137018 -0.058948101707675664 0 0.023805346701498298 -0.057913512776340881 0 0.023384309688925201 -0.059273367427391435 0 0.021540785585538891 -0.056947767046300245 0 0.021982943491137018 -0.058948101707675664 0 0.023805346701498298 -0.057913512776340881 0 0.023805346701498298 -0.057913512776340881 0 0.023384309688925201 -0.059273367427391435 0 0.024540458417490543 -0.05940785066019303 0 0.021982943491137018 -0.058948101707675664 0 0.023384309688925201 -0.059273367427391435 0 0.022647161784937118 -0.06035913145519959 0 0.023384309688925201 -0.059273367427391435 0 0.024540458417490543 -0.05940785066019303 0 0.024146134875904942 -0.060473108371899571 0 0.023384309688925201 -0.059273367427391435 0 0.024146134875904942 -0.060473108371899571 0 0.022647161784937118 -0.06035913145519959 0 0.024540458417490543 -0.05940785066019303 0 0.025711393276755628 -0.058870290446084647 0 0.025671051354463698 -0.06050594166576994 0 0.024540458417490543 -0.05940785066019303 0 0.024146134875904942 -0.060473108371899571 0 0.025671051354463698 -0.06050594166576994 0 0.023805346701498298 -0.057913512776340881 0 0.024540458417490543 -0.05940785066019303 0 0.025711393276755628 -0.058870290446084647 0 0.023805346701498298 -0.057913512776340881 0 0.025711393276755628 -0.058870290446084647 0 0.025913869731708949 -0.056484837488655931 0 0.023805346701498298 -0.057913512776340881 0 0.025913869731708949 -0.056484837488655931 0 0.023140544929730784 -0.054802591679570814 0 0.021540785585538891 -0.056947767046300245 0 0.023805346701498298 -0.057913512776340881 0 0.023140544929730784 -0.054802591679570814 0 0.026237925858604894 -0.052315905733925368 0 0.025913869731708949 -0.056484837488655931 0 0.023140544929730784 -0.054802591679570814 0 0.030867473584458717 -0.052854242715591637 0 0.031586711685327486 -0.06507238368489579 0 0.045885809311469732 -0.075707893957897468 0 0.034514497597044523 -0.052749556377945275 0 0.030867473584458717 -0.052854242715591637 0 0.045885809311469732 -0.075707893957897468 0 0.034514497597044523 -0.052749556377945275 0 0.021542522460576769 -0.032258358635179972 0 0.030867473584458717 -0.052854242715591637 0 0.015147619331974081 -0.029405875858794853 0 0.030867473584458717 -0.052854242715591637 0 0.023583977348870213 -0.051790953044589728 0 0.015744677218367354 -0.0369979428784755 0 0.019742525987702122 -0.052190568750403288 0 0.023583977348870213 -0.051790953044589728 0 0.020062601963863703 -0.058418859659970054 0 0.019742525987702122 -0.052190568750403288 0 0.024200231409707264 -0.060710486207651994 0 0.019742525987702122 -0.052190568750403288 0 0.023583977348870213 -0.051790953044589728 0 0.024200231409707264 -0.060710486207651994 0 0.030867473584458717 -0.052854242715591637 0 0.023583977348870213 -0.051790953044589728 0 0.031586711685327486 -0.06507238368489579 0 0.023583977348870213 -0.051790953044589728 0 0.031586711685327486 -0.06507238368489579 0 0.024200231409707264 -0.060710486207651994 0 0.031586711685327486 -0.06507238368489579 0 0.024200231409707264 -0.060710486207651994 0 0.027686504093775131 -0.065886118978240524 0 0.031586711685327486 -0.06507238368489579 0 0.027686504093775131 -0.065886118978240524 0 0.035643683460000429 -0.071265848543460381 0 0.020062601963863703 -0.058418859659970054 0 0.024200231409707264 -0.060710486207651994 0 0.022148722648984806 -0.061820943815325949 0 0.024200231409707264 -0.060710486207651994 0 0.022148722648984806 -0.061820943815325949 0 0.027686504093775131 -0.065886118978240524 0 0.022148722648984806 -0.061820943815325949 0 0.021843211207838411 -0.061589542363593056 0 0.020345430615577836 -0.060636549580390921 0 0.01948381582628381 -0.05989820211005837 0 0.022148722648984806 -0.061820943815325949 0 0.020345430615577836 -0.060636549580390921 0 0.022148722648984806 -0.061820943815325949 0 0.023958954915125674 -0.063178068400939674 0 0.027686504093775131 -0.065886118978240524 0 0.022148722648984806 -0.061820943815325949 0 0.023958954915125674 -0.063178068400939674 0 0.021843211207838411 -0.061589542363593056 0 0.023958954915125674 -0.063178068400939674 0 0.021843211207838411 -0.061589542363593056 0 0.022697343858217912 -0.060896367962528862 0 0.023958954915125674 -0.063178068400939674 0 0.025019882282602539 -0.062239734210158694 0 0.022697343858217912 -0.060896367962528862 0 0.021843211207838411 -0.061589542363593056 0 0.020740210228894645 -0.060120232502394969 0 0.022697343858217912 -0.060896367962528862 0 0.020345430615577836 -0.060636549580390921 0 0.020740210228894645 -0.060120232502394969 0 0.019573073764620089 -0.059649453922937648 0 0.021843211207838411 -0.061589542363593056 0 0.020345430615577836 -0.060636549580390921 0 0.020740210228894645 -0.060120232502394969 0 0.027686504093775131 -0.065886118978240524 0 0.027038946602804668 -0.06501869498134201 0 0.031147028648162413 -0.067893059930218588 0 0.027686504093775131 -0.065886118978240524 0 0.031147028648162413 -0.067893059930218588 0 0.035643683460000429 -0.071265848543460381 0 0.023958954915125674 -0.063178068400939674 0 0.027686504093775131 -0.065886118978240524 0 0.027038946602804668 -0.06501869498134201 0 0.023958954915125674 -0.063178068400939674 0 0.027038946602804668 -0.06501869498134201 0 0.025019882282602539 -0.062239734210158694 0 0.027038946602804668 -0.06501869498134201 0 0.028462476084522039 -0.064012247857193394 0 0.025019882282602539 -0.062239734210158694 0 0.027038946602804668 -0.06501869498134201 0 0.031147028648162413 -0.067893059930218588 0 0.028462476084522039 -0.064012247857193394 0 0.031147028648162413 -0.067893059930218588 0 0.032483583335370644 -0.066816494075067984 0 0.028462476084522039 -0.064012247857193394 0 0.035550335054833987 -0.071177593846667081 0 0.038211125881212359 -0.070701925666300555 0 0.032483583335370644 -0.066816494075067984 0 0.031147028648162413 -0.067893059930218588 0 0.035550335054833987 -0.071177593846667081 0 0.032483583335370644 -0.066816494075067984 0 0.042396049509163584 -0.076805522081598299 0 0.045561262352511969 -0.076651406588613497 0 0.038211125881212359 -0.070701925666300555 0 0.035550335054833987 -0.071177593846667081 0 0.042396049509163584 -0.076805522081598299 0 0.038211125881212359 -0.070701925666300555 0 0.042396049509163584 -0.076805522081598299 0 0.035643683460000429 -0.071265848543460381 0 0.045885809311469732 -0.075707893957897468 0 0.035550335054833987 -0.071177593846667081 0 0.042396049509163584 -0.076805522081598299 0 0.035643683460000429 -0.071265848543460381 0 0.031147028648162413 -0.067893059930218588 0 0.035550335054833987 -0.071177593846667081 0 0.035643683460000429 -0.071265848543460381 0 0.031586711685327486 -0.06507238368489579 0 0.035643683460000429 -0.071265848543460381 0 0.045885809311469732 -0.075707893957897468 0 0.050823581749697054 -0.075667115928231971 0 0.034514497597044523 -0.052749556377945275 0 0.045885809311469732 -0.075707893957897468 0 0.050823581749697054 -0.075667115928231971 0 0.045885809311469732 -0.075707893957897468 0 0.062066047479704588 -0.089706927692262267 0 0.045885809311469732 -0.075707893957897468 0 0.062066047479704588 -0.089706927692262267 0 0.050561595642988018 -0.082456574042521935 0 0.042396049509163584 -0.076805522081598299 0 0.045885809311469732 -0.075707893957897468 0 0.050561595642988018 -0.082456574042521935 0 0.042396049509163584 -0.076805522081598299 0 0.050561595642988018 -0.082456574042521935 0 0.045561262352511969 -0.076651406588613497 0 0.050561595642988018 -0.082456574042521935 0 0.056485226275839469 -0.086272359889921962 0 0.045561262352511969 -0.076651406588613497 0 0.062066047479704588 -0.089706927692262267 0 0.050561595642988018 -0.082456574042521935 0 0.056485226275839469 -0.086272359889921962 0 0.062066047479704588 -0.089706927692262267 0 0.082500684348484857 -0.10089948101357372 0 0.056485226275839469 -0.086272359889921962 0 0.13835459663564018 -0.10130371819603687 0 0.11533325733322852 -0.13750230916619391 0 0.16038869592113608 -0.13810436667300369 0 0.082500684348484857 -0.10089948101357372 0 0.13835459663564018 -0.10130371819603687 0 0.11533325733322852 -0.13750230916619391 0 0.082963290810189341 -0.091532030184803187 0 0.096818358653932235 -0.088690141672783315 0 0.13835459663564018 -0.10130371819603687 0 0.17702978454892596 -0.10256020779103628 0 0.16038869592113608 -0.13810436667300369 0 0.096818358653932235 -0.088690141672783315 0 0.11108437640394124 -0.086044282942688205 0 0.17702978454892596 -0.10256020779103628 0 0.16038869592113608 -0.13810436667300369 0 0.195528958851618 -0.12997667269654067 0 0.16038869592113608 -0.13810436667300369 0 0.13151718672858312 -0.17418053158125874 0 0.19755069825361393 -0.17061304961263704 0 0.11533325733322852 -0.13750230916619391 0 0.13151718672858312 -0.17418053158125874 0 0.079181685657642414 -0.15103398328847492 0 0.11533325733322852 -0.13750230916619391 0 0.16038869592113608 -0.13810436667300369 0 0.13151718672858312 -0.17418053158125874 0 0.13151718672858312 -0.17418053158125874 0 0.16249419987907573 -0.22387056547570738 0 0.096450311840319505 -0.21184512239636769 0 0.13151718672858312 -0.17418053158125874 0 0.16249419987907573 -0.22387056547570738 0 0.19755069825361393 -0.17061304961263704 0 0.16249419987907573 -0.22387056547570738 0 0.23624112738035821 -0.22450789032131022 0 0.19755069825361393 -0.17061304961263704 0 0.23624112738035821 -0.22450789032131022 0 0.19755069825361393 -0.17061304961263704 0 0.2632461136894102 -0.16768762543191659 0 0.19755069825361393 -0.17061304961263704 0 0.22898487329996589 -0.13509321006363112 0 0.2632461136894102 -0.16768762543191659 0 0.22898487329996589 -0.13509321006363112 0 0.26085443647844969 -0.12895901758700465 0 0.2632461136894102 -0.16768762543191659 0 0.16038869592113608 -0.13810436667300369 0 0.19755069825361393 -0.17061304961263704 0 0.195528958851618 -0.12997667269654067 0 0.19755069825361393 -0.17061304961263704 0 0.195528958851618 -0.12997667269654067 0 0.22898487329996589 -0.13509321006363112 0 0.195528958851618 -0.12997667269654067 0 0.2115405740082357 -0.10399874917046985 0 0.22898487329996589 -0.13509321006363112 0 0.17702978454892596 -0.10256020779103628 0 0.195528958851618 -0.12997667269654067 0 0.2115405740082357 -0.10399874917046985 0 0.11108437640394124 -0.086044282942688205 0 0.12469350521466148 -0.084055577161853232 0 0.22898487329996589 -0.13509321006363112 0 0.24395757317820391 -0.10459221161020493 0 0.26085443647844969 -0.12895901758700465 0 0.12469350521466148 -0.084055577161853232 0 0.13813278580767299 -0.082647771491893729 0 0.2115405740082357 -0.10399874917046985 0 0.22898487329996589 -0.13509321006363112 0 0.24395757317820391 -0.10459221161020493 0 0.24395757317820391 -0.10459221161020493 0 0.26085443647844969 -0.12895901758700465 0 0.27562370844251538 -0.10505008678802248 0 0.13813278580767299 -0.082647771491893729 0 0.15196390835060897 -0.081608641998163423 0 0.26085443647844969 -0.12895901758700465 0 0.27562370844251538 -0.10505008678802248 0 0.29256092645965015 -0.13425934284954372 0 0.27562370844251538 -0.10505008678802248 0 0.30670898602764368 -0.1051919547103348 0 0.29256092645965015 -0.13425934284954372 0 0.15196390835060897 -0.081608641998163423 0 0.16583339331274546 -0.08086408485808072 0 0.30670898602764368 -0.1051919547103348 0 0.29256092645965015 -0.13425934284954372 0 0.32288145496962106 -0.12824227792564796 0 0.29256092645965015 -0.13425934284954372 0 0.32288145496962106 -0.12824227792564796 0 0.32593685811961243 -0.16672289697364129 0 0.29256092645965015 -0.13425934284954372 0 0.2632461136894102 -0.16768762543191659 0 0.32593685811961243 -0.16672289697364129 0 0.26085443647844969 -0.12895901758700465 0 0.29256092645965015 -0.13425934284954372 0 0.2632461136894102 -0.16768762543191659 0 0.36821289293035603 -0.10503206464710294 0 0.35281716103071786 -0.13177191936841773 0 0.38488048228051219 -0.12705472819949576 0 0.36821289293035603 -0.10503206464710294 0 0.35281716103071786 -0.13177191936841773 0 0.33751258839585935 -0.10517440306693052 0 0.19447484737627116 -0.079855987473306009 0 0.18007602372312481 -0.080277558720113329 0 0.35281716103071786 -0.13177191936841773 0 0.33751258839585935 -0.10517440306693052 0 0.32288145496962106 -0.12824227792564796 0 0.30670898602764368 -0.1051919547103348 0 0.33751258839585935 -0.10517440306693052 0 0.32288145496962106 -0.12824227792564796 0 0.16583339331274546 -0.08086408485808072 0 0.18007602372312481 -0.080277558720113329 0 0.35281716103071786 -0.13177191936841773 0 0.32288145496962106 -0.12824227792564796 0 0.32593685811961243 -0.16672289697364129 0 0.35281716103071786 -0.13177191936841773 0 0.38488048228051219 -0.12705472819949576 0 0.38903620875944178 -0.16184459050304437 0 0.35281716103071786 -0.13177191936841773 0 0.32593685811961243 -0.16672289697364129 0 0.38903620875944178 -0.16184459050304437 0 0.32593685811961243 -0.16672289697364129 0 0.35917646982919993 -0.21852771822798012 0 0.38903620875944178 -0.16184459050304437 0 0.32593685811961243 -0.16672289697364129 0 0.35917646982919993 -0.21852771822798012 0 0.29996096874818623 -0.2113785469168275 0 0.23624112738035821 -0.22450789032131022 0 0.2632461136894102 -0.16768762543191659 0 0.29996096874818623 -0.2113785469168275 0 0.2632461136894102 -0.16768762543191659 0 0.32593685811961243 -0.16672289697364129 0 0.29996096874818623 -0.2113785469168275 0 0.23624112738035821 -0.22450789032131022 0 0.29996096874818623 -0.2113785469168275 0 0.31479108338730716 -0.27750497649932399 0 0.35917646982919993 -0.21852771822798012 0 0.31479108338730716 -0.27750497649932399 0 0.4027402139415413 -0.29286573138382249 0 0.35917646982919993 -0.21852771822798012 0 0.29996096874818623 -0.2113785469168275 0 0.31479108338730716 -0.27750497649932399 0 0.31479108338730716 -0.27750497649932399 0 0.4027402139415413 -0.29286573138382249 0 0.33032084810113843 -0.39451280726766902 0 0.31479108338730716 -0.27750497649932399 0 0.20694032489849051 -0.3043233978450392 0 0.33032084810113843 -0.39451280726766902 0 0.20694032489849051 -0.3043233978450392 0 0.13087489515068093 -0.38265176994648981 0 0.12374152469457712 -0.27450516791983109 0 0.16249419987907573 -0.22387056547570738 0 0.20694032489849051 -0.3043233978450392 0 0.12374152469457712 -0.27450516791983109 0 0.16249419987907573 -0.22387056547570738 0 0.096450311840319505 -0.21184512239636769 0 0.12374152469457712 -0.27450516791983109 0 0.16249419987907573 -0.22387056547570738 0 0.23624112738035821 -0.22450789032131022 0 0.20694032489849051 -0.3043233978450392 0 0.23624112738035821 -0.22450789032131022 0 0.31479108338730716 -0.27750497649932399 0 0.20694032489849051 -0.3043233978450392 0 0.59050217079255596 -0.20954402757457619 0 0.644532326698665 -0.18488127077823879 0 0.64472850516311453 -0.24886077573904 0 0.59050217079255596 -0.20954402757457619 0 0.61404202918834183 -0.16008056388091296 0 0.57611105899413728 -0.16292223783656656 0 0.59050217079255596 -0.20954402757457619 0 0.644532326698665 -0.18488127077823879 0 0.61404202918834183 -0.16008056388091296 0 0.644532326698665 -0.18488127077823879 0 0.64450265861034595 -0.13816202956720985 0 0.61404202918834183 -0.16008056388091296 0 0.64450265861034595 -0.13816202956720985 0 0.61404202918834183 -0.16008056388091296 0 0.62276772818501425 -0.12689159482765799 0 0.64450265861034595 -0.13816202956720985 0 0.62276772818501425 -0.12689159482765799 0 0.64450468939280448 -0.10407389925034283 0 0.62276772818501425 -0.12689159482765799 0 0.61387283517243962 -0.10407049387660508 0 0.64450468939280448 -0.10407389925034283 0 0.31837885704965757 -0.080475528184399847 0 0.33797526552168666 -0.18362952231466517 0 0.31837885704965757 -0.080475528184399847 0 0.30308051633512767 -0.079729399918901683 0 0.61387283517243962 -0.10407049387660508 0 0.58322563317110676 -0.104071145813753 0 0.59755367778245827 -0.13068491387943301 0 0.62276772818501425 -0.12689159482765799 0 0.61387283517243962 -0.10407049387660508 0 0.59755367778245827 -0.13068491387943301 0 0.58322563317110676 -0.104071145813753 0 0.59755367778245827 -0.13068491387943301 0 0.56952607409240097 -0.12648562020929188 0 0.61404202918834183 -0.16008056388091296 0 0.59755367778245827 -0.13068491387943301 0 0.57611105899413728 -0.16292223783656656 0 0.61404202918834183 -0.16008056388091296 0 0.62276772818501425 -0.12689159482765799 0 0.59755367778245827 -0.13068491387943301 0 0.59755367778245827 -0.13068491387943301 0 0.57611105899413728 -0.16292223783656656 0 0.56952607409240097 -0.12648562020929188 0 0.57611105899413728 -0.16292223783656656 0 0.537365357427113 -0.13522734090650496 0 0.53751281791435268 -0.18226977688837881 0 0.57611105899413728 -0.16292223783656656 0 0.56952607409240097 -0.12648562020929188 0 0.537365357427113 -0.13522734090650496 0 0.56952607409240097 -0.12648562020929188 0 0.55252477244323062 -0.10408520957738028 0 0.537365357427113 -0.13522734090650496 0 0.30308051633512767 -0.079729399918901683 0 0.28688607336018013 -0.079634907713320963 0 0.58322563317110676 -0.104071145813753 0 0.56952607409240097 -0.12648562020929188 0 0.55252477244323062 -0.10408520957738028 0 0.55252477244323062 -0.10408520957738028 0 0.5217901523927535 -0.10414415639988153 0 0.537365357427113 -0.13522734090650496 0 0.28688607336018013 -0.079634907713320963 0 0.27097813307942992 -0.079550847724012802 0 0.5217901523927535 -0.10414415639988153 0 0.537365357427113 -0.13522734090650496 0 0.5063839845912661 -0.12498525271657777 0 0.537365357427113 -0.13522734090650496 0 0.53751281791435268 -0.18226977688837881 0 0.49824915208521825 -0.15425073001347467 0 0.59050217079255596 -0.20954402757457619 0 0.57611105899413728 -0.16292223783656656 0 0.53751281791435268 -0.18226977688837881 0 0.59050217079255596 -0.20954402757457619 0 0.53751281791435268 -0.18226977688837881 0 0.52899667692479813 -0.24356209471476897 0 0.53751281791435268 -0.18226977688837881 0 0.48585978669288998 -0.19784671181270816 0 0.52899667692479813 -0.24356209471476897 0 0.48585978669288998 -0.19784671181270816 0 0.46751638132242779 -0.25121131992821261 0 0.52899667692479813 -0.24356209471476897 0 0.48585978669288998 -0.19784671181270816 0 0.42388887063025671 -0.20918039169134678 0 0.46751638132242779 -0.25121131992821261 0 0.48585978669288998 -0.19784671181270816 0 0.49824915208521825 -0.15425073001347467 0 0.44699508338828914 -0.15875586365742372 0 0.48585978669288998 -0.19784671181270816 0 0.44699508338828914 -0.15875586365742372 0 0.42388887063025671 -0.20918039169134678 0 0.53751281791435268 -0.18226977688837881 0 0.48585978669288998 -0.19784671181270816 0 0.49824915208521825 -0.15425073001347467 0 0.537365357427113 -0.13522734090650496 0 0.49824915208521825 -0.15425073001347467 0 0.5063839845912661 -0.12498525271657777 0 0.49824915208521825 -0.15425073001347467 0 0.5063839845912661 -0.12498525271657777 0 0.47464017121682645 -0.12932731875149872 0 0.5063839845912661 -0.12498525271657777 0 0.49103418668150894 -0.10425437441892364 0 0.47464017121682645 -0.12932731875149872 0 0.27097813307942992 -0.079550847724012802 0 0.2551781172860732 -0.079481920257621672 0 0.5217901523927535 -0.10414415639988153 0 0.5063839845912661 -0.12498525271657777 0 0.49103418668150894 -0.10425437441892364 0 0.46030091110328608 -0.10441167639109758 0 0.47464017121682645 -0.12932731875149872 0 0.44539288931441873 -0.12578659551458007 0 0.2551781172860732 -0.079481920257621672 0 0.23954953531522674 -0.079464120548335293 0 0.49103418668150894 -0.10425437441892364 0 0.46030091110328608 -0.10441167639109758 0 0.47464017121682645 -0.12932731875149872 0 0.47464017121682645 -0.12932731875149872 0 0.44699508338828914 -0.15875586365742372 0 0.44539288931441873 -0.12578659551458007 0 0.49824915208521825 -0.15425073001347467 0 0.47464017121682645 -0.12932731875149872 0 0.44699508338828914 -0.15875586365742372 0 0.44699508338828914 -0.15875586365742372 0 0.44539288931441873 -0.12578659551458007 0 0.4154782150534867 -0.13176860232757057 0 0.44699508338828914 -0.15875586365742372 0 0.4154782150534867 -0.13176860232757057 0 0.38903620875944178 -0.16184459050304437 0 0.44539288931441873 -0.12578659551458007 0 0.42957850863109015 -0.10460953296288095 0 0.4154782150534867 -0.13176860232757057 0 0.23954953531522674 -0.079464120548335293 0 0.22421553991619678 -0.079469681126028396 0 0.46030091110328608 -0.10441167639109758 0 0.44539288931441873 -0.12578659551458007 0 0.42957850863109015 -0.10460953296288095 0 0.19447484737627116 -0.079855987473306009 0 0.20922953845226766 -0.079581466740935275 0 0.36821289293035603 -0.10503206464710294 0 0.39888458221296408 -0.10482371022648029 0 0.38488048228051219 -0.12705472819949576 0 0.42957850863109015 -0.10460953296288095 0 0.39888458221296408 -0.10482371022648029 0 0.4154782150534867 -0.13176860232757057 0 0.22421553991619678 -0.079469681126028396 0 0.20922953845226766 -0.079581466740935275 0 0.39888458221296408 -0.10482371022648029 0 0.4154782150534867 -0.13176860232757057 0 0.38488048228051219 -0.12705472819949576 0 0.4154782150534867 -0.13176860232757057 0 0.38488048228051219 -0.12705472819949576 0 0.38903620875944178 -0.16184459050304437 0 0.35917646982919993 -0.21852771822798012 0 0.38903620875944178 -0.16184459050304437 0 0.42388887063025671 -0.20918039169134678 0 0.44699508338828914 -0.15875586365742372 0 0.38903620875944178 -0.16184459050304437 0 0.42388887063025671 -0.20918039169134678 0 0.4027402139415413 -0.29286573138382249 0 0.4987909808323403 -0.32108499072597108 0 0.44707873902129858 -0.42504117990644585 0 0.35917646982919993 -0.21852771822798012 0 0.42388887063025671 -0.20918039169134678 0 0.4027402139415413 -0.29286573138382249 0 0.42388887063025671 -0.20918039169134678 0 0.4027402139415413 -0.29286573138382249 0 0.46751638132242779 -0.25121131992821261 0 0.4987909808323403 -0.32108499072597108 0 0.46751638132242779 -0.25121131992821261 0 0.52899667692479813 -0.24356209471476897 0 0.4027402139415413 -0.29286573138382249 0 0.4987909808323403 -0.32108499072597108 0 0.46751638132242779 -0.25121131992821261 0 0.4987909808323403 -0.32108499072597108 0 0.57878508561020914 -0.29264937447851141 0 0.52899667692479813 -0.24356209471476897 0 0.59050217079255596 -0.20954402757457619 0 0.57878508561020914 -0.29264937447851141 0 0.52899667692479813 -0.24356209471476897 0 0.4987909808323403 -0.32108499072597108 0 0.57878508561020914 -0.29264937447851141 0 0.55695610673297824 -0.39684862625136202 0 0.57878508561020914 -0.29264937447851141 0 0.64553414109236518 -0.3366344100586724 0 0.55695610673297824 -0.39684862625136202 0 0.59050217079255596 -0.20954402757457619 0 0.57878508561020914 -0.29264937447851141 0 0.64472850516311453 -0.24886077573904 0 0.57878508561020914 -0.29264937447851141 0 0.64553414109236518 -0.3366344100586724 0 0.64472850516311453 -0.24886077573904 0 0.64995219898268297 -0.63662945824205353 0 0.53244544580806108 -0.51812091173296648 0 0.38469297790913326 -0.62389169200503314 0 0.64553414109236518 -0.3366344100586724 0 0.64786853813796752 -0.45862129550506686 0 0.55695610673297824 -0.39684862625136202 0 0.64786853813796752 -0.45862129550506686 0 0.55695610673297824 -0.39684862625136202 0 0.53244544580806108 -0.51812091173296648 0 0.4027402139415413 -0.29286573138382249 0 0.44707873902129858 -0.42504117990644585 0 0.33032084810113843 -0.39451280726766902 0 0.44707873902129858 -0.42504117990644585 0 0.33032084810113843 -0.39451280726766902 0 0.38469297790913326 -0.62389169200503314 0 0.55695610673297824 -0.39684862625136202 0 0.44707873902129858 -0.42504117990644585 0 0.53244544580806108 -0.51812091173296648 0 0.4987909808323403 -0.32108499072597108 0 0.55695610673297824 -0.39684862625136202 0 0.44707873902129858 -0.42504117990644585 0 0.44707873902129858 -0.42504117990644585 0 0.53244544580806108 -0.51812091173296648 0 0.38469297790913326 -0.62389169200503314 0 0.64786853813796752 -0.45862129550506686 0 0.64995219898268297 -0.63662945824205353 0 0.53244544580806108 -0.51812091173296648 0 0.23277136783718072 -0.453329682249694 0 0.38469297790913326 -0.62389169200503314 0 0.14830401195592197 -0.59485037054882672 0 0.20694032489849051 -0.3043233978450392 0 0.23277136783718072 -0.453329682249694 0 0.13087489515068093 -0.38265176994648981 0 0.23277136783718072 -0.453329682249694 0 0.14830401195592197 -0.59485037054882672 0 0.13087489515068093 -0.38265176994648981 0 0.20694032489849051 -0.3043233978450392 0 0.23277136783718072 -0.453329682249694 0 0.33032084810113843 -0.39451280726766902 0 0.23277136783718072 -0.453329682249694 0 0.33032084810113843 -0.39451280726766902 0 0.38469297790913326 -0.62389169200503314 0 0.14830401195592197 -0.59485037054882672 0 0.13087489515068093 -0.38265176994648981 0 0.026357779614192178 -0.39707823379767232 0 0.026357779614192178 -0.39707823379767232 0 -0.043419112883602153 -0.56981582507105133 0 -0.096296433251789881 -0.38627763260676112 0 0.14830401195592197 -0.59485037054882672 0 0.026357779614192178 -0.39707823379767232 0 -0.043419112883602153 -0.56981582507105133 0 -0.23738821197291141 -0.56745001703310105 0 -0.096296433251789881 -0.38627763260676112 0 -0.22266004793679964 -0.34567388206756661 0 -0.043419112883602153 -0.56981582507105133 0 -0.23738821197291141 -0.56745001703310105 0 -0.096296433251789881 -0.38627763260676112 0 -0.16002752689482924 -0.15281862563644277 0 -0.10457179539674542 -0.23447919702532755 0 -0.22266004793679964 -0.34567388206756661 0 -0.096296433251789881 -0.38627763260676112 0 -0.10457179539674542 -0.23447919702532755 0 -0.015129473956927229 -0.22338534231505061 0 -0.096296433251789881 -0.38627763260676112 0 -0.10457179539674542 -0.23447919702532755 0 -0.22266004793679964 -0.34567388206756661 0 -0.052058689579168593 -0.13960645769223823 0 -0.16002752689482924 -0.15281862563644277 0 -0.10457179539674542 -0.23447919702532755 0 -0.052058689579168593 -0.13960645769223823 0 -0.10457179539674542 -0.23447919702532755 0 -0.015129473956927229 -0.22338534231505061 0 -0.052058689579168593 -0.13960645769223823 0 0.0030903455469986009 -0.12722111036350095 0 -0.015129473956927229 -0.22338534231505061 0 0.0030903455469986009 -0.12722111036350095 0 -0.015129473956927229 -0.22338534231505061 0 0.034951981767716557 -0.15972876744091694 0 -0.015129473956927229 -0.22338534231505061 0 0.034951981767716557 -0.15972876744091694 0 0.059257328512196311 -0.26833543118053421 0 0.058380928160087782 -0.11443284656004893 0 0.038990236323203094 -0.092323756771835686 0 0.034951981767716557 -0.15972876744091694 0 0.058380928160087782 -0.11443284656004893 0 0.034951981767716557 -0.15972876744091694 0 0.079181685657642414 -0.15103398328847492 0 0.058380928160087782 -0.11443284656004893 0 0.082500684348484857 -0.10089948101357372 0 0.079181685657642414 -0.15103398328847492 0 0.082500684348484857 -0.10089948101357372 0 0.11533325733322852 -0.13750230916619391 0 0.079181685657642414 -0.15103398328847492 0 0.034951981767716557 -0.15972876744091694 0 0.079181685657642414 -0.15103398328847492 0 0.096450311840319505 -0.21184512239636769 0 0.13151718672858312 -0.17418053158125874 0 0.079181685657642414 -0.15103398328847492 0 0.096450311840319505 -0.21184512239636769 0 0.034951981767716557 -0.15972876744091694 0 0.096450311840319505 -0.21184512239636769 0 0.059257328512196311 -0.26833543118053421 0 0.13087489515068093 -0.38265176994648981 0 0.026357779614192178 -0.39707823379767232 0 0.059257328512196311 -0.26833543118053421 0 0.096450311840319505 -0.21184512239636769 0 0.059257328512196311 -0.26833543118053421 0 0.12374152469457712 -0.27450516791983109 0 0.13087489515068093 -0.38265176994648981 0 0.059257328512196311 -0.26833543118053421 0 0.12374152469457712 -0.27450516791983109 0 0.026357779614192178 -0.39707823379767232 0 -0.096296433251789881 -0.38627763260676112 0 -0.015129473956927229 -0.22338534231505061 0 0.026357779614192178 -0.39707823379767232 0 -0.015129473956927229 -0.22338534231505061 0 0.059257328512196311 -0.26833543118053421 0 
</DataArray>
</PointData>
<CellData Scalars="region_id," Vectors="" Tensors="effective_stress,">
<DataArray type="Float64" Name="region_id" format="ascii">
1 1 1 1 1 1 1 1 1 1 1 1 1 1 1 1 1 1 1 1 1 1 1 1 1 1 1 1 1 1 1 1 1 1 1 1 1 1 1 1 1 1 1 1 1 1 1 1 1 1 1 1 1 1 1 1 1 1 1 1 1 1 1 1 1 1 1 1 1 1 1 1 1 1 1 1 1 1 1 1 1 1 1 1 1 1 1 1 1 1 1 1 1 1 1 1 1 1 1 1 1 1 1 1 1 1 1 1 1 1 1 1 1 1 1 1 1 1 1 1 1 1 1 1 1 1 1 1 1 1 1 1 1 1 1 1 1 1 1 1 1 6 1 6 1 1 1 1 1 1 1 1 1 1 1 1 1 1 6 1 6 1 1 6 1 1 6 1 1 1 1 1 1 6 1 1 6 1 1 1 1 1 1 1 1 1 1 1 1 1 1 1 1 1 1 1 1 1 1 1 1 6 6 1 1 1 1 1 1 1 1 1 6 1 1 6 1 1 1 1 1 1 1 1 1 1 1 1 1 6 1 1 6 1 1 1 1 1 1 6 1 6 1 1 6 1 1 1 1 1 1 1 1 1 1 1 1 1 1 1 1 1 1 1 1 1 1 1 1 1 1 1 1 1 1 1 1 1 1 1 1 1 1 1 1 1 1 1 1 1 1 1 1 1 1 1 1 1 1 
</DataArray>
<DataArray type="Float64" Name="effective_stress" NumberOfComponents="9" format="ascii">
-0.10068158811203984 -0.03636463853007036 0 -0.03636463853007036 -0.033477982329384474 0 0 0 -0.033539892610356087 -0.33769467899606076 -0.0015738290218133832 0 -0.0015738290218133832 -0.020659464053082166 0 0 0 -0.089588535762285731 -0.34167337934162845 -0.024987468989648293 0 -0.024987468989648293 0.029534341810583176 0 0 0 -0.078034759382761387 -0.11932403696245597 -0.014019866624102623 0 -0.014019866624102623 0.026168339222882281 0 0 0 -0.023288924434893436 -0.1482488094810091 -0.004235751367553893 0 -0.004235751367553893 0.014196904213390593 0 0 0 -0.033512976316904641 -0.10584827624941814 -0.055647444415205048 0 -0.055647444415205048 0.076374984875780871 0 0 0 -0.0073683228434092418 0.15804148520255423 -0.042452540413029871 0 -0.042452540413029871 0.10026445629820491 0 0 0 0.064576485375189729 0.15596540410641313 -0.0019410289680620394 0 -0.0019410289680620394 0.10605979146183286 0 0 0 0.065506298892061554 0.34130345626923897 0.0084111731668535597 0 0.0084111731668535597 0.18752592377661914 0 0 0 0.13220734501146447 0.29743444933263485 -0.12837297075866072 0 -0.12837297075866072 0.14099628705245504 0 0 0 0.10960768409627231 0.41584977087081654 0.014660570327058142 0 0.014660570327058142 0.43811702582610978 0 0 0 0.21349169917423139 0.70186335794424504 -0.11140218642237731 0 -0.11140218642237731 0.27715102639913047 0 0 0 0.24475359608584379 0.22977237194481903 -0.087788686527928705 0 -0.087788686527928705 0.20298820507288706 0 0 0 0.1081901442544263 0.096192302616173175 -0.095139746727275543 0 -0.095139746727275543 0.12151541421608836 0 0 0 0.054426929208065411 0.038417422973487658 -0.051976490172357059 0 -0.051976490172357059 0.17565924495435553 0 0 0 0.053519166981960797 0.0050145819240693789 -0.031946085425258952 0 -0.031946085425258952 0.089409404808127591 0 0 0 0.023605996683049232 0.026276876603216669 -0.0044602978993333875 0 -0.0044602978993333875 0.038767121531469273 0 0 0 0.016260999533671487 0.038538054591153913 -0.0024612056876254507 0 -0.0024612056876254507 0.07726778225152181 0 0 0 0.028951459210668905 -0.11696574396347363 -0.0016335455775583832 0 -0.0016335455775583832 0.011795674526029865 0 0 0 -0.026292517359360931 0.073584906140518672 -0.018081732471969335 0 -0.018081732471969335 -0.012266600492902298 0 0 0 0.015329576411904095 0.15191763710861633 -0.044903802699284762 0 -0.044903802699284762 0.027255958909555456 0 0 0 0.044793399004542933 0.24025793897310821 -0.021033292227470107 0 -0.021033292227470107 0.065540282726354315 0 0 0 0.076449555424865631 0.051626678486965144 -0.040025486336711394 0 -0.040025486336711394 0.017145739404551118 0 0 0 0.01719310447287907 0.08115832944465072 -0.022923273633279923 0 -0.022923273633279923 -0.044547769079292449 0 0 0 0.0091526400913395506 0.15648461274776534 -0.060602996543101181 0 -0.060602996543101181 0.010772614239202338 0 0 0 0.041814306746741914 0.065073800269929066 -0.02811291585796212 0 -0.02811291585796212 0.0065380894597753952 0 0 0 0.017902972432426126 -0.081230883336818022 0.015348306962932502 0 0.015348306962932502 -0.036771196019896715 0 0 0 -0.029500519839178677 0.098454915162024426 -0.063762378363007299 0 -0.063762378363007299 0.03279790031689208 0 0 0 0.032813203869729128 0.078309091157072547 -0.074241444432484899 0 -0.074241444432484899 0.019870824001183608 0 0 0 0.024544978789564045 0.087963671807107 -0.079205854505822959 0 -0.079205854505822959 0.027384244481232917 0 0 0 0.028836979072084989 0.11819970422172679 -0.082415849794538976 0 -0.082415849794538976 -0.0060135422694537477 0 0 0 0.028046540488068275 0.10676921792245742 -0.06565889923605929 0 -0.06565889923605929 0.0084028061432402934 0 0 0 0.028793006016424441 0.091217406603454579 -0.062242346921508214 0 -0.062242346921508214 0.030393975957088606 0 0 0 0.030402845640135803 0.14710649710132342 -0.049797694698062944 0 -0.049797694698062944 0.03047627249172577 0 0 0 0.044395692398262299 0.074185045092811569 -0.06128844047907904 0 -0.06128844047907904 0.030296017832942473 0 0 0 0.026120265731438518 0.064903452891276803 -0.051395321988005394 0 -0.051395321988005394 0.014250611241468147 0 0 0 0.019788516033186238 0.083033491940280119 -0.068615547836068311 0 -0.068615547836068311 0.030196471400801728 0 0 0 0.028307490835270427 0.060991154795448421 -0.071498917021345948 0 -0.071498917021345948 0.0277109582695102 0 0 0 0.022175528266239669 0.085088586889584872 -0.059700617186615915 0 -0.059700617186615915 0.028974306239816561 0 0 0 0.028515723282350358 0.055249945542072215 -0.027222363108614978 0 -0.027222363108614978 -0.0070322497917559845 0 0 0 0.012054423937579078 0.053044852997998881 -0.023055828749157431 0 -0.023055828749157431 0.017639583751416832 0 0 0 0.017671109187353928 0.0094169218834122687 -0.0080870263304127499 0 -0.0080870263304127499 0.0070843763952617711 0 0 0 0.0041253245696685342 0.0072179067511306816 -0.0028294047732569938 0 -0.0028294047732569938 -0.0018338821139616268 0 0 0 0.001346006159292229 0.02797305193023647 -0.0085207695692377586 0 -0.0085207695692377586 -0.0064066763400428828 0 0 0 0.0053915938975483968 0.042694350032609685 -0.030211285236838165 0 -0.030211285236838165 0.013542226733223139 0 0 0 0.014059144191458206 0.016542629889000626 -0.013483487991925558 0 -0.013483487991925558 0.011394533753760205 0 0 0 0.006984290910690194 0.0090422024021134251 -0.018350344076181579 0 -0.018350344076181579 -0.0019352545748987648 0 0 0 0.0017767369568036651 0.030500533517165113 -0.036874043650892793 0 -0.036874043650892793 0.01536423672240822 0 0 0 0.01146619255989334 0.0273260235160461 -0.031025504945233207 0 -0.031025504945233207 0.029705373163460003 0 0 0 0.014257849169876463 0.026197856849208279 -0.036583786707682475 0 -0.036583786707682475 0.014990490474485807 0 0 0 0.010297086830923508 0.051019455506150169 -0.066889830887480822 0 -0.066889830887480822 0.019655674648545396 0 0 0 0.017668782538673877 0.049128606521342488 -0.059706284163065663 0 -0.059706284163065663 0.048825564234690311 0 0 0 0.024488542689008186 0.019066551265598197 -0.046565175379293056 0 -0.046565175379293056 0.027787736595386414 0 0 0 0.011713571965246194 0.014811997894514262 -0.033579466953188086 0 -0.033579466953188086 0.04679189852678034 0 0 0 0.01540097410532365 0.0027250489693976254 -0.02329695552816835 0 -0.02329695552816835 0.028151235012772169 0 0 0 0.0077190709955423653 0.021448901074221205 -0.038133406238904821 0 -0.038133406238904821 0.058437055502210677 0 0 0 0.019971489144107957 0.0086933090856783357 -0.017504342628329506 0 -0.017504342628329506 0.030341303111759643 0 0 0 0.0097586530493596335 2.0403672867097544e-05 -0.0052306428777391112 0 -0.0052306428777391112 0.021138225465566429 0 0 0 0.005289657284608229 0.00098993501111532822 -0.0045464830237347265 0 -0.0045464830237347265 0.0026464589633192759 0 0 0 0.00090909849360854 0.0012842745109966636 -0.0030182616832801212 0 -0.0030182616832801212 -0.0035122580403044168 0 0 0 -0.00055699588232704933 0.00087294253587030801 -0.0064065336370447978 0 -0.0064065336370447978 0.018481832606999427 0 0 0 0.0048386937857174128 0.00078735803414320404 -0.0090104476890979224 0 -0.0090104476890979224 0.016698652060592067 0 0 0 0.0043715025236837901 0.0088257777002736515 -0.018153006661932314 0 -0.018153006661932314 0.035692245075984452 0 0 0 0.011129505694064457 0.0040277858238843001 -0.007593295996767821 0 -0.007593295996767821 0.011769319007094659 0 0 0 0.0039492762077447674 0.001197789561665108 -0.0076961510260363242 0 -0.0076961510260363242 0.01808318097723749 0 0 0 0.00482024263472558 -0.00020234471971414258 -0.001548961122091741 0 -0.001548961122091741 -0.0035593142021852486 0 0 0 -0.00094041473047479229 0.0014218388816378269 -0.0031267924613044284 0 -0.0031267924613044284 0.014434275100306149 0 0 0 0.0039640284954860494 0.00098298990429243616 -0.0011818419698177429 0 -0.0011818419698177429 0.0042356871260860185 0 0 0 0.0013046692575946206 0.00013892698690454175 -0.00079498724349374994 0 -0.00079498724349374994 -0.0081252337256718654 0 0 0 -0.0019965766846918864 0.0050727084380209619 -0.0077078083639224859 0 -0.0077078083639224859 0.010606107320258684 0 0 0 0.0039197039395699462 0.00624950314685907 -0.015283214171254778 0 -0.015283214171254778 0.016160870864537769 0 0 0 0.0056025935028492513 0.014856791220631993 -0.019754319682390442 0 -0.019754319682390442 0.022566227582887288 0 0 0 0.0093557547008798481 0.0037856141358799666 -0.0046457906000764437 0 -0.0046457906000764437 0.0010189436202983071 0 0 0 0.0012011394390445407 0.013834364546672751 -0.011461285329365412 0 -0.011461285329365412 0.011494304026470337 0 0 0 0.0063321671432857718 0.0024568742648151121 -0.0026148674625084221 0 -0.0026148674625084221 0.0031580583458619138 0 0 0 0.0014037331526691732 0.0011443504629993304 -0.0030316007156752089 0 -0.0030316007156752089 0.0075077456442013378 0 0 0 0.0021630240268001952 0.0014382822613961954 -0.0010039752623324238 0 -0.0010039752623324238 0.0044035300878114692 0 0 0 0.0014604530873019161 0.00018133976691681042 0.00027231133904109805 0 0.00027231133904109805 -0.0060267296234872703 0 0 0 -0.001461347464142615 0.00048196304637265763 0.0007351962427489811 0 0.0007351962427489811 -0.00079460839996103871 0 0 0 -7.8161338397164659e-05 0.00051619498414079423 0.00089867623503026017 0 0.00089867623503026017 -0.0061911196949160363 0 0 0 -0.001418731177693755 0.0040687759338746687 -0.0025755061556534953 0 -0.0025755061556534953 0.0025028036711085555 0 0 0 0.0016428949012459171 -9.2713447538139704e-06 0.00080745366744294778 0 0.00080745366744294778 -0.00051065321003451736 0 0 0 -0.00012998113869711059 0.0014960892104665113 0.0010595462907039138 0 0.0010595462907039138 -9.8213331966690021e-05 0 0 0 0.00034946896962484431 0.00041880048311782048 0.0015269848533125963 0 0.0015269848533125963 -0.0011629827130210657 0 0 0 -0.00018604555747581131 0.0003990582033418788 0.0017234512458798035 0 0.0017234512458798035 -0.00097182584342780931 0 0 0 -0.00014319191002151732 2.1386041063151118e-05 0.0012314955054020249 0 0.0012314955054020249 -0.0012124468144172895 0 0 0 -0.00029776519333847562 -0.00010784395415297521 0.0013484657015566115 0 0.0013484657015566115 -0.0041695108303705375 0 0 0 -0.0010693386961309059 -0.0016265931827365576 0.0013447199671882126 0 0.0013447199671882126 -0.00093654403682652543 0 0 0 -0.00064078430489072913 -0.00016272578223797129 0.0010513297597000704 0 0.0010513297597000704 -0.0012449960517781911 0 0 0 -0.00035193045850401283 4.6357994408774417e-05 0.0019624589094068279 0 0.0019624589094068279 0.0001151474604137448 0 0 0 4.0376363705685314e-05 -0.004474259688287241 0.0013484739922988709 0 0.0013484739922988709 0.00099360329115860679 0 0 0 -0.00087016409928203364 0.00065745798779343056 0.0010835209965344705 0 0.0010835209965344705 -0.00074800133422403547 0 0 0 -2.2635836607609594e-05 0.0048487361281791264 -0.0032252468419675662 0 -0.0032252468419675662 0.0058189426211259221 0 0 0 0.0026669196873263246 -0.0041693734951444017 -0.0013846466437359205 0 -0.0013846466437359205 0.0042987768707241081 0 0 0 3.2350843894912718e-05 0.14942826953504268 -0.1444228754001454 0 -0.1444228754001454 0.10655139549625847 0 0 0 0.063994916257825329 0.15984789267608884 -0.10257843837265757 0 -0.10257843837265757 0.032104018261192593 0 0 0 0.047987977734320356 0.13872019424731299 -0.094523159152505754 0 -0.094523159152505754 0.026948423451565562 0 0 0 0.041417154424719632 0.11284702304448457 -0.10222673375583545 0 -0.10222673375583545 0.041639041853742564 0 0 0 0.038621516224556784 0.069185884332603975 -0.086193024646169486 0 -0.086193024646169486 0.053565123296618222 0 0 0 0.030687751907305549 0.0450356954266391 -0.06805653722963112 0 -0.06805653722963112 0.0724390397607928 0 0 0 0.029368683796857975 0.041459458768632287 -0.076092858281541165 0 -0.076092858281541165 0.039450496280375003 0 0 0 0.020227488762251791 0.076787465156697446 -0.10415770542440983 0 -0.10415770542440983 0.029442125150020225 0 0 0 0.026557397576679423 0.07880894896148688 -0.10402913948161577 0 -0.10402913948161577 0.095058506484807292 0 0 0 0.043466863861573501 0.023201815316146759 -0.069783398608042391 0 -0.069783398608042391 0.079590886629506988 0 0 0 0.025698175486413424 0.057636319508163725 -0.089185011202588177 0 -0.089185011202588177 0.11778202036255747 0 0 0 0.043854584967680244 0.0091644723361263836 -0.043435075193946515 0 -0.043435075193946515 0.049265141310722516 0 0 0 0.014607403411712294 0.03897415915804836 -0.060679554363137989 0 -0.060679554363137989 0.080860940499257294 0 0 0 0.029958774914326358 0.0040543459252913028 -0.019200276047032949 0 -0.019200276047032949 0.038172599460119194 0 0 0 0.01055673634635268 0.00093321772058171937 -0.017990819899605381 0 -0.017990819899605381 0.039373413571321514 0 0 0 0.010076657822975815 0.0032239494466129726 -0.032421970241305609 0 -0.032421970241305609 0.075446612302746408 0 0 0 0.019667640437339817 0.014114357226716501 -0.029928877651253072 0 -0.029928877651253072 0.069797352455287065 0 0 0 0.020977927420500864 -0.00088011859379216739 -0.010702271144118924 0 -0.010702271144118924 0.038947925567989428 0 0 0 0.0095169517435492179 0.0026729387579145225 -0.011663113471311159 0 -0.011663113471311159 0.049610395500013116 0 0 0 0.013070833564482132 0.0042381463958454102 -0.0083194528590218031 0 -0.0083194528590218031 0.029560561486138059 0 0 0 0.0084496769704958119 9.4999720483768257e-05 -0.0053040202142211612 0 -0.0053040202142211612 0.017105236388479828 0 0 0 0.0043000590272409545 0.00052150773579182075 -0.0067702179034820897 0 -0.0067702179034820897 0.041965907563162541 0 0 0 0.010621853824738542 0.021478887696006366 -0.046819709811359911 0 -0.046819709811359911 0.10953111247113156 0 0 0 0.032752500041784427 0.0068621797070836932 -0.050349530205469617 0 -0.050349530205469617 0.11794392523900488 0 0 0 0.03120152623652217 0.0072736585523195396 -0.030638943733325541 0 -0.030638943733325541 0.070494843182810296 0 0 0 0.019442125433782542 0.0013950085410174284 -0.013806444529485429 0 -0.013806444529485429 0.085886858421758028 0 0 0 0.021820466740693878 0.002819601503548208 -0.015320413882247919 0 -0.015320413882247919 0.065223028766974167 0 0 0 0.017010657567630649 -0.00069619741915055711 -0.015775821568706605 0 -0.015775821568706605 0.095770378829855674 0 0 0 0.023768545352676307 0.001173786570678792 -0.016651947112127863 0 -0.016651947112127863 0.10209192502514464 0 0 0 0.025816427898956107 0.016715173549029516 -0.028542106550037305 0 -0.028542106550037305 0.14648337689171109 0 0 0 0.040799637610185235 -0.0011214262023924171 -0.017752283748835973 0 -0.017752283748835973 0.14694056791979293 0 0 0 0.036454785429350212 0.02538595204373717 -0.049355053565302676 0 -0.049355053565302676 0.22422982546379533 0 0 0 0.062403944376883236 -0.0027336332608987601 -0.033517962555982939 0 -0.033517962555982939 0.16694176906602876 0 0 0 0.041052033951282485 0.054708942517926906 -0.107807818402884 0 -0.107807818402884 0.1486770107260752 0 0 0 0.050846488311000471 0.030054434326398094 -0.079845266533298043 0 -0.079845266533298043 0.21291803253052455 0 0 0 0.060743116714230494 0.014950582266758189 -0.05587967960384066 0 -0.05587967960384066 0.13312196345576055 0 0 0 0.037018136430629595 0.048780897406909385 -0.10519289553163599 0 -0.10519289553163599 0.14425636181814294 0 0 0 0.048259314806263054 0.21122282021580602 -0.12983292526789605 0 -0.12983292526789605 0.083834408012206874 0 0 0 0.073764307057003153 0.3527810692679117 -0.15246042489 0 -0.15246042489 0.13382074330701724 0 0 0 0.12165045314373223 0.11423816194256553 -0.1734178392103396 0 -0.1734178392103396 0.29005965071427964 0 0 0 0.10107445316421138 0.11456466979685587 -0.14753372433905715 0 -0.14753372433905715 0.23952523058015762 0 0 0 0.088522475094253483 0.0013527082272852403 -0.062791383087907771 0 -0.062791383087907771 0.21063847422623339 0 0 0 0.052997795613379764 0.094582715921272875 -0.11883347032043712 0 -0.11883347032043712 0.38044747836787929 0 0 0 0.11875754857228804 0.070556009569254868 -0.13561120404130556 0 -0.13561120404130556 0.25618924100901885 0 0 0 0.081686312644568465 0.44552245367160648 -0.39674127795769831 0 -0.39674127795769831 0.6789844106416334 0 0 0 0.28112671607830997 0.0062872124443558164 0.026214422948658278 0 0.026214422948658278 0.067069221231624176 0 0 0 0.01833910841899522 0.33977146855966284 0.20567485610536584 0 0.20567485610536584 0.09859682103589168 0 0 0 0.10959207239888852 4.9508119053515081e-06 -1.1219824344739692e-07 0 -1.1219824344739692e-07 1.7533364584864185e-06 0 0 0 1.6760370909594819e-06 0.025846377866520383 0.013830486978205991 0 0.013830486978205991 -0.036953230023139064 0 0 0 -0.0027767130391546696 1.2836257232102173e-05 -6.2478534877062902e-07 0 -6.2478534877062902e-07 4.3747088873121684e-06 0 0 0 4.3027415298535853e-06 0.0021296042755725164 -0.0097061072238853185 0 -0.0097061072238853185 0.037307561268872469 0 0 0 0.0098592913861117459 0.060655894291673507 0.048340047613561477 0 0.048340047613561477 0.034128951730760804 0 0 0 0.0236962115056083 0.32014915055444337 -0.01585487503299543 0 -0.01585487503299543 0.061164852193182462 0 0 0 0.095328500686906903 0.26765370182351517 0.14253669599256735 0 0.14253669599256735 0.13489146511141731 0 0 0 0.10063629173373351 0.20493103757379427 0.0033827891974614888 0 0.0033827891974614888 0.0039626315641445586 0 0 0 0.052223417284484652 0.12934166841446859 0.07022065498062291 0 0.07022065498062291 0.059673475158757316 0 0 0 0.047253785893306421 0.042220209806577133 0.025095259641175316 0 0.025095259641175316 0.018490417400623044 0 0 0 0.015177656801799822 0.034567648304885346 0.027720678906842044 0 0.027720678906842044 0.044747168929365255 0 0 0 0.019828704308562317 -0.001949503976113709 0.00318236351176715 0 0.00318236351176715 0.031453258932461203 0 0 0 0.007375938739086374 0.0043714504736887538 0.0056279740076152773 0 0.0056279740076152773 0.016393747713006057 0 0 0 0.0051912995466734668 0.029299015802160433 0.046704773709509206 0 0.046704773709509206 0.075811646379438713 0 0 0 0.026277665545400009 0.016176531105271508 0.007170582601091019 0 0.007170582601091019 0.022968871411208625 0 0 0 0.009786350629119811 -0.0014678940805994412 -0.0070246193742635743 0 -0.0070246193742635743 0.024066802209674165 0 0 0 0.0056497270322679594 0.0066266211621937021 -0.0054033578935726023 0 -0.0054033578935726023 -0.049962226973393697 0 0 0 -0.010833901452799832 1.8314924618025591e-05 -9.9902834230604506e-07 0 -9.9902834230604506e-07 6.1770986023268077e-06 0 0 0 6.1230058050880993e-06 -4.9779396697591238e-05 -0.0056553651036425068 0 -0.0056553651036425068 0.009514214121367992 0 0 0 0.0023661086811677112 2.3107352435302846e-05 -1.238676604721168e-06 0 -1.238676604721168e-06 7.7535072307314821e-06 0 0 0 7.715214916508582e-06 -0.0035953249527453934 -0.0059992507632280478 0 -0.0059992507632280478 -0.022721346131975295 0 0 0 -0.0065791677711803942 0.00019180608648960984 -0.0035564206303919654 0 -0.0035564206303919654 -0.016541671086687693 0 0 0 -0.0040874662500494097 2.7532245493164327e-05 -1.3881678627353891e-06 0 -1.3881678627353891e-06 9.2151009273607248e-06 0 0 0 9.1868366051312626e-06 -0.00033377918980259658 -0.0030599397191082289 0 -0.0030599397191082289 0.0072564180389207422 0 0 0 0.0017306597122794809 -0.00011447568333914154 -0.0031206590508903176 0 -0.0031206590508903176 -0.0051832352103054861 0 0 0 -0.0013244277234110459 3.1741146143287189e-05 -1.4911761931350485e-06 0 -1.4911761931350485e-06 1.0607384653376064e-05 0 0 0 1.0587132699165814e-05 0.00028708453415271507 -0.0038095731643817965 0 -0.0038095731643817965 0.0085427541208229485 0 0 0 0.002207459663744249 -0.00095465917433046332 -0.0010592070940074194 0 -0.0010592070940074194 0.0095737693001631818 0 0 0 0.0021547775314582074 -0.0020402359011224558 -0.0038479143411703776 0 -0.0038479143411703776 0.021181843774060738 0 0 0 0.004785401968234515 0.0036326765450271359 -0.0044418313073073534 0 -0.0044418313073073534 0.0091142652387737888 0 0 0 0.0031867354459506614 3.8017046202210025e-05 -0.001134878321158439 0 -0.001134878321158439 0.008743732789440628 0 0 0 0.0021954374589103764 -0.00021153519364114359 -0.0012789573740072946 0 -0.0012789573740072946 0.0050916282945348001 0 0 0 0.0012200232752239693 3.9743009003302744e-05 -1.5879733432994027e-06 0 -1.5879733432994027e-06 1.3262958651651796e-05 0 0 0 1.3251491913738635e-05 -1.6030065797867366e-05 -0.0013918323121944187 0 -0.0013918323121944187 0.0082887951508157087 0 0 0 0.0020681912712547934 -0.0012833814175901015 -0.0023810933218926245 0 -0.0023810933218926245 0.00020874579493401768 0 0 0 -0.00026865890566285522 3.5798237652437312e-05 -1.5509053385103949e-06 0 -1.5509053385103949e-06 1.195401723208272e-05 0 0 0 1.1938063721130008e-05 -0.0011003823130874835 -0.0023373748919455206 0 -0.0023373748919455206 0.008259018132503293 0 0 0 0.0017896589548547504 -0.0010836187298151057 -0.0004383177286655382 0 -0.0004383177286655382 0.0086489818468536983 0 0 0 0.0018913407792597869 -0.001275861798215594 -0.0018242909877103086 0 -0.0018242909877103086 0.012761055013876366 0 0 0 0.0028712983039147488 -0.0023328592456655084 0.0025927461052156486 0 0.0025927461052156486 0.013181819144675977 0 0 0 0.0027122399747523396 -0.0025960638846502793 0.0025638431840691034 0 0.0025638431840691034 0.016899530753283543 0 0 0 0.0035758667171585934 0.0036875246765224468 0.0068902282306326779 0 0.0068902282306326779 0.021891300168708661 0 0 0 0.0063947062113078879 0.0042220775778001162 0.0065051553951045449 0 0.0065051553951045449 0.023157772582522673 0 0 0 0.0068449625400805857 0.0056552673486615634 0.013142621478831717 0 0.013142621478831717 0.025704806383424872 0 0 0 0.0078400184330217892 -0.0014419245576258177 0.0067254059182930703 0 0.0067254059182930703 0.0062792106248856783 0 0 0 0.0012093215168147431 0.0046054815423346718 0.010321402322431616 0 0.010321402322431616 0.016318477217599492 0 0 0 0.0052309896899836172 0.01054289236466216 0.014069936414840445 0 0.014069936414840445 0.0062740837719501563 0 0 0 0.0042042440341529264 0.0097254984074374162 0.0077214120677016052 0 0.0077214120677016052 -0.0026799792229224018 0 0 0 0.0017613797961287814 0.10046321631093003 -0.0042302577768615901 0 -0.0042302577768615901 -0.018047340884097984 0 0 0 0.020603968856707899 0.11098919247165795 -0.0047019170461451987 0 -0.0047019170461451987 -0.015094125566118777 0 0 0 0.023973766726384627 0.14502976950904492 0.0063871479095685135 0 0.0063871479095685135 -0.016168744042342809 0 0 0 0.032215256366675465 0.062668376515149379 0.036178539967743895 0 0.036178539967743895 0.024911105945195411 0 0 0 0.021894870615086253 0.038582402067924959 0.016301412784426761 0 0.016301412784426761 0.011233509050427415 0 0 0 0.012453977779588121 0.0038662495343347869 0.0021114630825220804 0 0.0021114630825220804 0.0014241182170384725 0 0 0 0.0013225919378426765 0.0021189241717161078 0.001901945825598883 0 0.001901945825598883 0.0013490085394458617 0 0 0 0.00086698317778988176 0.00091296269608365233 0.0011554552849522004 0 0.0011554552849522004 -0.00022364333173463535 0 0 0 0.000172329841087282 0.00098529646888412259 0.00076267412542041773 0 0.00076267412542041773 0.00084351290796469414 0 0 0 0.00045720234421153805 0.0002215130859077874 0.00026082485900436048 0 0.00026082485900436048 -0.00015052497705436707 0 0 0 1.7747027213133038e-05 4.3370953006771629e-07 2.0013347155067862e-05 0 2.0013347155067862e-05 0.00019980068070224455 0 0 0 5.0058597557356421e-05 0.00010405093650200925 -1.6783406755704888e-05 0 -1.6783406755704888e-05 -8.8817908721061656e-05 0 0 0 3.8082569462360993e-06 7.1110725979920902e-05 -1.4767957065659631e-06 0 -1.4767957065659631e-06 1.9962523806182676e-05 0 0 0 2.2768312446525896e-05 6.9008162956551479e-05 -1.5381305635475727e-06 0 -1.5381305635475727e-06 2.2975661400421762e-05 0 0 0 2.2995956089243311e-05 0.00014822032957795273 0.00012703492979548869 0 0.00012703492979548869 7.3050363753601744e-05 0 0 0 5.5317673330890216e-05 4.9050975160724875e-05 7.6123315228771027e-05 0 7.6123315228771027e-05 0.00015543091328851233 0 0 0 5.1120472112309301e-05 2.8327123140492461e-06 0.00024900341652878133 0 0.00024900341652878133 0.0010699034370782456 0 0 0 0.00026818403734774066 0.00033527239785136054 0.00082357778563924011 0 0.00082357778563924011 0.00054818669466438763 0 0 0 0.00022086477312899255 0.00067460891630233277 0.00062020267609552704 0 0.00062020267609552704 0.00057107698452529831 0 0 0 0.00031142147520579755 0.00068898944801976114 0.0010197309942685528 0 0.0010197309942685528 0.00097218156207645734 0 0 0 0.00041529275252472075 4.9354667233103555e-05 0.0022724597105072686 0 0.0022724597105072686 0.001799826286958961 0 0 0 0.00046229523854801613 0.00081685160341149476 0.0018225576040919456 0 0.0018225576040919456 0.0026724047952972896 0 0 0 0.00087231409967580831 -4.7282769263246038e-05 0.00064003455990579994 0 0.00064003455990579994 0.0015666266670200102 0 0 0 0.00037983597443891348 6.5507239450156082e-05 -1.5320265343592333e-06 0 -1.5320265343592333e-06 2.1832319566062964e-05 0 0 0 2.1834889754054761e-05 0.00052053394432527433 0.00051783326986609701 0 0.00051783326986609701 0.00068355714232470888 0 0 0 0.00030102277166155211 0.00020809508221361416 0.00077354168831966774 0 0.00077354168831966774 0.0022071697901179456 0 0 0 0.00060381621808388913 6.1972351558452389e-05 -1.5442491905733082e-06 0 -1.5442491905733082e-06 2.0654401943871882e-05 0 0 0 2.0656688375581069e-05 0.0001289580315764205 0.00093050825542340121 0 0.00093050825542340121 0.0038518080561900092 0 0 0 0.0009951915219414964 0.00087585648843591102 0.0027366497509063361 0 0.0027366497509063361 0.0042928293654629357 0 0 0 0.0012921714634748227 0.0015929174432955939 0.0030228449577610617 0 0.0030228449577610617 0.0030339913095858151 0 0 0 0.0011567271882206853 0.00075885686084598003 0.0042471838847315535 0 0.0042471838847315535 0.0011074753088005096 0 0 0 0.00046658304241187221 0.002247582248810942 0.0050894227382096702 0 0.0050894227382096702 0.0048284777270433121 0 0 0 0.0017690149939632027 -0.00079642179212213726 0.0064943920357707352 0 0.0064943920357707352 0.0023523546093739967 0 0 0 0.00038898320431246525 0.00046899670673000715 0.0063881057874013436 0 0.0063881057874013436 0.0083322342591118925 0 0 0 0.0022003077414607941 0.00037339481829357091 0.0034625824720669884 0 0.0034625824720669884 0.0061002358828119441 0 0 0 0.0016184076752765453 -0.0010428772320298929 0.0037124628283879968 0 0.0037124628283879968 0.0065852535832635617 0 0 0 0.0013855940878084727 -0.00045669333290776493 0.0034946259559891502 0 0.0034946259559891502 0.0028300201392545965 0 0 0 0.00059333170158692994 -0.00029619352930143616 0.0018413670221399947 0 0.0018413670221399947 0.0029097292324604673 0 0 0 0.00065338392579061821 0.00025487384545974656 0.001824134753642237 0 0.001824134753642237 0.0050467504774331928 0 0 0 0.0013254060807226242 6.2567186992712465e-05 0.00062624288428225761 0 0.00062624288428225761 0.0045585130631060622 0 0 0 0.0011552700625254708 5.840258484852041e-05 -1.5569635245506073e-06 0 -1.5569635245506073e-06 1.9465028513392352e-05 0 0 0 1.9466903340478191e-05 -0.00019928619040721074 0.00080260828491862668 0 0.00080260828491862668 0.0039308114271241479 0 0 0 0.00093288130917867917 8.0924880240029751e-05 0.00055498310402080087 0 0.00055498310402080087 0.0066655491895115659 0 0 0 0.0016866185174380099 5.47954555784468e-05 -1.5710774512086383e-06 0 -1.5710774512086383e-06 1.8264506323358813e-05 0 0 0 1.8264990475451402e-05 -5.2175226169293154e-05 0.00063032216266911689 0 0.00063032216266911689 0.005687426448784727 0 0 0 0.0014088128056539695 -0.00084812685677482236 0.0016991962456780474 0 0.0016991962456780474 0.0059792074595117484 0 0 0 0.0012827701506847866 -0.00012275536824590816 0.0018150398623955066 0 0.0018150398623955066 0.0055713456096788683 0 0 0 0.0013621475603584621 -0.0002467743092806618 0.0011881348206814746 0 0.0011881348206814746 0.007585969424724226 0 0 0 0.0018347987788609466 -0.00053651527222120521 0.00082541117338119641 0 0.00082541117338119641 0.0088572425769597452 0 0 0 0.0020801818261841909 3.9070525656104138e-05 0.00027364823332987065 0 0.00027364823332987065 0.0071931690494162481 0 0 0 0.0018080598937686432 5.1137413724907661e-05 -1.5862856477216129e-06 0 -1.5862856477216129e-06 1.704600623858689e-05 0 0 0 1.7045854990873639e-05 -0.00029056069916522098 0.00042167834428874507 0 0.00042167834428874507 0.0070787447702889139 0 0 0 0.0016970460177814228 4.3610784950948564e-05 -1.6010579703314614e-06 0 -1.6010579703314614e-06 1.4546884268876834e-05 0 0 0 1.453941730495635e-05 -0.00094628584232307733 -0.00056195754186294522 0 -0.00056195754186294522 0.0072408917071401374 0 0 0 0.0015736514662049869 -0.00011475844216346509 0.00014732617865398367 0 0.00014732617865398367 0.0077292426124824232 0 0 0 0.0019036210425802391 4.740569498655947e-05 -1.6001545578938935e-06 0 -1.6001545578938935e-06 1.5805952420487114e-05 0 0 0 1.5802911851761645e-05 8.2660827855685071e-05 1.926824390174886e-05 0 1.926824390174886e-05 0.0085590387686709235 0 0 0 0.0021604248991324848 -0.0015689262888827771 0.00032209870956068087 0 0.00032209870956068087 0.0079155152389104311 0 0 0 0.0015866472375067331 -0.0021242255793940679 0.0028737180616748015 0 0.0028737180616748015 0.0099468291959956545 0 0 0 0.0019556509041505077 -0.0018312024936321808 0.0028811462585112135 0 0.0028811462585112135 0.0086764331511794135 0 0 0 0.0017113076643866937 0.0035473275401994853 0.0083355282940289488 0 0.0083355282940289488 0.0021310432991423767 0 0 0 0.0014195927098353822 -0.0024129264950700502 0.0072843288426620578 0 0.0072843288426620578 0.011463913860476849 0 0 0 0.002262746841351887 -0.003706781457404329 0.0085709971490327552 0 0.0085709971490327552 0.0037896332209905736 0 0 0 2.0712940896228105e-05 0.0026103432260922155 0.0064261387529439551 0 0.0064261387529439551 0.0034184370772560868 0 0 0 0.0015071950758369645 0.00061088344139281769 0.0078315534869324299 0 0.0078315534869324299 0.0018126294017537514 0 0 0 0.00060587821078728066 0.0019860457435603163 0.0062229913315074992 0 0.0062229913315074992 0.001337575821236836 0 0 0 0.00083090539119923257 0.0050600397055997615 0.0051206489931381882 0 0.0051206489931381882 0.0026633999179770385 0 0 0 0.0019308599058940334 0.0067469343259615178 0.0060118166131342132 0 0.0060118166131342132 0.0021393420795796647 0 0 0 0.0022215691013850458 0.0057705266380281284 0.0049570222952077803 0 0.0049570222952077803 0.00087099833229853374 0 0 0 0.001660381242581499 0.0033254578826455994 0.0027464772419615868 0 0.0027464772419615868 5.1249716635837217e-05 0 0 0 0.00084417689982019262 0.010793876411791636 0.004125122787356883 0 0.004125122787356883 0.0019453384420899944 0 0 0 0.0031848037134700746 0.010044131774524567 -0.010670405307974695 0 -0.010670405307974695 -0.050999758686301799 0 0 0 -0.010238906727944364 0.020409863303975539 0.0042731392673393291 0 0.0042731392673393291 -0.0030115439070650396 0 0 0 0.0043495798492279025 0.007957427555842056 0.0019214807470402384 0 0.0019214807470402384 0.004135426859356528 0 0 0 0.0030232136037993129 -0.0012646892266783283 0.0059879069624815262 0 0.0059879069624815262 -0.027320082362690457 0 0 0 -0.0071461928973421962 -0.00097858526087546416 -0.0052413336464867122 0 -0.0052413336464867122 -0.019877461751040548 0 0 0 -0.0052140117529788643 -0.0013677489877079729 -0.0051796233079897114 0 -0.0051796233079897114 -0.014012989794272679 0 0 0 -0.0038451846954954405 0.00283415825536526 0.0082115307387800041 0 0.0082115307387800041 -0.0031845381883304213 0 0 0 -8.7594983241068292e-05 -0.00042501930317428993 -0.0023028462784744352 0 -0.0023028462784744352 -0.02847923331726987 0 0 0 -0.0072260631551110954 0.0057942612755841338 -0.016904270220314693 0 -0.016904270220314693 -0.024385930110382148 0 0 0 -0.0046479172086995035 0.022140716197218469 -0.017832800133632309 0 -0.017832800133632309 -0.11652939948042018 0 0 0 -0.023597170820800262 0.039375246918328832 -0.026714560966455581 0 -0.026714560966455581 -0.048957301959565491 0 0 0 -0.0023955137603091092 0.018485156789959434 -0.017443342549888219 0 -0.017443342549888219 -0.065241792532746423 0 0 0 -0.011689158935696664 0.03828179659077513 0.0089203459207647384 0 0.0089203459207647384 -0.013365709318151175 0 0 0 0.0062290218181559887 -0.0043764499642728882 -0.022072338515516599 0 -0.022072338515516599 -0.070020962042810941 0 0 0 -0.018599353001771401 0.023872908094564105 -0.071029079422227914 0 -0.071029079422227914 -0.068444265934849202 0 0 0 -0.011142839460071219 -0.0027213554379660332 -0.087665210188247911 0 -0.087665210188247911 -0.036775090705273517 0 0 0 -0.0098741115358097487 0.024969076982801153 -0.068168140075595796 0 -0.068168140075595796 -0.098491035044548259 0 0 0 -0.018380489515436804 -0.063678562708684661 -0.059639666515918788 0 -0.059639666515918788 -0.0025151884643208611 0 0 0 -0.016548437793251436 -0.03483278535740171 -0.053915154146386812 0 -0.053915154146386812 -0.021705042747744967 0 0 0 -0.014134457026286754 -0.2584750081640409 -0.065355533704742674 0 -0.065355533704742674 0.026271244843019348 0 0 0 -0.058050940830255526 -0.053551570958660477 -0.12557703512481233 0 -0.12557703512481233 0.023641182326761712 0 0 0 -0.0074775971579746914 -0.10362888922425184 -0.05148970377154452 0 -0.05148970377154452 -0.019224506212298653 0 0 0 -0.030713348859137568 -0.13145875971369092 -0.086762806456781805 0 -0.086762806456781805 0.019023348760663146 0 0 0 -0.028108852738257029 -0.093564255186954437 -0.064644535052976515 0 -0.064644535052976515 0.01618652376402685 0 0 0 -0.01934443285573173 0.0022775424325653798 -0.1126299242515999 0 -0.1126299242515999 0.079582752366645582 0 0 0 0.020465073699802758 0.034511729170756955 -0.089743955306728213 0 -0.089743955306728213 0.13802360244637857 0 0 0 0.043133832904283964 0.13557483124182212 -0.12702290463124255 0 -0.12702290463124255 0.023035136164027525 0 0 0 0.039652491851462468 0.16123860976870596 -0.073044906641758389 0 -0.073044906641758389 0.300264381861999 0 0 0 0.11537574790767624 0.24260855219593747 -0.11424419545876452 0 -0.11424419545876452 0.10972101643309395 0 0 0 0.088082392157257772 0.41536244523117472 -0.21220419391816514 0 -0.21220419391816514 0.4435311617683777 0 0 0 0.21472340174988813 0.75484202944854895 -0.076176264929903703 0 -0.076176264929903703 0.091205003970142418 0 0 0 0.21151175835467306 0.29795150747216825 -0.1478359208242277 0 -0.1478359208242277 0.11879356819372228 0 0 0 0.10418626891647279 0.23779644517677778 0.013105364506071249 0 0.013105364506071249 0.012613612241860528 0 0 0 0.062602514354659577 0.11959457090121484 -0.088622764347532246 0 -0.088622764347532246 0.019612976927472658 0 0 0 0.034801886957172123 0.088645999467614117 -0.066900148726010578 0 -0.066900148726010578 -0.046796683297477715 0 0 0 0.01046232904253433 0.21124570533733156 -0.06992982672841408 0 -0.06992982672841408 0.0024011586029937249 0 0 0 0.053411715985081321 0.087105518058056663 -0.066689923185203837 0 -0.066689923185203837 -0.0390723764533627 0 0 0 0.012008285401173602 0.014475225840505746 -0.099281378683827193 0 -0.099281378683827193 -0.03014558597729336 0 0 0 -0.0039175900341967933 0.035004592479029872 -0.11711336926518795 0 -0.11711336926518795 -0.0062368403877428591 0 0 0 0.0071919380228215868 
</DataArray>
</CellData>
</Piece>
</UnstructuredGrid>
</VTKFile>
