<?xml version="1.0"?>
<VTKFile type="UnstructuredGrid" version="0.1" byte_order="LittleEndian">
<UnstructuredGrid>
<Piece NumberOfPoints="880" NumberOfCells="299">
<Points>
<DataArray type="Float64" NumberOfComponents="3" format="ascii">
0 0.25000000000104189 0 -0 0 0 0.18653882694645291 0.22249173546702489 0 -0 0 0 0.24999999999941089 0 0 0.18653882694645291 0.22249173546702489 0 0.24999999999941089 0 0 0.49999999999869182 0 0 0.35015135319464608 0.1900339269648805 0 0.24999999999941089 0 0 0.35015135319464608 0.1900339269648805 0 0.18653882694645291 0.22249173546702489 0 0.35015135319464608 0.1900339269648805 0 0.49999999999869182 0 0 0.49924741621175961 0.21507969613896921 0 0.40587285776242238 0.32419148732968017 0 0.35015135319464608 0.1900339269648805 0 0.49924741621175961 0.21507969613896921 0 0.45418244162583959 0.41624787166862259 0 0.41576443813007791 0.48093483781626972 0 0.37764981543668408 0.41341486499350411 0 0.40587285776242238 0.32419148732968017 0 0.45418244162583959 0.41624787166862259 0 0.37764981543668408 0.41341486499350411 0 0.45418244162583959 0.41624787166862259 0 0.46566719828045178 0.47702825415921918 0 0.41576443813007791 0.48093483781626972 0 0.46566719828045178 0.47702825415921918 0 0.4638583922372429 0.51470588235294135 0 0.41576443813007791 0.48093483781626972 0 0.49954900152271581 0.45107191084564019 0 0.5 0.5 0 0.46566719828045178 0.47702825415921918 0 0.46566719828045178 0.47702825415921918 0 0.5 0.5 0 0.4638583922372429 0.51470588235294135 0 0.49954900152271581 0.45107191084564019 0 0.46566719828045178 0.47702825415921918 0 0.45418244162583959 0.41624787166862259 0 0.45418244162583959 0.41624787166862259 0 0.49435464945626773 0.33318442629318029 0 0.54876010062294855 0.39662628167175101 0 0.49435464945626773 0.33318442629318029 0 0.45418244162583959 0.41624787166862259 0 0.40587285776242238 0.32419148732968017 0 0.49435464945626773 0.33318442629318029 0 0.40587285776242238 0.32419148732968017 0 0.49924741621175961 0.21507969613896921 0 0.35015135319464608 0.1900339269648805 0 0.40587285776242238 0.32419148732968017 0 0.29145599617909779 0.35026601625021492 0 0.40587285776242238 0.32419148732968017 0 0.37764981543668408 0.41341486499350411 0 0.29145599617909779 0.35026601625021492 0 0.18653882694645291 0.22249173546702489 0 0.35015135319464608 0.1900339269648805 0 0.29145599617909779 0.35026601625021492 0 0.32540781287085369 0.49175159894608172 0 0.17872124008781709 0.39692711089439497 0 0.29145599617909779 0.35026601625021492 0 0.37764981543668408 0.41341486499350411 0 0.32540781287085369 0.49175159894608172 0 0.29145599617909779 0.35026601625021492 0 0.41576443813007791 0.48093483781626972 0 0.32540781287085369 0.49175159894608172 0 0.37764981543668408 0.41341486499350411 0 0 0.50000000000206157 0 0 0.25000000000104189 0 0.17872124008781709 0.39692711089439497 0 0 0.50000000000206157 0 0.17872124008781709 0.39692711089439497 0 0.22453074737734591 0.51613635929252633 0 0.17872124008781709 0.39692711089439497 0 0.32540781287085369 0.49175159894608172 0 0.22453074737734591 0.51613635929252633 0 0.17872124008781709 0.39692711089439497 0 0.18653882694645291 0.22249173546702489 0 0.29145599617909779 0.35026601625021492 0 0.17872124008781709 0.39692711089439497 0 0 0.25000000000104189 0 0.18653882694645291 0.22249173546702489 0 0 0.75000000000034772 0 0 0.50000000000206157 0 0.18442368612951149 0.62734948407416979 0 0 0.75000000000034772 0 0.18442368612951149 0.62734948407416979 0 0.22727208279115291 0.72949159435386135 0 0.18442368612951149 0.62734948407416979 0 0.31346558946927339 0.67110784456164874 0 0.22727208279115291 0.72949159435386135 0 0.31771010312359771 0.58585679504088894 0 0.18442368612951149 0.62734948407416979 0 0.22453074737734591 0.51613635929252633 0 0.18442368612951149 0.62734948407416979 0 0 0.50000000000206157 0 0.22453074737734591 0.51613635929252633 0 0 1 0 0 0.75000000000034772 0 0.096516139048187316 0.89789944498939644 0 0.1596341872805197 1 0 0 1 0 0.096516139048187316 0.89789944498939644 0 0 0.75000000000034772 0 0.1644705180525495 0.8200994301041713 0 0.096516139048187316 0.89789944498939644 0 0.2386314078659193 0.92924778694987087 0 0.1644705180525495 0.8200994301041713 0 0.27155609766735261 0.80398965554903801 0 0.1644705180525495 0.8200994301041713 0 0 0.75000000000034772 0 0.22727208279115291 0.72949159435386135 0 0.1644705180525495 0.8200994301041713 0 0.22727208279115291 0.72949159435386135 0 0.27155609766735261 0.80398965554903801 0 0.1644705180525495 0.8200994301041713 0 0.2386314078659193 0.92924778694987087 0 0.096516139048187316 0.89789944498939644 0 0.2386314078659193 0.92924778694987087 0 0.1596341872805197 1 0 0.096516139048187316 0.89789944498939644 0 0.27591592301363282 1 0 0.1596341872805197 1 0 0.2386314078659193 0.92924778694987087 0 0.36061858902161292 1 0 0.27591592301363282 1 0 0.32789203369730929 0.94219211037003092 0 0.36061858902161292 1 0 0.32789203369730929 0.94219211037003092 0 0.39382242252278338 0.95440420122950598 0 0.32789203369730929 0.94219211037003092 0 0.27591592301363282 1 0 0.2386314078659193 0.92924778694987087 0 0.31834856208730472 0.88134829947972904 0 0.32789203369730929 0.94219211037003092 0 0.2386314078659193 0.92924778694987087 0 0.39382242252278338 0.95440420122950598 0 0.32789203369730929 0.94219211037003092 0 0.37746652222901839 0.8987532801416368 0 0.37746652222901839 0.8987532801416368 0 0.32789203369730929 0.94219211037003092 0 0.31834856208730472 0.88134829947972904 0 0.31834856208730472 0.88134829947972904 0 0.2386314078659193 0.92924778694987087 0 0.27155609766735261 0.80398965554903801 0 0.37746652222901839 0.8987532801416368 0 0.31834856208730472 0.88134829947972904 0 0.36493375430404612 0.82333914183704071 0 0.36493375430404612 0.82333914183704071 0 0.31834856208730472 0.88134829947972904 0 0.27155609766735261 0.80398965554903801 0 0.22727208279115291 0.72949159435386135 0 0.32984265945580837 0.74432890077789404 0 0.27155609766735261 0.80398965554903801 0 0.32984265945580837 0.74432890077789404 0 0.36493375430404612 0.82333914183704071 0 0.27155609766735261 0.80398965554903801 0 0.36493375430404612 0.82333914183704071 0 0.32984265945580837 0.74432890077789404 0 0.39746869305290999 0.7595658224757349 0 0.42893012659725649 0.81084715169569632 0 0.36493375430404612 0.82333914183704071 0 0.39746869305290999 0.7595658224757349 0 0.44651949253391748 0.77225997208621999 0 0.42893012659725649 0.81084715169569632 0 0.39746869305290999 0.7595658224757349 0 0.44651949253391748 0.77225997208621999 0 0.39746869305290999 0.7595658224757349 0 0.43412357948152142 0.72128778687215156 0 0.44651949253391748 0.77225997208621999 0 0.47220206448452873 0.74892462649306213 0 0.47786860714145291 0.77730227330627721 0 0.47220206448452873 0.74892462649306213 0 0.5 0.76470588235294124 0 0.47786860714145291 0.77730227330627721 0 0.5 0.76470588235294124 0 0.5 0.79411764705882359 0 0.47786860714145291 0.77730227330627721 0 0.5 0.79411764705882359 0 0.5 0.82352941176470584 0 0.47062147868881782 0.80650323854033878 0 0.5 0.79411764705882359 0 0.47062147868881782 0.80650323854033878 0 0.47786860714145291 0.77730227330627721 0 0.47062147868881782 0.80650323854033878 0 0.44651949253391748 0.77225997208621999 0 0.47786860714145291 0.77730227330627721 0 0.47062147868881782 0.80650323854033878 0 0.42893012659725649 0.81084715169569632 0 0.44651949253391748 0.77225997208621999 0 0.46181179062043481 0.83858979842637782 0 0.42893012659725649 0.81084715169569632 0 0.47062147868881782 0.80650323854033878 0 0.42880856207355889 0.86677159981903118 0 0.42893012659725649 0.81084715169569632 0 0.46181179062043481 0.83858979842637782 0 0.5 0.82352941176470584 0 0.5 0.85294117647058831 0 0.46181179062043481 0.83858979842637782 0 0.5 0.82352941176470584 0 0.46181179062043481 0.83858979842637782 0 0.47062147868881782 0.80650323854033878 0 0.46181179062043481 0.83858979842637782 0 0.5 0.85294117647058831 0 0.47032448519202857 0.86718057681700655 0 0.5 0.85294117647058831 0 0.5 0.88235294117647056 0 0.47032448519202857 0.86718057681700655 0 0.42880856207355889 0.86677159981903118 0 0.46181179062043481 0.83858979842637782 0 0.47032448519202857 0.86718057681700655 0 0.42880856207355889 0.86677159981903118 0 0.37746652222901839 0.8987532801416368 0 0.36493375430404612 0.82333914183704071 0 0.42880856207355889 0.86677159981903118 0 0.36493375430404612 0.82333914183704071 0 0.42893012659725649 0.81084715169569632 0 0.39382242252278338 0.95440420122950598 0 0.37746652222901839 0.8987532801416368 0 0.42822627495986648 0.92083108049218854 0 0.42822627495986648 0.92083108049218854 0 0.37746652222901839 0.8987532801416368 0 0.42880856207355889 0.86677159981903118 0 0.46100207326614928 0.89524736819256467 0 0.42880856207355889 0.86677159981903118 0 0.47032448519202857 0.86718057681700655 0 0.42822627495986648 0.92083108049218854 0 0.42880856207355889 0.86677159981903118 0 0.46100207326614928 0.89524736819256467 0 0.5 0.88235294117647056 0 0.46100207326614928 0.89524736819256467 0 0.47032448519202857 0.86718057681700655 0 0.5 0.88235294117647056 0 0.5 0.91176470588235292 0 0.46100207326614928 0.89524736819256467 0 0.46100207326614928 0.89524736819256467 0 0.5 0.91176470588235292 0 0.46949408183482899 0.92833826413560594 0 0.5 0.91176470588235292 0 0.5 0.94117647058823528 0 0.46949408183482899 0.92833826413560594 0 0.42822627495986648 0.92083108049218854 0 0.46100207326614928 0.89524736819256467 0 0.46949408183482899 0.92833826413560594 0 0.44768478605684647 0.9646709673379662 0 0.46949408183482899 0.92833826413560594 0 0.47596308696979028 0.95620709615192379 0 0.44768478605684647 0.9646709673379662 0 0.42822627495986648 0.92083108049218854 0 0.46949408183482899 0.92833826413560594 0 0.44768478605684647 0.9646709673379662 0 0.47596308696979028 0.95620709615192379 0 0.47818194888216242 0.97829325975680159 0 0.46949408183482899 0.92833826413560594 0 0.5 0.94117647058823528 0 0.47596308696979028 0.95620709615192379 0 0.47596308696979028 0.95620709615192379 0 0.5 0.97058823529411764 0 0.47818194888216242 0.97829325975680159 0 0.5 0.94117647058823528 0 0.5 0.97058823529411764 0 0.47596308696979028 0.95620709615192379 0 0.5 1 0 0.46726187138417491 1 0 0.47818194888216242 0.97829325975680159 0 0.5 0.97058823529411764 0 0.5 1 0 0.47818194888216242 0.97829325975680159 0 0.46726187138417491 1 0 0.44768478605684647 0.9646709673379662 0 0.47818194888216242 0.97829325975680159 0 0.46726187138417491 1 0 0.42231823435723009 1 0 0.44768478605684647 0.9646709673379662 0 0.44768478605684647 0.9646709673379662 0 0.42231823435723009 1 0 0.39382242252278338 0.95440420122950598 0 0.44768478605684647 0.9646709673379662 0 0.39382242252278338 0.95440420122950598 0 0.42822627495986648 0.92083108049218854 0 0.42231823435723009 1 0 0.36061858902161292 1 0 0.39382242252278338 0.95440420122950598 0 0.31771010312359771 0.58585679504088894 0 0.41980724897053312 0.55867199730355355 0 0.3872154068451229 0.6301386882447304 0 0.32540781287085369 0.49175159894608172 0 0.41980724897053312 0.55867199730355355 0 0.31771010312359771 0.58585679504088894 0 0.32540781287085369 0.49175159894608172 0 0.31771010312359771 0.58585679504088894 0 0.22453074737734591 0.51613635929252633 0 0.18442368612951149 0.62734948407416979 0 0.31771010312359771 0.58585679504088894 0 0.31346558946927339 0.67110784456164874 0 0.31346558946927339 0.67110784456164874 0 0.32984265945580837 0.74432890077789404 0 0.22727208279115291 0.72949159435386135 0 0.39746869305290999 0.7595658224757349 0 0.32984265945580837 0.74432890077789404 0 0.38513711431054509 0.69312683393047636 0 0.38513711431054509 0.69312683393047636 0 0.32984265945580837 0.74432890077789404 0 0.31346558946927339 0.67110784456164874 0 0.31771010312359771 0.58585679504088894 0 0.3872154068451229 0.6301386882447304 0 0.31346558946927339 0.67110784456164874 0 0.3872154068451229 0.6301386882447304 0 0.38513711431054509 0.69312683393047636 0 0.31346558946927339 0.67110784456164874 0 0.4390556798454946 0.66199025953586599 0 0.38513711431054509 0.69312683393047636 0 0.3872154068451229 0.6301386882447304 0 0.4390556798454946 0.66199025953586599 0 0.3872154068451229 0.6301386882447304 0 0.44702869549010399 0.61002701911053991 0 0.39746869305290999 0.7595658224757349 0 0.38513711431054509 0.69312683393047636 0 0.43412357948152142 0.72128778687215156 0 0.43412357948152142 0.72128778687215156 0 0.38513711431054509 0.69312683393047636 0 0.4390556798454946 0.66199025953586599 0 0.43412357948152142 0.72128778687215156 0 0.47636314644728822 0.72058823529411908 0 0.47220206448452873 0.74892462649306213 0 0.44651949253391748 0.77225997208621999 0 0.43412357948152142 0.72128778687215156 0 0.47220206448452873 0.74892462649306213 0 0.43412357948152142 0.72128778687215156 0 0.4390556798454946 0.66199025953586599 0 0.46330219403010409 0.69594601192744354 0 0.43412357948152142 0.72128778687215156 0 0.46330219403010409 0.69594601192744354 0 0.47636314644728822 0.72058823529411908 0 0.46330219403010409 0.69594601192744354 0 0.5 0.70588235294117663 0 0.47636314644728822 0.72058823529411908 0 0.5 0.67647058823529438 0 0.5 0.70588235294117663 0 0.46330219403010409 0.69594601192744354 0 0.5 0.70588235294117663 0 0.5 0.73529411764705888 0 0.47636314644728822 0.72058823529411908 0 0.5 0.73529411764705888 0 0.5 0.76470588235294124 0 0.47220206448452873 0.74892462649306213 0 0.47636314644728822 0.72058823529411908 0 0.5 0.73529411764705888 0 0.47220206448452873 0.74892462649306213 0 0.4390556798454946 0.66199025953586599 0 0.47271076880550111 0.63357150722538136 0 0.47501372853621993 0.66300743809067952 0 0.4390556798454946 0.66199025953586599 0 0.44702869549010399 0.61002701911053991 0 0.47271076880550111 0.63357150722538136 0 0.46330219403010409 0.69594601192744354 0 0.4390556798454946 0.66199025953586599 0 0.47501372853621993 0.66300743809067952 0 0.5 0.67647058823529438 0 0.46330219403010409 0.69594601192744354 0 0.47501372853621993 0.66300743809067952 0 0.5 0.64705882352941191 0 0.5 0.67647058823529438 0 0.47501372853621993 0.66300743809067952 0 0.47271076880550111 0.63357150722538136 0 0.5 0.64705882352941191 0 0.47501372853621993 0.66300743809067952 0 0.5 0.61764705882352966 0 0.5 0.64705882352941191 0 0.47271076880550111 0.63357150722538136 0 0.5 0.5882352941176473 0 0.5 0.61764705882352966 0 0.47784843225772261 0.60532339797118362 0 0.5 0.61764705882352966 0 0.47271076880550111 0.63357150722538136 0 0.47784843225772261 0.60532339797118362 0 0.5 0.55882352941176494 0 0.5 0.5882352941176473 0 0.46950269699300751 0.57713611057881953 0 0.46950269699300751 0.57713611057881953 0 0.5 0.5882352941176473 0 0.47784843225772261 0.60532339797118362 0 0.44702869549010399 0.61002701911053991 0 0.41980724897053312 0.55867199730355355 0 0.46950269699300751 0.57713611057881953 0 0.44702869549010399 0.61002701911053991 0 0.46950269699300751 0.57713611057881953 0 0.47784843225772261 0.60532339797118362 0 0.47271076880550111 0.63357150722538136 0 0.44702869549010399 0.61002701911053991 0 0.47784843225772261 0.60532339797118362 0 0.3872154068451229 0.6301386882447304 0 0.41980724897053312 0.55867199730355355 0 0.44702869549010399 0.61002701911053991 0 0.32540781287085369 0.49175159894608172 0 0.41576443813007791 0.48093483781626972 0 0.41980724897053312 0.55867199730355355 0 0.41576443813007791 0.48093483781626972 0 0.4638583922372429 0.51470588235294135 0 0.41980724897053312 0.55867199730355355 0 0.41980724897053312 0.55867199730355355 0 0.4638583922372429 0.51470588235294135 0 0.47063366764015668 0.5477498568705923 0 0.46950269699300751 0.57713611057881953 0 0.41980724897053312 0.55867199730355355 0 0.47063366764015668 0.5477498568705923 0 0.5 0.55882352941176494 0 0.46950269699300751 0.57713611057881953 0 0.47063366764015668 0.5477498568705923 0 0.5 0.52941176470588269 0 0.5 0.55882352941176494 0 0.47063366764015668 0.5477498568705923 0 0.4638583922372429 0.51470588235294135 0 0.5 0.52941176470588269 0 0.47063366764015668 0.5477498568705923 0 0.5 0.5 0 0.5 0.52941176470588269 0 0.4638583922372429 0.51470588235294135 0 0.52820848765230954 0.54540076010342464 0 0.5 0.52941176470588269 0 0.52629893369322589 0.51330452493555312 0 0.5 0.52941176470588269 0 0.5 0.5 0 0.52629893369322589 0.51330452493555312 0 0.5 0.52941176470588269 0 0.5 0.5 0 0.5 0.55882352941176494 0 0.5 0.52941176470588269 0 0.52820848765230954 0.54540076010342464 0 0.5 0.55882352941176494 0 0.5 0.52941176470588269 0 0.52246722155046366 0.57417151085839346 0 0.5 0.55882352941176494 0 0.52820848765230954 0.54540076010342464 0 0.56199650931215228 0.51957997397013023 0 0.55931585964581554 0.57571189932143541 0 0.52820848765230954 0.54540076010342464 0 0.54128967150166729 0.47213012589832831 0 0.56199650931215228 0.51957997397013023 0 0.52629893369322589 0.51330452493555312 0 0.56199650931215228 0.51957997397013023 0 0.52820848765230954 0.54540076010342464 0 0.52629893369322589 0.51330452493555312 0 0.61174067805461174 0.54148194547208961 0 0.56199650931215228 0.51957997397013023 0 0.60345082206666756 0.47575908627627911 0 0.61174067805461174 0.54148194547208961 0 0.55931585964581554 0.57571189932143541 0 0.56199650931215228 0.51957997397013023 0 0.61264973759093866 0.60999664295093947 0 0.55931585964581554 0.57571189932143541 0 0.61174067805461174 0.54148194547208961 0 0.61264973759093866 0.60999664295093947 0 0.55828304378107996 0.63546085023637511 0 0.55931585964581554 0.57571189932143541 0 0.55931585964581554 0.57571189932143541 0 0.55828304378107996 0.63546085023637511 0 0.52754891270107895 0.60396918438229519 0 0.55828304378107996 0.63546085023637511 0 0.52222323737415433 0.63323059203007803 0 0.52754891270107895 0.60396918438229519 0 0.55931585964581554 0.57571189932143541 0 0.52246722155046366 0.57417151085839346 0 0.52820848765230954 0.54540076010342464 0 0.55931585964581554 0.57571189932143541 0 0.52754891270107895 0.60396918438229519 0 0.52246722155046366 0.57417151085839346 0 0.52754891270107895 0.60396918438229519 0 0.5 0.5882352941176473 0 0.52246722155046366 0.57417151085839346 0 0.5 0.5882352941176473 0 0.5 0.55882352941176494 0 0.52246722155046366 0.57417151085839346 0 0.5 0.5882352941176473 0 0.5 0.55882352941176494 0 0.52222323737415433 0.63323059203007803 0 0.5 0.61764705882352966 0 0.52754891270107895 0.60396918438229519 0 0.5 0.61764705882352966 0 0.5 0.5882352941176473 0 0.5 0.61764705882352966 0 0.5 0.5882352941176473 0 0.52754891270107895 0.60396918438229519 0 0.5 0.64705882352941191 0 0.5 0.61764705882352966 0 0.52222323737415433 0.63323059203007803 0 0.5 0.64705882352941191 0 0.5 0.61764705882352966 0 0.52736180768426655 0.66304505109048573 0 0.5 0.64705882352941191 0 0.52222323737415433 0.63323059203007803 0 0.5 0.67647058823529438 0 0.5 0.64705882352941191 0 0.52736180768426655 0.66304505109048573 0 0.5 0.67647058823529438 0 0.5 0.64705882352941191 0 0.52189318962165776 0.69193883095305098 0 0.5 0.67647058823529438 0 0.52736180768426655 0.66304505109048573 0 0.55852327729743823 0.69498827241231187 0 0.52189318962165776 0.69193883095305098 0 0.52736180768426655 0.66304505109048573 0 0.55828304378107996 0.63546085023637511 0 0.55852327729743823 0.69498827241231187 0 0.52736180768426655 0.66304505109048573 0 0.55828304378107996 0.63546085023637511 0 0.52736180768426655 0.66304505109048573 0 0.52222323737415433 0.63323059203007803 0 0.5 0.73529411764705888 0 0.52547133540542634 0.72058823529411897 0 0.5211984712236245 0.75134107022269114 0 0.5 0.73529411764705888 0 0.5 0.70588235294117663 0 0.52547133540542634 0.72058823529411897 0 0.5 0.73529411764705888 0 0.5 0.70588235294117663 0 0.5 0.70588235294117663 0 0.52189318962165776 0.69193883095305098 0 0.52547133540542634 0.72058823529411897 0 0.5 0.70588235294117663 0 0.5 0.67647058823529438 0 0.52189318962165776 0.69193883095305098 0 0.5 0.70588235294117663 0 0.5 0.67647058823529438 0 0.52189318962165776 0.69193883095305098 0 0.55852327729743823 0.69498827241231187 0 0.52547133540542634 0.72058823529411897 0 0.52547133540542634 0.72058823529411897 0 0.55458114032207428 0.75544804615062711 0 0.5211984712236245 0.75134107022269114 0 0.55852327729743823 0.69498827241231187 0 0.55458114032207428 0.75544804615062711 0 0.52547133540542634 0.72058823529411897 0 0.6088970477846376 0.72715446211577472 0 0.55458114032207428 0.75544804615062711 0 0.55852327729743823 0.69498827241231187 0 0.6088970477846376 0.72715446211577472 0 0.55852327729743823 0.69498827241231187 0 0.60110770968787908 0.67045598539422102 0 0.60110770968787908 0.67045598539422102 0 0.55828304378107996 0.63546085023637511 0 0.61264973759093866 0.60999664295093947 0 0.60110770968787908 0.67045598539422102 0 0.55852327729743823 0.69498827241231187 0 0.55828304378107996 0.63546085023637511 0 0.66621429167335955 0.68470300534742679 0 0.60110770968787908 0.67045598539422102 0 0.61264973759093866 0.60999664295093947 0 0.6088970477846376 0.72715446211577472 0 0.66621429167335955 0.68470300534742679 0 0.6817340940367822 0.76923101696744944 0 0.66621429167335955 0.68470300534742679 0 0.6088970477846376 0.72715446211577472 0 0.60110770968787908 0.67045598539422102 0 0.6817340940367822 0.76923101696744944 0 0.66621429167335955 0.68470300534742679 0 0.7828103453665094 0.69876044407634474 0 0.66621429167335955 0.68470300534742679 0 0.69354174170208815 0.57892485983477626 0 0.7828103453665094 0.69876044407634474 0 0.69354174170208815 0.57892485983477626 0 0.66681557370681976 0.49435464945626773 0 0.77935529174931761 0.49004815756283893 0 0.61174067805461174 0.54148194547208961 0 0.66681557370681976 0.49435464945626773 0 0.69354174170208815 0.57892485983477626 0 0.66681557370681976 0.49435464945626773 0 0.61174067805461174 0.54148194547208961 0 0.60345082206666756 0.47575908627627911 0 0.61264973759093866 0.60999664295093947 0 0.61174067805461174 0.54148194547208961 0 0.69354174170208815 0.57892485983477626 0 0.66621429167335955 0.68470300534742679 0 0.61264973759093866 0.60999664295093947 0 0.69354174170208815 0.57892485983477626 0 0.63938141097836054 1 0 0.57768176564240026 1 0 0.60145933092659498 0.94808652648958736 0 0.60145933092659498 0.94808652648958736 0 0.55381003699196441 0.97073734537240042 0 0.55652711631508067 0.93435010280744335 0 0.57768176564240026 1 0 0.55381003699196441 0.97073734537240042 0 0.60145933092659498 0.94808652648958736 0 0.57768176564240026 1 0 0.53273812861558045 1 0 0.55381003699196441 0.97073734537240042 0 0.55381003699196441 0.97073734537240042 0 0.53273812861558045 1 0 0.52191028766292435 0.97912620202886635 0 0.53273812861558045 1 0 0.5 1 0 0.52191028766292435 0.97912620202886635 0 0.5 1 0 0.5 0.97058823529411764 0 0.52191028766292435 0.97912620202886635 0 0.5 1 0 0.5 0.97058823529411764 0 0.5 0.97058823529411764 0 0.5 0.94117647058823528 0 0.5 0.97058823529411764 0 0.5 0.94117647058823528 0 0.52554900427979434 0.95492408164812537 0 0.5 0.97058823529411764 0 0.52554900427979434 0.95492408164812537 0 0.52191028766292435 0.97912620202886635 0 0.5 0.94117647058823528 0 0.52149395742518578 0.9280464911497236 0 0.52554900427979434 0.95492408164812537 0 0.55381003699196441 0.97073734537240042 0 0.52554900427979434 0.95492408164812537 0 0.55652711631508067 0.93435010280744335 0 0.52554900427979434 0.95492408164812537 0 0.55381003699196441 0.97073734537240042 0 0.52191028766292435 0.97912620202886635 0 0.52554900427979434 0.95492408164812537 0 0.52149395742518578 0.9280464911497236 0 0.55652711631508067 0.93435010280744335 0 0.52982914238326484 0.89727189043838895 0 0.57507719038536997 0.89743529736491356 0 0.55652711631508067 0.93435010280744335 0 0.52149395742518578 0.9280464911497236 0 0.52982914238326484 0.89727189043838895 0 0.55652711631508067 0.93435010280744335 0 0.52149395742518578 0.9280464911497236 0 0.5 0.91176470588235292 0 0.52982914238326484 0.89727189043838895 0 0.5 0.94117647058823528 0 0.5 0.91176470588235292 0 0.5 0.94117647058823528 0 0.5 0.91176470588235292 0 0.52149395742518578 0.9280464911497236 0 0.5 0.91176470588235292 0 0.5 0.88235294117647056 0 0.52982914238326484 0.89727189043838895 0 0.5 0.91176470588235292 0 0.5 0.88235294117647056 0 0.52982914238326484 0.89727189043838895 0 0.5 0.88235294117647056 0 0.51991574276818808 0.86764705882352966 0 0.54799184932697576 0.8599032232094268 0 0.57507719038536997 0.89743529736491356 0 0.52982914238326484 0.89727189043838895 0 0.57507719038536997 0.89743529736491356 0 0.60145933092659498 0.94808652648958736 0 0.55652711631508067 0.93435010280744335 0 0.63427031498547037 0.88927276979110648 0 0.60145933092659498 0.94808652648958736 0 0.57507719038536997 0.89743529736491356 0 0.63427031498547037 0.88927276979110648 0 0.57507719038536997 0.89743529736491356 0 0.58994607995897996 0.84812355238296233 0 0.63427031498547037 0.88927276979110648 0 0.58994607995897996 0.84812355238296233 0 0.64153141236229239 0.83072478436463804 0 0.64153141236229239 0.83072478436463804 0 0.58994607995897996 0.84812355238296233 0 0.60049020024666178 0.78900583008989877 0 0.55206941203846505 0.81091931303809783 0 0.58994607995897996 0.84812355238296233 0 0.54799184932697576 0.8599032232094268 0 0.60049020024666178 0.78900583008989877 0 0.58994607995897996 0.84812355238296233 0 0.55206941203846505 0.81091931303809783 0 0.58994607995897996 0.84812355238296233 0 0.57507719038536997 0.89743529736491356 0 0.54799184932697576 0.8599032232094268 0 0.54799184932697576 0.8599032232094268 0 0.52982914238326484 0.89727189043838895 0 0.51991574276818808 0.86764705882352966 0 0.52395085592512047 0.83729395211968571 0 0.54799184932697576 0.8599032232094268 0 0.51991574276818808 0.86764705882352966 0 0.5 0.85294117647058831 0 0.52395085592512047 0.83729395211968571 0 0.51991574276818808 0.86764705882352966 0 0.5 0.88235294117647056 0 0.5 0.85294117647058831 0 0.5 0.88235294117647056 0 0.5 0.85294117647058831 0 0.51991574276818808 0.86764705882352966 0 0.52395085592512047 0.83729395211968571 0 0.5 0.82352941176470584 0 0.52039202967084142 0.80930587873000437 0 0.5 0.85294117647058831 0 0.5 0.82352941176470584 0 0.5 0.85294117647058831 0 0.5 0.82352941176470584 0 0.52395085592512047 0.83729395211968571 0 0.55206941203846505 0.81091931303809783 0 0.52395085592512047 0.83729395211968571 0 0.52039202967084142 0.80930587873000437 0 0.55206941203846505 0.81091931303809783 0 0.54799184932697576 0.8599032232094268 0 0.52395085592512047 0.83729395211968571 0 0.52593988039062167 0.78066906966870908 0 0.55206941203846505 0.81091931303809783 0 0.52039202967084142 0.80930587873000437 0 0.55458114032207428 0.75544804615062711 0 0.55206941203846505 0.81091931303809783 0 0.52593988039062167 0.78066906966870908 0 0.5 0.79411764705882359 0 0.52593988039062167 0.78066906966870908 0 0.52039202967084142 0.80930587873000437 0 0.5 0.82352941176470584 0 0.5 0.79411764705882359 0 0.5 0.82352941176470584 0 0.5 0.79411764705882359 0 0.52039202967084142 0.80930587873000437 0 0.5 0.76470588235294124 0 0.5 0.73529411764705888 0 0.5 0.76470588235294124 0 0.5 0.73529411764705888 0 0.5211984712236245 0.75134107022269114 0 0.5 0.79411764705882359 0 0.5 0.76470588235294124 0 0.52593988039062167 0.78066906966870908 0 0.5 0.79411764705882359 0 0.5 0.76470588235294124 0 0.52593988039062167 0.78066906966870908 0 0.5 0.76470588235294124 0 0.5211984712236245 0.75134107022269114 0 0.55458114032207428 0.75544804615062711 0 0.52593988039062167 0.78066906966870908 0 0.5211984712236245 0.75134107022269114 0 0.60049020024666178 0.78900583008989877 0 0.55458114032207428 0.75544804615062711 0 0.6088970477846376 0.72715446211577472 0 0.60049020024666178 0.78900583008989877 0 0.55206941203846505 0.81091931303809783 0 0.55458114032207428 0.75544804615062711 0 0.6817340940367822 0.76923101696744944 0 0.80987878298654392 0.8110307373443908 0 0.70916369539323409 0.86041409043207073 0 0.60049020024666178 0.78900583008989877 0 0.6088970477846376 0.72715446211577472 0 0.6817340940367822 0.76923101696744944 0 0.64153141236229239 0.83072478436463804 0 0.60049020024666178 0.78900583008989877 0 0.6817340940367822 0.76923101696744944 0 0.63427031498547037 0.88927276979110648 0 0.64153141236229239 0.83072478436463804 0 0.70916369539323409 0.86041409043207073 0 0.64153141236229239 0.83072478436463804 0 0.6817340940367822 0.76923101696744944 0 0.70916369539323409 0.86041409043207073 0 0.68173274398262862 0.93660593960145366 0 0.63427031498547037 0.88927276979110648 0 0.70916369539323409 0.86041409043207073 0 0.68173274398262862 0.93660593960145366 0 0.60145933092659498 0.94808652648958736 0 0.63427031498547037 0.88927276979110648 0 0.78222494485339233 0.91531439423588867 0 0.68173274398262862 0.93660593960145366 0 0.70916369539323409 0.86041409043207073 0 0.72408407698689681 1 0 0.68173274398262862 0.93660593960145366 0 0.78222494485339233 0.91531439423588867 0 0.68173274398262862 0.93660593960145366 0 0.63938141097836054 1 0 0.60145933092659498 0.94808652648958736 0 0.72408407698689681 1 0 0.63938141097836054 1 0 0.68173274398262862 0.93660593960145366 0 1 0.74999999999934008 0 1 1 0 0.89611933618281592 0.89173516444576184 0 0.84036581271988753 1 0 0.72408407698689681 1 0 0.78222494485339233 0.91531439423588867 0 0.84036581271988753 1 0 0.78222494485339233 0.91531439423588867 0 0.89611933618281592 0.89173516444576184 0 0.80987878298654392 0.8110307373443908 0 0.6817340940367822 0.76923101696744944 0 0.7828103453665094 0.69876044407634474 0 1 0.74999999999934008 0 0.80987878298654392 0.8110307373443908 0 0.7828103453665094 0.69876044407634474 0 0.78222494485339233 0.91531439423588867 0 0.80987878298654392 0.8110307373443908 0 0.89611933618281592 0.89173516444576184 0 0.80987878298654392 0.8110307373443908 0 0.78222494485339233 0.91531439423588867 0 0.70916369539323409 0.86041409043207073 0 0.80987878298654392 0.8110307373443908 0 1 0.74999999999934008 0 0.89611933618281592 0.89173516444576184 0 1 1 0 0.84036581271988753 1 0 0.89611933618281592 0.89173516444576184 0 1 0.49999999999869182 0 1 0.74999999999934008 0 0.84549316180028322 0.59867304496468476 0 0.84549316180028322 0.59867304496468476 0 0.69354174170208815 0.57892485983477626 0 0.77935529174931761 0.49004815756283893 0 1 0.49999999999869182 0 0.84549316180028322 0.59867304496468476 0 0.77935529174931761 0.49004815756283893 0 0.69354174170208815 0.57892485983477626 0 0.84549316180028322 0.59867304496468476 0 0.7828103453665094 0.69876044407634474 0 0.84549316180028322 0.59867304496468476 0 1 0.74999999999934008 0 0.7828103453665094 0.69876044407634474 0 0.80451351819826811 0.35479918680564199 0 1 0.49999999999869182 0 0.77935529174931761 0.49004815756283893 0 1 0.24999999999941089 0 0.80451351819826811 0.35479918680564199 0 0.79923457477009219 0.1751534052300894 0 1 0.24999999999941089 0 1 0.49999999999869182 0 0.80451351819826811 0.35479918680564199 0 0.74999999999934008 0 0 1 0 0 0.79923457477009219 0.1751534052300894 0 1 0 0 1 0.24999999999941089 0 0.79923457477009219 0.1751534052300894 0 0.49999999999869182 0 0 0.74999999999934008 0 0 0.62537763927714929 0.14286513648320209 0 0.62537763927714929 0.14286513648320209 0 0.79923457477009219 0.1751534052300894 0 0.6197279975813802 0.30020319976287241 0 0.62537763927714929 0.14286513648320209 0 0.74999999999934008 0 0 0.79923457477009219 0.1751534052300894 0 0.49999999999869182 0 0 0.62537763927714929 0.14286513648320209 0 0.49924741621175961 0.21507969613896921 0 0.62537763927714929 0.14286513648320209 0 0.6197279975813802 0.30020319976287241 0 0.49924741621175961 0.21507969613896921 0 0.6197279975813802 0.30020319976287241 0 0.49435464945626773 0.33318442629318029 0 0.49924741621175961 0.21507969613896921 0 0.54876010062294855 0.39662628167175101 0 0.49435464945626773 0.33318442629318029 0 0.6197279975813802 0.30020319976287241 0 0.66576775508844777 0.41353720431697111 0 0.54876010062294855 0.39662628167175101 0 0.6197279975813802 0.30020319976287241 0 0.49954900152271581 0.45107191084564019 0 0.45418244162583959 0.41624787166862259 0 0.54876010062294855 0.39662628167175101 0 0.54128967150166729 0.47213012589832831 0 0.49954900152271581 0.45107191084564019 0 0.54876010062294855 0.39662628167175101 0 0.54128967150166729 0.47213012589832831 0 0.5 0.5 0 0.49954900152271581 0.45107191084564019 0 0.5 0.5 0 0.54128967150166729 0.47213012589832831 0 0.52629893369322589 0.51330452493555312 0 0.60345082206666756 0.47575908627627911 0 0.54128967150166729 0.47213012589832831 0 0.54876010062294855 0.39662628167175101 0 0.60345082206666756 0.47575908627627911 0 0.56199650931215228 0.51957997397013023 0 0.54128967150166729 0.47213012589832831 0 0.66576775508844777 0.41353720431697111 0 0.60345082206666756 0.47575908627627911 0 0.54876010062294855 0.39662628167175101 0 0.66576775508844777 0.41353720431697111 0 0.80451351819826811 0.35479918680564199 0 0.77935529174931761 0.49004815756283893 0 0.66681557370681976 0.49435464945626773 0 0.60345082206666756 0.47575908627627911 0 0.66576775508844777 0.41353720431697111 0 0.66681557370681976 0.49435464945626773 0 0.66576775508844777 0.41353720431697111 0 0.77935529174931761 0.49004815756283893 0 0.79923457477009219 0.1751534052300894 0 0.80451351819826811 0.35479918680564199 0 0.6197279975813802 0.30020319976287241 0 0.80451351819826811 0.35479918680564199 0 0.66576775508844777 0.41353720431697111 0 0.6197279975813802 0.30020319976287241 0 
</DataArray>
</Points>
<Cells>
<DataArray type="UInt32" Name="connectivity" format="ascii">
0 1 2 3 4 5 6 7 8 9 10 11 12 13 14 15 16 17 18 19 20 21 22 23 24 25 26 27 28 29 30 31 32 33 34 35 36 37 38 39 40 41 42 43 44 45 46 47 48 49 50 51 52 53 54 55 56 57 58 59 60 61 62 63 64 65 66 67 68 69 70 71 72 73 74 75 76 77 78 79 80 81 82 83 84 85 86 87 88 89 90 91 92 93 94 95 96 97 98 99 100 101 102 103 104 105 106 107 108 109 110 111 112 113 114 115 116 117 118 119 120 121 122 123 124 125 126 127 128 129 130 131 132 133 134 135 136 137 138 139 140 141 142 143 144 145 146 147 148 149 150 151 152 153 154 155 156 157 158 159 160 161 162 163 164 165 166 167 168 169 170 171 172 173 174 175 176 177 178 179 180 181 182 183 184 185 186 187 188 189 190 191 192 193 194 195 196 197 198 199 200 201 202 203 204 205 206 207 208 209 210 211 212 213 214 215 216 217 218 219 220 221 222 223 224 225 226 227 228 229 230 231 232 233 234 235 236 237 238 239 240 241 242 243 244 245 246 247 248 249 250 251 252 253 254 255 256 257 258 259 260 261 262 263 264 265 266 267 268 269 270 271 272 273 274 275 276 277 278 279 280 281 282 283 284 285 286 287 288 289 290 291 292 293 294 295 296 297 298 299 300 301 302 303 304 305 306 307 308 309 310 311 312 313 314 315 316 317 318 319 320 321 322 323 324 325 326 327 328 329 330 331 332 333 334 335 336 337 338 339 340 341 342 343 344 345 346 347 348 349 350 351 352 353 354 355 356 357 358 359 360 361 362 363 364 365 366 367 368 369 370 371 372 373 374 375 376 377 378 379 380 381 382 383 384 385 386 387 388 389 390 391 392 393 394 395 396 397 398 399 400 401 402 403 404 405 406 407 408 409 410 411 412 413 414 415 416 417 418 419 420 421 422 423 424 425 426 427 428 429 430 431 432 433 434 435 436 437 438 439 440 441 442 443 444 445 446 447 448 449 450 451 452 453 454 455 456 457 458 459 460 461 462 463 464 465 466 467 468 469 470 471 472 473 474 475 476 477 478 479 480 481 482 483 484 485 486 487 488 489 490 491 492 493 494 495 496 497 498 499 500 501 502 503 504 505 506 507 508 509 510 511 512 513 514 515 516 517 518 519 520 521 522 523 524 525 526 527 528 529 530 531 532 533 534 535 536 537 538 539 540 541 542 543 544 545 546 547 548 549 550 551 552 553 554 555 556 557 558 559 560 561 562 563 564 565 566 567 568 569 570 571 572 573 574 575 576 577 578 579 580 581 582 583 584 585 586 587 588 589 590 591 592 593 594 595 596 597 598 599 600 601 602 603 604 605 606 607 608 609 610 611 612 613 614 615 616 617 618 619 620 621 622 623 624 625 626 627 628 629 630 631 632 633 634 635 636 637 638 639 640 641 642 643 644 645 646 647 648 649 650 651 652 653 654 655 656 657 658 659 660 661 662 663 664 665 666 667 668 669 670 671 672 673 674 675 676 677 678 679 680 681 682 683 684 685 686 687 688 689 690 691 692 693 694 695 696 697 698 699 700 701 702 703 704 705 706 707 708 709 710 711 712 713 714 715 716 717 718 719 720 721 722 723 724 725 726 727 728 729 730 731 732 733 734 735 736 737 738 739 740 741 742 743 744 745 746 747 748 749 750 751 752 753 754 755 756 757 758 759 760 761 762 763 764 765 766 767 768 769 770 771 772 773 774 775 776 777 778 779 780 781 782 783 784 785 786 787 788 789 790 791 792 793 794 795 796 797 798 799 800 801 802 803 804 805 806 807 808 809 810 811 812 813 814 815 816 817 818 819 820 821 822 823 824 825 826 827 828 829 830 831 832 833 834 835 836 837 838 839 840 841 842 843 844 845 846 847 848 849 850 851 852 853 854 855 856 857 858 859 860 861 862 863 864 865 866 867 868 869 870 871 872 873 874 875 876 877 878 879 
</DataArray>
<DataArray type="UInt32" Name="offsets" format="ascii">
3 6 9 12 15 18 21 24 27 30 33 36 39 42 45 48 51 54 57 60 63 66 69 72 75 78 81 84 87 90 93 96 99 102 105 108 111 114 117 120 123 126 129 132 135 138 141 144 147 150 153 156 159 162 165 168 171 174 177 180 183 186 189 192 195 198 201 204 207 210 213 216 219 222 225 228 231 234 237 240 243 246 249 252 255 258 261 264 267 270 273 276 279 282 285 288 291 294 297 300 303 306 309 312 315 318 321 324 327 330 333 336 339 342 345 348 351 354 357 360 363 366 369 372 375 378 381 384 387 390 393 396 399 402 405 408 411 414 417 420 423 425 428 430 433 436 439 442 445 448 451 454 457 460 463 466 469 472 474 477 479 482 485 487 490 493 495 498 501 504 507 510 513 515 518 521 523 526 529 532 535 538 541 544 547 550 553 556 559 562 565 568 571 574 577 580 583 586 589 592 595 597 599 602 605 608 611 614 617 620 623 626 628 631 634 636 639 642 645 648 651 654 657 660 663 666 669 672 675 677 680 683 685 688 691 694 697 700 703 705 708 710 713 716 718 721 724 727 730 733 736 739 742 745 748 751 754 757 760 763 766 769 772 775 778 781 784 787 790 793 796 799 802 805 808 811 814 817 820 823 826 829 832 835 838 841 844 847 850 853 856 859 862 865 868 871 874 877 880 
</DataArray>
<DataArray type="UInt32" Name="types" format="ascii">
5 5 5 5 5 5 5 5 5 5 5 5 5 5 5 5 5 5 5 5 5 5 5 5 5 5 5 5 5 5 5 5 5 5 5 5 5 5 5 5 5 5 5 5 5 5 5 5 5 5 5 5 5 5 5 5 5 5 5 5 5 5 5 5 5 5 5 5 5 5 5 5 5 5 5 5 5 5 5 5 5 5 5 5 5 5 5 5 5 5 5 5 5 5 5 5 5 5 5 5 5 5 5 5 5 5 5 5 5 5 5 5 5 5 5 5 5 5 5 5 5 5 5 5 5 5 5 5 5 5 5 5 5 5 5 5 5 5 5 5 5 3 5 3 5 5 5 5 5 5 5 5 5 5 5 5 5 5 3 5 3 5 5 3 5 5 3 5 5 5 5 5 5 3 5 5 3 5 5 5 5 5 5 5 5 5 5 5 5 5 5 5 5 5 5 5 5 5 5 5 5 3 3 5 5 5 5 5 5 5 5 5 3 5 5 3 5 5 5 5 5 5 5 5 5 5 5 5 5 3 5 5 3 5 5 5 5 5 5 3 5 3 5 5 3 5 5 5 5 5 5 5 5 5 5 5 5 5 5 5 5 5 5 5 5 5 5 5 5 5 5 5 5 5 5 5 5 5 5 5 5 5 5 5 5 5 5 5 5 5 5 5 5 5 5 5 5 5 5 
</DataArray>
</Cells>
<PointData Scalars="" Vectors="displacement," Tensors="">
<DataArray type="Float64" Name="displacement" NumberOfComponents="3" format="ascii">
5.4737131809391921e-05 1.8862150821988914e-05 0 -1.204415145286541e-05 4.298407164212338e-05 0 0.03273798566321949 0.026307862605805182 0 -1.204415145286541e-05 4.298407164212338e-05 0 -0.013496928606208849 0.025676770469454806 0 0.03273798566321949 0.026307862605805182 0 -0.013496928606208849 0.025676770469454806 0 -0.08532232894814 -0.075374501348134684 0 0.046866220447738312 0.014704564217735458 0 -0.013496928606208849 0.025676770469454806 0 0.046866220447738312 0.014704564217735458 0 0.03273798566321949 0.026307862605805182 0 0.046866220447738312 0.014704564217735458 0 -0.08532232894814 -0.075374501348134684 0 0.070764582931705206 -0.066748235192160013 0 0.13192845008959569 0.0011732046469687908 0 0.046866220447738319 0.014704564217735465 0 0.070764582931705206 -0.066748235192160013 0 0.21131770369382838 -0.0015633034884487145 0 0.20014810047679599 -0.0075629218783568024 0 0.16178048295627559 0.002892018498789633 0 0.13192845008959569 0.0011732046469687908 0 0.21131770369382838 -0.0015633034884487145 0 0.16178048295627559 0.002892018498789633 0 0.21131770369382838 -0.0015633034884487145 0 0.2504742672241374 -0.00058520241206620467 0 0.20014810047679599 -0.0075629218783568024 0 0.2504742672241374 -0.00058520241206620467 0 0.21928533059583813 -0.011498647350884648 0 0.20014810047679599 -0.0075629218783568024 0 0.26210371937083143 -0.016349454769881915 0 0.30345487288724288 0.020295600302529297 0 0.2504742672241374 -0.00058520241206620467 0 0.2504742672241374 -0.00058520241206620467 0 0.30345487288724288 0.020295600302529294 0 0.21928533059583813 -0.011498647350884648 0 0.26210371937083143 -0.016349454769881915 0 0.2504742672241374 -0.00058520241206620467 0 0.21131770369382838 -0.0015633034884487145 0 0.21131770369382838 -0.0015633034884487145 0 0.1618150149417287 -0.047441984261235616 0 0.23349344758613974 -0.085722506840118159 0 0.1618150149417287 -0.047441984261235616 0 0.21131770369382838 -0.0015633034884487145 0 0.13192845008959569 0.0011732046469687908 0 0.1618150149417287 -0.047441984261235616 0 0.13192845008959569 0.0011732046469687908 0 0.070764582931705206 -0.066748235192160013 0 0.046866220447738312 0.014704564217735458 0 0.13192845008959569 0.0011732046469687908 0 0.10093051052361854 0.014377166734133664 0 0.13192845008959569 0.0011732046469687908 0 0.16178048295627559 0.0028920184987896317 0 0.10093051052361854 0.014377166734133664 0 0.03273798566321949 0.026307862605805182 0 0.046866220447738312 0.014704564217735458 0 0.10093051052361854 0.014377166734133664 0 0.13424713784819353 -0.01271113085670283 0 0.057977596221741971 0.0081634140754396831 0 0.10093051052361854 0.014377166734133664 0 0.16178048295627559 0.002892018498789633 0 0.13424713784819353 -0.01271113085670283 0 0.10093051052361854 0.014377166734133664 0 0.20014810047679599 -0.0075629218783568024 0 0.13424713784819353 -0.01271113085670283 0 0.16178048295627559 0.002892018498789633 0 8.0640870126136711e-05 -9.0122417183559324e-06 0 5.4737131809391921e-05 1.8862150821988914e-05 0 0.057977596221741971 0.0081634140754396831 0 8.0640870126136711e-05 -9.0122417183559324e-06 0 0.057977596221741971 0.0081634140754396831 0 0.079135016625587126 -0.013103709762455779 0 0.057977596221741971 0.0081634140754396831 0 0.13424713784819353 -0.01271113085670283 0 0.079135016625587126 -0.013103709762455779 0 0.057977596221741971 0.0081634140754396831 0 0.03273798566321949 0.026307862605805182 0 0.10093051052361854 0.014377166734133664 0 0.057977596221741971 0.0081634140754396831 0 5.4737131809391921e-05 1.8862150821988914e-05 0 0.03273798566321949 0.026307862605805182 0 2.62263799625206e-05 -2.5962144641436699e-05 0 8.0640870126136711e-05 -9.0122417183559324e-06 0 0.043158500307739121 -0.023166296382208785 0 2.62263799625206e-05 -2.5962144641436699e-05 0 0.043158500307739121 -0.023166296382208785 0 0.033096254869655513 -0.026458744029815087 0 0.043158500307739121 -0.023166296382208785 0 0.058891008733737739 -0.026038429262900151 0 0.033096254869655513 -0.026458744029815087 0 0.093771113447078364 -0.024156282185321759 0 0.043158500307739121 -0.023166296382208785 0 0.079135016625587126 -0.013103709762455779 0 0.043158500307739121 -0.023166296382208785 0 8.064087012613911e-05 -9.0122417183552632e-06 0 0.079135016625587126 -0.013103709762455779 0 2.2168720990108872e-05 -1.0759600566509312e-05 0 2.62263799625206e-05 -2.5962144641436699e-05 0 0.0064600094425296397 -0.013539968457504123 0 0.0090747837831336876 -0.019383923889601896 0 2.2168720990108872e-05 -1.0759600566509312e-05 0 0.0064600094425296397 -0.013539968457504123 0 2.62263799625206e-05 -2.5962144641436699e-05 0 0.015281560660177541 -0.02065228447792785 0 0.0064600094425296397 -0.013539968457504123 0 0.0097596691065737172 -0.022829746054846504 0 0.015281560660177541 -0.02065228447792785 0 0.023197699857976053 -0.023830404798228896 0 0.015281560660177541 -0.02065228447792785 0 2.62263799625206e-05 -2.5962144641436699e-05 0 0.033096254869655513 -0.026458744029815087 0 0.015281560660177541 -0.02065228447792785 0 0.033096254869655513 -0.026458744029815087 0 0.023197699857976053 -0.023830404798228896 0 0.015281560660177541 -0.02065228447792785 0 0.0097596691065737172 -0.022829746054846504 0 0.0064600094425296397 -0.013539968457504123 0 0.0097596691065737172 -0.022829746054846504 0 0.0090747837831336876 -0.019383923889601896 0 0.0064600094425296397 -0.013539968457504123 0 0.0057672757080737581 -0.020837782198915258 0 0.0090747837831336876 -0.019383923889601896 0 0.0097596691065737172 -0.022829746054846504 0 0.0021210732987263928 -0.012577106862687476 0 0.0057672757080737581 -0.020837782198915258 0 0.0087162913655673777 -0.016973984882442644 0 0.0021210732987263928 -0.012577106862687476 0 0.0087162913655673777 -0.016973984882442644 0 0.0065050486338140406 -0.0084569105819720901 0 0.0087162913655673777 -0.016973984882442644 0 0.0057672757080737581 -0.020837782198915258 0 0.0097596691065737172 -0.022829746054846504 0 0.014889894134125947 -0.018365566232798409 0 0.0087162913655673777 -0.016973984882442644 0 0.0097596691065737172 -0.022829746054846504 0 0.0065050486338140406 -0.0084569105819720901 0 0.0087162913655673777 -0.016973984882442644 0 0.012766575502606245 -0.011154668106082254 0 0.012766575502606245 -0.011154668106082254 0 0.0087162913655673777 -0.016973984882442644 0 0.014889894134125947 -0.018365566232798409 0 0.014889894134125947 -0.018365566232798409 0 0.0097596691065737172 -0.022829746054846504 0 0.023197699857976053 -0.023830404798228896 0 0.012766575502606245 -0.011154668106082254 0 0.014889894134125947 -0.018365566232798409 0 0.022523341623158184 -0.014409293391560388 0 0.022523341623158184 -0.014409293391560388 0 0.014889894134125947 -0.018365566232798409 0 0.023197699857976053 -0.023830404798228896 0 0.033096254869655513 -0.026458744029815087 0 0.037973142125157566 -0.021630570136257167 0 0.023197699857976053 -0.023830404798228896 0 0.037973142125157566 -0.021630570136257167 0 0.02252334162315818 -0.014409293391560388 0 0.023197699857976053 -0.023830404798228896 0 0.022523341623158184 -0.014409293391560388 0 0.037973142125157559 -0.021630570136257164 0 0.035822352933313227 -0.01039379486020707 0 0.025113261953735189 -0.002791843597237771 0 0.022523341623158184 -0.014409293391560388 0 0.035822352933313227 -0.01039379486020707 0 0.033277661554221807 0.0014787198495753132 0 0.025113261953735189 -0.0027918435972377714 0 0.035822352933313227 -0.01039379486020707 0 0.033277661554221807 0.0014787198495753132 0 0.035822352933313227 -0.01039379486020707 0 0.047375902615266877 -0.0018734496945724021 0 0.033277661554221807 0.0014787198495753132 0 0.03975958508801148 0.0092662050048166449 0 0.032705237175163257 0.0092987377718403135 0 0.03975958508801148 0.0092662050048166449 0 0.036272867826144521 0.015887552963085846 0 0.032705237175163257 0.0092987377718403135 0 0.036272867826144521 0.015887552963085846 0 0.029502708301948552 0.013258540863938581 0 0.032705237175163257 0.0092987377718403135 0 0.029502708301948552 0.013258540863938581 0 0.02391702688903892 0.011137006095391746 0 0.026389059032209668 0.0062835039115830271 0 0.029502708301948552 0.013258540863938581 0 0.026389059032209668 0.0062835039115830271 0 0.032705237175163257 0.0092987377718403135 0 0.026389059032209668 0.0062835039115830271 0 0.033277661554221807 0.0014787198495753117 0 0.032705237175163257 0.0092987377718403135 0 0.026389059032209668 0.0062835039115830271 0 0.025113261953735189 -0.002791843597237771 0 0.033277661554221807 0.0014787198495753132 0 0.020879904581903971 0.003471545048654968 0 0.025113261953735189 -0.0027918435972377714 0 0.026389059032209668 0.0062835039115830271 0 0.016638523202540265 -0.0029673553656996625 0 0.025113261953735189 -0.002791843597237771 0 0.020879904581903971 0.003471545048654968 0 0.02391702688903892 0.011137006095391746 0 0.019234560004098906 0.0096007312068298878 0 0.020879904581903971 0.003471545048654968 0 0.02391702688903892 0.011137006095391746 0 0.020879904581903971 0.0034715450486549671 0 0.026389059032209668 0.0062835039115830271 0 0.020879904581903971 0.003471545048654968 0 0.019234560004098906 0.0096007312068298878 0 0.016894371277175468 0.0042273103002910878 0 0.019234560004098906 0.0096007312068298878 0 0.015162415191901023 0.0083578212267686035 0 0.016894371277175468 0.0042273103002910878 0 0.016638523202540265 -0.0029673553656996625 0 0.020879904581903971 0.0034715450486549676 0 0.016894371277175468 0.0042273103002910878 0 0.016638523202540265 -0.0029673553656996625 0 0.012766575502606247 -0.011154668106082254 0 0.022523341623158184 -0.014409293391560388 0 0.016638523202540265 -0.0029673553656996625 0 0.022523341623158184 -0.014409293391560388 0 0.025113261953735189 -0.002791843597237771 0 0.0065050486338140406 -0.0084569105819720901 0 0.012766575502606245 -0.011154668106082254 0 0.010083733212465293 -0.0032576211556403687 0 0.010083733212465293 -0.0032576211556403687 0 0.012766575502606245 -0.011154668106082254 0 0.016638523202540265 -0.0029673553656996625 0 0.013165708526634358 0.002151072652137224 0 0.016638523202540265 -0.0029673553656996625 0 0.016894371277175468 0.0042273103002910878 0 0.010083733212465293 -0.0032576211556403687 0 0.016638523202540265 -0.0029673553656996625 0 0.013165708526634358 0.002151072652137224 0 0.015162415191901023 0.0083578212267686035 0 0.013165708526634358 0.0021510726521372235 0 0.016894371277175468 0.0042273103002910878 0 0.015162415191901023 0.0083578212267686035 0 0.011307142444430344 0.0075901682322047541 0 0.013165708526634358 0.002151072652137224 0 0.013165708526634358 0.002151072652137224 0 0.011307142444430342 0.007590168232204755 0 0.0091610649155076107 0.0030400419337331432 0 0.011307142444430344 0.0075901682322047541 0 0.0076754477095587669 0.0071278347095047193 0 0.0091610649155076107 0.0030400419337331432 0 0.010083733212465293 -0.0032576211556403687 0 0.013165708526634358 0.002151072652137224 0 0.0091610649155076107 0.0030400419337331432 0 0.0047799173179613021 -0.00040143730711433623 0 0.0091610649155076107 0.0030400419337331432 0 0.005780990157390236 0.0037454792920740038 0 0.0047799173179613021 -0.00040143730711433623 0 0.010083733212465293 -0.0032576211556403687 0 0.0091610649155076107 0.0030400419337331432 0 0.0047799173179613021 -0.00040143730711433623 0 0.005780990157390236 0.0037454792920740038 0 0.0029021810234403853 0.0039974068080457746 0 0.0091610649155076107 0.0030400419337331432 0 0.0076754477095587669 0.0071278347095047193 0 0.005780990157390236 0.0037454792920740038 0 0.005780990157390236 0.0037454792920740038 0 0.0039240033667648248 0.0069775119999647642 0 0.0029021810234403853 0.0039974068080457746 0 0.0076754477095587669 0.0071278347095047193 0 0.0039240033667648248 0.0069775119999647642 0 0.005780990157390236 0.0037454792920740038 0 -4.1940745343489102e-06 0.0069589638577433957 0 2.0419955145454667e-05 0.0024516251396778741 0 0.0029021810234403853 0.0039974068080457746 0 0.0039240033667648248 0.0069775119999647642 0 -4.1940745343489102e-06 0.0069589638577433957 0 0.0029021810234403853 0.0039974068080457746 0 2.0419955145454667e-05 0.0024516251396778741 0 0.0047799173179613021 -0.00040143730711433623 0 0.0029021810234403853 0.0039974068080457746 0 2.0419955145454667e-05 0.0024516251396778741 0 0.00043017410361459603 -0.0041057404056093422 0 0.0047799173179613021 -0.00040143730711433623 0 0.0047799173179613021 -0.00040143730711433623 0 0.0004301741036145962 -0.0041057404056093431 0 0.0065050486338140406 -0.0084569105819720901 0 0.0047799173179613021 -0.00040143730711433623 0 0.0065050486338140397 -0.0084569105819720901 0 0.010083733212465293 -0.0032576211556403687 0 0.00043017410361459603 -0.0041057404056093422 0 0.0021210732987263937 -0.012577106862687478 0 0.0065050486338140406 -0.0084569105819720901 0 0.093771113447078364 -0.024156282185321759 0 0.14681516231789832 -0.020374341789608865 0 0.086686440634992215 -0.020929044556007775 0 0.13424713784819353 -0.01271113085670283 0 0.14681516231789832 -0.020374341789608865 0 0.093771113447078364 -0.024156282185321759 0 0.13424713784819353 -0.01271113085670283 0 0.093771113447078364 -0.024156282185321759 0 0.079135016625587126 -0.013103709762455779 0 0.043158500307739121 -0.023166296382208785 0 0.093771113447078364 -0.024156282185321759 0 0.058891008733737739 -0.026038429262900151 0 0.058891008733737739 -0.026038429262900151 0 0.037973142125157566 -0.021630570136257167 0 0.033096254869655513 -0.026458744029815087 0 0.035822352933313227 -0.01039379486020707 0 0.037973142125157566 -0.021630570136257167 0 0.056333908064189968 -0.016337667620638343 0 0.056333908064189968 -0.016337667620638343 0 0.037973142125157566 -0.021630570136257167 0 0.058891008733737739 -0.026038429262900151 0 0.093771113447078364 -0.024156282185321759 0 0.086686440634992201 -0.020929044556007775 0 0.058891008733737739 -0.026038429262900151 0 0.086686440634992215 -0.020929044556007775 0 0.056333908064189968 -0.016337667620638343 0 0.058891008733737739 -0.026038429262900151 0 0.071683580503278499 -0.0018453592146258485 0 0.056333908064189968 -0.016337667620638343 0 0.086686440634992215 -0.020929044556007775 0 0.071683580503278499 -0.0018453592146258485 0 0.086686440634992215 -0.020929044556007775 0 0.10470868779233301 -0.001621642499713019 0 0.035822352933313227 -0.01039379486020707 0 0.056333908064189968 -0.016337667620638343 0 0.047375902615266877 -0.0018734496945724021 0 0.047375902615266877 -0.0018734496945724021 0 0.056333908064189968 -0.016337667620638343 0 0.071683580503278499 -0.0018453592146258485 0 0.047375902615266877 -0.0018734496945724021 0 0.048572777590709174 0.011903136779510748 0 0.03975958508801148 0.0092662050048166449 0 0.033277661554221807 0.0014787198495753132 0 0.047375902615266877 -0.0018734496945724021 0 0.03975958508801148 0.0092662050048166449 0 0.047375902615266877 -0.0018734496945724021 0 0.071683580503278499 -0.0018453592146258485 0 0.057393851196667428 0.0081849311413729753 0 0.047375902615266877 -0.0018734496945724021 0 0.057393851196667428 0.0081849311413729753 0 0.048572777590709174 0.011903136779510749 0 0.057393851196667428 0.0081849311413729753 0 0.054606969568747013 0.021967329326184788 0 0.048572777590709174 0.011903136779510749 0 0.066514923211529603 0.02483031552279882 0 0.054606969568747013 0.021967329326184788 0 0.057393851196667428 0.0081849311413729753 0 0.054606969568747013 0.021967329326184788 0 0.044417666269159627 0.018663215991700732 0 0.048572777590709174 0.011903136779510749 0 0.044417666269159627 0.018663215991700732 0 0.036272867826144521 0.015887552963085846 0 0.03975958508801148 0.0092662050048166449 0 0.048572777590709174 0.011903136779510749 0 0.044417666269159634 0.018663215991700732 0 0.03975958508801148 0.0092662050048166449 0 0.071683580503278499 -0.0018453592146258485 0 0.088991239925426222 0.01338454927802555 0 0.072267548967834147 0.0141895615417768 0 0.071683580503278499 -0.0018453592146258485 0 0.10470868779233301 -0.001621642499713019 0 0.088991239925426222 0.013384549278025548 0 0.057393851196667428 0.0081849311413729753 0 0.071683580503278499 -0.0018453592146258516 0 0.072267548967834147 0.0141895615417768 0 0.066514923211529603 0.02483031552279882 0 0.057393851196667428 0.0081849311413729753 0 0.072267548967834147 0.0141895615417768 0 0.081488226125633847 0.0284578474388253 0 0.066514923211529603 0.02483031552279882 0 0.072267548967834147 0.0141895615417768 0 0.088991239925426222 0.013384549278025548 0 0.081488226125633847 0.0284578474388253 0 0.072267548967834147 0.0141895615417768 0 0.099819104074531886 0.031460012926944919 0 0.081488226125633847 0.0284578474388253 0 0.088991239925426222 0.013384549278025548 0 0.12394639993828023 0.034697200894917096 0 0.099819104074531886 0.031460012926944919 0 0.10870272127408473 0.015959712565295357 0 0.099819104074531886 0.031460012926944919 0 0.088991239925426222 0.013384549278025548 0 0.10870272127408473 0.015959712565295357 0 0.15527721673884959 0.035343858106488289 0 0.12394639993828023 0.034697200894917096 0 0.13457292834420179 0.0067509677695040951 0 0.13457292834420179 0.0067509677695040951 0 0.12394639993828023 0.034697200894917103 0 0.10870272127408473 0.015959712565295357 0 0.10470868779233301 -0.001621642499713019 0 0.14681516231789832 -0.020374341789608865 0 0.13457292834420179 0.0067509677695040951 0 0.10470868779233301 -0.001621642499713019 0 0.13457292834420179 0.0067509677695040977 0 0.10870272127408473 0.015959712565295357 0 0.088991239925426222 0.013384549278025548 0 0.10470868779233301 -0.001621642499713019 0 0.10870272127408473 0.015959712565295357 0 0.086686440634992215 -0.020929044556007775 0 0.14681516231789832 -0.020374341789608865 0 0.10470868779233301 -0.001621642499713019 0 0.13424713784819353 -0.01271113085670283 0 0.20014810047679596 -0.0075629218783568042 0 0.14681516231789832 -0.020374341789608865 0 0.20014810047679599 -0.0075629218783568024 0 0.21928533059583813 -0.011498647350884648 0 0.14681516231789832 -0.020374341789608865 0 0.14681516231789832 -0.020374341789608865 0 0.21928533059583813 -0.011498647350884648 0 0.16945979148352888 0.0031307695232363048 0 0.13457292834420179 0.0067509677695040951 0 0.14681516231789832 -0.020374341789608865 0 0.16945979148352888 0.0031307695232363048 0 0.15527721673884959 0.035343858106488289 0 0.13457292834420179 0.0067509677695040951 0 0.16945979148352888 0.0031307695232363048 0 0.20119563841311927 0.031669706913307345 0 0.15527721673884959 0.035343858106488289 0 0.16945979148352888 0.0031307695232363048 0 0.21928533059583813 -0.011498647350884648 0 0.20119563841311927 0.031669706913307345 0 0.16945979148352888 0.0031307695232363048 0 0.30345487288724288 0.020295600302529294 0 0.20119563841311927 0.031669706913307345 0 0.21928533059583813 -0.011498647350884648 0 0.51525527392295645 -0.029566782608498064 0 0.45894387307063306 0.048372970966366433 0 0.39417403140832807 -0.040687142721360516 0 0.45894387307063306 0.048372970966366433 0 0.30345487288724288 0.020295600302529294 0 0.39417403140832807 -0.040687142721360516 0 0.33050498328429911 0.072616627048611673 0 0.30606914555924958 0.070713542638589907 0 0.56216369744346473 0.060634549314266921 0 0.45894387307063306 0.048372970966366433 0 0.51525527392295645 -0.029566782608498064 0 0.35915132917075721 0.069978936820196708 0 0.33050498328429911 0.072616627048611673 0 0.60841188684225889 -0.00062212108972272296 0 0.56216369744346473 0.060634549314266921 0 0.51525527392295645 -0.029566782608498064 0 0.44451626587139381 -0.1058784015025822 0 0.61259237033462233 -0.089225867870797129 0 0.51525527392295645 -0.029566782608498064 0 0.31733309128817094 -0.06650329710669084 0 0.44451626587139381 -0.1058784015025822 0 0.39417403140832807 -0.040687142721360516 0 0.44451626587139381 -0.1058784015025822 0 0.51525527392295645 -0.029566782608498064 0 0.39417403140832807 -0.040687142721360516 0 0.53138727134430541 -0.19761230186019135 0 0.44451626587139381 -0.1058784015025822 0 0.37518633909076926 -0.17422372603036704 0 0.53138727134430541 -0.19761230186019135 0 0.61259237033462222 -0.089225867870797129 0 0.44451626587139381 -0.1058784015025822 0 0.71199390904878057 -0.19337931187867535 0 0.61259237033462233 -0.089225867870797129 0 0.53138727134430541 -0.19761230186019135 0 0.71199390904878057 -0.19337931187867535 0 0.77686829314407291 -0.071656224604959795 0 0.61259237033462233 -0.089225867870797129 0 0.61259237033462233 -0.089225867870797129 0 0.77686829314407302 -0.071656224604959809 0 0.69230359818921194 -0.0045371495479818395 0 0.77686829314407291 -0.071656224604959795 0 0.77194619795979336 0.015301949602719325 0 0.69230359818921194 -0.0045371495479818395 0 0.61259237033462233 -0.089225867870797129 0 0.60841188684225889 -0.00062212108972272296 0 0.51525527392295645 -0.029566782608498064 0 0.61259237033462233 -0.089225867870797129 0 0.69230359818921194 -0.0045371495479818395 0 0.60841188684225889 -0.00062212108972272296 0 0.69230359818921194 -0.0045371495479818395 0 0.65095298801457124 0.066293189078614548 0 0.60841188684225889 -0.00062212108972272296 0 0.65095298801457124 0.066293189078614548 0 0.56216369744346473 0.060634549314266921 0 0.60841188684225889 -0.00062212108972272296 0 0.38782601687705298 0.069294669772681283 0 0.35915132917075721 0.069978936820196708 0 0.77194619795979336 0.015301949602719325 0 0.73124682130889429 0.071141147314620456 0 0.69230359818921194 -0.0045371495479818395 0 0.41598338405519064 0.06814822642014895 0 0.38782601687705298 0.069294669772681283 0 0.7312468213088944 0.071141147314620456 0 0.65095298801457124 0.066293189078614548 0 0.69230359818921194 -0.0045371495479818395 0 0.80863325011044596 0.073807236838378268 0 0.7312468213088944 0.071141147314620456 0 0.77194619795979336 0.015301949602719325 0 0.44536195036086246 0.066720597464860407 0 0.41598338405519064 0.06814822642014895 0 0.84798481268377024 0.0072898097224852994 0 0.80863325011044596 0.073807236838378268 0 0.77194619795979336 0.015301949602719325 0 0.8822723734165846 0.076151222854751649 0 0.80863325011044596 0.073807236838378268 0 0.84798481268377024 0.0072898097224852994 0 0.47471408442351393 0.065141274250029954 0 0.44536195036086246 0.066720597464860407 0 0.91979914265383633 0.023883990934512329 0 0.8822723734165846 0.076151222854751649 0 0.84798481268377024 0.0072898097224852994 0 0.92643473726760539 -0.06158077327918049 0 0.91979914265383633 0.023883990934512329 0 0.84798481268377024 0.0072898097224852994 0 0.77686829314407291 -0.071656224604959795 0 0.92643473726760539 -0.061580773279180476 0 0.84798481268377024 0.0072898097224852994 0 0.77686829314407291 -0.071656224604959795 0 0.84798481268377024 0.0072898097224852994 0 0.77194619795979336 0.015301949602719325 0 1.0242948097671274 0.079113406487777788 0 0.98878787794560552 0.017947733163430579 0 1.0619495705379456 0.029980800213898304 0 1.0242948097671274 0.079113406487777788 0 0.95412663102739048 0.077700614256734163 0 0.98878787794560552 0.017947733163430579 0 0.5346186619534814 0.062309120967408607 0 0.50461220983705546 0.063735859027840319 0 0.95412663102739048 0.077700614256734163 0 0.91979914265383633 0.023883990934512322 0 0.98878787794560552 0.017947733163430579 0 0.95412663102739048 0.077700614256734163 0 0.8822723734165846 0.076151222854751635 0 0.91979914265383633 0.023883990934512329 0 0.50461220983705546 0.063735859027840319 0 0.47471408442351393 0.065141274250029954 0 0.91979914265383633 0.023883990934512329 0 0.92643473726760539 -0.06158077327918049 0 0.98878787794560552 0.017947733163430579 0 0.98878787794560552 0.017947733163430579 0 1.0711418264115449 -0.046489670380065753 0 1.0619495705379456 0.029980800213898304 0 0.92643473726760539 -0.06158077327918049 0 1.0711418264115449 -0.046489670380065767 0 0.98878787794560552 0.017947733163430579 0 1.0029348069902697 -0.16928113010696091 0 1.0711418264115449 -0.04648967038006576 0 0.92643473726760539 -0.06158077327918049 0 1.0029348069902697 -0.16928113010696091 0 0.92643473726760539 -0.06158077327918049 0 0.86507155080720755 -0.15921410305377806 0 0.86507155080720755 -0.15921410305377806 0 0.77686829314407291 -0.071656224604959795 0 0.71199390904878057 -0.19337931187867535 0 0.86507155080720755 -0.15921410305377806 0 0.92643473726760539 -0.06158077327918049 0 0.77686829314407291 -0.071656224604959795 0 0.90266079009719269 -0.29217768595581634 0 0.86507155080720755 -0.15921410305377806 0 0.71199390904878057 -0.19337931187867535 0 1.0029348069902697 -0.16928113010696091 0 0.90266079009719269 -0.29217768595581634 0 1.1044627398251174 -0.32001937156425098 0 0.90266079009719269 -0.29217768595581634 0 1.0029348069902697 -0.16928113010696091 0 0.86507155080720755 -0.15921410305377806 0 1.1044627398251174 -0.32001937156425098 0 0.90266079009719269 -0.29217768595581634 0 0.95050485448297661 -0.51902125021746504 0 0.90266079009719269 -0.29217768595581634 0 0.6521183242690497 -0.34730408671305696 0 0.95050485448297661 -0.51902125021746504 0 0.6521183242690497 -0.34730408671305696 0 0.45484688736156642 -0.28877761551555714 0 0.49808675765476629 -0.48443641728714509 0 0.53138727134430541 -0.19761230186019135 0 0.45484688736156642 -0.28877761551555714 0 0.6521183242690497 -0.34730408671305696 0 0.45484688736156642 -0.28877761551555714 0 0.53138727134430552 -0.19761230186019135 0 0.37518633909076926 -0.17422372603036704 0 0.71199390904878057 -0.19337931187867535 0 0.53138727134430541 -0.19761230186019135 0 0.6521183242690497 -0.34730408671305696 0 0.90266079009719269 -0.29217768595581634 0 0.71199390904878057 -0.19337931187867533 0 0.6521183242690497 -0.34730408671305696 0 1.6246749266232761 -0.22692605457004517 0 1.6249218776126571 -0.092100322468253851 0 1.5107238737880395 -0.14448579367490844 0 1.5107238737880395 -0.14448579367490844 0 1.5604871007980783 -0.039438000123580799 0 1.479965599241704 -0.045465792625140548 0 1.6249218776126571 -0.092100322468253851 0 1.5604871007980785 -0.039438000123580813 0 1.5107238737880395 -0.14448579367490844 0 1.6249218776126571 -0.092100322468253851 0 1.6252355544587263 0.0072903030742834081 0 1.5604871007980785 -0.039438000123580813 0 1.5604871007980785 -0.039438000123580813 0 1.6252355544587263 0.0072903030742834081 0 1.5790507894682035 0.03131791440146546 0 1.6252355544587263 0.0072903030742834081 0 1.6252865378805217 0.079900558194459084 0 1.5790507894682035 0.03131791440146546 0 1.6252865378805217 0.079900558194459084 0 1.5601389384321016 0.079940898231783228 0 1.5790507894682035 0.03131791440146546 0 0.80434794338710669 -0.21748766400263694 0 0.7838444187731205 0.053409731193264705 0 0.7838444187731205 0.053409731193264705 0 0.7509147215860853 0.05537611314629122 0 1.5601389384321016 0.079940898231783228 0 1.4949543681739637 0.080101458828754718 0 1.5254753884366208 0.023277109545062506 0 1.5601389384321016 0.079940898231783228 0 1.5254753884366208 0.023277109545062503 0 1.5790507894682035 0.03131791440146546 0 1.4949543681739637 0.080101458828754718 0 1.4658331455929052 0.032347981861399935 0 1.5254753884366208 0.023277109545062506 0 1.5604871007980785 -0.039438000123580813 0 1.5254753884366208 0.023277109545062506 0 1.479965599241704 -0.045465792625140548 0 1.5254753884366208 0.023277109545062506 0 1.5604871007980785 -0.039438000123580813 0 1.5790507894682035 0.03131791440146546 0 1.5254753884366208 0.023277109545062506 0 1.4658331455929052 0.032347981861399935 0 1.479965599241704 -0.045465792625140548 0 1.3971310468647442 0.013726484774652827 0 1.3975653316830139 -0.086885292490896535 0 1.479965599241704 -0.045465792625140548 0 1.4658331455929052 0.032347981861399935 0 1.3971310468647442 0.013726484774652827 0 1.479965599241704 -0.045465792625140548 0 1.4658331455929052 0.032347981861399935 0 1.4294799756537988 0.080406302781920028 0 1.3971310468647442 0.013726484774652827 0 0.7509147215860853 0.05537611314629122 0 0.72049667854559829 0.055829238074322385 0 1.4949543681739637 0.080101458828754718 0 1.4294799756537988 0.080406302781920028 0 1.4658331455929052 0.032347981861399935 0 1.4294799756537988 0.080406302781920028 0 1.3635276587706606 0.080669258820564235 0 1.3971310468647442 0.013726484774652827 0 0.72049667854559829 0.055829238074322385 0 0.68936255466806795 0.056489479372816717 0 1.3971310468647442 0.013726484774652827 0 1.3635276587706606 0.080669258820564235 0 1.3303234736548677 0.035845256523087725 0 1.3128101330750934 -0.027252074428398582 0 1.3975653316830139 -0.086885292490896535 0 1.3971310468647442 0.013726484774652827 0 1.3975653316830139 -0.086885292490896535 0 1.5107238737880395 -0.14448579367490844 0 1.479965599241704 -0.045465792625140548 0 1.3799681606344483 -0.21608369274984496 0 1.5107238737880395 -0.14448579367490844 0 1.3975653316830139 -0.086885292490896535 0 1.3799681606344483 -0.21608369274984496 0 1.3975653316830139 -0.086885292490896535 0 1.2860967979265285 -0.12050116612073043 0 1.3799681606344483 -0.21608369274984496 0 1.2860967979265285 -0.1205011661207304 0 1.2467560754618874 -0.23245664427311979 0 1.2467560754618874 -0.23245664427311979 0 1.2860967979265285 -0.12050116612073043 0 1.1496289186780262 -0.14642736253049882 0 1.2007343748261252 -0.037756287678729281 0 1.2860967979265285 -0.12050116612073043 0 1.3128101330750934 -0.027252074428398582 0 1.1496289186780262 -0.14642736253049882 0 1.2860967979265285 -0.12050116612073043 0 1.2007343748261252 -0.037756287678729281 0 1.2860967979265285 -0.12050116612073043 0 1.3975653316830139 -0.086885292490896535 0 1.3128101330750934 -0.027252074428398582 0 1.3128101330750934 -0.027252074428398582 0 1.3971310468647442 0.013726484774652827 0 1.3303234736548677 0.035845256523087725 0 1.2613244801762025 0.026474349111216454 0 1.3128101330750934 -0.027252074428398582 0 1.3303234736548677 0.035845256523087725 0 1.296964803577054 0.080900132947705011 0 1.2613244801762025 0.026474349111216454 0 1.3303234736548677 0.035845256523087725 0 0.68936255466806795 0.056489479372816717 0 0.65817857380995504 0.057356922385322771 0 1.3635276587706606 0.080669258820564235 0 1.296964803577054 0.080900132947705011 0 1.3303234736548677 0.035845256523087725 0 1.2613244801762025 0.026474349111216454 0 1.229923875995198 0.080896727486928749 0 1.1971294230070515 0.034016323086182326 0 0.65817857380995504 0.057356922385322771 0 0.62702462889266775 0.058389025363396151 0 1.296964803577054 0.080900132947705011 0 1.229923875995198 0.080896727486928735 0 1.2613244801762025 0.026474349111216454 0 1.2007343748261252 -0.037756287678729281 0 1.2613244801762025 0.026474349111216454 0 1.1971294230070515 0.034016323086182326 0 1.2007343748261252 -0.037756287678729281 0 1.3128101330750934 -0.027252074428398564 0 1.2613244801762025 0.026474349111216454 0 1.1305998753048316 0.020419853126428317 0 1.2007343748261252 -0.037756287678729267 0 1.1971294230070515 0.034016323086182326 0 1.0711418264115449 -0.046489670380065753 0 1.2007343748261252 -0.037756287678729281 0 1.1305998753048316 0.020419853126428317 0 1.1620772531280745 0.080699404069582162 0 1.1305998753048316 0.020419853126428317 0 1.1971294230070515 0.034016323086182326 0 0.62702462889266775 0.058389025363396151 0 0.59596073868749844 0.059617040919768854 0 1.229923875995198 0.080896727486928749 0 1.1620772531280745 0.080699404069582162 0 1.1971294230070515 0.034016323086182326 0 0.56515478651754358 0.060931926927322522 0 0.5346186619534814 0.062309120967408607 0 1.0936434960655044 0.080035496485925825 0 1.0242948097671274 0.079113406487777788 0 1.0619495705379456 0.029980800213898304 0 1.1620772531280745 0.080699404069582162 0 1.0936434960655044 0.080035496485925825 0 1.1305998753048316 0.020419853126428317 0 0.59596073868749844 0.059617040919768854 0 0.56515478651754358 0.060931926927322522 0 1.1305998753048316 0.020419853126428317 0 1.0936434960655044 0.080035496485925825 0 1.0619495705379456 0.029980800213898304 0 1.0711418264115449 -0.046489670380065753 0 1.1305998753048316 0.020419853126428317 0 1.0619495705379456 0.029980800213898304 0 1.1496289186780262 -0.14642736253049882 0 1.0711418264115449 -0.046489670380065753 0 1.0029348069902697 -0.16928113010696091 0 1.1496289186780262 -0.14642736253049882 0 1.2007343748261252 -0.037756287678729281 0 1.0711418264115449 -0.046489670380065753 0 1.1044627398251174 -0.32001937156425098 0 1.2144098832873309 -0.58174202326842694 0 1.3178461433937976 -0.37601844807306323 0 1.1496289186780262 -0.14642736253049882 0 1.0029348069902697 -0.16928113010696091 0 1.1044627398251174 -0.32001937156425098 0 1.2467560754618874 -0.23245664427311979 0 1.1496289186780262 -0.14642736253049882 0 1.1044627398251174 -0.32001937156425098 0 1.3799681606344483 -0.21608369274984496 0 1.2467560754618874 -0.23245664427311979 0 1.3178461433937976 -0.37601844807306323 0 1.2467560754618874 -0.23245664427311979 0 1.1044627398251174 -0.32001937156425098 0 1.3178461433937976 -0.37601844807306323 0 1.487177910124823 -0.31798385621551029 0 1.3799681606344483 -0.21608369274984496 0 1.3178461433937976 -0.37601844807306323 0 1.487177910124823 -0.31798385621551029 0 1.5107238737880395 -0.14448579367490844 0 1.3799681606344483 -0.21608369274984496 0 1.4462795119029894 -0.52778229509370489 0 1.487177910124823 -0.31798385621551029 0 1.3178461433937976 -0.37601844807306323 0 1.6262270684202309 -0.40771890696143659 0 1.487177910124823 -0.31798385621551029 0 1.4462795119029894 -0.52778229509370489 0 1.487177910124823 -0.31798385621551029 0 1.6246749266232761 -0.22692605457004517 0 1.5107238737880395 -0.14448579367490844 0 1.6262270684202309 -0.40771890696143659 0 1.6246749266232761 -0.22692605457004517 0 1.487177910124823 -0.31798385621551029 0 1.1085586776141036 -0.96360636881075945 0 1.6660331786421083 -0.99608431783174034 0 1.4061702262686404 -0.76337787936409274 0 1.636700034905574 -0.6512874504319599 0 1.6262270684202309 -0.40771890696143659 0 1.4462795119029894 -0.52778229509370489 0 1.636700034905574 -0.6512874504319599 0 1.4462795119029894 -0.52778229509370489 0 1.4061702262686404 -0.76337787936409274 0 1.2144098832873309 -0.58174202326842694 0 1.1044627398251174 -0.32001937156425098 0 0.95050485448297661 -0.51902125021746504 0 1.1085586776141036 -0.96360636881075945 0 1.2144098832873307 -0.58174202326842683 0 0.95050485448297661 -0.51902125021746504 0 1.4462795119029894 -0.52778229509370489 0 1.2144098832873309 -0.58174202326842694 0 1.4061702262686404 -0.76337787936409274 0 1.2144098832873309 -0.58174202326842694 0 1.4462795119029894 -0.52778229509370489 0 1.3178461433937976 -0.37601844807306323 0 1.2144098832873309 -0.58174202326842694 0 1.1085586776141036 -0.96360636881075945 0 1.4061702262686404 -0.76337787936409274 0 1.6660331786421083 -0.99608431783174034 0 1.636700034905574 -0.6512874504319599 0 1.4061702262686404 -0.76337787936409274 0 0.58267873275023163 -0.87538702888115483 0 1.1085586776141036 -0.96360636881075945 0 0.73935149064628058 -0.62468954349714945 0 0.73935149064628058 -0.62468954349714945 0 0.6521183242690497 -0.34730408671305696 0 0.49808675765476629 -0.48443641728714509 0 0.58267873275023163 -0.87538702888115483 0 0.73935149064628058 -0.62468954349714945 0 0.49808675765476629 -0.48443641728714509 0 0.6521183242690497 -0.34730408671305696 0 0.73935149064628058 -0.62468954349714945 0 0.95050485448297661 -0.51902125021746504 0 0.73935149064628058 -0.62468954349714945 0 1.1085586776141036 -0.96360636881075945 0 0.95050485448297661 -0.51902125021746504 0 0.28646712797163781 -0.49392445035184523 0 0.58267873275023174 -0.87538702888115472 0 0.49808675765476629 -0.48443641728714509 0 0.20112653445143594 -0.77422319119728666 0 0.28646712797163781 -0.49392445035184523 0 0.065902205730284297 -0.4570650006424592 0 0.20112653445143594 -0.77422319119728666 0 0.58267873275023163 -0.87538702888115483 0 0.28646712797163781 -0.49392445035184523 0 -0.14867343737613528 -0.37693037363349041 0 -0.12546425492970503 -0.73607455145530909 0 0.065902205730284297 -0.4570650006424592 0 -0.12546425492970503 -0.73607455145530909 0 0.20112653445143594 -0.77422319119728666 0 0.065902205730284297 -0.4570650006424592 0 -0.08532232894814 -0.075374501348134684 0 -0.14867343737613528 -0.37693037363349041 0 0.017067112805267924 -0.20438397380484433 0 0.017067112805267924 -0.20438397380484433 0 0.065902205730284297 -0.4570650006424592 0 0.16189406545821453 -0.19026884552016787 0 0.017067112805267924 -0.20438397380484433 0 -0.14867343737613528 -0.37693037363349041 0 0.065902205730284297 -0.4570650006424592 0 -0.08532232894814 -0.075374501348134684 0 0.017067112805267924 -0.20438397380484433 0 0.070764582931705206 -0.066748235192160013 0 0.017067112805267924 -0.20438397380484433 0 0.16189406545821453 -0.19026884552016787 0 0.070764582931705206 -0.066748235192160013 0 0.16189406545821453 -0.19026884552016787 0 0.16181501494172867 -0.047441984261235595 0 0.070764582931705206 -0.066748235192160013 0 0.23349344758613974 -0.085722506840118159 0 0.1618150149417287 -0.047441984261235616 0 0.16189406545821453 -0.19026884552016787 0 0.31610841816842633 -0.27200276389680039 0 0.23349344758613971 -0.085722506840118146 0 0.16189406545821453 -0.19026884552016787 0 0.26210371937083143 -0.016349454769881915 0 0.21131770369382838 -0.0015633034884487145 0 0.23349344758613974 -0.085722506840118159 0 0.31733309128817094 -0.06650329710669084 0 0.26210371937083143 -0.016349454769881915 0 0.23349344758613974 -0.085722506840118159 0 0.31733309128817094 -0.06650329710669084 0 0.30345487288724288 0.020295600302529294 0 0.26210371937083143 -0.016349454769881915 0 0.30345487288724288 0.020295600302529294 0 0.31733309128817094 -0.06650329710669084 0 0.39417403140832807 -0.040687142721360516 0 0.37518633909076926 -0.17422372603036704 0 0.31733309128817094 -0.066503297106690826 0 0.23349344758613974 -0.085722506840118159 0 0.37518633909076926 -0.17422372603036704 0 0.44451626587139376 -0.10587840150258218 0 0.31733309128817094 -0.06650329710669084 0 0.31610841816842633 -0.27200276389680039 0 0.37518633909076926 -0.17422372603036704 0 0.23349344758613974 -0.085722506840118159 0 0.31610841816842633 -0.27200276389680039 0 0.28646712797163781 -0.49392445035184523 0 0.49808675765476629 -0.48443641728714509 0 0.45484688736156642 -0.28877761551555714 0 0.37518633909076926 -0.17422372603036704 0 0.31610841816842633 -0.27200276389680039 0 0.45484688736156642 -0.28877761551555714 0 0.31610841816842633 -0.27200276389680039 0 0.49808675765476629 -0.48443641728714509 0 0.065902205730284297 -0.4570650006424592 0 0.28646712797163781 -0.49392445035184523 0 0.16189406545821453 -0.19026884552016787 0 0.28646712797163781 -0.49392445035184523 0 0.31610841816842633 -0.27200276389680039 0 0.16189406545821453 -0.19026884552016787 0 
</DataArray>
</PointData>
<CellData Scalars="region_id," Vectors="" Tensors="stress,">
<DataArray type="Float64" Name="region_id" format="ascii">
1 1 1 1 1 1 1 1 1 1 1 1 1 1 1 1 1 1 1 1 1 1 1 1 1 1 1 1 1 1 1 1 1 1 1 1 1 1 1 1 1 1 1 1 1 1 1 1 1 1 1 1 1 1 1 1 1 1 1 1 1 1 1 1 1 1 1 1 1 1 1 1 1 1 1 1 1 1 1 1 1 1 1 1 1 1 1 1 1 1 1 1 1 1 1 1 1 1 1 1 1 1 1 1 1 1 1 1 1 1 1 1 1 1 1 1 1 1 1 1 1 1 1 1 1 1 1 1 1 1 1 1 1 1 1 1 1 1 1 1 1 6 1 6 1 1 1 1 1 1 1 1 1 1 1 1 1 1 6 1 6 1 1 6 1 1 6 1 1 1 1 1 1 6 1 1 6 1 1 1 1 1 1 1 1 1 1 1 1 1 1 1 1 1 1 1 1 1 1 1 1 6 6 1 1 1 1 1 1 1 1 1 6 1 1 6 1 1 1 1 1 1 1 1 1 1 1 1 1 6 1 1 6 1 1 1 1 1 1 6 1 6 1 1 6 1 1 1 1 1 1 1 1 1 1 1 1 1 1 1 1 1 1 1 1 1 1 1 1 1 1 1 1 1 1 1 1 1 1 1 1 1 1 1 1 1 1 1 1 1 1 1 1 1 1 1 1 1 1 
</DataArray>
<DataArray type="Float64" Name="stress" NumberOfComponents="9" format="ascii">
0.21025926440417492 0.056473337773897098 0 0.056473337773897098 0.069983501272559479 0 0 0 0.070060691419183599 -0.05189444241366379 0.11798203699882058 0 0.11798203699882058 0.016923193780291959 0 0 0 -0.0087428121583429594 -0.28264779143776325 0.025940869337618522 0 0.025940869337618522 0.071421750066073236 0 0 0 -0.052806510342922518 0.15490014906494221 0.068719865978501049 0 0.068719865978501049 0.031969442992359882 0 0 0 0.046717398014325534 0.061297645049080515 0.069250989259857593 0 0.069250989259857593 0.061150703994054478 0 0 0 0.03061208726078378 0.12357414674301902 0.01638511230546294 0 0.01638511230546294 0.18572367963403608 0 0 0 0.077324456594263763 0.71768623618711969 0.061435119083585094 0 0.061435119083585094 0.10633953595073087 0 0 0 0.20600644303446269 0.75337962746143983 0.18993288866324323 0 0.18993288866324323 0.25202246442065179 0 0 0 0.25135052297052296 1.2481074293522973 0.23443547195481923 0 0.23443547195481923 0.40517933294312719 0 0 0 0.41332169057385604 1.0230877369249995 -0.26588648873150506 0 -0.26588648873150506 0.038087547589575138 0 0 0 0.26529382112864397 1.4796731503842933 0.37752243885947806 0 0.37752243885947806 1.2910530566848277 0 0 0 0.6926815517672803 2.3371578835673574 0.018715201788993149 0 0.018715201788993149 0.50987947754881424 0 0 0 0.71175934027904297 0.91349497958824899 0.044177234699526322 0 0.044177234699526322 0.40141132074842278 0 0 0 0.32872657508416775 0.53189455493697735 -0.029296288913159996 0 -0.029296288913159996 0.32191654385813551 0 0 0 0.21345277469877827 0.42632641821213069 0.058616826254216603 0 0.058616826254216603 0.4334998786399607 0 0 0 0.21495657421302292 0.3660408449081165 0.087181392108882066 0 0.087181392108882066 0.27147017215476033 0 0 0 0.15937775426571923 0.43605176704348053 0.14000206412327559 0 0.14000206412327559 0.09377371787142888 0 0 0 0.13245637122872742 0.44153404322236428 0.13331482969222458 0 0.13331482969222458 0.12736037447426587 0 0 0 0.14222360442415752 0.18627381275083146 0.12842016053342623 0 0.12842016053342623 0.02985870788311909 0 0 0 0.054033130158487652 0.44781623130554665 0.043634922493827152 0 0.043634922493827152 -0.04933052442343161 0 0 0 0.099621426720528816 0.69928450888273175 0.03547179639294018 0 0.03547179639294018 0.026694642322440232 0 0 0 0.18149478780129297 0.82620734757476011 0.073051950806632071 0 0.073051950806632071 0.088556734214976049 0 0 0 0.22869102044743411 0.38876851719080302 0.018306614545408075 0 0.018306614545408075 0.12947057498876269 0 0 0 0.12955977304489144 0.35459508858619215 -0.0013645196029200383 0 -0.0013645196029200383 -0.052917097949412045 0 0 0 0.075419497659195006 0.58113700340156982 -0.02624015677677409 0 -0.02624015677677409 0.018131862480306682 0 0 0 0.14981721647046908 0.49768961224514091 0.070847687948182914 0 0.070847687948182914 0.055531485066687147 0 0 0 0.138305274327957 0.19808376228770211 0.11199483573517749 0 0.11199483573517749 -0.038881051402502115 0 0 0 0.039800677721299985 0.28045037610778428 -0.050294605134519131 0 -0.050294605134519131 0.093411139116789138 0 0 0 0.093465378806143348 0.16434396237816845 -0.10743935938367304 0 -0.10743935938367304 0.071796455593649222 0 0 0 0.059035104492954404 0.20662186966010315 -0.075072557769011602 0 -0.075072557769011602 0.040399907911172261 0 0 0 0.06175544439281884 0.33519631227205587 -0.10009480006766427 0 -0.10009480006766427 -0.0002039708453678013 0 0 0 0.083748085356672025 0.39554600611169605 -0.096824681331613621 0 -0.096824681331613621 0.015907040804502323 0 0 0 0.10286326172904957 0.080046384149740191 -0.056051005586724142 0 -0.056051005586724142 0.026746992237966522 0 0 0 0.026698344096926684 0.075164889405921337 -0.052322742952350405 0 -0.052322742952350405 0.044027473174171494 0 0 0 0.029798090645023204 0.11808782724409286 -0.057348652707044277 0 -0.057348652707044277 0.025276600389642495 0 0 0 0.035841106908433833 0.07227389795514079 -0.048446987674408484 0 -0.048446987674408484 0.024299740164754946 0 0 0 0.024143409529973941 0.15649650943075089 -0.088017432163263687 0 -0.088017432163263687 0.03335837146033091 0 0 0 0.047463720222770442 0.078840329405667667 -0.073867642032959563 0 -0.073867642032959563 0.078096911452433637 0 0 0 0.039234310214525323 0.060037227755178738 -0.059912970068880814 0 -0.059912970068880814 0.050708709949112682 0 0 0 0.027686484426072848 0.016618158954929886 -0.019214509951242877 0 -0.019214509951242877 -0.015243618239118309 0 0 0 0.00034363517895288909 -0.020235590719521218 -0.021576615318308005 0 -0.021576615318308005 0.030313763211530564 0 0 0 0.0025195431230023713 -0.043317134017405667 0.0031228377386624921 0 0.0031228377386624921 0.0077992527950851986 0 0 0 -0.0088794703055801172 -0.01532451985858195 0.0089341373554653394 0 0.0089341373554653394 -0.0016210108079749708 0 0 0 -0.0042363826666392129 -0.0073346107885284978 0.0048732804965485876 0 0.0048732804965485876 -0.0098559297225661591 0 0 0 -0.0042976351277736607 0.0088645079743638923 -0.015286398700143755 0 -0.015286398700143755 0.016687377973549918 0 0 0 0.0063879714869784533 -0.011669549464552842 0.0074226915915911497 0 0.0074226915915911497 0.0079655325545454625 0 0 0 -0.00092600422750185873 -0.0060355318054390317 0.0081392005350450769 0 0.0081392005350450769 0.002169951307946949 0 0 0 -0.00096639512437303454 0.010634175380193747 -0.014044696088628093 0 -0.014044696088628093 0.032310657961964112 0 0 0 0.010736208335539468 0.012367210646353322 -0.0059461450482341145 0 -0.0059461450482341145 0.029790213375677027 0 0 0 0.01053935600550758 0.025020568053246359 -0.007669700472490229 0 -0.007669700472490229 0.020066272079374697 0 0 0 0.011271710033155281 0.090852311754581999 -0.052150255483718662 0 -0.052150255483718662 0.038802976888732743 0 0 0 0.032413822160828665 0.064531130326117236 -0.048627595088117967 0 -0.048627595088117967 0.076240014463564099 0 0 0 0.035192786197420355 0.024161922940585705 -0.015933960454601492 0 -0.015933960454601492 0.028913960074271494 0 0 0 0.013268970753714259 0.012855627483022353 -0.0082837801137373331 0 -0.0082837801137373331 0.039405713537491865 0 0 0 0.013065335255128541 0.0029675407191273873 0.012685774598709648 0 0.012685774598709648 0.00066426974120373239 0 0 0 0.00090795261508277991 0.028175012421104855 -0.016624244523552954 0 -0.016624244523552954 0.017247985947624535 0 0 0 0.01135574959218235 0.0068222847830583799 0.0017865674461365749 0 0.0017865674461365749 -0.051357181181018841 0 0 0 -0.011133724099490122 0.00030260046405902741 0.0063173893372030915 0 0.0063173893372030915 -0.055741329592350009 0 0 0 -0.013859682282072711 0.00047225940372670814 0.0066610351210273644 0 0.0066610351210273644 -0.095188085661165142 0 0 0 -0.023678956564359629 0.0022499459200016059 0.0068385900296327878 0 0.0068385900296327878 -0.076191012299298311 0 0 0 -0.01848526659482419 2.1747689959716876e-05 0.0017379542413199361 0 0.0017379542413199361 -0.052809586611974824 0 0 0 -0.013196959730503777 0.0031706774339315541 0.017395888850639182 0 0.017395888850639182 -0.041356065629491651 0 0 0 -0.0095463470488900831 0.0059714877246591393 0.0035753595436343252 0 0.0035753595436343252 -0.010828866691469242 0 0 0 -0.0012143447417025423 0.0042265337251691931 0.01863447506970619 0 0.01863447506970619 -0.029195280933363321 0 0 0 -0.0062421868020485147 -0.0021536981042756761 0.01649441812225437 0 0.01649441812225437 -0.0036185159247627899 0 0 0 -0.0014430535072595906 -0.00079968919143269784 0.0083700785288272767 0 0.0083700785288272767 -0.055982132355654086 0 0 0 -0.014195455386771695 0.0013138975940283348 0.0073144835579076264 0 0.0073144835579076264 -0.038467636127875487 0 0 0 -0.0092884346334617951 0.0029511614526979285 0.01080701236072255 0 0.01080701236072255 -0.024663236329020649 0 0 0 -0.0054280187190806767 -0.001994228915727681 0.0089368918540579378 0 0.0089368918540579378 -0.045740944915465286 0 0 0 -0.011933793457798219 -0.0010257916519872401 0.01275918390957629 0 0.01275918390957629 -0.027263141537344771 0 0 0 -0.0070722332973329749 0.00040956285112338231 0.016108561583057728 0 0.016108561583057728 0.016235977134064855 0 0 0 0.0041613849962970489 0.011975109979154989 0.011792699625503217 0 0.011792699625503217 0.0010637733688693279 0 0 0 0.0032597208370060658 -0.0041257079098474432 0.017203891393308152 0 0.017203891393308152 0.001990591319184342 0 0 0 -0.00053377914766579784 -0.0016088524981950521 0.01436931771480455 0 0.01436931771480455 -0.0044577768838090781 0 0 0 -0.0015166573455010386 0.0023924181675817474 0.01723360332201241 0 0.01723360332201241 -0.016653131701131751 0 0 0 -0.0035651783833875322 -0.0021905993051986638 0.016374149098050451 0 0.016374149098050451 -0.004594044927612991 0 0 0 -0.0016961610582029484 0.00031998799626811736 0.0084716374627073765 0 0.0084716374627073765 -0.025190032712629207 0 0 0 -0.0062175111790902654 -0.0010083626863162248 0.0077786855847017874 0 0.0077786855847017874 -0.028176336164954408 0 0 0 -0.0072961747128176685 0.00083894686722640194 0.0086632111198172781 0 0.0086632111198172781 -0.01040443154690146 0 0 0 -0.0023913711699187698 -0.0023692575070586256 0.006855098754446079 0 0.006855098754446079 -0.017557048258940746 0 0 0 -0.0049815764414998607 -0.0055917796696277645 0.013609717544254982 0 0.013609717544254982 -0.015624164818271793 0 0 0 -0.0053039861219748748 -0.0042747172977472131 0.0092458013397126795 0 0.0092458013397126795 -0.010129301586174533 0 0 0 -0.003601004720980433 -0.0015810415407398991 0.012921394229766292 0 0.012921394229766292 -0.0035252451330253162 0 0 0 -0.001276571668441303 -0.0054996709303327257 0.0062751872903380676 0 0.0062751872903380676 -0.0052775076463724424 0 0 0 -0.0026942946441762955 0.0005480831661539981 0.0059253997753549621 0 0.0059253997753549621 -0.0066640082654730315 0 0 0 -0.0015289812748297549 3.5791456062361782e-05 0.0021507445557728475 0 0.0021507445557728475 -0.0023734993592869069 0 0 0 -0.00058442697580611547 -0.0031769132773735494 0.0039879913211467374 0 0.0039879913211467374 -0.0065106746917734815 0 0 0 -0.0024218969922867647 -0.0016820838621856155 0.0018166092388855136 0 0.0018166092388855136 -0.0026403445202225762 0 0 0 -0.0010806070956020652 -0.00065105153992685294 0.0011230204161816887 0 0.0011230204161816887 -0.0008896964712039046 0 0 0 -0.00038518700278269979 -0.0017841556883288062 0.0040215056522358433 0 0.0040215056522358433 0.00058116434635548109 0 0 0 -0.00030074783549333822 -0.010977538015965221 0.0064939676145282579 0 0.0064939676145282579 -0.0037579997567747953 0 0 0 -0.0036838844431850036 -0.0081450464163093927 0.00824193280427548 0 0.00824193280427548 -0.00033989089166142072 0 0 0 -0.0021212343269927034 -0.01229422642417255 0.013271937897916473 0 0.013271937897916473 -0.0055324592527692534 0 0 0 -0.0044566714192354473 -0.029037859736854035 0.0084777073898475389 0 0.0084777073898475389 0.00058347958005347533 0 0 0 -0.0071135950392001573 0.40779783187324387 -0.25925820143989464 0 -0.25925820143989464 0.14701882114555903 0 0 0 0.1387041632547007 0.44835386714800507 -0.15659346508988972 0 -0.15659346508988972 0.020137999397207673 0 0 0 0.11712296663630317 0.49203892793220932 -0.16768888156104708 0 -0.16768888156104708 0.032013623011433227 0 0 0 0.13101313773591058 0.29847828154869183 -0.16436356630686985 0 -0.16436356630686985 0.075171797309244004 0 0 0 0.09341251971448393 0.13074462202474182 -0.10663076360719553 0 -0.10663076360719553 0.09833545437858926 0 0 0 0.057270019100832771 0.071756909140399339 -0.065466279349617962 0 -0.065466279349617962 0.089179304299816881 0 0 0 0.040234053360054055 0.079972688198153535 -0.069085293341285464 0 -0.069085293341285464 0.060933998967069525 0 0 0 0.035226671791305703 0.17696486484103141 -0.13713928057491076 0 -0.13713928057491076 0.038552828064931488 0 0 0 0.053879423226490711 0.16411733392265207 -0.14655361297962463 0 -0.14655361297962463 0.13639356391040294 0 0 0 0.07512772445826385 0.041182440073452203 -0.065899120904225159 0 -0.065899120904225159 0.10263336546011603 0 0 0 0.035953951383392052 0.12992590187502587 -0.11301841990940029 0 -0.11301841990940029 0.094170435964111676 0 0 0 0.056024084459784435 0.0082817944232613568 -0.013857239619292392 0 -0.013857239619292392 0.044146456444041735 0 0 0 0.013107062716825801 0.06965045651723116 -0.049472606584258803 0 -0.049472606584258803 0.047735621075239036 0 0 0 0.029346519398117568 0.0097795667841729383 0.0071185350375621344 0 0.0071185350375621344 -0.045032342331909447 0 0 0 -0.0088131938869341619 -0.0015538967308656067 0.0081935796855873849 0 0.0081935796855873849 -0.0074855441059296646 0 0 0 -0.0022598602091987892 -0.0042588412082141258 -0.015980146217722174 0 -0.015980146217722174 0.031000583680761251 0 0 0 0.0066854356181368924 0.017938299768010632 -0.017578384232342009 0 -0.017578384232342009 -0.017263382584501386 0 0 0 0.00016872929587730123 0.0069003505262586751 0.0079370499255515189 0 0.0079370499255515189 -0.057690967386376357 0 0 0 -0.012697654215029552 0.0014815741719940098 -0.001179791829072907 0 -0.001179791829072907 -0.10333710800653796 0 0 0 -0.025463883458635934 0.002762809729629351 0.0037817470494055927 0 0.0037817470494055927 -0.11890824035407904 0 0 0 -0.029036357656112382 0.00038954637248574049 0.0059396269921873635 0 0.0059396269921873635 -0.10053419704693807 0 0 0 -0.025036162668613124 0.00076347845684969495 0.0025876425037913847 0 0.0025876425037913847 -0.049650728910034858 0 0 0 -0.012221812613296204 0.035837271140286953 -0.049809739760160565 0 -0.049809739760160565 0.0038849195390593394 0 0 0 0.0099305476698365314 -0.0009490555957453739 -0.0495140063549869 0 -0.0495140063549869 0.0794949923437544 0 0 0 0.019636484187002312 0.025067422482132715 0.0021015189994657846 0 0.0021015189994657846 -0.016717773554544846 0 0 0 0.0020874122318969707 0.0028049118007950347 -0.0031316126019991647 0 -0.0031316126019991647 -0.026706915627405681 0 0 0 -0.0059755009566526407 0.0035599069933025173 -0.0067088388429948909 0 -0.0067088388429948909 -0.13037185515679267 0 0 0 -0.031702987040872745 0.0007010977236596716 -0.0032417689467076766 0 -0.0032417689467076766 -0.017370928756320625 0 0 0 -0.0041674577581652938 -0.0011234994944397583 -0.0081792235592657303 0 -0.0081792235592657303 -0.10925303486728516 0 0 0 -0.027594133590431242 0.02238006769372064 -0.023742897227124471 0 -0.023742897227124471 -0.10994199440721775 0 0 0 -0.02189048167837454 -0.00086606293555546721 -0.0073675615097224811 0 -0.0073675615097224811 0.034683160796852963 0 0 0 0.0084542744653244295 0.03829888998982444 -0.056358038602327201 0 -0.056358038602327201 -0.010685804876374079 0 0 0 0.0069032712783623123 0.0054369974312650782 -0.007700803712254789 0 -0.007700803712254789 0.068023102792317824 0 0 0 0.018365025055895712 0.12487182706327812 -0.13905499813344777 0 -0.13905499813344777 0.14234937948193682 0 0 0 0.066805301636303799 0.048359528341170077 -0.1285318963362756 0 -0.1285318963362756 0.17715923422339847 0 0 0 0.0563796906411419 0.033688117435372172 -0.048417365299428722 0 -0.048417365299428722 0.02504259831447353 0 0 0 0.014682678937461585 0.091975430950324233 -0.1813048866370098 0 -0.1813048866370098 0.20634024979988724 0 0 0 0.074578920187552855 0.70515784035365581 -0.27300048449708586 0 -0.27300048449708586 0.057207880086259599 0 0 0 0.19059143010997878 1.0289509591494541 -0.27935005204489549 0 -0.27935005204489549 0.16524115042503812 0 0 0 0.29854802739362318 0.27294057856543152 -0.3990608702914285 0 -0.3990608702914285 0.44641700744464952 0 0 0 0.17983939650252043 0.28726910224922619 -0.27471380864770767 0 -0.27471380864770767 0.24740194941108129 0 0 0 0.13366776291507698 0.023485293861153292 -0.061225651683684074 0 -0.061225651683684074 0.18174267799983981 0 0 0 0.051306992965248446 0.17688663320730663 -0.20455722609052551 0 -0.20455722609052551 0.19221142767513189 0 0 0 0.092274515220609865 0.23429837984821858 -0.17061423559901578 0 -0.17061423559901578 0.30831816174255872 0 0 0 0.13565413539769447 1.2517035201963669 -0.97589843223854222 0 -0.97589843223854222 0.82973543981633502 0 0 0 0.52035974000317564 0.035099925599009041 0.28741378075740914 0 0.28741378075740914 0.57562613720717792 0 0 0 0.15268151570154737 1.3119178277452084 0.99394109101336559 0 0.99394109101336559 1.4555785853235519 0 0 0 0.69187410326719045 1.5490776027427125e-05 6.6639267412185203e-07 0 6.6639267412185203e-07 5.2326105370791621e-06 0 0 0 5.1808466411265701e-06 0.17519904222869159 0.2040731929243042 0 0.2040731929243042 0.50308625549342378 0 0 0 0.16957132443052886 3.9842210334621291e-05 1.2294694092725838e-06 0 1.2294694092725838e-06 1.3185076545923244e-05 0 0 0 1.3256821720136132e-05 0.00060054145224247568 0.082694436037197311 0 0.082694436037197311 0.43385050668072078 0 0 0 0.10861276203324172 0.32079164106845265 0.35806558498817948 0 0.35806558498817948 0.31595453620497227 0 0 0 0.15918654431835605 1.2062431345714768 0.16663052962727254 0 0.16663052962727254 0.36409672338264454 0 0 0 0.39258496448853059 1.0899265361824788 0.72818586766904958 0 0.72818586766904958 0.85390011981602987 0 0 0 0.48595666399962678 0.83710041969795879 0.19861345750893528 0 0.19861345750893528 0.13982271868565999 0 0 0 0.24423078459590464 0.58472858682514173 0.4321023929477753 0 0.4321023929477753 0.41283380302050032 0 0 0 0.24939059746141079 0.2402090115986093 0.24961959528624955 0 0.24961959528624955 0.17441345068542358 0 0 0 0.10365561557100822 0.21730556433604592 0.25309400207512139 0 0.25309400207512139 0.34703803174593961 0 0 0 0.14108589902049679 0.023255729056981023 0.12256171380371877 0 0.12256171380371877 0.27638870914256436 0 0 0 0.074911109549885987 0.056790720252659098 0.11596408687765405 0 0.11596408687765405 0.27112543934539463 0 0 0 0.081979039899513412 0.18267742236427117 0.32288411146807461 0 0.32288411146807461 0.61754493704514124 0 0 0 0.20005558985235203 0.10714673863389743 0.15993621800353539 0 0.15993621800353539 0.33511035331352468 0 0 0 0.11056427298685642 -0.0060948993629120381 0.028079905720618421 0 0.028079905720618421 0.36087106946075886 0 0 0 0.088694042524460823 0.072425689752978362 0.064366274740258925 0 0.064366274740258925 0.22936189870466661 0 0 0 0.07544689711441166 5.6024278095008167e-05 1.5277093406351479e-06 0 1.5277093406351479e-06 1.8649943280079491e-05 0 0 0 1.8668555343771909e-05 -0.0038558841862938453 0.023768008616879062 0 0.023768008616879062 0.20746929970286523 0 0 0 0.05090335387914352 6.9490466689044777e-05 1.8084826450501339e-06 0 1.8084826450501339e-06 2.3121911217429752e-05 0 0 0 2.3153094476618633e-05 -0.0038821298171308814 0.025910284963439015 0 0.025910284963439015 0.17452524208677109 0 0 0 0.042660778067410525 0.01989439150461534 0.021970125438050658 0 0.021970125438050658 0.10332164389649227 0 0 0 0.030804008850279542 8.1494948719358556e-05 2.1001589775017052e-06 0 2.1001589775017052e-06 2.7113207563007718e-05 0 0 0 2.7152039070591567e-05 -0.0023975513133162041 0.012674470368566948 0 0.012674470368566948 0.17742348788925577 0 0 0 0.043756484143984475 0.0023346339672005723 0.010454369377567274 0 0.010454369377567274 0.08578677084954256 0 0 0 0.022030351204187282 9.255266965567033e-05 2.3325949578821748e-06 0 2.3325949578821748e-06 3.0793613096632255e-05 0 0 0 3.0836570688075641e-05 -0.0012180174617387463 0.0059030028625472047 0 0.0059030028625472047 0.11481779261048164 0 0 0 0.028399943787187049 0.021830862447192317 0.054638793167413151 0 0.054638793167413151 0.14665267261715442 0 0 0 0.042120883766088552 0.0015967520828891369 0.047709560416630423 0 0.047709560416630423 0.19137684467667071 0 0 0 0.04824339918988909 0.033626334417175496 0.053365037805738091 0 0.053365037805738091 0.16958215433311041 0 0 0 0.050802122187571908 -0.0016372624777197253 0.004301983129132908 0 0.004301983129132908 0.066292207528293234 0 0 0 0.016163736262644723 -0.00070688704614934694 0.0048391356349906101 0 0.0048391356349906101 0.051001635897130207 0 0 0 0.012573687212743495 0.00011274440465977479 2.7317572573159154e-06 0 2.7317572573159154e-06 3.7529725186266613e-05 0 0 0 3.7568532461510359e-05 -0.0011509555248979397 0.0050955186907366001 0 0.0050955186907366001 0.098230428347342635 0 0 0 0.024269868205612083 0.0066650477721472701 0.0073804489419899699 0 0.0073804489419899699 0.05841294410261666 0 0 0 0.016269497968691704 0.00010289751305280013 2.5476983508742099e-06 0 2.5476983508742099e-06 3.4248201292208624e-05 0 0 0 3.4286428586252185e-05 0.010609692345841193 0.028081524530115625 0 0.028081524530115625 0.094291193118843264 0 0 0 0.026225221366170226 0.008271455303084041 0.030840690819871674 0 0.030840690819871674 0.079320582118032612 0 0 0 0.021898009355280523 -0.0022776517637809676 0.024265245239241673 0 0.024265245239241673 0.10339933807752057 0 0 0 0.025280421578435748 0.031160084210442307 0.074902885358839488 0 0.074902885358839488 0.12323575858515756 0 0 0 0.03859896069890062 0.0062183411414402645 0.08691847481205639 0 0.08691847481205639 0.13790539883711928 0 0 0 0.036030934994639496 0.050748332519933159 0.14489964226440744 0 0.14489964226440744 0.17818420887034803 0 0 0 0.057233135347570796 0.078990736253417237 0.1289744603800827 0 0.1289744603800827 0.21629915692774349 0 0 0 0.073822473295290125 0.094116852779479787 0.18285232301064352 0 0.18285232301064352 0.21077677632881375 0 0 0 0.07622340727707333 0.042443201030352595 0.11285706167731113 0 0.11285706167731113 0.074522864381349585 0 0 0 0.029241516352926267 0.098490413395210807 0.14384736332491654 0 0.14384736332491654 0.14611691649081404 0 0 0 0.061151832471506018 0.16171772619049013 0.16616520417302461 0 0.16616520417302461 0.084269262098171094 0 0 0 0.061496747072165292 0.15239126632936245 0.18084390372179238 0 0.18084390372179238 0.069959361075806248 0 0 0 0.055587656851292244 0.50502299011620466 0.17632973178343692 0 0.17632973178343692 0.01803562586814178 0 0 0 0.13076465399608672 0.51947701650368283 0.1650956200793563 0 0.1650956200793563 0.031319641194636372 0 0 0 0.13769916442458019 0.64435622465028475 0.21378374073317874 0 0.21378374073317874 0.073185138786425519 0 0 0 0.17938534085917768 0.35979150027390111 0.30513972304553816 0 0.30513972304553816 0.21229106109099277 0 0 0 0.14302064034122325 0.23907808243963957 0.21078880805142952 0 0.21078880805142952 0.11469425952631251 0 0 0 0.088443085491488271 -0.0015139233701211285 0.0050991972346527024 0 0.0050991972346527024 0.0082661344037671114 0 0 0 0.0016880527584115512 0.0098526129162707088 0.003759401504435711 0 0.003759401504435711 0.0044303385999906464 0 0 0 0.0035707378790658106 0.0017030899532773924 -0.0017810630698718022 0 -0.0017810630698718022 -0.00034186592370621938 0 0 0 0.00034030600739110017 -0.0066142952215995088 -0.0015244625022089173 0 -0.0015244625022089173 0.0024909968116701986 0 0 0 -0.0010308246024823831 -0.00027113993732158503 -0.0022316616738495831 0 -0.0022316616738495831 -0.00057104732117974066 0 0 0 -0.00021054681462800984 -0.0021068491460807248 -0.0018127710878517167 0 -0.0018127710878517167 -0.0013371547812779383 0 0 0 -0.00086100098183883311 -0.00054326920608334102 -0.0014528987529751625 0 -0.0014528987529751625 -0.0016440884223166471 0 0 0 -0.00054683940709994157 0.00018720613544655931 3.1969475461208984e-06 0 3.1969475461208984e-06 5.2577499616415061e-05 0 0 0 5.9945908765743582e-05 0.00018258288853722333 3.3665840887650494e-06 0 3.3665840887650494e-06 6.0789648726911352e-05 0 0 0 6.0843134316033671e-05 0.00028355067547813917 -0.001967526429468569 0 -0.001967526429468569 -0.0057284807583450892 0 0 0 -0.0013612325207201792 6.8976756262606465e-05 -0.0019696471544419225 0 -0.0019696471544419225 -0.0014000943711216518 0 0 0 -0.00033277940371123638 -9.3177960771073653e-05 -0.0016248650927696284 0 -0.0016248650927696284 -0.0022733669934155154 0 0 0 -0.00059163623854802116 0.00073387203449698513 -0.0024637537527907871 0 -0.0024637537527907871 0.00019455516512478788 0 0 0 0.00023210679990320893 -0.00026640936452826391 -0.0018859400020397876 0 -0.0018859400020397876 -0.0014712846798738966 0 0 0 -0.00043442351110234423 0.0041096144962075865 -0.00092532566366210212 0 -0.00092532566366210212 -0.0012417131930127778 0 0 0 0.00071697532580047851 0.0037041515256168722 0.0037469322911074885 0 0.0037469322911074885 0.0062039607054633628 0 0 0 0.0024770280577700587 0.0032990845390585555 0.0044496074002390862 0 0.0044496074002390862 0.0046635076723652302 0 0 0 0.0019906480528568415 7.9823212612295524e-05 -0.0012426176575775078 0 -0.0012426176575775078 -0.00040869766693052423 0 0 0 -8.2218613581319655e-05 0.00017432094272140514 3.3294805587299277e-06 0 3.3294805587299277e-06 5.8090547576411786e-05 0 0 0 5.8102872574454234e-05 0.0018731137029732725 -0.00076739358647470723 0 -0.00076739358647470723 -0.010431302800468778 0 0 0 -0.0021395472743719335 0.0024361573230502281 0.0010572831881353606 0 0.0010572831881353606 -0.0087244865604812517 0 0 0 -0.0015720823093585885 0.00016598330532562814 3.3259755276046242e-06 0 3.3259755276046242e-06 5.5303823690783985e-05 0 0 0 5.5321782254103034e-05 0.00012733894302074944 0.0035386512444055551 0 0.0035386512444055551 0.0056186757823861733 0 0 0 0.0014365036813530629 0.0080687474111273139 0.013418213989150246 0 0.013418213989150246 0.019577626423152361 0 0 0 0.006911593458568982 0.0072943086873410445 0.010187724081461402 0 0.010187724081461402 0.015944858016913588 0 0 0 0.0058097916760649904 0.011949508538913356 0.018451282040008121 0 0.018451282040008121 0.0036435109379673314 0 0 0 0.003898254869221851 0.027902308676738263 0.034303225202530374 0 0.034303225202530374 0.035530152871956044 0 0 0 0.015858115387172633 0.010353269880550853 0.043710729662711501 0 0.043710729662711501 0.015129799007294054 0 0 0 0.006370767221960838 0.042266643899609324 0.063842881984408961 0 0.063842881984408961 0.072495421456543863 0 0 0 0.028690516339037853 0.019041471126972132 0.029726805009571783 0 0.029726805009571783 0.038483034668664762 0 0 0 0.014381126448908821 0.0026253209739345099 0.032341949785778368 0 0.032341949785778368 0.045271504218281217 0 0 0 0.011974206298051772 0.0023577433270041692 0.016283048375865194 0 0.016283048375865194 0.014201822118267093 0 0 0 0.0041398913613182597 2.2613047594377544e-05 0.0038662323355338479 0 0.0038662323355338479 0.0052909440935806629 0 0 0 0.0013283892852910539 0.0081327397549399438 0.011655538335008486 0 0.011655538335008486 0.013746877957443449 0 0 0 0.0054699044280985265 -0.00098117409252040932 0.002054264212348611 0 0.002054264212348611 0.0074290658268378884 0 0 0 0.0016119729335802857 0.00015755393200413278 3.2963189263637434e-06 0 3.2963189263637434e-06 5.248651806812405e-05 0 0 0 5.2510112518064212e-05 0.0015142680472716255 0.0026635512793209415 0 0.0026635512793209415 -0.0078682789952172205 0 0 0 -0.0015885027369880642 -0.00082147557091682977 0.0041274824157770951 0 0.0041274824157770951 0.022116990713040963 0 0 0 0.0053238787855296454 0.00014901018896024506 3.2448761135233479e-06 0 3.2448761135233479e-06 4.9632632052076891e-05 0 0 0 4.9660705253080486e-05 0.0013403327085035333 0.0028292300988558283 0 0.0028292300988558283 0.00057028228032063311 0 0 0 0.00047765374720598608 0.0038507044694879866 0.010940995565093481 0 0.010940995565093481 0.021284025203700985 0 0 0 0.0062836824182967987 -0.00078403765167345263 0.011064824543486229 0 0.011064824543486229 0.027844731645156232 0 0 0 0.0067651734983689149 0.0088186220011216565 0.021921898993072175 0 0.021921898993072175 0.04080113516031636 0 0 0 0.01240493929035863 -0.0018862286948429733 0.018633630208672647 0 0.018633630208672647 0.056764231023959486 0 0 0 0.013719500582280031 -0.0010671907262941316 0.0046546644723789443 0 0.0046546644723789443 0.028806283627355933 0 0 0 0.0069347732252663663 0.00014029818262437042 3.1664805987339119e-06 0 3.1664805987339119e-06 4.6721524843945691e-05 0 0 0 4.6754926867079032e-05 0.0036358639242896691 0.0050029941262328403 0 0.0050029941262328403 0.0083682172438689015 0 0 0 0.0030010202920413638 0.00012221613646529449 2.9072539744495934e-06 0 2.9072539744495934e-06 4.0688765917911045e-05 0 0 0 4.0726225595801381e-05 0.0022586283968605032 0.0065520423768428149 0 0.0065520423768428149 0.034194006731791217 0 0 0 0.0091131587821647615 0.00042783410782010201 0.005853226072272677 0 0.005853226072272677 0.024220326403202819 0 0 0 0.0061620401277504566 0.00013137882793422641 3.0507370840810565e-06 0 3.0507370840810565e-06 4.3745256112201524e-05 0 0 0 4.3781021011606985e-05 -0.0008236619431116754 0.0057050614185314985 0 0.0057050614185314985 0.053679236194702051 0 0 0 0.013213893562895818 0.0026444381412639717 0.018627774151271093 0 0.018627774151271093 0.049133841633621556 0 0 0 0.012944569943721784 0.00056998044658251867 0.057176498319225333 0 0.057176498319225333 0.071616773838488079 0 0 0 0.018046688571267899 0.025047368932586689 0.047111542905183407 0 0.047111542905183407 0.069133928107504516 0 0 0 0.02354532426002337 0.12605029773940357 0.10644118637452293 0 0.10644118637452293 0.04231675856147632 0 0 0 0.04209176407521964 0.059203365948300612 0.10317945625720548 0 0.10317945625720548 0.10696967665733959 0 0 0 0.041543260651410063 0.023254457409284113 0.076303212881784876 0 0.076303212881784876 0.042047542004078231 0 0 0 0.016325499853339975 0.065771537012098535 0.060764183395595861 0 0.060764183395595861 0.038509942782452899 0 0 0 0.026070369948636818 0.044204305161829049 0.078751326425715362 0 0.078751326425715362 0.04472621646033037 0 0 0 0.022232630405540244 0.03416268882332818 0.037995777303817979 0 0.037995777303817979 0.0025420014921326839 0 0 0 0.0091761725788657156 0.037172846901337708 0.031447103633784723 0 0.031447103633784723 0.025837079044300992 0 0 0 0.015752481486410508 0.087361124209233587 0.064776671516442952 0 0.064776671516442952 0.040741206564620214 0 0 0 0.032025582693463672 0.053415512057924719 0.027220137059501104 0 0.027220137059501104 -0.0016188284683602561 0 0 0 0.012949170897390783 0.01905540598442379 0.0075436888273819891 0 0.0075436888273819891 -0.0025367091739993963 0 0 0 0.0041296742026065703 0.026162617141782585 0.018690702451290894 0 0.018690702451290894 0.019849156986214034 0 0 0 0.011502943531999321 0.16108834817366299 0.050064083941309345 0 0.050064083941309345 -0.084876466431264189 0 0 0 0.019052970435600034 0.099950195654542107 0.036832988045099713 0 0.036832988045099713 0.011641157152116222 0 0 0 0.027897838201664804 0.10570161969925684 0.04197869053721881 0 0.04197869053721881 -0.00047741463147765728 0 0 0 0.026306051266944186 0.09007700279771913 0.12311860314383671 0 0.12311860314383671 -0.046655453173861439 0 0 0 0.010855387405964922 0.19270431836318358 0.11026243037207595 0 0.11026243037207595 -0.0094249431115489557 0 0 0 0.04581984381290849 0.12415850536942463 0.071375913132027069 0 0.071375913132027069 0.0062832892959088227 0 0 0 0.032610448666333114 0.076034603278250457 0.074571973862843643 0 0.074571973862843643 -0.0043634261083389525 0 0 0 0.017917794292477807 0.15298150625559837 0.071487786986980772 0 0.071487786986980772 -0.03185912977339278 0 0 0 0.030280594120551285 0.18971654878338029 0.025609058647413981 0 0.025609058647413981 -0.018857606709008934 0 0 0 0.042714735518592839 0.25407772934001815 0.10223811892507184 0 0.10223811892507184 -0.29170994058533173 0 0 0 -0.0094080528113281714 0.29388868604795548 0.092894101714992183 0 0.092894101714992183 -0.11018137660281191 0 0 0 0.04592682736128606 0.26210684398623751 0.11270798818181738 0 0.11270798818181738 -0.14553226803737251 0 0 0 0.029143643987215695 0.30042708447254096 0.1873620396802162 0 0.1873620396802162 0.013826377459406736 0 0 0 0.078563365482987146 0.16163003012000199 0.093881687177840289 0 0.093881687177840289 -0.15637119716576642 0 0 0 0.0013147082385593922 0.26934132828092761 -0.055152316811792779 0 -0.055152316811792779 -0.18465093307794289 0 0 0 0.021172598800746067 0.19764767450323928 -0.11941569873729119 0 -0.11941569873729119 -0.10533415871340246 0 0 0 0.023078378947459122 0.2961020905781423 -0.049830770573035199 0 -0.049830770573035199 -0.33293167725969813 0 0 0 -0.009207396670389079 0.089924884993169085 -0.095039971637551179 0 -0.095039971637551179 -0.027302880334015622 0 0 0 0.01565550116478831 0.16279052617097747 -0.086597485717932243 0 -0.086597485717932243 -0.10850402084249509 0 0 0 0.013571626332120652 -0.24186165525228359 -0.10686047809752756 0 -0.10686047809752756 0.085309222119386741 0 0 0 -0.039138108283224282 0.14596762294804372 -0.2143613296946455 0 -0.2143613296946455 0.088416805806984966 0 0 0 0.05859610718875724 0.046909572592971904 -0.093818313779264417 0 -0.093818313779264417 -0.039478940139772156 0 0 0 0.0018576581133000758 0.0022455237138383072 -0.13788798401673397 0 -0.13788798401673397 0.039534502443869246 0 0 0 0.010445006539426885 0.14472587258476369 -0.054994594630846466 0 -0.054994594630846466 0.10327083828826134 0 0 0 0.061999177718256269 0.29383256737550534 -0.13153517119813896 0 -0.13153517119813896 0.22333487092389859 0 0 0 0.12929185957485095 0.41354493486320965 -0.055044617436735999 0 -0.055044617436735999 0.46296042417844019 0 0 0 0.21912633976041249 0.61777810516106724 -0.17589622772425076 0 -0.17589622772425076 0.12156631886635472 0 0 0 0.18483610600685529 0.73865276151499804 0.055098457072426832 0 0.055098457072426832 0.86310076122651203 0 0 0 0.40043838068537746 0.92370438224612006 -0.033778061631922485 0 -0.033778061631922485 0.4457285716534708 0 0 0 0.3423582384748981 1.386597345052494 -0.29998015159485142 0 -0.29998015159485142 1.2766884440471715 0 0 0 0.6658214472749161 2.4654955488325769 0.16420107658025529 0 0.16420107658025529 0.62614906363514544 0 0 0 0.77291115311693115 1.066124694905878 -0.2168657057836513 0 -0.2168657057836513 0.44349416523683782 0 0 0 0.37740471503567891 0.92314493411514209 0.24206396822867174 0 0.24206396822867174 0.22716840351221501 0 0 0 0.2875783344068395 0.58825390175326242 -0.05679493930970092 0 -0.05679493930970092 0.17464469377139225 0 0 0 0.19072464888116364 0.48582586196007793 -0.019476912585162154 0 -0.019476912585162154 -0.10132262468065623 0 0 0 0.096125809319855371 0.8335774930901152 -0.018689120896906108 0 -0.018689120896906108 0.080708473646911472 0 0 0 0.22857149168425628 0.4656518893418235 -0.013917166596331354 0 -0.013917166596331354 -0.042043410482562313 0 0 0 0.10590211971481553 0.31364162358661762 -0.15119220351659723 0 -0.15119220351659723 -0.064267817542480538 0 0 0 0.062343451511034272 0.34670818164823913 -0.15607870352910244 0 -0.15607870352910244 0.050569200889815091 0 0 0 0.09931934563451339 
</DataArray>
</CellData>
</Piece>
</UnstructuredGrid>
</VTKFile>
