<?xml version="1.0"?>
<VTKFile type="UnstructuredGrid" version="0.1" byte_order="LittleEndian">
<UnstructuredGrid>
<Piece NumberOfPoints="880" NumberOfCells="299">
<Points>
<DataArray type="Float64" NumberOfComponents="3" format="ascii">
-0 0 0 0.18653882694645291 0.22249173546702489 0 0 0.25000000000104189 0 -0 0 0 0.18653882694645291 0.22249173546702489 0 0.24999999999941089 0 0 0.24999999999941089 0 0 0.35015135319464608 0.1900339269648805 0 0.49999999999869182 0 0 0.18653882694645291 0.22249173546702489 0 0.24999999999941089 0 0 0.35015135319464608 0.1900339269648805 0 0.35015135319464608 0.1900339269648805 0 0.49924741621175961 0.21507969613896921 0 0.49999999999869182 0 0 0.35015135319464608 0.1900339269648805 0 0.49924741621175961 0.21507969613896921 0 0.40587285776242238 0.32419148732968017 0 0.37764981543668408 0.41341486499350411 0 0.41576443813007791 0.48093483781626972 0 0.45418244162583959 0.41624787166862259 0 0.37764981543668408 0.41341486499350411 0 0.45418244162583959 0.41624787166862259 0 0.40587285776242238 0.32419148732968017 0 0.41576443813007791 0.48093483781626972 0 0.46566719828045178 0.47702825415921918 0 0.45418244162583959 0.41624787166862259 0 0.41576443813007791 0.48093483781626972 0 0.46566719828045178 0.47702825415921918 0 0.4638583922372429 0.51470588235294135 0 0.46566719828045178 0.47702825415921918 0 0.49954900152271581 0.45107191084564019 0 0.5 0.5 0 0.46566719828045178 0.47702825415921918 0 0.4638583922372429 0.51470588235294135 0 0.5 0.5 0 0.46566719828045178 0.47702825415921918 0 0.49954900152271581 0.45107191084564019 0 0.45418244162583959 0.41624787166862259 0 0.45418244162583959 0.41624787166862259 0 0.49435464945626773 0.33318442629318029 0 0.54876010062294855 0.39662628167175101 0 0.45418244162583959 0.41624787166862259 0 0.49435464945626773 0.33318442629318029 0 0.40587285776242238 0.32419148732968017 0 0.49924741621175961 0.21507969613896921 0 0.49435464945626773 0.33318442629318029 0 0.40587285776242238 0.32419148732968017 0 0.35015135319464608 0.1900339269648805 0 0.40587285776242238 0.32419148732968017 0 0.29145599617909779 0.35026601625021492 0 0.37764981543668408 0.41341486499350411 0 0.40587285776242238 0.32419148732968017 0 0.29145599617909779 0.35026601625021492 0 0.18653882694645291 0.22249173546702489 0 0.35015135319464608 0.1900339269648805 0 0.29145599617909779 0.35026601625021492 0 0.29145599617909779 0.35026601625021492 0 0.32540781287085369 0.49175159894608172 0 0.17872124008781709 0.39692711089439497 0 0.37764981543668408 0.41341486499350411 0 0.29145599617909779 0.35026601625021492 0 0.32540781287085369 0.49175159894608172 0 0.37764981543668408 0.41341486499350411 0 0.41576443813007791 0.48093483781626972 0 0.32540781287085369 0.49175159894608172 0 0.17872124008781709 0.39692711089439497 0 0 0.25000000000104189 0 0 0.50000000000206157 0 0.17872124008781709 0.39692711089439497 0 0 0.50000000000206157 0 0.22453074737734591 0.51613635929252633 0 0.32540781287085369 0.49175159894608172 0 0.17872124008781709 0.39692711089439497 0 0.22453074737734591 0.51613635929252633 0 0.18653882694645291 0.22249173546702489 0 0.29145599617909779 0.35026601625021492 0 0.17872124008781709 0.39692711089439497 0 0.18653882694645291 0.22249173546702489 0 0.17872124008781709 0.39692711089439497 0 0 0.25000000000104189 0 0 0.50000000000206157 0 0.18442368612951149 0.62734948407416979 0 0 0.75000000000034772 0 0.18442368612951149 0.62734948407416979 0 0.22727208279115291 0.72949159435386135 0 0 0.75000000000034772 0 0.18442368612951149 0.62734948407416979 0 0.22727208279115291 0.72949159435386135 0 0.31346558946927339 0.67110784456164874 0 0.18442368612951149 0.62734948407416979 0 0.22453074737734591 0.51613635929252633 0 0.31771010312359771 0.58585679504088894 0 0 0.50000000000206157 0 0.18442368612951149 0.62734948407416979 0 0.22453074737734591 0.51613635929252633 0 0 1 0 0.096516139048187316 0.89789944498939644 0 0 0.75000000000034772 0 0 1 0 0.096516139048187316 0.89789944498939644 0 0.1596341872805197 1 0 0.096516139048187316 0.89789944498939644 0 0 0.75000000000034772 0 0.1644705180525495 0.8200994301041713 0 0.1644705180525495 0.8200994301041713 0 0.2386314078659193 0.92924778694987087 0 0.27155609766735261 0.80398965554903801 0 0.22727208279115291 0.72949159435386135 0 0 0.75000000000034772 0 0.1644705180525495 0.8200994301041713 0 0.22727208279115291 0.72949159435386135 0 0.1644705180525495 0.8200994301041713 0 0.27155609766735261 0.80398965554903801 0 0.096516139048187316 0.89789944498939644 0 0.1644705180525495 0.8200994301041713 0 0.2386314078659193 0.92924778694987087 0 0.096516139048187316 0.89789944498939644 0 0.2386314078659193 0.92924778694987087 0 0.1596341872805197 1 0 0.2386314078659193 0.92924778694987087 0 0.1596341872805197 1 0 0.27591592301363282 1 0 0.36061858902161292 1 0 0.32789203369730929 0.94219211037003092 0 0.27591592301363282 1 0 0.36061858902161292 1 0 0.32789203369730929 0.94219211037003092 0 0.39382242252278338 0.95440420122950598 0 0.2386314078659193 0.92924778694987087 0 0.32789203369730929 0.94219211037003092 0 0.27591592301363282 1 0 0.2386314078659193 0.92924778694987087 0 0.32789203369730929 0.94219211037003092 0 0.31834856208730472 0.88134829947972904 0 0.32789203369730929 0.94219211037003092 0 0.37746652222901839 0.8987532801416368 0 0.39382242252278338 0.95440420122950598 0 0.32789203369730929 0.94219211037003092 0 0.31834856208730472 0.88134829947972904 0 0.37746652222901839 0.8987532801416368 0 0.2386314078659193 0.92924778694987087 0 0.31834856208730472 0.88134829947972904 0 0.27155609766735261 0.80398965554903801 0 0.31834856208730472 0.88134829947972904 0 0.36493375430404612 0.82333914183704071 0 0.37746652222901839 0.8987532801416368 0 0.31834856208730472 0.88134829947972904 0 0.36493375430404612 0.82333914183704071 0 0.27155609766735261 0.80398965554903801 0 0.22727208279115291 0.72949159435386135 0 0.27155609766735261 0.80398965554903801 0 0.32984265945580837 0.74432890077789404 0 0.36493375430404612 0.82333914183704071 0 0.27155609766735261 0.80398965554903801 0 0.32984265945580837 0.74432890077789404 0 0.36493375430404612 0.82333914183704071 0 0.39746869305290999 0.7595658224757349 0 0.32984265945580837 0.74432890077789404 0 0.36493375430404612 0.82333914183704071 0 0.39746869305290999 0.7595658224757349 0 0.42893012659725649 0.81084715169569632 0 0.39746869305290999 0.7595658224757349 0 0.42893012659725649 0.81084715169569632 0 0.44651949253391748 0.77225997208621999 0 0.39746869305290999 0.7595658224757349 0 0.44651949253391748 0.77225997208621999 0 0.43412357948152142 0.72128778687215156 0 0.44651949253391748 0.77225997208621999 0 0.47786860714145291 0.77730227330627721 0 0.47220206448452873 0.74892462649306213 0 0.47786860714145291 0.77730227330627721 0 0.47220206448452873 0.74892462649306213 0 0.5 0.76470588235294124 0 0.47786860714145291 0.77730227330627721 0 0.5 0.79411764705882359 0 0.5 0.76470588235294124 0 0.47062147868881782 0.80650323854033878 0 0.5 0.82352941176470584 0 0.5 0.79411764705882359 0 0.47786860714145291 0.77730227330627721 0 0.47062147868881782 0.80650323854033878 0 0.5 0.79411764705882359 0 0.44651949253391748 0.77225997208621999 0 0.47786860714145291 0.77730227330627721 0 0.47062147868881782 0.80650323854033878 0 0.42893012659725649 0.81084715169569632 0 0.44651949253391748 0.77225997208621999 0 0.47062147868881782 0.80650323854033878 0 0.42893012659725649 0.81084715169569632 0 0.47062147868881782 0.80650323854033878 0 0.46181179062043481 0.83858979842637782 0 0.42893012659725649 0.81084715169569632 0 0.46181179062043481 0.83858979842637782 0 0.42880856207355889 0.86677159981903118 0 0.46181179062043481 0.83858979842637782 0 0.5 0.85294117647058831 0 0.5 0.82352941176470584 0 0.47062147868881782 0.80650323854033878 0 0.46181179062043481 0.83858979842637782 0 0.5 0.82352941176470584 0 0.46181179062043481 0.83858979842637782 0 0.47032448519202857 0.86718057681700655 0 0.5 0.85294117647058831 0 0.47032448519202857 0.86718057681700655 0 0.5 0.88235294117647056 0 0.5 0.85294117647058831 0 0.46181179062043481 0.83858979842637782 0 0.47032448519202857 0.86718057681700655 0 0.42880856207355889 0.86677159981903118 0 0.36493375430404612 0.82333914183704071 0 0.42880856207355889 0.86677159981903118 0 0.37746652222901839 0.8987532801416368 0 0.36493375430404612 0.82333914183704071 0 0.42893012659725649 0.81084715169569632 0 0.42880856207355889 0.86677159981903118 0 0.37746652222901839 0.8987532801416368 0 0.42822627495986648 0.92083108049218854 0 0.39382242252278338 0.95440420122950598 0 0.42880856207355889 0.86677159981903118 0 0.37746652222901839 0.8987532801416368 0 0.42822627495986648 0.92083108049218854 0 0.47032448519202857 0.86718057681700655 0 0.42880856207355889 0.86677159981903118 0 0.46100207326614928 0.89524736819256467 0 0.42880856207355889 0.86677159981903118 0 0.42822627495986648 0.92083108049218854 0 0.46100207326614928 0.89524736819256467 0 0.47032448519202857 0.86718057681700655 0 0.46100207326614928 0.89524736819256467 0 0.5 0.88235294117647056 0 0.46100207326614928 0.89524736819256467 0 0.5 0.91176470588235292 0 0.5 0.88235294117647056 0 0.46100207326614928 0.89524736819256467 0 0.46949408183482899 0.92833826413560594 0 0.5 0.91176470588235292 0 0.46949408183482899 0.92833826413560594 0 0.5 0.94117647058823528 0 0.5 0.91176470588235292 0 0.42822627495986648 0.92083108049218854 0 0.46100207326614928 0.89524736819256467 0 0.46949408183482899 0.92833826413560594 0 0.46949408183482899 0.92833826413560594 0 0.44768478605684647 0.9646709673379662 0 0.47596308696979028 0.95620709615192379 0 0.42822627495986648 0.92083108049218854 0 0.46949408183482899 0.92833826413560594 0 0.44768478605684647 0.9646709673379662 0 0.44768478605684647 0.9646709673379662 0 0.47596308696979028 0.95620709615192379 0 0.47818194888216242 0.97829325975680159 0 0.46949408183482899 0.92833826413560594 0 0.47596308696979028 0.95620709615192379 0 0.5 0.94117647058823528 0 0.47596308696979028 0.95620709615192379 0 0.47818194888216242 0.97829325975680159 0 0.5 0.97058823529411764 0 0.47596308696979028 0.95620709615192379 0 0.5 0.97058823529411764 0 0.5 0.94117647058823528 0 0.47818194888216242 0.97829325975680159 0 0.46726187138417491 1 0 0.5 1 0 0.47818194888216242 0.97829325975680159 0 0.5 0.97058823529411764 0 0.5 1 0 0.44768478605684647 0.9646709673379662 0 0.47818194888216242 0.97829325975680159 0 0.46726187138417491 1 0 0.44768478605684647 0.9646709673379662 0 0.46726187138417491 1 0 0.42231823435723009 1 0 0.44768478605684647 0.9646709673379662 0 0.42231823435723009 1 0 0.39382242252278338 0.95440420122950598 0 0.42822627495986648 0.92083108049218854 0 0.44768478605684647 0.9646709673379662 0 0.39382242252278338 0.95440420122950598 0 0.36061858902161292 1 0 0.42231823435723009 1 0 0.39382242252278338 0.95440420122950598 0 0.31771010312359771 0.58585679504088894 0 0.3872154068451229 0.6301386882447304 0 0.41980724897053312 0.55867199730355355 0 0.32540781287085369 0.49175159894608172 0 0.31771010312359771 0.58585679504088894 0 0.41980724897053312 0.55867199730355355 0 0.32540781287085369 0.49175159894608172 0 0.22453074737734591 0.51613635929252633 0 0.31771010312359771 0.58585679504088894 0 0.18442368612951149 0.62734948407416979 0 0.31771010312359771 0.58585679504088894 0 0.31346558946927339 0.67110784456164874 0 0.22727208279115291 0.72949159435386135 0 0.32984265945580837 0.74432890077789404 0 0.31346558946927339 0.67110784456164874 0 0.39746869305290999 0.7595658224757349 0 0.32984265945580837 0.74432890077789404 0 0.38513711431054509 0.69312683393047636 0 0.32984265945580837 0.74432890077789404 0 0.31346558946927339 0.67110784456164874 0 0.38513711431054509 0.69312683393047636 0 0.31771010312359771 0.58585679504088894 0 0.31346558946927339 0.67110784456164874 0 0.3872154068451229 0.6301386882447304 0 0.31346558946927339 0.67110784456164874 0 0.3872154068451229 0.6301386882447304 0 0.38513711431054509 0.69312683393047636 0 0.3872154068451229 0.6301386882447304 0 0.38513711431054509 0.69312683393047636 0 0.4390556798454946 0.66199025953586599 0 0.3872154068451229 0.6301386882447304 0 0.4390556798454946 0.66199025953586599 0 0.44702869549010399 0.61002701911053991 0 0.39746869305290999 0.7595658224757349 0 0.38513711431054509 0.69312683393047636 0 0.43412357948152142 0.72128778687215156 0 0.38513711431054509 0.69312683393047636 0 0.43412357948152142 0.72128778687215156 0 0.4390556798454946 0.66199025953586599 0 0.43412357948152142 0.72128778687215156 0 0.47636314644728822 0.72058823529411908 0 0.47220206448452873 0.74892462649306213 0 0.44651949253391748 0.77225997208621999 0 0.43412357948152142 0.72128778687215156 0 0.47220206448452873 0.74892462649306213 0 0.43412357948152142 0.72128778687215156 0 0.46330219403010409 0.69594601192744354 0 0.4390556798454946 0.66199025953586599 0 0.43412357948152142 0.72128778687215156 0 0.46330219403010409 0.69594601192744354 0 0.47636314644728822 0.72058823529411908 0 0.46330219403010409 0.69594601192744354 0 0.47636314644728822 0.72058823529411908 0 0.5 0.70588235294117663 0 0.46330219403010409 0.69594601192744354 0 0.5 0.67647058823529438 0 0.5 0.70588235294117663 0 0.47636314644728822 0.72058823529411908 0 0.5 0.73529411764705888 0 0.5 0.70588235294117663 0 0.47220206448452873 0.74892462649306213 0 0.5 0.73529411764705888 0 0.5 0.76470588235294124 0 0.47636314644728822 0.72058823529411908 0 0.47220206448452873 0.74892462649306213 0 0.5 0.73529411764705888 0 0.4390556798454946 0.66199025953586599 0 0.47501372853621993 0.66300743809067952 0 0.47271076880550111 0.63357150722538136 0 0.4390556798454946 0.66199025953586599 0 0.47271076880550111 0.63357150722538136 0 0.44702869549010399 0.61002701911053991 0 0.46330219403010409 0.69594601192744354 0 0.4390556798454946 0.66199025953586599 0 0.47501372853621993 0.66300743809067952 0 0.46330219403010409 0.69594601192744354 0 0.47501372853621993 0.66300743809067952 0 0.5 0.67647058823529438 0 0.47501372853621993 0.66300743809067952 0 0.5 0.64705882352941191 0 0.5 0.67647058823529438 0 0.47501372853621993 0.66300743809067952 0 0.47271076880550111 0.63357150722538136 0 0.5 0.64705882352941191 0 0.47271076880550111 0.63357150722538136 0 0.5 0.61764705882352966 0 0.5 0.64705882352941191 0 0.47784843225772261 0.60532339797118362 0 0.5 0.5882352941176473 0 0.5 0.61764705882352966 0 0.47271076880550111 0.63357150722538136 0 0.47784843225772261 0.60532339797118362 0 0.5 0.61764705882352966 0 0.46950269699300751 0.57713611057881953 0 0.5 0.55882352941176494 0 0.5 0.5882352941176473 0 0.47784843225772261 0.60532339797118362 0 0.46950269699300751 0.57713611057881953 0 0.5 0.5882352941176473 0 0.46950269699300751 0.57713611057881953 0 0.44702869549010399 0.61002701911053991 0 0.41980724897053312 0.55867199730355355 0 0.47784843225772261 0.60532339797118362 0 0.46950269699300751 0.57713611057881953 0 0.44702869549010399 0.61002701911053991 0 0.47271076880550111 0.63357150722538136 0 0.47784843225772261 0.60532339797118362 0 0.44702869549010399 0.61002701911053991 0 0.3872154068451229 0.6301386882447304 0 0.44702869549010399 0.61002701911053991 0 0.41980724897053312 0.55867199730355355 0 0.41576443813007791 0.48093483781626972 0 0.32540781287085369 0.49175159894608172 0 0.41980724897053312 0.55867199730355355 0 0.41576443813007791 0.48093483781626972 0 0.41980724897053312 0.55867199730355355 0 0.4638583922372429 0.51470588235294135 0 0.41980724897053312 0.55867199730355355 0 0.4638583922372429 0.51470588235294135 0 0.47063366764015668 0.5477498568705923 0 0.46950269699300751 0.57713611057881953 0 0.41980724897053312 0.55867199730355355 0 0.47063366764015668 0.5477498568705923 0 0.46950269699300751 0.57713611057881953 0 0.47063366764015668 0.5477498568705923 0 0.5 0.55882352941176494 0 0.47063366764015668 0.5477498568705923 0 0.5 0.52941176470588269 0 0.5 0.55882352941176494 0 0.4638583922372429 0.51470588235294135 0 0.47063366764015668 0.5477498568705923 0 0.5 0.52941176470588269 0 0.4638583922372429 0.51470588235294135 0 0.5 0.5 0 0.5 0.52941176470588269 0 0.5 0.52941176470588269 0 0.52629893369322589 0.51330452493555312 0 0.52820848765230954 0.54540076010342464 0 0.5 0.5 0 0.5 0.52941176470588269 0 0.52629893369322589 0.51330452493555312 0 0.5 0.5 0 0.5 0.52941176470588269 0 0.5 0.52941176470588269 0 0.5 0.55882352941176494 0 0.52820848765230954 0.54540076010342464 0 0.5 0.52941176470588269 0 0.5 0.55882352941176494 0 0.5 0.55882352941176494 0 0.52820848765230954 0.54540076010342464 0 0.52246722155046366 0.57417151085839346 0 0.52820848765230954 0.54540076010342464 0 0.56199650931215228 0.51957997397013023 0 0.55931585964581554 0.57571189932143541 0 0.52629893369322589 0.51330452493555312 0 0.56199650931215228 0.51957997397013023 0 0.54128967150166729 0.47213012589832831 0 0.52629893369322589 0.51330452493555312 0 0.52820848765230954 0.54540076010342464 0 0.56199650931215228 0.51957997397013023 0 0.56199650931215228 0.51957997397013023 0 0.61174067805461174 0.54148194547208961 0 0.60345082206666756 0.47575908627627911 0 0.56199650931215228 0.51957997397013023 0 0.61174067805461174 0.54148194547208961 0 0.55931585964581554 0.57571189932143541 0 0.61174067805461174 0.54148194547208961 0 0.61264973759093866 0.60999664295093947 0 0.55931585964581554 0.57571189932143541 0 0.61264973759093866 0.60999664295093947 0 0.55931585964581554 0.57571189932143541 0 0.55828304378107996 0.63546085023637511 0 0.55931585964581554 0.57571189932143541 0 0.52754891270107895 0.60396918438229519 0 0.55828304378107996 0.63546085023637511 0 0.52754891270107895 0.60396918438229519 0 0.52222323737415433 0.63323059203007803 0 0.55828304378107996 0.63546085023637511 0 0.52820848765230954 0.54540076010342464 0 0.55931585964581554 0.57571189932143541 0 0.52246722155046366 0.57417151085839346 0 0.55931585964581554 0.57571189932143541 0 0.52246722155046366 0.57417151085839346 0 0.52754891270107895 0.60396918438229519 0 0.52246722155046366 0.57417151085839346 0 0.5 0.5882352941176473 0 0.52754891270107895 0.60396918438229519 0 0.5 0.55882352941176494 0 0.52246722155046366 0.57417151085839346 0 0.5 0.5882352941176473 0 0.5 0.55882352941176494 0 0.5 0.5882352941176473 0 0.52754891270107895 0.60396918438229519 0 0.5 0.61764705882352966 0 0.52222323737415433 0.63323059203007803 0 0.5 0.5882352941176473 0 0.5 0.61764705882352966 0 0.5 0.5882352941176473 0 0.52754891270107895 0.60396918438229519 0 0.5 0.61764705882352966 0 0.5 0.61764705882352966 0 0.52222323737415433 0.63323059203007803 0 0.5 0.64705882352941191 0 0.5 0.61764705882352966 0 0.5 0.64705882352941191 0 0.52222323737415433 0.63323059203007803 0 0.5 0.64705882352941191 0 0.52736180768426655 0.66304505109048573 0 0.5 0.64705882352941191 0 0.5 0.67647058823529438 0 0.52736180768426655 0.66304505109048573 0 0.5 0.64705882352941191 0 0.5 0.67647058823529438 0 0.5 0.67647058823529438 0 0.52736180768426655 0.66304505109048573 0 0.52189318962165776 0.69193883095305098 0 0.52736180768426655 0.66304505109048573 0 0.52189318962165776 0.69193883095305098 0 0.55852327729743823 0.69498827241231187 0 0.52736180768426655 0.66304505109048573 0 0.55828304378107996 0.63546085023637511 0 0.55852327729743823 0.69498827241231187 0 0.52222323737415433 0.63323059203007803 0 0.52736180768426655 0.66304505109048573 0 0.55828304378107996 0.63546085023637511 0 0.5 0.73529411764705888 0 0.52547133540542634 0.72058823529411897 0 0.5211984712236245 0.75134107022269114 0 0.5 0.73529411764705888 0 0.52547133540542634 0.72058823529411897 0 0.5 0.70588235294117663 0 0.5 0.73529411764705888 0 0.5 0.70588235294117663 0 0.52547133540542634 0.72058823529411897 0 0.5 0.70588235294117663 0 0.52189318962165776 0.69193883095305098 0 0.5 0.67647058823529438 0 0.5 0.70588235294117663 0 0.52189318962165776 0.69193883095305098 0 0.5 0.67647058823529438 0 0.5 0.70588235294117663 0 0.52547133540542634 0.72058823529411897 0 0.52189318962165776 0.69193883095305098 0 0.55852327729743823 0.69498827241231187 0 0.52547133540542634 0.72058823529411897 0 0.5211984712236245 0.75134107022269114 0 0.55458114032207428 0.75544804615062711 0 0.52547133540542634 0.72058823529411897 0 0.55852327729743823 0.69498827241231187 0 0.55458114032207428 0.75544804615062711 0 0.55852327729743823 0.69498827241231187 0 0.6088970477846376 0.72715446211577472 0 0.55458114032207428 0.75544804615062711 0 0.55852327729743823 0.69498827241231187 0 0.6088970477846376 0.72715446211577472 0 0.60110770968787908 0.67045598539422102 0 0.61264973759093866 0.60999664295093947 0 0.55828304378107996 0.63546085023637511 0 0.60110770968787908 0.67045598539422102 0 0.55828304378107996 0.63546085023637511 0 0.55852327729743823 0.69498827241231187 0 0.60110770968787908 0.67045598539422102 0 0.61264973759093866 0.60999664295093947 0 0.60110770968787908 0.67045598539422102 0 0.66621429167335955 0.68470300534742679 0 0.6088970477846376 0.72715446211577472 0 0.66621429167335955 0.68470300534742679 0 0.6817340940367822 0.76923101696744944 0 0.6088970477846376 0.72715446211577472 0 0.60110770968787908 0.67045598539422102 0 0.66621429167335955 0.68470300534742679 0 0.66621429167335955 0.68470300534742679 0 0.6817340940367822 0.76923101696744944 0 0.7828103453665094 0.69876044407634474 0 0.66621429167335955 0.68470300534742679 0 0.69354174170208815 0.57892485983477626 0 0.7828103453665094 0.69876044407634474 0 0.69354174170208815 0.57892485983477626 0 0.77935529174931761 0.49004815756283893 0 0.66681557370681976 0.49435464945626773 0 0.61174067805461174 0.54148194547208961 0 0.69354174170208815 0.57892485983477626 0 0.66681557370681976 0.49435464945626773 0 0.61174067805461174 0.54148194547208961 0 0.60345082206666756 0.47575908627627911 0 0.66681557370681976 0.49435464945626773 0 0.61174067805461174 0.54148194547208961 0 0.61264973759093866 0.60999664295093947 0 0.69354174170208815 0.57892485983477626 0 0.61264973759093866 0.60999664295093947 0 0.66621429167335955 0.68470300534742679 0 0.69354174170208815 0.57892485983477626 0 0.60145933092659498 0.94808652648958736 0 0.57768176564240026 1 0 0.63938141097836054 1 0 0.60145933092659498 0.94808652648958736 0 0.55381003699196441 0.97073734537240042 0 0.55652711631508067 0.93435010280744335 0 0.60145933092659498 0.94808652648958736 0 0.57768176564240026 1 0 0.55381003699196441 0.97073734537240042 0 0.57768176564240026 1 0 0.53273812861558045 1 0 0.55381003699196441 0.97073734537240042 0 0.53273812861558045 1 0 0.55381003699196441 0.97073734537240042 0 0.52191028766292435 0.97912620202886635 0 0.53273812861558045 1 0 0.52191028766292435 0.97912620202886635 0 0.5 1 0 0.52191028766292435 0.97912620202886635 0 0.5 0.97058823529411764 0 0.5 1 0 0.5 0.97058823529411764 0 0.5 1 0 0.5 0.97058823529411764 0 0.5 0.94117647058823528 0 0.5 0.97058823529411764 0 0.5 0.94117647058823528 0 0.52554900427979434 0.95492408164812537 0 0.52191028766292435 0.97912620202886635 0 0.5 0.97058823529411764 0 0.52554900427979434 0.95492408164812537 0 0.5 0.94117647058823528 0 0.52554900427979434 0.95492408164812537 0 0.52149395742518578 0.9280464911497236 0 0.55381003699196441 0.97073734537240042 0 0.52554900427979434 0.95492408164812537 0 0.55652711631508067 0.93435010280744335 0 0.55381003699196441 0.97073734537240042 0 0.52191028766292435 0.97912620202886635 0 0.52554900427979434 0.95492408164812537 0 0.52554900427979434 0.95492408164812537 0 0.55652711631508067 0.93435010280744335 0 0.52149395742518578 0.9280464911497236 0 0.55652711631508067 0.93435010280744335 0 0.52982914238326484 0.89727189043838895 0 0.57507719038536997 0.89743529736491356 0 0.55652711631508067 0.93435010280744335 0 0.52149395742518578 0.9280464911497236 0 0.52982914238326484 0.89727189043838895 0 0.52149395742518578 0.9280464911497236 0 0.5 0.91176470588235292 0 0.52982914238326484 0.89727189043838895 0 0.5 0.94117647058823528 0 0.5 0.91176470588235292 0 0.5 0.94117647058823528 0 0.52149395742518578 0.9280464911497236 0 0.5 0.91176470588235292 0 0.5 0.91176470588235292 0 0.5 0.88235294117647056 0 0.52982914238326484 0.89727189043838895 0 0.5 0.91176470588235292 0 0.5 0.88235294117647056 0 0.5 0.88235294117647056 0 0.52982914238326484 0.89727189043838895 0 0.51991574276818808 0.86764705882352966 0 0.52982914238326484 0.89727189043838895 0 0.57507719038536997 0.89743529736491356 0 0.54799184932697576 0.8599032232094268 0 0.60145933092659498 0.94808652648958736 0 0.55652711631508067 0.93435010280744335 0 0.57507719038536997 0.89743529736491356 0 0.60145933092659498 0.94808652648958736 0 0.57507719038536997 0.89743529736491356 0 0.63427031498547037 0.88927276979110648 0 0.57507719038536997 0.89743529736491356 0 0.58994607995897996 0.84812355238296233 0 0.63427031498547037 0.88927276979110648 0 0.58994607995897996 0.84812355238296233 0 0.64153141236229239 0.83072478436463804 0 0.63427031498547037 0.88927276979110648 0 0.58994607995897996 0.84812355238296233 0 0.60049020024666178 0.78900583008989877 0 0.64153141236229239 0.83072478436463804 0 0.58994607995897996 0.84812355238296233 0 0.54799184932697576 0.8599032232094268 0 0.55206941203846505 0.81091931303809783 0 0.58994607995897996 0.84812355238296233 0 0.55206941203846505 0.81091931303809783 0 0.60049020024666178 0.78900583008989877 0 0.57507719038536997 0.89743529736491356 0 0.58994607995897996 0.84812355238296233 0 0.54799184932697576 0.8599032232094268 0 0.52982914238326484 0.89727189043838895 0 0.54799184932697576 0.8599032232094268 0 0.51991574276818808 0.86764705882352966 0 0.54799184932697576 0.8599032232094268 0 0.51991574276818808 0.86764705882352966 0 0.52395085592512047 0.83729395211968571 0 0.51991574276818808 0.86764705882352966 0 0.5 0.85294117647058831 0 0.52395085592512047 0.83729395211968571 0 0.5 0.88235294117647056 0 0.5 0.85294117647058831 0 0.5 0.88235294117647056 0 0.51991574276818808 0.86764705882352966 0 0.5 0.85294117647058831 0 0.5 0.82352941176470584 0 0.52395085592512047 0.83729395211968571 0 0.52039202967084142 0.80930587873000437 0 0.5 0.85294117647058831 0 0.5 0.82352941176470584 0 0.5 0.85294117647058831 0 0.5 0.82352941176470584 0 0.52395085592512047 0.83729395211968571 0 0.52395085592512047 0.83729395211968571 0 0.55206941203846505 0.81091931303809783 0 0.52039202967084142 0.80930587873000437 0 0.54799184932697576 0.8599032232094268 0 0.52395085592512047 0.83729395211968571 0 0.55206941203846505 0.81091931303809783 0 0.55206941203846505 0.81091931303809783 0 0.52039202967084142 0.80930587873000437 0 0.52593988039062167 0.78066906966870908 0 0.55206941203846505 0.81091931303809783 0 0.52593988039062167 0.78066906966870908 0 0.55458114032207428 0.75544804615062711 0 0.52039202967084142 0.80930587873000437 0 0.5 0.79411764705882359 0 0.52593988039062167 0.78066906966870908 0 0.5 0.82352941176470584 0 0.5 0.79411764705882359 0 0.5 0.82352941176470584 0 0.52039202967084142 0.80930587873000437 0 0.5 0.79411764705882359 0 0.5 0.73529411764705888 0 0.5 0.76470588235294124 0 0.5 0.73529411764705888 0 0.5 0.76470588235294124 0 0.5211984712236245 0.75134107022269114 0 0.5 0.79411764705882359 0 0.5 0.76470588235294124 0 0.52593988039062167 0.78066906966870908 0 0.5 0.79411764705882359 0 0.5 0.76470588235294124 0 0.5 0.76470588235294124 0 0.52593988039062167 0.78066906966870908 0 0.5211984712236245 0.75134107022269114 0 0.52593988039062167 0.78066906966870908 0 0.5211984712236245 0.75134107022269114 0 0.55458114032207428 0.75544804615062711 0 0.6088970477846376 0.72715446211577472 0 0.55458114032207428 0.75544804615062711 0 0.60049020024666178 0.78900583008989877 0 0.55206941203846505 0.81091931303809783 0 0.55458114032207428 0.75544804615062711 0 0.60049020024666178 0.78900583008989877 0 0.6817340940367822 0.76923101696744944 0 0.70916369539323409 0.86041409043207073 0 0.80987878298654392 0.8110307373443908 0 0.6088970477846376 0.72715446211577472 0 0.60049020024666178 0.78900583008989877 0 0.6817340940367822 0.76923101696744944 0 0.60049020024666178 0.78900583008989877 0 0.6817340940367822 0.76923101696744944 0 0.64153141236229239 0.83072478436463804 0 0.70916369539323409 0.86041409043207073 0 0.64153141236229239 0.83072478436463804 0 0.63427031498547037 0.88927276979110648 0 0.6817340940367822 0.76923101696744944 0 0.70916369539323409 0.86041409043207073 0 0.64153141236229239 0.83072478436463804 0 0.70916369539323409 0.86041409043207073 0 0.68173274398262862 0.93660593960145366 0 0.63427031498547037 0.88927276979110648 0 0.60145933092659498 0.94808652648958736 0 0.68173274398262862 0.93660593960145366 0 0.63427031498547037 0.88927276979110648 0 0.70916369539323409 0.86041409043207073 0 0.68173274398262862 0.93660593960145366 0 0.78222494485339233 0.91531439423588867 0 0.68173274398262862 0.93660593960145366 0 0.72408407698689681 1 0 0.78222494485339233 0.91531439423588867 0 0.60145933092659498 0.94808652648958736 0 0.68173274398262862 0.93660593960145366 0 0.63938141097836054 1 0 0.68173274398262862 0.93660593960145366 0 0.72408407698689681 1 0 0.63938141097836054 1 0 1 1 0 0.89611933618281592 0.89173516444576184 0 1 0.74999999999934008 0 0.72408407698689681 1 0 0.84036581271988753 1 0 0.78222494485339233 0.91531439423588867 0 0.84036581271988753 1 0 0.78222494485339233 0.91531439423588867 0 0.89611933618281592 0.89173516444576184 0 0.6817340940367822 0.76923101696744944 0 0.80987878298654392 0.8110307373443908 0 0.7828103453665094 0.69876044407634474 0 0.80987878298654392 0.8110307373443908 0 0.7828103453665094 0.69876044407634474 0 1 0.74999999999934008 0 0.78222494485339233 0.91531439423588867 0 0.80987878298654392 0.8110307373443908 0 0.89611933618281592 0.89173516444576184 0 0.70916369539323409 0.86041409043207073 0 0.78222494485339233 0.91531439423588867 0 0.80987878298654392 0.8110307373443908 0 0.80987878298654392 0.8110307373443908 0 0.89611933618281592 0.89173516444576184 0 1 0.74999999999934008 0 0.84036581271988753 1 0 1 1 0 0.89611933618281592 0.89173516444576184 0 0.84549316180028322 0.59867304496468476 0 1 0.74999999999934008 0 1 0.49999999999869182 0 0.69354174170208815 0.57892485983477626 0 0.84549316180028322 0.59867304496468476 0 0.77935529174931761 0.49004815756283893 0 0.84549316180028322 0.59867304496468476 0 1 0.49999999999869182 0 0.77935529174931761 0.49004815756283893 0 0.69354174170208815 0.57892485983477626 0 0.84549316180028322 0.59867304496468476 0 0.7828103453665094 0.69876044407634474 0 0.84549316180028322 0.59867304496468476 0 0.7828103453665094 0.69876044407634474 0 1 0.74999999999934008 0 1 0.49999999999869182 0 0.77935529174931761 0.49004815756283893 0 0.80451351819826811 0.35479918680564199 0 0.80451351819826811 0.35479918680564199 0 1 0.24999999999941089 0 0.79923457477009219 0.1751534052300894 0 1 0.49999999999869182 0 0.80451351819826811 0.35479918680564199 0 1 0.24999999999941089 0 1 0 0 0.79923457477009219 0.1751534052300894 0 0.74999999999934008 0 0 1 0.24999999999941089 0 1 0 0 0.79923457477009219 0.1751534052300894 0 0.49999999999869182 0 0 0.62537763927714929 0.14286513648320209 0 0.74999999999934008 0 0 0.79923457477009219 0.1751534052300894 0 0.62537763927714929 0.14286513648320209 0 0.6197279975813802 0.30020319976287241 0 0.79923457477009219 0.1751534052300894 0 0.62537763927714929 0.14286513648320209 0 0.74999999999934008 0 0 0.49924741621175961 0.21507969613896921 0 0.49999999999869182 0 0 0.62537763927714929 0.14286513648320209 0 0.49924741621175961 0.21507969613896921 0 0.62537763927714929 0.14286513648320209 0 0.6197279975813802 0.30020319976287241 0 0.49924741621175961 0.21507969613896921 0 0.49435464945626773 0.33318442629318029 0 0.6197279975813802 0.30020319976287241 0 0.49435464945626773 0.33318442629318029 0 0.6197279975813802 0.30020319976287241 0 0.54876010062294855 0.39662628167175101 0 0.6197279975813802 0.30020319976287241 0 0.54876010062294855 0.39662628167175101 0 0.66576775508844777 0.41353720431697111 0 0.49954900152271581 0.45107191084564019 0 0.45418244162583959 0.41624787166862259 0 0.54876010062294855 0.39662628167175101 0 0.49954900152271581 0.45107191084564019 0 0.54876010062294855 0.39662628167175101 0 0.54128967150166729 0.47213012589832831 0 0.49954900152271581 0.45107191084564019 0 0.5 0.5 0 0.54128967150166729 0.47213012589832831 0 0.5 0.5 0 0.52629893369322589 0.51330452493555312 0 0.54128967150166729 0.47213012589832831 0 0.54876010062294855 0.39662628167175101 0 0.54128967150166729 0.47213012589832831 0 0.60345082206666756 0.47575908627627911 0 0.56199650931215228 0.51957997397013023 0 0.54128967150166729 0.47213012589832831 0 0.60345082206666756 0.47575908627627911 0 0.54876010062294855 0.39662628167175101 0 0.60345082206666756 0.47575908627627911 0 0.66576775508844777 0.41353720431697111 0 0.77935529174931761 0.49004815756283893 0 0.80451351819826811 0.35479918680564199 0 0.66576775508844777 0.41353720431697111 0 0.60345082206666756 0.47575908627627911 0 0.66576775508844777 0.41353720431697111 0 0.66681557370681976 0.49435464945626773 0 0.77935529174931761 0.49004815756283893 0 0.66576775508844777 0.41353720431697111 0 0.66681557370681976 0.49435464945626773 0 0.80451351819826811 0.35479918680564199 0 0.79923457477009219 0.1751534052300894 0 0.6197279975813802 0.30020319976287241 0 0.80451351819826811 0.35479918680564199 0 0.6197279975813802 0.30020319976287241 0 0.66576775508844777 0.41353720431697111 0 
</DataArray>
</Points>
<Cells>
<DataArray type="UInt32" Name="connectivity" format="ascii">
0 1 2 3 4 5 6 7 8 9 10 11 12 13 14 15 16 17 18 19 20 21 22 23 24 25 26 27 28 29 30 31 32 33 34 35 36 37 38 39 40 41 42 43 44 45 46 47 48 49 50 51 52 53 54 55 56 57 58 59 60 61 62 63 64 65 66 67 68 69 70 71 72 73 74 75 76 77 78 79 80 81 82 83 84 85 86 87 88 89 90 91 92 93 94 95 96 97 98 99 100 101 102 103 104 105 106 107 108 109 110 111 112 113 114 115 116 117 118 119 120 121 122 123 124 125 126 127 128 129 130 131 132 133 134 135 136 137 138 139 140 141 142 143 144 145 146 147 148 149 150 151 152 153 154 155 156 157 158 159 160 161 162 163 164 165 166 167 168 169 170 171 172 173 174 175 176 177 178 179 180 181 182 183 184 185 186 187 188 189 190 191 192 193 194 195 196 197 198 199 200 201 202 203 204 205 206 207 208 209 210 211 212 213 214 215 216 217 218 219 220 221 222 223 224 225 226 227 228 229 230 231 232 233 234 235 236 237 238 239 240 241 242 243 244 245 246 247 248 249 250 251 252 253 254 255 256 257 258 259 260 261 262 263 264 265 266 267 268 269 270 271 272 273 274 275 276 277 278 279 280 281 282 283 284 285 286 287 288 289 290 291 292 293 294 295 296 297 298 299 300 301 302 303 304 305 306 307 308 309 310 311 312 313 314 315 316 317 318 319 320 321 322 323 324 325 326 327 328 329 330 331 332 333 334 335 336 337 338 339 340 341 342 343 344 345 346 347 348 349 350 351 352 353 354 355 356 357 358 359 360 361 362 363 364 365 366 367 368 369 370 371 372 373 374 375 376 377 378 379 380 381 382 383 384 385 386 387 388 389 390 391 392 393 394 395 396 397 398 399 400 401 402 403 404 405 406 407 408 409 410 411 412 413 414 415 416 417 418 419 420 421 422 423 424 425 426 427 428 429 430 431 432 433 434 435 436 437 438 439 440 441 442 443 444 445 446 447 448 449 450 451 452 453 454 455 456 457 458 459 460 461 462 463 464 465 466 467 468 469 470 471 472 473 474 475 476 477 478 479 480 481 482 483 484 485 486 487 488 489 490 491 492 493 494 495 496 497 498 499 500 501 502 503 504 505 506 507 508 509 510 511 512 513 514 515 516 517 518 519 520 521 522 523 524 525 526 527 528 529 530 531 532 533 534 535 536 537 538 539 540 541 542 543 544 545 546 547 548 549 550 551 552 553 554 555 556 557 558 559 560 561 562 563 564 565 566 567 568 569 570 571 572 573 574 575 576 577 578 579 580 581 582 583 584 585 586 587 588 589 590 591 592 593 594 595 596 597 598 599 600 601 602 603 604 605 606 607 608 609 610 611 612 613 614 615 616 617 618 619 620 621 622 623 624 625 626 627 628 629 630 631 632 633 634 635 636 637 638 639 640 641 642 643 644 645 646 647 648 649 650 651 652 653 654 655 656 657 658 659 660 661 662 663 664 665 666 667 668 669 670 671 672 673 674 675 676 677 678 679 680 681 682 683 684 685 686 687 688 689 690 691 692 693 694 695 696 697 698 699 700 701 702 703 704 705 706 707 708 709 710 711 712 713 714 715 716 717 718 719 720 721 722 723 724 725 726 727 728 729 730 731 732 733 734 735 736 737 738 739 740 741 742 743 744 745 746 747 748 749 750 751 752 753 754 755 756 757 758 759 760 761 762 763 764 765 766 767 768 769 770 771 772 773 774 775 776 777 778 779 780 781 782 783 784 785 786 787 788 789 790 791 792 793 794 795 796 797 798 799 800 801 802 803 804 805 806 807 808 809 810 811 812 813 814 815 816 817 818 819 820 821 822 823 824 825 826 827 828 829 830 831 832 833 834 835 836 837 838 839 840 841 842 843 844 845 846 847 848 849 850 851 852 853 854 855 856 857 858 859 860 861 862 863 864 865 866 867 868 869 870 871 872 873 874 875 876 877 878 879 
</DataArray>
<DataArray type="UInt32" Name="offsets" format="ascii">
3 6 9 12 15 18 21 24 27 30 33 36 39 42 45 48 51 54 57 60 63 66 69 72 75 78 81 84 87 90 93 96 99 102 105 108 111 114 117 120 123 126 129 132 135 138 141 144 147 150 153 156 159 162 165 168 171 174 177 180 183 186 189 192 195 198 201 204 207 210 213 216 219 222 225 228 231 234 237 240 243 246 249 252 255 258 261 264 267 270 273 276 279 282 285 288 291 294 297 300 303 306 309 312 315 318 321 324 327 330 333 336 339 342 345 348 351 354 357 360 363 366 369 372 375 378 381 384 387 390 393 396 399 402 405 408 411 414 417 420 423 425 428 430 433 436 439 442 445 448 451 454 457 460 463 466 469 472 474 477 479 482 485 487 490 493 495 498 501 504 507 510 513 515 518 521 523 526 529 532 535 538 541 544 547 550 553 556 559 562 565 568 571 574 577 580 583 586 589 592 595 597 599 602 605 608 611 614 617 620 623 626 628 631 634 636 639 642 645 648 651 654 657 660 663 666 669 672 675 677 680 683 685 688 691 694 697 700 703 705 708 710 713 716 718 721 724 727 730 733 736 739 742 745 748 751 754 757 760 763 766 769 772 775 778 781 784 787 790 793 796 799 802 805 808 811 814 817 820 823 826 829 832 835 838 841 844 847 850 853 856 859 862 865 868 871 874 877 880 
</DataArray>
<DataArray type="UInt32" Name="types" format="ascii">
5 5 5 5 5 5 5 5 5 5 5 5 5 5 5 5 5 5 5 5 5 5 5 5 5 5 5 5 5 5 5 5 5 5 5 5 5 5 5 5 5 5 5 5 5 5 5 5 5 5 5 5 5 5 5 5 5 5 5 5 5 5 5 5 5 5 5 5 5 5 5 5 5 5 5 5 5 5 5 5 5 5 5 5 5 5 5 5 5 5 5 5 5 5 5 5 5 5 5 5 5 5 5 5 5 5 5 5 5 5 5 5 5 5 5 5 5 5 5 5 5 5 5 5 5 5 5 5 5 5 5 5 5 5 5 5 5 5 5 5 5 3 5 3 5 5 5 5 5 5 5 5 5 5 5 5 5 5 3 5 3 5 5 3 5 5 3 5 5 5 5 5 5 3 5 5 3 5 5 5 5 5 5 5 5 5 5 5 5 5 5 5 5 5 5 5 5 5 5 5 5 3 3 5 5 5 5 5 5 5 5 5 3 5 5 3 5 5 5 5 5 5 5 5 5 5 5 5 5 3 5 5 3 5 5 5 5 5 5 3 5 3 5 5 3 5 5 5 5 5 5 5 5 5 5 5 5 5 5 5 5 5 5 5 5 5 5 5 5 5 5 5 5 5 5 5 5 5 5 5 5 5 5 5 5 5 5 5 5 5 5 5 5 5 5 5 5 5 5 
</DataArray>
</Cells>
<PointData Scalars="" Vectors="displacement," Tensors="">
<DataArray type="Float64" Name="displacement" NumberOfComponents="3" format="ascii">
-1.2044217681462452e-05 4.2984085114551949e-05 0 0.032737984207174831 0.026307883493172944 0 5.473714611044298e-05 1.886217436392432e-05 0 -1.2044217681462452e-05 4.2984085114551949e-05 0 0.032737984207174831 0.026307883493172944 0 -0.013496992656429757 0.025676773935411911 0 -0.013496992656429757 0.025676773935411911 0 0.046866198273702683 0.014704566250435022 0 -0.085322507456838517 -0.075374599457590646 0 0.032737984207174831 0.026307883493172944 0 -0.013496992656429757 0.025676773935411911 0 0.046866198273702683 0.014704566250435022 0 0.046866198273702683 0.014704566250435022 0 0.070764553732882304 -0.066748311369516519 0 -0.085322507456838517 -0.075374599457590646 0 0.046866198273702683 0.014704566250435022 0 0.070764553732882304 -0.066748311369516519 0 0.13192849892251601 0.0011732013652672685 0 0.16178056988562695 0.0028920247709551864 0 0.20014822001584986 -0.0075629195925540436 0 0.21131781826966314 -0.0015633045791248643 0 0.16178056988562695 0.0028920247709551864 0 0.21131781826966314 -0.0015633045791248643 0 0.13192849892251601 0.0011732013652672685 0 0.20014822001584986 -0.0075629195925540436 0 0.25047441881719767 -0.00058519766676294073 0 0.21131781826966314 -0.0015633045791248643 0 0.20014822001584986 -0.0075629195925540436 0 0.25047441881719767 -0.00058519766676294073 0 0.21928546397412357 -0.01149864692887145 0 0.25047441881719767 -0.00058519766676294073 0 0.26210387112358224 -0.01634946856038413 0 0.3034550639291656 0.020295621912186191 0 0.25047441881719767 -0.00058519766676294073 0 0.21928546397412357 -0.01149864692887145 0 0.3034550639291656 0.020295621912186191 0 0.25047441881719767 -0.00058519766676294073 0 0.26210387112358224 -0.01634946856038413 0 0.21131781826966314 -0.0015633045791248643 0 0.21131781826966314 -0.0015633045791248643 0 0.16181507297307302 -0.047442034215112526 0 0.23349356062429827 -0.085722588093784094 0 0.21131781826966314 -0.0015633045791248643 0 0.16181507297307302 -0.047442034215112526 0 0.13192849892251601 0.0011732013652672685 0 0.070764553732882304 -0.066748311369516519 0 0.16181507297307302 -0.047442034215112526 0 0.13192849892251601 0.0011732013652672685 0 0.046866198273702683 0.014704566250435022 0 0.13192849892251601 0.0011732013652672685 0 0.10093055523260161 0.014377181378403886 0 0.16178056988562695 0.0028920247709551864 0 0.13192849892251601 0.0011732013652672685 0 0.10093055523260161 0.014377181378403886 0 0.032737984207174831 0.026307883493172944 0 0.046866198273702683 0.014704566250435022 0 0.10093055523260161 0.014377181378403886 0 0.10093055523260161 0.014377181378403886 0 0.13424721692164679 -0.012711131861616296 0 0.057977623900825698 0.0081634255685976084 0 0.16178056988562695 0.0028920247709551864 0 0.10093055523260161 0.014377181378403886 0 0.13424721692164679 -0.012711131861616296 0 0.16178056988562695 0.0028920247709551864 0 0.20014822001584986 -0.0075629195925540436 0 0.13424721692164679 -0.012711131861616296 0 0.057977623900825698 0.0081634255685976084 0 5.473714611044298e-05 1.886217436392432e-05 0 8.0640914710199715e-05 -9.0122422397465192e-06 0 0.057977623900825698 0.0081634255685976084 0 8.0640914710199715e-05 -9.0122422397465192e-06 0 0.079135062183551527 -0.013103713527130389 0 0.13424721692164679 -0.012711131861616296 0 0.057977623900825698 0.0081634255685976084 0 0.079135062183551527 -0.013103713527130389 0 0.032737984207174831 0.026307883493172944 0 0.10093055523260161 0.014377181378403886 0 0.057977623900825698 0.0081634255685976084 0 0.032737984207174831 0.026307883493172944 0 0.057977623900825698 0.0081634255685976084 0 5.473714611044298e-05 1.886217436392432e-05 0 8.0640914710199715e-05 -9.0122422397465192e-06 0 0.043158521249888268 -0.023166311273110172 0 2.6226376880080132e-05 -2.5962178257694463e-05 0 0.043158521249888268 -0.023166311273110172 0 0.033096261972171824 -0.026458762792350769 0 2.6226376880080132e-05 -2.5962178257694463e-05 0 0.043158521249888268 -0.023166311273110172 0 0.033096261972171824 -0.026458762792350769 0 0.058891036970060408 -0.0260384388513554 0 0.043158521249888268 -0.023166311273110172 0 0.079135062183551527 -0.013103713527130389 0 0.093771167949977377 -0.02415628971644854 0 8.0640914710199715e-05 -9.0122422397465192e-06 0 0.043158521249888268 -0.023166311273110172 0 0.079135062183551527 -0.013103713527130389 0 2.2168675613362739e-05 -1.0759592847521024e-05 0 0.0064599971466421631 -0.013539979908325398 0 2.6226376880080132e-05 -2.5962178257694463e-05 0 2.2168675613362739e-05 -1.0759592847521024e-05 0 0.0064599971466421631 -0.013539979908325398 0 0.0090747504376906003 -0.019383930373491568 0 0.0064599971466421631 -0.013539979908325398 0 2.6226376880080132e-05 -2.5962178257694463e-05 0 0.015281550869011343 -0.020652301809119443 0 0.015281550869011343 -0.020652301809119443 0 0.0097596215331125225 -0.02282975935904415 0 0.02319768540392499 -0.023830419461684113 0 0.033096261972171824 -0.026458762792350769 0 2.6226376880080132e-05 -2.5962178257694463e-05 0 0.015281550869011343 -0.020652301809119443 0 0.033096261972171824 -0.026458762792350769 0 0.015281550869011343 -0.020652301809119443 0 0.02319768540392499 -0.023830419461684113 0 0.0064599971466421631 -0.013539979908325398 0 0.015281550869011343 -0.020652301809119443 0 0.0097596215331125225 -0.02282975935904415 0 0.0064599971466421631 -0.013539979908325398 0 0.0097596215331125225 -0.02282975935904415 0 0.0090747504376906003 -0.019383930373491568 0 0.0097596215331125225 -0.02282975935904415 0 0.0090747504376906003 -0.019383930373491568 0 0.0057672007268870446 -0.020837784587860318 0 0.0021209528114746919 -0.01257709050081505 0 0.0087162122961339291 -0.01697398612025915 0 0.0057672007268870446 -0.020837784587860318 0 0.0021209528114746919 -0.01257709050081505 0 0.0087162122961339291 -0.01697398612025915 0 0.0065049354008402333 -0.008456890132784339 0 0.0097596215331125225 -0.02282975935904415 0 0.0087162122961339291 -0.01697398612025915 0 0.0057672007268870446 -0.020837784587860318 0 0.0097596215331125225 -0.02282975935904415 0 0.0087162122961339291 -0.01697398612025915 0 0.014889846634837105 -0.018365572502366583 0 0.0087162122961339291 -0.01697398612025915 0 0.012766508726937426 -0.011154657321482259 0 0.0065049354008402333 -0.008456890132784339 0 0.0087162122961339291 -0.01697398612025915 0 0.014889846634837105 -0.018365572502366583 0 0.012766508726937426 -0.011154657321482259 0 0.0097596215331125225 -0.02282975935904415 0 0.014889846634837105 -0.018365572502366583 0 0.02319768540392499 -0.023830419461684113 0 0.014889846634837105 -0.018365572502366583 0 0.022523316479068269 -0.014409287954791456 0 0.012766508726937426 -0.011154657321482259 0 0.014889846634837105 -0.018365572502366583 0 0.022523316479068269 -0.014409287954791456 0 0.02319768540392499 -0.023830419461684113 0 0.033096261972171824 -0.026458762792350769 0 0.02319768540392499 -0.023830419461684113 0 0.037973147384118541 -0.021630575135956696 0 0.022523316479068269 -0.014409287954791456 0 0.02319768540392499 -0.023830419461684113 0 0.037973147384118541 -0.021630575135956696 0 0.022523316479068269 -0.014409287954791456 0 0.035822352794091482 -0.010393778974286066 0 0.037973147384118541 -0.021630575135956696 0 0.022523316479068269 -0.014409287954791456 0 0.035822352794091482 -0.010393778974286066 0 0.025113240246456166 -0.0027918102655003232 0 0.035822352794091482 -0.010393778974286066 0 0.025113240246456166 -0.0027918102655003232 0 0.033277655297248035 0.0014787578882327719 0 0.035822352794091482 -0.010393778974286066 0 0.033277655297248035 0.0014787578882327719 0 0.047375915679546188 -0.0018734228188113811 0 0.033277655297248035 0.0014787578882327719 0 0.032705227399781059 0.0092987912816025059 0 0.039759586642132153 0.0092662515329894959 0 0.032705227399781059 0.0092987912816025059 0 0.039759586642132153 0.0092662515329894959 0 0.036272861716539311 0.015887613865125372 0 0.032705227399781059 0.0092987912816025059 0 0.029502690264526454 0.013258608006831733 0 0.036272861716539311 0.015887613865125372 0 0.026389037563496788 0.0062835586645432935 0 0.023916995469842873 0.011137080624760964 0 0.029502690264526454 0.013258608006831733 0 0.032705227399781059 0.0092987912816025059 0 0.026389037563496788 0.0062835586645432935 0 0.029502690264526454 0.013258608006831733 0 0.033277655297248035 0.0014787578882327719 0 0.032705227399781059 0.0092987912816025059 0 0.026389037563496788 0.0062835586645432935 0 0.025113240246456166 -0.0027918102655003232 0 0.033277655297248035 0.0014787578882327719 0 0.026389037563496788 0.0062835586645432935 0 0.025113240246456166 -0.0027918102655003232 0 0.026389037563496788 0.0062835586645432935 0 0.020879868216444167 0.0034715998444244285 0 0.025113240246456166 -0.0027918102655003232 0 0.020879868216444167 0.0034715998444244285 0 0.016638472385694308 -0.0029673193443759908 0 0.020879868216444167 0.0034715998444244285 0 0.019234512598497986 0.0096008140110654134 0 0.023916995469842873 0.011137080624760964 0 0.026389037563496788 0.0062835586645432935 0 0.020879868216444167 0.0034715998444244285 0 0.023916995469842873 0.011137080624760964 0 0.020879868216444167 0.0034715998444244285 0 0.016894317417679442 0.0042273754735010927 0 0.019234512598497986 0.0096008140110654134 0 0.016894317417679442 0.0042273754735010927 0 0.015162347467846849 0.0083579151642026433 0 0.019234512598497986 0.0096008140110654134 0 0.020879868216444167 0.0034715998444244285 0 0.016894317417679442 0.0042273754735010927 0 0.016638472385694308 -0.0029673193443759908 0 0.022523316479068269 -0.014409287954791456 0 0.016638472385694308 -0.0029673193443759908 0 0.012766508726937426 -0.011154657321482259 0 0.022523316479068269 -0.014409287954791456 0 0.025113240246456166 -0.0027918102655003232 0 0.016638472385694308 -0.0029673193443759908 0 0.012766508726937426 -0.011154657321482259 0 0.010083640003275255 -0.0032575838923634809 0 0.0065049354008402333 -0.008456890132784339 0 0.016638472385694308 -0.0029673193443759908 0 0.012766508726937426 -0.011154657321482259 0 0.010083640003275255 -0.0032575838923634809 0 0.016894317417679442 0.0042273754735010927 0 0.016638472385694308 -0.0029673193443759908 0 0.013165634149988652 0.0021511344065054745 0 0.016638472385694308 -0.0029673193443759908 0 0.010083640003275255 -0.0032575838923634809 0 0.013165634149988652 0.0021511344065054745 0 0.016894317417679442 0.0042273754735010927 0 0.013165634149988652 0.0021511344065054745 0 0.015162347467846849 0.0083579151642026433 0 0.013165634149988652 0.0021511344065054745 0 0.011307048693558121 0.0075902734606595945 0 0.015162347467846849 0.0083579151642026433 0 0.013165634149988652 0.0021511344065054745 0 0.0091609554331014646 0.0030401161462304382 0 0.011307048693558121 0.0075902734606595945 0 0.0091609554331014646 0.0030401161462304382 0 0.0076753163513672623 0.0071279545598024099 0 0.011307048693558121 0.0075902734606595945 0 0.010083640003275255 -0.0032575838923634809 0 0.013165634149988652 0.0021511344065054745 0 0.0091609554331014646 0.0030401161462304382 0 0.0091609554331014646 0.0030401161462304382 0 0.0047797642570082443 -0.00040138197488729044 0 0.0057808356503016899 0.0037455651165103601 0 0.010083640003275255 -0.0032575838923634809 0 0.0091609554331014646 0.0030401161462304382 0 0.0047797642570082443 -0.00040138197488729044 0 0.0047797642570082443 -0.00040138197488729044 0 0.0057808356503016899 0.0037455651165103601 0 0.0029019799995840959 0.0039975019784533041 0 0.0091609554331014646 0.0030401161462304382 0 0.0057808356503016899 0.0037455651165103601 0 0.0076753163513672623 0.0071279545598024099 0 0.0057808356503016899 0.0037455651165103601 0 0.0029019799995840959 0.0039975019784533041 0 0.0039237989975822235 0.0069776472163245121 0 0.0057808356503016899 0.0037455651165103601 0 0.0039237989975822235 0.0069776472163245121 0 0.0076753163513672623 0.0071279545598024099 0 0.0029019799995840959 0.0039975019784533041 0 2.0196914597981372e-05 0.0024517144531751361 0 -4.4737341254236097e-06 0.0069591101767430526 0 0.0029019799995840959 0.0039975019784533041 0 0.0039237989975822235 0.0069776472163245121 0 -4.4737341254236097e-06 0.0069591101767430526 0 0.0047797642570082443 -0.00040138197488729044 0 0.0029019799995840959 0.0039975019784533041 0 2.0196914597981372e-05 0.0024517144531751361 0 0.0047797642570082443 -0.00040138197488729044 0 2.0196914597981372e-05 0.0024517144531751361 0 0.00043000451189178194 -0.0041056947609904556 0 0.0047797642570082443 -0.00040138197488729044 0 0.00043000451189178194 -0.0041056947609904556 0 0.0065049354008402333 -0.008456890132784339 0 0.010083640003275255 -0.0032575838923634809 0 0.0047797642570082443 -0.00040138197488729044 0 0.0065049354008402333 -0.008456890132784339 0 0.0021209528114746919 -0.01257709050081505 0 0.00043000451189178194 -0.0041056947609904556 0 0.0065049354008402333 -0.008456890132784339 0 0.093771167949977377 -0.02415628971644854 0 0.086686488828426639 -0.020929043927469203 0 0.14681525017658845 -0.020374343211542457 0 0.13424721692164679 -0.012711131861616296 0 0.093771167949977377 -0.02415628971644854 0 0.14681525017658845 -0.020374343211542457 0 0.13424721692164679 -0.012711131861616296 0 0.079135062183551527 -0.013103713527130389 0 0.093771167949977377 -0.02415628971644854 0 0.043158521249888268 -0.023166311273110172 0 0.093771167949977377 -0.02415628971644854 0 0.058891036970060408 -0.0260384388513554 0 0.033096261972171824 -0.026458762792350769 0 0.037973147384118541 -0.021630575135956696 0 0.058891036970060408 -0.0260384388513554 0 0.035822352794091482 -0.010393778974286066 0 0.037973147384118541 -0.021630575135956696 0 0.056333931759580819 -0.016337661082186091 0 0.037973147384118541 -0.021630575135956696 0 0.058891036970060408 -0.0260384388513554 0 0.056333931759580819 -0.016337661082186091 0 0.093771167949977377 -0.02415628971644854 0 0.058891036970060408 -0.0260384388513554 0 0.086686488828426639 -0.020929043927469203 0 0.058891036970060408 -0.0260384388513554 0 0.086686488828426639 -0.020929043927469203 0 0.056333931759580819 -0.016337661082186091 0 0.086686488828426639 -0.020929043927469203 0 0.056333931759580819 -0.016337661082186091 0 0.071683615654120972 -0.0018453376859860436 0 0.086686488828426639 -0.020929043927469203 0 0.071683615654120972 -0.0018453376859860436 0 0.10470874647315635 -0.0016216254648841297 0 0.035822352794091482 -0.010393778974286066 0 0.056333931759580819 -0.016337661082186091 0 0.047375915679546188 -0.0018734228188113811 0 0.056333931759580819 -0.016337661082186091 0 0.047375915679546188 -0.0018734228188113811 0 0.071683615654120972 -0.0018453376859860436 0 0.047375915679546188 -0.0018734228188113811 0 0.048572789287372749 0.011903181108652218 0 0.039759586642132153 0.0092662515329894959 0 0.033277655297248035 0.0014787578882327719 0 0.047375915679546188 -0.0018734228188113811 0 0.039759586642132153 0.0092662515329894959 0 0.047375915679546188 -0.0018734228188113811 0 0.057393872662041691 0.0081849668451153563 0 0.071683615654120972 -0.0018453376859860436 0 0.047375915679546188 -0.0018734228188113811 0 0.057393872662041691 0.0081849668451153563 0 0.048572789287372749 0.011903181108652218 0 0.057393872662041691 0.0081849668451153563 0 0.048572789287372749 0.011903181108652218 0 0.054606985654563268 0.021967381078986131 0 0.057393872662041691 0.0081849668451153563 0 0.066514950537506057 0.024830363631573031 0 0.054606985654563268 0.021967381078986131 0 0.048572789287372749 0.011903181108652218 0 0.044417671467714019 0.01866327188091672 0 0.054606985654563268 0.021967381078986131 0 0.039759586642132153 0.0092662515329894959 0 0.044417671467714019 0.01866327188091672 0 0.036272861716539311 0.015887613865125372 0 0.048572789287372749 0.011903181108652218 0 0.039759586642132153 0.0092662515329894959 0 0.044417671467714019 0.01866327188091672 0 0.071683615654120972 -0.0018453376859860436 0 0.072267582597642516 0.014189597771878334 0 0.088991286470172792 0.013384580657539408 0 0.071683615654120972 -0.0018453376859860436 0 0.088991286470172792 0.013384580657539408 0 0.10470874647315635 -0.0016216254648841297 0 0.057393872662041691 0.0081849668451153563 0 0.071683615654120972 -0.0018453376859860436 0 0.072267582597642516 0.014189597771878334 0 0.057393872662041691 0.0081849668451153563 0 0.072267582597642516 0.014189597771878334 0 0.066514950537506057 0.024830363631573031 0 0.072267582597642516 0.014189597771878334 0 0.081488265543637931 0.02845789256232081 0 0.066514950537506057 0.024830363631573031 0 0.072267582597642516 0.014189597771878334 0 0.088991286470172792 0.013384580657539408 0 0.081488265543637931 0.02845789256232081 0 0.088991286470172792 0.013384580657539408 0 0.099819156815257659 0.031460055113538152 0 0.081488265543637931 0.02845789256232081 0 0.10870278122711062 0.015959742104242731 0 0.12394646886486219 0.034697240638650387 0 0.099819156815257659 0.031460055113538152 0 0.088991286470172792 0.013384580657539408 0 0.10870278122711062 0.015959742104242731 0 0.099819156815257659 0.031460055113538152 0 0.13457300578996551 0.0067509875766879951 0 0.15527730584506891 0.035343894358388764 0 0.12394646886486219 0.034697240638650387 0 0.10870278122711062 0.015959742104242731 0 0.13457300578996551 0.0067509875766879951 0 0.12394646886486219 0.034697240638650387 0 0.13457300578996551 0.0067509875766879951 0 0.10470874647315635 -0.0016216254648841297 0 0.14681525017658845 -0.020374343211542457 0 0.10870278122711062 0.015959742104242731 0 0.13457300578996551 0.0067509875766879951 0 0.10470874647315635 -0.0016216254648841297 0 0.088991286470172792 0.013384580657539408 0 0.10870278122711062 0.015959742104242731 0 0.10470874647315635 -0.0016216254648841297 0 0.086686488828426639 -0.020929043927469203 0 0.10470874647315635 -0.0016216254648841297 0 0.14681525017658845 -0.020374343211542457 0 0.20014822001584986 -0.0075629195925540436 0 0.13424721692164679 -0.012711131861616296 0 0.14681525017658845 -0.020374343211542457 0 0.20014822001584986 -0.0075629195925540436 0 0.14681525017658845 -0.020374343211542457 0 0.21928546397412357 -0.01149864692887145 0 0.14681525017658845 -0.020374343211542457 0 0.21928546397412357 -0.01149864692887145 0 0.16945989128946287 0.0031307836112410264 0 0.13457300578996551 0.0067509875766879951 0 0.14681525017658845 -0.020374343211542457 0 0.16945989128946287 0.0031307836112410264 0 0.13457300578996551 0.0067509875766879951 0 0.16945989128946287 0.0031307836112410264 0 0.15527730584506891 0.035343894358388764 0 0.16945989128946287 0.0031307836112410264 0 0.20119575711001245 0.031669738423346347 0 0.15527730584506891 0.035343894358388764 0 0.21928546397412357 -0.01149864692887145 0 0.16945989128946287 0.0031307836112410264 0 0.20119575711001245 0.031669738423346347 0 0.21928546397412357 -0.01149864692887145 0 0.3034550639291656 0.020295621912186191 0 0.20119575711001245 0.031669738423346347 0 0.45894418649311436 0.048373021217193182 0 0.39417428947618072 -0.040687168603314137 0 0.51525562998644736 -0.029566794209383261 0 0.3034550639291656 0.020295621912186191 0 0.45894418649311436 0.048373021217193182 0 0.39417428947618072 -0.040687168603314137 0 0.30554950780742779 0.048866121685922581 0 0.33014334179583305 0.055332387825712447 0 0.45894418649311436 0.048373021217193182 0 0.56216409486002883 0.060634615374322395 0 0.51525562998644736 -0.029566794209383261 0 0.33014334179583305 0.055332387825712447 0 0.35897192715403753 0.058509431472421276 0 0.56216409486002883 0.060634615374322395 0 0.51525562998644736 -0.029566794209383261 0 0.60841232114306243 -0.00062210334932506794 0 0.51525562998644736 -0.029566794209383261 0 0.44451655908449494 -0.10587848486667914 0 0.61259280499785929 -0.089225929005329885 0 0.39417428947618072 -0.040687168603314137 0 0.44451655908449494 -0.10587848486667914 0 0.31733328218053153 -0.066503352509863597 0 0.39417428947618072 -0.040687168603314137 0 0.51525562998644736 -0.029566794209383261 0 0.44451655908449494 -0.10587848486667914 0 0.44451655908449494 -0.10587848486667914 0 0.53138763087395668 -0.19761246877650018 0 0.3751865658234867 -0.17422387964971808 0 0.44451655908449494 -0.10587848486667914 0 0.53138763087395668 -0.19761246877650018 0 0.61259280499785929 -0.089225929005329885 0 0.53138763087395668 -0.19761246877650018 0 0.71199442714667127 -0.19337946907125778 0 0.61259280499785929 -0.089225929005329885 0 0.71199442714667127 -0.19337946907125778 0 0.61259280499785929 -0.089225929005329885 0 0.77686887364737489 -0.071656262271944229 0 0.61259280499785929 -0.089225929005329885 0 0.69230410503096007 -0.0045371299556464821 0 0.77686887364737489 -0.071656262271944229 0 0.69230410503096007 -0.0045371299556464821 0 0.77194677685230617 0.015301992969988153 0 0.77686887364737489 -0.071656262271944229 0 0.51525562998644736 -0.029566794209383261 0 0.61259280499785929 -0.089225929005329885 0 0.60841232114306243 -0.00062210334932506794 0 0.61259280499785929 -0.089225929005329885 0 0.60841232114306243 -0.00062210334932506794 0 0.69230410503096007 -0.0045371299556464821 0 0.60841232114306243 -0.00062210334932506794 0 0.65095346070166527 0.066293267600528477 0 0.69230410503096007 -0.0045371299556464821 0 0.56216409486002883 0.060634615374322395 0 0.60841232114306243 -0.00062210334932506794 0 0.65095346070166527 0.066293267600528477 0 0.35897192715403753 0.058509431472421276 0 0.38761627753230166 0.059745838401522568 0 0.69230410503096007 -0.0045371299556464821 0 0.73124736516400901 0.071141237657615944 0 0.77194677685230617 0.015301992969988153 0 0.38761627753230166 0.059745838401522568 0 0.41578500093817322 0.059639955750476405 0 0.65095346070166527 0.066293267600528477 0 0.69230410503096007 -0.0045371299556464821 0 0.73124736516400901 0.071141237657615944 0 0.73124736516400901 0.071141237657615944 0 0.77194677685230617 0.015301992969988153 0 0.80863386462478948 0.073807337614874208 0 0.41578500093817322 0.059639955750476405 0 0.44520098791676166 0.058885557975933936 0 0.77194677685230617 0.015301992969988153 0 0.80863386462478948 0.073807337614874208 0 0.8479854617873982 0.0072898517477377415 0 0.80863386462478948 0.073807337614874208 0 0.88227305746781459 0.076151333712617772 0 0.8479854617873982 0.0072898517477377415 0 0.44520098791676166 0.058885557975933936 0 0.47456607139679141 0.057814388034843414 0 0.88227305746781459 0.076151333712617772 0 0.8479854617873982 0.0072898517477377415 0 0.91979986102085565 0.023884055222160055 0 0.8479854617873982 0.0072898517477377415 0 0.91979986102085565 0.023884055222160055 0 0.92643545923761617 -0.061580792941272347 0 0.8479854617873982 0.0072898517477377415 0 0.77686887364737489 -0.071656262271944229 0 0.92643545923761617 -0.061580792941272347 0 0.77194677685230617 0.015301992969988153 0 0.8479854617873982 0.0072898517477377415 0 0.77686887364737489 -0.071656262271944229 0 1.0242956333946265 0.079113536971652951 0 0.98878866362050022 0.017947798009907406 0 1.0619504306199115 0.0299808846689525 0 1.0242956333946265 0.079113536971652951 0 0.98878866362050022 0.017947798009907406 0 0.95412738468575975 0.077700734850713479 0 0.53449703017603933 0.055600236020181035 0 0.50448571989990854 0.056760298125250262 0 0.98878866362050022 0.017947798009907406 0 0.95412738468575975 0.077700734850713479 0 0.91979986102085565 0.023884055222160055 0 0.88227305746781459 0.076151333712617772 0 0.95412738468575975 0.077700734850713479 0 0.91979986102085565 0.023884055222160055 0 0.47456607139679141 0.057814388034843414 0 0.50448571989990854 0.056760298125250262 0 0.98878866362050022 0.017947798009907406 0 0.91979986102085565 0.023884055222160055 0 0.92643545923761617 -0.061580792941272347 0 0.98878866362050022 0.017947798009907406 0 1.0619504306199115 0.0299808846689525 0 1.0711426930349992 -0.046489665399140942 0 0.98878866362050022 0.017947798009907406 0 0.92643545923761617 -0.061580792941272347 0 1.0711426930349992 -0.046489665399140942 0 0.92643545923761617 -0.061580792941272347 0 1.0029356023841778 -0.16928125642709199 0 1.0711426930349992 -0.046489665399140942 0 0.92643545923761617 -0.061580792941272347 0 1.0029356023841778 -0.16928125642709199 0 0.86507221209162255 -0.15921422312833963 0 0.71199442714667127 -0.19337946907125778 0 0.77686887364737489 -0.071656262271944229 0 0.86507221209162255 -0.15921422312833963 0 0.77686887364737489 -0.071656262271944229 0 0.92643545923761617 -0.061580792941272347 0 0.86507221209162255 -0.15921422312833963 0 0.71199442714667127 -0.19337946907125778 0 0.86507221209162255 -0.15921422312833963 0 0.9026614839998357 -0.29217793950073562 0 1.0029356023841778 -0.16928125642709199 0 0.9026614839998357 -0.29217793950073562 0 1.1044636358816675 -0.32001965303489244 0 1.0029356023841778 -0.16928125642709199 0 0.86507221209162255 -0.15921422312833963 0 0.9026614839998357 -0.29217793950073562 0 0.9026614839998357 -0.29217793950073562 0 1.1044636358816675 -0.32001965303489244 0 0.95050558603668667 -0.5190217305547502 0 0.9026614839998357 -0.29217793950073562 0 0.65211878044190708 -0.34730439771538807 0 0.95050558603668667 -0.5190217305547502 0 0.65211878044190708 -0.34730439771538807 0 0.49808706216395271 -0.48443686919485796 0 0.45484717186694712 -0.28877787640391311 0 0.53138763087395668 -0.19761246877650018 0 0.65211878044190708 -0.34730439771538807 0 0.45484717186694712 -0.28877787640391311 0 0.53138763087395668 -0.19761246877650018 0 0.3751865658234867 -0.17422387964971808 0 0.45484717186694712 -0.28877787640391311 0 0.53138763087395668 -0.19761246877650018 0 0.71199442714667127 -0.19337946907125778 0 0.65211878044190708 -0.34730439771538807 0 0.71199442714667127 -0.19337946907125778 0 0.9026614839998357 -0.29217793950073562 0 0.65211878044190708 -0.34730439771538807 0 1.5107252549425709 -0.14448588623998179 0 1.6249234251393603 -0.092100341332508634 0 1.6246764255754678 -0.22692622851578151 0 1.5107252549425709 -0.14448588623998179 0 1.5604885791041605 -0.039437960717729183 0 1.4799669521176506 -0.045465765085903151 0 1.5107252549425709 -0.14448588623998179 0 1.6249234251393603 -0.092100341332508634 0 1.5604885791041605 -0.039437960717729183 0 1.6249234251393603 -0.092100341332508634 0 1.6252371603518005 0.007290421586226478 0 1.5604885791041605 -0.039437960717729183 0 1.6252371603518005 0.007290421586226478 0 1.5604885791041605 -0.039437960717729183 0 1.5790523287136118 0.031318063199499563 0 1.6252371603518005 0.007290421586226478 0 1.5790523287136118 0.031318063199499563 0 1.6252882023205426 0.079900810494224428 0 1.5790523287136118 0.031318063199499563 0 1.560140461389337 0.079941135761259927 0 1.6252882023205426 0.079900810494224428 0 0.78384589015784467 0.047544381960118301 0 0.80434916166185599 -0.22335914170715257 0 0.78384589015784467 0.047544381960118301 0 0.75091401781160594 0.049509270253842261 0 1.560140461389337 0.079941135761259927 0 1.4949557556267448 0.080101678238384405 0 1.5254768243020569 0.023277236208481492 0 1.5790523287136118 0.031318063199499563 0 1.560140461389337 0.079941135761259927 0 1.5254768243020569 0.023277236208481492 0 1.4949557556267448 0.080101678238384405 0 1.5254768243020569 0.023277236208481492 0 1.4658344833317172 0.0323481180626966 0 1.5604885791041605 -0.039437960717729183 0 1.5254768243020569 0.023277236208481492 0 1.4799669521176506 -0.045465765085903151 0 1.5604885791041605 -0.039437960717729183 0 1.5790523287136118 0.031318063199499563 0 1.5254768243020569 0.023277236208481492 0 1.5254768243020569 0.023277236208481492 0 1.4799669521176506 -0.045465765085903151 0 1.4658344833317172 0.0323481180626966 0 1.4799669521176506 -0.045465765085903151 0 1.3971322866162155 0.013726587531606457 0 1.3975665689310419 -0.086885318759274341 0 1.4799669521176506 -0.045465765085903151 0 1.4658344833317172 0.0323481180626966 0 1.3971322866162155 0.013726587531606457 0 1.4658344833317172 0.0323481180626966 0 1.4294812632926495 0.080406503599268472 0 1.3971322866162155 0.013726587531606457 0 0.75091401781160594 0.049509270253842261 0 0.72048868356816731 0.04992538419778135 0 1.4949557556267448 0.080101678238384405 0 1.4658344833317172 0.0323481180626966 0 1.4294812632926495 0.080406503599268472 0 1.4294812632926495 0.080406503599268472 0 1.3635288591006591 0.080669445540710566 0 1.3971322866162155 0.013726587531606457 0 0.72048868356816731 0.04992538419778135 0 0.68934191665126132 0.050520707270543933 0 1.3635288591006591 0.080669445540710566 0 1.3971322866162155 0.013726587531606457 0 1.3303246303786516 0.035845380099181208 0 1.3971322866162155 0.013726587531606457 0 1.3975665689310419 -0.086885318759274341 0 1.3128112660641102 -0.027252030371070535 0 1.5107252549425709 -0.14448588623998179 0 1.4799669521176506 -0.045465765085903151 0 1.3975665689310419 -0.086885318759274341 0 1.5107252549425709 -0.14448588623998179 0 1.3975665689310419 -0.086885318759274341 0 1.3799693678269664 -0.21608386612880903 0 1.3975665689310419 -0.086885318759274341 0 1.2860978974210444 -0.12050123329068155 0 1.3799693678269664 -0.21608386612880903 0 1.2860978974210444 -0.12050123329068155 0 1.246757127623753 -0.23245683477438916 0 1.3799693678269664 -0.21608386612880903 0 1.2860978974210444 -0.12050123329068155 0 1.1496298657413453 -0.14642746141922611 0 1.246757127623753 -0.23245683477438916 0 1.2860978974210444 -0.12050123329068155 0 1.3128112660641102 -0.027252030371070535 0 1.2007353793551219 -0.037756264021588215 0 1.2860978974210444 -0.12050123329068155 0 1.2007353793551219 -0.037756264021588215 0 1.1496298657413453 -0.14642746141922611 0 1.3975665689310419 -0.086885318759274341 0 1.2860978974210444 -0.12050123329068155 0 1.3128112660641102 -0.027252030371070535 0 1.3971322866162155 0.013726587531606457 0 1.3128112660641102 -0.027252030371070535 0 1.3303246303786516 0.035845380099181208 0 1.3128112660641102 -0.027252030371070535 0 1.3303246303786516 0.035845380099181208 0 1.2613255551306723 0.02647445245133145 0 1.3303246303786516 0.035845380099181208 0 1.2969659227572743 0.080900306151526824 0 1.2613255551306723 0.02647445245133145 0 0.68934191665126132 0.050520707270543933 0 0.65814337545468304 0.051306577646509512 0 1.3635288591006591 0.080669445540710566 0 1.3303246303786516 0.035845380099181208 0 1.2969659227572743 0.080900306151526824 0 1.2299249180242571 0.080896889128932614 0 1.2613255551306723 0.02647445245133145 0 1.1971304265392848 0.034016427311863814 0 0.65814337545468304 0.051306577646509512 0 0.62697205468402872 0.052219839405534291 0 1.2969659227572743 0.080900306151526824 0 1.2299249180242571 0.080896889128932614 0 1.2613255551306723 0.02647445245133145 0 1.2613255551306723 0.02647445245133145 0 1.2007353793551219 -0.037756264021588215 0 1.1971304265392848 0.034016427311863814 0 1.3128112660641102 -0.027252030371070535 0 1.2613255551306723 0.02647445245133145 0 1.2007353793551219 -0.037756264021588215 0 1.2007353793551219 -0.037756264021588215 0 1.1971304265392848 0.034016427311863814 0 1.1306008064231674 0.02041993482583682 0 1.2007353793551219 -0.037756264021588215 0 1.1306008064231674 0.02041993482583682 0 1.0711426930349992 -0.046489665399140942 0 1.1971304265392848 0.034016427311863814 0 1.1620782205842297 0.080699554877388724 0 1.1306008064231674 0.02041993482583682 0 0.62697205468402872 0.052219839405534291 0 0.59588004926935556 0.053299951529172454 0 1.2299249180242571 0.080896889128932614 0 1.1971304265392848 0.034016427311863814 0 1.1620782205842297 0.080699554877388724 0 0.53449703017603933 0.055600236020181035 0 0.56505727119406202 0.054442085225987299 0 1.0242956333946265 0.079113536971652951 0 1.0936443908832767 0.080035637029277018 0 1.0619504306199115 0.0299808846689525 0 1.1620782205842297 0.080699554877388724 0 1.0936443908832767 0.080035637029277018 0 1.1306008064231674 0.02041993482583682 0 0.59588004926935556 0.053299951529172454 0 0.56505727119406202 0.054442085225987299 0 1.0936443908832767 0.080035637029277018 0 1.1306008064231674 0.02041993482583682 0 1.0619504306199115 0.0299808846689525 0 1.1306008064231674 0.02041993482583682 0 1.0619504306199115 0.0299808846689525 0 1.0711426930349992 -0.046489665399140942 0 1.0029356023841778 -0.16928125642709199 0 1.0711426930349992 -0.046489665399140942 0 1.1496298657413453 -0.14642746141922611 0 1.2007353793551219 -0.037756264021588215 0 1.0711426930349992 -0.046489665399140942 0 1.1496298657413453 -0.14642746141922611 0 1.1044636358816675 -0.32001965303489244 0 1.3178472672492902 -0.37601878662307592 0 1.2144108814807588 -0.58174256665617508 0 1.0029356023841778 -0.16928125642709199 0 1.1496298657413453 -0.14642746141922611 0 1.1044636358816675 -0.32001965303489244 0 1.1496298657413453 -0.14642746141922611 0 1.1044636358816675 -0.32001965303489244 0 1.246757127623753 -0.23245683477438916 0 1.3178472672492902 -0.37601878662307592 0 1.246757127623753 -0.23245683477438916 0 1.3799693678269664 -0.21608386612880903 0 1.1044636358816675 -0.32001965303489244 0 1.3178472672492902 -0.37601878662307592 0 1.246757127623753 -0.23245683477438916 0 1.3178472672492902 -0.37601878662307592 0 1.4871792328277966 -0.3179841336665773 0 1.3799693678269664 -0.21608386612880903 0 1.5107252549425709 -0.14448588623998179 0 1.4871792328277966 -0.3179841336665773 0 1.3799693678269664 -0.21608386612880903 0 1.3178472672492902 -0.37601878662307592 0 1.4871792328277966 -0.3179841336665773 0 1.4462807618425739 -0.52778278272025925 0 1.4871792328277966 -0.3179841336665773 0 1.6262285265217438 -0.40771926753575022 0 1.4462807618425739 -0.52778278272025925 0 1.5107252549425709 -0.14448588623998179 0 1.4871792328277966 -0.3179841336665773 0 1.6246764255754678 -0.22692622851578151 0 1.4871792328277966 -0.3179841336665773 0 1.6262285265217438 -0.40771926753575022 0 1.6246764255754678 -0.22692622851578151 0 1.6660346083749651 -0.99608526872790071 0 1.4061714092746507 -0.76337860116684852 0 1.1085595365827723 -0.96360729214177177 0 1.6262285265217438 -0.40771926753575022 0 1.6367014677889413 -0.65128805357574993 0 1.4462807618425739 -0.52778278272025925 0 1.6367014677889413 -0.65128805357574993 0 1.4462807618425739 -0.52778278272025925 0 1.4061714092746507 -0.76337860116684852 0 1.1044636358816675 -0.32001965303489244 0 1.2144108814807588 -0.58174256665617508 0 0.95050558603668667 -0.5190217305547502 0 1.2144108814807588 -0.58174256665617508 0 0.95050558603668667 -0.5190217305547502 0 1.1085595365827723 -0.96360729214177177 0 1.4462807618425739 -0.52778278272025925 0 1.2144108814807588 -0.58174256665617508 0 1.4061714092746507 -0.76337860116684852 0 1.3178472672492902 -0.37601878662307592 0 1.4462807618425739 -0.52778278272025925 0 1.2144108814807588 -0.58174256665617508 0 1.2144108814807588 -0.58174256665617508 0 1.4061714092746507 -0.76337860116684852 0 1.1085595365827723 -0.96360729214177177 0 1.6367014677889413 -0.65128805357574993 0 1.6660346083749651 -0.99608526872790071 0 1.4061714092746507 -0.76337860116684852 0 0.73935200990236039 -0.62469012903684107 0 1.1085595365827723 -0.96360729214177177 0 0.58267907938399288 -0.87538785871273062 0 0.65211878044190708 -0.34730439771538807 0 0.73935200990236039 -0.62469012903684107 0 0.49808706216395271 -0.48443686919485796 0 0.73935200990236039 -0.62469012903684107 0 0.58267907938399288 -0.87538785871273062 0 0.49808706216395271 -0.48443686919485796 0 0.65211878044190708 -0.34730439771538807 0 0.73935200990236039 -0.62469012903684107 0 0.95050558603668667 -0.5190217305547502 0 0.73935200990236039 -0.62469012903684107 0 0.95050558603668667 -0.5190217305547502 0 1.1085595365827723 -0.96360729214177177 0 0.58267907938399288 -0.87538785871273062 0 0.49808706216395271 -0.48443686919485796 0 0.2864672350788357 -0.4939249200243187 0 0.2864672350788357 -0.4939249200243187 0 0.20112653039146944 -0.7742239318802403 0 0.065902112832733825 -0.45706544769620616 0 0.58267907938399288 -0.87538785871273062 0 0.2864672350788357 -0.4939249200243187 0 0.20112653039146944 -0.7742239318802403 0 -0.12546456201017206 -0.73607527068735712 0 0.065902112832733825 -0.45706544769620616 0 -0.14867372137286206 -0.37693075629957079 0 0.20112653039146944 -0.7742239318802403 0 -0.12546456201017206 -0.73607527068735712 0 0.065902112832733825 -0.45706544769620616 0 -0.085322507456838517 -0.075374599457590646 0 0.017067007896353906 -0.20438418485535276 0 -0.14867372137286206 -0.37693075629957079 0 0.065902112832733825 -0.45706544769620616 0 0.017067007896353906 -0.20438418485535276 0 0.16189409638835645 -0.19026903225860159 0 0.065902112832733825 -0.45706544769620616 0 0.017067007896353906 -0.20438418485535276 0 -0.14867372137286206 -0.37693075629957079 0 0.070764553732882304 -0.066748311369516519 0 -0.085322507456838517 -0.075374599457590646 0 0.017067007896353906 -0.20438418485535276 0 0.070764553732882304 -0.066748311369516519 0 0.017067007896353906 -0.20438418485535276 0 0.16189409638835645 -0.19026903225860159 0 0.070764553732882304 -0.066748311369516519 0 0.16181507297307302 -0.047442034215112526 0 0.16189409638835645 -0.19026903225860159 0 0.16181507297307302 -0.047442034215112526 0 0.16189409638835645 -0.19026903225860159 0 0.23349356062429827 -0.085722588093784094 0 0.16189409638835645 -0.19026903225860159 0 0.23349356062429827 -0.085722588093784094 0 0.31610857914791268 -0.27200301700002105 0 0.26210387112358224 -0.01634946856038413 0 0.21131781826966314 -0.0015633045791248643 0 0.23349356062429827 -0.085722588093784094 0 0.26210387112358224 -0.01634946856038413 0 0.23349356062429827 -0.085722588093784094 0 0.31733328218053153 -0.066503352509863597 0 0.26210387112358224 -0.01634946856038413 0 0.3034550639291656 0.020295621912186191 0 0.31733328218053153 -0.066503352509863597 0 0.3034550639291656 0.020295621912186191 0 0.39417428947618072 -0.040687168603314137 0 0.31733328218053153 -0.066503352509863597 0 0.23349356062429827 -0.085722588093784094 0 0.31733328218053153 -0.066503352509863597 0 0.3751865658234867 -0.17422387964971808 0 0.44451655908449494 -0.10587848486667914 0 0.31733328218053153 -0.066503352509863597 0 0.3751865658234867 -0.17422387964971808 0 0.23349356062429827 -0.085722588093784094 0 0.3751865658234867 -0.17422387964971808 0 0.31610857914791268 -0.27200301700002105 0 0.49808706216395271 -0.48443686919485796 0 0.2864672350788357 -0.4939249200243187 0 0.31610857914791268 -0.27200301700002105 0 0.3751865658234867 -0.17422387964971808 0 0.31610857914791268 -0.27200301700002105 0 0.45484717186694712 -0.28877787640391311 0 0.49808706216395271 -0.48443686919485796 0 0.31610857914791268 -0.27200301700002105 0 0.45484717186694712 -0.28877787640391311 0 0.2864672350788357 -0.4939249200243187 0 0.065902112832733825 -0.45706544769620616 0 0.16189409638835645 -0.19026903225860159 0 0.2864672350788357 -0.4939249200243187 0 0.16189409638835645 -0.19026903225860159 0 0.31610857914791268 -0.27200301700002105 0 
</DataArray>
</PointData>
<CellData Scalars="region_id," Vectors="" Tensors="effective_stress,">
<DataArray type="Float64" Name="region_id" format="ascii">
1 1 1 1 1 1 1 1 1 1 1 1 1 1 1 1 1 1 1 1 1 1 1 1 1 1 1 1 1 1 1 1 1 1 1 1 1 1 1 1 1 1 1 1 1 1 1 1 1 1 1 1 1 1 1 1 1 1 1 1 1 1 1 1 1 1 1 1 1 1 1 1 1 1 1 1 1 1 1 1 1 1 1 1 1 1 1 1 1 1 1 1 1 1 1 1 1 1 1 1 1 1 1 1 1 1 1 1 1 1 1 1 1 1 1 1 1 1 1 1 1 1 1 1 1 1 1 1 1 1 1 1 1 1 1 1 1 1 1 1 1 6 1 6 1 1 1 1 1 1 1 1 1 1 1 1 1 1 6 1 6 1 1 6 1 1 6 1 1 1 1 1 1 6 1 1 6 1 1 1 1 1 1 1 1 1 1 1 1 1 1 1 1 1 1 1 1 1 1 1 1 6 6 1 1 1 1 1 1 1 1 1 6 1 1 6 1 1 1 1 1 1 1 1 1 1 1 1 1 6 1 1 6 1 1 1 1 1 1 6 1 6 1 1 6 1 1 1 1 1 1 1 1 1 1 1 1 1 1 1 1 1 1 1 1 1 1 1 1 1 1 1 1 1 1 1 1 1 1 1 1 1 1 1 1 1 1 1 1 1 1 1 1 1 1 1 1 1 1 
</DataArray>
<DataArray type="Float64" Name="effective_stress" NumberOfComponents="9" format="ascii">
0.21025925501858789 0.056473382643958216 0 0.056473382643958216 0.069983498186993703 0 0 0 0.070060688301395405 -0.051894716640673653 0.11798212585565208 0 0.11798212585565208 0.016923190094364007 0 0 0 -0.0087428816365774167 -0.28264825820394246 0.025940891476344222 0 0.025940891476344222 0.071421814836049285 0 0 0 -0.052806610841973287 0.15490007825015251 0.068719927672752631 0 0.068719927672752631 0.031969470754396226 0 0 0 0.046717387251137193 0.061297488717610565 0.069251050164524736 0 0.069251050164524736 0.061150758633060021 0 0 0 0.030612061837667653 0.12357404792029547 0.016385125610771344 0 0.016385125610771344 0.18572385109898937 0 0 0 0.077324474754821182 0.71768665507926976 0.061435194674062901 0 0.061435194674062901 0.10633967042576098 0 0 0 0.20600658137625774 0.7533800674866431 0.189933063051514 0 0.189933063051514 0.25202269190579302 0 0 0 0.25135068984810915 1.24810827946728 0.2344356865657086 0 0.2344356865657086 0.40517970745166532 0 0 0 0.41332199672973624 1.0230884199213357 -0.26588665427268043 0 -0.26588665427268043 0.038087654932815462 0 0 0 0.26529401871353764 1.4796741784014793 0.37752276064939877 0 0.37752276064939877 1.2910541710352241 0 0 0 0.69268208735917658 2.3371595602184874 0.018715255930075225 0 0.018715255930075225 0.5098799422184237 0 0 0 0.71175987560922815 0.91349554328623805 0.044177281740784814 0 0.044177281740784814 0.40141169443607183 0 0 0 0.32872680943057786 0.53189480092053598 -0.029296312330482799 0 -0.029296312330482799 0.32191683729979403 0 0 0 0.21345290955508248 0.42632658500185405 0.058616881060148097 0 0.058616881060148097 0.43350027295554872 0 0 0 0.21495671448935061 0.36604095917059076 0.087181468923581862 0 0.087181468923581862 0.27147042287634349 0 0 0 0.15937784551173342 0.43605194808464842 0.14000219150981214 0 0.14000219150981214 0.093773803027368735 0 0 0 0.13245643777800428 0.44153424046558182 0.13331496164794543 0 0.13331496164794543 0.12736050634262941 0 0 0 0.14222368670205277 0.18627377178636653 0.12842027760164224 0 0.12842027760164224 0.02985873620590164 0 0 0 0.054033126998067046 0.44781646325222729 0.043634991192467387 0 0.043634991192467387 -0.049330560936662542 0 0 0 0.099621475578891214 0.699284920611151 0.03547184941137542 0 0.03547184941137542 0.026694666584402366 0 0 0 0.18149489679888833 0.82620788613316787 0.073052048040088052 0 0.073052048040088052 0.088556834204112561 0 0 0 0.22869118008432002 0.38876870278430653 0.018306640295916724 0 0.018306640295916724 0.12947063675059364 0 0 0 0.12955983488372505 0.35459527543762459 -0.0013644930627780168 0 -0.0013644930627780168 -0.052917169001011115 0 0 0 0.075419526609153353 0.58113735731802296 -0.026240149923560691 0 -0.026240149923560691 0.018131845270912855 0 0 0 0.14981730064723398 0.4976898600330657 0.07084776108741192 0 0.07084776108741192 0.055531510493103856 0 0 0 0.13830534263154243 0.19808376285260171 0.11199494468617648 0 0.11199494468617648 -0.038881103659326878 0 0 0 0.039800664798318702 0.28045051218818973 -0.05029463747024597 0 -0.05029463747024597 0.09341118433571946 0 0 0 0.093465424130977276 0.16434398310545281 -0.10743944973826096 0 -0.10743944973826096 0.071796459075541885 0 0 0 0.059035110545248667 0.20662198730483072 -0.075072606856624369 0 -0.075072606856624369 0.040399878553384741 0 0 0 0.061755466464553876 0.33519652338951483 -0.10009484803721851 0 -0.10009484803721851 -0.00020399675509469306 0 0 0 0.083748131658605021 0.39554622045416454 -0.096824742861692653 0 -0.096824742861692653 0.015907001948111038 0 0 0 0.10286330560056892 0.080046231688633701 -0.056051053073029759 0 -0.056051053073029759 0.026746941593961415 0 0 0 0.026698293320648783 0.075164668597773168 -0.052322790101773257 0 -0.052322790101773257 0.044027478277241544 0 0 0 0.029798036718753668 0.11808778245663641 -0.057348717289267097 0 -0.057348717289267097 0.025276572807133524 0 0 0 0.035841088815942487 0.072273801100152538 -0.048447091504272975 0 -0.048447091504272975 0.024299727203832777 0 0 0 0.024143382075996311 0.15649651028402414 -0.088017537026005066 0 -0.088017537026005066 0.033358324728797795 0 0 0 0.047463708753205491 0.078840248259069295 -0.073867726585450655 0 -0.073867726585450655 0.078096923777523919 0 0 0 0.039234293009148338 0.060037006671357494 -0.059913063548753989 0 -0.059913063548753989 0.050708693664958976 0 0 0 0.02768642508407914 0.016617903496986317 -0.01921454537417518 0 -0.01921454537417518 -0.015243633350475988 0 0 0 0.00034356753662757866 -0.020235966103893575 -0.021576680707485391 0 -0.021576680707485391 0.030313782847808279 0 0 0 0.0025194541859786673 -0.043317707060444396 0.0031227613574879576 0 0.0031227613574879576 0.0077992528492580315 0 0 0 -0.0088796135527965808 -0.01532498377179118 0.0089340700696521821 0 0.0089340700696521821 -0.0016210245590090461 0 0 0 -0.0042365020827000652 -0.0073349602964274258 0.0048732421143291536 0 0.0048732421143291536 -0.0098559503231566148 0 0 0 -0.0042977276548959997 0.0088641922610371432 -0.015286538003757389 0 -0.015286538003757389 0.016687339858297345 0 0 0 0.0063878830298336048 -0.011669978270929811 0.0074225284144016634 0 0.0074225284144016634 0.0079654764687179247 0 0 0 -0.00092612545055297674 -0.0060357341339570218 0.0081391151527981376 0 0.0081391151527981376 0.0021699257472406475 0 0 0 -0.00096645209667909661 0.01063396647006791 -0.014044776557770193 0 -0.014044776557770193 0.032310631454115002 0 0 0 0.010736149481045731 0.012367013964252827 -0.0059462418872270259 0 -0.0059462418872270259 0.029790173579042928 0 0 0 0.010539296885823932 0.025020522507501086 -0.0076697759986029956 0 -0.0076697759986029956 0.020066230436160376 0 0 0 0.011271688235915359 0.090852332284861559 -0.052150322202041591 0 -0.052150322202041591 0.038802954862861005 0 0 0 0.032413821786930648 0.064531100480559461 -0.048627659437421714 0 -0.048627659437421714 0.076240047379516063 0 0 0 0.035192786965018888 0.024161929852493755 -0.015933991687107477 0 -0.015933991687107477 0.028913956361673238 0 0 0 0.013268971553541745 0.012855623053117972 -0.0082837626958547003 0 -0.0082837626958547003 0.039405781390995737 0 0 0 0.013065351111028418 0.0029675480838171672 0.012685783881211936 0 0.012685783881211936 0.0006643522330727139 0 0 0 0.00090797507922247243 0.028175024925535377 -0.016624224790135894 0 -0.016624224790135894 0.017248114382955728 0 0 0 0.011355784827122741 0.0068222861984664207 0.0017865993133958924 0 0.0017865993133958924 -0.051357018178679548 0 0 0 -0.011133682995053296 0.00030259850211810518 0.0063174043259063284 0 0.0063174043259063284 -0.055741158485769826 0 0 0 -0.013859639995912894 0.00047226605726607973 0.0066610548179418527 0 0.0066610548179418527 -0.095187857108360641 0 0 0 -0.023678897762773654 0.0022499563548184776 0.006838619082201472 0 0.006838619082201472 -0.07619074093816075 0 0 0 -0.018485196145835464 2.1743742309086878e-05 0.0017379847208760235 0 0.0017379847208760235 -0.052809412518380228 0 0 0 -0.013196917194017811 0.0031706857347949813 0.017395911300456281 0 0.017395911300456281 -0.041355893563330498 0 0 0 -0.0095463019571338376 0.0059714895050150055 0.0035754029255699246 0 0.0035754029255699246 -0.01082874041849316 0 0 0 -0.0012143127283695473 0.0042265396761912433 0.018634496172408435 0 0.018634496172408435 -0.029195122578237143 0 0 0 -0.006242145725511461 -0.0021536862656477626 0.016494454337524698 0 0.016494454337524698 -0.0036184592622799244 0 0 0 -0.0014430363819819061 -0.00079967845300160656 0.0083701121940567488 0 0.0083701121940567488 -0.055981828674358913 0 0 0 -0.01419537678184013 0.0013138897434420427 0.0073145232862409371 0 0.0073145232862409371 -0.038467467436195724 0 0 0 -0.0092883944231884619 0.0029511466517644358 0.010807044441479147 0 0.010807044441479147 -0.02466306760116399 0 0 0 -0.0054279802373499164 -0.0019942143068271412 0.008936925826696869 0 0.008936925826696869 -0.045740536281832389 0 0 0 -0.01193368764716489 -0.0010258108640653855 0.012759227459064618 0 0.012759227459064618 -0.027262983304909165 0 0 0 -0.0070721985422436077 0.00040952301730269591 0.016108536941226839 0 0.016108536941226839 0.016235953441574774 0 0 0 0.0041613691147193849 0.011975072098557974 0.011792669561586869 0 0.011792669561586869 0.0010638130742910007 0 0 0 0.0032597212932122255 -0.0041259155035961725 0.017203783324844315 0 0.017203783324844315 0.0019905470112723256 0 0 0 -0.00053384212308096868 -0.0016090557261646647 0.014369206979926573 0 0.014369206979926573 -0.0044578142699006201 0 0 0 -0.0015167174990163255 0.0023923835441746373 0.017233582602258955 0 0.017233582602258955 -0.016653024781101894 0 0 0 -0.003565160309231822 -0.0021906321943335897 0.016374143923725694 0 0.016374143923725694 -0.0045940225194977397 0 0 0 -0.0016961636784578332 0.00031996056274451873 0.0084716871715757175 0 0.0084716871715757175 -0.02518985936517816 0 0 0 -0.0062174747006084122 -0.001008355531270641 0.0077787124932296864 0 0.0077787124932296864 -0.028175924292251631 0 0 0 -0.0072960699558805853 0.00083892352835903891 0.0086632209599513538 0 0.0086632209599513538 -0.010404331141024792 0 0 0 -0.0023913519031664755 -0.0023692734369369223 0.0068551020196876769 0 0.0068551020196876769 -0.017556523283399572 0 0 0 -0.0049814491800841271 -0.0055919715532073387 0.013609661811312106 0 0.013609661811312106 -0.015624064624581838 0 0 0 -0.005304009044447288 -0.0042752550270087411 0.0092456514637095019 0 0.0092456514637095019 -0.010129314898502245 0 0 0 -0.0036011424813777379 -0.0015812256800966989 0.012921233302152665 0 0.012921233302152665 -0.0035252893951087123 0 0 0 -0.0012766287688013604 -0.005500342628325966 0.0062748393263167487 0 0.0062748393263167487 -0.00527740552979164 0 0 0 -0.0026944370395294015 0.00054806447398271854 0.0059253428299709116 0 0.0059253428299709116 -0.0066639324547355522 0 0 0 -0.0015289669951881989 3.4844038617845921e-05 0.0021507036638077487 0 0.0021507036638077487 -0.0023735692106545137 0 0 0 -0.00058468129300916737 -0.0031774113480832061 0.0039876952756860359 0 0.0039876952756860359 -0.0065102834394927256 0 0 0 -0.0024219236968939933 -0.0016839167414560638 0.0018165520137041619 0 0.0018165520137041619 -0.0026403089095234644 0 0 0 -0.0010810564127448977 -0.00065216935857310976 0.0011227839708777831 0 0.0011227839708777831 -0.00088966642167870313 0 0 0 -0.00038545894506293588 -0.0017851262382595837 0.0040213819822966894 0 0.0040213819822966894 0.00058117818545445898 0 0 0 -0.0003009870132012829 -0.010978795732413756 0.0064938275513641945 0 0.0064938275513641945 -0.003757967334292657 0 0 0 -0.0036841907666766045 -0.0081456656510083339 0.0082418276259863463 0 0.0082418276259863463 -0.00033991828851112627 0 0 0 -0.0021213959848798633 -0.012294800133684849 0.013271733413443926 0 0.013271733413443926 -0.0055325051786433294 0 0 0 -0.0044568263280820447 -0.029038712383537016 0.0084776017647856059 0 0.0084776017647856059 0.00058346840193015947 0 0 0 -0.0071138109954017176 0.40779810174527931 -0.25925835557581761 0 -0.25925835557581761 0.14701897906715106 0 0 0 0.13870427020310758 0.44835415628613495 -0.15659354400909087 0 -0.15659354400909087 0.020138025493184188 0 0 0 0.11712304544482978 0.49203923001232053 -0.16768897269336841 0 -0.16768897269336841 0.032013650674246774 0 0 0 0.13101322017164174 0.29847846285984719 -0.16436366701455735 0 -0.16436366701455735 0.07517183457826182 0 0 0 0.093412574359527253 0.13074466952945873 -0.10663083994685524 0 -0.10663083994685524 0.098335506214060731 0 0 0 0.057270043935879852 0.071756945202524791 -0.06546630723084243 0 -0.06546630723084243 0.089179409129195725 0 0 0 0.040234088582930129 0.079972736086845075 -0.069085333663767443 0 -0.069085333663767443 0.060934029066673265 0 0 0 0.035226691288379575 0.17696498048124953 -0.13713935030581997 0 -0.13713935030581997 0.038552847704618864 0 0 0 0.053879457046467072 0.16411744069655829 -0.14655369013170666 0 -0.14655369013170666 0.13639370641797877 0 0 0 0.075127786778634242 0.041182467223292635 -0.065899141180018397 0 -0.065899141180018397 0.10263348650958586 0 0 0 0.035953988433219591 0.1299259853004896 -0.11301847159471334 0 -0.11301847159471334 0.094170608370425624 0 0 0 0.056024148417728833 0.0082818084241790442 -0.013857232536319337 0 -0.013857232536319337 0.044146537096410941 0 0 0 0.013107086380147421 0.069650500803563803 -0.049472616967026942 0 -0.049472616967026942 0.047735762786669494 0 0 0 0.029346565897558345 0.0097795761528028657 0.0071185558068952723 0 0.0071185558068952723 -0.045032191349514916 0 0 0 -0.0088131537991780473 -0.0015538909004130727 0.0081936047548068769 0 0.0081936047548068769 -0.0074854210672383042 0 0 0 -0.0022598279919128703 -0.0042588374912635243 -0.015980132272633594 0 -0.015980132272633594 0.03100071752754336 0 0 0 0.006685470009069959 0.017938305394955736 -0.017578368476255116 0 -0.017578368476255116 -0.017263242170615645 0 0 0 0.00016876580608496394 0.006900350743233391 0.0079370610555443699 0 0.0079370610555443699 -0.057690820071279458 0 0 0 -0.01269761733201144 0.00148157199256993 -0.0011797831817604854 0 -0.0011797831817604854 -0.10333697657629504 0 0 0 -0.025463851145931249 0.0027628124509285756 0.0037817596109134821 0 0.0037817596109134821 -0.11890808943300823 0 0 0 -0.029036319245519915 0.0003895456415135834 0.0059396413312932383 0 0.0059396413312932383 -0.10053401549219487 0 0 0 -0.025036117462670343 0.00076347580113084179 0.0025876580748359634 0 0.0025876580748359634 -0.049650583753938243 0 0 0 -0.01222177698820176 0.035837288430819458 -0.049809752287494811 0 -0.049809752287494811 0.0038850672675596609 0 0 0 0.009930588924594641 -0.00094905562327959707 -0.049514022506924195 0 -0.049514022506924195 0.079495153346506919 0 0 0 0.019636524430806684 0.025067435879205666 0.002101528882318987 0 0.002101528882318987 -0.016717632447701858 0 0 0 0.0020874508578758721 0.0028049095015239833 -0.0031316042072281336 0 -0.0031316042072281336 -0.026706779384218116 0 0 0 -0.0059754674706734845 0.0035599106732371322 -0.0067088350074371028 0 -0.0067088350074371028 -0.13037174566403964 0 0 0 -0.031702958747700571 0.00070109458137813246 -0.0032417673309312334 0 -0.0032417673309312334 -0.017370790684073448 0 0 0 -0.0041674240256739312 -0.0011235042892744906 -0.0081792230324976845 0 -0.0081792230324976845 -0.10925292995390778 0 0 0 -0.027594108560795749 0.022380077603373516 -0.023742907454020135 0 -0.023742907454020135 -0.10994190250961222 0 0 0 -0.021890456226559663 -0.00086606858589577396 -0.0073675612074035612 0 -0.0073675612074035612 0.034683322617142132 0 0 0 0.0084543135078117837 0.038298901910484795 -0.056358068842442377 0 -0.056358068842442377 -0.010685674265684231 0 0 0 0.0069033069112001133 0.0054369935068215303 -0.0077008081137215356 0 -0.0077008081137215356 0.06802328284039233 0 0 0 0.018365069086803631 0.12487189562506749 -0.13905507954258128 0 -0.13905507954258128 0.14234957894156483 0 0 0 0.066805368641657967 0.04835955315075223 -0.12853196308106657 0 -0.12853196308106657 0.17715947224790715 0 0 0 0.056379756349664731 0.033688136138448004 -0.04841738648405744 0 -0.04841738648405744 0.025042756991069046 0 0 0 0.014682723282379179 0.091975487609562256 -0.18130497692973196 0 -0.18130497692973196 0.2063404624263746 0 0 0 0.074578987508984174 0.70515829654575524 -0.27300064355202702 0 -0.27300064355202702 0.057207979581756052 0 0 0 0.19059156903187785 1.0289516549902042 -0.27935022963346129 0 -0.27935022963346129 0.16524133179937225 0 0 0 0.29854824669739399 0.27294073227262605 -0.39906112704229924 0 -0.39906112704229924 0.44641741728161966 0 0 0 0.17983953738856148 0.28726927205718217 -0.27471397195102742 0 -0.27471397195102742 0.24740222797231123 0 0 0 0.13366787500737337 0.02348529046742304 -0.061225688579896853 0 -0.061225688579896853 0.1817429120349445 0 0 0 0.05130705062559221 0.17688671573025488 -0.20455735094647581 0 -0.20455735094647581 0.19221162715428997 0 0 0 0.092274585721136171 0.2342984927706151 -0.17061434068945763 0 -0.17061434068945763 0.30831847542867075 0 0 0 0.13565424204982146 1.2517043684054747 -0.97589912684846547 0 -0.97589912684846547 0.82973608160656143 0 0 0 0.52036011250300906 0.03509989187852619 0.28741399534690643 0 0.28741399534690643 0.57562676114351552 0 0 0 0.15268166325551014 1.3119187496036653 0.99394183599725461 0 0.99394183599725461 1.4555799313294639 0 0 0 0.69187467023328197 1.5552846982487251e-05 6.6854179811924682e-07 0 6.6854179811924682e-07 5.4187922461654651e-06 0 0 0 5.2429098071631808e-06 0.1751991287475724 0.20407333631020169 0 0.20407333631020169 0.50308685768108052 0 0 0 0.16957149660716522 3.9921320897478945e-05 1.2319488370671983e-06 0 1.2319488370671983e-06 1.3422327748746957e-05 0 0 0 1.3335912161556476e-05 0.0006005213074823379 0.082694506295722101 0 0.082694506295722101 0.43385105441890021 0 0 0 0.10861289393159568 0.32079184508664504 0.35806583816466964 0 0.35806583816466964 0.31595493034584199 0 0 0 0.15918669385812234 1.2062439706149268 0.16663062497961939 0 0.16663062497961939 0.36409713311137692 0 0 0 0.39258527593157561 1.0899272977996788 0.72818639564510979 0 0.72818639564510979 0.85390095658133069 0 0 0 0.48595706359525187 0.83710098725227167 0.19861356840569344 0 0.19861356840569344 0.13982291864489271 0 0 0 0.24423097647429115 0.58472897338201846 0.43210267878580999 0 0.43210267878580999 0.41283426179987459 0 0 0 0.24939080879547371 0.24020917124722219 0.24961975719112117 0 0.24961975719112117 0.1744136822962824 0 0 0 0.10365571338587676 0.21730570183054831 0.25309416600069873 0 0.25309416600069873 0.34703845908328557 0 0 0 0.14108604022845828 0.02325574778035705 0.12256179901729886 0 0.12256179901729886 0.27638909329243133 0 0 0 0.074911210268196415 0.056790752147976464 0.11596415529679327 0 0.11596415529679327 0.27112587558624474 0 0 0 0.08197915693355573 0.18267753389928895 0.32288432494897268 0 0.32288432494897268 0.6175456011923588 0 0 0 0.20005578377291197 0.1071467996276337 0.15993633470070481 0 0.15993633470070481 0.33511083258909008 0 0 0 0.11056440805417979 -0.0060949103680223368 0.028079927184320695 0 0.028079927184320695 0.36087157034985895 0 0 0 0.088694164995458014 0.072425731352797063 0.064366322372715445 0 0.064366322372715445 0.22936236452133896 0 0 0 0.075447023968533533 5.6050441985341549e-05 1.5272981247006288e-06 0 1.5272981247006288e-06 1.8728321019742596e-05 0 0 0 1.8694690751271036e-05 -0.0038558920999021418 0.02376803192362624 0 0.02376803192362624 0.20746970171991108 0 0 0 0.05090345240500313 6.9504672007079043e-05 1.8086388284389708e-06 0 1.8086388284389708e-06 2.3164383991548401e-05 0 0 0 2.3167263999656863e-05 -0.0038821396636162797 0.025910305394895805 0 0.025910305394895805 0.17452566751583376 0 0 0 0.04266088196305462 0.019894403768541902 0.021970141378086172 0 0.021970141378086172 0.10332202637274435 0 0 0 0.030804107535319925 8.1504168636060395e-05 2.1006699748414309e-06 0 2.1006699748414309e-06 2.7140696719396725e-05 0 0 0 2.7161216338864279e-05 -0.0023975558239082845 0.012674477555175825 0 0.012674477555175825 0.17742387194173509 0 0 0 0.043756579029457107 0.0023346304594315977 0.010454376094652593 0 0.010454376094652593 0.085787135297980183 0 0 0 0.022030441439355276 9.2559654449488748e-05 2.332773438000362e-06 0 2.332773438000362e-06 3.0814370386632707e-05 0 0 0 3.0843506209030371e-05 -0.0012180213047193189 0.0059030107305819979 0 0.0059030107305819979 0.11481813746198777 0 0 0 0.02840002903931732 0.021830875489318419 0.054638816724959738 0 0.054638816724959738 0.14665303056723444 0 0 0 0.042120976514138181 0.00159675897188849 0.047709591507122506 0 0.047709591507122506 0.19137717949837563 0 0 0 0.048243484617567112 0.033626350330421148 0.053365079369552149 0 0.053365079369552149 0.16958252869093449 0 0 0 0.050802219755338926 -0.0016372623603840286 0.0043019847427807623 0 0.0043019847427807623 0.06629253179140826 0 0 0 0.016163817357756016 -0.00070689237320342713 0.0048391341053256598 0 0.0048391341053256598 0.051001992795004725 0 0 0 0.012573775105451102 0.00011274812481285758 2.7318261970046484e-06 0 2.7318261970046484e-06 3.7540636685275346e-05 0 0 0 3.7572190374533234e-05 -0.0011509578849848712 0.0050955154480919473 0 0.0050955154480919473 0.098230764213440347 0 0 0 0.024269951582113647 0.0066650545543573969 0.0073804511841600307 0 0.0073804511841600307 0.058413299459725732 0 0 0 0.016269588503522669 0.00010290237473491981 2.5479936966978357e-06 0 2.5479936966978357e-06 3.4262563250918696e-05 0 0 0 3.4291234496459632e-05 0.010609698034999629 0.028081542165692253 0 0.028081542165692253 0.094291524565970675 0 0 0 0.026225305650241684 0.0082714559728269132 0.030840685943526847 0 0.030840685943526847 0.079320904135549652 0 0 0 0.021898090027095918 -0.0022776441797009994 0.024265256082575792 0 0.024265256082575792 0.10339961121114982 0 0 0 0.0252804917578624 0.031160106859286552 0.074902927597470997 0 0.074902927597470997 0.123236042149928 0 0 0 0.038599037252303903 0.0062183509478241916 0.086918526582075661 0 0.086918526582075661 0.13790561342104146 0 0 0 0.036030991092216524 0.050748366978235371 0.14489974691092578 0 0.14489974691092578 0.17818444787477894 0 0 0 0.057233203713253467 0.078990793712488835 0.1289745396081996 0 0.1289745396081996 0.21629950808735479 0 0 0 0.073822575449961389 0.094116918367129987 0.18285243035851395 0 0.18285243035851395 0.21077702608096194 0 0 0 0.076223486112023675 0.042443228829371682 0.11285715052458833 0 0.11285715052458833 0.074522946107972832 0 0 0 0.029241543734336739 0.098490463583906118 0.14384747490259353 0 0.14384747490259353 0.14611712180439684 0 0 0 0.061151896347075185 0.16171777957195255 0.16616537883586568 0 0.16616537883586568 0.08426930908292829 0 0 0 0.061496772163719959 0.15239134257141973 0.1808440279566641 0 0.1808440279566641 0.069959428565321113 0 0 0 0.055587692784185072 0.50502327076451003 0.17632983204383668 0 0.17632983204383668 0.018035660218937988 0 0 0 0.13076473274586198 0.51947735366886016 0.16509569786630485 0 0.16509569786630485 0.031319708785609635 0 0 0 0.13769926561361778 0.64435662654344283 0.21378385373619269 0 0.21378385373619269 0.07318528516830225 0 0 0 0.17938547792793599 0.35979171418956635 0.3051399131242476 0 0.3051399131242476 0.21229130978548216 0 0 0 0.14302075599376241 0.23907823573131193 0.21078896653510681 0 0.21078896653510681 0.1146943721556144 0 0 0 0.088443151971731027 -0.0015147607189516243 0.0050993295216106294 0 0.0050993295216106294 0.0082661416333094095 0 0 0 0.0016878452285911116 0.0098521644070941328 0.0037596836145443735 0 0.0037596836145443735 0.0044303210429554873 0 0 0 0.0035706213625128491 0.0017023765526343326 -0.0017809729839475819 0 -0.0017809729839475819 -0.00034189764872616379 0 0 0 0.00034011972597808304 -0.006615652712309128 -0.0015243151933856112 0 -0.0015243151933856112 0.0024910800421069634 0 0 0 -0.0010311431675495975 -0.00027215510558509237 -0.0022315303729416591 0 -0.0022315303729416591 -0.00057107790131905034 0 0 0 -0.00021080825172692386 -0.0021087275852260667 -0.0018127575098747517 0 -0.0018127575098747517 -0.0013370674066410793 0 0 0 -0.00086144874796767468 -0.00054442566448842378 -0.0014526727687703689 0 -0.0014526727687703689 -0.0016439382393214075 0 0 0 -0.00054709097595506684 0.00018720627238491045 3.1969482697029106e-06 0 3.1969482697029106e-06 5.25773230033038e-05 0 0 0 5.9945898847053567e-05 0.00018258310361923328 3.3666177083791946e-06 0 3.3666177083791946e-06 6.0789774590958706e-05 0 0 0 6.0843219552547997e-05 0.00028309611504195864 -0.0019672682219148974 0 -0.0019672682219148974 -0.0057279751320327144 0 0 0 -0.0013612197542467452 6.8048102718265557e-05 -0.001969655791371927 0 -0.001969655791371927 -0.0014000958852236067 0 0 0 -0.00033301194562679326 -9.3184913166344252e-05 -0.0016248973931489163 0 -0.0016248973931489163 -0.0022731454667959117 0 0 0 -0.000591582594991924 0.00073341681176886109 -0.0024636427154875462 0 -0.0024636427154875462 0.00019450127557796293 0 0 0 0.0002319795218349574 -0.00026722651214505788 -0.0018856086727907645 0 -0.0018856086727907645 -0.0014711139469216761 0 0 0 -0.00043458511476579531 0.0041093836694428565 -0.00092510041171384172 0 -0.00092510041171384172 -0.0012416661382141925 0 0 0 0.00071692938280626395 0.0037040815666150584 0.003747031196894679 0 0.003747031196894679 0.0062039636867294856 0 0 0 0.0024770113133362193 0.0032990174774211733 0.0044496088596400335 0 0.0044496088596400335 0.0046637362062857957 0 0 0 0.0019906884209232589 7.9832975489635416e-05 -0.0012426223434126304 0 -0.0012426223434126304 -0.0004084532095675053 0 0 0 -8.2155058520827495e-05 0.00017432162008283056 3.329583622054587e-06 0 3.329583622054587e-06 5.8092115628576659e-05 0 0 0 5.8103433927851803e-05 0.0018730787503604684 -0.00076743015309366225 0 -0.00076743015309366225 -0.01043064017127282 0 0 0 -0.0021393903552253679 0.0024361533125447448 0.0010572487777620598 0 0.0010572487777620598 -0.0087239766387861607 0 0 0 -0.0015719558315612421 0.00016598434718012464 3.3261512403722517e-06 0 3.3261512403722517e-06 5.5306525343269356e-05 0 0 0 5.5322718130848498e-05 0.00012733831758693359 0.0035386017996566488 0 0.0035386017996566488 0.0056189819581307088 0 0 0 0.0014365800689267738 0.0080687425950543012 0.013418203179730175 0 0.013418203179730175 0.019577821670116458 0 0 0 0.0069116410662931616 0.0072940069337430469 0.010187838477868971 0 0.010187838477868971 0.015944863209291782 0 0 0 0.0058097175357569864 0.01194937331901802 0.018451446185441478 0 0.018451446185441478 0.0036434515199386119 0 0 0 0.0038982062097404624 0.02790218867202926 0.034303337693767144 0 0.034303337693767144 0.035530201984927068 0 0 0 0.015858097664238235 0.010353237546443683 0.04371083066576309 0 0.04371083066576309 0.015129783709968869 0 0 0 0.006370755314102805 0.042266629602119576 0.063842969200113009 0 0.063842969200113009 0.072495541663210483 0 0 0 0.028690542816333431 0.019041475095650573 0.029726813943243724 0 0.029726813943243724 0.038483249818065834 0 0 0 0.014381181228429463 0.0026253320529368018 0.032341984040408112 0 0.032341984040408112 0.045271606699131883 0 0 0 0.011974234688018282 0.0023577380936323639 0.016283107163323152 0 0.016283107163323152 0.014201855391467511 0 0 0 0.0041398983712763598 2.2623272517563464e-05 0.0038662541012699503 0 0.0038662541012699503 0.0052911867556877379 0 0 0 0.0013284525070496045 0.0081327327547057737 0.01165551058862109 0 0.01165551058862109 0.013747196917268223 0 0 0 0.0054699824179930689 -0.00098116566724149035 0.0020542497785477343 0 0.0020542497785477343 0.0074293944320810157 0 0 0 0.0016120571912111581 0.00015755518747038219 3.2965206106128598e-06 0 3.2965206106128598e-06 5.2489894924492366e-05 0 0 0 5.251127059871863e-05 0.0015142692202740893 0.0026635224274731417 0 0.0026635224274731417 -0.0078677884121769459 0 0 0 -0.0015883797979749925 -0.00082147457316694705 0.0041274656006917709 0 0.0041274656006917709 0.022117310823150937 0 0 0 0.0053239590624938327 0.00014901193960286866 3.2451159753735586e-06 0 3.2451159753735586e-06 4.9637525574495592e-05 0 0 0 4.966236629434107e-05 0.0013403305779593477 0.0028292152965662121 0 0.0028292152965662121 0.00057070087873656306 0 0 0 0.00047775786417392219 0.003850702954673213 0.01094099801399312 0 0.01094099801399312 0.021284337945166376 0 0 0 0.0062837602249629643 -0.00078401754593421247 0.011064811883326753 0 0.011064811883326753 0.027844947269437204 0 0 0 0.0067652324308775103 0.0088186227513872284 0.021921879712021655 0 0.021921879712021655 0.040801445820731308 0 0 0 0.012405017143029551 -0.0018862172270892041 0.01863363103642679 0 0.01863363103642679 0.056764474143917942 0 0 0 0.013719564229206782 -0.0010671902953908741 0.0046546648993982254 0 0.0046546648993982254 0.02880660450262551 0 0 0 0.0069348535518099497 0.00014030031764756555 3.1668663811341247e-06 0 3.1668663811341247e-06 4.6727600482837914e-05 0 0 0 4.6756979532600869e-05 0.0036358680745767202 0.0050029848413194467 0 0.0050029848413194467 0.0083686115475205547 0 0 0 0.0030011199055266502 0.00012221921861481794 2.9075850429428617e-06 0 2.9075850429428617e-06 4.0697737269469894e-05 0 0 0 4.0729238971071964e-05 0.0022586301003892492 0.006552038471161592 0 0.006552038471161592 0.034194372123295444 0 0 0 0.0091132505559203391 0.0004278291948565105 0.0058532206581177748 0 0.0058532206581177748 0.02422069702313312 0 0 0 0.006162131554494632 0.00013138129055090974 3.0509691825181647e-06 0 3.0509691825181647e-06 4.3752342134898758e-05 0 0 0 4.378340817145212e-05 -0.00082366224079588601 0.0057050548632852083 0 0.0057050548632852083 0.053679559208003713 0 0 0 0.013213974241800597 0.0026444319472097161 0.018627782850092145 0 0.018627782850092145 0.049134156185593914 0 0 0 0.012944647033202264 0.00056998595810942021 0.057176536020857482 0 0.057176536020857482 0.071616907617243264 0 0 0 0.018046723393838171 0.025047384046014219 0.047111564896449964 0 0.047111564896449964 0.069134174993199182 0 0 0 0.023545389759802436 0.12605026902564609 0.10644137210654403 0 0.10644137210654403 0.042316735817780726 0 0 0 0.042091751210856843 0.059203384626417804 0.10317955034764825 0 0.10317955034764825 0.10696983517238001 0 0 0 0.041543304949699905 0.023254448029460972 0.076303327449695757 0 0.076303327449695757 0.042047551680394868 0 0 0 0.016325499927463349 0.065771428499845408 0.060764358649262329 0 0.060764358649262329 0.038509927821912093 0 0 0 0.026070339080438876 0.044204269490478509 0.078751448621031894 0 0.078751448621031894 0.04472624452784113 0 0 0 0.022232628504578855 0.034162543276959445 0.037995922575245089 0 0.037995922575245089 0.0025419627667531142 0 0 0 0.0091761265109278067 0.03717248775288895 0.031447297039378957 0 0.031447297039378957 0.025837062671993039 0 0 0 0.015752387606219775 0.087360923098049326 0.064776856674137573 0 0.064776856674137573 0.040741196031343296 0 0 0 0.03202552978234896 0.053415256745473094 0.027220224757551925 0 0.027220224757551925 -0.0016188331986364268 0 0 0 0.012949105886709056 0.019055009033625225 0.0075437879229546534 0 0.0075437879229546534 -0.0025367305846266675 0 0 0 0.0041295696122494174 0.026162102704682222 0.018690804324275057 0 0.018690804324275057 0.019849156981365024 0 0 0 0.011502814921511617 0.16108829889521603 0.050064160988914974 0 0.050064160988914974 -0.084876600468711594 0 0 0 0.019052924606626442 0.099949962651200597 0.036833077290375292 0 0.036833077290375292 0.011641152129532983 0 0 0 0.02789777869518284 0.10570148878332875 0.041978769428280938 0 0.041978769428280938 -0.00047741388020661191 0 0 0 0.026306018725780422 0.090077002028815301 0.12311874297404346 0 0.12311874297404346 -0.046655533087434087 0 0 0 0.01085536723534597 0.19270432226772993 0.11026256879215346 0 0.11026256879215346 -0.009425020789021632 0 0 0 0.045819825369677436 0.12415838929999978 0.071376045531915899 0 0.071376045531915899 0.0062832387297011572 0 0 0 0.032610407007425124 0.076034512842463764 0.074572117101874058 0 0.074572117101874058 -0.0043634619219217186 0 0 0 0.017917762730135012 0.15298148637143383 0.071487895527269751 0 0.071487895527269751 -0.031859196133330769 0 0 0 0.030280572559526098 0.18971651476890683 0.025609106416693759 0 0.025609106416693759 -0.018857645597837092 0 0 0 0.042714717292767546 0.25407780957356452 0.10223821067921435 0 0.10223821067921435 -0.29171031277174464 0 0 0 -0.0094081257995450862 0.29388883569362201 0.09289413530283358 0 0.09289413530283358 -0.11018147747943452 0 0 0 0.045926839553547039 0.26210689247913321 0.11270807183393128 0 0.11270807183393128 -0.14553245734675579 0 0 0 0.029143608783094299 0.3004272095075966 0.18736220161027373 0 0.18736220161027373 0.013826339809175359 0 0 0 0.078563387329193102 0.16163004141575166 0.093881757189866466 0 0.093881757189866466 -0.15637140370965064 0 0 0 0.0013146594265254219 0.26934140285381747 -0.05515240554030959 0 -0.05515240554030959 -0.18465110630194559 0 0 0 0.021172574137968247 0.19764767425499974 -0.1194158262477989 0 -0.1194158262477989 -0.10533424823455562 0 0 0 0.02307835650511092 0.29610216796071054 -0.049830840465869275 0 -0.049830840465869275 -0.33293203183296249 0 0 0 -0.009207465968063433 0.089924778518993942 -0.095040063345622094 0 -0.095040063345622094 -0.027302904284665974 0 0 0 0.015655468558582131 0.16279048059683557 -0.086597573109352788 0 -0.086597573109352788 -0.10850412755773967 0 0 0 0.013571588259774144 -0.24186207825160599 -0.10686057919914121 0 -0.10686057919914121 0.085309303368180434 0 0 0 -0.039138193720856473 0.14596755620082141 -0.21436153644199779 0 -0.21436153644199779 0.088416895640510251 0 0 0 0.058596112960333013 0.046909409415911485 -0.093818405599327942 0 -0.093818405599327942 -0.039478978814937005 0 0 0 0.0018576076502436756 0.0022453192457256728 -0.13788811180346539 0 -0.13788811180346539 0.039534539277180862 0 0 0 0.010444964630726626 0.14472579020493664 -0.054994651415436635 0 -0.054994651415436635 0.10327093729451442 0 0 0 0.061999181874862808 0.29383261235773483 -0.13153529372548423 0 -0.13153529372548423 0.22333507662330787 0 0 0 0.12929192224526051 0.4135450908781178 -0.055044672393318922 0 -0.055044672393318922 0.46296086109014922 0 0 0 0.21912648799206674 0.61777842077765543 -0.17589639899128562 0 -0.17589639899128562 0.12156643660999489 0 0 0 0.18483621434691244 0.738653188249492 0.055098509186073785 0 0.055098509186073785 0.86310152444025068 0 0 0 0.40043867817243572 0.92370495226286242 -0.033778079064401278 0 -0.033778079064401278 0.44572900928327996 0 0 0 0.34235849038653549 1.3865982815749482 -0.29998037969236901 0 -0.29998037969236901 1.2766895414229649 0 0 0 0.66582195574947822 2.4654973152026662 0.16420120859672011 0 0.16420120859672011 0.62614970603129638 0 0 0 0.77291175530849077 1.066125384986758 -0.21686590934274985 0 -0.21686590934274985 0.44349459257091711 0 0 0 0.37740499438941916 0.92314553021570034 0.24206411564913966 0 0.24206411564913966 0.22716871193092514 0 0 0 0.28757856053665681 0.5882542158486761 -0.056795020611516644 0 -0.056795020611516644 0.17464491765476242 0 0 0 0.19072478337585974 0.48582609201739568 -0.019476963811685954 0 -0.019476963811685954 -0.10132273209503784 0 0 0 0.096125839980589406 0.83357802117961977 -0.018689180313681275 0 -0.018689180313681275 0.080708570033710458 0 0 0 0.22857164780333239 0.46565214297152502 -0.013917236515853082 0 -0.013917236515853082 -0.042043405178210591 0 0 0 0.10590218444832833 0.31364169178056406 -0.15119236198596353 0 -0.15119236198596353 -0.064267881875462313 0 0 0 0.062343452476275658 0.34670829804800718 -0.15607887540556525 0 -0.15607887540556525 0.050569283850114388 0 0 0 0.099319395474530392 
</DataArray>
</CellData>
</Piece>
</UnstructuredGrid>
</VTKFile>
