<?xml version="1.0"?>
<VTKFile type="UnstructuredGrid" version="0.1" byte_order="LittleEndian">
<UnstructuredGrid>
<Piece NumberOfPoints="880" NumberOfCells="299">
<Points>
<DataArray type="Float64" NumberOfComponents="3" format="ascii">
-0 0 0 0.18653882694645291 0.22249173546702489 0 0 0.25000000000104189 0 -0 0 0 0.18653882694645291 0.22249173546702489 0 0.24999999999941089 0 0 0.24999999999941089 0 0 0.35015135319464608 0.1900339269648805 0 0.49999999999869182 0 0 0.18653882694645291 0.22249173546702489 0 0.24999999999941089 0 0 0.35015135319464608 0.1900339269648805 0 0.35015135319464608 0.1900339269648805 0 0.49924741621175961 0.21507969613896921 0 0.49999999999869182 0 0 0.35015135319464608 0.1900339269648805 0 0.49924741621175961 0.21507969613896921 0 0.40587285776242238 0.32419148732968017 0 0.37764981543668408 0.41341486499350411 0 0.41576443813007791 0.48093483781626972 0 0.45418244162583959 0.41624787166862259 0 0.37764981543668408 0.41341486499350411 0 0.45418244162583959 0.41624787166862259 0 0.40587285776242238 0.32419148732968017 0 0.41576443813007791 0.48093483781626972 0 0.46566719828045178 0.47702825415921918 0 0.45418244162583959 0.41624787166862259 0 0.41576443813007791 0.48093483781626972 0 0.46566719828045178 0.47702825415921918 0 0.4638583922372429 0.51470588235294135 0 0.46566719828045178 0.47702825415921918 0 0.49954900152271581 0.45107191084564019 0 0.5 0.5 0 0.46566719828045178 0.47702825415921918 0 0.4638583922372429 0.51470588235294135 0 0.5 0.5 0 0.46566719828045178 0.47702825415921918 0 0.49954900152271581 0.45107191084564019 0 0.45418244162583959 0.41624787166862259 0 0.45418244162583959 0.41624787166862259 0 0.49435464945626773 0.33318442629318029 0 0.54876010062294855 0.39662628167175101 0 0.45418244162583959 0.41624787166862259 0 0.49435464945626773 0.33318442629318029 0 0.40587285776242238 0.32419148732968017 0 0.49924741621175961 0.21507969613896921 0 0.49435464945626773 0.33318442629318029 0 0.40587285776242238 0.32419148732968017 0 0.35015135319464608 0.1900339269648805 0 0.40587285776242238 0.32419148732968017 0 0.29145599617909779 0.35026601625021492 0 0.37764981543668408 0.41341486499350411 0 0.40587285776242238 0.32419148732968017 0 0.29145599617909779 0.35026601625021492 0 0.18653882694645291 0.22249173546702489 0 0.35015135319464608 0.1900339269648805 0 0.29145599617909779 0.35026601625021492 0 0.29145599617909779 0.35026601625021492 0 0.32540781287085369 0.49175159894608172 0 0.17872124008781709 0.39692711089439497 0 0.37764981543668408 0.41341486499350411 0 0.29145599617909779 0.35026601625021492 0 0.32540781287085369 0.49175159894608172 0 0.37764981543668408 0.41341486499350411 0 0.41576443813007791 0.48093483781626972 0 0.32540781287085369 0.49175159894608172 0 0.17872124008781709 0.39692711089439497 0 0 0.25000000000104189 0 0 0.50000000000206157 0 0.17872124008781709 0.39692711089439497 0 0 0.50000000000206157 0 0.22453074737734591 0.51613635929252633 0 0.32540781287085369 0.49175159894608172 0 0.17872124008781709 0.39692711089439497 0 0.22453074737734591 0.51613635929252633 0 0.18653882694645291 0.22249173546702489 0 0.29145599617909779 0.35026601625021492 0 0.17872124008781709 0.39692711089439497 0 0.18653882694645291 0.22249173546702489 0 0.17872124008781709 0.39692711089439497 0 0 0.25000000000104189 0 0 0.50000000000206157 0 0.18442368612951149 0.62734948407416979 0 0 0.75000000000034772 0 0.18442368612951149 0.62734948407416979 0 0.22727208279115291 0.72949159435386135 0 0 0.75000000000034772 0 0.18442368612951149 0.62734948407416979 0 0.22727208279115291 0.72949159435386135 0 0.31346558946927339 0.67110784456164874 0 0.18442368612951149 0.62734948407416979 0 0.22453074737734591 0.51613635929252633 0 0.31771010312359771 0.58585679504088894 0 0 0.50000000000206157 0 0.18442368612951149 0.62734948407416979 0 0.22453074737734591 0.51613635929252633 0 0 1 0 0.096516139048187316 0.89789944498939644 0 0 0.75000000000034772 0 0 1 0 0.096516139048187316 0.89789944498939644 0 0.1596341872805197 1 0 0.096516139048187316 0.89789944498939644 0 0 0.75000000000034772 0 0.1644705180525495 0.8200994301041713 0 0.1644705180525495 0.8200994301041713 0 0.2386314078659193 0.92924778694987087 0 0.27155609766735261 0.80398965554903801 0 0.22727208279115291 0.72949159435386135 0 0 0.75000000000034772 0 0.1644705180525495 0.8200994301041713 0 0.22727208279115291 0.72949159435386135 0 0.1644705180525495 0.8200994301041713 0 0.27155609766735261 0.80398965554903801 0 0.096516139048187316 0.89789944498939644 0 0.1644705180525495 0.8200994301041713 0 0.2386314078659193 0.92924778694987087 0 0.096516139048187316 0.89789944498939644 0 0.2386314078659193 0.92924778694987087 0 0.1596341872805197 1 0 0.2386314078659193 0.92924778694987087 0 0.1596341872805197 1 0 0.27591592301363282 1 0 0.36061858902161292 1 0 0.32789203369730929 0.94219211037003092 0 0.27591592301363282 1 0 0.36061858902161292 1 0 0.32789203369730929 0.94219211037003092 0 0.39382242252278338 0.95440420122950598 0 0.2386314078659193 0.92924778694987087 0 0.32789203369730929 0.94219211037003092 0 0.27591592301363282 1 0 0.2386314078659193 0.92924778694987087 0 0.32789203369730929 0.94219211037003092 0 0.31834856208730472 0.88134829947972904 0 0.32789203369730929 0.94219211037003092 0 0.37746652222901839 0.8987532801416368 0 0.39382242252278338 0.95440420122950598 0 0.32789203369730929 0.94219211037003092 0 0.31834856208730472 0.88134829947972904 0 0.37746652222901839 0.8987532801416368 0 0.2386314078659193 0.92924778694987087 0 0.31834856208730472 0.88134829947972904 0 0.27155609766735261 0.80398965554903801 0 0.31834856208730472 0.88134829947972904 0 0.36493375430404612 0.82333914183704071 0 0.37746652222901839 0.8987532801416368 0 0.31834856208730472 0.88134829947972904 0 0.36493375430404612 0.82333914183704071 0 0.27155609766735261 0.80398965554903801 0 0.22727208279115291 0.72949159435386135 0 0.27155609766735261 0.80398965554903801 0 0.32984265945580837 0.74432890077789404 0 0.36493375430404612 0.82333914183704071 0 0.27155609766735261 0.80398965554903801 0 0.32984265945580837 0.74432890077789404 0 0.36493375430404612 0.82333914183704071 0 0.39746869305290999 0.7595658224757349 0 0.32984265945580837 0.74432890077789404 0 0.36493375430404612 0.82333914183704071 0 0.39746869305290999 0.7595658224757349 0 0.42893012659725649 0.81084715169569632 0 0.39746869305290999 0.7595658224757349 0 0.42893012659725649 0.81084715169569632 0 0.44651949253391748 0.77225997208621999 0 0.39746869305290999 0.7595658224757349 0 0.44651949253391748 0.77225997208621999 0 0.43412357948152142 0.72128778687215156 0 0.44651949253391748 0.77225997208621999 0 0.47786860714145291 0.77730227330627721 0 0.47220206448452873 0.74892462649306213 0 0.47786860714145291 0.77730227330627721 0 0.47220206448452873 0.74892462649306213 0 0.5 0.76470588235294124 0 0.47786860714145291 0.77730227330627721 0 0.5 0.79411764705882359 0 0.5 0.76470588235294124 0 0.47062147868881782 0.80650323854033878 0 0.5 0.82352941176470584 0 0.5 0.79411764705882359 0 0.47786860714145291 0.77730227330627721 0 0.47062147868881782 0.80650323854033878 0 0.5 0.79411764705882359 0 0.44651949253391748 0.77225997208621999 0 0.47786860714145291 0.77730227330627721 0 0.47062147868881782 0.80650323854033878 0 0.42893012659725649 0.81084715169569632 0 0.44651949253391748 0.77225997208621999 0 0.47062147868881782 0.80650323854033878 0 0.42893012659725649 0.81084715169569632 0 0.47062147868881782 0.80650323854033878 0 0.46181179062043481 0.83858979842637782 0 0.42893012659725649 0.81084715169569632 0 0.46181179062043481 0.83858979842637782 0 0.42880856207355889 0.86677159981903118 0 0.46181179062043481 0.83858979842637782 0 0.5 0.85294117647058831 0 0.5 0.82352941176470584 0 0.47062147868881782 0.80650323854033878 0 0.46181179062043481 0.83858979842637782 0 0.5 0.82352941176470584 0 0.46181179062043481 0.83858979842637782 0 0.47032448519202857 0.86718057681700655 0 0.5 0.85294117647058831 0 0.47032448519202857 0.86718057681700655 0 0.5 0.88235294117647056 0 0.5 0.85294117647058831 0 0.46181179062043481 0.83858979842637782 0 0.47032448519202857 0.86718057681700655 0 0.42880856207355889 0.86677159981903118 0 0.36493375430404612 0.82333914183704071 0 0.42880856207355889 0.86677159981903118 0 0.37746652222901839 0.8987532801416368 0 0.36493375430404612 0.82333914183704071 0 0.42893012659725649 0.81084715169569632 0 0.42880856207355889 0.86677159981903118 0 0.37746652222901839 0.8987532801416368 0 0.42822627495986648 0.92083108049218854 0 0.39382242252278338 0.95440420122950598 0 0.42880856207355889 0.86677159981903118 0 0.37746652222901839 0.8987532801416368 0 0.42822627495986648 0.92083108049218854 0 0.47032448519202857 0.86718057681700655 0 0.42880856207355889 0.86677159981903118 0 0.46100207326614928 0.89524736819256467 0 0.42880856207355889 0.86677159981903118 0 0.42822627495986648 0.92083108049218854 0 0.46100207326614928 0.89524736819256467 0 0.47032448519202857 0.86718057681700655 0 0.46100207326614928 0.89524736819256467 0 0.5 0.88235294117647056 0 0.46100207326614928 0.89524736819256467 0 0.5 0.91176470588235292 0 0.5 0.88235294117647056 0 0.46100207326614928 0.89524736819256467 0 0.46949408183482899 0.92833826413560594 0 0.5 0.91176470588235292 0 0.46949408183482899 0.92833826413560594 0 0.5 0.94117647058823528 0 0.5 0.91176470588235292 0 0.42822627495986648 0.92083108049218854 0 0.46100207326614928 0.89524736819256467 0 0.46949408183482899 0.92833826413560594 0 0.46949408183482899 0.92833826413560594 0 0.44768478605684647 0.9646709673379662 0 0.47596308696979028 0.95620709615192379 0 0.42822627495986648 0.92083108049218854 0 0.46949408183482899 0.92833826413560594 0 0.44768478605684647 0.9646709673379662 0 0.44768478605684647 0.9646709673379662 0 0.47596308696979028 0.95620709615192379 0 0.47818194888216242 0.97829325975680159 0 0.46949408183482899 0.92833826413560594 0 0.47596308696979028 0.95620709615192379 0 0.5 0.94117647058823528 0 0.47596308696979028 0.95620709615192379 0 0.47818194888216242 0.97829325975680159 0 0.5 0.97058823529411764 0 0.47596308696979028 0.95620709615192379 0 0.5 0.97058823529411764 0 0.5 0.94117647058823528 0 0.47818194888216242 0.97829325975680159 0 0.46726187138417491 1 0 0.5 1 0 0.47818194888216242 0.97829325975680159 0 0.5 0.97058823529411764 0 0.5 1 0 0.44768478605684647 0.9646709673379662 0 0.47818194888216242 0.97829325975680159 0 0.46726187138417491 1 0 0.44768478605684647 0.9646709673379662 0 0.46726187138417491 1 0 0.42231823435723009 1 0 0.44768478605684647 0.9646709673379662 0 0.42231823435723009 1 0 0.39382242252278338 0.95440420122950598 0 0.42822627495986648 0.92083108049218854 0 0.44768478605684647 0.9646709673379662 0 0.39382242252278338 0.95440420122950598 0 0.36061858902161292 1 0 0.42231823435723009 1 0 0.39382242252278338 0.95440420122950598 0 0.31771010312359771 0.58585679504088894 0 0.3872154068451229 0.6301386882447304 0 0.41980724897053312 0.55867199730355355 0 0.32540781287085369 0.49175159894608172 0 0.31771010312359771 0.58585679504088894 0 0.41980724897053312 0.55867199730355355 0 0.32540781287085369 0.49175159894608172 0 0.22453074737734591 0.51613635929252633 0 0.31771010312359771 0.58585679504088894 0 0.18442368612951149 0.62734948407416979 0 0.31771010312359771 0.58585679504088894 0 0.31346558946927339 0.67110784456164874 0 0.22727208279115291 0.72949159435386135 0 0.32984265945580837 0.74432890077789404 0 0.31346558946927339 0.67110784456164874 0 0.39746869305290999 0.7595658224757349 0 0.32984265945580837 0.74432890077789404 0 0.38513711431054509 0.69312683393047636 0 0.32984265945580837 0.74432890077789404 0 0.31346558946927339 0.67110784456164874 0 0.38513711431054509 0.69312683393047636 0 0.31771010312359771 0.58585679504088894 0 0.31346558946927339 0.67110784456164874 0 0.3872154068451229 0.6301386882447304 0 0.31346558946927339 0.67110784456164874 0 0.3872154068451229 0.6301386882447304 0 0.38513711431054509 0.69312683393047636 0 0.3872154068451229 0.6301386882447304 0 0.38513711431054509 0.69312683393047636 0 0.4390556798454946 0.66199025953586599 0 0.3872154068451229 0.6301386882447304 0 0.4390556798454946 0.66199025953586599 0 0.44702869549010399 0.61002701911053991 0 0.39746869305290999 0.7595658224757349 0 0.38513711431054509 0.69312683393047636 0 0.43412357948152142 0.72128778687215156 0 0.38513711431054509 0.69312683393047636 0 0.43412357948152142 0.72128778687215156 0 0.4390556798454946 0.66199025953586599 0 0.43412357948152142 0.72128778687215156 0 0.47636314644728822 0.72058823529411908 0 0.47220206448452873 0.74892462649306213 0 0.44651949253391748 0.77225997208621999 0 0.43412357948152142 0.72128778687215156 0 0.47220206448452873 0.74892462649306213 0 0.43412357948152142 0.72128778687215156 0 0.46330219403010409 0.69594601192744354 0 0.4390556798454946 0.66199025953586599 0 0.43412357948152142 0.72128778687215156 0 0.46330219403010409 0.69594601192744354 0 0.47636314644728822 0.72058823529411908 0 0.46330219403010409 0.69594601192744354 0 0.47636314644728822 0.72058823529411908 0 0.5 0.70588235294117663 0 0.46330219403010409 0.69594601192744354 0 0.5 0.67647058823529438 0 0.5 0.70588235294117663 0 0.47636314644728822 0.72058823529411908 0 0.5 0.73529411764705888 0 0.5 0.70588235294117663 0 0.47220206448452873 0.74892462649306213 0 0.5 0.73529411764705888 0 0.5 0.76470588235294124 0 0.47636314644728822 0.72058823529411908 0 0.47220206448452873 0.74892462649306213 0 0.5 0.73529411764705888 0 0.4390556798454946 0.66199025953586599 0 0.47501372853621993 0.66300743809067952 0 0.47271076880550111 0.63357150722538136 0 0.4390556798454946 0.66199025953586599 0 0.47271076880550111 0.63357150722538136 0 0.44702869549010399 0.61002701911053991 0 0.46330219403010409 0.69594601192744354 0 0.4390556798454946 0.66199025953586599 0 0.47501372853621993 0.66300743809067952 0 0.46330219403010409 0.69594601192744354 0 0.47501372853621993 0.66300743809067952 0 0.5 0.67647058823529438 0 0.47501372853621993 0.66300743809067952 0 0.5 0.64705882352941191 0 0.5 0.67647058823529438 0 0.47501372853621993 0.66300743809067952 0 0.47271076880550111 0.63357150722538136 0 0.5 0.64705882352941191 0 0.47271076880550111 0.63357150722538136 0 0.5 0.61764705882352966 0 0.5 0.64705882352941191 0 0.47784843225772261 0.60532339797118362 0 0.5 0.5882352941176473 0 0.5 0.61764705882352966 0 0.47271076880550111 0.63357150722538136 0 0.47784843225772261 0.60532339797118362 0 0.5 0.61764705882352966 0 0.46950269699300751 0.57713611057881953 0 0.5 0.55882352941176494 0 0.5 0.5882352941176473 0 0.47784843225772261 0.60532339797118362 0 0.46950269699300751 0.57713611057881953 0 0.5 0.5882352941176473 0 0.46950269699300751 0.57713611057881953 0 0.44702869549010399 0.61002701911053991 0 0.41980724897053312 0.55867199730355355 0 0.47784843225772261 0.60532339797118362 0 0.46950269699300751 0.57713611057881953 0 0.44702869549010399 0.61002701911053991 0 0.47271076880550111 0.63357150722538136 0 0.47784843225772261 0.60532339797118362 0 0.44702869549010399 0.61002701911053991 0 0.3872154068451229 0.6301386882447304 0 0.44702869549010399 0.61002701911053991 0 0.41980724897053312 0.55867199730355355 0 0.41576443813007791 0.48093483781626972 0 0.32540781287085369 0.49175159894608172 0 0.41980724897053312 0.55867199730355355 0 0.41576443813007791 0.48093483781626972 0 0.41980724897053312 0.55867199730355355 0 0.4638583922372429 0.51470588235294135 0 0.41980724897053312 0.55867199730355355 0 0.4638583922372429 0.51470588235294135 0 0.47063366764015668 0.5477498568705923 0 0.46950269699300751 0.57713611057881953 0 0.41980724897053312 0.55867199730355355 0 0.47063366764015668 0.5477498568705923 0 0.46950269699300751 0.57713611057881953 0 0.47063366764015668 0.5477498568705923 0 0.5 0.55882352941176494 0 0.47063366764015668 0.5477498568705923 0 0.5 0.52941176470588269 0 0.5 0.55882352941176494 0 0.4638583922372429 0.51470588235294135 0 0.47063366764015668 0.5477498568705923 0 0.5 0.52941176470588269 0 0.4638583922372429 0.51470588235294135 0 0.5 0.5 0 0.5 0.52941176470588269 0 0.5 0.52941176470588269 0 0.52629893369322589 0.51330452493555312 0 0.52820848765230954 0.54540076010342464 0 0.5 0.5 0 0.5 0.52941176470588269 0 0.52629893369322589 0.51330452493555312 0 0.5 0.5 0 0.5 0.52941176470588269 0 0.5 0.52941176470588269 0 0.5 0.55882352941176494 0 0.52820848765230954 0.54540076010342464 0 0.5 0.52941176470588269 0 0.5 0.55882352941176494 0 0.5 0.55882352941176494 0 0.52820848765230954 0.54540076010342464 0 0.52246722155046366 0.57417151085839346 0 0.52820848765230954 0.54540076010342464 0 0.56199650931215228 0.51957997397013023 0 0.55931585964581554 0.57571189932143541 0 0.52629893369322589 0.51330452493555312 0 0.56199650931215228 0.51957997397013023 0 0.54128967150166729 0.47213012589832831 0 0.52629893369322589 0.51330452493555312 0 0.52820848765230954 0.54540076010342464 0 0.56199650931215228 0.51957997397013023 0 0.56199650931215228 0.51957997397013023 0 0.61174067805461174 0.54148194547208961 0 0.60345082206666756 0.47575908627627911 0 0.56199650931215228 0.51957997397013023 0 0.61174067805461174 0.54148194547208961 0 0.55931585964581554 0.57571189932143541 0 0.61174067805461174 0.54148194547208961 0 0.61264973759093866 0.60999664295093947 0 0.55931585964581554 0.57571189932143541 0 0.61264973759093866 0.60999664295093947 0 0.55931585964581554 0.57571189932143541 0 0.55828304378107996 0.63546085023637511 0 0.55931585964581554 0.57571189932143541 0 0.52754891270107895 0.60396918438229519 0 0.55828304378107996 0.63546085023637511 0 0.52754891270107895 0.60396918438229519 0 0.52222323737415433 0.63323059203007803 0 0.55828304378107996 0.63546085023637511 0 0.52820848765230954 0.54540076010342464 0 0.55931585964581554 0.57571189932143541 0 0.52246722155046366 0.57417151085839346 0 0.55931585964581554 0.57571189932143541 0 0.52246722155046366 0.57417151085839346 0 0.52754891270107895 0.60396918438229519 0 0.52246722155046366 0.57417151085839346 0 0.5 0.5882352941176473 0 0.52754891270107895 0.60396918438229519 0 0.5 0.55882352941176494 0 0.52246722155046366 0.57417151085839346 0 0.5 0.5882352941176473 0 0.5 0.55882352941176494 0 0.5 0.5882352941176473 0 0.52754891270107895 0.60396918438229519 0 0.5 0.61764705882352966 0 0.52222323737415433 0.63323059203007803 0 0.5 0.5882352941176473 0 0.5 0.61764705882352966 0 0.5 0.5882352941176473 0 0.52754891270107895 0.60396918438229519 0 0.5 0.61764705882352966 0 0.5 0.61764705882352966 0 0.52222323737415433 0.63323059203007803 0 0.5 0.64705882352941191 0 0.5 0.61764705882352966 0 0.5 0.64705882352941191 0 0.52222323737415433 0.63323059203007803 0 0.5 0.64705882352941191 0 0.52736180768426655 0.66304505109048573 0 0.5 0.64705882352941191 0 0.5 0.67647058823529438 0 0.52736180768426655 0.66304505109048573 0 0.5 0.64705882352941191 0 0.5 0.67647058823529438 0 0.5 0.67647058823529438 0 0.52736180768426655 0.66304505109048573 0 0.52189318962165776 0.69193883095305098 0 0.52736180768426655 0.66304505109048573 0 0.52189318962165776 0.69193883095305098 0 0.55852327729743823 0.69498827241231187 0 0.52736180768426655 0.66304505109048573 0 0.55828304378107996 0.63546085023637511 0 0.55852327729743823 0.69498827241231187 0 0.52222323737415433 0.63323059203007803 0 0.52736180768426655 0.66304505109048573 0 0.55828304378107996 0.63546085023637511 0 0.5 0.73529411764705888 0 0.52547133540542634 0.72058823529411897 0 0.5211984712236245 0.75134107022269114 0 0.5 0.73529411764705888 0 0.52547133540542634 0.72058823529411897 0 0.5 0.70588235294117663 0 0.5 0.73529411764705888 0 0.5 0.70588235294117663 0 0.52547133540542634 0.72058823529411897 0 0.5 0.70588235294117663 0 0.52189318962165776 0.69193883095305098 0 0.5 0.67647058823529438 0 0.5 0.70588235294117663 0 0.52189318962165776 0.69193883095305098 0 0.5 0.67647058823529438 0 0.5 0.70588235294117663 0 0.52547133540542634 0.72058823529411897 0 0.52189318962165776 0.69193883095305098 0 0.55852327729743823 0.69498827241231187 0 0.52547133540542634 0.72058823529411897 0 0.5211984712236245 0.75134107022269114 0 0.55458114032207428 0.75544804615062711 0 0.52547133540542634 0.72058823529411897 0 0.55852327729743823 0.69498827241231187 0 0.55458114032207428 0.75544804615062711 0 0.55852327729743823 0.69498827241231187 0 0.6088970477846376 0.72715446211577472 0 0.55458114032207428 0.75544804615062711 0 0.55852327729743823 0.69498827241231187 0 0.6088970477846376 0.72715446211577472 0 0.60110770968787908 0.67045598539422102 0 0.61264973759093866 0.60999664295093947 0 0.55828304378107996 0.63546085023637511 0 0.60110770968787908 0.67045598539422102 0 0.55828304378107996 0.63546085023637511 0 0.55852327729743823 0.69498827241231187 0 0.60110770968787908 0.67045598539422102 0 0.61264973759093866 0.60999664295093947 0 0.60110770968787908 0.67045598539422102 0 0.66621429167335955 0.68470300534742679 0 0.6088970477846376 0.72715446211577472 0 0.66621429167335955 0.68470300534742679 0 0.6817340940367822 0.76923101696744944 0 0.6088970477846376 0.72715446211577472 0 0.60110770968787908 0.67045598539422102 0 0.66621429167335955 0.68470300534742679 0 0.66621429167335955 0.68470300534742679 0 0.6817340940367822 0.76923101696744944 0 0.7828103453665094 0.69876044407634474 0 0.66621429167335955 0.68470300534742679 0 0.69354174170208815 0.57892485983477626 0 0.7828103453665094 0.69876044407634474 0 0.69354174170208815 0.57892485983477626 0 0.77935529174931761 0.49004815756283893 0 0.66681557370681976 0.49435464945626773 0 0.61174067805461174 0.54148194547208961 0 0.69354174170208815 0.57892485983477626 0 0.66681557370681976 0.49435464945626773 0 0.61174067805461174 0.54148194547208961 0 0.60345082206666756 0.47575908627627911 0 0.66681557370681976 0.49435464945626773 0 0.61174067805461174 0.54148194547208961 0 0.61264973759093866 0.60999664295093947 0 0.69354174170208815 0.57892485983477626 0 0.61264973759093866 0.60999664295093947 0 0.66621429167335955 0.68470300534742679 0 0.69354174170208815 0.57892485983477626 0 0.60145933092659498 0.94808652648958736 0 0.57768176564240026 1 0 0.63938141097836054 1 0 0.60145933092659498 0.94808652648958736 0 0.55381003699196441 0.97073734537240042 0 0.55652711631508067 0.93435010280744335 0 0.60145933092659498 0.94808652648958736 0 0.57768176564240026 1 0 0.55381003699196441 0.97073734537240042 0 0.57768176564240026 1 0 0.53273812861558045 1 0 0.55381003699196441 0.97073734537240042 0 0.53273812861558045 1 0 0.55381003699196441 0.97073734537240042 0 0.52191028766292435 0.97912620202886635 0 0.53273812861558045 1 0 0.52191028766292435 0.97912620202886635 0 0.5 1 0 0.52191028766292435 0.97912620202886635 0 0.5 0.97058823529411764 0 0.5 1 0 0.5 0.97058823529411764 0 0.5 1 0 0.5 0.97058823529411764 0 0.5 0.94117647058823528 0 0.5 0.97058823529411764 0 0.5 0.94117647058823528 0 0.52554900427979434 0.95492408164812537 0 0.52191028766292435 0.97912620202886635 0 0.5 0.97058823529411764 0 0.52554900427979434 0.95492408164812537 0 0.5 0.94117647058823528 0 0.52554900427979434 0.95492408164812537 0 0.52149395742518578 0.9280464911497236 0 0.55381003699196441 0.97073734537240042 0 0.52554900427979434 0.95492408164812537 0 0.55652711631508067 0.93435010280744335 0 0.55381003699196441 0.97073734537240042 0 0.52191028766292435 0.97912620202886635 0 0.52554900427979434 0.95492408164812537 0 0.52554900427979434 0.95492408164812537 0 0.55652711631508067 0.93435010280744335 0 0.52149395742518578 0.9280464911497236 0 0.55652711631508067 0.93435010280744335 0 0.52982914238326484 0.89727189043838895 0 0.57507719038536997 0.89743529736491356 0 0.55652711631508067 0.93435010280744335 0 0.52149395742518578 0.9280464911497236 0 0.52982914238326484 0.89727189043838895 0 0.52149395742518578 0.9280464911497236 0 0.5 0.91176470588235292 0 0.52982914238326484 0.89727189043838895 0 0.5 0.94117647058823528 0 0.5 0.91176470588235292 0 0.5 0.94117647058823528 0 0.52149395742518578 0.9280464911497236 0 0.5 0.91176470588235292 0 0.5 0.91176470588235292 0 0.5 0.88235294117647056 0 0.52982914238326484 0.89727189043838895 0 0.5 0.91176470588235292 0 0.5 0.88235294117647056 0 0.5 0.88235294117647056 0 0.52982914238326484 0.89727189043838895 0 0.51991574276818808 0.86764705882352966 0 0.52982914238326484 0.89727189043838895 0 0.57507719038536997 0.89743529736491356 0 0.54799184932697576 0.8599032232094268 0 0.60145933092659498 0.94808652648958736 0 0.55652711631508067 0.93435010280744335 0 0.57507719038536997 0.89743529736491356 0 0.60145933092659498 0.94808652648958736 0 0.57507719038536997 0.89743529736491356 0 0.63427031498547037 0.88927276979110648 0 0.57507719038536997 0.89743529736491356 0 0.58994607995897996 0.84812355238296233 0 0.63427031498547037 0.88927276979110648 0 0.58994607995897996 0.84812355238296233 0 0.64153141236229239 0.83072478436463804 0 0.63427031498547037 0.88927276979110648 0 0.58994607995897996 0.84812355238296233 0 0.60049020024666178 0.78900583008989877 0 0.64153141236229239 0.83072478436463804 0 0.58994607995897996 0.84812355238296233 0 0.54799184932697576 0.8599032232094268 0 0.55206941203846505 0.81091931303809783 0 0.58994607995897996 0.84812355238296233 0 0.55206941203846505 0.81091931303809783 0 0.60049020024666178 0.78900583008989877 0 0.57507719038536997 0.89743529736491356 0 0.58994607995897996 0.84812355238296233 0 0.54799184932697576 0.8599032232094268 0 0.52982914238326484 0.89727189043838895 0 0.54799184932697576 0.8599032232094268 0 0.51991574276818808 0.86764705882352966 0 0.54799184932697576 0.8599032232094268 0 0.51991574276818808 0.86764705882352966 0 0.52395085592512047 0.83729395211968571 0 0.51991574276818808 0.86764705882352966 0 0.5 0.85294117647058831 0 0.52395085592512047 0.83729395211968571 0 0.5 0.88235294117647056 0 0.5 0.85294117647058831 0 0.5 0.88235294117647056 0 0.51991574276818808 0.86764705882352966 0 0.5 0.85294117647058831 0 0.5 0.82352941176470584 0 0.52395085592512047 0.83729395211968571 0 0.52039202967084142 0.80930587873000437 0 0.5 0.85294117647058831 0 0.5 0.82352941176470584 0 0.5 0.85294117647058831 0 0.5 0.82352941176470584 0 0.52395085592512047 0.83729395211968571 0 0.52395085592512047 0.83729395211968571 0 0.55206941203846505 0.81091931303809783 0 0.52039202967084142 0.80930587873000437 0 0.54799184932697576 0.8599032232094268 0 0.52395085592512047 0.83729395211968571 0 0.55206941203846505 0.81091931303809783 0 0.55206941203846505 0.81091931303809783 0 0.52039202967084142 0.80930587873000437 0 0.52593988039062167 0.78066906966870908 0 0.55206941203846505 0.81091931303809783 0 0.52593988039062167 0.78066906966870908 0 0.55458114032207428 0.75544804615062711 0 0.52039202967084142 0.80930587873000437 0 0.5 0.79411764705882359 0 0.52593988039062167 0.78066906966870908 0 0.5 0.82352941176470584 0 0.5 0.79411764705882359 0 0.5 0.82352941176470584 0 0.52039202967084142 0.80930587873000437 0 0.5 0.79411764705882359 0 0.5 0.73529411764705888 0 0.5 0.76470588235294124 0 0.5 0.73529411764705888 0 0.5 0.76470588235294124 0 0.5211984712236245 0.75134107022269114 0 0.5 0.79411764705882359 0 0.5 0.76470588235294124 0 0.52593988039062167 0.78066906966870908 0 0.5 0.79411764705882359 0 0.5 0.76470588235294124 0 0.5 0.76470588235294124 0 0.52593988039062167 0.78066906966870908 0 0.5211984712236245 0.75134107022269114 0 0.52593988039062167 0.78066906966870908 0 0.5211984712236245 0.75134107022269114 0 0.55458114032207428 0.75544804615062711 0 0.6088970477846376 0.72715446211577472 0 0.55458114032207428 0.75544804615062711 0 0.60049020024666178 0.78900583008989877 0 0.55206941203846505 0.81091931303809783 0 0.55458114032207428 0.75544804615062711 0 0.60049020024666178 0.78900583008989877 0 0.6817340940367822 0.76923101696744944 0 0.70916369539323409 0.86041409043207073 0 0.80987878298654392 0.8110307373443908 0 0.6088970477846376 0.72715446211577472 0 0.60049020024666178 0.78900583008989877 0 0.6817340940367822 0.76923101696744944 0 0.60049020024666178 0.78900583008989877 0 0.6817340940367822 0.76923101696744944 0 0.64153141236229239 0.83072478436463804 0 0.70916369539323409 0.86041409043207073 0 0.64153141236229239 0.83072478436463804 0 0.63427031498547037 0.88927276979110648 0 0.6817340940367822 0.76923101696744944 0 0.70916369539323409 0.86041409043207073 0 0.64153141236229239 0.83072478436463804 0 0.70916369539323409 0.86041409043207073 0 0.68173274398262862 0.93660593960145366 0 0.63427031498547037 0.88927276979110648 0 0.60145933092659498 0.94808652648958736 0 0.68173274398262862 0.93660593960145366 0 0.63427031498547037 0.88927276979110648 0 0.70916369539323409 0.86041409043207073 0 0.68173274398262862 0.93660593960145366 0 0.78222494485339233 0.91531439423588867 0 0.68173274398262862 0.93660593960145366 0 0.72408407698689681 1 0 0.78222494485339233 0.91531439423588867 0 0.60145933092659498 0.94808652648958736 0 0.68173274398262862 0.93660593960145366 0 0.63938141097836054 1 0 0.68173274398262862 0.93660593960145366 0 0.72408407698689681 1 0 0.63938141097836054 1 0 1 1 0 0.89611933618281592 0.89173516444576184 0 1 0.74999999999934008 0 0.72408407698689681 1 0 0.84036581271988753 1 0 0.78222494485339233 0.91531439423588867 0 0.84036581271988753 1 0 0.78222494485339233 0.91531439423588867 0 0.89611933618281592 0.89173516444576184 0 0.6817340940367822 0.76923101696744944 0 0.80987878298654392 0.8110307373443908 0 0.7828103453665094 0.69876044407634474 0 0.80987878298654392 0.8110307373443908 0 0.7828103453665094 0.69876044407634474 0 1 0.74999999999934008 0 0.78222494485339233 0.91531439423588867 0 0.80987878298654392 0.8110307373443908 0 0.89611933618281592 0.89173516444576184 0 0.70916369539323409 0.86041409043207073 0 0.78222494485339233 0.91531439423588867 0 0.80987878298654392 0.8110307373443908 0 0.80987878298654392 0.8110307373443908 0 0.89611933618281592 0.89173516444576184 0 1 0.74999999999934008 0 0.84036581271988753 1 0 1 1 0 0.89611933618281592 0.89173516444576184 0 0.84549316180028322 0.59867304496468476 0 1 0.74999999999934008 0 1 0.49999999999869182 0 0.69354174170208815 0.57892485983477626 0 0.84549316180028322 0.59867304496468476 0 0.77935529174931761 0.49004815756283893 0 0.84549316180028322 0.59867304496468476 0 1 0.49999999999869182 0 0.77935529174931761 0.49004815756283893 0 0.69354174170208815 0.57892485983477626 0 0.84549316180028322 0.59867304496468476 0 0.7828103453665094 0.69876044407634474 0 0.84549316180028322 0.59867304496468476 0 0.7828103453665094 0.69876044407634474 0 1 0.74999999999934008 0 1 0.49999999999869182 0 0.77935529174931761 0.49004815756283893 0 0.80451351819826811 0.35479918680564199 0 0.80451351819826811 0.35479918680564199 0 1 0.24999999999941089 0 0.79923457477009219 0.1751534052300894 0 1 0.49999999999869182 0 0.80451351819826811 0.35479918680564199 0 1 0.24999999999941089 0 1 0 0 0.79923457477009219 0.1751534052300894 0 0.74999999999934008 0 0 1 0.24999999999941089 0 1 0 0 0.79923457477009219 0.1751534052300894 0 0.49999999999869182 0 0 0.62537763927714929 0.14286513648320209 0 0.74999999999934008 0 0 0.79923457477009219 0.1751534052300894 0 0.62537763927714929 0.14286513648320209 0 0.6197279975813802 0.30020319976287241 0 0.79923457477009219 0.1751534052300894 0 0.62537763927714929 0.14286513648320209 0 0.74999999999934008 0 0 0.49924741621175961 0.21507969613896921 0 0.49999999999869182 0 0 0.62537763927714929 0.14286513648320209 0 0.49924741621175961 0.21507969613896921 0 0.62537763927714929 0.14286513648320209 0 0.6197279975813802 0.30020319976287241 0 0.49924741621175961 0.21507969613896921 0 0.49435464945626773 0.33318442629318029 0 0.6197279975813802 0.30020319976287241 0 0.49435464945626773 0.33318442629318029 0 0.6197279975813802 0.30020319976287241 0 0.54876010062294855 0.39662628167175101 0 0.6197279975813802 0.30020319976287241 0 0.54876010062294855 0.39662628167175101 0 0.66576775508844777 0.41353720431697111 0 0.49954900152271581 0.45107191084564019 0 0.45418244162583959 0.41624787166862259 0 0.54876010062294855 0.39662628167175101 0 0.49954900152271581 0.45107191084564019 0 0.54876010062294855 0.39662628167175101 0 0.54128967150166729 0.47213012589832831 0 0.49954900152271581 0.45107191084564019 0 0.5 0.5 0 0.54128967150166729 0.47213012589832831 0 0.5 0.5 0 0.52629893369322589 0.51330452493555312 0 0.54128967150166729 0.47213012589832831 0 0.54876010062294855 0.39662628167175101 0 0.54128967150166729 0.47213012589832831 0 0.60345082206666756 0.47575908627627911 0 0.56199650931215228 0.51957997397013023 0 0.54128967150166729 0.47213012589832831 0 0.60345082206666756 0.47575908627627911 0 0.54876010062294855 0.39662628167175101 0 0.60345082206666756 0.47575908627627911 0 0.66576775508844777 0.41353720431697111 0 0.77935529174931761 0.49004815756283893 0 0.80451351819826811 0.35479918680564199 0 0.66576775508844777 0.41353720431697111 0 0.60345082206666756 0.47575908627627911 0 0.66576775508844777 0.41353720431697111 0 0.66681557370681976 0.49435464945626773 0 0.77935529174931761 0.49004815756283893 0 0.66576775508844777 0.41353720431697111 0 0.66681557370681976 0.49435464945626773 0 0.80451351819826811 0.35479918680564199 0 0.79923457477009219 0.1751534052300894 0 0.6197279975813802 0.30020319976287241 0 0.80451351819826811 0.35479918680564199 0 0.6197279975813802 0.30020319976287241 0 0.66576775508844777 0.41353720431697111 0 
</DataArray>
</Points>
<Cells>
<DataArray type="UInt32" Name="connectivity" format="ascii">
0 1 2 3 4 5 6 7 8 9 10 11 12 13 14 15 16 17 18 19 20 21 22 23 24 25 26 27 28 29 30 31 32 33 34 35 36 37 38 39 40 41 42 43 44 45 46 47 48 49 50 51 52 53 54 55 56 57 58 59 60 61 62 63 64 65 66 67 68 69 70 71 72 73 74 75 76 77 78 79 80 81 82 83 84 85 86 87 88 89 90 91 92 93 94 95 96 97 98 99 100 101 102 103 104 105 106 107 108 109 110 111 112 113 114 115 116 117 118 119 120 121 122 123 124 125 126 127 128 129 130 131 132 133 134 135 136 137 138 139 140 141 142 143 144 145 146 147 148 149 150 151 152 153 154 155 156 157 158 159 160 161 162 163 164 165 166 167 168 169 170 171 172 173 174 175 176 177 178 179 180 181 182 183 184 185 186 187 188 189 190 191 192 193 194 195 196 197 198 199 200 201 202 203 204 205 206 207 208 209 210 211 212 213 214 215 216 217 218 219 220 221 222 223 224 225 226 227 228 229 230 231 232 233 234 235 236 237 238 239 240 241 242 243 244 245 246 247 248 249 250 251 252 253 254 255 256 257 258 259 260 261 262 263 264 265 266 267 268 269 270 271 272 273 274 275 276 277 278 279 280 281 282 283 284 285 286 287 288 289 290 291 292 293 294 295 296 297 298 299 300 301 302 303 304 305 306 307 308 309 310 311 312 313 314 315 316 317 318 319 320 321 322 323 324 325 326 327 328 329 330 331 332 333 334 335 336 337 338 339 340 341 342 343 344 345 346 347 348 349 350 351 352 353 354 355 356 357 358 359 360 361 362 363 364 365 366 367 368 369 370 371 372 373 374 375 376 377 378 379 380 381 382 383 384 385 386 387 388 389 390 391 392 393 394 395 396 397 398 399 400 401 402 403 404 405 406 407 408 409 410 411 412 413 414 415 416 417 418 419 420 421 422 423 424 425 426 427 428 429 430 431 432 433 434 435 436 437 438 439 440 441 442 443 444 445 446 447 448 449 450 451 452 453 454 455 456 457 458 459 460 461 462 463 464 465 466 467 468 469 470 471 472 473 474 475 476 477 478 479 480 481 482 483 484 485 486 487 488 489 490 491 492 493 494 495 496 497 498 499 500 501 502 503 504 505 506 507 508 509 510 511 512 513 514 515 516 517 518 519 520 521 522 523 524 525 526 527 528 529 530 531 532 533 534 535 536 537 538 539 540 541 542 543 544 545 546 547 548 549 550 551 552 553 554 555 556 557 558 559 560 561 562 563 564 565 566 567 568 569 570 571 572 573 574 575 576 577 578 579 580 581 582 583 584 585 586 587 588 589 590 591 592 593 594 595 596 597 598 599 600 601 602 603 604 605 606 607 608 609 610 611 612 613 614 615 616 617 618 619 620 621 622 623 624 625 626 627 628 629 630 631 632 633 634 635 636 637 638 639 640 641 642 643 644 645 646 647 648 649 650 651 652 653 654 655 656 657 658 659 660 661 662 663 664 665 666 667 668 669 670 671 672 673 674 675 676 677 678 679 680 681 682 683 684 685 686 687 688 689 690 691 692 693 694 695 696 697 698 699 700 701 702 703 704 705 706 707 708 709 710 711 712 713 714 715 716 717 718 719 720 721 722 723 724 725 726 727 728 729 730 731 732 733 734 735 736 737 738 739 740 741 742 743 744 745 746 747 748 749 750 751 752 753 754 755 756 757 758 759 760 761 762 763 764 765 766 767 768 769 770 771 772 773 774 775 776 777 778 779 780 781 782 783 784 785 786 787 788 789 790 791 792 793 794 795 796 797 798 799 800 801 802 803 804 805 806 807 808 809 810 811 812 813 814 815 816 817 818 819 820 821 822 823 824 825 826 827 828 829 830 831 832 833 834 835 836 837 838 839 840 841 842 843 844 845 846 847 848 849 850 851 852 853 854 855 856 857 858 859 860 861 862 863 864 865 866 867 868 869 870 871 872 873 874 875 876 877 878 879 
</DataArray>
<DataArray type="UInt32" Name="offsets" format="ascii">
3 6 9 12 15 18 21 24 27 30 33 36 39 42 45 48 51 54 57 60 63 66 69 72 75 78 81 84 87 90 93 96 99 102 105 108 111 114 117 120 123 126 129 132 135 138 141 144 147 150 153 156 159 162 165 168 171 174 177 180 183 186 189 192 195 198 201 204 207 210 213 216 219 222 225 228 231 234 237 240 243 246 249 252 255 258 261 264 267 270 273 276 279 282 285 288 291 294 297 300 303 306 309 312 315 318 321 324 327 330 333 336 339 342 345 348 351 354 357 360 363 366 369 372 375 378 381 384 387 390 393 396 399 402 405 408 411 414 417 420 423 425 428 430 433 436 439 442 445 448 451 454 457 460 463 466 469 472 474 477 479 482 485 487 490 493 495 498 501 504 507 510 513 515 518 521 523 526 529 532 535 538 541 544 547 550 553 556 559 562 565 568 571 574 577 580 583 586 589 592 595 597 599 602 605 608 611 614 617 620 623 626 628 631 634 636 639 642 645 648 651 654 657 660 663 666 669 672 675 677 680 683 685 688 691 694 697 700 703 705 708 710 713 716 718 721 724 727 730 733 736 739 742 745 748 751 754 757 760 763 766 769 772 775 778 781 784 787 790 793 796 799 802 805 808 811 814 817 820 823 826 829 832 835 838 841 844 847 850 853 856 859 862 865 868 871 874 877 880 
</DataArray>
<DataArray type="UInt32" Name="types" format="ascii">
5 5 5 5 5 5 5 5 5 5 5 5 5 5 5 5 5 5 5 5 5 5 5 5 5 5 5 5 5 5 5 5 5 5 5 5 5 5 5 5 5 5 5 5 5 5 5 5 5 5 5 5 5 5 5 5 5 5 5 5 5 5 5 5 5 5 5 5 5 5 5 5 5 5 5 5 5 5 5 5 5 5 5 5 5 5 5 5 5 5 5 5 5 5 5 5 5 5 5 5 5 5 5 5 5 5 5 5 5 5 5 5 5 5 5 5 5 5 5 5 5 5 5 5 5 5 5 5 5 5 5 5 5 5 5 5 5 5 5 5 5 3 5 3 5 5 5 5 5 5 5 5 5 5 5 5 5 5 3 5 3 5 5 3 5 5 3 5 5 5 5 5 5 3 5 5 3 5 5 5 5 5 5 5 5 5 5 5 5 5 5 5 5 5 5 5 5 5 5 5 5 3 3 5 5 5 5 5 5 5 5 5 3 5 5 3 5 5 5 5 5 5 5 5 5 5 5 5 5 3 5 5 3 5 5 5 5 5 5 3 5 3 5 5 3 5 5 5 5 5 5 5 5 5 5 5 5 5 5 5 5 5 5 5 5 5 5 5 5 5 5 5 5 5 5 5 5 5 5 5 5 5 5 5 5 5 5 5 5 5 5 5 5 5 5 5 5 5 5 
</DataArray>
</Cells>
<PointData Scalars="" Vectors="displacement," Tensors="">
<DataArray type="Float64" Name="displacement" NumberOfComponents="3" format="ascii">
-2.7007286982612414e-06 1.1634635277283648e-05 0 0.00082986787095630239 -0.0023146527835390019 0 0.0046454817206833653 0.0087994627128887733 0 -2.7007286982612414e-06 1.1634635277283648e-05 0 0.00082986787095630239 -0.0023146527835390019 0 -3.8537138841325251e-06 -9.0497340348665735e-06 0 -3.8537138841325251e-06 -9.0497340348665735e-06 0 -0.001408594126755176 -0.011891588831659927 0 -4.6842803770225544e-06 -2.9985855931930264e-05 0 0.00082986787095630239 -0.0023146527835390019 0 -3.8537138841325251e-06 -9.0497340348665735e-06 0 -0.001408594126755176 -0.011891588831659927 0 -0.001408594126755176 -0.011891588831659927 0 0.0014704571769016139 -0.02527935830273445 0 -4.6842803770225544e-06 -2.9985855931930264e-05 0 -0.001408594126755176 -0.011891588831659927 0 0.0014704571769016139 -0.02527935830273445 0 0.008935496945585741 -0.026161956917286507 0 0.020276512620766636 -0.026989300525716933 0 0.031741606756266395 -0.036640921725920074 0 0.021122510922643969 -0.041830144615564238 0 0.020276512620766636 -0.026989300525716933 0 0.021122510922643969 -0.041830144615564238 0 0.008935496945585741 -0.026161956917286507 0 0.031741606756266395 -0.036640921725920074 0 0.031423718144334277 -0.048691236950848628 0 0.021122510922643969 -0.041830144615564238 0 0.031741606756266395 -0.036640921725920074 0 0.031423718144334277 -0.048691236950848628 0 0.03940039199565995 -0.048985505345966844 0 0.031423718144334277 -0.048691236950848628 0 0.027610285567799361 -0.057218238471423676 0 0.03681448184295795 -0.06404659483734515 0 0.031423718144334277 -0.048691236950848628 0 0.03940039199565995 -0.048985505345966844 0 0.03681448184295795 -0.06404659483734515 0 0.031423718144334277 -0.048691236950848628 0 0.027610285567799361 -0.057218238471423676 0 0.021122510922643969 -0.041830144615564238 0 0.021122510922643969 -0.041830144615564238 0 0.012035517874232106 -0.040678177190491001 0 0.022315132669642138 -0.061135362636826368 0 0.021122510922643969 -0.041830144615564238 0 0.012035517874232106 -0.040678177190491001 0 0.008935496945585741 -0.026161956917286507 0 0.0014704571769016139 -0.02527935830273445 0 0.012035517874232106 -0.040678177190491001 0 0.008935496945585741 -0.026161956917286507 0 -0.001408594126755176 -0.011891588831659927 0 0.008935496945585741 -0.026161956917286507 0 0.011485422443664075 -0.013543235785344793 0 0.020276512620766636 -0.026989300525716933 0 0.008935496945585741 -0.026161956917286507 0 0.011485422443664075 -0.013543235785344793 0 0.00082986787095630239 -0.0023146527835390019 0 -0.001408594126755176 -0.011891588831659927 0 0.011485422443664075 -0.013543235785344793 0 0.011485422443664075 -0.013543235785344793 0 0.031970130063189835 -0.021383703156943799 0 0.017355634789122415 -0.0023488886397861498 0 0.020276512620766636 -0.026989300525716933 0 0.011485422443664075 -0.013543235785344793 0 0.031970130063189835 -0.021383703156943799 0 0.020276512620766636 -0.026989300525716933 0 0.031741606756266395 -0.036640921725920074 0 0.031970130063189835 -0.021383703156943799 0 0.017355634789122415 -0.0023488886397861498 0 0.0046454817206833653 0.0087994627128887733 0 0.031880370601945568 0.018181517723233915 0 0.017355634789122415 -0.0023488886397861498 0 0.031880370601945568 0.018181517723233915 0 0.035045393741426852 -0.0089600343711529491 0 0.031970130063189835 -0.021383703156943799 0 0.017355634789122415 -0.0023488886397861498 0 0.035045393741426852 -0.0089600343711529491 0 0.00082986787095630239 -0.0023146527835390019 0 0.011485422443664075 -0.013543235785344793 0 0.017355634789122415 -0.0023488886397861498 0 0.00082986787095630239 -0.0023146527835390019 0 0.017355634789122415 -0.0023488886397861498 0 0.0046454817206833653 0.0087994627128887733 0 0.031880370601945568 0.018181517723233915 0 0.051165204720880507 -0.0048171202748559967 0 0.069498074635651039 0.020665905703050345 0 0.051165204720880507 -0.0048171202748559967 0 0.067061324144770992 -0.011436223182912823 0 0.069498074635651039 0.020665905703050345 0 0.051165204720880507 -0.0048171202748559967 0 0.067061324144770992 -0.011436223182912823 0 0.059284297527001616 -0.023386903490784552 0 0.051165204720880507 -0.0048171202748559967 0 0.035045393741426852 -0.0089600343711529491 0 0.046911565763950627 -0.022674552916774286 0 0.031880370601945568 0.018181517723233915 0 0.051165204720880507 -0.0048171202748559967 0 0.035045393741426852 -0.0089600343711529491 0 0.10635291391465955 0.021038214060652354 0 0.0913322515979062 0.006922862658369406 0 0.069498074635651039 0.020665905703050345 0 0.10635291391465955 0.021038214060652354 0 0.0913322515979062 0.006922862658369406 0 0.10631818103458876 -0.0022554525178395705 0 0.0913322515979062 0.006922862658369406 0 0.069498074635651039 0.020665905703050345 0 0.080112450997527063 -0.0027157749008705771 0 0.080112450997527063 -0.0027157749008705771 0 0.096148854451897026 -0.013601845016502081 0 0.07814652615072433 -0.018151984219577477 0 0.067061324144770992 -0.011436223182912823 0 0.069498074635651039 0.020665905703050345 0 0.080112450997527063 -0.0027157749008705771 0 0.067061324144770992 -0.011436223182912823 0 0.080112450997527063 -0.0027157749008705771 0 0.07814652615072433 -0.018151984219577477 0 0.0913322515979062 0.006922862658369406 0 0.080112450997527063 -0.0027157749008705771 0 0.096148854451897026 -0.013601845016502081 0 0.0913322515979062 0.006922862658369406 0 0.096148854451897026 -0.013601845016502081 0 0.10631818103458876 -0.0022554525178395705 0 0.096148854451897026 -0.013601845016502081 0 0.10631818103458876 -0.0022554525178395705 0 0.10641833834640198 -0.019020069120599763 0 0.10647957173524299 -0.031253967157666818 0 0.098132692495804488 -0.026513225361462622 0 0.10641833834640198 -0.019020069120599763 0 0.10647957173524299 -0.031253967157666818 0 0.098132692495804488 -0.026513225361462622 0 0.099934220037964497 -0.036039192873643204 0 0.096148854451897026 -0.013601845016502081 0 0.098132692495804488 -0.026513225361462622 0 0.10641833834640198 -0.019020069120599763 0 0.096148854451897026 -0.013601845016502081 0 0.098132692495804488 -0.026513225361462622 0 0.089411767454496055 -0.025099372499432161 0 0.098132692495804488 -0.026513225361462622 0 0.091964286498444597 -0.033665017621998167 0 0.099934220037964497 -0.036039192873643204 0 0.098132692495804488 -0.026513225361462622 0 0.089411767454496055 -0.025099372499432161 0 0.091964286498444597 -0.033665017621998167 0 0.096148854451897026 -0.013601845016502081 0 0.089411767454496055 -0.025099372499432161 0 0.07814652615072433 -0.018151984219577477 0 0.089411767454496055 -0.025099372499432161 0 0.081238166125866373 -0.031815216985334127 0 0.091964286498444597 -0.033665017621998167 0 0.089411767454496055 -0.025099372499432161 0 0.081238166125866373 -0.031815216985334127 0 0.07814652615072433 -0.018151984219577477 0 0.067061324144770992 -0.011436223182912823 0 0.07814652615072433 -0.018151984219577477 0 0.069946964710447312 -0.026414519004254285 0 0.081238166125866373 -0.031815216985334127 0 0.07814652615072433 -0.018151984219577477 0 0.069946964710447312 -0.026414519004254285 0 0.081238166125866373 -0.031815216985334127 0 0.072341736037825621 -0.036615731869173725 0 0.069946964710447312 -0.026414519004254285 0 0.081238166125866373 -0.031815216985334127 0 0.072341736037825621 -0.036615731869173725 0 0.079538760326409538 -0.041164942674991101 0 0.072341736037825621 -0.036615731869173725 0 0.079538760326409538 -0.041164942674991101 0 0.074136071327809139 -0.043801145249326309 0 0.072341736037825621 -0.036615731869173725 0 0.074136071327809139 -0.043801145249326309 0 0.067134365812611604 -0.042172122371605364 0 0.074136071327809139 -0.043801145249326309 0 0.074829278120481638 -0.048266889296421159 0 0.070916607707098442 -0.04755035735361246 0 0.074829278120481638 -0.048266889296421159 0 0.070916607707098442 -0.04755035735361246 0 0.07307043136081906 -0.051393519829580882 0 0.074829278120481638 -0.048266889296421159 0 0.077164679300175593 -0.051349998530530051 0 0.07307043136081906 -0.051393519829580882 0 0.078918337285561302 -0.047176520803978592 0 0.081311076224831663 -0.05132228319057773 0 0.077164679300175593 -0.051349998530530051 0 0.074829278120481638 -0.048266889296421159 0 0.078918337285561302 -0.047176520803978592 0 0.077164679300175593 -0.051349998530530051 0 0.074136071327809139 -0.043801145249326309 0 0.074829278120481638 -0.048266889296421159 0 0.078918337285561302 -0.047176520803978592 0 0.079538760326409538 -0.041164942674991101 0 0.074136071327809139 -0.043801145249326309 0 0.078918337285561302 -0.047176520803978592 0 0.079538760326409538 -0.041164942674991101 0 0.078918337285561302 -0.047176520803978592 0 0.083460107685039336 -0.045870612137994843 0 0.079538760326409538 -0.041164942674991101 0 0.083460107685039336 -0.045870612137994843 0 0.087451073731544218 -0.041107453766005018 0 0.083460107685039336 -0.045870612137994843 0 0.085484455729574554 -0.051299290376995349 0 0.081311076224831663 -0.05132228319057773 0 0.078918337285561302 -0.047176520803978592 0 0.083460107685039336 -0.045870612137994843 0 0.081311076224831663 -0.05132228319057773 0 0.083460107685039336 -0.045870612137994843 0 0.087508439143463471 -0.047064087366161148 0 0.085484455729574554 -0.051299290376995349 0 0.087508439143463471 -0.047064087366161148 0 0.089661704597812822 -0.05129039065293485 0 0.085484455729574554 -0.051299290376995349 0 0.083460107685039336 -0.045870612137994843 0 0.087508439143463471 -0.047064087366161148 0 0.087451073731544218 -0.041107453766005018 0 0.081238166125866373 -0.031815216985334127 0 0.087451073731544218 -0.041107453766005018 0 0.091964286498444597 -0.033665017621998167 0 0.081238166125866373 -0.031815216985334127 0 0.079538760326409538 -0.041164942674991101 0 0.087451073731544218 -0.041107453766005018 0 0.091964286498444597 -0.033665017621998167 0 0.095141729498920885 -0.041002849645455378 0 0.099934220037964497 -0.036039192873643204 0 0.087451073731544218 -0.041107453766005018 0 0.091964286498444597 -0.033665017621998167 0 0.095141729498920885 -0.041002849645455378 0 0.087508439143463471 -0.047064087366161148 0 0.087451073731544218 -0.041107453766005018 0 0.091501221915406133 -0.045715159445902445 0 0.087451073731544218 -0.041107453766005018 0 0.095141729498920885 -0.041002849645455378 0 0.091501221915406133 -0.045715159445902445 0 0.087508439143463471 -0.047064087366161148 0 0.091501221915406133 -0.045715159445902445 0 0.089661704597812822 -0.05129039065293485 0 0.091501221915406133 -0.045715159445902445 0 0.093855771258937279 -0.051286602945648734 0 0.089661704597812822 -0.05129039065293485 0 0.091501221915406133 -0.045715159445902445 0 0.096220334384732459 -0.046924820182189159 0 0.093855771258937279 -0.051286602945648734 0 0.096220334384732459 -0.046924820182189159 0 0.098057082182111566 -0.051288965462333538 0 0.093855771258937279 -0.051286602945648734 0 0.095141729498920885 -0.041002849645455378 0 0.091501221915406133 -0.045715159445902445 0 0.096220334384732459 -0.046924820182189159 0 0.096220334384732459 -0.046924820182189159 0 0.10141823533675749 -0.043793995609186898 0 0.10020778435691266 -0.047848904021648195 0 0.095141729498920885 -0.041002849645455378 0 0.096220334384732459 -0.046924820182189159 0 0.10141823533675749 -0.043793995609186898 0 0.10141823533675749 -0.043793995609186898 0 0.10020778435691266 -0.047848904021648195 0 0.10337379539638877 -0.048167308957616353 0 0.096220334384732459 -0.046924820182189159 0 0.10020778435691266 -0.047848904021648195 0 0.098057082182111566 -0.051288965462333538 0 0.10020778435691266 -0.047848904021648195 0 0.10337379539638877 -0.048167308957616353 0 0.10226949801796806 -0.051292964247950823 0 0.10020778435691266 -0.047848904021648195 0 0.10226949801796806 -0.051292964247950823 0 0.098057082182111566 -0.051288965462333538 0 0.10337379539638877 -0.048167308957616353 0 0.1064881141679562 -0.046601734029465852 0 0.10648641581141988 -0.05129451573215197 0 0.10337379539638877 -0.048167308957616353 0 0.10226949801796806 -0.051292964247950823 0 0.10648641581141988 -0.05129451573215197 0 0.10141823533675749 -0.043793995609186898 0 0.10337379539638877 -0.048167308957616353 0 0.1064881141679562 -0.046601734029465852 0 0.10141823533675749 -0.043793995609186898 0 0.1064881141679562 -0.046601734029465852 0 0.10649196360318747 -0.040144689201513935 0 0.10141823533675749 -0.043793995609186898 0 0.10649196360318747 -0.040144689201513935 0 0.099934220037964497 -0.036039192873643204 0 0.095141729498920885 -0.041002849645455378 0 0.10141823533675749 -0.043793995609186898 0 0.099934220037964497 -0.036039192873643204 0 0.10647957173524299 -0.031253967157666818 0 0.10649196360318747 -0.040144689201513935 0 0.099934220037964497 -0.036039192873643204 0 0.046911565763950627 -0.022674552916774286 0 0.054535971634679339 -0.034784485648400448 0 0.045211823230023838 -0.039523552428487943 0 0.031970130063189835 -0.021383703156943799 0 0.046911565763950627 -0.022674552916774286 0 0.045211823230023838 -0.039523552428487943 0 0.031970130063189835 -0.021383703156943799 0 0.035045393741426852 -0.0089600343711529491 0 0.046911565763950627 -0.022674552916774286 0 0.051165204720880507 -0.0048171202748559967 0 0.046911565763950627 -0.022674552916774286 0 0.059284297527001616 -0.023386903490784552 0 0.067061324144770992 -0.011436223182912823 0 0.069946964710447312 -0.026414519004254285 0 0.059284297527001616 -0.023386903490784552 0 0.072341736037825621 -0.036615731869173725 0 0.069946964710447312 -0.026414519004254285 0 0.063111727561110123 -0.034719744574370597 0 0.069946964710447312 -0.026414519004254285 0 0.059284297527001616 -0.023386903490784552 0 0.063111727561110123 -0.034719744574370597 0 0.046911565763950627 -0.022674552916774286 0 0.059284297527001616 -0.023386903490784552 0 0.054535971634679339 -0.034784485648400448 0 0.059284297527001616 -0.023386903490784552 0 0.054535971634679339 -0.034784485648400448 0 0.063111727561110123 -0.034719744574370597 0 0.054535971634679339 -0.034784485648400448 0 0.063111727561110123 -0.034719744574370597 0 0.059238118867836052 -0.043164799242544329 0 0.054535971634679339 -0.034784485648400448 0 0.059238118867836052 -0.043164799242544329 0 0.052617207862615908 -0.044690150678804171 0 0.072341736037825621 -0.036615731869173725 0 0.063111727561110123 -0.034719744574370597 0 0.067134365812611604 -0.042172122371605364 0 0.063111727561110123 -0.034719744574370597 0 0.067134365812611604 -0.042172122371605364 0 0.059238118867836052 -0.043164799242544329 0 0.067134365812611604 -0.042172122371605364 0 0.067034449411994768 -0.048260725259204433 0 0.070916607707098442 -0.04755035735361246 0 0.074136071327809139 -0.043801145249326309 0 0.067134365812611604 -0.042172122371605364 0 0.070916607707098442 -0.04755035735361246 0 0.067134365812611604 -0.042172122371605364 0 0.063761984712359776 -0.046554276216304952 0 0.059238118867836052 -0.043164799242544329 0 0.067134365812611604 -0.042172122371605364 0 0.063761984712359776 -0.046554276216304952 0 0.067034449411994768 -0.048260725259204433 0 0.063761984712359776 -0.046554276216304952 0 0.067034449411994768 -0.048260725259204433 0 0.06502272449875357 -0.051627345889980095 0 0.063761984712359776 -0.046554276216304952 0 0.061065100771749772 -0.051861592115596412 0 0.06502272449875357 -0.051627345889980095 0 0.067034449411994768 -0.048260725259204433 0 0.069010075349269506 -0.051482670269441373 0 0.06502272449875357 -0.051627345889980095 0 0.070916607707098442 -0.04755035735361246 0 0.069010075349269506 -0.051482670269441373 0 0.07307043136081906 -0.051393519829580882 0 0.067034449411994768 -0.048260725259204433 0 0.070916607707098442 -0.04755035735361246 0 0.069010075349269506 -0.051482670269441373 0 0.059238118867836052 -0.043164799242544329 0 0.059379298940892826 -0.048542439212751157 0 0.055660617020721337 -0.048583492575907383 0 0.059238118867836052 -0.043164799242544329 0 0.055660617020721337 -0.048583492575907383 0 0.052617207862615908 -0.044690150678804171 0 0.063761984712359776 -0.046554276216304952 0 0.059238118867836052 -0.043164799242544329 0 0.059379298940892826 -0.048542439212751157 0 0.063761984712359776 -0.046554276216304952 0 0.059379298940892826 -0.048542439212751157 0 0.061065100771749772 -0.051861592115596412 0 0.059379298940892826 -0.048542439212751157 0 0.057249397743304557 -0.052239625022902442 0 0.061065100771749772 -0.051861592115596412 0 0.059379298940892826 -0.048542439212751157 0 0.055660617020721337 -0.048583492575907383 0 0.057249397743304557 -0.052239625022902442 0 0.055660617020721337 -0.048583492575907383 0 0.053368274959452559 -0.052927472927834125 0 0.057249397743304557 -0.052239625022902442 0 0.051938543176723501 -0.049976286269805714 0 0.049497915447702413 -0.054092875614974827 0 0.053368274959452559 -0.052927472927834125 0 0.055660617020721337 -0.048583492575907383 0 0.051938543176723501 -0.049976286269805714 0 0.053368274959452559 -0.052927472927834125 0 0.048358969255360221 -0.049339647900855349 0 0.045642157987413362 -0.055854976649353232 0 0.049497915447702413 -0.054092875614974827 0 0.051938543176723501 -0.049976286269805714 0 0.048358969255360221 -0.049339647900855349 0 0.049497915447702413 -0.054092875614974827 0 0.048358969255360221 -0.049339647900855349 0 0.052617207862615908 -0.044690150678804171 0 0.045211823230023838 -0.039523552428487943 0 0.051938543176723501 -0.049976286269805714 0 0.048358969255360221 -0.049339647900855349 0 0.052617207862615908 -0.044690150678804171 0 0.055660617020721337 -0.048583492575907383 0 0.051938543176723501 -0.049976286269805714 0 0.052617207862615908 -0.044690150678804171 0 0.054535971634679339 -0.034784485648400448 0 0.052617207862615908 -0.044690150678804171 0 0.045211823230023838 -0.039523552428487943 0 0.031741606756266395 -0.036640921725920074 0 0.031970130063189835 -0.021383703156943799 0 0.045211823230023838 -0.039523552428487943 0 0.031741606756266395 -0.036640921725920074 0 0.045211823230023838 -0.039523552428487943 0 0.03940039199565995 -0.048985505345966844 0 0.045211823230023838 -0.039523552428487943 0 0.03940039199565995 -0.048985505345966844 0 0.044476691936634831 -0.050219833290184819 0 0.048358969255360221 -0.049339647900855349 0 0.045211823230023838 -0.039523552428487943 0 0.044476691936634831 -0.050219833290184819 0 0.048358969255360221 -0.049339647900855349 0 0.044476691936634831 -0.050219833290184819 0 0.045642157987413362 -0.055854976649353232 0 0.044476691936634831 -0.050219833290184819 0 0.041500450023605133 -0.059102084326017434 0 0.045642157987413362 -0.055854976649353232 0 0.03940039199565995 -0.048985505345966844 0 0.044476691936634831 -0.050219833290184819 0 0.041500450023605133 -0.059102084326017434 0 0.03940039199565995 -0.048985505345966844 0 0.03681448184295795 -0.06404659483734515 0 0.041500450023605133 -0.059102084326017434 0 0.043502886987773208 -0.077774215049322915 0 0.043207090327326898 -0.080339472952854277 0 0.049185619317542055 -0.090688431231808794 0 0.03681448184295795 -0.06404659483734515 0 0.043502886987773208 -0.077774215049322915 0 0.043207090327326898 -0.080339472952854277 0 0.036617881184224294 -0.065378575344152604 0 0.041920611795751225 -0.068240045433194105 0 0.043502886987773208 -0.077774215049322915 0 0.048391670969516416 -0.088736705082912079 0 0.049185619317542055 -0.090688431231808794 0 0.041920611795751225 -0.068240045433194105 0 0.046679996876360486 -0.072255078413614074 0 0.048391670969516416 -0.088736705082912079 0 0.049185619317542055 -0.090688431231808794 0 0.053239977924973647 -0.098435120242934396 0 0.049185619317542055 -0.090688431231808794 0 0.046790440199133941 -0.092366166500556235 0 0.056883770850406037 -0.10699155410719006 0 0.043207090327326898 -0.080339472952854277 0 0.046790440199133941 -0.092366166500556235 0 0.034588665607804735 -0.075202697125869453 0 0.043207090327326898 -0.080339472952854277 0 0.049185619317542055 -0.090688431231808794 0 0.046790440199133941 -0.092366166500556235 0 0.046790440199133941 -0.092366166500556235 0 0.054566106199412351 -0.10927497894910658 0 0.040554715015061506 -0.090827424515744604 0 0.046790440199133941 -0.092366166500556235 0 0.054566106199412351 -0.10927497894910658 0 0.056883770850406037 -0.10699155410719006 0 0.054566106199412351 -0.10927497894910658 0 0.066801669014517451 -0.1275027455874328 0 0.056883770850406037 -0.10699155410719006 0 0.066801669014517451 -0.1275027455874328 0 0.056883770850406037 -0.10699155410719006 0 0.066540840459917067 -0.12377821204090815 0 0.056883770850406037 -0.10699155410719006 0 0.058666984416068726 -0.10859517235061594 0 0.066540840459917067 -0.12377821204090815 0 0.058666984416068726 -0.10859517235061594 0 0.062778963475972727 -0.11637110419024539 0 0.066540840459917067 -0.12377821204090815 0 0.049185619317542055 -0.090688431231808794 0 0.056883770850406037 -0.10699155410719006 0 0.053239977924973647 -0.098435120242934396 0 0.056883770850406037 -0.10699155410719006 0 0.053239977924973647 -0.098435120242934396 0 0.058666984416068726 -0.10859517235061594 0 0.053239977924973647 -0.098435120242934396 0 0.05323462297074201 -0.098610179702324705 0 0.058666984416068726 -0.10859517235061594 0 0.048391670969516416 -0.088736705082912079 0 0.053239977924973647 -0.098435120242934396 0 0.05323462297074201 -0.098610179702324705 0 0.046679996876360486 -0.072255078413614074 0 0.051053565078822791 -0.076261867540274156 0 0.058666984416068726 -0.10859517235061594 0 0.058089685700092576 -0.10781434599545454 0 0.062778963475972727 -0.11637110419024539 0 0.051053565078822791 -0.076261867540274156 0 0.055448778891809658 -0.080297971177816577 0 0.05323462297074201 -0.098610179702324705 0 0.058666984416068726 -0.10859517235061594 0 0.058089685700092576 -0.10781434599545454 0 0.058089685700092576 -0.10781434599545454 0 0.062778963475972727 -0.11637110419024539 0 0.062878770320073912 -0.11662894217203718 0 0.055448778891809658 -0.080297971177816577 0 0.059803831044059216 -0.084359143333127259 0 0.062778963475972727 -0.11637110419024539 0 0.062878770320073912 -0.11662894217203718 0 0.06822564641577647 -0.12606313132530492 0 0.062878770320073912 -0.11662894217203718 0 0.067807272385215597 -0.12525845844301559 0 0.06822564641577647 -0.12606313132530492 0 0.059803831044059216 -0.084359143333127259 0 0.064187339421769601 -0.088472188808905172 0 0.067807272385215597 -0.12525845844301559 0 0.06822564641577647 -0.12606313132530492 0 0.072488946480231423 -0.13348876080633221 0 0.06822564641577647 -0.12606313132530492 0 0.072488946480231423 -0.13348876080633221 0 0.076474608514612755 -0.14091866884747445 0 0.06822564641577647 -0.12606313132530492 0 0.066540840459917067 -0.12377821204090815 0 0.076474608514612755 -0.14091866884747445 0 0.062778963475972727 -0.11637110419024539 0 0.06822564641577647 -0.12606313132530492 0 0.066540840459917067 -0.12377821204090815 0 0.077731830474851216 -0.14218646537429119 0 0.077675066378042723 -0.14235396339557049 0 0.082451841418553801 -0.1503881405904538 0 0.077731830474851216 -0.14218646537429119 0 0.077675066378042723 -0.14235396339557049 0 0.072742322469459733 -0.13375426506925475 0 0.073130544758575347 -0.096751132264198791 0 0.068638260246656715 -0.09260887420011775 0 0.077675066378042723 -0.14235396339557049 0 0.072742322469459733 -0.13375426506925475 0 0.072488946480231423 -0.13348876080633221 0 0.067807272385215597 -0.12525845844301559 0 0.072742322469459733 -0.13375426506925475 0 0.072488946480231423 -0.13348876080633221 0 0.064187339421769601 -0.088472188808905172 0 0.068638260246656715 -0.09260887420011775 0 0.077675066378042723 -0.14235396339557049 0 0.072488946480231423 -0.13348876080633221 0 0.076474608514612755 -0.14091866884747445 0 0.077675066378042723 -0.14235396339557049 0 0.082451841418553801 -0.1503881405904538 0 0.086292455620353453 -0.15739859783161245 0 0.077675066378042723 -0.14235396339557049 0 0.076474608514612755 -0.14091866884747445 0 0.086292455620353453 -0.15739859783161245 0 0.076474608514612755 -0.14091866884747445 0 0.086512792172357897 -0.15919168764373665 0 0.086292455620353453 -0.15739859783161245 0 0.076474608514612755 -0.14091866884747445 0 0.086512792172357897 -0.15919168764373665 0 0.076222633914523261 -0.1419328914492978 0 0.066801669014517451 -0.1275027455874328 0 0.066540840459917067 -0.12377821204090815 0 0.076222633914523261 -0.1419328914492978 0 0.066540840459917067 -0.12377821204090815 0 0.076474608514612755 -0.14091866884747445 0 0.076222633914523261 -0.1419328914492978 0 0.066801669014517451 -0.1275027455874328 0 0.076222633914523261 -0.1419328914492978 0 0.084247478492613562 -0.1579189079488372 0 0.086512792172357897 -0.15919168764373665 0 0.084247478492613562 -0.1579189079488372 0 0.10015828048024678 -0.18395854918411933 0 0.086512792172357897 -0.15919168764373665 0 0.076222633914523261 -0.1419328914492978 0 0.084247478492613562 -0.1579189079488372 0 0.084247478492613562 -0.1579189079488372 0 0.10015828048024678 -0.18395854918411933 0 0.096493577785411094 -0.182283116417602 0 0.084247478492613562 -0.1579189079488372 0 0.067449847086112888 -0.13451967019576594 0 0.096493577785411094 -0.182283116417602 0 0.067449847086112888 -0.13451967019576594 0 0.05836130790933669 -0.12478526087950674 0 0.049610882970119063 -0.10802309375686121 0 0.054566106199412351 -0.10927497894910658 0 0.067449847086112888 -0.13451967019576594 0 0.049610882970119063 -0.10802309375686121 0 0.054566106199412351 -0.10927497894910658 0 0.040554715015061506 -0.090827424515744604 0 0.049610882970119063 -0.10802309375686121 0 0.054566106199412351 -0.10927497894910658 0 0.066801669014517451 -0.1275027455874328 0 0.067449847086112888 -0.13451967019576594 0 0.066801669014517451 -0.1275027455874328 0 0.084247478492613562 -0.1579189079488372 0 0.067449847086112888 -0.13451967019576594 0 0.12396439676451465 -0.21993862655638033 0 0.13083844425322119 -0.23037147483478487 0 0.13662813244034477 -0.24120527976497741 0 0.12396439676451465 -0.21993862655638033 0 0.12347097247496414 -0.21795882612662604 0 0.11735678670282013 -0.208200578151682 0 0.12396439676451465 -0.21993862655638033 0 0.13083844425322119 -0.23037147483478487 0 0.12347097247496414 -0.21795882612662604 0 0.13083844425322119 -0.23037147483478487 0 0.12661830862128054 -0.22250217541272188 0 0.12347097247496414 -0.21795882612662604 0 0.12661830862128054 -0.22250217541272188 0 0.12347097247496414 -0.21795882612662604 0 0.12194894732084033 -0.21473733177628271 0 0.12661830862128054 -0.22250217541272188 0 0.12194894732084033 -0.21473733177628271 0 0.12354793180369356 -0.21677466279696009 0 0.12194894732084033 -0.21473733177628271 0 0.11840066422823144 -0.20850356846851456 0 0.12354793180369356 -0.21677466279696009 0 0.10695602729956051 -0.12982861642558946 0 0.12913913066011246 -0.13540251760887595 0 0.10695602729956051 -0.12982861642558946 0 0.10611069935616638 -0.12568302456724936 0 0.11840066422823144 -0.20850356846851456 0 0.11325427192122769 -0.20023511553177248 0 0.11805402864183663 -0.2085676668880441 0 0.12194894732084033 -0.21473733177628271 0 0.11840066422823144 -0.20850356846851456 0 0.11805402864183663 -0.2085676668880441 0 0.11325427192122769 -0.20023511553177248 0 0.11805402864183663 -0.2085676668880441 0 0.11297264194703244 -0.20030011175330528 0 0.12347097247496414 -0.21795882612662604 0 0.11805402864183663 -0.2085676668880441 0 0.11735678670282013 -0.208200578151682 0 0.12347097247496414 -0.21795882612662604 0 0.12194894732084033 -0.21473733177628271 0 0.11805402864183663 -0.2085676668880441 0 0.11805402864183663 -0.2085676668880441 0 0.11735678670282013 -0.208200578151682 0 0.11297264194703244 -0.20030011175330528 0 0.11735678670282013 -0.208200578151682 0 0.10838186052920841 -0.19309827032018612 0 0.11264780851090045 -0.20106091719248786 0 0.11735678670282013 -0.208200578151682 0 0.11297264194703244 -0.20030011175330528 0 0.10838186052920841 -0.19309827032018612 0 0.11297264194703244 -0.20030011175330528 0 0.10811516735354158 -0.19197046244204938 0 0.10838186052920841 -0.19309827032018612 0 0.10611069935616638 -0.12568302456724936 0 0.10060051052118874 -0.1215495680383646 0 0.11325427192122769 -0.20023511553177248 0 0.11297264194703244 -0.20030011175330528 0 0.10811516735354158 -0.19197046244204938 0 0.10811516735354158 -0.19197046244204938 0 0.1029897680391486 -0.18370509344423822 0 0.10838186052920841 -0.19309827032018612 0 0.10060051052118874 -0.1215495680383646 0 0.096124955939234008 -0.11741914980572474 0 0.1029897680391486 -0.18370509344423822 0 0.10838186052920841 -0.19309827032018612 0 0.10230238467005026 -0.18303315540546483 0 0.10838186052920841 -0.19309827032018612 0 0.11264780851090045 -0.20106091719248786 0 0.10358929588937588 -0.18574778709578194 0 0.12396439676451465 -0.21993862655638033 0 0.11735678670282013 -0.208200578151682 0 0.11264780851090045 -0.20106091719248786 0 0.12396439676451465 -0.21993862655638033 0 0.11264780851090045 -0.20106091719248786 0 0.11673845945361996 -0.2091721519992473 0 0.11264780851090045 -0.20106091719248786 0 0.10546898446823688 -0.18979639083596089 0 0.11673845945361996 -0.2091721519992473 0 0.10546898446823688 -0.18979639083596089 0 0.10722873326699671 -0.19401650298674658 0 0.11673845945361996 -0.2091721519992473 0 0.10546898446823688 -0.18979639083596089 0 0.096244960822768635 -0.17502420868123031 0 0.10722873326699671 -0.19401650298674658 0 0.10546898446823688 -0.18979639083596089 0 0.10358929588937588 -0.18574778709578194 0 0.095513040684311157 -0.17264213352352073 0 0.10546898446823688 -0.18979639083596089 0 0.095513040684311157 -0.17264213352352073 0 0.096244960822768635 -0.17502420868123031 0 0.11264780851090045 -0.20106091719248786 0 0.10546898446823688 -0.18979639083596089 0 0.10358929588937588 -0.18574778709578194 0 0.10838186052920841 -0.19309827032018612 0 0.10358929588937588 -0.18574778709578194 0 0.10230238467005026 -0.18303315540546483 0 0.10358929588937588 -0.18574778709578194 0 0.10230238467005026 -0.18303315540546483 0 0.09742602195157965 -0.17518596202048578 0 0.10230238467005026 -0.18303315540546483 0 0.097886281065303615 -0.17543867392708959 0 0.09742602195157965 -0.17518596202048578 0 0.096124955939234008 -0.11741914980572474 0 0.091443353923567283 -0.1132911285106801 0 0.1029897680391486 -0.18370509344423822 0 0.10230238467005026 -0.18303315540546483 0 0.097886281065303615 -0.17543867392708959 0 0.092800179568713476 -0.1671617010057096 0 0.09742602195157965 -0.17518596202048578 0 0.092268209864834028 -0.16667287873741665 0 0.091443353923567283 -0.1132911285106801 0 0.086822599526755903 -0.10916418041607912 0 0.097886281065303615 -0.17543867392708959 0 0.092800179568713476 -0.1671617010057096 0 0.09742602195157965 -0.17518596202048578 0 0.09742602195157965 -0.17518596202048578 0 0.095513040684311157 -0.17264213352352073 0 0.092268209864834028 -0.16667287873741665 0 0.10358929588937588 -0.18574778709578194 0 0.09742602195157965 -0.17518596202048578 0 0.095513040684311157 -0.17264213352352073 0 0.095513040684311157 -0.17264213352352073 0 0.092268209864834028 -0.16667287873741665 0 0.087898846356862306 -0.15953630091050955 0 0.095513040684311157 -0.17264213352352073 0 0.087898846356862306 -0.15953630091050955 0 0.086292455620353453 -0.15739859783161245 0 0.092268209864834028 -0.16667287873741665 0 0.087751567978190045 -0.15887236569851693 0 0.087898846356862306 -0.15953630091050955 0 0.086822599526755903 -0.10916418041607912 0 0.08222215223226402 -0.10503122826148097 0 0.092800179568713476 -0.1671617010057096 0 0.092268209864834028 -0.16667287873741665 0 0.087751567978190045 -0.15887236569851693 0 0.073130544758575347 -0.096751132264198791 0 0.077658040004703 -0.10089165882047486 0 0.077731830474851216 -0.14218646537429119 0 0.082720132142749161 -0.15054640542575409 0 0.082451841418553801 -0.1503881405904538 0 0.087751567978190045 -0.15887236569851693 0 0.082720132142749161 -0.15054640542575409 0 0.087898846356862306 -0.15953630091050955 0 0.08222215223226402 -0.10503122826148097 0 0.077658040004703 -0.10089165882047486 0 0.082720132142749161 -0.15054640542575409 0 0.087898846356862306 -0.15953630091050955 0 0.082451841418553801 -0.1503881405904538 0 0.087898846356862306 -0.15953630091050955 0 0.082451841418553801 -0.1503881405904538 0 0.086292455620353453 -0.15739859783161245 0 0.086512792172357897 -0.15919168764373665 0 0.086292455620353453 -0.15739859783161245 0 0.096244960822768635 -0.17502420868123031 0 0.095513040684311157 -0.17264213352352073 0 0.086292455620353453 -0.15739859783161245 0 0.096244960822768635 -0.17502420868123031 0 0.10015828048024678 -0.18395854918411933 0 0.11859632962897598 -0.21429913077438986 0 0.11904855372475943 -0.2183322087589849 0 0.086512792172357897 -0.15919168764373665 0 0.096244960822768635 -0.17502420868123031 0 0.10015828048024678 -0.18395854918411933 0 0.096244960822768635 -0.17502420868123031 0 0.10015828048024678 -0.18395854918411933 0 0.10722873326699671 -0.19401650298674658 0 0.11859632962897598 -0.21429913077438986 0 0.10722873326699671 -0.19401650298674658 0 0.11673845945361996 -0.2091721519992473 0 0.10015828048024678 -0.18395854918411933 0 0.11859632962897598 -0.21429913077438986 0 0.10722873326699671 -0.19401650298674658 0 0.11859632962897598 -0.21429913077438986 0 0.12943607462001247 -0.23084157288713034 0 0.11673845945361996 -0.2091721519992473 0 0.12396439676451465 -0.21993862655638033 0 0.12943607462001247 -0.23084157288713034 0 0.11673845945361996 -0.2091721519992473 0 0.11859632962897598 -0.21429913077438986 0 0.12943607462001247 -0.23084157288713034 0 0.13499486285121007 -0.24261182263355144 0 0.12943607462001247 -0.23084157288713034 0 0.14454828514213 -0.25613073733766889 0 0.13499486285121007 -0.24261182263355144 0 0.12396439676451465 -0.21993862655638033 0 0.12943607462001247 -0.23084157288713034 0 0.13662813244034477 -0.24120527976497741 0 0.12943607462001247 -0.23084157288713034 0 0.14454828514213 -0.25613073733766889 0 0.13662813244034477 -0.24120527976497741 0 0.17039448825140055 -0.30498544443050896 0 0.14129843341919854 -0.25604304541141182 0 0.12557897285559497 -0.23440326685741888 0 0.14454828514213 -0.25613073733766889 0 0.15537785098533696 -0.2766194386055072 0 0.13499486285121007 -0.24261182263355144 0 0.15537785098533696 -0.2766194386055072 0 0.13499486285121007 -0.24261182263355144 0 0.14129843341919854 -0.25604304541141182 0 0.10015828048024678 -0.18395854918411933 0 0.11904855372475943 -0.2183322087589849 0 0.096493577785411094 -0.182283116417602 0 0.11904855372475943 -0.2183322087589849 0 0.096493577785411094 -0.182283116417602 0 0.12557897285559497 -0.23440326685741888 0 0.13499486285121007 -0.24261182263355144 0 0.11904855372475943 -0.2183322087589849 0 0.14129843341919854 -0.25604304541141182 0 0.11859632962897598 -0.21429913077438986 0 0.13499486285121007 -0.24261182263355144 0 0.11904855372475943 -0.2183322087589849 0 0.11904855372475943 -0.2183322087589849 0 0.14129843341919854 -0.25604304541141182 0 0.12557897285559497 -0.23440326685741888 0 0.15537785098533696 -0.2766194386055072 0 0.17039448825140055 -0.30498544443050896 0 0.14129843341919854 -0.25604304541141182 0 0.083751206516570004 -0.16530318600458879 0 0.12557897285559497 -0.23440326685741888 0 0.080593836260655388 -0.16168971343376112 0 0.067449847086112888 -0.13451967019576594 0 0.083751206516570004 -0.16530318600458879 0 0.05836130790933669 -0.12478526087950674 0 0.083751206516570004 -0.16530318600458879 0 0.080593836260655388 -0.16168971343376112 0 0.05836130790933669 -0.12478526087950674 0 0.067449847086112888 -0.13451967019576594 0 0.083751206516570004 -0.16530318600458879 0 0.096493577785411094 -0.182283116417602 0 0.083751206516570004 -0.16530318600458879 0 0.096493577785411094 -0.182283116417602 0 0.12557897285559497 -0.23440326685741888 0 0.080593836260655388 -0.16168971343376112 0 0.05836130790933669 -0.12478526087950674 0 0.037635624340103334 -0.091004627223869886 0 0.037635624340103334 -0.091004627223869886 0 0.041461694883345133 -0.084655942538767334 0 0.011581900663788275 -0.041404146226268972 0 0.080593836260655388 -0.16168971343376112 0 0.037635624340103334 -0.091004627223869886 0 0.041461694883345133 -0.084655942538767334 0 3.7139181910369402e-05 -9.7717519580525712e-05 0 0.011581900663788275 -0.041404146226268972 0 -8.6812323448991971e-06 -4.2922967881582688e-05 0 0.041461694883345133 -0.084655942538767334 0 3.7139181910369402e-05 -9.7717519580525712e-05 0 0.011581900663788275 -0.041404146226268972 0 -4.6842803770225544e-06 -2.9985855931930264e-05 0 0.0018007808532327326 -0.02337974918154135 0 -8.6812323448991971e-06 -4.2922967881582688e-05 0 0.011581900663788275 -0.041404146226268972 0 0.0018007808532327326 -0.02337974918154135 0 0.013965714473766266 -0.053891999697214074 0 0.011581900663788275 -0.041404146226268972 0 0.0018007808532327326 -0.02337974918154135 0 -8.6812323448991971e-06 -4.2922967881582688e-05 0 0.0014704571769016139 -0.02527935830273445 0 -4.6842803770225544e-06 -2.9985855931930264e-05 0 0.0018007808532327326 -0.02337974918154135 0 0.0014704571769016139 -0.02527935830273445 0 0.0018007808532327326 -0.02337974918154135 0 0.013965714473766266 -0.053891999697214074 0 0.0014704571769016139 -0.02527935830273445 0 0.012035517874232106 -0.040678177190491001 0 0.013965714473766266 -0.053891999697214074 0 0.012035517874232106 -0.040678177190491001 0 0.013965714473766266 -0.053891999697214074 0 0.022315132669642138 -0.061135362636826368 0 0.013965714473766266 -0.053891999697214074 0 0.022315132669642138 -0.061135362636826368 0 0.034599539220898999 -0.087541525340806711 0 0.027610285567799361 -0.057218238471423676 0 0.021122510922643969 -0.041830144615564238 0 0.022315132669642138 -0.061135362636826368 0 0.027610285567799361 -0.057218238471423676 0 0.022315132669642138 -0.061135362636826368 0 0.034588665607804735 -0.075202697125869453 0 0.027610285567799361 -0.057218238471423676 0 0.03681448184295795 -0.06404659483734515 0 0.034588665607804735 -0.075202697125869453 0 0.03681448184295795 -0.06404659483734515 0 0.043207090327326898 -0.080339472952854277 0 0.034588665607804735 -0.075202697125869453 0 0.022315132669642138 -0.061135362636826368 0 0.034588665607804735 -0.075202697125869453 0 0.040554715015061506 -0.090827424515744604 0 0.046790440199133941 -0.092366166500556235 0 0.034588665607804735 -0.075202697125869453 0 0.040554715015061506 -0.090827424515744604 0 0.022315132669642138 -0.061135362636826368 0 0.040554715015061506 -0.090827424515744604 0 0.034599539220898999 -0.087541525340806711 0 0.05836130790933669 -0.12478526087950674 0 0.037635624340103334 -0.091004627223869886 0 0.034599539220898999 -0.087541525340806711 0 0.040554715015061506 -0.090827424515744604 0 0.034599539220898999 -0.087541525340806711 0 0.049610882970119063 -0.10802309375686121 0 0.05836130790933669 -0.12478526087950674 0 0.034599539220898999 -0.087541525340806711 0 0.049610882970119063 -0.10802309375686121 0 0.037635624340103334 -0.091004627223869886 0 0.011581900663788275 -0.041404146226268972 0 0.013965714473766266 -0.053891999697214074 0 0.037635624340103334 -0.091004627223869886 0 0.013965714473766266 -0.053891999697214074 0 0.034599539220898999 -0.087541525340806711 0 
</DataArray>
</PointData>
<CellData Scalars="region_id," Vectors="" Tensors="effective_stress,">
<DataArray type="Float64" Name="region_id" format="ascii">
1 1 1 1 1 1 1 1 1 1 1 1 1 1 1 1 1 1 1 1 1 1 1 1 1 1 1 1 1 1 1 1 1 1 1 1 1 1 1 1 1 1 1 1 1 1 1 1 1 1 1 1 1 1 1 1 1 1 1 1 1 1 1 1 1 1 1 1 1 1 1 1 1 1 1 1 1 1 1 1 1 1 1 1 1 1 1 1 1 1 1 1 1 1 1 1 1 1 1 1 1 1 1 1 1 1 1 1 1 1 1 1 1 1 1 1 1 1 1 1 1 1 1 1 1 1 1 1 1 1 1 1 1 1 1 1 1 1 1 1 1 6 1 6 1 1 1 1 1 1 1 1 1 1 1 1 1 1 6 1 6 1 1 6 1 1 6 1 1 1 1 1 1 6 1 1 6 1 1 1 1 1 1 1 1 1 1 1 1 1 1 1 1 1 1 1 1 1 1 1 1 6 6 1 1 1 1 1 1 1 1 1 6 1 1 6 1 1 1 1 1 1 1 1 1 1 1 1 1 6 1 1 6 1 1 1 1 1 1 6 1 6 1 1 6 1 1 1 1 1 1 1 1 1 1 1 1 1 1 1 1 1 1 1 1 1 1 1 1 1 1 1 1 1 1 1 1 1 1 1 1 1 1 1 1 1 1 1 1 1 1 1 1 1 1 1 1 1 1 
</DataArray>
<DataArray type="Float64" Name="effective_stress" NumberOfComponents="9" format="ascii">
-0.0071950614273338827 -0.014321732374669488 0 -0.014321732374669488 0.035096379321874802 0 0 0 0.0069753294736352289 -0.0041600323142041463 0.001465259820206395 0 0.001465259820206395 -0.012465338732233251 0 0 0 -0.0041563427616093489 -0.024997738442382872 -0.0029896176960841386 0 -0.0029896176960841386 -0.074982584076039596 0 0 0 -0.024995080629605617 -0.027929428703021654 -0.025755423392637526 0 -0.025755423392637526 -0.039903134885205013 0 0 0 -0.016958140897056669 -0.025279496762400485 -0.025243640586758563 0 -0.025243640586758563 -0.13390966809623672 0 0 0 -0.039797291214659296 -0.021500913199392513 -0.0012214896648176411 0 -0.0012214896648176411 -0.086373616030122558 0 0 0 -0.026968632307378768 -0.0078337721650144909 -0.01023827469934413 0 -0.01023827469934413 -0.039086151408369241 0 0 0 -0.011729980893345954 -0.020387282947483237 -0.024895405890103008 0 -0.024895405890103008 -0.081243282336992517 0 0 0 -0.025407641321118946 -0.018353508080832859 -0.031386434543407282 0 -0.031386434543407282 -0.076811070002154147 0 0 0 -0.02379114452074671 0.0044996418966833929 -0.0123201654483951 0 -0.0123201654483951 -0.01927451461762586 0 0 0 -0.0036937181802356722 -0.0169014332113685 -0.067296342003776544 0 -0.067296342003776544 -0.15099587207913534 0 0 0 -0.041974326322625988 0.0065136056331167175 -0.086338021043277702 0 -0.086338021043277702 -0.028090359414716062 0 0 0 -0.0053941884453997807 -0.0047061505679300009 -0.051503667114160323 0 -0.051503667114160323 -0.062441528592689255 0 0 0 -0.016786919790154842 -0.0029650390549458838 -0.04068221392089888 0 -0.04068221392089888 -0.13447571901359362 0 0 0 -0.034360189517134862 -0.0081826227504463722 -0.013842258082878922 0 -0.013842258082878922 -0.097496181568091589 0 0 0 -0.026419701079634456 -0.023639565278019508 -0.023859858704524742 0 -0.023859858704524742 -0.15359089044517718 0 0 0 -0.04430761393079917 -0.027299262446591366 -0.017601016253446525 0 -0.017601016253446525 -0.068114468096381081 0 0 0 -0.023853432635743098 -0.010396329220417371 0.0033012249780583411 0 0.0033012249780583411 -0.054227241174235545 0 0 0 -0.016155892598663218 -0.010741499581805068 0.0064184332128268328 0 0.0064184332128268328 -0.040100892044551847 0 0 0 -0.012710597906589231 -0.0029190186626950245 0.012751024316030236 0 0.012751024316030236 -0.031621777352257761 0 0 0 -0.0086351990037381986 -0.014668989197774374 0.0023827641713350528 0 0.0023827641713350528 -0.028160625011650703 0 0 0 -0.010707403552356262 0.0021612326333232887 -0.0055216858068859037 0 -0.0055216858068859037 -0.046865719203272316 0 0 0 -0.011176121642487248 -0.0071194072618826244 0.0062836362511604869 0 0.0062836362511604869 0.037656965623348429 0 0 0 0.007634389590366452 0.00053007849114995037 0.010728304834900749 0 0.010728304834900749 -0.0097028893183523646 0 0 0 -0.0022932027068006053 0.0029367595289080187 0.0086175127240210384 0 0.0086175127240210384 -0.0069579233831142673 0 0 0 -0.0010052909635515431 -0.017615597995629718 -0.0028424692042870285 0 -0.0028424692042870285 -0.010921766146876427 0 0 0 -0.0071343410356265353 -0.008986786657306893 0.013775947142779386 0 0.013775947142779386 -0.0060735019041115688 0 0 0 -0.0037650721403546137 0.0047717946661076233 0.00756129005313343 0 0.00756129005313343 0.012190653602658627 0 0 0 0.0042406120671915487 0.0017020042772340257 0.0050210611360647639 0 0.0050210611360647639 -0.0051356155604574336 0 0 0 -0.00085840282080584286 0.012124332439463956 0.0034057221328390175 0 0.0034057221328390175 -0.0014737941368505453 0 0 0 0.0026626345756533901 0.01286921266751492 0.0049812307927241117 0 0.0049812307927241117 -0.0090052428609954244 0 0 0 0.00096599245162986777 0.0018311359103231374 0.01032064885324116 0 0.01032064885324116 -0.005983177578794685 0 0 0 -0.0010380104171178843 0.00098032372840625021 0.0010984580607612468 0 0.0010984580607612468 0.001915290235239564 0 0 0 0.00072390349091146916 -0.00013647318619044741 0.00039666017972591651 0 0.00039666017972591651 0.00028682989851495921 0 0 0 3.7589178081140311e-05 0.0026031719168389074 0.0016369986921786102 0 0.0016369986921786102 0.00064807312037292591 0 0 0 0.00081281125930294639 0.0034252463025258306 8.8590912640219843e-05 0 8.8590912640219843e-05 -0.00059517364131439487 0 0 0 0.00070751816530284506 0.0022058466871708957 0.0017252426799616056 0 0.0017252426799616056 -0.0011516244449311583 0 0 0 0.00026355556055993913 0.0027975235297012097 0.00073488110731639855 0 0.00073488110731639855 -0.0034347427397021513 0 0 0 -0.0001593048025001903 0.0013371734192180289 0.00069270235076376863 0 0.00069270235076376863 -0.0015721435105809367 0 0 0 -5.874252284073303e-05 0.0018220503723582696 0.00056995178465434016 0 0.00056995178465434016 -0.00015014871589605003 0 0 0 0.00041797541411558482 0.00079148055993351341 0.00020835156944051803 0 0.00020835156944051803 -0.00038182434754813199 0 0 0 0.00010241405309631413 0.00077109975611532044 -0.00018109824686184106 0 -0.00018109824686184106 -4.9927448814157671e-08 0 0 0 0.00019276245716669249 0.00068261961959079076 -0.0001672517983235533 0 -0.0001672517983235533 -2.4725228887911843e-05 0 0 0 0.00016447359767565728 0.0013749032053577692 -4.658978022292759e-05 0 -4.658978022292759e-05 4.8749163929717731e-05 0 0 0 0.00035591309232188562 0.0015428488437914112 -0.00058587307432458532 0 -0.00058587307432458532 -8.5028542004095264e-05 0 0 0 0.00036445507544677347 0.00092891494939409402 -0.00059261986917591436 0 -0.00059261986917591436 8.6880508733733208e-05 0 0 0 0.00025394886453192211 0.0010159857038874245 -0.00062433411491383262 0 -0.00062433411491383262 -0.00023281219467280456 0 0 0 0.00019579337730361163 0.0018769290739981265 -0.00042490178025170189 0 -0.00042490178025170189 -0.0013823623556978304 0 0 0 0.00012364167957505667 0.0014545663962443889 -0.0010998331035245168 0 -0.0010998331035245168 -1.9573337179945582e-05 0 0 0 0.00035874826476609001 0.0034295325285332856 -0.00096764794786688424 0 -0.00096764794786688424 -0.00044285490248230364 0 0 0 0.00074666940651274549 0.0072139338276518833 -0.00039989280288130202 0 -0.00039989280288130202 -0.0014960014276160505 0 0 0 0.0014294831000089409 0.0031366884156466823 -0.001742264345591691 0 -0.001742264345591691 -0.0029108453449892546 0 0 0 5.6460767664356926e-05 0.0036809112909415298 -0.0036740390558057112 0 -0.0036740390558057112 -0.00038264626422113146 0 0 0 0.0008245662566801204 0.0012294309544660931 -0.002421427859760128 0 -0.002421427859760128 0.0012872113766495552 0 0 0 0.00062916058277889819 0.00092407052045423432 -0.002677061955758675 0 -0.002677061955758675 0.0017804666661449531 0 0 0 0.00067613429664986624 0.0028864356899800381 -0.0041624714222761178 0 -0.0041624714222761178 0.005134751358137235 0 0 0 0.0020052967620292628 0.0012407442649183809 -0.0020364496409637778 0 -0.0020364496409637778 0.0039351294066523046 0 0 0 0.0012939684178927546 -1.1370917288450189e-05 -0.00068211720416355703 0 -0.00068211720416355703 0.0028318530830749311 0 0 0 0.00070512054144653002 0.00030053858439771375 -0.00049167122201698721 0 -0.00049167122201698721 0.0016785519737090304 0 0 0 0.00049477263952657502 6.7791806579786673e-05 -0.0002736170733837473 0 -0.0002736170733837473 0.0010277402644645051 0 0 0 0.00027388301776098967 5.125040634573752e-05 -0.00049116839162732795 0 -0.00049116839162732795 0.002499587250634927 0 0 0 0.00063770941424518002 0.00029008765148830218 -0.0011302329052121501 0 -0.0011302329052121501 0.0021340402676952586 0 0 0 0.00060603197979591794 0.00071845743163723164 -0.001614740420086247 0 -0.001614740420086247 0.0031401395459852433 0 0 0 0.00096464924440553546 0.00029255619432799751 -0.0010254362083824617 0 -0.0010254362083824617 0.0013164585585192512 0 0 0 0.00040225368821178442 0.00014988154029160761 -0.00089241069164056053 0 -0.00089241069164056053 0.00081324763318835203 0 0 0 0.00024078229336998991 -6.5614083939902201e-05 -0.00022190344685102392 0 -0.00022190344685102392 0.00081200134460779338 0 0 0 0.0001865968151669728 6.5956009209638955e-05 -0.00027386535167628345 0 -0.00027386535167628345 0.0018209541074097335 0 0 0 0.00047172752915489169 -1.1694292723934963e-05 -0.00029546367037325272 0 -0.00029546367037325272 0.00069572498571646157 0 0 0 0.00017100767324798594 5.5860554892928072e-05 -0.00021817232184562219 0 -0.00021817232184562219 0.00034138351089163521 0 0 0 9.9311016446113065e-05 0.00037587734506100423 -0.00075532600726108123 0 -0.00075532600726108123 0.0011696843469291562 0 0 0 0.00038639042299765114 0.00059350188156417905 -0.0012320627956666219 0 -0.0012320627956666219 -0.000226116352910255 0 0 0 9.1846382163446316e-05 0.0015596742763789861 -0.0017898069110179049 0 -0.0017898069110179049 0.0012779707623103986 0 0 0 0.00070941125967227681 0.00034279557377719927 -0.0005452928824931369 0 -0.0005452928824931369 -0.00010034743074927022 0 0 0 6.0612035757023897e-05 0.0010114865431962161 -0.00098122448903484316 0 -0.00098122448903484316 0.00073836786511349839 0 0 0 0.00043746360207730373 0.00013793159928299215 -0.00049149285553568012 0 -0.00049149285553568012 0.00047646072939877548 0 0 0 0.00015359808217052517 0.00012277941528259385 -0.0004829511565090927 0 -0.0004829511565090927 0.00045653640855483624 0 0 0 0.0001448289559592324 8.074478546146735e-05 -0.00021499147196801793 0 -0.00021499147196801793 0.00071747811255384875 0 0 0 0.00019955572450389147 2.7069123703205022e-05 -0.00012855952994977882 0 -0.00012855952994977882 0.00014639055881149332 0 0 0 4.3364920628508052e-05 1.3703356097766184e-05 -0.00011925920221378394 0 -0.00011925920221378394 0.00013299424186197228 0 0 0 3.6674399490094212e-05 8.1147436048922827e-05 -7.2238295525162144e-05 0 -7.2238295525162144e-05 -5.8631459752600534e-05 0 0 0 5.6289940740805733e-06 0.00035754172631041747 -0.00039767338333396296 0 -0.00039767338333396296 0.0004218328731628862 0 0 0 0.00019484364986832592 6.9254832728238291e-05 -0.00011302989688610765 0 -0.00011302989688610765 0.00014926522863811797 0 0 0 5.4630015341783356e-05 0.00013212921134475586 -0.00015279617319555183 0 -0.00015279617319555183 7.4993714621163221e-05 0 0 0 5.1780731491535281e-05 0.00011241653470595026 -2.3050055894202615e-05 0 -2.3050055894202615e-05 2.6415275232949398e-05 0 0 0 3.4707952484835936e-05 1.5946430181046356e-05 -6.0538102131246774e-07 0 -6.0538102131246774e-07 6.3232638313648337e-05 0 0 0 1.9794767123715307e-05 1.5408643747050199e-06 3.1602609573244678e-05 0 3.1602609573244678e-05 -2.4236274406008729e-05 0 0 0 -5.6738525078814384e-06 4.6269717034364e-05 8.538534346624882e-06 0 8.538534346624882e-06 -0.00012959938604195642 0 0 0 -2.0832417251925861e-05 -5.7494174947547716e-05 4.1331234999608668e-05 0 4.1331234999608668e-05 -6.4760624712834058e-06 0 0 0 -1.5992559354749414e-05 1.564530606401604e-06 3.8606881505309776e-05 0 3.8606881505309776e-05 -5.5745650159533255e-05 0 0 0 -1.3545279888504957e-05 3.0930635554593522e-05 3.732726162064548e-05 0 3.732726162064548e-05 -4.5924431635313567e-06 0 0 0 6.584548097654519e-06 -4.73227199365156e-05 -4.7106978834199342e-05 0 -4.7106978834199342e-05 0.00013211274585223087 0 0 0 2.1197506478831674e-05 0.0001593453564374403 -9.409669675539134e-05 0 -9.409669675539134e-05 -2.1996538502322416e-05 0 0 0 3.4337204483841921e-05 0.00044748247718950918 -0.00039285264799443498 0 -0.00039285264799443498 0.00042511000515116359 0 0 0 0.00021814812058518207 0.00024679353101603185 -0.00015956485142160513 0 -0.00015956485142160513 9.7686827035814439e-05 0 0 0 8.612008951291994e-05 0.020635108545936975 -0.011152907495475609 0 -0.011152907495475609 -0.0039861902529230164 0 0 0 0.0041622295732534897 0.020308750402696897 -0.0046081734669489449 0 -0.0046081734669489449 -0.022907514088265621 0 0 0 -0.00064969092139215666 -4.3666072754411367e-05 0.012163620922113302 0 0.012163620922113302 -0.025903713853702603 0 0 0 -0.0064868449816142537 0.01006586898629469 0.0028297999344300759 0 0.0028297999344300759 -0.012925273510071889 0 0 0 -0.00071485113094431341 0.0051743593768227292 -0.00029652671521787285 0 -0.00029652671521787285 -0.0078513861525591477 0 0 0 -0.00066925669393413934 0.0049231508263003765 -0.005036963323093481 0 -0.005036963323093481 0.0010411948657751413 0 0 0 0.0014910864230187892 0.0085943364870466055 -0.005042502861405701 0 -0.005042502861405701 -0.0039873442498405132 0 0 0 0.0011517480593015161 0.013438704176552159 -0.0070997261375954357 0 -0.0070997261375954357 -0.013127857380668594 0 0 0 7.7711698970890988e-05 0.012091250722046615 -0.0081283963131286163 0 -0.0081283963131286163 -0.0003934338412401317 0 0 0 0.0029244542202016277 0.0066064931639275397 -0.0090746041182701576 0 -0.0090746041182701576 -0.0022996606442718878 0 0 0 0.0010767081299139052 0.015281587317331258 -0.014021983618400541 0 -0.014021983618400541 0.0095296246669311913 0 0 0 0.0062028029960656261 0.0028925958787971162 -0.0053926401694608384 0 -0.0053926401694608384 0.00060533452080738237 0 0 0 0.00087448259990122179 0.007934088337419487 -0.0083074767028596119 0 -0.0083074767028596119 0.0068052382627658003 0 0 0 0.0036848316500462941 0.0014485542940606555 -0.0028365583851327793 0 -0.0028365583851327793 0.0046552097443544049 0 0 0 0.0015259410096037929 0.00062308274398631402 -0.0023497460944889026 0 -0.0023497460944889026 0.0033024735827957841 0 0 0 0.00098138908169548289 0.0019299074662350035 -0.005214467669716949 0 -0.005214467669716949 0.0055284716062646844 0 0 0 0.0018645947681249497 0.0026378974036468383 -0.0044563101618447787 0 -0.0044563101618447787 0.0084406321543459839 0 0 0 0.0027696323894980113 -0.00036692641003260862 -0.0022878398891201801 0 -0.0022878398891201801 0.0048853226584393283 0 0 0 0.0011295990621015828 0.00069122205311122897 -0.0023345126095934421 0 -0.0023345126095934421 0.0087257371333890887 0 0 0 0.0023542397966250794 0.0010512488118310515 -0.001520274504057173 0 -0.001520274504057173 0.0055973187754814191 0 0 0 0.0016621418968282287 0.00014134797852871639 -0.00076888847958256346 0 -0.00076888847958256346 0.0032803052784498021 0 0 0 0.00085541331424476841 3.2134406360698198e-05 -0.00096426351358025464 0 -0.00096426351358025464 0.0049488940641232437 0 0 0 0.001245257117621093 0.0056737311496711795 -0.0094482730154921146 0 -0.0094482730154921146 0.015890398488218382 0 0 0 0.0053910324094723627 0.0039181188757519969 -0.011540961852642084 0 -0.011540961852642084 0.0070046511242309872 0 0 0 0.0027306924999955795 0.0030382967493968738 -0.0066563633771968833 0 -0.0066563633771968833 0.00860052258311228 0 0 0 0.0029097048331273023 0.00015248957728047907 -0.0027918396311077398 0 -0.0027918396311077398 0.011802498483640678 0 0 0 0.0029887470152301643 0.0022200345656846476 -0.0040122809759534084 0 -0.0040122809759534084 0.014450004960193663 0 0 0 0.0041675098814696332 -0.00032278690873516203 -0.0053633660943327444 0 -0.0053633660943327444 0.013070274257121983 0 0 0 0.0031868718370967053 0.00095665316727266969 -0.0054310195144417484 0 -0.0054310195144417484 0.025264835074612968 0 0 0 0.0065553720604714094 0.0054502406181933249 -0.0094715019219029362 0 -0.0094715019219029362 0.044082017659700767 0 0 0 0.012383064569473357 -0.00043927328038323443 -0.0062314403842159694 0 -0.0062314403842159694 0.024142479425043217 0 0 0 0.0059258015361650096 0.011526373673011014 -0.018626287141769227 0 -0.018626287141769227 0.067747655404460705 0 0 0 0.019818507269367847 -0.0013695893076519916 -0.014212375821304191 0 -0.014212375821304191 0.027709706679922119 0 0 0 0.0065850293430675666 0.016612043008609495 -0.024662729472695266 0 -0.024662729472695266 0.010977087084101167 0 0 0 0.0068972825231777002 0.0077611362448511134 -0.015864159473634509 0 -0.015864159473634509 0.031363787925032249 0 0 0 0.0097812310424708893 0.0050923505742185293 -0.014907524430235242 0 -0.014907524430235242 0.021567043400110064 0 0 0 0.0066648484935820651 0.012356912184399826 -0.012980020512456086 0 -0.012980020512456086 -0.0074887225394727475 0 0 0 0.001217047411231742 0.010472023279808923 4.6046458890766639e-05 0 4.6046458890766639e-05 -0.02650946572059687 0 0 0 -0.0040093606101969659 0.036941916196163618 -0.027251497725413742 0 -0.027251497725413742 -0.013960738781746931 0 0 0 0.0057452943536041162 0.023539332314216455 -0.023709799625798 0 -0.023709799625798 0.013767547403044977 0 0 0 0.0093267199293154412 0.025664771188330993 -0.029223860736370122 0 -0.029223860736370122 0.032059102837840747 0 0 0 0.014430968506542907 -0.0030851392077075185 -0.027420644233114189 0 -0.027420644233114189 0.022698827059232971 0 0 0 0.004903421962881474 0.02806438865492622 -0.03708171520105874 0 -0.03708171520105874 0.12711656795866455 0 0 0 0.038795239153397776 0.002981984828852341 -0.053681506417754488 0 -0.053681506417754488 0.024314727929544866 0 0 0 0.0068241781895993225 0.059179534792790922 -0.075598715645928183 0 -0.075598715645928183 0.19904742614174697 0 0 0 0.064556740233634446 -0.0031352174370071761 -0.041714139274840134 0 -0.041714139274840134 -0.32691179861834074 0 0 0 -0.082511754013837146 -0.033058256849965321 -0.062399592972766538 0 -0.062399592972766538 -0.50887444530437587 0 0 0 -0.13548317553858535 8.123022463911824e-08 -3.013254781493432e-07 0 -3.013254781493432e-07 -7.6699240349533481e-08 0 0 0 1.1327460723966135e-09 -0.020402511151939952 -0.032131412800507242 0 -0.032131412800507242 -0.40437380893548169 0 0 0 -0.10619408002185531 2.3051254824255545e-07 -9.6634954604099927e-07 0 -9.6634954604099927e-07 -6.8774346675717134e-08 0 0 0 4.0434550391709156e-08 0.0011228462573729114 -0.022441482957732073 0 -0.022441482957732073 -0.33323731015475211 0 0 0 -0.083028615974344744 -0.026299034967126933 -0.030032332960396424 0 -0.030032332960396424 -0.29984274968688496 0 0 0 -0.081535446163503056 -0.021302150967042577 -0.025981811764090659 0 -0.025981811764090659 -0.25513668977672577 0 0 0 -0.06910971018594203 -0.040214291130518852 -0.040392806878952969 0 -0.040392806878952969 -0.33936456948871085 0 0 0 -0.094894715154807491 -0.021374802412170379 -0.0096810264824332415 0 -0.0096810264824332415 -0.275707269462244 0 0 0 -0.074270517968603622 -0.017770451795924624 -0.014854176976850153 0 -0.014854176976850153 -0.29508278305901348 0 0 0 -0.078213308713734442 -0.019147248619023342 -0.015106838091841879 0 -0.015106838091841879 -0.28711178300915557 0 0 0 -0.0765647579070447 -0.0163871024453075 -0.015481256413843569 0 -0.015481256413843569 -0.30886538853887568 0 0 0 -0.081313122746045852 -0.0069758872775439462 -0.015752297137582971 0 -0.015752297137582971 -0.30574331179400938 0 0 0 -0.078179799767888469 -0.0064197602502319429 -0.011654075197452096 0 -0.011654075197452096 -0.32187496287472783 0 0 0 -0.082073680781239777 -0.014522486615720753 -0.023919226740834132 0 -0.023919226740834132 -0.33868812491918154 0 0 0 -0.088302652883725852 -0.011099994875596764 -0.021226015875734076 0 -0.021226015875734076 -0.32746712718492432 0 0 0 -0.084641780515130272 0.00015854745255960978 -0.0085134494391041482 0 -0.0085134494391041482 -0.32984611638170636 0 0 0 -0.08242189223228702 -0.010306505819233092 -0.015073789333183707 0 -0.015073789333183707 -0.36151351480377514 0 0 0 -0.092955005155752168 3.3468089818597826e-07 -1.4885001228646864e-06 0 -1.4885001228646864e-06 -3.3752586264881766e-08 0 0 0 7.5232077980274548e-08 0.00056198425056308565 -0.0070103148915889868 0 -0.0070103148915889868 -0.31747660748442375 0 0 0 -0.079228655808465165 4.5259608635020165e-07 -1.9283086352427854e-06 0 -1.9283086352427854e-06 4.4893368618636299e-09 0 0 0 1.1427135580301547e-07 -0.0016813504113197819 -0.0074579383264782306 0 -0.0074579383264782306 -0.33436488103461581 0 0 0 -0.084011557861483954 -0.00368507353289238 -0.0048210191538979874 0 -0.0048210191538979874 -0.32090437918169457 0 0 0 -0.081147363178646792 5.6581505773233668e-07 -2.3262950950645081e-06 0 -2.3262950950645081e-06 4.1319842411508205e-08 0 0 0 1.517837250359609e-07 0.00017108233737039846 -0.0026064883808633033 0 -0.0026064883808633033 -0.31503412392693075 0 0 0 -0.078715760397389589 -0.00034815208152609703 -0.0023211991423359724 0 -0.0023211991423359724 -0.31307984078799167 0 0 0 -0.078356998217379334 6.8635523294353131e-07 -2.6961079555942178e-06 0 -2.6961079555942178e-06 7.9618628392966821e-08 0 0 0 1.9149346533412453e-07 0.00022165388943440334 -0.0022329983309220536 0 -0.0022329983309220536 -0.30866554095526411 0 0 0 -0.077110971766457315 -0.0022891104802890694 -0.0052361779330465374 0 -0.0052361779330465374 -0.31095560212337314 0 0 0 -0.078311178150915317 -0.0020320235422172095 -0.0063273971829254094 0 -0.0063273971829254094 -0.3070308655799745 0 0 0 -0.077265722280547955 -0.0042864835840238369 -0.0083289306013309972 0 -0.0083289306013309972 -0.31374474063865276 0 0 0 -0.079507806055668984 8.1160548940584221e-05 -0.0010395352547518666 0 -0.0010395352547518666 -0.30400292771691895 0 0 0 -0.07598044179199448 0.00018012473264694684 -0.00098239825664858671 0 -0.00098239825664858671 -0.30574775615177252 0 0 0 -0.076391907854781671 9.301464761057684e-07 -3.3955192163203967e-06 0 -3.3955192163203967e-06 1.598229329112515e-07 0 0 0 2.7249235225425571e-07 7.2981408013816917e-05 -0.00092053902933031395 0 -0.00092053902933031395 -0.30721877466427028 0 0 0 -0.076786448314063893 -0.0011933657802796205 -0.001620413139525656 0 -0.001620413139525656 -0.30851237557170208 0 0 0 -0.077426435337995425 8.114472537298279e-07 -3.0499431869154122e-06 0 -3.0499431869154122e-06 1.2045862772196631e-07 0 0 0 2.3297647036294866e-07 -0.0011676750993291629 -0.0038985432565383782 0 -0.0038985432565383782 -0.30661802248161063 0 0 0 -0.07694642439523483 -0.001027423514102177 -0.0025755964166560563 0 -0.0025755964166560563 -0.30492612496424654 0 0 0 -0.07648838711958722 -0.00058273503145667149 -0.0032342130255419432 0 -0.0032342130255419432 -0.30322625508662426 0 0 0 -0.075952247529520234 -0.0036414387966198225 -0.0051131398672973338 0 -0.0051131398672973338 -0.30456140734838666 0 0 0 -0.07705071153625187 -0.0019331405485782938 -0.0062542120403162871 0 -0.0062542120403162871 -0.29828692147261604 0 0 0 -0.075055015505298472 -0.0080863187978159612 -0.010348969356379134 0 -0.010348969356379134 -0.29760213422298376 0 0 0 -0.076422113255199875 -0.006860267955137403 -0.0090968924779071259 0 -0.0090968924779071259 -0.30861040554563685 0 0 0 -0.078867668375193559 -0.0069392409741159955 -0.0053578288413846931 0 -0.0053578288413846931 -0.29468524688373565 0 0 0 -0.075406121964462919 -0.0043905309727619857 -0.0036858229864836778 0 -0.0036858229864836778 -0.29455308567234795 0 0 0 -0.074735904161277511 -0.0082630089130545925 -0.0059263256816681764 0 -0.0059263256816681764 -0.30041089328487025 0 0 0 -0.077168475549480975 -0.0092792797673375976 -0.0011757347588978728 0 -0.0011757347588978728 -0.29727745346729229 0 0 0 -0.076639183308657641 -0.0068050171606225118 0.0014130096069623344 0 0.0014130096069623344 -0.28694306782422835 0 0 0 -0.073437021246212791 -0.0034625259347413895 0.010050839081832741 0 0.010050839081832741 -0.28174885423036722 0 0 0 -0.071302845041277152 -0.015401852318993048 -0.0018878159578794573 0 -0.0018878159578794573 -0.27422470600210191 0 0 0 -0.072406639580273935 -0.0022374519915404206 0.0025581865111183877 0 0.0025581865111183877 -0.27373891648783211 0 0 0 -0.068994092119843156 -0.013954153843138396 -0.0041620195926375114 0 -0.0041620195926375114 -0.28576883186973867 0 0 0 -0.074930746428219314 -0.016248062325191548 -0.0048153755400097698 0 -0.0048153755400097698 -0.29390629705024374 0 0 0 -0.077538589843858863 4.7945705827112661e-05 -7.8608293330839629e-05 0 -7.8608293330839629e-05 -0.3001334513160927 0 0 0 -0.075021376402566453 -0.00024299946807149198 -9.4356793384209325e-05 0 -9.4356793384209325e-05 -0.30009598381796909 0 0 0 -0.075084745821509813 -4.923215809804482e-05 3.8254877477772453e-05 0 3.8254877477772453e-05 -0.2999928923586932 0 0 0 -0.075010531129197311 0.00014030635857453788 3.1160557077902213e-05 0 3.1160557077902213e-05 -0.30005396270011886 0 0 0 -0.074978414085386191 4.4442725335436251e-06 4.6637244682568024e-05 0 4.6637244682568024e-05 -0.29998761299719412 0 0 0 -0.074995792181165033 4.7659261699140032e-05 3.8431789793236248e-05 0 3.8431789793236248e-05 -0.29997209389931268 0 0 0 -0.074981108659403217 1.250628851368063e-05 3.1322326909055676e-05 0 3.1322326909055676e-05 -0.29996085221545243 0 0 0 -0.074987086481734355 1.9157558760595244e-06 -6.1521248200039283e-06 0 -6.1521248200039283e-06 4.3643847577264364e-07 0 0 0 5.8804858795804115e-07 1.8233213076893454e-06 -6.1116386257698935e-06 0 -6.1116386257698935e-06 4.5742697116731586e-07 0 0 0 5.7018706971416446e-07 2.8782410925742852e-06 4.3454746434079539e-05 0 4.3454746434079539e-05 -0.29986826709214753 0 0 0 -0.07496634721276374 1.3073585987122271e-06 3.996768154301833e-05 0 3.996768154301833e-05 -0.29996993469186961 0 0 0 -0.074992156833317836 5.0639682167563649e-06 3.8900969578481437e-05 0 3.8900969578481437e-05 -0.29997237656453635 0 0 0 -0.074991828149080231 -1.024482958600359e-05 3.839412527217867e-05 0 3.839412527217867e-05 -0.29999307166689437 0 0 0 -0.075000829124120205 -1.3037785726588424e-06 3.3293535433243093e-05 0 3.3293535433243093e-05 -0.29997344835732065 0 0 0 -0.074993688033973438 -8.2674575101471248e-05 3.9611065658640143e-06 0 3.9611065658640143e-06 -0.29998566940362359 0 0 0 -0.075017085994681043 -0.00015344767047542618 -0.00013557626227211905 0 -0.00013557626227211905 -0.30013565537168629 0 0 0 -0.075072275760540208 -7.4186151591604244e-05 -0.00012872152694443084 0 -0.00012872152694443084 -0.30016930674095921 0 0 0 -0.075060873223137925 -1.5400867785508865e-06 3.9746942060991941e-05 0 3.9746942060991941e-05 -0.30002521976621122 0 0 0 -0.075006689963247108 1.7111801412303943e-06 -5.7176616231610952e-06 0 -5.7176616231610952e-06 4.2048669029590698e-07 0 0 0 5.3291670788157596e-07 -3.8466127676439754e-05 2.1080277406326786e-05 0 2.1080277406326786e-05 -0.29974424076318229 0 0 0 -0.074945676722714794 -7.8747709924612366e-05 -3.3292684224583979e-05 0 -3.3292684224583979e-05 -0.29978363155725868 0 0 0 -0.074965594816795711 1.599073884192502e-06 -5.4011037034394935e-06 0 -5.4011037034394935e-06 3.8322812682709184e-07 0 0 0 4.9557550275489803e-07 3.2023966238803325e-06 -0.00011892653710576795 0 -0.00011892653710576795 -0.30025360020383651 0 0 0 -0.075062599451803713 -0.0003139122071971201 -0.00047632332330555839 0 -0.00047632332330555839 -0.30062691058839608 0 0 0 -0.075235205698898078 -0.00017561443967006873 -0.00022532619465842618 0 -0.00022532619465842618 -0.30026893244582631 0 0 0 -0.075111136721373928 -0.00058919029755033492 -0.00037214244962457954 0 -0.00037214244962457954 -0.30007294564890374 0 0 0 -0.075165533986613298 -0.00092139397754048558 -0.00088158414168937327 0 -0.00088158414168937327 -0.30052714828980576 0 0 0 -0.075362135566836741 -0.00096618093221545465 -0.00102679920205484 0 -0.00102679920205484 -0.29978656906259449 0 0 0 -0.075188187498702597 -0.0018098591820348564 -0.0016917256297179772 0 -0.0016917256297179772 -0.30075954264766813 0 0 0 -0.075642350457425345 -0.00093982221096489127 -0.0012354661126764421 0 -0.0012354661126764421 -0.30130352148408335 0 0 0 -0.07556083592376206 -0.00063808960243227908 -0.0015475573123079345 0 -0.0015475573123079345 -0.30033313755789059 0 0 0 -0.075242806790080552 -0.00021715423921064847 -0.00067703023899912118 0 -0.00067703023899912118 -0.30018147788032667 0 0 0 -0.075099658029884164 -3.0397018700778489e-05 -0.00019053243222932892 0 -0.00019053243222932892 -0.30019495090589121 0 0 0 -0.075056336981147886 -0.00039075186978454468 -0.0005178242374481723 0 -0.0005178242374481723 -0.30062444371705865 0 0 0 -0.075253798896711022 4.0048775640677547e-05 -0.00010866438287893132 0 -0.00010866438287893132 -0.30034174272060099 0 0 0 -0.075075423486239856 1.4876522370112821e-06 -5.0674119394148828e-06 0 -5.0674119394148828e-06 3.4617450670347084e-07 0 0 0 4.5845668592868759e-07 -8.8447154045212528e-05 -0.00011088255036595385 0 -0.00011088255036595385 -0.29982496353993948 0 0 0 -0.074978352673495952 5.2678645478643205e-05 -0.00021468188557705048 0 -0.00021468188557705048 -0.30098366574752422 0 0 0 -0.075232746775511394 1.377329226690078e-06 -4.736733767507887e-06 0 -4.736733767507887e-06 3.0943909133249726e-07 0 0 0 4.216920795056434e-07 -5.7674794955442366e-05 -0.00014903531139909276 0 -0.00014903531139909276 -0.30019744288036598 0 0 0 -0.075063779418830023 -0.00042883145629346586 -0.00067863949502000587 0 -0.00067863949502000587 -0.30097904005832188 0 0 0 -0.075351967878653614 -7.257585130915345e-05 -0.00055374541061525839 0 -0.00055374541061525839 -0.30086811405512615 0 0 0 -0.075235172476608714 -0.00068503303766842549 -0.00131610374400494 0 -0.00131610374400494 -0.3020147863462137 0 0 0 -0.075674954845970532 -0.00023404678497440656 -0.0015266937534124114 0 -0.0015266937534124114 -0.30161691775045885 0 0 0 -0.075462741133858202 7.933235733448285e-05 -0.0004980120363757834 0 -0.0004980120363757834 -0.3013578267123842 0 0 0 -0.075319623588762097 1.2683513720112416e-06 -4.4046696164572846e-06 0 -4.4046696164572846e-06 2.7289539253032032e-07 0 0 0 3.8531169113539027e-07 -0.00036520509167292659 -0.0003835309724997682 0 -0.0003835309724997682 -0.30074829550474647 0 0 0 -0.075278375149104626 1.045976193285352e-06 -3.7355596786731256e-06 0 -3.7355596786731256e-06 1.9849563465417448e-07 0 0 0 3.1111795698488226e-07 -0.00056939072168772089 -0.00085314766325694791 0 -0.00085314766325694791 -0.30337695610695126 0 0 0 -0.075986586707159645 9.2799696282952482e-06 -0.00051641626803311524 0 -0.00051641626803311524 -0.30195173256899022 0 0 0 -0.075485613149840258 1.1578972231989902e-06 -4.0714331289883727e-06 0 -4.0714331289883727e-06 2.3583735600584401e-07 0 0 0 3.484336448012093e-07 6.5330341642688694e-05 -0.00051474490481329127 0 -0.00051474490481329127 -0.30309154897119495 0 0 0 -0.075756554657387731 -0.00056280118626256259 -0.001836553136143726 0 -0.001836553136143726 -0.30271134432966718 0 0 0 -0.075818536378982448 -0.0010345587112301491 -0.0036390862907569321 0 -0.0036390862907569321 -0.29934264231753005 0 0 0 -0.075094300257189994 -0.0024508712338013189 -0.0027168128765364674 0 -0.0027168128765364674 -0.30249561699165284 0 0 0 -0.076236622056363432 -0.0034095400478972582 -0.00081543118298532669 0 -0.00081543118298532669 -0.29924313588011942 0 0 0 -0.075663168982004397 -0.004768033196163729 -0.0034665637970424656 0 -0.0034665637970424656 -0.30046252545109431 0 0 0 -0.076307639661814336 -0.0033274825409548292 -0.0015751852433601443 0 -0.0015751852433601443 -0.29978950110382563 0 0 0 -0.075779245911195225 -0.0021696295586592917 -0.0011343420598025622 0 -0.0011343420598025622 -0.30020693015943056 0 0 0 -0.075594139929522353 -0.0021148737354768632 -0.001004589998920391 0 -0.001004589998920391 -0.29876249937238475 0 0 0 -0.075219343276965611 -0.0013373459147469346 -0.00042637753725904837 0 -0.00042637753725904837 -0.29986274273265257 0 0 0 -0.075300022161849778 -0.00070841556368694825 -0.00048492615529380223 0 -0.00048492615529380223 -0.30026309340470636 0 0 0 -0.075242877242098327 -0.0012593734036451254 -0.00040825320769055651 0 -0.00040825320769055651 -0.29982795493027536 0 0 0 -0.075271832083480095 -0.001122534195482805 -7.5470217956619123e-05 0 -7.5470217956619123e-05 -0.30001249251538553 0 0 0 -0.075283756677716696 -0.00046596483261529542 -9.5562247553665491e-05 0 -9.5562247553665491e-05 -0.29996808806776798 0 0 0 -0.075108513225095708 -0.00027373946142095207 -0.00011694349113255953 0 -0.00011694349113255953 -0.30003834861200041 0 0 0 -0.075078022018355339 -0.0010152503403735302 0.00094621777831549458 0 0.00094621777831549458 -0.30148904109118058 0 0 0 -0.075626072857888527 -0.00048373062665096889 0.00022059876404820504 0 0.00022059876404820504 -0.29947401102531845 0 0 0 -0.074989435412992078 -0.001781504140089929 0.00057037567226325692 0 0.00057037567226325692 -0.30002124741039982 0 0 0 -0.075450687887622436 -0.0046768594902748539 0.00080484495027691172 0 0.00080484495027691172 -0.29841902942191023 0 0 0 -0.075773972228046271 -0.001557113282987424 0.0018612214287701545 0 0.0018612214287701545 -0.29823610021507674 0 0 0 -0.074948303374516037 -0.0013061059733479041 0.00061865677983774514 0 0.00061865677983774514 -0.29849975845881949 0 0 0 -0.074951466108041931 -0.0023170146010650372 -4.6106107638888005e-05 0 -4.6106107638888005e-05 -0.29925338920303446 0 0 0 -0.075392600951024957 -0.0024995903412605713 0.0013289021242016141 0 0.0013289021242016141 -0.30020940546176078 0 0 0 -0.075677248950755227 0.00025738275000897204 0.00031814028628425088 0 0.00031814028628425088 -0.30024883021421589 0 0 0 -0.074997861866051618 -0.0029648676879960867 0.007031524510122511 0 0.007031524510122511 -0.31123278383613384 0 0 0 -0.078549412881032565 -0.0082321452859535627 0.006215780919675451 0 0.006215780919675451 -0.29193055554227709 0 0 0 -0.075040675207057761 -0.00021098906849664756 0.0090302224638597606 0 0.0090302224638597606 -0.29748662395577929 0 0 0 -0.074424403256069083 -0.0089979206689874136 0.0051638941445749653 0 0.0051638941445749653 -0.29548891327460214 0 0 0 -0.076121708485897388 -0.002892188920292027 0.0039140933290145452 0 0.0039140933290145452 -0.29830380183259719 0 0 0 -0.075298997688222402 0.00026631211394601007 0.0063435904298867283 0 0.0063435904298867283 -0.29702226891185168 0 0 0 -0.074188989199476418 0.005870242007372739 0.011385852259166204 0 0.011385852259166204 -0.2889862264101109 0 0 0 -0.070778996100684527 0.00092930692438447648 0.009526177011137768 0 0.009526177011137768 -0.3283676535114573 0 0 0 -0.081859586646768207 -0.094212555763568351 0.026361276338876673 0 0.026361276338876673 -0.28322416859317096 0 0 0 -0.094359181089184826 -0.030825890550678331 0.030543623019182793 0 0.030543623019182793 -0.37105705693293989 0 0 0 -0.10047073687090456 -0.065376698901469132 0.0050399324635007538 0 0.0050399324635007538 -0.19607893571921872 0 0 0 -0.065363908655171971 -0.028589077962471732 0.0046408112543463165 0 0.0046408112543463165 -0.21896042263674659 0 0 0 -0.061887375149804552 -0.03169076691284746 -0.0039916721041038132 0 -0.0039916721041038132 -0.24352600509790084 0 0 0 -0.068804193002687072 -0.039160680583462962 -0.018150401718551576 0 -0.018150401718551576 -0.13847039162664163 0 0 0 -0.044407768052526143 -0.021534313043960127 -0.0075796479798782013 0 -0.0075796479798782013 -0.21778758131466364 0 0 0 -0.059830473589655944 -0.0072651904546357183 -0.020059403749688842 0 -0.020059403749688842 -0.14773767167548948 0 0 0 -0.038750715532531309 -0.018933118788107495 -0.013509505279521467 0 -0.013509505279521467 -0.2082893772486536 0 0 0 -0.056805624009190314 0.013087038383690797 -0.018423656502524643 0 -0.018423656502524643 -0.22820190490419062 0 0 0 -0.053778716630124956 -0.0069852791640880318 -0.039651711737642786 0 -0.039651711737642786 -0.15008994610780302 0 0 0 -0.039268806317972749 0.010127354487610207 -0.06010778057403765 0 -0.06010778057403765 -0.22921960075726044 0 0 0 -0.054773061567412573 0.032651682869970874 -0.069876262799231759 0 -0.069876262799231759 -0.13441849245522045 0 0 0 -0.025441702396312341 0.02068469375996862 -0.087350713204079611 0 -0.087350713204079611 -0.30865285875957915 0 0 0 -0.071992041249902661 0.01920073134211598 -0.0272149336467572 0 -0.0272149336467572 -0.21756740143214384 0 0 0 -0.049591667522506981 -0.0037485709403454193 -0.0061462802929830307 0 -0.0061462802929830307 -0.27710596880520544 0 0 0 -0.070213634936387659 -0.0018752587020470779 -0.0060063237979847139 0 -0.0060063237979847139 -0.26043916306374493 0 0 0 -0.065578605441447946 0.0025450459317833893 0.011555066692622407 0 0.011555066692622407 -0.29371834207925818 0 0 0 -0.072793324036868667 0.0061522656651192831 -0.0052645697817980119 0 -0.0052645697817980119 -0.2655397535899644 0 0 0 -0.064846871981211252 0.0012340396120047448 0.010432198781457624 0 0.010432198781457624 -0.26772115796064289 0 0 0 -0.066621779587159535 -0.0058372078305717959 0.0088764434937085579 0 0.0088764434937085579 -0.29268302520490586 0 0 0 -0.07463005825886937 0.0034501509037008216 0.007685354279780815 0 0.007685354279780815 -0.2598480975673485 0 0 0 -0.06409948666591192 
</DataArray>
</CellData>
</Piece>
</UnstructuredGrid>
</VTKFile>
