<?xml version="1.0"?>
<VTKFile type="UnstructuredGrid" version="0.1" byte_order="LittleEndian">
<UnstructuredGrid>
<Piece NumberOfPoints="880" NumberOfCells="299">
<Points>
<DataArray type="Float64" NumberOfComponents="3" format="ascii">
0 0.25000000000104189 0 -0 0 0 0.18653882694645291 0.22249173546702489 0 -0 0 0 0.24999999999941089 0 0 0.18653882694645291 0.22249173546702489 0 0.24999999999941089 0 0 0.49999999999869182 0 0 0.35015135319464608 0.1900339269648805 0 0.24999999999941089 0 0 0.35015135319464608 0.1900339269648805 0 0.18653882694645291 0.22249173546702489 0 0.35015135319464608 0.1900339269648805 0 0.49999999999869182 0 0 0.49924741621175961 0.21507969613896921 0 0.40587285776242238 0.32419148732968017 0 0.35015135319464608 0.1900339269648805 0 0.49924741621175961 0.21507969613896921 0 0.45418244162583959 0.41624787166862259 0 0.41576443813007791 0.48093483781626972 0 0.37764981543668408 0.41341486499350411 0 0.40587285776242238 0.32419148732968017 0 0.45418244162583959 0.41624787166862259 0 0.37764981543668408 0.41341486499350411 0 0.45418244162583959 0.41624787166862259 0 0.46566719828045178 0.47702825415921918 0 0.41576443813007791 0.48093483781626972 0 0.46566719828045178 0.47702825415921918 0 0.4638583922372429 0.51470588235294135 0 0.41576443813007791 0.48093483781626972 0 0.49954900152271581 0.45107191084564019 0 0.5 0.5 0 0.46566719828045178 0.47702825415921918 0 0.46566719828045178 0.47702825415921918 0 0.5 0.5 0 0.4638583922372429 0.51470588235294135 0 0.49954900152271581 0.45107191084564019 0 0.46566719828045178 0.47702825415921918 0 0.45418244162583959 0.41624787166862259 0 0.45418244162583959 0.41624787166862259 0 0.49435464945626773 0.33318442629318029 0 0.54876010062294855 0.39662628167175101 0 0.49435464945626773 0.33318442629318029 0 0.45418244162583959 0.41624787166862259 0 0.40587285776242238 0.32419148732968017 0 0.49435464945626773 0.33318442629318029 0 0.40587285776242238 0.32419148732968017 0 0.49924741621175961 0.21507969613896921 0 0.35015135319464608 0.1900339269648805 0 0.40587285776242238 0.32419148732968017 0 0.29145599617909779 0.35026601625021492 0 0.40587285776242238 0.32419148732968017 0 0.37764981543668408 0.41341486499350411 0 0.29145599617909779 0.35026601625021492 0 0.18653882694645291 0.22249173546702489 0 0.35015135319464608 0.1900339269648805 0 0.29145599617909779 0.35026601625021492 0 0.32540781287085369 0.49175159894608172 0 0.17872124008781709 0.39692711089439497 0 0.29145599617909779 0.35026601625021492 0 0.37764981543668408 0.41341486499350411 0 0.32540781287085369 0.49175159894608172 0 0.29145599617909779 0.35026601625021492 0 0.41576443813007791 0.48093483781626972 0 0.32540781287085369 0.49175159894608172 0 0.37764981543668408 0.41341486499350411 0 0 0.50000000000206157 0 0 0.25000000000104189 0 0.17872124008781709 0.39692711089439497 0 0 0.50000000000206157 0 0.17872124008781709 0.39692711089439497 0 0.22453074737734591 0.51613635929252633 0 0.17872124008781709 0.39692711089439497 0 0.32540781287085369 0.49175159894608172 0 0.22453074737734591 0.51613635929252633 0 0.17872124008781709 0.39692711089439497 0 0.18653882694645291 0.22249173546702489 0 0.29145599617909779 0.35026601625021492 0 0.17872124008781709 0.39692711089439497 0 0 0.25000000000104189 0 0.18653882694645291 0.22249173546702489 0 0 0.75000000000034772 0 0 0.50000000000206157 0 0.18442368612951149 0.62734948407416979 0 0 0.75000000000034772 0 0.18442368612951149 0.62734948407416979 0 0.22727208279115291 0.72949159435386135 0 0.18442368612951149 0.62734948407416979 0 0.31346558946927339 0.67110784456164874 0 0.22727208279115291 0.72949159435386135 0 0.31771010312359771 0.58585679504088894 0 0.18442368612951149 0.62734948407416979 0 0.22453074737734591 0.51613635929252633 0 0.18442368612951149 0.62734948407416979 0 0 0.50000000000206157 0 0.22453074737734591 0.51613635929252633 0 0 1 0 0 0.75000000000034772 0 0.096516139048187316 0.89789944498939644 0 0.1596341872805197 1 0 0 1 0 0.096516139048187316 0.89789944498939644 0 0 0.75000000000034772 0 0.1644705180525495 0.8200994301041713 0 0.096516139048187316 0.89789944498939644 0 0.2386314078659193 0.92924778694987087 0 0.1644705180525495 0.8200994301041713 0 0.27155609766735261 0.80398965554903801 0 0.1644705180525495 0.8200994301041713 0 0 0.75000000000034772 0 0.22727208279115291 0.72949159435386135 0 0.1644705180525495 0.8200994301041713 0 0.22727208279115291 0.72949159435386135 0 0.27155609766735261 0.80398965554903801 0 0.1644705180525495 0.8200994301041713 0 0.2386314078659193 0.92924778694987087 0 0.096516139048187316 0.89789944498939644 0 0.2386314078659193 0.92924778694987087 0 0.1596341872805197 1 0 0.096516139048187316 0.89789944498939644 0 0.27591592301363282 1 0 0.1596341872805197 1 0 0.2386314078659193 0.92924778694987087 0 0.36061858902161292 1 0 0.27591592301363282 1 0 0.32789203369730929 0.94219211037003092 0 0.36061858902161292 1 0 0.32789203369730929 0.94219211037003092 0 0.39382242252278338 0.95440420122950598 0 0.32789203369730929 0.94219211037003092 0 0.27591592301363282 1 0 0.2386314078659193 0.92924778694987087 0 0.31834856208730472 0.88134829947972904 0 0.32789203369730929 0.94219211037003092 0 0.2386314078659193 0.92924778694987087 0 0.39382242252278338 0.95440420122950598 0 0.32789203369730929 0.94219211037003092 0 0.37746652222901839 0.8987532801416368 0 0.37746652222901839 0.8987532801416368 0 0.32789203369730929 0.94219211037003092 0 0.31834856208730472 0.88134829947972904 0 0.31834856208730472 0.88134829947972904 0 0.2386314078659193 0.92924778694987087 0 0.27155609766735261 0.80398965554903801 0 0.37746652222901839 0.8987532801416368 0 0.31834856208730472 0.88134829947972904 0 0.36493375430404612 0.82333914183704071 0 0.36493375430404612 0.82333914183704071 0 0.31834856208730472 0.88134829947972904 0 0.27155609766735261 0.80398965554903801 0 0.22727208279115291 0.72949159435386135 0 0.32984265945580837 0.74432890077789404 0 0.27155609766735261 0.80398965554903801 0 0.32984265945580837 0.74432890077789404 0 0.36493375430404612 0.82333914183704071 0 0.27155609766735261 0.80398965554903801 0 0.36493375430404612 0.82333914183704071 0 0.32984265945580837 0.74432890077789404 0 0.39746869305290999 0.7595658224757349 0 0.42893012659725649 0.81084715169569632 0 0.36493375430404612 0.82333914183704071 0 0.39746869305290999 0.7595658224757349 0 0.44651949253391748 0.77225997208621999 0 0.42893012659725649 0.81084715169569632 0 0.39746869305290999 0.7595658224757349 0 0.44651949253391748 0.77225997208621999 0 0.39746869305290999 0.7595658224757349 0 0.43412357948152142 0.72128778687215156 0 0.44651949253391748 0.77225997208621999 0 0.47220206448452873 0.74892462649306213 0 0.47786860714145291 0.77730227330627721 0 0.47220206448452873 0.74892462649306213 0 0.5 0.76470588235294124 0 0.47786860714145291 0.77730227330627721 0 0.5 0.76470588235294124 0 0.5 0.79411764705882359 0 0.47786860714145291 0.77730227330627721 0 0.5 0.79411764705882359 0 0.5 0.82352941176470584 0 0.47062147868881782 0.80650323854033878 0 0.5 0.79411764705882359 0 0.47062147868881782 0.80650323854033878 0 0.47786860714145291 0.77730227330627721 0 0.47062147868881782 0.80650323854033878 0 0.44651949253391748 0.77225997208621999 0 0.47786860714145291 0.77730227330627721 0 0.47062147868881782 0.80650323854033878 0 0.42893012659725649 0.81084715169569632 0 0.44651949253391748 0.77225997208621999 0 0.46181179062043481 0.83858979842637782 0 0.42893012659725649 0.81084715169569632 0 0.47062147868881782 0.80650323854033878 0 0.42880856207355889 0.86677159981903118 0 0.42893012659725649 0.81084715169569632 0 0.46181179062043481 0.83858979842637782 0 0.5 0.82352941176470584 0 0.5 0.85294117647058831 0 0.46181179062043481 0.83858979842637782 0 0.5 0.82352941176470584 0 0.46181179062043481 0.83858979842637782 0 0.47062147868881782 0.80650323854033878 0 0.46181179062043481 0.83858979842637782 0 0.5 0.85294117647058831 0 0.47032448519202857 0.86718057681700655 0 0.5 0.85294117647058831 0 0.5 0.88235294117647056 0 0.47032448519202857 0.86718057681700655 0 0.42880856207355889 0.86677159981903118 0 0.46181179062043481 0.83858979842637782 0 0.47032448519202857 0.86718057681700655 0 0.42880856207355889 0.86677159981903118 0 0.37746652222901839 0.8987532801416368 0 0.36493375430404612 0.82333914183704071 0 0.42880856207355889 0.86677159981903118 0 0.36493375430404612 0.82333914183704071 0 0.42893012659725649 0.81084715169569632 0 0.39382242252278338 0.95440420122950598 0 0.37746652222901839 0.8987532801416368 0 0.42822627495986648 0.92083108049218854 0 0.42822627495986648 0.92083108049218854 0 0.37746652222901839 0.8987532801416368 0 0.42880856207355889 0.86677159981903118 0 0.46100207326614928 0.89524736819256467 0 0.42880856207355889 0.86677159981903118 0 0.47032448519202857 0.86718057681700655 0 0.42822627495986648 0.92083108049218854 0 0.42880856207355889 0.86677159981903118 0 0.46100207326614928 0.89524736819256467 0 0.5 0.88235294117647056 0 0.46100207326614928 0.89524736819256467 0 0.47032448519202857 0.86718057681700655 0 0.5 0.88235294117647056 0 0.5 0.91176470588235292 0 0.46100207326614928 0.89524736819256467 0 0.46100207326614928 0.89524736819256467 0 0.5 0.91176470588235292 0 0.46949408183482899 0.92833826413560594 0 0.5 0.91176470588235292 0 0.5 0.94117647058823528 0 0.46949408183482899 0.92833826413560594 0 0.42822627495986648 0.92083108049218854 0 0.46100207326614928 0.89524736819256467 0 0.46949408183482899 0.92833826413560594 0 0.44768478605684647 0.9646709673379662 0 0.46949408183482899 0.92833826413560594 0 0.47596308696979028 0.95620709615192379 0 0.44768478605684647 0.9646709673379662 0 0.42822627495986648 0.92083108049218854 0 0.46949408183482899 0.92833826413560594 0 0.44768478605684647 0.9646709673379662 0 0.47596308696979028 0.95620709615192379 0 0.47818194888216242 0.97829325975680159 0 0.46949408183482899 0.92833826413560594 0 0.5 0.94117647058823528 0 0.47596308696979028 0.95620709615192379 0 0.47596308696979028 0.95620709615192379 0 0.5 0.97058823529411764 0 0.47818194888216242 0.97829325975680159 0 0.5 0.94117647058823528 0 0.5 0.97058823529411764 0 0.47596308696979028 0.95620709615192379 0 0.5 1 0 0.46726187138417491 1 0 0.47818194888216242 0.97829325975680159 0 0.5 0.97058823529411764 0 0.5 1 0 0.47818194888216242 0.97829325975680159 0 0.46726187138417491 1 0 0.44768478605684647 0.9646709673379662 0 0.47818194888216242 0.97829325975680159 0 0.46726187138417491 1 0 0.42231823435723009 1 0 0.44768478605684647 0.9646709673379662 0 0.44768478605684647 0.9646709673379662 0 0.42231823435723009 1 0 0.39382242252278338 0.95440420122950598 0 0.44768478605684647 0.9646709673379662 0 0.39382242252278338 0.95440420122950598 0 0.42822627495986648 0.92083108049218854 0 0.42231823435723009 1 0 0.36061858902161292 1 0 0.39382242252278338 0.95440420122950598 0 0.31771010312359771 0.58585679504088894 0 0.41980724897053312 0.55867199730355355 0 0.3872154068451229 0.6301386882447304 0 0.32540781287085369 0.49175159894608172 0 0.41980724897053312 0.55867199730355355 0 0.31771010312359771 0.58585679504088894 0 0.32540781287085369 0.49175159894608172 0 0.31771010312359771 0.58585679504088894 0 0.22453074737734591 0.51613635929252633 0 0.18442368612951149 0.62734948407416979 0 0.31771010312359771 0.58585679504088894 0 0.31346558946927339 0.67110784456164874 0 0.31346558946927339 0.67110784456164874 0 0.32984265945580837 0.74432890077789404 0 0.22727208279115291 0.72949159435386135 0 0.39746869305290999 0.7595658224757349 0 0.32984265945580837 0.74432890077789404 0 0.38513711431054509 0.69312683393047636 0 0.38513711431054509 0.69312683393047636 0 0.32984265945580837 0.74432890077789404 0 0.31346558946927339 0.67110784456164874 0 0.31771010312359771 0.58585679504088894 0 0.3872154068451229 0.6301386882447304 0 0.31346558946927339 0.67110784456164874 0 0.3872154068451229 0.6301386882447304 0 0.38513711431054509 0.69312683393047636 0 0.31346558946927339 0.67110784456164874 0 0.4390556798454946 0.66199025953586599 0 0.38513711431054509 0.69312683393047636 0 0.3872154068451229 0.6301386882447304 0 0.4390556798454946 0.66199025953586599 0 0.3872154068451229 0.6301386882447304 0 0.44702869549010399 0.61002701911053991 0 0.39746869305290999 0.7595658224757349 0 0.38513711431054509 0.69312683393047636 0 0.43412357948152142 0.72128778687215156 0 0.43412357948152142 0.72128778687215156 0 0.38513711431054509 0.69312683393047636 0 0.4390556798454946 0.66199025953586599 0 0.43412357948152142 0.72128778687215156 0 0.47636314644728822 0.72058823529411908 0 0.47220206448452873 0.74892462649306213 0 0.44651949253391748 0.77225997208621999 0 0.43412357948152142 0.72128778687215156 0 0.47220206448452873 0.74892462649306213 0 0.43412357948152142 0.72128778687215156 0 0.4390556798454946 0.66199025953586599 0 0.46330219403010409 0.69594601192744354 0 0.43412357948152142 0.72128778687215156 0 0.46330219403010409 0.69594601192744354 0 0.47636314644728822 0.72058823529411908 0 0.46330219403010409 0.69594601192744354 0 0.5 0.70588235294117663 0 0.47636314644728822 0.72058823529411908 0 0.5 0.67647058823529438 0 0.5 0.70588235294117663 0 0.46330219403010409 0.69594601192744354 0 0.5 0.70588235294117663 0 0.5 0.73529411764705888 0 0.47636314644728822 0.72058823529411908 0 0.5 0.73529411764705888 0 0.5 0.76470588235294124 0 0.47220206448452873 0.74892462649306213 0 0.47636314644728822 0.72058823529411908 0 0.5 0.73529411764705888 0 0.47220206448452873 0.74892462649306213 0 0.4390556798454946 0.66199025953586599 0 0.47271076880550111 0.63357150722538136 0 0.47501372853621993 0.66300743809067952 0 0.4390556798454946 0.66199025953586599 0 0.44702869549010399 0.61002701911053991 0 0.47271076880550111 0.63357150722538136 0 0.46330219403010409 0.69594601192744354 0 0.4390556798454946 0.66199025953586599 0 0.47501372853621993 0.66300743809067952 0 0.5 0.67647058823529438 0 0.46330219403010409 0.69594601192744354 0 0.47501372853621993 0.66300743809067952 0 0.5 0.64705882352941191 0 0.5 0.67647058823529438 0 0.47501372853621993 0.66300743809067952 0 0.47271076880550111 0.63357150722538136 0 0.5 0.64705882352941191 0 0.47501372853621993 0.66300743809067952 0 0.5 0.61764705882352966 0 0.5 0.64705882352941191 0 0.47271076880550111 0.63357150722538136 0 0.5 0.5882352941176473 0 0.5 0.61764705882352966 0 0.47784843225772261 0.60532339797118362 0 0.5 0.61764705882352966 0 0.47271076880550111 0.63357150722538136 0 0.47784843225772261 0.60532339797118362 0 0.5 0.55882352941176494 0 0.5 0.5882352941176473 0 0.46950269699300751 0.57713611057881953 0 0.46950269699300751 0.57713611057881953 0 0.5 0.5882352941176473 0 0.47784843225772261 0.60532339797118362 0 0.44702869549010399 0.61002701911053991 0 0.41980724897053312 0.55867199730355355 0 0.46950269699300751 0.57713611057881953 0 0.44702869549010399 0.61002701911053991 0 0.46950269699300751 0.57713611057881953 0 0.47784843225772261 0.60532339797118362 0 0.47271076880550111 0.63357150722538136 0 0.44702869549010399 0.61002701911053991 0 0.47784843225772261 0.60532339797118362 0 0.3872154068451229 0.6301386882447304 0 0.41980724897053312 0.55867199730355355 0 0.44702869549010399 0.61002701911053991 0 0.32540781287085369 0.49175159894608172 0 0.41576443813007791 0.48093483781626972 0 0.41980724897053312 0.55867199730355355 0 0.41576443813007791 0.48093483781626972 0 0.4638583922372429 0.51470588235294135 0 0.41980724897053312 0.55867199730355355 0 0.41980724897053312 0.55867199730355355 0 0.4638583922372429 0.51470588235294135 0 0.47063366764015668 0.5477498568705923 0 0.46950269699300751 0.57713611057881953 0 0.41980724897053312 0.55867199730355355 0 0.47063366764015668 0.5477498568705923 0 0.5 0.55882352941176494 0 0.46950269699300751 0.57713611057881953 0 0.47063366764015668 0.5477498568705923 0 0.5 0.52941176470588269 0 0.5 0.55882352941176494 0 0.47063366764015668 0.5477498568705923 0 0.4638583922372429 0.51470588235294135 0 0.5 0.52941176470588269 0 0.47063366764015668 0.5477498568705923 0 0.5 0.5 0 0.5 0.52941176470588269 0 0.4638583922372429 0.51470588235294135 0 0.52820848765230954 0.54540076010342464 0 0.5 0.52941176470588269 0 0.52629893369322589 0.51330452493555312 0 0.5 0.52941176470588269 0 0.5 0.5 0 0.52629893369322589 0.51330452493555312 0 0.5 0.52941176470588269 0 0.5 0.5 0 0.5 0.55882352941176494 0 0.5 0.52941176470588269 0 0.52820848765230954 0.54540076010342464 0 0.5 0.55882352941176494 0 0.5 0.52941176470588269 0 0.52246722155046366 0.57417151085839346 0 0.5 0.55882352941176494 0 0.52820848765230954 0.54540076010342464 0 0.56199650931215228 0.51957997397013023 0 0.55931585964581554 0.57571189932143541 0 0.52820848765230954 0.54540076010342464 0 0.54128967150166729 0.47213012589832831 0 0.56199650931215228 0.51957997397013023 0 0.52629893369322589 0.51330452493555312 0 0.56199650931215228 0.51957997397013023 0 0.52820848765230954 0.54540076010342464 0 0.52629893369322589 0.51330452493555312 0 0.61174067805461174 0.54148194547208961 0 0.56199650931215228 0.51957997397013023 0 0.60345082206666756 0.47575908627627911 0 0.61174067805461174 0.54148194547208961 0 0.55931585964581554 0.57571189932143541 0 0.56199650931215228 0.51957997397013023 0 0.61264973759093866 0.60999664295093947 0 0.55931585964581554 0.57571189932143541 0 0.61174067805461174 0.54148194547208961 0 0.61264973759093866 0.60999664295093947 0 0.55828304378107996 0.63546085023637511 0 0.55931585964581554 0.57571189932143541 0 0.55931585964581554 0.57571189932143541 0 0.55828304378107996 0.63546085023637511 0 0.52754891270107895 0.60396918438229519 0 0.55828304378107996 0.63546085023637511 0 0.52222323737415433 0.63323059203007803 0 0.52754891270107895 0.60396918438229519 0 0.55931585964581554 0.57571189932143541 0 0.52246722155046366 0.57417151085839346 0 0.52820848765230954 0.54540076010342464 0 0.55931585964581554 0.57571189932143541 0 0.52754891270107895 0.60396918438229519 0 0.52246722155046366 0.57417151085839346 0 0.52754891270107895 0.60396918438229519 0 0.5 0.5882352941176473 0 0.52246722155046366 0.57417151085839346 0 0.5 0.5882352941176473 0 0.5 0.55882352941176494 0 0.52246722155046366 0.57417151085839346 0 0.5 0.5882352941176473 0 0.5 0.55882352941176494 0 0.52222323737415433 0.63323059203007803 0 0.5 0.61764705882352966 0 0.52754891270107895 0.60396918438229519 0 0.5 0.61764705882352966 0 0.5 0.5882352941176473 0 0.5 0.61764705882352966 0 0.5 0.5882352941176473 0 0.52754891270107895 0.60396918438229519 0 0.5 0.64705882352941191 0 0.5 0.61764705882352966 0 0.52222323737415433 0.63323059203007803 0 0.5 0.64705882352941191 0 0.5 0.61764705882352966 0 0.52736180768426655 0.66304505109048573 0 0.5 0.64705882352941191 0 0.52222323737415433 0.63323059203007803 0 0.5 0.67647058823529438 0 0.5 0.64705882352941191 0 0.52736180768426655 0.66304505109048573 0 0.5 0.67647058823529438 0 0.5 0.64705882352941191 0 0.52189318962165776 0.69193883095305098 0 0.5 0.67647058823529438 0 0.52736180768426655 0.66304505109048573 0 0.55852327729743823 0.69498827241231187 0 0.52189318962165776 0.69193883095305098 0 0.52736180768426655 0.66304505109048573 0 0.55828304378107996 0.63546085023637511 0 0.55852327729743823 0.69498827241231187 0 0.52736180768426655 0.66304505109048573 0 0.55828304378107996 0.63546085023637511 0 0.52736180768426655 0.66304505109048573 0 0.52222323737415433 0.63323059203007803 0 0.5 0.73529411764705888 0 0.52547133540542634 0.72058823529411897 0 0.5211984712236245 0.75134107022269114 0 0.5 0.73529411764705888 0 0.5 0.70588235294117663 0 0.52547133540542634 0.72058823529411897 0 0.5 0.73529411764705888 0 0.5 0.70588235294117663 0 0.5 0.70588235294117663 0 0.52189318962165776 0.69193883095305098 0 0.52547133540542634 0.72058823529411897 0 0.5 0.70588235294117663 0 0.5 0.67647058823529438 0 0.52189318962165776 0.69193883095305098 0 0.5 0.70588235294117663 0 0.5 0.67647058823529438 0 0.52189318962165776 0.69193883095305098 0 0.55852327729743823 0.69498827241231187 0 0.52547133540542634 0.72058823529411897 0 0.52547133540542634 0.72058823529411897 0 0.55458114032207428 0.75544804615062711 0 0.5211984712236245 0.75134107022269114 0 0.55852327729743823 0.69498827241231187 0 0.55458114032207428 0.75544804615062711 0 0.52547133540542634 0.72058823529411897 0 0.6088970477846376 0.72715446211577472 0 0.55458114032207428 0.75544804615062711 0 0.55852327729743823 0.69498827241231187 0 0.6088970477846376 0.72715446211577472 0 0.55852327729743823 0.69498827241231187 0 0.60110770968787908 0.67045598539422102 0 0.60110770968787908 0.67045598539422102 0 0.55828304378107996 0.63546085023637511 0 0.61264973759093866 0.60999664295093947 0 0.60110770968787908 0.67045598539422102 0 0.55852327729743823 0.69498827241231187 0 0.55828304378107996 0.63546085023637511 0 0.66621429167335955 0.68470300534742679 0 0.60110770968787908 0.67045598539422102 0 0.61264973759093866 0.60999664295093947 0 0.6088970477846376 0.72715446211577472 0 0.66621429167335955 0.68470300534742679 0 0.6817340940367822 0.76923101696744944 0 0.66621429167335955 0.68470300534742679 0 0.6088970477846376 0.72715446211577472 0 0.60110770968787908 0.67045598539422102 0 0.6817340940367822 0.76923101696744944 0 0.66621429167335955 0.68470300534742679 0 0.7828103453665094 0.69876044407634474 0 0.66621429167335955 0.68470300534742679 0 0.69354174170208815 0.57892485983477626 0 0.7828103453665094 0.69876044407634474 0 0.69354174170208815 0.57892485983477626 0 0.66681557370681976 0.49435464945626773 0 0.77935529174931761 0.49004815756283893 0 0.61174067805461174 0.54148194547208961 0 0.66681557370681976 0.49435464945626773 0 0.69354174170208815 0.57892485983477626 0 0.66681557370681976 0.49435464945626773 0 0.61174067805461174 0.54148194547208961 0 0.60345082206666756 0.47575908627627911 0 0.61264973759093866 0.60999664295093947 0 0.61174067805461174 0.54148194547208961 0 0.69354174170208815 0.57892485983477626 0 0.66621429167335955 0.68470300534742679 0 0.61264973759093866 0.60999664295093947 0 0.69354174170208815 0.57892485983477626 0 0.63938141097836054 1 0 0.57768176564240026 1 0 0.60145933092659498 0.94808652648958736 0 0.60145933092659498 0.94808652648958736 0 0.55381003699196441 0.97073734537240042 0 0.55652711631508067 0.93435010280744335 0 0.57768176564240026 1 0 0.55381003699196441 0.97073734537240042 0 0.60145933092659498 0.94808652648958736 0 0.57768176564240026 1 0 0.53273812861558045 1 0 0.55381003699196441 0.97073734537240042 0 0.55381003699196441 0.97073734537240042 0 0.53273812861558045 1 0 0.52191028766292435 0.97912620202886635 0 0.53273812861558045 1 0 0.5 1 0 0.52191028766292435 0.97912620202886635 0 0.5 1 0 0.5 0.97058823529411764 0 0.52191028766292435 0.97912620202886635 0 0.5 1 0 0.5 0.97058823529411764 0 0.5 0.97058823529411764 0 0.5 0.94117647058823528 0 0.5 0.97058823529411764 0 0.5 0.94117647058823528 0 0.52554900427979434 0.95492408164812537 0 0.5 0.97058823529411764 0 0.52554900427979434 0.95492408164812537 0 0.52191028766292435 0.97912620202886635 0 0.5 0.94117647058823528 0 0.52149395742518578 0.9280464911497236 0 0.52554900427979434 0.95492408164812537 0 0.55381003699196441 0.97073734537240042 0 0.52554900427979434 0.95492408164812537 0 0.55652711631508067 0.93435010280744335 0 0.52554900427979434 0.95492408164812537 0 0.55381003699196441 0.97073734537240042 0 0.52191028766292435 0.97912620202886635 0 0.52554900427979434 0.95492408164812537 0 0.52149395742518578 0.9280464911497236 0 0.55652711631508067 0.93435010280744335 0 0.52982914238326484 0.89727189043838895 0 0.57507719038536997 0.89743529736491356 0 0.55652711631508067 0.93435010280744335 0 0.52149395742518578 0.9280464911497236 0 0.52982914238326484 0.89727189043838895 0 0.55652711631508067 0.93435010280744335 0 0.52149395742518578 0.9280464911497236 0 0.5 0.91176470588235292 0 0.52982914238326484 0.89727189043838895 0 0.5 0.94117647058823528 0 0.5 0.91176470588235292 0 0.5 0.94117647058823528 0 0.5 0.91176470588235292 0 0.52149395742518578 0.9280464911497236 0 0.5 0.91176470588235292 0 0.5 0.88235294117647056 0 0.52982914238326484 0.89727189043838895 0 0.5 0.91176470588235292 0 0.5 0.88235294117647056 0 0.52982914238326484 0.89727189043838895 0 0.5 0.88235294117647056 0 0.51991574276818808 0.86764705882352966 0 0.54799184932697576 0.8599032232094268 0 0.57507719038536997 0.89743529736491356 0 0.52982914238326484 0.89727189043838895 0 0.57507719038536997 0.89743529736491356 0 0.60145933092659498 0.94808652648958736 0 0.55652711631508067 0.93435010280744335 0 0.63427031498547037 0.88927276979110648 0 0.60145933092659498 0.94808652648958736 0 0.57507719038536997 0.89743529736491356 0 0.63427031498547037 0.88927276979110648 0 0.57507719038536997 0.89743529736491356 0 0.58994607995897996 0.84812355238296233 0 0.63427031498547037 0.88927276979110648 0 0.58994607995897996 0.84812355238296233 0 0.64153141236229239 0.83072478436463804 0 0.64153141236229239 0.83072478436463804 0 0.58994607995897996 0.84812355238296233 0 0.60049020024666178 0.78900583008989877 0 0.55206941203846505 0.81091931303809783 0 0.58994607995897996 0.84812355238296233 0 0.54799184932697576 0.8599032232094268 0 0.60049020024666178 0.78900583008989877 0 0.58994607995897996 0.84812355238296233 0 0.55206941203846505 0.81091931303809783 0 0.58994607995897996 0.84812355238296233 0 0.57507719038536997 0.89743529736491356 0 0.54799184932697576 0.8599032232094268 0 0.54799184932697576 0.8599032232094268 0 0.52982914238326484 0.89727189043838895 0 0.51991574276818808 0.86764705882352966 0 0.52395085592512047 0.83729395211968571 0 0.54799184932697576 0.8599032232094268 0 0.51991574276818808 0.86764705882352966 0 0.5 0.85294117647058831 0 0.52395085592512047 0.83729395211968571 0 0.51991574276818808 0.86764705882352966 0 0.5 0.88235294117647056 0 0.5 0.85294117647058831 0 0.5 0.88235294117647056 0 0.5 0.85294117647058831 0 0.51991574276818808 0.86764705882352966 0 0.52395085592512047 0.83729395211968571 0 0.5 0.82352941176470584 0 0.52039202967084142 0.80930587873000437 0 0.5 0.85294117647058831 0 0.5 0.82352941176470584 0 0.5 0.85294117647058831 0 0.5 0.82352941176470584 0 0.52395085592512047 0.83729395211968571 0 0.55206941203846505 0.81091931303809783 0 0.52395085592512047 0.83729395211968571 0 0.52039202967084142 0.80930587873000437 0 0.55206941203846505 0.81091931303809783 0 0.54799184932697576 0.8599032232094268 0 0.52395085592512047 0.83729395211968571 0 0.52593988039062167 0.78066906966870908 0 0.55206941203846505 0.81091931303809783 0 0.52039202967084142 0.80930587873000437 0 0.55458114032207428 0.75544804615062711 0 0.55206941203846505 0.81091931303809783 0 0.52593988039062167 0.78066906966870908 0 0.5 0.79411764705882359 0 0.52593988039062167 0.78066906966870908 0 0.52039202967084142 0.80930587873000437 0 0.5 0.82352941176470584 0 0.5 0.79411764705882359 0 0.5 0.82352941176470584 0 0.5 0.79411764705882359 0 0.52039202967084142 0.80930587873000437 0 0.5 0.76470588235294124 0 0.5 0.73529411764705888 0 0.5 0.76470588235294124 0 0.5 0.73529411764705888 0 0.5211984712236245 0.75134107022269114 0 0.5 0.79411764705882359 0 0.5 0.76470588235294124 0 0.52593988039062167 0.78066906966870908 0 0.5 0.79411764705882359 0 0.5 0.76470588235294124 0 0.52593988039062167 0.78066906966870908 0 0.5 0.76470588235294124 0 0.5211984712236245 0.75134107022269114 0 0.55458114032207428 0.75544804615062711 0 0.52593988039062167 0.78066906966870908 0 0.5211984712236245 0.75134107022269114 0 0.60049020024666178 0.78900583008989877 0 0.55458114032207428 0.75544804615062711 0 0.6088970477846376 0.72715446211577472 0 0.60049020024666178 0.78900583008989877 0 0.55206941203846505 0.81091931303809783 0 0.55458114032207428 0.75544804615062711 0 0.6817340940367822 0.76923101696744944 0 0.80987878298654392 0.8110307373443908 0 0.70916369539323409 0.86041409043207073 0 0.60049020024666178 0.78900583008989877 0 0.6088970477846376 0.72715446211577472 0 0.6817340940367822 0.76923101696744944 0 0.64153141236229239 0.83072478436463804 0 0.60049020024666178 0.78900583008989877 0 0.6817340940367822 0.76923101696744944 0 0.63427031498547037 0.88927276979110648 0 0.64153141236229239 0.83072478436463804 0 0.70916369539323409 0.86041409043207073 0 0.64153141236229239 0.83072478436463804 0 0.6817340940367822 0.76923101696744944 0 0.70916369539323409 0.86041409043207073 0 0.68173274398262862 0.93660593960145366 0 0.63427031498547037 0.88927276979110648 0 0.70916369539323409 0.86041409043207073 0 0.68173274398262862 0.93660593960145366 0 0.60145933092659498 0.94808652648958736 0 0.63427031498547037 0.88927276979110648 0 0.78222494485339233 0.91531439423588867 0 0.68173274398262862 0.93660593960145366 0 0.70916369539323409 0.86041409043207073 0 0.72408407698689681 1 0 0.68173274398262862 0.93660593960145366 0 0.78222494485339233 0.91531439423588867 0 0.68173274398262862 0.93660593960145366 0 0.63938141097836054 1 0 0.60145933092659498 0.94808652648958736 0 0.72408407698689681 1 0 0.63938141097836054 1 0 0.68173274398262862 0.93660593960145366 0 1 0.74999999999934008 0 1 1 0 0.89611933618281592 0.89173516444576184 0 0.84036581271988753 1 0 0.72408407698689681 1 0 0.78222494485339233 0.91531439423588867 0 0.84036581271988753 1 0 0.78222494485339233 0.91531439423588867 0 0.89611933618281592 0.89173516444576184 0 0.80987878298654392 0.8110307373443908 0 0.6817340940367822 0.76923101696744944 0 0.7828103453665094 0.69876044407634474 0 1 0.74999999999934008 0 0.80987878298654392 0.8110307373443908 0 0.7828103453665094 0.69876044407634474 0 0.78222494485339233 0.91531439423588867 0 0.80987878298654392 0.8110307373443908 0 0.89611933618281592 0.89173516444576184 0 0.80987878298654392 0.8110307373443908 0 0.78222494485339233 0.91531439423588867 0 0.70916369539323409 0.86041409043207073 0 0.80987878298654392 0.8110307373443908 0 1 0.74999999999934008 0 0.89611933618281592 0.89173516444576184 0 1 1 0 0.84036581271988753 1 0 0.89611933618281592 0.89173516444576184 0 1 0.49999999999869182 0 1 0.74999999999934008 0 0.84549316180028322 0.59867304496468476 0 0.84549316180028322 0.59867304496468476 0 0.69354174170208815 0.57892485983477626 0 0.77935529174931761 0.49004815756283893 0 1 0.49999999999869182 0 0.84549316180028322 0.59867304496468476 0 0.77935529174931761 0.49004815756283893 0 0.69354174170208815 0.57892485983477626 0 0.84549316180028322 0.59867304496468476 0 0.7828103453665094 0.69876044407634474 0 0.84549316180028322 0.59867304496468476 0 1 0.74999999999934008 0 0.7828103453665094 0.69876044407634474 0 0.80451351819826811 0.35479918680564199 0 1 0.49999999999869182 0 0.77935529174931761 0.49004815756283893 0 1 0.24999999999941089 0 0.80451351819826811 0.35479918680564199 0 0.79923457477009219 0.1751534052300894 0 1 0.24999999999941089 0 1 0.49999999999869182 0 0.80451351819826811 0.35479918680564199 0 0.74999999999934008 0 0 1 0 0 0.79923457477009219 0.1751534052300894 0 1 0 0 1 0.24999999999941089 0 0.79923457477009219 0.1751534052300894 0 0.49999999999869182 0 0 0.74999999999934008 0 0 0.62537763927714929 0.14286513648320209 0 0.62537763927714929 0.14286513648320209 0 0.79923457477009219 0.1751534052300894 0 0.6197279975813802 0.30020319976287241 0 0.62537763927714929 0.14286513648320209 0 0.74999999999934008 0 0 0.79923457477009219 0.1751534052300894 0 0.49999999999869182 0 0 0.62537763927714929 0.14286513648320209 0 0.49924741621175961 0.21507969613896921 0 0.62537763927714929 0.14286513648320209 0 0.6197279975813802 0.30020319976287241 0 0.49924741621175961 0.21507969613896921 0 0.6197279975813802 0.30020319976287241 0 0.49435464945626773 0.33318442629318029 0 0.49924741621175961 0.21507969613896921 0 0.54876010062294855 0.39662628167175101 0 0.49435464945626773 0.33318442629318029 0 0.6197279975813802 0.30020319976287241 0 0.66576775508844777 0.41353720431697111 0 0.54876010062294855 0.39662628167175101 0 0.6197279975813802 0.30020319976287241 0 0.49954900152271581 0.45107191084564019 0 0.45418244162583959 0.41624787166862259 0 0.54876010062294855 0.39662628167175101 0 0.54128967150166729 0.47213012589832831 0 0.49954900152271581 0.45107191084564019 0 0.54876010062294855 0.39662628167175101 0 0.54128967150166729 0.47213012589832831 0 0.5 0.5 0 0.49954900152271581 0.45107191084564019 0 0.5 0.5 0 0.54128967150166729 0.47213012589832831 0 0.52629893369322589 0.51330452493555312 0 0.60345082206666756 0.47575908627627911 0 0.54128967150166729 0.47213012589832831 0 0.54876010062294855 0.39662628167175101 0 0.60345082206666756 0.47575908627627911 0 0.56199650931215228 0.51957997397013023 0 0.54128967150166729 0.47213012589832831 0 0.66576775508844777 0.41353720431697111 0 0.60345082206666756 0.47575908627627911 0 0.54876010062294855 0.39662628167175101 0 0.66576775508844777 0.41353720431697111 0 0.80451351819826811 0.35479918680564199 0 0.77935529174931761 0.49004815756283893 0 0.66681557370681976 0.49435464945626773 0 0.60345082206666756 0.47575908627627911 0 0.66576775508844777 0.41353720431697111 0 0.66681557370681976 0.49435464945626773 0 0.66576775508844777 0.41353720431697111 0 0.77935529174931761 0.49004815756283893 0 0.79923457477009219 0.1751534052300894 0 0.80451351819826811 0.35479918680564199 0 0.6197279975813802 0.30020319976287241 0 0.80451351819826811 0.35479918680564199 0 0.66576775508844777 0.41353720431697111 0 0.6197279975813802 0.30020319976287241 0 
</DataArray>
</Points>
<Cells>
<DataArray type="UInt32" Name="connectivity" format="ascii">
0 1 2 3 4 5 6 7 8 9 10 11 12 13 14 15 16 17 18 19 20 21 22 23 24 25 26 27 28 29 30 31 32 33 34 35 36 37 38 39 40 41 42 43 44 45 46 47 48 49 50 51 52 53 54 55 56 57 58 59 60 61 62 63 64 65 66 67 68 69 70 71 72 73 74 75 76 77 78 79 80 81 82 83 84 85 86 87 88 89 90 91 92 93 94 95 96 97 98 99 100 101 102 103 104 105 106 107 108 109 110 111 112 113 114 115 116 117 118 119 120 121 122 123 124 125 126 127 128 129 130 131 132 133 134 135 136 137 138 139 140 141 142 143 144 145 146 147 148 149 150 151 152 153 154 155 156 157 158 159 160 161 162 163 164 165 166 167 168 169 170 171 172 173 174 175 176 177 178 179 180 181 182 183 184 185 186 187 188 189 190 191 192 193 194 195 196 197 198 199 200 201 202 203 204 205 206 207 208 209 210 211 212 213 214 215 216 217 218 219 220 221 222 223 224 225 226 227 228 229 230 231 232 233 234 235 236 237 238 239 240 241 242 243 244 245 246 247 248 249 250 251 252 253 254 255 256 257 258 259 260 261 262 263 264 265 266 267 268 269 270 271 272 273 274 275 276 277 278 279 280 281 282 283 284 285 286 287 288 289 290 291 292 293 294 295 296 297 298 299 300 301 302 303 304 305 306 307 308 309 310 311 312 313 314 315 316 317 318 319 320 321 322 323 324 325 326 327 328 329 330 331 332 333 334 335 336 337 338 339 340 341 342 343 344 345 346 347 348 349 350 351 352 353 354 355 356 357 358 359 360 361 362 363 364 365 366 367 368 369 370 371 372 373 374 375 376 377 378 379 380 381 382 383 384 385 386 387 388 389 390 391 392 393 394 395 396 397 398 399 400 401 402 403 404 405 406 407 408 409 410 411 412 413 414 415 416 417 418 419 420 421 422 423 424 425 426 427 428 429 430 431 432 433 434 435 436 437 438 439 440 441 442 443 444 445 446 447 448 449 450 451 452 453 454 455 456 457 458 459 460 461 462 463 464 465 466 467 468 469 470 471 472 473 474 475 476 477 478 479 480 481 482 483 484 485 486 487 488 489 490 491 492 493 494 495 496 497 498 499 500 501 502 503 504 505 506 507 508 509 510 511 512 513 514 515 516 517 518 519 520 521 522 523 524 525 526 527 528 529 530 531 532 533 534 535 536 537 538 539 540 541 542 543 544 545 546 547 548 549 550 551 552 553 554 555 556 557 558 559 560 561 562 563 564 565 566 567 568 569 570 571 572 573 574 575 576 577 578 579 580 581 582 583 584 585 586 587 588 589 590 591 592 593 594 595 596 597 598 599 600 601 602 603 604 605 606 607 608 609 610 611 612 613 614 615 616 617 618 619 620 621 622 623 624 625 626 627 628 629 630 631 632 633 634 635 636 637 638 639 640 641 642 643 644 645 646 647 648 649 650 651 652 653 654 655 656 657 658 659 660 661 662 663 664 665 666 667 668 669 670 671 672 673 674 675 676 677 678 679 680 681 682 683 684 685 686 687 688 689 690 691 692 693 694 695 696 697 698 699 700 701 702 703 704 705 706 707 708 709 710 711 712 713 714 715 716 717 718 719 720 721 722 723 724 725 726 727 728 729 730 731 732 733 734 735 736 737 738 739 740 741 742 743 744 745 746 747 748 749 750 751 752 753 754 755 756 757 758 759 760 761 762 763 764 765 766 767 768 769 770 771 772 773 774 775 776 777 778 779 780 781 782 783 784 785 786 787 788 789 790 791 792 793 794 795 796 797 798 799 800 801 802 803 804 805 806 807 808 809 810 811 812 813 814 815 816 817 818 819 820 821 822 823 824 825 826 827 828 829 830 831 832 833 834 835 836 837 838 839 840 841 842 843 844 845 846 847 848 849 850 851 852 853 854 855 856 857 858 859 860 861 862 863 864 865 866 867 868 869 870 871 872 873 874 875 876 877 878 879 
</DataArray>
<DataArray type="UInt32" Name="offsets" format="ascii">
3 6 9 12 15 18 21 24 27 30 33 36 39 42 45 48 51 54 57 60 63 66 69 72 75 78 81 84 87 90 93 96 99 102 105 108 111 114 117 120 123 126 129 132 135 138 141 144 147 150 153 156 159 162 165 168 171 174 177 180 183 186 189 192 195 198 201 204 207 210 213 216 219 222 225 228 231 234 237 240 243 246 249 252 255 258 261 264 267 270 273 276 279 282 285 288 291 294 297 300 303 306 309 312 315 318 321 324 327 330 333 336 339 342 345 348 351 354 357 360 363 366 369 372 375 378 381 384 387 390 393 396 399 402 405 408 411 414 417 420 423 425 428 430 433 436 439 442 445 448 451 454 457 460 463 466 469 472 474 477 479 482 485 487 490 493 495 498 501 504 507 510 513 515 518 521 523 526 529 532 535 538 541 544 547 550 553 556 559 562 565 568 571 574 577 580 583 586 589 592 595 597 599 602 605 608 611 614 617 620 623 626 628 631 634 636 639 642 645 648 651 654 657 660 663 666 669 672 675 677 680 683 685 688 691 694 697 700 703 705 708 710 713 716 718 721 724 727 730 733 736 739 742 745 748 751 754 757 760 763 766 769 772 775 778 781 784 787 790 793 796 799 802 805 808 811 814 817 820 823 826 829 832 835 838 841 844 847 850 853 856 859 862 865 868 871 874 877 880 
</DataArray>
<DataArray type="UInt32" Name="types" format="ascii">
5 5 5 5 5 5 5 5 5 5 5 5 5 5 5 5 5 5 5 5 5 5 5 5 5 5 5 5 5 5 5 5 5 5 5 5 5 5 5 5 5 5 5 5 5 5 5 5 5 5 5 5 5 5 5 5 5 5 5 5 5 5 5 5 5 5 5 5 5 5 5 5 5 5 5 5 5 5 5 5 5 5 5 5 5 5 5 5 5 5 5 5 5 5 5 5 5 5 5 5 5 5 5 5 5 5 5 5 5 5 5 5 5 5 5 5 5 5 5 5 5 5 5 5 5 5 5 5 5 5 5 5 5 5 5 5 5 5 5 5 5 3 5 3 5 5 5 5 5 5 5 5 5 5 5 5 5 5 3 5 3 5 5 3 5 5 3 5 5 5 5 5 5 3 5 5 3 5 5 5 5 5 5 5 5 5 5 5 5 5 5 5 5 5 5 5 5 5 5 5 5 3 3 5 5 5 5 5 5 5 5 5 3 5 5 3 5 5 5 5 5 5 5 5 5 5 5 5 5 3 5 5 3 5 5 5 5 5 5 3 5 3 5 5 3 5 5 5 5 5 5 5 5 5 5 5 5 5 5 5 5 5 5 5 5 5 5 5 5 5 5 5 5 5 5 5 5 5 5 5 5 5 5 5 5 5 5 5 5 5 5 5 5 5 5 5 5 5 5 
</DataArray>
</Cells>
<PointData Scalars="" Vectors="displacement," Tensors="">
<DataArray type="Float64" Name="displacement" NumberOfComponents="3" format="ascii">
3.2845160770619052e-12 -1.3010510645591339e-11 0 -3.5081385050298101e-11 -1.3128284833508445e-11 0 -2.6739394332667039e-09 -2.936782110254224e-08 0 -3.5081385050298101e-11 -1.3128284833508445e-11 0 -1.0143610662852789e-08 -3.77438437786664e-08 0 -2.6739394332667039e-09 -2.936782110254224e-08 0 -1.0143610662852789e-08 -3.77438437786664e-08 0 1.0448944197489726e-11 -5.3881179971357371e-08 0 -2.8350647963421248e-09 -5.0112409861847031e-08 0 -1.0143610662852789e-08 -3.77438437786664e-08 0 -2.8350647963421248e-09 -5.0112409861847031e-08 0 -2.6739394332667039e-09 -2.936782110254224e-08 0 -2.8350647963421248e-09 -5.0112409861847031e-08 0 1.0448944197489726e-11 -5.3881179971357371e-08 0 4.5749469726306624e-10 -5.7402678101296734e-08 0 -2.7003005323283058e-09 -5.9510518546222346e-08 0 -2.8350647963421252e-09 -5.0112409861847031e-08 0 4.5749469726306624e-10 -5.7402678101296734e-08 0 -1.6136956670494685e-09 -6.9534399029037875e-08 0 -3.975864232198864e-09 -7.3608274403279779e-08 0 -3.9805658453920704e-09 -6.2658291039780692e-08 0 -2.7003005323283058e-09 -5.9510518546222346e-08 0 -1.6136956670494685e-09 -6.9534399029037875e-08 0 -3.9805658453920704e-09 -6.2658291039780692e-08 0 -1.6136956670494685e-09 -6.9534399029037875e-08 0 -1.8056469740329276e-09 -7.6459149251807828e-08 0 -3.975864232198864e-09 -7.3608274403279779e-08 0 -1.8056469740329276e-09 -7.6459149251807828e-08 0 -2.7610342020523224e-09 -8.1501817021429611e-08 0 -3.975864232198864e-09 -7.3608274403279779e-08 0 1.3904416089699658e-10 -7.3444474467807527e-08 0 -1.4266890893798435e-10 -7.9755369440908962e-08 0 -1.8056469740329276e-09 -7.6459149251807828e-08 0 -1.8056469740329276e-09 -7.6459149251807828e-08 0 -1.4266890893798466e-10 -7.9755369440908962e-08 0 -2.7610342020523224e-09 -8.1501817021429611e-08 0 1.3904416089699658e-10 -7.3444474467807527e-08 0 -1.8056469740329276e-09 -7.6459149251807828e-08 0 -1.6136956670494685e-09 -6.9534399029037875e-08 0 -1.6136956670494685e-09 -6.9534399029037875e-08 0 -1.6825233729716883e-10 -6.3559510648457763e-08 0 1.9630684439637688e-09 -6.7338593566988712e-08 0 -1.6825233729716883e-10 -6.3559510648457763e-08 0 -1.6136956670494685e-09 -6.9534399029037875e-08 0 -2.7003005323283058e-09 -5.9510518546222346e-08 0 -1.6825233729716883e-10 -6.3559510648457763e-08 0 -2.7003005323283058e-09 -5.9510518546222346e-08 0 4.5749469726306624e-10 -5.7402678101296734e-08 0 -2.8350647963421248e-09 -5.0112409861847031e-08 0 -2.7003005323283058e-09 -5.9510518546222346e-08 0 -4.0130868848797361e-09 -4.8446303089113031e-08 0 -2.7003005323283058e-09 -5.9510518546222346e-08 0 -3.9805658453920704e-09 -6.2658291039780692e-08 0 -4.0130868848797361e-09 -4.8446303089113031e-08 0 -2.6739394332667039e-09 -2.936782110254224e-08 0 -2.8350647963421248e-09 -5.0112409861847031e-08 0 -4.0130868848797361e-09 -4.8446303089113031e-08 0 -6.6900519036348143e-09 -6.1512728242447758e-08 0 -4.4330807767040917e-09 -3.2079286826483323e-08 0 -4.0130868848797361e-09 -4.8446303089113031e-08 0 -3.9805658453920704e-09 -6.2658291039780692e-08 0 -6.6900519036348143e-09 -6.1512728242447758e-08 0 -4.0130868848797361e-09 -4.8446303089113031e-08 0 -3.975864232198864e-09 -7.3608274403279779e-08 0 -6.6900519036348143e-09 -6.1512728242447758e-08 0 -3.9805658453920704e-09 -6.2658291039780692e-08 0 -1.1683773505522364e-11 -2.0653480734188086e-11 0 3.2845160770619052e-12 -1.3010510645591339e-11 0 -4.4330807767040917e-09 -3.2079286826483323e-08 0 -1.1683773505522364e-11 -2.0653480734188086e-11 0 -4.4330807767040917e-09 -3.2079286826483323e-08 0 -6.525203331742453e-09 -4.3462383406085629e-08 0 -4.4330807767040917e-09 -3.2079286826483323e-08 0 -6.6900519036348143e-09 -6.1512728242447758e-08 0 -6.525203331742453e-09 -4.3462383406085629e-08 0 -4.4330807767040917e-09 -3.2079286826483323e-08 0 -2.6739394332667039e-09 -2.936782110254224e-08 0 -4.0130868848797361e-09 -4.8446303089113031e-08 0 -4.4330807767040917e-09 -3.2079286826483323e-08 0 3.2845160770619052e-12 -1.3010510645591339e-11 0 -2.6739394332667039e-09 -2.936782110254224e-08 0 -4.3888337166966594e-12 1.3424283495255584e-12 0 -1.1683773505522364e-11 -2.0653480734188086e-11 0 -5.4527424993117302e-09 -3.6365548025005257e-08 0 -4.3888337166966594e-12 1.3424283495255584e-12 0 -5.4527424993117302e-09 -3.6365548025005257e-08 0 -2.8321155487558291e-09 -4.634611075598783e-08 0 -5.4527424993117302e-09 -3.6365548025005257e-08 0 -8.6614478880667842e-09 -7.250156628801387e-08 0 -2.8321155487558291e-09 -4.634611075598783e-08 0 -8.633354757485073e-09 -6.8024514915596095e-08 0 -5.4527424993117302e-09 -3.6365548025005257e-08 0 -6.525203331742453e-09 -4.3462383406085629e-08 0 -5.4527424993117302e-09 -3.6365548025005257e-08 0 -1.1683773505522435e-11 -2.0653480734188558e-11 0 -6.525203331742453e-09 -4.3462383406085629e-08 0 7.8266534250503009e-11 -2.1761954662152737e-11 0 -4.3888337166966594e-12 1.3424283495255584e-12 0 1.224555613213599e-08 -1.2929094345227721e-08 0 4.5300544192658977e-08 -3.4028160048322426e-08 0 7.8266534250503009e-11 -2.1761954662152737e-11 0 1.224555613213599e-08 -1.2929094345227721e-08 0 -4.3888337166966594e-12 1.3424283495255584e-12 0 6.8267929201061094e-09 -2.9340057837589028e-08 0 1.224555613213599e-08 -1.2929094345227721e-08 0 4.148273985067472e-08 -5.2259134030226412e-08 0 6.8267929201061094e-09 -2.9340057837589028e-08 0 6.2788198634239907e-09 -6.2954879207411695e-08 0 6.8267929201061094e-09 -2.9340057837589028e-08 0 -4.3888337166966594e-12 1.3424283495255584e-12 0 -2.8321155487558291e-09 -4.634611075598783e-08 0 6.8267929201061094e-09 -2.9340057837589028e-08 0 -2.8321155487558291e-09 -4.634611075598783e-08 0 6.2788198634239907e-09 -6.2954879207411695e-08 0 6.8267929201061094e-09 -2.9340057837589028e-08 0 4.148273985067472e-08 -5.2259134030226412e-08 0 1.224555613213599e-08 -1.2929094345227721e-08 0 4.148273985067472e-08 -5.2259134030226412e-08 0 4.5300544192658977e-08 -3.4028160048322426e-08 0 1.224555613213599e-08 -1.2929094345227721e-08 0 8.0091717750379082e-08 -7.1372425342370815e-08 0 4.5300544192658977e-08 -3.4028160048322426e-08 0 4.148273985067472e-08 -5.2259134030226412e-08 0 1.1423549665541848e-07 -1.1628751462212679e-07 0 8.0091717750379082e-08 -7.1372425342370815e-08 0 6.2951668576132534e-08 -9.1005295680924212e-08 0 1.1423549665541848e-07 -1.1628751462212679e-07 0 6.2951668576132534e-08 -9.1005295680924212e-08 0 8.2925154461594336e-08 -1.3826026637155297e-07 0 6.2951668576132534e-08 -9.1005295680924212e-08 0 8.0091717750379082e-08 -7.1372425342370815e-08 0 4.148273985067472e-08 -5.2259134030226412e-08 0 3.040135553621465e-08 -8.4566823745521646e-08 0 6.2951668576132534e-08 -9.1005295680924212e-08 0 4.148273985067472e-08 -5.2259134030226412e-08 0 8.2925154461594336e-08 -1.3826026637155297e-07 0 6.2951668576132534e-08 -9.1005295680924212e-08 0 3.8825195858144429e-08 -1.2261228014518319e-07 0 3.8825195858144429e-08 -1.2261228014518319e-07 0 6.2951668576132534e-08 -9.1005295680924212e-08 0 3.040135553621465e-08 -8.4566823745521646e-08 0 3.040135553621465e-08 -8.4566823745521646e-08 0 4.148273985067472e-08 -5.2259134030226412e-08 0 6.2788198634239907e-09 -6.2954879207411695e-08 0 3.8825195858144429e-08 -1.2261228014518319e-07 0 3.0401355536214643e-08 -8.4566823745521646e-08 0 8.5725309896699115e-09 -1.0769027414244946e-07 0 8.5725309896699115e-09 -1.0769027414244946e-07 0 3.040135553621465e-08 -8.4566823745521646e-08 0 6.2788198634239907e-09 -6.2954879207411695e-08 0 -2.8321155487558291e-09 -4.634611075598783e-08 0 -3.9567063329005813e-09 -8.4075898165853728e-08 0 6.2788198634239907e-09 -6.2954879207411695e-08 0 -3.9567063329005813e-09 -8.4075898165853728e-08 0 8.5725309896699115e-09 -1.0769027414244946e-07 0 6.2788198634239907e-09 -6.2954879207411695e-08 0 8.5725309896699115e-09 -1.0769027414244946e-07 0 -3.9567063329005829e-09 -8.4075898165853728e-08 0 -1.9978688089785938e-09 -1.1502426565127361e-07 0 7.7798587060059488e-09 -1.4484012810058673e-07 0 8.5725309896699115e-09 -1.0769027414244946e-07 0 -1.9978688089785938e-09 -1.1502426565127361e-07 0 3.3813553403215771e-09 -1.3981991919619482e-07 0 7.7798587060059488e-09 -1.4484012810058673e-07 0 -1.9978688089785938e-09 -1.1502426565127361e-07 0 3.3813553403215771e-09 -1.3981991919619482e-07 0 -1.9978688089785938e-09 -1.1502426565127361e-07 0 -3.106878820409016e-09 -1.1950759668224248e-07 0 3.3813553403215771e-09 -1.3981991919619482e-07 0 3.471701824130199e-09 -1.3956065222351201e-07 0 8.1779820957260899e-09 -1.529587097789912e-07 0 3.471701824130199e-09 -1.3956065222351201e-07 0 9.6459205830956381e-09 -1.5224592635741521e-07 0 8.1779820957260899e-09 -1.529587097789912e-07 0 9.6459205830956381e-09 -1.5224592635741521e-07 0 1.4150362340416054e-08 -1.671544983408478e-07 0 8.1779820957260899e-09 -1.529587097789912e-07 0 1.4150362340416054e-08 -1.671544983408478e-07 0 1.9901242856292733e-08 -1.8464314778479744e-07 0 1.1516668095026353e-08 -1.6388471035930232e-07 0 1.4150362340416054e-08 -1.671544983408478e-07 0 1.1516668095026353e-08 -1.6388471035930232e-07 0 8.1779820957260899e-09 -1.529587097789912e-07 0 1.1516668095026353e-08 -1.6388471035930232e-07 0 3.3813553403215763e-09 -1.3981991919619482e-07 0 8.1779820957260899e-09 -1.529587097789912e-07 0 1.1516668095026353e-08 -1.6388471035930232e-07 0 7.7798587060059488e-09 -1.4484012810058673e-07 0 3.3813553403215771e-09 -1.3981991919619482e-07 0 1.6659375484856791e-08 -1.7513135450670995e-07 0 7.7798587060059488e-09 -1.4484012810058673e-07 0 1.1516668095026353e-08 -1.6388471035930232e-07 0 2.2187799049670193e-08 -1.6135554086060266e-07 0 7.7798587060059488e-09 -1.4484012810058673e-07 0 1.6659375484856791e-08 -1.7513135450670995e-07 0 1.9901242856292733e-08 -1.8464314778479744e-07 0 2.9184783474805344e-08 -2.0482692790187914e-07 0 1.6659375484856791e-08 -1.7513135450670995e-07 0 1.9901242856292733e-08 -1.8464314778479744e-07 0 1.6659375484856791e-08 -1.7513135450670995e-07 0 1.1516668095026353e-08 -1.6388471035930232e-07 0 1.6659375484856791e-08 -1.7513135450670995e-07 0 2.9184783474805344e-08 -2.0482692790187914e-07 0 2.7754590170263255e-08 -1.9690614709758649e-07 0 2.9184783474805344e-08 -2.0482692790187914e-07 0 4.0750481650743149e-08 -2.306544414671292e-07 0 2.7754590170263255e-08 -1.9690614709758649e-07 0 2.2187799049670193e-08 -1.6135554086060266e-07 0 1.6659375484856787e-08 -1.7513135450670993e-07 0 2.7754590170263255e-08 -1.9690614709758649e-07 0 2.2187799049670193e-08 -1.6135554086060266e-07 0 3.8825195858144429e-08 -1.2261228014518319e-07 0 8.5725309896699115e-09 -1.0769027414244946e-07 0 2.2187799049670193e-08 -1.6135554086060266e-07 0 8.5725309896699115e-09 -1.0769027414244946e-07 0 7.7798587060059488e-09 -1.4484012810058673e-07 0 8.2925154461594336e-08 -1.3826026637155297e-07 0 3.8825195858144429e-08 -1.2261228014518319e-07 0 5.2674583263557898e-08 -1.7417474727846567e-07 0 5.2674583263557898e-08 -1.7417474727846567e-07 0 3.8825195858144429e-08 -1.2261228014518319e-07 0 2.2187799049670193e-08 -1.6135554086060266e-07 0 3.7366025812053276e-08 -2.0612839999424229e-07 0 2.2187799049670193e-08 -1.6135554086060266e-07 0 2.7754590170263255e-08 -1.9690614709758649e-07 0 5.2674583263557898e-08 -1.7417474727846567e-07 0 2.2187799049670193e-08 -1.6135554086060266e-07 0 3.7366025812053276e-08 -2.0612839999424229e-07 0 4.0750481650743149e-08 -2.306544414671292e-07 0 3.7366025812053269e-08 -2.0612839999424227e-07 0 2.7754590170263255e-08 -1.9690614709758649e-07 0 4.0750481650743149e-08 -2.306544414671292e-07 0 5.6535055850599575e-08 -2.6058952137524718e-07 0 3.7366025812053276e-08 -2.0612839999424229e-07 0 3.7366025812053276e-08 -2.0612839999424229e-07 0 5.6535055850599582e-08 -2.6058952137524718e-07 0 5.9477780743700289e-08 -2.3849712175101066e-07 0 5.6535055850599575e-08 -2.6058952137524718e-07 0 8.314936160478192e-08 -3.0395140021442185e-07 0 5.9477780743700289e-08 -2.3849712175101066e-07 0 5.2674583263557898e-08 -1.7417474727846567e-07 0 3.7366025812053276e-08 -2.0612839999424229e-07 0 5.9477780743700289e-08 -2.3849712175101066e-07 0 1.0242538847894725e-07 -2.1069444009688048e-07 0 5.9477780743700289e-08 -2.3849712175101066e-07 0 9.3343595083100991e-08 -2.7343960356207871e-07 0 1.0242538847894725e-07 -2.1069444009688048e-07 0 5.2674583263557898e-08 -1.7417474727846567e-07 0 5.9477780743700289e-08 -2.3849712175101066e-07 0 1.0242538847894725e-07 -2.1069444009688048e-07 0 9.3343595083100991e-08 -2.7343960356207871e-07 0 1.3720605061880753e-07 -2.9751064942450448e-07 0 5.9477780743700289e-08 -2.3849712175101066e-07 0 8.314936160478192e-08 -3.0395140021442185e-07 0 9.3343595083100991e-08 -2.7343960356207871e-07 0 9.3343595083100991e-08 -2.7343960356207871e-07 0 1.2963966815874552e-07 -3.7162041764317188e-07 0 1.3720605061880753e-07 -2.9751064942450448e-07 0 8.314936160478192e-08 -3.0395140021442185e-07 0 1.2963966815874552e-07 -3.7162041764317188e-07 0 9.3343595083100991e-08 -2.7343960356207871e-07 0 2.2624972788847429e-07 -4.3392236544677426e-07 0 1.9515154610664502e-07 -2.6428064261248389e-07 0 1.3720605061880753e-07 -2.9751064942450448e-07 0 1.2963966815874552e-07 -3.7162041764317188e-07 0 2.2624972788847429e-07 -4.3392236544677426e-07 0 1.3720605061880753e-07 -2.9751064942450448e-07 0 1.9515154610664502e-07 -2.6428064261248389e-07 0 1.0242538847894725e-07 -2.1069444009688048e-07 0 1.3720605061880753e-07 -2.9751064942450448e-07 0 1.9515154610664502e-07 -2.6428064261248389e-07 0 1.5223472706371435e-07 -1.7603990206123992e-07 0 1.0242538847894725e-07 -2.1069444009688048e-07 0 1.0242538847894725e-07 -2.1069444009688048e-07 0 1.5223472706371435e-07 -1.760399020612399e-07 0 8.2925154461594336e-08 -1.3826026637155297e-07 0 1.0242538847894725e-07 -2.1069444009688048e-07 0 8.2925154461594336e-08 -1.3826026637155297e-07 0 5.2674583263557898e-08 -1.7417474727846567e-07 0 1.5223472706371435e-07 -1.7603990206123992e-07 0 1.1423549665541848e-07 -1.1628751462212679e-07 0 8.2925154461594336e-08 -1.3826026637155297e-07 0 -8.633354757485073e-09 -6.8024514915596095e-08 0 -6.1007370217271504e-09 -8.4106172878920417e-08 0 -8.3979997956573681e-09 -8.8457865338547684e-08 0 -6.6900519036348143e-09 -6.1512728242447758e-08 0 -6.1007370217271504e-09 -8.4106172878920417e-08 0 -8.633354757485073e-09 -6.8024514915596095e-08 0 -6.6900519036348143e-09 -6.1512728242447758e-08 0 -8.633354757485073e-09 -6.8024514915596095e-08 0 -6.525203331742453e-09 -4.3462383406085629e-08 0 -5.4527424993117302e-09 -3.6365548025005257e-08 0 -8.633354757485073e-09 -6.8024514915596095e-08 0 -8.6614478880667842e-09 -7.250156628801387e-08 0 -8.6614478880667842e-09 -7.250156628801387e-08 0 -3.9567063329005813e-09 -8.4075898165853728e-08 0 -2.8321155487558291e-09 -4.634611075598783e-08 0 -1.9978688089785938e-09 -1.1502426565127361e-07 0 -3.9567063329005813e-09 -8.4075898165853728e-08 0 -7.2221162684465015e-09 -9.8072804459800359e-08 0 -7.2221162684465015e-09 -9.8072804459800359e-08 0 -3.9567063329005813e-09 -8.4075898165853728e-08 0 -8.6614478880667842e-09 -7.250156628801387e-08 0 -8.633354757485073e-09 -6.8024514915596095e-08 0 -8.3979997956573681e-09 -8.8457865338547684e-08 0 -8.6614478880667842e-09 -7.250156628801387e-08 0 -8.3979997956573681e-09 -8.8457865338547684e-08 0 -7.2221162684465015e-09 -9.8072804459800359e-08 0 -8.6614478880667842e-09 -7.250156628801387e-08 0 -5.4817956680641209e-09 -1.0612245385307922e-07 0 -7.2221162684465015e-09 -9.8072804459800359e-08 0 -8.3979997956573681e-09 -8.8457865338547684e-08 0 -5.4817956680641209e-09 -1.0612245385307922e-07 0 -8.3979997956573681e-09 -8.8457865338547684e-08 0 -5.5016400153177443e-09 -9.6552363902549482e-08 0 -1.9978688089785938e-09 -1.1502426565127361e-07 0 -7.2221162684465015e-09 -9.8072804459800359e-08 0 -3.106878820409016e-09 -1.1950759668224248e-07 0 -3.106878820409016e-09 -1.1950759668224248e-07 0 -7.2221162684465015e-09 -9.8072804459800359e-08 0 -5.4817956680641209e-09 -1.0612245385307922e-07 0 -3.106878820409016e-09 -1.1950759668224248e-07 0 1.2011936503853785e-09 -1.3039551184885359e-07 0 3.471701824130199e-09 -1.3956065222351201e-07 0 3.3813553403215771e-09 -1.3981991919619482e-07 0 -3.106878820409016e-09 -1.1950759668224248e-07 0 3.471701824130199e-09 -1.3956065222351201e-07 0 -3.106878820409016e-09 -1.1950759668224248e-07 0 -5.4817956680641209e-09 -1.0612245385307922e-07 0 -2.1834682159471596e-09 -1.1975089041775813e-07 0 -3.106878820409016e-09 -1.1950759668224248e-07 0 -2.1834682159471596e-09 -1.1975089041775813e-07 0 1.2011936503853774e-09 -1.3039551184885359e-07 0 -2.1834682159471596e-09 -1.1975089041775813e-07 0 2.8469841111920962e-09 -1.2848339820101131e-07 0 1.2011936503853774e-09 -1.3039551184885359e-07 0 4.1382371504378818e-10 -1.186821914524498e-07 0 2.8469841111920962e-09 -1.2848339820101131e-07 0 -2.1834682159471596e-09 -1.1975089041775813e-07 0 2.8469841111920962e-09 -1.2848339820101131e-07 0 5.4294563955270234e-09 -1.396042815798319e-07 0 1.2011936503853774e-09 -1.3039551184885359e-07 0 5.4294563955270234e-09 -1.396042815798319e-07 0 9.6459205830956381e-09 -1.5224592635741521e-07 0 3.471701824130199e-09 -1.3956065222351201e-07 0 1.2011936503853774e-09 -1.3039551184885359e-07 0 5.4294563955270234e-09 -1.396042815798319e-07 0 3.471701824130199e-09 -1.3956065222351201e-07 0 -5.4817956680641209e-09 -1.0612245385307922e-07 0 -3.6332680010924372e-09 -1.0449511410514289e-07 0 -2.4253259762991226e-09 -1.121945236124809e-07 0 -5.4817956680641209e-09 -1.0612245385307922e-07 0 -5.5016400153177443e-09 -9.6552363902549482e-08 0 -3.633268001092438e-09 -1.0449511410514289e-07 0 -2.1834682159471596e-09 -1.1975089041775813e-07 0 -5.4817956680641217e-09 -1.0612245385307922e-07 0 -2.4253259762991226e-09 -1.121945236124809e-07 0 4.1382371504378818e-10 -1.186821914524498e-07 0 -2.1834682159471596e-09 -1.1975089041775813e-07 0 -2.4253259762991226e-09 -1.121945236124809e-07 0 -8.5179044100359591e-10 -1.0991201851602212e-07 0 4.1382371504378818e-10 -1.186821914524498e-07 0 -2.4253259762991226e-09 -1.121945236124809e-07 0 -3.633268001092438e-09 -1.0449511410514289e-07 0 -8.5179044100359591e-10 -1.0991201851602212e-07 0 -2.4253259762991226e-09 -1.121945236124809e-07 0 -1.6535771209695868e-09 -1.0216498568997433e-07 0 -8.5179044100359591e-10 -1.0991201851602212e-07 0 -3.633268001092438e-09 -1.0449511410514289e-07 0 -1.5780342160797979e-09 -9.53690437071864e-08 0 -1.6535771209695868e-09 -1.0216498568997433e-07 0 -3.3305906635523514e-09 -9.8437291123017037e-08 0 -1.6535771209695868e-09 -1.0216498568997433e-07 0 -3.633268001092438e-09 -1.0449511410514289e-07 0 -3.3305906635523514e-09 -9.8437291123017037e-08 0 -1.5492188807987927e-09 -8.9533051062085025e-08 0 -1.5780342160797979e-09 -9.53690437071864e-08 0 -3.5313320138466538e-09 -9.2209442408619511e-08 0 -3.5313320138466538e-09 -9.2209442408619511e-08 0 -1.5780342160797977e-09 -9.5369043707186414e-08 0 -3.3305906635523514e-09 -9.8437291123017037e-08 0 -5.5016400153177443e-09 -9.6552363902549482e-08 0 -6.1007370217271504e-09 -8.4106172878920417e-08 0 -3.5313320138466538e-09 -9.2209442408619511e-08 0 -5.5016400153177443e-09 -9.6552363902549482e-08 0 -3.5313320138466538e-09 -9.2209442408619511e-08 0 -3.3305906635523514e-09 -9.8437291123017037e-08 0 -3.633268001092438e-09 -1.0449511410514289e-07 0 -5.5016400153177443e-09 -9.6552363902549482e-08 0 -3.3305906635523514e-09 -9.8437291123017037e-08 0 -8.3979997956573681e-09 -8.8457865338547684e-08 0 -6.1007370217271504e-09 -8.4106172878920417e-08 0 -5.5016400153177443e-09 -9.6552363902549482e-08 0 -6.6900519036348143e-09 -6.1512728242447758e-08 0 -3.9758642321988648e-09 -7.3608274403279779e-08 0 -6.1007370217271504e-09 -8.4106172878920417e-08 0 -3.975864232198864e-09 -7.3608274403279779e-08 0 -2.7610342020523224e-09 -8.1501817021429611e-08 0 -6.1007370217271504e-09 -8.4106172878920417e-08 0 -6.1007370217271504e-09 -8.4106172878920417e-08 0 -2.7610342020523224e-09 -8.1501817021429611e-08 0 -3.1582140241633577e-09 -8.7050135686619825e-08 0 -3.5313320138466538e-09 -9.2209442408619511e-08 0 -6.1007370217271504e-09 -8.4106172878920417e-08 0 -3.1582140241633577e-09 -8.7050135686619825e-08 0 -1.5492188807987927e-09 -8.9533051062085025e-08 0 -3.5313320138466538e-09 -9.2209442408619511e-08 0 -3.1582140241633577e-09 -8.7050135686619825e-08 0 -1.0819884431849847e-09 -8.4314640247440362e-08 0 -1.5492188807987927e-09 -8.9533051062085025e-08 0 -3.1582140241633577e-09 -8.7050135686619825e-08 0 -2.7610342020523224e-09 -8.1501817021429611e-08 0 -1.0819884431849847e-09 -8.4314640247440362e-08 0 -3.1582140241633577e-09 -8.7050135686619825e-08 0 -1.4266890893798466e-10 -7.9755369440908962e-08 0 -1.0819884431849847e-09 -8.4314640247440362e-08 0 -2.7610342020523224e-09 -8.1501817021429611e-08 0 2.6691157434035414e-09 -8.6330727793370362e-08 0 8.9825991494178188e-10 -8.4233243131434875e-08 0 1.9258492147911922e-09 -8.1435784133234709e-08 0 8.9825991494178188e-10 -8.4233243131434875e-08 0 -1.4266890893798466e-10 -7.9755369440908962e-08 0 1.9258492147911922e-09 -8.1435784133234709e-08 0 -9.7469565527698012e-11 -8.4184787107009038e-08 0 -1.3100929467168902e-10 -8.0968014108489342e-08 0 1.0347965913884281e-09 -8.9444844232360495e-08 0 8.9825991494178188e-10 -8.4233243131434875e-08 0 2.6691157434035414e-09 -8.6330727793370362e-08 0 -2.5334659064711608e-10 -8.9553400511619444e-08 0 -9.7469565527698012e-11 -8.4184787107009038e-08 0 2.5682888757831193e-09 -9.1875514086333918e-08 0 1.0347965913884281e-09 -8.9444844232360495e-08 0 2.6691157434035414e-09 -8.6330727793370362e-08 0 3.892964129886257e-09 -7.9782089248196176e-08 0 4.943459475759516e-09 -8.8937450518353726e-08 0 2.6691157434035414e-09 -8.6330727793370362e-08 0 2.0637651748195492e-09 -7.5238454529297145e-08 0 3.892964129886257e-09 -7.9782089248196176e-08 0 1.9258492147911922e-09 -8.1435784133234709e-08 0 3.892964129886257e-09 -7.9782089248196176e-08 0 2.6691157434035414e-09 -8.6330727793370362e-08 0 1.9258492147911922e-09 -8.1435784133234709e-08 0 6.5309164379810952e-09 -7.6527268875396971e-08 0 3.892964129886257e-09 -7.9782089248196176e-08 0 4.5032441601169275e-09 -6.9843428583678284e-08 0 6.5309164379810952e-09 -7.6527268875396971e-08 0 4.9434594757595152e-09 -8.8937450518353726e-08 0 3.892964129886257e-09 -7.9782089248196176e-08 0 7.686783003056515e-09 -8.550530920382705e-08 0 4.943459475759516e-09 -8.8937450518353726e-08 0 6.5309164379810952e-09 -7.6527268875396971e-08 0 7.686783003056515e-09 -8.550530920382705e-08 0 4.5478445690053511e-09 -1.0066214220369655e-07 0 4.943459475759516e-09 -8.8937450518353726e-08 0 4.943459475759516e-09 -8.8937450518353726e-08 0 4.5478445690053511e-09 -1.0066214220369655e-07 0 2.8366091751344366e-09 -9.7574716327555754e-08 0 4.5478445690053511e-09 -1.0066214220369655e-07 0 1.8572778408474328e-09 -1.0475987547122614e-07 0 2.8366091751344366e-09 -9.7574716327555754e-08 0 4.943459475759516e-09 -8.8937450518353726e-08 0 2.5682888757831193e-09 -9.1875514086333918e-08 0 2.6691157434035414e-09 -8.6330727793370362e-08 0 4.943459475759516e-09 -8.8937450518353726e-08 0 2.8366091751344366e-09 -9.7574716327555754e-08 0 2.5682888757831193e-09 -9.1875514086333918e-08 0 2.8366091751344366e-09 -9.7574716327555754e-08 0 1.0596805333283007e-09 -9.5429270159921436e-08 0 2.5682888757831193e-09 -9.1875514086333918e-08 0 1.0596805333283007e-09 -9.5429270159921436e-08 0 1.0347965913884281e-09 -8.9444844232360495e-08 0 2.5682888757831193e-09 -9.1875514086333918e-08 0 -2.7793141991610373e-10 -9.5589354257796354e-08 0 -2.5334659064711608e-10 -8.9553400511619444e-08 0 1.8572778408474328e-09 -1.0475987547122614e-07 0 4.1475476179215948e-10 -1.0214117680839679e-07 0 2.8366091751344366e-09 -9.7574716327555754e-08 0 -5.9274930282466156e-10 -1.0248294928765889e-07 0 -2.7793141991610373e-10 -9.5589354257796354e-08 0 4.1475476179215943e-10 -1.0214117680839679e-07 0 1.0596805333283007e-09 -9.5429270159921436e-08 0 2.8366091751344366e-09 -9.7574716327555754e-08 0 -3.0105761315946903e-10 -1.0965630256963722e-07 0 4.1475476179215943e-10 -1.0214117680839679e-07 0 1.8572778408474328e-09 -1.0475987547122614e-07 0 -5.7179979926043029e-10 -1.1031435554449517e-07 0 -5.9274930282466156e-10 -1.0248294928765889e-07 0 1.5945870923804141e-09 -1.1181628332558559e-07 0 -3.0105761315946903e-10 -1.0965630256963722e-07 0 1.8572778408474328e-09 -1.0475987547122614e-07 0 -1.7174812859308319e-09 -1.1814482615347149e-07 0 -3.0105761315946903e-10 -1.0965630256963722e-07 0 1.5945870923804141e-09 -1.1181628332558559e-07 0 -6.1737126944141567e-10 -1.1916801180250416e-07 0 -5.7179979926043029e-10 -1.1031435554449517e-07 0 -2.3904303134422215e-10 -1.2094097666850216e-07 0 -1.7174812859308319e-09 -1.1814482615347149e-07 0 1.5945870923804141e-09 -1.1181628332558559e-07 0 3.0890154003818389e-09 -1.1484997011798373e-07 0 -2.3904303134422215e-10 -1.2094097666850216e-07 0 1.5945870923804141e-09 -1.1181628332558559e-07 0 4.5478445690053511e-09 -1.0066214220369655e-07 0 3.0890154003818385e-09 -1.1484997011798373e-07 0 1.5945870923804141e-09 -1.1181628332558559e-07 0 4.5478445690053511e-09 -1.0066214220369655e-07 0 1.5945870923804141e-09 -1.1181628332558559e-07 0 1.8572778408474328e-09 -1.0475987547122614e-07 0 -5.8774427819200495e-09 -1.3873866797095825e-07 0 -1.397908031617399e-09 -1.295707615215321e-07 0 -4.6711354136610262e-09 -1.4181776969984667e-07 0 -5.8774427819200495e-09 -1.3873866797095825e-07 0 -3.2868312722049703e-09 -1.2774893378142663e-07 0 -1.397908031617399e-09 -1.295707615215321e-07 0 -1.98971119437242e-10 -1.405194425388569e-07 0 -2.3107692665386796e-10 -1.2913108097833956e-07 0 -3.2868312722049703e-09 -1.2774893378142663e-07 0 -2.3904303134422199e-10 -1.2094097666850216e-07 0 -1.397908031617399e-09 -1.295707615215321e-07 0 -3.2868312722049703e-09 -1.2774893378142663e-07 0 -1.7174812859308315e-09 -1.1814482615347149e-07 0 -2.3904303134422215e-10 -1.2094097666850216e-07 0 -2.3107692665386796e-10 -1.2913108097833956e-07 0 -6.1737126944141567e-10 -1.1916801180250416e-07 0 -2.3904303134422215e-10 -1.2094097666850216e-07 0 3.0890154003818389e-09 -1.1484997011798373e-07 0 -1.397908031617399e-09 -1.295707615215321e-07 0 -1.397908031617399e-09 -1.295707615215321e-07 0 -9.1726928562990072e-10 -1.3365739067576781e-07 0 -4.6711354136610262e-09 -1.4181776969984667e-07 0 3.0890154003818389e-09 -1.1484997011798373e-07 0 -9.172692856299e-10 -1.3365739067576781e-07 0 -1.397908031617399e-09 -1.295707615215321e-07 0 4.6111050913320681e-09 -1.0654624841331754e-07 0 -9.1726928562989989e-10 -1.3365739067576781e-07 0 3.0890154003818389e-09 -1.1484997011798373e-07 0 4.6111050913320681e-09 -1.0654624841331754e-07 0 3.0890154003818389e-09 -1.1484997011798373e-07 0 5.9820521866513492e-09 -9.8269946202809858e-08 0 5.9820521866513492e-09 -9.8269946202809858e-08 0 4.5478445690053511e-09 -1.0066214220369655e-07 0 7.686783003056515e-09 -8.550530920382705e-08 0 5.9820521866513492e-09 -9.8269946202809858e-08 0 3.0890154003818389e-09 -1.1484997011798373e-07 0 4.5478445690053511e-09 -1.0066214220369655e-07 0 7.1990239400834873e-09 -7.9805696302110847e-08 0 5.9820521866513492e-09 -9.8269946202809858e-08 0 7.686783003056515e-09 -8.550530920382705e-08 0 4.6111050913320681e-09 -1.0654624841331754e-07 0 7.1990239400834873e-09 -7.9805696302110847e-08 0 9.5097096807327638e-10 -8.0381079800214093e-08 0 7.1990239400834873e-09 -7.9805696302110847e-08 0 4.6111050913320681e-09 -1.0654624841331754e-07 0 5.9820521866513492e-09 -9.8269946202809858e-08 0 9.5097096807327638e-10 -8.0381079800214093e-08 0 7.1990239400834873e-09 -7.9805696302110847e-08 0 4.8426662352586466e-09 -4.3680846446923637e-08 0 7.1990239400834873e-09 -7.9805696302110847e-08 0 8.9659322479968678e-09 -6.3835499888856905e-08 0 4.8426662352586466e-09 -4.3680846446923637e-08 0 8.9659322479968678e-09 -6.3835499888856905e-08 0 6.1584385610353103e-09 -6.2454216087523558e-08 0 6.096466438836015e-09 -4.1961229578084519e-08 0 6.5309164379810952e-09 -7.6527268875396971e-08 0 6.1584385610353103e-09 -6.2454216087523558e-08 0 8.9659322479968678e-09 -6.3835499888856905e-08 0 6.1584385610353103e-09 -6.2454216087523558e-08 0 6.5309164379810952e-09 -7.6527268875396971e-08 0 4.5032441601169275e-09 -6.9843428583678284e-08 0 7.686783003056515e-09 -8.550530920382705e-08 0 6.5309164379810952e-09 -7.6527268875396971e-08 0 8.9659322479968678e-09 -6.3835499888856905e-08 0 7.1990239400834873e-09 -7.9805696302110847e-08 0 7.686783003056515e-09 -8.550530920382705e-08 0 8.9659322479968678e-09 -6.3835499888856905e-08 0 -1.1392665283019798e-07 -1.1634095583930474e-07 0 -1.4998471499520053e-07 -1.7570160833199883e-07 0 -7.6968153260471608e-08 -1.4197990094755698e-07 0 -7.6968153260471608e-08 -1.4197990094755698e-07 0 -1.1403384027966028e-07 -2.0811918659796971e-07 0 -6.4292073346043615e-08 -1.9816898750640692e-07 0 -1.4998471499520055e-07 -1.7570160833199883e-07 0 -1.1403384027966029e-07 -2.0811918659796971e-07 0 -7.6968153260471608e-08 -1.4197990094755698e-07 0 -1.4998471499520055e-07 -1.7570160833199883e-07 0 -1.9770578832382078e-07 -2.6364508391470782e-07 0 -1.1403384027966029e-07 -2.0811918659796971e-07 0 -1.1403384027966029e-07 -2.0811918659796971e-07 0 -1.9770578832382078e-07 -2.6364508391470782e-07 0 -1.3905725312156648e-07 -2.976822132369305e-07 0 -1.9770578832382078e-07 -2.6364508391470782e-07 0 -2.2874690705692857e-07 -4.3582409649730064e-07 0 -1.3905725312156648e-07 -2.976822132369305e-07 0 -2.2874690705692857e-07 -4.3582409649730064e-07 0 -1.2809734791371652e-07 -3.7252240128744061e-07 0 -1.3905725312156648e-07 -2.976822132369305e-07 0 -1.9272273317991336e-12 -0.099900735136724678 0 4.4862484048413666e-10 -0.00066077580170663289 0 4.4862484048413666e-10 -0.00066077580170663289 0 8.146524886436233e-11 -4.6867398613460858e-06 0 -1.2809734791371652e-07 -3.7252240128744061e-07 0 -8.314345193665663e-08 -3.0661513248276447e-07 0 -8.8897198509351969e-08 -2.6813913604658512e-07 0 -1.2809734791371652e-07 -3.7252240128744061e-07 0 -8.8897198509351982e-08 -2.6813913604658512e-07 0 -1.3905725312156648e-07 -2.976822132369305e-07 0 -8.314345193665663e-08 -3.0661513248276452e-07 0 -6.3172772227634148e-08 -2.5244637161047161e-07 0 -8.8897198509351969e-08 -2.6813913604658512e-07 0 -1.1403384027966029e-07 -2.0811918659796971e-07 0 -8.8897198509351969e-08 -2.6813913604658512e-07 0 -6.4292073346043615e-08 -1.9816898750640692e-07 0 -8.8897198509351969e-08 -2.6813913604658512e-07 0 -1.1403384027966029e-07 -2.0811918659796971e-07 0 -1.3905725312156648e-07 -2.976822132369305e-07 0 -8.8897198509351969e-08 -2.6813913604658512e-07 0 -6.3172772227634148e-08 -2.5244637161047161e-07 0 -6.4292073346043615e-08 -1.9816898750640692e-07 0 -3.893047977545576e-08 -2.1678756383972371e-07 0 -3.6794064477054282e-08 -1.6577078100958223e-07 0 -6.4292073346043615e-08 -1.9816898750640692e-07 0 -6.3172772227634148e-08 -2.5244637161047161e-07 0 -3.893047977545576e-08 -2.1678756383972371e-07 0 -6.4292073346043615e-08 -1.9816898750640692e-07 0 -6.3172772227634148e-08 -2.5244637161047161e-07 0 -5.7516088259495398e-08 -2.6098442224668606e-07 0 -3.893047977545576e-08 -2.1678756383972371e-07 0 8.146524886436233e-11 -4.6867398613460858e-06 0 -6.0514812603866045e-10 -2.9933374467825406e-07 0 -8.314345193665663e-08 -3.0661513248276452e-07 0 -5.7516088259495398e-08 -2.6098442224668606e-07 0 -6.3172772227634148e-08 -2.5244637161047161e-07 0 -5.7516088259495398e-08 -2.6098442224668606e-07 0 -3.9884962361271573e-08 -2.295387777314956e-07 0 -3.893047977545576e-08 -2.1678756383972371e-07 0 -6.0514812603866045e-10 -2.9933374467825406e-07 0 3.6133990622811511e-10 -2.359128097773476e-07 0 -3.893047977545576e-08 -2.1678756383972371e-07 0 -3.9884962361271573e-08 -2.295387777314956e-07 0 -2.9119571986012116e-08 -2.038825024222712e-07 0 -2.1196503994433066e-08 -1.7838706045917566e-07 0 -3.6794064477054282e-08 -1.6577078100958223e-07 0 -3.893047977545576e-08 -2.1678756383972371e-07 0 -3.6794064477054282e-08 -1.6577078100958223e-07 0 -7.6968153260471608e-08 -1.4197990094755698e-07 0 -6.4292073346043615e-08 -1.9816898750640692e-07 0 -3.367175678935819e-08 -1.1349408978017668e-07 0 -7.6968153260471608e-08 -1.4197990094755698e-07 0 -3.6794064477054282e-08 -1.6577078100958223e-07 0 -3.367175678935819e-08 -1.1349408978017668e-07 0 -3.6794064477054282e-08 -1.6577078100958223e-07 0 -1.5657088996181974e-08 -1.4234562663650202e-07 0 -3.367175678935819e-08 -1.1349408978017668e-07 0 -1.5657088996181974e-08 -1.4234562663650202e-07 0 -1.1629544117555644e-08 -1.0537534353587487e-07 0 -1.1629544117555644e-08 -1.0537534353587487e-07 0 -1.5657088996181974e-08 -1.4234562663650202e-07 0 -2.3349848658303646e-09 -1.222155125276972e-07 0 -8.9453069133914456e-09 -1.5471751569983539e-07 0 -1.5657088996181974e-08 -1.4234562663650202e-07 0 -2.1196503994433066e-08 -1.7838706045917566e-07 0 -2.3349848658303646e-09 -1.222155125276972e-07 0 -1.5657088996181974e-08 -1.4234562663650202e-07 0 -8.9453069133914456e-09 -1.5471751569983539e-07 0 -1.5657088996181974e-08 -1.4234562663650202e-07 0 -3.6794064477054282e-08 -1.6577078100958223e-07 0 -2.1196503994433066e-08 -1.7838706045917566e-07 0 -2.1196503994433066e-08 -1.7838706045917566e-07 0 -3.893047977545576e-08 -2.1678756383972371e-07 0 -2.9119571986012116e-08 -2.038825024222712e-07 0 -1.8489083387446175e-08 -1.8204854386762334e-07 0 -2.1196503994433066e-08 -1.7838706045917566e-07 0 -2.9119571986012116e-08 -2.038825024222712e-07 0 -2.8646533571183031e-08 -2.0353213323049744e-07 0 -1.8489083387446175e-08 -1.8204854386762334e-07 0 -2.9119571986012116e-08 -2.038825024222712e-07 0 3.6133990622811511e-10 -2.359128097773476e-07 0 2.5861079920881441e-10 -2.0861367707057816e-07 0 -3.9884962361271573e-08 -2.295387777314956e-07 0 -2.8646533571183031e-08 -2.0353213323049744e-07 0 -2.9119571986012116e-08 -2.038825024222712e-07 0 -1.8489083387446175e-08 -1.8204854386762334e-07 0 -1.9909210760065415e-08 -1.8300266450704529e-07 0 -1.339968669767466e-08 -1.6844510176662397e-07 0 2.5861079920881441e-10 -2.0861367707057816e-07 0 2.5516684020238327e-12 -1.8687981917871074e-07 0 -2.8646533571183031e-08 -2.0353213323049744e-07 0 -1.9909210760065415e-08 -1.8300266450704529e-07 0 -1.8489083387446175e-08 -1.8204854386762334e-07 0 -8.9453069133914456e-09 -1.5471751569983539e-07 0 -1.8489083387446175e-08 -1.8204854386762334e-07 0 -1.339968669767466e-08 -1.6844510176662397e-07 0 -8.9453069133914456e-09 -1.5471751569983539e-07 0 -2.119650399443307e-08 -1.7838706045917566e-07 0 -1.8489083387446175e-08 -1.8204854386762334e-07 0 -7.4415341629653829e-09 -1.5280314273468171e-07 0 -8.9453069133914472e-09 -1.5471751569983536e-07 0 -1.339968669767466e-08 -1.6844510176662397e-07 0 -9.172692856299001e-10 -1.3365739067576781e-07 0 -8.9453069133914456e-09 -1.5471751569983539e-07 0 -7.4415341629653829e-09 -1.5280314273468171e-07 0 -1.406867218628966e-08 -1.6596333479900521e-07 0 -7.4415341629653829e-09 -1.5280314273468171e-07 0 -1.339968669767466e-08 -1.6844510176662397e-07 0 2.5516684020238327e-12 -1.8687981917871074e-07 0 8.1560106258048192e-11 -1.6879294097548821e-07 0 -1.9909210760065415e-08 -1.8300266450704529e-07 0 -1.406867218628966e-08 -1.6596333479900521e-07 0 -1.339968669767466e-08 -1.6844510176662397e-07 0 2.6417598637262011e-10 -1.5362387155135371e-07 0 -1.98971119437242e-10 -1.405194425388569e-07 0 -9.0750541661166763e-09 -1.514064071358451e-07 0 -5.8774427819200495e-09 -1.3873866797095825e-07 0 -4.6711354136610262e-09 -1.4181776969984667e-07 0 -1.406867218628966e-08 -1.6596333479900521e-07 0 -9.0750541661166763e-09 -1.514064071358451e-07 0 -7.4415341629653829e-09 -1.5280314273468171e-07 0 8.1560106258048192e-11 -1.6879294097548821e-07 0 2.6417598637262011e-10 -1.5362387155135371e-07 0 -7.4415341629653829e-09 -1.5280314273468171e-07 0 -9.0750541661166763e-09 -1.514064071358451e-07 0 -4.6711354136610262e-09 -1.4181776969984667e-07 0 -9.172692856299001e-10 -1.3365739067576781e-07 0 -7.4415341629653829e-09 -1.5280314273468171e-07 0 -4.6711354136610262e-09 -1.4181776969984667e-07 0 -2.3349848658303646e-09 -1.222155125276972e-07 0 -9.1726928562989958e-10 -1.3365739067576781e-07 0 4.6111050913320681e-09 -1.0654624841331754e-07 0 -2.3349848658303646e-09 -1.222155125276972e-07 0 -8.9453069133914456e-09 -1.5471751569983539e-07 0 -9.172692856299001e-10 -1.3365739067576781e-07 0 9.5097096807327638e-10 -8.0381079800214093e-08 0 -6.4179951383637989e-09 -3.5160950695075869e-08 0 -2.0590793274550337e-08 -7.1522619662240751e-08 0 -2.3349848658303646e-09 -1.222155125276972e-07 0 4.6111050913320681e-09 -1.0654624841331754e-07 0 9.5097096807327638e-10 -8.0381079800214093e-08 0 -1.1629544117555644e-08 -1.0537534353587487e-07 0 -2.334984865830365e-09 -1.222155125276972e-07 0 9.5097096807327638e-10 -8.0381079800214093e-08 0 -3.367175678935819e-08 -1.1349408978017668e-07 0 -1.1629544117555644e-08 -1.0537534353587487e-07 0 -2.0590793274550337e-08 -7.1522619662240751e-08 0 -1.1629544117555644e-08 -1.0537534353587487e-07 0 9.5097096807327617e-10 -8.0381079800214093e-08 0 -2.0590793274550337e-08 -7.1522619662240751e-08 0 -5.7769317733433459e-08 -8.5479755647985717e-08 0 -3.367175678935819e-08 -1.1349408978017668e-07 0 -2.0590793274550337e-08 -7.1522619662240751e-08 0 -5.7769317733433459e-08 -8.5479755647985717e-08 0 -7.6968153260471608e-08 -1.4197990094755698e-07 0 -3.367175678935819e-08 -1.1349408978017668e-07 0 -3.3893745588554213e-08 -4.4717065821926805e-08 0 -5.7769317733433465e-08 -8.5479755647985717e-08 0 -2.0590793274550337e-08 -7.1522619662240751e-08 0 -7.979513128751327e-08 -7.1086598545352837e-08 0 -5.7769317733433459e-08 -8.5479755647985717e-08 0 -3.3893745588554213e-08 -4.4717065821926805e-08 0 -5.7769317733433459e-08 -8.5479755647985717e-08 0 -1.1392665283019798e-07 -1.1634095583930474e-07 0 -7.6968153260471608e-08 -1.4197990094755698e-07 0 -7.979513128751327e-08 -7.1086598545352837e-08 0 -1.1392665283019798e-07 -1.1634095583930474e-07 0 -5.7769317733433459e-08 -8.5479755647985717e-08 0 4.9212172383132966e-12 1.0890754694156621e-12 0 -7.8637697070715239e-11 -2.1149148169805273e-11 0 -1.2526452175119237e-08 -1.4132256909807372e-08 0 -4.5309011305768742e-08 -3.3885054652149194e-08 0 -7.979513128751327e-08 -7.1086598545352837e-08 0 -3.3893745588554213e-08 -4.4717065821926805e-08 0 -4.5309011305768742e-08 -3.3885054652149194e-08 0 -3.3893745588554213e-08 -4.4717065821926805e-08 0 -1.2526452175119237e-08 -1.4132256909807372e-08 0 -6.4179951383637989e-09 -3.5160950695075869e-08 0 9.5097096807327638e-10 -8.0381079800214093e-08 0 4.8426662352586466e-09 -4.3680846446923637e-08 0 4.9212172383132966e-12 1.0890754694156621e-12 0 -6.4179951383637931e-09 -3.5160950695075869e-08 0 4.8426662352586466e-09 -4.3680846446923637e-08 0 -3.3893745588554213e-08 -4.4717065821926805e-08 0 -6.4179951383637989e-09 -3.5160950695075869e-08 0 -1.2526452175119237e-08 -1.4132256909807372e-08 0 -6.4179951383637989e-09 -3.5160950695075869e-08 0 -3.3893745588554213e-08 -4.4717065821926805e-08 0 -2.0590793274550337e-08 -7.1522619662240751e-08 0 -6.4179951383637989e-09 -3.5160950695075869e-08 0 4.9212172383123014e-12 1.0890754694190872e-12 0 -1.2526452175119237e-08 -1.4132256909807372e-08 0 -7.8637697070715239e-11 -2.1149148169805273e-11 0 -4.5309011305768742e-08 -3.3885054652149194e-08 0 -1.2526452175119237e-08 -1.4132256909807372e-08 0 1.0983782697048627e-11 -2.1101010958599968e-11 0 4.9212172383132966e-12 1.0890754694156621e-12 0 4.4798429959003413e-09 -2.9864961924710945e-08 0 4.4798429959003413e-09 -2.9864961924710945e-08 0 8.9659322479968678e-09 -6.3835499888856905e-08 0 6.096466438836015e-09 -4.1961229578084519e-08 0 1.0983782697048627e-11 -2.1101010958599968e-11 0 4.4798429959003413e-09 -2.9864961924710945e-08 0 6.096466438836015e-09 -4.1961229578084519e-08 0 8.9659322479968678e-09 -6.3835499888856905e-08 0 4.4798429959003413e-09 -2.9864961924710945e-08 0 4.8426662352586466e-09 -4.3680846446923637e-08 0 4.4798429959003413e-09 -2.9864961924710945e-08 0 4.9212172383132966e-12 1.0890754694156621e-12 0 4.8426662352586466e-09 -4.3680846446923637e-08 0 4.2781685536693387e-09 -3.4317837153686427e-08 0 1.0983782697048834e-11 -2.1101010958600837e-11 0 6.096466438836015e-09 -4.1961229578084519e-08 0 -1.9306487606512139e-12 -1.271944003788649e-11 0 4.2781685536693387e-09 -3.4317837153686427e-08 0 3.1034751644469408e-09 -3.0733391435178877e-08 0 -1.9306487606512139e-12 -1.271944003788649e-11 0 1.0983782697048627e-11 -2.1101010958599968e-11 0 4.2781685536693387e-09 -3.4317837153686427e-08 0 1.1434977457114294e-08 -3.7793464245906855e-08 0 3.3080031665857861e-11 -1.2384461770510369e-11 0 3.1034751644469408e-09 -3.0733391435178877e-08 0 3.3080031665857861e-11 -1.2384461770510369e-11 0 -1.9306487606512139e-12 -1.271944003788649e-11 0 3.1034751644469408e-09 -3.0733391435178877e-08 0 1.0448944197489726e-11 -5.3881179971357371e-08 0 1.1434977457114294e-08 -3.7793464245906855e-08 0 3.1140802992116954e-09 -5.075459271911909e-08 0 3.1140802992116954e-09 -5.075459271911909e-08 0 3.1034751644469408e-09 -3.0733391435178877e-08 0 2.9122652295500303e-09 -5.6283256982666226e-08 0 3.1140802992116954e-09 -5.075459271911909e-08 0 1.1434977457114294e-08 -3.7793464245906855e-08 0 3.1034751644469408e-09 -3.0733391435178877e-08 0 1.0448944197489726e-11 -5.3881179971357371e-08 0 3.1140802992116954e-09 -5.075459271911909e-08 0 4.5749469726306624e-10 -5.7402678101296734e-08 0 3.1140802992116954e-09 -5.075459271911909e-08 0 2.9122652295500303e-09 -5.6283256982666226e-08 0 4.5749469726306624e-10 -5.7402678101296734e-08 0 2.9122652295500303e-09 -5.6283256982666226e-08 0 -1.6825233729716917e-10 -6.3559510648457763e-08 0 4.5749469726306624e-10 -5.7402678101296734e-08 0 1.9630684439637688e-09 -6.7338593566988712e-08 0 -1.6825233729716883e-10 -6.3559510648457763e-08 0 2.9122652295500303e-09 -5.6283256982666226e-08 0 4.910294285709072e-09 -5.7112831344932978e-08 0 1.9630684439637688e-09 -6.7338593566988712e-08 0 2.9122652295500303e-09 -5.6283256982666226e-08 0 1.3904416089699658e-10 -7.3444474467807527e-08 0 -1.6136956670494685e-09 -6.9534399029037875e-08 0 1.9630684439637688e-09 -6.7338593566988712e-08 0 2.0637651748195492e-09 -7.5238454529297145e-08 0 1.3904416089699658e-10 -7.3444474467807527e-08 0 1.9630684439637688e-09 -6.7338593566988712e-08 0 2.0637651748195492e-09 -7.5238454529297145e-08 0 -1.4266890893798466e-10 -7.9755369440908962e-08 0 1.3904416089699658e-10 -7.3444474467807527e-08 0 -1.4266890893798466e-10 -7.9755369440908962e-08 0 2.0637651748195488e-09 -7.5238454529297145e-08 0 1.9258492147911922e-09 -8.1435784133234709e-08 0 4.5032441601169275e-09 -6.9843428583678284e-08 0 2.0637651748195488e-09 -7.5238454529297145e-08 0 1.9630684439637688e-09 -6.7338593566988712e-08 0 4.5032441601169275e-09 -6.9843428583678284e-08 0 3.8929641298862562e-09 -7.9782089248196176e-08 0 2.0637651748195492e-09 -7.5238454529297145e-08 0 4.910294285709072e-09 -5.7112831344932978e-08 0 4.5032441601169275e-09 -6.9843428583678284e-08 0 1.9630684439637688e-09 -6.7338593566988712e-08 0 4.910294285709072e-09 -5.7112831344932978e-08 0 4.2781685536693387e-09 -3.4317837153686427e-08 0 6.096466438836015e-09 -4.1961229578084519e-08 0 6.1584385610353103e-09 -6.2454216087523558e-08 0 4.5032441601169275e-09 -6.9843428583678284e-08 0 4.910294285709072e-09 -5.7112831344932978e-08 0 6.1584385610353103e-09 -6.2454216087523558e-08 0 4.910294285709072e-09 -5.7112831344932978e-08 0 6.096466438836015e-09 -4.1961229578084519e-08 0 3.1034751644469408e-09 -3.0733391435178877e-08 0 4.2781685536693387e-09 -3.4317837153686427e-08 0 2.9122652295500303e-09 -5.6283256982666226e-08 0 4.2781685536693387e-09 -3.4317837153686427e-08 0 4.910294285709072e-09 -5.7112831344932978e-08 0 2.9122652295500303e-09 -5.6283256982666226e-08 0 
</DataArray>
</PointData>
<CellData Scalars="region_id," Vectors="" Tensors="stress,">
<DataArray type="Float64" Name="region_id" format="ascii">
1 1 1 1 1 1 1 1 1 1 1 1 1 1 1 1 1 1 1 1 1 1 1 1 1 1 1 1 1 1 1 1 1 1 1 1 1 1 1 1 1 1 1 1 1 1 1 1 1 1 1 1 1 1 1 1 1 1 1 1 1 1 1 1 1 1 1 1 1 1 1 1 1 1 1 1 1 1 1 1 1 1 1 1 1 1 1 1 1 1 1 1 1 1 1 1 1 1 1 1 1 1 1 1 1 1 1 1 1 1 1 1 1 1 1 1 1 1 1 1 1 1 1 1 1 1 1 1 1 1 1 1 1 1 1 1 1 1 1 1 1 6 1 6 1 1 1 1 1 1 1 1 1 1 1 1 1 1 6 1 6 1 1 6 1 1 6 1 1 1 1 1 1 6 1 1 6 1 1 1 1 1 1 1 1 1 1 1 1 1 1 1 1 1 1 1 1 1 1 1 1 6 6 1 1 1 1 1 1 1 1 1 6 1 1 6 1 1 1 1 1 1 1 1 1 1 1 1 1 6 1 1 6 1 1 1 1 1 1 6 1 6 1 1 6 1 1 1 1 1 1 1 1 1 1 1 1 1 1 1 1 1 1 1 1 1 1 1 1 1 1 1 1 1 1 1 1 1 1 1 1 1 1 1 1 1 1 1 1 1 1 1 1 1 1 1 1 1 1 
</DataArray>
<DataArray type="Float64" Name="stress" NumberOfComponents="9" format="ascii">
-1.719517496528533e-08 -6.2884861435301728e-08 0 -6.2884861435301728e-08 -5.7312224852266717e-09 0 0 0 -5.7315993626280016e-09 -5.0681414823256437e-08 -5.1553222318280428e-08 0 -5.1553222318280428e-08 -2.2655069713592514e-08 0 0 0 -1.8334121134212238e-08 3.6312522253796008e-08 -1.8998272545906448e-08 0 -1.8998272545906448e-08 -2.1034396209229349e-08 0 0 0 3.8195315111416712e-09 7.8473511729686874e-09 -3.6476253078733598e-08 0 -3.6476253078733598e-08 4.2913316321095119e-09 0 0 0 3.0346707012695432e-09 1.9452116263235107e-08 -1.7585768681647635e-08 0 -1.7585768681647635e-08 -1.115261871384841e-08 0 0 0 2.0748743873466612e-09 6.8801415393372455e-09 -1.9477534029910812e-08 0 -1.9477534029910812e-08 -5.4746558487392544e-08 0 0 0 -1.1966604237013831e-08 -7.6337673831199132e-09 -4.1356307407186358e-08 0 -4.1356307407186358e-08 -1.2396907986631032e-07 0 0 0 -3.2900711812357558e-08 1.212713749026146e-08 -3.6811337120613683e-08 0 -3.6811337120613683e-08 -6.3117366755761414e-08 0 0 0 -1.2747557316374916e-08 1.0480622839112837e-08 -3.0517817200768944e-08 0 -3.0517817200768944e-08 -1.0491454575313519e-07 0 0 0 -2.3608480728505631e-08 -4.8454606559062318e-09 -3.6487123148167315e-08 0 -3.6487123148167315e-08 -1.4784983728933018e-07 0 0 0 -3.8173824486309102e-08 1.1579480544750327e-08 -6.4037925387213674e-09 0 -6.4037925387213674e-09 -1.3362608255274404e-07 0 0 0 -3.0511650501998374e-08 2.2386078181315229e-08 -1.1428997234291806e-08 0 -1.1428997234291806e-08 -1.3561808516563463e-07 0 0 0 -2.8308001746079876e-08 1.1945836877765189e-08 -4.3005883724395607e-09 0 -4.3005883724395607e-09 -1.1784265339450241e-07 0 0 0 -2.6474204129184332e-08 1.8638515545193074e-08 4.0824701052146548e-09 0 4.0824701052146548e-09 -6.5758578213877253e-08 0 0 0 -1.1780015667170998e-08 -1.1084348841968074e-09 -1.6017332921554817e-08 0 -1.6017332921554817e-08 -9.6002564130846575e-08 0 0 0 -2.4277749753760819e-08 1.3319619851368284e-08 -1.7755301640755367e-08 0 -1.7755301640755367e-08 -5.2946262233234493e-08 0 0 0 -9.9066605954665655e-09 1.9071826967733823e-09 -4.254363898982388e-08 0 -4.254363898982388e-08 -2.8488776810038458e-08 0 0 0 -6.6453985283162789e-09 -1.7784784233052877e-08 -4.9772059318514385e-08 0 -4.9772059318514385e-08 -8.1645646941487578e-08 0 0 0 -2.485760779363513e-08 -1.8710580880070236e-08 -5.712785026344995e-08 0 -5.712785026344995e-08 -4.7700483977041482e-08 0 0 0 -1.660276621427794e-08 -2.5408352269033749e-08 -7.3943912950035425e-08 0 -7.3943912950035425e-08 -6.4273893972746949e-08 0 0 0 -2.2420561560445181e-08 -4.8860696746538747e-09 -5.6411519811680404e-08 0 -5.6411519811680404e-08 -6.9942872752655258e-08 0 0 0 -1.870723560682727e-08 1.3235884236108187e-09 -6.3757729370652264e-08 0 -6.3757729370652264e-08 -8.6093246780218533e-08 0 0 0 -2.1192414589151929e-08 -2.9740547336538991e-08 -7.1782145350218435e-08 0 -7.1782145350218435e-08 -9.9461257845575295e-09 0 0 0 -9.9216682802741309e-09 -4.2939326856523319e-08 -7.9399858257807577e-08 0 -7.9399858257807577e-08 -3.750183567983817e-08 0 0 0 -2.0110290634090352e-08 -1.6234864911897376e-08 -8.0131818501697185e-08 0 -8.0131818501697185e-08 -3.1498199251474092e-08 0 0 0 -1.193326604084286e-08 -9.5355103046601548e-09 -6.5834498306527789e-08 0 -6.5834498306527789e-08 -2.7143882393553765e-08 0 0 0 -9.1698481745534759e-09 -2.823243890934327e-08 -6.8607797101179945e-08 0 -6.8607797101179945e-08 -3.3674449972428977e-08 0 0 0 -1.5476722220443062e-08 -3.5392629515600478e-08 -7.8841755176054961e-08 0 -7.8841755176054961e-08 -1.1703693959775653e-08 0 0 0 -1.1774080868844033e-08 -1.639733698144388e-08 -7.0094846160165649e-08 0 -7.0094846160165649e-08 -1.7968067582520464e-08 0 0 0 -8.5913511409910991e-09 -3.7743834422405329e-08 -9.8309103504888586e-08 0 -9.8309103504888586e-08 1.1992623813542723e-08 0 0 0 -6.437802652215625e-09 -3.8042748731676964e-08 -9.7607247305027977e-08 0 -9.7607247305027977e-08 -3.8930947867477979e-08 0 0 0 -1.9243424149788736e-08 -3.7066915790287464e-08 -7.7543218009066076e-08 0 -7.7543218009066076e-08 -1.8553891825195111e-08 0 0 0 -1.3905201903870664e-08 1.5166051720880161e-07 -5.3399806875805624e-08 0 -5.3399806875805624e-08 5.0454927035417244e-08 0 0 0 5.0528861061054718e-08 3.0996125821755328e-07 -2.5761695045382955e-08 0 -2.5761695045382955e-08 2.3365622293410364e-08 0 0 0 8.3331720127740891e-08 2.6426560604589123e-08 -4.7330281738929985e-08 0 -4.7330281738929985e-08 5.1649749872673566e-08 0 0 0 1.9519077619315676e-08 4.7631086185143964e-08 -8.8934218832775838e-09 0 -8.8934218832775838e-09 1.9073196437643419e-08 0 0 0 1.6676070655696833e-08 1.6160488978991076e-08 -3.7981704130383292e-08 0 -3.7981704130383292e-08 5.8116504261169921e-08 0 0 0 1.8569248310040223e-08 1.2839016309138258e-09 -8.1549708506392545e-08 0 -8.1549708506392545e-08 -3.5159240098011083e-08 0 0 0 -8.4688346167742945e-09 1.8120969542566876e-07 -2.4795972700094704e-08 0 -2.4795972700094704e-08 3.2868688445033752e-08 0 0 0 5.3519595967675617e-08 1.7015420740971639e-07 -1.6022903914487332e-08 0 -1.6022903914487332e-08 1.2790954086620333e-08 0 0 0 4.5736290374084147e-08 3.1867471616771849e-07 2.6748258098520412e-08 0 2.6748258098520412e-08 -1.4069964896410198e-09 0 0 0 7.9316929919519408e-08 4.2886168643263274e-07 5.1467328661318266e-08 0 5.1467328661318266e-08 -3.3400120786320994e-09 0 0 0 1.0638041858850013e-07 1.7172434198991235e-07 3.5705787215158396e-08 0 3.5705787215158396e-08 1.9605833005785103e-08 0 0 0 4.7832543748924389e-08 1.9175738136442679e-07 1.0412550367496319e-08 0 1.0412550367496319e-08 1.6109662098140567e-08 0 0 0 5.1966760865641925e-08 1.8463196969397804e-07 3.2139947667941636e-08 0 3.2139947667941636e-08 2.0358071736828252e-08 0 0 0 5.1247510357701497e-08 1.6835332718196877e-07 1.6389834025347312e-08 0 1.6389834025347312e-08 -2.3445390602284227e-08 0 0 0 3.6226984144921109e-08 -2.0932449682128714e-08 -4.1838355525709276e-08 0 -4.1838355525709276e-08 -1.2431852628551394e-08 0 0 0 -8.3410755776699212e-09 3.251905473884115e-08 -5.1996002557124319e-08 0 -5.1996002557124319e-08 -1.5938954941559905e-08 0 0 0 4.1450249493203245e-09 -7.4670904197098866e-09 -8.7405956737512945e-08 0 -8.7405956737512945e-08 -1.0445753483653559e-07 0 0 0 -2.7981156314061315e-08 -5.0188940524227944e-08 -5.6808449613473858e-08 0 -5.6808449613473858e-08 -4.0328440673195419e-09 0 0 0 -1.3555446147886759e-08 -3.9496229728458852e-08 -9.0492208391769256e-08 0 -9.0492208391769256e-08 -1.8166296028303626e-08 0 0 0 -1.441563143919058e-08 -4.8896186947918571e-08 -1.1871782085378309e-07 0 -1.1871782085378309e-07 -1.1744981062898288e-07 0 0 0 -4.1586499394225356e-08 -5.1521666435343207e-08 -1.0871341543511688e-07 0 -1.0871341543511688e-07 -1.3051491040264171e-07 0 0 0 -4.5509144209496242e-08 -5.3862273119943115e-08 -1.7708285403608334e-07 0 -1.7708285403608334e-07 -2.3255075729752847e-07 0 0 0 -7.1603257604367896e-08 -4.2945574590375383e-08 -1.1015046042860438e-07 0 -1.1015046042860438e-07 -3.5830034716272065e-07 0 0 0 -1.0031148043827417e-07 -1.9375597960422146e-08 -1.2881090778027935e-07 0 -1.2881090778027935e-07 -3.2013450099502476e-07 0 0 0 -8.4877524738861567e-08 -3.9051456107240998e-09 -8.5911513922198693e-08 0 -8.5911513922198693e-08 -4.2939183550553361e-07 0 0 0 -1.0832424527906437e-07 1.2923177728077357e-09 -3.0140426248562282e-08 0 -3.0140426248562282e-08 -4.5794355551057708e-07 0 0 0 -1.1416280943444212e-07 -1.8560927372930974e-08 -4.1258569690206369e-08 0 -4.1258569690206369e-08 -5.4687118639013182e-07 0 0 0 -1.4135802844076591e-07 -3.1349949937600939e-08 -6.6579996867129853e-08 0 -6.6579996867129853e-08 -6.4470500314644309e-07 0 0 0 -1.690137382710108e-07 5.2531972327537755e-09 -5.9174810207879353e-08 0 -5.9174810207879353e-08 -4.7690438431091219e-07 0 0 0 -1.1791279676954003e-07 -2.8591143766059758e-08 -7.9476132307273555e-08 0 -7.9476132307273555e-08 -5.0001139062108977e-07 0 0 0 -1.3215063359678696e-07 -1.4195880930784275e-08 -1.3249663830276894e-07 0 -1.3249663830276894e-07 -3.8360672198809882e-07 0 0 0 -9.9450650729720984e-08 -6.4624246889039908e-08 -1.2700718735558839e-07 0 -1.2700718735558839e-07 -5.44148564555812e-07 0 0 0 -1.5219320286121303e-07 -5.5612858845760933e-08 -1.6523222065805747e-07 0 -1.6523222065805747e-07 -3.3509730380978159e-07 0 0 0 -9.7677540663885785e-08 -2.3253267842964356e-08 -8.1629597851867908e-08 0 -8.1629597851867908e-08 -7.3974951486048142e-07 0 0 0 -1.9075069567586134e-07 1.1395941766143845e-08 -9.1384684310647334e-08 0 -9.1384684310647334e-08 -4.9728007132833423e-07 0 0 0 -1.2147103239054781e-07 7.3789191213649984e-09 -9.0522235255660061e-08 0 -9.0522235255660061e-08 -6.3418958583934318e-07 0 0 0 -1.5670266667949476e-07 -6.6995354612083344e-08 -1.1801634629963978e-07 0 -1.1801634629963978e-07 -9.5900961017043189e-07 0 0 0 -2.5650124119562893e-07 -4.6474555100502178e-08 -2.0085472460137554e-07 0 -2.0085472460137554e-07 -5.5749851855965508e-07 0 0 0 -1.50993268415039e-07 -1.0691584487426418e-07 -1.5327647660096795e-07 0 -1.5327647660096795e-07 -1.0568048510203501e-07 0 0 0 -5.3149082494074875e-08 -7.3178558152195867e-08 -1.5228036526417744e-07 0 -1.5228036526417744e-07 -3.4087738619690203e-07 0 0 0 -1.0351398608727432e-07 -9.0859841552286141e-08 -8.3132970285428138e-08 0 -8.3132970285428138e-08 -9.044993839301747e-09 0 0 0 -2.4976208847897144e-08 -6.5855852014066488e-08 -1.3766968036338147e-07 0 -1.3766968036338147e-07 -2.8532933450260642e-07 0 0 0 -8.7796296629168386e-08 -8.8057313069193807e-08 -1.8582775922674478e-07 0 -1.8582775922674478e-07 -6.8109448420006837e-07 0 0 0 -1.9228794931731554e-07 -1.3240901316130416e-07 -2.4247673107157533e-07 0 -2.4247673107157533e-07 -3.1051737652849886e-07 0 0 0 -1.1073159742245061e-07 2.8114926587600659e-08 -1.6458558692666749e-07 0 -1.6458558692666749e-07 -6.3466461951313226e-07 0 0 0 -1.5163742323138216e-07 -9.0036255176314036e-08 -1.7150309322293279e-07 0 -1.7150309322293279e-07 -1.1156576497265181e-06 0 0 0 -3.0142347622570741e-07 2.5909805336791238e-09 -1.9752660333383671e-07 0 -1.9752660333383671e-07 -7.408703985104292e-07 0 0 0 -1.8456985449418741e-07 -1.1553962728723737e-07 -2.4811540415913312e-07 0 -2.4811540415913312e-07 -1.6111040149964822e-06 0 0 0 -4.3166091057092949e-07 -1.8809697973009973e-07 -3.1670807883675965e-07 0 -3.1670807883675965e-07 -7.0962862086322738e-07 0 0 0 -2.2443140014833188e-07 -2.285637816268095e-07 -4.8786011754226803e-07 0 -4.8786011754226803e-07 -8.1302112717557613e-07 0 0 0 -2.6039622720059651e-07 -1.1573130295788378e-07 -1.5032169788677351e-07 0 -1.5032169788677351e-07 -2.0242879787651745e-07 0 0 0 -7.9540025208599936e-08 -1.8324903513699773e-08 -2.0457459628012722e-07 0 -2.0457459628012722e-07 -9.0386642385189047e-07 0 0 0 -2.3054783184139693e-07 1.6811353146116983e-08 -2.584019518037211e-07 0 -2.584019518037211e-07 -8.8782764563923502e-07 0 0 0 -2.177540731232793e-07 1.2169211362330499e-07 -6.8018564017702678e-07 0 -6.8018564017702678e-07 -7.3060640988622527e-07 0 0 0 -1.5222857406573028e-07 -2.4312856432525108e-07 -4.5095673783310823e-07 0 -4.5095673783310823e-07 -2.5351725535244194e-06 0 0 0 -6.9457527946241762e-07 7.0950770601527999e-07 -8.1377413715519405e-07 0 -8.1377413715519405e-07 -9.1117969666392295e-07 0 0 0 -5.0417997662160738e-08 1.2854429389096957e-07 -3.4401590984951096e-07 0 -3.4401590984951096e-07 -2.2166358757136531e-06 0 0 0 -5.2202289545567152e-07 -1.8622677340739451e-08 -9.3831600391237022e-08 0 -9.3831600391237022e-08 7.9811434977458483e-08 0 0 0 1.529718940917997e-08 9.743619350370645e-07 5.2853640695488657e-08 0 5.2853640695488657e-08 -1.3260416619760461e-07 0 0 0 2.1043944220986497e-07 1.0387668109277507e-07 4.8569962277841456e-08 0 4.8569962277841456e-08 4.900833011528226e-08 0 0 0 3.8221252802014545e-08 8.7853632662954029e-08 -9.2585006379669813e-08 0 -9.2585006379669813e-08 -2.4586485535412556e-07 0 0 0 -3.950280567279246e-08 6.4971505635085331e-07 6.6698685561630744e-08 0 6.6698685561630744e-08 -2.1652825735143299e-08 0 0 0 1.5701555765392695e-07 -3.8236057476218064e-08 -8.8579339222373122e-08 0 -8.8579339222373122e-08 -1.7388428592115976e-07 0 0 0 -5.303008584934443e-08 -9.8786589603017222e-09 -7.9556413138073508e-08 0 -7.9556413138073508e-08 -9.2795671856263334e-08 0 0 0 -2.5668582704141277e-08 -4.2321312923928894e-08 -8.832439039023949e-08 0 -8.832439039023949e-08 -1.0533334155628381e-07 0 0 0 -3.6913663620053135e-08 -5.5353479584839348e-08 -1.0376508049078492e-07 0 -1.0376508049078492e-07 -8.8163244335015115e-08 0 0 0 -3.5879180979963669e-08 -5.6457057159611119e-08 -1.1502965560577381e-07 0 -1.1502965560577381e-07 -1.0237574907749812e-07 0 0 0 -3.9708201559277242e-08 -5.6964180189903964e-08 -1.3646578885028253e-07 0 -1.3646578885028253e-07 -2.0846034974513917e-07 0 0 0 -6.6356132483760651e-08 -3.3178592811373771e-08 -1.0671619562293514e-07 0 -1.0671619562293514e-07 -1.0071155565206654e-07 0 0 0 -3.347253711586017e-08 -2.1852721877026937e-08 -1.0106829158734735e-07 0 -1.0106829158734735e-07 -7.6711857233621285e-08 0 0 0 -2.4641144777662175e-08 -4.8063897900747339e-08 -1.1505632537137221e-07 0 -1.1505632537137221e-07 -1.8964149133834284e-07 0 0 0 -5.9426347309772516e-08 -1.1580972894164435e-08 -8.8775094524348569e-08 0 -8.8775094524348569e-08 -1.752025980129752e-07 0 0 0 -4.6695892726785015e-08 -2.500166034629805e-08 -7.9899428227344342e-08 0 -7.9899428227344342e-08 -2.3882215168736526e-07 0 0 0 -6.5955953008415775e-08 -2.5754113894180118e-08 -1.0202673425546707e-07 0 -1.0202673425546707e-07 -2.1626757031403846e-07 0 0 0 -6.0505421052054506e-08 -3.0223908887340972e-08 -9.9545158005363386e-08 0 -9.9545158005363386e-08 -2.7691378026753648e-07 0 0 0 -7.678442228871931e-08 -2.0584946689202424e-08 -6.737124833411085e-08 0 -6.737124833411085e-08 -3.9317981233134567e-07 0 0 0 -1.0344118975513681e-07 -1.4228462304238533e-08 -7.3892013818534926e-08 0 -7.3892013818534926e-08 -3.5502627744961135e-07 0 0 0 -9.2313684938462405e-08 -1.1696294385625999e-08 -6.9716761524384619e-08 0 -6.9716761524384619e-08 -2.6422083857039335e-07 0 0 0 -6.8979283239005003e-08 6.9206837627398823e-09 -7.2018026253979301e-08 0 -7.2018026253979301e-08 -3.0998634763688759e-07 0 0 0 -7.5766415968536874e-08 -2.8859842200053582e-09 -2.6293190899888687e-08 0 -2.6293190899888687e-08 -3.8185772426453692e-07 0 0 0 -9.6185927121135782e-08 4.3176180629406319e-09 -2.6000412569906061e-08 0 -2.6000412569906061e-08 -3.5401789206018526e-07 0 0 0 -8.7425068499311111e-08 -2.1365231554620495e-09 -2.6618033329062104e-08 0 -2.6618033329062104e-08 -4.0402954492371657e-07 0 0 0 -1.0154151701979465e-07 -3.058230501684592e-09 -2.7586697611521663e-08 0 -2.7586697611521663e-08 -4.5948972743424908e-07 0 0 0 -1.1563698948398342e-07 2.3629338849053532e-09 -3.0042050719489685e-08 0 -3.0042050719489685e-08 -3.7125002859459822e-07 0 0 0 -9.2221773677423322e-08 1.2695587485069174e-09 -5.0944792185576101e-08 0 -5.0944792185576101e-08 -2.6507490315380967e-07 0 0 0 -6.5951336101325847e-08 -5.0580857604913879e-09 -4.5196940729372367e-08 0 -4.5196940729372367e-08 -2.1828370615986526e-07 0 0 0 -5.5835447980089174e-08 -1.3888008187824369e-08 -4.9427081178684763e-08 0 -4.9427081178684763e-08 -3.1030058129157638e-07 0 0 0 -8.1047147369849818e-08 2.4465092187142974e-09 -2.9639693127107978e-08 0 -2.9639693127107978e-08 -2.871852348048778e-07 0 0 0 -7.1184681396540876e-08 -1.0743466305064027e-08 -2.2379734232814159e-08 0 -2.2379734232814159e-08 -3.216460939294648e-07 0 0 0 -8.3097390058631943e-08 -4.5872665826384937e-10 -1.5046983761209273e-08 0 -1.5046983761209273e-08 -2.7314625678757214e-07 0 0 0 -6.8401245861458997e-08 7.8346432510579664e-10 -1.6423070029107867e-08 0 -1.6423070029107867e-08 -2.8069790238296512e-07 0 0 0 -6.9978609514464775e-08 1.3746962085575175e-10 -1.692087719475323e-08 0 -1.692087719475323e-08 -2.4642033936882363e-07 0 0 0 -6.1570717436992075e-08 -1.9883712607146237e-11 -1.6680598892072031e-08 0 -1.6680598892072031e-08 -2.3738212819879611e-07 0 0 0 -5.9350502977850866e-08 -2.0837712669258352e-09 -1.2947224084062841e-08 0 -1.2947224084062841e-08 -2.1234659035131825e-07 0 0 0 -5.3607590404561022e-08 -2.6456603673334335e-09 -1.5705855816309234e-08 0 -1.5705855816309234e-08 -2.2834784756573545e-07 0 0 0 -5.7748376983267009e-08 -6.8829101939525858e-09 -4.4207314979511118e-08 0 -4.4207314979511118e-08 -2.0940202938569847e-07 0 0 0 -5.4071234894912739e-08 4.4983616032795274e-09 -4.156771666305225e-08 0 -4.156771666305225e-08 -2.0550606111144185e-07 0 0 0 -5.0251924877040527e-08 -7.8784919412771885e-09 -3.7764872635459291e-08 0 -3.7764872635459291e-08 -2.5010797835213688e-07 0 0 0 -6.4496617573353729e-08 -4.6120124642033628e-09 -7.8362024450882578e-08 0 -7.8362024450882578e-08 -1.5600428121536653e-07 0 0 0 -4.01540734198925e-08 -1.8994753461846431e-08 -7.1128010756492785e-08 0 -7.1128010756492785e-08 -1.4210678894396924e-07 0 0 0 -4.0275385601453931e-08 2.8445708832399515e-09 -4.0664679811888836e-08 0 -4.0664679811888836e-08 -1.3910812688479273e-07 0 0 0 -3.4065889000388209e-08 3.7932648454993852e-09 -4.5167389668764678e-08 0 -4.5167389668764678e-08 -1.5814485356139966e-07 0 0 0 -3.8587897178974963e-08 -4.9620888058447691e-09 -4.2801564970299741e-08 0 -4.2801564970299741e-08 -1.9288670738843623e-07 0 0 0 -4.9462199048570249e-08 -3.4560077470062179e-11 -1.1407771451627414e-08 0 -1.1407771451627414e-08 -1.8802714088940611e-07 0 0 0 -4.7015425241718938e-08 1.96659347331268e-09 -1.3412189219661913e-08 0 -1.3412189219661913e-08 -1.8859883438667603e-07 0 0 0 -4.6658060228340838e-08 9.1434706694452657e-10 -1.3551533942553979e-08 0 -1.3551533942553979e-08 -1.7652761988625041e-07 0 0 0 -4.3903318204826419e-08 9.3368038256570645e-09 -1.8675842553811592e-08 0 -1.8675842553811592e-08 -1.6223728664165144e-07 0 0 0 -3.8225120703998489e-08 3.6004271421281246e-10 1.3043885012270835e-08 0 1.3043885012270835e-08 -1.6334940823856711e-07 0 0 0 -4.0747341381088574e-08 1.2000449793915818e-08 1.9406558950271911e-08 0 1.9406558950271911e-08 -1.5839740257843259e-07 0 0 0 -3.6599238196129194e-08 7.5066788707738627e-14 2.0840826364678588e-15 0 2.0840826364678588e-15 -9.1639371177066956e-14 0 0 0 -4.1431456173320348e-15 1.2975638886683846e-09 1.2288884969143746e-08 0 1.2288884969143746e-08 -1.8857487863068079e-07 0 0 0 -4.681932868550294e-08 2.0084268751613776e-13 1.2721513729757093e-15 0 1.2721513729757093e-15 -1.2775415030182486e-13 0 0 0 1.8272134303578271e-14 -8.3288893709937231e-10 1.1821650096934569e-08 0 1.1821650096934569e-08 -2.0145300746436887e-07 0 0 0 -5.0571474100367113e-08 -9.4610130104833714e-10 3.7204049911609905e-08 0 3.7204049911609905e-08 -1.7063629990160124e-07 0 0 0 -4.2895600300662366e-08 1.2568897398713531e-08 3.3645673411078391e-08 0 3.3645673411078391e-08 -1.2979305631486927e-07 0 0 0 -2.9306039729038949e-08 -8.7406659361065492e-10 3.7598959202256011e-08 0 3.7598959202256011e-08 -1.676572131950177e-07 0 0 0 -4.2132819947157035e-08 3.5530130331154674e-09 5.6908739508174614e-08 0 5.6908739508174614e-08 -1.2299232948813444e-07 0 0 0 -2.9859829113754823e-08 -1.0032388820677595e-08 6.2091251107500532e-08 0 6.2091251107500532e-08 -1.7047483256921553e-07 0 0 0 -4.5126805347473282e-08 -4.0812228375209855e-09 6.6477172610415679e-08 0 6.6477172610415679e-08 -1.432554477043435e-07 0 0 0 -3.6834167635466161e-08 -1.1093017738600515e-08 7.3093589375664536e-08 0 7.3093589375664536e-08 -2.0953860339099128e-07 0 0 0 -5.5157905282397922e-08 -4.1581941608223429e-09 3.7320802909017882e-08 0 3.7320802909017882e-08 -2.0887797705916787e-07 0 0 0 -5.3259042804997555e-08 2.0503645821671132e-09 4.3089282708918164e-08 0 4.3089282708918164e-08 -2.3650615176419583e-07 0 0 0 -5.8613946795507232e-08 6.7436965247265146e-09 3.8537669460836574e-08 0 3.8537669460836574e-08 -1.8479138560458321e-07 0 0 0 -4.4511922269964015e-08 -5.0833816851610589e-09 3.4542608307680828e-08 0 3.4542608307680828e-08 -2.2178192402447227e-07 0 0 0 -5.6716326427408333e-08 4.0770976305083752e-11 1.3012383875088211e-08 0 1.3012383875088211e-08 -2.1032042432394679e-07 0 0 0 -5.2569913336910692e-08 -1.7617129819574783e-10 1.266199833818352e-08 0 1.266199833818352e-08 -2.1709390407227464e-07 0 0 0 -5.4317518842617698e-08 2.3121484234771313e-13 2.2525386173063023e-16 0 2.2525386173063023e-16 -1.4183230841211222e-13 0 0 0 2.2345633483900379e-14 -6.5936500023455536e-10 1.1598280890948567e-08 0 1.1598280890948567e-08 -2.5278327980695214e-07 0 0 0 -6.3360661201796728e-08 1.8860990552405974e-13 -5.0098746307067952e-15 0 -5.0098746307067952e-15 -1.8713774457499604e-13 0 0 0 3.6804023726597408e-16 1.1471176371365663e-09 1.2211376963141514e-08 0 1.2211376963141514e-08 -2.4303610857232719e-07 0 0 0 -6.0472247733797596e-08 -3.8335873637473941e-09 1.4799928620141624e-08 0 1.4799928620141624e-08 -2.7382642339556953e-07 0 0 0 -6.9415002689829334e-08 5.0636757543379435e-14 5.8754098077227422e-15 0 5.8754098077227422e-15 -2.6714008106680116e-13 0 0 0 -5.4125830880855477e-14 9.5036848501914227e-11 1.7162895528882392e-08 0 1.7162895528882392e-08 -2.645544893273532e-07 0 0 0 -6.6114863119712767e-08 1.4569487752979464e-09 1.6608554717554522e-08 0 1.6608554717554522e-08 -3.0736480571528876e-07 0 0 0 -7.6476964234997756e-08 -2.152440554967518e-13 1.5241852912802731e-14 0 1.5241852912802731e-14 -3.9284061878937693e-13 0 0 0 -1.5202116857153206e-13 -1.0137695674872402e-09 1.5780212693985239e-08 0 1.5780212693985239e-08 -3.2020353799859884e-07 0 0 0 -8.0304326891521573e-08 1.6096909545666515e-09 5.7615972471015126e-08 0 5.7615972471015126e-08 -2.9804349538138703e-07 0 0 0 -7.4108451106705094e-08 -7.5152914796464717e-09 4.9109632020605012e-08 0 4.9109632020605012e-08 -2.5737082195611744e-07 0 0 0 -6.6221528358940922e-08 -1.2447110001974521e-08 4.31013179827277e-08 0 4.31013179827277e-08 -2.8044135735223049e-07 0 0 0 -7.3222116838551146e-08 -2.168747856396453e-09 2.0876664209375673e-08 0 2.0876664209375673e-08 -4.0456422162956235e-07 0 0 0 -1.0168324237148959e-07 5.543171851870009e-10 2.2448826544155004e-08 0 2.2448826544155004e-08 -3.983762542119527e-07 0 0 0 -9.9455484256691424e-08 -1.2013245908736842e-12 3.2438199547313275e-14 0 3.2438199547313275e-14 -8.1345944288598999e-13 0 0 0 -5.0369600843991875e-13 1.0786580861349486e-10 2.2706585366598688e-08 0 2.2706585366598688e-08 -3.3596555452902039e-07 0 0 0 -8.3964422180101723e-08 -4.3414614101433623e-09 1.9854020346212521e-08 0 1.9854020346212521e-08 -3.4975612377722112e-07 0 0 0 -8.852439629684128e-08 -6.3140496385366265e-13 3.0690197433170366e-14 0 3.0690197433170366e-14 -5.7179563006151882e-13 0 0 0 -3.0080014847879524e-13 -1.5892609883504816e-08 5.6411928919910861e-08 0 5.6411928919910861e-08 -3.5236031614704137e-07 0 0 0 -9.206323150763644e-08 4.8596540457155534e-09 7.9690314927367744e-08 0 7.9690314927367744e-08 -3.8041049244595537e-07 0 0 0 -9.3887709600060219e-08 -1.2108708154289095e-08 6.1941583126505174e-08 0 6.1941583126505174e-08 -3.2087236586477267e-07 0 0 0 -8.3245268504765497e-08 -3.1772880442787788e-08 1.1489037979646862e-07 0 1.1489037979646862e-07 -3.181332044543376e-07 0 0 0 -8.7476521224281373e-08 -1.3877095980861625e-08 1.0072444259529347e-07 0 1.0072444259529347e-07 -2.0177887977313489e-07 0 0 0 -5.3913993938499234e-08 -1.0681343922831849e-08 7.1482544881792551e-08 0 7.1482544881792551e-08 -1.8853216684354717e-07 0 0 0 -4.9803377691594676e-08 -3.1310000081331555e-08 9.0692675235913594e-08 0 9.0692675235913594e-08 -2.6574955818266842e-07 0 0 0 -7.4264889565999993e-08 -3.1638485686737356e-08 1.171741085052449e-07 0 1.171741085052449e-07 -1.7128382431406768e-07 0 0 0 -5.0730577500201285e-08 -4.2694478122216596e-08 1.3355362246711234e-07 0 1.3355362246711234e-07 -1.0105470161967753e-07 0 0 0 -3.5937294935473531e-08 -4.6593778443051372e-08 1.1909840325767148e-07 0 1.1909840325767148e-07 -2.1890603199167515e-07 0 0 0 -6.6374952608681683e-08 -3.9918294405913986e-08 9.8354590155832362e-08 0 9.8354590155832362e-08 -8.278362666045278e-08 0 0 0 -3.0675480266591691e-08 -4.8692102638932645e-08 1.1874413407647879e-07 0 1.1874413407647879e-07 -8.9608982737167738e-08 0 0 0 -3.4575271344025112e-08 -2.8345396691220132e-08 8.4909899382295762e-08 0 8.4909899382295762e-08 -8.7311613379236139e-08 0 0 0 -2.8914252517614103e-08 -1.0124043550278014e-08 8.7178813610630127e-08 0 8.7178813610630127e-08 -8.4889042383091383e-08 0 0 0 -2.3753271483342349e-08 -2.7083884116264969e-08 7.2281981231577109e-08 0 7.2281981231577109e-08 -1.3796750557938807e-07 0 0 0 -4.12628474239133e-08 -2.6947831138207077e-08 9.3209985326533925e-08 0 9.3209985326533925e-08 -1.5181997690509754e-07 0 0 0 -4.4691952010826258e-08 -2.3793230740632818e-08 8.7602896004485238e-08 0 8.7602896004485238e-08 -1.0476228743732769e-07 0 0 0 -3.2138879544490201e-08 6.1772911796364544e-07 -7.0695946548955187e-08 0 -7.0695946548955187e-08 -1.6933589263954077e-08 0 0 0 1.5019888217492281e-07 8.8900034723567333e-08 -2.1097774394605832e-08 0 -2.1097774394605832e-08 -1.5815904259927147e-07 0 0 0 -1.731475196892614e-08 1.6057113699801118e-07 1.4850182176694331e-08 0 1.4850182176694331e-08 3.4680192962200627e-08 0 0 0 4.8812832490053269e-08 1.078776614957961e-06 -5.5198341515074801e-08 0 -5.5198341515074801e-08 -1.6142442589102427e-07 0 0 0 2.2933804726673377e-07 1.0943286962942497e-07 6.9935137310645778e-09 0 6.9935137310645778e-09 1.9999656497377324e-07 0 0 0 7.7357358650799551e-08 6.9878670709099775e-07 7.8310732647174469e-07 0 7.8310732647174469e-07 -9.377650455110301e-07 0 0 0 -5.9744584605009783e-08 1.3905147204124099e-07 3.3294360067602335e-07 0 3.3294360067602335e-07 -2.2493909889305135e-06 0 0 0 -5.2758487922231918e-07 -1.3497062109753062e-06 -6.2201802018196806e-14 0 -6.2201802018196806e-14 -4.0490045955417559e-06 0 0 0 -1.3496777016292655e-06 -8.9482530308727327e-09 -6.6320947806199287e-14 0 -6.6320947806199287e-14 -2.6776914319879972e-08 0 0 0 -8.9312918376881778e-09 -1.7966677118658527e-07 4.7332355464793265e-07 0 4.7332355464793265e-07 -2.450125872378447e-06 0 0 0 -6.5744816089125828e-07 8.1277067695585467e-08 6.5886874457538002e-07 0 6.5886874457538002e-07 -6.8543753094290079e-07 0 0 0 -1.5104011581182841e-07 2.5391116470994963e-08 3.9050944061052213e-07 0 3.9050944061052213e-07 -9.3311383387420926e-07 0 0 0 -2.2693067935080326e-07 -1.8756310663433949e-07 3.2381144700995782e-07 0 3.2381144700995782e-07 -1.8013332984691295e-07 0 0 0 -9.1924109120313005e-08 -3.3455667776751224e-08 2.2156876079104777e-07 0 2.2156876079104777e-07 -8.9801470780947954e-07 0 0 0 -2.3286759389655854e-07 -1.6315627723781825e-07 2.8867445196163529e-07 0 2.8867445196163529e-07 -9.5083519786856193e-07 0 0 0 -2.7849786877659407e-07 -6.4424939574032653e-08 1.6349633132652835e-07 0 1.6349633132652835e-07 -3.5268393885989768e-07 0 0 0 -1.0427721960848227e-07 -1.5626965179971325e-07 3.6669495407647684e-07 0 3.6669495407647684e-07 -8.0381064479004574e-07 0 0 0 -2.4002007414744007e-07 -1.6762011415390399e-08 1.380526166321687e-07 0 1.380526166321687e-07 -9.359106880903687e-07 0 0 0 -2.381681748764403e-07 -7.6489360645774506e-11 -5.1834720896950804e-14 0 -5.1834720896950804e-14 -1.8461304871307815e-10 0 0 0 -6.5275602339713165e-11 -1.4434353833436817e-07 2.8045078980120699e-07 0 2.8045078980120699e-07 -1.702988270673235e-06 0 0 0 -4.6183295225190047e-07 -2.9482227224704724e-08 1.45099855714721e-07 0 1.45099855714721e-07 -1.1502561168258083e-06 0 0 0 -2.9493458601262791e-07 -1.2543720001978907e-11 1.2710200450647804e-15 0 1.2710200450647804e-15 -6.4813059063991718e-12 0 0 0 -4.7562564770945204e-12 6.8387678071925419e-09 1.4578665856946664e-07 0 1.4578665856946664e-07 -7.3903004489223758e-07 0 0 0 -1.8304781927126073e-07 -1.3289346566196296e-07 2.713569396345842e-07 0 2.713569396345842e-07 -5.5498035248982779e-07 0 0 0 -1.7196845453794758e-07 -1.4299499970505965e-07 2.191940177670965e-07 0 2.191940177670965e-07 -2.7812114183834436e-07 0 0 0 -1.0527903538585119e-07 -5.9776225422477258e-08 4.7507515358516242e-08 0 4.7507515358516242e-08 -1.0271115821900706e-08 0 0 0 -1.7511835311094226e-08 -9.5084083255899999e-08 1.6899195911158229e-07 0 1.6899195911158229e-07 -2.6401685233564111e-07 0 0 0 -8.9775233897885013e-08 -8.2031165357992326e-08 1.2653848093626365e-07 0 1.2653848093626365e-07 -8.2766700805563683e-08 0 0 0 -4.1199466540888976e-08 -8.7876167215177374e-08 1.6616023443099975e-07 0 1.6616023443099975e-07 -2.7067469201155724e-07 0 0 0 -8.9637714806683864e-08 -9.2672317810109123e-08 1.9834657148533582e-07 0 1.9834657148533582e-07 -4.8054646572610649e-07 0 0 0 -1.4330469588405396e-07 -5.0990622287408644e-08 1.3755920675746091e-07 0 1.3755920675746091e-07 -2.7318275413433657e-07 0 0 0 -8.1043344105436276e-08 -7.9078257012305186e-08 1.4720601051420812e-07 0 1.4720601051420812e-07 -2.7808058843633253e-07 0 0 0 -8.9289711362159403e-08 -6.1125455357048153e-08 1.3268508930325604e-07 0 1.3268508930325604e-07 -7.4251309221834703e-07 0 0 0 -2.0090963689384874e-07 -1.7359715563686996e-08 1.6483104208729802e-07 0 1.6483104208729802e-07 -6.6860978846842889e-07 0 0 0 -1.7149237600802887e-07 -6.2277794877970764e-09 5.8344978646481205e-08 0 5.8344978646481205e-08 -7.0304850105609343e-07 0 0 0 -1.7731907013597284e-07 -8.6792738682922465e-12 4.960628399577061e-14 0 4.960628399577061e-14 -3.8831398355962509e-12 0 0 0 -3.1406034259721252e-12 -4.3613495465968154e-08 1.0128704277327289e-07 0 1.0128704277327289e-07 -9.5771213905819227e-07 0 0 0 -2.503314086310402e-07 1.2223286994643309e-10 5.6006665453648303e-08 0 5.6006665453648303e-08 -5.6510838424974324e-07 0 0 0 -1.4124653784494899e-07 -6.1540867070701855e-12 6.2187963161649368e-14 0 6.2187963161649368e-14 -2.839576815235116e-12 0 0 0 -2.2484158805763253e-12 -3.178308014850085e-09 5.7563541619633269e-08 0 5.7563541619633269e-08 -7.4559483504214509e-07 0 0 0 -1.8719328576424879e-07 -3.6843077991544493e-08 1.0402979204306681e-07 0 1.0402979204306681e-07 -5.9326794357373117e-07 0 0 0 -1.5752775539131923e-07 -3.8115129233156816e-08 1.2881721561669612e-07 0 1.2881721561669612e-07 -4.7816748925247315e-07 0 0 0 -1.2907065462140748e-07 -3.4148538560591725e-09 1.1104805203349434e-07 0 1.1104805203349434e-07 -4.89401935813132e-07 0 0 0 -1.2320419741729779e-07 -2.013817058198248e-08 8.3212641736226122e-08 0 8.3212641736226122e-08 -3.9487255140491667e-07 0 0 0 -1.0375268049672485e-07 -2.2660240727139235e-09 2.9161699042075673e-08 0 2.9161699042075673e-08 -5.3189765811606863e-07 0 0 0 -1.3354092054719543e-07 -4.3277508321476581e-12 5.5558421637052101e-14 0 5.5558421637052101e-14 -2.0985343935527577e-12 0 0 0 -1.606571306425104e-12 -1.488316608905488e-08 4.4486517743538506e-08 0 4.4486517743538506e-08 -6.2292074610794098e-07 0 0 0 -1.5945097804924897e-07 -1.9798926701695216e-12 4.0401457247890357e-14 0 4.0401457247890357e-14 -1.1352181822430617e-12 0 0 0 -7.7877771310314586e-13 -5.236418670910996e-09 2.8826586654108625e-08 0 2.8826586654108625e-08 -4.6116214660353383e-07 0 0 0 -1.1659964131861115e-07 2.9734198816982412e-09 3.2380443874075104e-08 0 3.2380443874075104e-08 -5.2694010329004047e-07 0 0 0 -1.3099167085208524e-07 -3.02269990072331e-12 3.8130079298694876e-14 0 3.8130079298694876e-14 -1.5576982180230463e-12 0 0 0 -1.145099529686589e-12 -1.1326986088639094e-09 3.1990053148334624e-08 0 3.1990053148334624e-08 -4.3374876523995718e-07 0 0 0 -1.0872036596220485e-07 -1.7090389165755438e-08 7.2599851808205106e-08 0 7.2599851808205106e-08 -4.5635538589563891e-07 0 0 0 -1.1836144376534869e-07 -2.3954978501847703e-08 1.1567134725773682e-07 0 1.1567134725773682e-07 -2.20922089525339e-07 0 0 0 -6.1219267006796754e-08 -5.5619994649405175e-08 1.4737131952087232e-07 0 1.4737131952087232e-07 -3.988829063166308e-07 0 0 0 -1.1362572524150889e-07 2.2028259634280377e-08 4.5347716894852635e-08 0 4.5347716894852635e-08 -3.3061722284485762e-09 0 0 0 4.6805218514579501e-09 -5.9577370251921062e-08 1.433239889885415e-07 0 1.433239889885415e-07 -2.2212271168988104e-07 0 0 0 -7.0425020485450507e-08 -4.6551809751892302e-08 1.1314603968542293e-07 0 1.1314603968542293e-07 -1.0407410026348469e-07 0 0 0 -3.7656477503844274e-08 8.2373096120049738e-09 6.3920036531250148e-08 0 6.3920036531250148e-08 -7.4733534350340175e-08 0 0 0 -1.6624056184583774e-08 -6.4426180596405575e-08 1.2051658249608355e-07 0 1.2051658249608355e-07 -8.7128560106037756e-08 0 0 0 -3.7888685175610786e-08 -9.9914204493333643e-09 3.0073169025375848e-08 0 3.0073169025375848e-08 1.9679998399306228e-08 0 0 0 2.4221444874931762e-09 1.3473934394813528e-07 1.3841448004290124e-08 0 1.3841448004290124e-08 -6.1355501592251154e-08 0 0 0 1.8345960588971083e-08 1.5825398133387034e-07 -1.541751854864407e-08 0 -1.541751854864407e-08 9.8556647834434355e-09 0 0 0 4.2027411529328456e-08 1.5697097268007843e-07 -1.8372082981275553e-08 0 -1.8372082981275553e-08 1.1261485290728333e-08 0 0 0 4.2058114492701763e-08 1.418874141456651e-07 -4.061806297346401e-08 0 -4.061806297346401e-08 2.7718075453961158e-08 0 0 0 4.2401372399906499e-08 4.3159371912470427e-07 -3.2948399982645341e-08 0 -3.2948399982645341e-08 5.3191595004697516e-09 0 0 0 1.0922821965629344e-07 1.4417605540028339e-07 5.4239228332169046e-08 0 5.4239228332169046e-08 4.7963802045900704e-08 0 0 0 4.8034964361546029e-08 3.1919400004540223e-07 -7.3930083328024955e-09 0 -7.3930083328024955e-09 8.545737081241896e-09 0 0 0 8.1934934281661005e-08 1.4801910047329556e-07 1.100407349658911e-08 0 1.100407349658911e-08 -3.3851093158251003e-09 0 0 0 3.6158497789367607e-08 -3.6275943282783119e-08 1.0493001537567591e-07 0 1.0493001537567591e-07 -2.273490625098931e-08 0 0 0 -1.4752712383443121e-08 1.3386113521954855e-08 3.7446306033683769e-08 0 3.7446306033683769e-08 3.5447287372317536e-08 0 0 0 1.2208350223568098e-08 1.6030288291586988e-07 1.5170193019237311e-08 0 1.5170193019237311e-08 3.0381486579464942e-08 0 0 0 4.767109237383373e-08 1.7796697240134949e-08 4.1356839429660125e-08 0 4.1356839429660125e-08 1.0963010249943223e-08 0 0 0 7.1899268725195298e-09 2.7219353514457323e-08 4.6700089008690035e-08 0 4.6700089008690035e-08 5.9055331463037394e-08 0 0 0 2.1568671244373681e-08 3.1072305812558486e-07 2.2098442006388533e-08 0 2.2098442006388533e-08 2.54887319608629e-08 0 0 0 8.405294752161194e-08 -3.4691130196955666e-08 7.7275213663932337e-08 0 7.7275213663932337e-08 -1.1469032363559277e-08 0 0 0 -1.1540040640128731e-08 -4.67070267697155e-08 9.2166056945961192e-08 0 9.2166056945961192e-08 -4.4250037163303576e-08 0 0 0 -2.2739265983254756e-08 -3.5002194902868287e-08 7.6898758201157978e-08 0 7.6898758201157978e-08 -1.6465632717335234e-08 0 0 0 -1.2866956905050884e-08 -3.2553779512472384e-08 8.3831461911930398e-08 0 8.3831461911930398e-08 -8.9038644819836321e-09 0 0 0 -1.0364410998613997e-08 -2.8391826723684077e-08 7.784417574741125e-08 0 7.784417574741125e-08 -2.0689066842122124e-08 0 0 0 -1.2270223391451557e-08 -4.1934749340568417e-08 7.9708295669546788e-08 0 7.9708295669546788e-08 -3.6356829183194355e-08 0 0 0 -1.9572894630940706e-08 -3.1612755370246007e-08 6.7721796592029923e-08 0 6.7721796592029923e-08 -3.6905726350241544e-08 0 0 0 -1.7129620430121894e-08 -2.6253703808676012e-08 7.020782666345684e-08 0 7.020782666345684e-08 -8.7869959721538034e-09 0 0 0 -8.7601749452074552e-09 -5.5597988904030491e-08 4.65509810114421e-08 0 4.65509810114421e-08 -2.0849679666736695e-08 0 0 0 -1.9111917142691808e-08 -1.8499283479077679e-08 6.115127943240207e-08 0 6.115127943240207e-08 -6.1678570669666929e-09 0 0 0 -6.166785136511093e-09 4.1002109372764467e-08 1.8388263697293202e-08 0 1.8388263697293202e-08 -2.3227636846662507e-08 0 0 0 4.4436181315254767e-09 -1.2108060600125276e-08 4.7840990378960762e-08 0 4.7840990378960762e-08 -3.6887521627485305e-08 0 0 0 -1.2248895556902625e-08 1.4457299098485667e-08 2.5373998384562718e-08 0 2.5373998384562718e-08 1.3752011170242574e-08 0 0 0 7.0523275671820867e-09 2.0267909837599006e-08 1.8230975669785402e-08 0 1.8230975669785402e-08 -1.0546492083862487e-08 0 0 0 2.4303544384341296e-09 1.1327859069714713e-08 1.3094559273230846e-08 0 1.3094559273230846e-08 -3.2430951801942851e-08 0 0 0 -5.2757731830570407e-09 8.0092683279834344e-09 1.6193576101690967e-08 0 1.6193576101690967e-08 -5.0955694198047022e-08 0 0 0 -1.073660646751589e-08 -2.9741533371270637e-09 1.7914720609767215e-08 0 1.7914720609767215e-08 -9.6150951114745786e-08 0 0 0 -2.4781276112968212e-08 1.0665890511176544e-08 4.0731061537691531e-08 0 4.0731061537691531e-08 -4.4970368786301608e-08 0 0 0 -8.5761195687812394e-09 7.0987448040948361e-10 3.1067558588728406e-10 0 3.1067558588728406e-10 -1.1944497573229869e-07 0 0 0 -2.9683775312972289e-08 1.0452158534855445e-08 5.9822051335803344e-09 0 5.9822051335803344e-09 -1.0713407860998437e-07 0 0 0 -2.4170480018782246e-08 7.419145328053867e-09 6.3938064789341156e-09 0 6.3938064789341156e-09 -1.35327123301386e-07 0 0 0 -3.1976994493333112e-08 2.2722167441822821e-08 1.2678602379915336e-08 0 1.2678602379915336e-08 -1.4895772636495806e-07 0 0 0 -3.1558889730783915e-08 8.5340304947368486e-09 3.9020894138451388e-08 0 3.9020894138451388e-08 -9.9011151805589879e-08 0 0 0 -2.2619280327713244e-08 -9.2968557001933112e-09 4.6712201787092518e-08 0 4.6712201787092518e-08 -1.4936575538552194e-07 0 0 0 -3.9665652771428786e-08 -1.3512520092755748e-08 4.739880129402203e-08 0 4.739880129402203e-08 -1.1359128426700215e-07 0 0 0 -3.1775951089939507e-08 -9.789285183889487e-09 6.6416162364610768e-08 0 6.6416162364610768e-08 -3.3312233644619521e-08 0 0 0 -1.0775379707127259e-08 -1.1386597938479354e-09 6.0676935784038442e-08 0 6.0676935784038442e-08 -7.2765808665538267e-08 0 0 0 -1.847611711484659e-08 -2.7319222056821722e-08 7.7968366620700904e-08 0 7.7968366620700904e-08 -8.2086618193253627e-08 0 0 0 -2.7351460062518865e-08 -2.8512717265245707e-09 5.2893920648464176e-08 0 5.2893920648464176e-08 -2.6178389038213487e-08 0 0 0 -7.2574151911845146e-09 -2.2300176855636351e-08 6.1664925444906368e-08 0 6.1664925444906368e-08 -7.4839180398178797e-08 0 0 0 -2.4284839313453814e-08 
</DataArray>
</CellData>
</Piece>
</UnstructuredGrid>
</VTKFile>
