<?xml version="1.0"?>
<VTKFile type="UnstructuredGrid" version="0.1" byte_order="LittleEndian">
<UnstructuredGrid>
<Piece NumberOfPoints="880" NumberOfCells="299">
<Points>
<DataArray type="Float64" NumberOfComponents="3" format="ascii">
0 0.25000000000104189 0 -0 0 0 0.18653882694645291 0.22249173546702489 0 -0 0 0 0.24999999999941089 0 0 0.18653882694645291 0.22249173546702489 0 0.24999999999941089 0 0 0.49999999999869182 0 0 0.35015135319464608 0.1900339269648805 0 0.24999999999941089 0 0 0.35015135319464608 0.1900339269648805 0 0.18653882694645291 0.22249173546702489 0 0.35015135319464608 0.1900339269648805 0 0.49999999999869182 0 0 0.49924741621175961 0.21507969613896921 0 0.40587285776242238 0.32419148732968017 0 0.35015135319464608 0.1900339269648805 0 0.49924741621175961 0.21507969613896921 0 0.45418244162583959 0.41624787166862259 0 0.41576443813007791 0.48093483781626972 0 0.37764981543668408 0.41341486499350411 0 0.40587285776242238 0.32419148732968017 0 0.45418244162583959 0.41624787166862259 0 0.37764981543668408 0.41341486499350411 0 0.45418244162583959 0.41624787166862259 0 0.46566719828045178 0.47702825415921918 0 0.41576443813007791 0.48093483781626972 0 0.46566719828045178 0.47702825415921918 0 0.4638583922372429 0.51470588235294135 0 0.41576443813007791 0.48093483781626972 0 0.49954900152271581 0.45107191084564019 0 0.5 0.5 0 0.46566719828045178 0.47702825415921918 0 0.46566719828045178 0.47702825415921918 0 0.5 0.5 0 0.4638583922372429 0.51470588235294135 0 0.49954900152271581 0.45107191084564019 0 0.46566719828045178 0.47702825415921918 0 0.45418244162583959 0.41624787166862259 0 0.45418244162583959 0.41624787166862259 0 0.49435464945626773 0.33318442629318029 0 0.54876010062294855 0.39662628167175101 0 0.49435464945626773 0.33318442629318029 0 0.45418244162583959 0.41624787166862259 0 0.40587285776242238 0.32419148732968017 0 0.49435464945626773 0.33318442629318029 0 0.40587285776242238 0.32419148732968017 0 0.49924741621175961 0.21507969613896921 0 0.35015135319464608 0.1900339269648805 0 0.40587285776242238 0.32419148732968017 0 0.29145599617909779 0.35026601625021492 0 0.40587285776242238 0.32419148732968017 0 0.37764981543668408 0.41341486499350411 0 0.29145599617909779 0.35026601625021492 0 0.18653882694645291 0.22249173546702489 0 0.35015135319464608 0.1900339269648805 0 0.29145599617909779 0.35026601625021492 0 0.32540781287085369 0.49175159894608172 0 0.17872124008781709 0.39692711089439497 0 0.29145599617909779 0.35026601625021492 0 0.37764981543668408 0.41341486499350411 0 0.32540781287085369 0.49175159894608172 0 0.29145599617909779 0.35026601625021492 0 0.41576443813007791 0.48093483781626972 0 0.32540781287085369 0.49175159894608172 0 0.37764981543668408 0.41341486499350411 0 0 0.50000000000206157 0 0 0.25000000000104189 0 0.17872124008781709 0.39692711089439497 0 0 0.50000000000206157 0 0.17872124008781709 0.39692711089439497 0 0.22453074737734591 0.51613635929252633 0 0.17872124008781709 0.39692711089439497 0 0.32540781287085369 0.49175159894608172 0 0.22453074737734591 0.51613635929252633 0 0.17872124008781709 0.39692711089439497 0 0.18653882694645291 0.22249173546702489 0 0.29145599617909779 0.35026601625021492 0 0.17872124008781709 0.39692711089439497 0 0 0.25000000000104189 0 0.18653882694645291 0.22249173546702489 0 0 0.75000000000034772 0 0 0.50000000000206157 0 0.18442368612951149 0.62734948407416979 0 0 0.75000000000034772 0 0.18442368612951149 0.62734948407416979 0 0.22727208279115291 0.72949159435386135 0 0.18442368612951149 0.62734948407416979 0 0.31346558946927339 0.67110784456164874 0 0.22727208279115291 0.72949159435386135 0 0.31771010312359771 0.58585679504088894 0 0.18442368612951149 0.62734948407416979 0 0.22453074737734591 0.51613635929252633 0 0.18442368612951149 0.62734948407416979 0 0 0.50000000000206157 0 0.22453074737734591 0.51613635929252633 0 0 1 0 0 0.75000000000034772 0 0.096516139048187316 0.89789944498939644 0 0.1596341872805197 1 0 0 1 0 0.096516139048187316 0.89789944498939644 0 0 0.75000000000034772 0 0.1644705180525495 0.8200994301041713 0 0.096516139048187316 0.89789944498939644 0 0.2386314078659193 0.92924778694987087 0 0.1644705180525495 0.8200994301041713 0 0.27155609766735261 0.80398965554903801 0 0.1644705180525495 0.8200994301041713 0 0 0.75000000000034772 0 0.22727208279115291 0.72949159435386135 0 0.1644705180525495 0.8200994301041713 0 0.22727208279115291 0.72949159435386135 0 0.27155609766735261 0.80398965554903801 0 0.1644705180525495 0.8200994301041713 0 0.2386314078659193 0.92924778694987087 0 0.096516139048187316 0.89789944498939644 0 0.2386314078659193 0.92924778694987087 0 0.1596341872805197 1 0 0.096516139048187316 0.89789944498939644 0 0.27591592301363282 1 0 0.1596341872805197 1 0 0.2386314078659193 0.92924778694987087 0 0.36061858902161292 1 0 0.27591592301363282 1 0 0.32789203369730929 0.94219211037003092 0 0.36061858902161292 1 0 0.32789203369730929 0.94219211037003092 0 0.39382242252278338 0.95440420122950598 0 0.32789203369730929 0.94219211037003092 0 0.27591592301363282 1 0 0.2386314078659193 0.92924778694987087 0 0.31834856208730472 0.88134829947972904 0 0.32789203369730929 0.94219211037003092 0 0.2386314078659193 0.92924778694987087 0 0.39382242252278338 0.95440420122950598 0 0.32789203369730929 0.94219211037003092 0 0.37746652222901839 0.8987532801416368 0 0.37746652222901839 0.8987532801416368 0 0.32789203369730929 0.94219211037003092 0 0.31834856208730472 0.88134829947972904 0 0.31834856208730472 0.88134829947972904 0 0.2386314078659193 0.92924778694987087 0 0.27155609766735261 0.80398965554903801 0 0.37746652222901839 0.8987532801416368 0 0.31834856208730472 0.88134829947972904 0 0.36493375430404612 0.82333914183704071 0 0.36493375430404612 0.82333914183704071 0 0.31834856208730472 0.88134829947972904 0 0.27155609766735261 0.80398965554903801 0 0.22727208279115291 0.72949159435386135 0 0.32984265945580837 0.74432890077789404 0 0.27155609766735261 0.80398965554903801 0 0.32984265945580837 0.74432890077789404 0 0.36493375430404612 0.82333914183704071 0 0.27155609766735261 0.80398965554903801 0 0.36493375430404612 0.82333914183704071 0 0.32984265945580837 0.74432890077789404 0 0.39746869305290999 0.7595658224757349 0 0.42893012659725649 0.81084715169569632 0 0.36493375430404612 0.82333914183704071 0 0.39746869305290999 0.7595658224757349 0 0.44651949253391748 0.77225997208621999 0 0.42893012659725649 0.81084715169569632 0 0.39746869305290999 0.7595658224757349 0 0.44651949253391748 0.77225997208621999 0 0.39746869305290999 0.7595658224757349 0 0.43412357948152142 0.72128778687215156 0 0.44651949253391748 0.77225997208621999 0 0.47220206448452873 0.74892462649306213 0 0.47786860714145291 0.77730227330627721 0 0.47220206448452873 0.74892462649306213 0 0.5 0.76470588235294124 0 0.47786860714145291 0.77730227330627721 0 0.5 0.76470588235294124 0 0.5 0.79411764705882359 0 0.47786860714145291 0.77730227330627721 0 0.5 0.79411764705882359 0 0.5 0.82352941176470584 0 0.47062147868881782 0.80650323854033878 0 0.5 0.79411764705882359 0 0.47062147868881782 0.80650323854033878 0 0.47786860714145291 0.77730227330627721 0 0.47062147868881782 0.80650323854033878 0 0.44651949253391748 0.77225997208621999 0 0.47786860714145291 0.77730227330627721 0 0.47062147868881782 0.80650323854033878 0 0.42893012659725649 0.81084715169569632 0 0.44651949253391748 0.77225997208621999 0 0.46181179062043481 0.83858979842637782 0 0.42893012659725649 0.81084715169569632 0 0.47062147868881782 0.80650323854033878 0 0.42880856207355889 0.86677159981903118 0 0.42893012659725649 0.81084715169569632 0 0.46181179062043481 0.83858979842637782 0 0.5 0.82352941176470584 0 0.5 0.85294117647058831 0 0.46181179062043481 0.83858979842637782 0 0.5 0.82352941176470584 0 0.46181179062043481 0.83858979842637782 0 0.47062147868881782 0.80650323854033878 0 0.46181179062043481 0.83858979842637782 0 0.5 0.85294117647058831 0 0.47032448519202857 0.86718057681700655 0 0.5 0.85294117647058831 0 0.5 0.88235294117647056 0 0.47032448519202857 0.86718057681700655 0 0.42880856207355889 0.86677159981903118 0 0.46181179062043481 0.83858979842637782 0 0.47032448519202857 0.86718057681700655 0 0.42880856207355889 0.86677159981903118 0 0.37746652222901839 0.8987532801416368 0 0.36493375430404612 0.82333914183704071 0 0.42880856207355889 0.86677159981903118 0 0.36493375430404612 0.82333914183704071 0 0.42893012659725649 0.81084715169569632 0 0.39382242252278338 0.95440420122950598 0 0.37746652222901839 0.8987532801416368 0 0.42822627495986648 0.92083108049218854 0 0.42822627495986648 0.92083108049218854 0 0.37746652222901839 0.8987532801416368 0 0.42880856207355889 0.86677159981903118 0 0.46100207326614928 0.89524736819256467 0 0.42880856207355889 0.86677159981903118 0 0.47032448519202857 0.86718057681700655 0 0.42822627495986648 0.92083108049218854 0 0.42880856207355889 0.86677159981903118 0 0.46100207326614928 0.89524736819256467 0 0.5 0.88235294117647056 0 0.46100207326614928 0.89524736819256467 0 0.47032448519202857 0.86718057681700655 0 0.5 0.88235294117647056 0 0.5 0.91176470588235292 0 0.46100207326614928 0.89524736819256467 0 0.46100207326614928 0.89524736819256467 0 0.5 0.91176470588235292 0 0.46949408183482899 0.92833826413560594 0 0.5 0.91176470588235292 0 0.5 0.94117647058823528 0 0.46949408183482899 0.92833826413560594 0 0.42822627495986648 0.92083108049218854 0 0.46100207326614928 0.89524736819256467 0 0.46949408183482899 0.92833826413560594 0 0.44768478605684647 0.9646709673379662 0 0.46949408183482899 0.92833826413560594 0 0.47596308696979028 0.95620709615192379 0 0.44768478605684647 0.9646709673379662 0 0.42822627495986648 0.92083108049218854 0 0.46949408183482899 0.92833826413560594 0 0.44768478605684647 0.9646709673379662 0 0.47596308696979028 0.95620709615192379 0 0.47818194888216242 0.97829325975680159 0 0.46949408183482899 0.92833826413560594 0 0.5 0.94117647058823528 0 0.47596308696979028 0.95620709615192379 0 0.47596308696979028 0.95620709615192379 0 0.5 0.97058823529411764 0 0.47818194888216242 0.97829325975680159 0 0.5 0.94117647058823528 0 0.5 0.97058823529411764 0 0.47596308696979028 0.95620709615192379 0 0.5 1 0 0.46726187138417491 1 0 0.47818194888216242 0.97829325975680159 0 0.5 0.97058823529411764 0 0.5 1 0 0.47818194888216242 0.97829325975680159 0 0.46726187138417491 1 0 0.44768478605684647 0.9646709673379662 0 0.47818194888216242 0.97829325975680159 0 0.46726187138417491 1 0 0.42231823435723009 1 0 0.44768478605684647 0.9646709673379662 0 0.44768478605684647 0.9646709673379662 0 0.42231823435723009 1 0 0.39382242252278338 0.95440420122950598 0 0.44768478605684647 0.9646709673379662 0 0.39382242252278338 0.95440420122950598 0 0.42822627495986648 0.92083108049218854 0 0.42231823435723009 1 0 0.36061858902161292 1 0 0.39382242252278338 0.95440420122950598 0 0.31771010312359771 0.58585679504088894 0 0.41980724897053312 0.55867199730355355 0 0.3872154068451229 0.6301386882447304 0 0.32540781287085369 0.49175159894608172 0 0.41980724897053312 0.55867199730355355 0 0.31771010312359771 0.58585679504088894 0 0.32540781287085369 0.49175159894608172 0 0.31771010312359771 0.58585679504088894 0 0.22453074737734591 0.51613635929252633 0 0.18442368612951149 0.62734948407416979 0 0.31771010312359771 0.58585679504088894 0 0.31346558946927339 0.67110784456164874 0 0.31346558946927339 0.67110784456164874 0 0.32984265945580837 0.74432890077789404 0 0.22727208279115291 0.72949159435386135 0 0.39746869305290999 0.7595658224757349 0 0.32984265945580837 0.74432890077789404 0 0.38513711431054509 0.69312683393047636 0 0.38513711431054509 0.69312683393047636 0 0.32984265945580837 0.74432890077789404 0 0.31346558946927339 0.67110784456164874 0 0.31771010312359771 0.58585679504088894 0 0.3872154068451229 0.6301386882447304 0 0.31346558946927339 0.67110784456164874 0 0.3872154068451229 0.6301386882447304 0 0.38513711431054509 0.69312683393047636 0 0.31346558946927339 0.67110784456164874 0 0.4390556798454946 0.66199025953586599 0 0.38513711431054509 0.69312683393047636 0 0.3872154068451229 0.6301386882447304 0 0.4390556798454946 0.66199025953586599 0 0.3872154068451229 0.6301386882447304 0 0.44702869549010399 0.61002701911053991 0 0.39746869305290999 0.7595658224757349 0 0.38513711431054509 0.69312683393047636 0 0.43412357948152142 0.72128778687215156 0 0.43412357948152142 0.72128778687215156 0 0.38513711431054509 0.69312683393047636 0 0.4390556798454946 0.66199025953586599 0 0.43412357948152142 0.72128778687215156 0 0.47636314644728822 0.72058823529411908 0 0.47220206448452873 0.74892462649306213 0 0.44651949253391748 0.77225997208621999 0 0.43412357948152142 0.72128778687215156 0 0.47220206448452873 0.74892462649306213 0 0.43412357948152142 0.72128778687215156 0 0.4390556798454946 0.66199025953586599 0 0.46330219403010409 0.69594601192744354 0 0.43412357948152142 0.72128778687215156 0 0.46330219403010409 0.69594601192744354 0 0.47636314644728822 0.72058823529411908 0 0.46330219403010409 0.69594601192744354 0 0.5 0.70588235294117663 0 0.47636314644728822 0.72058823529411908 0 0.5 0.67647058823529438 0 0.5 0.70588235294117663 0 0.46330219403010409 0.69594601192744354 0 0.5 0.70588235294117663 0 0.5 0.73529411764705888 0 0.47636314644728822 0.72058823529411908 0 0.5 0.73529411764705888 0 0.5 0.76470588235294124 0 0.47220206448452873 0.74892462649306213 0 0.47636314644728822 0.72058823529411908 0 0.5 0.73529411764705888 0 0.47220206448452873 0.74892462649306213 0 0.4390556798454946 0.66199025953586599 0 0.47271076880550111 0.63357150722538136 0 0.47501372853621993 0.66300743809067952 0 0.4390556798454946 0.66199025953586599 0 0.44702869549010399 0.61002701911053991 0 0.47271076880550111 0.63357150722538136 0 0.46330219403010409 0.69594601192744354 0 0.4390556798454946 0.66199025953586599 0 0.47501372853621993 0.66300743809067952 0 0.5 0.67647058823529438 0 0.46330219403010409 0.69594601192744354 0 0.47501372853621993 0.66300743809067952 0 0.5 0.64705882352941191 0 0.5 0.67647058823529438 0 0.47501372853621993 0.66300743809067952 0 0.47271076880550111 0.63357150722538136 0 0.5 0.64705882352941191 0 0.47501372853621993 0.66300743809067952 0 0.5 0.61764705882352966 0 0.5 0.64705882352941191 0 0.47271076880550111 0.63357150722538136 0 0.5 0.5882352941176473 0 0.5 0.61764705882352966 0 0.47784843225772261 0.60532339797118362 0 0.5 0.61764705882352966 0 0.47271076880550111 0.63357150722538136 0 0.47784843225772261 0.60532339797118362 0 0.5 0.55882352941176494 0 0.5 0.5882352941176473 0 0.46950269699300751 0.57713611057881953 0 0.46950269699300751 0.57713611057881953 0 0.5 0.5882352941176473 0 0.47784843225772261 0.60532339797118362 0 0.44702869549010399 0.61002701911053991 0 0.41980724897053312 0.55867199730355355 0 0.46950269699300751 0.57713611057881953 0 0.44702869549010399 0.61002701911053991 0 0.46950269699300751 0.57713611057881953 0 0.47784843225772261 0.60532339797118362 0 0.47271076880550111 0.63357150722538136 0 0.44702869549010399 0.61002701911053991 0 0.47784843225772261 0.60532339797118362 0 0.3872154068451229 0.6301386882447304 0 0.41980724897053312 0.55867199730355355 0 0.44702869549010399 0.61002701911053991 0 0.32540781287085369 0.49175159894608172 0 0.41576443813007791 0.48093483781626972 0 0.41980724897053312 0.55867199730355355 0 0.41576443813007791 0.48093483781626972 0 0.4638583922372429 0.51470588235294135 0 0.41980724897053312 0.55867199730355355 0 0.41980724897053312 0.55867199730355355 0 0.4638583922372429 0.51470588235294135 0 0.47063366764015668 0.5477498568705923 0 0.46950269699300751 0.57713611057881953 0 0.41980724897053312 0.55867199730355355 0 0.47063366764015668 0.5477498568705923 0 0.5 0.55882352941176494 0 0.46950269699300751 0.57713611057881953 0 0.47063366764015668 0.5477498568705923 0 0.5 0.52941176470588269 0 0.5 0.55882352941176494 0 0.47063366764015668 0.5477498568705923 0 0.4638583922372429 0.51470588235294135 0 0.5 0.52941176470588269 0 0.47063366764015668 0.5477498568705923 0 0.5 0.5 0 0.5 0.52941176470588269 0 0.4638583922372429 0.51470588235294135 0 0.52820848765230954 0.54540076010342464 0 0.5 0.52941176470588269 0 0.52629893369322589 0.51330452493555312 0 0.5 0.52941176470588269 0 0.5 0.5 0 0.52629893369322589 0.51330452493555312 0 0.5 0.52941176470588269 0 0.5 0.5 0 0.5 0.55882352941176494 0 0.5 0.52941176470588269 0 0.52820848765230954 0.54540076010342464 0 0.5 0.55882352941176494 0 0.5 0.52941176470588269 0 0.52246722155046366 0.57417151085839346 0 0.5 0.55882352941176494 0 0.52820848765230954 0.54540076010342464 0 0.56199650931215228 0.51957997397013023 0 0.55931585964581554 0.57571189932143541 0 0.52820848765230954 0.54540076010342464 0 0.54128967150166729 0.47213012589832831 0 0.56199650931215228 0.51957997397013023 0 0.52629893369322589 0.51330452493555312 0 0.56199650931215228 0.51957997397013023 0 0.52820848765230954 0.54540076010342464 0 0.52629893369322589 0.51330452493555312 0 0.61174067805461174 0.54148194547208961 0 0.56199650931215228 0.51957997397013023 0 0.60345082206666756 0.47575908627627911 0 0.61174067805461174 0.54148194547208961 0 0.55931585964581554 0.57571189932143541 0 0.56199650931215228 0.51957997397013023 0 0.61264973759093866 0.60999664295093947 0 0.55931585964581554 0.57571189932143541 0 0.61174067805461174 0.54148194547208961 0 0.61264973759093866 0.60999664295093947 0 0.55828304378107996 0.63546085023637511 0 0.55931585964581554 0.57571189932143541 0 0.55931585964581554 0.57571189932143541 0 0.55828304378107996 0.63546085023637511 0 0.52754891270107895 0.60396918438229519 0 0.55828304378107996 0.63546085023637511 0 0.52222323737415433 0.63323059203007803 0 0.52754891270107895 0.60396918438229519 0 0.55931585964581554 0.57571189932143541 0 0.52246722155046366 0.57417151085839346 0 0.52820848765230954 0.54540076010342464 0 0.55931585964581554 0.57571189932143541 0 0.52754891270107895 0.60396918438229519 0 0.52246722155046366 0.57417151085839346 0 0.52754891270107895 0.60396918438229519 0 0.5 0.5882352941176473 0 0.52246722155046366 0.57417151085839346 0 0.5 0.5882352941176473 0 0.5 0.55882352941176494 0 0.52246722155046366 0.57417151085839346 0 0.5 0.5882352941176473 0 0.5 0.55882352941176494 0 0.52222323737415433 0.63323059203007803 0 0.5 0.61764705882352966 0 0.52754891270107895 0.60396918438229519 0 0.5 0.61764705882352966 0 0.5 0.5882352941176473 0 0.5 0.61764705882352966 0 0.5 0.5882352941176473 0 0.52754891270107895 0.60396918438229519 0 0.5 0.64705882352941191 0 0.5 0.61764705882352966 0 0.52222323737415433 0.63323059203007803 0 0.5 0.64705882352941191 0 0.5 0.61764705882352966 0 0.52736180768426655 0.66304505109048573 0 0.5 0.64705882352941191 0 0.52222323737415433 0.63323059203007803 0 0.5 0.67647058823529438 0 0.5 0.64705882352941191 0 0.52736180768426655 0.66304505109048573 0 0.5 0.67647058823529438 0 0.5 0.64705882352941191 0 0.52189318962165776 0.69193883095305098 0 0.5 0.67647058823529438 0 0.52736180768426655 0.66304505109048573 0 0.55852327729743823 0.69498827241231187 0 0.52189318962165776 0.69193883095305098 0 0.52736180768426655 0.66304505109048573 0 0.55828304378107996 0.63546085023637511 0 0.55852327729743823 0.69498827241231187 0 0.52736180768426655 0.66304505109048573 0 0.55828304378107996 0.63546085023637511 0 0.52736180768426655 0.66304505109048573 0 0.52222323737415433 0.63323059203007803 0 0.5 0.73529411764705888 0 0.52547133540542634 0.72058823529411897 0 0.5211984712236245 0.75134107022269114 0 0.5 0.73529411764705888 0 0.5 0.70588235294117663 0 0.52547133540542634 0.72058823529411897 0 0.5 0.73529411764705888 0 0.5 0.70588235294117663 0 0.5 0.70588235294117663 0 0.52189318962165776 0.69193883095305098 0 0.52547133540542634 0.72058823529411897 0 0.5 0.70588235294117663 0 0.5 0.67647058823529438 0 0.52189318962165776 0.69193883095305098 0 0.5 0.70588235294117663 0 0.5 0.67647058823529438 0 0.52189318962165776 0.69193883095305098 0 0.55852327729743823 0.69498827241231187 0 0.52547133540542634 0.72058823529411897 0 0.52547133540542634 0.72058823529411897 0 0.55458114032207428 0.75544804615062711 0 0.5211984712236245 0.75134107022269114 0 0.55852327729743823 0.69498827241231187 0 0.55458114032207428 0.75544804615062711 0 0.52547133540542634 0.72058823529411897 0 0.6088970477846376 0.72715446211577472 0 0.55458114032207428 0.75544804615062711 0 0.55852327729743823 0.69498827241231187 0 0.6088970477846376 0.72715446211577472 0 0.55852327729743823 0.69498827241231187 0 0.60110770968787908 0.67045598539422102 0 0.60110770968787908 0.67045598539422102 0 0.55828304378107996 0.63546085023637511 0 0.61264973759093866 0.60999664295093947 0 0.60110770968787908 0.67045598539422102 0 0.55852327729743823 0.69498827241231187 0 0.55828304378107996 0.63546085023637511 0 0.66621429167335955 0.68470300534742679 0 0.60110770968787908 0.67045598539422102 0 0.61264973759093866 0.60999664295093947 0 0.6088970477846376 0.72715446211577472 0 0.66621429167335955 0.68470300534742679 0 0.6817340940367822 0.76923101696744944 0 0.66621429167335955 0.68470300534742679 0 0.6088970477846376 0.72715446211577472 0 0.60110770968787908 0.67045598539422102 0 0.6817340940367822 0.76923101696744944 0 0.66621429167335955 0.68470300534742679 0 0.7828103453665094 0.69876044407634474 0 0.66621429167335955 0.68470300534742679 0 0.69354174170208815 0.57892485983477626 0 0.7828103453665094 0.69876044407634474 0 0.69354174170208815 0.57892485983477626 0 0.66681557370681976 0.49435464945626773 0 0.77935529174931761 0.49004815756283893 0 0.61174067805461174 0.54148194547208961 0 0.66681557370681976 0.49435464945626773 0 0.69354174170208815 0.57892485983477626 0 0.66681557370681976 0.49435464945626773 0 0.61174067805461174 0.54148194547208961 0 0.60345082206666756 0.47575908627627911 0 0.61264973759093866 0.60999664295093947 0 0.61174067805461174 0.54148194547208961 0 0.69354174170208815 0.57892485983477626 0 0.66621429167335955 0.68470300534742679 0 0.61264973759093866 0.60999664295093947 0 0.69354174170208815 0.57892485983477626 0 0.63938141097836054 1 0 0.57768176564240026 1 0 0.60145933092659498 0.94808652648958736 0 0.60145933092659498 0.94808652648958736 0 0.55381003699196441 0.97073734537240042 0 0.55652711631508067 0.93435010280744335 0 0.57768176564240026 1 0 0.55381003699196441 0.97073734537240042 0 0.60145933092659498 0.94808652648958736 0 0.57768176564240026 1 0 0.53273812861558045 1 0 0.55381003699196441 0.97073734537240042 0 0.55381003699196441 0.97073734537240042 0 0.53273812861558045 1 0 0.52191028766292435 0.97912620202886635 0 0.53273812861558045 1 0 0.5 1 0 0.52191028766292435 0.97912620202886635 0 0.5 1 0 0.5 0.97058823529411764 0 0.52191028766292435 0.97912620202886635 0 0.5 1 0 0.5 0.97058823529411764 0 0.5 0.97058823529411764 0 0.5 0.94117647058823528 0 0.5 0.97058823529411764 0 0.5 0.94117647058823528 0 0.52554900427979434 0.95492408164812537 0 0.5 0.97058823529411764 0 0.52554900427979434 0.95492408164812537 0 0.52191028766292435 0.97912620202886635 0 0.5 0.94117647058823528 0 0.52149395742518578 0.9280464911497236 0 0.52554900427979434 0.95492408164812537 0 0.55381003699196441 0.97073734537240042 0 0.52554900427979434 0.95492408164812537 0 0.55652711631508067 0.93435010280744335 0 0.52554900427979434 0.95492408164812537 0 0.55381003699196441 0.97073734537240042 0 0.52191028766292435 0.97912620202886635 0 0.52554900427979434 0.95492408164812537 0 0.52149395742518578 0.9280464911497236 0 0.55652711631508067 0.93435010280744335 0 0.52982914238326484 0.89727189043838895 0 0.57507719038536997 0.89743529736491356 0 0.55652711631508067 0.93435010280744335 0 0.52149395742518578 0.9280464911497236 0 0.52982914238326484 0.89727189043838895 0 0.55652711631508067 0.93435010280744335 0 0.52149395742518578 0.9280464911497236 0 0.5 0.91176470588235292 0 0.52982914238326484 0.89727189043838895 0 0.5 0.94117647058823528 0 0.5 0.91176470588235292 0 0.5 0.94117647058823528 0 0.5 0.91176470588235292 0 0.52149395742518578 0.9280464911497236 0 0.5 0.91176470588235292 0 0.5 0.88235294117647056 0 0.52982914238326484 0.89727189043838895 0 0.5 0.91176470588235292 0 0.5 0.88235294117647056 0 0.52982914238326484 0.89727189043838895 0 0.5 0.88235294117647056 0 0.51991574276818808 0.86764705882352966 0 0.54799184932697576 0.8599032232094268 0 0.57507719038536997 0.89743529736491356 0 0.52982914238326484 0.89727189043838895 0 0.57507719038536997 0.89743529736491356 0 0.60145933092659498 0.94808652648958736 0 0.55652711631508067 0.93435010280744335 0 0.63427031498547037 0.88927276979110648 0 0.60145933092659498 0.94808652648958736 0 0.57507719038536997 0.89743529736491356 0 0.63427031498547037 0.88927276979110648 0 0.57507719038536997 0.89743529736491356 0 0.58994607995897996 0.84812355238296233 0 0.63427031498547037 0.88927276979110648 0 0.58994607995897996 0.84812355238296233 0 0.64153141236229239 0.83072478436463804 0 0.64153141236229239 0.83072478436463804 0 0.58994607995897996 0.84812355238296233 0 0.60049020024666178 0.78900583008989877 0 0.55206941203846505 0.81091931303809783 0 0.58994607995897996 0.84812355238296233 0 0.54799184932697576 0.8599032232094268 0 0.60049020024666178 0.78900583008989877 0 0.58994607995897996 0.84812355238296233 0 0.55206941203846505 0.81091931303809783 0 0.58994607995897996 0.84812355238296233 0 0.57507719038536997 0.89743529736491356 0 0.54799184932697576 0.8599032232094268 0 0.54799184932697576 0.8599032232094268 0 0.52982914238326484 0.89727189043838895 0 0.51991574276818808 0.86764705882352966 0 0.52395085592512047 0.83729395211968571 0 0.54799184932697576 0.8599032232094268 0 0.51991574276818808 0.86764705882352966 0 0.5 0.85294117647058831 0 0.52395085592512047 0.83729395211968571 0 0.51991574276818808 0.86764705882352966 0 0.5 0.88235294117647056 0 0.5 0.85294117647058831 0 0.5 0.88235294117647056 0 0.5 0.85294117647058831 0 0.51991574276818808 0.86764705882352966 0 0.52395085592512047 0.83729395211968571 0 0.5 0.82352941176470584 0 0.52039202967084142 0.80930587873000437 0 0.5 0.85294117647058831 0 0.5 0.82352941176470584 0 0.5 0.85294117647058831 0 0.5 0.82352941176470584 0 0.52395085592512047 0.83729395211968571 0 0.55206941203846505 0.81091931303809783 0 0.52395085592512047 0.83729395211968571 0 0.52039202967084142 0.80930587873000437 0 0.55206941203846505 0.81091931303809783 0 0.54799184932697576 0.8599032232094268 0 0.52395085592512047 0.83729395211968571 0 0.52593988039062167 0.78066906966870908 0 0.55206941203846505 0.81091931303809783 0 0.52039202967084142 0.80930587873000437 0 0.55458114032207428 0.75544804615062711 0 0.55206941203846505 0.81091931303809783 0 0.52593988039062167 0.78066906966870908 0 0.5 0.79411764705882359 0 0.52593988039062167 0.78066906966870908 0 0.52039202967084142 0.80930587873000437 0 0.5 0.82352941176470584 0 0.5 0.79411764705882359 0 0.5 0.82352941176470584 0 0.5 0.79411764705882359 0 0.52039202967084142 0.80930587873000437 0 0.5 0.76470588235294124 0 0.5 0.73529411764705888 0 0.5 0.76470588235294124 0 0.5 0.73529411764705888 0 0.5211984712236245 0.75134107022269114 0 0.5 0.79411764705882359 0 0.5 0.76470588235294124 0 0.52593988039062167 0.78066906966870908 0 0.5 0.79411764705882359 0 0.5 0.76470588235294124 0 0.52593988039062167 0.78066906966870908 0 0.5 0.76470588235294124 0 0.5211984712236245 0.75134107022269114 0 0.55458114032207428 0.75544804615062711 0 0.52593988039062167 0.78066906966870908 0 0.5211984712236245 0.75134107022269114 0 0.60049020024666178 0.78900583008989877 0 0.55458114032207428 0.75544804615062711 0 0.6088970477846376 0.72715446211577472 0 0.60049020024666178 0.78900583008989877 0 0.55206941203846505 0.81091931303809783 0 0.55458114032207428 0.75544804615062711 0 0.6817340940367822 0.76923101696744944 0 0.80987878298654392 0.8110307373443908 0 0.70916369539323409 0.86041409043207073 0 0.60049020024666178 0.78900583008989877 0 0.6088970477846376 0.72715446211577472 0 0.6817340940367822 0.76923101696744944 0 0.64153141236229239 0.83072478436463804 0 0.60049020024666178 0.78900583008989877 0 0.6817340940367822 0.76923101696744944 0 0.63427031498547037 0.88927276979110648 0 0.64153141236229239 0.83072478436463804 0 0.70916369539323409 0.86041409043207073 0 0.64153141236229239 0.83072478436463804 0 0.6817340940367822 0.76923101696744944 0 0.70916369539323409 0.86041409043207073 0 0.68173274398262862 0.93660593960145366 0 0.63427031498547037 0.88927276979110648 0 0.70916369539323409 0.86041409043207073 0 0.68173274398262862 0.93660593960145366 0 0.60145933092659498 0.94808652648958736 0 0.63427031498547037 0.88927276979110648 0 0.78222494485339233 0.91531439423588867 0 0.68173274398262862 0.93660593960145366 0 0.70916369539323409 0.86041409043207073 0 0.72408407698689681 1 0 0.68173274398262862 0.93660593960145366 0 0.78222494485339233 0.91531439423588867 0 0.68173274398262862 0.93660593960145366 0 0.63938141097836054 1 0 0.60145933092659498 0.94808652648958736 0 0.72408407698689681 1 0 0.63938141097836054 1 0 0.68173274398262862 0.93660593960145366 0 1 0.74999999999934008 0 1 1 0 0.89611933618281592 0.89173516444576184 0 0.84036581271988753 1 0 0.72408407698689681 1 0 0.78222494485339233 0.91531439423588867 0 0.84036581271988753 1 0 0.78222494485339233 0.91531439423588867 0 0.89611933618281592 0.89173516444576184 0 0.80987878298654392 0.8110307373443908 0 0.6817340940367822 0.76923101696744944 0 0.7828103453665094 0.69876044407634474 0 1 0.74999999999934008 0 0.80987878298654392 0.8110307373443908 0 0.7828103453665094 0.69876044407634474 0 0.78222494485339233 0.91531439423588867 0 0.80987878298654392 0.8110307373443908 0 0.89611933618281592 0.89173516444576184 0 0.80987878298654392 0.8110307373443908 0 0.78222494485339233 0.91531439423588867 0 0.70916369539323409 0.86041409043207073 0 0.80987878298654392 0.8110307373443908 0 1 0.74999999999934008 0 0.89611933618281592 0.89173516444576184 0 1 1 0 0.84036581271988753 1 0 0.89611933618281592 0.89173516444576184 0 1 0.49999999999869182 0 1 0.74999999999934008 0 0.84549316180028322 0.59867304496468476 0 0.84549316180028322 0.59867304496468476 0 0.69354174170208815 0.57892485983477626 0 0.77935529174931761 0.49004815756283893 0 1 0.49999999999869182 0 0.84549316180028322 0.59867304496468476 0 0.77935529174931761 0.49004815756283893 0 0.69354174170208815 0.57892485983477626 0 0.84549316180028322 0.59867304496468476 0 0.7828103453665094 0.69876044407634474 0 0.84549316180028322 0.59867304496468476 0 1 0.74999999999934008 0 0.7828103453665094 0.69876044407634474 0 0.80451351819826811 0.35479918680564199 0 1 0.49999999999869182 0 0.77935529174931761 0.49004815756283893 0 1 0.24999999999941089 0 0.80451351819826811 0.35479918680564199 0 0.79923457477009219 0.1751534052300894 0 1 0.24999999999941089 0 1 0.49999999999869182 0 0.80451351819826811 0.35479918680564199 0 0.74999999999934008 0 0 1 0 0 0.79923457477009219 0.1751534052300894 0 1 0 0 1 0.24999999999941089 0 0.79923457477009219 0.1751534052300894 0 0.49999999999869182 0 0 0.74999999999934008 0 0 0.62537763927714929 0.14286513648320209 0 0.62537763927714929 0.14286513648320209 0 0.79923457477009219 0.1751534052300894 0 0.6197279975813802 0.30020319976287241 0 0.62537763927714929 0.14286513648320209 0 0.74999999999934008 0 0 0.79923457477009219 0.1751534052300894 0 0.49999999999869182 0 0 0.62537763927714929 0.14286513648320209 0 0.49924741621175961 0.21507969613896921 0 0.62537763927714929 0.14286513648320209 0 0.6197279975813802 0.30020319976287241 0 0.49924741621175961 0.21507969613896921 0 0.6197279975813802 0.30020319976287241 0 0.49435464945626773 0.33318442629318029 0 0.49924741621175961 0.21507969613896921 0 0.54876010062294855 0.39662628167175101 0 0.49435464945626773 0.33318442629318029 0 0.6197279975813802 0.30020319976287241 0 0.66576775508844777 0.41353720431697111 0 0.54876010062294855 0.39662628167175101 0 0.6197279975813802 0.30020319976287241 0 0.49954900152271581 0.45107191084564019 0 0.45418244162583959 0.41624787166862259 0 0.54876010062294855 0.39662628167175101 0 0.54128967150166729 0.47213012589832831 0 0.49954900152271581 0.45107191084564019 0 0.54876010062294855 0.39662628167175101 0 0.54128967150166729 0.47213012589832831 0 0.5 0.5 0 0.49954900152271581 0.45107191084564019 0 0.5 0.5 0 0.54128967150166729 0.47213012589832831 0 0.52629893369322589 0.51330452493555312 0 0.60345082206666756 0.47575908627627911 0 0.54128967150166729 0.47213012589832831 0 0.54876010062294855 0.39662628167175101 0 0.60345082206666756 0.47575908627627911 0 0.56199650931215228 0.51957997397013023 0 0.54128967150166729 0.47213012589832831 0 0.66576775508844777 0.41353720431697111 0 0.60345082206666756 0.47575908627627911 0 0.54876010062294855 0.39662628167175101 0 0.66576775508844777 0.41353720431697111 0 0.80451351819826811 0.35479918680564199 0 0.77935529174931761 0.49004815756283893 0 0.66681557370681976 0.49435464945626773 0 0.60345082206666756 0.47575908627627911 0 0.66576775508844777 0.41353720431697111 0 0.66681557370681976 0.49435464945626773 0 0.66576775508844777 0.41353720431697111 0 0.77935529174931761 0.49004815756283893 0 0.79923457477009219 0.1751534052300894 0 0.80451351819826811 0.35479918680564199 0 0.6197279975813802 0.30020319976287241 0 0.80451351819826811 0.35479918680564199 0 0.66576775508844777 0.41353720431697111 0 0.6197279975813802 0.30020319976287241 0 
</DataArray>
</Points>
<Cells>
<DataArray type="UInt32" Name="connectivity" format="ascii">
0 1 2 3 4 5 6 7 8 9 10 11 12 13 14 15 16 17 18 19 20 21 22 23 24 25 26 27 28 29 30 31 32 33 34 35 36 37 38 39 40 41 42 43 44 45 46 47 48 49 50 51 52 53 54 55 56 57 58 59 60 61 62 63 64 65 66 67 68 69 70 71 72 73 74 75 76 77 78 79 80 81 82 83 84 85 86 87 88 89 90 91 92 93 94 95 96 97 98 99 100 101 102 103 104 105 106 107 108 109 110 111 112 113 114 115 116 117 118 119 120 121 122 123 124 125 126 127 128 129 130 131 132 133 134 135 136 137 138 139 140 141 142 143 144 145 146 147 148 149 150 151 152 153 154 155 156 157 158 159 160 161 162 163 164 165 166 167 168 169 170 171 172 173 174 175 176 177 178 179 180 181 182 183 184 185 186 187 188 189 190 191 192 193 194 195 196 197 198 199 200 201 202 203 204 205 206 207 208 209 210 211 212 213 214 215 216 217 218 219 220 221 222 223 224 225 226 227 228 229 230 231 232 233 234 235 236 237 238 239 240 241 242 243 244 245 246 247 248 249 250 251 252 253 254 255 256 257 258 259 260 261 262 263 264 265 266 267 268 269 270 271 272 273 274 275 276 277 278 279 280 281 282 283 284 285 286 287 288 289 290 291 292 293 294 295 296 297 298 299 300 301 302 303 304 305 306 307 308 309 310 311 312 313 314 315 316 317 318 319 320 321 322 323 324 325 326 327 328 329 330 331 332 333 334 335 336 337 338 339 340 341 342 343 344 345 346 347 348 349 350 351 352 353 354 355 356 357 358 359 360 361 362 363 364 365 366 367 368 369 370 371 372 373 374 375 376 377 378 379 380 381 382 383 384 385 386 387 388 389 390 391 392 393 394 395 396 397 398 399 400 401 402 403 404 405 406 407 408 409 410 411 412 413 414 415 416 417 418 419 420 421 422 423 424 425 426 427 428 429 430 431 432 433 434 435 436 437 438 439 440 441 442 443 444 445 446 447 448 449 450 451 452 453 454 455 456 457 458 459 460 461 462 463 464 465 466 467 468 469 470 471 472 473 474 475 476 477 478 479 480 481 482 483 484 485 486 487 488 489 490 491 492 493 494 495 496 497 498 499 500 501 502 503 504 505 506 507 508 509 510 511 512 513 514 515 516 517 518 519 520 521 522 523 524 525 526 527 528 529 530 531 532 533 534 535 536 537 538 539 540 541 542 543 544 545 546 547 548 549 550 551 552 553 554 555 556 557 558 559 560 561 562 563 564 565 566 567 568 569 570 571 572 573 574 575 576 577 578 579 580 581 582 583 584 585 586 587 588 589 590 591 592 593 594 595 596 597 598 599 600 601 602 603 604 605 606 607 608 609 610 611 612 613 614 615 616 617 618 619 620 621 622 623 624 625 626 627 628 629 630 631 632 633 634 635 636 637 638 639 640 641 642 643 644 645 646 647 648 649 650 651 652 653 654 655 656 657 658 659 660 661 662 663 664 665 666 667 668 669 670 671 672 673 674 675 676 677 678 679 680 681 682 683 684 685 686 687 688 689 690 691 692 693 694 695 696 697 698 699 700 701 702 703 704 705 706 707 708 709 710 711 712 713 714 715 716 717 718 719 720 721 722 723 724 725 726 727 728 729 730 731 732 733 734 735 736 737 738 739 740 741 742 743 744 745 746 747 748 749 750 751 752 753 754 755 756 757 758 759 760 761 762 763 764 765 766 767 768 769 770 771 772 773 774 775 776 777 778 779 780 781 782 783 784 785 786 787 788 789 790 791 792 793 794 795 796 797 798 799 800 801 802 803 804 805 806 807 808 809 810 811 812 813 814 815 816 817 818 819 820 821 822 823 824 825 826 827 828 829 830 831 832 833 834 835 836 837 838 839 840 841 842 843 844 845 846 847 848 849 850 851 852 853 854 855 856 857 858 859 860 861 862 863 864 865 866 867 868 869 870 871 872 873 874 875 876 877 878 879 
</DataArray>
<DataArray type="UInt32" Name="offsets" format="ascii">
3 6 9 12 15 18 21 24 27 30 33 36 39 42 45 48 51 54 57 60 63 66 69 72 75 78 81 84 87 90 93 96 99 102 105 108 111 114 117 120 123 126 129 132 135 138 141 144 147 150 153 156 159 162 165 168 171 174 177 180 183 186 189 192 195 198 201 204 207 210 213 216 219 222 225 228 231 234 237 240 243 246 249 252 255 258 261 264 267 270 273 276 279 282 285 288 291 294 297 300 303 306 309 312 315 318 321 324 327 330 333 336 339 342 345 348 351 354 357 360 363 366 369 372 375 378 381 384 387 390 393 396 399 402 405 408 411 414 417 420 423 425 428 430 433 436 439 442 445 448 451 454 457 460 463 466 469 472 474 477 479 482 485 487 490 493 495 498 501 504 507 510 513 515 518 521 523 526 529 532 535 538 541 544 547 550 553 556 559 562 565 568 571 574 577 580 583 586 589 592 595 597 599 602 605 608 611 614 617 620 623 626 628 631 634 636 639 642 645 648 651 654 657 660 663 666 669 672 675 677 680 683 685 688 691 694 697 700 703 705 708 710 713 716 718 721 724 727 730 733 736 739 742 745 748 751 754 757 760 763 766 769 772 775 778 781 784 787 790 793 796 799 802 805 808 811 814 817 820 823 826 829 832 835 838 841 844 847 850 853 856 859 862 865 868 871 874 877 880 
</DataArray>
<DataArray type="UInt32" Name="types" format="ascii">
5 5 5 5 5 5 5 5 5 5 5 5 5 5 5 5 5 5 5 5 5 5 5 5 5 5 5 5 5 5 5 5 5 5 5 5 5 5 5 5 5 5 5 5 5 5 5 5 5 5 5 5 5 5 5 5 5 5 5 5 5 5 5 5 5 5 5 5 5 5 5 5 5 5 5 5 5 5 5 5 5 5 5 5 5 5 5 5 5 5 5 5 5 5 5 5 5 5 5 5 5 5 5 5 5 5 5 5 5 5 5 5 5 5 5 5 5 5 5 5 5 5 5 5 5 5 5 5 5 5 5 5 5 5 5 5 5 5 5 5 5 3 5 3 5 5 5 5 5 5 5 5 5 5 5 5 5 5 3 5 3 5 5 3 5 5 3 5 5 5 5 5 5 3 5 5 3 5 5 5 5 5 5 5 5 5 5 5 5 5 5 5 5 5 5 5 5 5 5 5 5 3 3 5 5 5 5 5 5 5 5 5 3 5 5 3 5 5 5 5 5 5 5 5 5 5 5 5 5 3 5 5 3 5 5 5 5 5 5 3 5 3 5 5 3 5 5 5 5 5 5 5 5 5 5 5 5 5 5 5 5 5 5 5 5 5 5 5 5 5 5 5 5 5 5 5 5 5 5 5 5 5 5 5 5 5 5 5 5 5 5 5 5 5 5 5 5 5 5 
</DataArray>
</Cells>
<PointData Scalars="" Vectors="displacement," Tensors="">
<DataArray type="Float64" Name="displacement" NumberOfComponents="3" format="ascii">
0.0046454816035597811 0.0087994633214557288 0 -2.7007289884439879e-06 1.1634635922971822e-05 0 0.00082986769396402229 -0.0023146528274626019 0 -2.7007289884439879e-06 1.1634635922971822e-05 0 -3.8537140359795405e-06 -9.0497343525178692e-06 0 0.00082986769396402229 -0.0023146528274626019 0 -3.8537140359795405e-06 -9.0497343525178692e-06 0 -4.6842801242509281e-06 -2.9985856144874482e-05 0 -0.0014085940834917166 -0.011891589143846915 0 -3.8537140359795405e-06 -9.0497343525178692e-06 0 -0.0014085940834917166 -0.011891589143846915 0 0.00082986769396402229 -0.0023146528274626019 0 -0.0014085940834917166 -0.011891589143846915 0 -4.6842801242509281e-06 -2.9985856144874482e-05 0 0.0014704574545360693 -0.025279358579796397 0 0.0089354972628860729 -0.026161957701405229 0 -0.0014085940834917159 -0.011891589143846915 0 0.0014704574545360693 -0.025279358579796397 0 0.021122511576209247 -0.04183014575963815 0 0.031741607390483519 -0.036640923729240188 0 0.020276513038924967 -0.026989301874344136 0 0.0089354972628860729 -0.026161957701405229 0 0.021122511576209247 -0.04183014575963815 0 0.020276513038924967 -0.026989301874344136 0 0.021122511576209247 -0.04183014575963815 0 0.031423718934169176 -0.048691238567750296 0 0.031741607390483519 -0.036640923729240188 0 0.031423718934169176 -0.048691238567750296 0 0.03940039271439693 -0.048985507599384456 0 0.031741607390483519 -0.036640923729240188 0 0.027610286399425154 -0.057218239201674514 0 0.036814482660691934 -0.064046595734553374 0 0.031423718934169176 -0.048691238567750296 0 0.031423718934169176 -0.048691238567750296 0 0.036814482660691934 -0.064046595734553374 0 0.03940039271439693 -0.048985507599384456 0 0.027610286399425154 -0.057218239201674514 0 0.031423718934169176 -0.048691238567750296 0 0.021122511576209247 -0.04183014575963815 0 0.021122511576209247 -0.04183014575963815 0 0.012035518371982884 -0.040678177650406412 0 0.02231513326604782 -0.061135362637100024 0 0.012035518371982884 -0.040678177650406412 0 0.021122511576209247 -0.04183014575963815 0 0.0089354972628860729 -0.026161957701405229 0 0.012035518371982884 -0.040678177650406412 0 0.0089354972628860729 -0.026161957701405229 0 0.0014704574545360693 -0.025279358579796397 0 -0.0014085940834917166 -0.011891589143846915 0 0.0089354972628860729 -0.026161957701405229 0 0.011485422512348435 -0.013543236498301922 0 0.0089354972628860729 -0.026161957701405229 0 0.020276513038924967 -0.026989301874344139 0 0.011485422512348435 -0.013543236498301922 0 0.00082986769396402229 -0.0023146528274626019 0 -0.0014085940834917166 -0.011891589143846915 0 0.011485422512348435 -0.013543236498301922 0 0.031970130685257031 -0.021383704748590828 0 0.017355634873472674 -0.0023488886621780961 0 0.011485422512348435 -0.013543236498301922 0 0.020276513038924967 -0.026989301874344136 0 0.031970130685257031 -0.021383704748590828 0 0.011485422512348435 -0.013543236498301922 0 0.031741607390483519 -0.036640923729240188 0 0.031970130685257031 -0.021383704748590828 0 0.020276513038924967 -0.026989301874344136 0 0.031880371562913352 0.018181519879168977 0 0.0046454816035597811 0.0087994633214557288 0 0.017355634873472674 -0.0023488886621780961 0 0.031880371562913352 0.018181519879168977 0 0.017355634873472674 -0.0023488886621780961 0 0.035045394674926962 -0.0089600349342403521 0 0.017355634873472674 -0.0023488886621780961 0 0.031970130685257031 -0.021383704748590828 0 0.035045394674926962 -0.0089600349342403521 0 0.017355634873472674 -0.0023488886621780961 0 0.00082986769396402229 -0.0023146528274626019 0 0.011485422512348435 -0.013543236498301922 0 0.017355634873472674 -0.0023488886621780961 0 0.0046454816035597811 0.0087994633214557288 0 0.00082986769396402229 -0.0023146528274626019 0 0.0694980802142217 0.020665909898834548 0 0.031880371562913352 0.018181519879168977 0 0.05116520719683617 -0.004817120232748353 0 0.0694980802142217 0.020665909898834548 0 0.05116520719683617 -0.004817120232748353 0 0.067061328855225991 -0.011436223919954292 0 0.05116520719683617 -0.004817120232748353 0 0.059284300645905987 -0.023386905963153595 0 0.067061328855225991 -0.011436223919954292 0 0.046911567348116551 -0.02267455500545059 0 0.05116520719683617 -0.004817120232748353 0 0.035045394674926962 -0.0089600349342403521 0 0.05116520719683617 -0.004817120232748353 0 0.031880371562913352 0.018181519879168977 0 0.035045394674926962 -0.0089600349342403521 0 0.1063529267253064 0.021038219161216738 0 0.0694980802142217 0.020665909898834548 0 0.091332261401845527 0.006922865115532301 0 0.10631819406098494 -0.0022554516757730286 0 0.1063529267253064 0.021038219161216738 0 0.091332261401845527 0.006922865115532301 0 0.0694980802142217 0.020665909898834548 0 0.080112458397871109 -0.0027157741065564553 0 0.091332261401845527 0.006922865115532301 0 0.09614886566594405 -0.013601846029041201 0 0.080112458397871109 -0.0027157741065564553 0 0.078146532905327928 -0.018151986105063449 0 0.080112458397871109 -0.0027157741065564553 0 0.0694980802142217 0.020665909898834548 0 0.067061328855225991 -0.011436223919954292 0 0.080112458397871109 -0.0027157741065564553 0 0.067061328855225991 -0.011436223919954292 0 0.078146532905327928 -0.018151986105063449 0 0.080112458397871109 -0.0027157741065564553 0 0.09614886566594405 -0.013601846029041201 0 0.091332261401845527 0.006922865115532301 0 0.09614886566594405 -0.013601846029041201 0 0.10631819406098494 -0.0022554516757730286 0 0.091332261401845527 0.006922865115532301 0 0.10641835241884903 -0.019020071389937283 0 0.10631819406098494 -0.0022554516757730286 0 0.09614886566594405 -0.013601846029041201 0 0.10647958744565883 -0.031253972627643178 0 0.10641835241884903 -0.019020071389937283 0 0.098132704784247141 -0.026513229187547782 0 0.10647958744565883 -0.031253972627643178 0 0.098132704784247141 -0.026513229187547782 0 0.099934233534493225 -0.036039199828279508 0 0.098132704784247141 -0.026513229187547782 0 0.10641835241884903 -0.019020071389937283 0 0.09614886566594405 -0.013601846029041201 0 0.08941177697636693 -0.025099375924187584 0 0.098132704784247141 -0.026513229187547782 0 0.09614886566594405 -0.013601846029041201 0 0.099934233534493225 -0.036039199828279508 0 0.098132704784247141 -0.026513229187547782 0 0.091964296755422129 -0.033665023576993892 0 0.091964296755422129 -0.033665023576993892 0 0.098132704784247141 -0.026513229187547782 0 0.08941177697636693 -0.025099375924187584 0 0.08941177697636693 -0.025099375924187584 0 0.09614886566594405 -0.013601846029041201 0 0.078146532905327928 -0.018151986105063449 0 0.091964296755422129 -0.033665023576993892 0 0.08941177697636693 -0.025099375924187584 0 0.081238173332689331 -0.031815221955603615 0 0.081238173332689331 -0.031815221955603615 0 0.08941177697636693 -0.025099375924187584 0 0.078146532905327928 -0.018151986105063449 0 0.067061328855225991 -0.011436223919954292 0 0.069946969598689457 -0.026414522320749378 0 0.078146532905327928 -0.018151986105063449 0 0.069946969598689457 -0.026414522320749378 0 0.081238173332689331 -0.031815221955603615 0 0.078146532905327928 -0.018151986105063449 0 0.081238173332689331 -0.031815221955603615 0 0.069946969598689443 -0.026414522320749378 0 0.07234174135773383 -0.036615737395245478 0 0.079538767257490761 -0.041164950272180444 0 0.081238173332689331 -0.031815221955603615 0 0.07234174135773383 -0.036615737395245478 0 0.074136077238824039 -0.043801152716134169 0 0.079538767257490761 -0.041164950272180444 0 0.07234174135773383 -0.036615737395245478 0 0.074136077238824039 -0.043801152716134169 0 0.07234174135773383 -0.036615737395245478 0 0.067134370300683754 -0.042172128386302535 0 0.074136077238824039 -0.043801152716134169 0 0.070916613166610076 -0.0475503651119836 0 0.074829284417520375 -0.048266897963849441 0 0.070916613166610076 -0.0475503651119836 0 0.073070437502077354 -0.051393528827705579 0 0.074829284417520375 -0.048266897963849441 0 0.073070437502077354 -0.051393528827705579 0 0.077164686275485159 -0.051350008401315865 0 0.074829284417520375 -0.048266897963849441 0 0.077164686275485159 -0.051350008401315865 0 0.081311084079025028 -0.051322294025461367 0 0.078918344348457015 -0.047176530001132165 0 0.077164686275485159 -0.051350008401315865 0 0.078918344348457015 -0.047176530001132165 0 0.074829284417520375 -0.048266897963849441 0 0.078918344348457015 -0.047176530001132165 0 0.074136077238824039 -0.043801152716134169 0 0.074829284417520375 -0.048266897963849441 0 0.078918344348457015 -0.047176530001132165 0 0.079538767257490761 -0.041164950272180444 0 0.074136077238824039 -0.043801152716134169 0 0.08346011564133192 -0.045870621837201947 0 0.079538767257490761 -0.041164950272180444 0 0.078918344348457015 -0.047176530001132165 0 0.087451082514516013 -0.041107462302878393 0 0.079538767257490761 -0.041164950272180444 0 0.08346011564133192 -0.045870621837201947 0 0.081311084079025028 -0.051322294025461367 0 0.085484464621349912 -0.051299302288573656 0 0.08346011564133192 -0.045870621837201947 0 0.081311084079025028 -0.051322294025461367 0 0.08346011564133192 -0.04587062183720194 0 0.078918344348457015 -0.047176530001132165 0 0.08346011564133192 -0.045870621837201947 0 0.085484464621349912 -0.051299302288573656 0 0.087508448232958891 -0.047064098354135088 0 0.085484464621349912 -0.051299302288573656 0 0.089661714652336577 -0.051290403892312812 0 0.087508448232958891 -0.047064098354135088 0 0.087451082514516013 -0.041107462302878393 0 0.083460115641331906 -0.04587062183720194 0 0.087508448232958891 -0.047064098354135088 0 0.087451082514516013 -0.041107462302878393 0 0.091964296755422129 -0.033665023576993892 0 0.081238173332689331 -0.031815221955603615 0 0.087451082514516013 -0.041107462302878393 0 0.081238173332689331 -0.031815221955603615 0 0.079538767257490761 -0.041164950272180444 0 0.099934233534493225 -0.036039199828279508 0 0.091964296755422129 -0.033665023576993892 0 0.095141740881152986 -0.041002858858004976 0 0.095141740881152986 -0.041002858858004976 0 0.091964296755422129 -0.033665023576993892 0 0.087451082514516013 -0.041107462302878393 0 0.091501232037723548 -0.045715170767381977 0 0.087451082514516013 -0.041107462302878393 0 0.087508448232958891 -0.047064098354135088 0 0.095141740881152986 -0.041002858858004976 0 0.087451082514516013 -0.041107462302878393 0 0.091501232037723548 -0.045715170767381977 0 0.089661714652336577 -0.051290403892312812 0 0.091501232037723534 -0.04571517076738197 0 0.087508448232958891 -0.047064098354135088 0 0.089661714652336577 -0.051290403892312812 0 0.093855782683821179 -0.051286617714346443 0 0.091501232037723548 -0.045715170767381977 0 0.091501232037723548 -0.045715170767381977 0 0.093855782683821193 -0.05128661771434645 0 0.096220346288811889 -0.04692483328641818 0 0.093855782683821179 -0.051286617714346443 0 0.098057095519647003 -0.051288982285176719 0 0.096220346288811889 -0.04692483328641818 0 0.095141740881152986 -0.041002858858004976 0 0.091501232037723548 -0.045715170767381977 0 0.096220346288811889 -0.04692483328641818 0 0.10141825008999637 -0.043794006960497296 0 0.096220346288811889 -0.04692483328641818 0 0.10020779849479465 -0.047848918989476331 0 0.10141825008999637 -0.043794006960497296 0 0.095141740881152986 -0.041002858858004976 0 0.096220346288811889 -0.04692483328641818 0 0.10141825008999637 -0.043794006960497296 0 0.10020779849479465 -0.047848918989476331 0 0.10337381235429764 -0.04816732520386003 0 0.096220346288811889 -0.04692483328641818 0 0.098057095519647003 -0.051288982285176719 0 0.10020779849479465 -0.047848918989476331 0 0.10020779849479465 -0.047848918989476331 0 0.10226951445151404 -0.051292984866538112 0 0.10337381235429764 -0.04816732520386003 0 0.098057095519647003 -0.051288982285176719 0 0.10226951445151404 -0.051292984866538112 0 0.10020779849479465 -0.047848918989476331 0 0.10648643781836217 -0.051294539094522272 0 0.10648813435272148 -0.046601748483146917 0 0.10337381235429764 -0.04816732520386003 0 0.10226951445151404 -0.051292984866538112 0 0.10648643781836217 -0.051294539094522272 0 0.10337381235429764 -0.04816732520386003 0 0.10648813435272148 -0.046601748483146917 0 0.10141825008999637 -0.043794006960497296 0 0.10337381235429764 -0.04816732520386003 0 0.10648813435272148 -0.046601748483146917 0 0.1064919813812108 -0.040144698475843642 0 0.10141825008999637 -0.043794006960497296 0 0.10141825008999637 -0.043794006960497296 0 0.1064919813812108 -0.040144698475843635 0 0.099934233534493225 -0.036039199828279508 0 0.10141825008999637 -0.043794006960497296 0 0.099934233534493225 -0.036039199828279508 0 0.095141740881152986 -0.041002858858004976 0 0.1064919813812108 -0.040144698475843642 0 0.10647958744565883 -0.031253972627643178 0 0.099934233534493225 -0.036039199828279508 0 0.046911567348116551 -0.02267455500545059 0 0.045211824364883885 -0.039523555356897354 0 0.054535973936144441 -0.034784489129337265 0 0.031970130685257031 -0.021383704748590828 0 0.045211824364883885 -0.039523555356897354 0 0.046911567348116551 -0.02267455500545059 0 0.031970130685257031 -0.021383704748590828 0 0.046911567348116551 -0.02267455500545059 0 0.035045394674926962 -0.0089600349342403521 0 0.05116520719683617 -0.004817120232748353 0 0.046911567348116551 -0.02267455500545059 0 0.059284300645905987 -0.023386905963153595 0 0.059284300645905987 -0.023386905963153595 0 0.069946969598689457 -0.026414522320749378 0 0.067061328855225991 -0.011436223919954292 0 0.07234174135773383 -0.036615737395245478 0 0.069946969598689457 -0.026414522320749378 0 0.063111731200480831 -0.034719748851735621 0 0.063111731200480831 -0.034719748851735621 0 0.069946969598689457 -0.026414522320749378 0 0.059284300645905987 -0.023386905963153595 0 0.046911567348116551 -0.02267455500545059 0 0.054535973936144441 -0.034784489129337265 0 0.059284300645905987 -0.023386905963153595 0 0.054535973936144441 -0.034784489129337265 0 0.063111731200480831 -0.034719748851735621 0 0.059284300645905987 -0.023386905963153595 0 0.059238122011552416 -0.043164804241178946 0 0.063111731200480831 -0.034719748851735621 0 0.054535973936144441 -0.034784489129337265 0 0.059238122011552416 -0.043164804241178946 0 0.054535973936144441 -0.034784489129337265 0 0.052617209980560034 -0.044690154806354847 0 0.07234174135773383 -0.036615737395245478 0 0.063111731200480831 -0.034719748851735621 0 0.067134370300683754 -0.042172128386302535 0 0.067134370300683754 -0.042172128386302535 0 0.063111731200480831 -0.034719748851735621 0 0.059238122011552416 -0.043164804241178946 0 0.067134370300683754 -0.042172128386302535 0 0.067034454186930936 -0.048260732456695578 0 0.070916613166610076 -0.0475503651119836 0 0.074136077238824039 -0.043801152716134169 0 0.067134370300683754 -0.042172128386302535 0 0.070916613166610076 -0.0475503651119836 0 0.067134370300683754 -0.042172128386302535 0 0.059238122011552416 -0.043164804241178946 0 0.063761988778381032 -0.046554282491280324 0 0.067134370300683754 -0.042172128386302535 0 0.063761988778381032 -0.046554282491280324 0 0.067034454186930936 -0.048260732456695578 0 0.063761988778381032 -0.046554282491280324 0 0.065022729108949115 -0.051627353317125882 0 0.067034454186930936 -0.048260732456695578 0 0.061065104683402781 -0.051861598804154876 0 0.065022729108949115 -0.051627353317125882 0 0.063761988778381032 -0.046554282491280324 0 0.065022729108949115 -0.051627353317125882 0 0.069010080686627714 -0.051482678465945418 0 0.067034454186930936 -0.048260732456695578 0 0.069010080686627714 -0.051482678465945418 0 0.073070437502077354 -0.051393528827705579 0 0.070916613166610076 -0.0475503651119836 0 0.067034454186930936 -0.048260732456695578 0 0.069010080686627714 -0.051482678465945418 0 0.070916613166610076 -0.0475503651119836 0 0.059238122011552416 -0.043164804241178946 0 0.055660619771832627 -0.048583497637768543 0 0.059379302355743381 -0.048542445001888992 0 0.059238122011552416 -0.043164804241178946 0 0.052617209980560034 -0.044690154806354847 0 0.055660619771832627 -0.048583497637768543 0 0.063761988778381032 -0.046554282491280324 0 0.059238122011552416 -0.043164804241178939 0 0.059379302355743381 -0.048542445001888992 0 0.061065104683402781 -0.051861598804154876 0 0.063761988778381032 -0.046554282491280317 0 0.059379302355743381 -0.048542445001888992 0 0.057249401000124052 -0.052239630963921584 0 0.061065104683402781 -0.051861598804154876 0 0.059379302355743381 -0.048542445001888992 0 0.055660619771832627 -0.048583497637768543 0 0.057249401000124052 -0.052239630963921584 0 0.059379302355743381 -0.048542445001888992 0 0.053368277628762152 -0.052927478096813987 0 0.057249401000124052 -0.052239630963921584 0 0.055660619771832627 -0.048583497637768543 0 0.049497917561048495 -0.054092879957376674 0 0.053368277628762152 -0.052927478096813987 0 0.051938545424547108 -0.049976290731836868 0 0.053368277628762152 -0.052927478096813987 0 0.055660619771832627 -0.048583497637768543 0 0.051938545424547108 -0.049976290731836868 0 0.045642159570074219 -0.055854980083214177 0 0.049497917561048495 -0.054092879957376674 0 0.048358970903396532 -0.049339651540501635 0 0.048358970903396532 -0.049339651540501635 0 0.049497917561048502 -0.054092879957376681 0 0.051938545424547108 -0.049976290731836868 0 0.052617209980560034 -0.044690154806354847 0 0.045211824364883885 -0.039523555356897354 0 0.048358970903396532 -0.049339651540501635 0 0.052617209980560034 -0.044690154806354847 0 0.048358970903396532 -0.049339651540501635 0 0.051938545424547108 -0.049976290731836868 0 0.055660619771832627 -0.048583497637768543 0 0.052617209980560034 -0.044690154806354847 0 0.051938545424547108 -0.049976290731836868 0 0.054535973936144441 -0.034784489129337265 0 0.045211824364883885 -0.039523555356897354 0 0.052617209980560034 -0.044690154806354847 0 0.031970130685257031 -0.021383704748590828 0 0.031741607390483519 -0.036640923729240188 0 0.045211824364883885 -0.039523555356897354 0 0.031741607390483519 -0.036640923729240188 0 0.03940039271439693 -0.048985507599384456 0 0.045211824364883885 -0.039523555356897354 0 0.045211824364883885 -0.039523555356897354 0 0.03940039271439693 -0.048985507599384456 0 0.044476693074455224 -0.050219836236010167 0 0.048358970903396532 -0.049339651540501635 0 0.045211824364883885 -0.039523555356897361 0 0.044476693074455224 -0.050219836236010167 0 0.045642159570074219 -0.055854980083214177 0 0.048358970903396532 -0.049339651540501635 0 0.044476693074455224 -0.050219836236010167 0 0.041500451056885844 -0.059102086596343757 0 0.045642159570074219 -0.055854980083214177 0 0.044476693074455224 -0.050219836236010167 0 0.03940039271439693 -0.048985507599384456 0 0.041500451056885844 -0.059102086596343757 0 0.044476693074455224 -0.050219836236010167 0 0.036814482660691934 -0.064046595734553374 0 0.041500451056885844 -0.059102086596343757 0 0.03940039271439693 -0.048985507599384456 0 0.049185619609517006 -0.090688430069484294 0 0.043502887605687615 -0.077774214664357355 0 0.043207090705289698 -0.080339472490138744 0 0.043502887605687615 -0.077774214664357355 0 0.036814482660691934 -0.064046595734553374 0 0.043207090705289698 -0.080339472490138744 0 0.041450232279903139 -0.068123127051265914 0 0.036064314121399918 -0.06520907366052392 0 0.048391671482617818 -0.088736703760847135 0 0.043502887605687615 -0.077774214664357355 0 0.049185619609517006 -0.090688430069484294 0 0.046323713365525959 -0.072181021229256001 0 0.041450232279903139 -0.068123127051265914 0 0.053239978314851992 -0.098435118497255725 0 0.048391671482617818 -0.088736703760847135 0 0.049185619609517006 -0.090688430069484294 0 0.046790440417220462 -0.092366165409284745 0 0.056883771031837282 -0.1069915522453161 0 0.049185619609517006 -0.090688430069484294 0 0.034588666252783187 -0.075202696807936759 0 0.046790440417220462 -0.092366165409284745 0 0.043207090705289698 -0.080339472490138744 0 0.046790440417220462 -0.092366165409284745 0 0.049185619609517006 -0.090688430069484294 0 0.043207090705289698 -0.080339472490138744 0 0.054566106244578062 -0.10927497741672401 0 0.046790440417220462 -0.092366165409284745 0 0.040554715314967037 -0.090827423602403742 0 0.054566106244578062 -0.10927497741672401 0 0.056883771031837282 -0.1069915522453161 0 0.046790440417220462 -0.092366165409284745 0 0.066801669177569162 -0.12750274337964496 0 0.056883771031837282 -0.1069915522453161 0 0.054566106244578062 -0.10927497741672401 0 0.066801669177569162 -0.12750274337964496 0 0.066540840954689762 -0.12377820922267214 0 0.056883771031837282 -0.1069915522453161 0 0.056883771031837282 -0.1069915522453161 0 0.066540840954689762 -0.12377820922267214 0 0.058666984882453928 -0.10859516998926659 0 0.066540840954689762 -0.12377820922267214 0 0.062778964172190962 -0.11637110121873678 0 0.058666984882453928 -0.10859516998926659 0 0.056883771031837282 -0.1069915522453161 0 0.053239978314851992 -0.098435118497255725 0 0.049185619609517006 -0.090688430069484294 0 0.056883771031837282 -0.1069915522453161 0 0.058666984882453928 -0.10859516998926659 0 0.053239978314851992 -0.098435118497255725 0 0.058666984882453928 -0.10859516998926659 0 0.053234623572212786 -0.098610177618662379 0 0.053239978314851992 -0.098435118497255725 0 0.053234623572212786 -0.098610177618662379 0 0.048391671482617818 -0.088736703760847135 0 0.053239978314851992 -0.098435118497255725 0 0.050744518561351391 -0.076178149396976869 0 0.046323713365525959 -0.072181021229256001 0 0.062778964172190962 -0.11637110121873678 0 0.058089686441027064 -0.10781434323097691 0 0.058666984882453928 -0.10859516998926659 0 0.055168709480585269 -0.080217476617616981 0 0.050744518561351391 -0.076178149396976869 0 0.058089686441027064 -0.10781434323097691 0 0.053234623572212786 -0.098610177618662379 0 0.058666984882453928 -0.10859516998926659 0 0.062878771257462232 -0.11662893877244981 0 0.058089686441027064 -0.10781434323097691 0 0.062778964172190962 -0.11637110121873678 0 0.059542908746760832 -0.084273278761028664 0 0.055168709480585269 -0.080217476617616981 0 0.068225647277566012 -0.12606312779514856 0 0.062878771257462232 -0.11662893877244981 0 0.062778964172190962 -0.11637110121873678 0 0.067807273543089394 -0.12525845442037029 0 0.062878771257462232 -0.11662893877244981 0 0.068225647277566012 -0.12606312779514856 0 0.063936742055169568 -0.088383406231416384 0 0.059542908746760832 -0.084273278761028664 0 0.072488947619625752 -0.13348875665108156 0 0.067807273543089394 -0.12525845442037029 0 0.068225647277566012 -0.12606312779514856 0 0.076474609455034107 -0.1409186650135161 0 0.072488947619625752 -0.13348875665108156 0 0.068225647277566012 -0.12606312779514856 0 0.066540840954689762 -0.12377820922267214 0 0.076474609455034093 -0.14091866501351608 0 0.068225647277566012 -0.12606312779514856 0 0.066540840954689762 -0.12377820922267214 0 0.068225647277566012 -0.12606312779514856 0 0.062778964172190962 -0.11637110121873678 0 0.077731832159756889 -0.14218646006542687 0 0.077675067730125072 -0.14235395869463702 0 0.082451843116046669 -0.1503881351741643 0 0.077731832159756889 -0.14218646006542687 0 0.072742323871917758 -0.13375426041800084 0 0.077675067730125072 -0.14235395869463702 0 0.0728894725875157 -0.096669108584250277 0 0.068393356243599657 -0.092524726545346492 0 0.072742323871917758 -0.13375426041800084 0 0.072488947619625752 -0.13348875665108156 0 0.077675067730125072 -0.14235395869463702 0 0.072742323871917758 -0.13375426041800084 0 0.067807273543089394 -0.12525845442037029 0 0.072488947619625752 -0.13348875665108156 0 0.068393356243599657 -0.092524726545346492 0 0.063936742055169568 -0.088383406231416384 0 0.072488947619625752 -0.13348875665108156 0 0.076474609455034107 -0.1409186650135161 0 0.077675067730125072 -0.14235395869463702 0 0.077675067730125072 -0.14235395869463702 0 0.086292457129565237 -0.15739859286030866 0 0.082451843116046669 -0.1503881351741643 0 0.076474609455034107 -0.1409186650135161 0 0.086292457129565237 -0.15739859286030866 0 0.077675067730125072 -0.14235395869463702 0 0.086512793197286192 -0.15919168402299685 0 0.08629245712956525 -0.15739859286030866 0 0.076474609455034107 -0.1409186650135161 0 0.086512793197286192 -0.15919168402299685 0 0.076474609455034107 -0.1409186650135161 0 0.076222634516429799 -0.14193288844529167 0 0.076222634516429799 -0.14193288844529167 0 0.066540840954689762 -0.12377820922267214 0 0.066801669177569162 -0.12750274337964496 0 0.076222634516429799 -0.14193288844529167 0 0.076474609455034107 -0.1409186650135161 0 0.066540840954689762 -0.12377820922267214 0 0.0842474790974857 -0.15791890555939592 0 0.076222634516429799 -0.14193288844529167 0 0.066801669177569162 -0.12750274337964496 0 0.086512793197286192 -0.15919168402299685 0 0.0842474790974857 -0.15791890555939592 0 0.10015828195840248 -0.18395854654035942 0 0.0842474790974857 -0.15791890555939592 0 0.086512793197286192 -0.15919168402299685 0 0.076222634516429799 -0.14193288844529167 0 0.10015828195840248 -0.18395854654035942 0 0.0842474790974857 -0.15791890555939592 0 0.096493578604528646 -0.18228311531014435 0 0.0842474790974857 -0.15791890555939592 0 0.067449847055747858 -0.13451966864534939 0 0.096493578604528646 -0.18228311531014435 0 0.067449847055747858 -0.13451966864534939 0 0.049610883034010629 -0.10802309260327733 0 0.058361307798561385 -0.12478526009506756 0 0.054566106244578062 -0.10927497741672401 0 0.049610883034010629 -0.10802309260327733 0 0.067449847055747858 -0.13451966864534939 0 0.049610883034010629 -0.10802309260327733 0 0.054566106244578062 -0.10927497741672401 0 0.040554715314967037 -0.090827423602403742 0 0.066801669177569162 -0.12750274337964496 0 0.054566106244578062 -0.10927497741672401 0 0.067449847055747858 -0.13451966864534939 0 0.0842474790974857 -0.15791890555939592 0 0.066801669177569162 -0.12750274337964496 0 0.067449847055747858 -0.13451966864534939 0 0.13662814020219613 -0.24120527541228337 0 0.13083845346958017 -0.2303714676541368 0 0.12396440259422604 -0.21993862092439073 0 0.12396440259422604 -0.21993862092439073 0 0.1234709798842063 -0.21795881735195977 0 0.11735679182544416 -0.20820056982698104 0 0.13083845346958017 -0.2303714676541368 0 0.1234709798842063 -0.21795881735195977 0 0.12396440259422604 -0.21993862092439073 0 0.13083845346958017 -0.2303714676541368 0 0.1266183198795823 -0.22250216401453371 0 0.1234709798842063 -0.21795881735195977 0 0.1234709798842063 -0.21795881735195977 0 0.1266183198795823 -0.22250216401453371 0 0.12194895580117046 -0.21473731873331767 0 0.1266183198795823 -0.22250216401453371 0 0.12354794425646011 -0.21677464338891786 0 0.12194895580117046 -0.21473731873331767 0 0.12354794425646011 -0.21677464338891786 0 0.1184006720717269 -0.20850355172055005 0 0.12194895580117046 -0.21473731873331767 0 0.1289048136559249 -0.13532343634953145 0 0.10672180088178598 -0.12974938358531887 0 0.10672180088178598 -0.12974938358531887 0 0.10587661593136154 -0.12560347916689948 0 0.1184006720717269 -0.20850355172055005 0 0.11325427786129363 -0.20023510231826927 0 0.1180540347568925 -0.20856765524546891 0 0.1184006720717269 -0.20850355172055005 0 0.1180540347568925 -0.20856765524546891 0 0.12194895580117046 -0.21473731873331767 0 0.11325427786129363 -0.20023510231826927 0 0.11297264702234194 -0.20030010090087561 0 0.1180540347568925 -0.20856765524546891 0 0.1234709798842063 -0.21795881735195977 0 0.1180540347568925 -0.20856765524546891 0 0.11735679182544416 -0.20820056982698104 0 0.1180540347568925 -0.20856765524546891 0 0.1234709798842063 -0.21795881735195977 0 0.12194895580117046 -0.21473731873331767 0 0.1180540347568925 -0.20856765524546891 0 0.11297264702234194 -0.20030010090087561 0 0.11735679182544416 -0.20820056982698104 0 0.10838186445247394 -0.19309826115657383 0 0.11264781233602411 -0.20106091043902027 0 0.11735679182544416 -0.20820056982698104 0 0.11297264702234194 -0.20030010090087561 0 0.10838186445247394 -0.19309826115657383 0 0.11735679182544416 -0.20820056982698104 0 0.11297264702234194 -0.20030010090087561 0 0.10811517216402532 -0.19197045118236339 0 0.10838186445247394 -0.19309826115657383 0 0.10587661593136154 -0.12560347916689948 0 0.10036633036944426 -0.12147013457362936 0 0.11325427786129363 -0.20023510231826927 0 0.10811517216402532 -0.19197045118236339 0 0.11297264702234194 -0.20030010090087561 0 0.10811517216402532 -0.19197045118236339 0 0.10298977197681189 -0.1837050836558238 0 0.10838186445247394 -0.19309826115657383 0 0.10036633036944426 -0.12147013457362936 0 0.095890631785563243 -0.11734020686565469 0 0.10838186445247394 -0.19309826115657383 0 0.10298977197681189 -0.1837050836558238 0 0.10230238806333411 -0.18303314685221519 0 0.10358929888401362 -0.18574777978368173 0 0.11264781233602411 -0.20106091043902027 0 0.10838186445247394 -0.19309826115657383 0 0.11264781233602411 -0.20106091043902027 0 0.12396440259422604 -0.21993862092439073 0 0.11735679182544416 -0.20820056982698104 0 0.11673846318956418 -0.20917214771791526 0 0.12396440259422604 -0.21993862092439073 0 0.11264781233602411 -0.20106091043902027 0 0.11673846318956418 -0.20917214771791526 0 0.11264781233602411 -0.20106091043902027 0 0.10546898715904283 -0.1897963852469034 0 0.11673846318956418 -0.20917214771791526 0 0.10546898715904285 -0.18979638524690343 0 0.10722873571176289 -0.19401649912930574 0 0.10722873571176289 -0.19401649912930574 0 0.10546898715904283 -0.1897963852469034 0 0.096244962578743182 -0.17502420416107209 0 0.095513042890189664 -0.17264212740802731 0 0.10546898715904283 -0.1897963852469034 0 0.10358929888401362 -0.18574777978368173 0 0.096244962578743182 -0.17502420416107209 0 0.10546898715904283 -0.1897963852469034 0 0.095513042890189664 -0.17264212740802731 0 0.10546898715904283 -0.1897963852469034 0 0.11264781233602411 -0.20106091043902027 0 0.10358929888401362 -0.18574777978368173 0 0.10358929888401362 -0.18574777978368173 0 0.10838186445247394 -0.19309826115657383 0 0.10230238806333411 -0.18303314685221519 0 0.097426024734963104 -0.17518595452387448 0 0.10358929888401362 -0.18574777978368173 0 0.10230238806333411 -0.18303314685221519 0 0.097886284388632214 -0.17543866534195829 0 0.097426024734963104 -0.17518595452387448 0 0.10230238806333411 -0.18303314685221519 0 0.095890631785563243 -0.11734020686565469 0 0.091208555175732717 -0.11321297590648248 0 0.10298977197681189 -0.1837050836558238 0 0.097886284388632214 -0.17543866534195829 0 0.10230238806333411 -0.18303314685221519 0 0.097426024734963104 -0.17518595452387448 0 0.092800182370553624 -0.16716169340160389 0 0.09226821228612983 -0.16667287191231095 0 0.091208555175732717 -0.11321297590648248 0 0.086587247939909268 -0.10908703368841194 0 0.097886284388632214 -0.17543866534195829 0 0.092800182370553624 -0.16716169340160389 0 0.097426024734963104 -0.17518595452387448 0 0.095513042890189664 -0.17264212740802731 0 0.097426024734963104 -0.17518595452387448 0 0.09226821228612983 -0.16667287191231095 0 0.095513042890189664 -0.17264212740802731 0 0.10358929888401361 -0.18574777978368173 0 0.097426024734963104 -0.17518595452387448 0 0.087898848342156541 -0.15953629490030163 0 0.095513042890189651 -0.17264212740802728 0 0.09226821228612983 -0.16667287191231095 0 0.086292457129565237 -0.15739859286030866 0 0.095513042890189664 -0.17264212740802731 0 0.087898848342156541 -0.15953629490030163 0 0.087751570364536166 -0.15887235893443308 0 0.087898848342156541 -0.15953629490030163 0 0.09226821228612983 -0.16667287191231095 0 0.086587247939909268 -0.10908703368841194 0 0.081985903950128322 -0.1049530547662801 0 0.092800182370553624 -0.16716169340160389 0 0.087751570364536166 -0.15887235893443308 0 0.09226821228612983 -0.16667287191231095 0 0.077419948830009522 -0.10081238122161613 0 0.0728894725875157 -0.096669108584250277 0 0.082720134145448335 -0.15054639941873965 0 0.077731832159756889 -0.14218646006542687 0 0.082451843116046669 -0.1503881351741643 0 0.087751570364536166 -0.15887235893443308 0 0.082720134145448335 -0.15054639941873965 0 0.087898848342156541 -0.15953629490030163 0 0.081985903950128322 -0.1049530547662801 0 0.077419948830009522 -0.10081238122161613 0 0.087898848342156541 -0.15953629490030163 0 0.082720134145448335 -0.15054639941873965 0 0.082451843116046669 -0.1503881351741643 0 0.086292457129565237 -0.15739859286030866 0 0.087898848342156541 -0.15953629490030163 0 0.082451843116046669 -0.1503881351741643 0 0.096244962578743182 -0.17502420416107209 0 0.086292457129565237 -0.15739859286030866 0 0.086512793197286192 -0.15919168402299685 0 0.096244962578743182 -0.17502420416107209 0 0.095513042890189664 -0.17264212740802731 0 0.086292457129565237 -0.15739859286030866 0 0.10015828195840248 -0.18395854654035942 0 0.11904855611969185 -0.21833220801724276 0 0.1185963327842689 -0.21429912844338345 0 0.096244962578743182 -0.17502420416107209 0 0.086512793197286192 -0.15919168402299685 0 0.10015828195840248 -0.18395854654035942 0 0.10722873571176289 -0.19401649912930574 0 0.096244962578743182 -0.17502420416107209 0 0.10015828195840248 -0.18395854654035942 0 0.11673846318956418 -0.20917214771791526 0 0.10722873571176289 -0.19401649912930574 0 0.1185963327842689 -0.21429912844338345 0 0.10722873571176289 -0.19401649912930574 0 0.10015828195840248 -0.18395854654035942 0 0.1185963327842689 -0.21429912844338345 0 0.12943607978777683 -0.2308415699398372 0 0.11673846318956418 -0.20917214771791526 0 0.1185963327842689 -0.21429912844338345 0 0.12943607978777683 -0.2308415699398372 0 0.12396440259422604 -0.21993862092439073 0 0.11673846318956418 -0.20917214771791526 0 0.13499486724318888 -0.24261182154240465 0 0.12943607978777683 -0.23084156993983723 0 0.1185963327842689 -0.21429912844338345 0 0.14454829169127964 -0.25613073513636442 0 0.12943607978777683 -0.2308415699398372 0 0.13499486724318888 -0.24261182154240465 0 0.12943607978777683 -0.2308415699398372 0 0.13662814020219613 -0.24120527541228337 0 0.12396440259422604 -0.21993862092439073 0 0.14454829169127964 -0.25613073513636442 0 0.13662814020219613 -0.24120527541228337 0 0.12943607978777683 -0.2308415699398372 0 0.12557897451667863 -0.23440326818932294 0 0.17039449384327396 -0.30498544635971375 0 0.14129843724825003 -0.25604304580340925 0 0.15537785677087046 -0.27661943823111335 0 0.14454829169127964 -0.25613073513636442 0 0.13499486724318888 -0.24261182154240465 0 0.15537785677087046 -0.27661943823111335 0 0.13499486724318888 -0.24261182154240465 0 0.14129843724825003 -0.25604304580340925 0 0.11904855611969185 -0.21833220801724276 0 0.10015828195840248 -0.18395854654035942 0 0.096493578604528646 -0.18228311531014435 0 0.12557897451667863 -0.23440326818932294 0 0.11904855611969184 -0.21833220801724273 0 0.096493578604528646 -0.18228311531014435 0 0.13499486724318888 -0.24261182154240465 0 0.11904855611969185 -0.21833220801724276 0 0.14129843724825003 -0.25604304580340925 0 0.11904855611969185 -0.21833220801724276 0 0.13499486724318888 -0.24261182154240465 0 0.1185963327842689 -0.21429912844338345 0 0.11904855611969185 -0.21833220801724276 0 0.12557897451667863 -0.23440326818932297 0 0.14129843724825003 -0.25604304580340925 0 0.17039449384327396 -0.30498544635971375 0 0.15537785677087046 -0.27661943823111335 0 0.14129843724825003 -0.25604304580340925 0 0.080593836109413619 -0.16168971361808285 0 0.12557897451667863 -0.23440326818932294 0 0.08375120667222076 -0.16530318547840517 0 0.08375120667222076 -0.16530318547840517 0 0.067449847055747858 -0.13451966864534939 0 0.058361307798561385 -0.12478526009506756 0 0.080593836109413619 -0.16168971361808285 0 0.08375120667222076 -0.16530318547840517 0 0.058361307798561385 -0.12478526009506756 0 0.067449847055747858 -0.13451966864534939 0 0.08375120667222076 -0.16530318547840517 0 0.096493578604528646 -0.18228311531014435 0 0.08375120667222076 -0.16530318547840517 0 0.12557897451667863 -0.23440326818932294 0 0.096493578604528646 -0.18228311531014435 0 0.037635624214975683 -0.091004626767261523 0 0.080593836109413619 -0.16168971361808288 0 0.058361307798561385 -0.12478526009506756 0 0.041461694768395126 -0.08465594242703034 0 0.037635624214975683 -0.091004626767261523 0 0.01158190070634502 -0.041404146082022426 0 0.041461694768395126 -0.08465594242703034 0 0.080593836109413619 -0.16168971361808285 0 0.037635624214975683 -0.091004626767261523 0 -8.6812322241927906e-06 -4.2922967699229301e-05 0 3.7139181757291175e-05 -9.7717519529729648e-05 0 0.01158190070634502 -0.041404146082022426 0 3.7139181757291175e-05 -9.7717519529729648e-05 0 0.041461694768395126 -0.08465594242703034 0 0.01158190070634502 -0.041404146082022426 0 -4.6842801242509281e-06 -2.9985856144874482e-05 0 -8.6812322241927906e-06 -4.2922967699229301e-05 0 0.0018007810358983108 -0.023379749159174616 0 0.0018007810358983108 -0.023379749159174616 0 0.01158190070634502 -0.041404146082022426 0 0.013965714786340134 -0.053891999512010139 0 0.0018007810358983108 -0.023379749159174616 0 -8.6812322241927906e-06 -4.2922967699229301e-05 0 0.01158190070634502 -0.041404146082022426 0 -4.6842801242509281e-06 -2.9985856144874482e-05 0 0.0018007810358983108 -0.023379749159174616 0 0.0014704574545360693 -0.025279358579796397 0 0.0018007810358983108 -0.023379749159174616 0 0.013965714786340134 -0.053891999512010139 0 0.0014704574545360693 -0.025279358579796397 0 0.013965714786340134 -0.053891999512010139 0 0.012035518371982882 -0.040678177650406405 0 0.0014704574545360693 -0.025279358579796397 0 0.02231513326604782 -0.061135362637100024 0 0.012035518371982884 -0.040678177650406412 0 0.013965714786340134 -0.053891999512010139 0 0.034599539371031406 -0.087541524610912441 0 0.022315133266047817 -0.061135362637100024 0 0.013965714786340134 -0.053891999512010139 0 0.027610286399425154 -0.057218239201674514 0 0.021122511576209247 -0.04183014575963815 0 0.02231513326604782 -0.061135362637100024 0 0.034588666252783187 -0.075202696807936759 0 0.027610286399425154 -0.057218239201674514 0 0.02231513326604782 -0.061135362637100024 0 0.034588666252783187 -0.075202696807936759 0 0.036814482660691934 -0.064046595734553374 0 0.027610286399425154 -0.057218239201674514 0 0.036814482660691934 -0.064046595734553374 0 0.034588666252783187 -0.075202696807936759 0 0.043207090705289698 -0.080339472490138744 0 0.040554715314967037 -0.090827423602403742 0 0.034588666252783187 -0.075202696807936759 0 0.02231513326604782 -0.061135362637100024 0 0.040554715314967037 -0.090827423602403742 0 0.046790440417220462 -0.092366165409284731 0 0.034588666252783187 -0.075202696807936759 0 0.034599539371031406 -0.087541524610912441 0 0.040554715314967037 -0.090827423602403742 0 0.02231513326604782 -0.061135362637100024 0 0.034599539371031406 -0.087541524610912441 0 0.037635624214975683 -0.091004626767261523 0 0.058361307798561385 -0.12478526009506756 0 0.049610883034010629 -0.10802309260327733 0 0.040554715314967037 -0.090827423602403742 0 0.034599539371031406 -0.087541524610912441 0 0.049610883034010629 -0.10802309260327733 0 0.034599539371031406 -0.087541524610912441 0 0.058361307798561385 -0.12478526009506756 0 0.01158190070634502 -0.041404146082022426 0 0.037635624214975683 -0.091004626767261523 0 0.013965714786340134 -0.053891999512010139 0 0.037635624214975683 -0.091004626767261523 0 0.034599539371031406 -0.087541524610912441 0 0.013965714786340134 -0.053891999512010139 0 
</DataArray>
</PointData>
<CellData Scalars="region_id," Vectors="" Tensors="stress,">
<DataArray type="Float64" Name="region_id" format="ascii">
1 1 1 1 1 1 1 1 1 1 1 1 1 1 1 1 1 1 1 1 1 1 1 1 1 1 1 1 1 1 1 1 1 1 1 1 1 1 1 1 1 1 1 1 1 1 1 1 1 1 1 1 1 1 1 1 1 1 1 1 1 1 1 1 1 1 1 1 1 1 1 1 1 1 1 1 1 1 1 1 1 1 1 1 1 1 1 1 1 1 1 1 1 1 1 1 1 1 1 1 1 1 1 1 1 1 1 1 1 1 1 1 1 1 1 1 1 1 1 1 1 1 1 1 1 1 1 1 1 1 1 1 1 1 1 1 1 1 1 1 1 6 1 6 1 1 1 1 1 1 1 1 1 1 1 1 1 1 6 1 6 1 1 6 1 1 6 1 1 1 1 1 1 6 1 1 6 1 1 1 1 1 1 1 1 1 1 1 1 1 1 1 1 1 1 1 1 1 1 1 1 6 6 1 1 1 1 1 1 1 1 1 6 1 1 6 1 1 1 1 1 1 1 1 1 1 1 1 1 6 1 1 6 1 1 1 1 1 1 6 1 6 1 1 6 1 1 1 1 1 1 1 1 1 1 1 1 1 1 1 1 1 1 1 1 1 1 1 1 1 1 1 1 1 1 1 1 1 1 1 1 1 1 1 1 1 1 1 1 1 1 1 1 1 1 1 1 1 1 
</DataArray>
<DataArray type="Float64" Name="stress" NumberOfComponents="9" format="ascii">
-0.0071950609224931726 -0.014321733817318171 0 -0.014321733817318171 0.035096382083952452 0 0 0 0.0069753302903648234 -0.0041600323923753997 0.001465259500800989 0 0.001465259500800989 -0.01246533896851771 0 0 0 -0.0041563428402232767 -0.024997739096978791 -0.0029896176048734673 0 -0.0029896176048734673 -0.074982586045006475 0 0 0 -0.024995081285496313 -0.027929427472633481 -0.025755424278503004 0 -0.025755424278503004 -0.039903135225436884 0 0 0 -0.016958140674517591 -0.025279495651238177 -0.025243639888375365 0 -0.025243639888375365 -0.13390966909716939 0 0 0 -0.039797291187101888 -0.021500913168927351 -0.0012214887118207757 0 -0.0012214887118207757 -0.086373620165862669 0 0 0 -0.026968633333697502 -0.0078337731180028319 -0.010238272862856473 0 -0.010238272862856473 -0.039086163933155116 0 0 0 -0.011729984262789497 -0.020387281515961378 -0.02489540390916703 0 -0.02489540390916703 -0.081243287639047618 0 0 0 -0.025407642288752239 -0.018353507828818068 -0.031386431079764132 0 -0.031386431079764132 -0.076811079633049589 0 0 0 -0.023791146865466913 0.0044996388412396667 -0.012320163567879128 0 -0.012320163567879128 -0.019274533326051037 0 0 0 -0.0036937236212028438 -0.016901433451968241 -0.067296332765201083 0 -0.067296332765201083 -0.1509958760290922 0 0 0 -0.04197432737026522 0.0065136018886585711 -0.086338009254853076 0 -0.086338009254853076 -0.028090377082016005 0 0 0 -0.0053941937983393862 -0.0047061519205507663 -0.051503659350657344 0 -0.051503659350657344 -0.062441540899633163 0 0 0 -0.016786923205045934 -0.0029650404035458655 -0.040682208599563369 0 -0.040682208599563369 -0.13447572229397614 0 0 0 -0.034360190674380509 -0.0081826231005387023 -0.013842255275523185 0 -0.013842255275523185 -0.097496188257206434 0 0 0 -0.026419702839436288 -0.023639563623579496 -0.023859856406341313 0 -0.023859856406341313 -0.15359089137698662 0 0 0 -0.044307613750141514 -0.027299260745313698 -0.017601016357026426 0 -0.017601016357026426 -0.068114470705376323 0 0 0 -0.02385343286267249 -0.010396328889410944 0.003301224871985059 0 0.003301224871985059 -0.054227248563040648 0 0 0 -0.016155894363112891 -0.010741499136989737 0.006418432572695365 0 0.006418432572695365 -0.040100895464149452 0 0 0 -0.012710598650284798 -0.0029190187721496522 0.012751022587142037 0 0.012751022587142037 -0.031621781988445147 0 0 0 -0.0086352001901486911 -0.014668989621819364 0.0023827642263737833 0 0.0023827642263737833 -0.028160630900178979 0 0 0 -0.01070740513049959 0.0021612305456819025 -0.0055216867783697519 0 -0.0055216867783697519 -0.04686572701747882 0 0 0 -0.011176124117949215 -0.0071194076875700785 0.0062836345285921039 0 0.0062836345285921039 0.037656972083556561 0 0 0 0.0076343910989966277 0.00053007775690410916 0.010728302937033028 0 0.010728302937033028 -0.0097028894338267169 0 0 0 -0.0022932029192306545 0.0029367578036984462 0.0086175116322309391 0 0.0086175116322309391 -0.0069579245608855644 0 0 0 -0.0010052916892967709 -0.017615597468911812 -0.0028424710719279905 0 -0.0028424710719279905 -0.010921766135513176 0 0 0 -0.0071343409011062455 -0.0089867867915335506 0.013775946339131404 0 0.013775946339131404 -0.0060735019846386139 0 0 0 -0.0037650721940430424 0.0047717924823480829 0.0075612906028654798 0 0.0075612906028654798 0.012190661578095134 0 0 0 0.0042406135151107993 0.0017020027124412182 0.0050210615545856346 0 0.0050210615545856346 -0.0051356145641541368 0 0 0 -0.00085840296292819668 0.012124329286372783 0.0034057234792491189 0 0.0034057234792491189 -0.0014737945087238136 0 0 0 0.0026626336944122475 0.012869209313792748 0.0049812295148608694 0 0.0049812295148608694 -0.0090052443675996685 0 0 0 0.00096599123654828034 0.001831135020318217 0.01032064936960448 0 0.01032064936960448 -0.0059831767582089745 0 0 0 -0.0010380104344726859 0.0009803245157103597 0.0010984602082197877 0 0.0010984602082197877 0.001915294358069707 0 0 0 0.00072390471844504276 -0.00013647129529920782 0.00039666179952264208 0 0.00039666179952264208 0.00028683124631395662 0 0 0 3.7589987753654241e-05 0.0026031710529086753 0.0016370018339508068 0 0.0016370018339508068 0.00064807540468633795 0 0 0 0.00081281161439873337 0.0034252456231024936 8.8595094220191017e-05 0 8.8595094220191017e-05 -0.00059517343323492455 0 0 0 0.00070751804746689573 0.0022058460192904 0.0017252456071426316 0 0.0017252456071426316 -0.0011516225543448944 0 0 0 0.00026355586623638683 0.0027975212360166549 0.00073488245829900212 0 0.00073488245829900212 -0.0034347440331789769 0 0 0 -0.00015930569929058919 0.0013371765619838247 0.00069270584941165392 0 0.00069270584941165392 -0.0015721424197366815 0 0 0 -5.8741464438257993e-05 0.0018220541495340449 0.00056995386994909344 0 0.00056995386994909344 -0.00015014835306357416 0 0 0 0.00041797644911762202 0.00079148988976428247 0.00020835513029158554 0 0.00020835513029158554 -0.00038182514471499229 0 0 0 0.00010241618626236071 0.00077112014352445635 -0.00018109406238864652 0 -0.00018109406238864652 -5.0646392191211476e-08 0 0 0 0.00019276737428294832 0.00068262878195965437 -0.00016724883248195321 0 -0.00016724883248195321 -2.4724049347557564e-05 0 0 0 0.00016447618315304502 0.0013749107329401322 -4.6587565969036238e-05 0 -4.6587565969036238e-05 4.8750341627157301e-05 0 0 0 0.00035591526864178769 0.0015428548508366249 -0.00058586774589719504 0 -0.00058586774589719504 -8.5028342805184426e-05 0 0 0 0.00036445662700786662 0.00092892282082379651 -0.00059261618819701767 0 -0.00059261618819701767 8.6878601763484831e-05 0 0 0 0.00025395035564673707 0.001015984554923216 -0.00062433299865852221 0 -0.00062433299865852221 -0.00023281244662054501 0 0 0 0.00019579302707564694 0.0018769288411787793 -0.00042489990379693948 0 -0.00042489990379693948 -0.0013823636806830353 0 0 0 0.00012364129012400193 0.001454564560911531 -0.0010998333460373669 0 -0.0010998333460373669 -1.9580616343217727e-05 0 0 0 0.00035874598614205055 0.0034295290417501595 -0.00096764615051557479 0 -0.00096764615051557479 -0.00044285596154891582 0 0 0 0.0007466682700503352 0.0072139306878669929 -0.00039989127533647355 0 -0.00039989127533647355 -0.0014960030191401019 0 0 0 0.001429481917181688 0.0031366840221824302 -0.0017422650081008184 0 -0.0017422650081008184 -0.0029108541623836665 0 0 0 5.6457464949706548e-05 0.0036809081325375609 -0.0036740396990012358 0 -0.0036740396990012358 -0.00038265492620570551 0 0 0 0.0008245633015829118 0.001229427478034395 -0.0024214331715485121 0 -0.0024214331715485121 0.0012871957345116369 0 0 0 0.00062915580313649411 0.00092406845036674401 -0.0026770643754381873 0 -0.0026770643754381873 0.0017804455444259126 0 0 0 0.0006761284986981364 0.0028864338172108206 -0.0041624744990273604 0 -0.0041624744990273604 0.0051347292582368809 0 0 0 0.0020052907688619115 0.001240743567800795 -0.0020364521582539874 0 -0.0020364521582539874 0.0039351022985922857 0 0 0 0.0012939614665982146 -1.1370835727331219e-05 -0.00068211801446782516 0 -0.00068211801446782516 0.0028318252854084847 0 0 0 0.00070511361242020509 0.00030053763778421701 -0.00049167261083160607 0 -0.00049167261083160607 0.0016785200096618273 0 0 0 0.00049476441186153887 6.7790234737130639e-05 -0.00027361982005924546 0 -0.00027361982005924546 0.001027704775902194 0 0 0 0.00027387375265985892 5.1250583156026153e-05 -0.0004911706655782444 0 -0.0004911706655782444 0.002499558918990008 0 0 0 0.00063770237553639753 0.00029008635912880498 -0.0011302352505625501 0 -0.0011302352505625501 0.0021340114802059773 0 0 0 0.00060602445983354292 0.00071845611970061674 -0.001614744977283207 0 -0.001614744977283207 0.0031401157349033593 0 0 0 0.00096464296365089686 0.00029255290203311635 -0.0010254408595502529 0 -0.0010254408595502529 0.001316428709550177 0 0 0 0.00040224540289579558 0.00014987865692135606 -0.00089241730676858921 0 -0.00089241730676858921 0.00081322863399944717 0 0 0 0.00024077682273033964 -6.5615240168093882e-05 -0.00022190700612628733 0 -0.00022190700612628733 0.00081196191107189906 0 0 0 0.00018658666772578474 6.5956506783870772e-05 -0.00027386929925277137 0 -0.00027386929925277137 0.0018209257896548703 0 0 0 0.00047172057410971302 -1.1693852562499885e-05 -0.00029546756712495181 0 -0.00029546756712495181 0.00069569171051941936 0 0 0 0.00017099946448917436 5.5857265054149165e-05 -0.00021817762277387409 0 -0.00021817762277387409 0.00034133425941160835 0 0 0 9.9297881116467137e-05 0.00037587472975142422 -0.00075533449576703493 0 -0.00075533449576703493 0.0011696540581234149 0 0 0 0.00038638219696873755 0.00059349635487526697 -0.001232067582179544 0 -0.001232067582179544 -0.00022612273862326893 0 0 0 9.1843404062874612e-05 0.001559670103966071 -0.0017898114021369926 0 -0.0017898114021369926 0.0012779513457580327 0 0 0 0.00070940536243108143 0.00034279165070656703 -0.00054529502262556928 0 -0.00054529502262556928 -0.00010034763930455437 0 0 0 6.0611002850555207e-05 0.001011482791185403 -0.00098122863734315113 0 -0.00098122863734315113 0.00073835261070664959 0 0 0 0.00043745885047297151 0.00013792744070895147 -0.00049150069862197165 0 -0.00049150069862197165 0.00047642586048102231 0 0 0 0.00015358832529743793 0.00012277299308122679 -0.00048296181927842685 0 -0.00048296181927842685 0.00045652007723625057 0 0 0 0.00014482326757931339 8.074616453979111e-05 -0.00021499906016611559 0 -0.00021499906016611559 0.00071744476011392777 0 0 0 0.00019954773116337421 2.7064725414915891e-05 -0.00012856744183042945 0 -0.00012856744183042945 0.00014633362938498706 0 0 0 4.3349588700003494e-05 1.3703623754079963e-05 -0.000119268314157428 0 -0.000119268314157428 0.00013295700484738937 0 0 0 3.6665157150395089e-05 8.114304600639347e-05 -7.2249285879677494e-05 0 -7.2249285879677494e-05 -5.8707420109759953e-05 0 0 0 5.6089064741861348e-06 0.0003575328635020969 -0.00039768760871844444 0 -0.00039768760871844444 0.00042179671701725319 0 0 0 0.00019483239512979589 6.9243427366860733e-05 -0.0001130533474729134 0 -0.0001130533474729134 0.00014922434045083754 0 0 0 5.4616941954466203e-05 0.00013212444366278442 -0.00015280232918629677 0 -0.00015280232918629677 7.4984085339679929e-05 0 0 0 5.1777132250629965e-05 0.00011241821689533804 -2.305601504282162e-05 0 -2.305601504282162e-05 2.6369201179932134e-05 0 0 0 3.4696854519178366e-05 1.5946960538304467e-05 -6.1624616132238685e-07 0 -6.1624616132238685e-07 6.3187213779514195e-05 0 0 0 1.9783543579454665e-05 1.550685118312245e-06 3.1567555570655159e-05 0 3.1567555570655159e-05 -2.4271887937743486e-05 0 0 0 -5.6803007046912768e-06 4.6257127012074016e-05 8.517490601378519e-06 0 8.517490601378519e-06 -0.00012974124170319208 0 0 0 -2.087102867269625e-05 -5.744911001659414e-05 4.1293050132631017e-05 0 4.1293050132631017e-05 -6.5189770159790328e-06 0 0 0 -1.5992021757949004e-05 1.5786792059158117e-06 3.8589341666228627e-05 0 3.8589341666228627e-05 -5.5840441824273057e-05 0 0 0 -1.3565440654672578e-05 3.0937005985054444e-05 3.732322253602316e-05 0 3.732322253602316e-05 -4.5887211372885872e-06 0 0 0 6.5870712120941199e-06 -4.7268041439285646e-05 -4.7103448427201458e-05 0 -4.7103448427201458e-05 0.00013210542062025432 0 0 0 2.1209344795325435e-05 0.0001593528214628992 -9.4093341509310369e-05 0 -9.4093341509310369e-05 -2.1993881222259759e-05 0 0 0 3.4339735060118226e-05 0.00044748836337066278 -0.00039285517856610386 0 -0.00039285517856610386 0.00042509733767825963 0 0 0 0.00021814642526224448 0.00024682880793713835 -0.00015956033194042049 0 -0.00015956033194042049 9.7685423083526679e-05 0 0 0 8.6128557755027479e-05 0.020635103244085129 -0.011152905659122636 0 -0.011152905659122636 -0.003986205960563427 0 0 0 0.0041622243208804255 0.02030874590875778 -0.00460817337187025 0 -0.00460817337187025 -0.022907522079039233 0 0 0 -0.00064969404257037011 -4.3669322374840884e-05 0.012163620309288657 0 0.012163620309288657 -0.025903721591881049 0 0 0 -0.0064868477285639726 0.010065865509951838 0.0028298000489434053 0 0.0028298000489434053 -0.012925280407593498 0 0 0 -0.00071485372441040806 0.0051743547510858905 -0.00029652659277389082 0 -0.00029652659277389082 -0.0078513942022921945 0 0 0 -0.00066925986280154739 0.0049231463685464882 -0.0050369651303068391 0 -0.0050369651303068391 0.0010411792081675975 0 0 0 0.0014910813941785561 0.008594333746118385 -0.0050425024758714715 0 -0.0050425024758714715 -0.0039873519161184867 0 0 0 0.001151745457499978 0.013438700708080398 -0.007099725613103236 0 -0.007099725613103236 -0.013127864221106289 0 0 0 7.7709121743499421e-05 0.012091246260778369 -0.0081283962416749955 0 -0.0081283962416749955 -0.00039344955748072535 0 0 0 0.0029244491758244322 0.0066064915875984898 -0.0090746040128101002 0 -0.0090746040128101002 -0.0022996753986656016 0 0 0 0.0010767040472332012 0.015281584063733145 -0.014021982427998875 0 -0.014021982427998875 0.0095296028631310925 0 0 0 0.006202796731716087 0.0028925941505249242 -0.0053926413257136541 0 -0.0053926413257136541 0.0006053193625348563 0 0 0 0.000874478378264959 0.0079340855855642989 -0.0083074772765214522 0 -0.0083074772765214522 0.0068052168992761564 0 0 0 0.0036848256212100861 0.0014485533593014965 -0.002836559657703009 0 -0.002836559657703009 0.0046551838712831639 0 0 0 0.0015259343076462484 0.00062308196631741253 -0.0023497477475579176 0 -0.0023497477475579176 0.0033024508473682435 0 0 0 0.00098138320342130991 0.0019299065179224847 -0.0052144686758872627 0 -0.0052144686758872627 0.0055284507366870073 0 0 0 0.0018645893136522082 0.0026378970899059162 -0.0044563115311522794 0 -0.0044563115311522794 0.008440608158519991 0 0 0 0.0027696263121064213 -0.00036692625971324055 -0.0022878400530487175 0 -0.0022878400530487175 0.0048852968097525817 0 0 0 0.0011295926375096688 0.00069122208571396036 -0.0023345129481427973 0 -0.0023345129481427973 0.0087257103581564899 0 0 0 0.0023542331109677513 0.0010512484433391903 -0.0015202750108470608 0 -0.0015202750108470608 0.0055972907505912493 0 0 0 0.0016621347984826932 0.00014134788609070263 -0.00076888919681428192 0 -0.00076888919681428192 0.0032802761755286376 0 0 0 0.00085540601540483503 3.2134512937043169e-05 -0.00096426435557356305 0 -0.00096426435557356305 0.0049488686878895738 0 0 0 0.0012452508002066542 0.0056737302357127151 -0.0094482727454725524 0 -0.0094482727454725524 0.015890373609547259 0 0 0 0.0053910259613149103 0.0039181179376351905 -0.011540960971933356 0 -0.011540960971933356 0.0070046299157024428 0 0 0 0.0027306869633344499 0.0030382961065834047 -0.0066563630273370755 0 -0.0066563630273370755 0.0086004985377274856 0 0 0 0.0029096986610778752 0.0001524896256556163 -0.0027918400373873054 0 -0.0027918400373873054 0.011802473839088279 0 0 0 0.002988740866185835 0.0022200338629545934 -0.0040122809909031165 0 -0.0040122809909031165 0.014449977615190306 0 0 0 0.0041675028695360855 -0.00032278691928289138 -0.0053633656392907403 0 -0.0053633656392907403 0.013070249635982467 0 0 0 0.0031868656791746997 0.00095665305820898073 -0.0054310192214809261 0 -0.0054310192214809261 0.025264807038967371 0 0 0 0.0065553650242942824 0.0054502395900833944 -0.0094715008724617356 0 -0.0094715008724617356 0.044081987339767981 0 0 0 0.012383056732462983 -0.0004392731687716811 -0.0062314399568471068 0 -0.0062314399568471068 0.024142453271019715 0 0 0 0.0059257950255621195 0.011526371745733413 -0.018626284644834179 0 -0.018626284644834179 0.067747621812284761 0 0 0 0.019818498389504627 -0.0013695892239476981 -0.014212373877343809 0 -0.014212373877343809 0.027709679985009839 0 0 0 0.0065850226902655074 0.016612039959314068 -0.024662725471526536 0 -0.024662725471526536 0.010977065129284536 0 0 0 0.0068972762721496994 0.0077611348757322673 -0.015864157665197109 0 -0.015864157665197109 0.031363760972685562 0 0 0 0.0097812239621044572 0.0050923495833895549 -0.014907522583117561 0 -0.014907522583117561 0.021567017607644345 0 0 0 0.0066648417977585028 0.012356909633259167 -0.012980019796979603 0 -0.012980019796979603 -0.0074887393412514935 0 0 0 0.001217042573001953 0.010472019723163639 4.604663877806961e-05 0 4.604663877806961e-05 -0.026509479269997693 0 0 0 -0.0040093648867085552 0.036941907924364359 -0.027251493779382824 0 -0.027251493779382824 -0.013960754414291343 0 0 0 0.0057452883775182817 0.023539327512576258 -0.023709796627832791 0 -0.023709796627832791 0.013767524466451908 0 0 0 0.0093267129947569583 0.025664766245139137 -0.029223855917182906 0 -0.029223855917182906 0.032059075781487589 0 0 0 0.014430960506656709 -0.0030851385955874555 -0.027420640199773028 0 -0.027420640199773028 0.02269880176664163 0 0 0 0.0049034157927634325 0.02806438255612187 -0.037081708409984593 0 -0.037081708409984593 0.12711652372820748 0 0 0 0.038795226571082364 0.0029819803641979448 -0.053681498144987516 0 -0.053681498144987516 0.024314702167422597 0 0 0 0.0068241706329049689 0.05917952298372553 -0.075598705303086433 0 -0.075598705303086433 0.19904737240697523 0 0 0 0.06455672384767519 -0.0031352215561877284 -0.041714133806016074 0 -0.041714133806016074 -0.32691177773946656 0 0 0 -0.082511749823913849 -0.03305825535443363 -0.062399583827816185 0 -0.062399583827816185 -0.50887439830569603 0 0 0 -0.13548316341503264 8.0515066814015316e-08 -3.0019407440462933e-07 0 -3.0019407440462933e-07 -7.8844647366236353e-08 0 0 0 4.17604861944688e-10 -0.020402509849067978 -0.032131410426717411 0 -0.032131410426717411 -0.4043737745157206 0 0 0 -0.10619407109119693 2.2992954686005729e-07 -9.6479769214846132e-07 0 -9.6479769214846132e-07 -7.0523113235087313e-08 0 0 0 3.9851608406242546e-08 0.0011228464724306608 -0.022441480383771251 0 -0.022441480383771251 -0.33323728751809867 0 0 0 -0.083028610261417057 -0.026299032654566616 -0.030032329792424761 0 -0.030032329792424761 -0.29984273382890048 0 0 0 -0.081535441620866733 -0.021302151000442637 -0.025981808427979036 0 -0.025981808427979036 -0.25513667983604416 0 0 0 -0.069109707709121837 -0.040214287602960197 -0.040392802285568852 0 -0.040392802285568852 -0.33936454594595755 0 0 0 -0.094894708387229465 -0.021374801145191746 -0.0096810259390607833 0 -0.0096810259390607833 -0.27570725966546705 0 0 0 -0.074270515202664811 -0.017770449999360283 -0.014854176191739177 0 -0.014854176191739177 -0.29508276767566777 0 0 0 -0.078213304418756957 -0.01914724643246879 -0.01510683733576812 0 -0.01510683733576812 -0.28711177176742608 0 0 0 -0.076564754549973801 -0.016387100478761019 -0.015481255846243103 0 -0.015481255846243103 -0.30886537087929167 0 0 0 -0.081313117839513227 -0.0069758861324007125 -0.015752295673445715 0 -0.015752295673445715 -0.3057432943666768 0 0 0 -0.078179795124769441 -0.0064197595138220098 -0.011654074684212215 0 -0.011654074684212215 -0.32187494145069184 0 0 0 -0.082073675241128408 -0.01452248522416788 -0.023919224924086296 0 -0.023919224924086296 -0.33868810234093161 0 0 0 -0.088302646891274872 -0.011099993734904112 -0.021226013530272425 0 -0.021226013530272425 -0.32746710518503175 0 0 0 -0.08464177472998391 0.00015854737858744805 -0.0085134486931980335 0 -0.0085134486931980335 -0.32984609402043752 0 0 0 -0.082421886660462462 -0.010306504505989857 -0.015073787665111027 0 -0.015073787665111027 -0.36151348674542877 0 0 0 -0.092954997812854601 3.3481213234147045e-07 -1.4878574761151466e-06 0 -1.4878574761151466e-06 -3.3358470768854226e-08 0 0 0 7.5363415393153844e-08 0.00056198424624298582 -0.0070103141174897576 0 -0.0070103141174897576 -0.31747658615722507 0 0 0 -0.079228650477745743 4.5255203920504624e-07 -1.9279142594073919e-06 0 -1.9279142594073919e-06 4.3577458664666821e-09 0 0 0 1.1422744626787834e-07 -0.0016813502861822583 -0.0074579376859618129 0 -0.0074579376859618129 -0.33436485630200119 0 0 0 -0.084011551647046032 -0.0036850729305236154 -0.0048210188125805686 0 -0.0048210188125805686 -0.32090435594759231 0 0 0 -0.081147357219528982 5.6588783502578789e-07 -2.3260343488338352e-06 0 -2.3260343488338352e-06 4.1538853940866577e-08 0 0 0 1.518566722416633e-07 0.00017108228954376692 -0.0026064884457601689 0 -0.0026064884457601689 -0.31503410269379284 0 0 0 -0.078715755101062435 -0.0003481521792858544 -0.002321199185677747 0 -0.002321199185677747 -0.3130798182243435 0 0 0 -0.078356992600907116 6.8639461342421586e-07 -2.6959671355005139e-06 0 -2.6959671355005139e-06 7.973758154867672e-08 0 0 0 1.9153304874322293e-07 0.00022165384842609548 -0.0022329982534190496 0 -0.0022329982534190496 -0.30866551953574284 0 0 0 -0.077110966421829463 -0.0022891099767363698 -0.0052361787177325481 0 -0.0052361787177325481 -0.31095558098029485 0 0 0 -0.078311172739258028 -0.0020320229111726743 -0.0063273972896149555 0 -0.0063273972896149555 -0.30703084713552203 0 0 0 -0.077265717511673673 -0.0042864829046374009 -0.0083289301538340688 0 -0.0083289301538340688 -0.31374471942035953 0 0 0 -0.079507800581249066 8.1160635763133371e-05 -0.0010395356987324966 0 -0.0010395356987324966 -0.30400290455750589 0 0 0 -0.07598043598043569 0.00018012464955559574 -0.00098239879872963343 0 -0.00098239879872963343 -0.3057477323301333 0 0 0 -0.076391901920144487 9.3011717843677683e-07 -3.3954665917298696e-06 0 -3.3954665917298696e-06 1.5973613753468324e-07 0 0 0 2.7246332899286608e-07 7.2981413045791754e-05 -0.00092053962228932917 0 -0.00092053962228932917 -0.3072187530470698 0 0 0 -0.076786442908506336 -0.0011933652946016782 -0.0016204134306092577 0 -0.0016204134306092577 -0.30851235261227039 0 0 0 -0.07742642947671774 8.11383861089867e-07 -3.0498653013791578e-06 0 -3.0498653013791578e-06 1.2026940364475641e-07 0 0 0 2.3291331618365532e-07 -0.0011676742939790152 -0.0038985441678849042 0 -0.0038985441678849042 -0.30661800050219856 0 0 0 -0.076946418699044061 -0.0010274233789431264 -0.0025755986754263382 0 -0.0025755986754263382 -0.3049261024663128 0 0 0 -0.076488381461313981 -0.00058273435895792036 -0.0032342143166417259 0 -0.0032342143166417259 -0.30322623565085316 0 0 0 -0.075952242502452666 -0.0036414366667194553 -0.0051131424508330525 0 -0.0051131424508330525 -0.30456138765737073 0 0 0 -0.077050706081022602 -0.0019331395842907551 -0.0062542137714114432 0 -0.0062542137714114432 -0.29828690775296662 0 0 0 -0.075055011834314511 -0.0080863175148084832 -0.010348968902246125 0 -0.010348968902246125 -0.29760212087943616 0 0 0 -0.076422109598560994 -0.0068602654679330577 -0.0090968933324142576 0 -0.0090968933324142576 -0.3086103864744425 0 0 0 -0.078867662985594 -0.0069392383866319074 -0.0053578307818494819 0 -0.0053578307818494819 -0.29468523438217842 0 0 0 -0.075406118192202665 -0.0043905281831519982 -0.0036858256544549661 0 -0.0036858256544549661 -0.29455307821381993 0 0 0 -0.074735901599243038 -0.0082630058559676201 -0.0059263274817794587 0 -0.0059263274817794587 -0.30041087887750972 0 0 0 -0.077168471183369447 -0.0092792769844685374 -0.0011757353168132534 0 -0.0011757353168132534 -0.29727744705566123 0 0 0 -0.076639181010032559 -0.0068050138897937096 0.0014130074845443152 0 0.0014130074845443152 -0.28694306146719084 0 0 0 -0.073437018839246138 -0.0034625255613149608 0.010050837609785312 0 0.010050837609785312 -0.28174884806803546 0 0 0 -0.071302843407337585 -0.015401850736892098 -0.0018878172439599772 0 -0.0018878172439599772 -0.27422469970998931 0 0 0 -0.072406637611720392 -0.0022374515017690166 0.0025581855229799277 0 0.0025581855229799277 -0.27373890642119481 0 0 0 -0.068994089480740928 -0.013954151942740693 -0.0041620206224619594 0 -0.0041620206224619594 -0.28576882066015791 0 0 0 -0.074930743150724732 -0.016248059847490004 -0.0048153754032858043 0 -0.0048153754032858043 -0.29390628931766427 0 0 0 -0.077538587291288374 4.792095238914662e-05 -7.8604851430387777e-05 0 -7.8604851430387777e-05 -0.30013345013959913 0 0 0 -0.075021382296802219 -0.00024300045865999209 -9.4356673123741075e-05 0 -9.4356673123741075e-05 -0.3000959759188504 0 0 0 -0.075084744094377598 -4.9235630545263476e-05 3.8253997936887885e-05 0 3.8253997936887885e-05 -0.29999289403031915 0 0 0 -0.07501053241521638 0.00014026067049233149 3.1162548207829816e-05 0 3.1162548207829816e-05 -0.30005395437744831 0 0 0 -0.074978423426738772 4.442468647170017e-06 4.6635828413243985e-05 0 4.6635828413243985e-05 -0.29998762241077959 0 0 0 -0.074995794985533326 4.7634726472622901e-05 3.8394728117729926e-05 0 3.8394728117729926e-05 -0.29997205075160949 0 0 0 -0.074981104006283772 1.250406198552449e-05 3.1303276128102908e-05 0 3.1303276128102908e-05 -0.29996075648547826 0 0 0 -0.07498706310587297 1.915752725905357e-06 -6.1521244492398619e-06 0 -6.1521244492398619e-06 4.3643192838634057e-07 0 0 0 5.8804616357292459e-07 1.8233160976210643e-06 -6.1116392224163161e-06 0 -6.1116392224163161e-06 4.5741389896567883e-07 0 0 0 5.7018249914668684e-07 2.8927409236878532e-06 4.3430173158220953e-05 0 4.3430173158220953e-05 -0.29986813407574253 0 0 0 -0.074966310333704378 1.3093936139796369e-06 3.9933845364714671e-05 0 3.9933845364714671e-05 -0.29996990132713641 0 0 0 -0.074992147983380608 5.0625642686874528e-06 3.8883706372949689e-05 0 3.8883706372949689e-05 -0.29997233213483554 0 0 0 -0.074991817392640936 -1.0230744706074546e-05 3.8377946110390582e-05 0 3.8377946110390582e-05 -0.29999306206911491 0 0 0 -0.075000823203455802 -1.2978992742773698e-06 3.3282746770613159e-05 0 3.3282746770613159e-05 -0.29997340447850185 0 0 0 -0.074993675594444476 -8.2664931920828355e-05 3.9450871467394677e-06 0 3.9450871467394677e-06 -0.29998562202099954 0 0 0 -0.075017071738230634 -0.00015344411303264138 -0.00013558399236379692 0 -0.00013558399236379692 -0.30013563736575755 0 0 0 -0.075072270369697325 -7.4178836422911232e-05 -0.0001287383952583987 0 -0.0001287383952583987 -0.30016926836360458 0 0 0 -0.075060861800007039 -1.5395435952747505e-06 3.9740388579234676e-05 0 3.9740388579234676e-05 -0.30002517555684705 0 0 0 -0.075006678775110469 1.7111808228425741e-06 -5.717659186380114e-06 0 -5.717659186380114e-06 4.2049097703159795e-07 0 0 0 5.3291794996854258e-07 -3.8459681743319152e-05 2.1067932368890041e-05 0 2.1067932368890041e-05 -0.29974416775610102 0 0 0 -0.074945656859461529 -7.8746090603490728e-05 -3.3299199862391049e-05 0 -3.3299199862391049e-05 -0.29978357765936897 0 0 0 -0.074965580937493115 1.5990797914523128e-06 -5.4011007638897778e-06 0 -5.4011007638897778e-06 3.8324788560822466e-07 0 0 0 4.9558191926513499e-07 3.2020707698698914e-06 -0.00011893287807995812 0 -0.00011893287807995812 -0.30025356493910849 0 0 0 -0.075062590717084543 -0.00031390546624177063 -0.00047633516167322476 0 -0.00047633516167322476 -0.30062688315029629 0 0 0 -0.075235197154134514 -0.00017560493112234177 -0.00022533655652745566 0 -0.00022533655652745566 -0.30026891776552755 0 0 0 -0.07511113067416253 -0.00058918601906521317 -0.00037214411261388136 0 -0.00037214411261388136 -0.30007294460895784 0 0 0 -0.075165532657005985 -0.00092138729296231681 -0.00088159080223201847 0 -0.00088159080223201847 -0.30052713379671925 0 0 0 -0.075362130272420336 -0.00096617630556572465 -0.0010268032365170487 0 -0.0010268032365170487 -0.29978656409498994 0 0 0 -0.075188185100139027 -0.0018098533149415452 -0.0016917309528656221 0 -0.0016917309528656221 -0.30075952696629038 0 0 0 -0.07564234507030787 -0.00093981694906020152 -0.0012354737762310108 0 -0.0012354737762310108 -0.30130349678332058 0 0 0 -0.075560828433095084 -0.00063808707914336793 -0.0015475619284146536 0 -0.0015475619284146536 -0.30033312255566125 0 0 0 -0.075242802408701071 -0.00021715035885516709 -0.00067703619100956125 0 -0.00067703619100956125 -0.30018146350074804 0 0 0 -0.075099653464900551 -3.0394234642461271e-05 -0.00019053824853187962 0 -0.00019053824853187962 -0.30019491541241727 0 0 0 -0.075056327411765267 -0.0003907506387355042 -0.0005178310467619518 0 -0.0005178310467619518 -0.30062441126822659 0 0 0 -0.075253790476740523 4.0049003282138784e-05 -0.00010866683984578351 0 -0.00010866683984578351 -0.30034170903831203 0 0 0 -0.07507541500875714 1.4876622844607132e-06 -5.0674046144442171e-06 0 -5.0674046144442171e-06 3.462065187009294e-07 0 0 0 4.5846720079041172e-07 -8.8445082334333495e-05 -0.00011088691948257789 0 -0.00011088691948257789 -0.29982491921030108 0 0 0 -0.074978341073159191 5.2678622352697602e-05 -0.00021468414743908149 0 -0.00021468414743908149 -0.30098363748883816 0 0 0 -0.075232739716621921 1.3773422693628954e-06 -4.7367254701833438e-06 0 -4.7367254701833438e-06 3.0947991867894049e-07 0 0 0 4.2170554701045834e-07 -5.7674605456803363e-05 -0.00014903768201346423 0 -0.00014903768201346423 -0.30019740723867105 0 0 0 -0.07506377046103152 -0.00042882965940149731 -0.00067864344916301889 0 -0.00067864344916301889 -0.30097901064233312 0 0 0 -0.075351960075433322 -7.2574099986261187e-05 -0.00055375053531570018 0 -0.00055375053531570018 -0.30086808993800274 0 0 0 -0.075235166009497173 -0.0006850324874887459 -0.0013161076822769679 0 -0.0013161076822769679 -0.30201476068992328 0 0 0 -0.075674948294352395 -0.00023404582868845336 -0.0015266963793338917 0 -0.0015266963793338917 -0.3016168963408567 0 0 0 -0.075462735542386236 7.9332412540100705e-05 -0.00049801296093510139 0 -0.00049801296093510139 -0.30135779962770215 0 0 0 -0.075319616803790623 1.2683368294937811e-06 -4.4046567199241728e-06 0 -4.4046567199241728e-06 2.7285330758861473e-07 0 0 0 3.8529753427060002e-07 -0.00036520423688134093 -0.00038353263376222912 0 -0.00038353263376222912 -0.30074826475502386 0 0 0 -0.075278367247976194 1.0459383791218338e-06 -3.7355185669123941e-06 0 -3.7355185669123941e-06 1.9838343872547264e-07 0 0 0 3.1108045446182683e-07 -0.00056939032937751151 -0.0008531485016933793 0 -0.0008531485016933793 -0.30337693065660382 0 0 0 -0.075986580246495392 9.2798280051376025e-06 -0.00051641733735197093 0 -0.00051641733735197093 -0.30195170515981307 0 0 0 -0.075485606332952315 1.1578816837378895e-06 -4.0714074328494093e-06 0 -4.0714074328494093e-06 2.357921340261517e-07 0 0 0 3.4841845444100998e-07 6.5330386597395318e-05 -0.00051474597862943838 0 -0.00051474597862943838 -0.30309152499232805 0 0 0 -0.075756548651432443 -0.00056280042561684951 -0.0018365552160055643 0 -0.0018365552160055643 -0.30271131969147635 0 0 0 -0.075818530029273523 -0.0010345574696170035 -0.0036390891674782377 0 -0.0036390891674782377 -0.2993426290903658 0 0 0 -0.075094296639995561 -0.0024508678396351069 -0.0027168175621897772 0 -0.0027168175621897772 -0.30249559502274481 0 0 0 -0.076236615715594924 -0.0034095380526244501 -0.00081543006663031825 0 -0.00081543006663031825 -0.29924313399088165 0 0 0 -0.07566316801087658 -0.0047680291526861762 -0.003466567190019143 0 -0.003466567190019143 -0.30046251152454945 0 0 0 -0.076307635169309079 -0.0033274797550262303 -0.0015751875308530616 0 -0.0015751875308530616 -0.29978949429265711 0 0 0 -0.075779243511920891 -0.0021696269353977671 -0.0011343429670576111 0 -0.0011343429670576111 -0.3002069247925348 0 0 0 -0.075594137931982747 -0.0021148688255085979 -0.0010045926862654042 0 -0.0010045926862654042 -0.29876249360715623 0 0 0 -0.075219340608166263 -0.0013373431340270026 -0.00042637721338789625 0 -0.00042637721338789625 -0.29986274339956509 0 0 0 -0.075300021633398218 -0.0007084178053657908 -0.00048492579032960448 0 -0.00048492579032960448 -0.30026308915940714 0 0 0 -0.07524287674119301 -0.0012593755394005868 -0.00040825022970097935 0 -0.00040825022970097935 -0.29982795398078288 0 0 0 -0.075271832380045867 -0.0011225372569961811 -7.5468121128019483e-05 0 -7.5468121128019483e-05 -0.30001249300137345 0 0 0 -0.075283757564592491 -0.00046596808551035984 -9.5559975562098387e-05 0 -9.5559975562098387e-05 -0.29996808935696784 0 0 0 -0.075108514360619494 -0.00027375456165512624 -0.00011694110876056414 0 -0.00011694110876056414 -0.30003834809778684 0 0 0 -0.075078025664860215 -0.0010152505965211789 0.00094621914446613165 0 0.00094621914446613165 -0.30148904372504626 0 0 0 -0.075626073580391737 -0.00048373757789432759 0.00022060086528474798 0 0.00022060086528474798 -0.29947401086481396 0 0 0 -0.07498943711067696 -0.0017815055867508311 0.00057037744950039215 0 0.00057037744950039215 -0.30002124744748881 0 0 0 -0.075450688258559828 -0.0046768559960082001 0.00080484431244767785 0 0.00080484431244767785 -0.29841902788536956 0 0 0 -0.075773970970344551 -0.0015571127968143639 0.0018612225477214195 0 0.0018612225477214195 -0.29823610067454576 0 0 0 -0.074948303367839975 -0.0013061072584955036 0.00061865911229974646 0 0.00061865911229974646 -0.29849975900307391 0 0 0 -0.074951466565392255 -0.0023170124462010278 -4.6104723146367377e-05 0 -4.6104723146367377e-05 -0.29925338950724423 0 0 0 -0.075392600488361217 -0.0024995894059266499 0.0013289040536206276 0 0.0013289040536206276 -0.30020940705047039 0 0 0 -0.075677249114099232 0.00025738115324525079 0.00031814149269895127 0 0.00031814149269895127 -0.30024883112242762 0 0 0 -0.074997862492295453 -0.0029648663520883984 0.007031524397815625 0 0.007031524397815625 -0.31123278828718282 0 0 0 -0.078549413659817685 -0.0082321433561181601 0.0062157788676224235 0 0.0062157788676224235 -0.29193055289906655 0 0 0 -0.075040674063796275 -0.00021098930964014162 0.009030221756853779 0 0.009030221756853779 -0.29748662371175483 0 0 0 -0.074424403255348826 -0.0089979196798204431 0.0051638941076742467 0 0.0051638941076742467 -0.29548891138028122 0 0 0 -0.076121707765025359 -0.0028921869296696379 0.0039140920935945567 0 0.0039140920935945567 -0.29830380230881226 0 0 0 -0.075298997309620308 0.00026631252752884471 0.0063435886734565794 0 0.0063435886734565794 -0.29702226707391433 0 0 0 -0.074188988636596398 0.0058702421828472767 0.011385851563337962 0 0.011385851563337962 -0.28898622447126182 0 0 0 -0.070778995572103626 0.00092930641977835798 0.0095261759934584245 0 0.0095261759934584245 -0.32836765494284326 0 0 0 -0.081859587130766229 -0.094212555435822173 0.026361276435701023 0 0.026361276435701023 -0.28322416760642793 0 0 0 -0.09435918076056253 -0.030825891107992411 0.030543622704116841 0 0.030543622704116841 -0.37105705664218358 0 0 0 -0.10047073693754399 -0.065376698839438557 0.0050399329750459559 0 0.0050399329750459559 -0.19607893553143652 0 0 0 -0.065363908592718775 -0.028589078684677277 0.0046408117731078953 0 0.0046408117731078953 -0.21896042175417424 0 0 0 -0.061887375109712872 -0.031690767726186078 -0.0039916716748591707 0 -0.0039916716748591707 -0.24352600466512531 0 0 0 -0.068804193097827829 -0.039160681113546723 -0.018150400546591547 0 -0.018150400546591547 -0.13847039317021956 0 0 0 -0.044407768570941572 -0.021534312929796805 -0.0075796464422090426 0 -0.0075796464422090426 -0.21778758005665433 0 0 0 -0.059830473246612795 -0.0072651921916566248 -0.020059401104520931 0 -0.020059401104520931 -0.14773767369425472 0 0 0 -0.038750716471477861 -0.018933118909310626 -0.013509502057189926 0 -0.013509502057189926 -0.20828937482392795 0 0 0 -0.05680562343330961 0.013087034750518145 -0.018423654096537526 0 -0.018423654096537526 -0.22820190354170433 0 0 0 -0.053778717197796533 -0.0069852799520871978 -0.039651705295054074 0 -0.039651705295054074 -0.15008994962162481 0 0 0 -0.039268807393427974 0.010127351558074593 -0.060107771740375238 0 -0.060107771740375238 -0.22921959492786603 0 0 0 -0.054773060842447818 0.032651676187360423 -0.069876252113295623 0 -0.069876252113295623 -0.13441849858760557 0 0 0 -0.025441705600061371 0.020684687686291836 -0.087350700585051011 0 -0.087350700585051011 -0.30865284065852538 0 0 0 -0.07199203824305811 0.019200726727046258 -0.027214929897815713 0 -0.027214929897815713 -0.21756739749583864 0 0 0 -0.049591667692198083 -0.0037485721553277562 -0.006146279450386094 0 -0.006146279450386094 -0.27710595594637288 0 0 0 -0.070213632025425132 -0.0018752598508365581 -0.0060063222600272859 0 -0.0060063222600272859 -0.26043915487593217 0 0 0 -0.065578603681692188 0.0025450442994552347 0.01155506616879276 0 0.01155506616879276 -0.29371834024108079 0 0 0 -0.072793323985406333 0.0061522636409438447 -0.0052645692862762772 0 -0.0052645692862762772 -0.26553974870391017 0 0 0 -0.064846871265741735 0.0012340398144789957 0.01043219713167659 0 0.01043219713167659 -0.26772115225852888 0 0 0 -0.066621778111012456 -0.0058372096798855987 0.0088764435305134642 0 0.0088764435305134642 -0.29268302399685753 0 0 0 -0.074630058419185796 0.0034501501644714772 0.0076853540878276949 0 0.0076853540878276949 -0.2598480927113081 0 0 0 -0.064099485636709197 
</DataArray>
</CellData>
</Piece>
</UnstructuredGrid>
</VTKFile>
