<?xml version="1.0"?>
<VTKFile type="UnstructuredGrid" version="0.1" byte_order="LittleEndian">
<UnstructuredGrid>
<Piece NumberOfPoints="84" NumberOfCells="28">
<Points>
<DataArray type="Float64" NumberOfComponents="3" format="ascii">
0 0 0 0.29166666666652658 0.2916666666668038 0 0 0.33333333333472032 0 0 0 0 0.33333333333250248 0 0 0.29166666666652658 0.2916666666668038 0 0.49999999999981742 0.1726190476194705 0 0.33333333333250248 0 0 0.66666666666578889 0 0 0.49999999999981742 0.1726190476194705 0 0.33333333333250248 0 0 0.29166666666652658 0.2916666666668038 0 0.29166666666652658 0.2916666666668038 0 0.17261904761971569 0.50000000000021494 0 0.50000000000004996 0.49999999999997519 0 0.49999999999981742 0.1726190476194705 0 0.29166666666652658 0.2916666666668038 0 0.50000000000004996 0.49999999999997519 0 0.29166666666652658 0.2916666666668038 0 0 0.33333333333472032 0 0.17261904761971569 0.50000000000021494 0 0 0.33333333333472032 0 0.17261904761971569 0.50000000000021494 0 0 0.66666666666759111 0 0.17261904761971569 0.50000000000021494 0 0 0.66666666666759111 0 0.29166666666684449 0.7083333333334445 0 0 1 0 0.33333333333472032 1 0 0.29166666666684449 0.7083333333334445 0 0 0.66666666666759111 0 0 1 0 0.29166666666684449 0.7083333333334445 0 0.33333333333472032 1 0 0.29166666666684449 0.7083333333334445 0 0.50000000000021227 0.82738095238030207 0 0.17261904761971569 0.50000000000021494 0 0.29166666666684449 0.7083333333334445 0 0.50000000000004996 0.49999999999997519 0 0.29166666666684449 0.7083333333334445 0 0.50000000000021227 0.82738095238030207 0 0.50000000000004996 0.49999999999997519 0 0.70833333333346027 0.70833333333323512 0 0.82738095238054699 0.49999999999982031 0 0.50000000000004996 0.49999999999997519 0 0.70833333333346027 0.70833333333323512 0 0.50000000000021227 0.82738095238030207 0 0.50000000000004996 0.49999999999997519 0 0.70833333333346027 0.70833333333323512 0 0.66666666666759111 1 0 0.50000000000021227 0.82738095238030207 0 0.33333333333472032 1 0 0.66666666666759111 1 0 0.50000000000021227 0.82738095238030207 0 0.70833333333346027 0.70833333333323512 0 1 1 0 1 0.66666666666578889 0 0.70833333333346027 0.70833333333323512 0 0.66666666666759111 1 0 1 1 0 0.70833333333346027 0.70833333333323512 0 1 0.66666666666578889 0 0.82738095238054699 0.49999999999982031 0 1 0.66666666666578889 0 1 0.33333333333250248 0 0.82738095238054699 0.49999999999982031 0 1 0.33333333333250248 0 0.82738095238054699 0.49999999999982031 0 0.70833333333327586 0.2916666666665107 0 1 0 0 0.66666666666578889 0 0 0.70833333333327586 0.2916666666665107 0 1 0.33333333333250248 0 1 0 0 0.70833333333327586 0.2916666666665107 0 0.49999999999981742 0.1726190476194705 0 0.66666666666578889 0 0 0.70833333333327586 0.2916666666665107 0 0.82738095238054699 0.49999999999982031 0 0.50000000000004996 0.49999999999997519 0 0.70833333333327586 0.2916666666665107 0 0.49999999999981742 0.1726190476194705 0 0.50000000000004996 0.49999999999997519 0 0.70833333333327586 0.2916666666665107 0 
</DataArray>
</Points>
<Cells>
<DataArray type="UInt32" Name="connectivity" format="ascii">
0 1 2 3 4 5 6 7 8 9 10 11 12 13 14 15 16 17 18 19 20 21 22 23 24 25 26 27 28 29 30 31 32 33 34 35 36 37 38 39 40 41 42 43 44 45 46 47 48 49 50 51 52 53 54 55 56 57 58 59 60 61 62 63 64 65 66 67 68 69 70 71 72 73 74 75 76 77 78 79 80 81 82 83 
</DataArray>
<DataArray type="UInt32" Name="offsets" format="ascii">
3 6 9 12 15 18 21 24 27 30 33 36 39 42 45 48 51 54 57 60 63 66 69 72 75 78 81 84 
</DataArray>
<DataArray type="UInt32" Name="types" format="ascii">
5 5 5 5 5 5 5 5 5 5 5 5 5 5 5 5 5 5 5 5 5 5 5 5 5 5 5 5 
</DataArray>
</Cells>
<PointData Scalars="" Vectors="displacement," Tensors="">
<DataArray type="Float64" Name="displacement" NumberOfComponents="3" format="ascii">
-2.0321629457022576e-06 1.9865124330831834e-06 0 -0.011987682422455372 -0.016257516499849446 0 -1.9467247368270035e-05 -1.4248944868196174e-05 0 -2.0321629457022576e-06 1.9865124330831834e-06 0 -9.9551662191253155e-06 -2.5792908605937108e-05 0 -0.011987682422455374 -0.01625751649984945 0 -0.010321572264204014 -0.015951725939694707 0 -9.9551662191233623e-06 -2.5792908605934458e-05 0 -1.1939702719438127e-05 -4.234749077423216e-05 0 -0.010321572264204014 -0.015951725939694707 0 -9.9551662191234165e-06 -2.5792908605934469e-05 0 -0.011987682422455374 -0.01625751649984945 0 -0.011987682422455374 -0.01625751649984945 0 -0.0097316048991115955 -0.01604162786307672 0 -0.020150397681772188 -0.044732423120315369 0 -0.010321572264204014 -0.015951725939694707 0 -0.011987682422455374 -0.01625751649984945 0 -0.020150397681772188 -0.044732423120315369 0 -0.011987682422455374 -0.01625751649984945 0 -1.9467247368270926e-05 -1.4248944868197936e-05 0 -0.0097316048991115955 -0.01604162786307672 0 -1.9467247368270035e-05 -1.4248944868196174e-05 0 -0.0097316048991115955 -0.01604162786307672 0 -2.5936258721374952e-05 -1.2163020557156504e-05 0 -0.0097316048991115955 -0.01604162786307672 0 -2.5936258721374952e-05 -1.2163020557156504e-05 0 -0.015587020065043811 -0.03665007574907303 0 2.9595671024282403e-06 -1.2591017477945383e-05 0 -0.0099804118053974794 -0.056639910860245578 0 -0.015587020065043811 -0.03665007574907303 0 -2.5936258721374952e-05 -1.2163020557156504e-05 0 2.9595671024282403e-06 -1.2591017477945383e-05 0 -0.015587020065043811 -0.03665007574907303 0 -0.0099804118053974794 -0.056639910860245571 0 -0.015587020065043811 -0.03665007574907303 0 -0.020132102233910498 -0.071567629315457487 0 -0.0097316048991115955 -0.01604162786307672 0 -0.015587020065043811 -0.03665007574907303 0 -0.020150397681772188 -0.044732423120315369 0 -0.015587020065043811 -0.03665007574907303 0 -0.020132102233910498 -0.071567629315457487 0 -0.020150397681772188 -0.044732423120315369 0 -0.024477013950627055 -0.087063729268568854 0 -0.019544741546749279 -0.071685491165998205 0 -0.020150397681772188 -0.044732423120315369 0 -0.024477013950627055 -0.087063729268568854 0 -0.020132102233910498 -0.071567629315457487 0 -0.020150397681772188 -0.044732423120315369 0 -0.024477013950627055 -0.087063729268568854 0 -0.019986723234265442 -0.11329863857987993 0 -0.020132102233910498 -0.071567629315457487 0 -0.0099804118053974794 -0.056639910860245571 0 -0.019986723234265442 -0.11329863857987993 0 -0.020132102233910498 -0.071567629315457487 0 -0.024477013950627055 -0.087063729268568854 0 -0.029976508593329013 -0.16995433431872242 0 -0.019997326103012521 -0.11333037596748301 0 -0.024477013950627055 -0.087063729268568854 0 -0.019986723234265442 -0.11329863857987993 0 -0.029976508593329017 -0.16995433431872242 0 -0.024477013950627055 -0.087063729268568854 0 -0.019997326103012521 -0.11333037596748301 0 -0.019544741546749279 -0.071685491165998205 0 -0.019997326103012521 -0.11333037596748301 0 -0.0099951794791527833 -0.056641276168306803 0 -0.019544741546749279 -0.071685491165998205 0 -0.0099951794791527868 -0.056641276168306803 0 -0.019544741546749279 -0.071685491165998205 0 -0.01558338154495959 -0.036670166361886081 0 2.520186010648133e-06 -3.0307235614262689e-05 0 -1.1939702719438127e-05 -4.234749077423216e-05 0 -0.01558338154495959 -0.036670166361886081 0 -0.0099951794791527868 -0.056641276168306803 0 2.520186010648133e-06 -3.0307235614262689e-05 0 -0.01558338154495959 -0.036670166361886081 0 -0.010321572264204014 -0.015951725939694707 0 -1.1939702719438127e-05 -4.234749077423216e-05 0 -0.01558338154495959 -0.036670166361886081 0 -0.019544741546749279 -0.071685491165998205 0 -0.020150397681772188 -0.044732423120315369 0 -0.01558338154495959 -0.036670166361886081 0 -0.010321572264204014 -0.015951725939694707 0 -0.020150397681772188 -0.044732423120315369 0 -0.01558338154495959 -0.036670166361886081 0 
</DataArray>
</PointData>
<CellData Scalars="displacement_divergence," Vectors="" Tensors="effective_stress,">
<DataArray type="Float64" Name="effective_stress" NumberOfComponents="9" format="ascii">
-3.6492026108740179 -1.8583488784024516 0 -1.8583488784024516 -0.91635951704380703 0 0 0 -0.91311242558356487 -1.2390801165960197 -1.3717742428627413 0 -1.3717742428627413 -4.948397463110636 0 0 0 -1.2374955159413312 -2.0496986843037019 -1.9926726667124528 0 -1.9926726667124528 -8.1968102007144896 0 0 0 -2.0493017770036386 -2.8388275703684078 -2.5500743723936035 0 -2.5500743723936035 -5.7405494861142401 0 0 0 -1.7158754112965295 -3.9186870684993362 -3.1664565116333003 0 -3.1664565116333003 -5.0665228952665524 0 0 0 -1.7970419927531778 -2.7676823271019853 -2.6263399343082963 0 -2.6263399343082963 -8.0179162277587963 0 0 0 -2.1571197109721565 -4.5669138056463634 -2.4740254180442425 0 -2.4740254180442425 -3.9353889660448886 0 0 0 -1.7004605543382501 -4.9993880756448839 -3.0957904366419062 0 -3.0957904366419062 -1.2493255378334611 0 0 0 -1.249742722695669 -5.4320730076046129 -3.960040808183003 0 -3.960040808183003 -3.8207355127590992 0 0 0 -1.8505617040727425 -3.6459596140388459 -4.8793571635397788 0 -4.8793571635397788 -4.6004670836970138 0 0 0 -1.6492853395471725 -4.7435548674643151 -4.1842943292894335 0 -4.1842943292894335 -1.1859957160962753 0 0 0 -1.1859101167121178 -4.2538337654275988 -3.8510810960465083 0 -3.8510810960465083 -5.1098704762048346 0 0 0 -1.8727408483264867 -3.9142394534049307 -3.251926727212195 0 -3.251926727212195 -5.0487324348883149 0 0 0 -1.7925943776586488 -3.7636148941785232 -4.0236246736744405 0 -4.0236246736744405 -7.7716834823161403 0 0 0 -2.3070596752989334 -2.5213529166552826 -3.4982377923307402 0 -3.4982377923307402 -10.702079731369015 0 0 0 -2.6446865296048605 -3.6725317016822552 -4.0388342709742595 0 -4.0388342709742595 -7.7489126841920584 0 0 0 -2.2842888771748622 -3.6007679164008151 -4.1147068119750703 0 -4.1147068119750703 -10.026365539661324 0 0 0 -2.7254266912124292 -4.3936190078077733 -4.6716729651129336 0 -4.6716729651129336 -7.5681646023492419 0 0 0 -2.392356722031403 -2.7898516885317148 -4.8087344196515804 0 -4.8087344196515804 -14.853452509905512 0 0 0 -3.5286608396874444 -5.2023710503130456 -5.2951047114430452 0 -5.2951047114430452 -10.819698842160907 0 0 0 -3.2044139784947907 -1.8721515369421926 -4.1922413938557455 0 -4.1922413938557455 -11.835741004264413 0 0 0 -2.7415785082413215 -1.4370630181929751 -3.5685551951822863 0 -3.5685551951822863 -14.531540704344284 0 0 0 -3.193720744507452 -1.0028144592892452 -2.7013413368960486 0 -2.7013413368960486 -11.951403341686566 0 0 0 -2.5908435601951623 -2.7869496603787653 -1.7785958977228373 0 -1.7785958977228373 -11.162258530245108 0 0 0 -2.7898416381247744 -1.6901287406090972 -2.4734543882249609 0 -2.4734543882249609 -14.575274418360685 0 0 0 -3.2530806317939565 -2.1867706054803566 -2.8117866765577362 0 -2.8117866765577362 -10.652866673884814 0 0 0 -2.5679274558730341 -2.5250708255228682 -3.413368158253685 0 -3.413368158253685 -10.716951366839764 0 0 0 -2.6484044384725269 -2.6736803096943467 -2.641190310473613 0 -2.641190310473613 -7.9944157234068554 0 0 0 -2.1336192066202404 
</DataArray>
<DataArray type="Float64" Name="displacement_divergence" format="ascii">
-0.041090059151260419 -0.055687298217359911 -0.092218579965163736 -0.077214393508343804 -0.080866889673892994 -0.09707038699374701 -0.076520724945221261 -0.056238422521305106 -0.083275276683273419 -0.074217840279622749 -0.053365955252045308 -0.084273338174691931 -0.080666746994639216 -0.10381768538845199 -0.11901089383221868 -0.1027929994728688 -0.12264420110455929 -0.10765605249141313 -0.15878973778593497 -0.14419862903226566 -0.12337103287085949 -0.14371743350283533 -0.11658796020878232 -0.12554287371561484 -0.14638862843072806 -0.11555673551428654 -0.1191781997312637 -0.09601286429791081 
</DataArray>
</CellData>
</Piece>
</UnstructuredGrid>
</VTKFile>
