<?xml version="1.0"?>
<VTKFile type="UnstructuredGrid" version="0.1" byte_order="LittleEndian">
<UnstructuredGrid>
<Piece NumberOfPoints="84" NumberOfCells="28">
<Points>
<DataArray type="Float64" NumberOfComponents="3" format="ascii">
0 0 0 0.29166666666652658 0.2916666666668038 0 0 0.33333333333472032 0 0 0 0 0.33333333333250248 0 0 0.29166666666652658 0.2916666666668038 0 0.33333333333250248 0 0 0.66666666666578889 0 0 0.49999999999981742 0.1726190476194705 0 0.33333333333250248 0 0 0.49999999999981742 0.1726190476194705 0 0.29166666666652658 0.2916666666668038 0 0.50000000000004996 0.49999999999997519 0 0.17261904761971569 0.50000000000021494 0 0.29166666666652658 0.2916666666668038 0 0.50000000000004996 0.49999999999997519 0 0.29166666666652658 0.2916666666668038 0 0.49999999999981742 0.1726190476194705 0 0 0.33333333333472032 0 0.29166666666652658 0.2916666666668038 0 0.17261904761971569 0.50000000000021494 0 0 0.66666666666759111 0 0 0.33333333333472032 0 0.17261904761971569 0.50000000000021494 0 0 0.66666666666759111 0 0.17261904761971569 0.50000000000021494 0 0.29166666666684449 0.7083333333334445 0 0 1 0 0.29166666666684449 0.7083333333334445 0 0.33333333333472032 1 0 0 1 0 0 0.66666666666759111 0 0.29166666666684449 0.7083333333334445 0 0.33333333333472032 1 0 0.29166666666684449 0.7083333333334445 0 0.50000000000021227 0.82738095238030207 0 0.50000000000004996 0.49999999999997519 0 0.29166666666684449 0.7083333333334445 0 0.17261904761971569 0.50000000000021494 0 0.50000000000004996 0.49999999999997519 0 0.50000000000021227 0.82738095238030207 0 0.29166666666684449 0.7083333333334445 0 0.50000000000004996 0.49999999999997519 0 0.82738095238054699 0.49999999999982031 0 0.70833333333346027 0.70833333333323512 0 0.50000000000004996 0.49999999999997519 0 0.70833333333346027 0.70833333333323512 0 0.50000000000021227 0.82738095238030207 0 0.66666666666759111 1 0 0.50000000000021227 0.82738095238030207 0 0.70833333333346027 0.70833333333323512 0 0.66666666666759111 1 0 0.33333333333472032 1 0 0.50000000000021227 0.82738095238030207 0 1 1 0 0.70833333333346027 0.70833333333323512 0 1 0.66666666666578889 0 1 1 0 0.66666666666759111 1 0 0.70833333333346027 0.70833333333323512 0 1 0.66666666666578889 0 0.70833333333346027 0.70833333333323512 0 0.82738095238054699 0.49999999999982031 0 1 0.33333333333250248 0 1 0.66666666666578889 0 0.82738095238054699 0.49999999999982031 0 1 0.33333333333250248 0 0.82738095238054699 0.49999999999982031 0 0.70833333333327586 0.2916666666665107 0 1 0 0 0.70833333333327586 0.2916666666665107 0 0.66666666666578889 0 0 1 0 0 1 0.33333333333250248 0 0.70833333333327586 0.2916666666665107 0 0.66666666666578889 0 0 0.70833333333327586 0.2916666666665107 0 0.49999999999981742 0.1726190476194705 0 0.50000000000004996 0.49999999999997519 0 0.70833333333327586 0.2916666666665107 0 0.82738095238054699 0.49999999999982031 0 0.50000000000004996 0.49999999999997519 0 0.49999999999981742 0.1726190476194705 0 0.70833333333327586 0.2916666666665107 0 
</DataArray>
</Points>
<Cells>
<DataArray type="UInt32" Name="connectivity" format="ascii">
0 1 2 3 4 5 6 7 8 9 10 11 12 13 14 15 16 17 18 19 20 21 22 23 24 25 26 27 28 29 30 31 32 33 34 35 36 37 38 39 40 41 42 43 44 45 46 47 48 49 50 51 52 53 54 55 56 57 58 59 60 61 62 63 64 65 66 67 68 69 70 71 72 73 74 75 76 77 78 79 80 81 82 83 
</DataArray>
<DataArray type="UInt32" Name="offsets" format="ascii">
3 6 9 12 15 18 21 24 27 30 33 36 39 42 45 48 51 54 57 60 63 66 69 72 75 78 81 84 
</DataArray>
<DataArray type="UInt32" Name="types" format="ascii">
5 5 5 5 5 5 5 5 5 5 5 5 5 5 5 5 5 5 5 5 5 5 5 5 5 5 5 5 
</DataArray>
</Cells>
<PointData Scalars="" Vectors="displacement," Tensors="">
<DataArray type="Float64" Name="displacement" NumberOfComponents="3" format="ascii">
-2.0321629457024092e-06 1.9865124330834807e-06 0 -0.011987682422455377 -0.016257516499849439 0 -1.946724736826953e-05 -1.4248944868196591e-05 0 -2.0321629457024092e-06 1.9865124330834807e-06 0 -9.9551662191251918e-06 -2.5792908605937863e-05 0 -0.011987682422455379 -0.016257516499849443 0 -9.9551662191232386e-06 -2.5792908605935214e-05 0 -1.1939702719438083e-05 -4.2347490774230662e-05 0 -0.010321572264204023 -0.015951725939694718 0 -9.9551662191232386e-06 -2.5792908605935214e-05 0 -0.010321572264204023 -0.015951725939694718 0 -0.011987682422455379 -0.016257516499849443 0 -0.020150397681772157 -0.044732423120315334 0 -0.009731604899111599 -0.016041627863076693 0 -0.011987682422455379 -0.016257516499849443 0 -0.020150397681772157 -0.044732423120315334 0 -0.011987682422455377 -0.016257516499849436 0 -0.010321572264204023 -0.015951725939694718 0 -1.946724736826953e-05 -1.4248944868196591e-05 0 -0.011987682422455379 -0.016257516499849443 0 -0.009731604899111599 -0.016041627863076693 0 -2.5936258721375792e-05 -1.2163020557155493e-05 0 -1.946724736826953e-05 -1.4248944868196591e-05 0 -0.009731604899111599 -0.016041627863076693 0 -2.5936258721375792e-05 -1.2163020557155493e-05 0 -0.009731604899111599 -0.016041627863076693 0 -0.015587020065043783 -0.036650075749073002 0 2.9595671024300156e-06 -1.2591017477949162e-05 0 -0.015587020065043783 -0.036650075749073002 0 -0.0099804118053974863 -0.056639910860245557 0 2.9595671024300156e-06 -1.2591017477949162e-05 0 -2.5936258721375792e-05 -1.2163020557155493e-05 0 -0.015587020065043783 -0.036650075749073002 0 -0.0099804118053974863 -0.056639910860245557 0 -0.015587020065043783 -0.036650075749073002 0 -0.020132102233910463 -0.071567629315457473 0 -0.020150397681772157 -0.044732423120315334 0 -0.015587020065043783 -0.036650075749073002 0 -0.009731604899111599 -0.016041627863076693 0 -0.020150397681772157 -0.044732423120315334 0 -0.020132102233910459 -0.071567629315457473 0 -0.015587020065043783 -0.036650075749073002 0 -0.020150397681772157 -0.044732423120315334 0 -0.019544741546749317 -0.071685491165998233 0 -0.024477013950627027 -0.087063729268568854 0 -0.020150397681772157 -0.044732423120315334 0 -0.024477013950627027 -0.087063729268568854 0 -0.020132102233910463 -0.071567629315457473 0 -0.019986723234265442 -0.11329863857987994 0 -0.020132102233910463 -0.071567629315457473 0 -0.024477013950627027 -0.087063729268568854 0 -0.019986723234265442 -0.11329863857987994 0 -0.0099804118053974863 -0.056639910860245557 0 -0.020132102233910463 -0.071567629315457473 0 -0.02997650859332902 -0.16995433431872248 0 -0.024477013950627027 -0.087063729268568854 0 -0.019997326103012518 -0.11333037596748302 0 -0.02997650859332902 -0.16995433431872248 0 -0.019986723234265442 -0.11329863857987994 0 -0.024477013950627027 -0.087063729268568854 0 -0.019997326103012518 -0.11333037596748302 0 -0.024477013950627027 -0.087063729268568854 0 -0.019544741546749317 -0.071685491165998233 0 -0.0099951794791527868 -0.056641276168306776 0 -0.019997326103012518 -0.11333037596748304 0 -0.019544741546749317 -0.071685491165998233 0 -0.0099951794791527868 -0.056641276168306776 0 -0.019544741546749317 -0.071685491165998233 0 -0.015583381544959604 -0.036670166361886108 0 2.520186010647662e-06 -3.030723561426916e-05 0 -0.015583381544959604 -0.036670166361886108 0 -1.1939702719438083e-05 -4.2347490774230662e-05 0 2.520186010647662e-06 -3.030723561426916e-05 0 -0.0099951794791527868 -0.056641276168306776 0 -0.015583381544959604 -0.036670166361886108 0 -1.1939702719438083e-05 -4.2347490774230662e-05 0 -0.015583381544959604 -0.036670166361886108 0 -0.010321572264204023 -0.015951725939694718 0 -0.020150397681772157 -0.044732423120315334 0 -0.015583381544959604 -0.036670166361886108 0 -0.019544741546749317 -0.071685491165998233 0 -0.020150397681772157 -0.044732423120315334 0 -0.010321572264204023 -0.015951725939694718 0 -0.015583381544959604 -0.036670166361886108 0 
</DataArray>
</PointData>
<CellData Scalars="displacement_divergence," Vectors="" Tensors="stress,">
<DataArray type="Float64" Name="stress" NumberOfComponents="9" format="ascii">
-3.6492026108740192 -1.8583488784024504 0 -1.8583488784024504 -0.91635951704380758 0 0 0 -0.9131124255835652 -1.239080116596019 -1.371774242862742 0 -1.371774242862742 -4.9483974631106333 0 0 0 -1.2374955159413306 -2.0496986843037015 -1.9926726667124528 0 -1.9926726667124528 -8.1968102007144914 0 0 0 -2.0493017770036386 -2.8388275703684105 -2.5500743723936079 0 -2.5500743723936079 -5.7405494861142419 0 0 0 -1.7158754112965304 -3.9186870684993225 -3.1664565116332959 0 -3.1664565116332959 -5.0665228952665373 0 0 0 -1.7970419927531718 -2.7676823271019781 -2.6263399343082936 0 -2.6263399343082936 -8.0179162277587857 0 0 0 -2.1571197109721525 -4.5669138056463634 -2.4740254180442425 0 -2.4740254180442425 -3.9353889660448811 0 0 0 -1.7004605543382487 -4.9993880756448865 -3.0957904366419013 0 -3.0957904366419013 -1.2493255378334602 0 0 0 -1.2497427226956692 -5.4320730076046075 -3.9600408081829972 0 -3.9600408081829972 -3.8207355127591072 0 0 0 -1.8505617040727429 -3.6459596140388464 -4.879357163539777 0 -4.879357163539777 -4.6004670836970085 0 0 0 -1.6492853395471707 -4.7435548674643071 -4.1842943292894299 0 -4.1842943292894299 -1.1859957160962737 0 0 0 -1.185910116712116 -4.2538337654275908 -3.8510810960465154 0 -3.8510810960465154 -5.1098704762048355 0 0 0 -1.872740848326486 -3.9142394534049236 -3.2519267272121928 0 -3.2519267272121928 -5.0487324348883122 0 0 0 -1.7925943776586475 -3.7636148941785201 -4.0236246736744405 0 -4.0236246736744405 -7.7716834823161438 0 0 0 -2.307059675298933 -2.5213529166553013 -3.4982377923307397 0 -3.4982377923307397 -10.702079731369018 0 0 0 -2.6446865296048641 -3.6725317016822592 -4.0388342709742622 0 -4.0388342709742622 -7.7489126841920637 0 0 0 -2.284288877174864 -3.6007679164008222 -4.1147068119750756 0 -4.1147068119750756 -10.026365539661338 0 0 0 -2.725426691212431 -4.3936190078077697 -4.6716729651129407 0 -4.6716729651129407 -7.5681646023492419 0 0 0 -2.3923567220314013 -2.7898516885317211 -4.8087344196515867 0 -4.8087344196515867 -14.853452509905516 0 0 0 -3.5286608396874488 -5.20237105031305 -5.2951047114430514 0 -5.2951047114430514 -10.819698842160914 0 0 0 -3.2044139784947943 -1.8721515369421908 -4.1922413938557357 0 -4.1922413938557357 -11.835741004264406 0 0 0 -2.7415785082413198 -1.4370630181929613 -3.5685551951822845 0 -3.5685551951822845 -14.531540704344298 0 0 0 -3.193720744507452 -1.0028144592892416 -2.7013413368960468 0 -2.7013413368960468 -11.951403341686577 0 0 0 -2.590843560195164 -2.7869496603787685 -1.7785958977228409 0 -1.7785958977228409 -11.162258530245117 0 0 0 -2.789841638124777 -1.6901287406090897 -2.4734543882249538 0 -2.4734543882249538 -14.575274418360674 0 0 0 -3.2530806317939529 -2.1867706054803557 -2.8117866765577375 0 -2.8117866765577375 -10.652866673884814 0 0 0 -2.5679274558730341 -2.5250708255228815 -3.4133681582536903 0 -3.4133681582536903 -10.716951366839751 0 0 0 -2.6484044384725269 -2.6736803096943542 -2.6411903104736152 0 -2.6411903104736152 -7.9944157234068483 0 0 0 -2.1336192066202408 
</DataArray>
<DataArray type="Float64" Name="displacement_divergence" format="ascii">
-0.041090059151260433 -0.055687298217359883 -0.092218579965163736 -0.077214393508343859 -0.080866889673892731 -0.097070386993746843 -0.076520724945221177 -0.056238422521305113 -0.083275276683273433 -0.074217840279622679 -0.053365955252045225 -0.08427333817469182 -0.080666746994639132 -0.10381768538845197 -0.11901089383221886 -0.10279299947286891 -0.12264420110455942 -0.10765605249141313 -0.15878973778593519 -0.14419862903226571 -0.12337103287085932 -0.14371743350283531 -0.11658796020878232 -0.12554287371561496 -0.14638862843072789 -0.11555673551428655 -0.11917819973126376 -0.096012864297910838 
</DataArray>
</CellData>
</Piece>
</UnstructuredGrid>
</VTKFile>
