<?xml version="1.0"?>
<VTKFile type="UnstructuredGrid" version="0.1" byte_order="LittleEndian">
<UnstructuredGrid>
<Piece NumberOfPoints="84" NumberOfCells="28">
<Points>
<DataArray type="Float64" NumberOfComponents="3" format="ascii">
0 0 0 0.29166666666652658 0.2916666666668038 0 0 0.33333333333472032 0 0 0 0 0.33333333333250248 0 0 0.29166666666652658 0.2916666666668038 0 0.49999999999981742 0.1726190476194705 0 0.33333333333250248 0 0 0.66666666666578889 0 0 0.49999999999981742 0.1726190476194705 0 0.33333333333250248 0 0 0.29166666666652658 0.2916666666668038 0 0.29166666666652658 0.2916666666668038 0 0.17261904761971569 0.50000000000021494 0 0.50000000000004996 0.49999999999997519 0 0.49999999999981742 0.1726190476194705 0 0.29166666666652658 0.2916666666668038 0 0.50000000000004996 0.49999999999997519 0 0.29166666666652658 0.2916666666668038 0 0 0.33333333333472032 0 0.17261904761971569 0.50000000000021494 0 0 0.33333333333472032 0 0.17261904761971569 0.50000000000021494 0 0 0.66666666666759111 0 0.17261904761971569 0.50000000000021494 0 0 0.66666666666759111 0 0.29166666666684449 0.7083333333334445 0 0 1 0 0.33333333333472032 1 0 0.29166666666684449 0.7083333333334445 0 0 0.66666666666759111 0 0 1 0 0.29166666666684449 0.7083333333334445 0 0.33333333333472032 1 0 0.29166666666684449 0.7083333333334445 0 0.50000000000021227 0.82738095238030207 0 0.17261904761971569 0.50000000000021494 0 0.29166666666684449 0.7083333333334445 0 0.50000000000004996 0.49999999999997519 0 0.29166666666684449 0.7083333333334445 0 0.50000000000021227 0.82738095238030207 0 0.50000000000004996 0.49999999999997519 0 0.70833333333346027 0.70833333333323512 0 0.82738095238054699 0.49999999999982031 0 0.50000000000004996 0.49999999999997519 0 0.70833333333346027 0.70833333333323512 0 0.50000000000021227 0.82738095238030207 0 0.50000000000004996 0.49999999999997519 0 0.70833333333346027 0.70833333333323512 0 0.66666666666759111 1 0 0.50000000000021227 0.82738095238030207 0 0.33333333333472032 1 0 0.66666666666759111 1 0 0.50000000000021227 0.82738095238030207 0 0.70833333333346027 0.70833333333323512 0 1 1 0 1 0.66666666666578889 0 0.70833333333346027 0.70833333333323512 0 0.66666666666759111 1 0 1 1 0 0.70833333333346027 0.70833333333323512 0 1 0.66666666666578889 0 0.82738095238054699 0.49999999999982031 0 1 0.66666666666578889 0 1 0.33333333333250248 0 0.82738095238054699 0.49999999999982031 0 1 0.33333333333250248 0 0.82738095238054699 0.49999999999982031 0 0.70833333333327586 0.2916666666665107 0 1 0 0 0.66666666666578889 0 0 0.70833333333327586 0.2916666666665107 0 1 0.33333333333250248 0 1 0 0 0.70833333333327586 0.2916666666665107 0 0.49999999999981742 0.1726190476194705 0 0.66666666666578889 0 0 0.70833333333327586 0.2916666666665107 0 0.82738095238054699 0.49999999999982031 0 0.50000000000004996 0.49999999999997519 0 0.70833333333327586 0.2916666666665107 0 0.49999999999981742 0.1726190476194705 0 0.50000000000004996 0.49999999999997519 0 0.70833333333327586 0.2916666666665107 0 
</DataArray>
</Points>
<Cells>
<DataArray type="UInt32" Name="connectivity" format="ascii">
0 1 2 3 4 5 6 7 8 9 10 11 12 13 14 15 16 17 18 19 20 21 22 23 24 25 26 27 28 29 30 31 32 33 34 35 36 37 38 39 40 41 42 43 44 45 46 47 48 49 50 51 52 53 54 55 56 57 58 59 60 61 62 63 64 65 66 67 68 69 70 71 72 73 74 75 76 77 78 79 80 81 82 83 
</DataArray>
<DataArray type="UInt32" Name="offsets" format="ascii">
3 6 9 12 15 18 21 24 27 30 33 36 39 42 45 48 51 54 57 60 63 66 69 72 75 78 81 84 
</DataArray>
<DataArray type="UInt32" Name="types" format="ascii">
5 5 5 5 5 5 5 5 5 5 5 5 5 5 5 5 5 5 5 5 5 5 5 5 5 5 5 5 
</DataArray>
</Cells>
<PointData Scalars="" Vectors="displacement," Tensors="">
<DataArray type="Float64" Name="displacement" NumberOfComponents="3" format="ascii">
-9.5453571006255482e-06 -7.5009049459047466e-05 0 -7.7286311130062931e-06 -0.065701600430641882 0 -2.120708574416117e-05 -0.075079333692936637 0 -9.5453571006255482e-06 -7.5009049459047466e-05 0 3.1649162329851937e-06 -7.4995475270245302e-05 0 -7.7286311130062931e-06 -0.065701600430641882 0 1.6487987169779796e-17 -0.038912734036143898 0 3.1649162329851937e-06 -7.4995475270245302e-05 0 -3.1649162329696498e-06 -7.4995475270476548e-05 0 1.6487987169779796e-17 -0.038912734036143898 0 3.1649162329851937e-06 -7.4995475270245302e-05 0 -7.7286311130062931e-06 -0.065701600430641882 0 -7.7286311130062931e-06 -0.065701600430641882 0 -1.3022528032603543e-05 -0.11257983106411684 0 -1.0078470816821538e-18 -0.11257826831280927 0 1.6487987169779796e-17 -0.038912734036143898 0 -7.7286311130062931e-06 -0.065701600430641882 0 -1.0078470816821538e-18 -0.11257826831280927 0 -7.7286311130062931e-06 -0.065701600430641882 0 -2.120708574416117e-05 -0.075079333692936637 0 -1.3022528032603543e-05 -0.11257983106411684 0 -2.120708574416117e-05 -0.075079333692936637 0 -1.3022528032603543e-05 -0.11257983106411684 0 -1.8034888886785443e-05 -0.15008110431032992 0 -1.3022528032603543e-05 -0.11257983106411684 0 -1.8034888886785443e-05 -0.15008110431032992 0 -7.8595963711818577e-06 -0.1594562133060014 0 -1.9089521891340114e-05 -0.22508408706491009 0 -6.4446203657183332e-06 -0.2250838463210767 0 -7.8595963711818577e-06 -0.1594562133060014 0 -1.8034888886785443e-05 -0.15008110431032992 0 -1.9089521891340114e-05 -0.22508408706491009 0 -7.8595963711818577e-06 -0.1594562133060014 0 -6.4446203657183332e-06 -0.2250838463210767 0 -7.8595963711818577e-06 -0.1594562133060014 0 7.2316561926889914e-17 -0.18624274078298603 0 -1.3022528032603543e-05 -0.11257983106411684 0 -7.8595963711818577e-06 -0.1594562133060014 0 -1.0078470816821538e-18 -0.11257826831280927 0 -7.8595963711818577e-06 -0.1594562133060014 0 7.2316561926889914e-17 -0.18624274078298603 0 -1.0078470816821538e-18 -0.11257826831280927 0 7.8595963712904812e-06 -0.15945621330595458 0 1.3022528032624349e-05 -0.11257983106402834 0 -1.0078470816821538e-18 -0.11257826831280927 0 7.8595963712904812e-06 -0.15945621330595458 0 7.2316561926889914e-17 -0.18624274078298603 0 -1.0078470816821538e-18 -0.11257826831280927 0 7.8595963712904812e-06 -0.15945621330595458 0 6.4446203660863606e-06 -0.22508384632107709 0 7.2316561926889914e-17 -0.18624274078298603 0 -6.4446203657183332e-06 -0.2250838463210767 0 6.4446203660863606e-06 -0.22508384632107709 0 7.2316561926889914e-17 -0.18624274078298603 0 7.8595963712904812e-06 -0.15945621330595458 0 1.9089521891479522e-05 -0.22508408706491057 0 1.8034888886881514e-05 -0.15008110430992486 0 7.8595963712904812e-06 -0.15945621330595458 0 6.4446203660863606e-06 -0.22508384632107709 0 1.9089521891479522e-05 -0.22508408706491057 0 7.8595963712904812e-06 -0.15945621330595458 0 1.8034888886881514e-05 -0.15008110430992486 0 1.3022528032624349e-05 -0.11257983106402834 0 1.8034888886881514e-05 -0.15008110430992486 0 2.1207085744073709e-05 -0.075079333692438022 0 1.3022528032624349e-05 -0.11257983106402834 0 2.1207085744073709e-05 -0.075079333692438022 0 1.3022528032624349e-05 -0.11257983106402834 0 7.7286311130006485e-06 -0.065701600430576129 0 9.5453571005463082e-06 -7.5009049459508361e-05 0 -3.1649162329696498e-06 -7.4995475270476548e-05 0 7.7286311130006485e-06 -0.065701600430576129 0 2.1207085744073709e-05 -0.075079333692438022 0 9.5453571005463082e-06 -7.5009049459508361e-05 0 7.7286311130006485e-06 -0.065701600430576129 0 1.6487987169779796e-17 -0.038912734036143898 0 -3.1649162329696498e-06 -7.4995475270476548e-05 0 7.7286311130006485e-06 -0.065701600430576129 0 1.3022528032624349e-05 -0.11257983106402834 0 -1.0078470816821538e-18 -0.11257826831280927 0 7.7286311130006485e-06 -0.065701600430576129 0 1.6487987169779796e-17 -0.038912734036143898 0 -1.0078470816821538e-18 -0.11257826831280927 0 7.7286311130006485e-06 -0.065701600430576129 0 
</DataArray>
</PointData>
<CellData Scalars="displacement_divergence," Vectors="" Tensors="effective_stress,">
<DataArray type="Float64" Name="effective_stress" NumberOfComponents="9" format="ascii">
-4.996624846367018 -0.00091558067945385346 0 -0.00091558067945385346 -20.000237372383136 0 0 0 -4.9993724437500306 -4.9967327468113849 -0.0010620440873273971 0 -0.0010620440873273971 -19.999641260579182 0 0 0 -4.999274801478113 -5.0014887815394058 -1.955380302121057e-14 0 -1.955380302121057e-14 -19.999625293691668 0 0 0 -5.0002228150462145 -4.9985559247751503 -0.00072824715585095845 0 -0.00072824715585095845 -19.999942169415931 0 0 0 -4.9996996188382168 -4.9967481714240378 6.9767342399273957e-05 0 6.9767342399273957e-05 -20.000251986965736 0 0 0 -4.999400031677955 -4.9970296258752995 0.00022390157266283239 0 0.00022390157266283239 -20.000484313282016 0 0 0 -4.9995027878314637 -4.9961241629974094 0.00029588579495909428 0 0.00029588579495909428 -19.999952247852875 0 0 0 -4.9992152821700557 -4.9967202138576212 0.00039213171699969962 0 0.00039213171699969962 -19.999622707838753 0 0 0 -4.9992685843392755 -4.9971213536491463 0.0001967596072791622 0 0.0001967596072791622 -19.999863004513589 0 0 0 -4.9993968716325492 -4.9968309297325728 5.144476451361865e-06 0 5.144476451361865e-06 -19.999968620455867 0 0 0 -4.999359910037688 -4.9970576322952356 -7.530918685105803e-05 0 -7.530918685105803e-05 -20.00001009677084 0 0 0 -4.9994135458132147 -4.9968217609009509 2.6029891394330207e-05 0 2.6029891394330207e-05 -19.999974001900082 0 0 0 -4.9993591525602072 -4.9966722412711562 0.00022751119884922844 0 0.00022751119884922844 -19.999948266354206 0 0 0 -4.9993241015250725 -4.9969016732304352 8.8547382615544734e-05 0 8.8547382615544734e-05 -20.000182047115697 0 0 0 -4.9994167440692268 -4.996672241271165 -0.00022751119886166293 0 -0.00022751119886166293 -19.999948266354259 0 0 0 -4.9993241015250849 -4.9969016732304246 -8.8547382650183692e-05 0 -8.8547382650183692e-05 -20.000182047115697 0 0 0 -4.9994167440692232 -4.9968217609009411 -2.6029891422751916e-05 0 -2.6029891422751916e-05 -19.999974001900114 0 0 0 -4.9993591525602135 -4.996797145287367 -2.2694755266046778e-14 0 -2.2694755266046778e-14 -20.000077821881263 0 0 0 -4.999374993433733 -4.99705763229524 7.5309186835070818e-05 0 7.5309186835070818e-05 -20.000010096770865 0 0 0 -4.9994135458132209 -4.9968309297326154 -5.1444764430641499e-06 0 -5.1444764430641499e-06 -19.999968620455888 0 0 0 -4.9993599100377004 -4.9971213536491508 -0.00019675960728227082 0 -0.00019675960728227082 -19.999863004513635 0 0 0 -4.9993968716325572 -4.9967202138576283 -0.00039213171700680505 0 -0.00039213171700680505 -19.999622707838739 0 0 0 -4.9992685843392746 -4.9961241629974404 -0.00029588579497730194 0 -0.00029588579497730194 -19.999952247852878 0 0 0 -4.9992152821700619 -4.9967327468114231 0.0010620440872973291 0 0.0010620440872973291 -19.999641260579175 0 0 0 -4.9992748014781192 -4.9966248463670233 0.00091558067943431354 0 0.00091558067943431354 -20.000237372383118 0 0 0 -4.9993724437500289 -4.9985559247751512 0.00072824715581010224 0 0.00072824715581010224 -19.999942169415906 0 0 0 -4.9996996188382115 -4.9967481714240334 -6.9767342429988144e-05 0 -6.9767342429988144e-05 -20.000251986965729 0 0 0 -4.9994000316779532 -4.9970296258753057 -0.00022390157269569499 0 -0.00022390157269569499 -20.000484313282005 0 0 0 -4.9995027878314628 
</DataArray>
<DataArray type="Float64" Name="displacement_divergence" format="ascii">
-0.22497175996875135 -0.22496736606651516 -0.22501002667707964 -0.22498648284771977 -0.22497300142550794 -0.22497762545241584 -0.22496468769765243 -0.22496708629526738 -0.22497285922346466 -0.22497119595169568 -0.22497360956159476 -0.22497116186520918 -0.2249695845686282 -0.22497375348311516 -0.22496958456862876 -0.2249737534831151 -0.22497116186520952 -0.22497187470451774 -0.22497360956159496 -0.22497119595169654 -0.22497285922346499 -0.22496708629526746 -0.22496468769765285 -0.22496736606651538 -0.22497175996875132 -0.22498648284771952 -0.2249730014255078 -0.22497762545241581 
</DataArray>
</CellData>
</Piece>
</UnstructuredGrid>
</VTKFile>
