<?xml version="1.0"?>
<VTKFile type="UnstructuredGrid" version="0.1" byte_order="LittleEndian">
<UnstructuredGrid>
<Piece NumberOfPoints="3142" NumberOfCells="1054">
<Points>
<DataArray type="Float64" NumberOfComponents="3" format="ascii">
0.02576622439977887 0.024532886826226379 0 0 0 0 0.049999999999899652 0 0 0.02576622439977887 0.024532886826226379 0 0 0 0 0 0.050000000000207989 0 0.02576622439977887 0.024532886826226379 0 0.049999999999899652 0 0 0.053064897599215843 0.048131547304697528 0 0.02576622439977887 0.024532886826226379 0 0.053064897599215843 0.048131547304697528 0 0 0.050000000000207989 0 0 0.050000000000207989 0 0 0.10000000000041601 0 0.044310582753132287 0.101412518374475 0 0 0.10000000000041601 0 0.044310582753132287 0.101412518374475 0 0 0.15000000000062411 0 0.053064897599215843 0.048131547304697528 0 0.044310582753132287 0.101412518374475 0 0.083411279318303222 0.089699755330707398 0 0.053064897599215843 0.048131547304697528 0 0 0.050000000000207989 0 0.044310582753132287 0.101412518374475 0 0.044310582753132287 0.101412518374475 0 0.083411279318303222 0.089699755330707398 0 0.065374659239632718 0.1448908038746782 0 0.083411279318303222 0.089699755330707398 0 0.065374659239632718 0.1448908038746782 0 0.1053400320299198 0.12877248826361379 0 0.083411279318303222 0.089699755330707398 0 0.12372429750337779 0.095814237875728972 0 0.1053400320299198 0.12877248826361379 0 0.12372429750337779 0.095814237875728972 0 0.1053400320299198 0.12877248826361379 0 0.14332333627550789 0.14578431753966009 0 0.12372429750337779 0.095814237875728972 0 0.10266856499169109 0.044518360900210059 0 0.14618258501891079 0.062070108745602003 0 0.083411279318303222 0.089699755330707398 0 0.12372429750337779 0.095814237875728972 0 0.10266856499169109 0.044518360900210059 0 0.10266856499169109 0.044518360900210059 0 0.099999999999814668 0 0 0.14999999999970359 0 0 0.049999999999899652 0 0 0.053064897599215843 0.048131547304697528 0 0.099999999999814668 0 0 0.053064897599215843 0.048131547304697528 0 0.10266856499169109 0.044518360900210059 0 0.099999999999814668 0 0 0.053064897599215843 0.048131547304697528 0 0.083411279318303222 0.089699755330707398 0 0.10266856499169109 0.044518360900210059 0 0.044081577119474857 0.2271058242433576 0 0 0.20000000000083221 0 0 0.25000000000104028 0 0.044081577119474857 0.2271058242433576 0 0 0.20000000000083221 0 0.038512288486115001 0.1844147282893184 0 0.044081577119474857 0.2271058242433576 0 0.038512288486115001 0.1844147282893184 0 0.083105206071467416 0.20007701332709979 0 0.038512288486115001 0.1844147282893184 0 0 0.15000000000062411 0 0.065374659239632718 0.1448908038746782 0 0.044310582753132287 0.101412518374475 0 0 0.15000000000062411 0 0.065374659239632718 0.1448908038746782 0 0.038512288486115001 0.1844147282893184 0 0.065374659239632718 0.1448908038746782 0 0.083105206071467416 0.20007701332709979 0 0 0.20000000000083221 0 0.038512288486115001 0.1844147282893184 0 0 0.15000000000062411 0 0.065374659239632718 0.1448908038746782 0 0.1053400320299198 0.12877248826361379 0 0.106902708054812 0.16453234188234539 0 0.1053400320299198 0.12877248826361379 0 0.106902708054812 0.16453234188234539 0 0.14332333627550789 0.14578431753966009 0 0.065374659239632718 0.1448908038746782 0 0.106902708054812 0.16453234188234539 0 0.083105206071467416 0.20007701332709979 0 0.083105206071467416 0.20007701332709979 0 0.095326043202144745 0.24554465089224409 0 0.13737030665753211 0.20313708640667491 0 0.106902708054812 0.16453234188234539 0 0.083105206071467416 0.20007701332709979 0 0.13737030665753211 0.20313708640667491 0 0.044081577119474857 0.2271058242433576 0 0.083105206071467416 0.20007701332709979 0 0.095326043202144745 0.24554465089224409 0 0.044081577119474857 0.2271058242433576 0 0.095326043202144745 0.24554465089224409 0 0.049706944316556423 0.27522722923869108 0 0.095326043202144745 0.24554465089224409 0 0.14377654328998779 0.2442024734791064 0 0.13737030665753211 0.20313708640667491 0 0.17933913398461551 0.2350063570234002 0 0.14377654328998779 0.2442024734791064 0 0.13737030665753211 0.20313708640667491 0 0.17933913398461551 0.2350063570234002 0 0.13737030665753211 0.20313708640667491 0 0.18124454140915969 0.18790916706335251 0 0.18124454140915969 0.18790916706335251 0 0.14332333627550789 0.14578431753966009 0 0.18652628422869419 0.14162325200928061 0 0.106902708054812 0.16453234188234539 0 0.13737030665753211 0.20313708640667491 0 0.14332333627550789 0.14578431753966009 0 0.13737030665753211 0.20313708640667491 0 0.18124454140915969 0.18790916706335251 0 0.14332333627550789 0.14578431753966009 0 0.14332333627550789 0.14578431753966009 0 0.18652628422869419 0.14162325200928061 0 0.16141998738593399 0.10404039647458049 0 0.18652628422869419 0.14162325200928061 0 0.22985637510995899 0.1298347970200906 0 0.2185883431182947 0.18019736283949719 0 0.22985637510995899 0.1298347970200906 0 0.2185883431182947 0.18019736283949719 0 0.25557216766470708 0.15874861286892261 0 0.2185883431182947 0.18019736283949719 0 0.25557216766470708 0.15874861286892261 0 0.26429849586623999 0.19346700179430079 0 0.18124454140915969 0.18790916706335251 0 0.18652628422869419 0.14162325200928061 0 0.2185883431182947 0.18019736283949719 0 0.17933913398461551 0.2350063570234002 0 0.18124454140915969 0.18790916706335251 0 0.224700362040408 0.22206622194729711 0 0.18124454140915969 0.18790916706335251 0 0.2185883431182947 0.18019736283949719 0 0.224700362040408 0.22206622194729711 0 0.2185883431182947 0.18019736283949719 0 0.224700362040408 0.22206622194729711 0 0.26429849586623999 0.19346700179430079 0 0.224700362040408 0.22206622194729711 0 0.25195515620380449 0.25883339815888678 0 0.21049769590865089 0.26857363548218488 0 0.17933913398461551 0.2350063570234002 0 0.224700362040408 0.22206622194729711 0 0.21049769590865089 0.26857363548218488 0 0.184418230509967 0.038773194583122873 0 0.14999999999970359 0 0 0.14618258501891079 0.062070108745602003 0 0.184418230509967 0.038773194583122873 0 0.14618258501891079 0.062070108745602003 0 0.19922788606653311 0.085920220746880993 0 0.184418230509967 0.038773194583122873 0 0.14999999999970359 0 0 0.19999999999955789 0 0 0.10266856499169109 0.044518360900210059 0 0.14999999999970359 0 0 0.14618258501891079 0.062070108745602003 0 0.12372429750337779 0.095814237875728972 0 0.14618258501891079 0.062070108745602003 0 0.16141998738593399 0.10404039647458049 0 0.12372429750337779 0.095814237875728972 0 0.14332333627550789 0.14578431753966009 0 0.16141998738593399 0.10404039647458049 0 0.18652628422869419 0.14162325200928061 0 0.16141998738593399 0.10404039647458049 0 0.19922788606653311 0.085920220746880993 0 0.14618258501891079 0.062070108745602003 0 0.16141998738593399 0.10404039647458049 0 0.19922788606653311 0.085920220746880993 0 0.18652628422869419 0.14162325200928061 0 0.22985637510995899 0.1298347970200906 0 0.19922788606653311 0.085920220746880993 0 0.22985637510995899 0.1298347970200906 0 0.19922788606653311 0.085920220746880993 0 0.24218496799700481 0.089025544070598317 0 0.22985637510995899 0.1298347970200906 0 0.24218496799700481 0.089025544070598317 0 0.27474541102162192 0.11822029332053539 0 0.19922788606653311 0.085920220746880993 0 0.24218496799700481 0.089025544070598317 0 0.22668068146512929 0.045875643423131329 0 0.24218496799700481 0.089025544070598317 0 0.22668068146512929 0.045875643423131329 0 0.27499999999933927 0.060310814194988557 0 0.184418230509967 0.038773194583122873 0 0.19922788606653311 0.085920220746880993 0 0.22668068146512929 0.045875643423131329 0 0.184418230509967 0.038773194583122873 0 0.22668068146512929 0.045875643423131329 0 0.19999999999955789 0 0 0.22668068146512929 0.045875643423131329 0 0.19999999999955789 0 0 0.24999999999941211 0 0 0.24999999999941211 0 0 0.27499999999933927 0.060310814194988557 0 0.29999999999926641 0 0 0.22668068146512929 0.045875643423131329 0 0.24999999999941211 0 0 0.27499999999933927 0.060310814194988557 0 0.27499999999933927 0.060310814194988557 0 0.29999999999926641 0 0 0.32541448401678508 0.046215317981507749 0 0.29999999999926641 0 0 0.32541448401678508 0.046215317981507749 0 0.34999999999912063 0 0 0.32541448401678508 0.046215317981507749 0 0.3615861437013822 0.03582617922508851 0 0.35312867752657662 0.084946736076730367 0 0.3615861437013822 0.03582617922508851 0 0.35312867752657662 0.084946736076730367 0 0.39591832466117061 0.056982757562006353 0 0.32541448401678508 0.046215317981507749 0 0.3615861437013822 0.03582617922508851 0 0.34999999999912063 0 0 0.3615861437013822 0.03582617922508851 0 0.34999999999912063 0 0 0.3999999999989749 0 0 0.35312867752657662 0.084946736076730367 0 0.36246644853392812 0.1399454205365751 0 0.39823268594401579 0.1116623613130045 0 0.35312867752657662 0.084946736076730367 0 0.32215584939770009 0.1218492143506909 0 0.36246644853392812 0.1399454205365751 0 0.32541448401678508 0.046215317981507749 0 0.35312867752657662 0.084946736076730367 0 0.3096713403101819 0.085471541595262421 0 0.35312867752657662 0.084946736076730367 0 0.32215584939770009 0.1218492143506909 0 0.3096713403101819 0.085471541595262421 0 0.32215584939770009 0.1218492143506909 0 0.3096713403101819 0.085471541595262421 0 0.27474541102162192 0.11822029332053539 0 0.27499999999933927 0.060310814194988557 0 0.32541448401678508 0.046215317981507749 0 0.3096713403101819 0.085471541595262421 0 0.27499999999933927 0.060310814194988557 0 0.3096713403101819 0.085471541595262421 0 0.27474541102162192 0.11822029332053539 0 0.24218496799700481 0.089025544070598317 0 0.27499999999933927 0.060310814194988557 0 0.27474541102162192 0.11822029332053539 0 0.22985637510995899 0.1298347970200906 0 0.27474541102162192 0.11822029332053539 0 0.25557216766470708 0.15874861286892261 0 0.27474541102162192 0.11822029332053539 0 0.25557216766470708 0.15874861286892261 0 0.29336099386129338 0.15892013001050981 0 0.25557216766470708 0.15874861286892261 0 0.29336099386129338 0.15892013001050981 0 0.26429849586623999 0.19346700179430079 0 0.29336099386129338 0.15892013001050981 0 0.31255190597181792 0.19850845631528771 0 0.33084213324567391 0.16272720141332131 0 0.29336099386129338 0.15892013001050981 0 0.26429849586623999 0.19346700179430079 0 0.31255190597181792 0.19850845631528771 0 0.32215584939770009 0.1218492143506909 0 0.27474541102162192 0.11822029332053539 0 0.29336099386129338 0.15892013001050981 0 0.224700362040408 0.22206622194729711 0 0.28040350263641872 0.23054717217092141 0 0.25195515620380449 0.25883339815888678 0 0.224700362040408 0.22206622194729711 0 0.28040350263641872 0.23054717217092141 0 0.26429849586623999 0.19346700179430079 0 0.28040350263641872 0.23054717217092141 0 0.26429849586623999 0.19346700179430079 0 0.31255190597181792 0.19850845631528771 0 0.28040350263641872 0.23054717217092141 0 0.33758650185219202 0.23837101504325639 0 0.29132859388405002 0.27203693976649962 0 0.28040350263641872 0.23054717217092141 0 0.33758650185219202 0.23837101504325639 0 0.31255190597181792 0.19850845631528771 0 0.33758650185219202 0.23837101504325639 0 0.31255190597181792 0.19850845631528771 0 0.3572130504031617 0.1874703368446563 0 0.33758650185219202 0.23837101504325639 0 0.3572130504031617 0.1874703368446563 0 0.38831533174504851 0.2189834941785925 0 0.33758650185219202 0.23837101504325639 0 0.38831533174504851 0.2189834941785925 0 0.3786248352540974 0.27082301512024259 0 0.32215584939770009 0.1218492143506909 0 0.29336099386129338 0.15892013001050981 0 0.33084213324567391 0.16272720141332131 0 0.32215584939770009 0.1218492143506909 0 0.33084213324567391 0.16272720141332131 0 0.36246644853392812 0.1399454205365751 0 0.31255190597181792 0.19850845631528771 0 0.33084213324567391 0.16272720141332131 0 0.3572130504031617 0.1874703368446563 0 0.3572130504031617 0.1874703368446563 0 0.36246644853392812 0.1399454205365751 0 0.39801143831225599 0.16651381068160659 0 0.33084213324567391 0.16272720141332131 0 0.3572130504031617 0.1874703368446563 0 0.36246644853392812 0.1399454205365751 0 0.36246644853392812 0.1399454205365751 0 0.39801143831225599 0.16651381068160659 0 0.39823268594401579 0.1116623613130045 0 0.39801143831225599 0.16651381068160659 0 0.42905200079338551 0.19982395548231649 0 0.44288491854585582 0.14116182884956319 0 0.39801143831225599 0.16651381068160659 0 0.44288491854585582 0.14116182884956319 0 0.39823268594401579 0.1116623613130045 0 0.38831533174504851 0.2189834941785925 0 0.42377727103934271 0.25099357235810238 0 0.3786248352540974 0.27082301512024259 0 0.3572130504031617 0.1874703368446563 0 0.39801143831225599 0.16651381068160659 0 0.38831533174504851 0.2189834941785925 0 0.39801143831225599 0.16651381068160659 0 0.38831533174504851 0.2189834941785925 0 0.42905200079338551 0.19982395548231649 0 0.38831533174504851 0.2189834941785925 0 0.42905200079338551 0.19982395548231649 0 0.42377727103934271 0.25099357235810238 0 0.42905200079338551 0.19982395548231649 0 0.46429753744194407 0.22870891180733599 0 0.42377727103934271 0.25099357235810238 0 0.42905200079338551 0.19982395548231649 0 0.46429753744194407 0.22870891180733599 0 0.47357141910802508 0.1873585799078378 0 0.47357141910802508 0.1873585799078378 0 0.51729576145820033 0.1683240575987815 0 0.50760557329222289 0.20700468884612061 0 0.46429753744194407 0.22870891180733599 0 0.47357141910802508 0.1873585799078378 0 0.50760557329222289 0.20700468884612061 0 0.46429753744194407 0.22870891180733599 0 0.49695729691142171 0.25014895411178018 0 0.50760557329222289 0.20700468884612061 0 0.44288491854585582 0.14116182884956319 0 0.47357141910802508 0.1873585799078378 0 0.48466639505193998 0.1421439844745814 0 0.42905200079338551 0.19982395548231649 0 0.44288491854585582 0.14116182884956319 0 0.47357141910802508 0.1873585799078378 0 0.47357141910802508 0.1873585799078378 0 0.48466639505193998 0.1421439844745814 0 0.51729576145820033 0.1683240575987815 0 0.44288491854585582 0.14116182884956319 0 0.48466639505193998 0.1421439844745814 0 0.47881186583059909 0.093591717165689425 0 0.48466639505193998 0.1421439844745814 0 0.47881186583059909 0.093591717165689425 0 0.51076801031701946 0.1202837388510348 0 0.44288491854585582 0.14116182884956319 0 0.47881186583059909 0.093591717165689425 0 0.43698630808430822 0.080423614171545449 0 0.47881186583059909 0.093591717165689425 0 0.47040171442036788 0.044141676406503738 0 0.43698630808430822 0.080423614171545449 0 0.47881186583059909 0.093591717165689425 0 0.47040171442036788 0.044141676406503738 0 0.52375890611712683 0.059318771819432882 0 0.47040171442036788 0.044141676406503738 0 0.49999999999869432 0 0 0.52375890611712683 0.059318771819432882 0 0.47040171442036788 0.044141676406503738 0 0.49999999999869432 0 0 0.44999999999882923 0 0 0.47040171442036788 0.044141676406503738 0 0.44999999999882923 0 0 0.4320097814748517 0.037406712692169303 0 0.47040171442036788 0.044141676406503738 0 0.4320097814748517 0.037406712692169303 0 0.43698630808430822 0.080423614171545449 0 0.4320097814748517 0.037406712692169303 0 0.3999999999989749 0 0 0.39591832466117061 0.056982757562006353 0 0.4320097814748517 0.037406712692169303 0 0.39591832466117061 0.056982757562006353 0 0.43698630808430822 0.080423614171545449 0 0.44999999999882923 0 0 0.4320097814748517 0.037406712692169303 0 0.3999999999989749 0 0 0.3615861437013822 0.03582617922508851 0 0.3999999999989749 0 0 0.39591832466117061 0.056982757562006353 0 0.35312867752657662 0.084946736076730367 0 0.39591832466117061 0.056982757562006353 0 0.39823268594401579 0.1116623613130045 0 0.44288491854585582 0.14116182884956319 0 0.39823268594401579 0.1116623613130045 0 0.43698630808430822 0.080423614171545449 0 0.39591832466117061 0.056982757562006353 0 0.39823268594401579 0.1116623613130045 0 0.43698630808430822 0.080423614171545449 0 0.42161023666869668 0.39493916313643851 0 0.38707855792647411 0.42299362914874578 0 0.43249999999999988 0.43937499999999979 0 0.42161023666869668 0.39493916313643851 0 0.38083244760691543 0.38531983672244652 0 0.38707855792647411 0.42299362914874578 0 0.42161023666869668 0.39493916313643851 0 0.38083244760691543 0.38531983672244652 0 0.40076539126862748 0.34589349467022118 0 0.38707855792647411 0.42299362914874578 0 0.3908716102680424 0.47010282357248828 0 0.43249999999999988 0.43937499999999979 0 0.3908716102680424 0.47010282357248828 0 0.43507373378304309 0.49699695397193322 0 0.38244435121258652 0.51653317813019495 0 0.3908716102680424 0.47010282357248828 0 0.43507373378304309 0.49699695397193322 0 0.43249999999999988 0.43937499999999979 0 0.43507373378304309 0.49699695397193322 0 0.43249999999999988 0.43937499999999979 0 0.46111841286828259 0.46690301029591341 0 0.43249999999999988 0.43937499999999979 0 0.46111841286828259 0.46690301029591341 0 0.48858720058566618 0.43964267759203868 0 0.43507373378304309 0.49699695397193322 0 0.46111841286828259 0.46690301029591341 0 0.49102375406324739 0.49123754822244059 0 0.46111841286828259 0.46690301029591341 0 0.49102375406324739 0.49123754822244059 0 0.48858720058566618 0.43964267759203868 0 0.48858720058566618 0.43964267759203868 0 0.46655310992796922 0.39650496622958609 0 0.52289427570932567 0.3932284363388488 0 0.43249999999999988 0.43937499999999979 0 0.48858720058566618 0.43964267759203868 0 0.46655310992796922 0.39650496622958609 0 0.42161023666869668 0.39493916313643851 0 0.43249999999999988 0.43937499999999979 0 0.46655310992796922 0.39650496622958609 0 0.42161023666869668 0.39493916313643851 0 0.46655310992796922 0.39650496622958609 0 0.4409427642593301 0.35743108089689513 0 0.46655310992796922 0.39650496622958609 0 0.49077833859261139 0.35229981449445641 0 0.52289427570932567 0.3932284363388488 0 0.49077833859261139 0.35229981449445641 0 0.46226845272279993 0.31901800744800313 0 0.5 0.29999999999999999 0 0.49077833859261139 0.35229981449445641 0 0.46226845272279993 0.31901800744800313 0 0.4409427642593301 0.35743108089689513 0 0.46226845272279993 0.31901800744800313 0 0.4409427642593301 0.35743108089689513 0 0.41914690343363781 0.30688979866601612 0 0.46655310992796922 0.39650496622958609 0 0.49077833859261139 0.35229981449445641 0 0.4409427642593301 0.35743108089689513 0 0.49695729691142171 0.25014895411178018 0 0.4604742573284204 0.27846934318264788 0 0.5 0.29999999999999999 0 0.46429753744194407 0.22870891180733599 0 0.49695729691142171 0.25014895411178018 0 0.4604742573284204 0.27846934318264788 0 0.46226845272279993 0.31901800744800313 0 0.4604742573284204 0.27846934318264788 0 0.5 0.29999999999999999 0 0.46226845272279993 0.31901800744800313 0 0.4604742573284204 0.27846934318264788 0 0.41914690343363781 0.30688979866601612 0 0.46429753744194407 0.22870891180733599 0 0.4604742573284204 0.27846934318264788 0 0.42377727103934271 0.25099357235810238 0 0.4604742573284204 0.27846934318264788 0 0.42377727103934271 0.25099357235810238 0 0.41914690343363781 0.30688979866601612 0 0.42377727103934271 0.25099357235810238 0 0.41914690343363781 0.30688979866601612 0 0.3786248352540974 0.27082301512024259 0 0.41914690343363781 0.30688979866601612 0 0.3786248352540974 0.27082301512024259 0 0.36575549820117997 0.31677992835137742 0 0.42161023666869668 0.39493916313643851 0 0.4409427642593301 0.35743108089689513 0 0.40076539126862748 0.34589349467022118 0 0.4409427642593301 0.35743108089689513 0 0.41914690343363781 0.30688979866601612 0 0.40076539126862748 0.34589349467022118 0 0.41914690343363781 0.30688979866601612 0 0.40076539126862748 0.34589349467022118 0 0.36575549820117997 0.31677992835137742 0 0.40076539126862748 0.34589349467022118 0 0.36575549820117997 0.31677992835137742 0 0.33277555741076909 0.36432196682010132 0 0.38083244760691543 0.38531983672244652 0 0.40076539126862748 0.34589349467022118 0 0.33277555741076909 0.36432196682010132 0 0.36575549820117997 0.31677992835137742 0 0.32752639306529541 0.32610012995269699 0 0.33277555741076909 0.36432196682010132 0 0.32752639306529541 0.32610012995269699 0 0.33277555741076909 0.36432196682010132 0 0.29644548887253103 0.34914008784168082 0 0.33758650185219202 0.23837101504325639 0 0.3786248352540974 0.27082301512024259 0 0.33402499257867951 0.28911035184473982 0 0.3786248352540974 0.27082301512024259 0 0.36575549820117997 0.31677992835137742 0 0.33402499257867951 0.28911035184473982 0 0.36575549820117997 0.31677992835137742 0 0.32752639306529541 0.32610012995269699 0 0.33402499257867951 0.28911035184473982 0 0.32752639306529541 0.32610012995269699 0 0.33402499257867951 0.28911035184473982 0 0.29348325746214782 0.31350119524708198 0 0.33758650185219202 0.23837101504325639 0 0.33402499257867951 0.28911035184473982 0 0.29132859388405002 0.27203693976649962 0 0.33402499257867951 0.28911035184473982 0 0.29132859388405002 0.27203693976649962 0 0.29348325746214782 0.31350119524708198 0 0.29132859388405002 0.27203693976649962 0 0.29348325746214782 0.31350119524708198 0 0.24432083401701241 0.3006253385567515 0 0.29132859388405002 0.27203693976649962 0 0.25195515620380449 0.25883339815888678 0 0.24432083401701241 0.3006253385567515 0 0.28040350263641872 0.23054717217092141 0 0.29132859388405002 0.27203693976649962 0 0.25195515620380449 0.25883339815888678 0 0.33277555741076909 0.36432196682010132 0 0.29644548887253103 0.34914008784168082 0 0.27866744612395528 0.38416094670951489 0 0.32752639306529541 0.32610012995269699 0 0.29644548887253103 0.34914008784168082 0 0.29348325746214782 0.31350119524708198 0 0.29644548887253103 0.34914008784168082 0 0.29348325746214782 0.31350119524708198 0 0.25966125648670141 0.34351016742083729 0 0.29348325746214782 0.31350119524708198 0 0.25966125648670141 0.34351016742083729 0 0.24432083401701241 0.3006253385567515 0 0.29644548887253103 0.34914008784168082 0 0.25966125648670141 0.34351016742083729 0 0.27866744612395528 0.38416094670951489 0 0.25966125648670141 0.34351016742083729 0 0.27866744612395528 0.38416094670951489 0 0.22033343844674469 0.36963382230740238 0 0.27866744612395528 0.38416094670951489 0 0.29124338931648802 0.43334555462578611 0 0.24049127783545701 0.41270748208749802 0 0.29124338931648802 0.43334555462578611 0 0.25982634974572738 0.46097799597715272 0 0.24049127783545701 0.41270748208749802 0 0.27866744612395528 0.38416094670951489 0 0.29124338931648802 0.43334555462578611 0 0.31778888742534622 0.40581751814196781 0 0.33277555741076909 0.36432196682010132 0 0.27866744612395528 0.38416094670951489 0 0.31778888742534622 0.40581751814196781 0 0.33277555741076909 0.36432196682010132 0 0.31778888742534622 0.40581751814196781 0 0.35221190152536241 0.40457127605439203 0 0.31778888742534622 0.40581751814196781 0 0.35221190152536241 0.40457127605439203 0 0.34258405725730701 0.4444034294386992 0 0.29124338931648802 0.43334555462578611 0 0.31778888742534622 0.40581751814196781 0 0.34258405725730701 0.4444034294386992 0 0.38707855792647411 0.42299362914874578 0 0.35221190152536241 0.40457127605439203 0 0.34258405725730701 0.4444034294386992 0 0.38083244760691543 0.38531983672244652 0 0.38707855792647411 0.42299362914874578 0 0.35221190152536241 0.40457127605439203 0 0.38083244760691543 0.38531983672244652 0 0.33277555741076909 0.36432196682010132 0 0.35221190152536241 0.40457127605439203 0 0.3908716102680424 0.47010282357248828 0 0.35024835142131061 0.48654922671676981 0 0.38244435121258652 0.51653317813019495 0 0.3908716102680424 0.47010282357248828 0 0.35024835142131061 0.48654922671676981 0 0.34258405725730701 0.4444034294386992 0 0.38707855792647411 0.42299362914874578 0 0.3908716102680424 0.47010282357248828 0 0.34258405725730701 0.4444034294386992 0 0.29124338931648802 0.43334555462578611 0 0.34258405725730701 0.4444034294386992 0 0.31068898841644388 0.47541502461811092 0 0.35024835142131061 0.48654922671676981 0 0.31068898841644388 0.47541502461811092 0 0.33190227185843768 0.52715113583864037 0 0.35024835142131061 0.48654922671676981 0 0.34258405725730701 0.4444034294386992 0 0.31068898841644388 0.47541502461811092 0 0.31068898841644388 0.47541502461811092 0 0.25982634974572738 0.46097799597715272 0 0.28307294598219601 0.50789252727458634 0 0.29124338931648802 0.43334555462578611 0 0.31068898841644388 0.47541502461811092 0 0.25982634974572738 0.46097799597715272 0 0.25982634974572738 0.46097799597715272 0 0.23975172658309729 0.49475499200540818 0 0.28307294598219601 0.50789252727458634 0 0.23975172658309729 0.49475499200540818 0 0.19604738184454831 0.47787523520405789 0 0.22278230690790279 0.44824268025881547 0 0.19604738184454831 0.47787523520405789 0 0.22278230690790279 0.44824268025881547 0 0.191953871957803 0.42546416763755879 0 0.25982634974572738 0.46097799597715272 0 0.22278230690790279 0.44824268025881547 0 0.24049127783545701 0.41270748208749802 0 0.25982634974572738 0.46097799597715272 0 0.23975172658309729 0.49475499200540818 0 0.22278230690790279 0.44824268025881547 0 0.27866744612395528 0.38416094670951489 0 0.24049127783545701 0.41270748208749802 0 0.22033343844674469 0.36963382230740238 0 0.191953871957803 0.42546416763755879 0 0.1650278706801647 0.38791388161335733 0 0.22033343844674469 0.36963382230740238 0 0.24049127783545701 0.41270748208749802 0 0.191953871957803 0.42546416763755879 0 0.22033343844674469 0.36963382230740238 0 0.22278230690790279 0.44824268025881547 0 0.24049127783545701 0.41270748208749802 0 0.191953871957803 0.42546416763755879 0 0.191953871957803 0.42546416763755879 0 0.13773355295499351 0.42497777642586831 0 0.15801167086041079 0.46008690540259539 0 0.191953871957803 0.42546416763755879 0 0.1650278706801647 0.38791388161335733 0 0.13773355295499351 0.42497777642586831 0 0.1650278706801647 0.38791388161335733 0 0.13773355295499351 0.42497777642586831 0 0.1117088112799664 0.38831403004970022 0 0.13773355295499351 0.42497777642586831 0 0.15801167086041079 0.46008690540259539 0 0.113541300460994 0.46208784312094731 0 0.15801167086041079 0.46008690540259539 0 0.113541300460994 0.46208784312094731 0 0.1216098864341134 0.50637075089503902 0 0.15801167086041079 0.46008690540259539 0 0.1216098864341134 0.50637075089503902 0 0.16618607197337229 0.50652878253548905 0 0.19604738184454831 0.47787523520405789 0 0.15801167086041079 0.46008690540259539 0 0.16618607197337229 0.50652878253548905 0 0.19604738184454831 0.47787523520405789 0 0.191953871957803 0.42546416763755879 0 0.15801167086041079 0.46008690540259539 0 0.25195515620380449 0.25883339815888678 0 0.21049769590865089 0.26857363548218488 0 0.24432083401701241 0.3006253385567515 0 0.21049769590865089 0.26857363548218488 0 0.24432083401701241 0.3006253385567515 0 0.19670163708476801 0.31472518408333222 0 0.21049769590865089 0.26857363548218488 0 0.19670163708476801 0.31472518408333222 0 0.168349569971391 0.28054490850913671 0 0.19670163708476801 0.31472518408333222 0 0.22615676742807109 0.33458786033114157 0 0.18434624290945251 0.35208838264196463 0 0.24432083401701241 0.3006253385567515 0 0.19670163708476801 0.31472518408333222 0 0.22615676742807109 0.33458786033114157 0 0.25966125648670141 0.34351016742083729 0 0.24432083401701241 0.3006253385567515 0 0.22615676742807109 0.33458786033114157 0 0.25966125648670141 0.34351016742083729 0 0.22615676742807109 0.33458786033114157 0 0.22033343844674469 0.36963382230740238 0 0.22615676742807109 0.33458786033114157 0 0.22033343844674469 0.36963382230740238 0 0.18434624290945251 0.35208838264196463 0 0.1650278706801647 0.38791388161335733 0 0.22033343844674469 0.36963382230740238 0 0.18434624290945251 0.35208838264196463 0 0.1650278706801647 0.38791388161335733 0 0.18434624290945251 0.35208838264196463 0 0.14223753364722069 0.3341983344262433 0 0.1650278706801647 0.38791388161335733 0 0.14223753364722069 0.3341983344262433 0 0.1117088112799664 0.38831403004970022 0 0.19670163708476801 0.31472518408333222 0 0.18434624290945251 0.35208838264196463 0 0.14223753364722069 0.3341983344262433 0 0.19670163708476801 0.31472518408333222 0 0.14223753364722069 0.3341983344262433 0 0.168349569971391 0.28054490850913671 0 0.14223753364722069 0.3341983344262433 0 0.168349569971391 0.28054490850913671 0 0.1247745017231483 0.27198077544791172 0 0.14377654328998779 0.2442024734791064 0 0.168349569971391 0.28054490850913671 0 0.1247745017231483 0.27198077544791172 0 0.17933913398461551 0.2350063570234002 0 0.21049769590865089 0.26857363548218488 0 0.168349569971391 0.28054490850913671 0 0.17933913398461551 0.2350063570234002 0 0.14377654328998779 0.2442024734791064 0 0.168349569971391 0.28054490850913671 0 0.095326043202144745 0.24554465089224409 0 0.093851963071650835 0.30582068233324772 0 0.049706944316556423 0.27522722923869108 0 0.095326043202144745 0.24554465089224409 0 0.14377654328998779 0.2442024734791064 0 0.1247745017231483 0.27198077544791172 0 0.095326043202144745 0.24554465089224409 0 0.1247745017231483 0.27198077544791172 0 0.093851963071650835 0.30582068233324772 0 0.14223753364722069 0.3341983344262433 0 0.1247745017231483 0.27198077544791172 0 0.093851963071650835 0.30582068233324772 0 0.093851963071650835 0.30582068233324772 0 0.046389130980076937 0.32668781832131749 0 0.049706944316556423 0.27522722923869108 0 0.093851963071650835 0.30582068233324772 0 0.087545339447545459 0.35122518864182262 0 0.046389130980076937 0.32668781832131749 0 0.14223753364722069 0.3341983344262433 0 0.093851963071650835 0.30582068233324772 0 0.087545339447545459 0.35122518864182262 0 0.14223753364722069 0.3341983344262433 0 0.087545339447545459 0.35122518864182262 0 0.1117088112799664 0.38831403004970022 0 0.087545339447545459 0.35122518864182262 0 0.1117088112799664 0.38831403004970022 0 0.050583896093752537 0.38543522283434112 0 0.087545339447545459 0.35122518864182262 0 0.046389130980076937 0.32668781832131749 0 0.050583896093752537 0.38543522283434112 0 0 0.35000000000145642 0 0.046389130980076937 0.32668781832131749 0 0.050583896093752537 0.38543522283434112 0 0 0.35000000000145642 0 0.046389130980076937 0.32668781832131749 0 0 0.30000000000124832 0 0.046389130980076937 0.32668781832131749 0 0 0.30000000000124832 0 0.049706944316556423 0.27522722923869108 0 0 0.30000000000124832 0 0 0.25000000000104028 0 0.049706944316556423 0.27522722923869108 0 0.044081577119474857 0.2271058242433576 0 0 0.25000000000104028 0 0.049706944316556423 0.27522722923869108 0 0.068743045408989428 0.48853989837882689 0 0.113541300460994 0.46208784312094731 0 0.078358742472063481 0.43365249433908948 0 0.068743045408989428 0.48853989837882689 0 0.113541300460994 0.46208784312094731 0 0.1216098864341134 0.50637075089503902 0 0.13773355295499351 0.42497777642586831 0 0.113541300460994 0.46208784312094731 0 0.078358742472063481 0.43365249433908948 0 0.13773355295499351 0.42497777642586831 0 0.1117088112799664 0.38831403004970022 0 0.078358742472063481 0.43365249433908948 0 0.1117088112799664 0.38831403004970022 0 0.078358742472063481 0.43365249433908948 0 0.050583896093752537 0.38543522283434112 0 0.078358742472063481 0.43365249433908948 0 0.035463093262830522 0.42673416072819947 0 0.050583896093752537 0.38543522283434112 0 0 0.35000000000145642 0 0.050583896093752537 0.38543522283434112 0 0 0.40000000000166441 0 0.035463093262830522 0.42673416072819947 0 0.050583896093752537 0.38543522283434112 0 0 0.40000000000166441 0 0.035463093262830522 0.42673416072819947 0 0 0.40000000000166441 0 0 0.45000000000187229 0 0.035463093262830522 0.42673416072819947 0 0 0.45000000000187229 0 0.033550201249889847 0.46247875832467239 0 0.068743045408989428 0.48853989837882689 0 0.033550201249889847 0.46247875832467239 0 0 0.50000000000205869 0 0.068743045408989428 0.48853989837882689 0 0.078358742472063481 0.43365249433908948 0 0.033550201249889847 0.46247875832467239 0 0.078358742472063481 0.43365249433908948 0 0.035463093262830522 0.42673416072819947 0 0.033550201249889847 0.46247875832467239 0 0 0.45000000000187229 0 0.033550201249889847 0.46247875832467239 0 0 0.50000000000205869 0 0.068743045408989428 0.48853989837882689 0 0 0.50000000000205869 0 0.044576108720083309 0.53509043209532614 0 0 0.50000000000205869 0 0 0.55000000000173355 0 0.044576108720083309 0.53509043209532614 0 0 0.55000000000173355 0 0.044576108720083309 0.53509043209532614 0 0.034381862692950467 0.57372682250960894 0 0.044576108720083309 0.53509043209532614 0 0.077693244765132896 0.56932317963405099 0 0.034381862692950467 0.57372682250960894 0 0.068743045408989428 0.48853989837882689 0 0.044576108720083309 0.53509043209532614 0 0.085622222639554768 0.53333248912060549 0 0.068743045408989428 0.48853989837882689 0 0.085622222639554768 0.53333248912060549 0 0.1216098864341134 0.50637075089503902 0 0.044576108720083309 0.53509043209532614 0 0.085622222639554768 0.53333248912060549 0 0.077693244765132896 0.56932317963405099 0 0.085622222639554768 0.53333248912060549 0 0.1154888278694548 0.56733818459978413 0 0.077693244765132896 0.56932317963405099 0 0.085622222639554768 0.53333248912060549 0 0.1216098864341134 0.50637075089503902 0 0.1154888278694548 0.56733818459978413 0 0.1024350934457823 0.60772393977513839 0 0.1154888278694548 0.56733818459978413 0 0.077693244765132896 0.56932317963405099 0 0.1024350934457823 0.60772393977513839 0 0.050069554451969707 0.61308520079857043 0 0.086179601630648681 0.64647209519980475 0 0.1024350934457823 0.60772393977513839 0 0.077693244765132896 0.56932317963405099 0 0.050069554451969707 0.61308520079857043 0 0.077693244765132896 0.56932317963405099 0 0.050069554451969707 0.61308520079857043 0 0.034381862692950467 0.57372682250960894 0 0 0.55000000000173355 0 0.034381862692950467 0.57372682250960894 0 0 0.60000000000138687 0 0.050069554451969707 0.61308520079857043 0 0 0.60000000000138687 0 0 0.65000000000104008 0 0.050069554451969707 0.61308520079857043 0 0.034381862692950467 0.57372682250960894 0 0 0.60000000000138687 0 0 0.65000000000104008 0 0.046634677244967337 0.671418230738282 0 0 0.7000000000006934 0 0.050069554451969707 0.61308520079857043 0 0.046634677244967337 0.671418230738282 0 0.086179601630648681 0.64647209519980475 0 0.050069554451969707 0.61308520079857043 0 0 0.65000000000104008 0 0.046634677244967337 0.671418230738282 0 0 0.7000000000006934 0 0.049706944316475897 0.72477277076253799 0 0 0.75000000000034661 0 0.046634677244967337 0.671418230738282 0 0 0.7000000000006934 0 0.049706944316475897 0.72477277076253799 0 0.049706944316475897 0.72477277076253799 0 0 0.75000000000034661 0 0.04408157711937423 0.7728941757575627 0 0.049706944316475897 0.72477277076253799 0 0.1020579365089687 0.69352219419301997 0 0.090953281884486245 0.7564451946902494 0 0.1020579365089687 0.69352219419301997 0 0.1215415378367805 0.72939333680004137 0 0.090953281884486245 0.7564451946902494 0 0.046634677244967337 0.671418230738282 0 0.049706944316475897 0.72477277076253799 0 0.1020579365089687 0.69352219419301997 0 0.1215415378367805 0.72939333680004137 0 0.090953281884486245 0.7564451946902494 0 0.14335651144331049 0.75565258250209677 0 0.046634677244967337 0.671418230738282 0 0.1020579365089687 0.69352219419301997 0 0.086179601630648681 0.64647209519980475 0 0.1020579365089687 0.69352219419301997 0 0.086179601630648681 0.64647209519980475 0 0.1241190223511371 0.64391885572885044 0 0.1024350934457823 0.60772393977513839 0 0.086179601630648681 0.64647209519980475 0 0.1241190223511371 0.64391885572885044 0 0.1020579365089687 0.69352219419301997 0 0.1241190223511371 0.64391885572885044 0 0.16500388252850301 0.66612077714085194 0 0.1241190223511371 0.64391885572885044 0 0.16500388252850301 0.66612077714085194 0 0.15720202157091859 0.60665697304410315 0 0.16500388252850301 0.66612077714085194 0 0.19914261668318661 0.62286739485272158 0 0.15720202157091859 0.60665697304410315 0 0.1020579365089687 0.69352219419301997 0 0.16500388252850301 0.66612077714085194 0 0.15332765547575641 0.71200081858233666 0 0.1215415378367805 0.72939333680004137 0 0.15332765547575641 0.71200081858233666 0 0.14335651144331049 0.75565258250209677 0 0.1020579365089687 0.69352219419301997 0 0.1215415378367805 0.72939333680004137 0 0.15332765547575641 0.71200081858233666 0 0.16500388252850301 0.66612077714085194 0 0.15332765547575641 0.71200081858233666 0 0.19068556247388771 0.71028988922845504 0 0.15332765547575641 0.71200081858233666 0 0.14335651144331049 0.75565258250209677 0 0.18269480424590959 0.75905448272264375 0 0.15332765547575641 0.71200081858233666 0 0.19068556247388771 0.71028988922845504 0 0.18269480424590959 0.75905448272264375 0 0.19068556247388771 0.71028988922845504 0 0.2248999640082178 0.72584299459689172 0 0.18269480424590959 0.75905448272264375 0 0.19068556247388771 0.71028988922845504 0 0.2248999640082178 0.72584299459689172 0 0.2236846579037573 0.67380363126050236 0 0.2248999640082178 0.72584299459689172 0 0.2236846579037573 0.67380363126050236 0 0.26439878998046262 0.7048065392091396 0 0.2248999640082178 0.72584299459689172 0 0.22556077506376701 0.77837424984191617 0 0.25676291524611189 0.7436741304886243 0 0.2248999640082178 0.72584299459689172 0 0.25676291524611189 0.7436741304886243 0 0.26439878998046262 0.7048065392091396 0 0.16500388252850301 0.66612077714085194 0 0.2236846579037573 0.67380363126050236 0 0.19914261668318661 0.62286739485272158 0 0.16500388252850301 0.66612077714085194 0 0.19068556247388771 0.71028988922845504 0 0.2236846579037573 0.67380363126050236 0 0.2236846579037573 0.67380363126050236 0 0.2459498854893499 0.63248470766216769 0 0.19914261668318661 0.62286739485272158 0 0.2236846579037573 0.67380363126050236 0 0.2459498854893499 0.63248470766216769 0 0.27820712747429932 0.65530134213254643 0 0.2459498854893499 0.63248470766216769 0 0.19914261668318661 0.62286739485272158 0 0.22549374774072969 0.58452645269293457 0 0.2459498854893499 0.63248470766216769 0 0.22549374774072969 0.58452645269293457 0 0.26573297623774761 0.59828298563722948 0 0.19914261668318661 0.62286739485272158 0 0.22549374774072969 0.58452645269293457 0 0.18381867841758909 0.57774125163628387 0 0.22549374774072969 0.58452645269293457 0 0.20050006573841939 0.53248514016039872 0 0.18381867841758909 0.57774125163628387 0 0.22549374774072969 0.58452645269293457 0 0.25115337790845271 0.54719303014923271 0 0.26573297623774761 0.59828298563722948 0 0.22549374774072969 0.58452645269293457 0 0.20050006573841939 0.53248514016039872 0 0.25115337790845271 0.54719303014923271 0 0.23975172658309729 0.49475499200540818 0 0.20050006573841939 0.53248514016039872 0 0.25115337790845271 0.54719303014923271 0 0.19604738184454831 0.47787523520405789 0 0.20050006573841939 0.53248514016039872 0 0.16618607197337229 0.50652878253548905 0 0.23975172658309729 0.49475499200540818 0 0.19604738184454831 0.47787523520405789 0 0.20050006573841939 0.53248514016039872 0 0.20050006573841939 0.53248514016039872 0 0.14934928745814749 0.55042914607228977 0 0.18381867841758909 0.57774125163628387 0 0.20050006573841939 0.53248514016039872 0 0.16618607197337229 0.50652878253548905 0 0.14934928745814749 0.55042914607228977 0 0.1216098864341134 0.50637075089503902 0 0.16618607197337229 0.50652878253548905 0 0.14934928745814749 0.55042914607228977 0 0.1216098864341134 0.50637075089503902 0 0.1154888278694548 0.56733818459978413 0 0.14934928745814749 0.55042914607228977 0 0.1154888278694548 0.56733818459978413 0 0.14934928745814749 0.55042914607228977 0 0.15720202157091859 0.60665697304410315 0 0.1024350934457823 0.60772393977513839 0 0.1154888278694548 0.56733818459978413 0 0.15720202157091859 0.60665697304410315 0 0.1024350934457823 0.60772393977513839 0 0.1241190223511371 0.64391885572885044 0 0.15720202157091859 0.60665697304410315 0 0.19914261668318661 0.62286739485272158 0 0.15720202157091859 0.60665697304410315 0 0.18381867841758909 0.57774125163628387 0 0.14934928745814749 0.55042914607228977 0 0.15720202157091859 0.60665697304410315 0 0.18381867841758909 0.57774125163628387 0 0.10000000000041601 1 0 0.10266856499240549 0.95548163909968886 0 0.15000000000062411 1 0 0.10266856499240549 0.95548163909968886 0 0.053064897599294662 0.95186845269532028 0 0.083411279318375747 0.91030024466934134 0 0.10000000000041601 1 0 0.050000000000207989 1 0 0.053064897599294662 0.95186845269532028 0 0.10000000000041601 1 0 0.10266856499240549 0.95548163909968886 0 0.053064897599294662 0.95186845269532028 0 0.050000000000207989 1 0 0.025766224399875661 0.97546711317377799 0 0.053064897599294662 0.95186845269532028 0 0.050000000000207989 1 0 0 1 0 0.025766224399875661 0.97546711317377799 0 0 1 0 0.025766224399875661 0.97546711317377799 0 0 0.94999999999979179 0 0.025766224399875661 0.97546711317377799 0 0 0.94999999999979179 0 0.053064897599294662 0.95186845269532028 0 0 0.94999999999979179 0 0.053064897599294662 0.95186845269532028 0 0.0443105827531413 0.89858748162559932 0 0.053064897599294662 0.95186845269532028 0 0.0443105827531413 0.89858748162559932 0 0.083411279318375747 0.91030024466934134 0 0 0.94999999999979179 0 0 0.89999999999958358 0 0.0443105827531413 0.89858748162559932 0 0 0.89999999999958358 0 0.0443105827531413 0.89858748162559932 0 0 0.84999999999965292 0 0.0443105827531413 0.89858748162559932 0 0.083411279318375747 0.91030024466934134 0 0.065374659239661639 0.8551091961254178 0 0.083411279318375747 0.91030024466934134 0 0.10562472963403439 0.87143394428979881 0 0.065374659239661639 0.8551091961254178 0 0.10266856499240549 0.95548163909968886 0 0.083411279318375747 0.91030024466934134 0 0.1241151115713819 0.9045666525468371 0 0.10266856499240549 0.95548163909968886 0 0.1241151115713819 0.9045666525468371 0 0.14617343800780541 0.93808063414349496 0 0.1241151115713819 0.9045666525468371 0 0.10562472963403439 0.87143394428979881 0 0.14474682429600511 0.85524784522713515 0 0.083411279318375747 0.91030024466934134 0 0.1241151115713819 0.9045666525468371 0 0.10562472963403439 0.87143394428979881 0 0.10562472963403439 0.87143394428979881 0 0.1074251789111534 0.83564394292147814 0 0.14474682429600511 0.85524784522713515 0 0.1074251789111534 0.83564394292147814 0 0.065374659239661639 0.8551091961254178 0 0.083105206071452636 0.79992298667296435 0 0.10562472963403439 0.87143394428979881 0 0.1074251789111534 0.83564394292147814 0 0.065374659239661639 0.8551091961254178 0 0.065374659239661639 0.8551091961254178 0 0 0.84999999999965292 0 0.038512288486097702 0.8155852717111195 0 0.0443105827531413 0.89858748162559932 0 0.065374659239661639 0.8551091961254178 0 0 0.84999999999965292 0 0 0.84999999999965292 0 0.038512288486097702 0.8155852717111195 0 0 0.79999999999999982 0 0.065374659239661639 0.8551091961254178 0 0.038512288486097702 0.8155852717111195 0 0.083105206071452636 0.79992298667296435 0 0.038512288486097702 0.8155852717111195 0 0.04408157711937423 0.7728941757575627 0 0.083105206071452636 0.79992298667296435 0 0.038512288486097702 0.8155852717111195 0 0 0.79999999999999982 0 0.04408157711937423 0.7728941757575627 0 0 0.79999999999999982 0 0 0.75000000000034661 0 0.04408157711937423 0.7728941757575627 0 0.049706944316475897 0.72477277076253799 0 0.04408157711937423 0.7728941757575627 0 0.090953281884486245 0.7564451946902494 0 0.04408157711937423 0.7728941757575627 0 0.090953281884486245 0.7564451946902494 0 0.083105206071452636 0.79992298667296435 0 0.1074251789111534 0.83564394292147814 0 0.083105206071452636 0.79992298667296435 0 0.1382744753146134 0.79650574229207483 0 0.090953281884486245 0.7564451946902494 0 0.083105206071452636 0.79992298667296435 0 0.1382744753146134 0.79650574229207483 0 0.090953281884486245 0.7564451946902494 0 0.14335651144331049 0.75565258250209677 0 0.1382744753146134 0.79650574229207483 0 0.14335651144331049 0.75565258250209677 0 0.1382744753146134 0.79650574229207483 0 0.18269480424590959 0.75905448272264375 0 0.1382744753146134 0.79650574229207483 0 0.18269480424590959 0.75905448272264375 0 0.17777405986036951 0.81832336108265358 0 0.2248999640082178 0.72584299459689172 0 0.18269480424590959 0.75905448272264375 0 0.22556077506376701 0.77837424984191617 0 0.22556077506376701 0.77837424984191617 0 0.21858834311891909 0.81980263716112767 0 0.26104540868854792 0.81401944968719064 0 0.22556077506376701 0.77837424984191617 0 0.21858834311891909 0.81980263716112767 0 0.17777405986036951 0.81832336108265358 0 0.18269480424590959 0.75905448272264375 0 0.22556077506376701 0.77837424984191617 0 0.17777405986036951 0.81832336108265358 0 0.21858834311891909 0.81980263716112767 0 0.19741632902693801 0.86755867406447229 0 0.17777405986036951 0.81832336108265358 0 0.21858834311891909 0.81980263716112767 0 0.2401283238295133 0.85648409884788523 0 0.26104540868854792 0.81401944968719064 0 0.21858834311891909 0.81980263716112767 0 0.2401283238295133 0.85648409884788523 0 0.19741632902693801 0.86755867406447229 0 0.19741632902693801 0.86755867406447229 0 0.17777405986036951 0.81832336108265358 0 0.14474682429600511 0.85524784522713515 0 0.19741632902693801 0.86755867406447229 0 0.14474682429600511 0.85524784522713515 0 0.16206583317966519 0.89685560785156404 0 0.1382744753146134 0.79650574229207483 0 0.17777405986036951 0.81832336108265358 0 0.14474682429600511 0.85524784522713515 0 0.1074251789111534 0.83564394292147814 0 0.1382744753146134 0.79650574229207483 0 0.14474682429600511 0.85524784522713515 0 0.1241151115713819 0.9045666525468371 0 0.14474682429600511 0.85524784522713515 0 0.16206583317966519 0.89685560785156404 0 0.1241151115713819 0.9045666525468371 0 0.16206583317966519 0.89685560785156404 0 0.14617343800780541 0.93808063414349496 0 0.16206583317966519 0.89685560785156404 0 0.19901705110390991 0.9175543425573498 0 0.14617343800780541 0.93808063414349496 0 0.19741632902693801 0.86755867406447229 0 0.16206583317966519 0.89685560785156404 0 0.19901705110390991 0.9175543425573498 0 0.19741632902693801 0.86755867406447229 0 0.24536017905392571 0.90704567837671446 0 0.19901705110390991 0.9175543425573498 0 0.2401283238295133 0.85648409884788523 0 0.19741632902693801 0.86755867406447229 0 0.24536017905392571 0.90704567837671446 0 0.24536017905392571 0.90704567837671446 0 0.19901705110390991 0.9175543425573498 0 0.22850979588452081 0.95594428570238643 0 0.19901705110390991 0.9175543425573498 0 0.22850979588452081 0.95594428570238643 0 0.18474005699953849 0.96231585248064622 0 0.24536017905392571 0.90704567837671446 0 0.22850979588452081 0.95594428570238643 0 0.27609987656793722 0.94991445621608572 0 0.22850979588452081 0.95594428570238643 0 0.20000000000083221 1 0 0.25000000000104028 1 0 0.22850979588452081 0.95594428570238643 0 0.20000000000083221 1 0 0.18474005699953849 0.96231585248064622 0 0.20000000000083221 1 0 0.18474005699953849 0.96231585248064622 0 0.15000000000062411 1 0 0.19901705110390991 0.9175543425573498 0 0.18474005699953849 0.96231585248064622 0 0.14617343800780541 0.93808063414349496 0 0.18474005699953849 0.96231585248064622 0 0.14617343800780541 0.93808063414349496 0 0.15000000000062411 1 0 0.10266856499240549 0.95548163909968886 0 0.14617343800780541 0.93808063414349496 0 0.15000000000062411 1 0 0.35000000000145642 1 0 0.36184234618600131 0.96443954459096326 0 0.32544832635163229 0.95485394099568932 0 0.35000000000145642 1 0 0.36184234618600131 0.96443954459096326 0 0.40000000000166441 1 0 0.36184234618600131 0.96443954459096326 0 0.32544832635163229 0.95485394099568932 0 0.35752321586431363 0.9185439911803448 0 0.36184234618600131 0.96443954459096326 0 0.35752321586431363 0.9185439911803448 0 0.39641108128798319 0.94356127926187128 0 0.35000000000145642 1 0 0.32544832635163229 0.95485394099568932 0 0.30000000000124832 1 0 0.30000000000124832 1 0 0.25000000000104028 1 0 0.27609987656793722 0.94991445621608572 0 0.22850979588452081 0.95594428570238643 0 0.25000000000104028 1 0 0.27609987656793722 0.94991445621608572 0 0.32544832635163229 0.95485394099568932 0 0.30000000000124832 1 0 0.27609987656793722 0.94991445621608572 0 0.32544832635163229 0.95485394099568932 0 0.27609987656793722 0.94991445621608572 0 0.30864387279288652 0.89906554525974958 0 0.24536017905392571 0.90704567837671446 0 0.27270076654418179 0.87751467830216623 0 0.30864387279288652 0.89906554525974958 0 0.24536017905392571 0.90704567837671446 0 0.27609987656793722 0.94991445621608572 0 0.30864387279288652 0.89906554525974958 0 0.2401283238295133 0.85648409884788523 0 0.24536017905392571 0.90704567837671446 0 0.27270076654418179 0.87751467830216623 0 0.30864387279288652 0.89906554525974958 0 0.35752321586431363 0.9185439911803448 0 0.35864759629805099 0.87963482415279515 0 0.32544832635163229 0.95485394099568932 0 0.30864387279288652 0.89906554525974958 0 0.35752321586431363 0.9185439911803448 0 0.35752321586431363 0.9185439911803448 0 0.35864759629805099 0.87963482415279515 0 0.39767323751400468 0.89584229130535065 0 0.35864759629805099 0.87963482415279515 0 0.33403534827021109 0.84402799729020661 0 0.39536230704883951 0.84069429572832477 0 0.33403534827021109 0.84402799729020661 0 0.35642984951668422 0.80994399665655703 0 0.39536230704883951 0.84069429572832477 0 0.33403534827021109 0.84402799729020661 0 0.30857225866488791 0.81101973481716805 0 0.35642984951668422 0.80994399665655703 0 0.30864387279288652 0.89906554525974958 0 0.35864759629805099 0.87963482415279515 0 0.33403534827021109 0.84402799729020661 0 0.30864387279288652 0.89906554525974958 0 0.33403534827021109 0.84402799729020661 0 0.29209212897034281 0.84715728365233667 0 0.27270076654418179 0.87751467830216623 0 0.30864387279288652 0.89906554525974958 0 0.29209212897034281 0.84715728365233667 0 0.2401283238295133 0.85648409884788523 0 0.27270076654418179 0.87751467830216623 0 0.29209212897034281 0.84715728365233667 0 0.2401283238295133 0.85648409884788523 0 0.29209212897034281 0.84715728365233667 0 0.26104540868854792 0.81401944968719064 0 0.29209212897034281 0.84715728365233667 0 0.26104540868854792 0.81401944968719064 0 0.30857225866488791 0.81101973481716805 0 0.33403534827021109 0.84402799729020661 0 0.29209212897034281 0.84715728365233667 0 0.30857225866488791 0.81101973481716805 0 0.26104540868854792 0.81401944968719064 0 0.30857225866488791 0.81101973481716805 0 0.2792923945214143 0.77665808831789485 0 0.30857225866488791 0.81101973481716805 0 0.2792923945214143 0.77665808831789485 0 0.33123028043633618 0.77629643437932982 0 0.22556077506376701 0.77837424984191617 0 0.26104540868854792 0.81401944968719064 0 0.2792923945214143 0.77665808831789485 0 0.2792923945214143 0.77665808831789485 0 0.25676291524611189 0.7436741304886243 0 0.29904318922293632 0.74132814928635593 0 0.22556077506376701 0.77837424984191617 0 0.2792923945214143 0.77665808831789485 0 0.25676291524611189 0.7436741304886243 0 0.2792923945214143 0.77665808831789485 0 0.33123028043633618 0.77629643437932982 0 0.29904318922293632 0.74132814928635593 0 0.33123028043633618 0.77629643437932982 0 0.29904318922293632 0.74132814928635593 0 0.35415581127540569 0.73730480045900215 0 0.30857225866488791 0.81101973481716805 0 0.33123028043633618 0.77629643437932982 0 0.35642984951668422 0.80994399665655703 0 0.33123028043633618 0.77629643437932982 0 0.35642984951668422 0.80994399665655703 0 0.38586766253264881 0.78219501014812498 0 0.33123028043633618 0.77629643437932982 0 0.38586766253264881 0.78219501014812498 0 0.35415581127540569 0.73730480045900215 0 0.38586766253264881 0.78219501014812498 0 0.42676259796334498 0.76772545931379299 0 0.40326160981139969 0.73346192995102844 0 0.38586766253264881 0.78219501014812498 0 0.35415581127540569 0.73730480045900215 0 0.40326160981139969 0.73346192995102844 0 0.38586766253264881 0.78219501014812498 0 0.42609163930740518 0.80361684430568059 0 0.39536230704883951 0.84069429572832477 0 0.35642984951668422 0.80994399665655703 0 0.38586766253264881 0.78219501014812498 0 0.39536230704883951 0.84069429572832477 0 0.38586766253264881 0.78219501014812498 0 0.42609163930740518 0.80361684430568059 0 0.42676259796334498 0.76772545931379299 0 0.42676259796334498 0.76772545931379299 0 0.4656888918609538 0.78493261229743638 0 0.45582236402875981 0.73896743678908217 0 0.4656888918609538 0.78493261229743638 0 0.45582236402875981 0.73896743678908217 0 0.50945740445113552 0.75476055527778108 0 0.4656888918609538 0.78493261229743638 0 0.50731287292894423 0.78963574450233831 0 0.50945740445113552 0.75476055527778108 0 0.4656888918609538 0.78493261229743638 0 0.50627822638148745 0.8263979829520941 0 0.50731287292894423 0.78963574450233831 0 0.42609163930740518 0.80361684430568059 0 0.4656888918609538 0.78493261229743638 0 0.45677673713123867 0.84253684404072415 0 0.42609163930740518 0.80361684430568059 0 0.42676259796334498 0.76772545931379299 0 0.4656888918609538 0.78493261229743638 0 0.4656888918609538 0.78493261229743638 0 0.45677673713123867 0.84253684404072415 0 0.50627822638148745 0.8263979829520941 0 0.45677673713123867 0.84253684404072415 0 0.50202631463681879 0.87892870825713787 0 0.50627822638148745 0.8263979829520941 0 0.45677673713123867 0.84253684404072415 0 0.44003836461056539 0.88093474584252718 0 0.50202631463681879 0.87892870825713787 0 0.45677673713123867 0.84253684404072415 0 0.39536230704883951 0.84069429572832477 0 0.44003836461056539 0.88093474584252718 0 0.39536230704883951 0.84069429572832477 0 0.39767323751400468 0.89584229130535065 0 0.44003836461056539 0.88093474584252718 0 0.42609163930740518 0.80361684430568059 0 0.45677673713123867 0.84253684404072415 0 0.39536230704883951 0.84069429572832477 0 0.35864759629805099 0.87963482415279515 0 0.39536230704883951 0.84069429572832477 0 0.39767323751400468 0.89584229130535065 0 0.35752321586431363 0.9185439911803448 0 0.39767323751400468 0.89584229130535065 0 0.39641108128798319 0.94356127926187128 0 0.39767323751400468 0.89584229130535065 0 0.4367309254023824 0.92065556789053882 0 0.39641108128798319 0.94356127926187128 0 0.39767323751400468 0.89584229130535065 0 0.4367309254023824 0.92065556789053882 0 0.44003836461056539 0.88093474584252718 0 0.4367309254023824 0.92065556789053882 0 0.44003836461056539 0.88093474584252718 0 0.47401147028110507 0.91529957330468115 0 0.44003836461056539 0.88093474584252718 0 0.47401147028110507 0.91529957330468115 0 0.50202631463681879 0.87892870825713787 0 0.47401147028110507 0.91529957330468115 0 0.47135117303824892 0.95556877749289892 0 0.52122150208832174 0.94089974453840242 0 0.47401147028110507 0.91529957330468115 0 0.52122150208832174 0.94089974453840242 0 0.50202631463681879 0.87892870825713787 0 0.4367309254023824 0.92065556789053882 0 0.47401147028110507 0.91529957330468115 0 0.47135117303824892 0.95556877749289892 0 0.4367309254023824 0.92065556789053882 0 0.47135117303824892 0.95556877749289892 0 0.4308986359464303 0.96395712492906194 0 0.47135117303824892 0.95556877749289892 0 0.50000000000205869 1 0 0.52122150208832174 0.94089974453840242 0 0.47135117303824892 0.95556877749289892 0 0.45000000000187229 1 0 0.50000000000205869 1 0 0.47135117303824892 0.95556877749289892 0 0.45000000000187229 1 0 0.4308986359464303 0.96395712492906194 0 0.45000000000187229 1 0 0.4308986359464303 0.96395712492906194 0 0.40000000000166441 1 0 0.4308986359464303 0.96395712492906194 0 0.39641108128798319 0.94356127926187128 0 0.40000000000166441 1 0 0.4367309254023824 0.92065556789053882 0 0.4308986359464303 0.96395712492906194 0 0.39641108128798319 0.94356127926187128 0 0.36184234618600131 0.96443954459096326 0 0.39641108128798319 0.94356127926187128 0 0.40000000000166441 1 0 0.33122374654748771 0.57588941099433744 0 0.31502927232353312 0.6134992213375432 0 0.35765792684946668 0.6000687869219653 0 0.31502927232353312 0.6134992213375432 0 0.35765792684946668 0.6000687869219653 0 0.35864735590330371 0.63903383440414463 0 0.35765792684946668 0.6000687869219653 0 0.35864735590330371 0.63903383440414463 0 0.39743091024207589 0.6239520004230239 0 0.33122374654748771 0.57588941099433744 0 0.35765792684946668 0.6000687869219653 0 0.37272913873093971 0.56192925302619479 0 0.37272913873093971 0.56192925302619479 0 0.33190227185843768 0.52715113583864037 0 0.38244435121258652 0.51653317813019495 0 0.33122374654748771 0.57588941099433744 0 0.37272913873093971 0.56192925302619479 0 0.33190227185843768 0.52715113583864037 0 0.35024835142131061 0.48654922671676981 0 0.33190227185843768 0.52715113583864037 0 0.38244435121258652 0.51653317813019495 0 0.33122374654748771 0.57588941099433744 0 0.33190227185843768 0.52715113583864037 0 0.29110487519241501 0.56588143995431495 0 0.33190227185843768 0.52715113583864037 0 0.28307294598219601 0.50789252727458634 0 0.29110487519241501 0.56588143995431495 0 0.31068898841644388 0.47541502461811092 0 0.33190227185843768 0.52715113583864037 0 0.28307294598219601 0.50789252727458634 0 0.23975172658309729 0.49475499200540818 0 0.28307294598219601 0.50789252727458634 0 0.25115337790845271 0.54719303014923271 0 0.28307294598219601 0.50789252727458634 0 0.25115337790845271 0.54719303014923271 0 0.29110487519241501 0.56588143995431495 0 0.25115337790845271 0.54719303014923271 0 0.29110487519241501 0.56588143995431495 0 0.26573297623774761 0.59828298563722948 0 0.33122374654748771 0.57588941099433744 0 0.31502927232353312 0.6134992213375432 0 0.29110487519241501 0.56588143995431495 0 0.31502927232353312 0.6134992213375432 0 0.29110487519241501 0.56588143995431495 0 0.26573297623774761 0.59828298563722948 0 0.31502927232353312 0.6134992213375432 0 0.26573297623774761 0.59828298563722948 0 0.27820712747429932 0.65530134213254643 0 0.2459498854893499 0.63248470766216769 0 0.26573297623774761 0.59828298563722948 0 0.27820712747429932 0.65530134213254643 0 0.2236846579037573 0.67380363126050236 0 0.27820712747429932 0.65530134213254643 0 0.26439878998046262 0.7048065392091396 0 0.27820712747429932 0.65530134213254643 0 0.31378396441836959 0.70157213313026345 0 0.32263089806001177 0.66003674931826484 0 0.27820712747429932 0.65530134213254643 0 0.26439878998046262 0.7048065392091396 0 0.31378396441836959 0.70157213313026345 0 0.31502927232353312 0.6134992213375432 0 0.27820712747429932 0.65530134213254643 0 0.32263089806001177 0.66003674931826484 0 0.25676291524611189 0.7436741304886243 0 0.26439878998046262 0.7048065392091396 0 0.29904318922293632 0.74132814928635593 0 0.26439878998046262 0.7048065392091396 0 0.29904318922293632 0.74132814928635593 0 0.31378396441836959 0.70157213313026345 0 0.29904318922293632 0.74132814928635593 0 0.31378396441836959 0.70157213313026345 0 0.35415581127540569 0.73730480045900215 0 0.31378396441836959 0.70157213313026345 0 0.36622285152418499 0.69092437780804039 0 0.35415581127540569 0.73730480045900215 0 0.36622285152418499 0.69092437780804039 0 0.35415581127540569 0.73730480045900215 0 0.40326160981139969 0.73346192995102844 0 0.31502927232353312 0.6134992213375432 0 0.32263089806001177 0.66003674931826484 0 0.35864735590330371 0.63903383440414463 0 0.31378396441836959 0.70157213313026345 0 0.36622285152418499 0.69092437780804039 0 0.32263089806001177 0.66003674931826484 0 0.36622285152418499 0.69092437780804039 0 0.32263089806001177 0.66003674931826484 0 0.35864735590330371 0.63903383440414463 0 0.36622285152418499 0.69092437780804039 0 0.35864735590330371 0.63903383440414463 0 0.3977710372045391 0.65868194622830212 0 0.35864735590330371 0.63903383440414463 0 0.3977710372045391 0.65868194622830212 0 0.39743091024207589 0.6239520004230239 0 0.36622285152418499 0.69092437780804039 0 0.3977710372045391 0.65868194622830212 0 0.43323420005758778 0.6913544522562407 0 0.3977710372045391 0.65868194622830212 0 0.43323420005758778 0.6913544522562407 0 0.43846182030517877 0.64845797726506715 0 0.43846182030517877 0.64845797726506715 0 0.43545892161006339 0.61093128915313821 0 0.39743091024207589 0.6239520004230239 0 0.3977710372045391 0.65868194622830212 0 0.43846182030517877 0.64845797726506715 0 0.39743091024207589 0.6239520004230239 0 0.36622285152418499 0.69092437780804039 0 0.40326160981139969 0.73346192995102844 0 0.43323420005758778 0.6913544522562407 0 0.40326160981139969 0.73346192995102844 0 0.43323420005758778 0.6913544522562407 0 0.45582236402875981 0.73896743678908217 0 0.42676259796334498 0.76772545931379299 0 0.40326160981139969 0.73346192995102844 0 0.45582236402875981 0.73896743678908217 0 0.43323420005758778 0.6913544522562407 0 0.45582236402875981 0.73896743678908217 0 0.5 0.69999999999999996 0 0.45582236402875981 0.73896743678908217 0 0.5 0.69999999999999996 0 0.50945740445113552 0.75476055527778108 0 0.43323420005758778 0.6913544522562407 0 0.47913475093885149 0.66010775372412711 0 0.5 0.69999999999999996 0 0.43846182030517877 0.64845797726506715 0 0.47913475093885149 0.66010775372412711 0 0.47095389620662098 0.61892551373708504 0 0.43846182030517877 0.64845797726506715 0 0.47095389620662098 0.61892551373708504 0 0.43545892161006339 0.61093128915313821 0 0.43323420005758778 0.6913544522562407 0 0.43846182030517877 0.64845797726506715 0 0.47913475093885149 0.66010775372412711 0 0.47913475093885149 0.66010775372412711 0 0.47095389620662098 0.61892551373708504 0 0.50715858906372158 0.63295939104129484 0 0.47095389620662098 0.61892551373708504 0 0.5166924242153631 0.59825134841919447 0 0.50715858906372158 0.63295939104129484 0 0.47095389620662098 0.61892551373708504 0 0.46666084890304671 0.57634471035397938 0 0.5166924242153631 0.59825134841919447 0 0.47095389620662098 0.61892551373708504 0 0.46666084890304671 0.57634471035397938 0 0.43545892161006339 0.61093128915313821 0 0.43545892161006339 0.61093128915313821 0 0.4089290844030305 0.58728915500154233 0 0.39743091024207589 0.6239520004230239 0 0.46666084890304671 0.57634471035397938 0 0.43545892161006339 0.61093128915313821 0 0.4089290844030305 0.58728915500154233 0 0.46666084890304671 0.57634471035397938 0 0.4089290844030305 0.58728915500154233 0 0.42644501560315817 0.54603747078095544 0 0.37272913873093971 0.56192925302619479 0 0.4089290844030305 0.58728915500154233 0 0.42644501560315817 0.54603747078095544 0 0.35765792684946668 0.6000687869219653 0 0.37272913873093971 0.56192925302619479 0 0.4089290844030305 0.58728915500154233 0 0.35765792684946668 0.6000687869219653 0 0.4089290844030305 0.58728915500154233 0 0.39743091024207589 0.6239520004230239 0 0.37272913873093971 0.56192925302619479 0 0.38244435121258652 0.51653317813019495 0 0.42644501560315817 0.54603747078095544 0 0.43507373378304309 0.49699695397193322 0 0.38244435121258652 0.51653317813019495 0 0.42644501560315817 0.54603747078095544 0 0.46666084890304671 0.57634471035397938 0 0.47793794143994173 0.52940715638744962 0 0.53245488764484505 0.55078124999999989 0 0.43507373378304309 0.49699695397193322 0 0.49102375406324739 0.49123754822244059 0 0.47793794143994173 0.52940715638744962 0 0.43507373378304309 0.49699695397193322 0 0.42644501560315817 0.54603747078095544 0 0.47793794143994173 0.52940715638744962 0 0.46666084890304671 0.57634471035397938 0 0.42644501560315817 0.54603747078095544 0 0.47793794143994173 0.52940715638744962 0 0.49102375406324739 0.49123754822244059 0 0.47793794143994173 0.52940715638744962 0 0.53330375813596242 0.50827942741749099 0 0.47793794143994173 0.52940715638744962 0 0.53245488764484505 0.55078124999999989 0 0.53330375813596242 0.50827942741749099 0 0.53245488764484505 0.55078124999999989 0 0.53330375813596242 0.50827942741749099 0 0.57435499076887508 0.54267261987897775 0 0.53245488764484505 0.55078124999999989 0 0.57435499076887508 0.54267261987897775 0 0.57412547362576272 0.58273804879550706 0 0.53330375813596242 0.50827942741749099 0 0.57611405284611883 0.50165903596042916 0 0.57435499076887508 0.54267261987897775 0 0.57611405284611883 0.50165903596042916 0 0.57435499076887508 0.54267261987897775 0 0.62042975506801734 0.54295974692364424 0 0.57435499076887508 0.54267261987897775 0 0.62042975506801734 0.54295974692364424 0 0.57412547362576272 0.58273804879550706 0 0.57611405284611883 0.50165903596042916 0 0.62042975506801734 0.54295974692364424 0 0.61547661924074692 0.48539576058873962 0 0.5991018319127801 0.62925360607495295 0 0.6405463747586706 0.63290524857395714 0 0.63065402604362242 0.59661356661633302 0 0.57412547362576272 0.58273804879550706 0 0.5991018319127801 0.62925360607495295 0 0.63065402604362242 0.59661356661633302 0 0.62042975506801734 0.54295974692364424 0 0.57412547362576272 0.58273804879550706 0 0.63065402604362242 0.59661356661633302 0 0.57412547362576272 0.58273804879550706 0 0.5498280205245758 0.6290146943450976 0 0.5991018319127801 0.62925360607495295 0 0.46666084890304671 0.57634471035397938 0 0.53245488764484505 0.55078124999999989 0 0.5166924242153631 0.59825134841919447 0 0.57412547362576272 0.58273804879550706 0 0.5166924242153631 0.59825134841919447 0 0.5498280205245758 0.6290146943450976 0 0.53245488764484505 0.55078124999999989 0 0.57412547362576272 0.58273804879550706 0 0.5166924242153631 0.59825134841919447 0 0.5166924242153631 0.59825134841919447 0 0.50715858906372158 0.63295939104129484 0 0.5498280205245758 0.6290146943450976 0 0.47913475093885149 0.66010775372412711 0 0.50715858906372158 0.63295939104129484 0 0.52584555706968406 0.66664215091846768 0 0.50715858906372158 0.63295939104129484 0 0.52584555706968406 0.66664215091846768 0 0.5498280205245758 0.6290146943450976 0 0.47913475093885149 0.66010775372412711 0 0.52584555706968406 0.66664215091846768 0 0.5 0.69999999999999996 0 0.52584555706968406 0.66664215091846768 0 0.54999999999999993 0.69999999999999996 0 0.57484956128872922 0.66573805030881994 0 0.52584555706968406 0.66664215091846768 0 0.5498280205245758 0.6290146943450976 0 0.57484956128872922 0.66573805030881994 0 0.5 0.69999999999999996 0 0.55363780716230748 0.74348740161571747 0 0.50945740445113552 0.75476055527778108 0 0.52584555706968406 0.66664215091846768 0 0.5 0.69999999999999996 0 0.54999999999999993 0.69999999999999996 0 0.5 0.69999999999999996 0 0.54999999999999993 0.69999999999999996 0 0.5 0.69999999999999996 0 0.54999999999999993 0.69999999999999996 0 0.55363780716230748 0.74348740161571747 0 0.55363780716230748 0.74348740161571747 0 0.59999999999999976 0.69999999999999996 0 0.59636844454254345 0.75937156204589151 0 0.54999999999999993 0.69999999999999996 0 0.59999999999999976 0.69999999999999996 0 0.54999999999999993 0.69999999999999996 0 0.59999999999999976 0.69999999999999996 0 0.57484956128872922 0.66573805030881994 0 0.54999999999999993 0.69999999999999996 0 0.55363780716230748 0.74348740161571747 0 0.59999999999999976 0.69999999999999996 0 0.59999999999999976 0.69999999999999996 0 0.6499999999999998 0.69999999999999996 0 0.59999999999999976 0.69999999999999996 0 0.62460753523532009 0.66851202781000296 0 0.6499999999999998 0.69999999999999996 0 0.59999999999999976 0.69999999999999996 0 0.63221990677827677 0.73442891067859706 0 0.59636844454254345 0.75937156204589151 0 0.5498280205245758 0.6290146943450976 0 0.57484956128872922 0.66573805030881994 0 0.5991018319127801 0.62925360607495295 0 0.59999999999999976 0.69999999999999996 0 0.57484956128872922 0.66573805030881994 0 0.62460753523532009 0.66851202781000296 0 0.57484956128872922 0.66573805030881994 0 0.62460753523532009 0.66851202781000296 0 0.5991018319127801 0.62925360607495295 0 0.62460753523532009 0.66851202781000296 0 0.5991018319127801 0.62925360607495295 0 0.6405463747586706 0.63290524857395714 0 0.62460753523532009 0.66851202781000296 0 0.6405463747586706 0.63290524857395714 0 0.675261390228442 0.65996937624687813 0 0.62460753523532009 0.66851202781000296 0 0.675261390228442 0.65996937624687813 0 0.6499999999999998 0.69999999999999996 0 0.675261390228442 0.65996937624687813 0 0.6499999999999998 0.69999999999999996 0 0.69999999999999984 0.69999999999999996 0 0.6405463747586706 0.63290524857395714 0 0.675261390228442 0.65996937624687813 0 0.67529834988829951 0.61613270668143583 0 0.63221990677827677 0.73442891067859706 0 0.66427993341343905 0.73232764502436276 0 0.64753070846764316 0.77332939069435502 0 0.63221990677827677 0.73442891067859706 0 0.6499999999999998 0.69999999999999996 0 0.66427993341343905 0.73232764502436276 0 0.59999999999999976 0.69999999999999996 0 0.63221990677827677 0.73442891067859706 0 0.6499999999999998 0.69999999999999996 0 0.6499999999999998 0.69999999999999996 0 0.69999999999999984 0.69999999999999996 0 0.6499999999999998 0.69999999999999996 0 0.66427993341343905 0.73232764502436276 0 0.69999999999999984 0.69999999999999996 0 0.66427993341343905 0.73232764502436276 0 0.69999999999999984 0.69999999999999996 0 0.6916490518212759 0.75387992374886192 0 0.69999999999999984 0.69999999999999996 0 0.72501250972655151 0.74067302935308721 0 0.6916490518212759 0.75387992374886192 0 0.69999999999999984 0.69999999999999996 0 0.74999999999999989 0.69999999999999996 0 0.72501250972655151 0.74067302935308721 0 0.69999999999999984 0.69999999999999996 0 0.74999999999999989 0.69999999999999996 0 0.72500000000000064 0.67022701834392062 0 0.69999999999999984 0.69999999999999996 0 0.74999999999999989 0.69999999999999996 0 0.74999999999999989 0.69999999999999996 0 0.72501250972655151 0.74067302935308721 0 0.75841349681148107 0.75422312624214749 0 0.675261390228442 0.65996937624687813 0 0.71406021706547751 0.63292083137662503 0 0.72500000000000064 0.67022701834392062 0 0.675261390228442 0.65996937624687813 0 0.71406021706547751 0.63292083137662503 0 0.67529834988829951 0.61613270668143583 0 0.675261390228442 0.65996937624687813 0 0.69999999999999984 0.69999999999999996 0 0.72500000000000064 0.67022701834392062 0 0.71406021706547751 0.63292083137662503 0 0.72500000000000064 0.67022701834392062 0 0.74994237037456724 0.62775548192980357 0 0.72500000000000064 0.67022701834392062 0 0.74994237037456724 0.62775548192980357 0 0.7750489929959945 0.66593931409600093 0 0.71406021706547751 0.63292083137662503 0 0.74994237037456724 0.62775548192980357 0 0.71809016091162536 0.58185040402320831 0 0.74994237037456724 0.62775548192980357 0 0.71809016091162536 0.58185040402320831 0 0.77293540622714185 0.59448302402785813 0 0.71406021706547751 0.63292083137662503 0 0.71809016091162536 0.58185040402320831 0 0.67529834988829951 0.61613270668143583 0 0.71809016091162536 0.58185040402320831 0 0.67569444444444449 0.53500863336860327 0 0.67323294229744413 0.57556450033612505 0 0.71809016091162536 0.58185040402320831 0 0.67529834988829951 0.61613270668143583 0 0.67323294229744413 0.57556450033612505 0 0.71809016091162536 0.58185040402320831 0 0.7152569930854884 0.5237994455134295 0 0.77151014687832564 0.54436834383023036 0 0.7152569930854884 0.5237994455134295 0 0.77151014687832564 0.54436834383023036 0 0.73947346780852752 0.49062440112282169 0 0.7152569930854884 0.5237994455134295 0 0.67569444444444449 0.53500863336860327 0 0.69385896817107129 0.48377516041410151 0 0.71809016091162536 0.58185040402320831 0 0.7152569930854884 0.5237994455134295 0 0.67569444444444449 0.53500863336860327 0 0.62042975506801734 0.54295974692364424 0 0.67569444444444449 0.53500863336860327 0 0.67323294229744413 0.57556450033612505 0 0.67569444444444449 0.53500863336860327 0 0.6541250972820879 0.49999999999999989 0 0.69385896817107129 0.48377516041410151 0 0.62042975506801734 0.54295974692364424 0 0.67569444444444449 0.53500863336860327 0 0.6541250972820879 0.49999999999999989 0 0.62042975506801734 0.54295974692364424 0 0.61547661924074692 0.48539576058873962 0 0.6541250972820879 0.49999999999999989 0 0.62042975506801734 0.54295974692364424 0 0.63065402604362242 0.59661356661633302 0 0.67323294229744413 0.57556450033612505 0 0.6405463747586706 0.63290524857395714 0 0.63065402604362242 0.59661356661633302 0 0.67529834988829951 0.61613270668143583 0 0.63065402604362242 0.59661356661633302 0 0.67529834988829951 0.61613270668143583 0 0.67323294229744413 0.57556450033612505 0 0.60000000000138687 1 0 0.62065498684670595 0.95224934003983619 0 0.57382506491224949 0.9629411906298494 0 0.60000000000138687 1 0 0.62065498684670595 0.95224934003983619 0 0.65000000000104008 1 0 0.62065498684670595 0.95224934003983619 0 0.57382506491224949 0.9629411906298494 0 0.57724883562309992 0.92155686857100794 0 0.60000000000138687 1 0 0.57382506491224949 0.9629411906298494 0 0.55000000000173355 1 0 0.55000000000173355 1 0 0.50000000000205869 1 0 0.52122150208832174 0.94089974453840242 0 0.57382506491224949 0.9629411906298494 0 0.52122150208832174 0.94089974453840242 0 0.57724883562309992 0.92155686857100794 0 0.57382506491224949 0.9629411906298494 0 0.55000000000173355 1 0 0.52122150208832174 0.94089974453840242 0 0.52122150208832174 0.94089974453840242 0 0.54783390826260769 0.89287767010860219 0 0.57724883562309992 0.92155686857100794 0 0.52122150208832174 0.94089974453840242 0 0.50202631463681879 0.87892870825713787 0 0.54783390826260769 0.89287767010860219 0 0.54783390826260769 0.89287767010860219 0 0.5832743223239254 0.88483152652961872 0 0.55899371797446828 0.85003102233514438 0 0.54783390826260769 0.89287767010860219 0 0.5832743223239254 0.88483152652961872 0 0.57724883562309992 0.92155686857100794 0 0.5832743223239254 0.88483152652961872 0 0.57724883562309992 0.92155686857100794 0 0.61885627562261258 0.90282959257498208 0 0.62065498684670595 0.95224934003983619 0 0.57724883562309992 0.92155686857100794 0 0.61885627562261258 0.90282959257498208 0 0.5832743223239254 0.88483152652961872 0 0.61885627562261258 0.90282959257498208 0 0.61343887413683884 0.856862479058357 0 0.61343887413683884 0.856862479058357 0 0.60294066490120068 0.80851322453934582 0 0.65005442820240822 0.82644988530054031 0 0.61343887413683884 0.856862479058357 0 0.55899371797446828 0.85003102233514438 0 0.60294066490120068 0.80851322453934582 0 0.55899371797446828 0.85003102233514438 0 0.54782696902220018 0.79245182748204157 0 0.60294066490120068 0.80851322453934582 0 0.5832743223239254 0.88483152652961872 0 0.61343887413683884 0.856862479058357 0 0.55899371797446828 0.85003102233514438 0 0.50202631463681879 0.87892870825713787 0 0.54783390826260769 0.89287767010860219 0 0.55899371797446828 0.85003102233514438 0 0.50202631463681879 0.87892870825713787 0 0.55899371797446828 0.85003102233514438 0 0.50627822638148745 0.8263979829520941 0 0.55899371797446828 0.85003102233514438 0 0.50627822638148745 0.8263979829520941 0 0.54782696902220018 0.79245182748204157 0 0.50627822638148745 0.8263979829520941 0 0.54782696902220018 0.79245182748204157 0 0.50731287292894423 0.78963574450233831 0 0.54782696902220018 0.79245182748204157 0 0.50731287292894423 0.78963574450233831 0 0.50945740445113552 0.75476055527778108 0 0.55363780716230748 0.74348740161571747 0 0.54782696902220018 0.79245182748204157 0 0.50945740445113552 0.75476055527778108 0 0.55363780716230748 0.74348740161571747 0 0.54782696902220018 0.79245182748204157 0 0.59636844454254345 0.75937156204589151 0 0.54782696902220018 0.79245182748204157 0 0.60294066490120068 0.80851322453934582 0 0.59636844454254345 0.75937156204589151 0 0.60294066490120068 0.80851322453934582 0 0.59636844454254345 0.75937156204589151 0 0.64753070846764316 0.77332939069435502 0 0.63221990677827677 0.73442891067859706 0 0.59636844454254345 0.75937156204589151 0 0.64753070846764316 0.77332939069435502 0 0.60294066490120068 0.80851322453934582 0 0.64753070846764316 0.77332939069435502 0 0.65005442820240822 0.82644988530054031 0 0.64753070846764316 0.77332939069435502 0 0.68024162096458085 0.79868546898116533 0 0.65005442820240822 0.82644988530054031 0 0.64753070846764316 0.77332939069435502 0 0.68024162096458085 0.79868546898116533 0 0.6916490518212759 0.75387992374886192 0 0.66427993341343905 0.73232764502436276 0 0.64753070846764316 0.77332939069435502 0 0.6916490518212759 0.75387992374886192 0 0.72501250972655151 0.74067302935308721 0 0.6916490518212759 0.75387992374886192 0 0.72500000000000064 0.7952620967744265 0 0.72501250972655151 0.74067302935308721 0 0.72500000000000064 0.7952620967744265 0 0.75841349681148107 0.75422312624214749 0 0.68024162096458085 0.79868546898116533 0 0.6916490518212759 0.75387992374886192 0 0.72500000000000064 0.7952620967744265 0 0.68024162096458085 0.79868546898116533 0 0.72500000000000064 0.7952620967744265 0 0.68697391633157634 0.84450604838764298 0 0.72500000000000064 0.7952620967744265 0 0.72863726579783861 0.85390518901155588 0 0.68697391633157634 0.84450604838764298 0 0.72500000000000064 0.7952620967744265 0 0.72863726579783861 0.85390518901155588 0 0.76901770135486491 0.84293557325473656 0 0.72863726579783861 0.85390518901155588 0 0.68697391633157634 0.84450604838764298 0 0.7250000000005199 0.89375000000045834 0 0.68697391633157634 0.84450604838764298 0 0.66412543161245952 0.88015090885499059 0 0.7250000000005199 0.89375000000045834 0 0.68697391633157634 0.84450604838764298 0 0.65005442820240822 0.82644988530054031 0 0.66412543161245952 0.88015090885499059 0 0.68024162096458085 0.79868546898116533 0 0.68697391633157634 0.84450604838764298 0 0.65005442820240822 0.82644988530054031 0 0.61343887413683884 0.856862479058357 0 0.65005442820240822 0.82644988530054031 0 0.66412543161245952 0.88015090885499059 0 0.61885627562261258 0.90282959257498208 0 0.61343887413683884 0.856862479058357 0 0.66412543161245952 0.88015090885499059 0 0.61885627562261258 0.90282959257498208 0 0.65507451745379841 0.92229208810758578 0 0.66412543161245952 0.88015090885499059 0 0.62065498684670595 0.95224934003983619 0 0.61885627562261258 0.90282959257498208 0 0.65507451745379841 0.92229208810758578 0 0.65507451745379841 0.92229208810758578 0 0.68987011941058407 0.92105047536677087 0 0.68015064798562208 0.95924320340003011 0 0.65507451745379841 0.92229208810758578 0 0.66412543161245952 0.88015090885499059 0 0.68987011941058407 0.92105047536677087 0 0.66412543161245952 0.88015090885499059 0 0.7250000000005199 0.89375000000045834 0 0.68987011941058407 0.92105047536677087 0 0.72863726579783861 0.85390518901155588 0 0.7250000000005199 0.89375000000045834 0 0.76891166905518427 0.88835469571185499 0 0.7250000000005199 0.89375000000045834 0 0.7250000000005199 0.94981617647078953 0 0.75729602384198635 0.92353652857884294 0 0.7250000000005199 0.89375000000045834 0 0.68987011941058407 0.92105047536677087 0 0.7250000000005199 0.94981617647078953 0 0.68987011941058407 0.92105047536677087 0 0.7250000000005199 0.94981617647078953 0 0.68015064798562208 0.95924320340003011 0 0.7250000000005199 0.94981617647078953 0 0.7000000000006934 1 0 0.75000000000034661 1 0 0.7250000000005199 0.94981617647078953 0 0.75000000000034661 1 0 0.770759834363826 0.95919399014344442 0 0.7250000000005199 0.94981617647078953 0 0.7000000000006934 1 0 0.68015064798562208 0.95924320340003011 0 0.7000000000006934 1 0 0.68015064798562208 0.95924320340003011 0 0.65000000000104008 1 0 0.62065498684670595 0.95224934003983619 0 0.65507451745379841 0.92229208810758578 0 0.68015064798562208 0.95924320340003011 0 0.62065498684670595 0.95224934003983619 0 0.68015064798562208 0.95924320340003011 0 0.65000000000104008 1 0 0.84999999999965292 1 0 0.85170973911348691 0.93569607295217616 0 0.89898474358632463 0.95391965591118966 0 0.84999999999965292 1 0 0.81486180804382891 0.96321394949790495 0 0.85170973911348691 0.93569607295217616 0 0.81486180804382891 0.96321394949790495 0 0.79680861578988083 0.92656778056766709 0 0.85170973911348691 0.93569607295217616 0 0.84999999999965292 1 0 0.81486180804382891 0.96321394949790495 0 0.79999999999999982 1 0 0.81486180804382891 0.96321394949790495 0 0.79999999999999982 1 0 0.770759834363826 0.95919399014344442 0 0.79999999999999982 1 0 0.75000000000034661 1 0 0.770759834363826 0.95919399014344442 0 0.7250000000005199 0.94981617647078953 0 0.770759834363826 0.95919399014344442 0 0.75729602384198635 0.92353652857884294 0 0.81486180804382891 0.96321394949790495 0 0.770759834363826 0.95919399014344442 0 0.79680861578988083 0.92656778056766709 0 0.79680861578988083 0.92656778056766709 0 0.75729602384198635 0.92353652857884294 0 0.76891166905518427 0.88835469571185499 0 0.770759834363826 0.95919399014344442 0 0.79680861578988083 0.92656778056766709 0 0.75729602384198635 0.92353652857884294 0 0.7250000000005199 0.89375000000045834 0 0.75729602384198635 0.92353652857884294 0 0.76891166905518427 0.88835469571185499 0 0.79680861578988083 0.92656778056766709 0 0.76891166905518427 0.88835469571185499 0 0.81159157511211755 0.88795995483179491 0 0.81159157511211755 0.88795995483179491 0 0.85170973911348691 0.93569607295217616 0 0.85600844944837662 0.88483418979512773 0 0.79680861578988083 0.92656778056766709 0 0.81159157511211755 0.88795995483179491 0 0.85170973911348691 0.93569607295217616 0 0.85170973911348691 0.93569607295217616 0 0.85600844944837662 0.88483418979512773 0 0.90416666666660628 0.9041666666666166 0 0.85600844944837662 0.88483418979512773 0 0.82709327591091286 0.84937141670920724 0 0.88088768115933802 0.84674609810493673 0 0.82709327591091286 0.84937141670920724 0 0.84725310900444062 0.80779732082917555 0 0.88088768115933802 0.84674609810493673 0 0.82709327591091286 0.84937141670920724 0 0.80041942726660109 0.81543261647703358 0 0.84725310900444062 0.80779732082917555 0 0.81159157511211755 0.88795995483179491 0 0.85600844944837662 0.88483418979512773 0 0.82709327591091286 0.84937141670920724 0 0.76891166905518427 0.88835469571185499 0 0.81159157511211755 0.88795995483179491 0 0.76901770135486491 0.84293557325473656 0 0.81159157511211755 0.88795995483179491 0 0.82709327591091286 0.84937141670920724 0 0.76901770135486491 0.84293557325473656 0 0.72863726579783861 0.85390518901155588 0 0.76891166905518427 0.88835469571185499 0 0.76901770135486491 0.84293557325473656 0 0.76901770135486491 0.84293557325473656 0 0.80041942726660109 0.81543261647703358 0 0.77094201086366854 0.79647480515688507 0 0.82709327591091286 0.84937141670920724 0 0.76901770135486491 0.84293557325473656 0 0.80041942726660109 0.81543261647703358 0 0.80041942726660109 0.81543261647703358 0 0.77094201086366854 0.79647480515688507 0 0.80185942888539485 0.77452061303608133 0 0.72500000000000064 0.7952620967744265 0 0.77094201086366854 0.79647480515688507 0 0.75841349681148107 0.75422312624214749 0 0.72500000000000064 0.7952620967744265 0 0.76901770135486491 0.84293557325473656 0 0.77094201086366854 0.79647480515688507 0 0.77094201086366854 0.79647480515688507 0 0.75841349681148107 0.75422312624214749 0 0.80185942888539485 0.77452061303608133 0 0.75841349681148107 0.75422312624214749 0 0.80185942888539485 0.77452061303608133 0 0.78578450296893509 0.73292684821144505 0 0.80185942888539485 0.77452061303608133 0 0.84725310900444062 0.80779732082917555 0 0.85491058998424563 0.76004753345552634 0 0.80185942888539485 0.77452061303608133 0 0.85491058998424563 0.76004753345552634 0 0.81864958914779962 0.73589050177899629 0 0.80041942726660109 0.81543261647703358 0 0.80185942888539485 0.77452061303608133 0 0.84725310900444062 0.80779732082917555 0 0.84725310900444062 0.80779732082917555 0 0.85491058998424563 0.76004753345552634 0 0.90299850604011456 0.79563452813489832 0 0.85491058998424563 0.76004753345552634 0 0.90299850604011456 0.79563452813489832 0 0.89999166460796554 0.74528934923809909 0 0.90299850604011456 0.79563452813489832 0 0.94399509803918602 0.75600490196082126 0 0.95386563387742829 0.80414874155775029 0 0.90299850604011456 0.79563452813489832 0 0.94399509803918602 0.75600490196082126 0 0.89999166460796554 0.74528934923809909 0 0.94399509803918602 0.75600490196082126 0 0.97435614836745565 0.77499999999987745 0 0.95386563387742829 0.80414874155775029 0 0.94399509803918602 0.75600490196082126 0 0.97435614836745565 0.77499999999987745 0 0.97166519676947294 0.73337114490064459 0 0.97435614836745565 0.77499999999987745 0 0.97166519676947294 0.73337114490064459 0 1 0.74999999999993494 0 0.97435614836745565 0.77499999999987745 0 1 0.7999999999998193 0 1 0.74999999999993494 0 0.97435614836745565 0.77499999999987745 0 1 0.7999999999998193 0 0.95386563387742829 0.80414874155775029 0 1 0.84999999999982645 0 0.93677536231884972 0.85000000000000286 0 0.95391631417670719 0.89584263333814784 0 0.95386563387742829 0.80414874155775029 0 1 0.84999999999982645 0 0.93677536231884972 0.85000000000000286 0 1 0.7999999999998193 0 0.95386563387742829 0.80414874155775029 0 1 0.84999999999982645 0 0.93677536231884972 0.85000000000000286 0 0.88088768115933802 0.84674609810493673 0 0.90416666666660628 0.9041666666666166 0 0.90299850604011456 0.79563452813489832 0 0.95386563387742829 0.80414874155775029 0 0.93677536231884972 0.85000000000000286 0 0.90299850604011456 0.79563452813489832 0 0.93677536231884972 0.85000000000000286 0 0.88088768115933802 0.84674609810493673 0 0.84725310900444062 0.80779732082917555 0 0.90299850604011456 0.79563452813489832 0 0.88088768115933802 0.84674609810493673 0 0.85600844944837662 0.88483418979512773 0 0.88088768115933802 0.84674609810493673 0 0.90416666666660628 0.9041666666666166 0 0.85170973911348691 0.93569607295217616 0 0.90416666666660628 0.9041666666666166 0 0.89898474358632463 0.95391965591118966 0 0.90416666666660628 0.9041666666666166 0 0.95391631417670719 0.89584263333814784 0 0.94399509803919068 0.9439950980391687 0 0.90416666666660628 0.9041666666666166 0 0.94399509803919068 0.9439950980391687 0 0.89898474358632463 0.95391965591118966 0 0.93677536231884972 0.85000000000000286 0 0.90416666666660628 0.9041666666666166 0 0.95391631417670719 0.89584263333814784 0 1 0.84999999999982645 0 0.95391631417670719 0.89584263333814784 0 1 0.8999999999998336 0 1 0.8999999999998336 0 0.97435614836744289 0.92499999999990257 0 1 0.94999999999997109 0 0.95391631417670719 0.89584263333814784 0 1 0.8999999999998336 0 0.97435614836744289 0.92499999999990257 0 0.95391631417670719 0.89584263333814784 0 0.97435614836744289 0.92499999999990257 0 0.94399509803919068 0.9439950980391687 0 0.97435614836744289 0.92499999999990257 0 0.94399509803919068 0.9439950980391687 0 0.97166519676946206 0.96662885509935492 0 0.97435614836744289 0.92499999999990257 0 0.97166519676946206 0.96662885509935492 0 1 0.94999999999997109 0 0.97166519676946206 0.96662885509935492 0 1 0.94999999999997109 0 1 1 0 0.97166519676946206 0.96662885509935492 0 1 1 0 0.94999999999979179 1 0 0.94399509803919068 0.9439950980391687 0 0.97166519676946206 0.96662885509935492 0 0.94999999999979179 1 0 0.94999999999979179 1 0 0.89898474358632463 0.95391965591118966 0 0.89999999999958358 1 0 0.94399509803919068 0.9439950980391687 0 0.94999999999979179 1 0 0.89898474358632463 0.95391965591118966 0 0.84999999999965292 1 0 0.89898474358632463 0.95391965591118966 0 0.89999999999958358 1 0 0.81723410853263523 0.59419663659258926 0 0.86956835336234861 0.571283299838105 0 0.82862096804812391 0.55037090955459045 0 0.81723410853263523 0.59419663659258926 0 0.87159648282691515 0.61285406320581504 0 0.83758014339878906 0.63222013025741819 0 0.81723410853263523 0.59419663659258926 0 0.79884539758237771 0.62875045078114233 0 0.83758014339878906 0.63222013025741819 0 0.81723410853263523 0.59419663659258926 0 0.87159648282691515 0.61285406320581504 0 0.86956835336234861 0.571283299838105 0 0.86956835336234861 0.571283299838105 0 0.86907294890112186 0.52008116128001669 0 0.82862096804812391 0.55037090955459045 0 0.86907294890112186 0.52008116128001669 0 0.81441713509985358 0.51161854125224959 0 0.82862096804812391 0.55037090955459045 0 0.86907294890112186 0.52008116128001669 0 0.81441713509985358 0.51161854125224959 0 0.84723782639812573 0.48638347960178252 0 0.81441713509985358 0.51161854125224959 0 0.82862096804812391 0.55037090955459045 0 0.77151014687832564 0.54436834383023036 0 0.81441713509985358 0.51161854125224959 0 0.77151014687832564 0.54436834383023036 0 0.77846603114747959 0.49850927265137401 0 0.77151014687832564 0.54436834383023036 0 0.77846603114747959 0.49850927265137401 0 0.73947346780852752 0.49062440112282169 0 0.71809016091162536 0.58185040402320831 0 0.77151014687832564 0.54436834383023036 0 0.77293540622714185 0.59448302402785813 0 0.81723410853263523 0.59419663659258926 0 0.77151014687832564 0.54436834383023036 0 0.77293540622714185 0.59448302402785813 0 0.81723410853263523 0.59419663659258926 0 0.82862096804812391 0.55037090955459045 0 0.77151014687832564 0.54436834383023036 0 0.81723410853263523 0.59419663659258926 0 0.77293540622714185 0.59448302402785813 0 0.79884539758237771 0.62875045078114233 0 0.74994237037456724 0.62775548192980357 0 0.77293540622714185 0.59448302402785813 0 0.79884539758237771 0.62875045078114233 0 0.74994237037456724 0.62775548192980357 0 0.7750489929959945 0.66593931409600093 0 0.79884539758237771 0.62875045078114233 0 0.74999999999999989 0.69999999999999996 0 0.72500000000000064 0.67022701834392062 0 0.7750489929959945 0.66593931409600093 0 0.7750489929959945 0.66593931409600093 0 0.79999999999999982 0.69999999999999996 0 0.82457059160610424 0.66831947184359608 0 0.7750489929959945 0.66593931409600093 0 0.79884539758237771 0.62875045078114233 0 0.82457059160610424 0.66831947184359608 0 0.74999999999999989 0.69999999999999996 0 0.75841349681148107 0.75422312624214749 0 0.78578450296893509 0.73292684821144505 0 0.74999999999999989 0.69999999999999996 0 0.79999999999999982 0.69999999999999996 0 0.78578450296893509 0.73292684821144505 0 0.74999999999999989 0.69999999999999996 0 0.7750489929959945 0.66593931409600093 0 0.79999999999999982 0.69999999999999996 0 0.74999999999999989 0.69999999999999996 0 0.79999999999999982 0.69999999999999996 0 0.80185942888539485 0.77452061303608133 0 0.78578450296893509 0.73292684821144505 0 0.81864958914779962 0.73589050177899629 0 0.79999999999999982 0.69999999999999996 0 0.78578450296893509 0.73292684821144505 0 0.81864958914779962 0.73589050177899629 0 0.85491058998424563 0.76004753345552634 0 0.81864958914779962 0.73589050177899629 0 0.84999999999999987 0.69999999999999996 0 0.79999999999999982 0.69999999999999996 0 0.84999999999999987 0.69999999999999996 0 0.79999999999999982 0.69999999999999996 0 0.84999999999999987 0.69999999999999996 0 0.82457059160610424 0.66831947184359608 0 0.79999999999999982 0.69999999999999996 0 0.81864958914779962 0.73589050177899629 0 0.84999999999999987 0.69999999999999996 0 0.84999999999999987 0.69999999999999996 0 0.89999999999999991 0.69999999999999996 0 0.85491058998424563 0.76004753345552634 0 0.84999999999999987 0.69999999999999996 0 0.89999166460796554 0.74528934923809909 0 0.79884539758237771 0.62875045078114233 0 0.83758014339878906 0.63222013025741819 0 0.82457059160610424 0.66831947184359608 0 0.84999999999999987 0.69999999999999996 0 0.82457059160610424 0.66831947184359608 0 0.87712158428786946 0.65709029563313581 0 0.87159648282691515 0.61285406320581504 0 0.83758014339878906 0.63222013025741819 0 0.87712158428786946 0.65709029563313581 0 0.83758014339878906 0.63222013025741819 0 0.82457059160610424 0.66831947184359608 0 0.87712158428786946 0.65709029563313581 0 0.87712158428786946 0.65709029563313581 0 0.92057473616084773 0.66770436535372446 0 0.91750694127105259 0.63017627779935648 0 0.87159648282691515 0.61285406320581504 0 0.87712158428786946 0.65709029563313581 0 0.91750694127105259 0.63017627779935648 0 0.84999999999999987 0.69999999999999996 0 0.87712158428786946 0.65709029563313581 0 0.89999999999999991 0.69999999999999996 0 0.87712158428786946 0.65709029563313581 0 0.92057473616084773 0.66770436535372446 0 0.89999999999999991 0.69999999999999996 0 0.92057473616084773 0.66770436535372446 0 0.91750694127105259 0.63017627779935648 0 0.9578014258160763 0.65787212321113708 0 0.84999999999999987 0.69999999999999996 0 0.89999166460796554 0.74528934923809909 0 0.89999999999999991 0.69999999999999996 0 0.89999999999999991 0.69999999999999996 0 0.94999999999999996 0.69999999999999996 0 0.92057473616084773 0.66770436535372446 0 0.89999999999999991 0.69999999999999996 0 0.94999999999999996 0.69999999999999996 0 0.89999166460796554 0.74528934923809909 0 0.89999999999999991 0.69999999999999996 0 0.94999999999999996 0.69999999999999996 0 0.94399509803918602 0.75600490196082126 0 0.89999166460796554 0.74528934923809909 0 0.94999999999999996 0.69999999999999996 0 0.94399509803918602 0.75600490196082126 0 0.94999999999999996 0.69999999999999996 0 0.97166519676947294 0.73337114490064459 0 0.94999999999999996 0.69999999999999996 0 1 0.69999999999999996 0 0.94999999999999996 0.69999999999999996 0 1 0.69999999999999996 0 0.97166519676947294 0.73337114490064459 0 1 0.69999999999999996 0 0.97166519676947294 0.73337114490064459 0 1 0.74999999999993494 0 0.91750694127105259 0.63017627779935648 0 0.9578014258160763 0.65787212321113708 0 0.95867599106212187 0.60011091146651041 0 0.92057473616084773 0.66770436535372446 0 0.94999999999999996 0.69999999999999996 0 0.9578014258160763 0.65787212321113708 0 0.94999999999999996 0.69999999999999996 0 1 0.69999999999999996 0 0.9578014258160763 0.65787212321113708 0 1 0.69999999999999996 0 0.9578014258160763 0.65787212321113708 0 1 0.64999999999986979 0 0.9578014258160763 0.65787212321113708 0 1 0.64999999999986979 0 0.95867599106212187 0.60011091146651041 0 0.95867599106212187 0.60011091146651041 0 0.93732437411268477 0.55911392101136159 0 1 0.54999999999963112 0 1 0.64999999999986979 0 1 0.59999999999973963 0 0.95867599106212187 0.60011091146651041 0 1 0.59999999999973963 0 0.95867599106212187 0.60011091146651041 0 1 0.54999999999963112 0 0.91750694127105259 0.63017627779935648 0 0.95867599106212187 0.60011091146651041 0 0.91143117093204207 0.58709913730335972 0 0.95867599106212187 0.60011091146651041 0 0.91143117093204207 0.58709913730335972 0 0.93732437411268477 0.55911392101136159 0 0.86956835336234861 0.571283299838105 0 0.91143117093204207 0.58709913730335972 0 0.90900154012161016 0.53607784105648792 0 0.87159648282691515 0.61285406320581504 0 0.86956835336234861 0.571283299838105 0 0.91143117093204207 0.58709913730335972 0 0.87159648282691515 0.61285406320581504 0 0.91750694127105259 0.63017627779935648 0 0.91143117093204207 0.58709913730335972 0 0.86907294890112186 0.52008116128001669 0 0.90900154012161016 0.53607784105648792 0 0.91696753777131557 0.497780560203536 0 0.86956835336234861 0.571283299838105 0 0.86907294890112186 0.52008116128001669 0 0.90900154012161016 0.53607784105648792 0 0.90900154012161016 0.53607784105648792 0 0.93732437411268477 0.55911392101136159 0 0.95631871884947484 0.51827533208233789 0 0.91143117093204207 0.58709913730335972 0 0.90900154012161016 0.53607784105648792 0 0.93732437411268477 0.55911392101136159 0 0.90900154012161016 0.53607784105648792 0 0.95631871884947484 0.51827533208233789 0 0.91696753777131557 0.497780560203536 0 0.93732437411268477 0.55911392101136159 0 0.95631871884947484 0.51827533208233789 0 1 0.54999999999963112 0 0.95631871884947484 0.51827533208233789 0 1 0.54999999999963112 0 1 0.49999999999950101 0 0.95631871884947484 0.51827533208233789 0 1 0.49999999999950101 0 0.96228564064454991 0.48206450662049471 0 1 0.49999999999950101 0 1 0.44999999999963131 0 0.96228564064454991 0.48206450662049471 0 1 0.44999999999963131 0 0.93814194660195893 0.44426664081746747 0 0.96228564064454991 0.48206450662049471 0 0.93814194660195893 0.44426664081746747 0 0.96228564064454991 0.48206450662049471 0 0.91696753777131557 0.497780560203536 0 0.95631871884947484 0.51827533208233789 0 0.96228564064454991 0.48206450662049471 0 0.91696753777131557 0.497780560203536 0 1 0.39999999999978308 0 0.95871855522754235 0.40006508612975411 0 1 0.34999999999993492 0 1 0.44999999999963131 0 1 0.39999999999978308 0 0.95871855522754235 0.40006508612975411 0 1 0.44999999999963131 0 0.93814194660195893 0.44426664081746747 0 0.95871855522754235 0.40006508612975411 0 0.95871855522754235 0.40006508612975411 0 0.90594285160987287 0.4141265964174129 0 0.91750694127107502 0.36982372220068471 0 0.93814194660195893 0.44426664081746747 0 0.95871855522754235 0.40006508612975411 0 0.90594285160987287 0.4141265964174129 0 0.90594285160987287 0.4141265964174129 0 0.88594198078881503 0.46167788676578442 0 0.86411095495256451 0.42388805655111889 0 0.90594285160987287 0.4141265964174129 0 0.86411095495256451 0.42388805655111889 0 0.86844634540301924 0.38530937474099819 0 0.90594285160987287 0.4141265964174129 0 0.86844634540301924 0.38530937474099819 0 0.91750694127107502 0.36982372220068471 0 0.93814194660195893 0.44426664081746747 0 0.91696753777131557 0.497780560203536 0 0.88594198078881503 0.46167788676578442 0 0.93814194660195893 0.44426664081746747 0 0.90594285160987287 0.4141265964174129 0 0.88594198078881503 0.46167788676578442 0 0.86907294890112186 0.52008116128001669 0 0.91696753777131557 0.497780560203536 0 0.88594198078881503 0.46167788676578442 0 0.86907294890112186 0.52008116128001669 0 0.88594198078881503 0.46167788676578442 0 0.84723782639812573 0.48638347960178252 0 0.81441713509985358 0.51161854125224959 0 0.84723782639812573 0.48638347960178252 0 0.81400510706333218 0.47357325943904899 0 0.84723782639812573 0.48638347960178252 0 0.81400510706333218 0.47357325943904899 0 0.84925632466077294 0.45359738909549091 0 0.81400510706333218 0.47357325943904899 0 0.84925632466077294 0.45359738909549091 0 0.81973119833356312 0.43505687159469048 0 0.88594198078881503 0.46167788676578442 0 0.84723782639812573 0.48638347960178252 0 0.84925632466077294 0.45359738909549091 0 0.84925632466077294 0.45359738909549091 0 0.86411095495256451 0.42388805655111889 0 0.81973119833356312 0.43505687159469048 0 0.88594198078881503 0.46167788676578442 0 0.84925632466077294 0.45359738909549091 0 0.86411095495256451 0.42388805655111889 0 0.86411095495256451 0.42388805655111889 0 0.86844634540301924 0.38530937474099819 0 0.81308179852519835 0.39754945808726527 0 0.86844634540301924 0.38530937474099819 0 0.81308179852519835 0.39754945808726527 0 0.83573492347052902 0.36590755630746369 0 0.86411095495256451 0.42388805655111889 0 0.81308179852519835 0.39754945808726527 0 0.81973119833356312 0.43505687159469048 0 0.81973119833356312 0.43505687159469048 0 0.77354604466818633 0.40378688774472771 0 0.77972660463949339 0.45529290596363098 0 0.81308179852519835 0.39754945808726527 0 0.81973119833356312 0.43505687159469048 0 0.77354604466818633 0.40378688774472771 0 0.81308179852519835 0.39754945808726527 0 0.77354604466818633 0.40378688774472771 0 0.78145581580700685 0.34881365920033602 0 0.77354604466818633 0.40378688774472771 0 0.77972660463949339 0.45529290596363098 0 0.73483647259922602 0.44789725365921768 0 0.77972660463949339 0.45529290596363098 0 0.73483647259922602 0.44789725365921768 0 0.73947346780852752 0.49062440112282169 0 0.77972660463949339 0.45529290596363098 0 0.77846603114747959 0.49850927265137401 0 0.73947346780852752 0.49062440112282169 0 0.81400510706333218 0.47357325943904899 0 0.77972660463949339 0.45529290596363098 0 0.77846603114747959 0.49850927265137401 0 0.81441713509985358 0.51161854125224959 0 0.81400510706333218 0.47357325943904899 0 0.77846603114747959 0.49850927265137401 0 0.81400510706333218 0.47357325943904899 0 0.81973119833356312 0.43505687159469048 0 0.77972660463949339 0.45529290596363098 0 0.79999999999999982 0.29999999999999999 0 0.77075983436335049 0.25919399014334171 0 0.81486180804364938 0.26321394949780091 0 0.79999999999999982 0.29999999999999999 0 0.74999999999999989 0.29999999999999999 0 0.79999999999999982 0.29999999999999999 0 0.77075983436335049 0.25919399014334171 0 0.74999999999999989 0.29999999999999999 0 0.79999999999999982 0.29999999999999999 0 0.78145581580700685 0.34881365920033602 0 0.74999999999999989 0.29999999999999999 0 0.78145581580700685 0.34881365920033602 0 0.73090396928863699 0.33699297293167962 0 0.74999999999999989 0.29999999999999999 0 0.77354604466818633 0.40378688774472771 0 0.78145581580700685 0.34881365920033602 0 0.74764719760526988 0.3719647154012321 0 0.78145581580700685 0.34881365920033602 0 0.74764719760526988 0.3719647154012321 0 0.73090396928863699 0.33699297293167962 0 0.81308179852519835 0.39754945808726527 0 0.78145581580700685 0.34881365920033602 0 0.83573492347052902 0.36590755630746369 0 0.79999999999999982 0.29999999999999999 0 0.78145581580700685 0.34881365920033602 0 0.82500000000000062 0.33010209762754811 0 0.78145581580700685 0.34881365920033602 0 0.82500000000000062 0.33010209762754811 0 0.83573492347052902 0.36590755630746369 0 0.82500000000000062 0.33010209762754811 0 0.83573492347052902 0.36590755630746369 0 0.87430060258887643 0.34056085888204451 0 0.86844634540301924 0.38530937474099819 0 0.83573492347052902 0.36590755630746369 0 0.87430060258887643 0.34056085888204451 0 0.82500000000000062 0.33010209762754811 0 0.87430060258887643 0.34056085888204451 0 0.84999999999999987 0.29999999999999999 0 0.87430060258887643 0.34056085888204451 0 0.84999999999999987 0.29999999999999999 0 0.89999999999999991 0.29999999999999999 0 0.84999999999999987 0.29999999999999999 0 0.81486180804364938 0.26321394949780091 0 0.8517097391133297 0.2356960729520409 0 0.84999999999999987 0.29999999999999999 0 0.89898474358614167 0.25391965591104898 0 0.8517097391133297 0.2356960729520409 0 0.84999999999999987 0.29999999999999999 0 0.89999999999999991 0.29999999999999999 0 0.79999999999999982 0.29999999999999999 0 0.82500000000000062 0.33010209762754811 0 0.84999999999999987 0.29999999999999999 0 0.79999999999999982 0.29999999999999999 0 0.84999999999999987 0.29999999999999999 0 0.81486180804364938 0.26321394949780091 0 0.79999999999999982 0.29999999999999999 0 0.84999999999999987 0.29999999999999999 0 0.84999999999999987 0.29999999999999999 0 0.89898474358614167 0.25391965591104898 0 0.89999999999999991 0.29999999999999999 0 0.89999999999999991 0.29999999999999999 0 0.94999999999999996 0.29999999999999999 0 0.89999999999999991 0.29999999999999999 0 0.92012390126144183 0.33123581297173937 0 0.94999999999999996 0.29999999999999999 0 0.89898474358614167 0.25391965591104898 0 0.89999999999999991 0.29999999999999999 0 0.94999999999999996 0.29999999999999999 0 0.89898474358614167 0.25391965591104898 0 0.94999999999999996 0.29999999999999999 0 0.94399509803921056 0.24399509803922639 0 0.86844634540301924 0.38530937474099819 0 0.87430060258887643 0.34056085888204451 0 0.91750694127107502 0.36982372220068471 0 0.87430060258887643 0.34056085888204451 0 0.92012390126144183 0.33123581297173937 0 0.91750694127107502 0.36982372220068471 0 0.87430060258887643 0.34056085888204451 0 0.89999999999999991 0.29999999999999999 0 0.92012390126144183 0.33123581297173937 0 0.92012390126144183 0.33123581297173937 0 0.91750694127107502 0.36982372220068471 0 0.95780851984364423 0.34215720972155339 0 0.95871855522754235 0.40006508612975411 0 0.91750694127107502 0.36982372220068471 0 0.95780851984364423 0.34215720972155339 0 0.92012390126144183 0.33123581297173937 0 0.95780851984364423 0.34215720972155339 0 0.94999999999999996 0.29999999999999999 0 0.95780851984364423 0.34215720972155339 0 0.94999999999999996 0.29999999999999999 0 1 0.29999999999999999 0 0.95780851984364423 0.34215720972155339 0 1 0.34999999999993492 0 1 0.29999999999999999 0 0.95871855522754235 0.40006508612975411 0 0.95780851984364423 0.34215720972155339 0 1 0.34999999999993492 0 0.94999999999999996 0.29999999999999999 0 0.97166519676951801 0.26662885509932011 0 0.94399509803921056 0.24399509803922639 0 0.94999999999999996 0.29999999999999999 0 1 0.29999999999999999 0 0.94999999999999996 0.29999999999999999 0 1 0.29999999999999999 0 0.97166519676951801 0.26662885509932011 0 1 0.29999999999999999 0 0.97166519676951801 0.26662885509932011 0 1 0.24999999999987299 0 0.97166519676951801 0.26662885509932011 0 0.97435614836740092 0.22499999999981049 0 1 0.24999999999987299 0 0.97435614836740092 0.22499999999981049 0 1 0.24999999999987299 0 1 0.19999999999974799 0 0.97435614836740092 0.22499999999981049 0 0.94399509803921056 0.24399509803922639 0 0.95391631417672862 0.19584263333809451 0 0.97166519676951801 0.26662885509932011 0 0.97435614836740092 0.22499999999981049 0 0.94399509803921056 0.24399509803922639 0 0.97435614836740092 0.22499999999981049 0 0.95391631417672862 0.19584263333809451 0 1 0.19999999999974799 0 0.95391631417672862 0.19584263333809451 0 1 0.14999999999961891 0 0.93677536231883773 0.14999999999999089 0 1 0.14999999999961891 0 0.93677536231883773 0.14999999999999089 0 0.95386563387744361 0.1041487415577465 0 0.95391631417672862 0.19584263333809451 0 1 0.19999999999974799 0 1 0.14999999999961891 0 0.95391631417672862 0.19584263333809451 0 0.93677536231883773 0.14999999999999089 0 0.90416666666668166 0.20416666666667119 0 0.93677536231883773 0.14999999999999089 0 0.88088768115941807 0.14674609810479519 0 0.90416666666668166 0.20416666666667119 0 0.93677536231883773 0.14999999999999089 0 0.88088768115941807 0.14674609810479519 0 0.90299850604006393 0.09563452813493091 0 0.88088768115941807 0.14674609810479519 0 0.90416666666668166 0.20416666666667119 0 0.85600844944842547 0.1848341897950983 0 0.89898474358614167 0.25391965591104898 0 0.90416666666668166 0.20416666666667119 0 0.8517097391133297 0.2356960729520409 0 0.89898474358614167 0.25391965591104898 0 0.94399509803921056 0.24399509803922639 0 0.90416666666668166 0.20416666666667119 0 0.94399509803921056 0.24399509803922639 0 0.95391631417672862 0.19584263333809451 0 0.90416666666668166 0.20416666666667119 0 0.94999999999986839 0 0 0.97166519676946894 0.033371144900598393 0 0.94399509803922566 0.056004901960802607 0 0.94999999999986839 0 0 1 0 0 0.97166519676946894 0.033371144900598393 0 1 0 0 1 0.049999999999896842 0 0.97166519676946894 0.033371144900598393 0 1 0.049999999999896842 0 0.97166519676946894 0.033371144900598393 0 0.97435614836748241 0.074999999999825387 0 0.97166519676946894 0.033371144900598393 0 0.94399509803922566 0.056004901960802607 0 0.97435614836748241 0.074999999999825387 0 0.94399509803922566 0.056004901960802607 0 0.97435614836748241 0.074999999999825387 0 0.95386563387744361 0.1041487415577465 0 0.97435614836748241 0.074999999999825387 0 1 0.099999999999753911 0 0.95386563387744361 0.1041487415577465 0 1 0.049999999999896842 0 0.97435614836748241 0.074999999999825387 0 1 0.099999999999753911 0 1 0.14999999999961891 0 1 0.099999999999753911 0 0.95386563387744361 0.1041487415577465 0 0.93677536231883773 0.14999999999999089 0 0.95386563387744361 0.1041487415577465 0 0.90299850604006393 0.09563452813493091 0 0.88088768115941807 0.14674609810479519 0 0.90299850604006393 0.09563452813493091 0 0.84725310900442086 0.10779732082922661 0 0.90299850604006393 0.09563452813493091 0 0.899991664607802 0.045289349238254978 0 0.85491058998398861 0.060047533455626502 0 0.94399509803922566 0.056004901960802607 0 0.95386563387744361 0.1041487415577465 0 0.90299850604006393 0.09563452813493091 0 0.94399509803922566 0.056004901960802607 0 0.90299850604006393 0.09563452813493091 0 0.899991664607802 0.045289349238254978 0 0.94999999999986839 0 0 0.94399509803922566 0.056004901960802607 0 0.899991664607802 0.045289349238254978 0 0.899991664607802 0.045289349238254978 0 0.89999999999973679 0 0 0.84999999999960507 0 0 0.94999999999986839 0 0 0.899991664607802 0.045289349238254978 0 0.89999999999973679 0 0 0.84999999999960507 0 0 0.81864958914740749 0.035890501779055867 0 0.79999999999947335 0 0 0.899991664607802 0.045289349238254978 0 0.84999999999960507 0 0 0.85491058998398861 0.060047533455626502 0 0.85491058998398861 0.060047533455626502 0 0.81864958914740749 0.035890501779055867 0 0.80185942888501827 0.074520613036224564 0 0.84999999999960507 0 0 0.85491058998398861 0.060047533455626502 0 0.81864958914740749 0.035890501779055867 0 0.85491058998398861 0.060047533455626502 0 0.84725310900442086 0.10779732082922661 0 0.80185942888501827 0.074520613036224564 0 0.90299850604006393 0.09563452813493091 0 0.85491058998398861 0.060047533455626502 0 0.84725310900442086 0.10779732082922661 0 0.84725310900442086 0.10779732082922661 0 0.80076557130237269 0.1154587552654202 0 0.80185942888501827 0.074520613036224564 0 0.84725310900442086 0.10779732082922661 0 0.80076557130237269 0.1154587552654202 0 0.82709327591102189 0.14937141670914489 0 0.80076557130237269 0.1154587552654202 0 0.76878382444651716 0.097147941686331368 0 0.80185942888501827 0.074520613036224564 0 0.76878382444651716 0.097147941686331368 0 0.77144070960558853 0.14311854477243749 0 0.72525833953073282 0.1032114801687094 0 0.80076557130237269 0.1154587552654202 0 0.76878382444651716 0.097147941686331368 0 0.77144070960558853 0.14311854477243749 0 0.76878382444651716 0.097147941686331368 0 0.80185942888501827 0.074520613036224564 0 0.7527966693318906 0.053051678021508272 0 0.81864958914740749 0.035890501779055867 0 0.80185942888501827 0.074520613036224564 0 0.78393852574753176 0.032039079577822822 0 0.80185942888501827 0.074520613036224564 0 0.78393852574753176 0.032039079577822822 0 0.7527966693318906 0.053051678021508272 0 0.78393852574753176 0.032039079577822822 0 0.7527966693318906 0.053051678021508272 0 0.74999999999934175 0 0 0.78393852574753176 0.032039079577822822 0 0.79999999999947335 0 0 0.74999999999934175 0 0 0.81864958914740749 0.035890501779055867 0 0.78393852574753176 0.032039079577822822 0 0.79999999999947335 0 0 0.81283102246527783 0.1881007222486438 0 0.8517097391133297 0.2356960729520409 0 0.79680861578956375 0.22656778056752541 0 0.81283102246527783 0.1881007222486438 0 0.8517097391133297 0.2356960729520409 0 0.85600844944842547 0.1848341897950983 0 0.81486180804364938 0.26321394949780091 0 0.8517097391133297 0.2356960729520409 0 0.79680861578956375 0.22656778056752541 0 0.90416666666668166 0.20416666666667119 0 0.8517097391133297 0.2356960729520409 0 0.85600844944842547 0.1848341897950983 0 0.88088768115941807 0.14674609810479519 0 0.85600844944842547 0.1848341897950983 0 0.82709327591102189 0.14937141670914489 0 0.88088768115941807 0.14674609810479519 0 0.84725310900442086 0.10779732082922661 0 0.82709327591102189 0.14937141670914489 0 0.81283102246527783 0.1881007222486438 0 0.85600844944842547 0.1848341897950983 0 0.82709327591102189 0.14937141670914489 0 0.81283102246527783 0.1881007222486438 0 0.77144070960558853 0.14311854477243749 0 0.76587607630038135 0.18880039518954719 0 0.81283102246527783 0.1881007222486438 0 0.82709327591102189 0.14937141670914489 0 0.77144070960558853 0.14311854477243749 0 0.80076557130237269 0.1154587552654202 0 0.82709327591102189 0.14937141670914489 0 0.77144070960558853 0.14311854477243749 0 0.77144070960558853 0.14311854477243749 0 0.76587607630038135 0.18880039518954719 0 0.72634814642510737 0.16106886917518889 0 0.76587607630038135 0.18880039518954719 0 0.79680861578956375 0.22656778056752541 0 0.75668890529066124 0.2244279804069782 0 0.81283102246527783 0.1881007222486438 0 0.76587607630038135 0.18880039518954719 0 0.79680861578956375 0.22656778056752541 0 0.77075983436335049 0.25919399014334171 0 0.81486180804364938 0.26321394949780091 0 0.79680861578956375 0.22656778056752541 0 0.77075983436335049 0.25919399014334171 0 0.79680861578956375 0.22656778056752541 0 0.75668890529066124 0.2244279804069782 0 0.77075983436335049 0.25919399014334171 0 0.75668890529066124 0.2244279804069782 0 0.72500000000000064 0.2498161764706 0 0.75668890529066124 0.2244279804069782 0 0.72500000000000064 0.2498161764706 0 0.72500000000001008 0.19776155966387679 0 0.72500000000000064 0.2498161764706 0 0.69397719155551807 0.2245125647000914 0 0.72500000000001008 0.19776155966387679 0 0.72500000000000064 0.2498161764706 0 0.69397719155551807 0.2245125647000914 0 0.67933712972090698 0.25920070958121938 0 0.69397719155551807 0.2245125647000914 0 0.72500000000001008 0.19776155966387679 0 0.6865991819015953 0.189116534044597 0 0.76587607630038135 0.18880039518954719 0 0.75668890529066124 0.2244279804069782 0 0.72500000000001008 0.19776155966387679 0 0.76587607630038135 0.18880039518954719 0 0.72500000000001008 0.19776155966387679 0 0.72634814642510737 0.16106886917518889 0 0.77144070960558853 0.14311854477243749 0 0.72634814642510737 0.16106886917518889 0 0.72525833953073282 0.1032114801687094 0 0.72634814642510737 0.16106886917518889 0 0.68391457121233579 0.14440470121196541 0 0.72525833953073282 0.1032114801687094 0 0.72500000000001008 0.19776155966387679 0 0.72634814642510737 0.16106886917518889 0 0.6865991819015953 0.189116534044597 0 0.72634814642510737 0.16106886917518889 0 0.68391457121233579 0.14440470121196541 0 0.6865991819015953 0.189116534044597 0 0.68391457121233579 0.14440470121196541 0 0.64011864159029941 0.18789607982138171 0 0.6865991819015953 0.189116534044597 0 0.68391457121233579 0.14440470121196541 0 0.65290632656860115 0.11434202593454081 0 0.6236733212988993 0.14864538214901801 0 0.68391457121233579 0.14440470121196541 0 0.64011864159029941 0.18789607982138171 0 0.6236733212988993 0.14864538214901801 0 0.64011864159029941 0.18789607982138171 0 0.65394964615507722 0.22666784374016369 0 0.59814117807200873 0.23398510860739519 0 0.65394964615507722 0.22666784374016369 0 0.59814117807200873 0.23398510860739519 0 0.62657463266645097 0.26524202571255862 0 0.69397719155551807 0.2245125647000914 0 0.65394964615507722 0.22666784374016369 0 0.67933712972090698 0.25920070958121938 0 0.64011864159029941 0.18789607982138171 0 0.65394964615507722 0.22666784374016369 0 0.6865991819015953 0.189116534044597 0 0.69397719155551807 0.2245125647000914 0 0.65394964615507722 0.22666784374016369 0 0.6865991819015953 0.189116534044597 0 0.69999999999921003 0 0 0.72683645290270404 0.027797073151180601 0 0.7010294155333181 0.056779085686491267 0 0.69999999999921003 0 0 0.7010294155333181 0.056779085686491267 0 0.66369801598854572 0.036327466368102787 0 0.7527966693318906 0.053051678021508272 0 0.74999999999934175 0 0 0.72683645290270404 0.027797073151180601 0 0.69999999999921003 0 0 0.74999999999934175 0 0 0.72683645290270404 0.027797073151180601 0 0.7527966693318906 0.053051678021508272 0 0.72683645290270404 0.027797073151180601 0 0.7010294155333181 0.056779085686491267 0 0.7010294155333181 0.056779085686491267 0 0.72525833953073282 0.1032114801687094 0 0.68330259535470161 0.10038702501083881 0 0.7527966693318906 0.053051678021508272 0 0.7010294155333181 0.056779085686491267 0 0.72525833953073282 0.1032114801687094 0 0.76878382444651716 0.097147941686331368 0 0.7527966693318906 0.053051678021508272 0 0.72525833953073282 0.1032114801687094 0 0.68391457121233579 0.14440470121196541 0 0.72525833953073282 0.1032114801687094 0 0.68330259535470161 0.10038702501083881 0 0.68330259535470161 0.10038702501083881 0 0.65290632656860115 0.11434202593454081 0 0.65408113592120842 0.073941773121567966 0 0.68391457121233579 0.14440470121196541 0 0.68330259535470161 0.10038702501083881 0 0.65290632656860115 0.11434202593454081 0 0.65290632656860115 0.11434202593454081 0 0.61956000905586006 0.1043312481793135 0 0.6236733212988993 0.14864538214901801 0 0.65290632656860115 0.11434202593454081 0 0.65408113592120842 0.073941773121567966 0 0.61956000905586006 0.1043312481793135 0 0.65408113592120842 0.073941773121567966 0 0.61940220174112337 0.047251958781050582 0 0.61956000905586006 0.1043312481793135 0 0.7010294155333181 0.056779085686491267 0 0.68330259535470161 0.10038702501083881 0 0.65408113592120842 0.073941773121567966 0 0.7010294155333181 0.056779085686491267 0 0.65408113592120842 0.073941773121567966 0 0.66369801598854572 0.036327466368102787 0 0.65408113592120842 0.073941773121567966 0 0.66369801598854572 0.036327466368102787 0 0.61940220174112337 0.047251958781050582 0 0.66369801598854572 0.036327466368102787 0 0.64999999999907843 0 0 0.61940220174112337 0.047251958781050582 0 0.69999999999921003 0 0 0.66369801598854572 0.036327466368102787 0 0.64999999999907843 0 0 0.59999999999894682 0 0 0.57396793757665954 0.037011367187645222 0 0.5499999999988151 0 0 0.64999999999907843 0 0 0.59999999999894682 0 0 0.61940220174112337 0.047251958781050582 0 0.59999999999894682 0 0 0.61940220174112337 0.047251958781050582 0 0.57396793757665954 0.037011367187645222 0 0.61940220174112337 0.047251958781050582 0 0.57396793757665954 0.037011367187645222 0 0.57667858002728545 0.078486105337742612 0 0.61940220174112337 0.047251958781050582 0 0.57667858002728545 0.078486105337742612 0 0.61956000905586006 0.1043312481793135 0 0.61956000905586006 0.1043312481793135 0 0.58516465772821369 0.11653801664834119 0 0.6236733212988993 0.14864538214901801 0 0.57667858002728545 0.078486105337742612 0 0.61956000905586006 0.1043312481793135 0 0.58516465772821369 0.11653801664834119 0 0.58516465772821369 0.11653801664834119 0 0.54979595918804436 0.1060565713905809 0 0.56202748619534593 0.15054058349222879 0 0.57667858002728545 0.078486105337742612 0 0.58516465772821369 0.11653801664834119 0 0.54979595918804436 0.1060565713905809 0 0.54979595918804436 0.1060565713905809 0 0.51076801031701946 0.1202837388510348 0 0.52375890611712683 0.059318771819432882 0 0.47881186583059909 0.093591717165689425 0 0.51076801031701946 0.1202837388510348 0 0.52375890611712683 0.059318771819432882 0 0.57667858002728545 0.078486105337742612 0 0.54979595918804436 0.1060565713905809 0 0.52375890611712683 0.059318771819432882 0 0.57396793757665954 0.037011367187645222 0 0.52375890611712683 0.059318771819432882 0 0.5499999999988151 0 0 0.57396793757665954 0.037011367187645222 0 0.57667858002728545 0.078486105337742612 0 0.52375890611712683 0.059318771819432882 0 0.49999999999869432 0 0 0.52375890611712683 0.059318771819432882 0 0.5499999999988151 0 0 0.59814117807200873 0.23398510860739519 0 0.59443395090188023 0.18455690917515069 0 0.55306006949600994 0.20198184231352201 0 0.59814117807200873 0.23398510860739519 0 0.55306006949600994 0.20198184231352201 0 0.54248833945060504 0.2520322959927106 0 0.64011864159029941 0.18789607982138171 0 0.59814117807200873 0.23398510860739519 0 0.59443395090188023 0.18455690917515069 0 0.64011864159029941 0.18789607982138171 0 0.59443395090188023 0.18455690917515069 0 0.6236733212988993 0.14864538214901801 0 0.58516465772821369 0.11653801664834119 0 0.6236733212988993 0.14864538214901801 0 0.56202748619534593 0.15054058349222879 0 0.59443395090188023 0.18455690917515069 0 0.6236733212988993 0.14864538214901801 0 0.56202748619534593 0.15054058349222879 0 0.59443395090188023 0.18455690917515069 0 0.56202748619534593 0.15054058349222879 0 0.55306006949600994 0.20198184231352201 0 0.56202748619534593 0.15054058349222879 0 0.51729576145820033 0.1683240575987815 0 0.55306006949600994 0.20198184231352201 0 0.54979595918804436 0.1060565713905809 0 0.51076801031701946 0.1202837388510348 0 0.56202748619534593 0.15054058349222879 0 0.48466639505193998 0.1421439844745814 0 0.51076801031701946 0.1202837388510348 0 0.51729576145820033 0.1683240575987815 0 0.51076801031701946 0.1202837388510348 0 0.56202748619534593 0.15054058349222879 0 0.51729576145820033 0.1683240575987815 0 0.51729576145820033 0.1683240575987815 0 0.50760557329222289 0.20700468884612061 0 0.55306006949600994 0.20198184231352201 0 0.50760557329222289 0.20700468884612061 0 0.55306006949600994 0.20198184231352201 0 0.54248833945060504 0.2520322959927106 0 0.49695729691142171 0.25014895411178018 0 0.50760557329222289 0.20700468884612061 0 0.54248833945060504 0.2520322959927106 0 0.49695729691142171 0.25014895411178018 0 0.5 0.29999999999999999 0 0.54248833945060504 0.2520322959927106 0 0.5 0.29999999999999999 0 0.54999999999999993 0.29999999999999999 0 0.52752007115234678 0.33170632466418198 0 0.5 0.29999999999999999 0 0.54999999999999993 0.29999999999999999 0 0.54248833945060504 0.2520322959927106 0 0.5 0.29999999999999999 0 0.54999999999999993 0.29999999999999999 0 0.54999999999999993 0.29999999999999999 0 0.54248833945060504 0.2520322959927106 0 0.5794309697024993 0.27124795968204829 0 0.59814117807200873 0.23398510860739519 0 0.54248833945060504 0.2520322959927106 0 0.5794309697024993 0.27124795968204829 0 0.54999999999999993 0.29999999999999999 0 0.59999999999999976 0.29999999999999999 0 0.54999999999999993 0.29999999999999999 0 0.5794309697024993 0.27124795968204829 0 0.59999999999999976 0.29999999999999999 0 0.59999999999999976 0.29999999999999999 0 0.6499999999999998 0.29999999999999999 0 0.5794309697024993 0.27124795968204829 0 0.59999999999999976 0.29999999999999999 0 0.62657463266645097 0.26524202571255862 0 0.59814117807200873 0.23398510860739519 0 0.5794309697024993 0.27124795968204829 0 0.62657463266645097 0.26524202571255862 0 0.61959173890754571 0.33832250091341232 0 0.56836770495988642 0.3523062350852913 0 0.6084546825910605 0.37989672713932537 0 0.59999999999999976 0.29999999999999999 0 0.61959173890754571 0.33832250091341232 0 0.6499999999999998 0.29999999999999999 0 0.59999999999999976 0.29999999999999999 0 0.61959173890754571 0.33832250091341232 0 0.56836770495988642 0.3523062350852913 0 0.54999999999999993 0.29999999999999999 0 0.59999999999999976 0.29999999999999999 0 0.56836770495988642 0.3523062350852913 0 0.56836770495988642 0.3523062350852913 0 0.52752007115234678 0.33170632466418198 0 0.52289427570932567 0.3932284363388488 0 0.54999999999999993 0.29999999999999999 0 0.56836770495988642 0.3523062350852913 0 0.52752007115234678 0.33170632466418198 0 0.49077833859261139 0.35229981449445641 0 0.5 0.29999999999999999 0 0.52752007115234678 0.33170632466418198 0 0.49077833859261139 0.35229981449445641 0 0.52752007115234678 0.33170632466418198 0 0.52289427570932567 0.3932284363388488 0 0.56836770495988642 0.3523062350852913 0 0.52289427570932567 0.3932284363388488 0 0.57744073070774993 0.41535148636609359 0 0.52289427570932567 0.3932284363388488 0 0.53823865529665704 0.45873898050322898 0 0.57744073070774993 0.41535148636609359 0 0.48858720058566618 0.43964267759203868 0 0.52289427570932567 0.3932284363388488 0 0.53823865529665704 0.45873898050322898 0 0.49102375406324739 0.49123754822244059 0 0.53330375813596242 0.50827942741749099 0 0.53823865529665704 0.45873898050322898 0 0.49102375406324739 0.49123754822244059 0 0.48858720058566618 0.43964267759203868 0 0.53823865529665704 0.45873898050322898 0 0.53330375813596242 0.50827942741749099 0 0.57611405284611883 0.50165903596042916 0 0.53823865529665704 0.45873898050322898 0 0.57611405284611883 0.50165903596042916 0 0.57975577671020095 0.46172033326338591 0 0.61547661924074692 0.48539576058873962 0 0.57611405284611883 0.50165903596042916 0 0.53823865529665704 0.45873898050322898 0 0.57975577671020095 0.46172033326338591 0 0.57975577671020095 0.46172033326338591 0 0.61209567303293111 0.44669033081290321 0 0.57744073070774993 0.41535148636609359 0 0.53823865529665704 0.45873898050322898 0 0.57975577671020095 0.46172033326338591 0 0.57744073070774993 0.41535148636609359 0 0.57975577671020095 0.46172033326338591 0 0.61209567303293111 0.44669033081290321 0 0.61547661924074692 0.48539576058873962 0 0.56836770495988642 0.3523062350852913 0 0.57744073070774993 0.41535148636609359 0 0.6084546825910605 0.37989672713932537 0 0.61209567303293111 0.44669033081290321 0 0.57744073070774993 0.41535148636609359 0 0.63912439215427275 0.41063340167983359 0 0.57744073070774993 0.41535148636609359 0 0.6084546825910605 0.37989672713932537 0 0.63912439215427275 0.41063340167983359 0 0.6084546825910605 0.37989672713932537 0 0.63912439215427275 0.41063340167983359 0 0.65481233915350323 0.35652751921065562 0 0.63912439215427275 0.41063340167983359 0 0.65178832218679827 0.45929119821019959 0 0.6879972333610942 0.43038561374960838 0 0.63912439215427275 0.41063340167983359 0 0.68128176404677243 0.38629093627004979 0 0.6879972333610942 0.43038561374960838 0 0.63912439215427275 0.41063340167983359 0 0.68128176404677243 0.38629093627004979 0 0.65481233915350323 0.35652751921065562 0 0.61547661924074692 0.48539576058873962 0 0.6541250972820879 0.49999999999999989 0 0.65178832218679827 0.45929119821019959 0 0.61209567303293111 0.44669033081290321 0 0.61547661924074692 0.48539576058873962 0 0.65178832218679827 0.45929119821019959 0 0.61209567303293111 0.44669033081290321 0 0.63912439215427275 0.41063340167983359 0 0.65178832218679827 0.45929119821019959 0 0.65178832218679827 0.45929119821019959 0 0.69385896817107129 0.48377516041410151 0 0.6879972333610942 0.43038561374960838 0 0.6541250972820879 0.49999999999999989 0 0.65178832218679827 0.45929119821019959 0 0.69385896817107129 0.48377516041410151 0 0.7152569930854884 0.5237994455134295 0 0.69385896817107129 0.48377516041410151 0 0.73947346780852752 0.49062440112282169 0 0.69385896817107129 0.48377516041410151 0 0.73483647259922602 0.44789725365921768 0 0.6879972333610942 0.43038561374960838 0 0.69385896817107129 0.48377516041410151 0 0.73483647259922602 0.44789725365921768 0 0.73947346780852752 0.49062440112282169 0 0.68128176404677243 0.38629093627004979 0 0.72622533758026719 0.40265885511101601 0 0.71508799138962864 0.36622814920737751 0 0.73483647259922602 0.44789725365921768 0 0.6879972333610942 0.43038561374960838 0 0.72622533758026719 0.40265885511101601 0 0.68128176404677243 0.38629093627004979 0 0.6879972333610942 0.43038561374960838 0 0.72622533758026719 0.40265885511101601 0 0.77354604466818633 0.40378688774472771 0 0.73483647259922602 0.44789725365921768 0 0.72622533758026719 0.40265885511101601 0 0.72622533758026719 0.40265885511101601 0 0.74764719760526988 0.3719647154012321 0 0.71508799138962864 0.36622814920737751 0 0.77354604466818633 0.40378688774472771 0 0.72622533758026719 0.40265885511101601 0 0.74764719760526988 0.3719647154012321 0 0.74764719760526988 0.3719647154012321 0 0.71508799138962864 0.36622814920737751 0 0.73090396928863699 0.33699297293167962 0 0.71508799138962864 0.36622814920737751 0 0.68887083591306764 0.33632058575757479 0 0.73090396928863699 0.33699297293167962 0 0.68128176404677243 0.38629093627004979 0 0.71508799138962864 0.36622814920737751 0 0.68887083591306764 0.33632058575757479 0 0.68887083591306764 0.33632058575757479 0 0.73090396928863699 0.33699297293167962 0 0.69999999999999984 0.29999999999999999 0 0.72500000000000064 0.2498161764706 0 0.74999999999999989 0.29999999999999999 0 0.69999999999999984 0.29999999999999999 0 0.74999999999999989 0.29999999999999999 0 0.69999999999999984 0.29999999999999999 0 0.73090396928863699 0.33699297293167962 0 0.74999999999999989 0.29999999999999999 0 0.69999999999999984 0.29999999999999999 0 0.77075983436335049 0.25919399014334171 0 0.72500000000000064 0.2498161764706 0 0.74999999999999989 0.29999999999999999 0 0.72500000000000064 0.2498161764706 0 0.69999999999999984 0.29999999999999999 0 0.67933712972090698 0.25920070958121938 0 0.69999999999999984 0.29999999999999999 0 0.67933712972090698 0.25920070958121938 0 0.6499999999999998 0.29999999999999999 0 0.68887083591306764 0.33632058575757479 0 0.69999999999999984 0.29999999999999999 0 0.6499999999999998 0.29999999999999999 0 0.69999999999999984 0.29999999999999999 0 0.6499999999999998 0.29999999999999999 0 0.67933712972090698 0.25920070958121938 0 0.62657463266645097 0.26524202571255862 0 0.6499999999999998 0.29999999999999999 0 0.65394964615507722 0.22666784374016369 0 0.67933712972090698 0.25920070958121938 0 0.62657463266645097 0.26524202571255862 0 0.59999999999999976 0.29999999999999999 0 0.62657463266645097 0.26524202571255862 0 0.6499999999999998 0.29999999999999999 0 0.61959173890754571 0.33832250091341232 0 0.6499999999999998 0.29999999999999999 0 0.65481233915350323 0.35652751921065562 0 0.61959173890754571 0.33832250091341232 0 0.6084546825910605 0.37989672713932537 0 0.65481233915350323 0.35652751921065562 0 0.68128176404677243 0.38629093627004979 0 0.68887083591306764 0.33632058575757479 0 0.65481233915350323 0.35652751921065562 0 0.68887083591306764 0.33632058575757479 0 0.6499999999999998 0.29999999999999999 0 0.65481233915350323 0.35652751921065562 0 
</DataArray>
</Points>
<Cells>
<DataArray type="UInt32" Name="connectivity" format="ascii">
0 1 2 3 4 5 6 7 8 9 10 11 12 13 14 15 16 17 18 19 20 21 22 23 24 25 26 27 28 29 30 31 32 33 34 35 36 37 38 39 40 41 42 43 44 45 46 47 48 49 50 51 52 53 54 55 56 57 58 59 60 61 62 63 64 65 66 67 68 69 70 71 72 73 74 75 76 77 78 79 80 81 82 83 84 85 86 87 88 89 90 91 92 93 94 95 96 97 98 99 100 101 102 103 104 105 106 107 108 109 110 111 112 113 114 115 116 117 118 119 120 121 122 123 124 125 126 127 128 129 130 131 132 133 134 135 136 137 138 139 140 141 142 143 144 145 146 147 148 149 150 151 152 153 154 155 156 157 158 159 160 161 162 163 164 165 166 167 168 169 170 171 172 173 174 175 176 177 178 179 180 181 182 183 184 185 186 187 188 189 190 191 192 193 194 195 196 197 198 199 200 201 202 203 204 205 206 207 208 209 210 211 212 213 214 215 216 217 218 219 220 221 222 223 224 225 226 227 228 229 230 231 232 233 234 235 236 237 238 239 240 241 242 243 244 245 246 247 248 249 250 251 252 253 254 255 256 257 258 259 260 261 262 263 264 265 266 267 268 269 270 271 272 273 274 275 276 277 278 279 280 281 282 283 284 285 286 287 288 289 290 291 292 293 294 295 296 297 298 299 300 301 302 303 304 305 306 307 308 309 310 311 312 313 314 315 316 317 318 319 320 321 322 323 324 325 326 327 328 329 330 331 332 333 334 335 336 337 338 339 340 341 342 343 344 345 346 347 348 349 350 351 352 353 354 355 356 357 358 359 360 361 362 363 364 365 366 367 368 369 370 371 372 373 374 375 376 377 378 379 380 381 382 383 384 385 386 387 388 389 390 391 392 393 394 395 396 397 398 399 400 401 402 403 404 405 406 407 408 409 410 411 412 413 414 415 416 417 418 419 420 421 422 423 424 425 426 427 428 429 430 431 432 433 434 435 436 437 438 439 440 441 442 443 444 445 446 447 448 449 450 451 452 453 454 455 456 457 458 459 460 461 462 463 464 465 466 467 468 469 470 471 472 473 474 475 476 477 478 479 480 481 482 483 484 485 486 487 488 489 490 491 492 493 494 495 496 497 498 499 500 501 502 503 504 505 506 507 508 509 510 511 512 513 514 515 516 517 518 519 520 521 522 523 524 525 526 527 528 529 530 531 532 533 534 535 536 537 538 539 540 541 542 543 544 545 546 547 548 549 550 551 552 553 554 555 556 557 558 559 560 561 562 563 564 565 566 567 568 569 570 571 572 573 574 575 576 577 578 579 580 581 582 583 584 585 586 587 588 589 590 591 592 593 594 595 596 597 598 599 600 601 602 603 604 605 606 607 608 609 610 611 612 613 614 615 616 617 618 619 620 621 622 623 624 625 626 627 628 629 630 631 632 633 634 635 636 637 638 639 640 641 642 643 644 645 646 647 648 649 650 651 652 653 654 655 656 657 658 659 660 661 662 663 664 665 666 667 668 669 670 671 672 673 674 675 676 677 678 679 680 681 682 683 684 685 686 687 688 689 690 691 692 693 694 695 696 697 698 699 700 701 702 703 704 705 706 707 708 709 710 711 712 713 714 715 716 717 718 719 720 721 722 723 724 725 726 727 728 729 730 731 732 733 734 735 736 737 738 739 740 741 742 743 744 745 746 747 748 749 750 751 752 753 754 755 756 757 758 759 760 761 762 763 764 765 766 767 768 769 770 771 772 773 774 775 776 777 778 779 780 781 782 783 784 785 786 787 788 789 790 791 792 793 794 795 796 797 798 799 800 801 802 803 804 805 806 807 808 809 810 811 812 813 814 815 816 817 818 819 820 821 822 823 824 825 826 827 828 829 830 831 832 833 834 835 836 837 838 839 840 841 842 843 844 845 846 847 848 849 850 851 852 853 854 855 856 857 858 859 860 861 862 863 864 865 866 867 868 869 870 871 872 873 874 875 876 877 878 879 880 881 882 883 884 885 886 887 888 889 890 891 892 893 894 895 896 897 898 899 900 901 902 903 904 905 906 907 908 909 910 911 912 913 914 915 916 917 918 919 920 921 922 923 924 925 926 927 928 929 930 931 932 933 934 935 936 937 938 939 940 941 942 943 944 945 946 947 948 949 950 951 952 953 954 955 956 957 958 959 960 961 962 963 964 965 966 967 968 969 970 971 972 973 974 975 976 977 978 979 980 981 982 983 984 985 986 987 988 989 990 991 992 993 994 995 996 997 998 999 1000 1001 1002 1003 1004 1005 1006 1007 1008 1009 1010 1011 1012 1013 1014 1015 1016 1017 1018 1019 1020 1021 1022 1023 1024 1025 1026 1027 1028 1029 1030 1031 1032 1033 1034 1035 1036 1037 1038 1039 1040 1041 1042 1043 1044 1045 1046 1047 1048 1049 1050 1051 1052 1053 1054 1055 1056 1057 1058 1059 1060 1061 1062 1063 1064 1065 1066 1067 1068 1069 1070 1071 1072 1073 1074 1075 1076 1077 1078 1079 1080 1081 1082 1083 1084 1085 1086 1087 1088 1089 1090 1091 1092 1093 1094 1095 1096 1097 1098 1099 1100 1101 1102 1103 1104 1105 1106 1107 1108 1109 1110 1111 1112 1113 1114 1115 1116 1117 1118 1119 1120 1121 1122 1123 1124 1125 1126 1127 1128 1129 1130 1131 1132 1133 1134 1135 1136 1137 1138 1139 1140 1141 1142 1143 1144 1145 1146 1147 1148 1149 1150 1151 1152 1153 1154 1155 1156 1157 1158 1159 1160 1161 1162 1163 1164 1165 1166 1167 1168 1169 1170 1171 1172 1173 1174 1175 1176 1177 1178 1179 1180 1181 1182 1183 1184 1185 1186 1187 1188 1189 1190 1191 1192 1193 1194 1195 1196 1197 1198 1199 1200 1201 1202 1203 1204 1205 1206 1207 1208 1209 1210 1211 1212 1213 1214 1215 1216 1217 1218 1219 1220 1221 1222 1223 1224 1225 1226 1227 1228 1229 1230 1231 1232 1233 1234 1235 1236 1237 1238 1239 1240 1241 1242 1243 1244 1245 1246 1247 1248 1249 1250 1251 1252 1253 1254 1255 1256 1257 1258 1259 1260 1261 1262 1263 1264 1265 1266 1267 1268 1269 1270 1271 1272 1273 1274 1275 1276 1277 1278 1279 1280 1281 1282 1283 1284 1285 1286 1287 1288 1289 1290 1291 1292 1293 1294 1295 1296 1297 1298 1299 1300 1301 1302 1303 1304 1305 1306 1307 1308 1309 1310 1311 1312 1313 1314 1315 1316 1317 1318 1319 1320 1321 1322 1323 1324 1325 1326 1327 1328 1329 1330 1331 1332 1333 1334 1335 1336 1337 1338 1339 1340 1341 1342 1343 1344 1345 1346 1347 1348 1349 1350 1351 1352 1353 1354 1355 1356 1357 1358 1359 1360 1361 1362 1363 1364 1365 1366 1367 1368 1369 1370 1371 1372 1373 1374 1375 1376 1377 1378 1379 1380 1381 1382 1383 1384 1385 1386 1387 1388 1389 1390 1391 1392 1393 1394 1395 1396 1397 1398 1399 1400 1401 1402 1403 1404 1405 1406 1407 1408 1409 1410 1411 1412 1413 1414 1415 1416 1417 1418 1419 1420 1421 1422 1423 1424 1425 1426 1427 1428 1429 1430 1431 1432 1433 1434 1435 1436 1437 1438 1439 1440 1441 1442 1443 1444 1445 1446 1447 1448 1449 1450 1451 1452 1453 1454 1455 1456 1457 1458 1459 1460 1461 1462 1463 1464 1465 1466 1467 1468 1469 1470 1471 1472 1473 1474 1475 1476 1477 1478 1479 1480 1481 1482 1483 1484 1485 1486 1487 1488 1489 1490 1491 1492 1493 1494 1495 1496 1497 1498 1499 1500 1501 1502 1503 1504 1505 1506 1507 1508 1509 1510 1511 1512 1513 1514 1515 1516 1517 1518 1519 1520 1521 1522 1523 1524 1525 1526 1527 1528 1529 1530 1531 1532 1533 1534 1535 1536 1537 1538 1539 1540 1541 1542 1543 1544 1545 1546 1547 1548 1549 1550 1551 1552 1553 1554 1555 1556 1557 1558 1559 1560 1561 1562 1563 1564 1565 1566 1567 1568 1569 1570 1571 1572 1573 1574 1575 1576 1577 1578 1579 1580 1581 1582 1583 1584 1585 1586 1587 1588 1589 1590 1591 1592 1593 1594 1595 1596 1597 1598 1599 1600 1601 1602 1603 1604 1605 1606 1607 1608 1609 1610 1611 1612 1613 1614 1615 1616 1617 1618 1619 1620 1621 1622 1623 1624 1625 1626 1627 1628 1629 1630 1631 1632 1633 1634 1635 1636 1637 1638 1639 1640 1641 1642 1643 1644 1645 1646 1647 1648 1649 1650 1651 1652 1653 1654 1655 1656 1657 1658 1659 1660 1661 1662 1663 1664 1665 1666 1667 1668 1669 1670 1671 1672 1673 1674 1675 1676 1677 1678 1679 1680 1681 1682 1683 1684 1685 1686 1687 1688 1689 1690 1691 1692 1693 1694 1695 1696 1697 1698 1699 1700 1701 1702 1703 1704 1705 1706 1707 1708 1709 1710 1711 1712 1713 1714 1715 1716 1717 1718 1719 1720 1721 1722 1723 1724 1725 1726 1727 1728 1729 1730 1731 1732 1733 1734 1735 1736 1737 1738 1739 1740 1741 1742 1743 1744 1745 1746 1747 1748 1749 1750 1751 1752 1753 1754 1755 1756 1757 1758 1759 1760 1761 1762 1763 1764 1765 1766 1767 1768 1769 1770 1771 1772 1773 1774 1775 1776 1777 1778 1779 1780 1781 1782 1783 1784 1785 1786 1787 1788 1789 1790 1791 1792 1793 1794 1795 1796 1797 1798 1799 1800 1801 1802 1803 1804 1805 1806 1807 1808 1809 1810 1811 1812 1813 1814 1815 1816 1817 1818 1819 1820 1821 1822 1823 1824 1825 1826 1827 1828 1829 1830 1831 1832 1833 1834 1835 1836 1837 1838 1839 1840 1841 1842 1843 1844 1845 1846 1847 1848 1849 1850 1851 1852 1853 1854 1855 1856 1857 1858 1859 1860 1861 1862 1863 1864 1865 1866 1867 1868 1869 1870 1871 1872 1873 1874 1875 1876 1877 1878 1879 1880 1881 1882 1883 1884 1885 1886 1887 1888 1889 1890 1891 1892 1893 1894 1895 1896 1897 1898 1899 1900 1901 1902 1903 1904 1905 1906 1907 1908 1909 1910 1911 1912 1913 1914 1915 1916 1917 1918 1919 1920 1921 1922 1923 1924 1925 1926 1927 1928 1929 1930 1931 1932 1933 1934 1935 1936 1937 1938 1939 1940 1941 1942 1943 1944 1945 1946 1947 1948 1949 1950 1951 1952 1953 1954 1955 1956 1957 1958 1959 1960 1961 1962 1963 1964 1965 1966 1967 1968 1969 1970 1971 1972 1973 1974 1975 1976 1977 1978 1979 1980 1981 1982 1983 1984 1985 1986 1987 1988 1989 1990 1991 1992 1993 1994 1995 1996 1997 1998 1999 2000 2001 2002 2003 2004 2005 2006 2007 2008 2009 2010 2011 2012 2013 2014 2015 2016 2017 2018 2019 2020 2021 2022 2023 2024 2025 2026 2027 2028 2029 2030 2031 2032 2033 2034 2035 2036 2037 2038 2039 2040 2041 2042 2043 2044 2045 2046 2047 2048 2049 2050 2051 2052 2053 2054 2055 2056 2057 2058 2059 2060 2061 2062 2063 2064 2065 2066 2067 2068 2069 2070 2071 2072 2073 2074 2075 2076 2077 2078 2079 2080 2081 2082 2083 2084 2085 2086 2087 2088 2089 2090 2091 2092 2093 2094 2095 2096 2097 2098 2099 2100 2101 2102 2103 2104 2105 2106 2107 2108 2109 2110 2111 2112 2113 2114 2115 2116 2117 2118 2119 2120 2121 2122 2123 2124 2125 2126 2127 2128 2129 2130 2131 2132 2133 2134 2135 2136 2137 2138 2139 2140 2141 2142 2143 2144 2145 2146 2147 2148 2149 2150 2151 2152 2153 2154 2155 2156 2157 2158 2159 2160 2161 2162 2163 2164 2165 2166 2167 2168 2169 2170 2171 2172 2173 2174 2175 2176 2177 2178 2179 2180 2181 2182 2183 2184 2185 2186 2187 2188 2189 2190 2191 2192 2193 2194 2195 2196 2197 2198 2199 2200 2201 2202 2203 2204 2205 2206 2207 2208 2209 2210 2211 2212 2213 2214 2215 2216 2217 2218 2219 2220 2221 2222 2223 2224 2225 2226 2227 2228 2229 2230 2231 2232 2233 2234 2235 2236 2237 2238 2239 2240 2241 2242 2243 2244 2245 2246 2247 2248 2249 2250 2251 2252 2253 2254 2255 2256 2257 2258 2259 2260 2261 2262 2263 2264 2265 2266 2267 2268 2269 2270 2271 2272 2273 2274 2275 2276 2277 2278 2279 2280 2281 2282 2283 2284 2285 2286 2287 2288 2289 2290 2291 2292 2293 2294 2295 2296 2297 2298 2299 2300 2301 2302 2303 2304 2305 2306 2307 2308 2309 2310 2311 2312 2313 2314 2315 2316 2317 2318 2319 2320 2321 2322 2323 2324 2325 2326 2327 2328 2329 2330 2331 2332 2333 2334 2335 2336 2337 2338 2339 2340 2341 2342 2343 2344 2345 2346 2347 2348 2349 2350 2351 2352 2353 2354 2355 2356 2357 2358 2359 2360 2361 2362 2363 2364 2365 2366 2367 2368 2369 2370 2371 2372 2373 2374 2375 2376 2377 2378 2379 2380 2381 2382 2383 2384 2385 2386 2387 2388 2389 2390 2391 2392 2393 2394 2395 2396 2397 2398 2399 2400 2401 2402 2403 2404 2405 2406 2407 2408 2409 2410 2411 2412 2413 2414 2415 2416 2417 2418 2419 2420 2421 2422 2423 2424 2425 2426 2427 2428 2429 2430 2431 2432 2433 2434 2435 2436 2437 2438 2439 2440 2441 2442 2443 2444 2445 2446 2447 2448 2449 2450 2451 2452 2453 2454 2455 2456 2457 2458 2459 2460 2461 2462 2463 2464 2465 2466 2467 2468 2469 2470 2471 2472 2473 2474 2475 2476 2477 2478 2479 2480 2481 2482 2483 2484 2485 2486 2487 2488 2489 2490 2491 2492 2493 2494 2495 2496 2497 2498 2499 2500 2501 2502 2503 2504 2505 2506 2507 2508 2509 2510 2511 2512 2513 2514 2515 2516 2517 2518 2519 2520 2521 2522 2523 2524 2525 2526 2527 2528 2529 2530 2531 2532 2533 2534 2535 2536 2537 2538 2539 2540 2541 2542 2543 2544 2545 2546 2547 2548 2549 2550 2551 2552 2553 2554 2555 2556 2557 2558 2559 2560 2561 2562 2563 2564 2565 2566 2567 2568 2569 2570 2571 2572 2573 2574 2575 2576 2577 2578 2579 2580 2581 2582 2583 2584 2585 2586 2587 2588 2589 2590 2591 2592 2593 2594 2595 2596 2597 2598 2599 2600 2601 2602 2603 2604 2605 2606 2607 2608 2609 2610 2611 2612 2613 2614 2615 2616 2617 2618 2619 2620 2621 2622 2623 2624 2625 2626 2627 2628 2629 2630 2631 2632 2633 2634 2635 2636 2637 2638 2639 2640 2641 2642 2643 2644 2645 2646 2647 2648 2649 2650 2651 2652 2653 2654 2655 2656 2657 2658 2659 2660 2661 2662 2663 2664 2665 2666 2667 2668 2669 2670 2671 2672 2673 2674 2675 2676 2677 2678 2679 2680 2681 2682 2683 2684 2685 2686 2687 2688 2689 2690 2691 2692 2693 2694 2695 2696 2697 2698 2699 2700 2701 2702 2703 2704 2705 2706 2707 2708 2709 2710 2711 2712 2713 2714 2715 2716 2717 2718 2719 2720 2721 2722 2723 2724 2725 2726 2727 2728 2729 2730 2731 2732 2733 2734 2735 2736 2737 2738 2739 2740 2741 2742 2743 2744 2745 2746 2747 2748 2749 2750 2751 2752 2753 2754 2755 2756 2757 2758 2759 2760 2761 2762 2763 2764 2765 2766 2767 2768 2769 2770 2771 2772 2773 2774 2775 2776 2777 2778 2779 2780 2781 2782 2783 2784 2785 2786 2787 2788 2789 2790 2791 2792 2793 2794 2795 2796 2797 2798 2799 2800 2801 2802 2803 2804 2805 2806 2807 2808 2809 2810 2811 2812 2813 2814 2815 2816 2817 2818 2819 2820 2821 2822 2823 2824 2825 2826 2827 2828 2829 2830 2831 2832 2833 2834 2835 2836 2837 2838 2839 2840 2841 2842 2843 2844 2845 2846 2847 2848 2849 2850 2851 2852 2853 2854 2855 2856 2857 2858 2859 2860 2861 2862 2863 2864 2865 2866 2867 2868 2869 2870 2871 2872 2873 2874 2875 2876 2877 2878 2879 2880 2881 2882 2883 2884 2885 2886 2887 2888 2889 2890 2891 2892 2893 2894 2895 2896 2897 2898 2899 2900 2901 2902 2903 2904 2905 2906 2907 2908 2909 2910 2911 2912 2913 2914 2915 2916 2917 2918 2919 2920 2921 2922 2923 2924 2925 2926 2927 2928 2929 2930 2931 2932 2933 2934 2935 2936 2937 2938 2939 2940 2941 2942 2943 2944 2945 2946 2947 2948 2949 2950 2951 2952 2953 2954 2955 2956 2957 2958 2959 2960 2961 2962 2963 2964 2965 2966 2967 2968 2969 2970 2971 2972 2973 2974 2975 2976 2977 2978 2979 2980 2981 2982 2983 2984 2985 2986 2987 2988 2989 2990 2991 2992 2993 2994 2995 2996 2997 2998 2999 3000 3001 3002 3003 3004 3005 3006 3007 3008 3009 3010 3011 3012 3013 3014 3015 3016 3017 3018 3019 3020 3021 3022 3023 3024 3025 3026 3027 3028 3029 3030 3031 3032 3033 3034 3035 3036 3037 3038 3039 3040 3041 3042 3043 3044 3045 3046 3047 3048 3049 3050 3051 3052 3053 3054 3055 3056 3057 3058 3059 3060 3061 3062 3063 3064 3065 3066 3067 3068 3069 3070 3071 3072 3073 3074 3075 3076 3077 3078 3079 3080 3081 3082 3083 3084 3085 3086 3087 3088 3089 3090 3091 3092 3093 3094 3095 3096 3097 3098 3099 3100 3101 3102 3103 3104 3105 3106 3107 3108 3109 3110 3111 3112 3113 3114 3115 3116 3117 3118 3119 3120 3121 3122 3123 3124 3125 3126 3127 3128 3129 3130 3131 3132 3133 3134 3135 3136 3137 3138 3139 3140 3141 
</DataArray>
<DataArray type="UInt32" Name="offsets" format="ascii">
3 6 9 12 15 18 21 24 27 30 33 36 39 42 45 48 51 54 57 60 63 66 69 72 75 78 81 84 87 90 93 96 99 102 105 108 111 114 117 120 123 126 129 132 135 138 141 144 147 150 153 156 159 162 165 168 171 174 177 180 183 186 189 192 195 198 201 204 207 210 213 216 219 222 225 228 231 234 237 240 243 246 249 252 255 258 261 264 267 270 273 276 279 282 285 288 291 294 297 300 303 306 309 312 315 318 321 324 327 330 333 336 339 342 345 348 351 354 357 360 363 366 369 372 375 378 381 384 387 390 393 396 399 402 405 408 411 414 417 420 423 426 429 432 435 438 441 444 447 450 453 456 459 462 465 468 471 474 477 480 483 486 489 492 495 498 501 504 507 510 513 516 519 522 525 528 531 534 537 540 543 546 549 552 555 558 561 564 567 570 573 576 579 582 585 588 591 594 597 600 603 606 609 612 615 618 621 624 627 630 633 636 639 642 645 648 651 654 657 660 663 666 669 672 675 678 681 684 687 690 693 696 699 702 705 708 711 714 717 720 723 726 729 732 735 738 741 744 747 750 753 756 759 762 765 768 771 774 777 780 783 786 789 792 795 798 801 804 807 810 813 816 819 822 825 828 831 834 837 840 843 846 849 852 855 858 861 864 867 870 873 876 879 882 885 888 891 894 897 900 903 906 909 912 915 918 921 924 927 930 933 936 939 942 945 948 951 954 957 960 963 966 969 972 975 978 981 984 987 990 993 996 999 1002 1005 1008 1011 1014 1017 1020 1023 1026 1029 1032 1035 1038 1041 1044 1047 1050 1053 1056 1059 1062 1065 1068 1071 1074 1077 1080 1083 1086 1089 1092 1095 1098 1101 1104 1107 1110 1113 1116 1119 1122 1125 1128 1131 1134 1137 1140 1143 1146 1149 1152 1155 1158 1161 1164 1167 1170 1173 1176 1179 1182 1185 1188 1191 1194 1197 1200 1203 1206 1209 1212 1215 1218 1221 1224 1227 1230 1233 1236 1239 1242 1245 1248 1251 1254 1257 1260 1263 1266 1269 1272 1275 1278 1281 1284 1287 1290 1293 1296 1299 1302 1305 1308 1311 1314 1317 1320 1323 1326 1329 1332 1335 1338 1341 1344 1347 1350 1353 1356 1359 1362 1365 1368 1371 1374 1377 1380 1383 1386 1389 1392 1395 1398 1401 1404 1407 1410 1413 1416 1419 1422 1425 1428 1431 1434 1437 1440 1443 1446 1449 1452 1455 1458 1461 1464 1467 1470 1473 1476 1479 1482 1485 1488 1491 1494 1497 1500 1503 1506 1509 1512 1515 1518 1521 1524 1527 1530 1533 1536 1539 1542 1545 1548 1551 1554 1557 1560 1563 1566 1569 1572 1575 1578 1581 1584 1587 1590 1593 1596 1599 1602 1605 1608 1611 1614 1616 1619 1622 1624 1627 1630 1632 1635 1638 1641 1644 1647 1650 1653 1656 1659 1662 1665 1668 1671 1673 1676 1679 1682 1685 1688 1690 1693 1696 1699 1702 1705 1708 1711 1714 1717 1720 1723 1726 1729 1732 1735 1738 1741 1744 1747 1750 1753 1756 1759 1762 1765 1768 1771 1774 1777 1780 1783 1786 1789 1792 1795 1798 1801 1804 1807 1810 1813 1816 1819 1822 1825 1828 1831 1834 1837 1840 1843 1846 1849 1852 1855 1858 1861 1864 1867 1870 1873 1876 1879 1882 1885 1888 1891 1894 1897 1900 1903 1906 1909 1912 1915 1918 1921 1924 1927 1930 1933 1936 1939 1942 1945 1948 1951 1954 1957 1960 1963 1966 1969 1972 1975 1978 1981 1984 1987 1990 1993 1996 1999 2002 2005 2008 2011 2014 2017 2020 2023 2026 2029 2032 2035 2038 2041 2044 2047 2050 2053 2056 2059 2062 2065 2068 2071 2074 2077 2080 2083 2086 2089 2092 2095 2098 2101 2104 2107 2110 2113 2116 2119 2122 2125 2128 2131 2134 2137 2140 2143 2146 2149 2152 2155 2158 2161 2164 2167 2170 2173 2176 2179 2182 2185 2188 2191 2194 2196 2199 2202 2205 2207 2210 2213 2215 2218 2221 2224 2227 2230 2233 2236 2239 2242 2245 2248 2250 2253 2256 2259 2262 2264 2267 2270 2273 2276 2279 2282 2285 2288 2291 2294 2297 2300 2303 2306 2309 2312 2315 2318 2321 2324 2327 2330 2333 2336 2339 2342 2345 2348 2351 2354 2357 2360 2363 2366 2369 2372 2375 2378 2381 2384 2387 2390 2393 2396 2399 2402 2405 2408 2411 2414 2417 2420 2423 2426 2429 2432 2435 2438 2440 2443 2446 2449 2452 2455 2458 2461 2464 2467 2470 2473 2476 2479 2482 2484 2487 2490 2492 2495 2497 2500 2503 2506 2509 2512 2515 2518 2521 2524 2527 2530 2533 2536 2538 2541 2544 2547 2550 2553 2556 2559 2562 2565 2568 2571 2574 2577 2580 2583 2586 2589 2592 2595 2598 2601 2604 2607 2610 2613 2616 2619 2622 2625 2628 2631 2634 2637 2640 2643 2646 2649 2652 2655 2658 2661 2664 2667 2670 2673 2676 2679 2682 2685 2688 2691 2694 2697 2700 2703 2706 2709 2712 2715 2718 2721 2724 2727 2730 2733 2736 2739 2742 2745 2748 2751 2754 2757 2760 2763 2766 2769 2772 2775 2778 2781 2784 2787 2790 2793 2796 2799 2802 2805 2808 2811 2814 2817 2820 2823 2826 2829 2832 2835 2838 2841 2844 2847 2850 2853 2856 2859 2862 2865 2868 2871 2874 2877 2880 2883 2886 2889 2892 2895 2898 2901 2904 2907 2910 2913 2916 2919 2922 2925 2928 2931 2934 2937 2940 2943 2946 2948 2951 2954 2956 2959 2961 2964 2967 2970 2973 2976 2979 2982 2985 2988 2991 2994 2997 3000 3003 3006 3009 3012 3015 3018 3021 3024 3027 3030 3033 3036 3039 3042 3045 3048 3051 3054 3057 3060 3063 3066 3069 3072 3075 3078 3081 3084 3087 3090 3093 3096 3099 3102 3104 3107 3110 3113 3116 3119 3121 3124 3127 3130 3133 3136 3139 3142 
</DataArray>
<DataArray type="UInt32" Name="types" format="ascii">
5 5 5 5 5 5 5 5 5 5 5 5 5 5 5 5 5 5 5 5 5 5 5 5 5 5 5 5 5 5 5 5 5 5 5 5 5 5 5 5 5 5 5 5 5 5 5 5 5 5 5 5 5 5 5 5 5 5 5 5 5 5 5 5 5 5 5 5 5 5 5 5 5 5 5 5 5 5 5 5 5 5 5 5 5 5 5 5 5 5 5 5 5 5 5 5 5 5 5 5 5 5 5 5 5 5 5 5 5 5 5 5 5 5 5 5 5 5 5 5 5 5 5 5 5 5 5 5 5 5 5 5 5 5 5 5 5 5 5 5 5 5 5 5 5 5 5 5 5 5 5 5 5 5 5 5 5 5 5 5 5 5 5 5 5 5 5 5 5 5 5 5 5 5 5 5 5 5 5 5 5 5 5 5 5 5 5 5 5 5 5 5 5 5 5 5 5 5 5 5 5 5 5 5 5 5 5 5 5 5 5 5 5 5 5 5 5 5 5 5 5 5 5 5 5 5 5 5 5 5 5 5 5 5 5 5 5 5 5 5 5 5 5 5 5 5 5 5 5 5 5 5 5 5 5 5 5 5 5 5 5 5 5 5 5 5 5 5 5 5 5 5 5 5 5 5 5 5 5 5 5 5 5 5 5 5 5 5 5 5 5 5 5 5 5 5 5 5 5 5 5 5 5 5 5 5 5 5 5 5 5 5 5 5 5 5 5 5 5 5 5 5 5 5 5 5 5 5 5 5 5 5 5 5 5 5 5 5 5 5 5 5 5 5 5 5 5 5 5 5 5 5 5 5 5 5 5 5 5 5 5 5 5 5 5 5 5 5 5 5 5 5 5 5 5 5 5 5 5 5 5 5 5 5 5 5 5 5 5 5 5 5 5 5 5 5 5 5 5 5 5 5 5 5 5 5 5 5 5 5 5 5 5 5 5 5 5 5 5 5 5 5 5 5 5 5 5 5 5 5 5 5 5 5 5 5 5 5 5 5 5 5 5 5 5 5 5 5 5 5 5 5 5 5 5 5 5 5 5 5 5 5 5 5 5 5 5 5 5 5 5 5 5 5 5 5 5 5 5 5 5 5 5 5 5 5 5 5 5 5 5 5 5 5 5 5 5 5 5 5 5 5 5 5 5 5 5 5 5 5 5 5 5 5 5 5 5 5 5 5 5 5 5 5 5 5 5 5 5 5 5 5 5 5 5 5 5 5 3 5 5 3 5 5 3 5 5 5 5 5 5 5 5 5 5 5 5 5 3 5 5 5 5 5 3 5 5 5 5 5 5 5 5 5 5 5 5 5 5 5 5 5 5 5 5 5 5 5 5 5 5 5 5 5 5 5 5 5 5 5 5 5 5 5 5 5 5 5 5 5 5 5 5 5 5 5 5 5 5 5 5 5 5 5 5 5 5 5 5 5 5 5 5 5 5 5 5 5 5 5 5 5 5 5 5 5 5 5 5 5 5 5 5 5 5 5 5 5 5 5 5 5 5 5 5 5 5 5 5 5 5 5 5 5 5 5 5 5 5 5 5 5 5 5 5 5 5 5 5 5 5 5 5 5 5 5 5 5 5 5 5 5 5 5 5 5 5 5 5 5 5 5 5 5 5 5 5 5 5 5 5 5 5 5 5 5 5 5 5 5 5 5 5 3 5 5 5 3 5 5 3 5 5 5 5 5 5 5 5 5 5 5 3 5 5 5 5 3 5 5 5 5 5 5 5 5 5 5 5 5 5 5 5 5 5 5 5 5 5 5 5 5 5 5 5 5 5 5 5 5 5 5 5 5 5 5 5 5 5 5 5 5 5 5 5 5 5 5 5 5 5 5 5 5 5 5 3 5 5 5 5 5 5 5 5 5 5 5 5 5 5 3 5 5 3 5 3 5 5 5 5 5 5 5 5 5 5 5 5 5 3 5 5 5 5 5 5 5 5 5 5 5 5 5 5 5 5 5 5 5 5 5 5 5 5 5 5 5 5 5 5 5 5 5 5 5 5 5 5 5 5 5 5 5 5 5 5 5 5 5 5 5 5 5 5 5 5 5 5 5 5 5 5 5 5 5 5 5 5 5 5 5 5 5 5 5 5 5 5 5 5 5 5 5 5 5 5 5 5 5 5 5 5 5 5 5 5 5 5 5 5 5 5 5 5 5 5 5 5 5 5 5 5 5 5 5 5 5 5 5 5 5 5 5 5 5 5 5 5 5 5 5 5 5 5 5 5 3 5 5 3 5 3 5 5 5 5 5 5 5 5 5 5 5 5 5 5 5 5 5 5 5 5 5 5 5 5 5 5 5 5 5 5 5 5 5 5 5 5 5 5 5 5 5 5 5 5 5 5 5 3 5 5 5 5 5 3 5 5 5 5 5 5 5 
</DataArray>
</Cells>
<PointData Scalars="" Vectors="displacement," Tensors="">
<DataArray type="Float64" Name="displacement" NumberOfComponents="3" format="ascii">
-6.300966905085109e-07 1.799299814153843e-07 0 -1.155219345127637e-09 -4.7463172256681553e-10 0 -1.3667728079822172e-06 7.7452957822077082e-08 0 -6.300966905085109e-07 1.799299814153843e-07 0 -1.1552193451276349e-09 -4.7463172256681522e-10 0 -1.1329394001101937e-09 3.6568370492121449e-10 0 -6.300966905085109e-07 1.799299814153843e-07 0 -1.3667728079822172e-06 7.7452957822077082e-08 0 -1.4413418744712895e-06 6.5768292095688121e-07 0 -6.300966905085109e-07 1.799299814153843e-07 0 -1.4413418744712895e-06 6.5768292095688121e-07 0 -1.1329394001101937e-09 3.6568370492121449e-10 0 -1.1329394001101937e-09 3.6568370492121449e-10 0 -1.1378482401297191e-09 2.5255710321529101e-10 0 -9.3000037519772785e-07 9.1233969282539255e-07 0 -1.1378482401297191e-09 2.5255710321529101e-10 0 -9.3000037519772785e-07 9.1233969282539255e-07 0 -6.0462772081612078e-10 6.8446572727698338e-10 0 -1.4413418744712895e-06 6.5768292095688121e-07 0 -9.3000037519772785e-07 9.1233969282539255e-07 0 -2.0309171024790284e-06 1.4007100446078171e-06 0 -1.4413418744712895e-06 6.5768292095688121e-07 0 -1.1329394001101937e-09 3.6568370492121449e-10 0 -9.3000037519772785e-07 9.1233969282539255e-07 0 -9.3000037519772785e-07 9.1233969282539255e-07 0 -2.0309171024790284e-06 1.4007100446078171e-06 0 -1.0885860574887193e-06 1.5167956431185133e-06 0 -2.0309171024790284e-06 1.4007100446078171e-06 0 -1.0885860574887193e-06 1.5167956431185133e-06 0 -2.0899150707762451e-06 1.9652605945304519e-06 0 -2.0309171024790284e-06 1.4007100446078171e-06 0 -3.1424873085984035e-06 1.8407905638472123e-06 0 -2.0899150707762451e-06 1.9652605945304519e-06 0 -3.142487308598403e-06 1.8407905638472123e-06 0 -2.0899150707762451e-06 1.9652605945304519e-06 0 -2.5437676348730659e-06 2.3494046382450644e-06 0 -3.142487308598403e-06 1.8407905638472123e-06 0 -3.0954606483412978e-06 1.1219700172570819e-06 0 -4.461248034080193e-06 1.5496430920179639e-06 0 -2.0309171024790284e-06 1.4007100446078171e-06 0 -3.142487308598403e-06 1.8407905638472123e-06 0 -3.0954606483412978e-06 1.1219700172570819e-06 0 -3.0954606483412978e-06 1.1219700172570819e-06 0 -3.1182135206637384e-06 5.2258778736190874e-07 0 -5.2899237565306324e-06 7.4507246647731327e-07 0 -1.3667728079822172e-06 7.7452957822077082e-08 0 -1.4413418744712895e-06 6.5768292095688121e-07 0 -3.1182135206637384e-06 5.2258778736190874e-07 0 -1.4413418744712895e-06 6.5768292095688121e-07 0 -3.0954606483412978e-06 1.1219700172570819e-06 0 -3.1182135206637384e-06 5.2258778736190874e-07 0 -1.4413418744712895e-06 6.5768292095688121e-07 0 -2.0309171024790284e-06 1.4007100446078171e-06 0 -3.0954606483412978e-06 1.1219700172570819e-06 0 -1.6204796692461312e-07 1.2601242866599107e-06 0 -3.8597822210561046e-10 5.0016729138638373e-10 0 -3.0979722131606316e-11 6.1123215574835232e-10 0 -1.6204796692461312e-07 1.2601242866599107e-06 0 -3.8597822210561046e-10 5.0016729138638373e-10 0 -3.8640712558053497e-07 1.0535980029749753e-06 0 -1.6204796692461312e-07 1.2601242866599107e-06 0 -3.8640712558053502e-07 1.0535980029749755e-06 0 -6.9008994761825287e-07 1.9819404620268527e-06 0 -3.8640712558053497e-07 1.0535980029749753e-06 0 -6.0462772081612078e-10 6.8446572727698338e-10 0 -1.0885860574887193e-06 1.5167956431185133e-06 0 -9.3000037519772785e-07 9.1233969282539255e-07 0 -6.0462772081612078e-10 6.8446572727698338e-10 0 -1.0885860574887193e-06 1.5167956431185133e-06 0 -3.8640712558053497e-07 1.0535980029749753e-06 0 -1.0885860574887193e-06 1.5167956431185133e-06 0 -6.9008994761825287e-07 1.9819404620268527e-06 0 -3.8597822210561046e-10 5.0016729138638373e-10 0 -3.8640712558053497e-07 1.0535980029749753e-06 0 -6.0462772081612078e-10 6.8446572727698338e-10 0 -1.0885860574887193e-06 1.5167956431185133e-06 0 -2.0899150707762451e-06 1.9652605945304519e-06 0 -1.5098488150208284e-06 2.1884078101448014e-06 0 -2.0899150707762451e-06 1.9652605945304519e-06 0 -1.5098488150208284e-06 2.1884078101448014e-06 0 -2.5437676348730659e-06 2.3494046382450644e-06 0 -1.0885860574887193e-06 1.5167956431185133e-06 0 -1.5098488150208284e-06 2.1884078101448014e-06 0 -6.9008994761825287e-07 1.9819404620268527e-06 0 -6.9008994761825287e-07 1.9819404620268527e-06 0 -7.0662165974361684e-08 2.2133002264114583e-06 0 -1.0530160064088941e-06 2.5761059328926327e-06 0 -1.5098488150208284e-06 2.1884078101448014e-06 0 -6.9008994761825287e-07 1.9819404620268527e-06 0 -1.0530160064088941e-06 2.5761059328926327e-06 0 -1.6204796692461312e-07 1.2601242866599107e-06 0 -6.9008994761825287e-07 1.9819404620268527e-06 0 -7.0662165974361684e-08 2.2133002264114583e-06 0 -1.6204796692461312e-07 1.2601242866599107e-06 0 -7.0662165974361684e-08 2.2133002264114583e-06 0 1.6489931616131134e-07 1.3773795474031406e-06 0 -7.0662165974361684e-08 2.2133002264114583e-06 0 -1.5081187160998921e-07 2.6073825636236456e-06 0 -1.0530160064088941e-06 2.5761059328926327e-06 0 -4.1405366843367467e-07 2.6601281182324732e-06 0 -1.5081187160998908e-07 2.6073825636236451e-06 0 -1.0530160064088941e-06 2.5761059328926327e-06 0 -4.1405366843367467e-07 2.6601281182324732e-06 0 -1.0530160064088941e-06 2.5761059328926327e-06 0 -1.9168187403577213e-06 2.5577503119326275e-06 0 -1.9168187403577213e-06 2.5577503119326275e-06 0 -2.5437676348730659e-06 2.3494046382450644e-06 0 -3.5331954318017802e-06 2.2700630458794465e-06 0 -1.5098488150208284e-06 2.1884078101448014e-06 0 -1.0530160064088941e-06 2.5761059328926327e-06 0 -2.5437676348730659e-06 2.3494046382450644e-06 0 -1.0530160064088941e-06 2.5761059328926327e-06 0 -1.9168187403577213e-06 2.5577503119326275e-06 0 -2.5437676348730659e-06 2.3494046382450644e-06 0 -2.5437676348730659e-06 2.3494046382450644e-06 0 -3.5331954318017797e-06 2.2700630458794465e-06 0 -4.0306424866830569e-06 2.0162461675611781e-06 0 -3.5331954318017802e-06 2.2700630458794465e-06 0 -4.989295668902194e-06 1.7536022446398378e-06 0 -2.6384631571057346e-06 2.2244461245326108e-06 0 -4.989295668902194e-06 1.7536022446398378e-06 0 -2.6384631571057346e-06 2.2244461245326108e-06 0 -4.1723244986331474e-06 1.4673659510095187e-06 0 -2.6384631571057346e-06 2.2244461245326108e-06 0 -4.1723244986331474e-06 1.4673659510095185e-06 0 -2.5263699922722348e-06 1.4764948954944622e-06 0 -1.9168187403577213e-06 2.5577503119326275e-06 0 -3.5331954318017802e-06 2.2700630458794465e-06 0 -2.6384631571057346e-06 2.2244461245326108e-06 0 -4.1405366843367467e-07 2.6601281182324732e-06 0 -1.9168187403577213e-06 2.5577503119326275e-06 0 -9.9141222613093884e-07 2.3107734804988345e-06 0 -1.9168187403577213e-06 2.5577503119326275e-06 0 -2.6384631571057346e-06 2.2244461245326108e-06 0 -9.9141222613093884e-07 2.3107734804988345e-06 0 -2.6384631571057346e-06 2.2244461245326108e-06 0 -9.9141222613093884e-07 2.3107734804988345e-06 0 -2.5263699922722348e-06 1.4764948954944622e-06 0 -9.9141222613093884e-07 2.3107734804988345e-06 0 5.1477823186467563e-07 1.8718452052594138e-06 0 7.2035355072596534e-07 2.4758935328920707e-06 0 -4.1405366843367467e-07 2.6601281182324732e-06 0 -9.9141222613093884e-07 2.3107734804988345e-06 0 7.2035355072596534e-07 2.4758935328920707e-06 0 -6.3674525817857521e-06 1.1791062549094473e-06 0 -5.2899237565306324e-06 7.4507246647731327e-07 0 -4.461248034080193e-06 1.5496430920179639e-06 0 -6.3674525817857521e-06 1.1791062549094473e-06 0 -4.461248034080193e-06 1.5496430920179639e-06 0 -5.7310353081602413e-06 1.6929478979411632e-06 0 -6.3674525817857521e-06 1.1791062549094473e-06 0 -5.2899237565306324e-06 7.4507246647731327e-07 0 -7.8771597660067573e-06 4.1370835392008205e-07 0 -3.0954606483412978e-06 1.1219700172570819e-06 0 -5.2899237565306324e-06 7.4507246647731327e-07 0 -4.461248034080193e-06 1.5496430920179639e-06 0 -3.142487308598403e-06 1.8407905638472123e-06 0 -4.461248034080193e-06 1.5496430920179639e-06 0 -4.0306424866830569e-06 2.0162461675611781e-06 0 -3.142487308598403e-06 1.8407905638472123e-06 0 -2.5437676348730659e-06 2.3494046382450644e-06 0 -4.0306424866830569e-06 2.0162461675611781e-06 0 -3.5331954318017802e-06 2.2700630458794465e-06 0 -4.0306424866830569e-06 2.0162461675611781e-06 0 -5.7310353081602413e-06 1.6929478979411632e-06 0 -4.461248034080193e-06 1.5496430920179639e-06 0 -4.0306424866830569e-06 2.0162461675611781e-06 0 -5.7310353081602413e-06 1.6929478979411632e-06 0 -3.5331954318017802e-06 2.2700630458794465e-06 0 -4.989295668902194e-06 1.7536022446398378e-06 0 -5.7310353081602413e-06 1.6929478979411632e-06 0 -4.989295668902194e-06 1.7536022446398378e-06 0 -5.7310353081602413e-06 1.6929478979411632e-06 0 -7.1196608819456891e-06 1.1124522982285243e-06 0 -4.989295668902194e-06 1.7536022446398378e-06 0 -7.1196608819456891e-06 1.1124522982285243e-06 0 -6.7684409594117286e-06 6.7330706576447591e-07 0 -5.7310353081602413e-06 1.6929478979411632e-06 0 -7.1196608819456891e-06 1.1124522982285243e-06 0 -8.0824441371736293e-06 8.0140368196422702e-07 0 -7.1196608819456891e-06 1.1124522982285243e-06 0 -8.0824441371736293e-06 8.0140368196422702e-07 0 -9.8313538431320524e-06 -9.4017280633228356e-08 0 -6.3674525817857521e-06 1.1791062549094473e-06 0 -5.7310353081602413e-06 1.6929478979411632e-06 0 -8.0824441371736293e-06 8.0140368196422702e-07 0 -6.3674525817857521e-06 1.1791062549094473e-06 0 -8.0824441371736293e-06 8.0140368196422702e-07 0 -7.8771597660067573e-06 4.1370835392008205e-07 0 -8.0824441371736293e-06 8.0140368196422702e-07 0 -7.8771597660067573e-06 4.137083539200822e-07 0 -1.0836333922429918e-05 -5.2041578422931533e-07 0 -1.0836333922429918e-05 -5.2041578422931533e-07 0 -9.8313538431320524e-06 -9.4017280633228356e-08 0 -1.4002663955306292e-05 -2.1722939709192805e-06 0 -8.0824441371736293e-06 8.0140368196422702e-07 0 -1.0836333922429918e-05 -5.2041578422931533e-07 0 -9.8313538431320524e-06 -9.4017280633228356e-08 0 -9.8313538431320524e-06 -9.4017280633228356e-08 0 -1.4002663955306292e-05 -2.1722939709192805e-06 0 -1.3216667236218198e-05 -2.2716096831032784e-06 0 -1.4002663955306292e-05 -2.1722939709192805e-06 0 -1.3216667236218198e-05 -2.2716096831032784e-06 0 -1.7691690307140843e-05 -4.7006878094316851e-06 0 -1.3216667236218198e-05 -2.2716096831032784e-06 0 -1.6076147925419232e-05 -4.5644648287428614e-06 0 -1.1793466608015617e-05 -3.0743204799956358e-06 0 -1.6076147925419232e-05 -4.5644648287428614e-06 0 -1.1793466608015617e-05 -3.0743204799956358e-06 0 -1.634881583027791e-05 -6.6388665211454729e-06 0 -1.3216667236218198e-05 -2.2716096831032784e-06 0 -1.6076147925419232e-05 -4.5644648287428614e-06 0 -1.7691690307140843e-05 -4.7006878094316851e-06 0 -1.6076147925419232e-05 -4.5644648287428614e-06 0 -1.7691690307140843e-05 -4.7006878094316851e-06 0 -2.1799024116622242e-05 -8.2473174396915499e-06 0 -1.1793466608015617e-05 -3.0743204799956358e-06 0 -7.6246488229547426e-06 -2.9257236164173089e-06 0 -1.1223387145196854e-05 -5.8250786569704304e-06 0 -1.1793466608015617e-05 -3.0743204799956358e-06 0 -7.9013510639293572e-06 -1.0023580876352421e-06 0 -7.6246488229547426e-06 -2.9257236164173089e-06 0 -1.3216667236218198e-05 -2.2716096831032784e-06 0 -1.1793466608015617e-05 -3.0743204799956358e-06 0 -9.9092011446113222e-06 -9.5449390397260997e-07 0 -1.1793466608015617e-05 -3.0743204799956358e-06 0 -7.9013510639293572e-06 -1.0023580876352421e-06 0 -9.9092011446113222e-06 -9.5449390397260997e-07 0 -7.9013510639293572e-06 -1.0023580876352421e-06 0 -9.9092011446113222e-06 -9.5449390397260997e-07 0 -6.7684409594117286e-06 6.7330706576447591e-07 0 -9.8313538431320524e-06 -9.4017280633228356e-08 0 -1.3216667236218198e-05 -2.2716096831032784e-06 0 -9.9092011446113222e-06 -9.5449390397260997e-07 0 -9.8313538431320524e-06 -9.4017280633228356e-08 0 -9.9092011446113205e-06 -9.5449390397260975e-07 0 -6.7684409594117286e-06 6.7330706576447591e-07 0 -7.1196608819456891e-06 1.1124522982285243e-06 0 -9.8313538431320524e-06 -9.4017280633228356e-08 0 -6.7684409594117286e-06 6.7330706576447591e-07 0 -4.989295668902194e-06 1.7536022446398378e-06 0 -6.7684409594117286e-06 6.7330706576447591e-07 0 -4.1723244986331474e-06 1.4673659510095187e-06 0 -6.7684409594117286e-06 6.7330706576447591e-07 0 -4.1723244986331474e-06 1.4673659510095187e-06 0 -4.8358463679705258e-06 4.3745342161371075e-07 0 -4.1723244986331474e-06 1.4673659510095187e-06 0 -4.8358463679705258e-06 4.3745342161371075e-07 0 -2.5263699922722348e-06 1.4764948954944622e-06 0 -4.8358463679705258e-06 4.3745342161371075e-07 0 -2.6533639908699972e-06 -5.699426172828215e-09 0 -5.2360415310548093e-06 -1.03217465654134e-06 0 -4.8358463679705258e-06 4.3745342161371075e-07 0 -2.5263699922722343e-06 1.4764948954944622e-06 0 -2.6533639908699972e-06 -5.699426172828215e-09 0 -7.9013510639293572e-06 -1.0023580876352421e-06 0 -6.7684409594117286e-06 6.7330706576447591e-07 0 -4.8358463679705258e-06 4.3745342161371075e-07 0 -9.9141222613093884e-07 2.3107734804988345e-06 0 -7.3111209220274825e-07 1.1961772086156475e-06 0 5.1477823186467563e-07 1.8718452052594138e-06 0 -9.9141222613093884e-07 2.3107734804988345e-06 0 -7.3111209220274793e-07 1.1961772086156477e-06 0 -2.5263699922722348e-06 1.4764948954944622e-06 0 -7.3111209220274793e-07 1.1961772086156477e-06 0 -2.5263699922722348e-06 1.4764948954944622e-06 0 -2.6533639908699972e-06 -5.699426172828215e-09 0 -7.3111209220274793e-07 1.1961772086156477e-06 0 -1.8809769061163485e-07 -8.3845558574896234e-07 0 1.3346402150534213e-06 9.5758732532077754e-07 0 -7.3111209220274793e-07 1.1961772086156477e-06 0 -1.8809769061163535e-07 -8.3845558574896234e-07 0 -2.6533639908699972e-06 -5.699426172828215e-09 0 -1.8809769061163498e-07 -8.3845558574896234e-07 0 -2.6533639908699972e-06 -5.699426172828215e-09 0 -3.7245627590383507e-06 -2.1507952421356088e-06 0 -1.8809769061163498e-07 -8.3845558574896234e-07 0 -3.7245627590383507e-06 -2.1507952421356088e-06 0 -1.3809871273606666e-06 -3.7670918926738195e-06 0 -1.8809769061163498e-07 -8.3845558574896234e-07 0 -1.3809871273606666e-06 -3.7670918926738195e-06 0 2.0628232982134485e-06 -2.8029171710312221e-06 0 -7.9013510639293572e-06 -1.0023580876352421e-06 0 -4.8358463679705258e-06 4.3745342161371043e-07 0 -5.2360415310548093e-06 -1.03217465654134e-06 0 -7.9013510639293572e-06 -1.0023580876352421e-06 0 -5.2360415310548093e-06 -1.03217465654134e-06 0 -7.6246488229547426e-06 -2.9257236164173089e-06 0 -2.6533639908699972e-06 -5.699426172828215e-09 0 -5.2360415310548093e-06 -1.03217465654134e-06 0 -3.7245627590383507e-06 -2.1507952421356088e-06 0 -3.7245627590383507e-06 -2.1507952421356088e-06 0 -7.6246488229547426e-06 -2.9257236164173089e-06 0 -5.9908760124000743e-06 -5.0237385486932765e-06 0 -5.2360415310548093e-06 -1.03217465654134e-06 0 -3.7245627590383507e-06 -2.1507952421356088e-06 0 -7.6246488229547426e-06 -2.9257236164173089e-06 0 -7.6246488229547426e-06 -2.9257236164173089e-06 0 -5.9908760124000743e-06 -5.0237385486932765e-06 0 -1.1223387145196854e-05 -5.8250786569704304e-06 0 -5.9908760124000743e-06 -5.0237385486932765e-06 0 -3.1276742602155537e-06 -7.1343899091109397e-06 0 -9.5154417889507165e-06 -9.4369131002649162e-06 0 -5.9908760124000743e-06 -5.0237385486932765e-06 0 -9.5154417889507165e-06 -9.4369131002649162e-06 0 -1.1223387145196854e-05 -5.8250786569704304e-06 0 -1.3809871273606666e-06 -3.7670918926738195e-06 0 1.34376405042111e-06 -5.941388620267915e-06 0 2.0628232982134485e-06 -2.8029171710312221e-06 0 -3.7245627590383507e-06 -2.1507952421356088e-06 0 -5.9908760124000743e-06 -5.0237385486932765e-06 0 -1.3809871273606666e-06 -3.7670918926738195e-06 0 -5.9908760124000743e-06 -5.0237385486932765e-06 0 -1.3809871273606666e-06 -3.7670918926738199e-06 0 -3.1276742602155537e-06 -7.1343899091109397e-06 0 -1.3809871273606666e-06 -3.7670918926738195e-06 0 -3.1276742602155537e-06 -7.1343899091109397e-06 0 1.3437640504211096e-06 -5.941388620267915e-06 0 -3.1276742602155537e-06 -7.1343899091109397e-06 0 -2.8655531656748729e-07 -1.0048490401754271e-05 0 1.3437640504211096e-06 -5.941388620267915e-06 0 -3.1276742602155537e-06 -7.1343899091109397e-06 0 -2.8655531656748729e-07 -1.0048490401754271e-05 0 -4.8692428693493836e-06 -1.2094965924253722e-05 0 -4.8692428693493836e-06 -1.2094965924253722e-05 0 -7.7289810867649557e-06 -1.872065730768356e-05 0 -2.7551659934401087e-06 -1.6342718123250806e-05 0 -2.8655531656748729e-07 -1.0048490401754271e-05 0 -4.8692428693493836e-06 -1.2094965924253722e-05 0 -2.7551659934401087e-06 -1.6342718123250806e-05 0 -2.8655531656748729e-07 -1.0048490401754271e-05 0 2.2239475647373462e-06 -1.3461771151784475e-05 0 -2.7551659934401087e-06 -1.6342718123250806e-05 0 -9.5154417889507165e-06 -9.4369131002649162e-06 0 -4.8692428693493836e-06 -1.2094965924253722e-05 0 -1.0501030040916962e-05 -1.4488883603605664e-05 0 -3.1276742602155537e-06 -7.1343899091109397e-06 0 -9.5154417889507165e-06 -9.4369131002649162e-06 0 -4.8692428693493836e-06 -1.2094965924253722e-05 0 -4.8692428693493836e-06 -1.2094965924253722e-05 0 -1.0501030040916962e-05 -1.4488883603605664e-05 0 -7.7289810867649557e-06 -1.872065730768356e-05 0 -9.5154417889507165e-06 -9.4369131002649162e-06 0 -1.0501030040916962e-05 -1.4488883603605664e-05 0 -1.6374938873152742e-05 -1.456351309977013e-05 0 -1.0501030040916962e-05 -1.4488883603605664e-05 0 -1.6374938873152745e-05 -1.456351309977013e-05 0 -1.4056778877485236e-05 -1.8597362658754303e-05 0 -9.5154417889507165e-06 -9.4369131002649162e-06 0 -1.6374938873152742e-05 -1.456351309977013e-05 0 -1.607083402733676e-05 -9.9404410520879415e-06 0 -1.6374938873152742e-05 -1.456351309977013e-05 0 -2.2244432149067188e-05 -1.4525155166945682e-05 0 -1.607083402733676e-05 -9.9404410520879415e-06 0 -1.6374938873152742e-05 -1.456351309977013e-05 0 -2.2244432149067191e-05 -1.4525155166945682e-05 0 -2.3358591563395104e-05 -2.1813320178002081e-05 0 -2.2244432149067188e-05 -1.4525155166945682e-05 0 -3.056839277206457e-05 -1.973058876778645e-05 0 -2.3358591563395104e-05 -2.1813320178002081e-05 0 -2.2244432149067188e-05 -1.4525155166945682e-05 0 -3.056839277206457e-05 -1.973058876778645e-05 0 -2.6151458222487681e-05 -1.3260874116491698e-05 0 -2.2244432149067188e-05 -1.4525155166945682e-05 0 -2.6151458222487681e-05 -1.3260874116491698e-05 0 -2.0531620508139341e-05 -1.0357805965446288e-05 0 -2.2244432149067188e-05 -1.4525155166945682e-05 0 -2.0531620508139341e-05 -1.0357805965446288e-05 0 -1.607083402733676e-05 -9.9404410520879415e-06 0 -2.0531620508139341e-05 -1.0357805965446288e-05 0 -2.1799024116622242e-05 -8.2473174396915499e-06 0 -1.634881583027791e-05 -6.6388665211454729e-06 0 -2.0531620508139341e-05 -1.0357805965446288e-05 0 -1.634881583027791e-05 -6.6388665211454729e-06 0 -1.607083402733676e-05 -9.9404410520879415e-06 0 -2.6151458222487681e-05 -1.3260874116491698e-05 0 -2.0531620508139341e-05 -1.0357805965446288e-05 0 -2.1799024116622242e-05 -8.2473174396915499e-06 0 -1.6076147925419232e-05 -4.5644648287428614e-06 0 -2.1799024116622242e-05 -8.2473174396915499e-06 0 -1.634881583027791e-05 -6.6388665211454729e-06 0 -1.1793466608015617e-05 -3.0743204799956358e-06 0 -1.634881583027791e-05 -6.6388665211454729e-06 0 -1.1223387145196854e-05 -5.8250786569704304e-06 0 -9.5154417889507165e-06 -9.4369131002649162e-06 0 -1.1223387145196854e-05 -5.8250786569704304e-06 0 -1.607083402733676e-05 -9.9404410520879415e-06 0 -1.634881583027791e-05 -6.6388665211454729e-06 0 -1.1223387145196854e-05 -5.8250786569704313e-06 0 -1.607083402733676e-05 -9.9404410520879415e-06 0 6.9233366594456363e-06 -2.7880386299183858e-06 0 7.717097509350506e-06 -6.3446297634570482e-07 0 8.3202284641595678e-06 -1.6935696059349263e-06 0 6.9233366594456363e-06 -2.7880386299183858e-06 0 6.4637441882310107e-06 -1.3790670447963871e-06 0 7.717097509350506e-06 -6.3446297634570472e-07 0 6.9233366594456363e-06 -2.7880386299183858e-06 0 6.4637441882310107e-06 -1.3790670447963871e-06 0 5.4602884642402521e-06 -3.058864229368928e-06 0 7.717097509350506e-06 -6.3446297634570472e-07 0 9.353470017787757e-06 5.8251477313551854e-07 0 8.3202284641595678e-06 -1.6935696059349263e-06 0 9.353470017787757e-06 5.8251477313551854e-07 0 1.0546447270994285e-05 3.6578080364949018e-07 0 1.1041270884534804e-05 2.1660249530758779e-06 0 9.353470017787757e-06 5.8251477313551854e-07 0 1.0546447270994285e-05 3.6578080364949013e-07 0 8.3202284641595678e-06 -1.6935696059349263e-06 0 1.0546447270994285e-05 3.6578080364949013e-07 0 8.3202284641595678e-06 -1.6935696059349263e-06 0 9.3154905336070502e-06 -1.8947569353816794e-06 0 8.3202284641595678e-06 -1.6935696059349263e-06 0 9.3154905336070502e-06 -1.8947569353816794e-06 0 8.1364481683731739e-06 -4.0758322716905104e-06 0 1.0546447270994285e-05 3.6578080364949013e-07 0 9.3154905336070502e-06 -1.8947569353816794e-06 0 1.0340461798010121e-05 -2.426954160005864e-06 0 9.3154905336070502e-06 -1.8947569353816794e-06 0 1.0340461798010121e-05 -2.426954160005864e-06 0 8.1364481683731739e-06 -4.0758322716905104e-06 0 8.1364481683731739e-06 -4.0758322716905104e-06 0 6.7659949535841138e-06 -4.708926832329333e-06 0 6.1850131218227652e-06 -7.1310663204417692e-06 0 8.3202284641595678e-06 -1.6935696059349263e-06 0 8.1364481683731739e-06 -4.0758322716905104e-06 0 6.7659949535841138e-06 -4.7089268323293339e-06 0 6.9233366594456363e-06 -2.7880386299183858e-06 0 8.3202284641595678e-06 -1.6935696059349263e-06 0 6.7659949535841138e-06 -4.7089268323293339e-06 0 6.9233366594456363e-06 -2.7880386299183858e-06 0 6.7659949535841138e-06 -4.7089268323293339e-06 0 5.9380238332910754e-06 -5.0240581651278305e-06 0 6.7659949535841138e-06 -4.7089268323293339e-06 0 5.2845496323198892e-06 -7.6069772746686119e-06 0 6.1850131218227652e-06 -7.1310663204417692e-06 0 5.2845496323198892e-06 -7.6069772746686119e-06 0 5.6093597226444034e-06 -7.6908000945759966e-06 0 6.3430259812466113e-06 -1.1370534104788442e-05 0 5.2845496323198892e-06 -7.6069772746686119e-06 0 5.6093597226444034e-06 -7.6908000945759983e-06 0 5.9380238332910754e-06 -5.0240581651278305e-06 0 5.6093597226444043e-06 -7.6908000945759966e-06 0 5.9380238332910754e-06 -5.0240581651278305e-06 0 4.5690175773064475e-06 -4.879932145942367e-06 0 6.7659949535841138e-06 -4.7089268323293339e-06 0 5.2845496323198892e-06 -7.6069772746686119e-06 0 5.9380238332910754e-06 -5.0240581651278305e-06 0 2.2239475647373462e-06 -1.3461771151784473e-05 0 3.9447264003514955e-06 -8.5136912012070251e-06 0 6.3430259812466113e-06 -1.1370534104788442e-05 0 -2.8655531656748729e-07 -1.0048490401754271e-05 0 2.2239475647373462e-06 -1.3461771151784473e-05 0 3.9447264003514955e-06 -8.5136912012070251e-06 0 5.6093597226444043e-06 -7.6908000945759966e-06 0 3.9447264003514955e-06 -8.5136912012070251e-06 0 6.3430259812466113e-06 -1.1370534104788442e-05 0 5.6093597226444043e-06 -7.6908000945759966e-06 0 3.9447264003514955e-06 -8.5136912012070251e-06 0 4.5690175773064475e-06 -4.879932145942367e-06 0 -2.8655531656748729e-07 -1.0048490401754271e-05 0 3.9447264003514955e-06 -8.5136912012070251e-06 0 1.3437640504211096e-06 -5.941388620267915e-06 0 3.9447264003514955e-06 -8.5136912012070251e-06 0 1.3437640504211096e-06 -5.941388620267915e-06 0 4.5690175773064475e-06 -4.879932145942367e-06 0 1.3437640504211096e-06 -5.941388620267915e-06 0 4.5690175773064475e-06 -4.879932145942367e-06 0 2.0628232982134485e-06 -2.8029171710312221e-06 0 4.5690175773064475e-06 -4.879932145942367e-06 0 2.0628232982134485e-06 -2.8029171710312221e-06 0 4.1313912659181243e-06 -1.7768730958527426e-06 0 6.9233366594456363e-06 -2.7880386299183858e-06 0 5.9380238332910754e-06 -5.0240581651278305e-06 0 5.4602884642402521e-06 -3.058864229368928e-06 0 5.9380238332910754e-06 -5.0240581651278305e-06 0 4.5690175773064467e-06 -4.8799321459423662e-06 0 5.4602884642402521e-06 -3.058864229368928e-06 0 4.5690175773064475e-06 -4.879932145942367e-06 0 5.4602884642402513e-06 -3.0588642293689284e-06 0 4.1313912659181243e-06 -1.7768730958527426e-06 0 5.4602884642402521e-06 -3.058864229368928e-06 0 4.1313912659181243e-06 -1.7768730958527426e-06 0 5.3897070332058458e-06 1.6679389709175482e-07 0 6.4637441882310107e-06 -1.3790670447963871e-06 0 5.4602884642402521e-06 -3.058864229368928e-06 0 5.3897070332058458e-06 1.6679389709175482e-07 0 4.1313912659181243e-06 -1.7768730958527426e-06 0 3.9951815280142431e-06 -4.501457888164425e-08 0 5.3897070332058458e-06 1.6679389709175482e-07 0 3.9951815280142431e-06 -4.501457888164425e-08 0 5.3897070332058458e-06 1.6679389709175482e-07 0 4.3999315154206646e-06 1.0044053865863108e-06 0 -1.8809769061163498e-07 -8.3845558574896234e-07 0 2.0628232982134485e-06 -2.8029171710312221e-06 0 2.5118735459140291e-06 -5.0415374893042876e-07 0 2.0628232982134485e-06 -2.8029171710312221e-06 0 4.1313912659181243e-06 -1.7768730958527426e-06 0 2.5118735459140291e-06 -5.0415374893042876e-07 0 4.1313912659181243e-06 -1.7768730958527426e-06 0 3.9951815280142431e-06 -4.5014578881644131e-08 0 2.5118735459140291e-06 -5.0415374893042876e-07 0 3.9951815280142431e-06 -4.501457888164425e-08 0 2.5118735459140291e-06 -5.0415374893042876e-07 0 3.0951836226960406e-06 9.7135374600921027e-07 0 -1.8809769061163498e-07 -8.3845558574896234e-07 0 2.5118735459140291e-06 -5.0415374893042854e-07 0 1.3346402150534213e-06 9.5758732532077754e-07 0 2.5118735459140291e-06 -5.0415374893042876e-07 0 1.3346402150534213e-06 9.5758732532077775e-07 0 3.0951836226960406e-06 9.7135374600921027e-07 0 1.3346402150534213e-06 9.5758732532077754e-07 0 3.0951836226960406e-06 9.7135374600921027e-07 0 2.0715269483109046e-06 2.0533412672434231e-06 0 1.3346402150534213e-06 9.5758732532077754e-07 0 5.1477823186467563e-07 1.8718452052594138e-06 0 2.0715269483109046e-06 2.0533412672434231e-06 0 -7.3111209220274793e-07 1.1961772086156477e-06 0 1.3346402150534213e-06 9.5758732532077754e-07 0 5.1477823186467563e-07 1.8718452052594138e-06 0 5.3897070332058458e-06 1.6679389709175482e-07 0 4.3999315154206646e-06 1.0044053865863108e-06 0 5.2506913668251674e-06 1.5964504037227307e-06 0 3.9951815280142431e-06 -4.501457888164425e-08 0 4.3999315154206646e-06 1.0044053865863108e-06 0 3.0951836226960406e-06 9.7135374600921027e-07 0 4.3999315154206646e-06 1.0044053865863108e-06 0 3.0951836226960406e-06 9.7135374600921027e-07 0 3.723016602869188e-06 1.7822077695289327e-06 0 3.0951836226960406e-06 9.7135374600921027e-07 0 3.723016602869188e-06 1.7822077695289327e-06 0 2.0715269483109046e-06 2.0533412672434231e-06 0 4.3999315154206646e-06 1.0044053865863108e-06 0 3.723016602869188e-06 1.7822077695289327e-06 0 5.2506913668251674e-06 1.5964504037227307e-06 0 3.723016602869188e-06 1.7822077695289327e-06 0 5.2506913668251674e-06 1.5964504037227307e-06 0 3.8251192984560039e-06 2.2282566235887533e-06 0 5.2506913668251674e-06 1.5964504037227307e-06 0 6.879866161620546e-06 1.6661669805988393e-06 0 5.290926573142765e-06 2.0223482227008739e-06 0 6.879866161620546e-06 1.6661669805988391e-06 0 6.9385279730344694e-06 1.9554079104811025e-06 0 5.290926573142765e-06 2.0223482227008739e-06 0 5.2506913668251674e-06 1.5964504037227307e-06 0 6.879866161620546e-06 1.6661669805988391e-06 0 6.4921114329850197e-06 9.5755253581853117e-07 0 5.3897070332058458e-06 1.6679389709175482e-07 0 5.2506913668251674e-06 1.5964504037227307e-06 0 6.4921114329850197e-06 9.5755253581853117e-07 0 5.3897070332058458e-06 1.6679389709175482e-07 0 6.4921114329850197e-06 9.5755253581853117e-07 0 6.8675247119865395e-06 4.5111123974173224e-08 0 6.4921114329850197e-06 9.5755253581853117e-07 0 6.8675247119865395e-06 4.5111123974173224e-08 0 8.0537557122651105e-06 1.0241275201338468e-06 0 6.879866161620546e-06 1.6661669805988391e-06 0 6.4921114329850197e-06 9.5755253581853117e-07 0 8.0537557122651105e-06 1.0241275201338468e-06 0 7.717097509350506e-06 -6.3446297634570472e-07 0 6.8675247119865395e-06 4.5111123974173224e-08 0 8.0537557122651105e-06 1.0241275201338468e-06 0 6.4637441882310107e-06 -1.3790670447963871e-06 0 7.717097509350506e-06 -6.3446297634570482e-07 0 6.8675247119865395e-06 4.5111123974173224e-08 0 6.4637441882310107e-06 -1.3790670447963871e-06 0 5.3897070332058458e-06 1.6679389709175482e-07 0 6.8675247119865395e-06 4.5111123974173224e-08 0 9.353470017787757e-06 5.8251477313551854e-07 0 9.5358011860774706e-06 1.7263338105347748e-06 0 1.1041270884534804e-05 2.1660249530758779e-06 0 9.353470017787757e-06 5.8251477313551854e-07 0 9.5358011860774706e-06 1.7263338105347748e-06 0 8.0537557122651105e-06 1.0241275201338468e-06 0 7.717097509350506e-06 -6.3446297634570472e-07 0 9.353470017787757e-06 5.8251477313551854e-07 0 8.0537557122651105e-06 1.0241275201338468e-06 0 6.879866161620546e-06 1.6661669805988391e-06 0 8.0537557122651105e-06 1.0241275201338468e-06 0 8.497743513599694e-06 1.8738469753116823e-06 0 9.5358011860774706e-06 1.7263338105347748e-06 0 8.497743513599694e-06 1.8738469753116823e-06 0 1.0530679992444455e-05 2.5385822069793994e-06 0 9.5358011860774706e-06 1.7263338105347748e-06 0 8.0537557122651105e-06 1.0241275201338468e-06 0 8.497743513599694e-06 1.8738469753116823e-06 0 8.497743513599694e-06 1.8738469753116823e-06 0 6.9385279730344694e-06 1.9554079104811025e-06 0 8.7058573400079509e-06 2.073931265359726e-06 0 6.879866161620546e-06 1.6661669805988391e-06 0 8.497743513599694e-06 1.8738469753116823e-06 0 6.9385279730344694e-06 1.9554079104811025e-06 0 6.9385279730344694e-06 1.9554079104811025e-06 0 7.1335015466320169e-06 1.8635945914221629e-06 0 8.7058573400079509e-06 2.073931265359726e-06 0 7.1335015466320169e-06 1.8635945914221629e-06 0 5.5080250460228157e-06 1.7201111490771494e-06 0 5.7093953034573329e-06 1.9835871926589434e-06 0 5.5080250460228157e-06 1.7201111490771494e-06 0 5.7093953034573329e-06 1.9835871926589434e-06 0 4.4745063783566823e-06 2.0772837527578331e-06 0 6.9385279730344694e-06 1.9554079104811025e-06 0 5.7093953034573329e-06 1.9835871926589434e-06 0 5.290926573142765e-06 2.0223482227008739e-06 0 6.9385279730344694e-06 1.9554079104811025e-06 0 7.1335015466320169e-06 1.8635945914221629e-06 0 5.7093953034573329e-06 1.9835871926589434e-06 0 5.2506913668251674e-06 1.5964504037227307e-06 0 5.2909265731427659e-06 2.0223482227008735e-06 0 3.8251192984560039e-06 2.2282566235887533e-06 0 4.4745063783566823e-06 2.0772837527578331e-06 0 3.121961276484314e-06 2.2475415345057589e-06 0 3.8251192984560039e-06 2.2282566235887533e-06 0 5.290926573142765e-06 2.0223482227008739e-06 0 4.4745063783566823e-06 2.0772837527578331e-06 0 3.8251192984560039e-06 2.2282566235887533e-06 0 5.7093953034573329e-06 1.9835871926589434e-06 0 5.290926573142765e-06 2.0223482227008739e-06 0 4.4745063783566823e-06 2.0772837527578331e-06 0 4.4745063783566823e-06 2.0772837527578331e-06 0 3.1004365677097172e-06 1.8677468494097608e-06 0 4.1270443266169709e-06 1.6956760004747703e-06 0 4.4745063783566823e-06 2.0772837527578331e-06 0 3.121961276484314e-06 2.2475415345057589e-06 0 3.1004365677097172e-06 1.8677468494097608e-06 0 3.121961276484314e-06 2.2475415345057589e-06 0 3.1004365677097172e-06 1.8677468494097608e-06 0 2.0554599945094352e-06 1.9200540587084148e-06 0 3.1004365677097172e-06 1.8677468494097608e-06 0 4.1270443266169709e-06 1.6956760004747703e-06 0 2.8566645040146288e-06 1.3435492362868301e-06 0 4.1270443266169709e-06 1.6956760004747703e-06 0 2.8566645040146288e-06 1.3435492362868301e-06 0 3.4739877824733509e-06 9.6738155068244665e-07 0 4.1270443266169709e-06 1.6956760004747703e-06 0 3.4739877824733509e-06 9.6738155068244643e-07 0 4.9399141708986878e-06 1.2701390990965848e-06 0 5.5080250460228157e-06 1.7201111490771494e-06 0 4.1270443266169709e-06 1.6956760004747701e-06 0 4.9399141708986878e-06 1.2701390990965848e-06 0 5.5080250460228157e-06 1.7201111490771494e-06 0 4.4745063783566823e-06 2.0772837527578331e-06 0 4.1270443266169709e-06 1.6956760004747703e-06 0 5.1477823186467563e-07 1.8718452052594138e-06 0 7.2035355072596544e-07 2.4758935328920707e-06 0 2.0715269483109046e-06 2.0533412672434231e-06 0 7.2035355072596534e-07 2.4758935328920707e-06 0 2.0715269483109046e-06 2.0533412672434231e-06 0 1.9972658535866182e-06 2.5022233944445418e-06 0 7.2035355072596534e-07 2.4758935328920707e-06 0 1.9972658535866182e-06 2.5022233944445418e-06 0 8.5301996639731682e-07 2.6424188629170016e-06 0 1.9972658535866182e-06 2.5022233944445418e-06 0 2.94268273082472e-06 2.2290503688906402e-06 0 2.7615371784495192e-06 2.4043869825672768e-06 0 2.0715269483109046e-06 2.0533412672434231e-06 0 1.9972658535866182e-06 2.5022233944445418e-06 0 2.94268273082472e-06 2.2290503688906402e-06 0 3.723016602869188e-06 1.7822077695289327e-06 0 2.0715269483109046e-06 2.0533412672434231e-06 0 2.94268273082472e-06 2.2290503688906402e-06 0 3.723016602869188e-06 1.7822077695289327e-06 0 2.94268273082472e-06 2.2290503688906402e-06 0 3.8251192984560039e-06 2.2282566235887533e-06 0 2.94268273082472e-06 2.2290503688906402e-06 0 3.8251192984560039e-06 2.2282566235887533e-06 0 2.7615371784495192e-06 2.4043869825672768e-06 0 3.121961276484314e-06 2.2475415345057589e-06 0 3.8251192984560039e-06 2.2282566235887533e-06 0 2.7615371784495192e-06 2.4043869825672768e-06 0 3.121961276484314e-06 2.2475415345057589e-06 0 2.7615371784495192e-06 2.4043869825672768e-06 0 1.7555525486331383e-06 2.4440986298234478e-06 0 3.121961276484314e-06 2.2475415345057589e-06 0 1.7555525486331383e-06 2.4440986298234478e-06 0 2.0554599945094352e-06 1.9200540587084148e-06 0 1.9972658535866182e-06 2.5022233944445418e-06 0 2.7615371784495188e-06 2.4043869825672768e-06 0 1.7555525486331383e-06 2.4440986298234478e-06 0 1.9972658535866182e-06 2.5022233944445418e-06 0 1.7555525486331381e-06 2.4440986298234478e-06 0 8.5301996639731682e-07 2.6424188629170016e-06 0 1.7555525486331383e-06 2.4440986298234478e-06 0 8.5301996639731672e-07 2.6424188629170016e-06 0 4.0885754974222376e-07 2.4781381740676506e-06 0 -1.5081187160998921e-07 2.6073825636236456e-06 0 8.5301996639731682e-07 2.6424188629170016e-06 0 4.0885754974222376e-07 2.4781381740676506e-06 0 -4.1405366843367467e-07 2.6601281182324732e-06 0 7.2035355072596534e-07 2.4758935328920707e-06 0 8.5301996639731682e-07 2.6424188629170016e-06 0 -4.1405366843367467e-07 2.6601281182324732e-06 0 -1.5081187160998921e-07 2.6073825636236456e-06 0 8.5301996639731682e-07 2.6424188629170016e-06 0 -7.0662165974361684e-08 2.2133002264114583e-06 0 7.4564370554855923e-07 2.0954503314900615e-06 0 1.6489931616131134e-07 1.3773795474031406e-06 0 -7.0662165974361684e-08 2.2133002264114583e-06 0 -1.5081187160998921e-07 2.6073825636236456e-06 0 4.0885754974222376e-07 2.4781381740676506e-06 0 -7.0662165974361684e-08 2.2133002264114583e-06 0 4.0885754974222376e-07 2.4781381740676506e-06 0 7.4564370554855923e-07 2.0954503314900615e-06 0 1.7555525486331383e-06 2.4440986298234478e-06 0 4.0885754974222376e-07 2.4781381740676506e-06 0 7.4564370554855923e-07 2.0954503314900615e-06 0 7.4564370554855923e-07 2.0954503314900615e-06 0 4.6802124445670666e-07 1.1941342277471482e-06 0 1.6489931616131134e-07 1.3773795474031406e-06 0 7.4564370554855923e-07 2.0954503314900615e-06 0 1.1822927019891511e-06 1.8340050586711786e-06 0 4.6802124445670666e-07 1.1941342277471482e-06 0 1.7555525486331383e-06 2.4440986298234478e-06 0 7.4564370554855923e-07 2.0954503314900615e-06 0 1.1822927019891511e-06 1.8340050586711786e-06 0 1.7555525486331383e-06 2.4440986298234478e-06 0 1.1822927019891511e-06 1.8340050586711786e-06 0 2.0554599945094352e-06 1.9200540587084148e-06 0 1.1822927019891511e-06 1.8340050586711786e-06 0 2.0554599945094352e-06 1.9200540587084148e-06 0 8.1946857769690175e-07 1.1229717909329272e-06 0 1.1822927019891511e-06 1.8340050586711786e-06 0 4.6802124445670666e-07 1.1941342277471482e-06 0 8.1946857769690175e-07 1.1229717909329272e-06 0 5.460354313852279e-10 5.4204192525352312e-10 0 4.6802124445670666e-07 1.1941342277471482e-06 0 8.1946857769690175e-07 1.1229717909329272e-06 0 5.460354313852279e-10 5.4204192525352312e-10 0 4.6802124445670666e-07 1.1941342277471482e-06 0 3.1737451279782866e-10 5.3871450333432357e-10 0 4.6802124445670666e-07 1.1941342277471482e-06 0 3.1737451279782866e-10 5.3871450333432357e-10 0 1.6489931616131134e-07 1.3773795474031406e-06 0 3.1737451279782866e-10 5.3871450333432357e-10 0 -3.0979722131606316e-11 6.1123215574835232e-10 0 1.6489931616131134e-07 1.3773795474031406e-06 0 -1.6204796692461312e-07 1.2601242866599107e-06 0 -3.0979722131606316e-11 6.1123215574835232e-10 0 1.6489931616131134e-07 1.3773795474031406e-06 0 1.7694837913528122e-06 7.2254345350205722e-07 0 2.8566645040146288e-06 1.3435492362868301e-06 0 1.715679662218273e-06 1.2412132066435146e-06 0 1.7694837913528122e-06 7.2254345350205722e-07 0 2.8566645040146288e-06 1.3435492362868301e-06 0 3.4739877824733509e-06 9.6738155068244665e-07 0 3.1004365677097172e-06 1.8677468494097608e-06 0 2.8566645040146288e-06 1.3435492362868301e-06 0 1.715679662218273e-06 1.2412132066435146e-06 0 3.1004365677097172e-06 1.8677468494097608e-06 0 2.0554599945094352e-06 1.9200540587084148e-06 0 1.715679662218273e-06 1.2412132066435146e-06 0 2.0554599945094352e-06 1.9200540587084148e-06 0 1.7156796622182728e-06 1.2412132066435143e-06 0 8.1946857769690175e-07 1.1229717909329272e-06 0 1.715679662218273e-06 1.2412132066435146e-06 0 7.0623869229780892e-07 6.8614796120924393e-07 0 8.1946857769690175e-07 1.1229717909329272e-06 0 5.460354313852279e-10 5.4204192525352312e-10 0 8.1946857769690175e-07 1.1229717909329272e-06 0 8.7257269131167881e-10 3.6111690448725597e-10 0 7.0623869229780913e-07 6.8614796120924403e-07 0 8.1946857769690175e-07 1.1229717909329272e-06 0 8.7257269131167881e-10 3.6111690448725597e-10 0 7.0623869229780913e-07 6.8614796120924403e-07 0 8.7257269131167881e-10 3.6111690448725597e-10 0 1.0323768637322337e-09 3.0400709483431505e-10 0 7.0623869229780913e-07 6.8614796120924403e-07 0 1.0323768637322337e-09 3.0400709483431505e-10 0 7.4745810768999866e-07 5.1179598058679821e-07 0 1.7694837913528122e-06 7.2254345350205722e-07 0 7.4745810768999866e-07 5.1179598058679821e-07 0 1.1118089746983307e-09 2.5133593820806586e-10 0 1.7694837913528122e-06 7.2254345350205722e-07 0 1.715679662218273e-06 1.2412132066435146e-06 0 7.4745810768999866e-07 5.1179598058679821e-07 0 1.715679662218273e-06 1.2412132066435146e-06 0 7.0623869229780902e-07 6.8614796120924393e-07 0 7.4745810768999866e-07 5.1179598058679821e-07 0 1.0323768637322337e-09 3.0400709483431505e-10 0 7.4745810768999866e-07 5.1179598058679821e-07 0 1.1118089746983307e-09 2.5133593820806586e-10 0 1.7694837913528122e-06 7.2254345350205722e-07 0 1.1118089746983307e-09 2.5133593820806586e-10 0 1.1503897689781314e-06 2.0785292952902881e-07 0 1.1118089746983307e-09 2.5133593820806586e-10 0 1.2032437739276292e-09 -7.9249130379685336e-11 0 1.1503897689781314e-06 2.0785292952902881e-07 0 1.2032437739276292e-09 -7.9249130379685336e-11 0 1.1503897689781314e-06 2.0785292952902881e-07 0 8.7791287969031207e-07 -8.9438967635164686e-08 0 1.1503897689781314e-06 2.0785292952902881e-07 0 2.1876010425172159e-06 -3.1046205724819151e-08 0 8.7791287969031207e-07 -8.9438967635164686e-08 0 1.7694837913528122e-06 7.2254345350205722e-07 0 1.1503897689781314e-06 2.0785292952902881e-07 0 2.3937786565858545e-06 4.0138169981184946e-07 0 1.7694837913528122e-06 7.2254345350205722e-07 0 2.3937786565858545e-06 4.0138169981184946e-07 0 3.4739877824733509e-06 9.6738155068244665e-07 0 1.1503897689781314e-06 2.0785292952902881e-07 0 2.3937786565858545e-06 4.0138169981184946e-07 0 2.1876010425172159e-06 -3.1046205724819151e-08 0 2.3937786565858545e-06 4.0138169981184946e-07 0 3.4791921173469364e-06 1.2978424111195628e-07 0 2.1876010425172159e-06 -3.1046205724819151e-08 0 2.3937786565858545e-06 4.0138169981184946e-07 0 3.4739877824733509e-06 9.6738155068244665e-07 0 3.4791921173469364e-06 1.2978424111195628e-07 0 2.9535949904721715e-06 -5.2815091321652185e-07 0 3.4791921173469364e-06 1.2978424111195628e-07 0 2.1876010425172159e-06 -3.1046205724819151e-08 0 2.9535949904721715e-06 -5.2815091321652185e-07 0 1.2596021402732906e-06 -4.7128743215295814e-07 0 2.1671800341550621e-06 -1.0545183394106752e-06 0 2.9535949904721715e-06 -5.2815091321652185e-07 0 2.1876010425172163e-06 -3.1046205724819157e-08 0 1.2596021402732906e-06 -4.7128743215295814e-07 0 2.1876010425172159e-06 -3.1046205724819151e-08 0 1.2596021402732906e-06 -4.7128743215295814e-07 0 8.7791287969031207e-07 -8.9438967635164686e-08 0 1.2032437739276292e-09 -7.9249130379685336e-11 0 8.7791287969031207e-07 -8.9438967635164686e-08 0 1.2269097074474451e-09 1.2647639901722903e-11 0 1.2596021402732906e-06 -4.7128743215295814e-07 0 1.2269097074474451e-09 1.2647639901722903e-11 0 9.4955176293888573e-10 -3.9971602518287848e-10 0 1.2596021402732906e-06 -4.7128743215295814e-07 0 8.7791287969031218e-07 -8.9438967635164673e-08 0 1.2269097074474451e-09 1.2647639901722903e-11 0 9.4955176293888573e-10 -3.9971602518287848e-10 0 9.7328861485365871e-07 -9.0698612475974548e-07 0 6.9687029858606749e-10 -5.0542216669635628e-10 0 1.2596021402732906e-06 -4.7128743215295814e-07 0 9.732886148536585e-07 -9.0698612475974559e-07 0 2.1671800341550621e-06 -1.0545183394106752e-06 0 1.2596021402732906e-06 -4.7128743215295814e-07 0 9.4955176293888573e-10 -3.9971602518287848e-10 0 9.7328861485365871e-07 -9.0698612475974548e-07 0 6.9687029858606749e-10 -5.0542216669635628e-10 0 6.2539030816662564e-07 -1.425584122649361e-06 0 2.9778814938151508e-10 -7.4674781562087868e-10 0 9.7328861485365871e-07 -9.0698612475974548e-07 0 6.9687029858606749e-10 -5.0542216669635628e-10 0 6.2539030816662564e-07 -1.425584122649361e-06 0 6.2539030816662564e-07 -1.425584122649361e-06 0 2.9778814938151508e-10 -7.4674781562087868e-10 0 1.3618683807028798e-07 -1.542320973235767e-06 0 6.2539030816662564e-07 -1.425584122649361e-06 0 2.0974792506967377e-06 -1.8387015155317228e-06 0 7.8832921952604562e-07 -2.439008836811747e-06 0 2.0974792506967377e-06 -1.8387015155317228e-06 0 1.8754020008631976e-06 -2.4156029016034466e-06 0 7.8832921952604562e-07 -2.439008836811747e-06 0 9.7328861485365871e-07 -9.0698612475974548e-07 0 6.2539030816662564e-07 -1.4255841226493612e-06 0 2.0974792506967377e-06 -1.8387015155317228e-06 0 1.8754020008631976e-06 -2.4156029016034462e-06 0 7.8832921952604562e-07 -2.439008836811747e-06 0 1.5313409543058246e-06 -2.8072622609817172e-06 0 9.7328861485365871e-07 -9.0698612475974548e-07 0 2.0974792506967377e-06 -1.8387015155317228e-06 0 2.1671800341550621e-06 -1.0545183394106752e-06 0 2.0974792506967377e-06 -1.8387015155317228e-06 0 2.1671800341550621e-06 -1.0545183394106752e-06 0 3.4147869886661763e-06 -1.0301418128711776e-06 0 2.9535949904721715e-06 -5.2815091321652185e-07 0 2.1671800341550621e-06 -1.0545183394106752e-06 0 3.4147869886661763e-06 -1.0301418128711776e-06 0 2.0974792506967377e-06 -1.8387015155317228e-06 0 3.4147869886661763e-06 -1.0301418128711776e-06 0 4.5801516278609359e-06 -1.3373629999496578e-06 0 3.4147869886661763e-06 -1.0301418128711776e-06 0 4.5801516278609359e-06 -1.3373629999496578e-06 0 4.9736824264464303e-06 -2.6605975460868126e-07 0 4.5801516278609359e-06 -1.3373629999496578e-06 0 6.5320284272756078e-06 -1.0107547144562868e-07 0 4.9736824264464303e-06 -2.6605975460868126e-07 0 2.0974792506967377e-06 -1.8387015155317228e-06 0 4.5801516278609359e-06 -1.337362999949658e-06 0 3.1621836644657851e-06 -2.1650504570824201e-06 0 1.8754020008631976e-06 -2.4156029016034462e-06 0 3.1621836644657851e-06 -2.1650504570824201e-06 0 1.5313409543058246e-06 -2.8072622609817172e-06 0 2.0974792506967377e-06 -1.8387015155317228e-06 0 1.8754020008631976e-06 -2.4156029016034462e-06 0 3.1621836644657851e-06 -2.1650504570824201e-06 0 4.5801516278609359e-06 -1.3373629999496578e-06 0 3.1621836644657855e-06 -2.1650504570824201e-06 0 4.3524670380707818e-06 -1.8981882828576822e-06 0 3.1621836644657851e-06 -2.1650504570824201e-06 0 1.5313409543058246e-06 -2.8072622609817172e-06 0 2.1577192879951035e-06 -2.8782803511685587e-06 0 3.1621836644657851e-06 -2.1650504570824201e-06 0 4.3524670380707818e-06 -1.8981882828576822e-06 0 2.1577192879951035e-06 -2.8782803511685587e-06 0 4.3524670380707818e-06 -1.8981882828576822e-06 0 4.938658992053691e-06 -1.759112597498533e-06 0 2.1577192879951035e-06 -2.8782803511685587e-06 0 4.3524670380707818e-06 -1.8981882828576822e-06 0 4.938658992053691e-06 -1.759112597498533e-06 0 6.756450933883027e-06 -7.1789947086544196e-07 0 4.938658992053691e-06 -1.759112597498533e-06 0 6.756450933883027e-06 -7.1789947086544196e-07 0 7.5070560101515426e-06 -3.1724551997265027e-07 0 4.938658992053691e-06 -1.759112597498533e-06 0 1.8592941083755784e-06 -2.6230995957820145e-06 0 4.9832591753240681e-06 -1.2645883129684789e-06 0 4.938658992053691e-06 -1.759112597498533e-06 0 4.9832591753240681e-06 -1.2645883129684789e-06 0 7.5070560101515426e-06 -3.1724551997265027e-07 0 4.5801516278609359e-06 -1.3373629999496578e-06 0 6.756450933883027e-06 -7.1789947086544207e-07 0 6.5320284272756078e-06 -1.0107547144562868e-07 0 4.5801516278609359e-06 -1.3373629999496578e-06 0 4.3524670380707818e-06 -1.8981882828576824e-06 0 6.756450933883027e-06 -7.1789947086544196e-07 0 6.756450933883027e-06 -7.1789947086544196e-07 0 8.4998456396831181e-06 6.2198318348010804e-07 0 6.5320284272756078e-06 -1.0107547144562868e-07 0 6.756450933883027e-06 -7.1789947086544196e-07 0 8.4998456396831181e-06 6.2198318348010804e-07 0 9.7940860333101229e-06 1.0584470146024452e-06 0 8.4998456396831181e-06 6.2198318348010804e-07 0 6.5320284272756078e-06 -1.0107547144562868e-07 0 7.758876447039167e-06 9.4691718697286718e-07 0 8.4998456396831181e-06 6.2198318348010804e-07 0 7.758876447039167e-06 9.4691718697286718e-07 0 9.5078196478616566e-06 1.5025007476200517e-06 0 6.5320284272756078e-06 -1.0107547144562868e-07 0 7.758876447039167e-06 9.4691718697286707e-07 0 6.0487306440487908e-06 4.7298003031866734e-07 0 7.758876447039167e-06 9.4691718697286718e-07 0 6.4122970918880625e-06 1.2633383863627247e-06 0 6.0487306440487908e-06 4.7298003031866734e-07 0 7.758876447039167e-06 9.4691718697286718e-07 0 8.4390527427853318e-06 1.6954317589564475e-06 0 9.5078196478616566e-06 1.5025007476200517e-06 0 7.758876447039167e-06 9.4691718697286718e-07 0 6.4122970918880634e-06 1.2633383863627249e-06 0 8.4390527427853318e-06 1.6954317589564475e-06 0 7.1335015466320169e-06 1.8635945914221629e-06 0 6.4122970918880634e-06 1.2633383863627249e-06 0 8.4390527427853318e-06 1.6954317589564475e-06 0 5.5080250460228157e-06 1.7201111490771494e-06 0 6.4122970918880634e-06 1.2633383863627249e-06 0 4.9399141708986878e-06 1.2701390990965848e-06 0 7.1335015466320169e-06 1.8635945914221629e-06 0 5.5080250460228157e-06 1.7201111490771494e-06 0 6.4122970918880634e-06 1.2633383863627249e-06 0 6.4122970918880634e-06 1.2633383863627249e-06 0 4.6541393451538779e-06 5.7126736476386821e-07 0 6.0487306440487908e-06 4.7298003031866734e-07 0 6.4122970918880634e-06 1.2633383863627249e-06 0 4.939914170898687e-06 1.2701390990965848e-06 0 4.6541393451538779e-06 5.7126736476386831e-07 0 3.4739877824733509e-06 9.6738155068244665e-07 0 4.9399141708986878e-06 1.2701390990965848e-06 0 4.6541393451538779e-06 5.7126736476386831e-07 0 3.4739877824733509e-06 9.6738155068244665e-07 0 3.4791921173469364e-06 1.2978424111195628e-07 0 4.6541393451538779e-06 5.7126736476386831e-07 0 3.4791921173469364e-06 1.2978424111195628e-07 0 4.6541393451538779e-06 5.7126736476386831e-07 0 4.9736824264464303e-06 -2.6605975460868126e-07 0 2.9535949904721715e-06 -5.2815091321652185e-07 0 3.4791921173469364e-06 1.2978424111195628e-07 0 4.9736824264464303e-06 -2.6605975460868126e-07 0 2.9535949904721715e-06 -5.2815091321652185e-07 0 3.4147869886661763e-06 -1.0301418128711776e-06 0 4.9736824264464303e-06 -2.6605975460868126e-07 0 6.5320284272756078e-06 -1.0107547144562868e-07 0 4.9736824264464303e-06 -2.6605975460868126e-07 0 6.0487306440487908e-06 4.7298003031866734e-07 0 4.6541393451538779e-06 5.7126736476386831e-07 0 4.9736824264464312e-06 -2.6605975460868115e-07 0 6.0487306440487908e-06 4.7298003031866734e-07 0 -4.1565590519301056e-06 -1.1611212305500811e-06 0 -4.1083727451685782e-06 -2.0098162390041991e-06 0 -7.2994700897534498e-06 -1.5827553324347959e-06 0 -4.1083727451685782e-06 -2.0098162390041991e-06 0 -1.8787820104361289e-06 -1.1681001157820428e-06 0 -2.5203823875017897e-06 -2.2736398408529256e-06 0 -4.1565590519301056e-06 -1.1611212305500811e-06 0 -1.7420228555356262e-06 -3.6416649597712382e-07 0 -1.8787820104361289e-06 -1.1681001157820428e-06 0 -4.1565590519301056e-06 -1.1611212305500811e-06 0 -4.1083727451685782e-06 -2.0098162390041991e-06 0 -1.8787820104361289e-06 -1.1681001157820428e-06 0 -1.7420228555356262e-06 -3.6416649597712382e-07 0 -8.0757880529779581e-07 -3.7281325470052871e-07 0 -1.8787820104361289e-06 -1.1681001157820428e-06 0 -1.7420228555356262e-06 -3.6416649597712382e-07 0 -1.2973029840604041e-09 5.3015736294871616e-10 0 -8.0757880529779581e-07 -3.7281325470052871e-07 0 -1.2973029840604041e-09 5.3015736294871616e-10 0 -8.0757880529779581e-07 -3.7281325470052871e-07 0 -1.5338666840675859e-09 -5.988796888134161e-10 0 -8.0757880529779581e-07 -3.7281325470052871e-07 0 -1.5338666840675747e-09 -5.9887968881340783e-10 0 -1.8787820104361289e-06 -1.1681001157820428e-06 0 -1.5338666840675859e-09 -5.988796888134161e-10 0 -1.8787820104361289e-06 -1.1681001157820428e-06 0 -1.1351586735053461e-06 -1.4434312242969096e-06 0 -1.8787820104361289e-06 -1.1681001157820428e-06 0 -1.1351586735053463e-06 -1.4434312242969098e-06 0 -2.5203823875017897e-06 -2.2736398408529256e-06 0 -1.5338666840675859e-09 -5.988796888134161e-10 0 -1.3826501810719464e-09 -4.0894857646697714e-10 0 -1.1351586735053461e-06 -1.4434312242969096e-06 0 -1.3826501810722041e-09 -4.0894857646730491e-10 0 -1.1351586735053461e-06 -1.4434312242969096e-06 0 -6.1195645461412743e-10 -1.0250233350954142e-09 0 -1.1351586735053461e-06 -1.4434312242969096e-06 0 -2.5203823875017897e-06 -2.2736398408529256e-06 0 -1.1256235563009548e-06 -2.2238592430983597e-06 0 -2.5203823875017897e-06 -2.2736398408529256e-06 0 -2.3061847865138099e-06 -2.9945396920498151e-06 0 -1.1256235563009548e-06 -2.2238592430983597e-06 0 -4.1083727451685782e-06 -2.0098162390041991e-06 0 -2.5203823875017897e-06 -2.2736398408529256e-06 0 -3.9021179041405126e-06 -3.0007835705011873e-06 0 -4.1083727451685782e-06 -2.0098162390041991e-06 0 -3.9021179041405126e-06 -3.0007835705011877e-06 0 -5.9212584897591694e-06 -2.709005330373873e-06 0 -3.9021179041405126e-06 -3.0007835705011873e-06 0 -2.3061847865138099e-06 -2.9945396920498151e-06 0 -2.5379005846055586e-06 -3.5151351434807591e-06 0 -2.5203823875017897e-06 -2.2736398408529256e-06 0 -3.9021179041405126e-06 -3.0007835705011873e-06 0 -2.3061847865138099e-06 -2.9945396920498151e-06 0 -2.3061847865138099e-06 -2.9945396920498151e-06 0 -1.2954542212525323e-06 -3.1144785844216177e-06 0 -2.5379005846055586e-06 -3.5151351434807591e-06 0 -1.2954542212525323e-06 -3.1144785844216177e-06 0 -1.1256235563009548e-06 -2.2238592430983597e-06 0 -2.4365473386374634e-07 -2.5783708522486625e-06 0 -2.3061847865138099e-06 -2.9945396920498151e-06 0 -1.2954542212525323e-06 -3.1144785844216177e-06 0 -1.1256235563009548e-06 -2.2238592430983597e-06 0 -1.1256235563009548e-06 -2.2238592430983597e-06 0 -6.1195645461412743e-10 -1.0250233350954142e-09 0 -2.6926597125169481e-07 -1.4382484144896959e-06 0 -1.1351586735053461e-06 -1.4434312242969096e-06 0 -1.1256235563009548e-06 -2.2238592430983597e-06 0 -6.1195645461412743e-10 -1.0250233350954142e-09 0 -6.1195645461412743e-10 -1.0250233350954142e-09 0 -2.6926597125169481e-07 -1.4382484144896959e-06 0 -2.074243762513179e-10 -6.8774602723020249e-10 0 -1.1256235563009548e-06 -2.2238592430983597e-06 0 -2.6926597125169481e-07 -1.4382484144896959e-06 0 -2.4365473386374634e-07 -2.5783708522486625e-06 0 -2.6926597125169481e-07 -1.4382484144896959e-06 0 1.3618683807028798e-07 -1.542320973235767e-06 0 -2.4365473386374634e-07 -2.5783708522486625e-06 0 -2.6926597125169481e-07 -1.4382484144896959e-06 0 -2.074243762513179e-10 -6.8774602723020249e-10 0 1.3618683807028798e-07 -1.542320973235767e-06 0 -2.074243762513179e-10 -6.8774602723020249e-10 0 2.9778814938151508e-10 -7.4674781562087868e-10 0 1.3618683807028798e-07 -1.542320973235767e-06 0 6.2539030816662564e-07 -1.425584122649361e-06 0 1.3618683807028798e-07 -1.542320973235767e-06 0 7.8832921952604562e-07 -2.439008836811747e-06 0 1.3618683807028798e-07 -1.542320973235767e-06 0 7.8832921952604562e-07 -2.439008836811747e-06 0 -2.4365473386374634e-07 -2.5783708522486625e-06 0 -1.2954542212525323e-06 -3.1144785844216177e-06 0 -2.4365473386374634e-07 -2.5783708522486625e-06 0 -2.4859639940486645e-08 -3.3127980795175064e-06 0 7.8832921952604562e-07 -2.439008836811747e-06 0 -2.4365473386374629e-07 -2.5783708522486621e-06 0 -2.4859639940486645e-08 -3.3127980795175064e-06 0 7.8832921952604562e-07 -2.439008836811747e-06 0 1.5313409543058246e-06 -2.8072622609817172e-06 0 -2.4859639940486645e-08 -3.3127980795175064e-06 0 1.5313409543058246e-06 -2.8072622609817172e-06 0 -2.4859639940486645e-08 -3.3127980795175064e-06 0 2.1577192879951035e-06 -2.8782803511685587e-06 0 -2.4859639940486645e-08 -3.3127980795175064e-06 0 2.1577192879951035e-06 -2.8782803511685587e-06 0 -9.863712284638054e-07 -3.5201736570286901e-06 0 4.938658992053691e-06 -1.759112597498533e-06 0 2.1577192879951035e-06 -2.8782803511685587e-06 0 1.8592941083755784e-06 -2.6230995957820145e-06 0 1.8592941083755784e-06 -2.6230995957820145e-06 0 -1.1346232534351565e-06 -3.0191302350860426e-06 0 -5.6536228582148962e-07 -2.0172918943246882e-06 0 1.8592941083755784e-06 -2.6230995957820145e-06 0 -1.1346232534351565e-06 -3.0191302350860426e-06 0 -9.863712284638054e-07 -3.5201736570286901e-06 0 2.1577192879951035e-06 -2.8782803511685587e-06 0 1.8592941083755784e-06 -2.6230995957820145e-06 0 -9.863712284638054e-07 -3.5201736570286901e-06 0 -1.1346232534351565e-06 -3.0191302350860426e-06 0 -4.2709176962717153e-06 -3.4546344339726714e-06 0 -9.863712284638054e-07 -3.5201736570286901e-06 0 -1.1346232534351565e-06 -3.0191302350860426e-06 0 -4.3383186464948702e-06 -2.6706526320290518e-06 0 -5.6536228582148962e-07 -2.0172918943246882e-06 0 -1.1346232534351565e-06 -3.0191302350860426e-06 0 -4.3383186464948702e-06 -2.6706526320290518e-06 0 -4.2709176962717153e-06 -3.4546344339726714e-06 0 -4.2709176962717153e-06 -3.4546344339726714e-06 0 -9.863712284638054e-07 -3.5201736570286901e-06 0 -2.5379005846055586e-06 -3.5151351434807591e-06 0 -4.2709176962717153e-06 -3.4546344339726714e-06 0 -2.5379005846055586e-06 -3.5151351434807591e-06 0 -4.8867282568737892e-06 -3.3009323721103228e-06 0 -2.4859639940486645e-08 -3.3127980795175064e-06 0 -9.863712284638054e-07 -3.5201736570286901e-06 0 -2.5379005846055586e-06 -3.5151351434807591e-06 0 -1.2954542212525323e-06 -3.1144785844216177e-06 0 -2.4859639940486645e-08 -3.3127980795175064e-06 0 -2.5379005846055586e-06 -3.5151351434807591e-06 0 -3.9021179041405126e-06 -3.0007835705011873e-06 0 -2.5379005846055586e-06 -3.5151351434807591e-06 0 -4.8867282568737892e-06 -3.3009323721103228e-06 0 -3.9021179041405126e-06 -3.0007835705011873e-06 0 -4.8867282568737883e-06 -3.3009323721103228e-06 0 -5.9212584897591694e-06 -2.709005330373873e-06 0 -4.8867282568737892e-06 -3.3009323721103228e-06 0 -7.534572091977257e-06 -2.8993038298545391e-06 0 -5.9212584897591694e-06 -2.709005330373873e-06 0 -4.2709176962717153e-06 -3.4546344339726714e-06 0 -4.8867282568737892e-06 -3.3009323721103228e-06 0 -7.534572091977257e-06 -2.8993038298545391e-06 0 -4.2709176962717153e-06 -3.4546344339726714e-06 0 -8.9310335357293605e-06 -2.2536158922969676e-06 0 -7.534572091977257e-06 -2.8993038298545391e-06 0 -4.3383186464948702e-06 -2.6706526320290518e-06 0 -4.2709176962717153e-06 -3.4546344339726714e-06 0 -8.9310335357293605e-06 -2.2536158922969676e-06 0 -8.9310335357293605e-06 -2.2536158922969676e-06 0 -7.534572091977257e-06 -2.8993038298545391e-06 0 -1.1593996450007097e-05 -1.7318990758408668e-06 0 -7.534572091977257e-06 -2.8993038298545391e-06 0 -1.1593996450007097e-05 -1.7318990758408668e-06 0 -8.8625989554714435e-06 -2.241547479152992e-06 0 -8.9310335357293605e-06 -2.2536158922969676e-06 0 -1.1593996450007097e-05 -1.7318990758408668e-06 0 -1.4776969529598005e-05 -1.6912906639984342e-07 0 -1.1593996450007097e-05 -1.7318990758408668e-06 0 -1.1166744958896768e-05 -1.1653149816381132e-06 0 -1.5843500494519673e-05 1.8792687174882837e-07 0 -1.1593996450007097e-05 -1.7318990758408668e-06 0 -1.1166744958896768e-05 -1.1653149816381132e-06 0 -8.8625989554714435e-06 -2.241547479152992e-06 0 -1.1166744958896768e-05 -1.1653149816381132e-06 0 -8.8625989554714435e-06 -2.241547479152992e-06 0 -7.2994700897534498e-06 -1.5827553324347959e-06 0 -7.534572091977257e-06 -2.8993038298545391e-06 0 -8.8625989554714435e-06 -2.241547479152992e-06 0 -5.9212584897591694e-06 -2.709005330373873e-06 0 -8.8625989554714435e-06 -2.241547479152992e-06 0 -5.9212584897591694e-06 -2.709005330373873e-06 0 -7.2994700897534498e-06 -1.5827553324347959e-06 0 -4.1083727451685782e-06 -2.0098162390041991e-06 0 -5.9212584897591703e-06 -2.709005330373873e-06 0 -7.2994700897534498e-06 -1.5827553324347959e-06 0 -2.7773782519587109e-05 7.5828353383596846e-06 0 -2.4578385086470508e-05 7.3923256971874635e-06 0 -1.9527395207474739e-05 3.2990175543777848e-06 0 -2.7773782519587109e-05 7.5828353383596846e-06 0 -2.4578385086470508e-05 7.3923256971874635e-06 0 -3.5381390579051387e-05 1.428864148169092e-05 0 -2.4578385086470508e-05 7.3923256971874635e-06 0 -1.9527395207474739e-05 3.2990175543777848e-06 0 -1.7035349528196027e-05 5.2806936486512505e-06 0 -2.4578385086470508e-05 7.3923256971874635e-06 0 -1.7035349528196027e-05 5.2806936486512505e-06 0 -2.4750150205249638e-05 1.1408624116749296e-05 0 -2.7773782519587109e-05 7.5828353383596846e-06 0 -1.9527395207474739e-05 3.2990175543777848e-06 0 -2.1293160365007668e-05 2.9445655233973793e-06 0 -2.1293160365007668e-05 2.9445655233973793e-06 0 -1.5843500494519673e-05 1.8792687174882837e-07 0 -1.4776969529598005e-05 -1.6912906639984342e-07 0 -1.1593996450007097e-05 -1.7318990758408668e-06 0 -1.5843500494519673e-05 1.8792687174882837e-07 0 -1.4776969529598005e-05 -1.6912906639984342e-07 0 -1.9527395207474739e-05 3.2990175543777848e-06 0 -2.1293160365007668e-05 2.9445655233973793e-06 0 -1.4776969529598005e-05 -1.6912906639984342e-07 0 -1.9527395207474739e-05 3.2990175543777848e-06 0 -1.4776969529598005e-05 -1.6912906639984342e-07 0 -1.1273281060853011e-05 5.3549532901047356e-07 0 -8.9310335357293605e-06 -2.2536158922969676e-06 0 -7.2143495243914556e-06 -1.51263714670448e-06 0 -1.1273281060853011e-05 5.3549532901047356e-07 0 -8.9310335357293605e-06 -2.2536158922969676e-06 0 -1.4776969529598005e-05 -1.6912906639984323e-07 0 -1.1273281060853011e-05 5.3549532901047356e-07 0 -4.3383186464948702e-06 -2.6706526320290518e-06 0 -8.9310335357293605e-06 -2.2536158922969676e-06 0 -7.2143495243914548e-06 -1.5126371467044803e-06 0 -1.1273281060853011e-05 5.3549532901047356e-07 0 -1.7035349528196027e-05 5.2806936486512505e-06 0 -1.0622836721497112e-05 4.5406292269017785e-06 0 -1.9527395207474739e-05 3.2990175543777848e-06 0 -1.1273281060853011e-05 5.3549532901047334e-07 0 -1.7035349528196027e-05 5.2806936486512505e-06 0 -1.7035349528196027e-05 5.2806936486512505e-06 0 -1.0622836721497112e-05 4.5406292269017777e-06 0 -1.5588588827283031e-05 1.0031239996695786e-05 0 -1.0622836721497112e-05 4.5406292269017785e-06 0 -4.3816714039038829e-06 1.7123853897331756e-06 0 -4.6550285524775984e-06 7.8978356034400341e-06 0 -4.3816714039038829e-06 1.7123853897331758e-06 0 7.6771143240124929e-07 3.3574260402679892e-06 0 -4.6550285524775984e-06 7.8978356034400341e-06 0 -4.3816714039038829e-06 1.7123853897331758e-06 0 9.5829475312105787e-08 -2.2445713340705757e-08 0 7.6771143240124929e-07 3.3574260402679892e-06 0 -1.1273281060853011e-05 5.3549532901047356e-07 0 -1.0622836721497112e-05 4.5406292269017785e-06 0 -4.3816714039038829e-06 1.7123853897331758e-06 0 -1.1273281060853011e-05 5.3549532901047356e-07 0 -4.3816714039038829e-06 1.7123853897331764e-06 0 -4.1021293153014673e-06 -8.5755517386779094e-07 0 -7.2143495243914548e-06 -1.5126371467044803e-06 0 -1.1273281060853011e-05 5.3549532901047356e-07 0 -4.1021293153014673e-06 -8.5755517386779094e-07 0 -4.3383186464948702e-06 -2.6706526320290518e-06 0 -7.2143495243914548e-06 -1.5126371467044803e-06 0 -4.1021293153014673e-06 -8.5755517386779094e-07 0 -4.3383186464948702e-06 -2.6706526320290518e-06 0 -4.1021293153014664e-06 -8.5755517386779105e-07 0 -5.6536228582148962e-07 -2.0172918943246882e-06 0 -4.1021293153014673e-06 -8.5755517386779094e-07 0 -5.6536228582148962e-07 -2.0172918943246882e-06 0 9.5829475312105787e-08 -2.2445713340705757e-08 0 -4.3816714039038829e-06 1.7123853897331758e-06 0 -4.1021293153014673e-06 -8.5755517386779105e-07 0 9.5829475312105787e-08 -2.2445713340705757e-08 0 -5.6536228582148962e-07 -2.0172918943246882e-06 0 9.5829475312105787e-08 -2.2445713340705757e-08 0 3.1356712340277288e-06 -1.0507674805160772e-06 0 9.5829475312105787e-08 -2.2445713340705757e-08 0 3.1356712340277284e-06 -1.0507674805160772e-06 0 4.6939059667219346e-06 1.5376772099184513e-06 0 1.8592941083755784e-06 -2.6230995957820145e-06 0 -5.6536228582148962e-07 -2.0172918943246882e-06 0 3.1356712340277288e-06 -1.0507674805160772e-06 0 3.1356712340277288e-06 -1.0507674805160772e-06 0 4.9832591753240689e-06 -1.2645883129684789e-06 0 6.8508256756144561e-06 2.7513755081324742e-07 0 1.8592941083755784e-06 -2.6230995957820145e-06 0 3.1356712340277288e-06 -1.0507674805160772e-06 0 4.9832591753240681e-06 -1.2645883129684789e-06 0 3.1356712340277288e-06 -1.0507674805160772e-06 0 4.6939059667219346e-06 1.5376772099184513e-06 0 6.8508256756144561e-06 2.7513755081324742e-07 0 4.6939059667219346e-06 1.5376772099184513e-06 0 6.8508256756144561e-06 2.7513755081324742e-07 0 9.986463673604617e-06 3.3646918355552164e-06 0 9.5829475312105787e-08 -2.2445713340705757e-08 0 4.6939059667219346e-06 1.5376772099184513e-06 0 7.6771143240124929e-07 3.3574260402679892e-06 0 4.6939059667219346e-06 1.5376772099184513e-06 0 7.6771143240124929e-07 3.3574260402679892e-06 0 5.8810146770369635e-06 5.8739361986923935e-06 0 4.6939059667219346e-06 1.5376772099184513e-06 0 5.8810146770369635e-06 5.8739361986923935e-06 0 9.986463673604617e-06 3.3646918355552164e-06 0 5.8810146770369635e-06 5.8739361986923935e-06 0 9.8390947875958379e-06 1.0407723733015612e-05 0 1.3447713222336425e-05 7.3151855728988583e-06 0 5.8810146770369635e-06 5.8739361986923935e-06 0 9.986463673604617e-06 3.3646918355552164e-06 0 1.3447713222336425e-05 7.3151855728988583e-06 0 5.8810146770369635e-06 5.8739361986923935e-06 0 2.6011057405211756e-06 1.1627789693956774e-05 0 -4.6550285524775984e-06 7.8978356034400341e-06 0 7.6771143240124929e-07 3.3574260402679892e-06 0 5.8810146770369635e-06 5.8739361986923935e-06 0 -4.6550285524775984e-06 7.8978356034400341e-06 0 5.8810146770369635e-06 5.8739361986923935e-06 0 2.6011057405211756e-06 1.1627789693956774e-05 0 9.8390947875958379e-06 1.0407723733015612e-05 0 9.8390947875958379e-06 1.0407723733015612e-05 0 7.1184940257773877e-06 1.8332565132206033e-05 0 1.6863358046019327e-05 1.3073312238571255e-05 0 7.1184940257773877e-06 1.8332565132206033e-05 0 1.6863358046019327e-05 1.3073312238571255e-05 0 1.5339619721800986e-05 2.7576514360448021e-05 0 7.1184940257773877e-06 1.8332565132206033e-05 0 6.4228867961990755e-06 3.0188318847807911e-05 0 1.5339619721800986e-05 2.7576514360448021e-05 0 7.1184940257773877e-06 1.8332565132206033e-05 0 -3.4890677960097183e-06 3.1897856033461696e-05 0 6.4228867961990755e-06 3.0188318847807911e-05 0 2.6011057405211756e-06 1.1627789693956774e-05 0 7.1184940257773877e-06 1.8332565132206033e-05 0 -6.498181493449752e-06 1.9128967436311613e-05 0 2.6011057405211756e-06 1.1627789693956774e-05 0 9.8390947875958379e-06 1.0407723733015611e-05 0 7.1184940257773877e-06 1.8332565132206033e-05 0 7.1184940257773877e-06 1.8332565132206033e-05 0 -6.498181493449752e-06 1.9128967436311613e-05 0 -3.4890677960097183e-06 3.1897856033461696e-05 0 -6.498181493449752e-06 1.9128967436311613e-05 0 -1.7468308324909305e-05 3.2776995901112987e-05 0 -3.4890677960097183e-06 3.1897856033461696e-05 0 -6.498181493449752e-06 1.9128967436311613e-05 0 -1.4715297892836686e-05 1.6934833327301164e-05 0 -1.7468308324909305e-05 3.2776995901112993e-05 0 -6.498181493449752e-06 1.9128967436311613e-05 0 -4.6550285524775984e-06 7.8978356034400341e-06 0 -1.4715297892836686e-05 1.6934833327301164e-05 0 -4.6550285524775984e-06 7.8978356034400341e-06 0 -1.5588588827283031e-05 1.0031239996695786e-05 0 -1.4715297892836686e-05 1.6934833327301164e-05 0 2.6011057405211756e-06 1.1627789693956774e-05 0 -6.498181493449752e-06 1.9128967436311613e-05 0 -4.6550285524775984e-06 7.8978356034400341e-06 0 -1.0622836721497112e-05 4.5406292269017785e-06 0 -4.6550285524775984e-06 7.8978356034400341e-06 0 -1.5588588827283031e-05 1.0031239996695786e-05 0 -1.7035349528196027e-05 5.2806936486512505e-06 0 -1.5588588827283031e-05 1.0031239996695786e-05 0 -2.4750150205249638e-05 1.1408624116749296e-05 0 -1.5588588827283031e-05 1.0031239996695786e-05 0 -2.3589895858807937e-05 1.7791158292711285e-05 0 -2.4750150205249638e-05 1.1408624116749296e-05 0 -1.5588588827283031e-05 1.0031239996695786e-05 0 -2.3589895858807937e-05 1.7791158292711285e-05 0 -1.4715297892836686e-05 1.6934833327301164e-05 0 -2.3589895858807937e-05 1.7791158292711285e-05 0 -1.4715297892836686e-05 1.6934833327301164e-05 0 -2.5334766691373147e-05 2.654065535265499e-05 0 -1.4715297892836686e-05 1.6934833327301164e-05 0 -2.5334766691373147e-05 2.654065535265499e-05 0 -1.7468308324909305e-05 3.2776995901112993e-05 0 -2.5334766691373147e-05 2.654065535265499e-05 0 -3.5451125988990762e-05 2.7359118080403111e-05 0 -3.6657729819669777e-05 4.1484472394252823e-05 0 -2.5334766691373147e-05 2.654065535265499e-05 0 -3.6657729819669777e-05 4.1484472394252823e-05 0 -1.7468308324909305e-05 3.2776995901112993e-05 0 -2.3589895858807937e-05 1.7791158292711285e-05 0 -2.5334766691373147e-05 2.654065535265499e-05 0 -3.5451125988990762e-05 2.7359118080403108e-05 0 -2.3589895858807937e-05 1.7791158292711285e-05 0 -3.5451125988990762e-05 2.7359118080403108e-05 0 -3.2653395087105502e-05 1.8383432640187009e-05 0 -3.5451125988990762e-05 2.7359118080403108e-05 0 -5.2037591226871324e-05 3.7663550066489721e-05 0 -3.6657729819669777e-05 4.1484472394252823e-05 0 -3.5451125988990762e-05 2.7359118080403108e-05 0 -4.370223853179254e-05 2.4307937592293998e-05 0 -5.2037591226871324e-05 3.7663550066489721e-05 0 -3.5451125988990762e-05 2.7359118080403108e-05 0 -4.370223853179254e-05 2.4307937592293998e-05 0 -3.2653395087105502e-05 1.8383432640187009e-05 0 -4.370223853179254e-05 2.4307937592293998e-05 0 -3.2653395087105502e-05 1.8383432640187009e-05 0 -3.5381390579051387e-05 1.428864148169092e-05 0 -3.2653395087105502e-05 1.8383432640187009e-05 0 -2.4750150205249638e-05 1.1408624116749296e-05 0 -3.5381390579051387e-05 1.428864148169092e-05 0 -2.3589895858807937e-05 1.7791158292711285e-05 0 -3.2653395087105502e-05 1.8383432640187009e-05 0 -2.4750150205249638e-05 1.1408624116749296e-05 0 -2.4578385086470508e-05 7.3923256971874635e-06 0 -2.4750150205249638e-05 1.1408624116749296e-05 0 -3.5381390579051387e-05 1.428864148169092e-05 0 1.1824542539875099e-05 3.0428499295126816e-06 0 1.1827874449296062e-05 2.7327236436126052e-06 0 1.3394912835142406e-05 3.9493483153500089e-06 0 1.1827874449296062e-05 2.7327236436126052e-06 0 1.3394912835142408e-05 3.9493483153500089e-06 0 1.4198543880345124e-05 4.2998844901485183e-06 0 1.3394912835142406e-05 3.9493483153500089e-06 0 1.4198543880345124e-05 4.2998844901485183e-06 0 1.5686254369019251e-05 5.5807374021948054e-06 0 1.1824542539875099e-05 3.0428499295126816e-06 0 1.3394912835142406e-05 3.9493483153500089e-06 0 1.2654332751312391e-05 3.4597223498615525e-06 0 1.2654332751312391e-05 3.4597223498615525e-06 0 1.0530679992444455e-05 2.5385822069793994e-06 0 1.1041270884534804e-05 2.1660249530758779e-06 0 1.1824542539875099e-05 3.0428499295126816e-06 0 1.2654332751312391e-05 3.4597223498615525e-06 0 1.0530679992444455e-05 2.5385822069793994e-06 0 9.5358011860774706e-06 1.7263338105347748e-06 0 1.0530679992444455e-05 2.5385822069793994e-06 0 1.1041270884534804e-05 2.1660249530758779e-06 0 1.1824542539875099e-05 3.0428499295126816e-06 0 1.0530679992444455e-05 2.5385822069793994e-06 0 1.0196920124343527e-05 2.2791329777709973e-06 0 1.0530679992444455e-05 2.5385822069793994e-06 0 8.7058573400079509e-06 2.073931265359726e-06 0 1.0196920124343527e-05 2.2791329777709973e-06 0 8.497743513599694e-06 1.8738469753116823e-06 0 1.0530679992444455e-05 2.5385822069793994e-06 0 8.7058573400079509e-06 2.073931265359726e-06 0 7.1335015466320169e-06 1.8635945914221629e-06 0 8.7058573400079509e-06 2.073931265359726e-06 0 8.4390527427853318e-06 1.6954317589564475e-06 0 8.7058573400079509e-06 2.073931265359726e-06 0 8.4390527427853318e-06 1.6954317589564473e-06 0 1.0196920124343527e-05 2.2791329777709973e-06 0 8.4390527427853318e-06 1.6954317589564475e-06 0 1.0196920124343527e-05 2.2791329777709973e-06 0 9.5078196478616566e-06 1.5025007476200517e-06 0 1.1824542539875099e-05 3.0428499295126816e-06 0 1.1827874449296062e-05 2.7327236436126052e-06 0 1.0196920124343527e-05 2.2791329777709973e-06 0 1.1827874449296062e-05 2.7327236436126052e-06 0 1.0196920124343527e-05 2.2791329777709973e-06 0 9.5078196478616566e-06 1.5025007476200517e-06 0 1.1827874449296062e-05 2.7327236436126052e-06 0 9.5078196478616566e-06 1.5025007476200517e-06 0 9.7940860333101229e-06 1.0584470146024452e-06 0 8.4998456396831181e-06 6.2198318348010804e-07 0 9.5078196478616566e-06 1.5025007476200517e-06 0 9.7940860333101229e-06 1.0584470146024452e-06 0 6.756450933883027e-06 -7.1789947086544196e-07 0 9.7940860333101229e-06 1.0584470146024452e-06 0 7.5070560101515426e-06 -3.1724551997265027e-07 0 9.7940860333101229e-06 1.0584470146024452e-06 0 1.0166732165867613e-05 1.6098179275015195e-06 0 1.2011276570854091e-05 2.6403380817117202e-06 0 9.7940860333101229e-06 1.0584470146024452e-06 0 7.5070560101515426e-06 -3.1724551997265033e-07 0 1.0166732165867613e-05 1.6098179275015195e-06 0 1.1827874449296062e-05 2.7327236436126052e-06 0 9.7940860333101229e-06 1.0584470146024447e-06 0 1.2011276570854091e-05 2.6403380817117202e-06 0 4.9832591753240681e-06 -1.2645883129684789e-06 0 7.5070560101515426e-06 -3.1724551997265027e-07 0 6.8508256756144561e-06 2.7513755081324742e-07 0 7.5070560101515426e-06 -3.1724551997265027e-07 0 6.8508256756144569e-06 2.7513755081324763e-07 0 1.0166732165867613e-05 1.6098179275015195e-06 0 6.8508256756144561e-06 2.7513755081324742e-07 0 1.0166732165867613e-05 1.6098179275015195e-06 0 9.986463673604617e-06 3.3646918355552164e-06 0 1.0166732165867613e-05 1.6098179275015195e-06 0 1.3968788023744434e-05 4.5105941687761029e-06 0 9.986463673604617e-06 3.3646918355552164e-06 0 1.3968788023744434e-05 4.5105941687761029e-06 0 9.986463673604617e-06 3.3646918355552164e-06 0 1.3447713222336425e-05 7.3151855728988583e-06 0 1.1827874449296062e-05 2.7327236436126052e-06 0 1.2011276570854091e-05 2.6403380817117198e-06 0 1.4198543880345124e-05 4.2998844901485183e-06 0 1.0166732165867613e-05 1.6098179275015195e-06 0 1.3968788023744436e-05 4.5105941687761029e-06 0 1.2011276570854091e-05 2.6403380817117202e-06 0 1.3968788023744434e-05 4.5105941687761029e-06 0 1.2011276570854091e-05 2.6403380817117202e-06 0 1.4198543880345124e-05 4.2998844901485183e-06 0 1.3968788023744434e-05 4.5105941687761029e-06 0 1.4198543880345124e-05 4.2998844901485183e-06 0 1.6598582070758525e-05 6.4653724541089168e-06 0 1.4198543880345124e-05 4.2998844901485183e-06 0 1.6598582070758525e-05 6.4653724541089168e-06 0 1.5686254369019251e-05 5.5807374021948054e-06 0 1.3968788023744434e-05 4.5105941687761029e-06 0 1.6598582070758525e-05 6.4653724541089168e-06 0 1.9384658377130652e-05 9.4018596180338665e-06 0 1.6598582070758525e-05 6.4653724541089168e-06 0 1.9384658377130652e-05 9.4018596180338665e-06 0 1.853560121866234e-05 7.778469469889207e-06 0 1.853560121866234e-05 7.778469469889207e-06 0 1.6211867451734512e-05 5.640499519387311e-06 0 1.5686254369019251e-05 5.5807374021948054e-06 0 1.6598582070758525e-05 6.4653724541089168e-06 0 1.853560121866234e-05 7.778469469889207e-06 0 1.5686254369019251e-05 5.5807374021948054e-06 0 1.3968788023744434e-05 4.5105941687761029e-06 0 1.3447713222336425e-05 7.3151855728988583e-06 0 1.9384658377130652e-05 9.4018596180338665e-06 0 1.3447713222336425e-05 7.3151855728988583e-06 0 1.9384658377130652e-05 9.4018596180338665e-06 0 1.6863358046019327e-05 1.3073312238571255e-05 0 9.8390947875958379e-06 1.0407723733015612e-05 0 1.3447713222336425e-05 7.3151855728988583e-06 0 1.6863358046019327e-05 1.3073312238571255e-05 0 1.9384658377130652e-05 9.4018596180338665e-06 0 1.6863358046019327e-05 1.3073312238571255e-05 0 2.7733735887643929e-05 1.6081957675346018e-05 0 1.6863358046019327e-05 1.3073312238571255e-05 0 2.7733735887643929e-05 1.6081957675346018e-05 0 1.5339619721800986e-05 2.7576514360448021e-05 0 1.9384658377130652e-05 9.4018596180338665e-06 0 2.1013296094635247e-05 1.0455912922002292e-05 0 2.7733735887643929e-05 1.6081957675346018e-05 0 1.853560121866234e-05 7.778469469889207e-06 0 2.1013296094635247e-05 1.0455912922002292e-05 0 1.7257129751306729e-05 5.9591713352456035e-06 0 1.853560121866234e-05 7.778469469889207e-06 0 1.7257129751306729e-05 5.9591713352456035e-06 0 1.6211867451734512e-05 5.640499519387311e-06 0 1.9384658377130652e-05 9.4018596180338665e-06 0 1.8535601218662337e-05 7.7784694698892053e-06 0 2.1013296094635247e-05 1.0455912922002292e-05 0 2.1013296094635247e-05 1.0455912922002292e-05 0 1.7257129751306729e-05 5.9591713352456043e-06 0 1.8279294401841083e-05 3.361010788501066e-06 0 1.7257129751306729e-05 5.9591713352456035e-06 0 1.5963843697040619e-05 -7.4777358201249877e-08 0 1.8279294401841083e-05 3.361010788501066e-06 0 1.7257129751306729e-05 5.9591713352456035e-06 0 1.4504940609361682e-05 3.0672867768288609e-06 0 1.5963843697040619e-05 -7.4777358201249877e-08 0 1.7257129751306729e-05 5.9591713352456035e-06 0 1.4504940609361682e-05 3.0672867768288609e-06 0 1.6211867451734512e-05 5.640499519387311e-06 0 1.6211867451734512e-05 5.640499519387311e-06 0 1.445221713935889e-05 4.5819744449358659e-06 0 1.5686254369019251e-05 5.5807374021948054e-06 0 1.4504940609361682e-05 3.0672867768288609e-06 0 1.6211867451734512e-05 5.640499519387311e-06 0 1.445221713935889e-05 4.5819744449358659e-06 0 1.4504940609361682e-05 3.0672867768288609e-06 0 1.445221713935889e-05 4.5819744449358659e-06 0 1.2752161721644598e-05 2.6232136389483494e-06 0 1.2654332751312391e-05 3.4597223498615525e-06 0 1.445221713935889e-05 4.5819744449358659e-06 0 1.2752161721644598e-05 2.6232136389483494e-06 0 1.3394912835142406e-05 3.9493483153500089e-06 0 1.2654332751312391e-05 3.4597223498615525e-06 0 1.445221713935889e-05 4.5819744449358659e-06 0 1.3394912835142406e-05 3.9493483153500089e-06 0 1.445221713935889e-05 4.5819744449358659e-06 0 1.5686254369019251e-05 5.5807374021948054e-06 0 1.2654332751312391e-05 3.4597223498615525e-06 0 1.1041270884534804e-05 2.1660249530758779e-06 0 1.2752161721644598e-05 2.6232136389483494e-06 0 1.0546447270994285e-05 3.6578080364949013e-07 0 1.1041270884534804e-05 2.1660249530758784e-06 0 1.2752161721644598e-05 2.6232136389483494e-06 0 1.4504940609361682e-05 3.0672867768288609e-06 0 1.207526054163433e-05 -8.25659161295602e-08 0 1.3602609758695804e-05 -3.6458545128636003e-06 0 1.0546447270994285e-05 3.6578080364949013e-07 0 1.0340461798010121e-05 -2.426954160005864e-06 0 1.207526054163433e-05 -8.25659161295602e-08 0 1.0546447270994285e-05 3.6578080364949013e-07 0 1.2752161721644598e-05 2.6232136389483494e-06 0 1.207526054163433e-05 -8.25659161295602e-08 0 1.4504940609361682e-05 3.0672867768288609e-06 0 1.2752161721644598e-05 2.6232136389483494e-06 0 1.207526054163433e-05 -8.25659161295602e-08 0 1.0340461798010121e-05 -2.426954160005864e-06 0 1.207526054163433e-05 -8.2565916129560187e-08 0 1.1434686575660795e-05 -4.9610194292630034e-06 0 1.207526054163433e-05 -8.25659161295602e-08 0 1.3602609758695804e-05 -3.6458545128636003e-06 0 1.1434686575660795e-05 -4.9610194292630034e-06 0 1.3602609758695804e-05 -3.6458545128636003e-06 0 1.1434686575660795e-05 -4.9610194292630034e-06 0 1.4028350632997689e-05 -8.326005541872023e-06 0 1.3602609758695804e-05 -3.6458545128636003e-06 0 1.4028350632997689e-05 -8.326005541872023e-06 0 1.641021812861371e-05 -7.8766548195907733e-06 0 1.1434686575660795e-05 -4.9610194292630034e-06 0 1.1695335223108692e-05 -8.9205409835421931e-06 0 1.4028350632997689e-05 -8.326005541872023e-06 0 1.1695335223108692e-05 -8.9205409835421931e-06 0 1.4028350632997689e-05 -8.326005541872023e-06 0 1.5286189757839845e-05 -1.3302499619152781e-05 0 1.4028350632997689e-05 -8.326005541872023e-06 0 1.5286189757839845e-05 -1.3302499619152781e-05 0 1.641021812861371e-05 -7.8766548195907733e-06 0 1.1695335223108692e-05 -8.9205409835421931e-06 0 1.5286189757839845e-05 -1.3302499619152781e-05 0 1.164625079334059e-05 -1.2768991338993558e-05 0 2.1519988912797908e-05 -1.1511843698182656e-05 0 2.3889349302915424e-05 -1.6392638530929643e-05 0 2.0008991577224195e-05 -1.4972727558729753e-05 0 1.641021812861371e-05 -7.8766548195907733e-06 0 2.1519988912797908e-05 -1.1511843698182656e-05 0 2.0008991577224195e-05 -1.4972727558729753e-05 0 1.5286189757839845e-05 -1.3302499619152781e-05 0 1.641021812861371e-05 -7.8766548195907733e-06 0 2.0008991577224195e-05 -1.4972727558729753e-05 0 1.641021812861371e-05 -7.8766548195907733e-06 0 1.8858320510232783e-05 -3.6036610089109805e-06 0 2.1519988912797908e-05 -1.1511843698182656e-05 0 1.4504940609361682e-05 3.0672867768288609e-06 0 1.3602609758695804e-05 -3.6458545128635999e-06 0 1.5963843697040619e-05 -7.4777358201249877e-08 0 1.641021812861371e-05 -7.8766548195907733e-06 0 1.5963843697040619e-05 -7.4777358201249877e-08 0 1.8858320510232783e-05 -3.6036610089109805e-06 0 1.3602609758695804e-05 -3.6458545128636003e-06 0 1.641021812861371e-05 -7.8766548195907733e-06 0 1.5963843697040619e-05 -7.4777358201249877e-08 0 1.5963843697040619e-05 -7.4777358201249877e-08 0 1.8279294401841083e-05 3.3610107885010656e-06 0 1.8858320510232783e-05 -3.6036610089109805e-06 0 2.1013296094635247e-05 1.0455912922002292e-05 0 1.8279294401841083e-05 3.361010788501066e-06 0 2.1455174612688255e-05 2.979690443879923e-06 0 1.8279294401841083e-05 3.361010788501066e-06 0 2.1455174612688255e-05 2.979690443879923e-06 0 1.8858320510232783e-05 -3.6036610089109805e-06 0 2.1013296094635247e-05 1.0455912922002292e-05 0 2.1455174612688255e-05 2.9796904438799222e-06 0 2.7733735887643929e-05 1.6081957675346018e-05 0 2.1455174612688255e-05 2.979690443879923e-06 0 2.9940910630272958e-05 -3.7008882127621124e-06 0 2.4590822907785737e-05 -8.3970736464761578e-06 0 2.1455174612688255e-05 2.979690443879923e-06 0 1.8858320510232783e-05 -3.6036610089109805e-06 0 2.4590822907785737e-05 -8.3970736464761578e-06 0 2.7733735887643929e-05 1.6081957675346018e-05 0 2.2187839557954458e-05 4.8748320119642669e-05 0 1.5339619721800986e-05 2.7576514360448021e-05 0 2.1455174612688255e-05 2.979690443879923e-06 0 2.7733735887643929e-05 1.6081957675346018e-05 0 2.9940910630272958e-05 -3.7008882127621124e-06 0 1.6975306393590288e-05 1.3666855991438419e-05 0 3.8625972708693787e-05 2.4229405655316e-05 0 2.7733735887643929e-05 1.6081957675346018e-05 0 3.9726486502655949e-05 4.8054934994147404e-05 0 2.2187839557954454e-05 4.8748320119642662e-05 0 2.2187839557954454e-05 4.8748320119642662e-05 0 4.6309654864721471e-05 7.1752202806004033e-05 0 2.0821805752667803e-05 6.8886417888762633e-05 0 3.8625972708693787e-05 2.4229405655316e-05 0 3.7760191061193448e-05 2.9220907202445014e-05 0 2.9940910630272958e-05 -3.7008882127621124e-06 0 3.0457483946665118e-05 -1.1357407937433433e-05 0 2.4590822907785737e-05 -8.3970736464761578e-06 0 3.9726486502655949e-05 4.8054934994147404e-05 0 2.2187839557954454e-05 4.8748320119642662e-05 0 4.6309654864721471e-05 7.1752202806004033e-05 0 3.7760191061193448e-05 2.9220907202445014e-05 0 4.190328559475084e-05 3.968969608448908e-05 0 3.0457483946665118e-05 -1.1357407937433433e-05 0 2.7153577131311839e-05 -1.4726872036459361e-05 0 3.1344167657322023e-05 -1.6286370163355212e-05 0 4.6309654864721471e-05 7.1752202806004033e-05 0 3.4925178689903052e-05 8.6531186683276018e-05 0 2.0821805752667803e-05 6.8886417888762633e-05 0 1.8858320510232783e-05 -3.6036610089109805e-06 0 2.4590822907785737e-05 -8.3970736464761578e-06 0 2.1519988912797908e-05 -1.1511843698182656e-05 0 3.0457483946665118e-05 -1.1357407937433433e-05 0 2.4590822907785737e-05 -8.3970736464761578e-06 0 2.7153577131311839e-05 -1.4726872036459361e-05 0 2.4590822907785737e-05 -8.3970736464761578e-06 0 2.7153577131311839e-05 -1.4726872036459361e-05 0 2.1519988912797908e-05 -1.1511843698182656e-05 0 2.7153577131311839e-05 -1.4726872036459361e-05 0 2.1519988912797908e-05 -1.1511843698182656e-05 0 2.3889349302915424e-05 -1.6392638530929643e-05 0 2.7153577131311839e-05 -1.4726872036459361e-05 0 2.3889349302915424e-05 -1.6392638530929643e-05 0 2.8097235336491257e-05 -1.9661267274178552e-05 0 2.7153577131311839e-05 -1.4726872036459361e-05 0 2.8097235336491257e-05 -1.9661267274178552e-05 0 3.1344167657322023e-05 -1.6286370163355212e-05 0 2.8097235336491257e-05 -1.9661267274178552e-05 0 3.1344167657322023e-05 -1.6286370163355212e-05 0 3.2895855884644884e-05 -2.0324344274472029e-05 0 2.3889349302915424e-05 -1.6392638530929643e-05 0 2.8097235336491257e-05 -1.9661267274178552e-05 0 2.3712181833743178e-05 -1.9742641654911924e-05 0 3.4925178689903052e-05 8.6531186683276018e-05 0 3.8699637799055713e-05 0.00010188678137936645 0 1.9551806021262971e-05 9.3320541624157234e-05 0 3.4925178689903052e-05 8.6531186683276018e-05 0 5.1893796677294223e-05 9.4685282286904185e-05 0 3.8699637799055713e-05 0.00010188678137936645 0 4.6309654864721471e-05 7.1752202806004033e-05 0 3.4925178689903052e-05 8.6531186683276018e-05 0 5.1893796677294223e-05 9.4685282286904185e-05 0 4.190328559475084e-05 3.968969608448908e-05 0 4.468382856365282e-05 4.8964560473641193e-05 0 5.1893796677294223e-05 9.4685282286904185e-05 0 3.8699637799055713e-05 0.00010188678137936645 0 5.6769671791489745e-05 0.00011872088682379135 0 3.8699637799055713e-05 0.00010188678137936645 0 5.6769671791489745e-05 0.00011872088682379135 0 3.1173052905410739e-05 0.00011536060603376479 0 5.6769671791489745e-05 0.00011872088682379135 0 3.9649031714373552e-05 0.00013228539107108938 0 3.1173052905410739e-05 0.00011536060603376479 0 5.6769671791489745e-05 0.00011872088682379135 0 6.1255789586006152e-05 0.00014388479580700327 0 3.9649031714373552e-05 0.00013228539107108938 0 3.2895855884644884e-05 -2.0324344274472029e-05 0 3.4819766870233514e-05 -2.4211819984374365e-05 0 3.095388243669495e-05 -2.3631769139417149e-05 0 4.468382856365282e-05 4.8964560473641193e-05 0 4.7730039144454827e-05 5.9738248968715276e-05 0 6.1255789586006152e-05 0.00014388479580700327 0 3.9649031714373552e-05 0.00013228539107108938 0 3.5446829783357401e-05 0.00014983979295788149 0 2.8097235336491257e-05 -1.9661267274178552e-05 0 2.6874022090384213e-05 -2.3312301088639003e-05 0 3.095388243669495e-05 -2.3631769139417149e-05 0 2.8097235336491257e-05 -1.9661267274178552e-05 0 2.6874022090384213e-05 -2.3312301088638999e-05 0 2.3712181833743178e-05 -1.9742641654911924e-05 0 2.8097235336491257e-05 -1.9661267274178552e-05 0 3.2895855884644884e-05 -2.0324344274472029e-05 0 3.095388243669495e-05 -2.3631769139417149e-05 0 2.6874022090384213e-05 -2.3312301088638999e-05 0 3.095388243669495e-05 -2.3631769139417149e-05 0 2.7713978833124259e-05 -2.659237652260164e-05 0 3.095388243669495e-05 -2.3631769139417149e-05 0 2.7713978833124259e-05 -2.659237652260164e-05 0 3.2643619133724316e-05 -2.8044293848942948e-05 0 2.6874022090384213e-05 -2.3312301088638999e-05 0 2.7713978833124259e-05 -2.659237652260164e-05 0 2.2049157346406861e-05 -2.3569103840991369e-05 0 2.7713978833124259e-05 -2.659237652260164e-05 0 2.2049157346406861e-05 -2.3569103840991369e-05 0 2.5122664080654766e-05 -2.882576270346724e-05 0 2.6874022090384213e-05 -2.3312301088638999e-05 0 2.2049157346406861e-05 -2.3569103840991369e-05 0 2.3712181833743178e-05 -1.9742641654911924e-05 0 2.2049157346406861e-05 -2.3569103840991369e-05 0 1.6606108240868918e-05 -1.8994570001574374e-05 0 1.9890098688556477e-05 -1.9177490753331096e-05 0 2.2049157346406861e-05 -2.3569103840991369e-05 0 2.3712181833743178e-05 -1.9742641654911924e-05 0 1.9890098688556477e-05 -1.9177490753331096e-05 0 2.2049157346406861e-05 -2.3569103840991369e-05 0 1.6884989429434949e-05 -2.2807878319563422e-05 0 2.0176506972940663e-05 -2.8399479281859579e-05 0 1.6884989429434949e-05 -2.2807878319563422e-05 0 2.0176506972940663e-05 -2.8399479281859579e-05 0 1.4865511406886324e-05 -2.4894558724272332e-05 0 1.6884989429434949e-05 -2.2807878319563422e-05 0 1.6606108240868918e-05 -1.8994570001574374e-05 0 1.3349085994221264e-05 -2.0384790725127424e-05 0 2.2049157346406861e-05 -2.3569103840991369e-05 0 1.6884989429434949e-05 -2.2807878319563422e-05 0 1.6606108240868918e-05 -1.8994570001574374e-05 0 1.5286189757839845e-05 -1.3302499619152781e-05 0 1.6606108240868918e-05 -1.8994570001574374e-05 0 1.9890098688556477e-05 -1.9177490753331096e-05 0 1.6606108240868918e-05 -1.8994570001574374e-05 0 1.3479644419222985e-05 -1.6525831594714218e-05 0 1.3349085994221264e-05 -2.0384790725127424e-05 0 1.5286189757839845e-05 -1.3302499619152781e-05 0 1.6606108240868918e-05 -1.8994570001574374e-05 0 1.3479644419222985e-05 -1.6525831594714218e-05 0 1.5286189757839845e-05 -1.3302499619152781e-05 0 1.164625079334059e-05 -1.2768991338993558e-05 0 1.3479644419222985e-05 -1.6525831594714218e-05 0 1.5286189757839845e-05 -1.3302499619152781e-05 0 2.0008991577224195e-05 -1.4972727558729753e-05 0 1.9890098688556477e-05 -1.9177490753331096e-05 0 2.3889349302915424e-05 -1.6392638530929643e-05 0 2.0008991577224195e-05 -1.4972727558729753e-05 0 2.3712181833743178e-05 -1.9742641654911924e-05 0 2.0008991577224195e-05 -1.4972727558729753e-05 0 2.3712181833743178e-05 -1.9742641654911924e-05 0 1.9890098688556477e-05 -1.9177490753331096e-05 0 -6.7120283613986633e-05 7.4244523649165739e-05 0 -4.9689994143960578e-05 8.1460477454829995e-05 0 -4.9457503038529395e-05 6.1891678826514606e-05 0 -6.7120283613986633e-05 7.4244523649165739e-05 0 -4.9689994143960578e-05 8.1460477454829995e-05 0 -7.3120509667354251e-05 9.6542937878168111e-05 0 -4.9689994143960578e-05 8.1460477454829995e-05 0 -4.9457503038529395e-05 6.1891678826514606e-05 0 -3.5047780056125249e-05 6.1826785864038436e-05 0 -6.7120283613986633e-05 7.4244523649165739e-05 0 -4.9457503038529395e-05 6.1891678826514606e-05 0 -5.9609100756359837e-05 5.4337586133026817e-05 0 -5.9609100756359837e-05 5.4337586133026817e-05 0 -5.2037591226871324e-05 3.7663550066489721e-05 0 -3.6657729819669777e-05 4.1484472394252823e-05 0 -4.9457503038529395e-05 6.1891678826514606e-05 0 -3.6657729819669777e-05 4.1484472394252823e-05 0 -3.5047780056125249e-05 6.1826785864038436e-05 0 -4.9457503038529395e-05 6.1891678826514606e-05 0 -5.9609100756359837e-05 5.4337586133026817e-05 0 -3.6657729819669777e-05 4.1484472394252823e-05 0 -3.6657729819669777e-05 4.1484472394252823e-05 0 -2.3889133139219648e-05 4.9641478507124171e-05 0 -3.5047780056125249e-05 6.1826785864038436e-05 0 -3.6657729819669777e-05 4.1484472394252823e-05 0 -1.7468308324909305e-05 3.2776995901112993e-05 0 -2.3889133139219648e-05 4.9641478507124171e-05 0 -2.3889133139219648e-05 4.9641478507124171e-05 0 -2.2814256835553509e-05 6.3532867001263888e-05 0 -1.1009714346418942e-05 5.2425341771421989e-05 0 -2.3889133139219648e-05 4.9641478507124171e-05 0 -2.2814256835553509e-05 6.3532867001263888e-05 0 -3.5047780056125249e-05 6.1826785864038436e-05 0 -2.2814256835553509e-05 6.3532867001263888e-05 0 -3.5047780056125249e-05 6.1826785864038436e-05 0 -3.0509469609929003e-05 7.9585456987543609e-05 0 -4.9689994143960578e-05 8.1460477454829995e-05 0 -3.5047780056125249e-05 6.1826785864038436e-05 0 -3.0509469609929003e-05 7.9585456987543609e-05 0 -2.2814256835553509e-05 6.3532867001263888e-05 0 -3.0509469609929003e-05 7.9585456987543609e-05 0 -1.3426873269911615e-05 7.6582550898822321e-05 0 -1.3426873269911615e-05 7.6582550898822321e-05 0 3.4144268321983533e-06 7.1534456459654982e-05 0 -1.5707709012219547e-06 9.3982668307142505e-05 0 -1.3426873269911615e-05 7.6582550898822321e-05 0 -1.1009714346418942e-05 5.2425341771421989e-05 0 3.4144268321983533e-06 7.1534456459654982e-05 0 -1.1009714346418942e-05 5.2425341771421989e-05 0 6.283928379096847e-06 4.6509196546609064e-05 0 3.4144268321983533e-06 7.1534456459654982e-05 0 -2.2814256835553509e-05 6.3532867001263888e-05 0 -1.3426873269911615e-05 7.6582550898822321e-05 0 -1.1009714346418942e-05 5.2425341771421989e-05 0 -1.7468308324909305e-05 3.2776995901112993e-05 0 -2.3889133139219648e-05 4.9641478507124171e-05 0 -1.1009714346418942e-05 5.2425341771421989e-05 0 -1.7468308324909305e-05 3.2776995901112993e-05 0 -1.1009714346418944e-05 5.2425341771421989e-05 0 -3.4890677960097183e-06 3.1897856033461696e-05 0 -1.1009714346418942e-05 5.2425341771421989e-05 0 -3.489067796009717e-06 3.1897856033461696e-05 0 6.283928379096847e-06 4.6509196546609064e-05 0 -3.4890677960097183e-06 3.1897856033461696e-05 0 6.283928379096847e-06 4.6509196546609071e-05 0 6.4228867961990755e-06 3.0188318847807911e-05 0 6.283928379096847e-06 4.6509196546609064e-05 0 6.4228867961990747e-06 3.0188318847807911e-05 0 1.5339619721800986e-05 2.7576514360448021e-05 0 2.2187839557954454e-05 4.8748320119642662e-05 0 6.2839283790968479e-06 4.6509196546609064e-05 0 1.5339619721800986e-05 2.7576514360448021e-05 0 2.2187839557954454e-05 4.8748320119642662e-05 0 6.283928379096847e-06 4.6509196546609064e-05 0 2.0821805752667803e-05 6.8886417888762633e-05 0 6.283928379096847e-06 4.6509196546609064e-05 0 3.4144268321983533e-06 7.1534456459654982e-05 0 2.0821805752667803e-05 6.8886417888762633e-05 0 3.4144268321983533e-06 7.1534456459654982e-05 0 2.08218057526678e-05 6.888641788876262e-05 0 1.9551806021262971e-05 9.3320541624157234e-05 0 3.4925178689903052e-05 8.6531186683276018e-05 0 2.0821805752667803e-05 6.8886417888762633e-05 0 1.9551806021262971e-05 9.3320541624157234e-05 0 3.4144268321983533e-06 7.1534456459654982e-05 0 1.9551806021262971e-05 9.3320541624157234e-05 0 -1.5707709012219547e-06 9.3982668307142505e-05 0 1.9551806021262971e-05 9.3320541624157234e-05 0 1.0972850208601675e-05 0.00010925061238769752 0 -1.5707709012219547e-06 9.3982668307142505e-05 0 1.9551806021262971e-05 9.3320541624157234e-05 0 1.0972850208601675e-05 0.00010925061238769752 0 3.1173052905410739e-05 0.00011536060603376479 0 3.8699637799055713e-05 0.00010188678137936645 0 1.9551806021262971e-05 9.3320541624157234e-05 0 3.1173052905410739e-05 0.00011536060603376479 0 3.9649031714373552e-05 0.00013228539107108938 0 3.1173052905410739e-05 0.00011536060603376479 0 1.4500834833995406e-05 0.00013218451858240966 0 3.9649031714373552e-05 0.00013228539107108938 0 1.4500834833995406e-05 0.00013218451858240966 0 3.5446829783357401e-05 0.00014983979295788149 0 1.0972850208601675e-05 0.00010925061238769752 0 3.1173052905410739e-05 0.00011536060603376479 0 1.4500834833995406e-05 0.00013218451858240966 0 1.0972850208601675e-05 0.00010925061238769752 0 1.4500834833995406e-05 0.00013218451858240966 0 -8.1726677944084185e-06 0.00011222567770335691 0 1.4500834833995406e-05 0.00013218451858240966 0 -1.1752417399196858e-05 0.00013398756373203031 0 -8.1726677944084185e-06 0.00011222567770335691 0 1.4500834833995406e-05 0.00013218451858240966 0 -1.1752417399196858e-05 0.00013398756373203031 0 -6.0761550285989068e-06 0.00015553761494710178 0 -1.1752417399196858e-05 0.00013398756373203031 0 -8.1726677944084185e-06 0.00011222567770335691 0 -2.9503933909352103e-05 0.00013201889934654856 0 -8.1726677944084185e-06 0.00011222567770335691 0 -2.2813269389402204e-05 0.00010082423070311829 0 -2.9503933909352103e-05 0.00013201889934654856 0 -8.1726677944084185e-06 0.00011222567770335691 0 -1.5707709012219547e-06 9.3982668307142505e-05 0 -2.2813269389402204e-05 0.00010082423070311829 0 1.0972850208601675e-05 0.00010925061238769752 0 -8.1726677944084185e-06 0.00011222567770335691 0 -1.5707709012219547e-06 9.3982668307142505e-05 0 -1.3426873269911615e-05 7.6582550898822321e-05 0 -1.5707709012219547e-06 9.3982668307142505e-05 0 -2.2813269389402204e-05 0.00010082423070311829 0 -3.0509469609929003e-05 7.9585456987543609e-05 0 -1.3426873269911615e-05 7.6582550898822321e-05 0 -2.2813269389402204e-05 0.00010082423070311829 0 -3.0509469609929003e-05 7.9585456987543609e-05 0 -3.9816303836316166e-05 9.698874425062459e-05 0 -2.2813269389402204e-05 0.00010082423070311829 0 -4.9689994143960578e-05 8.1460477454829995e-05 0 -3.0509469609929003e-05 7.9585456987543609e-05 0 -3.9816303836316166e-05 9.698874425062459e-05 0 -3.9816303836316166e-05 9.698874425062459e-05 0 -4.0772689314187336e-05 0.00011415201692477602 0 -5.718777653734714e-05 0.00010990595706677263 0 -3.9816303836316166e-05 9.698874425062459e-05 0 -2.2813269389402204e-05 0.00010082423070311829 0 -4.0772689314187336e-05 0.00011415201692477602 0 -2.2813269389402204e-05 0.00010082423070311829 0 -2.9503933909352103e-05 0.00013201889934654856 0 -4.0772689314187336e-05 0.00011415201692477602 0 -1.1752417399196858e-05 0.00013398756373203031 0 -2.9503933909352103e-05 0.00013201889934654856 0 -2.7510775392731633e-05 0.00015549223288796455 0 -2.9503933909352103e-05 0.00013201889934654856 0 -5.5378925297425361e-05 0.00013263244016994459 0 -4.4154535532249322e-05 0.00014942062164470315 0 -2.9503933909352103e-05 0.00013201889934654856 0 -4.0772689314187336e-05 0.00011415201692477602 0 -5.5378925297425361e-05 0.00013263244016994459 0 -4.0772689314187336e-05 0.00011415201692477602 0 -5.5378925297425361e-05 0.00013263244016994459 0 -5.718777653734714e-05 0.00010990595706677263 0 -5.5378925297425361e-05 0.00013263244016994459 0 -7.8164750317043732e-05 0.00012097984177416489 0 -8.1883332389046356e-05 0.00014677734920460567 0 -5.5378925297425361e-05 0.00013263244016994459 0 -8.1883332389046356e-05 0.00014677734920460567 0 -6.2169273111214532e-05 0.00015713469136928177 0 -5.5378925297425361e-05 0.00013263244016994459 0 -7.8164750317043732e-05 0.00012097984177416489 0 -5.718777653734714e-05 0.00010990595706677263 0 -7.8164750317043732e-05 0.00012097984177416489 0 -5.718777653734714e-05 0.00010990595706677263 0 -7.3120509667354251e-05 9.6542937878168111e-05 0 -4.9689994143960578e-05 8.1460477454829995e-05 0 -3.9816303836316166e-05 9.698874425062459e-05 0 -5.718777653734714e-05 0.00010990595706677263 0 -4.9689994143960578e-05 8.1460477454829995e-05 0 -5.718777653734714e-05 0.00010990595706677263 0 -7.3120509667354251e-05 9.6542937878168111e-05 0 -8.6688581717128441e-05 0.00020133286880718725 0 -5.2137090946014932e-05 0.00020180810599531205 0 -6.2532540725553177e-05 0.00022875947380473409 0 -8.6688581717128441e-05 0.00020133286880718725 0 -6.5859527309339132e-05 0.00018134667275928508 0 -5.2137090946014932e-05 0.00020180810599531205 0 -6.5859527309339132e-05 0.00018134667275928506 0 -4.6586177441736581e-05 0.00017101122062867166 0 -5.2137090946014932e-05 0.00020180810599531205 0 -8.6688581717128441e-05 0.00020133286880718725 0 -6.5859527309339132e-05 0.00018134667275928506 0 -8.4778107665108376e-05 0.00017365293930020256 0 -6.5859527309339132e-05 0.00018134667275928506 0 -8.4778107665108376e-05 0.00017365293930020256 0 -6.2169273111214532e-05 0.00015713469136928177 0 -8.4778107665108376e-05 0.00017365293930020256 0 -8.1883332389046356e-05 0.00014677734920460567 0 -6.2169273111214532e-05 0.00015713469136928177 0 -5.5378925297425361e-05 0.00013263244016994459 0 -6.2169273111214532e-05 0.00015713469136928177 0 -4.4154535532249322e-05 0.00014942062164470315 0 -6.5859527309339132e-05 0.00018134667275928506 0 -6.2169273111214532e-05 0.00015713469136928177 0 -4.6586177441736581e-05 0.00017101122062867166 0 -4.6586177441736581e-05 0.00017101122062867166 0 -4.4154535532249322e-05 0.00014942062164470315 0 -2.7510775392731633e-05 0.00015549223288796455 0 -6.2169273111214532e-05 0.00015713469136928177 0 -4.6586177441736581e-05 0.00017101122062867166 0 -4.4154535532249322e-05 0.00014942062164470315 0 -2.9503933909352103e-05 0.00013201889934654856 0 -4.4154535532249322e-05 0.00014942062164470315 0 -2.7510775392731633e-05 0.00015549223288796455 0 -4.6586177441736581e-05 0.00017101122062867166 0 -2.7510775392731633e-05 0.00015549223288796455 0 -2.7494524824350555e-05 0.00017903946355086025 0 -2.7494524824350555e-05 0.00017903946355086025 0 -5.2137090946014932e-05 0.00020180810599531205 0 -2.603890126273774e-05 0.00020413742388737603 0 -4.6586177441736581e-05 0.00017101122062867166 0 -2.7494524824350555e-05 0.00017903946355086025 0 -5.2137090946014932e-05 0.00020180810599531205 0 -5.2137090946014932e-05 0.00020180810599531205 0 -2.603890126273774e-05 0.00020413742388737603 0 -3.6053776914657975e-05 0.00023156137449954525 0 -2.603890126273774e-05 0.00020413742388737603 0 -8.3855942609574256e-06 0.00018773371773827464 0 -6.1367537467027256e-06 0.00021835194591660539 0 -8.3855942609574256e-06 0.00018773371773827464 0 1.3094776512978669e-05 0.00019915628780923459 0 -6.1367537467027256e-06 0.00021835194591660539 0 -8.3855942609574256e-06 0.00018773371773827464 0 7.760951822312909e-06 0.00017287799372875593 0 1.3094776512978669e-05 0.00019915628780923459 0 -2.7494524824350555e-05 0.00017903946355086025 0 -2.603890126273774e-05 0.00020413742388737603 0 -8.3855942609574256e-06 0.00018773371773827464 0 -2.7510775392731633e-05 0.00015549223288796455 0 -2.7494524824350555e-05 0.00017903946355086025 0 -6.0761550285989068e-06 0.00015553761494710178 0 -2.7494524824350555e-05 0.00017903946355086025 0 -8.3855942609574256e-06 0.00018773371773827464 0 -6.0761550285989068e-06 0.00015553761494710178 0 -1.1752417399196858e-05 0.00013398756373203031 0 -2.7510775392731633e-05 0.00015549223288796455 0 -6.0761550285989068e-06 0.00015553761494710178 0 -6.0761550285989068e-06 0.00015553761494710178 0 7.7609518223129074e-06 0.00017287799372875593 0 1.5818987605728267e-05 0.00015680547808835573 0 -8.3855942609574256e-06 0.00018773371773827464 0 -6.0761550285989102e-06 0.00015553761494710178 0 7.760951822312909e-06 0.00017287799372875593 0 7.760951822312909e-06 0.00017287799372875593 0 1.5818987605728263e-05 0.00015680547808835573 0 2.7915818594131732e-05 0.00017353573553987534 0 1.4500834833995406e-05 0.00013218451858240966 0 1.5818987605728267e-05 0.00015680547808835573 0 3.5446829783357401e-05 0.00014983979295788149 0 1.4500834833995406e-05 0.00013218451858240966 0 -6.0761550285989068e-06 0.00015553761494710178 0 1.5818987605728267e-05 0.00015680547808835573 0 1.5818987605728267e-05 0.00015680547808835573 0 3.5446829783357401e-05 0.00014983979295788149 0 2.7915818594131732e-05 0.00017353573553987534 0 3.5446829783357401e-05 0.00014983979295788149 0 2.7915818594131732e-05 0.00017353573553987534 0 4.7762407810333321e-05 0.00016405912413370671 0 2.7915818594131732e-05 0.00017353573553987534 0 1.3094776512978669e-05 0.00019915628780923459 0 3.8050071390118653e-05 0.00020312239749607615 0 2.7915818594131732e-05 0.00017353573553987534 0 3.8050071390118653e-05 0.00020312239749607617 0 4.8448915435700491e-05 0.00018209897260689295 0 7.760951822312909e-06 0.00017287799372875593 0 2.7915818594131732e-05 0.00017353573553987534 0 1.3094776512978669e-05 0.00019915628780923459 0 1.3094776512978669e-05 0.00019915628780923459 0 3.8050071390118653e-05 0.00020312239749607615 0 2.1575566684820504e-05 0.00023108239448168979 0 3.8050071390118653e-05 0.00020312239749607615 0 2.1575566684820508e-05 0.00023108239448168979 0 4.8904721760714229e-05 0.00022861283870479723 0 2.1575566684820504e-05 0.00023108239448168979 0 4.6103748642570736e-05 0.00025470604985559475 0 1.8913276128571167e-05 0.00026088390887245278 0 2.1575566684820504e-05 0.00023108239448168979 0 4.6103748642570742e-05 0.00025470604985559475 0 4.8904721760714229e-05 0.00022861283870479723 0 4.6103748642570742e-05 0.00025470604985559475 0 3.6882686399326907e-05 0.00027300970981572383 0 1.8913276128571167e-05 0.00026088390887245278 0 4.6103748642570742e-05 0.00025470604985559475 0 3.6882686399326907e-05 0.00027300970981572383 0 6.1860520331715317e-05 0.00027055202499425842 0 3.6882686399326907e-05 0.00027300970981572383 0 6.1860520331715317e-05 0.00027055202499425842 0 5.4159157790972191e-05 0.00028873103362309652 0 3.6882686399326907e-05 0.00027300970981572383 0 2.3093741251384645e-05 0.00028816517094701853 0 5.4159157790972191e-05 0.00028873103362309652 0 3.6882686399326907e-05 0.00027300970981572383 0 2.3093741251384645e-05 0.00028816517094701853 0 1.8913276128571167e-05 0.00026088390887245278 0 -5.7034410350321036e-06 0.00028695649761049957 0 -6.870294085759574e-06 0.00025062891512081758 0 -3.136924909667174e-05 0.00026009090570500593 0 1.8913276128571167e-05 0.00026088390887245278 0 -5.7034410350321061e-06 0.00028695649761049957 0 -6.870294085759574e-06 0.00025062891512081758 0 2.3093741251384645e-05 0.00028816517094701853 0 1.8913276128571167e-05 0.00026088390887245278 0 -5.7034410350321036e-06 0.00028695649761049957 0 -6.870294085759574e-06 0.00025062891512081758 0 -6.1367537467027256e-06 0.00021835194591660539 0 -3.6053776914657975e-05 0.00023156137449954525 0 2.1575566684820504e-05 0.00023108239448168979 0 1.8913276128571167e-05 0.00026088390887245278 0 -6.870294085759574e-06 0.00025062891512081758 0 2.1575566684820504e-05 0.00023108239448168979 0 -6.870294085759574e-06 0.00025062891512081758 0 -6.1367537467027256e-06 0.00021835194591660539 0 1.3094776512978669e-05 0.00019915628780923459 0 2.1575566684820504e-05 0.00023108239448168979 0 -6.1367537467027256e-06 0.00021835194591660539 0 -2.603890126273774e-05 0.00020413742388737603 0 -6.1367537467027256e-06 0.00021835194591660539 0 -3.6053776914657975e-05 0.00023156137449954525 0 -5.2137090946014932e-05 0.00020180810599531205 0 -3.6053776914657969e-05 0.00023156137449954525 0 -6.2532540725553177e-05 0.00022875947380473409 0 -3.6053776914657975e-05 0.00023156137449954525 0 -3.136924909667174e-05 0.00026009090570500593 0 -5.740769510822217e-05 0.00025423730786729875 0 -3.6053776914657975e-05 0.00023156137449954525 0 -5.740769510822217e-05 0.00025423730786729875 0 -6.2532540725553177e-05 0.00022875947380473409 0 -6.870294085759574e-06 0.00025062891512081758 0 -3.6053776914657969e-05 0.00023156137449954525 0 -3.136924909667174e-05 0.00026009090570500593 0 -5.7034410350321036e-06 0.00028695649761049957 0 -3.136924909667174e-05 0.00026009090570500593 0 -3.3136536421027324e-05 0.00028606747999731071 0 -3.3136536421027324e-05 0.00028606747999731071 0 -4.704136354586843e-05 0.00027141464164953959 0 -6.0667132930892409e-05 0.00028559213157485739 0 -3.136924909667174e-05 0.00026009090570500593 0 -3.3136536421027324e-05 0.00028606747999731071 0 -4.704136354586843e-05 0.00027141464164953959 0 -3.136924909667174e-05 0.00026009090570500593 0 -4.704136354586843e-05 0.00027141464164953959 0 -5.740769510822217e-05 0.00025423730786729875 0 -4.704136354586843e-05 0.00027141464164953959 0 -5.740769510822217e-05 0.00025423730786729875 0 -6.9872848189181838e-05 0.00026981153712918174 0 -4.704136354586843e-05 0.00027141464164953959 0 -6.9872848189181838e-05 0.00026981153712918174 0 -6.0667132930892409e-05 0.00028559213157485739 0 -6.9872848189181838e-05 0.00026981153712918174 0 -6.0667132930892409e-05 0.00028559213157485739 0 -8.8270479398998817e-05 0.00028557397495021877 0 -6.9872848189181838e-05 0.00026981153712918174 0 -8.8270479398998817e-05 0.00028557397495021877 0 -8.8239831925419321e-05 0.00025774110587360337 0 -5.740769510822217e-05 0.00025423730786729875 0 -6.9872848189181838e-05 0.00026981153712918174 0 -8.8239831925419321e-05 0.00025774110587360337 0 -8.8239831925419321e-05 0.00025774110587360337 0 -6.2532540725553177e-05 0.00022875947380473409 0 -8.776883612939023e-05 0.00022960994386452802 0 -5.740769510822217e-05 0.00025423730786729875 0 -8.8239831925419321e-05 0.00025774110587360337 0 -6.2532540725553177e-05 0.00022875947380473409 0 -8.6688581717128441e-05 0.00020133286880718725 0 -6.2532540725553177e-05 0.00022875947380473409 0 -8.776883612939023e-05 0.00022960994386452802 0 2.6531469661309064e-05 -3.305941844511582e-05 0 2.5572955994025636e-05 -3.8436379254530513e-05 0 2.2211641350348441e-05 -3.4040439721324076e-05 0 2.6531469661309064e-05 -3.305941844511582e-05 0 3.0782532483561582e-05 -3.8763545212833934e-05 0 3.1722824112530075e-05 -3.4901461662827321e-05 0 2.6531469661309064e-05 -3.305941844511582e-05 0 2.9689382067911759e-05 -3.1094561104489461e-05 0 3.1722824112530075e-05 -3.4901461662827321e-05 0 2.6531469661309064e-05 -3.305941844511582e-05 0 3.0782532483561589e-05 -3.876354521283394e-05 0 2.5572955994025636e-05 -3.8436379254530513e-05 0 2.5572955994025636e-05 -3.8436379254530513e-05 0 1.9949104685253333e-05 -3.7828785583500911e-05 0 2.2211641350348441e-05 -3.4040439721324076e-05 0 1.9949104685253333e-05 -3.7828785583500911e-05 0 1.817247717484077e-05 -3.2343742840030351e-05 0 2.2211641350348441e-05 -3.4040439721324076e-05 0 1.9949104685253333e-05 -3.7828785583500911e-05 0 1.817247717484077e-05 -3.2343742840030351e-05 0 1.6599621207591299e-05 -3.5303348600959199e-05 0 1.817247717484077e-05 -3.2343742840030351e-05 0 2.2211641350348441e-05 -3.4040439721324076e-05 0 2.0176506972940663e-05 -2.8399479281859579e-05 0 1.817247717484077e-05 -3.2343742840030351e-05 0 2.0176506972940663e-05 -2.8399479281859579e-05 0 1.6342113527229213e-05 -2.8793078873769529e-05 0 2.0176506972940663e-05 -2.8399479281859579e-05 0 1.6342113527229213e-05 -2.8793078873769529e-05 0 1.4865511406886324e-05 -2.4894558724272332e-05 0 2.2049157346406861e-05 -2.3569103840991369e-05 0 2.0176506972940663e-05 -2.8399479281859579e-05 0 2.5122664080654766e-05 -2.882576270346724e-05 0 2.6531469661309064e-05 -3.305941844511582e-05 0 2.0176506972940663e-05 -2.8399479281859579e-05 0 2.5122664080654766e-05 -2.882576270346724e-05 0 2.6531469661309064e-05 -3.305941844511582e-05 0 2.2211641350348441e-05 -3.4040439721324076e-05 0 2.0176506972940663e-05 -2.8399479281859579e-05 0 2.6531469661309064e-05 -3.305941844511582e-05 0 2.5122664080654766e-05 -2.882576270346724e-05 0 2.9689382067911759e-05 -3.1094561104489461e-05 0 2.7713978833124259e-05 -2.659237652260164e-05 0 2.5122664080654766e-05 -2.882576270346724e-05 0 2.9689382067911759e-05 -3.1094561104489461e-05 0 2.7713978833124259e-05 -2.659237652260164e-05 0 3.2643619133724316e-05 -2.8044293848942948e-05 0 2.9689382067911759e-05 -3.1094561104489461e-05 0 3.4819766870233514e-05 -2.4211819984374365e-05 0 3.095388243669495e-05 -2.3631769139417149e-05 0 3.2643619133724316e-05 -2.8044293848942948e-05 0 3.2643619133724316e-05 -2.8044293848942948e-05 0 3.7385352535664142e-05 -2.833364189719484e-05 0 3.5363406621029802e-05 -3.2544761738901935e-05 0 3.2643619133724316e-05 -2.8044293848942948e-05 0 2.9689382067911759e-05 -3.1094561104489461e-05 0 3.5363406621029802e-05 -3.2544761738901935e-05 0 6.1255789586006152e-05 0.00014388479580700327 0 3.5446829783357401e-05 0.00014983979295788149 0 4.7762407810333321e-05 0.00016405912413370671 0 6.1255789586006152e-05 0.00014388479580700327 0 6.553828762349419e-05 0.00017002275976628272 0 4.7762407810333321e-05 0.00016405912413370671 0 3.4819766870233514e-05 -2.4211819984374365e-05 0 3.2643619133724316e-05 -2.8044293848942948e-05 0 3.7385352535664142e-05 -2.833364189719484e-05 0 4.7730039144454827e-05 5.9738248968715276e-05 0 5.1154190154666053e-05 7.1279316792545626e-05 0 2.7915818594131732e-05 0.00017353573553987534 0 4.7762407810333321e-05 0.00016405912413370671 0 4.8448915435700491e-05 0.00018209897260689295 0 6.553828762349419e-05 0.00017002275976628272 0 4.7762407810333321e-05 0.00016405912413370671 0 4.8448915435700491e-05 0.00018209897260689295 0 3.8050071390118653e-05 0.00020312239749607615 0 4.8448915435700491e-05 0.00018209897260689295 0 6.9740798416731959e-05 0.00019755855152058262 0 5.1154190154666053e-05 7.1279316792545626e-05 0 5.3867336382522339e-05 8.129474893689652e-05 0 3.7385352535664142e-05 -2.833364189719484e-05 0 4.0676474796889381e-05 -3.3096668452985092e-05 0 3.5363406621029802e-05 -3.2544761738901935e-05 0 6.553828762349419e-05 0.00017002275976628272 0 4.8448915435700491e-05 0.00018209897260689295 0 6.9740798416731959e-05 0.00019755855152058262 0 5.3867336382522339e-05 8.129474893689652e-05 0 6.1003599150646982e-05 9.5070220472398499e-05 0 3.8050071390118653e-05 0.00020312239749607615 0 6.9740798416731959e-05 0.00019755855152058262 0 4.8904721760714229e-05 0.00022861283870479723 0 2.9689382067911759e-05 -3.1094561104489461e-05 0 3.1722824112530075e-05 -3.4901461662827321e-05 0 3.5363406621029802e-05 -3.2544761738901935e-05 0 4.0676474796889381e-05 -3.3096668452985092e-05 0 3.5363406621029802e-05 -3.2544761738901935e-05 0 3.710301269304828e-05 -3.8688081957241469e-05 0 3.0782532483561589e-05 -3.876354521283394e-05 0 3.1722824112530075e-05 -3.4901461662827321e-05 0 3.710301269304828e-05 -3.8688081957241469e-05 0 3.1722824112530075e-05 -3.4901461662827321e-05 0 3.5363406621029802e-05 -3.2544761738901935e-05 0 3.710301269304828e-05 -3.8688081957241469e-05 0 3.710301269304828e-05 -3.8688081957241469e-05 0 4.1888592382840795e-05 -4.3903083148254317e-05 0 3.5559831347735007e-05 -4.4359928105528201e-05 0 3.0782532483561589e-05 -3.876354521283394e-05 0 3.710301269304828e-05 -3.8688081957241469e-05 0 3.5559831347735007e-05 -4.4359928105528201e-05 0 4.0676474796889381e-05 -3.3096668452985092e-05 0 3.710301269304828e-05 -3.8688081957241469e-05 0 4.5002399537707593e-05 -3.8730511994643876e-05 0 3.710301269304828e-05 -3.8688081957241469e-05 0 4.1888592382840795e-05 -4.3903083148254317e-05 0 4.5002399537707593e-05 -3.8730511994643876e-05 0 4.1888592382840795e-05 -4.3903083148254317e-05 0 3.5559831347735007e-05 -4.4359928105528201e-05 0 4.3289882380920289e-05 -5.0299120049333336e-05 0 6.9740798416731959e-05 0.00019755855152058262 0 4.8904721760714229e-05 0.00022861283870479723 0 7.411998841396477e-05 0.00022562187089597384 0 6.1003599150646982e-05 9.5070220472398499e-05 0 5.4598625639165462e-05 0.00010258118957505733 0 4.1888592382840795e-05 -4.3903083148254317e-05 0 4.5002399537707593e-05 -3.8730511994643876e-05 0 5.0723261690323344e-05 -4.6150634433972985e-05 0 4.8904721760714229e-05 0.00022861283870479723 0 7.411998841396477e-05 0.00022562187089597384 0 7.920323448831461e-05 0.0002550909084128537 0 4.6103748642570742e-05 0.00025470604985559475 0 4.8904721760714229e-05 0.00022861283870479723 0 7.920323448831461e-05 0.0002550909084128537 0 4.6103748642570742e-05 0.00025470604985559475 0 7.920323448831461e-05 0.0002550909084128537 0 6.1860520331715317e-05 0.00027055202499425842 0 5.4598625639165462e-05 0.00010258118957505733 0 0.00010469066939545472 0.00011648007905078405 0 7.920323448831461e-05 0.0002550909084128537 0 8.6332501408464891e-05 0.0002857869826148519 0 6.1860520331715317e-05 0.00027055202499425842 0 8.6332501408464891e-05 0.0002857869826148519 0 6.1860520331715317e-05 0.00027055202499425842 0 5.4159157790972191e-05 0.00028873103362309652 0 3.5559831347735007e-05 -4.4359928105528201e-05 0 4.3289882380920289e-05 -5.0299120049333336e-05 0 3.2755015740758971e-05 -5.0224911778130819e-05 0 4.1888592382840795e-05 -4.3903083148254317e-05 0 5.0723261690323344e-05 -4.6150634433972985e-05 0 4.3289882380920289e-05 -5.0299120049333336e-05 0 5.0723261690323344e-05 -4.6150634433972985e-05 0 5.7555319313541395e-05 -5.616724782181627e-05 0 4.3289882380920289e-05 -5.0299120049333336e-05 0 5.7555319313541395e-05 -5.616724782181627e-05 0 4.3289882380920289e-05 -5.0299120049333336e-05 0 4.5460778229255454e-05 -5.8574247554101037e-05 0 4.3289882380920289e-05 -5.0299120049333336e-05 0 4.5460778229255454e-05 -5.8574247554101037e-05 0 3.2755015740758971e-05 -5.0224911778130819e-05 0 3.2755015740758971e-05 -5.0224911778130819e-05 0 2.6045850057418369e-05 -4.6105333536274784e-05 0 2.6749946610970921e-05 -5.4083872430361925e-05 0 4.5460778229255454e-05 -5.8574247554101037e-05 0 3.5170242735735067e-05 -5.7226024074535616e-05 0 3.2755015740758971e-05 -5.0224911778130819e-05 0 3.5170242735735067e-05 -5.7226024074535616e-05 0 3.2755015740758971e-05 -5.0224911778130819e-05 0 2.6749946610970921e-05 -5.4083872430361925e-05 0 3.5559831347735007e-05 -4.4359928105528201e-05 0 3.2755015740758971e-05 -5.0224911778130819e-05 0 2.8885009696802045e-05 -4.3406403497688662e-05 0 3.2755015740758971e-05 -5.0224911778130819e-05 0 2.8885009696802045e-05 -4.3406403497688662e-05 0 2.6045850057418369e-05 -4.6105333536274784e-05 0 2.5572955994025636e-05 -3.8436379254530513e-05 0 2.8885009696802045e-05 -4.3406403497688662e-05 0 2.2491227375008557e-05 -4.2265905494313464e-05 0 3.0782532483561589e-05 -3.876354521283394e-05 0 2.5572955994025636e-05 -3.8436379254530513e-05 0 2.8885009696802045e-05 -4.3406403497688662e-05 0 3.0782532483561589e-05 -3.876354521283394e-05 0 3.5559831347735007e-05 -4.4359928105528201e-05 0 2.8885009696802045e-05 -4.3406403497688662e-05 0 1.9949104685253333e-05 -3.7828785583500911e-05 0 2.2491227375008557e-05 -4.2265905494313464e-05 0 1.8687859004412871e-05 -4.2191935531088188e-05 0 2.5572955994025636e-05 -3.8436379254530513e-05 0 1.9949104685253333e-05 -3.7828785583500911e-05 0 2.2491227375008557e-05 -4.2265905494313464e-05 0 2.2491227375008557e-05 -4.2265905494313464e-05 0 2.6045850057418369e-05 -4.6105333536274784e-05 0 2.1548636571361783e-05 -4.6910138045025358e-05 0 2.8885009696802045e-05 -4.3406403497688662e-05 0 2.2491227375008557e-05 -4.2265905494313458e-05 0 2.6045850057418369e-05 -4.6105333536274784e-05 0 2.2491227375008557e-05 -4.2265905494313464e-05 0 2.1548636571361783e-05 -4.6910138045025358e-05 0 1.8687859004412871e-05 -4.2191935531088188e-05 0 2.6045850057418369e-05 -4.6105333536274784e-05 0 2.1548636571361783e-05 -4.6910138045025358e-05 0 2.6749946610970921e-05 -5.4083872430361925e-05 0 2.1548636571361783e-05 -4.6910138045025358e-05 0 2.6749946610970921e-05 -5.4083872430361925e-05 0 2.0981469444081841e-05 -5.054450965783681e-05 0 2.1548636571361783e-05 -4.6910138045025358e-05 0 2.0981469444081841e-05 -5.054450965783681e-05 0 1.8271193091700505e-05 -4.5883871456728781e-05 0 2.0981469444081841e-05 -5.054450965783681e-05 0 1.6920925133545208e-05 -4.6945852530586232e-05 0 1.8271193091700505e-05 -4.5883871456728781e-05 0 1.6920925133545208e-05 -4.6945852530586232e-05 0 1.498151522433002e-05 -4.2545227620242296e-05 0 1.8271193091700505e-05 -4.5883871456728781e-05 0 1.498151522433002e-05 -4.2545227620242296e-05 0 1.8271193091700501e-05 -4.5883871456728781e-05 0 1.8687859004412871e-05 -4.2191935531088188e-05 0 2.1548636571361783e-05 -4.6910138045025358e-05 0 1.8271193091700505e-05 -4.5883871456728781e-05 0 1.8687859004412871e-05 -4.2191935531088188e-05 0 1.519115083999053e-05 -4.3838341410057854e-05 0 1.3314511385911947e-05 -4.2399477784283435e-05 0 1.4878404530980327e-05 -4.2005545903650946e-05 0 1.6920925133545208e-05 -4.6945852530586232e-05 0 1.519115083999053e-05 -4.3838341410057854e-05 0 1.3314511385911947e-05 -4.2399477784283435e-05 0 1.6920925133545208e-05 -4.6945852530586232e-05 0 1.498151522433002e-05 -4.2545227620242296e-05 0 1.3314511385911947e-05 -4.2399477784283435e-05 0 1.3314511385911947e-05 -4.2399477784283435e-05 0 1.2474874304880474e-05 -3.9519582424207474e-05 0 1.0869395768025777e-05 -3.9826632679366845e-05 0 1.498151522433002e-05 -4.2545227620242296e-05 0 1.3314511385911947e-05 -4.2399477784283435e-05 0 1.2474874304880474e-05 -3.9519582424207474e-05 0 1.2474874304880474e-05 -3.9519582424207474e-05 0 1.5176613917421072e-05 -3.8617463128860741e-05 0 1.2242570622370885e-05 -3.6292010805499593e-05 0 1.2474874304880474e-05 -3.9519582424207474e-05 0 1.2242570622370885e-05 -3.6292010805499593e-05 0 1.0046501342230615e-05 -3.6536163687083287e-05 0 1.2474874304880474e-05 -3.9519582424207474e-05 0 1.0046501342230615e-05 -3.6536163687083287e-05 0 1.0869395768025777e-05 -3.9826632679366845e-05 0 1.498151522433002e-05 -4.2545227620242296e-05 0 1.8687859004412871e-05 -4.2191935531088188e-05 0 1.5176613917421072e-05 -3.8617463128860741e-05 0 1.498151522433002e-05 -4.2545227620242296e-05 0 1.2474874304880474e-05 -3.9519582424207474e-05 0 1.5176613917421072e-05 -3.8617463128860741e-05 0 1.9949104685253333e-05 -3.7828785583500911e-05 0 1.8687859004412871e-05 -4.2191935531088188e-05 0 1.5176613917421072e-05 -3.8617463128860741e-05 0 1.9949104685253333e-05 -3.7828785583500911e-05 0 1.5176613917421072e-05 -3.8617463128860741e-05 0 1.6599621207591299e-05 -3.5303348600959199e-05 0 1.817247717484077e-05 -3.2343742840030351e-05 0 1.6599621207591296e-05 -3.5303348600959193e-05 0 1.4994713596678151e-05 -3.2035376941331576e-05 0 1.6599621207591299e-05 -3.5303348600959199e-05 0 1.4994713596678153e-05 -3.2035376941331576e-05 0 1.4040671271266152e-05 -3.5193700521050096e-05 0 1.4994713596678151e-05 -3.2035376941331576e-05 0 1.4040671271266152e-05 -3.519370052105009e-05 0 1.2233037198962531e-05 -3.2386363361527788e-05 0 1.5176613917421072e-05 -3.8617463128860741e-05 0 1.6599621207591299e-05 -3.5303348600959199e-05 0 1.4040671271266152e-05 -3.5193700521050096e-05 0 1.4040671271266152e-05 -3.5193700521050096e-05 0 1.2242570622370885e-05 -3.6292010805499593e-05 0 1.2233037198962531e-05 -3.2386363361527788e-05 0 1.5176613917421072e-05 -3.8617463128860741e-05 0 1.4040671271266152e-05 -3.5193700521050096e-05 0 1.2242570622370885e-05 -3.6292010805499593e-05 0 1.2242570622370885e-05 -3.6292010805499593e-05 0 1.0046501342230615e-05 -3.6536163687083287e-05 0 9.6263706814744838e-06 -3.1751570582754135e-05 0 1.0046501342230615e-05 -3.6536163687083287e-05 0 9.6263706814744838e-06 -3.1751570582754135e-05 0 8.1738667689078155e-06 -3.3922815765555975e-05 0 1.2242570622370885e-05 -3.6292010805499593e-05 0 9.6263706814744838e-06 -3.1751570582754135e-05 0 1.2233037198962531e-05 -3.2386363361527788e-05 0 1.2233037198962531e-05 -3.2386363361527788e-05 0 9.388604200176189e-06 -2.8012765210481675e-05 0 1.3017250657508812e-05 -2.8657311398118896e-05 0 9.6263706814744838e-06 -3.1751570582754135e-05 0 1.2233037198962531e-05 -3.2386363361527788e-05 0 9.388604200176189e-06 -2.8012765210481675e-05 0 9.6263706814744838e-06 -3.1751570582754135e-05 0 9.388604200176189e-06 -2.8012765210481675e-05 0 5.937769307262027e-06 -2.9239666256151756e-05 0 9.388604200176189e-06 -2.8012765210481675e-05 0 1.3017250657508812e-05 -2.8657311398118896e-05 0 1.1736246909063366e-05 -2.4246967595147995e-05 0 1.3017250657508812e-05 -2.8657311398118896e-05 0 1.1736246909063366e-05 -2.4246967595147995e-05 0 1.4865511406886324e-05 -2.4894558724272332e-05 0 1.3017250657508812e-05 -2.8657311398118896e-05 0 1.6342113527229213e-05 -2.8793078873769529e-05 0 1.4865511406886324e-05 -2.4894558724272332e-05 0 1.4994713596678151e-05 -3.2035376941331576e-05 0 1.3017250657508812e-05 -2.8657311398118896e-05 0 1.6342113527229213e-05 -2.8793078873769529e-05 0 1.817247717484077e-05 -3.2343742840030351e-05 0 1.4994713596678151e-05 -3.2035376941331576e-05 0 1.6342113527229213e-05 -2.8793078873769529e-05 0 1.4994713596678151e-05 -3.2035376941331576e-05 0 1.2233037198962531e-05 -3.2386363361527788e-05 0 1.3017250657508812e-05 -2.8657311398118896e-05 0 2.4622848518108768e-05 -8.4235284411657849e-05 0 1.3363691320249033e-05 -7.7018344348584695e-05 0 1.5771070899870127e-05 -8.9561123710142287e-05 0 1.3744268773019458e-05 -5.8344202242486209e-05 0 1.2071214351891431e-05 -4.8987280795023325e-05 0 2.4622848518108768e-05 -8.4235284411657849e-05 0 1.3363691320249033e-05 -7.7018344348584695e-05 0 2.244207432824264e-05 -7.0485887324457563e-05 0 3.0274903446094037e-06 -3.2345331999182021e-05 0 5.937769307262027e-06 -2.9239666256151756e-05 0 1.8590996145290786e-06 -2.7481757788389872e-05 0 5.937769307262027e-06 -2.9239666256151756e-05 0 4.3568643705719665e-06 -2.4559681562233971e-05 0 1.8590996145290786e-06 -2.7481757788389872e-05 0 9.388604200176189e-06 -2.8012765210481675e-05 0 5.937769307262027e-06 -2.9239666256151756e-05 0 6.914134913476043e-06 -2.5696082142617882e-05 0 5.937769307262027e-06 -2.9239666256151756e-05 0 6.914134913476043e-06 -2.5696082142617882e-05 0 4.3568643705719665e-06 -2.4559681562233971e-05 0 9.6263706814744838e-06 -3.1751570582754135e-05 0 5.937769307262027e-06 -2.9239666256151756e-05 0 8.1738667689078155e-06 -3.3922815765555975e-05 0 3.0274903446094037e-06 -3.2345331999182021e-05 0 5.937769307262027e-06 -2.9239666256151756e-05 0 5.7506908714149804e-06 -3.3602096291792839e-05 0 5.937769307262027e-06 -2.9239666256151756e-05 0 5.7506908714149804e-06 -3.3602096291792839e-05 0 8.1738667689078155e-06 -3.3922815765555975e-05 0 5.7506908714149804e-06 -3.3602096291792839e-05 0 8.1738667689078155e-06 -3.3922815765555975e-05 0 8.0317610879204935e-06 -3.7282130606119446e-05 0 1.0046501342230615e-05 -3.6536163687083287e-05 0 8.1738667689078155e-06 -3.3922815765555975e-05 0 8.0317610879204935e-06 -3.7282130606119446e-05 0 5.7506908714149804e-06 -3.3602096291792839e-05 0 8.0317610879204935e-06 -3.7282130606119446e-05 0 4.8780205744852881e-06 -3.6742339526717168e-05 0 8.0317610879204935e-06 -3.7282130606119446e-05 0 4.8780205744852881e-06 -3.6742339526717168e-05 0 7.6225006662240164e-06 -4.0325037699316478e-05 0 2.6811887001150773e-05 -9.8875685414925288e-05 0 1.5771070899870127e-05 -8.9561123710142287e-05 0 9.781875969531513e-06 -0.00010096059978491018 0 2.6811887001150773e-05 -9.8875685414925288e-05 0 1.6289035687653458e-05 -0.00011520584521160595 0 9.781875969531513e-06 -0.00010096059978491018 0 1.5559302500537228e-05 -6.7566348860579554e-05 0 1.8667856690490943e-05 -7.7580727951353899e-05 0 3.0274903446094037e-06 -3.2345331999182021e-05 0 5.7506908714149804e-06 -3.3602096291792839e-05 0 4.8780205744852881e-06 -3.6742339526717168e-05 0 2.4622848518108768e-05 -8.4235284411657849e-05 0 2.6811887001150777e-05 -9.8875685414925274e-05 0 1.5771070899870127e-05 -8.9561123710142287e-05 0 1.3744268773019458e-05 -5.8344202242486209e-05 0 1.5559302500537228e-05 -6.7566348860579554e-05 0 2.6811887001150773e-05 -9.8875685414925288e-05 0 1.6289035687653458e-05 -0.00011520584521160595 0 2.9290281767841033e-05 -0.00011388449799153312 0 1.8667856690490943e-05 -7.7580727951353899e-05 0 1.9882366023212153e-05 -8.5445486742432051e-05 0 7.6225006662240164e-06 -4.0325037699316478e-05 0 9.8482083524621223e-06 -4.0240181206792445e-05 0 1.1471021062448866e-05 -4.2533087081427959e-05 0 1.6289035687653458e-05 -0.00011520584521160595 0 2.9290281767841033e-05 -0.00011388449799153312 0 3.2269910576572401e-05 -0.00012967582994179565 0 1.6289035687653458e-05 -0.00011520584521160595 0 3.2269910576572401e-05 -0.00012967582994179565 0 1.5508630991681707e-05 -0.00012936818198823935 0 1.0046501342230615e-05 -3.6536163687083287e-05 0 8.0317610879204935e-06 -3.7282130606119446e-05 0 1.0869395768025777e-05 -3.9826632679366845e-05 0 8.0317610879204935e-06 -3.7282130606119446e-05 0 9.8482083524621223e-06 -4.0240181206792445e-05 0 1.0869395768025777e-05 -3.9826632679366845e-05 0 8.0317610879204935e-06 -3.7282130606119446e-05 0 7.6225006662240164e-06 -4.0325037699316478e-05 0 9.8482083524621223e-06 -4.0240181206792445e-05 0 9.8482083524621223e-06 -4.0240181206792445e-05 0 1.0869395768025777e-05 -3.9826632679366845e-05 0 1.2195665624805636e-05 -4.1429444488362328e-05 0 1.3314511385911947e-05 -4.2399477784283435e-05 0 1.0869395768025777e-05 -3.9826632679366845e-05 0 1.2195665624805636e-05 -4.1429444488362328e-05 0 9.8482083524621223e-06 -4.0240181206792445e-05 0 1.2195665624805637e-05 -4.1429444488362328e-05 0 1.1471021062448866e-05 -4.2533087081427959e-05 0 1.2195665624805636e-05 -4.1429444488362328e-05 0 1.1471021062448866e-05 -4.2533087081427959e-05 0 1.6142532190188679e-05 -4.2799590727214216e-05 0 1.2195665624805636e-05 -4.1429444488362328e-05 0 1.4878404530980327e-05 -4.2005545903650946e-05 0 1.6142532190188679e-05 -4.2799590727214216e-05 0 1.3314511385911947e-05 -4.2399477784283435e-05 0 1.2195665624805636e-05 -4.1429444488362321e-05 0 1.4878404530980327e-05 -4.2005545903650946e-05 0 3.2269910576572401e-05 -0.00012967582994179565 0 2.3839372944880111e-05 -0.00013779372321643898 0 1.5508630991681707e-05 -0.00012936818198823935 0 1.9882366023212153e-05 -8.5445486742432051e-05 0 3.2297930517246019e-05 -9.4933608239679198e-05 0 3.2269910576572401e-05 -0.00012967582994179565 0 3.689771201126092e-05 -0.00014575804160180193 0 2.3839372944880111e-05 -0.00013779372321643898 0 3.689771201126092e-05 -0.00014575804160180193 0 2.3839372944880111e-05 -0.00013779372321643898 0 2.0328523898471123e-05 -0.00014717764437615182 0 2.3839372944880111e-05 -0.00013779372321643898 0 1.1128919961056211e-05 -0.00013884818344495265 0 2.0328523898471123e-05 -0.00014717764437615182 0 1.1128919961056214e-05 -0.00013884818344495265 0 2.0328523898471123e-05 -0.00014717764437615182 0 4.2629988029350407e-06 -0.00014653690381615344 0 1.1128919961056214e-05 -0.00013884818344495265 0 1.5508630991681707e-05 -0.00012936818198823935 0 1.8584880555211455e-06 -0.0001324109246292694 0 2.3839372944880111e-05 -0.00013779372321643898 0 1.1128919961056214e-05 -0.00013884818344495265 0 1.5508630991681707e-05 -0.00012936818198823935 0 1.1128919961056214e-05 -0.00013884818344495265 0 1.8584880555211458e-06 -0.0001324109246292694 0 4.2629988029350407e-06 -0.00014653690381615344 0 1.8584880555211455e-06 -0.0001324109246292694 0 -1.0397372902517005e-05 -0.00014561003056547919 0 -1.1155059737789877e-05 -0.00012688213311310933 0 -1.0397372902517005e-05 -0.00014561003056547919 0 -1.1155059737789877e-05 -0.00012688213311310933 0 -2.3454270746778729e-05 -0.0001316467158270503 0 1.8584880555211455e-06 -0.0001324109246292694 0 4.2629988029350407e-06 -0.00014653690381615344 0 -1.0397372902517005e-05 -0.00014561003056547919 0 1.8584880555211455e-06 -0.0001324109246292694 0 -1.1155059737789877e-05 -0.00012688213311310933 0 2.914499153457532e-06 -0.00011708994935054905 0 -1.1155059737789877e-05 -0.00012688213311310933 0 -1.2529621150988092e-05 -0.00010997071831704051 0 2.914499153457532e-06 -0.00011708994935054905 0 -1.1155059737789877e-05 -0.00012688213311310933 0 -1.2529621150988092e-05 -0.00010997071831704051 0 -2.5876330965838907e-05 -0.00011652130076888983 0 -1.2529621150988092e-05 -0.00010997071831704051 0 2.914499153457532e-06 -0.00011708994935054905 0 -3.0088425939335283e-06 -0.00010249287135014916 0 1.6289035687653458e-05 -0.00011520584521160595 0 2.914499153457532e-06 -0.00011708994935054905 0 9.781875969531513e-06 -0.00010096059978491018 0 1.6289035687653458e-05 -0.00011520584521160595 0 1.5508630991681707e-05 -0.00012936818198823935 0 2.914499153457532e-06 -0.00011708994935054905 0 1.5508630991681707e-05 -0.00012936818198823935 0 1.8584880555211455e-06 -0.0001324109246292694 0 2.914499153457532e-06 -0.00011708994935054905 0 -5.2398784985207745e-05 -0.00013040731754908078 0 -4.3011026621322489e-05 -0.00013659441772241601 0 -3.6633887532076275e-05 -0.00012858394612045532 0 -5.2398784985207745e-05 -0.00013040731754908078 0 -5.2415342056282352e-05 -0.00014466574548943764 0 -4.3011026621322489e-05 -0.00013659441772241601 0 -5.2415342056282352e-05 -0.00014466574548943764 0 -3.8305969920516278e-05 -0.000144674340851016 0 -4.3011026621322489e-05 -0.00013659441772241601 0 -3.8305969920516285e-05 -0.000144674340851016 0 -4.3011026621322489e-05 -0.00013659441772241601 0 -3.137322574683608e-05 -0.00013743232294994689 0 -4.3011026621322489e-05 -0.00013659441772241601 0 -3.6633887532076275e-05 -0.00012858394612045532 0 -3.137322574683608e-05 -0.00013743232294994689 0 -3.6633887532076275e-05 -0.00012858394612045532 0 -3.137322574683608e-05 -0.00013743232294994689 0 -2.3454270746778729e-05 -0.0001316467158270503 0 -3.137322574683608e-05 -0.00013743232294994689 0 -2.4280058864611209e-05 -0.00014498263555708199 0 -2.3454270746778729e-05 -0.0001316467158270503 0 -3.8305969920516285e-05 -0.000144674340851016 0 -3.137322574683608e-05 -0.00013743232294994689 0 -2.4280058864611209e-05 -0.00014498263555708199 0 -1.0397372902517005e-05 -0.00014561003056547919 0 -2.4280058864611209e-05 -0.00014498263555708199 0 -2.3454270746778729e-05 -0.0001316467158270503 0 -1.1155059737789877e-05 -0.00012688213311310933 0 -2.3454270746778729e-05 -0.0001316467158270503 0 -2.5876330965838907e-05 -0.00011652130076888983 0 -1.2529621150988092e-05 -0.00010997071831704051 0 -2.5876330965838907e-05 -0.00011652130076888983 0 -2.254299745310741e-05 -9.996096257326228e-05 0 -2.5876330965838907e-05 -0.00011652130076888983 0 -3.9393481880933235e-05 -0.00011572751344852451 0 -3.4914308898723242e-05 -0.00010238880740144968 0 -3.6633887532076275e-05 -0.00012858394612045532 0 -2.3454270746778729e-05 -0.0001316467158270503 0 -2.5876330965838907e-05 -0.00011652130076888983 0 -3.6633887532076275e-05 -0.00012858394612045532 0 -2.5876330965838907e-05 -0.00011652130076888983 0 -3.9393481880933235e-05 -0.00011572751344852451 0 -5.2398784985207745e-05 -0.00013040731754908078 0 -3.6633887532076275e-05 -0.00012858394612045532 0 -3.9393481880933235e-05 -0.00011572751344852451 0 -3.9393481880933235e-05 -0.00011572751344852451 0 -5.2095007929040327e-05 -0.00011590193351473722 0 -5.1383683328750117e-05 -0.00010126551461683821 0 -5.2398784985207745e-05 -0.00013040731754908078 0 -3.9393481880933235e-05 -0.00011572751344852451 0 -5.2095007929040327e-05 -0.00011590193351473722 0 -5.1383683328750117e-05 -0.00010126551461683821 0 -4.0824681025372435e-05 -9.1945071199401194e-05 0 -5.0088702136912792e-05 -8.7007612797710554e-05 0 -3.9393481880933235e-05 -0.00011572751344852451 0 -5.1383683328750117e-05 -0.00010126551461683821 0 -3.4914308898723242e-05 -0.00010238880740144968 0 -3.4914308898723242e-05 -0.00010238880740144968 0 -4.0824681025372435e-05 -9.1945071199401194e-05 0 -3.0469518930578005e-05 -8.6841427832524078e-05 0 -5.1383683328750117e-05 -0.00010126551461683821 0 -3.4914308898723242e-05 -0.00010238880740144968 0 -4.0824681025372435e-05 -9.1945071199401194e-05 0 -3.4914308898723242e-05 -0.00010238880740144968 0 -2.254299745310741e-05 -9.996096257326228e-05 0 -3.0469518930578005e-05 -8.6841427832524078e-05 0 -2.5876330965838907e-05 -0.00011652130076888983 0 -3.4914308898723242e-05 -0.00010238880740144968 0 -2.254299745310741e-05 -9.996096257326228e-05 0 -2.254299745310741e-05 -9.996096257326228e-05 0 -2.0378955598744141e-05 -8.6362877197161504e-05 0 -3.0469518930578005e-05 -8.6841427832524078e-05 0 -2.254299745310741e-05 -9.996096257326228e-05 0 -2.0378955598744137e-05 -8.6362877197161491e-05 0 -1.2118179085744106e-05 -9.3922445572307525e-05 0 -2.0378955598744137e-05 -8.6362877197161491e-05 0 -2.4426462934300838e-05 -7.7415599378540889e-05 0 -3.0469518930578005e-05 -8.6841427832524078e-05 0 -2.4426462934300838e-05 -7.7415599378540889e-05 0 -1.3727472707716927e-05 -7.7853345556431602e-05 0 -2.234452273661817e-05 -6.5381506835481221e-05 0 -2.0378955598744137e-05 -8.6362877197161491e-05 0 -2.4426462934300838e-05 -7.7415599378540889e-05 0 -1.3727472707716927e-05 -7.7853345556431602e-05 0 -2.4426462934300838e-05 -7.7415599378540889e-05 0 -3.0469518930578005e-05 -8.6841427832524078e-05 0 -3.465259839845624e-05 -7.326341375604129e-05 0 -4.0824681025372435e-05 -9.1945071199401194e-05 0 -3.0469518930578005e-05 -8.6841427832524078e-05 0 -4.0959529836218646e-05 -8.2152331311119051e-05 0 -3.0469518930578005e-05 -8.6841427832524078e-05 0 -4.0959529836218646e-05 -8.2152331311119051e-05 0 -3.465259839845624e-05 -7.326341375604129e-05 0 -4.0959529836218646e-05 -8.2152331311119051e-05 0 -3.465259839845624e-05 -7.326341375604129e-05 0 -4.8122534295154172e-05 -7.3159704727611752e-05 0 -4.0959529836218646e-05 -8.2152331311119051e-05 0 -5.0088702136912792e-05 -8.7007612797710554e-05 0 -4.8122534295154172e-05 -7.3159704727611752e-05 0 -4.0824681025372435e-05 -9.1945071199401194e-05 0 -4.0959529836218646e-05 -8.2152331311119051e-05 0 -5.0088702136912792e-05 -8.7007612797710554e-05 0 -2.8481879723826637e-06 -8.9648738033870867e-05 0 9.781875969531513e-06 -0.00010096059978491018 0 6.2042662474581009e-06 -8.4770101919397526e-05 0 -2.8481879723826637e-06 -8.9648738033870867e-05 0 9.781875969531513e-06 -0.00010096059978491018 0 -3.0088425939335283e-06 -0.00010249287135014916 0 1.5771070899870127e-05 -8.9561123710142287e-05 0 9.781875969531513e-06 -0.00010096059978491018 0 6.2042662474581009e-06 -8.4770101919397526e-05 0 2.914499153457532e-06 -0.00011708994935054905 0 9.781875969531513e-06 -0.00010096059978491018 0 -3.0088425939335283e-06 -0.00010249287135014916 0 -1.2529621150988092e-05 -0.00010997071831704051 0 -3.0088425939335283e-06 -0.00010249287135014916 0 -1.2118179085744106e-05 -9.3922445572307525e-05 0 -1.2529621150988092e-05 -0.00010997071831704051 0 -2.254299745310741e-05 -9.996096257326228e-05 0 -1.2118179085744106e-05 -9.3922445572307525e-05 0 -2.8481879723826637e-06 -8.9648738033870867e-05 0 -3.0088425939335283e-06 -0.00010249287135014916 0 -1.2118179085744106e-05 -9.3922445572307525e-05 0 -2.8481879723826637e-06 -8.9648738033870867e-05 0 -1.3727472707716927e-05 -7.7853345556431602e-05 0 -3.1934274127193196e-06 -7.6156410132209682e-05 0 -2.8481879723826637e-06 -8.9648738033870867e-05 0 -1.2118179085744108e-05 -9.3922445572307525e-05 0 -1.3727472707716927e-05 -7.7853345556431602e-05 0 -2.0378955598744137e-05 -8.6362877197161491e-05 0 -1.2118179085744106e-05 -9.3922445572307525e-05 0 -1.3727472707716927e-05 -7.7853345556431602e-05 0 -1.3727472707716927e-05 -7.7853345556431602e-05 0 -3.1934274127193191e-06 -7.6156410132209682e-05 0 -9.6353768627054355e-06 -6.5403941172030661e-05 0 -3.1934274127193196e-06 -7.6156410132209682e-05 0 6.2042662474581009e-06 -8.4770101919397526e-05 0 4.8445114823704675e-06 -7.3445295916782979e-05 0 -2.8481879723826637e-06 -8.9648738033870867e-05 0 -3.1934274127193196e-06 -7.6156410132209682e-05 0 6.2042662474581009e-06 -8.4770101919397526e-05 0 1.3363691320249033e-05 -7.7018344348584695e-05 0 1.5771070899870124e-05 -8.9561123710142287e-05 0 6.2042662474581009e-06 -8.4770101919397526e-05 0 1.3363691320249033e-05 -7.7018344348584695e-05 0 6.2042662474581009e-06 -8.4770101919397526e-05 0 4.8445114823704675e-06 -7.3445295916782979e-05 0 1.3363691320249033e-05 -7.7018344348584695e-05 0 4.8445114823704675e-06 -7.3445295916782979e-05 0 9.7622060455365735e-06 -6.4690493983961991e-05 0 4.8445114823704675e-06 -7.3445295916782979e-05 0 9.7622060455365735e-06 -6.4690493983961991e-05 0 -1.7014121533289661e-06 -6.4956530906237287e-05 0 9.7622060455365735e-06 -6.4690493983961991e-05 0 3.4471830442002955e-06 -5.6741082964866366e-05 0 -1.7014121533289661e-06 -6.4956530906237287e-05 0 9.7622060455365735e-06 -6.4690493983961991e-05 0 3.4471830442002955e-06 -5.6741082964866366e-05 0 1.0368066785709537e-05 -5.2848074396404266e-05 0 3.4471830442002955e-06 -5.6741082964866366e-05 0 -1.7014121533289669e-06 -6.4956530906237287e-05 0 -3.9805613264023357e-06 -5.4934065902207194e-05 0 -3.1934274127193196e-06 -7.6156410132209682e-05 0 4.8445114823704675e-06 -7.3445295916782979e-05 0 -1.7014121533289661e-06 -6.4956530906237287e-05 0 -3.1934274127193196e-06 -7.6156410132209682e-05 0 -1.7014121533289661e-06 -6.4956530906237287e-05 0 -9.6353768627054355e-06 -6.5403941172030661e-05 0 -1.3727472707716927e-05 -7.7853345556431602e-05 0 -9.6353768627054355e-06 -6.5403941172030661e-05 0 -2.234452273661817e-05 -6.5381506835481221e-05 0 -9.6353768627054355e-06 -6.5403941172030661e-05 0 -1.3047951428450971e-05 -5.4371586993715873e-05 0 -2.234452273661817e-05 -6.5381506835481221e-05 0 -1.7014121533289661e-06 -6.4956530906237287e-05 0 -9.6353768627054355e-06 -6.5403941172030661e-05 0 -3.9805613264023357e-06 -5.4934065902207194e-05 0 -9.6353768627054355e-06 -6.5403941172030661e-05 0 -1.3047951428450971e-05 -5.4371586993715873e-05 0 -3.9805613264023357e-06 -5.4934065902207194e-05 0 -1.3047951428450971e-05 -5.4371586993715873e-05 0 -4.6396021903776388e-06 -4.350853503940661e-05 0 -3.9805613264023357e-06 -5.4934065902207194e-05 0 -1.3047951428450971e-05 -5.4371586993715873e-05 0 -1.8690211689317238e-05 -4.7073846957011491e-05 0 -1.1869953842724507e-05 -3.9915878589724634e-05 0 -1.3047951428450971e-05 -5.4371586993715873e-05 0 -4.6396021903776371e-06 -4.350853503940661e-05 0 -1.1869953842724507e-05 -3.9915878589724634e-05 0 -4.6396021903776388e-06 -4.3508535039406616e-05 0 2.9271388319621767e-06 -4.6746231006870821e-05 0 2.709057324369988e-06 -3.3756490029782858e-05 0 2.9271388319621772e-06 -4.6746231006870821e-05 0 2.709057324369988e-06 -3.3756490029782858e-05 0 9.5880235951651779e-06 -4.0236504094149492e-05 0 3.4471830442002955e-06 -5.6741082964866366e-05 0 2.9271388319621776e-06 -4.6746231006870821e-05 0 1.0368066785709537e-05 -5.2848074396404266e-05 0 -4.6396021903776388e-06 -4.3508535039406616e-05 0 2.9271388319621772e-06 -4.6746231006870821e-05 0 -3.9805613264023357e-06 -5.4934065902207194e-05 0 3.4471830442002955e-06 -5.6741082964866366e-05 0 2.9271388319621772e-06 -4.6746231006870821e-05 0 -3.9805613264023357e-06 -5.4934065902207194e-05 0 -4.5494620191111176e-05 -6.0167903706766519e-05 0 -4.0080795804068337e-05 -6.6611386366474977e-05 0 -3.2178028202975649e-05 -5.9542077165825664e-05 0 -4.5494620191111176e-05 -6.0167903706766519e-05 0 -3.2178028202975649e-05 -5.9542077165825664e-05 0 -3.5189497410178223e-05 -5.0652752533240057e-05 0 -3.465259839845624e-05 -7.326341375604129e-05 0 -4.8122534295154172e-05 -7.3159704727611752e-05 0 -4.0080795804068337e-05 -6.6611386366474977e-05 0 -4.5494620191111176e-05 -6.0167903706766519e-05 0 -4.8122534295154172e-05 -7.3159704727611752e-05 0 -4.0080795804068337e-05 -6.6611386366474977e-05 0 -3.465259839845624e-05 -7.326341375604129e-05 0 -4.0080795804068337e-05 -6.6611386366474977e-05 0 -3.2178028202975649e-05 -5.9542077165825664e-05 0 -3.2178028202975649e-05 -5.9542077165825664e-05 0 -2.234452273661817e-05 -6.5381506835481221e-05 0 -2.2146380004302277e-05 -5.4627883208597021e-05 0 -3.465259839845624e-05 -7.326341375604129e-05 0 -3.2178028202975649e-05 -5.9542077165825664e-05 0 -2.234452273661817e-05 -6.5381506835481221e-05 0 -2.4426462934300838e-05 -7.7415599378540889e-05 0 -3.465259839845624e-05 -7.326341375604129e-05 0 -2.234452273661817e-05 -6.5381506835481221e-05 0 -1.3047951428450971e-05 -5.4371586993715873e-05 0 -2.234452273661817e-05 -6.5381506835481221e-05 0 -2.2146380004302277e-05 -5.4627883208597021e-05 0 -2.2146380004302277e-05 -5.4627883208597021e-05 0 -1.8690211689317238e-05 -4.7073846957011491e-05 0 -2.6821155280801048e-05 -4.7767018807460342e-05 0 -1.3047951428450971e-05 -5.4371586993715873e-05 0 -2.2146380004302277e-05 -5.4627883208597021e-05 0 -1.8690211689317238e-05 -4.7073846957011491e-05 0 -1.8690211689317238e-05 -4.7073846957011491e-05 0 -1.9814287014220411e-05 -3.9531213322170073e-05 0 -1.1869953842724507e-05 -3.9915878589724634e-05 0 -1.8690211689317238e-05 -4.7073846957011491e-05 0 -2.6821155280801048e-05 -4.7767018807460342e-05 0 -1.9814287014220411e-05 -3.9531213322170073e-05 0 -2.6821155280801048e-05 -4.7767018807460342e-05 0 -3.0616161698492594e-05 -4.0339842905915647e-05 0 -1.9814287014220411e-05 -3.9531213322170073e-05 0 -3.2178028202975649e-05 -5.9542077165825664e-05 0 -2.2146380004302277e-05 -5.4627883208597021e-05 0 -2.6821155280801048e-05 -4.7767018807460342e-05 0 -3.2178028202975649e-05 -5.9542077165825664e-05 0 -2.6821155280801048e-05 -4.7767018807460342e-05 0 -3.5189497410178223e-05 -5.0652752533240057e-05 0 -2.6821155280801048e-05 -4.7767018807460342e-05 0 -3.5189497410178223e-05 -5.0652752533240057e-05 0 -3.0616161698492594e-05 -4.0339842905915647e-05 0 -3.5189497410178223e-05 -5.0652752533240057e-05 0 -4.2398355430407833e-05 -4.814475515288901e-05 0 -3.0616161698492594e-05 -4.0339842905915647e-05 0 -4.5494620191111176e-05 -6.0167903706766519e-05 0 -3.5189497410178223e-05 -5.0652752533240064e-05 0 -4.2398355430407833e-05 -4.814475515288901e-05 0 -3.8863867948738364e-05 -3.7297064908198783e-05 0 -3.0010705285898076e-05 -3.1243362244839057e-05 0 -3.4670262559326431e-05 -2.7746453001630695e-05 0 -4.2398355430407833e-05 -4.814475515288901e-05 0 -3.8863867948738357e-05 -3.7297064908198783e-05 0 -3.0616161698492594e-05 -4.0339842905915647e-05 0 -3.8863867948738364e-05 -3.7297064908198783e-05 0 -3.0616161698492594e-05 -4.0339842905915647e-05 0 -3.0010705285898076e-05 -3.1243362244839057e-05 0 -3.0616161698492594e-05 -4.0339842905915647e-05 0 -3.0010705285898076e-05 -3.1243362244839057e-05 0 -2.2931594610766476e-05 -3.09191101725382e-05 0 -3.0616161698492594e-05 -4.0339842905915647e-05 0 -2.2931594610766476e-05 -3.09191101725382e-05 0 -1.9814287014220411e-05 -3.9531213322170073e-05 0 -1.9814287014220411e-05 -3.9531213322170073e-05 0 -1.6799610161432572e-05 -3.2093698025431692e-05 0 -1.1869953842724507e-05 -3.9915878589724634e-05 0 -2.2931594610766476e-05 -3.09191101725382e-05 0 -1.9814287014220411e-05 -3.9531213322170073e-05 0 -1.6799610161432572e-05 -3.2093698025431692e-05 0 -1.6799610161432572e-05 -3.2093698025431692e-05 0 -1.7439617537215368e-05 -2.5512100036811848e-05 0 -1.0892125249298766e-05 -2.6927150430970399e-05 0 -2.2931594610766476e-05 -3.09191101725382e-05 0 -1.6799610161432572e-05 -3.2093698025431692e-05 0 -1.7439617537215368e-05 -2.5512100036811848e-05 0 -1.7439617537215368e-05 -2.5512100036811848e-05 0 -1.4056778877485236e-05 -1.8597362658754303e-05 0 -2.3358591563395104e-05 -2.1813320178002081e-05 0 -1.6374938873152742e-05 -1.456351309977013e-05 0 -1.4056778877485236e-05 -1.8597362658754303e-05 0 -2.3358591563395104e-05 -2.1813320178002081e-05 0 -2.2931594610766476e-05 -3.09191101725382e-05 0 -1.7439617537215368e-05 -2.5512100036811848e-05 0 -2.3358591563395104e-05 -2.1813320178002081e-05 0 -3.0010705285898076e-05 -3.1243362244839057e-05 0 -2.3358591563395104e-05 -2.1813320178002081e-05 0 -3.4670262559326431e-05 -2.7746453001630695e-05 0 -3.0010705285898076e-05 -3.1243362244839057e-05 0 -2.2931594610766476e-05 -3.09191101725382e-05 0 -2.3358591563395104e-05 -2.1813320178002081e-05 0 -3.056839277206457e-05 -1.973058876778645e-05 0 -2.3358591563395104e-05 -2.1813320178002081e-05 0 -3.4670262559326431e-05 -2.7746453001630695e-05 0 2.709057324369988e-06 -3.3756490029782858e-05 0 -5.6396001888057439e-06 -3.32970928480101e-05 0 -3.1678842982728498e-06 -2.4469450750977348e-05 0 2.709057324369988e-06 -3.3756490029782858e-05 0 -3.1678842982728498e-06 -2.4469450750977348e-05 0 3.4676920103226771e-06 -2.1703470569530786e-05 0 -4.6396021903776388e-06 -4.3508535039406616e-05 0 2.709057324369988e-06 -3.3756490029782858e-05 0 -5.6396001888057439e-06 -3.32970928480101e-05 0 -4.6396021903776388e-06 -4.3508535039406616e-05 0 -5.6396001888057439e-06 -3.32970928480101e-05 0 -1.1869953842724507e-05 -3.9915878589724634e-05 0 -1.6799610161432572e-05 -3.2093698025431692e-05 0 -1.1869953842724507e-05 -3.9915878589724634e-05 0 -1.0892125249298766e-05 -2.6927150430970399e-05 0 -5.6396001888057439e-06 -3.32970928480101e-05 0 -1.1869953842724507e-05 -3.9915878589724634e-05 0 -1.0892125249298766e-05 -2.6927150430970399e-05 0 -5.6396001888057439e-06 -3.32970928480101e-05 0 -1.0892125249298766e-05 -2.6927150430970399e-05 0 -3.1678842982728498e-06 -2.4469450750977348e-05 0 -1.0892125249298766e-05 -2.6927150430970399e-05 0 -7.7289810867649574e-06 -1.872065730768356e-05 0 -3.1678842982728498e-06 -2.4469450750977348e-05 0 -1.7439617537215368e-05 -2.5512100036811848e-05 0 -1.4056778877485236e-05 -1.8597362658754303e-05 0 -1.0892125249298766e-05 -2.6927150430970399e-05 0 -1.0501030040916962e-05 -1.4488883603605664e-05 0 -1.4056778877485236e-05 -1.8597362658754303e-05 0 -7.7289810867649557e-06 -1.872065730768356e-05 0 -1.4056778877485236e-05 -1.8597362658754303e-05 0 -1.0892125249298766e-05 -2.6927150430970399e-05 0 -7.7289810867649557e-06 -1.872065730768356e-05 0 -7.7289810867649557e-06 -1.872065730768356e-05 0 -2.7551659934401083e-06 -1.6342718123250806e-05 0 -3.1678842982728498e-06 -2.4469450750977348e-05 0 -2.7551659934401087e-06 -1.6342718123250806e-05 0 -3.1678842982728498e-06 -2.4469450750977348e-05 0 3.4676920103226771e-06 -2.1703470569530786e-05 0 2.2239475647373462e-06 -1.3461771151784473e-05 0 -2.7551659934401087e-06 -1.6342718123250806e-05 0 3.4676920103226771e-06 -2.1703470569530786e-05 0 2.2239475647373462e-06 -1.3461771151784473e-05 0 6.3430259812466113e-06 -1.1370534104788442e-05 0 3.4676920103226771e-06 -2.1703470569530786e-05 0 6.3430259812466113e-06 -1.1370534104788442e-05 0 3.7081740239757386e-06 -9.6831282330163705e-06 0 4.5049261378889214e-06 -8.8210223475297723e-06 0 6.3430259812466113e-06 -1.1370534104788442e-05 0 1.1519121466333967e-05 -2.3893849212753225e-05 0 3.4676920103226771e-06 -2.1703470569530786e-05 0 5.5855685397878049e-06 -1.1253482991536459e-05 0 7.9360309687999494e-06 -1.6907868992241137e-05 0 1.1519121466333967e-05 -2.3893849212753225e-05 0 3.4676920103226771e-06 -2.1703470569530786e-05 0 8.5273065417473621e-06 -2.9758232830764816e-05 0 2.709057324369988e-06 -3.3756490029782858e-05 0 3.4676920103226771e-06 -2.1703470569530786e-05 0 8.5273065417473621e-06 -2.9758232830764816e-05 0 7.9360309687999494e-06 -1.6907868992241137e-05 0 8.6775529811853869e-06 -2.3579009099830531e-05 0 1.1519121466333967e-05 -2.3893849212753225e-05 0 8.5273065417473621e-06 -2.9758232830764816e-05 0 1.5118103096338873e-05 -3.4272752628932931e-05 0 8.6775529811853869e-06 -2.3579009099830531e-05 0 9.6821455247235038e-06 -3.1453265048305371e-05 0 8.5273065417473621e-06 -2.9758232830764816e-05 0 1.5118103096338873e-05 -3.4272752628932931e-05 0 9.5880235951651779e-06 -4.0236504094149492e-05 0 2.709057324369988e-06 -3.3756490029782858e-05 0 8.5273065417473621e-06 -2.9758232830764816e-05 0 9.5880235951651779e-06 -4.0236504094149492e-05 0 4.0529060024353649e-06 -1.3790862322405048e-05 0 4.840025230186828e-06 -9.8252386144877911e-06 0 6.0792084851793469e-06 -1.2474404356329183e-05 0 2.352319869797464e-06 -1.294912604914585e-05 0 4.0529060024353649e-06 -1.3790862322405048e-05 0 1.4935855080409934e-06 -1.7358173050287725e-05 0 2.352319869797464e-06 -1.294912604914585e-05 0 4.0529060024353649e-06 -1.3790862322405048e-05 0 4.840025230186828e-06 -9.8252386144877911e-06 0 3.7081740239757386e-06 -9.6831282330163705e-06 0 2.352319869797464e-06 -1.294912604914585e-05 0 4.840025230186828e-06 -9.8252386144877911e-06 0 4.840025230186828e-06 -9.8252386144877911e-06 0 4.5049261378889214e-06 -8.8210223475297723e-06 0 6.1850131218227652e-06 -7.1310663204417692e-06 0 3.7081740239757386e-06 -9.6831282330163705e-06 0 4.840025230186828e-06 -9.8252386144877894e-06 0 4.5049261378889214e-06 -8.8210223475297723e-06 0 5.2845496323198892e-06 -7.6069772746686119e-06 0 6.3430259812466113e-06 -1.1370534104788442e-05 0 4.5049261378889214e-06 -8.8210223475297723e-06 0 5.2845496323198892e-06 -7.6069772746686119e-06 0 4.5049261378889214e-06 -8.8210223475297723e-06 0 6.1850131218227652e-06 -7.1310663204417692e-06 0 4.840025230186828e-06 -9.8252386144877911e-06 0 6.1850131218227652e-06 -7.1310663204417692e-06 0 7.3817248280124461e-06 -9.8123099380103528e-06 0 6.1850131218227652e-06 -7.1310663204417692e-06 0 9.0392310394770374e-06 -6.5079599955596525e-06 0 7.3817248280124461e-06 -9.8123099380103528e-06 0 8.1364481683731739e-06 -4.0758322716905104e-06 0 6.1850131218227652e-06 -7.1310663204417692e-06 0 9.0392310394770374e-06 -6.5079599955596525e-06 0 1.0340461798010121e-05 -2.426954160005864e-06 0 1.1434686575660795e-05 -4.9610194292630034e-06 0 9.0392310394770374e-06 -6.5079599955596525e-06 0 1.0340461798010121e-05 -2.426954160005864e-06 0 8.1364481683731739e-06 -4.0758322716905104e-06 0 9.0392310394770374e-06 -6.5079599955596525e-06 0 1.1434686575660795e-05 -4.9610194292630034e-06 0 1.1695335223108692e-05 -8.9205409835421931e-06 0 9.0392310394770374e-06 -6.5079599955596525e-06 0 1.1695335223108692e-05 -8.9205409835421931e-06 0 9.7496966514831838e-06 -9.6407602727260893e-06 0 1.164625079334059e-05 -1.2768991338993558e-05 0 1.1695335223108692e-05 -8.9205409835421931e-06 0 9.0392310394770374e-06 -6.5079599955596525e-06 0 9.7496966514831838e-06 -9.6407602727260893e-06 0 9.7496966514831838e-06 -9.6407602727260893e-06 0 9.4579781563228693e-06 -1.2547544337290873e-05 0 7.3817248280124461e-06 -9.8123099380103528e-06 0 9.0392310394770374e-06 -6.5079599955596525e-06 0 9.7496966514831822e-06 -9.6407602727260893e-06 0 7.3817248280124461e-06 -9.8123099380103528e-06 0 9.7496966514831838e-06 -9.6407602727260893e-06 0 9.4579781563228693e-06 -1.2547544337290873e-05 0 1.164625079334059e-05 -1.2768991338993558e-05 0 4.840025230186828e-06 -9.8252386144877911e-06 0 7.3817248280124461e-06 -9.8123099380103528e-06 0 6.0792084851793469e-06 -1.2474404356329183e-05 0 9.4579781563228693e-06 -1.2547544337290873e-05 0 7.3817248280124461e-06 -9.8123099380103528e-06 0 7.944501392264635e-06 -1.4979926132789236e-05 0 7.3817248280124461e-06 -9.8123099380103528e-06 0 6.0792084851793469e-06 -1.2474404356329183e-05 0 7.944501392264635e-06 -1.4979926132789236e-05 0 6.0792084851793469e-06 -1.2474404356329183e-05 0 7.944501392264635e-06 -1.4979926132789236e-05 0 5.1281160884242204e-06 -1.6767121943330288e-05 0 7.944501392264635e-06 -1.4979926132789236e-05 0 1.0883443271565108e-05 -1.6164193341375485e-05 0 9.7896800659775976e-06 -1.9622686778001811e-05 0 7.944501392264635e-06 -1.4979926132789236e-05 0 7.0621416652412913e-06 -1.9063052312053659e-05 0 9.7896800659775976e-06 -1.9622686778001811e-05 0 7.944501392264635e-06 -1.4979926132789236e-05 0 7.0621416652412913e-06 -1.9063052312053659e-05 0 5.1281160884242204e-06 -1.6767121943330288e-05 0 1.164625079334059e-05 -1.2768991338993558e-05 0 1.3479644419222985e-05 -1.6525831594714218e-05 0 1.0883443271565108e-05 -1.6164193341375485e-05 0 9.4579781563228693e-06 -1.2547544337290873e-05 0 1.164625079334059e-05 -1.2768991338993558e-05 0 1.0883443271565108e-05 -1.6164193341375485e-05 0 9.4579781563228693e-06 -1.2547544337290873e-05 0 7.944501392264635e-06 -1.4979926132789236e-05 0 1.0883443271565108e-05 -1.6164193341375485e-05 0 1.0883443271565108e-05 -1.6164193341375485e-05 0 1.3349085994221264e-05 -2.0384790725127424e-05 0 9.7896800659775976e-06 -1.9622686778001811e-05 0 1.3479644419222985e-05 -1.6525831594714218e-05 0 1.0883443271565108e-05 -1.6164193341375485e-05 0 1.3349085994221264e-05 -2.0384790725127424e-05 0 1.6884989429434949e-05 -2.2807878319563422e-05 0 1.3349085994221264e-05 -2.0384790725127424e-05 0 1.4865511406886324e-05 -2.4894558724272332e-05 0 1.3349085994221264e-05 -2.0384790725127424e-05 0 1.1736246909063366e-05 -2.4246967595147995e-05 0 9.7896800659775976e-06 -1.9622686778001811e-05 0 1.3349085994221264e-05 -2.0384790725127424e-05 0 1.1736246909063366e-05 -2.4246967595147995e-05 0 1.4865511406886324e-05 -2.4894558724272332e-05 0 7.0621416652412913e-06 -1.9063052312053659e-05 0 8.6180666943213891e-06 -2.3408875075747887e-05 0 6.1393685342409102e-06 -2.2553229973977462e-05 0 1.1736246909063366e-05 -2.4246967595147995e-05 0 9.7896800659775976e-06 -1.9622686778001811e-05 0 8.6180666943213891e-06 -2.3408875075747887e-05 0 7.0621416652412913e-06 -1.9063052312053659e-05 0 9.7896800659775976e-06 -1.9622686778001811e-05 0 8.6180666943213891e-06 -2.3408875075747887e-05 0 9.388604200176189e-06 -2.8012765210481675e-05 0 1.1736246909063366e-05 -2.4246967595147995e-05 0 8.6180666943213891e-06 -2.3408875075747887e-05 0 8.6180666943213891e-06 -2.3408875075747887e-05 0 6.914134913476043e-06 -2.5696082142617882e-05 0 6.1393685342409102e-06 -2.2553229973977462e-05 0 9.388604200176189e-06 -2.8012765210481675e-05 0 8.6180666943213891e-06 -2.3408875075747887e-05 0 6.914134913476043e-06 -2.5696082142617882e-05 0 6.914134913476043e-06 -2.5696082142617882e-05 0 6.1393685342409102e-06 -2.2553229973977462e-05 0 4.3568643705719665e-06 -2.4559681562233971e-05 0 6.1393685342409102e-06 -2.2553229973977462e-05 0 3.985350383749753e-06 -2.0358965040407219e-05 0 4.3568643705719665e-06 -2.4559681562233971e-05 0 7.0621416652412913e-06 -1.9063052312053659e-05 0 6.1393685342409102e-06 -2.2553229973977462e-05 0 3.985350383749753e-06 -2.0358965040407219e-05 0 3.985350383749753e-06 -2.0358965040407219e-05 0 4.3568643705719665e-06 -2.4559681562233971e-05 0 1.3336857354955067e-06 -2.2428242269368971e-05 0 9.7622060455365735e-06 -6.4690493983961991e-05 0 2.244207432824264e-05 -7.0485887324457563e-05 0 2.0263330815073247e-05 -5.7544502644439908e-05 0 1.2071214351891431e-05 -4.8987280795023325e-05 0 1.0754865982288046e-05 -4.0000095701361918e-05 0 4.3568643705719665e-06 -2.4559681562233971e-05 0 1.8590996145290784e-06 -2.7481757788389872e-05 0 1.3336857354955067e-06 -2.2428242269368971e-05 0 1.3363691320249033e-05 -7.7018344348584695e-05 0 9.7622060455365735e-06 -6.4690493983961991e-05 0 2.244207432824264e-05 -7.0485887324457563e-05 0 9.7622060455365735e-06 -6.4690493983961991e-05 0 2.0263330815073247e-05 -5.7544502644439908e-05 0 1.0368066785709537e-05 -5.2848074396404266e-05 0 2.0263330815073247e-05 -5.7544502644439908e-05 0 1.0368066785709537e-05 -5.2848074396404266e-05 0 1.7858519082413196e-05 -4.548260929937164e-05 0 3.985350383749753e-06 -2.0358965040407219e-05 0 1.3336857354955069e-06 -2.2428242269368971e-05 0 1.4935855080409934e-06 -1.7358173050287725e-05 0 1.0754865982288046e-05 -4.0000095701361918e-05 0 9.6821455247235038e-06 -3.1453265048305371e-05 0 1.0368066785709537e-05 -5.2848074396404266e-05 0 9.5880235951651779e-06 -4.0236504094149492e-05 0 1.7858519082413196e-05 -4.548260929937164e-05 0 2.9271388319621772e-06 -4.6746231006870821e-05 0 1.0368066785709537e-05 -5.2848074396404266e-05 0 9.5880235951651779e-06 -4.0236504094149492e-05 0 1.5118103096338873e-05 -3.4272752628932931e-05 0 9.5880235951651779e-06 -4.0236504094149492e-05 0 1.7858519082413196e-05 -4.548260929937164e-05 0 4.0529060024353649e-06 -1.3790862322405048e-05 0 1.4935855080409934e-06 -1.7358173050287725e-05 0 5.1281160884242204e-06 -1.6767121943330288e-05 0 4.0529060024353649e-06 -1.3790862322405048e-05 0 6.0792084851793469e-06 -1.2474404356329183e-05 0 5.1281160884242204e-06 -1.6767121943330288e-05 0 7.0621416652412913e-06 -1.9063052312053659e-05 0 3.985350383749753e-06 -2.0358965040407219e-05 0 5.1281160884242204e-06 -1.6767121943330288e-05 0 3.985350383749753e-06 -2.0358965040407219e-05 0 1.4935855080409934e-06 -1.7358173050287725e-05 0 5.1281160884242204e-06 -1.6767121943330288e-05 0 
</DataArray>
</PointData>
<CellData Scalars="region_id,cross_section_updated,displacement_divergence," Vectors="" Tensors="effective_stress,">
<DataArray type="Float64" Name="region_id" format="ascii">
1 1 1 1 1 1 1 1 1 1 1 1 1 1 1 1 1 1 1 1 1 1 1 1 1 1 1 1 1 1 1 1 1 1 1 1 1 1 1 1 1 1 1 1 1 1 1 1 1 1 1 1 1 1 1 1 1 1 1 1 1 1 1 1 1 1 1 1 1 1 1 1 1 1 1 1 1 1 1 1 1 1 1 1 1 1 1 1 1 1 1 1 1 1 1 1 1 1 1 1 1 1 1 1 1 1 1 1 1 1 1 1 1 1 1 1 1 1 1 1 1 1 1 1 1 1 1 1 1 1 1 1 1 1 1 1 1 1 1 1 1 1 1 1 1 1 1 1 1 1 1 1 1 1 1 1 1 1 1 1 1 1 1 1 1 1 1 1 1 1 1 1 1 1 1 1 1 1 1 1 1 1 1 1 1 1 1 1 1 1 1 1 1 1 1 1 1 1 1 1 1 1 1 1 1 1 1 1 1 1 1 1 1 1 1 1 1 1 1 1 1 1 1 1 1 1 1 1 1 1 1 1 1 1 1 1 1 1 1 1 1 1 1 1 1 1 1 1 1 1 1 1 1 1 1 1 1 1 1 1 1 1 1 1 1 1 1 1 1 1 1 1 1 1 1 1 1 1 1 1 1 1 1 1 1 1 1 1 1 1 1 1 1 1 1 1 1 1 1 1 1 1 1 1 1 1 1 1 1 1 1 1 1 1 1 1 1 1 1 1 1 1 1 1 1 1 1 1 1 1 1 1 1 1 1 1 1 1 1 1 1 1 1 1 1 1 1 1 1 1 1 1 1 1 1 1 1 1 1 1 1 1 1 1 1 1 1 1 1 1 1 1 1 1 1 1 1 1 1 1 1 1 1 1 1 1 1 1 1 1 1 1 1 1 1 1 1 1 1 1 1 1 1 1 1 1 1 1 1 1 1 1 1 1 1 1 1 1 1 1 1 1 1 1 1 1 1 1 1 1 1 1 1 1 1 1 1 1 1 1 1 1 1 1 1 1 1 1 1 1 1 1 1 1 1 1 1 1 1 1 1 1 1 1 1 1 1 1 1 1 1 1 1 1 1 1 1 1 1 1 1 1 1 1 1 1 1 1 1 1 1 1 1 1 1 1 1 1 1 1 1 1 1 1 1 1 1 1 1 1 1 1 1 1 1 1 1 1 1 1 1 1 1 1 1 1 1 1 1 1 1 1 1 1 1 1 1 1 3 1 1 3 1 1 3 1 1 1 1 1 1 1 1 1 1 1 1 1 3 1 1 1 1 1 3 1 1 1 1 1 1 1 1 1 1 1 1 1 1 1 1 1 1 1 1 1 1 1 1 1 1 1 1 1 1 1 1 1 1 1 1 1 1 1 1 1 1 1 1 1 1 1 1 1 1 1 1 1 1 1 1 1 1 1 1 1 1 1 1 1 1 1 1 1 1 1 1 1 1 1 1 1 1 1 1 1 1 1 1 1 1 1 1 1 1 1 1 1 1 1 1 1 1 1 1 1 1 1 1 1 1 1 1 1 1 1 1 1 1 1 1 1 1 1 1 1 1 1 1 1 1 1 1 1 1 1 1 1 1 1 1 1 1 1 1 1 1 1 1 1 1 1 1 1 1 1 1 1 1 1 1 1 1 1 1 1 1 1 1 1 1 1 1 3 1 1 1 3 1 1 3 1 1 1 1 1 1 1 1 1 1 1 3 1 1 1 1 3 1 1 1 1 1 1 1 1 1 1 1 1 1 1 1 1 1 1 1 1 1 1 1 1 1 1 1 1 1 1 1 1 1 1 1 1 1 1 1 1 1 1 1 1 1 1 1 1 1 1 1 1 1 1 1 1 1 1 2 1 1 1 1 1 1 1 1 1 1 1 1 1 1 2 1 1 2 1 2 1 1 1 1 1 1 1 1 1 1 1 1 1 2 1 1 1 1 1 1 1 1 1 1 1 1 1 1 1 1 1 1 1 1 1 1 1 1 1 1 1 1 1 1 1 1 1 1 1 1 1 1 1 1 1 1 1 1 1 1 1 1 1 1 1 1 1 1 1 1 1 1 1 1 1 1 1 1 1 1 1 1 1 1 1 1 1 1 1 1 1 1 1 1 1 1 1 1 1 1 1 1 1 1 1 1 1 1 1 1 1 1 1 1 1 1 1 1 1 1 1 1 1 1 1 1 1 1 1 1 1 1 1 1 1 1 1 1 1 1 1 1 1 1 1 1 1 1 1 1 2 1 1 2 1 2 1 1 1 1 1 1 1 1 1 1 1 1 1 1 1 1 1 1 1 1 1 1 1 1 1 1 1 1 1 1 1 1 1 1 1 1 1 1 1 1 1 1 1 1 1 1 1 2 1 1 1 1 1 2 1 1 1 1 1 1 1 
</DataArray>
<DataArray type="Float64" Name="effective_stress" NumberOfComponents="9" format="ascii">
-0.030488150869326568 0.0018429219357621401 0 0.0018429219357621401 -0.0040649269350305668 0 0 0 -0.0086382694510892845 -0.02928522463494641 0.0027944146488942082 0 0.0027944146488942082 -0.0097438148158624661 0 0 0 -0.0097572598627022195 -0.031406259966576373 0.0031421024210720578 0 0.0031421024210720578 0.0018811138893987875 0 0 0 -0.0073812865192943956 -0.030415968192745797 0.0038891854532630901 0 0.0038891854532630901 -0.0040755148581775669 0 0 0 -0.0086228707627308415 -0.025155953687015151 0.0082335724303200224 0 0.0082335724303200224 -0.0083877312631747726 0 0 0 -0.0083859212375474827 -0.025152005108722071 0.0082377384695465749 0 0.0082377384695465749 -0.008374787652260747 0 0 0 -0.0083816981902457063 -0.029033621219851192 0.0079482833191082854 0 0.0079482833191082854 -0.0020135191165155204 0 0 0 -0.0077617850840916748 -0.029608511654386546 0.0071184197192540209 0 0.0071184197192540209 -0.0025581316326770409 0 0 0 -0.0080416608217658975 -0.02790759607208821 0.0093083022281559187 0 0.0093083022281559187 -0.0019891027817081075 0 0 0 -0.0074741747134490829 -0.022453894354232312 0.0096547494039343224 0 0.0096547494039343224 -0.00039498897701574498 0 0 0 -0.0057122208328120143 -0.032227934425822988 0.0099205459995131921 0 0.0099205459995131921 -0.0010398992154556225 0 0 0 -0.0083169584103196456 -0.022191582115612705 0.010783413352447247 0 0.010783413352447247 0.00064056768958256627 0 0 0 -0.0053877536065075372 -0.039822883886907107 0.0077384507612537137 0 0.0077384507612537137 -0.0005181044785741197 0 0 0 -0.010085247091370304 -0.031041006957321468 0.0081867428705256744 0 0.0081867428705256744 0.00049576431623308062 0 0 0 -0.0076363106602720951 -0.046842253526648829 0.0030257442409365185 0 0.0030257442409365185 -0.0015373054841565394 0 0 0 -0.012094889752701338 -0.037439303187919402 0.0038335873260318832 0 0.0038335873260318832 -0.00022570395195034597 0 0 0 -0.009416251784967437 -0.034658979500609532 0.0051179088357889641 0 0.0051179088357889641 0.0021499972625260814 0 0 0 -0.0081272455595208654 -0.034979014838408505 0.0079086473352340519 0 0.0079086473352340519 -0.00047646132579110337 0 0 0 -0.0088638690410499064 -0.0044051545444563755 0.011432230600416891 0 0.011432230600416891 -0.0014660154643790697 0 0 0 -0.001467792502208861 -0.0085179859830271706 0.013626684770062351 0 0.013626684770062351 -0.0015521327199589131 0 0 0 -0.0025175296757465205 -0.009996447635098488 0.010590388663375786 0 0.010590388663375786 -0.00096016288343672707 0 0 0 -0.0027391526296338038 -0.017623711819608305 0.012136760992611339 0 0.012136760992611339 -0.001320822133854628 0 0 0 -0.0047361334883657341 -0.018543848515631803 0.011058451054032274 0 0.011058451054032274 -0.0034402664032811489 0 0 0 -0.0054960287297282379 -0.011857613352158715 0.012293996203078692 0 0.012293996203078692 -0.0018603823105219144 0 0 0 -0.0034294989156701573 -0.012027339635997787 0.010938937613024507 0 0.010938937613024507 -0.0040130449119649093 0 0 0 -0.0040100961369906743 -0.019570535685394425 0.012206500770029466 0 0.012206500770029466 -0.00049661421860250354 0 0 0 -0.0050167874759992313 -0.021151262308584773 0.0098169291794511799 0 0.0098169291794511799 -0.00074220136327695632 0 0 0 -0.0054733659179654363 -0.01766205457471702 0.010691023420585356 0 0.010691023420585356 -0.0018213246449368184 0 0 0 -0.0048708448049134614 -0.0082138199157317029 0.010593958283396035 0 0.010593958283396035 -0.00041420484294038898 0 0 0 -0.0021570061896680195 -0.0086508608339805441 0.011510219332271573 0 0.011510219332271573 -0.0013192192283945151 0 0 0 -0.0024925200155937605 -0.0041037155250886991 0.01324664054784477 0 0.01324664054784477 -0.0012628415840917687 0 0 0 -0.0013416392772951161 -0.00071898399107818943 0.010150791867582274 0 0.010150791867582274 5.2364840854621231e-05 0 0 0 -0.00016665478755588901 -0.0014513991854034208 0.012100832214129218 0 0.012100832214129218 -0.0010225233507350912 0 0 0 -0.000618480634034628 -0.0017812572684675378 0.0095371945487524572 0 0.0095371945487524572 -5.008068033812707e-05 0 0 0 -0.00045783448720141881 -0.0096084833817483561 0.012758075742766561 0 0.012758075742766561 -0.00086944389451414777 0 0 0 -0.0026194818190656277 -0.021277593331035991 0.012566253457817049 0 0.012566253457817049 -0.0006150735697348364 0 0 0 -0.0054731667251927095 -0.017162179815255731 0.012466612956073831 0 0.012466612956073831 -0.00074941560281501646 0 0 0 -0.0044778988545176833 -0.011656097567673621 0.01033333197201804 0 0.01033333197201804 0.00044042339994328217 0 0 0 -0.0028039185419325881 -0.021384425921515182 0.010278292619484139 0 0.010278292619484139 0.00086964694494731654 0 0 0 -0.0051286947441419699 -0.023866429792571763 0.012685704737656744 0 0.012685704737656744 -0.00036569601434571081 0 0 0 -0.0060580314517293676 -0.017668419106418122 0.010273133033666977 0 0.010273133033666977 -4.4015265459336483e-05 0 0 0 -0.0044281085929693664 -0.012752807139198746 0.013096866641177228 0 0.013096866641177228 0.00078383804661284057 0 0 0 -0.0029922422731464785 -0.01275713537252722 0.01027193490659146 0 0.01027193490659146 0.0014248317603710592 0 0 0 -0.0028330759030390372 -0.0036481229178645042 0.0098380613422669322 0 0.0098380613422669322 0.00079346836199789637 0 0 0 -0.00071366363896665456 -0.01174093307661989 0.013069912629876661 0 0.013069912629876661 -0.00042959191033226096 0 0 0 -0.0030426312467380333 -0.0093784029199654902 0.0091973155687487228 0 0.0091973155687487228 0.0018311564750717498 0 0 0 -0.0018868116112234316 0.0043812008407002837 0.0092887867186346243 0 0.0092887867186346243 0.0004271705106091081 0 0 0 0.0012020928378273458 -0.0024040592126002604 0.01149349983012774 0 0.01149349983012774 0.00059898162853716519 0 0 0 -0.00045126939601577293 -0.046873489882284604 0.0035288584340969695 0 0.0035288584340969695 -0.0019202576295147267 0 0 0 -0.012198436877949836 -0.037249121934372971 0.0087656407442001823 0 0.0087656407442001823 6.6759731576618297e-05 0 0 0 -0.0092955905506990882 -0.055262830464970464 0.0046059859904844722 0 0.0046059859904844722 -0.00020538678795683704 0 0 0 -0.013867054313231819 -0.037763362430724944 0.0062529687184558246 0 0.0062529687184558246 0.0015331131248812399 0 0 0 -0.0090575623264609311 -0.029528571452526863 0.009141071171291839 0 0.009141071171291839 0.0010785498774620456 0 0 0 -0.0071125053937662018 -0.030697353548912999 0.010348097085196094 0 0.010348097085196094 -0.00048883357801266999 0 0 0 -0.0077965467817314171 -0.031337587763015956 0.011503363586359991 0 0.011503363586359991 -0.00037368991874259933 0 0 0 -0.0079278194204396302 -0.036098839668941153 0.0079608383052102247 0 0.0079608383052102247 0.00088875767011524845 0 0 0 -0.0088025204997064718 -0.026000189924685092 0.0096776393513422019 0 0.0096776393513422019 2.4675539492112486e-05 0 0 0 -0.0064938785962982389 -0.037841700444585812 0.010877702093675428 0 0.010877702093675428 -0.00047529683288866434 0 0 0 -0.0095792493193686233 -0.030348900400861335 0.0087774823033006499 0 0.0087774823033006499 -0.00034966712123623862 0 0 0 -0.0076746418805243933 -0.036858334553243881 0.0081694458298617618 0 0.0081694458298617618 0.00092540448098315728 0 0 0 -0.0089832325180651922 -0.051403699174378585 0.0065570185341731263 0 0.0065570185341731263 -0.00056430402302271563 0 0 0 -0.012992000799350313 -0.048495310720835308 0.006535655015298362 0 0.006535655015298362 -0.00073060967852385528 0 0 0 -0.012306480099839799 -0.046919434687175 0.0038873157804396171 0 0.0038873157804396171 0.00049588010062543222 0 0 0 -0.011605888646637398 -0.063293581206567154 0.0045052261649990615 0 0.0045052261649990615 -0.00049359760806700227 0 0 0 -0.015946794703658548 -0.067686029955864632 0.0039503544157125856 0 0.0039503544157125856 -0.00041296776291555037 0 0 0 -0.017024749429695053 -0.049656068585852739 0.0050325485749783527 0 0.0050325485749783527 0.0014069959014694758 0 0 0 -0.012062268171095823 -0.057405629624711352 0.0035152163811765502 0 0.0035152163811765502 0.00083804656223066334 0 0 0 -0.014141895765620168 -0.078273015655831474 0.0028049595141402539 0 0.0028049595141402539 0.0012786395506051429 0 0 0 -0.019248594026306583 -0.060012445696097413 0.0079537213608703514 0 0.0079537213608703514 0.0017909424766565651 0 0 0 -0.014555375804860195 -0.0596962900939767 0.0024243401662120273 0 0.0024243401662120273 -0.00067618784389456704 0 0 0 -0.015093119484467817 -0.063685305156639088 0.0030610721141846649 0 0.0030610721141846649 0.0024905293579746968 0 0 0 -0.015298693949666105 -0.087879272757833915 0.00029098052544682118 0 0.00029098052544682118 -0.00076845446592604949 0 0 0 -0.022161931805939984 -0.037229992658193073 0.0049209792082309106 0 0.0049209792082309106 0.0030738372834758464 0 0 0 -0.0085390388436793092 -0.030607548808541874 0.011130997785211479 0 0.011130997785211479 0.0022711144463917615 0 0 0 -0.0070841085905375238 -0.045434056287506616 0.0074321932596381462 0 0.0074321932596381462 -0.00014997612261767254 0 0 0 -0.011396008102531064 -0.044874944526116435 0.0084767195665562088 0 0.0084767195665562088 0.0014270551680822564 0 0 0 -0.010861972339508544 -0.03021271798554892 0.011564717475458798 0 0.011564717475458798 0.0017751407140571621 0 0 0 -0.0071093943178729326 -0.051606286302189067 0.010592017691559878 0 0.010592017691559878 0.0022956037872146895 0 0 0 -0.012327670628743596 -0.04335895370217524 0.0073556139338867652 0 0.0073556139338867652 -0.00048017473480503961 0 0 0 -0.010959782109245066 -0.038536563045647898 0.010985092857227359 0 0.010985092857227359 0.0011697565731645307 0 0 0 -0.009341701618120847 -0.027791168460591303 0.0119918692909217 0 0.0119918692909217 0.0007120582387312932 0 0 0 -0.0067697775554650189 -0.018699514385262676 0.011338372148725327 0 0.011338372148725327 0.00089722446667118375 0 0 0 -0.0044505724796478699 -0.018504448489403507 0.0098377888162363997 0 0.0098377888162363997 0.0014279637692463029 0 0 0 -0.0042691211800393002 -0.017256622148066204 0.0093535869683475589 0 0.0093535869683475589 0.003013697042173108 0 0 0 -0.0035607312764732828 -0.0090498113470164447 0.011316300698075498 0 0.011316300698075498 0.0011365089809102322 0 0 0 -0.0019783255915265525 -0.02993613742847228 0.009746615759227405 0 0.009746615759227405 0.0014848611891569042 0 0 0 -0.0071128190598288461 -0.000810582069946858 0.0087064934370031481 0 0.0087064934370031481 0.0032102581591807872 0 0 0 0.00059991902230848576 -0.0029829606937568018 0.011790641503867657 0 0.011790641503867657 0.00029747487324069399 0 0 0 -0.00067137145512902868 -0.0072444035767223252 0.0082259194954707373 0 0.0082259194954707373 0.0040452458334708976 0 0 0 -0.00079978943581285279 0.0048425224428649376 0.0051846522030973372 0 0.0051846522030973372 0.0056183201932412975 0 0 0 0.002615210659026557 0.0019948180416702508 0.010133809356306775 0 0.010133809356306775 0.0023628850208847431 0 0 0 0.0010894257656387477 -0.0058263306241869393 0.0082109701932013245 0 0.0082109701932013245 0.0066205913477545737 0 0 0 0.00019856518089191207 0.0059279319421900595 0.0058796423193926556 0 0.0058796423193926556 0.0063821511406266102 0 0 0 0.0030775207707041674 0.0057850267930256265 0.0049166368961150644 0 0.0049166368961150644 0.010896944968981637 0 0 0 0.0041704929405018167 -0.01810986741720004 0.011583904977502004 0 0.011583904977502004 0.002251493659664653 0 0 0 -0.003964593439383839 -0.025561829243381805 0.0072326501256561246 0 0.0072326501256561246 0.0025744771618404147 0 0 0 -0.0057468380203853468 -0.0065476230860759422 0.0086893740149074326 0 0.0086893740149074326 0.0028670069552370128 0 0 0 -0.00092015403270972497 -0.01342904308634626 0.0058867242409517337 0 0.0058867242409517337 0.0051606828254792333 0 0 0 -0.002067090065216751 -0.017189336364817589 0.011119444281066489 0 0.011119444281066489 0.0054970334893064896 0 0 0 -0.0029230757188777844 -0.024584991421238898 0.010223410110293395 0 0.010223410110293395 0.0070882049146677589 0 0 0 -0.0043741966266427901 -0.016158733502607804 0.0065519480422768367 0 0.0065519480422768367 0.014377023779238718 0 0 0 -0.00044542743084226982 -0.023949595419429003 0.0019981904857081685 0 0.0019981904857081685 0.007211521726926684 0 0 0 -0.0041845184231255814 0.019764448513313326 0.0009216709111063634 0 0.0009216709111063634 0.013102510047586884 0 0 0 0.0082167396402250473 -0.0089814837375018844 0.0086079039037441352 0 0.0086079039037441352 0.0098959170601809893 0 0 0 0.00022860833066978142 0.0017559528308967402 0.003740630026563857 0 0.003740630026563857 0.01071924126301791 0 0 0 0.0031187985234786639 0.0039764608208893437 0.0047377205886713486 0 0.0047377205886713486 0.017909548625425403 0 0 0 0.0054715023615786867 0.015408432965444363 -0.0022473618933656625 0 -0.0022473618933656625 0.019684896715036232 0 0 0 0.0087733324201201349 0.00010097994822262646 0.0019141368385213048 0 0.0019141368385213048 0.027919428004476388 0 0 0 0.0070051019881747639 -0.0021388442720015333 -0.005642971432745586 0 -0.005642971432745586 0.02743935887833715 0 0 0 0.0063251286515839389 0.0056405273068602935 -0.010135806912293988 0 -0.010135806912293988 0.022184452981381123 0 0 0 0.0069562450720603575 0.015251105497890521 -0.004808150936726957 0 -0.004808150936726957 0.042701814897167067 0 0 0 0.014488230098764363 -0.022381309282712605 -0.0013483362328612358 0 -0.0013483362328612358 0.017224049320789858 0 0 0 -0.0012893149904806694 -0.0055308683914512616 -0.00032919421389344949 0 -0.00032919421389344949 0.012975728979184822 0 0 0 0.0018612151469333885 -0.0079624364692182995 -0.0089463396086185976 0 -0.0089463396086185976 0.016169126635169562 0 0 0 0.0020516725414878104 -0.025344597754424769 0.0011533947099731929 0 0.0011533947099731929 0.0087923085606547158 0 0 0 -0.0041380722984425133 -0.030589710604194999 -0.0067968899217658585 0 -0.0067968899217658585 0.0096809383437870544 0 0 0 -0.0052271930651020052 -0.043211864697166133 -0.0018598691674110851 0 -0.0018598691674110851 0.0065288763313793574 0 0 0 -0.0091707470914466765 -0.048981706149199208 0.0040758302260135992 0 0.0040758302260135992 0.0039848370014001974 0 0 0 -0.011249217286949779 -0.059466690649368131 -0.0059370518839055586 0 -0.0059370518839055586 0.0053473995084337145 0 0 0 -0.013529822785233594 -0.066252728142599568 0.0014905759140922958 0 0.0014905759140922958 0.0015084341798595191 0 0 0 -0.01618607349068503 -0.093541253640598621 -2.1695525865214615e-05 0 -2.1695525865214615e-05 0.0020600502518877684 0 0 0 -0.022870300847177713 -0.069166080346255931 0.0024410991639569057 0 0.0024410991639569057 0.0019337746527519351 0 0 0 -0.01680807642337602 -0.067839155040564106 -0.0005674512508920572 0 -0.0005674512508920572 0.001622765126598924 0 0 0 -0.016554097478491306 -0.071248652972839804 -0.00016091790417192137 0 -0.00016091790417192137 -0.00061491202905461506 0 0 0 -0.017965891250473598 -0.059213318263469622 0.0072741552695728129 0 0.0072741552695728129 0.001964985735114666 0 0 0 -0.014312083132088732 -0.092704714802113258 0.003240053942320742 0 0.003240053942320742 0.00044163836985978977 0 0 0 -0.023065769108063357 -0.067710649636074705 0.0066128564060126474 0 0.0066128564060126474 0.0018443568184108305 0 0 0 -0.016466573204415989 -0.04561571589000319 0.0096000394612311378 0 0.0096000394612311378 0.0039022340070261063 0 0 0 -0.010428370470744273 -0.035481885064980664 0.0076290742918118937 0 0.0076290742918118937 0.0065753869027870004 0 0 0 -0.0072266245405484403 -0.04997363120455469 0.00186973137069886 0 0.00186973137069886 0.003329572555911391 0 0 0 -0.011661014662160813 0.01586970050683837 -0.0017631572970885218 0 -0.0017631572970885218 0.040795655717501329 0 0 0 0.01416633905608493 0.014886742778714677 -0.0032531688824274122 0 -0.0032531688824274122 0.033261704722529824 0 0 0 0.012037111875311125 0.014630142230259876 -0.0048079690080200322 0 -0.0048079690080200322 0.028832612937456328 0 0 0 0.010865688791929055 0.012343878445008229 0.00042534341086680923 0 0.00042534341086680923 0.034556527694564 0 0 0 0.011725101534893064 0.017229459866681836 0.0056179466508640332 0 0.0056179466508640332 0.037649130276890083 0 0 0 0.013719647535892981 0.019080495365394148 0.0044329940537181844 0 0.0044329940537181844 0.04578683238744205 0 0 0 0.016216831938209053 0.012077020112426104 -0.001807963768755104 0 -0.001807963768755104 0.04420861720165669 0 0 0 0.014071409328520704 0.010653067665153684 -0.0011570941813346079 0 -0.0011570941813346079 0.043051798283963799 0 0 0 0.013426216487279367 0.01471245223855765 -0.0019606329126739333 0 -0.0019606329126739333 0.042279090370536586 0 0 0 0.01424788565227356 0.013036811523185254 -0.0011239567147500948 0 -0.0011239567147500948 0.040728893815698317 0 0 0 0.013441426334720875 0.0043671340824093206 -0.0019814181018022736 0 -0.0019814181018022736 0.039405816359371321 0 0 0 0.010943237610445165 0.010460065057713401 -0.003649441919107686 0 -0.003649441919107686 0.042377590444361249 0 0 0 0.013209413875518664 0.0085998996520027706 -0.0045608062064719512 0 -0.0045608062064719512 0.040634060894069179 0 0 0 0.012308490136517981 0.0095628291571804303 -0.0079974787808744941 0 -0.0079974787808744941 0.042570868034102649 0 0 0 0.013033424297820777 0.0069869894914456679 -0.0046754501153055961 0 -0.0046754501153055961 0.048603214671333855 0 0 0 0.013897551040694879 0.03621697271671636 -0.034271078820464387 0 -0.034271078820464387 0.076186849198728118 0 0 0 0.028100955478861114 0.0016775618003354101 -0.018414376439581367 0 -0.018414376439581367 0.046546985152527698 0 0 0 0.012056136738215782 0.034041562191944229 -0.021713705296890248 0 -0.021713705296890248 0.042009388247210108 0 0 0 0.019012737609788589 0.0034634420301287508 -0.007949176539839134 0 -0.007949176539839134 0.043157589387884943 0 0 0 0.011655257854503429 0.038629890533158337 -0.0067048540924571146 0 -0.0067048540924571146 0.064029362456702099 0 0 0 0.025664813247465085 0.032731046041872741 -0.012878063708000195 0 -0.012878063708000195 0.034076644119743926 0 0 0 0.016701922540404174 0.056741821857554456 -0.018430113370824924 0 -0.018430113370824924 0.044591041769701231 0 0 0 0.025333215906813915 0.024673706847999317 -0.012518733018522424 0 -0.012518733018522424 0.033259549810537102 0 0 0 0.014483314164634099 0.017811501253756981 -0.0010251501091999363 0 -0.0010251501091999363 0.031615238539898179 0 0 0 0.012356684948413783 0.036235832335297549 -0.0078121461547231257 0 -0.0078121461547231257 0.025319387622981915 0 0 0 0.015388804989569869 0.017217185322773648 -0.0019871564368039545 0 -0.0019871564368039545 0.020385822055032324 0 0 0 0.0094007518444514902 0.02347958187017251 -0.002816956847445937 0 -0.002816956847445937 0.014634167885360427 0 0 0 0.0095284374388832273 0.016530989607245809 -0.011719080298286676 0 -0.011719080298286676 0.037476059860908663 0 0 0 0.013501762367038626 0.013960301936040009 -0.011931608447760068 0 -0.011931608447760068 0.026861855972714642 0 0 0 0.010205539477188661 0.024800129014161586 -0.0099732873833531816 0 -0.0099732873833531816 0.030821860187319684 0 0 0 0.013905497300370322 0.016063496539402988 -0.0045195515605875765 0 -0.0045195515605875765 0.015826709619707918 0 0 0 0.0079725515397777239 0.019666998118095559 -0.0045975218917987627 0 -0.0045975218917987627 0.029570731043097952 0 0 0 0.012309432290298373 0.019018058125404233 -0.0030790451052539925 0 -0.0030790451052539925 0.018480144025330769 0 0 0 0.0093745505376837419 0.018968561702946984 0.0031284088969935463 0 0.0031284088969935463 0.016176776236680724 0 0 0 0.0087863344849069252 0.015741858704990046 0.0015096221585747648 0 0.0015096221585747648 0.00851000699808163 0 0 0 0.0060629664257679221 0.014937289110355609 -8.8546573630658709e-05 0 -8.8546573630658709e-05 0.014490272160608421 0 0 0 0.0073568903177410085 0.018584791185396958 -0.00064752253755611744 0 -0.00064752253755611744 0.011158056388951391 0 0 0 0.0074357118935870891 0.015757962628834603 0.0038669899812047159 0 0.0038669899812047159 0.012431166115760211 0 0 0 0.0070472821861486939 0.0089745984252250412 0.0071114287978532881 0 0.0071114287978532881 0.0073342072644711235 0 0 0 0.004077201422424041 0.0138444049217938 0.0027197427905114421 0 0.0027197427905114421 0.0069143648022547965 0 0 0 0.0051896924310121488 0.012401021900846562 0.0078191870494908992 0 0.0078191870494908992 0.0057294298184323387 0 0 0 0.0045326129298197239 0.0094585450888808251 0.0061727661811470597 0 0.0061727661811470597 0.0032544790947190913 0 0 0 0.0031782560458999791 0.0055906880730771805 0.010097483182546076 0 0.010097483182546076 0.0022891614400094122 0 0 0 0.001969962378271648 0.018637594061122524 0.0026409314559785839 0 0.0026409314559785839 0.010789806646754357 0 0 0 0.0073568501769692204 0.017363281088934424 0.0017392234394951944 0 0.0017392234394951944 0.0095393388491000833 0 0 0 0.006725654984508618 0.016644543206129576 0.0055885856658496394 0 0.0055885856658496394 0.0084490113014920737 0 0 0 0.0062733886269054134 0.014899208468525106 0.0047264228630763076 0 0.0047264228630763076 0.0067910146924582276 0 0 0 0.0054225557902458348 0.018641275682712982 0.0036753601678665409 0 0.0036753601678665409 0.01232201943843883 0 0 0 0.0077408237802879531 0.020703518385847754 0.0074523626929965565 0 0.0074523626929965565 0.0074979641326175482 0 0 0 0.0070503706296163263 0.025323719247023722 0.0078230603463611964 0 0.0078230603463611964 0.012264802255800135 0 0 0 0.0093971303757059699 0.025663504615612377 0.0072333924091850174 0 0.0072333924091850174 0.010369437653237369 0 0 0 0.0090082355672124366 0.021331952111966878 0.0036783344617757827 0 0.0036783344617757827 0.014060334578676554 0 0 0 0.0088480716726608531 0.021413136934907404 0.0037159244789680434 0 0.0037159244789680434 0.018834622001603414 0 0 0 0.010061939734127702 0.018273456714313331 0.0019003691406519335 0 0.0019003691406519335 0.016340593798958677 0 0 0 0.0086535126283180039 0.02184062732903436 0.0027439774307663504 0 0.0027439774307663504 0.026834358753102857 0 0 0 0.012168746520534315 0.024236272364605266 0.0059898164067063893 0 0.0059898164067063893 0.020163423725189557 0 0 0 0.011099924022448707 0.0162314867016689 0.0011326343984760998 0 0.0011326343984760998 0.024202489566983294 0 0 0 0.010108494067163042 0.019009664110742338 -0.00030898133770039863 0 -0.00030898133770039863 0.03322062438362184 0 0 0 0.013057572123591052 0.015933816555367939 -0.0024953994376217016 0 -0.0024953994376217016 0.022224196281906628 0 0 0 0.0095395032093186401 0.02576532204936411 0.0091470794051930534 0 0.0091470794051930534 0.041968782477407221 0 0 0 0.016933526131692824 0.019010845078734358 0.0054281887993321582 0 0.0054281887993321582 0.027977535243434392 0 0 0 0.011747095080542192 0.02167153976600392 0.0040429599195033195 0 0.0040429599195033195 0.036833460842690083 0 0 0 0.014626250152173509 0.024193390627067813 0.0063612506597368135 0 0.0063612506597368135 0.020759762605183731 0 0 0 0.01123828830806288 0.027094977000436064 0.0095816832139108792 0 0.0095816832139108792 0.026368440952534836 0 0 0 0.013365854488242724 0.02797971699086118 0.0092639604712566916 0 0.0092639604712566916 0.028819728158853065 0 0 0 0.014199861287428553 0.029421665275196032 0.0093840657061437464 0 0.0093840657061437464 0.013929323187941392 0 0 0 0.010837747115784351 0.029878683768435738 0.0097986977697346184 0 0.0097986977697346184 0.01693046233440346 0 0 0 0.011702286525709805 0.035179998110864932 0.011192105670301057 0 0.011192105670301057 0.011877966991410971 0 0 0 0.011764491275568979 0.033674634090114244 0.0099305223209107101 0 0.0099305223209107101 0.0065345456258608242 0 0 0 0.010052294928993771 0.029664744557025398 0.0078901061298191702 0 0.0078901061298191702 0.0024426171803887536 0 0 0 0.0080268404343535309 0.029342959373246307 0.0095364948714719566 0 0.0095364948714719566 0.0084424505816373951 0 0 0 0.009446352488720923 0.030030862565907524 0.0085246773171743888 0 0.0085246773171743888 0.0072023379404797319 0 0 0 0.0093083001265968288 0.021813679656190584 0.0058647918643754474 0 0.0058647918643754474 0.0076193075506916508 0 0 0 0.0073582468017205516 0.022497642842186884 0.0081019232385586577 0 0.0081019232385586577 0.0038050702106933072 0 0 0 0.0065756782632200479 0.026016910306075933 0.0084667480727224423 0 0.0084667480727224423 0.0046348165502010305 0 0 0 0.007662931714069246 0.026738809446486846 0.0086258464647781183 0 0.0086258464647781183 0.0068817563737490865 0 0 0 0.0084051414550589745 0.027384692012864333 0.0074433313683631638 0 0.0074433313683631638 0.001479974522919987 0 0 0 0.0072161666339460827 0.027276419818028606 0.008757403911343966 0 0.008757403911343966 0.0012494156124702067 0 0 0 0.0071314588576247007 0.021828528923726019 0.0081306534991670201 0 0.0081306534991670201 0.0011366939477714874 0 0 0 0.0057413057178743766 0.031257003625761892 0.0079684003449301231 0 0.0079684003449301231 0.00056896246418928695 0 0 0 0.0079564915224877956 0.030805446641042067 0.0064556420051056799 0 0.0064556420051056799 -0.00024520855706727449 0 0 0 0.0076400595209936972 0.03526728101640874 0.0074202252161654613 0 0.0074202252161654613 0.00070005822870568279 0 0 0 0.0089918348112786092 0.032730051645578684 0.0069915071275555929 0 0.0069915071275555929 0.00012824256978517801 0 0 0 0.0082145735538409724 0.030884335863813502 0.0085994193389787379 0 0.0085994193389787379 0.0026944862756791586 0 0 0 0.0083947055348731672 0.0054583575065390751 0.0095265289034239427 0 0.0095265289034239427 0.0036931743703490921 0 0 0 0.0022878829692220409 0.011852289339371614 0.0082837777350280896 0 0.0082837777350280896 0.0013208093683020061 0 0 0 0.0032932746769184108 0.0059106097761448366 0.010026485755020551 0 0.010026485755020551 0.0012585274691780841 0 0 0 0.0017922843113307267 0.016099577629906967 0.0077059036105326453 0 0.0077059036105326453 0.00040788782199197016 0 0 0 0.0041268663629747439 0.013115123021699752 0.008835105373717277 0 0.008835105373717277 0.004539095772732385 0 0 0 0.0044135546986080326 0.01660316587987367 0.0081904016225638615 0 0.0081904016225638615 0.0037050555572208724 0 0 0 0.0050770553592736356 0.018201241167696752 0.0060210289259052582 0 0.0060210289259052582 0.0037802948808467879 0 0 0 0.005495384012135892 0.018870862722242199 0.0093272025992341169 0 0.0093272025992341169 0.0054654898664263252 0 0 0 0.0060840881471671288 0.021199176697349671 0.0073600625046106871 0 0.0073600625046106871 0.0011395645570634327 0 0 0 0.0055846853136032742 0.017561253428549681 0.0077650314206883196 0 0.0077650314206883196 0.0016129517726261554 0 0 0 0.0047935513002939599 0.021656770932522645 0.0091970814411090878 0 0.0091970814411090878 0.00055730519422956745 0 0 0 0.0055535190316880513 0.014965032537493927 0.010004345416899856 0 0.010004345416899856 0.0022476489389474698 0 0 0 0.0043031703691103484 0.013646774380281484 0.0090688783632145806 0 0.0090688783632145806 0.00044631296611707949 0 0 0 0.0035232718365996382 0.006863293336806655 0.0095938598904821981 0 0.0095938598904821981 0.00047550100541414106 0 0 0 0.001834698585555199 0.0058622631439187878 0.011214262688678017 0 0.011214262688678017 4.2239220436196545e-06 0 0 0 0.0014666217664906084 0.0055497515683380974 0.009878369349479086 0 0.009878369349479086 0.00031271632405773658 0 0 0 0.0014656169730989585 -0.00027834861245633682 0.011698205283009088 0 0.011698205283009088 -0.00012800317287998964 0 0 0 -0.00010158794633408075 0.0038359525550740957 0.012384375106625919 0 0.012384375106625919 -0.00035486157902711027 0 0 0 0.00087027274401174593 -0.00096922261854581748 0.011017143856728452 0 0.011017143856728452 0.00066769052631913961 0 0 0 -7.5383023056672938e-05 0.0041655095906168692 0.0096636273333987454 0 0.0096636273333987454 -0.00042265246322097105 0 0 0 0.00093571428184897366 0.010516412277633714 0.011162800663096478 0 0.011162800663096478 0.00022451771886396188 0 0 0 0.0026852324991244181 0.0094603075545525335 0.0097532102102603976 0 0.0097532102102603976 0.00058840805917809158 0 0 0 0.0025121789034326554 0.011549940205605191 0.011454568136733853 0 0.011454568136733853 0.00030500949600400628 0 0 0 0.0029637374254022973 0.015141884162878783 0.0085434982577531592 0 0.0085434982577531592 0.00035509787272161586 0 0 0 0.0038742455089000993 0.016123745471917444 0.0095079866067793468 0 0.0095079866067793468 0.00098717652269484507 0 0 0 0.0042777304986530706 0.021111882127716353 0.0096148905956994386 0 0.0096148905956994386 0.0002414023021721709 0 0 0 0.0053383211074721345 0.016311969959155688 0.0087787991900079437 0 0.0087787991900079437 0.0028509925593465102 0 0 0 0.0047907406296255504 0.013979287430836965 0.011732624027850937 0 0.011732624027850937 0.0015206287223478755 0 0 0 0.0038749790382962106 0.012095493230043662 0.010293841334082673 0 0.010293841334082673 0.004031902061682165 0 0 0 0.0040318488229314567 0.0070112686324677528 0.013236655481950278 0 0.013236655481950278 0.00038085505920544202 0 0 0 0.0018480309229182978 0.0039768408305805867 0.011082163549278361 0 0.011082163549278361 0.0013240665669420389 0 0 0 0.0013252268493806566 -0.00050671034503768989 0.013976144995276218 0 0.013976144995276218 -0.0010774091768541785 0 0 0 -0.00039602988047296624 0.03012434555005947 0.006029443561898949 0 0.006029443561898949 0.0016880828520710496 0 0 0 0.0079531071005326283 0.031231480523302574 0.0066324538652776628 0 0.0066324538652776628 -0.00020278111641094596 0 0 0 0.0077571748517229078 0.026456310203406747 0.0075704255982687492 0 0.0075704255982687492 0.00027551875552090863 0 0 0 0.0066829572397319164 0.026652898547036466 0.0080784896353643526 0 0.0080784896353643526 0.00026669312438313414 0 0 0 0.0067298979178549035 0.021781608076418379 0.0081670869479107469 0 0.0081670869479107469 0.0017133908162125268 0 0 0 0.0058737497231577274 0.024959934465342073 0.0077503567905183096 0 0.0077503567905183096 0.0024385554574997068 0 0 0 0.0068496224807104468 0.019420333531933884 0.0088794134784048861 0 0.0088794134784048861 0.0064695847768682932 0 0 0 0.0064724795772005449 0.019552865291169799 0.0099849863955946538 0 0.0099849863955946538 0.0035944515700878257 0 0 0 0.0057868292153144063 0.023864827622368377 0.0077368403019226206 0 0.0077368403019226206 0.0079537241981835309 0 0 0 0.0079546379551379744 0.024078916289161711 0.0076099589670336008 0 0.0076099589670336008 0.003778232440739002 0 0 0 0.0069642871824751786 0.02960819948718554 0.005332893358832024 0 0.005332893358832024 0.0045565206640739396 0 0 0 0.0085411800378148682 0.027101592302657206 0.0067463740777326774 0 0.0067463740777326774 0.0011022069439661688 0 0 0 0.007050949811655844 0.026116286724009393 0.0064003999276402669 0 0.0064003999276402669 0.0042793855518568225 0 0 0 0.0075989180689665543 0.02669650009424137 0.006099020561583045 0 0.006099020561583045 0.0088977097134057669 0 0 0 0.0088985524519117863 0.028428404145552359 0.003818232753824282 0 0.003818232753824282 0.0029347721863786725 0 0 0 0.0078407940829827577 0.030934478094909696 0.0018657089922807023 0 0.0018657089922807023 0.01030444021683998 0 0 0 0.010309729577937419 0.027990459210803304 0.00080760368519551139 0 0.00080760368519551139 0.0017680277584290289 0 0 0 0.0074396217423080844 0.033386316128064371 0.0006132871479244147 0 0.0006132871479244147 0.0030848377870138833 0 0 0 0.0091177884787695639 0.032956721833460538 0.002728044751017609 0 0.002728044751017609 0.0015940053926046666 0 0 0 0.0086376818065163011 0.03377546439249017 0.0040496676194869295 0 0.0040496676194869295 0.00036438409406069037 0 0 0 0.0085349621216377191 0.031967686338411079 0.0020777310264474408 0 0.0020777310264474408 -0.0011636462097180497 0 0 0 0.0077010100321732566 0.036639566115204136 0.0021950614445385916 0 0.0021950614445385916 0.00025884099446781602 0 0 0 0.0092246017774179848 0.03377260994072924 0.0036911610915432778 0 0.0036911610915432778 -0.0027674274384122733 0 0 0 0.007751295625579236 0.034812088963484276 0.00058223533400809122 0 0.00058223533400809122 -0.0045809631207392888 0 0 0 0.0075577814606862474 0.032088049154442862 -0.0038456213430277612 0 -0.0038456213430277612 -0.0049519392171949277 0 0 0 0.0067840274843119826 0.034120946734649847 -0.0012408608943431736 0 -0.0012408608943431736 -0.00087994130352816655 0 0 0 0.0083102513577804227 0.032074360813245502 -0.00076623583921886084 0 -0.00076623583921886084 0.00019500578638551231 0 0 0 0.0080673416499077531 0.030599370741910836 -0.0010399326423082644 0 -0.0010399326423082644 0.010201750711736296 0 0 0 0.010200280363411782 0.030157492334650968 -0.0037665196864657699 0 -0.0037665196864657699 0.01004370035336179 0 0 0 0.01005029817200319 0.027614229277291878 -0.0032135938036523884 0 -0.0032135938036523884 0.0021201128617302483 0 0 0 0.0074335855347555319 0.025022095055202954 -0.0077777041112259658 0 -0.0077777041112259658 0.0083384432873820219 0 0 0 0.0083401345856462441 0.030573522590778709 -0.0048078008376641144 0 -0.0048078008376641144 0.0016733431115305837 0 0 0 0.0080617164255773234 0.023640374602329518 -0.0076687210494589021 0 -0.0076687210494589021 -0.0010660654284864977 0 0 0 0.0056435772934607543 0.01508387699468219 -0.011470074429773271 0 -0.011470074429773271 0.0050228107177169726 0 0 0 0.0050266719280997914 0.01621846504510556 -0.012795039322398392 0 -0.012795039322398392 -0.0034550640884762757 0 0 0 0.0031908502391573227 0.0070041614340605341 -0.016410360623866419 0 -0.016410360623866419 -0.0042158095581235414 0 0 0 0.00069708796898424429 0.016170106670619765 -0.013157923578403823 0 -0.013157923578403823 -0.0076450661860835087 0 0 0 0.002131260121134064 0.019912138879990979 -0.010525055257510744 0 -0.010525055257510744 -0.0052503437911390893 0 0 0 0.0036654487722129706 0.024523542285437096 -0.0084430585603225833 0 -0.0084430585603225833 -0.0013802055905709296 0 0 0 0.0057858341737165413 0.01298268430688947 -0.012694258344232982 0 -0.012694258344232982 -0.0052345719146639214 0 0 0 0.0019370280980563898 0.023863905845371472 -0.0085464894635314918 0 -0.0085464894635314918 -0.0055957480125744911 0 0 0 0.0045670394581992443 0.031864178903348507 -0.005107293074777146 0 -0.005107293074777146 -0.0069880734193894529 0 0 0 0.0062190263709897648 0.033440198729711636 -0.0027874031550955466 0 -0.0027874031550955466 -0.0034683167223536569 0 0 0 0.0074929705018394977 0.035160953365420883 -0.0040410053068675698 0 -0.0040410053068675698 -0.0051558345517909634 0 0 0 0.0075012797034074803 0.03413698619134381 -0.0034836888934476067 0 -0.0034836888934476067 -0.0081800470612143229 0 0 0 0.0064892347825323696 0.042393701622899779 -0.00025107653953845323 0 -0.00025107653953845323 -0.0066924202536184207 0 0 0 0.008925320342320334 0.027866868700918122 -0.0093372365453442512 0 -0.0093372365453442512 -0.0099199798018696009 0 0 0 0.0044867222247621311 0.021580604832441955 -0.012928161018970825 0 -0.012928161018970825 -0.008546122016850996 0 0 0 0.003258620703897739 0.028036047190290469 -0.0089721803626729314 0 -0.0089721803626729314 -0.0073996367256842777 0 0 0 0.0051591026161515417 0.030400827751159952 -0.006669817739848689 0 -0.006669817739848689 -0.0073742340519830293 0 0 0 0.0057566484247942255 0.016606595603824034 -0.013437030111426506 0 -0.013437030111426506 -0.010284800863962669 0 0 0 0.0015804486849653413 0.028402443259367499 -0.013526756578802437 0 -0.013526756578802437 -0.010874933754047203 0 0 0 0.0043818773763300706 0.03474912711302762 -0.010795234310527341 0 -0.010795234310527341 -0.007707848226970071 0 0 0 0.0067603197215143872 0.031911689617453352 -0.0089636002308091205 0 -0.0089636002308091205 -0.011036174727863324 0 0 0 0.0052188787223975018 0.046778967145790711 -0.0041885635684602678 0 -0.0041885635684602678 -0.0063850498269426197 0 0 0 0.010098479329712024 0.034632232731767049 -0.013661291474815413 0 -0.013661291474815413 -0.0063336050000761725 0 0 0 0.0070746569329227143 0.033114683082169034 -0.012792704362912724 0 -0.012792704362912724 -0.0094548368350669092 0 0 0 0.0059149615617755322 0.039420626384492535 -0.00056411881984500358 0 -0.00056411881984500358 -0.0064372430200986454 0 0 0 0.0082458458410984668 0.040893352434667955 -0.0062778454680053938 0 -0.0062778454680053938 -0.0081152142581194363 0 0 0 0.0081945345441371293 0.0461060025136069 0.00092589656086143125 0 0.00092589656086143125 -0.0077790725339768893 0 0 0 0.0095817324949075064 0.053510460669389866 0.0046033640043443118 0 0.0046033640043443118 -0.0015761913411666134 0 0 0 0.012983567332055815 0.045260465136480521 0.006294815247471601 0 0.006294815247471601 -0.00053784214919056633 0 0 0 0.011180655746822494 0.047709144308474144 0.0061039128626882225 0 0.0061039128626882225 8.7972574255544556e-05 0 0 0 0.011949279220682413 0.042887832344526221 0.0043266234765488342 0 0.0043266234765488342 -0.0044276693019580995 0 0 0 0.0096150407606420234 0.042926742198035099 0.0080405109807657263 0 0.0080405109807657263 0.00095326122887904544 0 0 0 0.010970000856728552 0.044864787706876658 0.010466755254791977 0 0.010466755254791977 0.0058342713625541831 0 0 0 0.012674764767357722 0.040588171780160866 0.0078808005984258855 0 0.0078808005984258855 0.00091472163856466671 0 0 0 0.010375723354681388 0.039829673327907156 0.010955114995243685 0 0.010955114995243685 0.0075136148853894094 0 0 0 0.01183582205332415 0.035297977234292968 0.0081801119398809546 0 0.0081801119398809546 0.0022760133247024328 0 0 0 0.0093934976397488448 0.034593164473272521 0.008276547005016276 0 0.008276547005016276 0.0020242356251949055 0 0 0 0.009154350024616861 0.037755942908840004 0.0055309946910728717 0 0.0055309946910728717 -0.0026999372950073861 0 0 0 0.0087640014034581527 0.039532789166178244 0.0067562866073422427 0 0.0067562866073422427 -4.7530338046752538e-05 0 0 0 0.009871314707032874 0.034118482829753813 0.0051734464219958939 0 0.0051734464219958939 -0.0028101765483470008 0 0 0 0.0078270765703517074 0.038657147717885629 0.0041045301461551439 0 0.0041045301461551439 -0.0010721163678292719 0 0 0 0.0093962578375140979 0.035859213036959436 0.0024075562304354736 0 0.0024075562304354736 -0.0047114853308499616 0 0 0 0.0077869319265273665 0.038301356636293291 0.0013589665264628244 0 0.0013589665264628244 -0.003059953510663428 0 0 0 0.0088103507814074698 0.037428810377038838 -0.0019137340978948804 0 -0.0019137340978948804 -0.0051695944336389004 0 0 0 0.0080648039858499925 0.039133354749672937 0.0031968146544156199 0 0.0031968146544156199 -0.004214944139264324 0 0 0 0.0087296026526021524 0.041997042140888716 0.0040392516573464696 0 0.0040392516573464696 -0.0033843135614072674 0 0 0 0.009653182144870362 -0.068006484246779922 -0.0053131941471478055 0 -0.0053131941471478055 -0.0028731463204829267 0 0 0 -0.017719907641815719 -0.047099132589839485 -0.013781180308956802 0 -0.013781180308956802 -0.0013098198145652107 0 0 0 -0.012102238101101174 -0.051673716809433445 -0.0064691064604979961 0 -0.0064691064604979961 -0.00049083385969660512 0 0 0 -0.013041137667282513 -0.046421712471444561 -0.0088151834345640782 0 -0.0088151834345640782 0.0036922973508837624 0 0 0 -0.010682353780140194 -0.040426922069771477 -0.00607487653605526 0 -0.00607487653605526 0.0032845396367185489 0 0 0 -0.0092855956082632356 -0.038754429505084308 -0.0043973338833035083 0 -0.0043973338833035083 -0.0048568531524161782 0 0 0 -0.010902820664375125 -0.037536185877252264 -0.0057853650336666933 0 -0.0057853650336666933 -0.012487975835313263 0 0 0 -0.012506040428141381 -0.039462533070627186 -0.0071943877328273075 0 -0.0071943877328273075 -0.00469905038326442 0 0 0 -0.011040395863472901 -0.038572208298956301 -0.012201572971052111 0 -0.012201572971052111 -0.0034349305024694993 0 0 0 -0.01050178470035645 -0.035794883085963673 -0.013006699273172682 0 -0.013006699273172682 -0.0022204406109591068 0 0 0 -0.0095038309242306933 -0.030706066077746952 -0.013027692812902529 0 -0.013027692812902529 -0.010239407222979014 0 0 0 -0.01023636832518149 -0.030700091970631557 -0.013032443081942012 0 -0.013032443081942012 -0.010220221062026434 0 0 0 -0.010230078258164499 -0.034379088380618719 -0.015366803534829544 0 -0.015366803534829544 -0.0043215344149736268 0 0 0 -0.0096751556988980865 -0.023926343568094921 -0.015893679468540919 0 -0.015893679468540919 -0.0013901257366633543 0 0 0 -0.0063291173261895654 -0.038956126348336527 -0.014233520382572806 0 -0.014233520382572806 0.0005520911922972313 0 0 0 -0.0096010087890098239 -0.056369055347310668 -0.01437865129551778 0 -0.01437865129551778 -0.0025065866729718361 0 0 0 -0.014718910505070626 -0.022850695688092389 -0.018928524153382774 0 -0.018928524153382774 -0.0013447999626980053 0 0 0 -0.0060488739126976047 -0.041687764036772983 -0.017472259940075698 0 -0.017472259940075698 -0.0042231686782780581 0 0 0 -0.011477733178762758 -0.020481926342170879 -0.016527587488991361 0 -0.016527587488991361 -0.0039059553369583874 0 0 0 -0.0060969704197823132 -0.016300640719647631 -0.016673966507424032 0 -0.016673966507424032 -0.005910741797509389 0 0 0 -0.0055528456292892533 -0.02008708445480132 -0.019687347049014307 0 -0.019687347049014307 -0.0041994672335064695 0 0 0 -0.0060716379220769404 -0.01829744870776167 -0.017919413631472876 0 -0.017919413631472876 -0.002458071445250308 0 0 0 -0.0051888800382529927 -0.019307983484228314 -0.016942796677159151 0 -0.016942796677159151 -0.004917976771760136 0 0 0 -0.0060564900639971135 -0.0083823337872621223 -0.014933073914149263 0 -0.014933073914149263 -0.0028013065116552134 0 0 0 -0.0027959100747293347 -0.0076230882130172029 -0.017633098780511235 0 -0.017633098780511235 -0.00469383782859948 0 0 0 -0.0030792315104041668 -0.0038490897467676499 -0.014309057957080651 0 -0.014309057957080651 -0.0022864415929686483 0 0 0 -0.0015338828349340757 -0.0045062587982874006 -0.018511756882404071 0 -0.018511756882404071 -0.0039658816836856264 0 0 0 -0.0021180351204932585 0.0037059758724677849 -0.013992663179801541 0 -0.013992663179801541 0.0012365839956416018 0 0 0 0.0012356399670273466 0.011001285872747044 -0.011896684355451761 0 -0.011896684355451761 -0.0015187146121795995 0 0 0 0.0023706428151418586 0.0043098547434664292 -0.017714124765638911 0 -0.017714124765638911 -0.0061462336746302693 0 0 0 -0.00045909473279096003 0.00018473419781211455 -0.01780392861909337 0 -0.01780392861909337 -0.0060229535873570217 0 0 0 -0.0014595548473862255 0.00075995969622436651 -0.014777549261713006 0 -0.014777549261713006 -0.0057965357295104037 0 0 0 -0.0012591440083215147 0.011044420378882758 -0.017450116638055863 0 -0.017450116638055863 -0.010477049753163534 0 0 0 0.00014184265642980948 0.017829028156797464 -0.014581920540215882 0 -0.014581920540215882 -0.0073529309616924762 0 0 0 0.002619024298776247 0.0013807243744457486 -0.020781751188246961 0 -0.020781751188246961 -0.011029980698105082 0 0 0 -0.0024123140809148326 0.016836459805914583 -0.018169559599712087 0 -0.018169559599712087 -0.012111788055798239 0 0 0 0.0011811679375290894 0.0020897150609351586 -0.019534352820347829 0 -0.019534352820347829 -0.0054039108976388223 0 0 0 -0.00082854895917591764 -0.0041874954275661781 -0.023956257198824445 0 -0.023956257198824445 -0.0093402375152776378 0 0 0 -0.0033819332357109492 0.015617585116155595 -0.016499306006904461 0 -0.016499306006904461 -0.0054214857513545101 0 0 0 0.0025490248412002765 -0.0029262363345311203 -0.021524895846114271 0 -0.021524895846114271 -0.004835384283454959 0 0 0 -0.0019404051544965155 6.5879883906830999e-05 -0.026045177497052853 0 -0.026045177497052853 -0.0042804835762003078 0 0 0 -0.001053650923073364 -0.02567098312557875 -0.022770386345170548 0 -0.022770386345170548 -0.009740352398703106 0 0 0 -0.0088528338810704658 -0.022524052051612786 -0.02326850010479135 0 -0.02326850010479135 -0.0064811976863227774 0 0 0 -0.0072513124344838909 -0.024130170102817611 -0.018969739573279056 0 -0.018969739573279056 -0.0025251674899865878 0 0 0 -0.006663834398201042 -0.0021308013877116595 -0.018504711846375303 0 -0.018504711846375303 -0.0039654785566582695 0 0 0 -0.0015240699860924814 -0.014740261978191962 -0.020395969687974014 0 -0.020395969687974014 -0.0074740601768834153 0 0 0 -0.0055535805387688444 -0.038283628993742429 -0.019368071235733034 0 -0.019368071235733034 -0.0044603869444770836 0 0 0 -0.010686003984554875 -0.0355096126337833 -0.017397904851753195 0 -0.017397904851753195 0.0012521815491003396 0 0 0 -0.0085643577711707504 -0.050743565380032926 -0.016412905863048683 0 -0.016412905863048683 -0.0006431406220235858 0 0 0 -0.012846676500514128 -0.038495829605167134 -0.023761098329150989 0 -0.023761098329150989 -0.0011454684370850038 0 0 0 -0.0099103245105630344 -0.049300136244781384 -0.019006994811363143 0 -0.019006994811363143 -0.0051430962064064611 0 0 0 -0.013610808112796965 -0.026894831418901234 -0.027337399530698515 0 -0.027337399530698515 -0.0023698277690350628 0 0 0 -0.007316164796984076 -0.048586834744165808 -0.021040321948962281 0 -0.021040321948962281 0.0017050960814568791 0 0 0 -0.011720434665677232 -0.076243859228255745 -0.015013110816911021 0 -0.015013110816911021 -0.0048227127221806484 0 0 0 -0.020266642987609107 -0.083386575943623462 -0.018117732175350995 0 -0.018117732175350995 -0.0032738422189099062 0 0 0 -0.021665104540633341 -0.10009208970152396 -0.0095066414024106462 0 -0.0095066414024106462 -0.00096391482595133311 0 0 0 -0.025264001131868816 -0.07179551799946951 -0.0075820228239815955 0 -0.0075820228239815955 8.6158554848565772e-05 0 0 0 -0.017927339861155248 -0.082743198238865251 -0.0085897174279728657 0 -0.0085897174279728657 -0.00072400309245350576 0 0 0 -0.020866800332829685 -0.051417137275489036 -0.017029868931571261 0 -0.017029868931571261 -0.00064658877971059819 0 0 0 -0.01301593151379991 -0.07049712465591193 -0.0070140301601480807 0 -0.0070140301601480807 -0.0041448453645281311 0 0 0 -0.018660492505110021 -0.051736664046522766 -0.011116912817259374 0 -0.011116912817259374 0.0027218798724313112 0 0 0 -0.012253696043522869 -0.11125898351735469 -0.0091994275827894934 0 -0.0091994275827894934 0.0048980934863544906 0 0 0 -0.026590222507750037 -0.16257430976836099 -0.0025647094696058664 0 -0.0025647094696058664 -0.00083601350139458908 0 0 0 -0.040852580817438901 -0.10298073931063967 -0.020892864476426895 0 -0.020892864476426895 0.0044201779344318903 0 0 0 -0.024640140344051976 -0.10507534732165759 -0.007537032801436222 0 -0.007537032801436222 0.00037688777701264803 0 0 0 -0.026174614886161261 -0.13775909840461475 -0.0077631835233659616 0 -0.0077631835233659616 0.0014825226775139824 0 0 0 -0.034069143931775174 -0.11644826089372945 -0.0091833687679382606 0 -0.0091833687679382606 -0.00056655097140818032 0 0 0 -0.02925370296628443 -0.079018224301146189 -0.0095959738810308167 0 -0.0095959738810308167 0.0013456738052773326 0 0 0 -0.019418137623967213 -0.092871961013695367 -0.008447384844211224 0 -0.008447384844211224 0.0011148211050226978 0 0 0 -0.022939284977168167 -0.089083573375676531 -0.022121924641134442 0 -0.022121924641134442 0.0015038028657388992 0 0 0 -0.021894942627484419 -0.053128372533596556 -0.023317950730763516 0 -0.023317950730763516 0.0012659075479526487 0 0 0 -0.012965616246410969 -0.053411415001771427 -0.02187169085449121 0 -0.02187169085449121 -0.0011531147439708235 0 0 0 -0.013641132436435553 -0.036167252893965454 -0.022062388882442316 0 -0.022062388882442316 -0.0068328332210116005 0 0 0 -0.010750021528744267 -0.053305152961809599 -0.031126979528029237 0 -0.031126979528029237 0.0052473008161761092 0 0 0 -0.012014463036408386 -0.071129086698780708 -0.015957719502996265 0 -0.015957719502996265 0.00088962711526949928 0 0 0 -0.017559864895877821 -0.060596417679535219 -0.014107126523257574 0 -0.014107126523257574 0.0041342112364097551 0 0 0 -0.014115551610781377 -0.012430361226947607 -0.025837567696489656 0 -0.025837567696489656 0.0058418309290942938 0 0 0 -0.0016471325744633267 -0.0082984443691384302 -0.023134789710903728 0 -0.023134789710903728 0.017150246555783538 0 0 0 0.0022129505466612839 0.012207417695272633 -0.029360112592459763 0 -0.029360112592459763 0.0020533086524805871 0 0 0 0.0035651815869383076 -0.044535710822736357 -0.023115072136823827 0 -0.023115072136823827 0.0053892832301664084 0 0 0 -0.0097866068981424734 -0.017041111279197406 -0.028424271612231614 0 -0.028424271612231614 0.0019246242665521222 0 0 0 -0.0037791217531613283 -0.040362682836766695 -0.030291455240270552 0 -0.030291455240270552 -0.0020241609618036893 0 0 0 -0.010596710949642605 -0.018459672974942054 -0.030992313849000891 0 -0.030992313849000891 -0.0052994502584540054 0 0 0 -0.0059397808083490218 -0.014219251795946262 -0.023905724946358356 0 -0.023905724946358356 -0.0026326481707447807 0 0 0 -0.0042129749916727625 0.006495828562324414 -0.028544509789286385 0 -0.028544509789286385 -0.0021925302065316839 0 0 0 0.0010758245889481827 -0.017044645521106273 -0.024703612999226014 0 -0.024703612999226014 -0.00034456958301173218 0 0 0 -0.0043473037760295022 0.0072674586045534109 -0.021430906845613142 0 -0.021430906845613142 -0.0034880664320430382 0 0 0 0.00094484804312759685 0.030068499612610051 -0.025443157830066947 0 -0.025443157830066947 -0.0032746692368040495 0 0 0 0.006698457593951497 0.020395848834022578 -0.023983084957332881 0 -0.023983084957332881 -0.0057469065326552979 0 0 0 0.00366223557534182 0.040388197072900603 -0.019041808975499005 0 -0.019041808975499005 -0.0054389372160264142 0 0 0 0.0087373149642185413 0.020509228048554536 -0.016742924336962239 0 -0.016742924336962239 -0.0072614971806096301 0 0 0 0.0033119327169862257 0.031378450147107328 -0.015583775793999114 0 -0.015583775793999114 0.00010638778575337154 0 0 0 0.0078712094832151733 0.053104188467125335 -0.020748740668027975 0 -0.020748740668027975 0.0022140699164202998 0 0 0 0.013829564595886395 0.013941224389542126 -0.021777784571288119 0 -0.021777784571288119 0.0058961991369842204 0 0 0 0.0049593558816315858 0.042481741391861644 -0.02586406369188203 0 -0.02586406369188203 0.0079455950393589603 0 0 0 0.012606834107805151 0.040978527029430396 -0.014495188927169441 0 -0.014495188927169441 0.013465416831858854 0 0 0 0.013610985965322307 0.062053864067472084 -0.0093040582002386733 0 -0.0093040582002386733 0.032887729377676256 0 0 0 0.023735398361287088 0.071659081993579274 -0.02138783660788162 0 -0.02138783660788162 0.022942221080331754 0 0 0 0.023650325768477781 0.023866908714442123 -0.018499358353027129 0 -0.018499358353027129 0.021243058422278221 0 0 0 0.011277491784180083 0.011274614936767575 -0.031292337895762426 0 -0.031292337895762426 0.022929067958490285 0 0 0 0.0085509207238144702 0.045245667626446121 -0.030989971026356422 0 -0.030989971026356422 0.053808221619558283 0 0 0 0.024763472311501097 0.062839460584379697 -0.01944294363610545 0 -0.01944294363610545 0.10428690243444316 0 0 0 0.041781590754705694 0.067645664238871139 0.013154253937799149 0 0.013154253937799149 0.086739184053126639 0 0 0 0.038596212072999458 0.051218796511952991 0.0078116516189847413 0 0.0078116516189847413 0.11495783430541651 0 0 0 0.041544157704342388 0.0381900449431129 0.0037807455256643197 0 0.0037807455256643197 0.0706991243294538 0 0 0 0.027222292318141716 0.020563244277349041 -0.018504964368522434 0 -0.018504964368522434 0.052906663814899058 0 0 0 0.018367477023062018 0.037910265064315052 -0.0057171416535576058 0 -0.0057171416535576058 0.052625390132291665 0 0 0 0.022633913799151664 0.0020625246249658599 0.01494528756399599 0 0.01494528756399599 0.061048106176473549 0 0 0 0.015777657700359819 -0.016558392180644893 0.00090824233529146481 0 0.00090824233529146481 0.035690193186323715 0 0 0 0.0047829502514196709 -0.040469766745808253 0.0082605582587343407 0 0.0082605582587343407 0.045221074869454203 0 0 0 0.0011878270309114841 -0.019030168426792726 -0.016777746941466058 0 -0.016777746941466058 0.017427240007257816 0 0 0 -0.00040073210488372757 -0.045565790218132785 -0.0088909364288429216 0 -0.0088909364288429216 0.018298004398554425 0 0 0 -0.0068169464548945872 -0.008374084622718346 -0.013536526434769866 0 -0.013536526434769866 0.050252480644713077 0 0 0 0.01046959900549866 -0.041493458163977787 -0.027803925313967762 0 -0.027803925313967762 0.021763747268255473 0 0 0 -0.0049324277239305991 -0.075355011430393012 -0.022900993162332406 0 -0.022900993162332406 0.0095267456379200532 0 0 0 -0.016457066448118257 -0.08439948138879444 -0.0067141735173754449 0 -0.0067141735173754449 0.0076595147002008201 0 0 0 -0.019184991672148419 -0.057232790835258091 -0.021084662654816511 0 -0.021084662654816511 0.019522577937188257 0 0 0 -0.0094275532245174376 -0.079190065630714332 0.0042383414571269262 0 0.0042383414571269262 0.017975012902056206 0 0 0 -0.015303763182164573 -0.052856138504269568 -0.00019432032131963539 0 -0.00019432032131963539 0.010153671541505038 0 0 0 -0.010675616740691146 -0.10411540470194888 0.01484992984244965 0 0.01484992984244965 0.007758983407261999 0 0 0 -0.024089105323671735 -0.083327190890560787 0.0023964855608735458 0 0.0023964855608735458 0.026661030766112925 0 0 0 -0.014166540031111979 -0.085958889222320978 -0.0067427407930606281 0 -0.0067427407930606281 0.0099311474938215127 0 0 0 -0.019006935432124894 -0.12103210145684173 0.0025067072872988205 0 0.0025067072872988205 0.0074584735567729266 0 0 0 -0.028393406975017188 -0.11859322881236442 -0.0021003972617655853 0 -0.0021003972617655853 0.0046605269556765361 0 0 0 -0.028483175464171923 -0.17617354770975058 0.00051873516748751625 0 0.00051873516748751625 0.0049419293538020548 0 0 0 -0.042807904588987145 -0.12664162531936288 -0.0050194716261120764 0 -0.0050194716261120764 0.002748754161365996 0 0 0 -0.030973217789499213 -0.17642961570592397 -0.0071866382832773829 0 -0.0071866382832773829 0.0032454218554480718 0 0 0 -0.043296048462618968 -0.1309723827547849 -0.00072014462254631206 0 -0.00072014462254631206 -0.0013533141206572008 0 0 0 -0.033081424218860511 -0.10196244352726366 -0.017051660745071862 0 -0.017051660745071862 0.0064380575216965649 0 0 0 -0.023881096501391755 -0.12040279831066966 -0.015812383170969016 0 -0.015812383170969016 0.0046945200852359648 0 0 0 -0.028927069556358403 0.052945691085341307 0.01937173696465724 0 0.01937173696465724 0.022638245880436954 0 0 0 0.018895984241444563 0.054780014725698011 0.020264018883060654 0 0.020264018883060654 0.027012870590936461 0 0 0 0.020448221329158623 0.058342398132928699 0.022250047072886907 0 0.022250047072886907 0.02806377878256041 0 0 0 0.021601544228872269 0.044459913040151566 0.019227333677832314 0 0.019227333677832314 0.035495006352435785 0 0 0 0.019988729848146845 0.033348069491154653 0.015208040603166278 0 0.015208040603166278 0.041183004546504282 0 0 0 0.018632768509414737 0.039083157148477224 0.016215642031945397 0 0.016215642031945397 0.024265695834433151 0 0 0 0.01583721324572759 0.027588631295429107 0.011446350573684136 0 0.011446350573684136 0.028847749694898044 0 0 0 0.014109095247581782 0.044826024071349495 0.017366612517050017 0 0.017366612517050017 0.026221727713327734 0 0 0 0.017761937946169318 0.035503908625709776 0.012125097423544683 0 0.012125097423544683 0.014340171144265251 0 0 0 0.012461019942493766 0.035581017454394508 0.013560703993478387 0 0.013560703993478387 0.023244659500111307 0 0 0 0.014706419238626455 0.035103679499089824 0.0097779811544721068 0 0.0097779811544721068 0.0068335139593092356 0 0 0 0.010484298364599775 0.041672554020976693 0.013932066814694511 0 0.013932066814694511 0.015618808087636701 0 0 0 0.014322840527153363 0.043714550074837918 0.011420385174986586 0 0.011420385174986586 0.0047904939025025309 0 0 0 0.012126260994335111 0.043920208870729435 0.01396082492161747 0 0.01396082492161747 0.014592880400784013 0 0 0 0.014628272317878378 0.050400739225956233 0.015443161394388585 0 0.015443161394388585 0.012996831778762572 0 0 0 0.015849392751179695 0.05288902689052654 0.0094732769348304172 0 0.0094732769348304172 0.0024755956846753517 0 0 0 0.013841155643800486 0.046833578754696237 0.0072320110172389429 0 0.0072320110172389429 0.0020476631282383626 0 0 0 0.012220310470733655 0.044803706919240981 -0.0033171414158525954 0 -0.0033171414158525954 -0.0070991641529144205 0 0 0 0.0094261356915816413 0.057379415684300147 0.0017504773342192637 0 0.0017504773342192637 0.0011599916439787097 0 0 0 0.014634851832069709 0.055243385568631037 0.0024549080925589141 0 0.0024549080925589141 4.7128242154035119e-05 0 0 0 0.013822628452696276 0.057264285243394789 0.0128677221105244 0 0.0128677221105244 0.010618795349869259 0 0 0 0.016970770148316022 0.042254792808536577 -0.0085696882150020966 0 -0.0085696882150020966 -0.0044845662373293616 0 0 0 0.0094425566428017974 0.051685539983157155 -0.010911104379049108 0 -0.010911104379049108 -0.0036557047270457874 0 0 0 0.012007458814027847 0.057406886173795003 -0.0035779189777179268 0 -0.0035779189777179268 0.0051175763540949742 0 0 0 0.015631115631972489 0.065414143244325179 -0.0070516164267908302 0 -0.0070516164267908302 0.010189037789758798 0 0 0 0.018900795258521008 0.0765681186111421 0.0044880080459059335 0 0.0044880080459059335 0.021411423228371911 0 0 0 0.024494885459878501 0.065581810381280109 0.014221697573483856 0 0.014221697573483856 0.012597207149731629 0 0 0 0.019544754382752941 0.074181699794359124 0.0089108866360404233 0 0.0089108866360404233 0.010202276320854353 0 0 0 0.021095994028803366 0.063320046495519866 0.012957588591508317 0 0.012957588591508317 0.018485870304411095 0 0 0 0.02045147919998274 0.080582314577389638 0.017234404959591956 0 0.017234404959591956 0.022233681730974435 0 0 0 0.025703999077091012 0.068089638556227336 0.027425341379495281 0 0.027425341379495281 0.049419719964197528 0 0 0 0.029377339630106206 0.10129327270367983 0.028182036272806563 0 0.028182036272806563 0.04520450984049193 0 0 0 0.036624445636042967 0.082323496103193602 0.027800581018743178 0 0.027800581018743178 0.073410897119678825 0 0 0 0.038933598305718117 0.063039783010733111 0.031884312928980758 0 0.031884312928980758 0.080032193606560484 0 0 0 0.035767994154323399 0.074922497647009187 0.025725966949288449 0 0.025725966949288449 0.051741139287198645 0 0 0 0.031665909233551962 0.09857990866366495 -0.0040441787019813158 0 -0.0040441787019813158 0.035408713115448381 0 0 0 0.033497155444778319 0.099644317964355245 0.0074465587675415362 0 0.0074465587675415362 0.06143035775324121 0 0 0 0.040268668929399107 0.10479545886596783 -0.021459350578996284 0 -0.021459350578996284 0.052304765354303506 0 0 0 0.039275056055067814 0.18128293380351232 -0.0094662183461531046 0 -0.0094662183461531046 0.094117705566824972 0 0 0 0.068850159842584302 0.11712087910642784 -0.0054065357829798655 0 -0.0054065357829798655 0.2224534152133093 0 0 0 0.084893573579934267 0.17094006169517328 0.079311263720648451 0 0.079311263720648451 0.1584663174812862 0 0 0 0.082351594794114857 0.085035904323285935 0.048207139542854868 0 0.048207139542854868 0.13705263358001332 0 0 0 0.055522134475824797 0.041858191021247576 0.022693935851783656 0 0.022693935851783656 0.075057789137166264 0 0 0 0.029228995039603439 0.081789662182784037 0.031773323560231936 0 0.031773323560231936 0.074537503399878885 0 0 0 0.039081791395665713 0.044239137931518645 -0.012346083906038613 0 -0.012346083906038613 0.15740845850535012 0 0 0 0.050411899109217138 0.031234089830200391 -0.0128939773729933 0 -0.0128939773729933 0.086837820418651152 0 0 0 0.029517977562212878 0.032148827392427352 -0.012907454657836135 0 -0.012907454657836135 0.093570647272283342 0 0 0 0.031429868666177689 0.045711322652915026 0.022653389158266563 0 0.022653389158266563 0.088375249538870743 0 0 0 0.033521643047946477 0.046503361780696799 0.021909903661561744 0 0.021909903661561744 0.048643729024589535 0 0 0 0.023786772701321575 0.039343658045649321 0.018356911915605803 0 0.018356911915605803 0.078390198048074677 0 0 0 0.029433464023431014 0.027197510282441072 0.010598963660139267 0 0.010598963660139267 0.051225109443225711 0 0 0 0.019605654931416687 0.037929463869018326 0.018509177768300113 0 0.018509177768300113 0.06250194027080791 0 0 0 0.025107851034956562 0.041751951367474879 0.019125936479209571 0 0.019125936479209571 0.034876143854701357 0 0 0 0.019157023805544054 0.051265981446732334 0.025712146882152134 0 0.025712146882152134 0.053088439063824044 0 0 0 0.026088605127639095 0.026547314967686825 0.012290612624646476 0 0.012290612624646476 0.037506477661579378 0 0 0 0.016013448157316552 0.026487863608646273 0.011214146782925321 0 0.011214146782925321 0.054492700789052585 0 0 0 0.020245141099424727 0.027259297741285847 -0.012128090220592502 0 -0.012128090220592502 0.059196952760552653 0 0 0 0.021614062625459618 0.019611546332192906 0.00024681229601651166 0 0.00024681229601651166 0.055527774926777518 0 0 0 0.018784830314742613 0.017357524308970217 0.0021138971902268469 0 0.0021138971902268469 0.047388751475083056 0 0 0 0.016186568946013329 0.028273767544678384 0.007689607108846936 0 0.007689607108846936 0.072428059620605237 0 0 0 0.025175456791320903 0.022335613196163541 -0.010673009643373504 0 -0.010673009643373504 0.045749382025552988 0 0 0 0.017021248805429136 0.021309778530622395 -0.01028970529812662 0 -0.01028970529812662 0.038471814959040868 0 0 0 0.014945398372415812 0.035661404422429543 -0.021884109892195587 0 -0.021884109892195587 0.042632998592685524 0 0 0 0.019573600753778758 0.03026259326180003 -0.020030104484694229 0 -0.020030104484694229 0.021380642872274341 0 0 0 0.012910809033518614 0.022221387800875403 -0.013329650165825196 0 -0.013329650165825196 0.018713257236877001 0 0 0 0.010233661259438087 0.03627030179139841 -0.020012485078396855 0 -0.020012485078396855 0.022608440076134405 0 0 0 0.014719685466883205 0.036552749204592949 -0.019388573197623129 0 -0.019388573197623129 0.023486978272076409 0 0 0 0.015009931869167339 0.028499094497269034 -0.014777961023004937 0 -0.014777961023004937 0.0086185339995728527 0 0 0 0.0092794071242104648 0.055829562710896605 -0.0094187649239033423 0 -0.0094187649239033423 0.010933007121194938 0 0 0 0.016690642458022903 0.045772853772299685 -0.01413536428098533 0 -0.01413536428098533 0.0020543206436040296 0 0 0 0.011956793603975939 0.04991951211885938 -0.017623404669386972 0 -0.017623404669386972 0.0085733883145207024 0 0 0 0.014623225108344989 0.067569074555897307 -0.031790625002052958 0 -0.031790625002052958 0.031107563016787659 0 0 0 0.024669159393171214 0.026720912497329771 -0.012682722613294081 0 -0.012682722613294081 0.059544382471471341 0 0 0 0.021566323742200282 0.040642273497140724 -0.025132236563074652 0 -0.025132236563074652 0.03966386164273708 0 0 0 0.020076533784969437 0.041192425368133521 -0.027771159768822686 0 -0.027771159768822686 0.049025718295687498 0 0 0 0.022554535915955264 0.046528773948840779 -0.034324715906819896 0 -0.034324715906819896 0.074780811720668083 0 0 0 0.030327396417377195 0.028745009302513468 -0.030108732662707076 0 -0.030108732662707076 0.099175732970427227 0 0 0 0.031980185568235169 0.055586935571004699 -0.029491813282176892 0 -0.029491813282176892 0.098922538116852116 0 0 0 0.038627368421964195 0.078730652228243325 -0.0070197710106002405 0 -0.0070197710106002405 0.28489722836484133 0 0 0 0.090906970148271191 0.068634965647726157 -0.010974685958706473 0 -0.010974685958706473 -0.010976517881478132 0 0 0 0.014414611941562024 0.090169592080315331 -0.048220445510961038 0 -0.048220445510961038 0.059189013861099482 0 0 0 0.037339651485353668 0.1604901402586959 0.10714608441260931 0 0.10714608441260931 0.18339226734793201 0 0 0 0.085970601901656923 0.087462352662758799 -0.069294506923713917 0 -0.069294506923713917 0.12112787446001862 0 0 0 0.052147556780694368 0.0056951983122534352 0.0010630579845493206 0 0.0010630579845493206 0.015699952292593685 0 0 0 0.0053487876512117796 0.27280699470711328 0.086436443979212643 0 0.086436443979212643 0.050884944760569706 0 0 0 0.080922984866920789 0.14212593736824325 0.022673882305980164 0 0.022673882305980164 0.027098167611142809 0 0 0 0.042306026244846584 0.013465764635494693 0.0026037066914209655 0 0.0026037066914209655 0.040452703931924093 0 0 0 0.013479617141854697 0.022799529704138594 0.0042061150533041908 0 0.0042061150533041908 0.035337896863317231 0 0 0 0.014534356641863949 0.14851525639185992 0.023850945967633042 0 0.023850945967633042 0.024222994003384846 0 0 0 0.043184562598811163 0.019507560588175064 0.0037239303048592068 0 0.0037239303048592068 0.058257523714377521 0 0 0 0.019441271075638145 0.033268121193888556 0.0080821758182253178 0 0.0080821758182253178 0.04305660609962414 0 0 0 0.019081181823378229 0.11111993956397048 0.022288327953843945 0 0.022288327953843945 0.016803112070907789 0 0 0 0.031980762908719595 0.055627320084604484 -0.016280725616674166 0 -0.016280725616674166 -0.0041182868201974643 0 0 0 0.012877258316101772 0.055409065573501677 0.0045991434227855843 0 0.0045991434227855843 0.026231035835112576 0 0 0 0.020410025352153596 0.05448002073588884 -0.0052326593881970654 0 -0.0052326593881970654 0.01899437691430117 0 0 0 0.018368599412547496 0.054391528372028972 -0.0017792137338579206 0 -0.0017792137338579206 0.012040781054587113 0 0 0 0.016608077356654025 0.045622984449525228 0.004538321260624617 0 0.004538321260624617 0.018872450348508207 0 0 0 0.016123858699508331 0.053609791763056774 0.0043294533588020649 0 0.0043294533588020649 0.04512777508165644 0 0 0 0.024684391711178338 0.050578309282226161 0.007974254059879865 0 0.007974254059879865 0.052426881298015537 0 0 0 0.025751297645060386 0.052548326927446098 0.0018110424079499088 0 0.0018110424079499088 0.019410248937197006 0 0 0 0.01798964396616079 0.10197104539422164 0.019055558371008946 0 0.019055558371008946 0.01944968117747381 0 0 0 0.030355181642923834 0.11045747206855694 0.01299225708985885 0 0.01299225708985885 0.048425103453896279 0 0 0 0.03972064388061336 0.13403044325856495 0.0093913183676787026 0 0.0093913183676787026 0.044706253771039428 0 0 0 0.04468417425740101 0.025068421386105925 0.0045165434077949224 0 0.0045165434077949224 0.075027309408308041 0 0 0 0.025023932698603493 0.12119034381627236 0.011799034666122199 0 0.011799034666122199 0.051515024140303955 0 0 0 0.043176341989144107 0.11094994858599394 0.0084561218921868075 0 0.0084561218921868075 0.050231837835061022 0 0 0 0.040295446605263741 0.091298573577795694 0.019988496137560041 0 0.019988496137560041 0.048909327597554952 0 0 0 0.035051975293837634 0.11726782211412856 0.010867415732886205 0 0.010867415732886205 0.064691927493336632 0 0 0 0.045489937401866021 0.064494998241806822 0.0079144788058063791 0 0.0079144788058063791 0.070354691647748879 0 0 0 0.033712422472389036 0.03078729374290335 0.0051171733702223407 0 0.0051171733702223407 0.092166923751538732 0 0 0 0.030738554373610522 0.098233567458536397 0.010482395141262257 0 0.010482395141262257 0.06493044653011415 0 0 0 0.040791003497162803 0.050869923735610778 0.0061555780125562287 0 0.0061555780125562287 0.033811036858238053 0 0 0 0.021170240148462194 0.046589974739608547 0.0028806997987788213 0 0.0028806997987788213 0.017426540244497635 0 0 0 0.016004128746026552 0.060009325262146501 0.0036532795347239133 0 0.0036532795347239133 0.06006151403657034 0 0 0 0.030017709824679134 0.052080605541779512 0.0037811299297229595 0 0.0037811299297229595 0.036030893588047397 0 0 0 0.022027874782456658 0.058470739995688192 0.0058626400388006872 0 0.0058626400388006872 0.03963066111097846 0 0 0 0.024525350276666635 0.044036697171124101 0.0022792144339212339 0 0.0022792144339212339 0.012321550867315012 0 0 0 0.014089562009609785 0.039750070962485201 0.0018295412442807524 0 0.0018295412442807524 0.014068980656170016 0 0 0 0.013454762904663714 0.04630564006104318 0.0025688309252302755 0 0.0025688309252302755 0.013126350197773987 0 0 0 0.014857997564704319 0.039623708224831466 -0.0053045620413928185 0 -0.0053045620413928185 0.0021526843935743001 0 0 0 0.010444098154601511 0.038612271315210139 -0.0016866779388503006 0 -0.0016866779388503006 0.0032592562142241821 0 0 0 0.010467881882358587 0.028383492409990756 -0.0034627427024593316 0 -0.0034627427024593316 0.00048843048491801003 0 0 0 0.0072179807237271847 0.031289826850769226 -0.0059402381895509448 0 -0.0059402381895509448 0.002297209817747059 0 0 0 0.008396759167129092 0.030301611408622753 -0.010061647665963298 0 -0.010061647665963298 0.0017545740800335441 0 0 0 0.0080140463721640742 0.034858949709482438 -0.0045321044478039973 0 -0.0045321044478039973 0.0027724791609743428 0 0 0 0.0094078572176141597 0.038673430941555842 -0.0085633189449261932 0 -0.0085633189449261932 0.0013109594205082953 0 0 0 0.0099960975905160343 0.028399925111408625 -0.011053311806621613 0 -0.011053311806621613 0.00036388311895813041 0 0 0 0.0071909520575916819 0.03789544684049953 -0.014165051792902141 0 -0.014165051792902141 0.0057140556484651661 0 0 0 0.010902375622241223 0.028828074151398438 -0.014285322300568976 0 -0.014285322300568976 0.0086127052069458337 0 0 0 0.0093601948395860331 0.040159279449682658 -0.009353154449120521 0 -0.009353154449120521 0.0013847782303375439 0 0 0 0.010386014420005085 0.044776928132599536 -0.0024637089168214887 0 -0.0024637089168214887 0.002813433909706009 0 0 0 0.011897590510576372 0.047775482775814643 -0.0044024401028081722 0 -0.0044024401028081722 0.0066615545292602052 0 0 0 0.013609259326268691 -0.10442417705601437 0.0071869399705106751 0 0.0071869399705106751 0.00026765383127536069 0 0 0 -0.026039130806184807 -0.12728929823775698 0.011612812365193848 0 0.011612812365193848 0.0021465727049185812 0 0 0 -0.031285681383209585 -0.088571000360919583 0.028385780091575608 0 0.028385780091575608 0.0097665933171360297 0 0 0 -0.019701101760945749 -0.15941948480957285 0.011051212577803837 0 0.011051212577803837 0.002457248462728101 0 0 0 -0.039240559086711257 -0.15967883160934532 0.0075489237793303077 0 0.0075489237793303077 0.0055401150623801687 0 0 0 -0.038534679136741301 -0.099983361446175312 0.0073310788699320339 0 0.0073310788699320339 0.0013764322718841093 0 0 0 -0.024651732293572759 -0.10715980340444134 0.01354650821484718 0 0.01354650821484718 0.0025707997378170422 0 0 0 -0.026147250916656123 -0.078070491549055598 0.026942758250748322 0 0.026942758250748322 0.015324940299435319 0 0 0 -0.015686387812405056 -0.049093337818889804 0.026118630995446424 0 0.026118630995446424 0.014814871969066723 0 0 0 -0.008569616462455798 -0.032577772680349781 0.035932719944543487 0 0.035932719944543487 0.031221784238719907 0 0 0 -0.00033899711040741298 -0.049042159287628007 0.022138786973130514 0 0.022138786973130514 0.0034337743396983811 0 0 0 -0.011402096236982406 -0.042755518002585507 0.039169679750848729 0 0.039169679750848729 0.012896306407602143 0 0 0 -0.0074648028987458759 -0.068649400352789658 0.020388863330034812 0 0.020388863330034812 0.00063149408029583576 0 0 0 -0.017004476568123428 -0.030929943032111384 0.030609419508275615 0 0.030609419508275615 0.0034808719272363398 0 0 0 -0.0068622677762187889 0.035472027127531502 0.048561533962804493 0 0.048561533962804493 0.012931047633108594 0 0 0 0.012100768690159969 0.0024657967620979049 0.037794225014046043 0 0.037794225014046043 0.0096683246788944466 0 0 0 0.0030335303602480046 0.051331063765574253 0.056757821556340904 0 0.056757821556340904 0.033715681329552993 0 0 0 0.021261686273781805 0.0017979438205852905 0.041829589588861626 0 0.041829589588861626 0.011827952012826826 0 0 0 0.003406473958353029 -0.042615142315631405 0.018842450110203773 0 0.018842450110203773 0.016350446412064956 0 0 0 -0.0065661739758915982 -0.0084266009182195067 0.040234235384789985 0 0.040234235384789985 0.046860179913006283 0 0 0 0.0096083947486966803 0.0013932140975524421 0.030955765951521969 0 0.030955765951521969 0.032273843278162406 0 0 0 0.0084167643439287398 0.041428620495444435 0.051855476733001615 0 0.051855476733001615 0.075385397447761626 0 0 0 0.029203504485801501 0.056831889621375142 0.056459664487918892 0 0.056459664487918892 0.12479722829088524 0 0 0 0.04540727947806511 0.093851715704614438 0.066466280797807697 0 0.066466280797807697 0.043538519451037136 0 0 0 0.034347558788912949 0.10593145085368447 0.06117326253150035 0 0.06117326253150035 0.045730200164080775 0 0 0 0.037915412754441297 0.061040867177918345 0.037916678677623744 0 0.037916678677623744 0.012753823948375764 0 0 0 0.018448672781573472 0.085296785157744276 0.046484621625416556 0 0.046484621625416556 0.017377164486417795 0 0 0 0.025668487411040525 0.105549215281317 0.019958593320535845 0 0.019958593320535845 0.019123457505506813 0 0 0 0.03116816819670587 0.051549475266131184 0.032228820750825116 0 0.032228820750825116 0.0061330802328058986 0 0 0 0.014420638874734326 0.052833179133162989 0.038272876909457132 0 0.038272876909457132 0.0057920964634696759 0 0 0 0.014656318899158194 0.083264387018693764 0.025084382293567797 0 0.025084382293567797 0.016727377957024725 0 0 0 0.024997941243929511 0.081839695892008457 0.023449459741490264 0 0.023449459741490264 0.020969568762535973 0 0 0 0.025702316163636052 0.085342199378321548 0.01837363390636837 0 0.01837363390636837 0.026600191021131536 0 0 0 0.027985597599863299 0.072596509600192149 0.026239255875364131 0 0.026239255875364131 0.022356435022789174 0 0 0 0.023738236155745333 0.051852846551125487 0.029041569526089717 0 0.029041569526089717 0.010852693903315336 0 0 0 0.015676385113610303 0.051515927996583333 0.034785797684930092 0 0.034785797684930092 0.0062482946910549231 0 0 0 0.014441055671909453 0.017676189328773947 0.029631105330101715 0 0.029631105330101715 0.0041064352750152244 0 0 0 0.0054456561509473173 0.021442614660876089 0.033684744115851872 0 0.033684744115851872 0.0046776950940446982 0 0 0 0.0065300774387301724 0.016473613087962358 0.031398772051233703 0 0.031398772051233703 0.0036859584303674531 0 0 0 0.0050398928795822862 -0.016040421708721886 0.035937838506590825 0 0.035937838506590825 0.002691189732578092 0 0 0 -0.0033373079940360872 0.019201739556765962 0.038128937674908547 0 0.038128937674908547 0.003864056734452781 0 0 0 0.005766449072804547 0.029703882762794925 0.030517599148444985 0 0.030517599148444985 0.001083625892951301 0 0 0 0.0076968771639364386 -0.0037412380982793092 0.033052930190903107 0 0.033052930190903107 0.0012792120842541888 0 0 0 -0.00061550650350616909 -0.014527226713235017 0.041634259799684492 0 0.041634259799684492 0.005264020582487372 0 0 0 -0.0023158015326868314 -0.038823824199499923 0.025372588005324603 0 0.025372588005324603 -0.0012866852171273813 0 0 0 -0.010027627354156854 -0.050901252756189862 0.033193875843901877 0 0.033193875843901877 0.0052832620717998963 0 0 0 -0.011404497671097545 -0.046063952997303481 0.021193217375946184 0 0.021193217375946184 9.5085064926170304e-05 0 0 0 -0.011492216983094217 -0.044631725570592584 0.032501462443029094 0 0.032501462443029094 0.0011659340006985319 0 0 0 -0.010866447892473374 -0.014958455651629121 0.032450290888817734 0 0.032450290888817734 -0.00088515940778366442 0 0 0 -0.0039609037648533629 -0.011593341187066369 0.035241030574319598 0 0.035241030574319598 -0.0045232946568124488 0 0 0 -0.0040291589609695866 -0.029207520523485863 0.026887383600279424 0 0.026887383600279424 0.001936857807719876 0 0 0 -0.0068176656789413854 -0.041075789689356546 0.022236492226527682 0 0.022236492226527682 -0.0020192319142369186 0 0 0 -0.010773755400898311 -0.055887515420894207 0.026974444330193692 0 0.026974444330193692 0.001408407337632589 0 0 0 -0.013619777020815294 -0.079313244545114792 0.0099413322023071959 0 0.0099413322023071959 4.9518974473139465e-05 0 0 0 -0.019815931392660247 -0.046930974933912628 0.010454091296723034 0 0.010454091296723034 0.0023133386370512987 0 0 0 -0.011154409074215277 -0.064819071445740728 0.010708343572483292 0 0.010708343572483292 0.0025060106547716288 0 0 0 -0.015578265197742192 -0.10758917057983353 0.0092737692636768454 0 0.0092737692636768454 6.3889842864872648e-05 0 0 0 -0.026881320184242274 -0.081353833346042626 0.022785196177890099 0 0.022785196177890099 0.001994798967286382 0 0 0 -0.019839758594688783 -0.078893708094043724 0.01196093760135096 0 0.01196093760135096 -0.00096069161119727298 0 0 0 -0.019963599926310249 -0.012091446540230796 0.011792928795742119 0 0.011792928795742119 0.0041707981523406434 0 0 0 -0.0019801620969720907 -0.032321331255390273 0.0091256304950928513 0 0.0091256304950928513 -0.0027489439047125863 0 0 0 -0.0087675687900257149 -0.015378523221967644 0.016528637703384863 0 0.016528637703384863 0.0014835146774254682 0 0 0 -0.0034737521361352108 -0.040047628124552759 0.0095499609713063371 0 0.0095499609713063371 0.0021274549564744838 0 0 0 -0.0094800432920196798 -0.037707778059842156 0.0077049982328050159 0 0.0077049982328050159 0.00044635525725933434 0 0 0 -0.0093153557006461218 -0.061619745890257427 0.0099764863823957883 0 0.0099764863823957883 0.00040637999848236461 0 0 0 -0.015303341472943988 -0.052201368687367911 0.018179535783936773 0 0.018179535783936773 -0.0010322864812470911 0 0 0 -0.013308413792153972 -0.040051043466774461 0.016158733694845745 0 0.016158733694845745 -0.00042102922003195431 0 0 0 -0.010118018171701326 -0.026495076887018021 0.025851666638750687 0 0.025851666638750687 -0.00068679067567778418 0 0 0 -0.0067954668906740068 -0.024029050178705269 0.019709826350044368 0 0.019709826350044368 0.0029923101824316234 0 0 0 -0.0052591849990686335 -0.014298039881620817 0.023039242784407943 0 0.023039242784407943 -0.00041699205852196997 0 0 0 -0.0036787579850354746 -0.0037208286029259963 0.022253780339101192 0 0.022253780339101192 0.0023022581605358639 0 0 0 -0.00035464261059714453 -0.0032409327658431408 0.020716299052285114 0 0.020716299052285114 0.0010228434184247348 0 0 0 -0.00055452233685460151 -0.018734329062833566 0.023432164642472442 0 0.023432164642472442 0.00061992380294451088 0 0 0 -0.0045286013149722359 -0.0013877923010837401 0.022107906702395264 0 0.022107906702395264 0.0019431507851037089 0 0 0 0.0001388396210048326 0.019622791878925128 0.023028206064450885 0 0.023028206064450885 0.0049794599513641735 0 0 0 0.0061505629575719922 0.02090013966429316 0.024318398654394002 0 0.024318398654394002 0.0083286713511010468 0 0 0 0.0073072027538485518 0.037481674799458409 0.023825397812348603 0 0.023825397812348603 0.0094036052609367538 0 0 0 0.011721320015098957 -0.0018707463616443043 0.027648434924617077 0 0.027648434924617077 0.0012269473422685806 0 0 0 -0.0001609497548438199 -0.0046654452949392855 0.031912386645230092 0 0.031912386645230092 -0.0012470714691596996 0 0 0 -0.0014781291910246352 0.016364048608381476 0.026109341004794784 0 0.026109341004794784 0.0027983101273316713 0 0 0 0.0047905896839283146 0.014948352979589741 0.024736829877098243 0 0.024736829877098243 0.0052460953842352609 0 0 0 0.0050486120909563059 0.03290399294573354 0.031253785845200888 0 0.031253785845200888 0.0060786854875436447 0 0 0 0.0097456696083195737 0.017911362403945308 0.026891912387520672 0 0.026891912387520672 0.0083184083623670801 0 0 0 0.0065574426915784301 0.052225387129750889 0.020858589962694074 0 0.020858589962694074 0.02065696695437147 0 0 0 0.018220588521030701 0.051932130272447807 0.023588039253200278 0 0.023588039253200278 0.023709570746545339 0 0 0 0.018910425254748287 0.047268906563283419 0.026595578734507574 0 0.026595578734507574 0.010330289956218319 0 0 0 0.014399799129875435 0.062313139587683697 0.025651221228857102 0 0.025651221228857102 0.024653416645268988 0 0 0 0.021741639058238338 0.08092602952239325 0.01406239148762356 0 0.01406239148762356 0.049168542380526148 0 0 0 0.032523642975729627 0.063465185885752673 0.018007353297419204 0 0.018007353297419204 0.028267735577723663 0 0 0 0.022933230365868917 0.072057482119284977 0.022110841399028747 0 0.022110841399028747 0.04910088749594177 0 0 0 0.030289592403806243 0.041998270387496046 0.028099767994088864 0 0.028099767994088864 0.017939133347396746 0 0 0 0.014984350933722974 0.051025257062967011 0.023361984637037869 0 0.023361984637037869 0.026717608559749695 0 0 0 0.019435716405679315 0.080231338077914272 0.0095248610811671242 0 0.0095248610811671242 0.042732098165701338 0 0 0 0.030740859060903958 0.055831698342894143 0.0042854619139087724 0 0.0042854619139087724 0.027673348004089604 0 0 0 0.020876261586746159 0.088992028692052028 0.017048860220373108 0 0.017048860220373108 0.044424778890800098 0 0 0 0.033354201895713143 0.070489214866577221 0.009211998159065482 0 0.009211998159065482 0.029272013882331471 0 0 0 0.024940307187227173 0.098004860290063167 -0.0060236427443702834 0 -0.0060236427443702834 0.054976140327411827 0 0 0 0.038245250154368637 0.10750135907772007 0.010181482937622555 0 0.010181482937622555 0.055309025926638888 0 0 0 0.040702596251089851 0.077072219355502014 -0.0077109506118531179 0 -0.0077109506118531179 0.013619002695476112 0 0 0 0.022672805512744532 0.044931346016163332 0.00049539144378707434 0 0.00049539144378707434 0.014630765332245055 0 0 0 0.01489052783710143 0.018771348312997649 0.01330583137702563 0 0.01330583137702563 -0.0027440991480158772 0 0 0 0.0040068122912453319 0.018349537851252595 0.007651145650671376 0 0.007651145650671376 -0.0040095305331258047 0 0 0 0.0035850018295318087 0.036916894259344968 0.0052904387061492308 0 0.0052904387061492308 -0.013479399759286359 0 0 0 0.0058593736250145412 0.019474270229912216 0.019846173401657216 0 0.019846173401657216 0.0020214063774313118 0 0 0 0.0053739191518358265 0.045208267947208114 0.015612795582463368 0 0.015612795582463368 0.0097632338537287922 0 0 0 0.013742875450234227 0.021886976140773839 0.01723144132903931 0 0.01723144132903931 0.0080952300542329603 0 0 0 0.0074955515487515889 0.044253757159652629 0.01854642325797623 0 0.01854642325797623 0.013200487749275958 0 0 0 0.014363561227232147 0.001325430247070547 0.019300617831919276 0 0.019300617831919276 -0.00059905001008520031 0 0 0 0.00018159505924630892 -0.015826686638562792 0.014113136688787442 0 0.014113136688787442 -0.0021363709867552316 0 0 0 -0.0044907644063294505 0.0031670298277011177 0.013162981808396368 0 0.013162981808396368 -0.0027105567106060491 0 0 0 0.00011411827927387819 -0.0032050276328052796 0.01362518544291369 0 0.01362518544291369 0.00181268621184838 0 0 0 -0.00034808535523911388 0.0023389724853162264 0.014446052210166815 0 0.014446052210166815 -0.0072721055503093268 0 0 0 -0.0012332832662482751 0.0062644297439518049 0.0066499086935709606 0 0.0066499086935709606 -0.016877565833376629 0 0 0 -0.002653284022356317 0.0027264441215346658 0.0046070067120926872 0 0.0046070067120926872 -0.009231951638464686 0 0 0 -0.0016263768792326161 0.010092440262583935 0.0076986674728402038 0 0.0076986674728402038 -0.0043622246856465097 0 0 0 0.0014325538942348004 0.0020049870180367524 0.0088679169642165157 0 0.0088679169642165157 -0.00544715046425015 0 0 0 -0.00086054086155340492 -0.0029327267252390321 0.0063751182215086022 0 0.0063751182215086022 -0.0031311392036297292 0 0 0 -0.0015159664822164132 0.0027236477636077838 0.0028610541531817191 0 0.0028610541531817191 -0.0018733093612008922 0 0 0 0.00021258460060213924 0.00093360191765601286 0.0018612891495244366 0 0.0018612891495244366 -7.6140686405601343e-05 0 0 0 0.00021436530781260288 -0.00085947339900394049 0.0023497034037673892 0 0.0023497034037673892 -0.00061698188793180009 0 0 0 -0.00036911382173454577 0.00074722566307672267 0.0041458098094822038 0 0.0041458098094822038 0.0028360277097174702 0 0 0 0.00089581334319799311 -0.0088797574236321175 0.0060688845958569715 0 0.0060688845958569715 0.0035044586748407269 0 0 0 -0.0013438246871975146 -0.0080950745681158398 0.0066838786987075682 0 0.0066838786987075682 -0.00074918197759910043 0 0 0 -0.0022110641364292138 -0.02352768262510696 0.0073435759795217326 0 0.0073435759795217326 -0.0014467654904706251 0 0 0 -0.0062436120288942298 0.031689600635675053 0.0003915521642823272 0 0.0003915521642823272 0.0053755860071875716 0 0 0 0.0092662966607156561 0.04984284224944957 0.0031287673777255776 0 0.0031287673777255776 0.026676698525640585 0 0 0 0.019129885193772567 0.052494142522559434 0.0060911146158759144 0 0.0060911146158759144 0.022141492253710982 0 0 0 0.018658908694067639 0.041826519388100558 0.0078418570120173114 0 0.0078418570120173114 0.010957866956624818 0 0 0 0.013196096586181372 0.026994746806499569 0.0031140380619498753 0 0.0031140380619498753 -0.002608813821854062 0 0 0 0.0060964832461613766 0.017854100793265937 -0.00053477956953573019 0 -0.00053477956953573019 -0.0019642291856585281 0 0 0 0.0039724679019018105 0.01842018302129439 -0.0046314155581902994 0 -0.0046314155581902994 -0.0056166545680602642 0 0 0 0.0032008821133085452 0.02764883712662744 -0.0012486874288124838 0 -0.0012486874288124838 0.00080669404479777329 0 0 0 0.0071138827928563242 0.020799333447366342 -0.0040020165554148501 0 -0.0040020165554148501 0.00046662771929972813 0 0 0 0.0053164902916665313 0.021850247849148213 -0.0047969581456265009 0 -0.0047969581456265009 0.00047125285899041192 0 0 0 0.0055803751770346077 0.037904071063622063 0.0012952648483003648 0 0.0012952648483003648 0.0064283575690080585 0 0 0 0.011083107158157524 0.036606590124759308 0.00086650897432061225 0 0.00086650897432061225 0.0060293225780413406 0 0 0 0.010658978175700135 0.028247118534466729 0.0026095852347965409 0 0.0026095852347965409 0.0060115749192095613 0 0 0 0.0085646733634191161 0.041415700207171224 0.0052631431512340423 0 0.0052631431512340423 0.020230841490147089 0 0 0 0.015411635424329551 0.047307887067376375 0.0048782402724325546 0 0.0048782402724325546 0.019454434617387384 0 0 0 0.016690580421190981 0.055061386555998654 0.0045621887472531708 0 0.0045621887472531708 0.042689135064022721 0 0 0 0.024437630405005323 0.070602867463745556 0.0043521186819007185 0 0.0043521186819007185 0.077813978741796963 0 0 0 0.037104211551385602 0.084067228222011625 0.0035287878424070662 0 0.0035287878424070662 0.092232872145589284 0 0 0 0.0440750250919002 0.068756980525504968 0.0076684344214452693 0 0.0076684344214452693 0.047620033772802162 0 0 0 0.029094253574576706 0.095669767490957069 0.021114809476681984 0 0.021114809476681984 0.059696174349615494 0 0 0 0.038841485460142822 0.12060914006300938 0.0079508658982917427 0 0.0079508658982917427 0.087747545789794046 0 0 0 0.052089171463200801 0.082331407775297183 0.0076758624900903905 0 0.0076758624900903905 0.082796740738330876 0 0 0 0.041282037128407001 0.036727481369730586 0.0055512243229509121 0 0.0055512243229509121 0.10996329844453825 0 0 0 0.03667269495356721 0.085975871206914078 0.017876908525158886 0 0.017876908525158886 0.046009026420592125 0 0 0 0.03299622440687644 0.10186427278156485 0.013243299671083619 0 0.013243299671083619 0.091307362259060998 0 0 0 0.048292908760156461 0.10140093969174635 0.0058143367097910348 0 0.0058143367097910348 0.084841150108614372 0 0 0 0.046560522450090236 0.042966277673173084 0.0058018493279220762 0 0.0058018493279220762 0.12872519166093643 0 0 0 0.042922867333527376 0.10260411926386653 0.0078450509850731542 0 0.0078450509850731542 0.097180533073184971 0 0 0 0.049946163084262807 0.12098356397434007 0.012355285353730538 0 0.012355285353730538 0.093990001155805025 0 0 0 0.053743391282536357 0.049672030592853529 0.0059283950218939931 0 0.0059283950218939931 0.14855937096140059 0 0 0 0.049557850388563536 0.097564082779175776 0.018823042817430524 0 0.018823042817430524 0.080741836818840784 0 0 0 0.044576479899504362 0.062097001178480049 0.0060598692261472006 0 0.0060598692261472006 0.051558736444696995 0 0 0 0.028413934405794317 0.09670593391965468 0.0070034583235951131 0 0.0070034583235951131 0.10181043356936437 0 0 0 0.049629091872254866 0.066096689808329556 0.01261041125281756 0 0.01261041125281756 0.037852930099083193 0 0 0 0.025987404976853201 0.081089515067885184 0.0042586011372022781 0 0.0042586011372022781 0.053788392085618864 0 0 0 0.033719476788376043 0.09338514960652522 0.014958636164777647 0 0.014958636164777647 0.055055959270592592 0 0 0 0.037110277219279342 0.070260505676941865 0.0030820603250152345 0 0.0030820603250152345 0.042372991348351818 0 0 0 0.028158374256323448 0.127457297233008 0.010114723958487393 0 0.010114723958487393 0.10551270828665893 0 0 0 0.058242501379916739 0.11887974042255156 0.0025757625284837521 0 0.0025757625284837521 0.11688881781556137 0 0 0 0.058942139559528206 0.10680125560070416 -0.0011881280548051709 0 -0.0011881280548051709 0.062975832583814478 0 0 0 0.042444272046129751 0.13155840253538753 0.0018092804153930775 0 0.0018092804153930775 0.11440704778326349 0 0 0 0.061491362579662701 0.056405673209468904 0.0058198439202461361 0 0.0058198439202461361 0.16962693793314149 0 0 0 0.056508152785652598 0.16354857249762242 0.0083622506099111371 0 0.0083622506099111371 0.12451053972545922 0 0 0 0.072014778055770473 0.14845781813760564 0.013056062185455186 0 0.013056062185455186 0.12004570565442772 0 0 0 0.067125880948008115 0.11597574328353821 -0.0012399603990400632 0 -0.0012399603990400632 0.097608124112994687 0 0 0 0.053395966849133503 0.13704755333852708 0.016266924573133501 0 0.016266924573133501 0.10944077162145649 0 0 0 0.061622081239996074 0.065521786378500438 0.0058369066050972876 0 0.0058369066050972876 0.19335946833509879 0 0 0 0.06472031367839981 0.19699767380791311 0.00066415739872338619 0 0.00066415739872338619 0.13471993853411846 0 0 0 0.082929403085508557 0.15055190686777165 -0.014577444263181416 0 -0.014577444263181416 0.11299039046522452 0 0 0 0.065885574333248709 0.077560011547180729 0.015352052892053658 0 0.015352052892053658 0.022141088518195629 0 0 0 0.024925275016344117 0.13432683015575692 0.015819409711994359 0 0.015819409711994359 0.11953228766721002 0 0 0 0.063464779455741693 0.1885194765007307 0.000567814335215058 0 0.000567814335215058 0.12830674161623756 0 0 0 0.079206554529242135 0.1351392554077408 0.021908647791621272 0 0.021908647791621272 0.096395746091188172 0 0 0 0.057883750374732257 0.10114679656122513 -0.0052844906174229905 0 -0.0052844906174229905 0.029165255964279435 0 0 0 0.03257801313137626 0.026365892198699226 0.0059080108766965123 0 0.0059080108766965123 -0.025109671190789218 0 0 0 0.00031405525197758521 0.060012389552827949 0.014527348023295084 0 0.014527348023295084 -0.0087579710463780991 0 0 0 0.012813604626612463 0.045540493257340164 -0.0004730853974995561 0 -0.0004730853974995561 -0.051852403989780083 0 0 0 -0.0015779776831099102 0.048248928887161979 0.0021517522149487878 0 0.0021517522149487878 0.014108227861029832 0 0 0 0.015589289187047939 0.039790605517549316 0.0020269492701677772 0 0.0020269492701677772 -0.01826736136873186 0 0 0 0.0053808110372043361 0.032022909901361807 0.0045913492703400782 0 0.0045913492703400782 -0.0074652191406856527 0 0 0 0.006139422690169094 0.037994804522199555 0.0023268986621802212 0 0.0023268986621802212 0.010406806354217965 0 0 0 0.012100402719104394 0.055699273147658823 0.011292043019794695 0 0.011292043019794695 0.012998282342348011 0 0 0 0.017174388872501722 0.017203033120975153 0.00081307719463566408 0 0.00081307719463566408 -0.018926560911215251 0 0 0 -0.00043088194756002451 0.019353813749165061 0.0011436329610068907 0 0.0011436329610068907 -0.005104315185495421 0 0 0 0.0035623746409174659 0.018710027075943991 0.0049065241461724862 0 0.0049065241461724862 -0.027306553239449638 0 0 0 -0.0021491315408764256 0.022819860088347847 0.00081596000971706495 0 0.00081596000971706495 -0.010034551719858592 0 0 0 0.0031963270921223016 0.013012359755900815 -0.0016098488121836785 0 -0.0016098488121836785 -0.021523536526537157 0 0 0 -0.002127794192659016 0.018122017863720558 -0.0038982784498867717 0 -0.0038982784498867717 -0.039149841183986123 0 0 0 -0.0052569558300664398 0.014025877637570239 0.001020640809041462 0 0.001020640809041462 -0.070831113267815882 0 0 0 -0.014201308907561383 0.014004783588301817 -0.0028737308362716263 0 -0.0028737308362716263 -0.043508251186029634 0 0 0 -0.0073758668994319265 0.011101725468214085 -0.0032555009671015878 0 -0.0032555009671015878 -0.073070776892141032 0 0 0 -0.015492262855981709 0.011467003211040327 0.0017231548421797194 0 0.0017231548421797194 -0.04480280456890684 0 0 0 -0.0083339503394667114 0.0087347754717512216 -0.006284886811386281 0 -0.006284886811386281 -0.028778914900910779 0 0 0 -0.0050110348572898755 0.010528246942991842 -0.00097609317178853905 0 -0.00097609317178853905 -0.043740941593685051 0 0 0 -0.0083031736626733854 0.039901033330641988 -0.011463135885494602 0 -0.011463135885494602 -0.025799293026585568 0 0 0 0.0035254350760141606 0.029756927975627182 -0.000142990187878278 0 -0.000142990187878278 -0.056374594579597523 0 0 0 -0.0066544166509926407 0.018082418167869152 -0.0071039646983398902 0 -0.0071039646983398902 -0.031208216051194615 0 0 0 -0.0032814494708313102 0.02982712670977794 -0.0053008620791942795 0 -0.0053008620791942795 0.0015588210134538372 0 0 0 0.0078464869308079166 0.022454606336789418 -0.00471582221711081 0 -0.00471582221711081 -0.027463184276233565 0 0 0 -0.0012521444848610508 0.019051187843905332 -0.0060212229855884369 0 -0.0060212229855884369 -0.0095949231259511158 0 0 0 0.0023640661794885887 0.022250601321643415 -0.0074474846479379575 0 -0.0074474846479379575 0.0048515688592463135 0 0 0 0.006775542545222446 0.032283260024911276 -0.010577483792217957 0 -0.010577483792217957 -0.0015328871260888999 0 0 0 0.00768759322470558 0.016092111544746296 -0.0024248085166379552 0 -0.0024248085166379552 -0.023109531292602348 0 0 0 -0.0017543549369640199 0.015337343659653668 -0.0063609560445241908 0 -0.0063609560445241908 -0.010617167996807009 0 0 0 0.0011800439157116649 0.010322442860362657 -0.0049456640826342491 0 -0.0049456640826342491 -0.012344866346422623 0 0 0 -0.00050560587151499137 0.017143008250310288 -0.0028985199583703714 0 -0.0028985199583703714 -0.0089697274438475527 0 0 0 0.0020433202016156837 0.016568607722385165 -0.0049040035864248432 0 -0.0049040035864248432 -0.0020182239142632064 0 0 0 0.003637595952030559 0.017669804903175712 -0.0062609239919190485 0 -0.0062609239919190485 -0.0039027026063269687 0 0 0 0.0034417755742121581 0.01594051288899484 -0.0073176960348685649 0 -0.0073176960348685649 0.00041312833000417548 0 0 0 0.0040884103047497677 0.012718741596360938 -0.0049860560218726868 0 -0.0049860560218726868 -0.0053267884438357171 0 0 0 0.0018479882881313192 0.017985130852883058 -0.0082688855036426867 0 -0.0082688855036426867 -0.002587830401394875 0 0 0 0.0038493251128721151 0.015567445463967267 -0.0091753655992036637 0 -0.0091753655992036637 -0.0041261358079127675 0 0 0 0.002860327414013597 0.0234371620981286 -0.01117501716286981 0 -0.01117501716286981 0.0041119449111325646 0 0 0 0.0068872767523152911 0.028494271660020054 -0.0094625729485786902 0 -0.0094625729485786902 0.018051326159334913 0 0 0 0.011636399454838797 0.019831915853106896 -0.0087324594431616165 0 -0.0087324594431616165 0.0052600107025426723 0 0 0 0.0062729816389123783 0.017638771525734676 -0.010084846074604498 0 -0.010084846074604498 0.0045436973952064363 0 0 0 0.005545617230235278 0.019757685277404215 -0.011209136983420465 0 -0.011209136983420465 0.0064206151666952871 0 0 0 0.0065445751110248321 0.023110100061948496 -0.011217976214339197 0 -0.011217976214339197 0.017211327294500256 0 0 0 0.010080356839112209 0.020429593774073326 -0.011898911182208954 0 -0.011898911182208954 0.0060213637723866009 0 0 0 0.0066127393866149652 0.018293953966937837 -0.010430128907220199 0 -0.010430128907220199 0.0012170635966224364 0 0 0 0.0048777543908900545 0.024207688843343979 -0.0084724204353822108 0 -0.0084724204353822108 0.0016453453823556258 0 0 0 0.0064632585564249568 0.01731547948529627 -0.0071898793697496854 0 -0.0071898793697496854 -0.00054705465911197848 0 0 0 0.0041921062065460868 0.021818623193416362 -0.0051538514857227824 0 -0.0051538514857227824 -0.00026155027416457054 0 0 0 0.005389268229812989 0.019573643962035897 -0.0085722530010555742 0 -0.0085722530010555742 0.001051213492485964 0 0 0 0.0051562143636304236 0.04931848361923219 -0.013471428748223713 0 -0.013471428748223713 0.047177062652500767 0 0 0 0.024123886567933295 0.01901896969581577 -0.0085105219490222931 0 -0.0085105219490222931 0.056949833604495126 0 0 0 0.018992200825077722 0.060413399971833981 -0.012128874529130251 0 -0.012128874529130251 0.041670651764069921 0 0 0 0.025521012933975962 0.038709255688266234 -0.011509574021861757 0 -0.011509574021861757 0.041350760339657622 0 0 0 0.020015004006981016 0.027716206077462557 -0.0097742297442772741 0 -0.0097742297442772741 0.038934932976117054 0 0 0 0.016662784763394944 0.021988226400854433 -0.01371645732570187 0 -0.01371645732570187 0.015892852241695787 0 0 0 0.0094702696606375203 0.024480937831982713 -0.012084026535738424 0 -0.012084026535738424 0.022367570689031169 0 0 0 0.011712127130253491 0.028420168061878026 -0.010605395675790164 0 -0.010605395675790164 0.015435990532816968 0 0 0 0.010964039648673762 0.042800374114251832 -0.0071018813658458302 0 -0.0071018813658458302 0.046854032092482512 0 0 0 0.022413601551683565 0.033817031625707816 -0.012426566908343983 0 -0.012426566908343983 0.031190606703181079 0 0 0 0.016251909582222168 0.046628509139837557 -0.0080907311642796631 0 -0.0080907311642796631 0.030832270058177069 0 0 0 0.019365194799503646 0.03632028842849222 -0.013832803816489853 0 -0.013832803816489853 0.01826210446745935 0 0 0 0.01364559822398792 0.05532535619647283 -0.0099843863142358019 0 -0.0099843863142358019 0.056827293379909438 0 0 0 0.028038162394095623 0.077715825649703779 -0.01071433117417997 0 -0.01071433117417997 0.057500751077832923 0 0 0 0.033804144181884183 0.053020184196292175 -0.010054683144756771 0 -0.010054683144756771 0.044006704894041571 0 0 0 0.024256722272583464 0.051899270343541137 -0.017947871756883726 0 -0.017947871756883726 0.043073993368522467 0 0 0 0.023743315928015929 0.027213166536643837 -0.0088004445383826936 0 -0.0088004445383826936 0.081440552141774494 0 0 0 0.027163429669604583 0.056926663685834877 -0.011284895769040848 0 -0.011284895769040848 0.0523460563454482 0 0 0 0.027318180007820742 0.063129881492349882 -0.013796660237344114 0 -0.013796660237344114 0.049291181562361341 0 0 0 0.028105265763677889 0.022848220469597218 -0.0087796220929777218 0 -0.0087796220929777218 0.068428499250230507 0 0 0 0.022819179929956933 0.073596847164188128 -0.007650142539765481 0 -0.007650142539765481 0.062173276424388302 0 0 0 0.033942530897144163 0.032169588854502162 -0.0085562521934767263 0 -0.0085562521934767263 0.096431037966212357 0 0 0 0.03215015670517863 0.10483156181930986 -0.0089978967944656651 0 -0.0089978967944656651 0.068189380099539343 0 0 0 0.043255235479712273 0.085764389846913383 -0.013998644278331751 0 -0.013998644278331751 0.066596925781933047 0 0 0 0.038090328907211438 0.068070392314493189 -0.005750459504672456 0 -0.005750459504672456 0.052120688272745852 0 0 0 0.030047770146809705 0.04207717846710092 -0.0060872412269852849 0 -0.0060872412269852849 0.02281067028312822 0 0 0 0.016221962187557351 0.057358060666460431 -0.013474054740241714 0 -0.013474054740241714 0.025975746010011846 0 0 0 0.020833451669118097 0.073106335757551488 -0.006465921164687638 0 -0.006465921164687638 0.066150314822865708 0 0 0 0.034814162645104285 0.067648338874407202 -0.0015596547598112354 0 -0.0015596547598112354 0.031521712855444292 0 0 0 0.024792512932462828 0.048433763940882196 -0.012847811959364408 0 -0.012847811959364408 -0.00087322374889908794 0 0 0 0.011890135047995798 0.086210304310291197 -0.014157671592835125 0 -0.014157671592835125 0.064833997944083288 0 0 0 0.037761075563593594 0.12298285506586784 -0.0021785899751373683 0 -0.0021785899751373683 0.069971853022255864 0 0 0 0.048238677022030912 0.088293773997228764 -0.016755613125391103 0 -0.016755613125391103 0.046370880901781431 0 0 0 0.033666163724752507 0.065568841391826005 0.0031216241641537357 0 0.0031216241641537357 0.0041654162333136027 0 0 0 0.017433564406284956 0.085915435660554151 -0.014471439299501787 0 -0.014471439299501787 0.060389094727206771 0 0 0 0.036576132596940258 0.038318212294847886 -0.0083867188390171279 0 -0.0083867188390171279 0.11416004075692551 0 0 0 0.03811956326294335 0.12484449830528321 -0.0035701994394013153 0 -0.0035701994394013153 0.078354203095786445 0 0 0 0.050799675350267082 0.096044907113054467 0.0067464723201120513 0 0.0067464723201120513 0.062299828223738807 0 0 0 0.03958618383419843 0.070584972530085138 -0.0078980643171639997 0 -0.0078980643171639997 0.027876817853669578 0 0 0 0.024615447595938394 0.049476234651077089 0.0035961553837855487 0 0.0035961553837855487 0.0028229462704278951 0 0 0 0.013074795230376246 0.045073555065954007 -0.0087027927867850963 0 -0.0087027927867850963 0.013623843469064756 0 0 0 0.014674349633754469 0.060636223007388967 -0.00016323450858579669 0 -0.00016323450858579669 0.025932740621577188 0 0 0 0.021642240907241483 0.027579471154065893 -0.0022392697245741111 0 -0.0022392697245741111 0.002481537050063487 0 0 0 0.0075152520510323173 0.010441850437330924 -0.0067274408715972678 0 -0.0067274408715972678 -0.007023389261346491 0 0 0 0.00085461529399633029 0.01178322633934048 -0.0094014621034004663 0 -0.0094014621034004663 -0.0029992615551917012 0 0 0 0.0021959911960371947 0.023455980534488718 -0.0046596348687091838 0 -0.0046596348687091838 -0.01195463583617018 0 0 0 0.0028753361745796902 0.027615691748637705 -0.013676225153487098 0 -0.013676225153487098 0.0037298799959644136 0 0 0 0.0078363929361505158 0.010445877376554891 -0.014905441774140708 0 -0.014905441774140708 0.0020532934983243933 0 0 0 0.0031247927187199043 0.0099237161033693955 -0.014939566008187896 0 -0.014939566008187896 0.00045644634039687659 0 0 0 0.0025950406109416235 0.021008929047684699 -0.016355725002743071 0 -0.016355725002743071 0.0056004121698050024 0 0 0 0.0066523353043723699 0.041742677979034429 -0.012602101961213696 0 -0.012602101961213696 0.020564587749118179 0 0 0 0.015576816432038357 0.05359169565740074 -0.016082670257864529 0 -0.016082670257864529 0.023429385257369706 0 0 0 0.019255270228692667 0.032459683429874098 -0.0075749684913808402 0 -0.0075749684913808402 0.010530590418951435 0 0 0 0.010747568462206092 0.00038315167461522304 -0.0026691486668599662 0 -0.0026691486668599662 0.0019013639115117442 0 0 0 0.00057112889653188059 -0.00050365595180101863 -0.0014559726907077129 0 -0.0014559726907077129 -0.00045131530663056196 0 0 0 -0.00023874281460800617 0.00046496680816519853 -0.0011482535313491748 0 -0.0011482535313491748 -2.8378777616897264e-05 0 0 0 0.00010914700763696429 0.0017727419571482717 -0.0018790398552904763 0 -0.0018790398552904763 -0.0012882553366972971 0 0 0 0.00012112165511291018 -0.002581390696492214 -0.0043707922512010722 0 -0.0043707922512010722 -0.0022933173072523516 0 0 0 -0.0012186770009361414 0.00097640370820806233 -0.006151523400556469 0 -0.006151523400556469 -0.0044048489626815623 0 0 0 -0.00085711131361843051 0.0063519011292021421 -0.0051779028319096643 0 -0.0051779028319096643 -0.0032548088438066891 0 0 0 0.00077427307134869672 0.0012871200468649313 -0.0031601744451568159 0 -0.0031601744451568159 -0.0061479137138049644 0 0 0 -0.0012151984167352303 0.0034636808168723924 -0.0050166453750153384 0 -0.0050166453750153384 -0.012229866573552843 0 0 0 -0.002191546439170002 0.00046369438801174834 -0.010826687557641934 0 -0.010826687557641934 -0.0067920724216913309 0 0 0 -0.0015820945084198401 -0.0038931595790167584 -0.014949645034072589 0 -0.014949645034072589 -0.0017102470369756428 0 0 0 -0.0014008516539978921 -0.012744374469774861 -0.010444045514719336 0 -0.010444045514719336 -0.002255566268275222 0 0 0 -0.0037499851845126664 0.0011300742791480467 -0.0094069576596197413 0 -0.0094069576596197413 -0.0025543301259978168 0 0 0 -0.00035606396171236621 -0.0025663080783073777 -0.0095733900552419371 0 -0.0095733900552419371 0.00096598235679401512 0 0 0 -0.00040008143037828514 -0.0063435753651663734 -0.0046316845344676061 0 -0.0046316845344676061 -0.00083516588459947583 0 0 0 -0.0017946853124415213 -0.015552845548187496 -0.0049112675353866209 0 -0.0049112675353866209 -0.0011337622261081166 0 0 0 -0.0041716519435739587 -0.0057715115561436381 -0.0038623885620621135 0 -0.0038623885620621135 0.002127196926232422 0 0 0 -0.00091107865747797057 -0.026837514637425786 -0.0054323738340947836 0 -0.0054323738340947836 0.0023662523650926914 0 0 0 -0.006117815568083107 -0.0090454389230586463 -0.0076390841561971845 0 -0.0076390841561971845 0.0026882427278294152 0 0 0 -0.0015892990488072245 -0.012352689810495865 -0.011516359925447361 0 -0.011516359925447361 0.0016169449161353988 0 0 0 -0.0026839362235899777 -0.022982902811728462 -0.0061809280894593588 0 -0.0061809280894593588 -0.0021932392863082129 0 0 0 -0.0062940355245091617 -0.014830890357762194 -0.014030835089206217 0 -0.014030835089206217 -0.00065194913285526734 0 0 0 -0.0038707098726544764 -0.0027341687964251848 -0.015121225798396254 0 -0.015121225798396254 0.0026310372680908856 0 0 0 -2.5782882083436043e-05 -0.0055899635082917731 -0.018218014490092471 0 -0.018218014490092471 0.0022870034746436119 0 0 0 -0.00082574000841195705 -0.0053348524569430955 -0.017560663668897442 0 -0.017560663668897442 0.0021691179097915736 0 0 0 -0.00079143363678768619 -0.015553760865443134 -0.014415480782770052 0 -0.014415480782770052 -0.00075693227121442774 0 0 0 -0.0040776732841643071 -0.015782393703618024 -0.01678898293350306 0 -0.01678898293350306 0.0015718279974780563 0 0 0 -0.0035526414265351289 -0.0055573987404442526 -0.020224852922072711 0 -0.020224852922072711 0.0054798955988117903 0 0 0 -1.9375785408226598e-05 -0.020195400085549653 -0.016426206332728011 0 -0.016426206332728011 0.0010948638616528061 0 0 0 -0.004775134055974406 -0.025978977212589294 -0.010315643899943661 0 -0.010315643899943661 0.0010019570364596664 0 0 0 -0.0062442550440324207 -0.030419658736910105 -0.0085766948145223898 0 -0.0085766948145223898 -0.0018110899216710052 0 0 0 -0.0080576871646451664 -0.031103091056121079 -0.008564878406331411 0 -0.008564878406331411 0.0031174532252626896 0 0 0 -0.0069964094577145142 -0.04210766866938298 -0.0046930606050802348 0 -0.0046930606050802348 -0.00048826413592883977 0 0 0 -0.010648983201327789 -0.027691831482892004 -0.0045660321088161759 0 -0.0045660321088161759 0.00098761181419426691 0 0 0 -0.0066760549171744898 0.030714080217110085 -0.020020463340775674 0 -0.020020463340775674 0.014220941149018174 0 0 0 0.011233755341532148 0.02049026864753356 -0.017725015990153414 0 -0.017725015990153414 0.012181078821148272 0 0 0 0.0081678368671703749 0.034776063093418741 -0.019261288269732058 0 -0.019261288269732058 0.028487614188206223 0 0 0 0.015815919320406491 0.027329431936840787 -0.020630269690897096 0 -0.020630269690897096 0.013760923531579206 0 0 0 0.010272588867104804 0.0062451249389974817 -0.018085829493298289 0 -0.018085829493298289 0.0036936560631328774 0 0 0 0.0024846952505324649 0.0058799057619894901 -0.018105947502600861 0 -0.018105947502600861 0.0025989007185833746 0 0 0 0.0021197016201432994 0.018089441752361934 -0.021043010702288326 0 -0.021043010702288326 0.0069099809278276858 0 0 0 0.0062498556700474328 0.013829247015062607 -0.022160720977762338 0 -0.022160720977762338 0.0069012386293025862 0 0 0 0.0051826214110912705 0.0038759374022908633 -0.019641590672154652 0 -0.019641590672154652 0.0054079785510897649 0 0 0 0.002320978988345046 0.0025816859931912517 -0.018648028346567647 0 -0.018648028346567647 0.002317582956549824 0 0 0 0.0012248172374353383 0.0027974866425996836 -0.017553900213644669 0 -0.017553900213644669 0.0048741043057964062 0 0 0 0.0019178977370990224 0.027180105753701889 -0.020511597546146176 0 -0.020511597546146176 0.012539105592252797 0 0 0 0.0099298028364885882 0.015986298001970267 -0.018943121691266183 0 -0.018943121691266183 0.012992407968121622 0 0 0 0.0072446764925229168 0.042610368476451499 -0.01604851186780043 0 -0.01604851186780043 0.024668161431679714 0 0 0 0.016819632477032886 0.030228796667021829 -0.018588408583532723 0 -0.018588408583532723 0.022582810881863313 0 0 0 0.013202901887221397 0.040006291443935388 -0.015332519291367142 0 -0.015332519291367142 0.020619079372885429 0 0 0 0.015156342704205156 0.027543462588058232 -0.020782383637901636 0 -0.020782383637901636 0.014632596056489477 0 0 0 0.010544014661136969 0.030768516663266077 -0.016075892118558477 0 -0.016075892118558477 0.015707614081561072 0 0 0 0.011619032686206787 0.037659127975351092 -0.018554211811383559 0 -0.018554211811383559 0.015791740082902184 0 0 0 0.01336271701456343 0.016653409138532305 -0.021835718991972619 0 -0.021835718991972619 0.0093016151734321983 0 0 0 0.0064887560779910425 0.018789588898014492 -0.0174318555219386 0 -0.0174318555219386 0.012415218957883001 0 0 0 0.0078012019639745744 0.014046188750913347 -0.022757916863288069 0 -0.022757916863288069 0.0069686487484093007 0 0 0 0.0052537093748307173 -0.0020267441836569478 -0.021783550925098816 0 -0.021783550925098816 0.0044196737599140334 0 0 0 0.00059823239406431306 -0.0052464088919265128 -0.016800431978171965 0 -0.016800431978171965 0.0030971381933115882 0 0 0 -0.00053731767465370339 0.013735785773590747 -0.017984495615975815 0 -0.017984495615975815 0.0073334520264435876 0 0 0 0.0052673094500086948 0.0022013898339302562 -0.023384721382635587 0 -0.023384721382635587 0.0040443163793850712 0 0 0 0.0015614265533288041 0.011514579777021361 -0.017442706894731208 0 -0.017442706894731208 0.0061662920862382009 0 0 0 0.0044202179658148766 -0.0053207549660318487 -0.018347446001960838 0 -0.018347446001960838 0.002960449420904232 0 0 0 -0.0005900763862818903 -0.0041777457016597408 -0.020982883135507668 0 -0.020982883135507668 0.0079420433597222617 0 0 0 0.00094107441451563023 0.033631832659687166 -0.01908245694389013 0 -0.01908245694389013 0.010725696081918451 0 0 0 0.011089382185401397 0.036704313729870264 -0.015515122663723964 0 -0.015515122663723964 0.016443379914510947 0 0 0 0.013286923411095219 0.03194561550556696 -0.015821883057463536 0 -0.015821883057463536 0.018118216988360025 0 0 0 0.01251595812348183 0.012656733124973424 -0.021609383664198234 0 -0.021609383664198234 0.0087220047782935461 0 0 0 0.0053446844758167356 0.029220196130228637 -0.017922643051916355 0 -0.017922643051916355 0.010791051879671887 0 0 0 0.010002812002475214 -0.044111846986785663 -0.0084150772978706656 0 -0.0084150772978706656 0.0020101666974816634 0 0 0 -0.010525420072325986 -0.051760177670946698 -0.0044791852946826083 0 -0.0044791852946826083 -0.00072735201180682343 0 0 0 -0.013121882420688449 -0.043072741993902645 -0.0048309980937544239 0 -0.0048309980937544239 -0.0013682157004286377 0 0 0 -0.011110239423582906 -0.055449071912208936 -0.0057326699953479552 0 -0.0057326699953479552 0.0018392869216823371 0 0 0 -0.01340244624763165 -0.03274119233264744 -0.0074291064882918145 0 -0.0074291064882918145 -0.0019104144002386469 0 0 0 -0.0086629016832214245 -0.020295560112824962 -0.013928059109756474 0 -0.013928059109756474 0.0020596782954556137 0 0 0 -0.0045589704543423926 -0.032811412481764557 -0.014413971407920702 0 -0.014413971407920702 0.0019629945294137308 0 0 0 -0.0077121044880877898 -0.015421231073530328 -0.015365882146584076 0 -0.015365882146584076 0.0010307881382340955 0 0 0 -0.0035976107338239749 -0.01862819180338432 -0.019992959922793097 0 -0.019992959922793097 0.0038117410537590324 0 0 0 -0.0037041126874062247 -0.021885681668763146 -0.017306299093427596 0 -0.017306299093427596 0.003441041465878758 0 0 0 -0.004611160050721097 -0.018738299024288529 -0.014930751277843712 0 -0.014930751277843712 0.0035873663559512978 0 0 0 -0.0037877331670844189 -0.019756292670596143 -0.019520265035421785 0 -0.019520265035421785 0.0069271043276046829 0 0 0 -0.0032072970857477956 -0.027579568261886546 -0.011539966520885458 0 -0.011539966520885458 0.0019946347933862407 0 0 0 -0.0063962333671251179 -0.037633316755940477 -0.014483623406924384 0 -0.014483623406924384 0.003231949084702701 0 0 0 -0.0086003419178094509 -0.037248555546401108 -0.012193822281251709 0 -0.012193822281251709 0.001033501218250521 0 0 0 -0.0090537635820376883 -0.037822942439499796 -0.012998100086572761 0 -0.012998100086572761 0.0022115170222414271 0 0 0 -0.0089028563543145367 -0.054618259441064326 -0.0076065654232915225 0 -0.0076065654232915225 0.0013684655239017407 0 0 0 -0.013312448479290667 -0.052759000846361592 -0.0045650740884539687 0 -0.0045650740884539687 0.0007125910102076527 0 0 0 -0.013011602459038429 -0.06565719651237889 -0.0074687156376445074 0 -0.0074687156376445074 0.0011893551473554087 0 0 0 -0.01611696034125587 -0.088960820450464856 -0.0043211088458769142 0 -0.0043211088458769142 0.0015082835702619479 0 0 0 -0.021863134220050734 -0.074952100548508982 -0.0053521524083576244 0 -0.0053521524083576244 0.0013508971807236758 0 0 0 -0.018400300841946382 -0.061794632049240253 -0.0025030758679968623 0 -0.0025030758679968623 0.00034200912052151367 0 0 0 -0.015363155732179681 -0.054599738945437931 -0.012349206890487144 0 -0.012349206890487144 0.0044302019392923331 0 0 0 -0.012542384251536309 -0.043820050680214356 -0.0081461353802690095 0 -0.0081461353802690095 0.0011230229569270112 0 0 0 -0.010674256930821913 -0.0234989163553464 -0.012356150507955174 0 -0.012356150507955174 0.003929907550705547 0 0 0 -0.0048922522011601854 -0.027434941509085431 -0.017234552858001045 0 -0.017234552858001045 0.0080097654880204594 0 0 0 -0.0048562940052662151 -0.024915761613831938 -0.015000952273214074 0 -0.015000952273214074 0.014173439108894015 0 0 0 -0.0026855806262344184 -0.033557908974253453 -0.008491317638139706 0 -0.008491317638139706 0.00095675671720127364 0 0 0 -0.0081502880642629616 -0.033903636391492825 -0.010338180683280775 0 -0.010338180683280775 0.006043174665960882 0 0 0 -0.0069651154313830066 -0.047147976373314665 -0.00076670109010386345 0 -0.00076670109010386345 0.0076935965589277622 0 0 0 -0.0098635949535967049 -0.048449347259775816 -0.01065222527066155 0 -0.01065222527066155 0.0061906034346815297 0 0 0 -0.010564685956273606 -0.062907894475208032 -0.0056225446368776827 0 -0.0056225446368776827 0.0015153580863670468 0 0 0 -0.015348134097210225 -0.05825679632387705 -0.0019429068950201911 0 -0.0019429068950201911 0.0014088512127976779 0 0 0 -0.014211986277769883 -0.086804499662880674 -0.0023662286004695887 0 -0.0023662286004695887 0.0021061673954825832 0 0 0 -0.02117458306684955 0.015856021171898046 -0.017019030520515038 0 -0.017019030520515038 0.012221912152913003 0 0 0 0.0070194833312028325 0.04191128474734887 -0.029610409979447971 0 -0.029610409979447971 0.024870099607176066 0 0 0 0.016695346088631269 0.014520024457607028 -0.022353607057156499 0 -0.022353607057156499 0.012852224861544914 0 0 0 0.0068430623297880133 0.011304008311409985 -0.017244695505702963 0 -0.017244695505702963 0.0061004977983127873 0 0 0 0.0043511265274306932 -0.0093915101571719339 -0.01760215318797817 0 -0.01760215318797817 0.0062113398971331835 0 0 0 -0.00079504256500972925 -0.0077251009994491193 -0.018239012056952553 0 -0.018239012056952553 0.011380282270879671 0 0 0 0.00091379531785756862 0.0090994930929319817 -0.02309511681179352 0 -0.02309511681179352 0.015215803645676096 0 0 0 0.0060788241846520263 -0.0074170756193118192 -0.011448068020733379 0 -0.011448068020733379 0.015630675569295871 0 0 0 0.0020533999874960129 -0.029869776528037129 -0.0064529192127466412 0 -0.0064529192127466412 0.0064338499397491589 0 0 0 -0.0058589816470719924 -0.021158198966158351 -0.0033483809317307184 0 -0.0033483809317307184 0.010972347715779762 0 0 0 -0.0025464628125946298 -0.01240256594676295 -0.016376709537405748 0 -0.016376709537405748 0.01849633346707702 0 0 0 0.0015234418800785243 0.013195151463198759 -0.018793443394691939 0 -0.018793443394691939 0.022704141341640366 0 0 0 0.0089748232012097778 0.014011469741087273 -0.017210343541907855 0 -0.017210343541907855 0.023783160457149011 0 0 0 0.0094486575495590364 0.035528462103521265 -0.024401609938392077 0 -0.024401609938392077 0.035177558653763263 0 0 0 0.017676505189321103 0.050003759250780391 -0.040818059274693841 0 -0.040818059274693841 0.073342191137593285 0 0 0 0.030836487597093426 -0.04278928154181362 0.0086059194672395284 0 0.0086059194672395284 0.040262680639895188 0 0 0 -0.0006316502254796047 0.12164988479725229 -0.039530642818763048 0 -0.039530642818763048 0.033679543346165519 0 0 0 0.038832357035854442 0.0028985552942436639 -0.0016074245764772835 0 -0.0016074245764772835 0.0085452362872742091 0 0 0 0.0028609478953794685 0.059848411674309959 -0.020849884605209423 0 -0.020849884605209423 0.0065720257010199179 0 0 0 0.016605109343832525 0.052347234846709834 -0.01552077614156723 0 -0.01552077614156723 0.015605796513742165 0 0 0 0.01698825784011293 0.0071246660402020379 -0.0041687152546406436 0 -0.0041687152546406436 0.021326540711813446 0 0 0 0.0071128016880038702 0.082969328202020631 -0.011937207505787528 0 -0.011937207505787528 0.018573160285747292 0 0 0 0.025385622121941953 0.0099137227868191166 -0.0058891374077705222 0 -0.0058891374077705222 0.029676874437670905 0 0 0 0.0098976493061225038 0.057590277427249315 -0.010679885156214319 0 -0.010679885156214319 0.021141753363538962 0 0 0 0.019683007697697041 0.052507532993526923 -0.017586969792291074 0 -0.017586969792291074 0.012599601695368889 0 0 0 0.016276783672223932 0.0020473813410957498 -0.010422115520841733 0 -0.010422115520841733 0.013256882870008369 0 0 0 0.0038260660527760504 -0.011363028983280524 -0.014010004585412211 0 -0.014010004585412211 0.020869912202572422 0 0 0 0.002376720804822971 0.0027581308360355786 -0.010945257450525214 0 -0.010945257450525214 0.017406389228916658 0 0 0 0.0050411300162380643 -0.024452230280543684 -0.013663466319792712 0 -0.013663466319792712 0.01341797502577885 0 0 0 -0.0027585638136912172 0.0034358455558623907 -0.0040511491355570486 0 -0.0040511491355570486 0.02747551354366326 0 0 0 0.0077278397748814093 -0.0010748435530930911 -0.0021660332236593388 0 -0.0021660332236593388 0.0073102785287808558 0 0 0 0.0015588587439219481 -0.014005263334059923 -0.0074076616695816638 0 -0.0074076616695816638 0.07361185533458775 0 0 0 0.014901648000131967 0.0030261489286831922 0.00336868197707757 0 0.00336868197707757 0.028831528389225453 0 0 0 0.0079644193294771681 0.010213507558950972 -0.0051316351674439986 0 -0.0051316351674439986 0.011650210254350424 0 0 0 0.0054659294533253508 0.014952820934933286 -0.0064454700951216554 0 -0.0064454700951216554 0.029765144719770563 0 0 0 0.011179491413675965 0.011105009372253824 -0.0058608651295980613 0 -0.0058608651295980613 0.02830173116832696 0 0 0 0.0098516851351451926 0.017084781915641084 -0.008302632173027822 0 -0.008302632173027822 0.031594176117596587 0 0 0 0.012169739508309421 0.016104534013172255 -0.0079102050904768031 0 -0.0079102050904768031 0.042600627721061657 0 0 0 0.01467629043355847 0.025476785866539731 -0.015722604267609457 0 -0.015722604267609457 0.032339692415295967 0 0 0 0.014454119570458918 0.027333847317268043 -0.017339942532591732 0 -0.017339942532591732 0.019218163889826528 0 0 0 0.011638002801773645 0.020662936103509416 -0.010521904629142723 0 -0.010521904629142723 0.01870640713795485 0 0 0 0.0098423358103660596 0.020456532319833035 -0.014325339452483717 0 -0.014325339452483717 0.015353822552767959 0 0 0 0.008952588718150245 0.019190075041414956 -0.010240683342631042 0 -0.010240683342631042 0.014390203348879443 0 0 0 0.0083950695975735928 0.0207169983095076 -0.013537151779102398 0 -0.013537151779102398 0.0090889668809682744 0 0 0 0.0074514912976189618 0.0085285221653357973 -0.013479019230422024 0 -0.013479019230422024 0.014345510398013225 0 0 0 0.0057185081408372557 0.017678585113920009 -0.012646051991738697 0 -0.012646051991738697 0.011165739258496787 0 0 0 0.0072110810931042268 0.016119350873909588 -0.014281448485775006 0 -0.014281448485775006 0.0074323432882122953 0 0 0 0.0058879235405304708 0.010940809217017497 -0.013981199427459123 0 -0.013981199427459123 0.011370125430107125 0 0 0 0.0055777336617811729 0.018067029792919007 -0.015460730279547641 0 -0.015460730279547641 0.0064820595824904848 0 0 0 0.0061372723438524179 0.017067024997970776 -0.014390067094420436 0 -0.014390067094420436 0.0077076872600466695 0 0 0 0.0061936780645043543 0.015531394144016275 -0.015276335946275754 0 -0.015276335946275754 0.011517110876836323 0 0 0 0.0067621262552131356 0.027276722816945209 -0.013409512566204783 0 -0.013409512566204783 0.0054901233346741352 0 0 0 0.0081917115379048222 0.023092762196827571 -0.014769750538777826 0 -0.014769750538777826 0.010152581557483206 0 0 0 0.0083113359385777168 0.021622231306388517 -0.014099485667729506 0 -0.014099485667729506 0.0064815339247723536 0 0 0 0.0070259413077902177 0.023998958398563475 -0.013579836566101774 0 -0.013579836566101774 0.0042850730208294219 0 0 0 0.007071007854848238 0.025388523952565537 -0.014376649820346088 0 -0.014376649820346088 0.0050144650898414009 0 0 0 0.0076007472606017135 0.022725842285897191 -0.0083529029034165869 0 -0.0083529029034165869 -0.0013358869376240423 0 0 0 0.0053474888370683149 0.019381494452661838 -0.0130492814323106 0 -0.0130492814323106 0.0026396319287743109 0 0 0 0.0055052815953590128 0.025338922274480535 -0.010962936930368844 0 -0.010962936930368844 0.0036461440130339806 0 0 0 0.007246266571878629 0.016022239331885735 -0.013812375538573438 0 -0.013812375538573438 0.012631448033742276 0 0 0 0.0071634218414070028 0.020512807633378455 -0.013256728062339171 0 -0.013256728062339171 0.0071436465187858511 0 0 0 0.0069141135380410279 0.016224324575597734 -0.015029172385476519 0 -0.015029172385476519 0.0077058750777255214 0 0 0 0.0059825499133308174 0.017645619552871389 -0.012465124497166941 0 -0.012465124497166941 0.0058746597622330032 0 0 0 0.0058800698287761188 0.017522467047472456 -0.013370198211760581 0 -0.013370198211760581 0.012630813615420955 0 0 0 0.0075383201657233667 0.020260973085669265 -0.012665270097863552 0 -0.012665270097863552 0.013694396299523404 0 0 0 0.0084888423462981533 0.0202938602550225 -0.012699504557898769 0 -0.012699504557898769 0.022746345347789299 0 0 0 0.010760051400702964 0.015131254908633124 -0.013992219225092223 0 -0.013992219225092223 0.020447200376861208 0 0 0 0.0088946138213736037 0.016701031185509085 -0.01337471894239943 0 -0.01337471894239943 0.017588444594125785 0 0 0 0.008572368944908676 0.019648578723872961 -0.010004601340660751 0 -0.010004601340660751 0.034519125113510629 0 0 0 0.013541925959345863 0.057672447330500448 -0.011146753480997917 0 -0.011146753480997917 0.033577757148659959 0 0 0 0.022812551119790164 0.015655670343098206 -0.0079744214394075509 0 -0.0079744214394075509 0.046882764733640003 0 0 0 0.015634608769184554 0.02333666735475888 -0.011250354066691698 0 -0.011250354066691698 0.036383513806128198 0 0 0 0.014930045290221752 0.044323033832372349 -0.014378373141236689 0 -0.014378373141236689 0.037018583004233552 0 0 0 0.020335404209151475 0.045636534705629506 -0.012226240704697355 0 -0.012226240704697355 0.03089694996832526 0 0 0 0.019133371168488733 0.060541398399489188 -0.009224435133519282 0 -0.009224435133519282 0.027716244308224058 0 0 0 0.022064410676928325 0.0065230817961875395 -0.011749634792333152 0 -0.011749634792333152 0.02980283083147367 0 0 0 0.0090814781569153111 0.012673884615812519 -0.0071272903760144389 0 -0.0071272903760144389 0.037952999738153428 0 0 0 0.012656721088491491 0.050594411646542603 -0.010518544688953795 0 -0.010518544688953795 0.026925997747248021 0 0 0 0.019380102348447614 0.044755095031209946 -0.015905774504208881 0 -0.015905774504208881 0.013907276099884847 0 0 0 0.014665592782773629 0.065836673398149692 -0.0092761186464639933 0 -0.0092761186464639933 0.022123397085692331 0 0 0 0.021990017620960534 0.0039881240092404097 -0.011803472919918068 0 -0.011803472919918068 0.021022606058065219 0 0 0 0.0062526825168264105 0.0087956089619127889 -0.015443026673693794 0 -0.015443026673693794 0.011390666845027125 0 0 0 0.0050465689517349491 0.0082870177091914909 -0.014770048330754987 0 -0.014770048330754987 0.014388141941109614 0 0 0 0.0056687899125752728 0.012647906471460774 -0.012224293731853186 0 -0.012224293731853186 0.023949042602059212 0 0 0 0.0091492372683800172 
</DataArray>
<DataArray type="Float64" Name="cross_section_updated" format="ascii">
1 1 1 1 1 1 1 1 1 1 1 1 1 1 1 1 1 1 1 1 1 1 1 1 1 1 1 1 1 1 1 1 1 1 1 1 1 1 1 1 1 1 1 1 1 1 1 1 1 1 1 1 1 1 1 1 1 1 1 1 1 1 1 1 1 1 1 1 1 1 1 1 1 1 1 1 1 1 1 1 1 1 1 1 1 1 1 1 1 1 1 1 1 1 1 1 1 1 1 1 1 1 1 1 1 1 1 1 1 1 1 1 1 1 1 1 1 1 1 1 1 1 1 1 1 1 1 1 1 1 1 1 1 1 1 1 1 1 1 1 1 1 1 1 1 1 1 1 1 1 1 1 1 1 1 1 1 1 1 1 1 1 1 1 1 1 1 1 1 1 1 1 1 1 1 1 1 1 1 1 1 1 1 1 1 1 1 1 1 1 1 1 1 1 1 1 1 1 1 1 1 1 1 1 1 1 1 1 1 1 1 1 1 1 1 1 1 1 1 1 1 1 1 1 1 1 1 1 1 1 1 1 1 1 1 1 1 1 1 1 1 1 1 1 1 1 1 1 1 1 1 1 1 1 1 1 1 1 1 1 1 1 1 1 1 1 1 1 1 1 1 1 1 1 1 1 1 1 1 1 1 1 1 1 1 1 1 1 1 1 1 1 1 1 1 1 1 1 1 1 1 1 1 1 1 1 1 1 1 1 1 1 1 1 1 1 1 1 1 1 1 1 1 1 1 1 1 1 1 1 1 1 1 1 1 1 1 1 1 1 1 1 1 1 1 1 1 1 1 1 1 1 1 1 1 1 1 1 1 1 1 1 1 1 1 1 1 1 1 1 1 1 1 1 1 1 1 1 1 1 1 1 1 1 1 1 1 1 1 1 1 1 1 1 1 1 1 1 1 1 1 1 1 1 1 1 1 1 1 1 1 1 1 1 1 1 1 1 1 1 1 1 1 1 1 1 1 1 1 1 1 1 1 1 1 1 1 1 1 1 1 1 1 1 1 1 1 1 1 1 1 1 1 1 1 1 1 1 1 1 1 1 1 1 1 1 1 1 1 1 1 1 1 1 1 1 1 1 1 1 1 1 1 1 1 1 1 1 1 1 1 1 1 1 1 1 1 1 1 1 1 1 1 1 1 1 1 1 1 1 1 1 1 1 1 1 1 1 1 1 1 1 1 1 1 1 1 1 1 1 1 1 1 1 1 1 1 1 0.0020258779116034548 1 1 0.0020674327169751734 1 1 0.0020970406315968483 1 1 1 1 1 1 1 1 1 1 1 1 1 0.0021250084417742611 1 1 1 1 1 0.0021535709234448207 1 1 1 1 1 1 1 1 1 1 1 1 1 1 1 1 1 1 1 1 1 1 1 1 1 1 1 1 1 1 1 1 1 1 1 1 1 1 1 1 1 1 1 1 1 1 1 1 1 1 1 1 1 1 1 1 1 1 1 1 1 1 1 1 1 1 1 1 1 1 1 1 1 1 1 1 1 1 1 1 1 1 1 1 1 1 1 1 1 1 1 1 1 1 1 1 1 1 1 1 1 1 1 1 1 1 1 1 1 1 1 1 1 1 1 1 1 1 1 1 1 1 1 1 1 1 1 1 1 1 1 1 1 1 1 1 1 1 1 1 1 1 1 1 1 1 1 1 1 1 1 1 1 1 1 1 1 1 1 1 1 1 1 1 1 1 1 1 0.0021832265087274273 1 1 1 0.0022145058108185229 1 1 0.0022475038014320927 1 1 1 1 1 1 1 1 1 1 1 0.0022827969628687224 1 1 1 1 0.0023215978866417473 1 1 1 1 1 1 1 1 1 1 1 1 1 1 1 1 1 1 1 1 1 1 1 1 1 1 1 1 1 1 1 1 1 1 1 1 1 1 1 1 1 1 1 1 1 1 1 1 1 1 1 1 1 1 1 1 1 1 0.0010474470409742717 1 1 1 1 1 1 1 1 1 1 1 1 1 1 0.0010678464030902124 1 1 0.001057011649150342 1 0.0010803511015762921 1 1 1 1 1 1 1 1 1 1 1 1 1 0.0010950505968674777 1 1 1 1 1 1 1 1 1 1 1 1 1 1 1 1 1 1 1 1 1 1 1 1 1 1 1 1 1 1 1 1 1 1 1 1 1 1 1 1 1 1 1 1 1 1 1 1 1 1 1 1 1 1 1 1 1 1 1 1 1 1 1 1 1 1 1 1 1 1 1 1 1 1 1 1 1 1 1 1 1 1 1 1 1 1 1 1 1 1 1 1 1 1 1 1 1 1 1 1 1 1 1 1 1 1 1 1 1 1 1 1 1 1 1 1 1 1 1 1 1 1 1 1 1 1 1 1 1 1 1 1 1 1 1 1 0.0010071053604898683 1 1 0.001017767173779762 1 0.0010247240314144356 1 1 1 1 1 1 1 1 1 1 1 1 1 1 1 1 1 1 1 1 1 1 1 1 1 1 1 1 1 1 1 1 1 1 1 1 1 1 1 1 1 1 1 1 1 1 1 0.0010390601949555693 1 1 1 1 1 0.0010316203483120776 1 1 1 1 1 1 1 
</DataArray>
<DataArray type="Float64" Name="displacement_divergence" format="ascii">
-2.1595673627723212e-05 -2.439314965675555e-05 -1.845321629823599e-05 -2.1557176906827106e-05 -2.0964803093868704e-05 -2.0954245475614261e-05 -1.9404462710229191e-05 -2.0104152054414743e-05 -1.8685436783622703e-05 -1.4280552082030041e-05 -2.0792396025799116e-05 -1.3469384016268826e-05 -2.5213117728425784e-05 -1.9090776650680252e-05 -3.0237224381753339e-05 -2.3540629462418588e-05 -2.0318113898802148e-05 -2.2159672602624759e-05 -3.6694812555221531e-06 -6.293824189366297e-06 -6.8478815740845106e-06 -1.1840333720914333e-05 -1.374007182432059e-05 -8.5737472891753888e-06 -1.0025240342476687e-05 -1.2541968689998069e-05 -1.368341479491357e-05 -1.2177112012283653e-05 -5.3925154741700491e-06 -6.2313000389843957e-06 -3.3540981932377972e-06 -4.1663696888971982e-07 -1.5462015850865632e-06 -1.1445862180035641e-06 -6.5487045476640715e-06 -1.3682916812981746e-05 -1.1194747136294206e-05 -7.0097963548314707e-06 -1.282173686035491e-05 -1.5145078629323421e-05 -1.1070271482423445e-05 -7.4806056828662031e-06 -7.0826897575976071e-06 -1.7841590974166402e-06 -7.6065781168450941e-06 -4.7170290280585644e-06 3.0052320945683796e-06 -1.1281734900394326e-06 -3.0496092194874565e-05 -2.3238976376747729e-05 -3.4667635783079577e-05 -2.2643905816152317e-05 -1.7781263484415477e-05 -1.9491366954328523e-05 -1.9819548551099053e-05 -2.2006301249266176e-05 -1.6234696490745599e-05 -2.3948123298421571e-05 -1.9186604701310972e-05 -2.2458081295162965e-05 -3.2480001998375756e-05 -3.0766200249599478e-05 -2.9014721616593507e-05 -3.9866986759146338e-05 -4.2561873574237607e-05 -3.0155670427739517e-05 -3.5354739414050469e-05 -4.8121485065766432e-05 -3.6388439512150461e-05 -3.7732798711169588e-05 -3.8246734874165209e-05 -5.5404829514849984e-05 -2.1347597109198292e-05 -1.7710271476343824e-05 -2.8490020256327591e-05 -2.7154930848771379e-05 -1.7773485794682358e-05 -3.0819176571858959e-05 -2.7399455273112653e-05 -2.3354254045302102e-05 -1.6924443888662531e-05 -1.1126431199119677e-05 -1.0672802950098245e-05 -8.9018281911832271e-06 -4.9458139788163854e-06 -1.77820476495721e-05 1.4997975557712093e-06 -1.6784286378225693e-06 -1.999473589532142e-06 6.5380266475663903e-06 2.7235644140968717e-06 4.9641295222977081e-07 7.6938019267604115e-06 1.0426232351254547e-05 -9.9114835984595703e-06 -1.436709505096335e-05 -2.3003850817743444e-06 -5.1677251630418803e-06 -7.3076892971944398e-06 -1.0935491566606962e-05 -1.1135685771056865e-06 -1.0461296057813973e-05 2.0541849100562646e-05 5.7152082667440965e-07 7.7969963086966742e-06 1.3678755903946709e-05 2.19333310503003e-05 1.7512754970436879e-05 1.5812821628959832e-05 1.739061268015083e-05 3.622057524691098e-05 -3.2232874762017582e-06 4.6530378673335069e-06 5.1291813537195557e-06 -1.0345180746106216e-05 -1.306798266275507e-05 -2.2926867728616734e-05 -2.812304321737443e-05 -3.3824556963083963e-05 -4.0465183726712554e-05 -5.7175752117944253e-05 -4.2020191058439937e-05 -4.138524369622822e-05 -4.4914728126184086e-05 -3.5780207830221877e-05 -5.7664422770158314e-05 -4.116643301104002e-05 -2.6070926176860628e-05 -1.8066561351371026e-05 -2.9152536655402091e-05 3.5415847640212339e-05 3.0092779688277801e-05 2.7164221979822639e-05 2.93127538372326e-05 3.4299118839732466e-05 4.0542079845522642e-05 3.5178523321301733e-05 3.356554121819844e-05 3.5619714130683908e-05 3.3603565836802214e-05 2.7358094026112909e-05 3.3023534688796642e-05 3.0771225341294968e-05 3.2583560744551957e-05 3.4743877601737201e-05 7.0252388697152757e-05 3.0140341845539417e-05 4.7531844024471478e-05 2.9138144636258514e-05 6.4162033118662747e-05 4.1754806351010452e-05 6.3333039767034824e-05 3.6208285411585272e-05 3.0891712371034455e-05 3.8472012473924692e-05 2.3501879611128727e-05 2.3821093597208083e-05 3.3754405917596576e-05 2.5513848692971638e-05 3.4763743250925797e-05 1.9931378849444311e-05 3.0773580725745925e-05 2.3436376344209371e-05 2.1965836212267315e-05 1.51574160644198e-05 1.8392225794352524e-05 1.8589279733967741e-05 1.7618205465371757e-05 1.0193003556060105e-05 1.2974231077530376e-05 1.1331532324549318e-05 7.945640114749942e-06 4.9249059456791171e-06 1.8392125442423047e-05 1.6814137461271548e-05 1.5683471567263518e-05 1.3556389475614578e-05 1.935205945071988e-05 1.7625926574040833e-05 2.3492825939264896e-05 2.2520588918031096e-05 2.2120179181652143e-05 2.5154849335319259e-05 2.1633781570794972e-05 3.042186630133577e-05 2.7749810056121798e-05 2.5271235167907631e-05 3.2643930308977619e-05 2.3848758023296597e-05 4.2333815329232056e-05 2.9367737701355506e-05 3.6565625380433731e-05 2.809572077015721e-05 3.341463622060686e-05 3.5499653218571377e-05 2.709436778946091e-05 2.9255716314274528e-05 2.9411228188922473e-05 2.5130737322484431e-05 2.00671010858838e-05 2.3615881221802306e-05 2.3270750316492056e-05 1.8395617004301379e-05 1.6439195658050098e-05 1.9157329285173089e-05 2.1012853637647448e-05 1.8040416584865206e-05 1.7828647144061733e-05 1.4353264294685935e-05 1.9891228806219492e-05 1.9100148802484234e-05 2.2479587028196519e-05 2.0536433884602439e-05 2.0986763837182899e-05 5.7197074230551096e-06 8.2331866922960293e-06 4.4807107783268184e-06 1.031716590743686e-05 1.1033886746520085e-05 1.2692638398184078e-05 1.3738460030339719e-05 1.5210220367917833e-05 1.3961713284008176e-05 1.19838782507349e-05 1.3883797579220122e-05 1.0757925922775862e-05 8.8081795914991031e-06 4.586746463887999e-06 3.6665544162265123e-06 3.6640424327473971e-06 -2.5396986583521163e-07 2.1756818600293662e-06 -1.8845755764168343e-07 2.339285704622435e-06 6.7130812478110523e-06 6.2804472585816424e-06 7.4093435635057491e-06 9.6856137722502581e-06 1.0694326246632672e-05 1.3345802768680334e-05 1.1976851574063873e-05 9.6874475957405251e-06 1.0079622057328643e-05 4.6200773072957509e-06 3.3130671234516409e-06 -9.9007470118241329e-07 1.9882767751331592e-05 1.9392937129307277e-05 1.6707393099329788e-05 1.6824744794637246e-05 1.4684374307894325e-05 1.7124056201776113e-05 1.6181198943001361e-05 1.4467073038286018e-05 1.9886594887844943e-05 1.7410717956187948e-05 2.1352950094537168e-05 1.7627374529139604e-05 1.8997295172416384e-05 2.2246381129779467e-05 1.9601985207456894e-05 2.5774323944843546e-05 1.8599054355770206e-05 2.2794471196923902e-05 2.1594204516290744e-05 2.1337405304094298e-05 1.9252525080433138e-05 2.3061504443544975e-05 1.9378239063948084e-05 1.8894453651715632e-05 1.6960068710779969e-05 2.0775628394451041e-05 2.0168354124769382e-05 2.5500700908529451e-05 2.5125745430007977e-05 1.8583963836888829e-05 2.0850336464115614e-05 2.0154291063943306e-05 1.4108943233651888e-05 1.2566679820249478e-05 7.9771255978933036e-06 1.7427199224606126e-06 5.3281503028351605e-06 9.1636219305324377e-06 1.4464585434291355e-05 4.8425702451409619e-06 1.1417598645498112e-05 1.5547565927474403e-05 1.8732426254598732e-05 1.875319925851871e-05 1.6223086956330947e-05 2.2313300855800862e-05 1.1216805561905324e-05 8.1465517597443252e-06 1.2897756540378872e-05 1.439162106198558e-05 3.9511217124133548e-06 1.0954693440825178e-05 1.6900799303785957e-05 1.3047196805993762e-05 2.5246198324280076e-05 1.7686642332306789e-05 1.4787403904438837e-05 2.0614614602746157e-05 2.0486336360342845e-05 2.3954331237268738e-05 3.2458918330139559e-05 2.7951639367056244e-05 2.9873198051706037e-05 2.4037601901605086e-05 2.7425002141821333e-05 3.1686911918394321e-05 2.5939308386703452e-05 2.9589555133310401e-05 2.348374409937211e-05 2.2885875061542119e-05 2.1910003508645362e-05 2.4678286767582194e-05 1.9567691425879277e-05 2.3490644593785219e-05 1.9467329816318423e-05 2.2025876953518663e-05 2.0162009964624979e-05 2.1824006631505396e-05 2.4132955362175894e-05 -4.4299769104539276e-05 -3.0255595252752946e-05 -3.2602844168206282e-05 -2.6705884450350488e-05 -2.3213989020658081e-05 -2.7257051660937809e-05 -3.1265101070353448e-05 -2.7600989658682248e-05 -2.6254461750891124e-05 -2.3759577310576738e-05 -2.5590920812953726e-05 -2.5575195645411244e-05 -2.418788924724522e-05 -1.5822793315473922e-05 -2.4002521972524565e-05 -3.6797276262676554e-05 -1.5122184781744019e-05 -2.8694332946906881e-05 -1.524242604945579e-05 -1.3882114073223124e-05 -1.5179094805192351e-05 -1.2972200095632484e-05 -1.5141225159992781e-05 -6.9897751868233355e-06 -7.6980787760104271e-06 -3.834707087335192e-06 -5.2950878012331446e-06 3.0890999175683665e-06 5.9266070378546454e-06 -1.147736831977412e-06 -3.6488871184655496e-06 -3.1478600208037794e-06 3.5460664107450906e-07 6.5475607469406075e-06 -6.0307852022870894e-06 2.9529198438227081e-06 -2.0713723979398041e-06 -8.4548330892773957e-06 6.372562103000687e-06 -4.8510128862412936e-06 -2.6341273076834268e-06 -2.2132084702676165e-05 -1.8128281086209721e-05 -1.6659585995502615e-05 -3.8101749652311994e-06 -1.3883951346922107e-05 -2.6715009961387181e-05 -2.1410894427926851e-05 -3.2116691251285293e-05 -2.4775811276407597e-05 -3.4027020281992385e-05 -1.8290411992460207e-05 -2.9301086664193081e-05 -5.066660746902279e-05 -5.4162761351583369e-05 -6.3160002829672028e-05 -4.4818349652888135e-05 -5.216700083207422e-05 -3.2539828784499771e-05 -4.6651231262775068e-05 -3.0634240108807164e-05 -6.6475556269375157e-05 -0.0001021314520435972 -6.1600350860129951e-05 -6.5436537215403118e-05 -8.5172859829438013e-05 -7.3134257415711083e-05 -4.8545344059918024e-05 -5.7348212442920413e-05 -5.4737356568711041e-05 -3.2414040616027419e-05 -3.4102831091088859e-05 -2.6875053821860671e-05 -3.0036157591020984e-05 -4.3899662239694446e-05 -3.5288879026953384e-05 -4.1178314361583264e-06 5.5323763666532028e-06 8.9129539673457703e-06 -2.4466517245356232e-05 -9.4478043829032874e-06 -2.6491777374106531e-05 -1.4849452020872548e-05 -1.0532437479181889e-05 2.6895614723704597e-06 -1.0868259440073755e-05 2.3621201078189834e-06 1.6746143984878747e-05 9.1555889383545557e-06 2.1843287410546359e-05 8.27983179246557e-06 1.9678023708037944e-05 3.4573911489715989e-05 1.2398389704078969e-05 3.1517085269512862e-05 3.4027464913305748e-05 5.9338495903217748e-05 5.9125814421194493e-05 2.8193729460450221e-05 2.1377301809536166e-05 6.1908680778752765e-05 0.0001044539768867642 9.6490530182498631e-05 0.00010386039426085595 6.8055730795354269e-05 4.591869255765504e-05 5.6584784497879194e-05 3.9444144250899525e-05 1.1957375628549147e-05 2.9695675772787331e-06 -1.0018302622093384e-06 -1.7042366137236453e-05 2.6173997513746728e-05 -1.2331069309826515e-05 -4.1142666120295675e-05 -4.7962479180371109e-05 -2.35688830612937e-05 -3.8259407955411437e-05 -2.6689041851727963e-05 -6.0222763309179624e-05 -3.5416350077779836e-05 -4.7517338580312075e-05 -7.0983517437543111e-05 -7.1207938660429763e-05 -0.0001070197614724679 -7.7433044473748105e-05 -0.0001082401211565472 -8.2703560547151445e-05 -5.9702741253479447e-05 -7.231767389089604e-05 4.7239960603611425e-05 5.112055332289654e-05 5.4003860572180734e-05 4.9971824620367094e-05 4.6581921273536869e-05 3.9593033114318957e-05 3.527273811895445e-05 4.4404844865423285e-05 3.1152549856234386e-05 3.6766048096566172e-05 2.6210745911499428e-05 3.5807101317883382e-05 3.0315652485837811e-05 3.6570680794695978e-05 3.9623481877949236e-05 3.4602889109501198e-05 3.0550776176834167e-05 2.3565339228954103e-05 3.6587129580174242e-05 3.4556571131740655e-05 4.2426925370790049e-05 2.3606391607004535e-05 3.0018647035069623e-05 3.9077789079931237e-05 4.725198814630252e-05 6.1237213649696225e-05 4.8861885956882366e-05 5.2739985072008404e-05 5.1128697999956867e-05 6.4259997692727583e-05 7.3443349075265514e-05 9.1561114090107383e-05 9.7333995764295304e-05 8.9419985385808559e-05 7.9164773083879956e-05 8.3742888611945812e-05 0.00010067167232349783 9.8187640137669557e-05 0.00017212539960646076 0.00021223393394983564 0.00020587898698528709 0.00013880533618956209 7.3072487599008541e-05 9.7704478489164372e-05 0.00012602974777304289 7.3794943905532219e-05 7.8574671665444221e-05 8.3804107619866184e-05 5.9466931753303896e-05 7.3583660058577474e-05 4.9014137328541729e-05 6.2769627587391379e-05 4.7892559513860145e-05 6.5221512819097752e-05 4.0033620393291347e-05 5.0612852748561843e-05 5.4035156563649063e-05 4.6962075786856536e-05 4.0466422365033317e-05 6.2938641978302264e-05 4.2553122013572772e-05 3.7363495931039536e-05 4.8934001884446913e-05 3.2277022583796557e-05 2.5584153148595277e-05 3.6799213667208029e-05 3.7524829672918409e-05 2.3198517810526218e-05 4.1726606145057229e-05 2.9891984009939844e-05 3.6558062770862467e-05 6.1672898482928115e-05 5.3915809355500684e-05 5.0191334462423612e-05 5.6386339789888126e-05 7.5818491043442966e-05 7.995046392058785e-05 9.6568421054910557e-05 0.00022726742537067791 3.603652985390525e-05 9.3349128713384166e-05 0.00021492650475414234 0.000130368891951736 0.013371969128029449 0.00020230746216730192 0.0001057650656121165 0.033699042854636742 3.6335891604659864e-05 0.00010796140649702806 0.048603177689095362 4.7702954558445523e-05 7.9951907271798902e-05 3.219314579025443e-05 5.1025063380383902e-05 4.592149853136873e-05 4.1520193391635031e-05 4.0309646748770841e-05 6.1710979277945712e-05 6.4378244112651127e-05 4.4974109915401901e-05 7.5887954107309828e-05 9.9301609701533608e-05 0.00011171043564350272 0.062559831746508726 0.00010794085497286025 0.00010073861651315949 8.7629938234594276e-05 0.00011372484350466536 8.428105618097227e-05 0.076846385934026276 0.0001019775087429068 5.292560037115535e-05 4.0010321865066275e-05 7.5044274561698106e-05 5.5069686956141695e-05 6.1313375691666755e-05 3.5223905024024389e-05 3.3636907261659328e-05 3.7144993911760507e-05 2.6110245386503739e-05 2.6169704705896434e-05 1.8044951809317901e-05 2.0991897917822604e-05 2.0035115930410244e-05 2.35196430440355e-05 2.499024397628998e-05 1.7977380143979304e-05 2.7255939055602981e-05 2.3400487098965078e-05 2.5965036050012692e-05 2.9743976276440782e-05 3.4023148315671806e-05 -6.5097827015461827e-05 -7.8214203458023927e-05 -4.9252754402364859e-05 -9.8101397716777983e-05 -9.6336697841853348e-05 -6.1629330733931672e-05 -6.5368127291640338e-05 -3.9215969531012653e-05 -2.1424041156139616e-05 -8.4749277601855848e-07 -2.850524059245553e-05 -1.8662007246864965e-05 -4.2511191420308708e-05 -1.7155669440546868e-05 3.0251921725400017e-05 7.5838259006200549e-06 5.3154215684454264e-05 8.5161848958825379e-06 -1.6415434939728857e-05 2.4020986871741584e-05 2.1041910859821884e-05 7.3008761214503489e-05 0.00011351819869516281 8.5868896972282323e-05 9.4788531886103196e-05 4.612168195393374e-05 6.4171218527601416e-05 7.7920420491764441e-05 3.6051597186835625e-05 3.6640797247895415e-05 6.2494853109823847e-05 6.4255790409090434e-05 6.99639939996579e-05 5.9345590389363437e-05 3.9190962784024959e-05 3.6102639179773442e-05 1.3614140377368023e-05 1.6325193596825586e-05 1.2599732198955837e-05 -8.3432699850894722e-06 1.4416122682011853e-05 1.9242192909841194e-05 -1.5387662587653533e-06 -5.7895038317172542e-06 -2.5069068385391927e-05 -2.8511244177743805e-05 -2.8730542457735229e-05 -2.7166119731183752e-05 -9.9022594121337022e-06 -1.0072897402423715e-05 -1.7044164197353446e-05 -2.6934388502246158e-05 -3.404944255203839e-05 -4.9539828481651258e-05 -2.788602268553853e-05 -3.8945662994355895e-05 -6.7203300460605235e-05 -4.9599396486722574e-05 -4.9908999815776161e-05 -4.9504052424309054e-06 -2.1918921975064981e-05 -8.6843803403383393e-06 -2.3700108230048818e-05 -2.3288389251615096e-05 -3.8258353682358789e-05 -3.3271034480384341e-05 -2.5295045429253073e-05 -1.698866722668526e-05 -1.3147962497671653e-05 -9.1968949625887905e-06 -8.8660652649338173e-07 -1.3863058421362609e-06 -1.1321503287430945e-05 3.4709905251303344e-07 1.5376407393929894e-05 1.8268006884621015e-05 2.9303300037746872e-05 -4.023743871098967e-07 -3.6953229775615361e-06 1.1976474209821932e-05 1.2621530227390192e-05 2.4364174020798882e-05 1.6393606728945694e-05 4.5551471302576405e-05 4.7276063136870907e-05 3.5999497824688257e-05 5.4354097645594899e-05 8.1309107439323826e-05 5.7333075914673109e-05 7.5723981009516439e-05 3.7460877334307129e-05 4.8589291014198449e-05 7.685214765225986e-05 5.2190653966864738e-05 8.3385504739282544e-05 6.2350767968069425e-05 9.5613125385920865e-05 0.00010175649062772469 5.6682013781861676e-05 3.7226319592755484e-05 1.0017030728113815e-05 8.9625045738292788e-06 1.46484340625367e-05 1.3434797879589323e-05 3.4357188625586121e-05 1.8738878871878833e-05 3.5908903068080679e-05 4.5398764811658762e-07 -1.1226911015824008e-05 2.8529569818473016e-07 -8.7021338809802756e-07 -3.0832081656198031e-06 -6.6332100558900292e-06 -4.0659421980801178e-06 3.581384735587903e-06 -2.1513521538847613e-06 -3.7899162055416921e-06 5.31461501505643e-07 5.3591326953233986e-07 -9.2278455433598278e-07 2.2395333579960236e-06 -3.3595617179946885e-06 -5.5276603410724752e-06 -1.5609030072235262e-05 2.3165741651789149e-05 4.7824712984431391e-05 4.664727173516901e-05 3.2990241465453312e-05 1.5241208115403646e-05 9.9311697547544396e-06 8.0022052832712937e-06 1.7784706982140953e-05 1.3291225729166281e-05 1.3950937942586541e-05 2.7707767895393835e-05 2.6647445439250349e-05 2.1411683408547732e-05 3.8529088560823968e-05 4.172645105297748e-05 6.1094076012513376e-05 9.2760528878464189e-05 0.00011018756272975053 7.2735633936442065e-05 9.7103713650357418e-05 0.00013022292865800221 0.00010320509282101768 0.091681737383918008 8.249056101719077e-05 0.00012073227190039035 0.00011640130612522578 0.10730716833381845 0.00012486540771065716 0.00013435847820634107 0.12389462597140885 0.00011144119974876071 7.1034836014485705e-05 0.00012407272968063712 6.4968512442132773e-05 8.4298691970940086e-05 9.277569304819871e-05 7.0395935640808706e-05 0.00014560625344979192 0.00014735534889882048 0.00010611068011532456 0.00015372840644915699 0.1412703819641315 0.00018003694513942599 0.00016781470237002051 0.0001334899171228348 0.0001540552030999899 0.16180078419599947 0.00020732350771377264 0.00016471393583312142 6.2313187540860267e-05 0.0001586619486393544 0.00019801638632310509 0.00014470937593683052 8.1445032828440572e-05 7.8513812994384377e-07 3.2034011566531165e-05 -3.9449442077745499e-06 3.8973222967619717e-05 1.3452027593010727e-05 1.5348556725422588e-05 3.0251006797760961e-05 4.2935972181254141e-05 -1.0772048689002087e-06 8.9059366022936893e-06 -5.3728288521911072e-06 7.9908177303058013e-06 -5.3194854816476615e-06 -1.3142389575166238e-05 -3.5503272268903483e-05 -1.8439667248579825e-05 -3.873065713995438e-05 -2.083487584866677e-05 -1.2527587143224635e-05 -2.0757934156683233e-05 8.8135876900352931e-06 -1.6636041627481581e-05 -8.2036236770783276e-06 1.9616217327019739e-05 -3.1303612121526421e-06 5.9101654487213762e-06 1.6938856363055968e-05 1.921898306176382e-05 -4.3858873424100324e-06 2.9501097892791666e-06 -1.2640146787875435e-06 5.1083005040391117e-06 9.0939898800764018e-06 8.6044389355304472e-06 1.0221025761874549e-05 4.6199707203283154e-06 9.6233127821800926e-06 7.150818535034062e-06 1.7218191880788273e-05 2.9090998637096906e-05 1.5682454097281197e-05 1.3864043075588277e-05 1.6361437777562141e-05 2.5200892097780592e-05 1.6531848466537461e-05 1.2194385977224993e-05 1.6158146391062352e-05 1.0480265516365182e-05 1.3473170574532321e-05 1.2890535909076061e-05 6.0309716419833107e-05 0.047480502062694316 6.3802532334939974e-05 5.0037510017452433e-05 4.1656961908487374e-05 2.3675674151593822e-05 2.9280317825633667e-05 2.7410099121684395e-05 5.6034003879209019e-05 4.0629773955555277e-05 4.841298699875929e-05 3.411399555996997e-05 7.009540598523897e-05 8.4510360454710339e-05 6.0641805681458782e-05 5.9358289820040169e-05 0.067908574174011457 6.8295450019551797e-05 7.0263164409194688e-05 0.057047949824892322 8.4856327242860755e-05 0.080375391762946585 0.0001081380886992807 9.5225822268028972e-05 7.5119425367024383e-05 4.0554905468893256e-05 5.2083629172795321e-05 8.703540661276067e-05 6.1981282331157383e-05 2.972533761998956e-05 9.4402688908983836e-05 0.00012059669255507738 8.4165409311881458e-05 4.3583911015712256e-05 9.1440331492350637e-05 0.095298908157358364 0.0001269991883756684 9.8965459585496299e-05 6.1538618989846012e-05 3.2686988075940164e-05 3.6685874084385877e-05 5.410560226810332e-05 1.8788130127581071e-05 2.1365382349906696e-06 5.4899779900934378e-06 7.1883404364489825e-06 1.9590982340376355e-05 7.8119817968000382e-06 6.487601527353868e-06 1.6630838260930621e-05 3.894204108009574e-05 4.8138175571731286e-05 2.6868921155515459e-05 1.4278222413293025e-06 -5.9685703651928684e-07 2.7286751909234134e-07 3.0280413778173768e-07 -3.0466925023397984e-06 -2.1427782840458334e-06 1.9356826783723836e-06 -3.0379960418371217e-06 -5.4788660979248485e-06 -3.9552362710503983e-06 -3.5021291349945352e-06 -9.3749629612813071e-06 -8.9015990428189997e-07 -1.0002035759457302e-06 -4.4867132811036666e-06 -1.0429129858934515e-05 -2.2776966436943019e-06 -1.5294538920207837e-05 -3.9732476220181567e-06 -6.7098405589747796e-06 -1.5735088811272421e-05 -9.676774681635701e-06 -6.4457205208512044e-08 -2.0643500210294936e-06 -1.9785840919693716e-06 -1.0194183210410646e-05 -8.8816035663374921e-06 -4.8439463520367002e-08 -1.1937835139936431e-05 -1.5610637610080722e-05 -2.0144217911613168e-05 -1.7491023644286303e-05 -2.6622458003319966e-05 -1.6690137292936329e-05 2.8084388353830265e-05 2.0419592167926059e-05 3.9539798301016114e-05 2.5681472167762408e-05 6.2117381263312142e-06 5.2992540503582833e-06 1.5624639175118322e-05 1.2956553527727725e-05 5.8024474708627278e-06 3.0620430935884499e-06 4.7947443427475626e-06 2.4824507091221774e-05 1.811169123130691e-05 4.2049081192581904e-05 3.3007254718053118e-05 3.7890856760512963e-05 2.6360036652842448e-05 2.9047581715517263e-05 3.3406792536408393e-05 1.6221890194977485e-05 1.9503004909936098e-05 1.3134273437076949e-05 1.4955809851606005e-06 -1.3432941866342585e-06 1.3168273625021621e-05 3.9035663833217327e-06 1.1050544914537183e-05 -1.4751909657046433e-06 2.3526860362890365e-06 2.7723455463503615e-05 3.3217308527738179e-05 3.1289895308704227e-05 1.3361711189541594e-05 2.5007030006187923e-05 -2.6313550180815434e-05 -3.28047060517213e-05 -2.7775598558957428e-05 -3.3506115619078968e-05 -2.1657254208053709e-05 -1.1397426135856324e-05 -1.9280261220219275e-05 -8.9940268345598722e-06 -9.2602817185160041e-06 -1.1527900126802847e-05 -9.4693329177106251e-06 -8.0182427143695887e-06 -1.5990583417812719e-05 -2.1500854794523501e-05 -2.2634408955094398e-05 -2.2257140885786246e-05 -3.328112119822639e-05 -3.2529006147596266e-05 -4.0292400853139784e-05 -5.4657835550126811e-05 -4.6000752104865725e-05 -3.8407889330449412e-05 -3.1355960628840743e-05 -2.6685642327054643e-05 -1.223063050290055e-05 -1.2140735013165785e-05 -6.7139515655859723e-06 -2.0375720160657474e-05 -1.741278857845754e-05 -2.4658987383991782e-05 -2.6411714890683816e-05 -3.8370335243025533e-05 -3.5529965694424469e-05 -5.2936457667123881e-05 1.7548708328006996e-05 4.1738365221578172e-05 1.7107655824469964e-05 1.087781631857682e-05 -1.9876064125243145e-06 2.2844882946439975e-06 1.5197060461630111e-05 5.1334999687399586e-06 -1.4647454117679886e-05 -6.3661570314866634e-06 3.8086047001962761e-06 2.2437058003024437e-05 2.3621643873897704e-05 4.4191262973302853e-05 7.7091218992733477e-05 -1.5791255636990117e-06 9.708089258963614e-05 0.0071523697384486724 4.1512773359581213e-05 4.2470644600282512e-05 0.017782004220009678 6.3464055304854826e-05 0.024744123265306259 4.9207519244242768e-05 4.0691959180559883e-05 9.5651651319400848e-06 5.941802012057409e-06 1.2602825040595195e-05 -6.8964095342280321e-06 1.9319599437203524e-05 3.8971468598048416e-06 3.7254120000329863e-05 1.9911048323692913e-05 1.3664823633313336e-05 2.7948728534189862e-05 2.4629212837862959e-05 3.0424348770773552e-05 3.669072608389619e-05 3.6135298926147309e-05 2.9095007004434086e-05 2.4605839525915148e-05 2.2381471795375636e-05 2.0987673993933968e-05 1.8628728244047339e-05 1.4296270352093123e-05 1.8027702732760568e-05 1.4719808851326174e-05 1.3944334154452915e-05 1.5343180859630988e-05 1.5484195161260866e-05 1.6905315638032856e-05 2.0479278844762064e-05 2.0778339846444284e-05 1.7564853269475553e-05 1.767751963712051e-05 1.9001868151504258e-05 1.3368722092670798e-05 1.3763203988397649e-05 1.8115666429696447e-05 1.7908554603517481e-05 1.7285283845102609e-05 1.4956374783326996e-05 1.4700174571940269e-05 1.8845800414308428e-05 2.1222105865745418e-05 2.6900128501757361e-05 2.22365345534342e-05 2.1430922362271809e-05 3.3854814898364653e-05 5.7031377799475328e-05 0.039086521922961373 3.7325113225554474e-05 5.0838510522878844e-05 4.7833427921221841e-05 5.5161026692320903e-05 2.2703695392288216e-05 0.031641802721228726 4.8450255871119226e-05 3.666398195693399e-05 5.4975044052401343e-05 1.5631706292066011e-05 1.2616422379337427e-05 1.4171974781438114e-05 2.2873093170949982e-05 
</DataArray>
</CellData>
</Piece>
</UnstructuredGrid>
</VTKFile>
