<?xml version="1.0"?>
<VTKFile type="UnstructuredGrid" version="0.1" byte_order="LittleEndian">
<UnstructuredGrid>
<Piece NumberOfPoints="3142" NumberOfCells="1054">
<Points>
<DataArray type="Float64" NumberOfComponents="3" format="ascii">
0 0 0 0.049999999999899652 0 0 0.02576622439977887 0.024532886826226379 0 0 0 0 0.02576622439977887 0.024532886826226379 0 0 0.050000000000207989 0 0.049999999999899652 0 0 0.053064897599215843 0.048131547304697528 0 0.02576622439977887 0.024532886826226379 0 0 0.050000000000207989 0 0.02576622439977887 0.024532886826226379 0 0.053064897599215843 0.048131547304697528 0 0 0.10000000000041601 0 0 0.050000000000207989 0 0.044310582753132287 0.101412518374475 0 0 0.15000000000062411 0 0 0.10000000000041601 0 0.044310582753132287 0.101412518374475 0 0.083411279318303222 0.089699755330707398 0 0.044310582753132287 0.101412518374475 0 0.053064897599215843 0.048131547304697528 0 0 0.050000000000207989 0 0.053064897599215843 0.048131547304697528 0 0.044310582753132287 0.101412518374475 0 0.083411279318303222 0.089699755330707398 0 0.065374659239632718 0.1448908038746782 0 0.044310582753132287 0.101412518374475 0 0.083411279318303222 0.089699755330707398 0 0.1053400320299198 0.12877248826361379 0 0.065374659239632718 0.1448908038746782 0 0.083411279318303222 0.089699755330707398 0 0.12372429750337779 0.095814237875728972 0 0.1053400320299198 0.12877248826361379 0 0.14332333627550789 0.14578431753966009 0 0.1053400320299198 0.12877248826361379 0 0.12372429750337779 0.095814237875728972 0 0.14618258501891079 0.062070108745602003 0 0.12372429750337779 0.095814237875728972 0 0.10266856499169109 0.044518360900210059 0 0.083411279318303222 0.089699755330707398 0 0.10266856499169109 0.044518360900210059 0 0.12372429750337779 0.095814237875728972 0 0.099999999999814668 0 0 0.14999999999970359 0 0 0.10266856499169109 0.044518360900210059 0 0.049999999999899652 0 0 0.099999999999814668 0 0 0.053064897599215843 0.048131547304697528 0 0.099999999999814668 0 0 0.10266856499169109 0.044518360900210059 0 0.053064897599215843 0.048131547304697528 0 0.083411279318303222 0.089699755330707398 0 0.053064897599215843 0.048131547304697528 0 0.10266856499169109 0.044518360900210059 0 0 0.25000000000104028 0 0 0.20000000000083221 0 0.044081577119474857 0.2271058242433576 0 0 0.20000000000083221 0 0.038512288486115001 0.1844147282893184 0 0.044081577119474857 0.2271058242433576 0 0.083105206071467416 0.20007701332709979 0 0.044081577119474857 0.2271058242433576 0 0.038512288486115001 0.1844147282893184 0 0 0.15000000000062411 0 0.065374659239632718 0.1448908038746782 0 0.038512288486115001 0.1844147282893184 0 0 0.15000000000062411 0 0.044310582753132287 0.101412518374475 0 0.065374659239632718 0.1448908038746782 0 0.083105206071467416 0.20007701332709979 0 0.038512288486115001 0.1844147282893184 0 0.065374659239632718 0.1448908038746782 0 0 0.20000000000083221 0 0 0.15000000000062411 0 0.038512288486115001 0.1844147282893184 0 0.065374659239632718 0.1448908038746782 0 0.1053400320299198 0.12877248826361379 0 0.106902708054812 0.16453234188234539 0 0.14332333627550789 0.14578431753966009 0 0.106902708054812 0.16453234188234539 0 0.1053400320299198 0.12877248826361379 0 0.083105206071467416 0.20007701332709979 0 0.065374659239632718 0.1448908038746782 0 0.106902708054812 0.16453234188234539 0 0.083105206071467416 0.20007701332709979 0 0.13737030665753211 0.20313708640667491 0 0.095326043202144745 0.24554465089224409 0 0.083105206071467416 0.20007701332709979 0 0.106902708054812 0.16453234188234539 0 0.13737030665753211 0.20313708640667491 0 0.083105206071467416 0.20007701332709979 0 0.095326043202144745 0.24554465089224409 0 0.044081577119474857 0.2271058242433576 0 0.049706944316556423 0.27522722923869108 0 0.044081577119474857 0.2271058242433576 0 0.095326043202144745 0.24554465089224409 0 0.13737030665753211 0.20313708640667491 0 0.14377654328998779 0.2442024734791064 0 0.095326043202144745 0.24554465089224409 0 0.17933913398461551 0.2350063570234002 0 0.14377654328998779 0.2442024734791064 0 0.13737030665753211 0.20313708640667491 0 0.17933913398461551 0.2350063570234002 0 0.13737030665753211 0.20313708640667491 0 0.18124454140915969 0.18790916706335251 0 0.14332333627550789 0.14578431753966009 0 0.18652628422869419 0.14162325200928061 0 0.18124454140915969 0.18790916706335251 0 0.14332333627550789 0.14578431753966009 0 0.13737030665753211 0.20313708640667491 0 0.106902708054812 0.16453234188234539 0 0.14332333627550789 0.14578431753966009 0 0.18124454140915969 0.18790916706335251 0 0.13737030665753211 0.20313708640667491 0 0.14332333627550789 0.14578431753966009 0 0.16141998738593399 0.10404039647458049 0 0.18652628422869419 0.14162325200928061 0 0.2185883431182947 0.18019736283949719 0 0.18652628422869419 0.14162325200928061 0 0.22985637510995899 0.1298347970200906 0 0.2185883431182947 0.18019736283949719 0 0.22985637510995899 0.1298347970200906 0 0.25557216766470708 0.15874861286892261 0 0.2185883431182947 0.18019736283949719 0 0.25557216766470708 0.15874861286892261 0 0.26429849586623999 0.19346700179430079 0 0.2185883431182947 0.18019736283949719 0 0.18124454140915969 0.18790916706335251 0 0.18652628422869419 0.14162325200928061 0 0.17933913398461551 0.2350063570234002 0 0.18124454140915969 0.18790916706335251 0 0.224700362040408 0.22206622194729711 0 0.2185883431182947 0.18019736283949719 0 0.224700362040408 0.22206622194729711 0 0.18124454140915969 0.18790916706335251 0 0.2185883431182947 0.18019736283949719 0 0.26429849586623999 0.19346700179430079 0 0.224700362040408 0.22206622194729711 0 0.25195515620380449 0.25883339815888678 0 0.21049769590865089 0.26857363548218488 0 0.224700362040408 0.22206622194729711 0 0.17933913398461551 0.2350063570234002 0 0.224700362040408 0.22206622194729711 0 0.21049769590865089 0.26857363548218488 0 0.14999999999970359 0 0 0.184418230509967 0.038773194583122873 0 0.14618258501891079 0.062070108745602003 0 0.19922788606653311 0.085920220746880993 0 0.14618258501891079 0.062070108745602003 0 0.184418230509967 0.038773194583122873 0 0.14999999999970359 0 0 0.19999999999955789 0 0 0.184418230509967 0.038773194583122873 0 0.14999999999970359 0 0 0.14618258501891079 0.062070108745602003 0 0.10266856499169109 0.044518360900210059 0 0.14618258501891079 0.062070108745602003 0 0.16141998738593399 0.10404039647458049 0 0.12372429750337779 0.095814237875728972 0 0.14332333627550789 0.14578431753966009 0 0.12372429750337779 0.095814237875728972 0 0.16141998738593399 0.10404039647458049 0 0.19922788606653311 0.085920220746880993 0 0.18652628422869419 0.14162325200928061 0 0.16141998738593399 0.10404039647458049 0 0.19922788606653311 0.085920220746880993 0 0.16141998738593399 0.10404039647458049 0 0.14618258501891079 0.062070108745602003 0 0.19922788606653311 0.085920220746880993 0 0.22985637510995899 0.1298347970200906 0 0.18652628422869419 0.14162325200928061 0 0.19922788606653311 0.085920220746880993 0 0.24218496799700481 0.089025544070598317 0 0.22985637510995899 0.1298347970200906 0 0.27474541102162192 0.11822029332053539 0 0.22985637510995899 0.1298347970200906 0 0.24218496799700481 0.089025544070598317 0 0.19922788606653311 0.085920220746880993 0 0.22668068146512929 0.045875643423131329 0 0.24218496799700481 0.089025544070598317 0 0.27499999999933927 0.060310814194988557 0 0.24218496799700481 0.089025544070598317 0 0.22668068146512929 0.045875643423131329 0 0.19922788606653311 0.085920220746880993 0 0.184418230509967 0.038773194583122873 0 0.22668068146512929 0.045875643423131329 0 0.19999999999955789 0 0 0.22668068146512929 0.045875643423131329 0 0.184418230509967 0.038773194583122873 0 0.19999999999955789 0 0 0.24999999999941211 0 0 0.22668068146512929 0.045875643423131329 0 0.24999999999941211 0 0 0.29999999999926641 0 0 0.27499999999933927 0.060310814194988557 0 0.24999999999941211 0 0 0.27499999999933927 0.060310814194988557 0 0.22668068146512929 0.045875643423131329 0 0.29999999999926641 0 0 0.32541448401678508 0.046215317981507749 0 0.27499999999933927 0.060310814194988557 0 0.29999999999926641 0 0 0.34999999999912063 0 0 0.32541448401678508 0.046215317981507749 0 0.35312867752657662 0.084946736076730367 0 0.32541448401678508 0.046215317981507749 0 0.3615861437013822 0.03582617922508851 0 0.35312867752657662 0.084946736076730367 0 0.3615861437013822 0.03582617922508851 0 0.39591832466117061 0.056982757562006353 0 0.34999999999912063 0 0 0.3615861437013822 0.03582617922508851 0 0.32541448401678508 0.046215317981507749 0 0.34999999999912063 0 0 0.3999999999989749 0 0 0.3615861437013822 0.03582617922508851 0 0.35312867752657662 0.084946736076730367 0 0.39823268594401579 0.1116623613130045 0 0.36246644853392812 0.1399454205365751 0 0.35312867752657662 0.084946736076730367 0 0.36246644853392812 0.1399454205365751 0 0.32215584939770009 0.1218492143506909 0 0.35312867752657662 0.084946736076730367 0 0.3096713403101819 0.085471541595262421 0 0.32541448401678508 0.046215317981507749 0 0.35312867752657662 0.084946736076730367 0 0.32215584939770009 0.1218492143506909 0 0.3096713403101819 0.085471541595262421 0 0.27474541102162192 0.11822029332053539 0 0.3096713403101819 0.085471541595262421 0 0.32215584939770009 0.1218492143506909 0 0.27499999999933927 0.060310814194988557 0 0.32541448401678508 0.046215317981507749 0 0.3096713403101819 0.085471541595262421 0 0.3096713403101819 0.085471541595262421 0 0.27474541102162192 0.11822029332053539 0 0.27499999999933927 0.060310814194988557 0 0.27499999999933927 0.060310814194988557 0 0.27474541102162192 0.11822029332053539 0 0.24218496799700481 0.089025544070598317 0 0.27474541102162192 0.11822029332053539 0 0.25557216766470708 0.15874861286892261 0 0.22985637510995899 0.1298347970200906 0 0.27474541102162192 0.11822029332053539 0 0.29336099386129338 0.15892013001050981 0 0.25557216766470708 0.15874861286892261 0 0.26429849586623999 0.19346700179430079 0 0.25557216766470708 0.15874861286892261 0 0.29336099386129338 0.15892013001050981 0 0.33084213324567391 0.16272720141332131 0 0.31255190597181792 0.19850845631528771 0 0.29336099386129338 0.15892013001050981 0 0.26429849586623999 0.19346700179430079 0 0.29336099386129338 0.15892013001050981 0 0.31255190597181792 0.19850845631528771 0 0.27474541102162192 0.11822029332053539 0 0.32215584939770009 0.1218492143506909 0 0.29336099386129338 0.15892013001050981 0 0.28040350263641872 0.23054717217092141 0 0.25195515620380449 0.25883339815888678 0 0.224700362040408 0.22206622194729711 0 0.26429849586623999 0.19346700179430079 0 0.28040350263641872 0.23054717217092141 0 0.224700362040408 0.22206622194729711 0 0.26429849586623999 0.19346700179430079 0 0.31255190597181792 0.19850845631528771 0 0.28040350263641872 0.23054717217092141 0 0.33758650185219202 0.23837101504325639 0 0.29132859388405002 0.27203693976649962 0 0.28040350263641872 0.23054717217092141 0 0.33758650185219202 0.23837101504325639 0 0.28040350263641872 0.23054717217092141 0 0.31255190597181792 0.19850845631528771 0 0.33758650185219202 0.23837101504325639 0 0.31255190597181792 0.19850845631528771 0 0.3572130504031617 0.1874703368446563 0 0.33758650185219202 0.23837101504325639 0 0.3572130504031617 0.1874703368446563 0 0.38831533174504851 0.2189834941785925 0 0.33758650185219202 0.23837101504325639 0 0.38831533174504851 0.2189834941785925 0 0.3786248352540974 0.27082301512024259 0 0.33084213324567391 0.16272720141332131 0 0.29336099386129338 0.15892013001050981 0 0.32215584939770009 0.1218492143506909 0 0.33084213324567391 0.16272720141332131 0 0.32215584939770009 0.1218492143506909 0 0.36246644853392812 0.1399454205365751 0 0.33084213324567391 0.16272720141332131 0 0.3572130504031617 0.1874703368446563 0 0.31255190597181792 0.19850845631528771 0 0.39801143831225599 0.16651381068160659 0 0.3572130504031617 0.1874703368446563 0 0.36246644853392812 0.1399454205365751 0 0.33084213324567391 0.16272720141332131 0 0.36246644853392812 0.1399454205365751 0 0.3572130504031617 0.1874703368446563 0 0.39801143831225599 0.16651381068160659 0 0.36246644853392812 0.1399454205365751 0 0.39823268594401579 0.1116623613130045 0 0.39801143831225599 0.16651381068160659 0 0.44288491854585582 0.14116182884956319 0 0.42905200079338551 0.19982395548231649 0 0.39801143831225599 0.16651381068160659 0 0.39823268594401579 0.1116623613130045 0 0.44288491854585582 0.14116182884956319 0 0.42377727103934271 0.25099357235810238 0 0.3786248352540974 0.27082301512024259 0 0.38831533174504851 0.2189834941785925 0 0.39801143831225599 0.16651381068160659 0 0.38831533174504851 0.2189834941785925 0 0.3572130504031617 0.1874703368446563 0 0.39801143831225599 0.16651381068160659 0 0.42905200079338551 0.19982395548231649 0 0.38831533174504851 0.2189834941785925 0 0.42377727103934271 0.25099357235810238 0 0.38831533174504851 0.2189834941785925 0 0.42905200079338551 0.19982395548231649 0 0.42377727103934271 0.25099357235810238 0 0.42905200079338551 0.19982395548231649 0 0.46429753744194407 0.22870891180733599 0 0.47357141910802508 0.1873585799078378 0 0.46429753744194407 0.22870891180733599 0 0.42905200079338551 0.19982395548231649 0 0.47357141910802508 0.1873585799078378 0 0.51729576145820033 0.1683240575987815 0 0.50760557329222289 0.20700468884612061 0 0.47357141910802508 0.1873585799078378 0 0.50760557329222289 0.20700468884612061 0 0.46429753744194407 0.22870891180733599 0 0.49695729691142171 0.25014895411178018 0 0.46429753744194407 0.22870891180733599 0 0.50760557329222289 0.20700468884612061 0 0.47357141910802508 0.1873585799078378 0 0.44288491854585582 0.14116182884956319 0 0.48466639505193998 0.1421439844745814 0 0.47357141910802508 0.1873585799078378 0 0.42905200079338551 0.19982395548231649 0 0.44288491854585582 0.14116182884956319 0 0.47357141910802508 0.1873585799078378 0 0.48466639505193998 0.1421439844745814 0 0.51729576145820033 0.1683240575987815 0 0.44288491854585582 0.14116182884956319 0 0.47881186583059909 0.093591717165689425 0 0.48466639505193998 0.1421439844745814 0 0.51076801031701946 0.1202837388510348 0 0.48466639505193998 0.1421439844745814 0 0.47881186583059909 0.093591717165689425 0 0.43698630808430822 0.080423614171545449 0 0.47881186583059909 0.093591717165689425 0 0.44288491854585582 0.14116182884956319 0 0.43698630808430822 0.080423614171545449 0 0.47040171442036788 0.044141676406503738 0 0.47881186583059909 0.093591717165689425 0 0.52375890611712683 0.059318771819432882 0 0.47881186583059909 0.093591717165689425 0 0.47040171442036788 0.044141676406503738 0 0.49999999999869432 0 0 0.52375890611712683 0.059318771819432882 0 0.47040171442036788 0.044141676406503738 0 0.44999999999882923 0 0 0.49999999999869432 0 0 0.47040171442036788 0.044141676406503738 0 0.44999999999882923 0 0 0.47040171442036788 0.044141676406503738 0 0.4320097814748517 0.037406712692169303 0 0.43698630808430822 0.080423614171545449 0 0.4320097814748517 0.037406712692169303 0 0.47040171442036788 0.044141676406503738 0 0.3999999999989749 0 0 0.4320097814748517 0.037406712692169303 0 0.39591832466117061 0.056982757562006353 0 0.43698630808430822 0.080423614171545449 0 0.39591832466117061 0.056982757562006353 0 0.4320097814748517 0.037406712692169303 0 0.3999999999989749 0 0 0.44999999999882923 0 0 0.4320097814748517 0.037406712692169303 0 0.3999999999989749 0 0 0.39591832466117061 0.056982757562006353 0 0.3615861437013822 0.03582617922508851 0 0.35312867752657662 0.084946736076730367 0 0.39591832466117061 0.056982757562006353 0 0.39823268594401579 0.1116623613130045 0 0.43698630808430822 0.080423614171545449 0 0.44288491854585582 0.14116182884956319 0 0.39823268594401579 0.1116623613130045 0 0.43698630808430822 0.080423614171545449 0 0.39823268594401579 0.1116623613130045 0 0.39591832466117061 0.056982757562006353 0 0.43249999999999988 0.43937499999999979 0 0.38707855792647411 0.42299362914874578 0 0.42161023666869668 0.39493916313643851 0 0.38083244760691543 0.38531983672244652 0 0.42161023666869668 0.39493916313643851 0 0.38707855792647411 0.42299362914874578 0 0.38083244760691543 0.38531983672244652 0 0.40076539126862748 0.34589349467022118 0 0.42161023666869668 0.39493916313643851 0 0.43249999999999988 0.43937499999999979 0 0.3908716102680424 0.47010282357248828 0 0.38707855792647411 0.42299362914874578 0 0.38244435121258652 0.51653317813019495 0 0.3908716102680424 0.47010282357248828 0 0.43507373378304309 0.49699695397193322 0 0.43249999999999988 0.43937499999999979 0 0.43507373378304309 0.49699695397193322 0 0.3908716102680424 0.47010282357248828 0 0.43249999999999988 0.43937499999999979 0 0.46111841286828259 0.46690301029591341 0 0.43507373378304309 0.49699695397193322 0 0.43249999999999988 0.43937499999999979 0 0.48858720058566618 0.43964267759203868 0 0.46111841286828259 0.46690301029591341 0 0.49102375406324739 0.49123754822244059 0 0.43507373378304309 0.49699695397193322 0 0.46111841286828259 0.46690301029591341 0 0.49102375406324739 0.49123754822244059 0 0.46111841286828259 0.46690301029591341 0 0.48858720058566618 0.43964267759203868 0 0.52289427570932567 0.3932284363388488 0 0.48858720058566618 0.43964267759203868 0 0.46655310992796922 0.39650496622958609 0 0.43249999999999988 0.43937499999999979 0 0.46655310992796922 0.39650496622958609 0 0.48858720058566618 0.43964267759203868 0 0.43249999999999988 0.43937499999999979 0 0.42161023666869668 0.39493916313643851 0 0.46655310992796922 0.39650496622958609 0 0.4409427642593301 0.35743108089689513 0 0.46655310992796922 0.39650496622958609 0 0.42161023666869668 0.39493916313643851 0 0.52289427570932567 0.3932284363388488 0 0.46655310992796922 0.39650496622958609 0 0.49077833859261139 0.35229981449445641 0 0.5 0.29999999999999999 0 0.49077833859261139 0.35229981449445641 0 0.46226845272279993 0.31901800744800313 0 0.4409427642593301 0.35743108089689513 0 0.46226845272279993 0.31901800744800313 0 0.49077833859261139 0.35229981449445641 0 0.4409427642593301 0.35743108089689513 0 0.41914690343363781 0.30688979866601612 0 0.46226845272279993 0.31901800744800313 0 0.4409427642593301 0.35743108089689513 0 0.49077833859261139 0.35229981449445641 0 0.46655310992796922 0.39650496622958609 0 0.5 0.29999999999999999 0 0.4604742573284204 0.27846934318264788 0 0.49695729691142171 0.25014895411178018 0 0.49695729691142171 0.25014895411178018 0 0.4604742573284204 0.27846934318264788 0 0.46429753744194407 0.22870891180733599 0 0.5 0.29999999999999999 0 0.46226845272279993 0.31901800744800313 0 0.4604742573284204 0.27846934318264788 0 0.41914690343363781 0.30688979866601612 0 0.4604742573284204 0.27846934318264788 0 0.46226845272279993 0.31901800744800313 0 0.42377727103934271 0.25099357235810238 0 0.46429753744194407 0.22870891180733599 0 0.4604742573284204 0.27846934318264788 0 0.42377727103934271 0.25099357235810238 0 0.4604742573284204 0.27846934318264788 0 0.41914690343363781 0.30688979866601612 0 0.42377727103934271 0.25099357235810238 0 0.41914690343363781 0.30688979866601612 0 0.3786248352540974 0.27082301512024259 0 0.36575549820117997 0.31677992835137742 0 0.3786248352540974 0.27082301512024259 0 0.41914690343363781 0.30688979866601612 0 0.4409427642593301 0.35743108089689513 0 0.42161023666869668 0.39493916313643851 0 0.40076539126862748 0.34589349467022118 0 0.4409427642593301 0.35743108089689513 0 0.40076539126862748 0.34589349467022118 0 0.41914690343363781 0.30688979866601612 0 0.36575549820117997 0.31677992835137742 0 0.41914690343363781 0.30688979866601612 0 0.40076539126862748 0.34589349467022118 0 0.40076539126862748 0.34589349467022118 0 0.33277555741076909 0.36432196682010132 0 0.36575549820117997 0.31677992835137742 0 0.38083244760691543 0.38531983672244652 0 0.33277555741076909 0.36432196682010132 0 0.40076539126862748 0.34589349467022118 0 0.36575549820117997 0.31677992835137742 0 0.33277555741076909 0.36432196682010132 0 0.32752639306529541 0.32610012995269699 0 0.33277555741076909 0.36432196682010132 0 0.29644548887253103 0.34914008784168082 0 0.32752639306529541 0.32610012995269699 0 0.33758650185219202 0.23837101504325639 0 0.3786248352540974 0.27082301512024259 0 0.33402499257867951 0.28911035184473982 0 0.36575549820117997 0.31677992835137742 0 0.33402499257867951 0.28911035184473982 0 0.3786248352540974 0.27082301512024259 0 0.36575549820117997 0.31677992835137742 0 0.32752639306529541 0.32610012995269699 0 0.33402499257867951 0.28911035184473982 0 0.29348325746214782 0.31350119524708198 0 0.33402499257867951 0.28911035184473982 0 0.32752639306529541 0.32610012995269699 0 0.33758650185219202 0.23837101504325639 0 0.33402499257867951 0.28911035184473982 0 0.29132859388405002 0.27203693976649962 0 0.29348325746214782 0.31350119524708198 0 0.29132859388405002 0.27203693976649962 0 0.33402499257867951 0.28911035184473982 0 0.29348325746214782 0.31350119524708198 0 0.24432083401701241 0.3006253385567515 0 0.29132859388405002 0.27203693976649962 0 0.25195515620380449 0.25883339815888678 0 0.29132859388405002 0.27203693976649962 0 0.24432083401701241 0.3006253385567515 0 0.25195515620380449 0.25883339815888678 0 0.28040350263641872 0.23054717217092141 0 0.29132859388405002 0.27203693976649962 0 0.27866744612395528 0.38416094670951489 0 0.29644548887253103 0.34914008784168082 0 0.33277555741076909 0.36432196682010132 0 0.29348325746214782 0.31350119524708198 0 0.32752639306529541 0.32610012995269699 0 0.29644548887253103 0.34914008784168082 0 0.29348325746214782 0.31350119524708198 0 0.29644548887253103 0.34914008784168082 0 0.25966125648670141 0.34351016742083729 0 0.29348325746214782 0.31350119524708198 0 0.25966125648670141 0.34351016742083729 0 0.24432083401701241 0.3006253385567515 0 0.27866744612395528 0.38416094670951489 0 0.25966125648670141 0.34351016742083729 0 0.29644548887253103 0.34914008784168082 0 0.27866744612395528 0.38416094670951489 0 0.22033343844674469 0.36963382230740238 0 0.25966125648670141 0.34351016742083729 0 0.27866744612395528 0.38416094670951489 0 0.29124338931648802 0.43334555462578611 0 0.24049127783545701 0.41270748208749802 0 0.29124338931648802 0.43334555462578611 0 0.25982634974572738 0.46097799597715272 0 0.24049127783545701 0.41270748208749802 0 0.27866744612395528 0.38416094670951489 0 0.31778888742534622 0.40581751814196781 0 0.29124338931648802 0.43334555462578611 0 0.27866744612395528 0.38416094670951489 0 0.33277555741076909 0.36432196682010132 0 0.31778888742534622 0.40581751814196781 0 0.33277555741076909 0.36432196682010132 0 0.35221190152536241 0.40457127605439203 0 0.31778888742534622 0.40581751814196781 0 0.34258405725730701 0.4444034294386992 0 0.31778888742534622 0.40581751814196781 0 0.35221190152536241 0.40457127605439203 0 0.34258405725730701 0.4444034294386992 0 0.29124338931648802 0.43334555462578611 0 0.31778888742534622 0.40581751814196781 0 0.34258405725730701 0.4444034294386992 0 0.35221190152536241 0.40457127605439203 0 0.38707855792647411 0.42299362914874578 0 0.38083244760691543 0.38531983672244652 0 0.38707855792647411 0.42299362914874578 0 0.35221190152536241 0.40457127605439203 0 0.38083244760691543 0.38531983672244652 0 0.35221190152536241 0.40457127605439203 0 0.33277555741076909 0.36432196682010132 0 0.38244435121258652 0.51653317813019495 0 0.35024835142131061 0.48654922671676981 0 0.3908716102680424 0.47010282357248828 0 0.34258405725730701 0.4444034294386992 0 0.3908716102680424 0.47010282357248828 0 0.35024835142131061 0.48654922671676981 0 0.34258405725730701 0.4444034294386992 0 0.38707855792647411 0.42299362914874578 0 0.3908716102680424 0.47010282357248828 0 0.34258405725730701 0.4444034294386992 0 0.31068898841644388 0.47541502461811092 0 0.29124338931648802 0.43334555462578611 0 0.35024835142131061 0.48654922671676981 0 0.33190227185843768 0.52715113583864037 0 0.31068898841644388 0.47541502461811092 0 0.34258405725730701 0.4444034294386992 0 0.35024835142131061 0.48654922671676981 0 0.31068898841644388 0.47541502461811092 0 0.28307294598219601 0.50789252727458634 0 0.25982634974572738 0.46097799597715272 0 0.31068898841644388 0.47541502461811092 0 0.29124338931648802 0.43334555462578611 0 0.31068898841644388 0.47541502461811092 0 0.25982634974572738 0.46097799597715272 0 0.28307294598219601 0.50789252727458634 0 0.23975172658309729 0.49475499200540818 0 0.25982634974572738 0.46097799597715272 0 0.22278230690790279 0.44824268025881547 0 0.23975172658309729 0.49475499200540818 0 0.19604738184454831 0.47787523520405789 0 0.22278230690790279 0.44824268025881547 0 0.19604738184454831 0.47787523520405789 0 0.191953871957803 0.42546416763755879 0 0.22278230690790279 0.44824268025881547 0 0.24049127783545701 0.41270748208749802 0 0.25982634974572738 0.46097799597715272 0 0.22278230690790279 0.44824268025881547 0 0.25982634974572738 0.46097799597715272 0 0.23975172658309729 0.49475499200540818 0 0.27866744612395528 0.38416094670951489 0 0.24049127783545701 0.41270748208749802 0 0.22033343844674469 0.36963382230740238 0 0.1650278706801647 0.38791388161335733 0 0.22033343844674469 0.36963382230740238 0 0.191953871957803 0.42546416763755879 0 0.22033343844674469 0.36963382230740238 0 0.24049127783545701 0.41270748208749802 0 0.191953871957803 0.42546416763755879 0 0.22278230690790279 0.44824268025881547 0 0.191953871957803 0.42546416763755879 0 0.24049127783545701 0.41270748208749802 0 0.15801167086041079 0.46008690540259539 0 0.13773355295499351 0.42497777642586831 0 0.191953871957803 0.42546416763755879 0 0.1650278706801647 0.38791388161335733 0 0.191953871957803 0.42546416763755879 0 0.13773355295499351 0.42497777642586831 0 0.1650278706801647 0.38791388161335733 0 0.13773355295499351 0.42497777642586831 0 0.1117088112799664 0.38831403004970022 0 0.15801167086041079 0.46008690540259539 0 0.113541300460994 0.46208784312094731 0 0.13773355295499351 0.42497777642586831 0 0.1216098864341134 0.50637075089503902 0 0.113541300460994 0.46208784312094731 0 0.15801167086041079 0.46008690540259539 0 0.1216098864341134 0.50637075089503902 0 0.15801167086041079 0.46008690540259539 0 0.16618607197337229 0.50652878253548905 0 0.15801167086041079 0.46008690540259539 0 0.19604738184454831 0.47787523520405789 0 0.16618607197337229 0.50652878253548905 0 0.15801167086041079 0.46008690540259539 0 0.191953871957803 0.42546416763755879 0 0.19604738184454831 0.47787523520405789 0 0.25195515620380449 0.25883339815888678 0 0.24432083401701241 0.3006253385567515 0 0.21049769590865089 0.26857363548218488 0 0.19670163708476801 0.31472518408333222 0 0.21049769590865089 0.26857363548218488 0 0.24432083401701241 0.3006253385567515 0 0.19670163708476801 0.31472518408333222 0 0.168349569971391 0.28054490850913671 0 0.21049769590865089 0.26857363548218488 0 0.19670163708476801 0.31472518408333222 0 0.22615676742807109 0.33458786033114157 0 0.18434624290945251 0.35208838264196463 0 0.19670163708476801 0.31472518408333222 0 0.24432083401701241 0.3006253385567515 0 0.22615676742807109 0.33458786033114157 0 0.24432083401701241 0.3006253385567515 0 0.25966125648670141 0.34351016742083729 0 0.22615676742807109 0.33458786033114157 0 0.22033343844674469 0.36963382230740238 0 0.22615676742807109 0.33458786033114157 0 0.25966125648670141 0.34351016742083729 0 0.22033343844674469 0.36963382230740238 0 0.18434624290945251 0.35208838264196463 0 0.22615676742807109 0.33458786033114157 0 0.1650278706801647 0.38791388161335733 0 0.18434624290945251 0.35208838264196463 0 0.22033343844674469 0.36963382230740238 0 0.1650278706801647 0.38791388161335733 0 0.14223753364722069 0.3341983344262433 0 0.18434624290945251 0.35208838264196463 0 0.1650278706801647 0.38791388161335733 0 0.1117088112799664 0.38831403004970022 0 0.14223753364722069 0.3341983344262433 0 0.19670163708476801 0.31472518408333222 0 0.18434624290945251 0.35208838264196463 0 0.14223753364722069 0.3341983344262433 0 0.19670163708476801 0.31472518408333222 0 0.14223753364722069 0.3341983344262433 0 0.168349569971391 0.28054490850913671 0 0.1247745017231483 0.27198077544791172 0 0.168349569971391 0.28054490850913671 0 0.14223753364722069 0.3341983344262433 0 0.1247745017231483 0.27198077544791172 0 0.14377654328998779 0.2442024734791064 0 0.168349569971391 0.28054490850913671 0 0.17933913398461551 0.2350063570234002 0 0.21049769590865089 0.26857363548218488 0 0.168349569971391 0.28054490850913671 0 0.17933913398461551 0.2350063570234002 0 0.168349569971391 0.28054490850913671 0 0.14377654328998779 0.2442024734791064 0 0.049706944316556423 0.27522722923869108 0 0.095326043202144745 0.24554465089224409 0 0.093851963071650835 0.30582068233324772 0 0.1247745017231483 0.27198077544791172 0 0.095326043202144745 0.24554465089224409 0 0.14377654328998779 0.2442024734791064 0 0.1247745017231483 0.27198077544791172 0 0.093851963071650835 0.30582068233324772 0 0.095326043202144745 0.24554465089224409 0 0.1247745017231483 0.27198077544791172 0 0.14223753364722069 0.3341983344262433 0 0.093851963071650835 0.30582068233324772 0 0.049706944316556423 0.27522722923869108 0 0.093851963071650835 0.30582068233324772 0 0.046389130980076937 0.32668781832131749 0 0.087545339447545459 0.35122518864182262 0 0.046389130980076937 0.32668781832131749 0 0.093851963071650835 0.30582068233324772 0 0.087545339447545459 0.35122518864182262 0 0.093851963071650835 0.30582068233324772 0 0.14223753364722069 0.3341983344262433 0 0.087545339447545459 0.35122518864182262 0 0.14223753364722069 0.3341983344262433 0 0.1117088112799664 0.38831403004970022 0 0.087545339447545459 0.35122518864182262 0 0.1117088112799664 0.38831403004970022 0 0.050583896093752537 0.38543522283434112 0 0.087545339447545459 0.35122518864182262 0 0.050583896093752537 0.38543522283434112 0 0.046389130980076937 0.32668781832131749 0 0 0.35000000000145642 0 0.046389130980076937 0.32668781832131749 0 0.050583896093752537 0.38543522283434112 0 0 0.35000000000145642 0 0 0.30000000000124832 0 0.046389130980076937 0.32668781832131749 0 0 0.30000000000124832 0 0.049706944316556423 0.27522722923869108 0 0.046389130980076937 0.32668781832131749 0 0 0.30000000000124832 0 0 0.25000000000104028 0 0.049706944316556423 0.27522722923869108 0 0 0.25000000000104028 0 0.044081577119474857 0.2271058242433576 0 0.049706944316556423 0.27522722923869108 0 0.078358742472063481 0.43365249433908948 0 0.113541300460994 0.46208784312094731 0 0.068743045408989428 0.48853989837882689 0 0.1216098864341134 0.50637075089503902 0 0.068743045408989428 0.48853989837882689 0 0.113541300460994 0.46208784312094731 0 0.113541300460994 0.46208784312094731 0 0.078358742472063481 0.43365249433908948 0 0.13773355295499351 0.42497777642586831 0 0.078358742472063481 0.43365249433908948 0 0.1117088112799664 0.38831403004970022 0 0.13773355295499351 0.42497777642586831 0 0.078358742472063481 0.43365249433908948 0 0.050583896093752537 0.38543522283434112 0 0.1117088112799664 0.38831403004970022 0 0.078358742472063481 0.43365249433908948 0 0.035463093262830522 0.42673416072819947 0 0.050583896093752537 0.38543522283434112 0 0 0.40000000000166441 0 0 0.35000000000145642 0 0.050583896093752537 0.38543522283434112 0 0 0.40000000000166441 0 0.050583896093752537 0.38543522283434112 0 0.035463093262830522 0.42673416072819947 0 0 0.45000000000187229 0 0 0.40000000000166441 0 0.035463093262830522 0.42673416072819947 0 0 0.45000000000187229 0 0.035463093262830522 0.42673416072819947 0 0.033550201249889847 0.46247875832467239 0 0 0.50000000000205869 0 0.033550201249889847 0.46247875832467239 0 0.068743045408989428 0.48853989837882689 0 0.078358742472063481 0.43365249433908948 0 0.068743045408989428 0.48853989837882689 0 0.033550201249889847 0.46247875832467239 0 0.078358742472063481 0.43365249433908948 0 0.033550201249889847 0.46247875832467239 0 0.035463093262830522 0.42673416072819947 0 0 0.50000000000205869 0 0 0.45000000000187229 0 0.033550201249889847 0.46247875832467239 0 0 0.50000000000205869 0 0.068743045408989428 0.48853989837882689 0 0.044576108720083309 0.53509043209532614 0 0 0.55000000000173355 0 0 0.50000000000205869 0 0.044576108720083309 0.53509043209532614 0 0 0.55000000000173355 0 0.044576108720083309 0.53509043209532614 0 0.034381862692950467 0.57372682250960894 0 0.077693244765132896 0.56932317963405099 0 0.034381862692950467 0.57372682250960894 0 0.044576108720083309 0.53509043209532614 0 0.068743045408989428 0.48853989837882689 0 0.085622222639554768 0.53333248912060549 0 0.044576108720083309 0.53509043209532614 0 0.1216098864341134 0.50637075089503902 0 0.085622222639554768 0.53333248912060549 0 0.068743045408989428 0.48853989837882689 0 0.077693244765132896 0.56932317963405099 0 0.044576108720083309 0.53509043209532614 0 0.085622222639554768 0.53333248912060549 0 0.077693244765132896 0.56932317963405099 0 0.085622222639554768 0.53333248912060549 0 0.1154888278694548 0.56733818459978413 0 0.085622222639554768 0.53333248912060549 0 0.1216098864341134 0.50637075089503902 0 0.1154888278694548 0.56733818459978413 0 0.077693244765132896 0.56932317963405099 0 0.1154888278694548 0.56733818459978413 0 0.1024350934457823 0.60772393977513839 0 0.086179601630648681 0.64647209519980475 0 0.050069554451969707 0.61308520079857043 0 0.1024350934457823 0.60772393977513839 0 0.077693244765132896 0.56932317963405099 0 0.1024350934457823 0.60772393977513839 0 0.050069554451969707 0.61308520079857043 0 0.077693244765132896 0.56932317963405099 0 0.050069554451969707 0.61308520079857043 0 0.034381862692950467 0.57372682250960894 0 0 0.60000000000138687 0 0 0.55000000000173355 0 0.034381862692950467 0.57372682250960894 0 0 0.65000000000104008 0 0 0.60000000000138687 0 0.050069554451969707 0.61308520079857043 0 0 0.60000000000138687 0 0.034381862692950467 0.57372682250960894 0 0.050069554451969707 0.61308520079857043 0 0 0.7000000000006934 0 0 0.65000000000104008 0 0.046634677244967337 0.671418230738282 0 0.086179601630648681 0.64647209519980475 0 0.046634677244967337 0.671418230738282 0 0.050069554451969707 0.61308520079857043 0 0 0.65000000000104008 0 0.050069554451969707 0.61308520079857043 0 0.046634677244967337 0.671418230738282 0 0 0.75000000000034661 0 0 0.7000000000006934 0 0.049706944316475897 0.72477277076253799 0 0 0.7000000000006934 0 0.046634677244967337 0.671418230738282 0 0.049706944316475897 0.72477277076253799 0 0 0.75000000000034661 0 0.049706944316475897 0.72477277076253799 0 0.04408157711937423 0.7728941757575627 0 0.049706944316475897 0.72477277076253799 0 0.1020579365089687 0.69352219419301997 0 0.090953281884486245 0.7564451946902494 0 0.1215415378367805 0.72939333680004137 0 0.090953281884486245 0.7564451946902494 0 0.1020579365089687 0.69352219419301997 0 0.049706944316475897 0.72477277076253799 0 0.046634677244967337 0.671418230738282 0 0.1020579365089687 0.69352219419301997 0 0.1215415378367805 0.72939333680004137 0 0.14335651144331049 0.75565258250209677 0 0.090953281884486245 0.7564451946902494 0 0.086179601630648681 0.64647209519980475 0 0.1020579365089687 0.69352219419301997 0 0.046634677244967337 0.671418230738282 0 0.086179601630648681 0.64647209519980475 0 0.1241190223511371 0.64391885572885044 0 0.1020579365089687 0.69352219419301997 0 0.086179601630648681 0.64647209519980475 0 0.1024350934457823 0.60772393977513839 0 0.1241190223511371 0.64391885572885044 0 0.16500388252850301 0.66612077714085194 0 0.1020579365089687 0.69352219419301997 0 0.1241190223511371 0.64391885572885044 0 0.15720202157091859 0.60665697304410315 0 0.16500388252850301 0.66612077714085194 0 0.1241190223511371 0.64391885572885044 0 0.15720202157091859 0.60665697304410315 0 0.19914261668318661 0.62286739485272158 0 0.16500388252850301 0.66612077714085194 0 0.16500388252850301 0.66612077714085194 0 0.15332765547575641 0.71200081858233666 0 0.1020579365089687 0.69352219419301997 0 0.1215415378367805 0.72939333680004137 0 0.15332765547575641 0.71200081858233666 0 0.14335651144331049 0.75565258250209677 0 0.1215415378367805 0.72939333680004137 0 0.1020579365089687 0.69352219419301997 0 0.15332765547575641 0.71200081858233666 0 0.16500388252850301 0.66612077714085194 0 0.19068556247388771 0.71028988922845504 0 0.15332765547575641 0.71200081858233666 0 0.18269480424590959 0.75905448272264375 0 0.14335651144331049 0.75565258250209677 0 0.15332765547575641 0.71200081858233666 0 0.18269480424590959 0.75905448272264375 0 0.15332765547575641 0.71200081858233666 0 0.19068556247388771 0.71028988922845504 0 0.18269480424590959 0.75905448272264375 0 0.19068556247388771 0.71028988922845504 0 0.2248999640082178 0.72584299459689172 0 0.2236846579037573 0.67380363126050236 0 0.2248999640082178 0.72584299459689172 0 0.19068556247388771 0.71028988922845504 0 0.2236846579037573 0.67380363126050236 0 0.26439878998046262 0.7048065392091396 0 0.2248999640082178 0.72584299459689172 0 0.25676291524611189 0.7436741304886243 0 0.22556077506376701 0.77837424984191617 0 0.2248999640082178 0.72584299459689172 0 0.25676291524611189 0.7436741304886243 0 0.2248999640082178 0.72584299459689172 0 0.26439878998046262 0.7048065392091396 0 0.2236846579037573 0.67380363126050236 0 0.16500388252850301 0.66612077714085194 0 0.19914261668318661 0.62286739485272158 0 0.2236846579037573 0.67380363126050236 0 0.19068556247388771 0.71028988922845504 0 0.16500388252850301 0.66612077714085194 0 0.2236846579037573 0.67380363126050236 0 0.19914261668318661 0.62286739485272158 0 0.2459498854893499 0.63248470766216769 0 0.2236846579037573 0.67380363126050236 0 0.2459498854893499 0.63248470766216769 0 0.27820712747429932 0.65530134213254643 0 0.22549374774072969 0.58452645269293457 0 0.2459498854893499 0.63248470766216769 0 0.19914261668318661 0.62286739485272158 0 0.26573297623774761 0.59828298563722948 0 0.2459498854893499 0.63248470766216769 0 0.22549374774072969 0.58452645269293457 0 0.22549374774072969 0.58452645269293457 0 0.19914261668318661 0.62286739485272158 0 0.18381867841758909 0.57774125163628387 0 0.20050006573841939 0.53248514016039872 0 0.22549374774072969 0.58452645269293457 0 0.18381867841758909 0.57774125163628387 0 0.26573297623774761 0.59828298563722948 0 0.22549374774072969 0.58452645269293457 0 0.25115337790845271 0.54719303014923271 0 0.20050006573841939 0.53248514016039872 0 0.25115337790845271 0.54719303014923271 0 0.22549374774072969 0.58452645269293457 0 0.20050006573841939 0.53248514016039872 0 0.23975172658309729 0.49475499200540818 0 0.25115337790845271 0.54719303014923271 0 0.20050006573841939 0.53248514016039872 0 0.16618607197337229 0.50652878253548905 0 0.19604738184454831 0.47787523520405789 0 0.20050006573841939 0.53248514016039872 0 0.19604738184454831 0.47787523520405789 0 0.23975172658309729 0.49475499200540818 0 0.20050006573841939 0.53248514016039872 0 0.18381867841758909 0.57774125163628387 0 0.14934928745814749 0.55042914607228977 0 0.20050006573841939 0.53248514016039872 0 0.14934928745814749 0.55042914607228977 0 0.16618607197337229 0.50652878253548905 0 0.1216098864341134 0.50637075089503902 0 0.16618607197337229 0.50652878253548905 0 0.14934928745814749 0.55042914607228977 0 0.1154888278694548 0.56733818459978413 0 0.1216098864341134 0.50637075089503902 0 0.14934928745814749 0.55042914607228977 0 0.15720202157091859 0.60665697304410315 0 0.1154888278694548 0.56733818459978413 0 0.14934928745814749 0.55042914607228977 0 0.15720202157091859 0.60665697304410315 0 0.1024350934457823 0.60772393977513839 0 0.1154888278694548 0.56733818459978413 0 0.15720202157091859 0.60665697304410315 0 0.1241190223511371 0.64391885572885044 0 0.1024350934457823 0.60772393977513839 0 0.18381867841758909 0.57774125163628387 0 0.19914261668318661 0.62286739485272158 0 0.15720202157091859 0.60665697304410315 0 0.15720202157091859 0.60665697304410315 0 0.14934928745814749 0.55042914607228977 0 0.18381867841758909 0.57774125163628387 0 0.15000000000062411 1 0 0.10000000000041601 1 0 0.10266856499240549 0.95548163909968886 0 0.083411279318375747 0.91030024466934134 0 0.10266856499240549 0.95548163909968886 0 0.053064897599294662 0.95186845269532028 0 0.050000000000207989 1 0 0.053064897599294662 0.95186845269532028 0 0.10000000000041601 1 0 0.10000000000041601 1 0 0.053064897599294662 0.95186845269532028 0 0.10266856499240549 0.95548163909968886 0 0.050000000000207989 1 0 0.025766224399875661 0.97546711317377799 0 0.053064897599294662 0.95186845269532028 0 0 1 0 0.025766224399875661 0.97546711317377799 0 0.050000000000207989 1 0 0 1 0 0 0.94999999999979179 0 0.025766224399875661 0.97546711317377799 0 0 0.94999999999979179 0 0.053064897599294662 0.95186845269532028 0 0.025766224399875661 0.97546711317377799 0 0 0.94999999999979179 0 0.0443105827531413 0.89858748162559932 0 0.053064897599294662 0.95186845269532028 0 0.083411279318375747 0.91030024466934134 0 0.053064897599294662 0.95186845269532028 0 0.0443105827531413 0.89858748162559932 0 0 0.94999999999979179 0 0 0.89999999999958358 0 0.0443105827531413 0.89858748162559932 0 0 0.89999999999958358 0 0 0.84999999999965292 0 0.0443105827531413 0.89858748162559932 0 0.083411279318375747 0.91030024466934134 0 0.0443105827531413 0.89858748162559932 0 0.065374659239661639 0.8551091961254178 0 0.083411279318375747 0.91030024466934134 0 0.065374659239661639 0.8551091961254178 0 0.10562472963403439 0.87143394428979881 0 0.083411279318375747 0.91030024466934134 0 0.1241151115713819 0.9045666525468371 0 0.10266856499240549 0.95548163909968886 0 0.14617343800780541 0.93808063414349496 0 0.10266856499240549 0.95548163909968886 0 0.1241151115713819 0.9045666525468371 0 0.14474682429600511 0.85524784522713515 0 0.1241151115713819 0.9045666525468371 0 0.10562472963403439 0.87143394428979881 0 0.083411279318375747 0.91030024466934134 0 0.10562472963403439 0.87143394428979881 0 0.1241151115713819 0.9045666525468371 0 0.14474682429600511 0.85524784522713515 0 0.10562472963403439 0.87143394428979881 0 0.1074251789111534 0.83564394292147814 0 0.083105206071452636 0.79992298667296435 0 0.1074251789111534 0.83564394292147814 0 0.065374659239661639 0.8551091961254178 0 0.065374659239661639 0.8551091961254178 0 0.1074251789111534 0.83564394292147814 0 0.10562472963403439 0.87143394428979881 0 0 0.84999999999965292 0 0.038512288486097702 0.8155852717111195 0 0.065374659239661639 0.8551091961254178 0 0 0.84999999999965292 0 0.065374659239661639 0.8551091961254178 0 0.0443105827531413 0.89858748162559932 0 0 0.84999999999965292 0 0 0.79999999999999982 0 0.038512288486097702 0.8155852717111195 0 0.083105206071452636 0.79992298667296435 0 0.065374659239661639 0.8551091961254178 0 0.038512288486097702 0.8155852717111195 0 0.083105206071452636 0.79992298667296435 0 0.038512288486097702 0.8155852717111195 0 0.04408157711937423 0.7728941757575627 0 0 0.79999999999999982 0 0.04408157711937423 0.7728941757575627 0 0.038512288486097702 0.8155852717111195 0 0 0.79999999999999982 0 0 0.75000000000034661 0 0.04408157711937423 0.7728941757575627 0 0.049706944316475897 0.72477277076253799 0 0.090953281884486245 0.7564451946902494 0 0.04408157711937423 0.7728941757575627 0 0.083105206071452636 0.79992298667296435 0 0.04408157711937423 0.7728941757575627 0 0.090953281884486245 0.7564451946902494 0 0.083105206071452636 0.79992298667296435 0 0.1382744753146134 0.79650574229207483 0 0.1074251789111534 0.83564394292147814 0 0.083105206071452636 0.79992298667296435 0 0.090953281884486245 0.7564451946902494 0 0.1382744753146134 0.79650574229207483 0 0.1382744753146134 0.79650574229207483 0 0.090953281884486245 0.7564451946902494 0 0.14335651144331049 0.75565258250209677 0 0.18269480424590959 0.75905448272264375 0 0.1382744753146134 0.79650574229207483 0 0.14335651144331049 0.75565258250209677 0 0.18269480424590959 0.75905448272264375 0 0.17777405986036951 0.81832336108265358 0 0.1382744753146134 0.79650574229207483 0 0.18269480424590959 0.75905448272264375 0 0.2248999640082178 0.72584299459689172 0 0.22556077506376701 0.77837424984191617 0 0.21858834311891909 0.81980263716112767 0 0.22556077506376701 0.77837424984191617 0 0.26104540868854792 0.81401944968719064 0 0.21858834311891909 0.81980263716112767 0 0.17777405986036951 0.81832336108265358 0 0.22556077506376701 0.77837424984191617 0 0.18269480424590959 0.75905448272264375 0 0.22556077506376701 0.77837424984191617 0 0.17777405986036951 0.81832336108265358 0 0.21858834311891909 0.81980263716112767 0 0.19741632902693801 0.86755867406447229 0 0.17777405986036951 0.81832336108265358 0 0.21858834311891909 0.81980263716112767 0 0.26104540868854792 0.81401944968719064 0 0.2401283238295133 0.85648409884788523 0 0.21858834311891909 0.81980263716112767 0 0.2401283238295133 0.85648409884788523 0 0.19741632902693801 0.86755867406447229 0 0.14474682429600511 0.85524784522713515 0 0.17777405986036951 0.81832336108265358 0 0.19741632902693801 0.86755867406447229 0 0.14474682429600511 0.85524784522713515 0 0.19741632902693801 0.86755867406447229 0 0.16206583317966519 0.89685560785156404 0 0.14474682429600511 0.85524784522713515 0 0.1382744753146134 0.79650574229207483 0 0.17777405986036951 0.81832336108265358 0 0.14474682429600511 0.85524784522713515 0 0.1074251789111534 0.83564394292147814 0 0.1382744753146134 0.79650574229207483 0 0.14474682429600511 0.85524784522713515 0 0.16206583317966519 0.89685560785156404 0 0.1241151115713819 0.9045666525468371 0 0.14617343800780541 0.93808063414349496 0 0.1241151115713819 0.9045666525468371 0 0.16206583317966519 0.89685560785156404 0 0.19901705110390991 0.9175543425573498 0 0.14617343800780541 0.93808063414349496 0 0.16206583317966519 0.89685560785156404 0 0.19901705110390991 0.9175543425573498 0 0.16206583317966519 0.89685560785156404 0 0.19741632902693801 0.86755867406447229 0 0.19901705110390991 0.9175543425573498 0 0.19741632902693801 0.86755867406447229 0 0.24536017905392571 0.90704567837671446 0 0.19741632902693801 0.86755867406447229 0 0.2401283238295133 0.85648409884788523 0 0.24536017905392571 0.90704567837671446 0 0.19901705110390991 0.9175543425573498 0 0.24536017905392571 0.90704567837671446 0 0.22850979588452081 0.95594428570238643 0 0.19901705110390991 0.9175543425573498 0 0.22850979588452081 0.95594428570238643 0 0.18474005699953849 0.96231585248064622 0 0.27609987656793722 0.94991445621608572 0 0.22850979588452081 0.95594428570238643 0 0.24536017905392571 0.90704567837671446 0 0.25000000000104028 1 0 0.20000000000083221 1 0 0.22850979588452081 0.95594428570238643 0 0.20000000000083221 1 0 0.18474005699953849 0.96231585248064622 0 0.22850979588452081 0.95594428570238643 0 0.20000000000083221 1 0 0.15000000000062411 1 0 0.18474005699953849 0.96231585248064622 0 0.19901705110390991 0.9175543425573498 0 0.18474005699953849 0.96231585248064622 0 0.14617343800780541 0.93808063414349496 0 0.15000000000062411 1 0 0.14617343800780541 0.93808063414349496 0 0.18474005699953849 0.96231585248064622 0 0.15000000000062411 1 0 0.10266856499240549 0.95548163909968886 0 0.14617343800780541 0.93808063414349496 0 0.35000000000145642 1 0 0.32544832635163229 0.95485394099568932 0 0.36184234618600131 0.96443954459096326 0 0.40000000000166441 1 0 0.35000000000145642 1 0 0.36184234618600131 0.96443954459096326 0 0.35752321586431363 0.9185439911803448 0 0.36184234618600131 0.96443954459096326 0 0.32544832635163229 0.95485394099568932 0 0.35752321586431363 0.9185439911803448 0 0.39641108128798319 0.94356127926187128 0 0.36184234618600131 0.96443954459096326 0 0.35000000000145642 1 0 0.30000000000124832 1 0 0.32544832635163229 0.95485394099568932 0 0.30000000000124832 1 0 0.25000000000104028 1 0 0.27609987656793722 0.94991445621608572 0 0.25000000000104028 1 0 0.22850979588452081 0.95594428570238643 0 0.27609987656793722 0.94991445621608572 0 0.30000000000124832 1 0 0.27609987656793722 0.94991445621608572 0 0.32544832635163229 0.95485394099568932 0 0.27609987656793722 0.94991445621608572 0 0.30864387279288652 0.89906554525974958 0 0.32544832635163229 0.95485394099568932 0 0.27270076654418179 0.87751467830216623 0 0.30864387279288652 0.89906554525974958 0 0.24536017905392571 0.90704567837671446 0 0.27609987656793722 0.94991445621608572 0 0.24536017905392571 0.90704567837671446 0 0.30864387279288652 0.89906554525974958 0 0.27270076654418179 0.87751467830216623 0 0.24536017905392571 0.90704567837671446 0 0.2401283238295133 0.85648409884788523 0 0.35752321586431363 0.9185439911803448 0 0.30864387279288652 0.89906554525974958 0 0.35864759629805099 0.87963482415279515 0 0.35752321586431363 0.9185439911803448 0 0.32544832635163229 0.95485394099568932 0 0.30864387279288652 0.89906554525974958 0 0.35752321586431363 0.9185439911803448 0 0.35864759629805099 0.87963482415279515 0 0.39767323751400468 0.89584229130535065 0 0.35864759629805099 0.87963482415279515 0 0.33403534827021109 0.84402799729020661 0 0.39536230704883951 0.84069429572832477 0 0.33403534827021109 0.84402799729020661 0 0.35642984951668422 0.80994399665655703 0 0.39536230704883951 0.84069429572832477 0 0.33403534827021109 0.84402799729020661 0 0.30857225866488791 0.81101973481716805 0 0.35642984951668422 0.80994399665655703 0 0.33403534827021109 0.84402799729020661 0 0.35864759629805099 0.87963482415279515 0 0.30864387279288652 0.89906554525974958 0 0.33403534827021109 0.84402799729020661 0 0.30864387279288652 0.89906554525974958 0 0.29209212897034281 0.84715728365233667 0 0.27270076654418179 0.87751467830216623 0 0.29209212897034281 0.84715728365233667 0 0.30864387279288652 0.89906554525974958 0 0.27270076654418179 0.87751467830216623 0 0.2401283238295133 0.85648409884788523 0 0.29209212897034281 0.84715728365233667 0 0.26104540868854792 0.81401944968719064 0 0.29209212897034281 0.84715728365233667 0 0.2401283238295133 0.85648409884788523 0 0.26104540868854792 0.81401944968719064 0 0.30857225866488791 0.81101973481716805 0 0.29209212897034281 0.84715728365233667 0 0.33403534827021109 0.84402799729020661 0 0.29209212897034281 0.84715728365233667 0 0.30857225866488791 0.81101973481716805 0 0.26104540868854792 0.81401944968719064 0 0.2792923945214143 0.77665808831789485 0 0.30857225866488791 0.81101973481716805 0 0.33123028043633618 0.77629643437932982 0 0.30857225866488791 0.81101973481716805 0 0.2792923945214143 0.77665808831789485 0 0.26104540868854792 0.81401944968719064 0 0.22556077506376701 0.77837424984191617 0 0.2792923945214143 0.77665808831789485 0 0.25676291524611189 0.7436741304886243 0 0.29904318922293632 0.74132814928635593 0 0.2792923945214143 0.77665808831789485 0 0.25676291524611189 0.7436741304886243 0 0.2792923945214143 0.77665808831789485 0 0.22556077506376701 0.77837424984191617 0 0.33123028043633618 0.77629643437932982 0 0.2792923945214143 0.77665808831789485 0 0.29904318922293632 0.74132814928635593 0 0.33123028043633618 0.77629643437932982 0 0.29904318922293632 0.74132814928635593 0 0.35415581127540569 0.73730480045900215 0 0.33123028043633618 0.77629643437932982 0 0.35642984951668422 0.80994399665655703 0 0.30857225866488791 0.81101973481716805 0 0.33123028043633618 0.77629643437932982 0 0.38586766253264881 0.78219501014812498 0 0.35642984951668422 0.80994399665655703 0 0.33123028043633618 0.77629643437932982 0 0.35415581127540569 0.73730480045900215 0 0.38586766253264881 0.78219501014812498 0 0.40326160981139969 0.73346192995102844 0 0.42676259796334498 0.76772545931379299 0 0.38586766253264881 0.78219501014812498 0 0.40326160981139969 0.73346192995102844 0 0.38586766253264881 0.78219501014812498 0 0.35415581127540569 0.73730480045900215 0 0.39536230704883951 0.84069429572832477 0 0.38586766253264881 0.78219501014812498 0 0.42609163930740518 0.80361684430568059 0 0.39536230704883951 0.84069429572832477 0 0.35642984951668422 0.80994399665655703 0 0.38586766253264881 0.78219501014812498 0 0.38586766253264881 0.78219501014812498 0 0.42676259796334498 0.76772545931379299 0 0.42609163930740518 0.80361684430568059 0 0.4656888918609538 0.78493261229743638 0 0.42676259796334498 0.76772545931379299 0 0.45582236402875981 0.73896743678908217 0 0.4656888918609538 0.78493261229743638 0 0.45582236402875981 0.73896743678908217 0 0.50945740445113552 0.75476055527778108 0 0.4656888918609538 0.78493261229743638 0 0.50945740445113552 0.75476055527778108 0 0.50731287292894423 0.78963574450233831 0 0.4656888918609538 0.78493261229743638 0 0.50731287292894423 0.78963574450233831 0 0.50627822638148745 0.8263979829520941 0 0.4656888918609538 0.78493261229743638 0 0.45677673713123867 0.84253684404072415 0 0.42609163930740518 0.80361684430568059 0 0.4656888918609538 0.78493261229743638 0 0.42609163930740518 0.80361684430568059 0 0.42676259796334498 0.76772545931379299 0 0.4656888918609538 0.78493261229743638 0 0.50627822638148745 0.8263979829520941 0 0.45677673713123867 0.84253684404072415 0 0.50202631463681879 0.87892870825713787 0 0.45677673713123867 0.84253684404072415 0 0.50627822638148745 0.8263979829520941 0 0.50202631463681879 0.87892870825713787 0 0.44003836461056539 0.88093474584252718 0 0.45677673713123867 0.84253684404072415 0 0.39536230704883951 0.84069429572832477 0 0.45677673713123867 0.84253684404072415 0 0.44003836461056539 0.88093474584252718 0 0.39536230704883951 0.84069429572832477 0 0.44003836461056539 0.88093474584252718 0 0.39767323751400468 0.89584229130535065 0 0.39536230704883951 0.84069429572832477 0 0.42609163930740518 0.80361684430568059 0 0.45677673713123867 0.84253684404072415 0 0.39536230704883951 0.84069429572832477 0 0.39767323751400468 0.89584229130535065 0 0.35864759629805099 0.87963482415279515 0 0.35752321586431363 0.9185439911803448 0 0.39767323751400468 0.89584229130535065 0 0.39641108128798319 0.94356127926187128 0 0.4367309254023824 0.92065556789053882 0 0.39641108128798319 0.94356127926187128 0 0.39767323751400468 0.89584229130535065 0 0.4367309254023824 0.92065556789053882 0 0.39767323751400468 0.89584229130535065 0 0.44003836461056539 0.88093474584252718 0 0.4367309254023824 0.92065556789053882 0 0.44003836461056539 0.88093474584252718 0 0.47401147028110507 0.91529957330468115 0 0.50202631463681879 0.87892870825713787 0 0.47401147028110507 0.91529957330468115 0 0.44003836461056539 0.88093474584252718 0 0.52122150208832174 0.94089974453840242 0 0.47135117303824892 0.95556877749289892 0 0.47401147028110507 0.91529957330468115 0 0.50202631463681879 0.87892870825713787 0 0.52122150208832174 0.94089974453840242 0 0.47401147028110507 0.91529957330468115 0 0.4367309254023824 0.92065556789053882 0 0.47401147028110507 0.91529957330468115 0 0.47135117303824892 0.95556877749289892 0 0.4367309254023824 0.92065556789053882 0 0.47135117303824892 0.95556877749289892 0 0.4308986359464303 0.96395712492906194 0 0.50000000000205869 1 0 0.47135117303824892 0.95556877749289892 0 0.52122150208832174 0.94089974453840242 0 0.50000000000205869 1 0 0.45000000000187229 1 0 0.47135117303824892 0.95556877749289892 0 0.45000000000187229 1 0 0.4308986359464303 0.96395712492906194 0 0.47135117303824892 0.95556877749289892 0 0.45000000000187229 1 0 0.40000000000166441 1 0 0.4308986359464303 0.96395712492906194 0 0.40000000000166441 1 0 0.39641108128798319 0.94356127926187128 0 0.4308986359464303 0.96395712492906194 0 0.4367309254023824 0.92065556789053882 0 0.4308986359464303 0.96395712492906194 0 0.39641108128798319 0.94356127926187128 0 0.40000000000166441 1 0 0.36184234618600131 0.96443954459096326 0 0.39641108128798319 0.94356127926187128 0 0.33122374654748771 0.57588941099433744 0 0.35765792684946668 0.6000687869219653 0 0.31502927232353312 0.6134992213375432 0 0.35864735590330371 0.63903383440414463 0 0.31502927232353312 0.6134992213375432 0 0.35765792684946668 0.6000687869219653 0 0.35864735590330371 0.63903383440414463 0 0.35765792684946668 0.6000687869219653 0 0.39743091024207589 0.6239520004230239 0 0.33122374654748771 0.57588941099433744 0 0.37272913873093971 0.56192925302619479 0 0.35765792684946668 0.6000687869219653 0 0.38244435121258652 0.51653317813019495 0 0.37272913873093971 0.56192925302619479 0 0.33190227185843768 0.52715113583864037 0 0.33122374654748771 0.57588941099433744 0 0.33190227185843768 0.52715113583864037 0 0.37272913873093971 0.56192925302619479 0 0.38244435121258652 0.51653317813019495 0 0.33190227185843768 0.52715113583864037 0 0.35024835142131061 0.48654922671676981 0 0.33122374654748771 0.57588941099433744 0 0.29110487519241501 0.56588143995431495 0 0.33190227185843768 0.52715113583864037 0 0.28307294598219601 0.50789252727458634 0 0.33190227185843768 0.52715113583864037 0 0.29110487519241501 0.56588143995431495 0 0.31068898841644388 0.47541502461811092 0 0.33190227185843768 0.52715113583864037 0 0.28307294598219601 0.50789252727458634 0 0.28307294598219601 0.50789252727458634 0 0.25115337790845271 0.54719303014923271 0 0.23975172658309729 0.49475499200540818 0 0.28307294598219601 0.50789252727458634 0 0.29110487519241501 0.56588143995431495 0 0.25115337790845271 0.54719303014923271 0 0.26573297623774761 0.59828298563722948 0 0.25115337790845271 0.54719303014923271 0 0.29110487519241501 0.56588143995431495 0 0.33122374654748771 0.57588941099433744 0 0.31502927232353312 0.6134992213375432 0 0.29110487519241501 0.56588143995431495 0 0.26573297623774761 0.59828298563722948 0 0.29110487519241501 0.56588143995431495 0 0.31502927232353312 0.6134992213375432 0 0.26573297623774761 0.59828298563722948 0 0.31502927232353312 0.6134992213375432 0 0.27820712747429932 0.65530134213254643 0 0.26573297623774761 0.59828298563722948 0 0.27820712747429932 0.65530134213254643 0 0.2459498854893499 0.63248470766216769 0 0.2236846579037573 0.67380363126050236 0 0.27820712747429932 0.65530134213254643 0 0.26439878998046262 0.7048065392091396 0 0.31378396441836959 0.70157213313026345 0 0.27820712747429932 0.65530134213254643 0 0.32263089806001177 0.66003674931826484 0 0.31378396441836959 0.70157213313026345 0 0.26439878998046262 0.7048065392091396 0 0.27820712747429932 0.65530134213254643 0 0.27820712747429932 0.65530134213254643 0 0.31502927232353312 0.6134992213375432 0 0.32263089806001177 0.66003674931826484 0 0.25676291524611189 0.7436741304886243 0 0.26439878998046262 0.7048065392091396 0 0.29904318922293632 0.74132814928635593 0 0.31378396441836959 0.70157213313026345 0 0.29904318922293632 0.74132814928635593 0 0.26439878998046262 0.7048065392091396 0 0.31378396441836959 0.70157213313026345 0 0.35415581127540569 0.73730480045900215 0 0.29904318922293632 0.74132814928635593 0 0.31378396441836959 0.70157213313026345 0 0.36622285152418499 0.69092437780804039 0 0.35415581127540569 0.73730480045900215 0 0.40326160981139969 0.73346192995102844 0 0.35415581127540569 0.73730480045900215 0 0.36622285152418499 0.69092437780804039 0 0.35864735590330371 0.63903383440414463 0 0.32263089806001177 0.66003674931826484 0 0.31502927232353312 0.6134992213375432 0 0.31378396441836959 0.70157213313026345 0 0.32263089806001177 0.66003674931826484 0 0.36622285152418499 0.69092437780804039 0 0.35864735590330371 0.63903383440414463 0 0.36622285152418499 0.69092437780804039 0 0.32263089806001177 0.66003674931826484 0 0.35864735590330371 0.63903383440414463 0 0.3977710372045391 0.65868194622830212 0 0.36622285152418499 0.69092437780804039 0 0.35864735590330371 0.63903383440414463 0 0.39743091024207589 0.6239520004230239 0 0.3977710372045391 0.65868194622830212 0 0.36622285152418499 0.69092437780804039 0 0.3977710372045391 0.65868194622830212 0 0.43323420005758778 0.6913544522562407 0 0.43846182030517877 0.64845797726506715 0 0.43323420005758778 0.6913544522562407 0 0.3977710372045391 0.65868194622830212 0 0.43846182030517877 0.64845797726506715 0 0.39743091024207589 0.6239520004230239 0 0.43545892161006339 0.61093128915313821 0 0.43846182030517877 0.64845797726506715 0 0.3977710372045391 0.65868194622830212 0 0.39743091024207589 0.6239520004230239 0 0.40326160981139969 0.73346192995102844 0 0.36622285152418499 0.69092437780804039 0 0.43323420005758778 0.6913544522562407 0 0.40326160981139969 0.73346192995102844 0 0.43323420005758778 0.6913544522562407 0 0.45582236402875981 0.73896743678908217 0 0.40326160981139969 0.73346192995102844 0 0.45582236402875981 0.73896743678908217 0 0.42676259796334498 0.76772545931379299 0 0.5 0.69999999999999996 0 0.45582236402875981 0.73896743678908217 0 0.43323420005758778 0.6913544522562407 0 0.5 0.69999999999999996 0 0.50945740445113552 0.75476055527778108 0 0.45582236402875981 0.73896743678908217 0 0.5 0.69999999999999996 0 0.43323420005758778 0.6913544522562407 0 0.47913475093885149 0.66010775372412711 0 0.43846182030517877 0.64845797726506715 0 0.47095389620662098 0.61892551373708504 0 0.47913475093885149 0.66010775372412711 0 0.43846182030517877 0.64845797726506715 0 0.43545892161006339 0.61093128915313821 0 0.47095389620662098 0.61892551373708504 0 0.43846182030517877 0.64845797726506715 0 0.47913475093885149 0.66010775372412711 0 0.43323420005758778 0.6913544522562407 0 0.50715858906372158 0.63295939104129484 0 0.47913475093885149 0.66010775372412711 0 0.47095389620662098 0.61892551373708504 0 0.50715858906372158 0.63295939104129484 0 0.47095389620662098 0.61892551373708504 0 0.5166924242153631 0.59825134841919447 0 0.46666084890304671 0.57634471035397938 0 0.5166924242153631 0.59825134841919447 0 0.47095389620662098 0.61892551373708504 0 0.46666084890304671 0.57634471035397938 0 0.47095389620662098 0.61892551373708504 0 0.43545892161006339 0.61093128915313821 0 0.4089290844030305 0.58728915500154233 0 0.43545892161006339 0.61093128915313821 0 0.39743091024207589 0.6239520004230239 0 0.43545892161006339 0.61093128915313821 0 0.4089290844030305 0.58728915500154233 0 0.46666084890304671 0.57634471035397938 0 0.4089290844030305 0.58728915500154233 0 0.42644501560315817 0.54603747078095544 0 0.46666084890304671 0.57634471035397938 0 0.4089290844030305 0.58728915500154233 0 0.37272913873093971 0.56192925302619479 0 0.42644501560315817 0.54603747078095544 0 0.4089290844030305 0.58728915500154233 0 0.35765792684946668 0.6000687869219653 0 0.37272913873093971 0.56192925302619479 0 0.4089290844030305 0.58728915500154233 0 0.39743091024207589 0.6239520004230239 0 0.35765792684946668 0.6000687869219653 0 0.38244435121258652 0.51653317813019495 0 0.42644501560315817 0.54603747078095544 0 0.37272913873093971 0.56192925302619479 0 0.38244435121258652 0.51653317813019495 0 0.43507373378304309 0.49699695397193322 0 0.42644501560315817 0.54603747078095544 0 0.46666084890304671 0.57634471035397938 0 0.47793794143994173 0.52940715638744962 0 0.53245488764484505 0.55078124999999989 0 0.49102375406324739 0.49123754822244059 0 0.47793794143994173 0.52940715638744962 0 0.43507373378304309 0.49699695397193322 0 0.43507373378304309 0.49699695397193322 0 0.47793794143994173 0.52940715638744962 0 0.42644501560315817 0.54603747078095544 0 0.46666084890304671 0.57634471035397938 0 0.42644501560315817 0.54603747078095544 0 0.47793794143994173 0.52940715638744962 0 0.49102375406324739 0.49123754822244059 0 0.53330375813596242 0.50827942741749099 0 0.47793794143994173 0.52940715638744962 0 0.53245488764484505 0.55078124999999989 0 0.47793794143994173 0.52940715638744962 0 0.53330375813596242 0.50827942741749099 0 0.53245488764484505 0.55078124999999989 0 0.53330375813596242 0.50827942741749099 0 0.57435499076887508 0.54267261987897775 0 0.57412547362576272 0.58273804879550706 0 0.53245488764484505 0.55078124999999989 0 0.57435499076887508 0.54267261987897775 0 0.57611405284611883 0.50165903596042916 0 0.57435499076887508 0.54267261987897775 0 0.53330375813596242 0.50827942741749099 0 0.57611405284611883 0.50165903596042916 0 0.62042975506801734 0.54295974692364424 0 0.57435499076887508 0.54267261987897775 0 0.57412547362576272 0.58273804879550706 0 0.57435499076887508 0.54267261987897775 0 0.62042975506801734 0.54295974692364424 0 0.57611405284611883 0.50165903596042916 0 0.61547661924074692 0.48539576058873962 0 0.62042975506801734 0.54295974692364424 0 0.6405463747586706 0.63290524857395714 0 0.5991018319127801 0.62925360607495295 0 0.63065402604362242 0.59661356661633302 0 0.57412547362576272 0.58273804879550706 0 0.63065402604362242 0.59661356661633302 0 0.5991018319127801 0.62925360607495295 0 0.57412547362576272 0.58273804879550706 0 0.62042975506801734 0.54295974692364424 0 0.63065402604362242 0.59661356661633302 0 0.57412547362576272 0.58273804879550706 0 0.5991018319127801 0.62925360607495295 0 0.5498280205245758 0.6290146943450976 0 0.46666084890304671 0.57634471035397938 0 0.53245488764484505 0.55078124999999989 0 0.5166924242153631 0.59825134841919447 0 0.57412547362576272 0.58273804879550706 0 0.5498280205245758 0.6290146943450976 0 0.5166924242153631 0.59825134841919447 0 0.57412547362576272 0.58273804879550706 0 0.5166924242153631 0.59825134841919447 0 0.53245488764484505 0.55078124999999989 0 0.50715858906372158 0.63295939104129484 0 0.5166924242153631 0.59825134841919447 0 0.5498280205245758 0.6290146943450976 0 0.50715858906372158 0.63295939104129484 0 0.52584555706968406 0.66664215091846768 0 0.47913475093885149 0.66010775372412711 0 0.50715858906372158 0.63295939104129484 0 0.5498280205245758 0.6290146943450976 0 0.52584555706968406 0.66664215091846768 0 0.5 0.69999999999999996 0 0.47913475093885149 0.66010775372412711 0 0.52584555706968406 0.66664215091846768 0 0.54999999999999993 0.69999999999999996 0 0.52584555706968406 0.66664215091846768 0 0.57484956128872922 0.66573805030881994 0 0.57484956128872922 0.66573805030881994 0 0.52584555706968406 0.66664215091846768 0 0.5498280205245758 0.6290146943450976 0 0.50945740445113552 0.75476055527778108 0 0.5 0.69999999999999996 0 0.55363780716230748 0.74348740161571747 0 0.5 0.69999999999999996 0 0.52584555706968406 0.66664215091846768 0 0.54999999999999993 0.69999999999999996 0 0.5 0.69999999999999996 0 0.54999999999999993 0.69999999999999996 0 0.5 0.69999999999999996 0 0.54999999999999993 0.69999999999999996 0 0.55363780716230748 0.74348740161571747 0 0.59999999999999976 0.69999999999999996 0 0.59636844454254345 0.75937156204589151 0 0.55363780716230748 0.74348740161571747 0 0.54999999999999993 0.69999999999999996 0 0.59999999999999976 0.69999999999999996 0 0.54999999999999993 0.69999999999999996 0 0.57484956128872922 0.66573805030881994 0 0.59999999999999976 0.69999999999999996 0 0.54999999999999993 0.69999999999999996 0 0.59999999999999976 0.69999999999999996 0 0.55363780716230748 0.74348740161571747 0 0.59999999999999976 0.69999999999999996 0 0.6499999999999998 0.69999999999999996 0 0.59999999999999976 0.69999999999999996 0 0.62460753523532009 0.66851202781000296 0 0.6499999999999998 0.69999999999999996 0 0.59999999999999976 0.69999999999999996 0 0.63221990677827677 0.73442891067859706 0 0.59636844454254345 0.75937156204589151 0 0.57484956128872922 0.66573805030881994 0 0.5498280205245758 0.6290146943450976 0 0.5991018319127801 0.62925360607495295 0 0.59999999999999976 0.69999999999999996 0 0.57484956128872922 0.66573805030881994 0 0.62460753523532009 0.66851202781000296 0 0.57484956128872922 0.66573805030881994 0 0.5991018319127801 0.62925360607495295 0 0.62460753523532009 0.66851202781000296 0 0.6405463747586706 0.63290524857395714 0 0.62460753523532009 0.66851202781000296 0 0.5991018319127801 0.62925360607495295 0 0.6405463747586706 0.63290524857395714 0 0.675261390228442 0.65996937624687813 0 0.62460753523532009 0.66851202781000296 0 0.6499999999999998 0.69999999999999996 0 0.62460753523532009 0.66851202781000296 0 0.675261390228442 0.65996937624687813 0 0.6499999999999998 0.69999999999999996 0 0.675261390228442 0.65996937624687813 0 0.69999999999999984 0.69999999999999996 0 0.6405463747586706 0.63290524857395714 0 0.67529834988829951 0.61613270668143583 0 0.675261390228442 0.65996937624687813 0 0.64753070846764316 0.77332939069435502 0 0.63221990677827677 0.73442891067859706 0 0.66427993341343905 0.73232764502436276 0 0.6499999999999998 0.69999999999999996 0 0.66427993341343905 0.73232764502436276 0 0.63221990677827677 0.73442891067859706 0 0.59999999999999976 0.69999999999999996 0 0.6499999999999998 0.69999999999999996 0 0.63221990677827677 0.73442891067859706 0 0.6499999999999998 0.69999999999999996 0 0.69999999999999984 0.69999999999999996 0 0.6499999999999998 0.69999999999999996 0 0.69999999999999984 0.69999999999999996 0 0.66427993341343905 0.73232764502436276 0 0.69999999999999984 0.69999999999999996 0 0.6916490518212759 0.75387992374886192 0 0.66427993341343905 0.73232764502436276 0 0.69999999999999984 0.69999999999999996 0 0.72501250972655151 0.74067302935308721 0 0.6916490518212759 0.75387992374886192 0 0.69999999999999984 0.69999999999999996 0 0.74999999999999989 0.69999999999999996 0 0.72501250972655151 0.74067302935308721 0 0.69999999999999984 0.69999999999999996 0 0.72500000000000064 0.67022701834392062 0 0.74999999999999989 0.69999999999999996 0 0.69999999999999984 0.69999999999999996 0 0.74999999999999989 0.69999999999999996 0 0.74999999999999989 0.69999999999999996 0 0.75841349681148107 0.75422312624214749 0 0.72501250972655151 0.74067302935308721 0 0.71406021706547751 0.63292083137662503 0 0.72500000000000064 0.67022701834392062 0 0.675261390228442 0.65996937624687813 0 0.71406021706547751 0.63292083137662503 0 0.675261390228442 0.65996937624687813 0 0.67529834988829951 0.61613270668143583 0 0.69999999999999984 0.69999999999999996 0 0.675261390228442 0.65996937624687813 0 0.72500000000000064 0.67022701834392062 0 0.71406021706547751 0.63292083137662503 0 0.74994237037456724 0.62775548192980357 0 0.72500000000000064 0.67022701834392062 0 0.7750489929959945 0.66593931409600093 0 0.72500000000000064 0.67022701834392062 0 0.74994237037456724 0.62775548192980357 0 0.71406021706547751 0.63292083137662503 0 0.71809016091162536 0.58185040402320831 0 0.74994237037456724 0.62775548192980357 0 0.77293540622714185 0.59448302402785813 0 0.74994237037456724 0.62775548192980357 0 0.71809016091162536 0.58185040402320831 0 0.71406021706547751 0.63292083137662503 0 0.67529834988829951 0.61613270668143583 0 0.71809016091162536 0.58185040402320831 0 0.67323294229744413 0.57556450033612505 0 0.67569444444444449 0.53500863336860327 0 0.71809016091162536 0.58185040402320831 0 0.67323294229744413 0.57556450033612505 0 0.71809016091162536 0.58185040402320831 0 0.67529834988829951 0.61613270668143583 0 0.7152569930854884 0.5237994455134295 0 0.77151014687832564 0.54436834383023036 0 0.71809016091162536 0.58185040402320831 0 0.7152569930854884 0.5237994455134295 0 0.73947346780852752 0.49062440112282169 0 0.77151014687832564 0.54436834383023036 0 0.7152569930854884 0.5237994455134295 0 0.67569444444444449 0.53500863336860327 0 0.69385896817107129 0.48377516041410151 0 0.7152569930854884 0.5237994455134295 0 0.71809016091162536 0.58185040402320831 0 0.67569444444444449 0.53500863336860327 0 0.67323294229744413 0.57556450033612505 0 0.62042975506801734 0.54295974692364424 0 0.67569444444444449 0.53500863336860327 0 0.6541250972820879 0.49999999999999989 0 0.69385896817107129 0.48377516041410151 0 0.67569444444444449 0.53500863336860327 0 0.6541250972820879 0.49999999999999989 0 0.67569444444444449 0.53500863336860327 0 0.62042975506801734 0.54295974692364424 0 0.6541250972820879 0.49999999999999989 0 0.62042975506801734 0.54295974692364424 0 0.61547661924074692 0.48539576058873962 0 0.67323294229744413 0.57556450033612505 0 0.63065402604362242 0.59661356661633302 0 0.62042975506801734 0.54295974692364424 0 0.6405463747586706 0.63290524857395714 0 0.63065402604362242 0.59661356661633302 0 0.67529834988829951 0.61613270668143583 0 0.67323294229744413 0.57556450033612505 0 0.67529834988829951 0.61613270668143583 0 0.63065402604362242 0.59661356661633302 0 0.60000000000138687 1 0 0.57382506491224949 0.9629411906298494 0 0.62065498684670595 0.95224934003983619 0 0.65000000000104008 1 0 0.60000000000138687 1 0 0.62065498684670595 0.95224934003983619 0 0.57724883562309992 0.92155686857100794 0 0.62065498684670595 0.95224934003983619 0 0.57382506491224949 0.9629411906298494 0 0.60000000000138687 1 0 0.55000000000173355 1 0 0.57382506491224949 0.9629411906298494 0 0.55000000000173355 1 0 0.50000000000205869 1 0 0.52122150208832174 0.94089974453840242 0 0.57724883562309992 0.92155686857100794 0 0.57382506491224949 0.9629411906298494 0 0.52122150208832174 0.94089974453840242 0 0.55000000000173355 1 0 0.52122150208832174 0.94089974453840242 0 0.57382506491224949 0.9629411906298494 0 0.57724883562309992 0.92155686857100794 0 0.52122150208832174 0.94089974453840242 0 0.54783390826260769 0.89287767010860219 0 0.50202631463681879 0.87892870825713787 0 0.54783390826260769 0.89287767010860219 0 0.52122150208832174 0.94089974453840242 0 0.55899371797446828 0.85003102233514438 0 0.5832743223239254 0.88483152652961872 0 0.54783390826260769 0.89287767010860219 0 0.57724883562309992 0.92155686857100794 0 0.54783390826260769 0.89287767010860219 0 0.5832743223239254 0.88483152652961872 0 0.57724883562309992 0.92155686857100794 0 0.5832743223239254 0.88483152652961872 0 0.61885627562261258 0.90282959257498208 0 0.57724883562309992 0.92155686857100794 0 0.61885627562261258 0.90282959257498208 0 0.62065498684670595 0.95224934003983619 0 0.61343887413683884 0.856862479058357 0 0.61885627562261258 0.90282959257498208 0 0.5832743223239254 0.88483152652961872 0 0.61343887413683884 0.856862479058357 0 0.60294066490120068 0.80851322453934582 0 0.65005442820240822 0.82644988530054031 0 0.61343887413683884 0.856862479058357 0 0.55899371797446828 0.85003102233514438 0 0.60294066490120068 0.80851322453934582 0 0.54782696902220018 0.79245182748204157 0 0.60294066490120068 0.80851322453934582 0 0.55899371797446828 0.85003102233514438 0 0.61343887413683884 0.856862479058357 0 0.5832743223239254 0.88483152652961872 0 0.55899371797446828 0.85003102233514438 0 0.50202631463681879 0.87892870825713787 0 0.55899371797446828 0.85003102233514438 0 0.54783390826260769 0.89287767010860219 0 0.50202631463681879 0.87892870825713787 0 0.50627822638148745 0.8263979829520941 0 0.55899371797446828 0.85003102233514438 0 0.54782696902220018 0.79245182748204157 0 0.55899371797446828 0.85003102233514438 0 0.50627822638148745 0.8263979829520941 0 0.54782696902220018 0.79245182748204157 0 0.50627822638148745 0.8263979829520941 0 0.50731287292894423 0.78963574450233831 0 0.54782696902220018 0.79245182748204157 0 0.50731287292894423 0.78963574450233831 0 0.50945740445113552 0.75476055527778108 0 0.54782696902220018 0.79245182748204157 0 0.50945740445113552 0.75476055527778108 0 0.55363780716230748 0.74348740161571747 0 0.54782696902220018 0.79245182748204157 0 0.55363780716230748 0.74348740161571747 0 0.59636844454254345 0.75937156204589151 0 0.54782696902220018 0.79245182748204157 0 0.59636844454254345 0.75937156204589151 0 0.60294066490120068 0.80851322453934582 0 0.64753070846764316 0.77332939069435502 0 0.60294066490120068 0.80851322453934582 0 0.59636844454254345 0.75937156204589151 0 0.64753070846764316 0.77332939069435502 0 0.59636844454254345 0.75937156204589151 0 0.63221990677827677 0.73442891067859706 0 0.64753070846764316 0.77332939069435502 0 0.65005442820240822 0.82644988530054031 0 0.60294066490120068 0.80851322453934582 0 0.64753070846764316 0.77332939069435502 0 0.68024162096458085 0.79868546898116533 0 0.65005442820240822 0.82644988530054031 0 0.64753070846764316 0.77332939069435502 0 0.6916490518212759 0.75387992374886192 0 0.68024162096458085 0.79868546898116533 0 0.64753070846764316 0.77332939069435502 0 0.66427993341343905 0.73232764502436276 0 0.6916490518212759 0.75387992374886192 0 0.6916490518212759 0.75387992374886192 0 0.72501250972655151 0.74067302935308721 0 0.72500000000000064 0.7952620967744265 0 0.72501250972655151 0.74067302935308721 0 0.75841349681148107 0.75422312624214749 0 0.72500000000000064 0.7952620967744265 0 0.72500000000000064 0.7952620967744265 0 0.68024162096458085 0.79868546898116533 0 0.6916490518212759 0.75387992374886192 0 0.72500000000000064 0.7952620967744265 0 0.68697391633157634 0.84450604838764298 0 0.68024162096458085 0.79868546898116533 0 0.72500000000000064 0.7952620967744265 0 0.72863726579783861 0.85390518901155588 0 0.68697391633157634 0.84450604838764298 0 0.72500000000000064 0.7952620967744265 0 0.76901770135486491 0.84293557325473656 0 0.72863726579783861 0.85390518901155588 0 0.7250000000005199 0.89375000000045834 0 0.68697391633157634 0.84450604838764298 0 0.72863726579783861 0.85390518901155588 0 0.7250000000005199 0.89375000000045834 0 0.66412543161245952 0.88015090885499059 0 0.68697391633157634 0.84450604838764298 0 0.68697391633157634 0.84450604838764298 0 0.66412543161245952 0.88015090885499059 0 0.65005442820240822 0.82644988530054031 0 0.68697391633157634 0.84450604838764298 0 0.65005442820240822 0.82644988530054031 0 0.68024162096458085 0.79868546898116533 0 0.61343887413683884 0.856862479058357 0 0.65005442820240822 0.82644988530054031 0 0.66412543161245952 0.88015090885499059 0 0.61343887413683884 0.856862479058357 0 0.66412543161245952 0.88015090885499059 0 0.61885627562261258 0.90282959257498208 0 0.65507451745379841 0.92229208810758578 0 0.61885627562261258 0.90282959257498208 0 0.66412543161245952 0.88015090885499059 0 0.65507451745379841 0.92229208810758578 0 0.62065498684670595 0.95224934003983619 0 0.61885627562261258 0.90282959257498208 0 0.65507451745379841 0.92229208810758578 0 0.68987011941058407 0.92105047536677087 0 0.68015064798562208 0.95924320340003011 0 0.65507451745379841 0.92229208810758578 0 0.66412543161245952 0.88015090885499059 0 0.68987011941058407 0.92105047536677087 0 0.7250000000005199 0.89375000000045834 0 0.68987011941058407 0.92105047536677087 0 0.66412543161245952 0.88015090885499059 0 0.7250000000005199 0.89375000000045834 0 0.72863726579783861 0.85390518901155588 0 0.76891166905518427 0.88835469571185499 0 0.7250000000005199 0.89375000000045834 0 0.75729602384198635 0.92353652857884294 0 0.7250000000005199 0.94981617647078953 0 0.7250000000005199 0.89375000000045834 0 0.7250000000005199 0.94981617647078953 0 0.68987011941058407 0.92105047536677087 0 0.7250000000005199 0.94981617647078953 0 0.68015064798562208 0.95924320340003011 0 0.68987011941058407 0.92105047536677087 0 0.75000000000034661 1 0 0.7000000000006934 1 0 0.7250000000005199 0.94981617647078953 0 0.75000000000034661 1 0 0.7250000000005199 0.94981617647078953 0 0.770759834363826 0.95919399014344442 0 0.7000000000006934 1 0 0.68015064798562208 0.95924320340003011 0 0.7250000000005199 0.94981617647078953 0 0.7000000000006934 1 0 0.65000000000104008 1 0 0.68015064798562208 0.95924320340003011 0 0.65507451745379841 0.92229208810758578 0 0.68015064798562208 0.95924320340003011 0 0.62065498684670595 0.95224934003983619 0 0.65000000000104008 1 0 0.62065498684670595 0.95224934003983619 0 0.68015064798562208 0.95924320340003011 0 0.84999999999965292 1 0 0.85170973911348691 0.93569607295217616 0 0.89898474358632463 0.95391965591118966 0 0.84999999999965292 1 0 0.81486180804382891 0.96321394949790495 0 0.85170973911348691 0.93569607295217616 0 0.79680861578988083 0.92656778056766709 0 0.85170973911348691 0.93569607295217616 0 0.81486180804382891 0.96321394949790495 0 0.84999999999965292 1 0 0.79999999999999982 1 0 0.81486180804382891 0.96321394949790495 0 0.79999999999999982 1 0 0.770759834363826 0.95919399014344442 0 0.81486180804382891 0.96321394949790495 0 0.79999999999999982 1 0 0.75000000000034661 1 0 0.770759834363826 0.95919399014344442 0 0.7250000000005199 0.94981617647078953 0 0.75729602384198635 0.92353652857884294 0 0.770759834363826 0.95919399014344442 0 0.79680861578988083 0.92656778056766709 0 0.81486180804382891 0.96321394949790495 0 0.770759834363826 0.95919399014344442 0 0.79680861578988083 0.92656778056766709 0 0.75729602384198635 0.92353652857884294 0 0.76891166905518427 0.88835469571185499 0 0.79680861578988083 0.92656778056766709 0 0.770759834363826 0.95919399014344442 0 0.75729602384198635 0.92353652857884294 0 0.7250000000005199 0.89375000000045834 0 0.76891166905518427 0.88835469571185499 0 0.75729602384198635 0.92353652857884294 0 0.79680861578988083 0.92656778056766709 0 0.76891166905518427 0.88835469571185499 0 0.81159157511211755 0.88795995483179491 0 0.85170973911348691 0.93569607295217616 0 0.81159157511211755 0.88795995483179491 0 0.85600844944837662 0.88483418979512773 0 0.79680861578988083 0.92656778056766709 0 0.81159157511211755 0.88795995483179491 0 0.85170973911348691 0.93569607295217616 0 0.90416666666660628 0.9041666666666166 0 0.85170973911348691 0.93569607295217616 0 0.85600844944837662 0.88483418979512773 0 0.82709327591091286 0.84937141670920724 0 0.88088768115933802 0.84674609810493673 0 0.85600844944837662 0.88483418979512773 0 0.82709327591091286 0.84937141670920724 0 0.84725310900444062 0.80779732082917555 0 0.88088768115933802 0.84674609810493673 0 0.82709327591091286 0.84937141670920724 0 0.80041942726660109 0.81543261647703358 0 0.84725310900444062 0.80779732082917555 0 0.82709327591091286 0.84937141670920724 0 0.85600844944837662 0.88483418979512773 0 0.81159157511211755 0.88795995483179491 0 0.76901770135486491 0.84293557325473656 0 0.81159157511211755 0.88795995483179491 0 0.76891166905518427 0.88835469571185499 0 0.82709327591091286 0.84937141670920724 0 0.81159157511211755 0.88795995483179491 0 0.76901770135486491 0.84293557325473656 0 0.76901770135486491 0.84293557325473656 0 0.76891166905518427 0.88835469571185499 0 0.72863726579783861 0.85390518901155588 0 0.76901770135486491 0.84293557325473656 0 0.77094201086366854 0.79647480515688507 0 0.80041942726660109 0.81543261647703358 0 0.82709327591091286 0.84937141670920724 0 0.76901770135486491 0.84293557325473656 0 0.80041942726660109 0.81543261647703358 0 0.80185942888539485 0.77452061303608133 0 0.80041942726660109 0.81543261647703358 0 0.77094201086366854 0.79647480515688507 0 0.72500000000000064 0.7952620967744265 0 0.75841349681148107 0.75422312624214749 0 0.77094201086366854 0.79647480515688507 0 0.72500000000000064 0.7952620967744265 0 0.77094201086366854 0.79647480515688507 0 0.76901770135486491 0.84293557325473656 0 0.80185942888539485 0.77452061303608133 0 0.77094201086366854 0.79647480515688507 0 0.75841349681148107 0.75422312624214749 0 0.80185942888539485 0.77452061303608133 0 0.75841349681148107 0.75422312624214749 0 0.78578450296893509 0.73292684821144505 0 0.80185942888539485 0.77452061303608133 0 0.85491058998424563 0.76004753345552634 0 0.84725310900444062 0.80779732082917555 0 0.80185942888539485 0.77452061303608133 0 0.81864958914779962 0.73589050177899629 0 0.85491058998424563 0.76004753345552634 0 0.80185942888539485 0.77452061303608133 0 0.84725310900444062 0.80779732082917555 0 0.80041942726660109 0.81543261647703358 0 0.90299850604011456 0.79563452813489832 0 0.84725310900444062 0.80779732082917555 0 0.85491058998424563 0.76004753345552634 0 0.90299850604011456 0.79563452813489832 0 0.85491058998424563 0.76004753345552634 0 0.89999166460796554 0.74528934923809909 0 0.90299850604011456 0.79563452813489832 0 0.94399509803918602 0.75600490196082126 0 0.95386563387742829 0.80414874155775029 0 0.90299850604011456 0.79563452813489832 0 0.89999166460796554 0.74528934923809909 0 0.94399509803918602 0.75600490196082126 0 0.94399509803918602 0.75600490196082126 0 0.97435614836745565 0.77499999999987745 0 0.95386563387742829 0.80414874155775029 0 0.94399509803918602 0.75600490196082126 0 0.97166519676947294 0.73337114490064459 0 0.97435614836745565 0.77499999999987745 0 1 0.74999999999993494 0 0.97435614836745565 0.77499999999987745 0 0.97166519676947294 0.73337114490064459 0 1 0.74999999999993494 0 1 0.7999999999998193 0 0.97435614836745565 0.77499999999987745 0 1 0.7999999999998193 0 0.95386563387742829 0.80414874155775029 0 0.97435614836745565 0.77499999999987745 0 1 0.84999999999982645 0 0.95391631417670719 0.89584263333814784 0 0.93677536231884972 0.85000000000000286 0 1 0.84999999999982645 0 0.93677536231884972 0.85000000000000286 0 0.95386563387742829 0.80414874155775029 0 1 0.7999999999998193 0 1 0.84999999999982645 0 0.95386563387742829 0.80414874155775029 0 0.90416666666660628 0.9041666666666166 0 0.88088768115933802 0.84674609810493673 0 0.93677536231884972 0.85000000000000286 0 0.90299850604011456 0.79563452813489832 0 0.95386563387742829 0.80414874155775029 0 0.93677536231884972 0.85000000000000286 0 0.90299850604011456 0.79563452813489832 0 0.93677536231884972 0.85000000000000286 0 0.88088768115933802 0.84674609810493673 0 0.90299850604011456 0.79563452813489832 0 0.88088768115933802 0.84674609810493673 0 0.84725310900444062 0.80779732082917555 0 0.90416666666660628 0.9041666666666166 0 0.85600844944837662 0.88483418979512773 0 0.88088768115933802 0.84674609810493673 0 0.90416666666660628 0.9041666666666166 0 0.89898474358632463 0.95391965591118966 0 0.85170973911348691 0.93569607295217616 0 0.90416666666660628 0.9041666666666166 0 0.95391631417670719 0.89584263333814784 0 0.94399509803919068 0.9439950980391687 0 0.90416666666660628 0.9041666666666166 0 0.94399509803919068 0.9439950980391687 0 0.89898474358632463 0.95391965591118966 0 0.90416666666660628 0.9041666666666166 0 0.93677536231884972 0.85000000000000286 0 0.95391631417670719 0.89584263333814784 0 1 0.84999999999982645 0 1 0.8999999999998336 0 0.95391631417670719 0.89584263333814784 0 1 0.8999999999998336 0 1 0.94999999999997109 0 0.97435614836744289 0.92499999999990257 0 1 0.8999999999998336 0 0.97435614836744289 0.92499999999990257 0 0.95391631417670719 0.89584263333814784 0 0.94399509803919068 0.9439950980391687 0 0.95391631417670719 0.89584263333814784 0 0.97435614836744289 0.92499999999990257 0 0.94399509803919068 0.9439950980391687 0 0.97435614836744289 0.92499999999990257 0 0.97166519676946206 0.96662885509935492 0 1 0.94999999999997109 0 0.97166519676946206 0.96662885509935492 0 0.97435614836744289 0.92499999999990257 0 1 1 0 0.97166519676946206 0.96662885509935492 0 1 0.94999999999997109 0 1 1 0 0.94999999999979179 1 0 0.97166519676946206 0.96662885509935492 0 0.94999999999979179 1 0 0.94399509803919068 0.9439950980391687 0 0.97166519676946206 0.96662885509935492 0 0.94999999999979179 1 0 0.89999999999958358 1 0 0.89898474358632463 0.95391965591118966 0 0.94999999999979179 1 0 0.89898474358632463 0.95391965591118966 0 0.94399509803919068 0.9439950980391687 0 0.89999999999958358 1 0 0.84999999999965292 1 0 0.89898474358632463 0.95391965591118966 0 0.86956835336234861 0.571283299838105 0 0.81723410853263523 0.59419663659258926 0 0.82862096804812391 0.55037090955459045 0 0.83758014339878906 0.63222013025741819 0 0.81723410853263523 0.59419663659258926 0 0.87159648282691515 0.61285406320581504 0 0.83758014339878906 0.63222013025741819 0 0.79884539758237771 0.62875045078114233 0 0.81723410853263523 0.59419663659258926 0 0.86956835336234861 0.571283299838105 0 0.87159648282691515 0.61285406320581504 0 0.81723410853263523 0.59419663659258926 0 0.86956835336234861 0.571283299838105 0 0.82862096804812391 0.55037090955459045 0 0.86907294890112186 0.52008116128001669 0 0.82862096804812391 0.55037090955459045 0 0.81441713509985358 0.51161854125224959 0 0.86907294890112186 0.52008116128001669 0 0.84723782639812573 0.48638347960178252 0 0.86907294890112186 0.52008116128001669 0 0.81441713509985358 0.51161854125224959 0 0.82862096804812391 0.55037090955459045 0 0.77151014687832564 0.54436834383023036 0 0.81441713509985358 0.51161854125224959 0 0.77846603114747959 0.49850927265137401 0 0.81441713509985358 0.51161854125224959 0 0.77151014687832564 0.54436834383023036 0 0.77846603114747959 0.49850927265137401 0 0.77151014687832564 0.54436834383023036 0 0.73947346780852752 0.49062440112282169 0 0.77293540622714185 0.59448302402785813 0 0.71809016091162536 0.58185040402320831 0 0.77151014687832564 0.54436834383023036 0 0.81723410853263523 0.59419663659258926 0 0.77293540622714185 0.59448302402785813 0 0.77151014687832564 0.54436834383023036 0 0.82862096804812391 0.55037090955459045 0 0.81723410853263523 0.59419663659258926 0 0.77151014687832564 0.54436834383023036 0 0.77293540622714185 0.59448302402785813 0 0.81723410853263523 0.59419663659258926 0 0.79884539758237771 0.62875045078114233 0 0.77293540622714185 0.59448302402785813 0 0.79884539758237771 0.62875045078114233 0 0.74994237037456724 0.62775548192980357 0 0.7750489929959945 0.66593931409600093 0 0.74994237037456724 0.62775548192980357 0 0.79884539758237771 0.62875045078114233 0 0.74999999999999989 0.69999999999999996 0 0.72500000000000064 0.67022701834392062 0 0.7750489929959945 0.66593931409600093 0 0.79999999999999982 0.69999999999999996 0 0.7750489929959945 0.66593931409600093 0 0.82457059160610424 0.66831947184359608 0 0.7750489929959945 0.66593931409600093 0 0.79884539758237771 0.62875045078114233 0 0.82457059160610424 0.66831947184359608 0 0.74999999999999989 0.69999999999999996 0 0.78578450296893509 0.73292684821144505 0 0.75841349681148107 0.75422312624214749 0 0.74999999999999989 0.69999999999999996 0 0.79999999999999982 0.69999999999999996 0 0.78578450296893509 0.73292684821144505 0 0.74999999999999989 0.69999999999999996 0 0.7750489929959945 0.66593931409600093 0 0.79999999999999982 0.69999999999999996 0 0.74999999999999989 0.69999999999999996 0 0.79999999999999982 0.69999999999999996 0 0.80185942888539485 0.77452061303608133 0 0.78578450296893509 0.73292684821144505 0 0.81864958914779962 0.73589050177899629 0 0.79999999999999982 0.69999999999999996 0 0.81864958914779962 0.73589050177899629 0 0.78578450296893509 0.73292684821144505 0 0.84999999999999987 0.69999999999999996 0 0.85491058998424563 0.76004753345552634 0 0.81864958914779962 0.73589050177899629 0 0.79999999999999982 0.69999999999999996 0 0.84999999999999987 0.69999999999999996 0 0.79999999999999982 0.69999999999999996 0 0.82457059160610424 0.66831947184359608 0 0.84999999999999987 0.69999999999999996 0 0.79999999999999982 0.69999999999999996 0 0.84999999999999987 0.69999999999999996 0 0.81864958914779962 0.73589050177899629 0 0.84999999999999987 0.69999999999999996 0 0.89999999999999991 0.69999999999999996 0 0.84999999999999987 0.69999999999999996 0 0.89999166460796554 0.74528934923809909 0 0.85491058998424563 0.76004753345552634 0 0.83758014339878906 0.63222013025741819 0 0.82457059160610424 0.66831947184359608 0 0.79884539758237771 0.62875045078114233 0 0.84999999999999987 0.69999999999999996 0 0.82457059160610424 0.66831947184359608 0 0.87712158428786946 0.65709029563313581 0 0.83758014339878906 0.63222013025741819 0 0.87159648282691515 0.61285406320581504 0 0.87712158428786946 0.65709029563313581 0 0.83758014339878906 0.63222013025741819 0 0.87712158428786946 0.65709029563313581 0 0.82457059160610424 0.66831947184359608 0 0.91750694127105259 0.63017627779935648 0 0.92057473616084773 0.66770436535372446 0 0.87712158428786946 0.65709029563313581 0 0.91750694127105259 0.63017627779935648 0 0.87712158428786946 0.65709029563313581 0 0.87159648282691515 0.61285406320581504 0 0.84999999999999987 0.69999999999999996 0 0.87712158428786946 0.65709029563313581 0 0.89999999999999991 0.69999999999999996 0 0.89999999999999991 0.69999999999999996 0 0.87712158428786946 0.65709029563313581 0 0.92057473616084773 0.66770436535372446 0 0.91750694127105259 0.63017627779935648 0 0.9578014258160763 0.65787212321113708 0 0.92057473616084773 0.66770436535372446 0 0.84999999999999987 0.69999999999999996 0 0.89999999999999991 0.69999999999999996 0 0.89999166460796554 0.74528934923809909 0 0.89999999999999991 0.69999999999999996 0 0.94999999999999996 0.69999999999999996 0 0.89999999999999991 0.69999999999999996 0 0.92057473616084773 0.66770436535372446 0 0.94999999999999996 0.69999999999999996 0 0.89999999999999991 0.69999999999999996 0 0.94999999999999996 0.69999999999999996 0 0.89999166460796554 0.74528934923809909 0 0.94999999999999996 0.69999999999999996 0 0.94399509803918602 0.75600490196082126 0 0.89999166460796554 0.74528934923809909 0 0.94999999999999996 0.69999999999999996 0 0.97166519676947294 0.73337114490064459 0 0.94399509803918602 0.75600490196082126 0 0.94999999999999996 0.69999999999999996 0 1 0.69999999999999996 0 1 0.69999999999999996 0 0.97166519676947294 0.73337114490064459 0 0.94999999999999996 0.69999999999999996 0 1 0.69999999999999996 0 1 0.74999999999993494 0 0.97166519676947294 0.73337114490064459 0 0.91750694127105259 0.63017627779935648 0 0.95867599106212187 0.60011091146651041 0 0.9578014258160763 0.65787212321113708 0 0.94999999999999996 0.69999999999999996 0 0.92057473616084773 0.66770436535372446 0 0.9578014258160763 0.65787212321113708 0 1 0.69999999999999996 0 0.94999999999999996 0.69999999999999996 0 0.9578014258160763 0.65787212321113708 0 1 0.69999999999999996 0 0.9578014258160763 0.65787212321113708 0 1 0.64999999999986979 0 1 0.64999999999986979 0 0.9578014258160763 0.65787212321113708 0 0.95867599106212187 0.60011091146651041 0 1 0.54999999999963112 0 0.95867599106212187 0.60011091146651041 0 0.93732437411268477 0.55911392101136159 0 1 0.59999999999973963 0 1 0.64999999999986979 0 0.95867599106212187 0.60011091146651041 0 1 0.54999999999963112 0 1 0.59999999999973963 0 0.95867599106212187 0.60011091146651041 0 0.91750694127105259 0.63017627779935648 0 0.91143117093204207 0.58709913730335972 0 0.95867599106212187 0.60011091146651041 0 0.93732437411268477 0.55911392101136159 0 0.95867599106212187 0.60011091146651041 0 0.91143117093204207 0.58709913730335972 0 0.86956835336234861 0.571283299838105 0 0.90900154012161016 0.53607784105648792 0 0.91143117093204207 0.58709913730335972 0 0.86956835336234861 0.571283299838105 0 0.91143117093204207 0.58709913730335972 0 0.87159648282691515 0.61285406320581504 0 0.91750694127105259 0.63017627779935648 0 0.87159648282691515 0.61285406320581504 0 0.91143117093204207 0.58709913730335972 0 0.91696753777131557 0.497780560203536 0 0.90900154012161016 0.53607784105648792 0 0.86907294890112186 0.52008116128001669 0 0.86956835336234861 0.571283299838105 0 0.86907294890112186 0.52008116128001669 0 0.90900154012161016 0.53607784105648792 0 0.93732437411268477 0.55911392101136159 0 0.90900154012161016 0.53607784105648792 0 0.95631871884947484 0.51827533208233789 0 0.93732437411268477 0.55911392101136159 0 0.91143117093204207 0.58709913730335972 0 0.90900154012161016 0.53607784105648792 0 0.91696753777131557 0.497780560203536 0 0.95631871884947484 0.51827533208233789 0 0.90900154012161016 0.53607784105648792 0 1 0.54999999999963112 0 0.93732437411268477 0.55911392101136159 0 0.95631871884947484 0.51827533208233789 0 1 0.49999999999950101 0 1 0.54999999999963112 0 0.95631871884947484 0.51827533208233789 0 1 0.49999999999950101 0 0.95631871884947484 0.51827533208233789 0 0.96228564064454991 0.48206450662049471 0 1 0.44999999999963131 0 1 0.49999999999950101 0 0.96228564064454991 0.48206450662049471 0 1 0.44999999999963131 0 0.96228564064454991 0.48206450662049471 0 0.93814194660195893 0.44426664081746747 0 0.91696753777131557 0.497780560203536 0 0.93814194660195893 0.44426664081746747 0 0.96228564064454991 0.48206450662049471 0 0.91696753777131557 0.497780560203536 0 0.96228564064454991 0.48206450662049471 0 0.95631871884947484 0.51827533208233789 0 1 0.34999999999993492 0 1 0.39999999999978308 0 0.95871855522754235 0.40006508612975411 0 1 0.39999999999978308 0 1 0.44999999999963131 0 0.95871855522754235 0.40006508612975411 0 1 0.44999999999963131 0 0.93814194660195893 0.44426664081746747 0 0.95871855522754235 0.40006508612975411 0 0.91750694127107502 0.36982372220068471 0 0.95871855522754235 0.40006508612975411 0 0.90594285160987287 0.4141265964174129 0 0.93814194660195893 0.44426664081746747 0 0.90594285160987287 0.4141265964174129 0 0.95871855522754235 0.40006508612975411 0 0.90594285160987287 0.4141265964174129 0 0.88594198078881503 0.46167788676578442 0 0.86411095495256451 0.42388805655111889 0 0.86411095495256451 0.42388805655111889 0 0.86844634540301924 0.38530937474099819 0 0.90594285160987287 0.4141265964174129 0 0.91750694127107502 0.36982372220068471 0 0.90594285160987287 0.4141265964174129 0 0.86844634540301924 0.38530937474099819 0 0.91696753777131557 0.497780560203536 0 0.88594198078881503 0.46167788676578442 0 0.93814194660195893 0.44426664081746747 0 0.93814194660195893 0.44426664081746747 0 0.88594198078881503 0.46167788676578442 0 0.90594285160987287 0.4141265964174129 0 0.91696753777131557 0.497780560203536 0 0.86907294890112186 0.52008116128001669 0 0.88594198078881503 0.46167788676578442 0 0.84723782639812573 0.48638347960178252 0 0.88594198078881503 0.46167788676578442 0 0.86907294890112186 0.52008116128001669 0 0.84723782639812573 0.48638347960178252 0 0.81441713509985358 0.51161854125224959 0 0.81400510706333218 0.47357325943904899 0 0.84723782639812573 0.48638347960178252 0 0.81400510706333218 0.47357325943904899 0 0.84925632466077294 0.45359738909549091 0 0.81973119833356312 0.43505687159469048 0 0.84925632466077294 0.45359738909549091 0 0.81400510706333218 0.47357325943904899 0 0.84723782639812573 0.48638347960178252 0 0.84925632466077294 0.45359738909549091 0 0.88594198078881503 0.46167788676578442 0 0.86411095495256451 0.42388805655111889 0 0.84925632466077294 0.45359738909549091 0 0.81973119833356312 0.43505687159469048 0 0.86411095495256451 0.42388805655111889 0 0.88594198078881503 0.46167788676578442 0 0.84925632466077294 0.45359738909549091 0 0.86411095495256451 0.42388805655111889 0 0.81308179852519835 0.39754945808726527 0 0.86844634540301924 0.38530937474099819 0 0.83573492347052902 0.36590755630746369 0 0.86844634540301924 0.38530937474099819 0 0.81308179852519835 0.39754945808726527 0 0.86411095495256451 0.42388805655111889 0 0.81973119833356312 0.43505687159469048 0 0.81308179852519835 0.39754945808726527 0 0.77354604466818633 0.40378688774472771 0 0.81973119833356312 0.43505687159469048 0 0.77972660463949339 0.45529290596363098 0 0.77354604466818633 0.40378688774472771 0 0.81308179852519835 0.39754945808726527 0 0.81973119833356312 0.43505687159469048 0 0.77354604466818633 0.40378688774472771 0 0.78145581580700685 0.34881365920033602 0 0.81308179852519835 0.39754945808726527 0 0.77354604466818633 0.40378688774472771 0 0.77972660463949339 0.45529290596363098 0 0.73483647259922602 0.44789725365921768 0 0.73483647259922602 0.44789725365921768 0 0.77972660463949339 0.45529290596363098 0 0.73947346780852752 0.49062440112282169 0 0.77846603114747959 0.49850927265137401 0 0.73947346780852752 0.49062440112282169 0 0.77972660463949339 0.45529290596363098 0 0.77846603114747959 0.49850927265137401 0 0.77972660463949339 0.45529290596363098 0 0.81400510706333218 0.47357325943904899 0 0.77846603114747959 0.49850927265137401 0 0.81400510706333218 0.47357325943904899 0 0.81441713509985358 0.51161854125224959 0 0.81973119833356312 0.43505687159469048 0 0.81400510706333218 0.47357325943904899 0 0.77972660463949339 0.45529290596363098 0 0.79999999999999982 0.29999999999999999 0 0.77075983436335049 0.25919399014334171 0 0.81486180804364938 0.26321394949780091 0 0.74999999999999989 0.29999999999999999 0 0.79999999999999982 0.29999999999999999 0 0.74999999999999989 0.29999999999999999 0 0.77075983436335049 0.25919399014334171 0 0.79999999999999982 0.29999999999999999 0 0.74999999999999989 0.29999999999999999 0 0.79999999999999982 0.29999999999999999 0 0.78145581580700685 0.34881365920033602 0 0.74999999999999989 0.29999999999999999 0 0.78145581580700685 0.34881365920033602 0 0.73090396928863699 0.33699297293167962 0 0.77354604466818633 0.40378688774472771 0 0.74764719760526988 0.3719647154012321 0 0.78145581580700685 0.34881365920033602 0 0.78145581580700685 0.34881365920033602 0 0.74764719760526988 0.3719647154012321 0 0.73090396928863699 0.33699297293167962 0 0.83573492347052902 0.36590755630746369 0 0.81308179852519835 0.39754945808726527 0 0.78145581580700685 0.34881365920033602 0 0.79999999999999982 0.29999999999999999 0 0.82500000000000062 0.33010209762754811 0 0.78145581580700685 0.34881365920033602 0 0.83573492347052902 0.36590755630746369 0 0.78145581580700685 0.34881365920033602 0 0.82500000000000062 0.33010209762754811 0 0.83573492347052902 0.36590755630746369 0 0.82500000000000062 0.33010209762754811 0 0.87430060258887643 0.34056085888204451 0 0.83573492347052902 0.36590755630746369 0 0.87430060258887643 0.34056085888204451 0 0.86844634540301924 0.38530937474099819 0 0.84999999999999987 0.29999999999999999 0 0.87430060258887643 0.34056085888204451 0 0.82500000000000062 0.33010209762754811 0 0.84999999999999987 0.29999999999999999 0 0.89999999999999991 0.29999999999999999 0 0.87430060258887643 0.34056085888204451 0 0.84999999999999987 0.29999999999999999 0 0.81486180804364938 0.26321394949780091 0 0.8517097391133297 0.2356960729520409 0 0.84999999999999987 0.29999999999999999 0 0.8517097391133297 0.2356960729520409 0 0.89898474358614167 0.25391965591104898 0 0.84999999999999987 0.29999999999999999 0 0.89999999999999991 0.29999999999999999 0 0.79999999999999982 0.29999999999999999 0 0.84999999999999987 0.29999999999999999 0 0.82500000000000062 0.33010209762754811 0 0.79999999999999982 0.29999999999999999 0 0.81486180804364938 0.26321394949780091 0 0.84999999999999987 0.29999999999999999 0 0.79999999999999982 0.29999999999999999 0 0.84999999999999987 0.29999999999999999 0 0.84999999999999987 0.29999999999999999 0 0.89898474358614167 0.25391965591104898 0 0.89999999999999991 0.29999999999999999 0 0.89999999999999991 0.29999999999999999 0 0.94999999999999996 0.29999999999999999 0 0.89999999999999991 0.29999999999999999 0 0.94999999999999996 0.29999999999999999 0 0.92012390126144183 0.33123581297173937 0 0.89999999999999991 0.29999999999999999 0 0.89898474358614167 0.25391965591104898 0 0.94999999999999996 0.29999999999999999 0 0.94999999999999996 0.29999999999999999 0 0.89898474358614167 0.25391965591104898 0 0.94399509803921056 0.24399509803922639 0 0.91750694127107502 0.36982372220068471 0 0.86844634540301924 0.38530937474099819 0 0.87430060258887643 0.34056085888204451 0 0.91750694127107502 0.36982372220068471 0 0.87430060258887643 0.34056085888204451 0 0.92012390126144183 0.33123581297173937 0 0.89999999999999991 0.29999999999999999 0 0.92012390126144183 0.33123581297173937 0 0.87430060258887643 0.34056085888204451 0 0.91750694127107502 0.36982372220068471 0 0.92012390126144183 0.33123581297173937 0 0.95780851984364423 0.34215720972155339 0 0.91750694127107502 0.36982372220068471 0 0.95780851984364423 0.34215720972155339 0 0.95871855522754235 0.40006508612975411 0 0.94999999999999996 0.29999999999999999 0 0.95780851984364423 0.34215720972155339 0 0.92012390126144183 0.33123581297173937 0 1 0.29999999999999999 0 0.95780851984364423 0.34215720972155339 0 0.94999999999999996 0.29999999999999999 0 1 0.29999999999999999 0 1 0.34999999999993492 0 0.95780851984364423 0.34215720972155339 0 1 0.34999999999993492 0 0.95871855522754235 0.40006508612975411 0 0.95780851984364423 0.34215720972155339 0 0.94999999999999996 0.29999999999999999 0 0.94399509803921056 0.24399509803922639 0 0.97166519676951801 0.26662885509932011 0 0.94999999999999996 0.29999999999999999 0 1 0.29999999999999999 0 1 0.29999999999999999 0 0.94999999999999996 0.29999999999999999 0 0.97166519676951801 0.26662885509932011 0 1 0.29999999999999999 0 0.97166519676951801 0.26662885509932011 0 1 0.24999999999987299 0 1 0.24999999999987299 0 0.97166519676951801 0.26662885509932011 0 0.97435614836740092 0.22499999999981049 0 1 0.19999999999974799 0 1 0.24999999999987299 0 0.97435614836740092 0.22499999999981049 0 0.94399509803921056 0.24399509803922639 0 0.95391631417672862 0.19584263333809451 0 0.97435614836740092 0.22499999999981049 0 0.94399509803921056 0.24399509803922639 0 0.97435614836740092 0.22499999999981049 0 0.97166519676951801 0.26662885509932011 0 1 0.19999999999974799 0 0.97435614836740092 0.22499999999981049 0 0.95391631417672862 0.19584263333809451 0 1 0.14999999999961891 0 0.95391631417672862 0.19584263333809451 0 0.93677536231883773 0.14999999999999089 0 1 0.14999999999961891 0 0.93677536231883773 0.14999999999999089 0 0.95386563387744361 0.1041487415577465 0 1 0.14999999999961891 0 1 0.19999999999974799 0 0.95391631417672862 0.19584263333809451 0 0.90416666666668166 0.20416666666667119 0 0.93677536231883773 0.14999999999999089 0 0.95391631417672862 0.19584263333809451 0 0.90416666666668166 0.20416666666667119 0 0.88088768115941807 0.14674609810479519 0 0.93677536231883773 0.14999999999999089 0 0.90299850604006393 0.09563452813493091 0 0.93677536231883773 0.14999999999999089 0 0.88088768115941807 0.14674609810479519 0 0.90416666666668166 0.20416666666667119 0 0.85600844944842547 0.1848341897950983 0 0.88088768115941807 0.14674609810479519 0 0.90416666666668166 0.20416666666667119 0 0.89898474358614167 0.25391965591104898 0 0.8517097391133297 0.2356960729520409 0 0.90416666666668166 0.20416666666667119 0 0.94399509803921056 0.24399509803922639 0 0.89898474358614167 0.25391965591104898 0 0.90416666666668166 0.20416666666667119 0 0.95391631417672862 0.19584263333809451 0 0.94399509803921056 0.24399509803922639 0 0.94999999999986839 0 0 0.97166519676946894 0.033371144900598393 0 0.94399509803922566 0.056004901960802607 0 1 0 0 0.97166519676946894 0.033371144900598393 0 0.94999999999986839 0 0 1 0 0 1 0.049999999999896842 0 0.97166519676946894 0.033371144900598393 0 1 0.049999999999896842 0 0.97435614836748241 0.074999999999825387 0 0.97166519676946894 0.033371144900598393 0 0.94399509803922566 0.056004901960802607 0 0.97166519676946894 0.033371144900598393 0 0.97435614836748241 0.074999999999825387 0 0.94399509803922566 0.056004901960802607 0 0.97435614836748241 0.074999999999825387 0 0.95386563387744361 0.1041487415577465 0 1 0.099999999999753911 0 0.95386563387744361 0.1041487415577465 0 0.97435614836748241 0.074999999999825387 0 1 0.049999999999896842 0 1 0.099999999999753911 0 0.97435614836748241 0.074999999999825387 0 1 0.099999999999753911 0 1 0.14999999999961891 0 0.95386563387744361 0.1041487415577465 0 0.90299850604006393 0.09563452813493091 0 0.95386563387744361 0.1041487415577465 0 0.93677536231883773 0.14999999999999089 0 0.90299850604006393 0.09563452813493091 0 0.88088768115941807 0.14674609810479519 0 0.84725310900442086 0.10779732082922661 0 0.90299850604006393 0.09563452813493091 0 0.85491058998398861 0.060047533455626502 0 0.899991664607802 0.045289349238254978 0 0.90299850604006393 0.09563452813493091 0 0.94399509803922566 0.056004901960802607 0 0.95386563387744361 0.1041487415577465 0 0.90299850604006393 0.09563452813493091 0 0.899991664607802 0.045289349238254978 0 0.94399509803922566 0.056004901960802607 0 0.94999999999986839 0 0 0.94399509803922566 0.056004901960802607 0 0.899991664607802 0.045289349238254978 0 0.84999999999960507 0 0 0.89999999999973679 0 0 0.899991664607802 0.045289349238254978 0 0.89999999999973679 0 0 0.94999999999986839 0 0 0.899991664607802 0.045289349238254978 0 0.79999999999947335 0 0 0.84999999999960507 0 0 0.81864958914740749 0.035890501779055867 0 0.84999999999960507 0 0 0.899991664607802 0.045289349238254978 0 0.85491058998398861 0.060047533455626502 0 0.80185942888501827 0.074520613036224564 0 0.81864958914740749 0.035890501779055867 0 0.85491058998398861 0.060047533455626502 0 0.84999999999960507 0 0 0.85491058998398861 0.060047533455626502 0 0.81864958914740749 0.035890501779055867 0 0.80185942888501827 0.074520613036224564 0 0.85491058998398861 0.060047533455626502 0 0.84725310900442086 0.10779732082922661 0 0.90299850604006393 0.09563452813493091 0 0.84725310900442086 0.10779732082922661 0 0.85491058998398861 0.060047533455626502 0 0.80185942888501827 0.074520613036224564 0 0.84725310900442086 0.10779732082922661 0 0.80076557130237269 0.1154587552654202 0 0.82709327591102189 0.14937141670914489 0 0.80076557130237269 0.1154587552654202 0 0.84725310900442086 0.10779732082922661 0 0.80185942888501827 0.074520613036224564 0 0.80076557130237269 0.1154587552654202 0 0.76878382444651716 0.097147941686331368 0 0.72525833953073282 0.1032114801687094 0 0.76878382444651716 0.097147941686331368 0 0.77144070960558853 0.14311854477243749 0 0.77144070960558853 0.14311854477243749 0 0.76878382444651716 0.097147941686331368 0 0.80076557130237269 0.1154587552654202 0 0.80185942888501827 0.074520613036224564 0 0.76878382444651716 0.097147941686331368 0 0.7527966693318906 0.053051678021508272 0 0.80185942888501827 0.074520613036224564 0 0.78393852574753176 0.032039079577822822 0 0.81864958914740749 0.035890501779055867 0 0.80185942888501827 0.074520613036224564 0 0.7527966693318906 0.053051678021508272 0 0.78393852574753176 0.032039079577822822 0 0.74999999999934175 0 0 0.78393852574753176 0.032039079577822822 0 0.7527966693318906 0.053051678021508272 0 0.74999999999934175 0 0 0.79999999999947335 0 0 0.78393852574753176 0.032039079577822822 0 0.79999999999947335 0 0 0.81864958914740749 0.035890501779055867 0 0.78393852574753176 0.032039079577822822 0 0.79680861578956375 0.22656778056752541 0 0.81283102246527783 0.1881007222486438 0 0.8517097391133297 0.2356960729520409 0 0.8517097391133297 0.2356960729520409 0 0.81283102246527783 0.1881007222486438 0 0.85600844944842547 0.1848341897950983 0 0.79680861578956375 0.22656778056752541 0 0.8517097391133297 0.2356960729520409 0 0.81486180804364938 0.26321394949780091 0 0.90416666666668166 0.20416666666667119 0 0.8517097391133297 0.2356960729520409 0 0.85600844944842547 0.1848341897950983 0 0.82709327591102189 0.14937141670914489 0 0.88088768115941807 0.14674609810479519 0 0.85600844944842547 0.1848341897950983 0 0.82709327591102189 0.14937141670914489 0 0.84725310900442086 0.10779732082922661 0 0.88088768115941807 0.14674609810479519 0 0.82709327591102189 0.14937141670914489 0 0.85600844944842547 0.1848341897950983 0 0.81283102246527783 0.1881007222486438 0 0.77144070960558853 0.14311854477243749 0 0.81283102246527783 0.1881007222486438 0 0.76587607630038135 0.18880039518954719 0 0.82709327591102189 0.14937141670914489 0 0.81283102246527783 0.1881007222486438 0 0.77144070960558853 0.14311854477243749 0 0.82709327591102189 0.14937141670914489 0 0.77144070960558853 0.14311854477243749 0 0.80076557130237269 0.1154587552654202 0 0.77144070960558853 0.14311854477243749 0 0.76587607630038135 0.18880039518954719 0 0.72634814642510737 0.16106886917518889 0 0.79680861578956375 0.22656778056752541 0 0.75668890529066124 0.2244279804069782 0 0.76587607630038135 0.18880039518954719 0 0.79680861578956375 0.22656778056752541 0 0.76587607630038135 0.18880039518954719 0 0.81283102246527783 0.1881007222486438 0 0.79680861578956375 0.22656778056752541 0 0.81486180804364938 0.26321394949780091 0 0.77075983436335049 0.25919399014334171 0 0.79680861578956375 0.22656778056752541 0 0.77075983436335049 0.25919399014334171 0 0.75668890529066124 0.2244279804069782 0 0.72500000000000064 0.2498161764706 0 0.75668890529066124 0.2244279804069782 0 0.77075983436335049 0.25919399014334171 0 0.72500000000001008 0.19776155966387679 0 0.75668890529066124 0.2244279804069782 0 0.72500000000000064 0.2498161764706 0 0.72500000000001008 0.19776155966387679 0 0.72500000000000064 0.2498161764706 0 0.69397719155551807 0.2245125647000914 0 0.72500000000000064 0.2498161764706 0 0.67933712972090698 0.25920070958121938 0 0.69397719155551807 0.2245125647000914 0 0.72500000000001008 0.19776155966387679 0 0.69397719155551807 0.2245125647000914 0 0.6865991819015953 0.189116534044597 0 0.72500000000001008 0.19776155966387679 0 0.76587607630038135 0.18880039518954719 0 0.75668890529066124 0.2244279804069782 0 0.72500000000001008 0.19776155966387679 0 0.72634814642510737 0.16106886917518889 0 0.76587607630038135 0.18880039518954719 0 0.72525833953073282 0.1032114801687094 0 0.77144070960558853 0.14311854477243749 0 0.72634814642510737 0.16106886917518889 0 0.72525833953073282 0.1032114801687094 0 0.72634814642510737 0.16106886917518889 0 0.68391457121233579 0.14440470121196541 0 0.72500000000001008 0.19776155966387679 0 0.6865991819015953 0.189116534044597 0 0.72634814642510737 0.16106886917518889 0 0.68391457121233579 0.14440470121196541 0 0.72634814642510737 0.16106886917518889 0 0.6865991819015953 0.189116534044597 0 0.68391457121233579 0.14440470121196541 0 0.6865991819015953 0.189116534044597 0 0.64011864159029941 0.18789607982138171 0 0.6236733212988993 0.14864538214901801 0 0.65290632656860115 0.11434202593454081 0 0.68391457121233579 0.14440470121196541 0 0.6236733212988993 0.14864538214901801 0 0.68391457121233579 0.14440470121196541 0 0.64011864159029941 0.18789607982138171 0 0.65394964615507722 0.22666784374016369 0 0.59814117807200873 0.23398510860739519 0 0.64011864159029941 0.18789607982138171 0 0.65394964615507722 0.22666784374016369 0 0.62657463266645097 0.26524202571255862 0 0.59814117807200873 0.23398510860739519 0 0.65394964615507722 0.22666784374016369 0 0.69397719155551807 0.2245125647000914 0 0.67933712972090698 0.25920070958121938 0 0.65394964615507722 0.22666784374016369 0 0.64011864159029941 0.18789607982138171 0 0.6865991819015953 0.189116534044597 0 0.65394964615507722 0.22666784374016369 0 0.6865991819015953 0.189116534044597 0 0.69397719155551807 0.2245125647000914 0 0.69999999999921003 0 0 0.72683645290270404 0.027797073151180601 0 0.7010294155333181 0.056779085686491267 0 0.69999999999921003 0 0 0.7010294155333181 0.056779085686491267 0 0.66369801598854572 0.036327466368102787 0 0.74999999999934175 0 0 0.7527966693318906 0.053051678021508272 0 0.72683645290270404 0.027797073151180601 0 0.69999999999921003 0 0 0.74999999999934175 0 0 0.72683645290270404 0.027797073151180601 0 0.7527966693318906 0.053051678021508272 0 0.7010294155333181 0.056779085686491267 0 0.72683645290270404 0.027797073151180601 0 0.72525833953073282 0.1032114801687094 0 0.68330259535470161 0.10038702501083881 0 0.7010294155333181 0.056779085686491267 0 0.72525833953073282 0.1032114801687094 0 0.7010294155333181 0.056779085686491267 0 0.7527966693318906 0.053051678021508272 0 0.72525833953073282 0.1032114801687094 0 0.7527966693318906 0.053051678021508272 0 0.76878382444651716 0.097147941686331368 0 0.72525833953073282 0.1032114801687094 0 0.68391457121233579 0.14440470121196541 0 0.68330259535470161 0.10038702501083881 0 0.65408113592120842 0.073941773121567966 0 0.68330259535470161 0.10038702501083881 0 0.65290632656860115 0.11434202593454081 0 0.68391457121233579 0.14440470121196541 0 0.65290632656860115 0.11434202593454081 0 0.68330259535470161 0.10038702501083881 0 0.6236733212988993 0.14864538214901801 0 0.61956000905586006 0.1043312481793135 0 0.65290632656860115 0.11434202593454081 0 0.65408113592120842 0.073941773121567966 0 0.65290632656860115 0.11434202593454081 0 0.61956000905586006 0.1043312481793135 0 0.65408113592120842 0.073941773121567966 0 0.61956000905586006 0.1043312481793135 0 0.61940220174112337 0.047251958781050582 0 0.65408113592120842 0.073941773121567966 0 0.7010294155333181 0.056779085686491267 0 0.68330259535470161 0.10038702501083881 0 0.65408113592120842 0.073941773121567966 0 0.66369801598854572 0.036327466368102787 0 0.7010294155333181 0.056779085686491267 0 0.65408113592120842 0.073941773121567966 0 0.61940220174112337 0.047251958781050582 0 0.66369801598854572 0.036327466368102787 0 0.64999999999907843 0 0 0.66369801598854572 0.036327466368102787 0 0.61940220174112337 0.047251958781050582 0 0.64999999999907843 0 0 0.69999999999921003 0 0 0.66369801598854572 0.036327466368102787 0 0.5499999999988151 0 0 0.59999999999894682 0 0 0.57396793757665954 0.037011367187645222 0 0.59999999999894682 0 0 0.64999999999907843 0 0 0.61940220174112337 0.047251958781050582 0 0.59999999999894682 0 0 0.61940220174112337 0.047251958781050582 0 0.57396793757665954 0.037011367187645222 0 0.57667858002728545 0.078486105337742612 0 0.57396793757665954 0.037011367187645222 0 0.61940220174112337 0.047251958781050582 0 0.57667858002728545 0.078486105337742612 0 0.61940220174112337 0.047251958781050582 0 0.61956000905586006 0.1043312481793135 0 0.6236733212988993 0.14864538214901801 0 0.58516465772821369 0.11653801664834119 0 0.61956000905586006 0.1043312481793135 0 0.57667858002728545 0.078486105337742612 0 0.61956000905586006 0.1043312481793135 0 0.58516465772821369 0.11653801664834119 0 0.56202748619534593 0.15054058349222879 0 0.54979595918804436 0.1060565713905809 0 0.58516465772821369 0.11653801664834119 0 0.57667858002728545 0.078486105337742612 0 0.58516465772821369 0.11653801664834119 0 0.54979595918804436 0.1060565713905809 0 0.51076801031701946 0.1202837388510348 0 0.52375890611712683 0.059318771819432882 0 0.54979595918804436 0.1060565713905809 0 0.51076801031701946 0.1202837388510348 0 0.47881186583059909 0.093591717165689425 0 0.52375890611712683 0.059318771819432882 0 0.57667858002728545 0.078486105337742612 0 0.54979595918804436 0.1060565713905809 0 0.52375890611712683 0.059318771819432882 0 0.5499999999988151 0 0 0.57396793757665954 0.037011367187645222 0 0.52375890611712683 0.059318771819432882 0 0.57667858002728545 0.078486105337742612 0 0.52375890611712683 0.059318771819432882 0 0.57396793757665954 0.037011367187645222 0 0.49999999999869432 0 0 0.5499999999988151 0 0 0.52375890611712683 0.059318771819432882 0 0.55306006949600994 0.20198184231352201 0 0.59443395090188023 0.18455690917515069 0 0.59814117807200873 0.23398510860739519 0 0.55306006949600994 0.20198184231352201 0 0.59814117807200873 0.23398510860739519 0 0.54248833945060504 0.2520322959927106 0 0.59814117807200873 0.23398510860739519 0 0.59443395090188023 0.18455690917515069 0 0.64011864159029941 0.18789607982138171 0 0.6236733212988993 0.14864538214901801 0 0.64011864159029941 0.18789607982138171 0 0.59443395090188023 0.18455690917515069 0 0.6236733212988993 0.14864538214901801 0 0.56202748619534593 0.15054058349222879 0 0.58516465772821369 0.11653801664834119 0 0.6236733212988993 0.14864538214901801 0 0.59443395090188023 0.18455690917515069 0 0.56202748619534593 0.15054058349222879 0 0.55306006949600994 0.20198184231352201 0 0.56202748619534593 0.15054058349222879 0 0.59443395090188023 0.18455690917515069 0 0.55306006949600994 0.20198184231352201 0 0.51729576145820033 0.1683240575987815 0 0.56202748619534593 0.15054058349222879 0 0.51076801031701946 0.1202837388510348 0 0.54979595918804436 0.1060565713905809 0 0.56202748619534593 0.15054058349222879 0 0.51076801031701946 0.1202837388510348 0 0.51729576145820033 0.1683240575987815 0 0.48466639505193998 0.1421439844745814 0 0.51076801031701946 0.1202837388510348 0 0.56202748619534593 0.15054058349222879 0 0.51729576145820033 0.1683240575987815 0 0.55306006949600994 0.20198184231352201 0 0.50760557329222289 0.20700468884612061 0 0.51729576145820033 0.1683240575987815 0 0.50760557329222289 0.20700468884612061 0 0.55306006949600994 0.20198184231352201 0 0.54248833945060504 0.2520322959927106 0 0.49695729691142171 0.25014895411178018 0 0.50760557329222289 0.20700468884612061 0 0.54248833945060504 0.2520322959927106 0 0.5 0.29999999999999999 0 0.49695729691142171 0.25014895411178018 0 0.54248833945060504 0.2520322959927106 0 0.5 0.29999999999999999 0 0.54999999999999993 0.29999999999999999 0 0.52752007115234678 0.33170632466418198 0 0.5 0.29999999999999999 0 0.54248833945060504 0.2520322959927106 0 0.54999999999999993 0.29999999999999999 0 0.5 0.29999999999999999 0 0.54999999999999993 0.29999999999999999 0 0.54999999999999993 0.29999999999999999 0 0.54248833945060504 0.2520322959927106 0 0.5794309697024993 0.27124795968204829 0 0.59814117807200873 0.23398510860739519 0 0.5794309697024993 0.27124795968204829 0 0.54248833945060504 0.2520322959927106 0 0.54999999999999993 0.29999999999999999 0 0.59999999999999976 0.29999999999999999 0 0.54999999999999993 0.29999999999999999 0 0.5794309697024993 0.27124795968204829 0 0.59999999999999976 0.29999999999999999 0 0.59999999999999976 0.29999999999999999 0 0.6499999999999998 0.29999999999999999 0 0.59999999999999976 0.29999999999999999 0 0.5794309697024993 0.27124795968204829 0 0.62657463266645097 0.26524202571255862 0 0.59814117807200873 0.23398510860739519 0 0.62657463266645097 0.26524202571255862 0 0.5794309697024993 0.27124795968204829 0 0.6084546825910605 0.37989672713932537 0 0.56836770495988642 0.3523062350852913 0 0.61959173890754571 0.33832250091341232 0 0.59999999999999976 0.29999999999999999 0 0.6499999999999998 0.29999999999999999 0 0.61959173890754571 0.33832250091341232 0 0.59999999999999976 0.29999999999999999 0 0.61959173890754571 0.33832250091341232 0 0.56836770495988642 0.3523062350852913 0 0.54999999999999993 0.29999999999999999 0 0.59999999999999976 0.29999999999999999 0 0.56836770495988642 0.3523062350852913 0 0.56836770495988642 0.3523062350852913 0 0.52289427570932567 0.3932284363388488 0 0.52752007115234678 0.33170632466418198 0 0.54999999999999993 0.29999999999999999 0 0.56836770495988642 0.3523062350852913 0 0.52752007115234678 0.33170632466418198 0 0.5 0.29999999999999999 0 0.52752007115234678 0.33170632466418198 0 0.49077833859261139 0.35229981449445641 0 0.52752007115234678 0.33170632466418198 0 0.52289427570932567 0.3932284363388488 0 0.49077833859261139 0.35229981449445641 0 0.52289427570932567 0.3932284363388488 0 0.56836770495988642 0.3523062350852913 0 0.57744073070774993 0.41535148636609359 0 0.52289427570932567 0.3932284363388488 0 0.57744073070774993 0.41535148636609359 0 0.53823865529665704 0.45873898050322898 0 0.52289427570932567 0.3932284363388488 0 0.53823865529665704 0.45873898050322898 0 0.48858720058566618 0.43964267759203868 0 0.49102375406324739 0.49123754822244059 0 0.53823865529665704 0.45873898050322898 0 0.53330375813596242 0.50827942741749099 0 0.49102375406324739 0.49123754822244059 0 0.48858720058566618 0.43964267759203868 0 0.53823865529665704 0.45873898050322898 0 0.57611405284611883 0.50165903596042916 0 0.53330375813596242 0.50827942741749099 0 0.53823865529665704 0.45873898050322898 0 0.57611405284611883 0.50165903596042916 0 0.57975577671020095 0.46172033326338591 0 0.61547661924074692 0.48539576058873962 0 0.57611405284611883 0.50165903596042916 0 0.53823865529665704 0.45873898050322898 0 0.57975577671020095 0.46172033326338591 0 0.61209567303293111 0.44669033081290321 0 0.57975577671020095 0.46172033326338591 0 0.57744073070774993 0.41535148636609359 0 0.53823865529665704 0.45873898050322898 0 0.57744073070774993 0.41535148636609359 0 0.57975577671020095 0.46172033326338591 0 0.61209567303293111 0.44669033081290321 0 0.61547661924074692 0.48539576058873962 0 0.57975577671020095 0.46172033326338591 0 0.6084546825910605 0.37989672713932537 0 0.57744073070774993 0.41535148636609359 0 0.56836770495988642 0.3523062350852913 0 0.61209567303293111 0.44669033081290321 0 0.57744073070774993 0.41535148636609359 0 0.63912439215427275 0.41063340167983359 0 0.6084546825910605 0.37989672713932537 0 0.63912439215427275 0.41063340167983359 0 0.57744073070774993 0.41535148636609359 0 0.6084546825910605 0.37989672713932537 0 0.65481233915350323 0.35652751921065562 0 0.63912439215427275 0.41063340167983359 0 0.6879972333610942 0.43038561374960838 0 0.65178832218679827 0.45929119821019959 0 0.63912439215427275 0.41063340167983359 0 0.6879972333610942 0.43038561374960838 0 0.63912439215427275 0.41063340167983359 0 0.68128176404677243 0.38629093627004979 0 0.65481233915350323 0.35652751921065562 0 0.68128176404677243 0.38629093627004979 0 0.63912439215427275 0.41063340167983359 0 0.6541250972820879 0.49999999999999989 0 0.61547661924074692 0.48539576058873962 0 0.65178832218679827 0.45929119821019959 0 0.61209567303293111 0.44669033081290321 0 0.65178832218679827 0.45929119821019959 0 0.61547661924074692 0.48539576058873962 0 0.61209567303293111 0.44669033081290321 0 0.63912439215427275 0.41063340167983359 0 0.65178832218679827 0.45929119821019959 0 0.6879972333610942 0.43038561374960838 0 0.69385896817107129 0.48377516041410151 0 0.65178832218679827 0.45929119821019959 0 0.6541250972820879 0.49999999999999989 0 0.65178832218679827 0.45929119821019959 0 0.69385896817107129 0.48377516041410151 0 0.7152569930854884 0.5237994455134295 0 0.69385896817107129 0.48377516041410151 0 0.73947346780852752 0.49062440112282169 0 0.6879972333610942 0.43038561374960838 0 0.73483647259922602 0.44789725365921768 0 0.69385896817107129 0.48377516041410151 0 0.73483647259922602 0.44789725365921768 0 0.73947346780852752 0.49062440112282169 0 0.69385896817107129 0.48377516041410151 0 0.71508799138962864 0.36622814920737751 0 0.72622533758026719 0.40265885511101601 0 0.68128176404677243 0.38629093627004979 0 0.6879972333610942 0.43038561374960838 0 0.72622533758026719 0.40265885511101601 0 0.73483647259922602 0.44789725365921768 0 0.6879972333610942 0.43038561374960838 0 0.68128176404677243 0.38629093627004979 0 0.72622533758026719 0.40265885511101601 0 0.77354604466818633 0.40378688774472771 0 0.73483647259922602 0.44789725365921768 0 0.72622533758026719 0.40265885511101601 0 0.71508799138962864 0.36622814920737751 0 0.74764719760526988 0.3719647154012321 0 0.72622533758026719 0.40265885511101601 0 0.77354604466818633 0.40378688774472771 0 0.72622533758026719 0.40265885511101601 0 0.74764719760526988 0.3719647154012321 0 0.71508799138962864 0.36622814920737751 0 0.73090396928863699 0.33699297293167962 0 0.74764719760526988 0.3719647154012321 0 0.71508799138962864 0.36622814920737751 0 0.68887083591306764 0.33632058575757479 0 0.73090396928863699 0.33699297293167962 0 0.71508799138962864 0.36622814920737751 0 0.68128176404677243 0.38629093627004979 0 0.68887083591306764 0.33632058575757479 0 0.69999999999999984 0.29999999999999999 0 0.73090396928863699 0.33699297293167962 0 0.68887083591306764 0.33632058575757479 0 0.69999999999999984 0.29999999999999999 0 0.72500000000000064 0.2498161764706 0 0.74999999999999989 0.29999999999999999 0 0.69999999999999984 0.29999999999999999 0 0.74999999999999989 0.29999999999999999 0 0.69999999999999984 0.29999999999999999 0 0.74999999999999989 0.29999999999999999 0 0.73090396928863699 0.33699297293167962 0 0.74999999999999989 0.29999999999999999 0 0.72500000000000064 0.2498161764706 0 0.77075983436335049 0.25919399014334171 0 0.69999999999999984 0.29999999999999999 0 0.67933712972090698 0.25920070958121938 0 0.72500000000000064 0.2498161764706 0 0.6499999999999998 0.29999999999999999 0 0.67933712972090698 0.25920070958121938 0 0.69999999999999984 0.29999999999999999 0 0.6499999999999998 0.29999999999999999 0 0.69999999999999984 0.29999999999999999 0 0.68887083591306764 0.33632058575757479 0 0.6499999999999998 0.29999999999999999 0 0.69999999999999984 0.29999999999999999 0 0.6499999999999998 0.29999999999999999 0 0.62657463266645097 0.26524202571255862 0 0.67933712972090698 0.25920070958121938 0 0.65394964615507722 0.22666784374016369 0 0.67933712972090698 0.25920070958121938 0 0.62657463266645097 0.26524202571255862 0 0.59999999999999976 0.29999999999999999 0 0.62657463266645097 0.26524202571255862 0 0.6499999999999998 0.29999999999999999 0 0.6499999999999998 0.29999999999999999 0 0.65481233915350323 0.35652751921065562 0 0.61959173890754571 0.33832250091341232 0 0.6084546825910605 0.37989672713932537 0 0.61959173890754571 0.33832250091341232 0 0.65481233915350323 0.35652751921065562 0 0.65481233915350323 0.35652751921065562 0 0.68887083591306764 0.33632058575757479 0 0.68128176404677243 0.38629093627004979 0 0.6499999999999998 0.29999999999999999 0 0.68887083591306764 0.33632058575757479 0 0.65481233915350323 0.35652751921065562 0 
</DataArray>
</Points>
<Cells>
<DataArray type="UInt32" Name="connectivity" format="ascii">
0 1 2 3 4 5 6 7 8 9 10 11 12 13 14 15 16 17 18 19 20 21 22 23 24 25 26 27 28 29 30 31 32 33 34 35 36 37 38 39 40 41 42 43 44 45 46 47 48 49 50 51 52 53 54 55 56 57 58 59 60 61 62 63 64 65 66 67 68 69 70 71 72 73 74 75 76 77 78 79 80 81 82 83 84 85 86 87 88 89 90 91 92 93 94 95 96 97 98 99 100 101 102 103 104 105 106 107 108 109 110 111 112 113 114 115 116 117 118 119 120 121 122 123 124 125 126 127 128 129 130 131 132 133 134 135 136 137 138 139 140 141 142 143 144 145 146 147 148 149 150 151 152 153 154 155 156 157 158 159 160 161 162 163 164 165 166 167 168 169 170 171 172 173 174 175 176 177 178 179 180 181 182 183 184 185 186 187 188 189 190 191 192 193 194 195 196 197 198 199 200 201 202 203 204 205 206 207 208 209 210 211 212 213 214 215 216 217 218 219 220 221 222 223 224 225 226 227 228 229 230 231 232 233 234 235 236 237 238 239 240 241 242 243 244 245 246 247 248 249 250 251 252 253 254 255 256 257 258 259 260 261 262 263 264 265 266 267 268 269 270 271 272 273 274 275 276 277 278 279 280 281 282 283 284 285 286 287 288 289 290 291 292 293 294 295 296 297 298 299 300 301 302 303 304 305 306 307 308 309 310 311 312 313 314 315 316 317 318 319 320 321 322 323 324 325 326 327 328 329 330 331 332 333 334 335 336 337 338 339 340 341 342 343 344 345 346 347 348 349 350 351 352 353 354 355 356 357 358 359 360 361 362 363 364 365 366 367 368 369 370 371 372 373 374 375 376 377 378 379 380 381 382 383 384 385 386 387 388 389 390 391 392 393 394 395 396 397 398 399 400 401 402 403 404 405 406 407 408 409 410 411 412 413 414 415 416 417 418 419 420 421 422 423 424 425 426 427 428 429 430 431 432 433 434 435 436 437 438 439 440 441 442 443 444 445 446 447 448 449 450 451 452 453 454 455 456 457 458 459 460 461 462 463 464 465 466 467 468 469 470 471 472 473 474 475 476 477 478 479 480 481 482 483 484 485 486 487 488 489 490 491 492 493 494 495 496 497 498 499 500 501 502 503 504 505 506 507 508 509 510 511 512 513 514 515 516 517 518 519 520 521 522 523 524 525 526 527 528 529 530 531 532 533 534 535 536 537 538 539 540 541 542 543 544 545 546 547 548 549 550 551 552 553 554 555 556 557 558 559 560 561 562 563 564 565 566 567 568 569 570 571 572 573 574 575 576 577 578 579 580 581 582 583 584 585 586 587 588 589 590 591 592 593 594 595 596 597 598 599 600 601 602 603 604 605 606 607 608 609 610 611 612 613 614 615 616 617 618 619 620 621 622 623 624 625 626 627 628 629 630 631 632 633 634 635 636 637 638 639 640 641 642 643 644 645 646 647 648 649 650 651 652 653 654 655 656 657 658 659 660 661 662 663 664 665 666 667 668 669 670 671 672 673 674 675 676 677 678 679 680 681 682 683 684 685 686 687 688 689 690 691 692 693 694 695 696 697 698 699 700 701 702 703 704 705 706 707 708 709 710 711 712 713 714 715 716 717 718 719 720 721 722 723 724 725 726 727 728 729 730 731 732 733 734 735 736 737 738 739 740 741 742 743 744 745 746 747 748 749 750 751 752 753 754 755 756 757 758 759 760 761 762 763 764 765 766 767 768 769 770 771 772 773 774 775 776 777 778 779 780 781 782 783 784 785 786 787 788 789 790 791 792 793 794 795 796 797 798 799 800 801 802 803 804 805 806 807 808 809 810 811 812 813 814 815 816 817 818 819 820 821 822 823 824 825 826 827 828 829 830 831 832 833 834 835 836 837 838 839 840 841 842 843 844 845 846 847 848 849 850 851 852 853 854 855 856 857 858 859 860 861 862 863 864 865 866 867 868 869 870 871 872 873 874 875 876 877 878 879 880 881 882 883 884 885 886 887 888 889 890 891 892 893 894 895 896 897 898 899 900 901 902 903 904 905 906 907 908 909 910 911 912 913 914 915 916 917 918 919 920 921 922 923 924 925 926 927 928 929 930 931 932 933 934 935 936 937 938 939 940 941 942 943 944 945 946 947 948 949 950 951 952 953 954 955 956 957 958 959 960 961 962 963 964 965 966 967 968 969 970 971 972 973 974 975 976 977 978 979 980 981 982 983 984 985 986 987 988 989 990 991 992 993 994 995 996 997 998 999 1000 1001 1002 1003 1004 1005 1006 1007 1008 1009 1010 1011 1012 1013 1014 1015 1016 1017 1018 1019 1020 1021 1022 1023 1024 1025 1026 1027 1028 1029 1030 1031 1032 1033 1034 1035 1036 1037 1038 1039 1040 1041 1042 1043 1044 1045 1046 1047 1048 1049 1050 1051 1052 1053 1054 1055 1056 1057 1058 1059 1060 1061 1062 1063 1064 1065 1066 1067 1068 1069 1070 1071 1072 1073 1074 1075 1076 1077 1078 1079 1080 1081 1082 1083 1084 1085 1086 1087 1088 1089 1090 1091 1092 1093 1094 1095 1096 1097 1098 1099 1100 1101 1102 1103 1104 1105 1106 1107 1108 1109 1110 1111 1112 1113 1114 1115 1116 1117 1118 1119 1120 1121 1122 1123 1124 1125 1126 1127 1128 1129 1130 1131 1132 1133 1134 1135 1136 1137 1138 1139 1140 1141 1142 1143 1144 1145 1146 1147 1148 1149 1150 1151 1152 1153 1154 1155 1156 1157 1158 1159 1160 1161 1162 1163 1164 1165 1166 1167 1168 1169 1170 1171 1172 1173 1174 1175 1176 1177 1178 1179 1180 1181 1182 1183 1184 1185 1186 1187 1188 1189 1190 1191 1192 1193 1194 1195 1196 1197 1198 1199 1200 1201 1202 1203 1204 1205 1206 1207 1208 1209 1210 1211 1212 1213 1214 1215 1216 1217 1218 1219 1220 1221 1222 1223 1224 1225 1226 1227 1228 1229 1230 1231 1232 1233 1234 1235 1236 1237 1238 1239 1240 1241 1242 1243 1244 1245 1246 1247 1248 1249 1250 1251 1252 1253 1254 1255 1256 1257 1258 1259 1260 1261 1262 1263 1264 1265 1266 1267 1268 1269 1270 1271 1272 1273 1274 1275 1276 1277 1278 1279 1280 1281 1282 1283 1284 1285 1286 1287 1288 1289 1290 1291 1292 1293 1294 1295 1296 1297 1298 1299 1300 1301 1302 1303 1304 1305 1306 1307 1308 1309 1310 1311 1312 1313 1314 1315 1316 1317 1318 1319 1320 1321 1322 1323 1324 1325 1326 1327 1328 1329 1330 1331 1332 1333 1334 1335 1336 1337 1338 1339 1340 1341 1342 1343 1344 1345 1346 1347 1348 1349 1350 1351 1352 1353 1354 1355 1356 1357 1358 1359 1360 1361 1362 1363 1364 1365 1366 1367 1368 1369 1370 1371 1372 1373 1374 1375 1376 1377 1378 1379 1380 1381 1382 1383 1384 1385 1386 1387 1388 1389 1390 1391 1392 1393 1394 1395 1396 1397 1398 1399 1400 1401 1402 1403 1404 1405 1406 1407 1408 1409 1410 1411 1412 1413 1414 1415 1416 1417 1418 1419 1420 1421 1422 1423 1424 1425 1426 1427 1428 1429 1430 1431 1432 1433 1434 1435 1436 1437 1438 1439 1440 1441 1442 1443 1444 1445 1446 1447 1448 1449 1450 1451 1452 1453 1454 1455 1456 1457 1458 1459 1460 1461 1462 1463 1464 1465 1466 1467 1468 1469 1470 1471 1472 1473 1474 1475 1476 1477 1478 1479 1480 1481 1482 1483 1484 1485 1486 1487 1488 1489 1490 1491 1492 1493 1494 1495 1496 1497 1498 1499 1500 1501 1502 1503 1504 1505 1506 1507 1508 1509 1510 1511 1512 1513 1514 1515 1516 1517 1518 1519 1520 1521 1522 1523 1524 1525 1526 1527 1528 1529 1530 1531 1532 1533 1534 1535 1536 1537 1538 1539 1540 1541 1542 1543 1544 1545 1546 1547 1548 1549 1550 1551 1552 1553 1554 1555 1556 1557 1558 1559 1560 1561 1562 1563 1564 1565 1566 1567 1568 1569 1570 1571 1572 1573 1574 1575 1576 1577 1578 1579 1580 1581 1582 1583 1584 1585 1586 1587 1588 1589 1590 1591 1592 1593 1594 1595 1596 1597 1598 1599 1600 1601 1602 1603 1604 1605 1606 1607 1608 1609 1610 1611 1612 1613 1614 1615 1616 1617 1618 1619 1620 1621 1622 1623 1624 1625 1626 1627 1628 1629 1630 1631 1632 1633 1634 1635 1636 1637 1638 1639 1640 1641 1642 1643 1644 1645 1646 1647 1648 1649 1650 1651 1652 1653 1654 1655 1656 1657 1658 1659 1660 1661 1662 1663 1664 1665 1666 1667 1668 1669 1670 1671 1672 1673 1674 1675 1676 1677 1678 1679 1680 1681 1682 1683 1684 1685 1686 1687 1688 1689 1690 1691 1692 1693 1694 1695 1696 1697 1698 1699 1700 1701 1702 1703 1704 1705 1706 1707 1708 1709 1710 1711 1712 1713 1714 1715 1716 1717 1718 1719 1720 1721 1722 1723 1724 1725 1726 1727 1728 1729 1730 1731 1732 1733 1734 1735 1736 1737 1738 1739 1740 1741 1742 1743 1744 1745 1746 1747 1748 1749 1750 1751 1752 1753 1754 1755 1756 1757 1758 1759 1760 1761 1762 1763 1764 1765 1766 1767 1768 1769 1770 1771 1772 1773 1774 1775 1776 1777 1778 1779 1780 1781 1782 1783 1784 1785 1786 1787 1788 1789 1790 1791 1792 1793 1794 1795 1796 1797 1798 1799 1800 1801 1802 1803 1804 1805 1806 1807 1808 1809 1810 1811 1812 1813 1814 1815 1816 1817 1818 1819 1820 1821 1822 1823 1824 1825 1826 1827 1828 1829 1830 1831 1832 1833 1834 1835 1836 1837 1838 1839 1840 1841 1842 1843 1844 1845 1846 1847 1848 1849 1850 1851 1852 1853 1854 1855 1856 1857 1858 1859 1860 1861 1862 1863 1864 1865 1866 1867 1868 1869 1870 1871 1872 1873 1874 1875 1876 1877 1878 1879 1880 1881 1882 1883 1884 1885 1886 1887 1888 1889 1890 1891 1892 1893 1894 1895 1896 1897 1898 1899 1900 1901 1902 1903 1904 1905 1906 1907 1908 1909 1910 1911 1912 1913 1914 1915 1916 1917 1918 1919 1920 1921 1922 1923 1924 1925 1926 1927 1928 1929 1930 1931 1932 1933 1934 1935 1936 1937 1938 1939 1940 1941 1942 1943 1944 1945 1946 1947 1948 1949 1950 1951 1952 1953 1954 1955 1956 1957 1958 1959 1960 1961 1962 1963 1964 1965 1966 1967 1968 1969 1970 1971 1972 1973 1974 1975 1976 1977 1978 1979 1980 1981 1982 1983 1984 1985 1986 1987 1988 1989 1990 1991 1992 1993 1994 1995 1996 1997 1998 1999 2000 2001 2002 2003 2004 2005 2006 2007 2008 2009 2010 2011 2012 2013 2014 2015 2016 2017 2018 2019 2020 2021 2022 2023 2024 2025 2026 2027 2028 2029 2030 2031 2032 2033 2034 2035 2036 2037 2038 2039 2040 2041 2042 2043 2044 2045 2046 2047 2048 2049 2050 2051 2052 2053 2054 2055 2056 2057 2058 2059 2060 2061 2062 2063 2064 2065 2066 2067 2068 2069 2070 2071 2072 2073 2074 2075 2076 2077 2078 2079 2080 2081 2082 2083 2084 2085 2086 2087 2088 2089 2090 2091 2092 2093 2094 2095 2096 2097 2098 2099 2100 2101 2102 2103 2104 2105 2106 2107 2108 2109 2110 2111 2112 2113 2114 2115 2116 2117 2118 2119 2120 2121 2122 2123 2124 2125 2126 2127 2128 2129 2130 2131 2132 2133 2134 2135 2136 2137 2138 2139 2140 2141 2142 2143 2144 2145 2146 2147 2148 2149 2150 2151 2152 2153 2154 2155 2156 2157 2158 2159 2160 2161 2162 2163 2164 2165 2166 2167 2168 2169 2170 2171 2172 2173 2174 2175 2176 2177 2178 2179 2180 2181 2182 2183 2184 2185 2186 2187 2188 2189 2190 2191 2192 2193 2194 2195 2196 2197 2198 2199 2200 2201 2202 2203 2204 2205 2206 2207 2208 2209 2210 2211 2212 2213 2214 2215 2216 2217 2218 2219 2220 2221 2222 2223 2224 2225 2226 2227 2228 2229 2230 2231 2232 2233 2234 2235 2236 2237 2238 2239 2240 2241 2242 2243 2244 2245 2246 2247 2248 2249 2250 2251 2252 2253 2254 2255 2256 2257 2258 2259 2260 2261 2262 2263 2264 2265 2266 2267 2268 2269 2270 2271 2272 2273 2274 2275 2276 2277 2278 2279 2280 2281 2282 2283 2284 2285 2286 2287 2288 2289 2290 2291 2292 2293 2294 2295 2296 2297 2298 2299 2300 2301 2302 2303 2304 2305 2306 2307 2308 2309 2310 2311 2312 2313 2314 2315 2316 2317 2318 2319 2320 2321 2322 2323 2324 2325 2326 2327 2328 2329 2330 2331 2332 2333 2334 2335 2336 2337 2338 2339 2340 2341 2342 2343 2344 2345 2346 2347 2348 2349 2350 2351 2352 2353 2354 2355 2356 2357 2358 2359 2360 2361 2362 2363 2364 2365 2366 2367 2368 2369 2370 2371 2372 2373 2374 2375 2376 2377 2378 2379 2380 2381 2382 2383 2384 2385 2386 2387 2388 2389 2390 2391 2392 2393 2394 2395 2396 2397 2398 2399 2400 2401 2402 2403 2404 2405 2406 2407 2408 2409 2410 2411 2412 2413 2414 2415 2416 2417 2418 2419 2420 2421 2422 2423 2424 2425 2426 2427 2428 2429 2430 2431 2432 2433 2434 2435 2436 2437 2438 2439 2440 2441 2442 2443 2444 2445 2446 2447 2448 2449 2450 2451 2452 2453 2454 2455 2456 2457 2458 2459 2460 2461 2462 2463 2464 2465 2466 2467 2468 2469 2470 2471 2472 2473 2474 2475 2476 2477 2478 2479 2480 2481 2482 2483 2484 2485 2486 2487 2488 2489 2490 2491 2492 2493 2494 2495 2496 2497 2498 2499 2500 2501 2502 2503 2504 2505 2506 2507 2508 2509 2510 2511 2512 2513 2514 2515 2516 2517 2518 2519 2520 2521 2522 2523 2524 2525 2526 2527 2528 2529 2530 2531 2532 2533 2534 2535 2536 2537 2538 2539 2540 2541 2542 2543 2544 2545 2546 2547 2548 2549 2550 2551 2552 2553 2554 2555 2556 2557 2558 2559 2560 2561 2562 2563 2564 2565 2566 2567 2568 2569 2570 2571 2572 2573 2574 2575 2576 2577 2578 2579 2580 2581 2582 2583 2584 2585 2586 2587 2588 2589 2590 2591 2592 2593 2594 2595 2596 2597 2598 2599 2600 2601 2602 2603 2604 2605 2606 2607 2608 2609 2610 2611 2612 2613 2614 2615 2616 2617 2618 2619 2620 2621 2622 2623 2624 2625 2626 2627 2628 2629 2630 2631 2632 2633 2634 2635 2636 2637 2638 2639 2640 2641 2642 2643 2644 2645 2646 2647 2648 2649 2650 2651 2652 2653 2654 2655 2656 2657 2658 2659 2660 2661 2662 2663 2664 2665 2666 2667 2668 2669 2670 2671 2672 2673 2674 2675 2676 2677 2678 2679 2680 2681 2682 2683 2684 2685 2686 2687 2688 2689 2690 2691 2692 2693 2694 2695 2696 2697 2698 2699 2700 2701 2702 2703 2704 2705 2706 2707 2708 2709 2710 2711 2712 2713 2714 2715 2716 2717 2718 2719 2720 2721 2722 2723 2724 2725 2726 2727 2728 2729 2730 2731 2732 2733 2734 2735 2736 2737 2738 2739 2740 2741 2742 2743 2744 2745 2746 2747 2748 2749 2750 2751 2752 2753 2754 2755 2756 2757 2758 2759 2760 2761 2762 2763 2764 2765 2766 2767 2768 2769 2770 2771 2772 2773 2774 2775 2776 2777 2778 2779 2780 2781 2782 2783 2784 2785 2786 2787 2788 2789 2790 2791 2792 2793 2794 2795 2796 2797 2798 2799 2800 2801 2802 2803 2804 2805 2806 2807 2808 2809 2810 2811 2812 2813 2814 2815 2816 2817 2818 2819 2820 2821 2822 2823 2824 2825 2826 2827 2828 2829 2830 2831 2832 2833 2834 2835 2836 2837 2838 2839 2840 2841 2842 2843 2844 2845 2846 2847 2848 2849 2850 2851 2852 2853 2854 2855 2856 2857 2858 2859 2860 2861 2862 2863 2864 2865 2866 2867 2868 2869 2870 2871 2872 2873 2874 2875 2876 2877 2878 2879 2880 2881 2882 2883 2884 2885 2886 2887 2888 2889 2890 2891 2892 2893 2894 2895 2896 2897 2898 2899 2900 2901 2902 2903 2904 2905 2906 2907 2908 2909 2910 2911 2912 2913 2914 2915 2916 2917 2918 2919 2920 2921 2922 2923 2924 2925 2926 2927 2928 2929 2930 2931 2932 2933 2934 2935 2936 2937 2938 2939 2940 2941 2942 2943 2944 2945 2946 2947 2948 2949 2950 2951 2952 2953 2954 2955 2956 2957 2958 2959 2960 2961 2962 2963 2964 2965 2966 2967 2968 2969 2970 2971 2972 2973 2974 2975 2976 2977 2978 2979 2980 2981 2982 2983 2984 2985 2986 2987 2988 2989 2990 2991 2992 2993 2994 2995 2996 2997 2998 2999 3000 3001 3002 3003 3004 3005 3006 3007 3008 3009 3010 3011 3012 3013 3014 3015 3016 3017 3018 3019 3020 3021 3022 3023 3024 3025 3026 3027 3028 3029 3030 3031 3032 3033 3034 3035 3036 3037 3038 3039 3040 3041 3042 3043 3044 3045 3046 3047 3048 3049 3050 3051 3052 3053 3054 3055 3056 3057 3058 3059 3060 3061 3062 3063 3064 3065 3066 3067 3068 3069 3070 3071 3072 3073 3074 3075 3076 3077 3078 3079 3080 3081 3082 3083 3084 3085 3086 3087 3088 3089 3090 3091 3092 3093 3094 3095 3096 3097 3098 3099 3100 3101 3102 3103 3104 3105 3106 3107 3108 3109 3110 3111 3112 3113 3114 3115 3116 3117 3118 3119 3120 3121 3122 3123 3124 3125 3126 3127 3128 3129 3130 3131 3132 3133 3134 3135 3136 3137 3138 3139 3140 3141 
</DataArray>
<DataArray type="UInt32" Name="offsets" format="ascii">
3 6 9 12 15 18 21 24 27 30 33 36 39 42 45 48 51 54 57 60 63 66 69 72 75 78 81 84 87 90 93 96 99 102 105 108 111 114 117 120 123 126 129 132 135 138 141 144 147 150 153 156 159 162 165 168 171 174 177 180 183 186 189 192 195 198 201 204 207 210 213 216 219 222 225 228 231 234 237 240 243 246 249 252 255 258 261 264 267 270 273 276 279 282 285 288 291 294 297 300 303 306 309 312 315 318 321 324 327 330 333 336 339 342 345 348 351 354 357 360 363 366 369 372 375 378 381 384 387 390 393 396 399 402 405 408 411 414 417 420 423 426 429 432 435 438 441 444 447 450 453 456 459 462 465 468 471 474 477 480 483 486 489 492 495 498 501 504 507 510 513 516 519 522 525 528 531 534 537 540 543 546 549 552 555 558 561 564 567 570 573 576 579 582 585 588 591 594 597 600 603 606 609 612 615 618 621 624 627 630 633 636 639 642 645 648 651 654 657 660 663 666 669 672 675 678 681 684 687 690 693 696 699 702 705 708 711 714 717 720 723 726 729 732 735 738 741 744 747 750 753 756 759 762 765 768 771 774 777 780 783 786 789 792 795 798 801 804 807 810 813 816 819 822 825 828 831 834 837 840 843 846 849 852 855 858 861 864 867 870 873 876 879 882 885 888 891 894 897 900 903 906 909 912 915 918 921 924 927 930 933 936 939 942 945 948 951 954 957 960 963 966 969 972 975 978 981 984 987 990 993 996 999 1002 1005 1008 1011 1014 1017 1020 1023 1026 1029 1032 1035 1038 1041 1044 1047 1050 1053 1056 1059 1062 1065 1068 1071 1074 1077 1080 1083 1086 1089 1092 1095 1098 1101 1104 1107 1110 1113 1116 1119 1122 1125 1128 1131 1134 1137 1140 1143 1146 1149 1152 1155 1158 1161 1164 1167 1170 1173 1176 1179 1182 1185 1188 1191 1194 1197 1200 1203 1206 1209 1212 1215 1218 1221 1224 1227 1230 1233 1236 1239 1242 1245 1248 1251 1254 1257 1260 1263 1266 1269 1272 1275 1278 1281 1284 1287 1290 1293 1296 1299 1302 1305 1308 1311 1314 1317 1320 1323 1326 1329 1332 1335 1338 1341 1344 1347 1350 1353 1356 1359 1362 1365 1368 1371 1374 1377 1380 1383 1386 1389 1392 1395 1398 1401 1404 1407 1410 1413 1416 1419 1422 1425 1428 1431 1434 1437 1440 1443 1446 1449 1452 1455 1458 1461 1464 1467 1470 1473 1476 1479 1482 1485 1488 1491 1494 1497 1500 1503 1506 1509 1512 1515 1518 1521 1524 1527 1530 1533 1536 1539 1542 1545 1548 1551 1554 1557 1560 1563 1566 1569 1572 1575 1578 1581 1584 1587 1590 1593 1596 1599 1602 1605 1608 1611 1614 1616 1619 1622 1624 1627 1630 1632 1635 1638 1641 1644 1647 1650 1653 1656 1659 1662 1665 1668 1671 1673 1676 1679 1682 1685 1688 1690 1693 1696 1699 1702 1705 1708 1711 1714 1717 1720 1723 1726 1729 1732 1735 1738 1741 1744 1747 1750 1753 1756 1759 1762 1765 1768 1771 1774 1777 1780 1783 1786 1789 1792 1795 1798 1801 1804 1807 1810 1813 1816 1819 1822 1825 1828 1831 1834 1837 1840 1843 1846 1849 1852 1855 1858 1861 1864 1867 1870 1873 1876 1879 1882 1885 1888 1891 1894 1897 1900 1903 1906 1909 1912 1915 1918 1921 1924 1927 1930 1933 1936 1939 1942 1945 1948 1951 1954 1957 1960 1963 1966 1969 1972 1975 1978 1981 1984 1987 1990 1993 1996 1999 2002 2005 2008 2011 2014 2017 2020 2023 2026 2029 2032 2035 2038 2041 2044 2047 2050 2053 2056 2059 2062 2065 2068 2071 2074 2077 2080 2083 2086 2089 2092 2095 2098 2101 2104 2107 2110 2113 2116 2119 2122 2125 2128 2131 2134 2137 2140 2143 2146 2149 2152 2155 2158 2161 2164 2167 2170 2173 2176 2179 2182 2185 2188 2191 2194 2196 2199 2202 2205 2207 2210 2213 2215 2218 2221 2224 2227 2230 2233 2236 2239 2242 2245 2248 2250 2253 2256 2259 2262 2264 2267 2270 2273 2276 2279 2282 2285 2288 2291 2294 2297 2300 2303 2306 2309 2312 2315 2318 2321 2324 2327 2330 2333 2336 2339 2342 2345 2348 2351 2354 2357 2360 2363 2366 2369 2372 2375 2378 2381 2384 2387 2390 2393 2396 2399 2402 2405 2408 2411 2414 2417 2420 2423 2426 2429 2432 2435 2438 2440 2443 2446 2449 2452 2455 2458 2461 2464 2467 2470 2473 2476 2479 2482 2484 2487 2490 2492 2495 2497 2500 2503 2506 2509 2512 2515 2518 2521 2524 2527 2530 2533 2536 2538 2541 2544 2547 2550 2553 2556 2559 2562 2565 2568 2571 2574 2577 2580 2583 2586 2589 2592 2595 2598 2601 2604 2607 2610 2613 2616 2619 2622 2625 2628 2631 2634 2637 2640 2643 2646 2649 2652 2655 2658 2661 2664 2667 2670 2673 2676 2679 2682 2685 2688 2691 2694 2697 2700 2703 2706 2709 2712 2715 2718 2721 2724 2727 2730 2733 2736 2739 2742 2745 2748 2751 2754 2757 2760 2763 2766 2769 2772 2775 2778 2781 2784 2787 2790 2793 2796 2799 2802 2805 2808 2811 2814 2817 2820 2823 2826 2829 2832 2835 2838 2841 2844 2847 2850 2853 2856 2859 2862 2865 2868 2871 2874 2877 2880 2883 2886 2889 2892 2895 2898 2901 2904 2907 2910 2913 2916 2919 2922 2925 2928 2931 2934 2937 2940 2943 2946 2948 2951 2954 2956 2959 2961 2964 2967 2970 2973 2976 2979 2982 2985 2988 2991 2994 2997 3000 3003 3006 3009 3012 3015 3018 3021 3024 3027 3030 3033 3036 3039 3042 3045 3048 3051 3054 3057 3060 3063 3066 3069 3072 3075 3078 3081 3084 3087 3090 3093 3096 3099 3102 3104 3107 3110 3113 3116 3119 3121 3124 3127 3130 3133 3136 3139 3142 
</DataArray>
<DataArray type="UInt32" Name="types" format="ascii">
5 5 5 5 5 5 5 5 5 5 5 5 5 5 5 5 5 5 5 5 5 5 5 5 5 5 5 5 5 5 5 5 5 5 5 5 5 5 5 5 5 5 5 5 5 5 5 5 5 5 5 5 5 5 5 5 5 5 5 5 5 5 5 5 5 5 5 5 5 5 5 5 5 5 5 5 5 5 5 5 5 5 5 5 5 5 5 5 5 5 5 5 5 5 5 5 5 5 5 5 5 5 5 5 5 5 5 5 5 5 5 5 5 5 5 5 5 5 5 5 5 5 5 5 5 5 5 5 5 5 5 5 5 5 5 5 5 5 5 5 5 5 5 5 5 5 5 5 5 5 5 5 5 5 5 5 5 5 5 5 5 5 5 5 5 5 5 5 5 5 5 5 5 5 5 5 5 5 5 5 5 5 5 5 5 5 5 5 5 5 5 5 5 5 5 5 5 5 5 5 5 5 5 5 5 5 5 5 5 5 5 5 5 5 5 5 5 5 5 5 5 5 5 5 5 5 5 5 5 5 5 5 5 5 5 5 5 5 5 5 5 5 5 5 5 5 5 5 5 5 5 5 5 5 5 5 5 5 5 5 5 5 5 5 5 5 5 5 5 5 5 5 5 5 5 5 5 5 5 5 5 5 5 5 5 5 5 5 5 5 5 5 5 5 5 5 5 5 5 5 5 5 5 5 5 5 5 5 5 5 5 5 5 5 5 5 5 5 5 5 5 5 5 5 5 5 5 5 5 5 5 5 5 5 5 5 5 5 5 5 5 5 5 5 5 5 5 5 5 5 5 5 5 5 5 5 5 5 5 5 5 5 5 5 5 5 5 5 5 5 5 5 5 5 5 5 5 5 5 5 5 5 5 5 5 5 5 5 5 5 5 5 5 5 5 5 5 5 5 5 5 5 5 5 5 5 5 5 5 5 5 5 5 5 5 5 5 5 5 5 5 5 5 5 5 5 5 5 5 5 5 5 5 5 5 5 5 5 5 5 5 5 5 5 5 5 5 5 5 5 5 5 5 5 5 5 5 5 5 5 5 5 5 5 5 5 5 5 5 5 5 5 5 5 5 5 5 5 5 5 5 5 5 5 5 5 5 5 5 5 5 5 5 5 5 5 5 5 5 5 5 5 5 5 5 5 5 5 5 5 5 5 5 5 5 5 5 5 5 5 5 5 5 5 5 5 5 5 5 5 5 5 5 5 5 5 5 5 3 5 5 3 5 5 3 5 5 5 5 5 5 5 5 5 5 5 5 5 3 5 5 5 5 5 3 5 5 5 5 5 5 5 5 5 5 5 5 5 5 5 5 5 5 5 5 5 5 5 5 5 5 5 5 5 5 5 5 5 5 5 5 5 5 5 5 5 5 5 5 5 5 5 5 5 5 5 5 5 5 5 5 5 5 5 5 5 5 5 5 5 5 5 5 5 5 5 5 5 5 5 5 5 5 5 5 5 5 5 5 5 5 5 5 5 5 5 5 5 5 5 5 5 5 5 5 5 5 5 5 5 5 5 5 5 5 5 5 5 5 5 5 5 5 5 5 5 5 5 5 5 5 5 5 5 5 5 5 5 5 5 5 5 5 5 5 5 5 5 5 5 5 5 5 5 5 5 5 5 5 5 5 5 5 5 5 5 5 5 5 5 5 5 5 3 5 5 5 3 5 5 3 5 5 5 5 5 5 5 5 5 5 5 3 5 5 5 5 3 5 5 5 5 5 5 5 5 5 5 5 5 5 5 5 5 5 5 5 5 5 5 5 5 5 5 5 5 5 5 5 5 5 5 5 5 5 5 5 5 5 5 5 5 5 5 5 5 5 5 5 5 5 5 5 5 5 5 3 5 5 5 5 5 5 5 5 5 5 5 5 5 5 3 5 5 3 5 3 5 5 5 5 5 5 5 5 5 5 5 5 5 3 5 5 5 5 5 5 5 5 5 5 5 5 5 5 5 5 5 5 5 5 5 5 5 5 5 5 5 5 5 5 5 5 5 5 5 5 5 5 5 5 5 5 5 5 5 5 5 5 5 5 5 5 5 5 5 5 5 5 5 5 5 5 5 5 5 5 5 5 5 5 5 5 5 5 5 5 5 5 5 5 5 5 5 5 5 5 5 5 5 5 5 5 5 5 5 5 5 5 5 5 5 5 5 5 5 5 5 5 5 5 5 5 5 5 5 5 5 5 5 5 5 5 5 5 5 5 5 5 5 5 5 5 5 5 5 5 3 5 5 3 5 3 5 5 5 5 5 5 5 5 5 5 5 5 5 5 5 5 5 5 5 5 5 5 5 5 5 5 5 5 5 5 5 5 5 5 5 5 5 5 5 5 5 5 5 5 5 5 5 3 5 5 5 5 5 3 5 5 5 5 5 5 5 
</DataArray>
</Cells>
<PointData Scalars="" Vectors="displacement," Tensors="">
<DataArray type="Float64" Name="displacement" NumberOfComponents="3" format="ascii">
-2.1114131038986722e-09 -8.6884391154388682e-10 0 -2.4016645883805661e-06 -4.4898305651116447e-08 0 -1.0809862480396989e-06 2.2796335829572833e-07 0 -2.1114131038986722e-09 -8.6884391154388682e-10 0 -1.0809862480396992e-06 2.2796335829572839e-07 0 -1.8945089363766434e-09 6.0419667237584656e-10 0 -2.4016645883805661e-06 -4.4898305651116447e-08 0 -2.4093203254230793e-06 9.2330590926514562e-07 0 -1.0809862480396989e-06 2.2796335829572833e-07 0 -1.8945089363766434e-09 6.0419667237584656e-10 0 -1.0809862480396989e-06 2.2796335829572841e-07 0 -2.4093203254230793e-06 9.2330590926514562e-07 0 -1.8661865008107965e-09 3.4885468014910655e-10 0 -1.8945089363766434e-09 6.0419667237584656e-10 0 -1.5281971655669656e-06 1.367521004206347e-06 0 -9.7476308829069409e-10 1.0893481050713087e-09 0 -1.8661865008107965e-09 3.4885468014910655e-10 0 -1.5281971655669656e-06 1.367521004206347e-06 0 -3.3409347282122739e-06 2.0241815205601398e-06 0 -1.5281971655669656e-06 1.367521004206347e-06 0 -2.4093203254230793e-06 9.2330590926514562e-07 0 -1.8945089363766434e-09 6.0419667237584656e-10 0 -2.4093203254230793e-06 9.2330590926514562e-07 0 -1.5281971655669656e-06 1.367521004206347e-06 0 -3.3409347282122739e-06 2.0241815205601398e-06 0 -1.758520280135077e-06 2.2758653193504732e-06 0 -1.5281971655669656e-06 1.367521004206347e-06 0 -3.3409347282122739e-06 2.0241815205601398e-06 0 -3.3937517120482764e-06 2.8481352050669122e-06 0 -1.758520280135077e-06 2.2758653193504732e-06 0 -3.3409347282122739e-06 2.0241815205601398e-06 0 -5.1493570508489481e-06 2.5620655595459887e-06 0 -3.3937517120482764e-06 2.8481352050669122e-06 0 -4.098708218643326e-06 3.2999203244837066e-06 0 -3.3937517120482764e-06 2.8481352050669122e-06 0 -5.1493570508489481e-06 2.5620655595459887e-06 0 -7.3732104886052778e-06 1.9805552765360661e-06 0 -5.1493570508489481e-06 2.5620655595459887e-06 0 -5.1745685557097576e-06 1.4799243120303921e-06 0 -3.3409347282122739e-06 2.0241815205601398e-06 0 -5.1745685557097576e-06 1.4799243120303921e-06 0 -5.1493570508489481e-06 2.5620655595459887e-06 0 -5.3542610441653352e-06 4.9716366791964135e-07 0 -8.9541713341373118e-06 6.3938873207710103e-07 0 -5.1745685557097576e-06 1.4799243120303921e-06 0 -2.4016645883805661e-06 -4.4898305651116447e-08 0 -5.3542610441653352e-06 4.9716366791964135e-07 0 -2.4093203254230793e-06 9.2330590926514562e-07 0 -5.3542610441653352e-06 4.9716366791964135e-07 0 -5.1745685557097576e-06 1.4799243120303921e-06 0 -2.4093203254230793e-06 9.2330590926514562e-07 0 -3.3409347282122739e-06 2.0241815205601398e-06 0 -2.4093203254230793e-06 9.2330590926514562e-07 0 -5.1745685557097576e-06 1.4799243120303921e-06 0 -1.8927404200051247e-11 9.4664078964924435e-10 0 -6.0483043080654899e-10 7.6303099130583753e-10 0 -2.3817274858475339e-07 1.9200332771552058e-06 0 -6.0483043080654899e-10 7.6303099130583753e-10 0 -6.1359329747294124e-07 1.6027695337159079e-06 0 -2.3817274858475339e-07 1.9200332771552058e-06 0 -1.0797343885759621e-06 2.9625734749356846e-06 0 -2.3817274858475339e-07 1.9200332771552058e-06 0 -6.1359329747294124e-07 1.6027695337159079e-06 0 -9.7476308829069409e-10 1.0893481050713087e-09 0 -1.758520280135077e-06 2.2758653193504732e-06 0 -6.1359329747294124e-07 1.6027695337159079e-06 0 -9.7476308829069409e-10 1.0893481050713087e-09 0 -1.5281971655669656e-06 1.367521004206347e-06 0 -1.758520280135077e-06 2.2758653193504732e-06 0 -1.0797343885759621e-06 2.9625734749356846e-06 0 -6.1359329747294124e-07 1.6027695337159079e-06 0 -1.758520280135077e-06 2.2758653193504732e-06 0 -6.0483043080654899e-10 7.6303099130583753e-10 0 -9.7476308829069409e-10 1.0893481050713087e-09 0 -6.1359329747294124e-07 1.6027695337159079e-06 0 -1.758520280135077e-06 2.2758653193504732e-06 0 -3.3937517120482768e-06 2.8481352050669122e-06 0 -2.4181917826543766e-06 3.2031735467417824e-06 0 -4.098708218643326e-06 3.2999203244837066e-06 0 -2.4181917826543766e-06 3.2031735467417824e-06 0 -3.3937517120482764e-06 2.8481352050669122e-06 0 -1.0797343885759621e-06 2.9625734749356846e-06 0 -1.758520280135077e-06 2.2758653193504732e-06 0 -2.4181917826543766e-06 3.2031735467417824e-06 0 -1.0797343885759621e-06 2.9625734749356846e-06 0 -1.6394527859007074e-06 3.7099018272151872e-06 0 -5.7122371904139077e-08 3.3000329321744538e-06 0 -1.0797343885759621e-06 2.9625734749356846e-06 0 -2.4181917826543766e-06 3.2031735467417824e-06 0 -1.6394527859007074e-06 3.7099018272151872e-06 0 -1.0797343885759621e-06 2.9625734749356846e-06 0 -5.7122371904139077e-08 3.3000329321744538e-06 0 -2.3817274858475339e-07 1.9200332771552058e-06 0 2.9979650102465341e-07 2.0961622509593987e-06 0 -2.3817274858475339e-07 1.9200332771552058e-06 0 -5.7122371904139077e-08 3.3000329321744538e-06 0 -1.6394527859007074e-06 3.7099018272151872e-06 0 -1.6435061890840668e-07 3.7513081221117342e-06 0 -5.7122371904139077e-08 3.3000329321744538e-06 0 -5.7760684026911298e-07 3.6728538499600477e-06 0 -1.6435061890840644e-07 3.7513081221117342e-06 0 -1.6394527859007074e-06 3.7099018272151872e-06 0 -5.7760684026911298e-07 3.6728538499600477e-06 0 -1.6394527859007074e-06 3.7099018272151872e-06 0 -3.0292017986325774e-06 3.4635854221638429e-06 0 -4.098708218643326e-06 3.2999203244837066e-06 0 -5.6915606055863018e-06 2.9495433178335446e-06 0 -3.0292017986325774e-06 3.4635854221638429e-06 0 -4.098708218643326e-06 3.2999203244837066e-06 0 -1.6394527859007074e-06 3.7099018272151868e-06 0 -2.4181917826543766e-06 3.2031735467417824e-06 0 -4.098708218643326e-06 3.2999203244837066e-06 0 -3.0292017986325774e-06 3.4635854221638429e-06 0 -1.6394527859007074e-06 3.7099018272151872e-06 0 -4.098708218643326e-06 3.2999203244837066e-06 0 -6.5741055581228964e-06 2.6617583458111718e-06 0 -5.6915606055863018e-06 2.9495433178335446e-06 0 -4.1854696046102723e-06 2.7141511247247124e-06 0 -5.6915606055863018e-06 2.9495433178335446e-06 0 -8.0468934493576294e-06 1.8482218581894877e-06 0 -4.1854696046102723e-06 2.7141511247247124e-06 0 -8.0468934493576294e-06 1.8482218581894877e-06 0 -6.6679587783454824e-06 1.2356815598098742e-06 0 -4.1854696046102723e-06 2.7141511247247124e-06 0 -6.6679587783454824e-06 1.235681559809874e-06 0 -3.973279124997426e-06 1.2348267020071391e-06 0 -4.1854696046102723e-06 2.7141511247247124e-06 0 -3.0292017986325774e-06 3.4635854221638429e-06 0 -5.6915606055863018e-06 2.9495433178335446e-06 0 -5.7760684026911298e-07 3.6728538499600477e-06 0 -3.0292017986325774e-06 3.4635854221638429e-06 0 -1.4980433237665312e-06 2.8621996665519548e-06 0 -4.1854696046102723e-06 2.7141511247247124e-06 0 -1.4980433237665312e-06 2.8621996665519548e-06 0 -3.0292017986325774e-06 3.4635854221638429e-06 0 -4.1854696046102723e-06 2.7141511247247124e-06 0 -3.973279124997426e-06 1.2348267020071391e-06 0 -1.4980433237665312e-06 2.8621996665519548e-06 0 9.4277729889659996e-07 2.0591825147367399e-06 0 1.2659026193217284e-06 3.2646123541280542e-06 0 -1.4980433237665312e-06 2.8621996665519548e-06 0 -5.7760684026911298e-07 3.6728538499600477e-06 0 -1.4980433237665312e-06 2.8621996665519548e-06 0 1.2659026193217284e-06 3.2646123541280542e-06 0 -8.9541713341373118e-06 6.3938873207710103e-07 0 -1.0564079605244254e-05 1.1723993035159044e-06 0 -7.3732104886052778e-06 1.9805552765360661e-06 0 -9.3656882187347877e-06 1.9297761868673761e-06 0 -7.3732104886052769e-06 1.9805552765360665e-06 0 -1.0564079605244255e-05 1.1723993035159042e-06 0 -8.9541713341373118e-06 6.3938873207710103e-07 0 -1.3206259939784177e-05 -1.6586140932525161e-07 0 -1.0564079605244255e-05 1.1723993035159042e-06 0 -8.9541713341373118e-06 6.3938873207710103e-07 0 -7.3732104886052786e-06 1.9805552765360661e-06 0 -5.1745685557097576e-06 1.4799243120303921e-06 0 -7.3732104886052778e-06 1.9805552765360661e-06 0 -6.5741055581228964e-06 2.6617583458111718e-06 0 -5.1493570508489481e-06 2.5620655595459887e-06 0 -4.098708218643326e-06 3.2999203244837066e-06 0 -5.1493570508489481e-06 2.5620655595459887e-06 0 -6.5741055581228964e-06 2.6617583458111718e-06 0 -9.3656882187347877e-06 1.9297761868673761e-06 0 -5.6915606055863018e-06 2.9495433178335446e-06 0 -6.5741055581228964e-06 2.6617583458111718e-06 0 -9.3656882187347877e-06 1.9297761868673761e-06 0 -6.5741055581228964e-06 2.6617583458111718e-06 0 -7.3732104886052778e-06 1.9805552765360661e-06 0 -9.3656882187347877e-06 1.9297761868673761e-06 0 -8.0468934493576294e-06 1.8482218581894877e-06 0 -5.6915606055863018e-06 2.9495433178335446e-06 0 -9.3656882187347877e-06 1.9297761868673761e-06 0 -1.1586288958898762e-05 7.114915125094215e-07 0 -8.0468934493576294e-06 1.8482218581894877e-06 0 -1.0912167807045289e-05 -2.1848503805088081e-07 0 -8.0468934493576294e-06 1.8482218581894877e-06 0 -1.1586288958898762e-05 7.114915125094214e-07 0 -9.3656882187347877e-06 1.9297761868673761e-06 0 -1.3312526069429667e-05 3.1042862718990426e-07 0 -1.1586288958898762e-05 7.114915125094214e-07 0 -1.6038622548867246e-05 -1.4791738683598872e-06 0 -1.1586288958898762e-05 7.114915125094214e-07 0 -1.3312526069429667e-05 3.1042862718990426e-07 0 -9.3656882187347877e-06 1.9297761868673761e-06 0 -1.0564079605244255e-05 1.1723993035159042e-06 0 -1.3312526069429667e-05 3.1042862718990426e-07 0 -1.3206259939784175e-05 -1.6586140932525137e-07 0 -1.3312526069429667e-05 3.1042862718990426e-07 0 -1.0564079605244255e-05 1.1723993035159042e-06 0 -1.3206259939784175e-05 -1.6586140932525137e-07 0 -1.801729457163531e-05 -1.9913030779016144e-06 0 -1.3312526069429667e-05 3.1042862718990426e-07 0 -1.801729457163531e-05 -1.9913030779016144e-06 0 -2.3108546358133868e-05 -5.0266558379264536e-06 0 -1.6038622548867246e-05 -1.4791738683598872e-06 0 -1.801729457163531e-05 -1.9913030779016144e-06 0 -1.6038622548867246e-05 -1.4791738683598872e-06 0 -1.3312526069429667e-05 3.1042862718990426e-07 0 -2.3108546358133868e-05 -5.0266558379264536e-06 0 -2.1505909668877332e-05 -5.4161952028043409e-06 0 -1.6038622548867246e-05 -1.4791738683598872e-06 0 -2.3108546358133868e-05 -5.0266558379264536e-06 0 -2.8974838000487037e-05 -9.5267828967860608e-06 0 -2.1505909668877332e-05 -5.4161952028043409e-06 0 -1.8989273921375058e-05 -6.9703222368250031e-06 0 -2.1505909668877332e-05 -5.4161952028043409e-06 0 -2.6081416154517242e-05 -9.4441778966580044e-06 0 -1.8989273921375058e-05 -6.9703222368250031e-06 0 -2.6081416154517242e-05 -9.4441778966580044e-06 0 -2.6278301037745226e-05 -1.3148010178436844e-05 0 -2.8974838000487037e-05 -9.5267828967860608e-06 0 -2.6081416154517242e-05 -9.4441778966580044e-06 0 -2.1505909668877332e-05 -5.4161952028043409e-06 0 -2.8974838000487037e-05 -9.5267828967860608e-06 0 -3.540441582408056e-05 -1.5729911570765237e-05 0 -2.6081416154517242e-05 -9.4441778966580044e-06 0 -1.8989273921375058e-05 -6.9703222368250031e-06 0 -1.7916018650569627e-05 -1.1844556483584032e-05 0 -1.2160902081971398e-05 -6.7609096723244851e-06 0 -1.8989273921375058e-05 -6.9703222368250031e-06 0 -1.2160902081971398e-05 -6.7609096723244851e-06 0 -1.2688488407396711e-05 -3.3084879833003362e-06 0 -1.8989273921375058e-05 -6.9703222368250031e-06 0 -1.6033366760422434e-05 -3.1463630950157388e-06 0 -2.1505909668877332e-05 -5.4161952028043409e-06 0 -1.8989273921375058e-05 -6.9703222368250031e-06 0 -1.2688488407396711e-05 -3.3084879833003362e-06 0 -1.6033366760422434e-05 -3.1463630950157388e-06 0 -1.0912167807045289e-05 -2.1848503805088081e-07 0 -1.6033366760422434e-05 -3.1463630950157393e-06 0 -1.2688488407396711e-05 -3.3084879833003362e-06 0 -1.6038622548867246e-05 -1.4791738683598872e-06 0 -2.1505909668877332e-05 -5.4161952028043409e-06 0 -1.6033366760422434e-05 -3.1463630950157388e-06 0 -1.6033366760422434e-05 -3.1463630950157388e-06 0 -1.0912167807045289e-05 -2.1848503805088086e-07 0 -1.6038622548867246e-05 -1.4791738683598872e-06 0 -1.6038622548867246e-05 -1.4791738683598872e-06 0 -1.0912167807045289e-05 -2.1848503805088081e-07 0 -1.1586288958898762e-05 7.114915125094214e-07 0 -1.0912167807045289e-05 -2.1848503805088081e-07 0 -6.6679587783454824e-06 1.2356815598098742e-06 0 -8.0468934493576294e-06 1.8482218581894877e-06 0 -1.0912167807045289e-05 -2.1848503805088081e-07 0 -7.7114497216755399e-06 -7.0254150323822128e-07 0 -6.6679587783454824e-06 1.2356815598098742e-06 0 -3.973279124997426e-06 1.2348267020071391e-06 0 -6.6679587783454816e-06 1.2356815598098742e-06 0 -7.7114497216755399e-06 -7.0254150323822128e-07 0 -8.324895883903509e-06 -3.3722561172432537e-06 0 -4.1517364200395445e-06 -1.488479903075987e-06 0 -7.7114497216755399e-06 -7.0254150323822128e-07 0 -3.973279124997426e-06 1.2348267020071391e-06 0 -7.7114497216755399e-06 -7.0254150323822128e-07 0 -4.1517364200395445e-06 -1.488479903075987e-06 0 -1.0912167807045289e-05 -2.1848503805088081e-07 0 -1.2688488407396711e-05 -3.3084879833003362e-06 0 -7.7114497216755399e-06 -7.0254150323822128e-07 0 -1.0609264390405108e-06 7.4499716140220167e-07 0 9.4277729889659996e-07 2.0591825147367399e-06 0 -1.4980433237665312e-06 2.8621996665519548e-06 0 -3.973279124997426e-06 1.2348267020071391e-06 0 -1.0609264390405108e-06 7.4499716140220167e-07 0 -1.4980433237665312e-06 2.8621996665519548e-06 0 -3.973279124997426e-06 1.2348267020071391e-06 0 -4.1517364200395445e-06 -1.4884799030759872e-06 0 -1.0609264390405108e-06 7.4499716140220167e-07 0 -1.7295172002313894e-07 -2.8966228681623608e-06 0 2.2669552819709996e-06 3.9697675141224857e-07 0 -1.0609264390405108e-06 7.4499716140220167e-07 0 -1.7295172002313894e-07 -2.8966228681623608e-06 0 -1.0609264390405112e-06 7.4499716140220156e-07 0 -4.1517364200395445e-06 -1.488479903075987e-06 0 -1.7295172002313894e-07 -2.8966228681623608e-06 0 -4.1517364200395445e-06 -1.488479903075987e-06 0 -5.860748598104329e-06 -5.3385197634020599e-06 0 -1.7295172002313894e-07 -2.8966228681623608e-06 0 -5.860748598104329e-06 -5.3385197634020599e-06 0 -2.0818391503220221e-06 -8.0852718792436648e-06 0 -1.7295172002313894e-07 -2.8966228681623608e-06 0 -2.0818391503220221e-06 -8.0852718792436648e-06 0 3.4569549806183682e-06 -6.2102940994878321e-06 0 -8.324895883903509e-06 -3.3722561172432537e-06 0 -7.7114497216755399e-06 -7.0254150323822128e-07 0 -1.2688488407396711e-05 -3.3084879833003362e-06 0 -8.324895883903509e-06 -3.3722561172432537e-06 0 -1.2688488407396709e-05 -3.3084879833003362e-06 0 -1.2160902081971398e-05 -6.7609096723244851e-06 0 -8.324895883903509e-06 -3.3722561172432537e-06 0 -5.860748598104329e-06 -5.3385197634020599e-06 0 -4.1517364200395445e-06 -1.488479903075987e-06 0 -9.4817864859459219e-06 -1.0427093885214771e-05 0 -5.860748598104329e-06 -5.3385197634020599e-06 0 -1.2160902081971398e-05 -6.7609096723244851e-06 0 -8.324895883903509e-06 -3.3722561172432537e-06 0 -1.2160902081971398e-05 -6.7609096723244851e-06 0 -5.860748598104329e-06 -5.3385197634020599e-06 0 -9.4817864859459219e-06 -1.0427093885214771e-05 0 -1.2160902081971398e-05 -6.7609096723244851e-06 0 -1.7916018650569627e-05 -1.1844556483584032e-05 0 -9.4817864859459219e-06 -1.0427093885214771e-05 0 -1.5059784694583755e-05 -1.8117248664126795e-05 0 -4.8891653393218296e-06 -1.4003083542610566e-05 0 -9.4817864859459219e-06 -1.0427093885214771e-05 0 -1.7916018650569627e-05 -1.1844556483584032e-05 0 -1.5059784694583755e-05 -1.8117248664126795e-05 0 2.326695697268e-06 -1.1695767216770141e-05 0 3.4569549806183682e-06 -6.2102940994878321e-06 0 -2.0818391503220221e-06 -8.0852718792436648e-06 0 -9.4817864859459219e-06 -1.0427093885214771e-05 0 -2.0818391503220221e-06 -8.0852718792436648e-06 0 -5.860748598104329e-06 -5.3385197634020599e-06 0 -9.4817864859459219e-06 -1.0427093885214771e-05 0 -4.8891653393218296e-06 -1.4003083542610566e-05 0 -2.0818391503220221e-06 -8.0852718792436648e-06 0 2.326695697268e-06 -1.1695767216770141e-05 0 -2.0818391503220221e-06 -8.0852718792436648e-06 0 -4.8891653393218296e-06 -1.4003083542610566e-05 0 2.326695697268e-06 -1.1695767216770141e-05 0 -4.8891653393218296e-06 -1.4003083542610568e-05 0 -3.2407659330774655e-07 -1.8877973582292655e-05 0 -7.6385494452819717e-06 -2.2579581891293344e-05 0 -3.240765933077464e-07 -1.8877973582292655e-05 0 -4.8891653393218296e-06 -1.4003083542610566e-05 0 -7.6385494452819717e-06 -2.2579581891293344e-05 0 -1.2037140936472127e-05 -3.3860814254460703e-05 0 -4.2573237623939494e-06 -2.9749233730057579e-05 0 -7.6385494452819717e-06 -2.2579581891293344e-05 0 -4.2573237623939494e-06 -2.9749233730057579e-05 0 -3.2407659330774655e-07 -1.8877973582292655e-05 0 3.7258666653201084e-06 -2.4545935342263324e-05 0 -3.2407659330774655e-07 -1.8877973582292655e-05 0 -4.2573237623939494e-06 -2.9749233730057579e-05 0 -7.6385494452819717e-06 -2.2579581891293344e-05 0 -1.5059784694583755e-05 -1.8117248664126795e-05 0 -1.6511974495159458e-05 -2.6720083862525846e-05 0 -7.6385494452819717e-06 -2.2579581891293344e-05 0 -4.8891653393218296e-06 -1.4003083542610566e-05 0 -1.5059784694583755e-05 -1.8117248664126795e-05 0 -7.6385494452819717e-06 -2.2579581891293344e-05 0 -1.6511974495159458e-05 -2.6720083862525846e-05 0 -1.2037140936472127e-05 -3.3860814254460703e-05 0 -1.5059784694583755e-05 -1.8117248664126795e-05 0 -2.5871716263799709e-05 -2.6837607147061235e-05 0 -1.6511974495159458e-05 -2.6720083862525846e-05 0 -2.2014699071220145e-05 -3.3650267781633664e-05 0 -1.6511974495159458e-05 -2.6720083862525846e-05 0 -2.5871716263799709e-05 -2.6837607147061235e-05 0 -2.5600318196042793e-05 -1.8918749559759402e-05 0 -2.5871716263799709e-05 -2.6837607147061235e-05 0 -1.5059784694583755e-05 -1.8117248664126795e-05 0 -2.5600318196042793e-05 -1.8918749559759402e-05 0 -3.5398660960075146e-05 -2.6636019276766429e-05 0 -2.5871716263799709e-05 -2.6837607147061235e-05 0 -3.6691431547015907e-05 -3.8900253213857661e-05 0 -2.5871716263799709e-05 -2.6837607147061235e-05 0 -3.5398660960075146e-05 -2.6636019276766429e-05 0 -4.8716088801922188e-05 -3.5205360722380079e-05 0 -3.6691431547015907e-05 -3.8900253213857661e-05 0 -3.5398660960075146e-05 -2.6636019276766429e-05 0 -4.2102296839256759e-05 -2.4313890763959575e-05 0 -4.8716088801922188e-05 -3.5205360722380079e-05 0 -3.5398660960075146e-05 -2.6636019276766429e-05 0 -4.2102296839256759e-05 -2.4313890763959575e-05 0 -3.5398660960075146e-05 -2.6636019276766429e-05 0 -3.2931453220499921e-05 -1.9507746056580499e-05 0 -2.5600318196042793e-05 -1.8918749559759402e-05 0 -3.2931453220499921e-05 -1.9507746056580499e-05 0 -3.5398660960075146e-05 -2.6636019276766429e-05 0 -3.540441582408056e-05 -1.5729911570765237e-05 0 -3.2931453220499921e-05 -1.9507746056580499e-05 0 -2.6278301037745226e-05 -1.3148010178436844e-05 0 -2.5600318196042793e-05 -1.8918749559759402e-05 0 -2.6278301037745226e-05 -1.3148010178436844e-05 0 -3.2931453220499921e-05 -1.9507746056580499e-05 0 -3.540441582408056e-05 -1.5729911570765237e-05 0 -4.2102296839256759e-05 -2.4313890763959575e-05 0 -3.2931453220499921e-05 -1.9507746056580499e-05 0 -3.540441582408056e-05 -1.5729911570765237e-05 0 -2.6278301037745226e-05 -1.3148010178436842e-05 0 -2.6081416154517242e-05 -9.4441778966580044e-06 0 -1.8989273921375058e-05 -6.9703222368250031e-06 0 -2.6278301037745226e-05 -1.3148010178436844e-05 0 -1.7916018650569627e-05 -1.1844556483584032e-05 0 -2.5600318196042793e-05 -1.8918749559759402e-05 0 -1.5059784694583753e-05 -1.8117248664126792e-05 0 -1.7916018650569627e-05 -1.1844556483584032e-05 0 -2.5600318196042793e-05 -1.8918749559759402e-05 0 -1.7916018650569627e-05 -1.1844556483584032e-05 0 -2.6278301037745226e-05 -1.3148010178436844e-05 0 1.3304558050975527e-05 -3.7942343227270819e-06 0 1.2340067910319885e-05 -2.0255950466668374e-06 0 1.116195909318939e-05 -5.73818119213613e-06 0 1.0407497350725029e-05 -3.3775145145547043e-06 0 1.116195909318939e-05 -5.73818119213613e-06 0 1.2340067910319885e-05 -2.0255950466668374e-06 0 1.0407497350725029e-05 -3.3775145145547043e-06 0 8.875828685083545e-06 -6.3572828004194799e-06 0 1.116195909318939e-05 -5.73818119213613e-06 0 1.3304558050975527e-05 -3.7942343227270819e-06 0 1.4836036112107951e-05 1.413875177760732e-07 0 1.2340067910319885e-05 -2.0255950466668374e-06 0 1.7418708489484496e-05 2.9669258390700727e-06 0 1.4836036112107951e-05 1.4138751777607344e-07 0 1.6696342398172116e-05 -2.3493663846319279e-07 0 1.3304558050975527e-05 -3.7942343227270819e-06 0 1.6696342398172116e-05 -2.3493663846319279e-07 0 1.4836036112107951e-05 1.4138751777607344e-07 0 1.3304558050975527e-05 -3.7942343227270819e-06 0 1.4879692682766148e-05 -4.061162548657048e-06 0 1.6696342398172116e-05 -2.3493663846319279e-07 0 1.3304558050975527e-05 -3.7942343227270819e-06 0 1.3194762268533004e-05 -7.6810107559510088e-06 0 1.4879692682766148e-05 -4.0611625486570471e-06 0 1.6594006948512916e-05 -4.9510372833437009e-06 0 1.6696342398172116e-05 -2.3493663846319279e-07 0 1.4879692682766148e-05 -4.0611625486570471e-06 0 1.6594006948512916e-05 -4.9510372833437009e-06 0 1.4879692682766148e-05 -4.0611625486570471e-06 0 1.3194762268533002e-05 -7.6810107559510088e-06 0 1.0373032683900854e-05 -1.2642686164354829e-05 0 1.3194762268533002e-05 -7.6810107559510088e-06 0 1.1006149048990058e-05 -8.8783680968513552e-06 0 1.3304558050975527e-05 -3.7942343227270819e-06 0 1.1006149048990058e-05 -8.8783680968513535e-06 0 1.3194762268533002e-05 -7.6810107559510088e-06 0 1.3304558050975527e-05 -3.7942343227270819e-06 0 1.116195909318939e-05 -5.73818119213613e-06 0 1.1006149048990058e-05 -8.8783680968513552e-06 0 9.6895974216393619e-06 -9.6012023923572055e-06 0 1.100614904899006e-05 -8.8783680968513552e-06 0 1.116195909318939e-05 -5.73818119213613e-06 0 1.0373032683900854e-05 -1.2642686164354829e-05 0 1.1006149048990058e-05 -8.8783680968513552e-06 0 8.7943010633187478e-06 -1.3793883887334835e-05 0 1.0737525785364146e-05 -2.0516338125240021e-05 0 8.7943010633187478e-06 -1.3793883887334835e-05 0 9.3260890307681197e-06 -1.4233015606744471e-05 0 9.6895974216393619e-06 -9.6012023923572055e-06 0 9.3260890307681197e-06 -1.4233015606744471e-05 0 8.7943010633187478e-06 -1.3793883887334835e-05 0 9.6895974216393619e-06 -9.6012023923572055e-06 0 7.5293264886474148e-06 -9.596911070962177e-06 0 9.3260890307681197e-06 -1.4233015606744471e-05 0 9.6895974216393619e-06 -9.6012023923572055e-06 0 8.7943010633187478e-06 -1.3793883887334835e-05 0 1.1006149048990058e-05 -8.8783680968513552e-06 0 1.0737525785364146e-05 -2.0516338125240021e-05 0 6.6063729606827231e-06 -1.5885541848296417e-05 0 3.7258666653201084e-06 -2.4545935342263324e-05 0 3.7258666653201084e-06 -2.4545935342263324e-05 0 6.6063729606827231e-06 -1.5885541848296417e-05 0 -3.2407659330774655e-07 -1.8877973582292655e-05 0 1.0737525785364146e-05 -2.0516338125240021e-05 0 9.3260890307681197e-06 -1.4233015606744471e-05 0 6.6063729606827231e-06 -1.5885541848296417e-05 0 7.5293264886474148e-06 -9.596911070962177e-06 0 6.6063729606827231e-06 -1.5885541848296417e-05 0 9.3260890307681197e-06 -1.4233015606744471e-05 0 2.326695697268e-06 -1.1695767216770141e-05 0 -3.2407659330774655e-07 -1.8877973582292655e-05 0 6.6063729606827231e-06 -1.5885541848296417e-05 0 2.326695697268e-06 -1.1695767216770141e-05 0 6.6063729606827222e-06 -1.5885541848296417e-05 0 7.5293264886474148e-06 -9.596911070962177e-06 0 2.326695697268e-06 -1.1695767216770141e-05 0 7.5293264886474148e-06 -9.596911070962177e-06 0 3.4569549806183682e-06 -6.2102940994878321e-06 0 6.7540780133764799e-06 -4.2680120016871134e-06 0 3.4569549806183682e-06 -6.2102940994878321e-06 0 7.5293264886474148e-06 -9.596911070962177e-06 0 9.6895974216393619e-06 -9.6012023923572055e-06 0 1.116195909318939e-05 -5.73818119213613e-06 0 8.875828685083545e-06 -6.3572828004194799e-06 0 9.6895974216393619e-06 -9.6012023923572055e-06 0 8.875828685083545e-06 -6.3572828004194799e-06 0 7.5293264886474148e-06 -9.596911070962177e-06 0 6.7540780133764799e-06 -4.2680120016871134e-06 0 7.5293264886474148e-06 -9.596911070962177e-06 0 8.875828685083545e-06 -6.3572828004194799e-06 0 8.875828685083545e-06 -6.3572828004194799e-06 0 8.7089357936792106e-06 -7.7920616124503117e-07 0 6.7540780133764799e-06 -4.2680120016871134e-06 0 1.0407497350725029e-05 -3.3775145145547043e-06 0 8.7089357936792106e-06 -7.7920616124503117e-07 0 8.875828685083545e-06 -6.3572828004194799e-06 0 6.7540780133764799e-06 -4.2680120016871134e-06 0 8.7089357936792089e-06 -7.7920616124503064e-07 0 6.5137718660746469e-06 -1.2438199588517726e-06 0 8.7089357936792106e-06 -7.7920616124503117e-07 0 7.1440113795917199e-06 6.7492738763051038e-07 0 6.5137718660746469e-06 -1.2438199588517726e-06 0 -1.7295172002313894e-07 -2.8966228681623608e-06 0 3.4569549806183682e-06 -6.2102940994878321e-06 0 4.1566847136480669e-06 -2.153460434198448e-06 0 6.7540780133764799e-06 -4.2680120016871134e-06 0 4.1566847136480669e-06 -2.153460434198448e-06 0 3.4569549806183682e-06 -6.2102940994878321e-06 0 6.7540780133764799e-06 -4.2680120016871134e-06 0 6.5137718660746461e-06 -1.2438199588517723e-06 0 4.1566847136480669e-06 -2.153460434198448e-06 0 5.0774929312776684e-06 5.2510905438639693e-07 0 4.1566847136480669e-06 -2.153460434198448e-06 0 6.5137718660746469e-06 -1.2438199588517726e-06 0 -1.7295172002313894e-07 -2.8966228681623608e-06 0 4.1566847136480669e-06 -2.1534604341984476e-06 0 2.2669552819709996e-06 3.9697675141224857e-07 0 5.0774929312776684e-06 5.2510905438639693e-07 0 2.2669552819709996e-06 3.9697675141224836e-07 0 4.1566847136480669e-06 -2.153460434198448e-06 0 5.0774929312776684e-06 5.2510905438639693e-07 0 3.4412299597752377e-06 2.4790438417443378e-06 0 2.2669552819709996e-06 3.9697675141224857e-07 0 9.4277729889659996e-07 2.0591825147367399e-06 0 2.2669552819709996e-06 3.9697675141224857e-07 0 3.4412299597752377e-06 2.4790438417443378e-06 0 9.4277729889659996e-07 2.0591825147367399e-06 0 -1.0609264390405108e-06 7.4499716140220167e-07 0 2.2669552819709996e-06 3.9697675141224857e-07 0 8.4799417850330023e-06 1.8193373564866315e-06 0 7.1440113795917207e-06 6.7492738763051028e-07 0 8.7089357936792106e-06 -7.7920616124503117e-07 0 5.0774929312776684e-06 5.2510905438639693e-07 0 6.5137718660746469e-06 -1.2438199588517726e-06 0 7.1440113795917199e-06 6.7492738763051038e-07 0 5.0774929312776684e-06 5.2510905438639693e-07 0 7.1440113795917199e-06 6.7492738763051038e-07 0 6.0719577594566188e-06 2.0762142400225045e-06 0 5.0774929312776684e-06 5.2510905438639693e-07 0 6.0719577594566188e-06 2.0762142400225045e-06 0 3.4412299597752377e-06 2.4790438417443378e-06 0 8.4799417850330023e-06 1.8193373564866315e-06 0 6.0719577594566188e-06 2.0762142400225045e-06 0 7.1440113795917199e-06 6.7492738763051038e-07 0 8.4799417850330023e-06 1.8193373564866315e-06 0 6.2235771449026475e-06 3.0138647223117566e-06 0 6.0719577594566188e-06 2.0762142400225045e-06 0 8.4799417850330023e-06 1.8193373564866315e-06 0 1.1021530250049848e-05 2.0591436891372319e-06 0 8.5367906821022818e-06 2.7285882606873806e-06 0 1.1021530250049848e-05 2.0591436891372319e-06 0 1.1110495501334374e-05 2.7253859634327116e-06 0 8.5367906821022818e-06 2.7285882606873806e-06 0 8.4799417850330023e-06 1.8193373564866315e-06 0 1.0422834225765156e-05 7.1405455995620436e-07 0 1.1021530250049848e-05 2.0591436891372319e-06 0 8.4799417850330023e-06 1.8193373564866315e-06 0 8.7089357936792106e-06 -7.7920616124503117e-07 0 1.0422834225765156e-05 7.1405455995620436e-07 0 8.7089357936792106e-06 -7.7920616124503117e-07 0 1.1015665840871072e-05 -8.8792261545321978e-07 0 1.0422834225765156e-05 7.1405455995620436e-07 0 1.283888804742546e-05 8.940672765823986e-07 0 1.0422834225765156e-05 7.1405455995620436e-07 0 1.1015665840871072e-05 -8.8792261545321978e-07 0 1.283888804742546e-05 8.940672765823986e-07 0 1.1021530250049848e-05 2.0591436891372319e-06 0 1.0422834225765156e-05 7.1405455995620436e-07 0 1.283888804742546e-05 8.940672765823986e-07 0 1.1015665840871072e-05 -8.8792261545321978e-07 0 1.2340067910319885e-05 -2.0255950466668374e-06 0 1.0407497350725029e-05 -3.3775145145547043e-06 0 1.2340067910319885e-05 -2.0255950466668379e-06 0 1.1015665840871072e-05 -8.8792261545321978e-07 0 1.0407497350725029e-05 -3.3775145145547043e-06 0 1.1015665840871072e-05 -8.8792261545322e-07 0 8.7089357936792106e-06 -7.7920616124503117e-07 0 1.7418708489484496e-05 2.9669258390700727e-06 0 1.5114403888143903e-05 2.2013641319138569e-06 0 1.4836036112107951e-05 1.4138751777607344e-07 0 1.283888804742546e-05 8.940672765823986e-07 0 1.4836036112107951e-05 1.4138751777607344e-07 0 1.5114403888143903e-05 2.2013641319138569e-06 0 1.283888804742546e-05 8.940672765823986e-07 0 1.2340067910319885e-05 -2.0255950466668374e-06 0 1.4836036112107951e-05 1.4138751777607344e-07 0 1.283888804742546e-05 8.940672765823986e-07 0 1.3526596330057558e-05 2.5096338346580631e-06 0 1.1021530250049848e-05 2.0591436891372319e-06 0 1.5114403888143903e-05 2.2013641319138569e-06 0 1.6661667759499177e-05 3.7933808589971846e-06 0 1.3526596330057558e-05 2.5096338346580631e-06 0 1.283888804742546e-05 8.940672765823986e-07 0 1.5114403888143903e-05 2.2013641319138569e-06 0 1.3526596330057558e-05 2.5096338346580631e-06 0 1.3853231630999559e-05 3.0577430869041651e-06 0 1.1110495501334374e-05 2.7253859634327116e-06 0 1.3526596330057558e-05 2.5096338346580631e-06 0 1.1021530250049848e-05 2.0591436891372319e-06 0 1.3526596330057558e-05 2.5096338346580631e-06 0 1.1110495501334374e-05 2.7253859634327116e-06 0 1.3853231630999559e-05 3.0577430869041651e-06 0 1.1410016559733781e-05 2.7516050797203701e-06 0 1.1110495501334374e-05 2.7253859634327116e-06 0 9.1858592996919652e-06 2.8214309545768646e-06 0 1.1410016559733781e-05 2.7516050797203701e-06 0 8.8598808191907388e-06 2.5416037007695652e-06 0 9.1858592996919652e-06 2.8214309545768646e-06 0 8.8598808191907388e-06 2.5416037007695652e-06 0 7.2400541291581058e-06 2.9896570372588158e-06 0 9.1858592996919652e-06 2.8214309545768646e-06 0 8.5367906821022818e-06 2.7285882606873806e-06 0 1.1110495501334374e-05 2.7253859634327116e-06 0 9.1858592996919652e-06 2.8214309545768646e-06 0 1.1110495501334374e-05 2.7253859634327116e-06 0 1.1410016559733781e-05 2.7516050797203701e-06 0 8.4799417850330023e-06 1.8193373564866315e-06 0 8.5367906821022835e-06 2.7285882606873801e-06 0 6.2235771449026484e-06 3.0138647223117566e-06 0 5.0955115305672951e-06 3.2599115348343406e-06 0 6.2235771449026484e-06 3.0138647223117566e-06 0 7.2400541291581058e-06 2.9896570372588158e-06 0 6.2235771449026484e-06 3.0138647223117566e-06 0 8.5367906821022818e-06 2.7285882606873806e-06 0 7.2400541291581058e-06 2.9896570372588158e-06 0 9.1858592996919652e-06 2.8214309545768646e-06 0 7.2400541291581058e-06 2.9896570372588158e-06 0 8.5367906821022818e-06 2.7285882606873806e-06 0 6.6771008803106042e-06 2.5235984849367141e-06 0 5.0453257105116935e-06 2.7758303393772352e-06 0 7.2400541291581058e-06 2.9896570372588158e-06 0 5.0955115305672951e-06 3.2599115348343406e-06 0 7.2400541291581058e-06 2.9896570372588158e-06 0 5.0453257105116935e-06 2.7758303393772352e-06 0 5.0955115305672951e-06 3.2599115348343406e-06 0 5.0453257105116935e-06 2.7758303393772352e-06 0 3.3725336007698562e-06 2.8682183042585274e-06 0 6.6771008803106042e-06 2.5235984849367141e-06 0 4.6429104174578535e-06 2.0288752768083162e-06 0 5.0453257105116935e-06 2.7758303393772352e-06 0 5.6236471629417766e-06 1.4851923381033576e-06 0 4.6429104174578535e-06 2.0288752768083162e-06 0 6.6771008803106042e-06 2.5235984849367141e-06 0 5.6236471629417766e-06 1.4851923381033576e-06 0 6.6771008803106051e-06 2.5235984849367141e-06 0 7.9556850760092941e-06 1.9355980414796613e-06 0 6.6771008803106042e-06 2.5235984849367141e-06 0 8.8598808191907388e-06 2.5416037007695652e-06 0 7.9556850760092941e-06 1.9355980414796613e-06 0 6.6771008803106042e-06 2.5235984849367141e-06 0 7.2400541291581058e-06 2.9896570372588158e-06 0 8.8598808191907388e-06 2.5416037007695652e-06 0 9.4277729889659996e-07 2.0591825147367399e-06 0 3.4412299597752377e-06 2.4790438417443374e-06 0 1.2659026193217284e-06 3.2646123541280542e-06 0 3.3130844053727256e-06 3.4395468020162448e-06 0 1.2659026193217284e-06 3.2646123541280542e-06 0 3.4412299597752377e-06 2.4790438417443378e-06 0 3.3130844053727256e-06 3.4395468020162448e-06 0 1.4679085758027929e-06 3.7361738206741122e-06 0 1.2659026193217284e-06 3.2646123541280542e-06 0 3.3130844053727256e-06 3.4395468020162448e-06 0 4.8256403624750479e-06 2.9146906035029641e-06 0 4.5263789403390019e-06 3.3863978041692168e-06 0 3.3130844053727256e-06 3.4395468020162448e-06 0 3.4412299597752377e-06 2.4790438417443378e-06 0 4.8256403624750479e-06 2.9146906035029641e-06 0 3.4412299597752377e-06 2.4790438417443378e-06 0 6.0719577594566188e-06 2.0762142400225045e-06 0 4.8256403624750479e-06 2.9146906035029641e-06 0 6.2235771449026484e-06 3.0138647223117566e-06 0 4.8256403624750479e-06 2.9146906035029641e-06 0 6.0719577594566188e-06 2.0762142400225045e-06 0 6.2235771449026484e-06 3.0138647223117566e-06 0 4.5263789403390019e-06 3.3863978041692168e-06 0 4.8256403624750479e-06 2.9146906035029641e-06 0 5.0955115305672951e-06 3.2599115348343406e-06 0 4.5263789403390019e-06 3.3863978041692168e-06 0 6.2235771449026484e-06 3.0138647223117566e-06 0 5.0955115305672951e-06 3.2599115348343406e-06 0 2.9108400142435049e-06 3.5698921962815444e-06 0 4.5263789403390019e-06 3.3863978041692168e-06 0 5.0955115305672951e-06 3.2599115348343406e-06 0 3.3725336007698562e-06 2.8682183042585274e-06 0 2.9108400142435049e-06 3.5698921962815444e-06 0 3.3130844053727256e-06 3.4395468020162448e-06 0 4.526378940339001e-06 3.3863978041692168e-06 0 2.9108400142435049e-06 3.5698921962815444e-06 0 3.3130844053727256e-06 3.4395468020162448e-06 0 2.9108400142435049e-06 3.5698921962815444e-06 0 1.4679085758027929e-06 3.7361738206741122e-06 0 7.3549905498216143e-07 3.6320223039388397e-06 0 1.4679085758027929e-06 3.7361738206741122e-06 0 2.9108400142435049e-06 3.5698921962815444e-06 0 7.3549905498216143e-07 3.6320223039388397e-06 0 -1.6435061890840668e-07 3.7513081221117342e-06 0 1.4679085758027929e-06 3.7361738206741122e-06 0 -5.7760684026911298e-07 3.6728538499600477e-06 0 1.2659026193217284e-06 3.2646123541280542e-06 0 1.4679085758027929e-06 3.7361738206741122e-06 0 -5.7760684026911298e-07 3.6728538499600477e-06 0 1.4679085758027929e-06 3.7361738206741122e-06 0 -1.6435061890840668e-07 3.7513081221117342e-06 0 2.9979650102465341e-07 2.0961622509593987e-06 0 -5.7122371904139077e-08 3.3000329321744538e-06 0 1.264357718059578e-06 3.1348033058528009e-06 0 7.3549905498216143e-07 3.6320223039388397e-06 0 -5.7122371904139104e-08 3.3000329321744538e-06 0 -1.6435061890840668e-07 3.7513081221117342e-06 0 7.3549905498216143e-07 3.6320223039388397e-06 0 1.264357718059578e-06 3.1348033058528009e-06 0 -5.7122371904139077e-08 3.3000329321744538e-06 0 7.3549905498216143e-07 3.6320223039388397e-06 0 2.9108400142435049e-06 3.5698921962815444e-06 0 1.264357718059578e-06 3.1348033058528009e-06 0 2.9979650102465341e-07 2.0961622509593987e-06 0 1.264357718059578e-06 3.1348033058528009e-06 0 7.8904957218857529e-07 1.8189588015896694e-06 0 1.9647159500989204e-06 2.7573383838575809e-06 0 7.8904957218857529e-07 1.8189588015896694e-06 0 1.264357718059578e-06 3.1348033058528009e-06 0 1.9647159500989204e-06 2.7573383838575809e-06 0 1.264357718059578e-06 3.1348033058528009e-06 0 2.9108400142435049e-06 3.5698921962815444e-06 0 1.9647159500989204e-06 2.7573383838575809e-06 0 2.9108400142435049e-06 3.5698921962815444e-06 0 3.3725336007698562e-06 2.8682183042585274e-06 0 1.9647159500989204e-06 2.7573383838575809e-06 0 3.3725336007698562e-06 2.8682183042585274e-06 0 1.3578628726919039e-06 1.7125992753221183e-06 0 1.9647159500989204e-06 2.7573383838575809e-06 0 1.3578628726919039e-06 1.7125992753221181e-06 0 7.8904957218857529e-07 1.8189588015896694e-06 0 9.2419287679332506e-10 8.353039141615758e-10 0 7.8904957218857529e-07 1.8189588015896694e-06 0 1.3578628726919039e-06 1.7125992753221183e-06 0 9.2419287679332506e-10 8.353039141615758e-10 0 5.5105081739783611e-10 8.2972846580768766e-10 0 7.8904957218857529e-07 1.8189588015896694e-06 0 5.5105081739783611e-10 8.2972846580768766e-10 0 2.9979650102465341e-07 2.0961622509593987e-06 0 7.8904957218857529e-07 1.8189588015896694e-06 0 5.5105081739783611e-10 8.2972846580768766e-10 0 -1.8927404200051247e-11 9.4664078964924435e-10 0 2.9979650102465341e-07 2.0961622509593987e-06 0 -1.8927404200051247e-11 9.4664078964924435e-10 0 -2.3817274858475339e-07 1.9200332771552058e-06 0 2.9979650102465341e-07 2.0961622509593987e-06 0 2.808403762058751e-06 1.8842033756247912e-06 0 4.6429104174578535e-06 2.0288752768083162e-06 0 2.8847661158262788e-06 1.110697342028208e-06 0 5.6236471629417766e-06 1.4851923381033576e-06 0 2.8847661158262788e-06 1.110697342028208e-06 0 4.6429104174578535e-06 2.0288752768083162e-06 0 4.6429104174578535e-06 2.0288752768083162e-06 0 2.808403762058751e-06 1.8842033756247912e-06 0 5.0453257105116935e-06 2.7758303393772352e-06 0 2.808403762058751e-06 1.8842033756247912e-06 0 3.3725336007698562e-06 2.8682183042585274e-06 0 5.0453257105116935e-06 2.7758303393772352e-06 0 2.808403762058751e-06 1.8842033756247912e-06 0 1.3578628726919039e-06 1.7125992753221183e-06 0 3.3725336007698562e-06 2.8682183042585274e-06 0 2.808403762058751e-06 1.8842033756247912e-06 0 1.1623689847828245e-06 1.0500773164508123e-06 0 1.3578628726919039e-06 1.7125992753221183e-06 0 1.4453777425093836e-09 5.5471029507191478e-10 0 9.2419287679332506e-10 8.353039141615758e-10 0 1.3578628726919039e-06 1.7125992753221183e-06 0 1.4453777425093836e-09 5.5471029507191478e-10 0 1.3578628726919039e-06 1.7125992753221183e-06 0 1.1623689847828247e-06 1.0500773164508125e-06 0 1.7029338256263304e-09 4.6820314737361942e-10 0 1.4453777425093836e-09 5.5471029507191478e-10 0 1.1623689847828247e-06 1.0500773164508125e-06 0 1.7029338256263304e-09 4.6820314737361942e-10 0 1.1623689847828247e-06 1.0500773164508127e-06 0 1.228708553800264e-06 7.8609554919591579e-07 0 1.8342585474765505e-09 3.9216167464305806e-10 0 1.228708553800264e-06 7.8609554919591579e-07 0 2.8847661158262788e-06 1.110697342028208e-06 0 2.808403762058751e-06 1.8842033756247912e-06 0 2.8847661158262788e-06 1.110697342028208e-06 0 1.228708553800264e-06 7.8609554919591579e-07 0 2.808403762058751e-06 1.8842033756247912e-06 0 1.228708553800264e-06 7.8609554919591579e-07 0 1.1623689847828247e-06 1.0500773164508125e-06 0 1.8342585474765505e-09 3.9216167464305806e-10 0 1.7029338256263304e-09 4.6820314737361942e-10 0 1.228708553800264e-06 7.8609554919591579e-07 0 1.8342585474765505e-09 3.9216167464305806e-10 0 2.8847661158262788e-06 1.110697342028208e-06 0 1.8798935023477677e-06 3.2756828947463258e-07 0 1.974737104847264e-09 -1.1915237969672754e-10 0 1.8342585474766529e-09 3.9216167464307594e-10 0 1.8798935023477677e-06 3.2756828947463258e-07 0 1.974737104847264e-09 -1.1915237969672754e-10 0 1.8798935023477677e-06 3.2756828947463258e-07 0 1.4338138089790306e-06 -1.2789921894368062e-07 0 3.5524093271606289e-06 -1.8184766717793943e-08 0 1.4338138089790306e-06 -1.2789921894368062e-07 0 1.8798935023477677e-06 3.2756828947463258e-07 0 2.8847661158262788e-06 1.110697342028208e-06 0 3.8884162010067209e-06 6.3475036659463364e-07 0 1.8798935023477677e-06 3.2756828947463258e-07 0 5.6236471629417766e-06 1.4851923381033576e-06 0 3.8884162010067201e-06 6.3475036659463364e-07 0 2.8847661158262788e-06 1.110697342028208e-06 0 3.5524093271606289e-06 -1.8184766717793943e-08 0 1.8798935023477677e-06 3.2756828947463258e-07 0 3.8884162010067201e-06 6.3475036659463364e-07 0 3.5524093271606289e-06 -1.8184766717793943e-08 0 3.8884162010067201e-06 6.3475036659463364e-07 0 5.622833636284871e-06 2.5093636968150736e-07 0 3.8884162010067201e-06 6.3475036659463364e-07 0 5.6236471629417766e-06 1.4851923381033576e-06 0 5.622833636284871e-06 2.5093636968150736e-07 0 3.5524093271606289e-06 -1.8184766717793943e-08 0 5.622833636284871e-06 2.5093636968150736e-07 0 4.7766017619416407e-06 -7.4335382047740633e-07 0 3.5189682470352482e-06 -1.5552942956305708e-06 0 2.0538651801561165e-06 -7.042074296951552e-07 0 4.7766017619416407e-06 -7.4335382047740633e-07 0 3.5524093271606289e-06 -1.8184766717793943e-08 0 4.7766017619416407e-06 -7.4335382047740633e-07 0 2.0538651801561165e-06 -7.042074296951552e-07 0 3.5524093271606289e-06 -1.8184766717793943e-08 0 2.0538651801561165e-06 -7.042074296951552e-07 0 1.4338138089790306e-06 -1.2789921894368062e-07 0 2.0083544812480072e-09 2.3834355978717371e-11 0 1.9747371048470013e-09 -1.191523796967041e-10 0 1.4338138089790306e-06 -1.2789921894368062e-07 0 1.5673988200167991e-09 -6.1211211302049742e-10 0 2.0083544812480072e-09 2.3834355978717371e-11 0 2.0538651801561165e-06 -7.042074296951552e-07 0 2.0083544812480072e-09 2.3834355978717371e-11 0 1.4338138089790306e-06 -1.2789921894368067e-07 0 2.0538651801561165e-06 -7.042074296951552e-07 0 1.1595640277022147e-09 -7.781923049536689e-10 0 1.5673988200167991e-09 -6.1211211302049742e-10 0 1.5910509765233098e-06 -1.3736835775738762e-06 0 3.5189682470352482e-06 -1.5552942956305708e-06 0 1.59105097652331e-06 -1.3736835775738762e-06 0 2.0538651801561165e-06 -7.042074296951552e-07 0 1.5673988200167991e-09 -6.1211211302049742e-10 0 2.0538651801561165e-06 -7.042074296951552e-07 0 1.5910509765233098e-06 -1.3736835775738762e-06 0 5.1055682812979797e-10 -1.1561613349221554e-09 0 1.1595640277022147e-09 -7.781923049536689e-10 0 1.0335274809708915e-06 -2.1685570310795169e-06 0 1.1595640277022147e-09 -7.781923049536689e-10 0 1.5910509765233098e-06 -1.3736835775738762e-06 0 1.0335274809708915e-06 -2.1685570310795169e-06 0 5.1055682812979797e-10 -1.1561613349221554e-09 0 1.0335274809708915e-06 -2.1685570310795169e-06 0 2.4059313746102162e-07 -2.3549369559626136e-06 0 1.0335274809708915e-06 -2.1685570310795169e-06 0 3.4102570661698336e-06 -2.7184224203052191e-06 0 1.305539957406654e-06 -3.6501543993068839e-06 0 3.0510230899840116e-06 -3.5294446355537599e-06 0 1.305539957406654e-06 -3.6501543993068839e-06 0 3.4102570661698336e-06 -2.7184224203052191e-06 0 1.0335274809708915e-06 -2.1685570310795169e-06 0 1.5910509765233098e-06 -1.3736835775738762e-06 0 3.4102570661698336e-06 -2.7184224203052191e-06 0 3.0510230899840116e-06 -3.5294446355537599e-06 0 2.4945589824497557e-06 -4.0350568307671035e-06 0 1.305539957406654e-06 -3.6501543993068839e-06 0 3.5189682470352482e-06 -1.5552942956305708e-06 0 3.4102570661698336e-06 -2.7184224203052191e-06 0 1.5910509765233098e-06 -1.3736835775738762e-06 0 3.5189682470352482e-06 -1.5552942956305708e-06 0 5.5168940724925295e-06 -1.4556769846484575e-06 0 3.4102570661698336e-06 -2.7184224203052191e-06 0 3.5189682470352482e-06 -1.5552942956305708e-06 0 4.7766017619416415e-06 -7.4335382047740633e-07 0 5.5168940724925295e-06 -1.4556769846484575e-06 0 7.3626586984530514e-06 -1.8015646989639604e-06 0 3.4102570661698336e-06 -2.7184224203052191e-06 0 5.5168940724925295e-06 -1.4556769846484575e-06 0 7.9936700238388214e-06 -2.6461735955316095e-07 0 7.3626586984530514e-06 -1.8015646989639604e-06 0 5.5168940724925295e-06 -1.4556769846484575e-06 0 7.9936700238388214e-06 -2.6461735955316095e-07 0 1.0450661882123128e-05 1.1203584789697529e-07 0 7.3626586984530514e-06 -1.8015646989639604e-06 0 7.3626586984530514e-06 -1.8015646989639604e-06 0 5.1033772421061599e-06 -3.0543027505422097e-06 0 3.4102570661698336e-06 -2.7184224203052191e-06 0 3.0510230899840116e-06 -3.5294446355537599e-06 0 5.1033772421061599e-06 -3.0543027505422097e-06 0 2.4945589824497557e-06 -4.0350568307671035e-06 0 3.0510230899840116e-06 -3.5294446355537599e-06 0 3.4102570661698336e-06 -2.7184224203052191e-06 0 5.1033772421061599e-06 -3.0543027505422097e-06 0 7.3626586984530514e-06 -1.8015646989639604e-06 0 6.9840902212471275e-06 -2.4810819617987461e-06 0 5.1033772421061599e-06 -3.0543027505422097e-06 0 3.4868327111902533e-06 -3.9485504161760841e-06 0 2.4945589824497557e-06 -4.0350568307671035e-06 0 5.1033772421061599e-06 -3.0543027505422097e-06 0 3.4868327111902533e-06 -3.9485504161760841e-06 0 5.1033772421061599e-06 -3.0543027505422097e-06 0 6.9840902212471275e-06 -2.4810819617987461e-06 0 3.4868327111902533e-06 -3.9485504161760841e-06 0 6.9840902212471275e-06 -2.4810819617987461e-06 0 7.8867737504240386e-06 -2.0424668897241475e-06 0 1.0781179129789405e-05 -6.1038220227649965e-07 0 7.8867737504240386e-06 -2.0424668897241475e-06 0 6.9840902212471275e-06 -2.4810819617987461e-06 0 1.0781179129789405e-05 -6.1038220227649965e-07 0 1.1922471161452705e-05 3.4868522241730779e-07 0 7.8867737504240386e-06 -2.0424668897241475e-06 0 7.928561257731718e-06 -9.9570711720587044e-07 0 2.9874106023854264e-06 -3.2304838069830602e-06 0 7.8867737504240386e-06 -2.0424668897241475e-06 0 7.928561257731718e-06 -9.9570711720587044e-07 0 7.8867737504240386e-06 -2.0424668897241475e-06 0 1.1922471161452705e-05 3.4868522241730742e-07 0 1.0781179129789405e-05 -6.1038220227649965e-07 0 7.3626586984530514e-06 -1.8015646989639604e-06 0 1.0450661882123128e-05 1.1203584789697529e-07 0 1.0781179129789405e-05 -6.1038220227649965e-07 0 6.9840902212471275e-06 -2.4810819617987461e-06 0 7.3626586984530514e-06 -1.8015646989639604e-06 0 1.0781179129789405e-05 -6.1038220227649965e-07 0 1.0450661882123128e-05 1.1203584789697529e-07 0 1.3524698980875938e-05 1.386513377723098e-06 0 1.0781179129789405e-05 -6.1038220227649965e-07 0 1.3524698980875938e-05 1.386513377723098e-06 0 1.5527702740573038e-05 2.2951707354329421e-06 0 1.2379519668670569e-05 1.6600891156712283e-06 0 1.3524698980875938e-05 1.386513377723098e-06 0 1.0450661882123128e-05 1.1203584789697529e-07 0 1.5096141018131773e-05 2.633043100655006e-06 0 1.3524698980875938e-05 1.386513377723098e-06 0 1.2379519668670569e-05 1.6600891156712283e-06 0 1.2379519668670569e-05 1.6600891156712283e-06 0 1.0450661882123128e-05 1.1203584789697529e-07 0 9.6961274359150835e-06 8.5796166696678726e-07 0 1.0276596476549828e-05 1.9753263513270127e-06 0 1.2379519668670569e-05 1.6600891156712281e-06 0 9.6961274359150835e-06 8.5796166696678726e-07 0 1.5096141018131773e-05 2.633043100655006e-06 0 1.2379519668670569e-05 1.6600891156712283e-06 0 1.3442981589589575e-05 2.6852913501845546e-06 0 1.0276596476549828e-05 1.9753263513270127e-06 0 1.3442981589589575e-05 2.6852913501845546e-06 0 1.2379519668670569e-05 1.6600891156712283e-06 0 1.0276596476549828e-05 1.9753263513270127e-06 0 1.1410016559733781e-05 2.7516050797203701e-06 0 1.3442981589589575e-05 2.6852913501845546e-06 0 1.0276596476549828e-05 1.9753263513270127e-06 0 7.9556850760092924e-06 1.9355980414796613e-06 0 8.8598808191907388e-06 2.5416037007695652e-06 0 1.0276596476549828e-05 1.9753263513270127e-06 0 8.8598808191907388e-06 2.5416037007695652e-06 0 1.1410016559733781e-05 2.7516050797203701e-06 0 1.0276596476549828e-05 1.9753263513270127e-06 0 9.6961274359150835e-06 8.5796166696678726e-07 0 7.4958238286334018e-06 9.340615255504278e-07 0 1.0276596476549828e-05 1.9753263513270127e-06 0 7.4958238286334018e-06 9.340615255504278e-07 0 7.9556850760092941e-06 1.9355980414796613e-06 0 5.6236471629417766e-06 1.4851923381033576e-06 0 7.9556850760092941e-06 1.9355980414796613e-06 0 7.4958238286334018e-06 9.340615255504278e-07 0 5.622833636284871e-06 2.5093636968150736e-07 0 5.6236471629417766e-06 1.4851923381033576e-06 0 7.4958238286334018e-06 9.340615255504278e-07 0 7.9936700238388214e-06 -2.6461735955316095e-07 0 5.622833636284871e-06 2.5093636968150736e-07 0 7.4958238286334018e-06 9.340615255504278e-07 0 7.9936700238388214e-06 -2.6461735955316095e-07 0 4.7766017619416407e-06 -7.4335382047740633e-07 0 5.622833636284871e-06 2.5093636968150736e-07 0 7.9936700238388214e-06 -2.6461735955316095e-07 0 5.5168940724925295e-06 -1.4556769846484575e-06 0 4.7766017619416407e-06 -7.4335382047740633e-07 0 9.6961274359150835e-06 8.5796166696678726e-07 0 1.0450661882123128e-05 1.1203584789697529e-07 0 7.9936700238388214e-06 -2.6461735955316095e-07 0 7.9936700238388214e-06 -2.6461735955316095e-07 0 7.4958238286334027e-06 9.3406152555042791e-07 0 9.6961274359150835e-06 8.5796166696678726e-07 0 -1.2200725195505999e-05 -1.8410578627759085e-06 0 -7.0506032983864374e-06 -1.4401899841302665e-06 0 -6.7948413833535308e-06 -2.8193266351730124e-06 0 -4.111317591018239e-06 -3.3606060888625058e-06 0 -6.7948413833535308e-06 -2.8193266351730124e-06 0 -3.1086859875975014e-06 -1.7073784803052142e-06 0 -3.0285286671411583e-06 -3.7980118513628481e-07 0 -3.1086859875975014e-06 -1.7073784803052142e-06 0 -7.0506032983864374e-06 -1.4401899841302665e-06 0 -7.0506032983864374e-06 -1.4401899841302665e-06 0 -3.1086859875975014e-06 -1.7073784803052142e-06 0 -6.7948413833535308e-06 -2.8193266351730124e-06 0 -3.0285286671411583e-06 -3.7980118513628481e-07 0 -1.3709442347860532e-06 -5.2331785247174377e-07 0 -3.1086859875975014e-06 -1.7073784803052142e-06 0 -2.3763617974620837e-09 9.7211418324346852e-10 0 -1.3709442347860532e-06 -5.2331785247174377e-07 0 -3.0285286671411583e-06 -3.7980118513628481e-07 0 -2.3763617974620837e-09 9.7211418324346852e-10 0 -2.5354557690333379e-09 -9.777797757516723e-10 0 -1.3709442347860532e-06 -5.2331785247174377e-07 0 -2.5354557690333379e-09 -9.777797757516723e-10 0 -3.1086859875975014e-06 -1.7073784803052142e-06 0 -1.3709442347860532e-06 -5.2331785247174377e-07 0 -2.5354557690333379e-09 -9.777797757516723e-10 0 -1.8496644886519648e-06 -2.1897312749093658e-06 0 -3.1086859875975014e-06 -1.7073784803052142e-06 0 -4.111317591018239e-06 -3.3606060888625058e-06 0 -3.1086859875975014e-06 -1.7073784803052142e-06 0 -1.8496644886519644e-06 -2.1897312749093658e-06 0 -2.5354557690333379e-09 -9.777797757516723e-10 0 -2.2488590393798506e-09 -5.85578672305462e-10 0 -1.8496644886519644e-06 -2.1897312749093658e-06 0 -2.2488590393802704e-09 -5.8557867230595924e-10 0 -9.7784977393274368e-10 -1.6256714771621088e-09 0 -1.8496644886519644e-06 -2.1897312749093658e-06 0 -4.111317591018239e-06 -3.3606060888625058e-06 0 -1.8496644886519644e-06 -2.1897312749093658e-06 0 -1.8064547730562933e-06 -3.3655166539732717e-06 0 -4.111317591018239e-06 -3.3606060888625058e-06 0 -1.8064547730562933e-06 -3.3655166539732717e-06 0 -3.7221697131934482e-06 -4.4136206184649876e-06 0 -4.111317591018239e-06 -3.3606060888625058e-06 0 -6.3418786245036007e-06 -4.3100838793670195e-06 0 -6.7948413833535308e-06 -2.8193266351730124e-06 0 -9.6874257662168814e-06 -3.6990912589843422e-06 0 -6.7948413833535308e-06 -2.8193266351730124e-06 0 -6.3418786245036007e-06 -4.3100838793670195e-06 0 -4.0702366314590961e-06 -5.0392444765356305e-06 0 -6.3418786245035998e-06 -4.3100838793670186e-06 0 -3.7221697131934482e-06 -4.4136206184649876e-06 0 -4.111317591018239e-06 -3.3606060888625058e-06 0 -3.7221697131934482e-06 -4.4136206184649876e-06 0 -6.3418786245036007e-06 -4.3100838793670195e-06 0 -4.0702366314590961e-06 -5.0392444765356305e-06 0 -3.7221697131934482e-06 -4.4136206184649876e-06 0 -2.0627161673973123e-06 -4.6097858304871269e-06 0 -3.6206939012511304e-07 -3.8751211663806459e-06 0 -2.0627161673973123e-06 -4.6097858304871269e-06 0 -1.8064547730562933e-06 -3.3655166539732717e-06 0 -1.8064547730562933e-06 -3.3655166539732717e-06 0 -2.0627161673973119e-06 -4.6097858304871269e-06 0 -3.7221697131934482e-06 -4.4136206184649876e-06 0 -9.7784977393274368e-10 -1.6256714771621088e-09 0 -4.2218309716304267e-07 -2.1970944074795204e-06 0 -1.8064547730562933e-06 -3.3655166539732717e-06 0 -9.7784977393274368e-10 -1.6256714771621088e-09 0 -1.8064547730562933e-06 -3.3655166539732722e-06 0 -1.8496644886519644e-06 -2.1897312749093658e-06 0 -9.7784977393274368e-10 -1.6256714771621088e-09 0 -3.1315667823649165e-10 -1.0530001696242211e-09 0 -4.2218309716304267e-07 -2.1970944074795204e-06 0 -3.6206939012511304e-07 -3.8751211663806459e-06 0 -1.8064547730562937e-06 -3.3655166539732717e-06 0 -4.2218309716304267e-07 -2.1970944074795204e-06 0 -3.6206939012511304e-07 -3.8751211663806459e-06 0 -4.2218309716304267e-07 -2.1970944074795204e-06 0 2.4059313746102162e-07 -2.3549369559626136e-06 0 -3.1315667823649165e-10 -1.0530001696242211e-09 0 2.4059313746102162e-07 -2.3549369559626136e-06 0 -4.2218309716304267e-07 -2.1970944074795204e-06 0 -3.1315667823649165e-10 -1.0530001696242211e-09 0 5.1055682812979797e-10 -1.1561613349221554e-09 0 2.4059313746102162e-07 -2.3549369559626136e-06 0 1.0335274809708915e-06 -2.1685570310795169e-06 0 1.305539957406654e-06 -3.6501543993068839e-06 0 2.4059313746102162e-07 -2.3549369559626136e-06 0 -3.6206939012511304e-07 -3.8751211663806459e-06 0 2.4059313746102162e-07 -2.3549369559626136e-06 0 1.305539957406654e-06 -3.6501543993068839e-06 0 -3.6206939012511304e-07 -3.8751211663806459e-06 0 -7.3538068794082604e-11 -4.8089855478886598e-06 0 -2.0627161673973123e-06 -4.6097858304871269e-06 0 -3.6206939012511304e-07 -3.8751211663806459e-06 0 1.305539957406654e-06 -3.6501543993068839e-06 0 -7.3538068794082604e-11 -4.8089855478886598e-06 0 -7.3538068794082604e-11 -4.8089855478886598e-06 0 1.305539957406654e-06 -3.6501543993068839e-06 0 2.4945589824497557e-06 -4.0350568307671035e-06 0 3.4868327111902533e-06 -3.9485504161760841e-06 0 -7.3538068794082604e-11 -4.8089855478886598e-06 0 2.4945589824497557e-06 -4.0350568307671035e-06 0 3.4868327111902533e-06 -3.9485504161760841e-06 0 -1.5547971052084522e-06 -4.8824617467777475e-06 0 -7.3538068794082604e-11 -4.8089855478886598e-06 0 3.4868327111902533e-06 -3.9485504161760841e-06 0 7.8867737504240386e-06 -2.0424668897241475e-06 0 2.9874106023854264e-06 -3.2304838069830602e-06 0 -1.7978634053941819e-06 -3.8011470802223241e-06 0 2.9874106023854264e-06 -3.2304838069830602e-06 0 -8.9396392787209808e-07 -1.8662536306651336e-06 0 -1.7978634053941819e-06 -3.8011470802223241e-06 0 -1.5547971052084522e-06 -4.8824617467777475e-06 0 2.9874106023854264e-06 -3.2304838069830602e-06 0 3.4868327111902533e-06 -3.9485504161760841e-06 0 2.9874106023854264e-06 -3.2304838069830602e-06 0 -1.5547971052084522e-06 -4.8824617467777475e-06 0 -1.7978634053941819e-06 -3.8011470802223241e-06 0 -6.8563810338192387e-06 -4.5778508168212638e-06 0 -1.5547971052084522e-06 -4.8824617467777475e-06 0 -1.7978634053941819e-06 -3.8011470802223241e-06 0 -8.9396392787209808e-07 -1.8662536306651336e-06 0 -6.9380486432146261e-06 -2.9833909551935708e-06 0 -1.7978634053941819e-06 -3.8011470802223241e-06 0 -6.9380486432146261e-06 -2.9833909551935708e-06 0 -6.8563810338192387e-06 -4.5778508168212638e-06 0 -4.0702366314590961e-06 -5.0392444765356305e-06 0 -1.5547971052084522e-06 -4.8824617467777475e-06 0 -6.8563810338192387e-06 -4.5778508168212638e-06 0 -4.0702366314590961e-06 -5.0392444765356305e-06 0 -6.8563810338192387e-06 -4.5778508168212638e-06 0 -7.9112069185102235e-06 -4.5564107155432472e-06 0 -4.0702366314590961e-06 -5.0392444765356305e-06 0 -7.3538068794082604e-11 -4.8089855478886598e-06 0 -1.5547971052084522e-06 -4.8824617467777475e-06 0 -4.0702366314590961e-06 -5.0392444765356305e-06 0 -2.0627161673973123e-06 -4.6097858304871261e-06 0 -7.3538068794082604e-11 -4.8089855478886598e-06 0 -4.0702366314590961e-06 -5.0392444765356305e-06 0 -7.9112069185102235e-06 -4.5564107155432472e-06 0 -6.3418786245036007e-06 -4.3100838793670195e-06 0 -9.6874257662168814e-06 -3.6990912589843422e-06 0 -6.3418786245036007e-06 -4.3100838793670195e-06 0 -7.9112069185102235e-06 -4.5564107155432472e-06 0 -1.2210343826757691e-05 -3.6372208364469855e-06 0 -9.6874257662168797e-06 -3.6990912589843422e-06 0 -7.9112069185102235e-06 -4.5564107155432472e-06 0 -1.2210343826757691e-05 -3.6372208364469855e-06 0 -7.9112069185102235e-06 -4.5564107155432472e-06 0 -6.8563810338192387e-06 -4.5778508168212638e-06 0 -1.2210343826757691e-05 -3.6372208364469855e-06 0 -6.8563810338192387e-06 -4.5778508168212638e-06 0 -1.4380322626331454e-05 -2.2005005601326359e-06 0 -6.8563810338192387e-06 -4.5778508168212638e-06 0 -6.9380486432146261e-06 -2.9833909551935712e-06 0 -1.4380322626331454e-05 -2.2005005601326359e-06 0 -1.2210343826757691e-05 -3.6372208364469855e-06 0 -1.4380322626331452e-05 -2.2005005601326359e-06 0 -1.8872252823087889e-05 -1.4973122302742775e-06 0 -1.2210343826757691e-05 -3.6372208364469855e-06 0 -1.8872252823087889e-05 -1.4973122302742775e-06 0 -1.4537161555571407e-05 -2.6726535985548738e-06 0 -2.3871250580433758e-05 1.4913544428812409e-06 0 -1.8872252823087889e-05 -1.4973122302742775e-06 0 -1.4380322626331454e-05 -2.2005005601326359e-06 0 -2.6004750158803396e-05 1.7946433293382822e-06 0 -1.8487722738163921e-05 -8.1389936879756515e-07 0 -1.8872252823087889e-05 -1.4973122302742775e-06 0 -1.8487722738163921e-05 -8.1389936879756515e-07 0 -1.4537161555571407e-05 -2.6726535985548738e-06 0 -1.8872252823087889e-05 -1.4973122302742775e-06 0 -1.8487722738163921e-05 -8.1389936879756515e-07 0 -1.2200725195505999e-05 -1.8410578627759085e-06 0 -1.4537161555571407e-05 -2.6726535985548738e-06 0 -1.2210343826757691e-05 -3.6372208364469855e-06 0 -1.4537161555571407e-05 -2.6726535985548738e-06 0 -9.6874257662168814e-06 -3.6990912589843422e-06 0 -1.2200725195505999e-05 -1.8410578627759085e-06 0 -9.6874257662168814e-06 -3.6990912589843422e-06 0 -1.4537161555571407e-05 -2.6726535985548738e-06 0 -1.2200725195505999e-05 -1.8410578627759085e-06 0 -6.7948413833535317e-06 -2.8193266351730128e-06 0 -9.6874257662168814e-06 -3.6990912589843422e-06 0 -4.4834543128461217e-05 1.4759557514688143e-05 0 -3.1359769022595748e-05 7.6303134923903855e-06 0 -3.9313975634285086e-05 1.4667877567726856e-05 0 -5.6587652145223239e-05 2.6186583869204737e-05 0 -4.4834543128461217e-05 1.4759557514688143e-05 0 -3.9313975634285086e-05 1.4667877567726856e-05 0 -2.7082267391652723e-05 1.1240417411673504e-05 0 -3.9313975634285086e-05 1.4667877567726856e-05 0 -3.1359769022595748e-05 7.6303134923903855e-06 0 -2.7082267391652723e-05 1.1240417411673504e-05 0 -3.9209430176517024e-05 2.1608939658372847e-05 0 -3.9313975634285086e-05 1.4667877567726856e-05 0 -4.4834543128461217e-05 1.4759557514688143e-05 0 -3.4661703933649224e-05 6.7344573649121211e-06 0 -3.1359769022595748e-05 7.6303134923903855e-06 0 -3.4661703933649224e-05 6.7344573649121211e-06 0 -2.6004750158803396e-05 1.7946433293382822e-06 0 -2.3871250580433758e-05 1.4913544428812409e-06 0 -2.6004750158803396e-05 1.7946433293382822e-06 0 -1.8872252823087889e-05 -1.4973122302742775e-06 0 -2.3871250580433758e-05 1.4913544428812409e-06 0 -3.4661703933649224e-05 6.7344573649121211e-06 0 -2.3871250580433758e-05 1.4913544428812409e-06 0 -3.1359769022595748e-05 7.6303134923903855e-06 0 -2.3871250580433758e-05 1.4913544428812409e-06 0 -1.7991835537013259e-05 2.9597420869803625e-06 0 -3.1359769022595748e-05 7.6303134923903855e-06 0 -1.1536749859535433e-05 -7.5586308128055992e-07 0 -1.7991835537013259e-05 2.9597420869803633e-06 0 -1.4380322626331454e-05 -2.2005005601326359e-06 0 -2.3871250580433758e-05 1.4913544428812409e-06 0 -1.4380322626331454e-05 -2.2005005601326359e-06 0 -1.7991835537013259e-05 2.9597420869803633e-06 0 -1.1536749859535433e-05 -7.5586308128055992e-07 0 -1.4380322626331454e-05 -2.2005005601326359e-06 0 -6.9380486432146261e-06 -2.9833909551935708e-06 0 -2.7082267391652723e-05 1.1240417411673504e-05 0 -1.7991835537013259e-05 2.9597420869803633e-06 0 -1.6836569811392595e-05 9.9937857445195123e-06 0 -2.7082267391652723e-05 1.1240417411673504e-05 0 -3.1359769022595748e-05 7.6303134923903855e-06 0 -1.7991835537013259e-05 2.9597420869803633e-06 0 -2.7082267391652723e-05 1.1240417411673504e-05 0 -1.6836569811392595e-05 9.9937857445195106e-06 0 -2.4573925366062609e-05 1.9379635864937095e-05 0 -1.6836569811392595e-05 9.9937857445195123e-06 0 -6.9598257078201583e-06 4.9909941710064013e-06 0 -7.3600389385444036e-06 1.5682224538277819e-05 0 -6.9598257078201583e-06 4.9909941710064013e-06 0 1.191604730420242e-06 7.6889594739805095e-06 0 -7.3600389385444036e-06 1.5682224538277819e-05 0 -6.9598257078201583e-06 4.9909941710064013e-06 0 1.405717227782076e-07 1.7597680200241909e-06 0 1.191604730420242e-06 7.6889594739805095e-06 0 -6.9598257078201583e-06 4.9909941710064013e-06 0 -1.6836569811392595e-05 9.9937857445195123e-06 0 -1.7991835537013259e-05 2.9597420869803633e-06 0 -6.9598257078201583e-06 4.9909941710064013e-06 0 -1.7991835537013259e-05 2.9597420869803633e-06 0 -6.5457927798462192e-06 4.0349491227204131e-07 0 -1.1536749859535433e-05 -7.5586308128055992e-07 0 -6.5457927798462192e-06 4.0349491227204131e-07 0 -1.7991835537013259e-05 2.9597420869803633e-06 0 -1.1536749859535433e-05 -7.5586308128055992e-07 0 -6.9380486432146261e-06 -2.9833909551935708e-06 0 -6.5457927798462192e-06 4.0349491227204131e-07 0 -8.9396392787209808e-07 -1.8662536306651336e-06 0 -6.5457927798462192e-06 4.0349491227204136e-07 0 -6.9380486432146261e-06 -2.9833909551935708e-06 0 -8.9396392787209808e-07 -1.8662536306651336e-06 0 1.4057172277820635e-07 1.7597680200241905e-06 0 -6.5457927798462192e-06 4.0349491227204131e-07 0 -6.9598257078201583e-06 4.9909941710064013e-06 0 -6.5457927798462183e-06 4.0349491227204104e-07 0 1.405717227782076e-07 1.7597680200241909e-06 0 -8.9396392787209808e-07 -1.8662536306651336e-06 0 4.9767509584710017e-06 -3.3174122266777152e-07 0 1.405717227782076e-07 1.7597680200241909e-06 0 7.4007067857963885e-06 4.2511028969289175e-06 0 1.405717227782076e-07 1.7597680200241909e-06 0 4.9767509584710008e-06 -3.3174122266777141e-07 0 -8.9396392787209808e-07 -1.8662536306651336e-06 0 2.9874106023854264e-06 -3.2304838069830602e-06 0 4.9767509584710008e-06 -3.3174122266777141e-07 0 7.928561257731718e-06 -9.9570711720587044e-07 0 1.0841458140757055e-05 1.7238988733250885e-06 0 4.9767509584710008e-06 -3.3174122266777141e-07 0 7.928561257731718e-06 -9.9570711720587044e-07 0 4.9767509584710008e-06 -3.3174122266777152e-07 0 2.9874106023854264e-06 -3.2304838069830602e-06 0 7.4007067857963885e-06 4.2511028969289175e-06 0 4.976750958471e-06 -3.3174122266777199e-07 0 1.0841458140757055e-05 1.7238988733250885e-06 0 7.4007067857963885e-06 4.2511028969289175e-06 0 1.0841458140757055e-05 1.7238988733250885e-06 0 1.5730096995449982e-05 7.0092501876831573e-06 0 7.4007067857963885e-06 4.2511028969289175e-06 0 1.191604730420242e-06 7.6889594739805095e-06 0 1.405717227782076e-07 1.7597680200241909e-06 0 7.4007067857963885e-06 4.2511028969289175e-06 0 9.2264485920825742e-06 1.1777182966345812e-05 0 1.191604730420242e-06 7.6889594739805095e-06 0 7.4007067857963885e-06 4.2511028969289175e-06 0 1.5730096995449982e-05 7.0092501876831573e-06 0 9.2264485920825776e-06 1.1777182966345812e-05 0 2.1165334753713435e-05 1.3622516669267619e-05 0 1.5464635475831275e-05 1.9293726863357687e-05 0 9.2264485920825776e-06 1.1777182966345812e-05 0 2.1165334753713435e-05 1.3622516669267619e-05 0 9.2264485920825776e-06 1.1777182966345812e-05 0 1.5730096995449982e-05 7.0092501876831573e-06 0 -7.3600389385444036e-06 1.5682224538277819e-05 0 9.2264485920825759e-06 1.1777182966345814e-05 0 4.0431585205682185e-06 2.1747533607284464e-05 0 -7.3600389385444036e-06 1.5682224538277819e-05 0 1.191604730420242e-06 7.6889594739805095e-06 0 9.2264485920825776e-06 1.1777182966345812e-05 0 9.2264485920825776e-06 1.1777182966345812e-05 0 1.5464635475831275e-05 1.9293726863357687e-05 0 4.0431585205682185e-06 2.1747533607284464e-05 0 1.1119058166729642e-05 3.279460312146336e-05 0 1.5464635475831275e-05 1.9293726863357687e-05 0 2.6599137130296106e-05 2.3312311710260817e-05 0 1.1119058166729642e-05 3.279460312146336e-05 0 2.6599137130296106e-05 2.3312311710260817e-05 0 2.4040252596297313e-05 4.7644648024030215e-05 0 1.1119058166729642e-05 3.279460312146336e-05 0 2.4040252596297313e-05 4.7644648024030215e-05 0 1.0133229305942733e-05 5.2426043950660957e-05 0 1.1119058166729642e-05 3.279460312146336e-05 0 1.013322930594273e-05 5.242604395066095e-05 0 -5.2966800558768263e-06 5.5655675443789273e-05 0 1.1119058166729642e-05 3.279460312146336e-05 0 -1.0142463590362385e-05 3.4602728455200761e-05 0 4.0431585205682185e-06 2.1747533607284464e-05 0 1.1119058166729642e-05 3.279460312146336e-05 0 4.0431585205682202e-06 2.1747533607284461e-05 0 1.5464635475831275e-05 1.9293726863357687e-05 0 1.1119058166729642e-05 3.279460312146336e-05 0 -5.2966800558768263e-06 5.5655675443789273e-05 0 -1.0142463590362385e-05 3.4602728455200761e-05 0 -2.6900499435280164e-05 5.7295522149148408e-05 0 -1.0142463590362385e-05 3.4602728455200761e-05 0 -5.2966800558768263e-06 5.5655675443789273e-05 0 -2.6900499435280164e-05 5.7295522149148408e-05 0 -2.3012192969358777e-05 3.1054081468918781e-05 0 -1.0142463590362385e-05 3.4602728455200761e-05 0 -7.3600389385444036e-06 1.5682224538277819e-05 0 -1.0142463590362379e-05 3.4602728455200761e-05 0 -2.3012192969358784e-05 3.1054081468918781e-05 0 -7.3600389385444036e-06 1.5682224538277819e-05 0 -2.3012192969358784e-05 3.1054081468918781e-05 0 -2.4573925366062609e-05 1.9379635864937095e-05 0 -7.3600389385444036e-06 1.5682224538277819e-05 0 4.0431585205682185e-06 2.1747533607284468e-05 0 -1.0142463590362385e-05 3.4602728455200761e-05 0 -7.3600389385444036e-06 1.5682224538277819e-05 0 -2.4573925366062609e-05 1.9379635864937095e-05 0 -1.6836569811392595e-05 9.9937857445195123e-06 0 -2.7082267391652723e-05 1.1240417411673504e-05 0 -2.4573925366062609e-05 1.9379635864937095e-05 0 -3.9209430176517024e-05 2.1608939658372847e-05 0 -3.7010874576537811e-05 3.2446500252406069e-05 0 -3.9209430176517024e-05 2.1608939658372847e-05 0 -2.4573925366062609e-05 1.9379635864937095e-05 0 -3.7010874576537811e-05 3.2446500252406069e-05 0 -2.4573925366062609e-05 1.9379635864937095e-05 0 -2.3012192969358784e-05 3.1054081468918781e-05 0 -3.7010874576537811e-05 3.2446500252406069e-05 0 -2.3012192969358784e-05 3.1054081468918781e-05 0 -3.9418576002394952e-05 4.7007261673523249e-05 0 -2.6900499435280164e-05 5.7295522149148408e-05 0 -3.9418576002394952e-05 4.7007261673523249e-05 0 -2.3012192969358784e-05 3.1054081468918781e-05 0 -5.6563281188280261e-05 7.1406931183443003e-05 0 -5.548778932683159e-05 4.8212123868224555e-05 0 -3.9418576002394952e-05 4.7007261673523249e-05 0 -2.6900499435280164e-05 5.7295522149148408e-05 0 -5.6563281188280261e-05 7.1406931183443003e-05 0 -3.9418576002394952e-05 4.7007261673523249e-05 0 -3.7010874576537811e-05 3.2446500252406069e-05 0 -3.9418576002394952e-05 4.7007261673523249e-05 0 -5.548778932683159e-05 4.8212123868224555e-05 0 -3.7010874576537811e-05 3.2446500252406069e-05 0 -5.548778932683159e-05 4.8212123868224555e-05 0 -5.1589820709068702e-05 3.3263244193500595e-05 0 -8.1541052965877951e-05 6.4848989936051087e-05 0 -5.548778932683159e-05 4.8212123868224555e-05 0 -5.6563281188280261e-05 7.1406931183443003e-05 0 -8.1541052965877951e-05 6.4848989936051087e-05 0 -6.9232173946099743e-05 4.291341766800704e-05 0 -5.548778932683159e-05 4.8212123868224555e-05 0 -6.9232173946099743e-05 4.291341766800704e-05 0 -5.1589820709068702e-05 3.3263244193500595e-05 0 -5.548778932683159e-05 4.8212123868224555e-05 0 -6.9232173946099743e-05 4.291341766800704e-05 0 -5.6587652145223239e-05 2.6186583869204737e-05 0 -5.1589820709068702e-05 3.3263244193500595e-05 0 -5.6587652145223239e-05 2.6186583869204737e-05 0 -3.9209430176517024e-05 2.1608939658372847e-05 0 -5.1589820709068702e-05 3.3263244193500595e-05 0 -3.7010874576537811e-05 3.2446500252406069e-05 0 -5.1589820709068702e-05 3.3263244193500595e-05 0 -3.9209430176517024e-05 2.1608939658372847e-05 0 -5.6587652145223239e-05 2.6186583869204737e-05 0 -3.9313975634285086e-05 1.4667877567726856e-05 0 -3.9209430176517024e-05 2.1608939658372847e-05 0 1.8662262651101821e-05 4.931459381486568e-06 0 2.108430452675382e-05 6.5485897453413143e-06 0 1.8685253490305137e-05 4.7258171076208439e-06 0 2.2356812359408577e-05 7.4825522707087337e-06 0 1.8685253490305137e-05 4.7258171076208439e-06 0 2.108430452675382e-05 6.5485897453413143e-06 0 2.2356812359408577e-05 7.4825522707087337e-06 0 2.108430452675382e-05 6.5485897453413143e-06 0 2.4647599645132966e-05 9.3364224383591127e-06 0 1.8662262651101821e-05 4.931459381486568e-06 0 1.9919729777897618e-05 5.3979738297143796e-06 0 2.108430452675382e-05 6.5485897453413143e-06 0 1.7418708489484496e-05 2.9669258390700727e-06 0 1.9919729777897618e-05 5.3979738297143796e-06 0 1.6661667759499177e-05 3.7933808589971846e-06 0 1.8662262651101821e-05 4.931459381486568e-06 0 1.6661667759499177e-05 3.7933808589971846e-06 0 1.9919729777897618e-05 5.3979738297143796e-06 0 1.7418708489484496e-05 2.9669258390700727e-06 0 1.6661667759499177e-05 3.7933808589971846e-06 0 1.5114403888143903e-05 2.2013641319138569e-06 0 1.8662262651101821e-05 4.931459381486568e-06 0 1.6164810238754216e-05 3.6853049438830271e-06 0 1.6661667759499177e-05 3.7933808589971846e-06 0 1.3853231630999559e-05 3.0577430869041651e-06 0 1.6661667759499177e-05 3.7933808589971846e-06 0 1.6164810238754216e-05 3.6853049438830271e-06 0 1.3526596330057558e-05 2.5096338346580631e-06 0 1.6661667759499177e-05 3.7933808589971846e-06 0 1.3853231630999559e-05 3.0577430869041651e-06 0 1.3853231630999559e-05 3.0577430869041651e-06 0 1.3442981589589576e-05 2.6852913501845546e-06 0 1.1410016559733781e-05 2.7516050797203701e-06 0 1.3853231630999559e-05 3.0577430869041651e-06 0 1.6164810238754216e-05 3.6853049438830271e-06 0 1.3442981589589575e-05 2.6852913501845546e-06 0 1.5096141018131773e-05 2.633043100655006e-06 0 1.3442981589589575e-05 2.6852913501845546e-06 0 1.6164810238754216e-05 3.6853049438830271e-06 0 1.8662262651101821e-05 4.931459381486568e-06 0 1.8685253490305137e-05 4.7258171076208439e-06 0 1.6164810238754216e-05 3.6853049438830271e-06 0 1.5096141018131773e-05 2.633043100655006e-06 0 1.6164810238754216e-05 3.6853049438830271e-06 0 1.8685253490305137e-05 4.7258171076208439e-06 0 1.5096141018131773e-05 2.633043100655006e-06 0 1.8685253490305137e-05 4.7258171076208439e-06 0 1.5527702740573038e-05 2.2951707354329421e-06 0 1.5096141018131773e-05 2.633043100655006e-06 0 1.5527702740573035e-05 2.2951707354329417e-06 0 1.3524698980875938e-05 1.386513377723098e-06 0 1.0781179129789405e-05 -6.1038220227649965e-07 0 1.5527702740573038e-05 2.2951707354329421e-06 0 1.1922471161452705e-05 3.4868522241730742e-07 0 1.6065091867624618e-05 3.6411932746466566e-06 0 1.5527702740573038e-05 2.2951707354329421e-06 0 1.895752145237572e-05 4.9645324835418426e-06 0 1.6065091867624618e-05 3.6411932746466566e-06 0 1.1922471161452705e-05 3.4868522241730752e-07 0 1.5527702740573038e-05 2.2951707354329421e-06 0 1.5527702740573038e-05 2.2951707354329421e-06 0 1.8685253490305137e-05 4.7258171076208439e-06 0 1.895752145237572e-05 4.9645324835418426e-06 0 7.928561257731718e-06 -9.9570711720587044e-07 0 1.1922471161452705e-05 3.4868522241730742e-07 0 1.0841458140757055e-05 1.7238988733250885e-06 0 1.6065091867624618e-05 3.6411932746466566e-06 0 1.0841458140757053e-05 1.7238988733250882e-06 0 1.1922471161452705e-05 3.4868522241730742e-07 0 1.6065091867624618e-05 3.6411932746466566e-06 0 1.5730096995449982e-05 7.0092501876831573e-06 0 1.0841458140757055e-05 1.7238988733250885e-06 0 1.6065091867624618e-05 3.6411932746466566e-06 0 2.1999038005260784e-05 8.3988489339046781e-06 0 1.5730096995449982e-05 7.0092501876831573e-06 0 2.1165334753713435e-05 1.3622516669267619e-05 0 1.5730096995449982e-05 7.0092501876831573e-06 0 2.1999038005260784e-05 8.3988489339046781e-06 0 2.2356812359408577e-05 7.4825522707087337e-06 0 1.895752145237572e-05 4.9645324835418426e-06 0 1.8685253490305137e-05 4.7258171076208439e-06 0 1.6065091867624618e-05 3.6411932746466566e-06 0 1.895752145237572e-05 4.9645324835418426e-06 0 2.1999038005260784e-05 8.3988489339046781e-06 0 2.2356812359408577e-05 7.4825522707087337e-06 0 2.1999038005260784e-05 8.3988489339046781e-06 0 1.895752145237572e-05 4.9645324835418426e-06 0 2.2356812359408577e-05 7.4825522707087337e-06 0 2.6127606917064662e-05 1.1191616153810069e-05 0 2.1999038005260784e-05 8.3988489339046781e-06 0 2.2356812359408577e-05 7.4825522707087337e-06 0 2.4647599645132966e-05 9.3364224383591127e-06 0 2.6127606917064662e-05 1.1191616153810069e-05 0 2.1999038005260784e-05 8.3988489339046781e-06 0 2.6127606917064662e-05 1.1191616153810069e-05 0 3.0588484984196194e-05 1.6443995561030274e-05 0 2.9172158491341726e-05 1.3108650498465061e-05 0 3.0588484984196194e-05 1.6443995561030274e-05 0 2.6127606917064662e-05 1.1191616153810069e-05 0 2.9172158491341726e-05 1.3108650498465061e-05 0 2.4647599645132966e-05 9.3364224383591127e-06 0 2.5444364827651754e-05 9.1442439231457971e-06 0 2.9172158491341726e-05 1.3108650498465061e-05 0 2.6127606917064659e-05 1.1191616153810067e-05 0 2.4647599645132966e-05 9.3364224383591127e-06 0 2.1165334753713435e-05 1.3622516669267619e-05 0 2.1999038005260784e-05 8.3988489339046781e-06 0 3.0588484984196194e-05 1.6443995561030274e-05 0 2.1165334753713435e-05 1.3622516669267619e-05 0 3.0588484984196194e-05 1.6443995561030274e-05 0 2.6599137130296106e-05 2.3312311710260817e-05 0 2.1165334753713435e-05 1.3622516669267619e-05 0 2.6599137130296106e-05 2.3312311710260817e-05 0 1.5464635475831275e-05 1.9293726863357687e-05 0 4.4242027287086037e-05 2.7514451810495088e-05 0 2.6599137130296106e-05 2.3312311710260817e-05 0 3.0588484984196194e-05 1.6443995561030274e-05 0 4.4242027287086037e-05 2.7514451810495088e-05 0 2.4040252596297313e-05 4.7644648024030215e-05 0 2.6599137130296106e-05 2.3312311710260817e-05 0 4.4242027287086037e-05 2.7514451810495088e-05 0 3.0588484984196194e-05 1.6443995561030274e-05 0 3.31987360900974e-05 1.7541183887072273e-05 0 2.9172158491341726e-05 1.3108650498465061e-05 0 2.7123109343630783e-05 9.5605989627626293e-06 0 3.31987360900974e-05 1.7541183887072273e-05 0 2.9172158491341726e-05 1.3108650498465061e-05 0 2.5444364827651754e-05 9.1442439231457971e-06 0 2.7123109343630783e-05 9.5605989627626293e-06 0 2.9172158491341726e-05 1.3108650498465061e-05 0 3.31987360900974e-05 1.7541183887072273e-05 0 3.0588484984196194e-05 1.6443995561030274e-05 0 2.8828935974908363e-05 5.1706845838668814e-06 0 3.31987360900974e-05 1.7541183887072273e-05 0 2.7123109343630783e-05 9.5605989627626293e-06 0 2.8828935974908363e-05 5.1706845838668814e-06 0 2.7123109343630783e-05 9.5605989627626293e-06 0 2.5279786574098186e-05 -8.913718027246884e-07 0 2.2795891090312301e-05 4.4277496128330281e-06 0 2.5279786574098186e-05 -8.913718027246884e-07 0 2.7123109343630783e-05 9.5605989627626293e-06 0 2.2795891090312301e-05 4.4277496128330281e-06 0 2.7123109343630783e-05 9.5605989627626293e-06 0 2.5444364827651754e-05 9.1442439231457971e-06 0 2.2684805739838492e-05 7.3066729387475232e-06 0 2.5444364827651754e-05 9.1442439231457971e-06 0 2.4647599645132966e-05 9.3364224383591127e-06 0 2.5444364827651754e-05 9.1442439231457971e-06 0 2.2684805739838492e-05 7.3066729387475232e-06 0 2.2795891090312301e-05 4.4277496128330281e-06 0 2.2684805739838492e-05 7.3066729387475232e-06 0 2.005469382093055e-05 3.7097610298993072e-06 0 2.2795891090312301e-05 4.4277496128330281e-06 0 2.2684805739838492e-05 7.3066729387475232e-06 0 1.9919729777897618e-05 5.3979738297143796e-06 0 2.005469382093055e-05 3.7097610298993068e-06 0 2.2684805739838492e-05 7.3066729387475232e-06 0 2.108430452675382e-05 6.5485897453413143e-06 0 1.9919729777897618e-05 5.3979738297143796e-06 0 2.2684805739838492e-05 7.3066729387475232e-06 0 2.4647599645132966e-05 9.3364224383591127e-06 0 2.108430452675382e-05 6.5485897453413143e-06 0 1.7418708489484496e-05 2.9669258390700727e-06 0 2.005469382093055e-05 3.7097610298993068e-06 0 1.9919729777897618e-05 5.3979738297143796e-06 0 1.7418708489484496e-05 2.9669258390700727e-06 0 1.6696342398172116e-05 -2.3493663846319279e-07 0 2.005469382093055e-05 3.7097610298993068e-06 0 2.2795891090312301e-05 4.4277496128330281e-06 0 1.9147745935383823e-05 -1.005226120865468e-06 0 2.188400032969992e-05 -7.03145573992769e-06 0 1.6594006948512916e-05 -4.9510372833437009e-06 0 1.9147745935383823e-05 -1.005226120865468e-06 0 1.6696342398172116e-05 -2.3493663846319279e-07 0 1.6696342398172116e-05 -2.3493663846319279e-07 0 1.9147745935383823e-05 -1.005226120865468e-06 0 2.005469382093055e-05 3.7097610298993068e-06 0 2.2795891090312301e-05 4.4277496128330281e-06 0 2.005469382093055e-05 3.7097610298993068e-06 0 1.9147745935383823e-05 -1.005226120865468e-06 0 1.6594006948512916e-05 -4.9510372833437009e-06 0 1.8629726122430308e-05 -9.1831888867924562e-06 0 1.9147745935383823e-05 -1.005226120865468e-06 0 2.188400032969992e-05 -7.03145573992769e-06 0 1.9147745935383823e-05 -1.005226120865468e-06 0 1.8629726122430308e-05 -9.1831888867924562e-06 0 2.188400032969992e-05 -7.03145573992769e-06 0 1.8629726122430308e-05 -9.1831888867924562e-06 0 2.3145768580977622e-05 -1.4774318364543808e-05 0 2.6723640368631143e-05 -1.406035693458976e-05 0 2.1884000329699917e-05 -7.0314557399276908e-06 0 2.3145768580977622e-05 -1.4774318364543808e-05 0 1.9592545097175759e-05 -1.5633279136091768e-05 0 2.3145768580977622e-05 -1.4774318364543808e-05 0 1.8629726122430308e-05 -9.1831888867924562e-06 0 1.9592545097175759e-05 -1.5633279136091768e-05 0 2.5919448669276259e-05 -2.2850814307361365e-05 0 2.3145768580977622e-05 -1.4774318364543808e-05 0 2.6723640368631143e-05 -1.406035693458976e-05 0 2.3145768580977622e-05 -1.4774318364543808e-05 0 2.5919448669276259e-05 -2.2850814307361368e-05 0 1.9592545097175759e-05 -1.5633279136091768e-05 0 2.0217216775395821e-05 -2.172241634699359e-05 0 2.5919448669276259e-05 -2.2850814307361368e-05 0 3.9674866658555691e-05 -2.7568334109116076e-05 0 3.5180867393023908e-05 -1.9860643370276379e-05 0 3.3438414201258803e-05 -2.5527369088191082e-05 0 2.6723640368631143e-05 -1.406035693458976e-05 0 3.3438414201258803e-05 -2.5527369088191082e-05 0 3.5180867393023908e-05 -1.9860643370276379e-05 0 2.6723640368631143e-05 -1.406035693458976e-05 0 2.5919448669276259e-05 -2.2850814307361368e-05 0 3.3438414201258803e-05 -2.5527369088191082e-05 0 2.6723640368631143e-05 -1.406035693458976e-05 0 3.5180867393023901e-05 -1.9860643370276379e-05 0 3.0122906603286476e-05 -6.6855693039188225e-06 0 2.2795891090312301e-05 4.4277496128330281e-06 0 2.1884000329699924e-05 -7.0314557399276883e-06 0 2.5279786574098186e-05 -8.913718027246884e-07 0 2.6723640368631143e-05 -1.406035693458976e-05 0 3.0122906603286476e-05 -6.68556930391882e-06 0 2.5279786574098186e-05 -8.913718027246884e-07 0 2.6723640368631143e-05 -1.406035693458976e-05 0 2.5279786574098186e-05 -8.913718027246884e-07 0 2.188400032969992e-05 -7.03145573992769e-06 0 2.8828935974908363e-05 5.1706845838668814e-06 0 2.5279786574098186e-05 -8.913718027246884e-07 0 3.0122906603286476e-05 -6.6855693039188225e-06 0 2.8828935974908363e-05 5.1706845838668814e-06 0 3.3985195750256574e-05 4.8000805929142195e-06 0 3.31987360900974e-05 1.7541183887072273e-05 0 2.8828935974908363e-05 5.1706845838668814e-06 0 3.0122906603286476e-05 -6.6855693039188217e-06 0 3.3985195750256574e-05 4.8000805929142187e-06 0 4.4242027287086037e-05 2.7514451810495088e-05 0 3.31987360900974e-05 1.7541183887072277e-05 0 3.3985195750256574e-05 4.8000805929142187e-06 0 4.8454622759130154e-05 -6.5662346067891191e-06 0 3.3985195750256574e-05 4.8000805929142187e-06 0 3.9755421810896339e-05 -1.4538951296921354e-05 0 3.9755421810896339e-05 -1.4538951296921354e-05 0 3.3985195750256574e-05 4.8000805929142187e-06 0 3.0122906603286476e-05 -6.6855693039188225e-06 0 2.4040252596297313e-05 4.7644648024030215e-05 0 4.4242027287086037e-05 2.7514451810495088e-05 0 3.5046274943809557e-05 8.2500925030464675e-05 0 4.4242027287086037e-05 2.7514451810495088e-05 0 3.3985195750256574e-05 4.8000805929142187e-06 0 4.8454622759130154e-05 -6.5662346067891191e-06 0 2.2434087732281928e-05 2.3827637095296871e-05 0 6.3391318281866198e-05 4.0118912303642988e-05 0 4.4242027287086037e-05 2.7514451810495088e-05 0 6.3529498119065223e-05 8.0817948835270548e-05 0 3.5046274943809557e-05 8.2500925030464675e-05 0 7.3506892844966957e-05 0.00011900314222209071 0 3.3258048822787914e-05 0.00011494827397684547 0 3.5046274943809557e-05 8.2500925030464675e-05 0 6.3391318281866198e-05 4.0118912303642988e-05 0 6.0281594496786232e-05 4.8625212955477148e-05 0 4.8454622759130154e-05 -6.5662346067891191e-06 0 3.9755421810896339e-05 -1.4538951296921354e-05 0 4.9565848664140492e-05 -1.9253879004036805e-05 0 6.3529498119065223e-05 8.0817948835270548e-05 0 7.3506892844966957e-05 0.00011900314222209071 0 3.5046274943809557e-05 8.2500925030464675e-05 0 6.0281594496786232e-05 4.8625212955477148e-05 0 6.7220359647936578e-05 6.4307512533391101e-05 0 4.9565848664140492e-05 -1.9253879004036805e-05 0 4.4524080266974968e-05 -2.4746104345668655e-05 0 5.1309465301510409e-05 -2.6907011600318435e-05 0 7.3506892844966957e-05 0.00011900314222209071 0 5.5609225632411066e-05 0.00014235899831581235 0 3.3258048822787914e-05 0.00011494827397684547 0 3.9755421810896339e-05 -1.4538951296921354e-05 0 3.0122906603286476e-05 -6.6855693039188225e-06 0 3.5180867393023908e-05 -1.9860643370276379e-05 0 4.9565848664140492e-05 -1.9253879004036805e-05 0 3.9755421810896339e-05 -1.4538951296921352e-05 0 4.4524080266974968e-05 -2.4746104345668655e-05 0 3.9755421810896339e-05 -1.4538951296921354e-05 0 3.5180867393023908e-05 -1.9860643370276379e-05 0 4.4524080266974968e-05 -2.4746104345668655e-05 0 3.9674866658555691e-05 -2.7568334109116076e-05 0 4.4524080266974968e-05 -2.4746104345668655e-05 0 3.5180867393023908e-05 -1.9860643370276379e-05 0 3.9674866658555691e-05 -2.7568334109116076e-05 0 4.6780476152339334e-05 -3.2233063395782962e-05 0 4.4524080266974968e-05 -2.4746104345668655e-05 0 5.1309465301510409e-05 -2.6907011600318435e-05 0 4.4524080266974968e-05 -2.4746104345668651e-05 0 4.6780476152339334e-05 -3.2233063395782962e-05 0 5.1309465301510409e-05 -2.6907011600318435e-05 0 4.6780476152339334e-05 -3.2233063395782962e-05 0 5.4213302961607581e-05 -3.2658403469943041e-05 0 3.9674866658555691e-05 -2.7568334109116076e-05 0 4.0108995756899376e-05 -3.2766334392781346e-05 0 4.6780476152339334e-05 -3.2233063395782962e-05 0 3.1974278942326833e-05 0.00015329876093030109 0 5.5609225632411066e-05 0.00014235899831581235 0 6.1595695961037195e-05 0.00016587938527898812 0 8.1813237875637371e-05 0.00015455663570724889 0 6.1595695961037195e-05 0.00016587938527898812 0 5.5609225632411066e-05 0.00014235899831581235 0 7.3506892844966957e-05 0.00011900314222209071 0 8.1813237875637371e-05 0.00015455663570724889 0 5.5609225632411066e-05 0.00014235899831581235 0 6.7220359647936578e-05 6.4307512533391101e-05 0 7.1577923746055298e-05 7.893969185604546e-05 0 8.1813237875637371e-05 0.00015455663570724889 0 8.9114734308791725e-05 0.00019091462162412778 0 6.1595695961037195e-05 0.00016587938527898812 0 8.9114734308791711e-05 0.00019091462162412778 0 5.0325632950093925e-05 0.0001866084122762622 0 6.1595695961037195e-05 0.00016587938527898812 0 8.9114734308791711e-05 0.00019091462162412778 0 6.3485279941132009e-05 0.00021168595083602076 0 5.0325632950093925e-05 0.0001866084122762622 0 8.9114734308791711e-05 0.00019091462162412778 0 9.5937820095501477e-05 0.00022822315181909432 0 6.3485279941132009e-05 0.00021168595083602076 0 5.4213302961607581e-05 -3.2658403469943041e-05 0 5.1914842348675591e-05 -3.7585767570594419e-05 0 5.7775853524116668e-05 -3.7784432135194981e-05 0 7.1577923746055298e-05 7.893969185604546e-05 0 7.6655549489519753e-05 9.5240018262391507e-05 0 9.5937820095501477e-05 0.00022822315181909432 0 5.7585072687069056e-05 0.00023790659416334095 0 6.3485279941132009e-05 0.00021168595083602076 0 4.5714255476091728e-05 -3.7738254554592808e-05 0 5.1914842348675591e-05 -3.7585767570594419e-05 0 4.6780476152339334e-05 -3.2233063395782962e-05 0 4.5714255476091728e-05 -3.7738254554592808e-05 0 4.6780476152339334e-05 -3.2233063395782962e-05 0 4.0108995756899376e-05 -3.2766334392781346e-05 0 5.4213302961607581e-05 -3.2658403469943041e-05 0 4.6780476152339334e-05 -3.2233063395782962e-05 0 5.1914842348675591e-05 -3.7585767570594419e-05 0 4.5714255476091728e-05 -3.7738254554592808e-05 0 4.7793156158827773e-05 -4.2342095930860337e-05 0 5.1914842348675591e-05 -3.7585767570594419e-05 0 5.5423404515275668e-05 -4.3432003448198724e-05 0 5.1914842348675591e-05 -3.7585767570594419e-05 0 4.7793156158827773e-05 -4.2342095930860337e-05 0 4.5714255476091728e-05 -3.7738254554592808e-05 0 3.857112651486596e-05 -3.8609744028250166e-05 0 4.7793156158827773e-05 -4.2342095930860337e-05 0 4.449896299289601e-05 -4.5908269114059292e-05 0 4.7793156158827773e-05 -4.2342095930860337e-05 0 3.857112651486596e-05 -3.8609744028250166e-05 0 4.5714255476091728e-05 -3.7738254554592808e-05 0 4.0108995756899376e-05 -3.2766334392781346e-05 0 3.857112651486596e-05 -3.8609744028250166e-05 0 3.4189767538727292e-05 -3.2055119168327709e-05 0 2.9178556445640329e-05 -3.1735384447625698e-05 0 3.857112651486596e-05 -3.8609744028250166e-05 0 3.4189767538727292e-05 -3.2055119168327709e-05 0 3.857112651486596e-05 -3.8609744028250166e-05 0 4.0108995756899376e-05 -3.2766334392781346e-05 0 3.0519487358208034e-05 -3.7518159295085683e-05 0 3.7023505574608065e-05 -4.5821818085584377e-05 0 3.857112651486596e-05 -3.8609744028250166e-05 0 3.0519487358208034e-05 -3.7518159295085683e-05 0 2.7908631351982201e-05 -4.062801513467903e-05 0 3.7023505574608065e-05 -4.5821818085584377e-05 0 3.0519487358208034e-05 -3.7518159295085683e-05 0 2.9178556445640329e-05 -3.1735384447625698e-05 0 2.4486772643099375e-05 -3.3660499439577632e-05 0 3.0519487358208034e-05 -3.7518159295085683e-05 0 3.857112651486596e-05 -3.8609744028250166e-05 0 2.9178556445640329e-05 -3.1735384447625698e-05 0 3.4189767538727292e-05 -3.2055119168327709e-05 0 2.5919448669276262e-05 -2.2850814307361368e-05 0 2.9178556445640329e-05 -3.1735384447625698e-05 0 2.3836072897163234e-05 -2.7726342391561069e-05 0 2.4486772643099375e-05 -3.3660499439577632e-05 0 2.9178556445640329e-05 -3.1735384447625698e-05 0 2.3836072897163234e-05 -2.7726342391561069e-05 0 2.9178556445640329e-05 -3.1735384447625698e-05 0 2.5919448669276259e-05 -2.2850814307361368e-05 0 2.3836072897163234e-05 -2.7726342391561069e-05 0 2.5919448669276259e-05 -2.2850814307361368e-05 0 2.0217216775395821e-05 -2.172241634699359e-05 0 3.4189767538727292e-05 -3.2055119168327709e-05 0 3.3438414201258803e-05 -2.5527369088191082e-05 0 2.5919448669276259e-05 -2.2850814307361368e-05 0 3.9674866658555691e-05 -2.7568334109116076e-05 0 3.3438414201258803e-05 -2.5527369088191082e-05 0 4.0108995756899376e-05 -3.2766334392781346e-05 0 3.4189767538727292e-05 -3.2055119168327709e-05 0 4.0108995756899376e-05 -3.2766334392781346e-05 0 3.3438414201258803e-05 -2.5527369088191082e-05 0 -0.00010260245853206985 0.00012344231922786374 0 -7.5620870771657821e-05 0.00010409085937493829 0 -7.485043082852756e-05 0.00013506053672548122 0 -0.00011030033254485247 0.00015826566601422564 0 -0.00010260245853206985 0.00012344231922786374 0 -7.485043082852756e-05 0.00013506053672548122 0 -5.3094556634401499e-05 0.00010415664722738057 0 -7.485043082852756e-05 0.00013506053672548122 0 -7.5620870771657821e-05 0.00010409085937493829 0 -0.00010260245853206985 0.00012344231922786374 0 -9.2330856240365928e-05 9.1761698568829103e-05 0 -7.5620870771657821e-05 0.00010409085937493829 0 -9.2330856240365928e-05 9.1761698568829103e-05 0 -8.1541052965877951e-05 6.4848989936051087e-05 0 -5.6563281188280261e-05 7.1406931183443003e-05 0 -5.3094556634401499e-05 0.00010415664722738057 0 -7.5620870771657821e-05 0.00010409085937493829 0 -5.6563281188280261e-05 7.1406931183443003e-05 0 -9.2330856240365928e-05 9.1761698568829103e-05 0 -5.6563281188280261e-05 7.1406931183443003e-05 0 -7.5620870771657821e-05 0.00010409085937493829 0 -5.3094556634401499e-05 0.00010415664722738057 0 -5.6563281188280261e-05 7.1406931183443003e-05 0 -3.6306128392119928e-05 8.4699821549613004e-05 0 -2.6900499435280164e-05 5.7295522149148408e-05 0 -3.6306128392119928e-05 8.4699821549613004e-05 0 -5.6563281188280261e-05 7.1406931183443003e-05 0 -1.6356743325155135e-05 8.9204815501586773e-05 0 -3.4116389665819885e-05 0.00010692638294710084 0 -3.6306128392119928e-05 8.4699821549613004e-05 0 -5.3094556634401499e-05 0.00010415664722738057 0 -3.6306128392119928e-05 8.4699821549613004e-05 0 -3.4116389665819885e-05 0.00010692638294710084 0 -5.3094556634401499e-05 0.00010415664722738057 0 -3.4116389665819885e-05 0.00010692638294710084 0 -4.5284185492926421e-05 0.00013225379159414804 0 -5.3094556634401499e-05 0.00010415664722738057 0 -4.5284185492926421e-05 0.00013225379159414804 0 -7.485043082852756e-05 0.00013506053672548122 0 -1.9191537672304581e-05 0.00012760634823692698 0 -4.5284185492926421e-05 0.00013225379159414804 0 -3.4116389665819885e-05 0.00010692638294710084 0 -1.9191537672304581e-05 0.00012760634823692698 0 6.4499062815961546e-06 0.00011952602778573801 0 -3.7734526924699652e-07 0.00015465065263020993 0 -1.9191537672304581e-05 0.00012760634823692698 0 -1.6356743325155135e-05 8.9204815501586773e-05 0 6.4499062815961546e-06 0.00011952602778573801 0 1.0094400689967338e-05 7.935359194020109e-05 0 6.449906281596152e-06 0.00011952602778573802 0 -1.6356743325155135e-05 8.9204815501586773e-05 0 -1.9191537672304581e-05 0.00012760634823692698 0 -3.4116389665819885e-05 0.00010692638294710084 0 -1.6356743325155135e-05 8.9204815501586773e-05 0 -2.6900499435280164e-05 5.7295522149148408e-05 0 -1.6356743325155135e-05 8.9204815501586773e-05 0 -3.6306128392119928e-05 8.4699821549613004e-05 0 -2.6900499435280164e-05 5.7295522149148408e-05 0 -5.2966800558768271e-06 5.5655675443789273e-05 0 -1.6356743325155135e-05 8.9204815501586773e-05 0 1.0094400689967338e-05 7.935359194020109e-05 0 -1.6356743325155135e-05 8.9204815501586773e-05 0 -5.2966800558768263e-06 5.5655675443789273e-05 0 1.0094400689967338e-05 7.935359194020109e-05 0 -5.2966800558768288e-06 5.565567544378928e-05 0 1.0133229305942733e-05 5.2426043950660957e-05 0 1.0094400689967338e-05 7.935359194020109e-05 0 1.013322930594273e-05 5.2426043950660957e-05 0 2.4040252596297313e-05 4.7644648024030215e-05 0 1.0094400689967338e-05 7.935359194020109e-05 0 2.4040252596297313e-05 4.7644648024030215e-05 0 3.5046274943809557e-05 8.2500925030464675e-05 0 1.0094400689967338e-05 7.935359194020109e-05 0 3.5046274943809557e-05 8.2500925030464675e-05 0 3.3258048822787914e-05 0.00011494827397684547 0 1.0094400689967338e-05 7.935359194020109e-05 0 3.3258048822787914e-05 0.00011494827397684547 0 6.4499062815961546e-06 0.00011952602778573801 0 3.1974278942326833e-05 0.00015329876093030109 0 6.4499062815961546e-06 0.00011952602778573801 0 3.3258048822787914e-05 0.00011494827397684547 0 3.1974278942326833e-05 0.00015329876093030109 0 3.3258048822787914e-05 0.00011494827397684547 0 5.5609225632411066e-05 0.00014235899831581235 0 3.1974278942326833e-05 0.00015329876093030109 0 -3.7734526924699911e-07 0.0001546506526302099 0 6.4499062815961546e-06 0.00011952602778573801 0 3.1974278942326833e-05 0.00015329876093030109 0 1.9338367491529408e-05 0.00017786423421655353 0 -3.7734526924699652e-07 0.00015465065263020993 0 3.1974278942326833e-05 0.00015329876093030109 0 5.0325632950093925e-05 0.0001866084122762622 0 1.9338367491529408e-05 0.00017786423421655353 0 3.1974278942326833e-05 0.00015329876093030109 0 6.1595695961037195e-05 0.00016587938527898812 0 5.0325632950093925e-05 0.0001866084122762622 0 5.0325632950093925e-05 0.0001866084122762622 0 6.3485279941132009e-05 0.00021168595083602076 0 2.5477393244847151e-05 0.00021248137210705143 0 6.3485279941132009e-05 0.00021168595083602076 0 5.7585072687069056e-05 0.00023790659416334095 0 2.5477393244847151e-05 0.00021248137210705143 0 2.5477393244847151e-05 0.00021248137210705143 0 1.9338367491529408e-05 0.00017786423421655353 0 5.0325632950093925e-05 0.0001866084122762622 0 2.5477393244847151e-05 0.00021248137210705143 0 -9.7629909240457881e-06 0.00018271163817137412 0 1.9338367491529408e-05 0.00017786423421655353 0 2.5477393244847151e-05 0.00021248137210705143 0 -1.4399413869785655e-05 0.00021567110914383724 0 -9.7629909240457881e-06 0.00018271163817137412 0 2.5477393244847151e-05 0.00021248137210705143 0 -4.9543612273370696e-06 0.00024779854652243947 0 -1.4399413869785655e-05 0.00021567110914383724 0 -4.1504147360335639e-05 0.00021285992213264054 0 -9.7629909240457898e-06 0.00018271163817137412 0 -1.4399413869785655e-05 0.00021567110914383724 0 -4.1504147360335639e-05 0.00021285992213264054 0 -3.2586985582449674e-05 0.00016532907518509611 0 -9.7629909240457881e-06 0.00018271163817137412 0 -9.7629909240457881e-06 0.00018271163817137412 0 -3.2586985582449674e-05 0.00016532907518509611 0 -3.7734526924699652e-07 0.00015465065263020993 0 -9.7629909240457881e-06 0.00018271163817137412 0 -3.7734526924699652e-07 0.00015465065263020993 0 1.9338367491529408e-05 0.00017786423421655353 0 -1.9191537672304581e-05 0.00012760634823692698 0 -3.7734526924699652e-07 0.00015465065263020993 0 -3.2586985582449674e-05 0.00016532907518509611 0 -1.9191537672304581e-05 0.00012760634823692698 0 -3.2586985582449674e-05 0.00016532907518509611 0 -4.5284185492926421e-05 0.00013225379159414804 0 -5.8826179845958427e-05 0.00015928878761456037 0 -4.5284185492926421e-05 0.00013225379159414804 0 -3.2586985582449674e-05 0.00016532907518509611 0 -5.8826179845958427e-05 0.00015928878761456037 0 -7.485043082852756e-05 0.00013506053672548122 0 -4.5284185492926421e-05 0.00013225379159414804 0 -5.8826179845958427e-05 0.00015928878761456037 0 -5.9484718991004166e-05 0.000185673177658109 0 -8.4858427813396423e-05 0.00017909941607354958 0 -5.8826179845958427e-05 0.00015928878761456037 0 -3.2586985582449674e-05 0.00016532907518509611 0 -5.9484718991004166e-05 0.000185673177658109 0 -4.1504147360335639e-05 0.00021285992213264054 0 -5.9484718991004173e-05 0.000185673177658109 0 -3.2586985582449674e-05 0.00016532907518509611 0 -4.1504147360335639e-05 0.00021285992213264054 0 -1.4399413869785655e-05 0.00021567110914383724 0 -3.752316897248369e-05 0.00024803432719855683 0 -4.1504147360335639e-05 0.00021285992213264054 0 -6.30733263223864e-05 0.00023903071645992139 0 -8.092729997936995e-05 0.00021374645255025404 0 -4.1504147360335639e-05 0.00021285992213264054 0 -8.092729997936995e-05 0.00021374645255025404 0 -5.9484718991004166e-05 0.000185673177658109 0 -8.092729997936995e-05 0.00021374645255025404 0 -8.4858427813396423e-05 0.00017909941607354958 0 -5.9484718991004166e-05 0.000185673177658109 0 -0.00012043487429575402 0.00023495586103816648 0 -0.00011635296484153128 0.00019585741299137677 0 -8.092729997936995e-05 0.00021374645255025404 0 -0.00012043487429575402 0.00023495586103816648 0 -8.092729997936995e-05 0.00021374645255025404 0 -9.0065744184074904e-05 0.00025058878924014269 0 -0.00011635296484153128 0.00019585741299137677 0 -8.4858427813396423e-05 0.00017909941607354958 0 -8.092729997936995e-05 0.00021374645255025404 0 -0.00011635296484153128 0.00019585741299137677 0 -0.00011030033254485247 0.00015826566601422564 0 -8.4858427813396423e-05 0.00017909941607354958 0 -5.8826179845958427e-05 0.00015928878761456037 0 -8.4858427813396423e-05 0.00017909941607354958 0 -7.485043082852756e-05 0.00013506053672548122 0 -0.00011030033254485247 0.00015826566601422564 0 -7.485043082852756e-05 0.00013506053672548122 0 -8.4858427813396423e-05 0.00017909941607354958 0 -0.00012515504110606812 0.00031651611383353773 0 -7.3155969425695724e-05 0.00031699003157026464 0 -8.8008655402765942e-05 0.0003570622558103363 0 -0.00012515504110606812 0.00031651611383353773 0 -9.4590922669456613e-05 0.00028670863458853205 0 -7.3155969425695724e-05 0.00031699003157026464 0 -6.5874510868631483e-05 0.00027126216299108903 0 -7.3155969425695724e-05 0.00031699003157026464 0 -9.4590922669456626e-05 0.00028670863458853205 0 -0.00012515504110606812 0.00031651611383353773 0 -0.00012338875573525545 0.00027525631922404675 0 -9.4590922669456626e-05 0.00028670863458853205 0 -0.00012338875573525545 0.00027525631922404675 0 -9.0065744184074904e-05 0.00025058878924014269 0 -9.4590922669456626e-05 0.00028670863458853205 0 -0.00012338875573525545 0.00027525631922404675 0 -0.00012043487429575402 0.00023495586103816648 0 -9.0065744184074904e-05 0.00025058878924014269 0 -8.092729997936995e-05 0.00021374645255025404 0 -6.30733263223864e-05 0.00023903071645992139 0 -9.0065744184074904e-05 0.00025058878924014269 0 -6.5874510868631483e-05 0.00027126216299108903 0 -9.4590922669456626e-05 0.00028670863458853205 0 -9.0065744184074904e-05 0.00025058878924014269 0 -6.5874510868631483e-05 0.00027126216299108903 0 -6.3073326322386387e-05 0.00023903071645992139 0 -3.752316897248369e-05 0.00024803432719855683 0 -6.5874510868631483e-05 0.00027126216299108903 0 -9.0065744184074904e-05 0.00025058878924014269 0 -6.30733263223864e-05 0.00023903071645992139 0 -4.1504147360335639e-05 0.00021285992213264054 0 -3.752316897248369e-05 0.00024803432719855683 0 -6.30733263223864e-05 0.00023903071645992139 0 -6.5874510868631483e-05 0.00027126216299108903 0 -3.752316897248369e-05 0.00024803432719855683 0 -3.6585484469689676e-05 0.00028298661792032346 0 -7.3155969425695724e-05 0.00031699003157026464 0 -3.6585484469689676e-05 0.00028298661792032346 0 -3.3463290561337545e-05 0.00032000385527852966 0 -6.5874510868631483e-05 0.00027126216299108903 0 -3.6585484469689676e-05 0.00028298661792032346 0 -7.3155969425695724e-05 0.00031699003157026464 0 -4.7752101730463788e-05 0.00036076120985752293 0 -7.3155969425695724e-05 0.00031699003157026464 0 -3.3463290561337545e-05 0.00032000385527852966 0 -7.2776997932245427e-06 0.00029540143769814242 0 -2.7723904357099115e-06 0.00034029408932714761 0 -3.3463290561337545e-05 0.00032000385527852966 0 -7.2776997932245427e-06 0.00029540143769814242 0 2.5579679381773708e-05 0.00031129969397240744 0 -2.772390435709917e-06 0.00034029408932714761 0 -7.2776997932245427e-06 0.00029540143769814242 0 1.6617195517451405e-05 0.00027299945023013573 0 2.5579679381773708e-05 0.00031129969397240744 0 -7.2776997932245427e-06 0.00029540143769814242 0 -3.3463290561337545e-05 0.00032000385527852966 0 -3.6585484469689676e-05 0.00028298661792032346 0 -4.9543612273370696e-06 0.00024779854652243947 0 -3.6585484469689676e-05 0.00028298661792032346 0 -3.752316897248369e-05 0.00024803432719855683 0 -7.2776997932245427e-06 0.00029540143769814242 0 -3.6585484469689676e-05 0.00028298661792032346 0 -4.9543612273370696e-06 0.00024779854652243947 0 -4.9543612273370696e-06 0.00024779854652243947 0 -3.752316897248369e-05 0.00024803432719855683 0 -1.4399413869785655e-05 0.00021567110914383724 0 -4.9543612273370696e-06 0.00024779854652243947 0 2.8242177781945705e-05 0.00024899266848908024 0 1.6617195517451405e-05 0.00027299945023013573 0 -7.2776997932245427e-06 0.00029540143769814242 0 -4.9543612273370738e-06 0.00024779854652243947 0 1.6617195517451405e-05 0.00027299945023013573 0 4.6985639743741277e-05 0.00027308126543657148 0 1.6617195517451405e-05 0.00027299945023013573 0 2.8242177781945701e-05 0.00024899266848908024 0 2.5477393244847151e-05 0.00021248137210705143 0 5.7585072687069056e-05 0.00023790659416334095 0 2.8242177781945701e-05 0.00024899266848908024 0 2.5477393244847151e-05 0.00021248137210705143 0 2.8242177781945701e-05 0.00024899266848908024 0 -4.9543612273370696e-06 0.00024779854652243947 0 4.6985639743741277e-05 0.00027308126543657148 0 2.8242177781945701e-05 0.00024899266848908024 0 5.7585072687069056e-05 0.00023790659416334095 0 4.6985639743741277e-05 0.00027308126543657148 0 5.7585072687069056e-05 0.00023790659416334095 0 7.6265789140815955e-05 0.00025824812163806939 0 4.6985639743741277e-05 0.00027308126543657148 0 6.3054950998246999e-05 0.00031564325875906599 0 2.5579679381773708e-05 0.00031129969397240744 0 4.6985639743741277e-05 0.00027308126543657148 0 7.7766952805556107e-05 0.00028449736023019467 0 6.3054950998246999e-05 0.00031564325875906599 0 4.6985639743741277e-05 0.00027308126543657148 0 2.5579679381773708e-05 0.00031129969397240744 0 1.6617195517451405e-05 0.00027299945023013573 0 3.9458571773995305e-05 0.00035742300718971572 0 2.5579679381773708e-05 0.00031129969397240744 0 6.3054950998246999e-05 0.00031564325875906599 0 3.9458571773995305e-05 0.00035742300718971572 0 6.3054950998246999e-05 0.00031564325875906599 0 7.9833441802241431e-05 0.0003519062240084892 0 3.9458571773995305e-05 0.00035742300718971572 0 7.6495830732835758e-05 0.00039002596591634496 0 3.6547099402157039e-05 0.00040121816699841803 0 3.9458571773995305e-05 0.00035742300718971572 0 7.9833441802241444e-05 0.0003519062240084892 0 7.6495830732835771e-05 0.00039002596591634496 0 7.6495830732835771e-05 0.00039002596591634496 0 6.3589977900578402e-05 0.00041757044776711411 0 3.6547099402157039e-05 0.00040121816699841803 0 7.6495830732835771e-05 0.00039002596591634496 0 9.9758494934026355e-05 0.00041181944336469626 0 6.3589977900578402e-05 0.00041757044776711411 0 8.9177142526629188e-05 0.000438805702456493 0 6.3589977900578402e-05 0.00041757044776711411 0 9.9758494934026355e-05 0.00041181944336469626 0 8.9177142526629188e-05 0.000438805702456493 0 4.3762393020606706e-05 0.00044136464432264859 0 6.3589977900578402e-05 0.00041757044776711411 0 4.3762393020606706e-05 0.00044136464432264859 0 3.6547099402157039e-05 0.00040121816699841803 0 6.3589977900578402e-05 0.00041757044776711411 0 1.9200814069559265e-07 0.00044206346920692882 0 -3.9856668156857322e-05 0.00040302044216840831 0 -2.7627350031335007e-06 0.00038778227418094876 0 1.9200814069559265e-07 0.00044206346920692882 0 -2.7627350031335007e-06 0.00038778227418094876 0 3.6547099402157039e-05 0.00040121816699841803 0 4.3762393020606706e-05 0.00044136464432264859 0 1.9200814069559265e-07 0.00044206346920692882 0 3.6547099402157039e-05 0.00040121816699841803 0 -4.7752101730463788e-05 0.00036076120985752293 0 -2.772390435709917e-06 0.00034029408932714761 0 -2.7627350031335007e-06 0.00038778227418094876 0 3.9458571773995305e-05 0.00035742300718971572 0 3.6547099402157039e-05 0.00040121816699841803 0 -2.7627350031335007e-06 0.00038778227418094876 0 3.9458571773995305e-05 0.00035742300718971572 0 -2.7627350031335007e-06 0.00038778227418094876 0 -2.772390435709917e-06 0.00034029408932714761 0 3.9458571773995305e-05 0.00035742300718971572 0 -2.772390435709917e-06 0.00034029408932714761 0 2.5579679381773708e-05 0.00031129969397240744 0 -4.7752101730463788e-05 0.00036076120985752293 0 -3.3463290561337545e-05 0.00032000385527852966 0 -2.772390435709917e-06 0.00034029408932714761 0 -4.7752101730463788e-05 0.00036076120985752293 0 -8.8008655402765942e-05 0.0003570622558103363 0 -7.3155969425695724e-05 0.00031699003157026464 0 -4.7752101730463788e-05 0.00036076120985752293 0 -3.9856668156857315e-05 0.00040302044216840831 0 -7.962515481574384e-05 0.00039500656598781108 0 -4.7752101730463788e-05 0.00036076120985752293 0 -7.962515481574384e-05 0.00039500656598781108 0 -8.8008655402765942e-05 0.0003570622558103363 0 -4.7752101730463788e-05 0.00036076120985752293 0 -2.7627350031334927e-06 0.00038778227418094876 0 -3.9856668156857315e-05 0.00040302044216840831 0 1.9200814069559265e-07 0.00044206346920692882 0 -4.1964360560675019e-05 0.00044226978543746091 0 -3.9856668156857315e-05 0.00040302044216840831 0 -4.1964360560675019e-05 0.00044226978543746091 0 -8.397316144837392e-05 0.00044233846276998712 0 -6.3492753451563179e-05 0.00042056316509956552 0 -4.1964360560675019e-05 0.00044226978543746091 0 -6.3492753451563179e-05 0.00042056316509956552 0 -3.9856668156857315e-05 0.00040302044216840831 0 -7.962515481574384e-05 0.00039500656598781108 0 -3.9856668156857315e-05 0.00040302044216840831 0 -6.3492753451563179e-05 0.00042056316509956552 0 -7.962515481574384e-05 0.00039500656598781108 0 -6.3492753451563179e-05 0.00042056316509956552 0 -9.8183575576913569e-05 0.00041860876111844654 0 -8.397316144837392e-05 0.00044233846276998712 0 -9.8183575576913569e-05 0.00041860876111844654 0 -6.3492753451563179e-05 0.00042056316509956552 0 -0.00012579115722937488 0.00044269533859295912 0 -9.8183575576913569e-05 0.00041860876111844654 0 -8.397316144837392e-05 0.00044233846276998712 0 -0.00012579115722937488 0.00044269533859295912 0 -0.00012611366871756666 0.0004006728159153189 0 -9.8183575576913569e-05 0.00041860876111844654 0 -0.00012611366871756666 0.0004006728159153189 0 -7.962515481574384e-05 0.00039500656598781108 0 -9.8183575576913569e-05 0.00041860876111844654 0 -0.00012611366871756666 0.0004006728159153189 0 -0.00012597370412654118 0.00035860106371023539 0 -8.8008655402765942e-05 0.0003570622558103363 0 -0.00012611366871756666 0.0004006728159153189 0 -8.8008655402765942e-05 0.0003570622558103363 0 -7.962515481574384e-05 0.00039500656598781108 0 -0.00012597370412654118 0.00035860106371023539 0 -0.00012515504110606812 0.00031651611383353773 0 -8.8008655402765942e-05 0.0003570622558103363 0 4.7654433484704358e-05 -5.9576066966886775e-05 0 4.7745398957410197e-05 -5.1742831755289759e-05 0 4.1523577039273022e-05 -5.3833243018204916e-05 0 5.5746651637443385e-05 -5.3140457268532388e-05 0 4.7745398957410197e-05 -5.1742831755289759e-05 0 5.530691899925704e-05 -5.8816736317711576e-05 0 5.5746651637443385e-05 -5.3140457268532388e-05 0 5.1857643678694399e-05 -4.83193613567088e-05 0 4.7745398957410197e-05 -5.1742831755289759e-05 0 4.7654433484704358e-05 -5.9576066966886775e-05 0 5.530691899925704e-05 -5.8816736317711576e-05 0 4.7745398957410197e-05 -5.1742831755289759e-05 0 4.7654433484704358e-05 -5.9576066966886775e-05 0 4.1523577039273022e-05 -5.3833243018204916e-05 0 3.9046126098919553e-05 -5.9782716956719726e-05 0 4.1523577039273022e-05 -5.3833243018204916e-05 0 3.4918986126943795e-05 -5.1800188177553616e-05 0 3.9046126098919553e-05 -5.9782716956719726e-05 0 3.3153208527745329e-05 -5.6491264135882835e-05 0 3.9046126098919553e-05 -5.9782716956719726e-05 0 3.4918986126943795e-05 -5.1800188177553616e-05 0 4.1523577039273022e-05 -5.3833243018204916e-05 0 3.7023505574608065e-05 -4.5821818085584377e-05 0 3.4918986126943795e-05 -5.1800188177553616e-05 0 3.1144320312526366e-05 -4.6556135254743555e-05 0 3.4918986126943795e-05 -5.1800188177553616e-05 0 3.7023505574608065e-05 -4.5821818085584377e-05 0 3.1144320312526366e-05 -4.6556135254743555e-05 0 3.7023505574608065e-05 -4.5821818085584377e-05 0 2.7908631351982201e-05 -4.062801513467903e-05 0 4.449896299289601e-05 -4.5908269114059292e-05 0 3.857112651486596e-05 -3.8609744028250166e-05 0 3.7023505574608065e-05 -4.5821818085584377e-05 0 4.7745398957410197e-05 -5.1742831755289759e-05 0 4.449896299289601e-05 -4.5908269114059292e-05 0 3.7023505574608065e-05 -4.5821818085584377e-05 0 4.1523577039273022e-05 -5.3833243018204916e-05 0 4.7745398957410197e-05 -5.1742831755289759e-05 0 3.7023505574608065e-05 -4.5821818085584377e-05 0 4.449896299289601e-05 -4.5908269114059292e-05 0 4.7745398957410197e-05 -5.1742831755289759e-05 0 5.1857643678694399e-05 -4.83193613567088e-05 0 4.449896299289601e-05 -4.5908269114059292e-05 0 5.1857643678694399e-05 -4.83193613567088e-05 0 4.7793156158827773e-05 -4.2342095930860337e-05 0 5.5423404515275668e-05 -4.3432003448198724e-05 0 4.7793156158827773e-05 -4.2342095930860337e-05 0 5.1857643678694399e-05 -4.83193613567088e-05 0 5.7775853524116668e-05 -3.7784432135194981e-05 0 5.1914842348675591e-05 -3.7585767570594419e-05 0 5.5423404515275668e-05 -4.3432003448198724e-05 0 6.2376664289443522e-05 -4.2933563957136094e-05 0 5.5423404515275668e-05 -4.3432003448198724e-05 0 6.0413447296890905e-05 -4.9000198017940293e-05 0 5.5423404515275668e-05 -4.3432003448198724e-05 0 5.1857643678694399e-05 -4.83193613567088e-05 0 6.0413447296890905e-05 -4.9000198017940293e-05 0 9.5937820095501477e-05 0.00022822315181909432 0 7.6265789140815955e-05 0.00025824812163806939 0 5.7585072687069056e-05 0.00023790659416334095 0 9.5937820095501477e-05 0.00022822315181909432 0 0.00010258018371817878 0.0002664049241161917 0 7.6265789140815955e-05 0.00025824812163806939 0 5.7775853524116668e-05 -3.7784432135194981e-05 0 5.5423404515275668e-05 -4.3432003448198724e-05 0 6.2376664289443522e-05 -4.2933563957136094e-05 0 7.6655549489519753e-05 9.5240018262391507e-05 0 8.2320320236424927e-05 0.00011191220978371005 0 4.6985639743741277e-05 0.00027308126543657148 0 7.6265789140815955e-05 0.00025824812163806939 0 7.7766952805556107e-05 0.00028449736023019467 0 0.00010258018371817878 0.0002664049241161917 0 7.7766952805556107e-05 0.00028449736023019467 0 7.6265789140815955e-05 0.00025824812163806939 0 0.00010936348518823174 0.00030605198639113902 0 6.3054950998246999e-05 0.00031564325875906599 0 7.7766952805556107e-05 0.00028449736023019467 0 8.2320320236424927e-05 0.00011191220978371005 0 8.7344713464283471e-05 0.00012827645105629429 0 6.2376664289443522e-05 -4.2933563957136094e-05 0 6.0413447296890905e-05 -4.9000198017940293e-05 0 6.8106530176228076e-05 -4.8688127809145095e-05 0 0.00010258018371817878 0.0002664049241161917 0 0.00010936348518823174 0.00030605198639113902 0 7.7766952805556107e-05 0.00028449736023019467 0 8.7344713464283471e-05 0.00012827645105629429 0 9.8117363013553268e-05 0.00014630352523381887 0 0.00010936348518823174 0.00030605198639113902 0 7.9833441802241431e-05 0.0003519062240084892 0 6.3054950998246999e-05 0.00031564325875906599 0 5.5746651637443385e-05 -5.3140457268532388e-05 0 6.0413447296890905e-05 -4.9000198017940293e-05 0 5.1857643678694399e-05 -4.83193613567088e-05 0 6.8106530176228076e-05 -4.8688127809145095e-05 0 6.0413447296890905e-05 -4.9000198017940293e-05 0 6.4253672865343788e-05 -5.7043674972478208e-05 0 5.5746651637443385e-05 -5.3140457268532388e-05 0 5.530691899925704e-05 -5.8816736317711576e-05 0 6.4253672865343788e-05 -5.7043674972478208e-05 0 5.5746651637443385e-05 -5.3140457268532388e-05 0 6.4253672865343788e-05 -5.7043674972478208e-05 0 6.0413447296890905e-05 -4.9000198017940293e-05 0 6.3269674855130132e-05 -6.545940120863348e-05 0 7.1879915624573253e-05 -6.3168832130737352e-05 0 6.4253672865343788e-05 -5.7043674972478208e-05 0 6.3269674855130132e-05 -6.545940120863348e-05 0 6.4253672865343788e-05 -5.7043674972478208e-05 0 5.530691899925704e-05 -5.8816736317711576e-05 0 6.8106530176228076e-05 -4.8688127809145095e-05 0 6.4253672865343788e-05 -5.7043674972478208e-05 0 7.5220780343093706e-05 -5.5605060643057999e-05 0 7.5220780343093706e-05 -5.5605060643057999e-05 0 6.4253672865343788e-05 -5.7043674972478208e-05 0 7.1879915624573253e-05 -6.3168832130737352e-05 0 6.3269674855130132e-05 -6.545940120863348e-05 0 7.4848410156926637e-05 -7.1792476731377526e-05 0 7.1879915624573253e-05 -6.3168832130737352e-05 0 0.00010936348518823174 0.00030605198639113902 0 0.00011640060403025715 0.00034656109245522382 0 7.9833441802241431e-05 0.0003519062240084892 0 9.8117363013553268e-05 0.00014630352523381887 0 9.1565016110762011e-05 0.00016070286240249496 0 7.5220780343093706e-05 -5.5605060643057999e-05 0 7.1879915624573253e-05 -6.3168832130737352e-05 0 8.4120038666380333e-05 -6.4726967961909387e-05 0 0.00011640060403025715 0.00034656109245522382 0 0.00012446074430116403 0.00038862872903065591 0 7.9833441802241431e-05 0.0003519062240084892 0 0.00012446074430116403 0.00038862872903065591 0 7.6495830732835758e-05 0.00039002596591634491 0 7.9833441802241431e-05 0.0003519062240084892 0 0.00012446074430116403 0.00038862872903065591 0 9.9758494934026355e-05 0.00041181944336469626 0 7.6495830732835771e-05 0.00039002596591634496 0 9.1565016110762011e-05 0.00016070286240249496 0 0.00015727207017431145 0.00017865151403221224 0 0.00013462326902894094 0.00043232742296145187 0 9.9758494934026355e-05 0.00041181944336469626 0 0.00012446074430116403 0.00038862872903065591 0 0.00013462326902894094 0.00043232742296145187 0 8.9177142526629188e-05 0.000438805702456493 0 9.9758494934026355e-05 0.00041181944336469626 0 6.3269674855130132e-05 -6.545940120863348e-05 0 6.0498027151942142e-05 -7.4724092063900013e-05 0 7.4848410156926637e-05 -7.1792476731377526e-05 0 8.4120038666380333e-05 -6.4726967961909387e-05 0 7.1879915624573253e-05 -6.3168832130737352e-05 0 7.4848410156926637e-05 -7.1792476731377526e-05 0 9.4115525933978174e-05 -7.7309724287453108e-05 0 8.4120038666380333e-05 -6.4726967961909387e-05 0 7.4848410156926637e-05 -7.1792476731377526e-05 0 9.4115525933978174e-05 -7.7309724287453108e-05 0 7.4848410156926637e-05 -7.1792476731377526e-05 0 7.8898180923158334e-05 -8.308091334389712e-05 0 7.8898180923158334e-05 -8.308091334389712e-05 0 7.4848410156926637e-05 -7.1792476731377526e-05 0 6.0498027151942142e-05 -7.4724092063900013e-05 0 5.2393874235662478e-05 -8.2799386153682779e-05 0 6.0498027151942142e-05 -7.4724092063900013e-05 0 5.0010843266681191e-05 -7.0692630498492113e-05 0 6.4828403458790015e-05 -8.4425661396647715e-05 0 7.8898180923158334e-05 -8.308091334389712e-05 0 6.0498027151942142e-05 -7.4724092063900013e-05 0 5.2393874235662478e-05 -8.2799386153682779e-05 0 6.4828403458790015e-05 -8.4425661396647715e-05 0 6.0498027151942142e-05 -7.4724092063900013e-05 0 6.3269674855130132e-05 -6.545940120863348e-05 0 5.3623682349939109e-05 -6.5929637910375346e-05 0 6.0498027151942142e-05 -7.4724092063900013e-05 0 5.0010843266681191e-05 -7.0692630498492113e-05 0 6.0498027151942142e-05 -7.4724092063900013e-05 0 5.3623682349939109e-05 -6.5929637910375346e-05 0 4.7654433484704358e-05 -5.9576066966886775e-05 0 4.393986587107879e-05 -6.5908584965262434e-05 0 5.3623682349939109e-05 -6.5929637910375346e-05 0 4.7654433484704358e-05 -5.9576066966886775e-05 0 5.3623682349939109e-05 -6.5929637910375346e-05 0 5.530691899925704e-05 -5.8816736317711576e-05 0 6.3269674855130132e-05 -6.545940120863348e-05 0 5.530691899925704e-05 -5.8816736317711576e-05 0 5.3623682349939109e-05 -6.5929637910375346e-05 0 3.8067979840000153e-05 -6.6849140962478462e-05 0 4.393986587107879e-05 -6.5908584965262434e-05 0 3.9046126098919553e-05 -5.9782716956719726e-05 0 4.7654433484704358e-05 -5.9576066966886775e-05 0 3.9046126098919553e-05 -5.9782716956719726e-05 0 4.393986587107879e-05 -6.5908584965262434e-05 0 5.0010843266681191e-05 -7.0692630498492113e-05 0 4.393986587107879e-05 -6.5908584965262434e-05 0 4.3425983914378844e-05 -7.3423613631874607e-05 0 5.0010843266681191e-05 -7.0692630498492113e-05 0 5.3623682349939109e-05 -6.5929637910375346e-05 0 4.393986587107879e-05 -6.5908584965262434e-05 0 3.8067979840000153e-05 -6.6849140962478462e-05 0 4.3425983914378844e-05 -7.3423613631874607e-05 0 4.393986587107879e-05 -6.5908584965262434e-05 0 5.2393874235662478e-05 -8.2799386153682779e-05 0 5.0010843266681191e-05 -7.0692630498492113e-05 0 4.3425983914378844e-05 -7.3423613631874607e-05 0 4.3053999322827379e-05 -7.9940490070182376e-05 0 5.2393874235662478e-05 -8.2799386153682779e-05 0 4.3425983914378844e-05 -7.3423613631874607e-05 0 4.3053999322827379e-05 -7.9940490070182376e-05 0 4.3425983914378844e-05 -7.3423613631874607e-05 0 3.8117952741433721e-05 -7.322936923365377e-05 0 3.6160995188727778e-05 -7.6674107493855483e-05 0 4.3053999322827379e-05 -7.9940490070182376e-05 0 3.8117952741433721e-05 -7.322936923365377e-05 0 3.6160995188727778e-05 -7.6674107493855483e-05 0 3.8117952741433721e-05 -7.322936923365377e-05 0 3.209352632325821e-05 -6.9077044245188354e-05 0 3.8067979840000153e-05 -6.6849140962478462e-05 0 3.209352632325821e-05 -6.9077044245188354e-05 0 3.8117952741433721e-05 -7.322936923365377e-05 0 3.8067979840000153e-05 -6.6849140962478462e-05 0 3.8117952741433721e-05 -7.322936923365377e-05 0 4.3425983914378844e-05 -7.3423613631874607e-05 0 2.9968100625719452e-05 -7.3616481569392295e-05 0 3.2308103030720596e-05 -7.4204079330892912e-05 0 2.9000671912340352e-05 -7.0760712235874018e-05 0 3.2308103030720596e-05 -7.4204079330892912e-05 0 3.6160995188727778e-05 -7.6674107493855483e-05 0 2.9000671912340352e-05 -7.0760712235874018e-05 0 3.6160995188727778e-05 -7.6674107493855483e-05 0 3.209352632325821e-05 -6.9077044245188354e-05 0 2.9000671912340352e-05 -7.0760712235874018e-05 0 2.3806249432439613e-05 -6.6617297374178209e-05 0 2.9000671912340352e-05 -7.0760712235874018e-05 0 2.71217145936504e-05 -6.4737420289702089e-05 0 3.209352632325821e-05 -6.9077044245188354e-05 0 2.71217145936504e-05 -6.4737420289702089e-05 0 2.9000671912340352e-05 -7.0760712235874018e-05 0 2.71217145936504e-05 -6.4737420289702089e-05 0 3.1620634976716253e-05 -6.2068407517472583e-05 0 2.6090759916627321e-05 -5.8973897689428996e-05 0 2.6090759916627321e-05 -5.8973897689428996e-05 0 2.2121430393695103e-05 -6.0057272292661181e-05 0 2.71217145936504e-05 -6.4737420289702089e-05 0 2.3806249432439613e-05 -6.6617297374178209e-05 0 2.71217145936504e-05 -6.4737420289702089e-05 0 2.2121430393695103e-05 -6.0057272292661181e-05 0 3.8067979840000153e-05 -6.6849140962478462e-05 0 3.1620634976716253e-05 -6.2068407517472583e-05 0 3.209352632325821e-05 -6.9077044245188354e-05 0 3.209352632325821e-05 -6.9077044245188354e-05 0 3.1620634976716253e-05 -6.2068407517472583e-05 0 2.71217145936504e-05 -6.4737420289702089e-05 0 3.8067979840000153e-05 -6.6849140962478462e-05 0 3.9046126098919553e-05 -5.9782716956719726e-05 0 3.1620634976716253e-05 -6.2068407517472583e-05 0 3.3153208527745329e-05 -5.6491264135882835e-05 0 3.1620634976716253e-05 -6.2068407517472583e-05 0 3.9046126098919553e-05 -5.9782716956719726e-05 0 3.3153208527745329e-05 -5.6491264135882835e-05 0 3.4918986126943795e-05 -5.1800188177553616e-05 0 2.9789417464519116e-05 -5.1598774596620315e-05 0 3.3153208527745329e-05 -5.6491264135882835e-05 0 2.9789417464519119e-05 -5.1598774596620315e-05 0 2.8941589736959516e-05 -5.6746789496043616e-05 0 2.5284738842336816e-05 -5.2434361938856313e-05 0 2.8941589736959516e-05 -5.6746789496043616e-05 0 2.9789417464519116e-05 -5.1598774596620315e-05 0 3.3153208527745329e-05 -5.6491264135882835e-05 0 2.8941589736959516e-05 -5.6746789496043616e-05 0 3.1620634976716253e-05 -6.2068407517472583e-05 0 2.6090759916627321e-05 -5.8973897689428996e-05 0 2.8941589736959516e-05 -5.6746789496043616e-05 0 2.5284738842336816e-05 -5.2434361938856313e-05 0 2.6090759916627321e-05 -5.8973897689428996e-05 0 3.1620634976716253e-05 -6.2068407517472583e-05 0 2.8941589736959516e-05 -5.6746789496043616e-05 0 2.6090759916627321e-05 -5.8973897689428996e-05 0 2.0638218509529685e-05 -5.1753223610598968e-05 0 2.2121430393695103e-05 -6.0057272292661181e-05 0 1.8306633753515877e-05 -5.5801110979653896e-05 0 2.2121430393695103e-05 -6.0057272292661181e-05 0 2.0638218509529685e-05 -5.1753223610598968e-05 0 2.6090759916627321e-05 -5.8973897689428996e-05 0 2.5284738842336816e-05 -5.2434361938856313e-05 0 2.0638218509529685e-05 -5.1753223610598968e-05 0 1.9578634152542596e-05 -4.5593703826432244e-05 0 2.528473884233682e-05 -5.2434361938856313e-05 0 2.5787629692586321e-05 -4.6441560096789001e-05 0 1.9578634152542596e-05 -4.5593703826432244e-05 0 2.0638218509529685e-05 -5.1753223610598968e-05 0 2.5284738842336816e-05 -5.2434361938856313e-05 0 1.9578634152542596e-05 -4.5593703826432244e-05 0 1.3685380542020396e-05 -4.7947533008233579e-05 0 2.0638218509529685e-05 -5.1753223610598968e-05 0 1.9578634152542596e-05 -4.5593703826432244e-05 0 2.5787629692586321e-05 -4.6441560096789001e-05 0 2.2748562337614058e-05 -3.9551928292529171e-05 0 2.2748562337614058e-05 -3.9551928292529171e-05 0 2.5787629692586321e-05 -4.6441560096789001e-05 0 2.7908631351982201e-05 -4.062801513467903e-05 0 3.1144320312526366e-05 -4.6556135254743555e-05 0 2.7908631351982201e-05 -4.062801513467903e-05 0 2.5787629692586321e-05 -4.6441560096789001e-05 0 3.1144320312526366e-05 -4.6556135254743555e-05 0 2.5787629692586321e-05 -4.6441560096789001e-05 0 2.9789417464519116e-05 -5.1598774596620315e-05 0 3.1144320312526366e-05 -4.6556135254743555e-05 0 2.9789417464519116e-05 -5.1598774596620315e-05 0 3.4918986126943795e-05 -5.1800188177553616e-05 0 2.5284738842336816e-05 -5.2434361938856313e-05 0 2.9789417464519116e-05 -5.1598774596620315e-05 0 2.5787629692586321e-05 -4.6441560096789001e-05 0 3.9349650587080721e-05 -0.00013537223739196574 0 2.2310705440713729e-05 -0.00012505462601611697 0 2.6286720530039146e-05 -0.00014349555495085309 0 2.0995738501319008e-05 -8.0043320630968505e-05 0 2.3912029218707194e-05 -9.4322856437379737e-05 0 3.5902847603543325e-05 -0.0001150048382380971 0 2.2310705440713729e-05 -0.00012505462601611697 0 3.9349650587080721e-05 -0.00013537223739196574 0 6.2779116179533243e-06 -4.5059057672779872e-05 0 8.6528419148651211e-06 -5.3249776474145741e-05 0 1.3685380542020396e-05 -4.7947533008233579e-05 0 6.2779116179533243e-06 -4.5059057672779872e-05 0 1.3685380542020396e-05 -4.7947533008233579e-05 0 1.0309886577088749e-05 -4.0224688769898009e-05 0 1.9578634152542596e-05 -4.5593703826432244e-05 0 1.4904039996691128e-05 -4.1968946875217735e-05 0 1.3685380542020396e-05 -4.7947533008233579e-05 0 1.3685380542020396e-05 -4.7947533008233579e-05 0 1.4904039996691128e-05 -4.1968946875217735e-05 0 1.0309886577088749e-05 -4.0224688769898009e-05 0 1.8306633753515877e-05 -5.5801110979653896e-05 0 2.0638218509529685e-05 -5.1753223610598968e-05 0 1.3685380542020396e-05 -4.7947533008233579e-05 0 8.6528419148651211e-06 -5.3249776474145741e-05 0 1.3717545206407496e-05 -5.5522203736236135e-05 0 1.3685380542020396e-05 -4.7947533008233579e-05 0 1.8306633753515877e-05 -5.5801110979653896e-05 0 1.3685380542020396e-05 -4.7947533008233579e-05 0 1.3717545206407496e-05 -5.5522203736236135e-05 0 1.8306633753515877e-05 -5.5801110979653896e-05 0 1.3717545206407496e-05 -5.5522203736236135e-05 0 1.8103277341338381e-05 -6.2162768555123154e-05 0 1.8306633753515877e-05 -5.5801110979653896e-05 0 1.8103277341338381e-05 -6.2162768555123154e-05 0 2.2121430393695103e-05 -6.0057272292661181e-05 0 1.1974786474029034e-05 -6.1027311267742277e-05 0 1.8103277341338381e-05 -6.2162768555123154e-05 0 1.3717545206407496e-05 -5.5522203736236135e-05 0 1.1974786474029034e-05 -6.1027311267742277e-05 0 1.6469465743606911e-05 -6.7896328251121504e-05 0 1.8103277341338381e-05 -6.2162768555123154e-05 0 4.2935400863248426e-05 -0.00015668613410933744 0 2.6286720530039146e-05 -0.00014349555495085309 0 1.7720034163105165e-05 -0.00016056109665560974 0 4.2935400863248426e-05 -0.00015668613410933744 0 1.7720034163105162e-05 -0.00016056109665560974 0 2.792250501671342e-05 -0.00018091714852341509 0 2.7128787775624266e-05 -0.00010877326041960176 0 3.2026015247958103e-05 -0.00012341658222609215 0 8.6528419148651211e-06 -5.3249776474145741e-05 0 1.1974786474029034e-05 -6.1027311267742277e-05 0 1.3717545206407496e-05 -5.5522203736236135e-05 0 3.9349650587080721e-05 -0.00013537223739196574 0 2.6286720530039146e-05 -0.00014349555495085309 0 4.2935400863248426e-05 -0.00015668613410933744 0 2.3912029218707194e-05 -9.4322856437379737e-05 0 2.7128787775624266e-05 -0.00010877326041960176 0 4.2935400863248426e-05 -0.00015668613410933744 0 2.792250501671342e-05 -0.00018091714852341509 0 4.6930931628089092e-05 -0.0001784637696108378 0 3.2026015247958103e-05 -0.00012341658222609215 0 3.459426250807615e-05 -0.00013664767438376915 0 1.6469465743606914e-05 -6.7896328251121504e-05 0 2.233735593081378e-05 -7.3212043354661796e-05 0 2.1059996677062184e-05 -6.8232037110703704e-05 0 4.6930931628089092e-05 -0.0001784637696108378 0 2.792250501671342e-05 -0.00018091714852341509 0 5.1639298248417016e-05 -0.00020103184547049823 0 5.1639298248417016e-05 -0.00020103184547049823 0 2.7922505016713416e-05 -0.00018091714852341509 0 2.7218141245821963e-05 -0.00020163886487192659 0 2.3806249432439613e-05 -6.6617297374178209e-05 0 2.2121430393695103e-05 -6.0057272292661181e-05 0 1.8103277341338381e-05 -6.2162768555123154e-05 0 2.3806249432439613e-05 -6.6617297374178209e-05 0 1.8103277341338381e-05 -6.2162768555123154e-05 0 2.1059996677062184e-05 -6.8232037110703704e-05 0 1.6469465743606914e-05 -6.7896328251121504e-05 0 2.1059996677062184e-05 -6.8232037110703704e-05 0 1.8103277341338381e-05 -6.2162768555123154e-05 0 2.3806249432439613e-05 -6.6617297374178209e-05 0 2.1059996677062184e-05 -6.8232037110703704e-05 0 2.5333870587200626e-05 -7.124448212273427e-05 0 2.3806249432439613e-05 -6.6617297374178209e-05 0 2.5333870587200626e-05 -7.124448212273427e-05 0 2.9000671912340352e-05 -7.0760712235874018e-05 0 2.233735593081378e-05 -7.3212043354661796e-05 0 2.5333870587200626e-05 -7.124448212273427e-05 0 2.1059996677062184e-05 -6.8232037110703704e-05 0 2.9042061219783587e-05 -7.6087612427058602e-05 0 2.5333870587200626e-05 -7.124448212273427e-05 0 2.233735593081378e-05 -7.3212043354661796e-05 0 2.9042061219783587e-05 -7.6087612427058602e-05 0 2.9968100625719452e-05 -7.3616481569392295e-05 0 2.5333870587200626e-05 -7.124448212273427e-05 0 2.9968100625719452e-05 -7.3616481569392295e-05 0 2.9000671912340352e-05 -7.0760712235874018e-05 0 2.5333870587200626e-05 -7.124448212273427e-05 0 5.1639298248417016e-05 -0.00020103184547049823 0 2.7218141245821963e-05 -0.00020163886487192659 0 3.9581580234218955e-05 -0.00021320131690537222 0 3.459426250807615e-05 -0.00013664767438376915 0 5.0990503489783331e-05 -0.00015048742973798794 0 5.8110372378593046e-05 -0.00022388133900955369 0 5.1639298248417016e-05 -0.00020103184547049823 0 3.9581580234218955e-05 -0.00021320131690537222 0 5.8110372378593046e-05 -0.00022388133900955369 0 3.9581580234218955e-05 -0.00021320131690537222 0 3.4786793923361679e-05 -0.00022719338697178997 0 3.4786793923361679e-05 -0.00022719338697178997 0 3.9581580234218955e-05 -0.00021320131690537222 0 2.1097981225488992e-05 -0.00021601307814723869 0 1.1188199705566361e-05 -0.00022829650540350573 0 3.4786793923361679e-05 -0.00022719338697178997 0 2.1097981225488992e-05 -0.00021601307814723869 0 2.7218141245821963e-05 -0.00020163886487192659 0 6.9913833240027526e-06 -0.00020735734305181501 0 2.1097981225488992e-05 -0.00021601307814723869 0 2.7218141245821963e-05 -0.00020163886487192659 0 2.1097981225488992e-05 -0.00021601307814723869 0 3.9581580234218955e-05 -0.00021320131690537222 0 1.1188199705566361e-05 -0.00022829650540350573 0 2.1097981225488995e-05 -0.00021601307814723871 0 6.9913833240027526e-06 -0.00020735734305181501 0 -1.1283802659620327e-05 -0.00022841136138380613 0 6.9913833240027526e-06 -0.00020735734305181501 0 -1.3157424086592816e-05 -0.00020011405989368736 0 -1.1283802659620327e-05 -0.00022841136138380613 0 -1.3157424086592816e-05 -0.00020011405989368736 0 -3.2050355080110978e-05 -0.00020795663930707971 0 -1.1283802659620327e-05 -0.00022841136138380613 0 1.1188199705566361e-05 -0.00022829650540350573 0 6.9913833240027526e-06 -0.00020735734305181501 0 7.9731230105535472e-06 -0.00018469571768684847 0 -1.3157424086592816e-05 -0.00020011405989368736 0 6.9913833240027526e-06 -0.00020735734305181501 0 7.9731230105535472e-06 -0.00018469571768684847 0 -1.5944548468830223e-05 -0.00017506921584765176 0 -1.3157424086592816e-05 -0.00020011405989368736 0 -3.6261536228956831e-05 -0.00018528822952259069 0 -1.3157424086592816e-05 -0.00020011405989368736 0 -1.5944548468830223e-05 -0.00017506921584765176 0 7.9731230105535472e-06 -0.00018469571768684847 0 -1.6659349512566121e-06 -0.00016355170183209958 0 -1.5944548468830223e-05 -0.00017506921584765176 0 7.9731230105535472e-06 -0.00018469571768684847 0 2.792250501671342e-05 -0.00018091714852341509 0 1.7720034163105165e-05 -0.00016056109665560974 0 7.9731230105535472e-06 -0.00018469571768684847 0 2.7218141245821963e-05 -0.00020163886487192659 0 2.792250501671342e-05 -0.00018091714852341509 0 7.9731230105535472e-06 -0.00018469571768684847 0 6.9913833240027509e-06 -0.00020735734305181501 0 2.7218141245821963e-05 -0.00020163886487192659 0 -7.6633286187757963e-05 -0.00020675886579054513 0 -6.2128535986565365e-05 -0.00021606981254362943 0 -5.2512367148308481e-05 -0.00020374744411795197 0 -7.6439405705324483e-05 -0.00022860795907068068 0 -6.2128535986565365e-05 -0.00021606981254362941 0 -7.6633286187757963e-05 -0.00020675886579054513 0 -7.6439405705324483e-05 -0.00022860795907068068 0 -5.4733388373953385e-05 -0.00022839194034579368 0 -6.2128535986565365e-05 -0.00021606981254362941 0 -5.4733388373953378e-05 -0.00022839194034579368 0 -4.4165391532557767e-05 -0.00021707757700941197 0 -6.2128535986565365e-05 -0.00021606981254362941 0 -5.2512367148308481e-05 -0.00020374744411795197 0 -6.2128535986565365e-05 -0.00021606981254362941 0 -4.4165391532557767e-05 -0.00021707757700941197 0 -5.2512367148308481e-05 -0.00020374744411795197 0 -4.4165391532557767e-05 -0.00021707757700941197 0 -3.2050355080110978e-05 -0.00020795663930707971 0 -3.2983516132989015e-05 -0.00022838653740511297 0 -3.2050355080110978e-05 -0.00020795663930707971 0 -4.4165391532557767e-05 -0.00021707757700941197 0 -5.4733388373953378e-05 -0.00022839194034579368 0 -3.2983516132989015e-05 -0.00022838653740511297 0 -4.4165391532557767e-05 -0.00021707757700941197 0 -3.2983516132989015e-05 -0.00022838653740511297 0 -1.1283802659620327e-05 -0.00022841136138380613 0 -3.2050355080110978e-05 -0.00020795663930707971 0 -3.6261536228956831e-05 -0.00018528822952259069 0 -3.2050355080110978e-05 -0.00020795663930707971 0 -1.3157424086592816e-05 -0.00020011405989368736 0 -3.6261536228956831e-05 -0.00018528822952259069 0 -1.5944548468830223e-05 -0.00017506921584765176 0 -3.1761136669808218e-05 -0.00016045875083820296 0 -3.6261536228956831e-05 -0.00018528822952259069 0 -5.0719579693424495e-05 -0.0001642660742311362 0 -5.7117861993046517e-05 -0.0001843565980890415 0 -3.6261536228956831e-05 -0.00018528822952259069 0 -5.2512367148308481e-05 -0.00020374744411795197 0 -3.2050355080110978e-05 -0.00020795663930707971 0 -3.6261536228956831e-05 -0.00018528822952259069 0 -5.7117861993046517e-05 -0.0001843565980890415 0 -5.2512367148308481e-05 -0.00020374744411795197 0 -7.6633286187757963e-05 -0.00020675886579054513 0 -5.2512367148308481e-05 -0.00020374744411795197 0 -5.7117861993046517e-05 -0.0001843565980890415 0 -7.5882036837750924e-05 -0.00016268870467753296 0 -7.650332048281037e-05 -0.00018476932436451359 0 -5.7117861993046517e-05 -0.0001843565980890415 0 -7.650332048281037e-05 -0.00018476932436451359 0 -7.6633286187757963e-05 -0.00020675886579054513 0 -5.7117861993046517e-05 -0.0001843565980890415 0 -7.4539329086286053e-05 -0.00014112595104873955 0 -7.5882036837750924e-05 -0.00016268870467753296 0 -6.0169146001794414e-05 -0.00014859679813056833 0 -7.5882036837750924e-05 -0.00016268870467753296 0 -5.7117861993046517e-05 -0.0001843565980890415 0 -5.0719579693424495e-05 -0.0001642660742311362 0 -4.4508088236564934e-05 -0.00014087379251039579 0 -6.0169146001794414e-05 -0.00014859679813056831 0 -5.0719579693424495e-05 -0.0001642660742311362 0 -7.5882036837750924e-05 -0.00016268870467753296 0 -5.0719579693424495e-05 -0.0001642660742311362 0 -6.0169146001794414e-05 -0.00014859679813056833 0 -4.4508088236564934e-05 -0.00014087379251039579 0 -5.0719579693424495e-05 -0.0001642660742311362 0 -3.1761136669808218e-05 -0.00016045875083820296 0 -3.6261536228956831e-05 -0.00018528822952259069 0 -3.1761136669808218e-05 -0.00016045875083820296 0 -5.0719579693424495e-05 -0.0001642660742311362 0 -4.4508088236564934e-05 -0.00014087379251039579 0 -3.1761136669808218e-05 -0.00016045875083820296 0 -2.8989383954872351e-05 -0.00014005763356233773 0 -1.5970526989466206e-05 -0.00015120726976462288 0 -2.8989383954872355e-05 -0.00014005763356233773 0 -3.1761136669808218e-05 -0.00016045875083820296 0 -4.4508088236564934e-05 -0.00014087379251039579 0 -2.8989383954872351e-05 -0.00014005763356233773 0 -3.5615666449438798e-05 -0.00012659626454156355 0 -3.2924570258441419e-05 -0.00010827792851241015 0 -3.5615666449438798e-05 -0.00012659626454156355 0 -1.9090950505409181e-05 -0.00012719141411796011 0 -1.9090950505409181e-05 -0.00012719141411796011 0 -3.5615666449438798e-05 -0.00012659626454156355 0 -2.8989383954872351e-05 -0.00014005763356233773 0 -4.4508088236564934e-05 -0.00014087379251039579 0 -3.5615666449438798e-05 -0.00012659626454156355 0 -5.1579094601840334e-05 -0.00012029923067745371 0 -4.4508088236564934e-05 -0.00014087379251039579 0 -6.0831174184007076e-05 -0.00013378391780133212 0 -6.0169146001794414e-05 -0.00014859679813056833 0 -4.4508088236564934e-05 -0.00014087379251039579 0 -5.1579094601840334e-05 -0.00012029923067745371 0 -6.0831174184007076e-05 -0.00013378391780133212 0 -7.2316852759241141e-05 -0.0001200583812215934 0 -6.0831174184007076e-05 -0.00013378391780133212 0 -5.1579094601840334e-05 -0.00012029923067745371 0 -7.2316852759241141e-05 -0.0001200583812215934 0 -7.4539329086286053e-05 -0.00014112595104873955 0 -6.0831174184007076e-05 -0.00013378391780133212 0 -7.4539329086286053e-05 -0.00014112595104873955 0 -6.0169146001794414e-05 -0.00014859679813056833 0 -6.0831174184007076e-05 -0.00013378391780133212 0 1.1697138143913797e-05 -0.00013689825911233685 0 -1.9152061942286948e-06 -0.00014454205604306166 0 1.7720034163105165e-05 -0.00016056109665560974 0 1.7720034163105165e-05 -0.00016056109665560974 0 -1.9152061942286948e-06 -0.00014454205604306166 0 -1.6659349512566121e-06 -0.00016355170183209958 0 1.1697138143913797e-05 -0.00013689825911233685 0 1.7720034163105162e-05 -0.00016056109665560974 0 2.6286720530039146e-05 -0.00014349555495085309 0 7.9731230105535472e-06 -0.00018469571768684847 0 1.7720034163105165e-05 -0.00016056109665560974 0 -1.6659349512566121e-06 -0.00016355170183209958 0 -1.5970526989466206e-05 -0.00015120726976462288 0 -1.5944548468830223e-05 -0.00017506921584765176 0 -1.6659349512566121e-06 -0.00016355170183209958 0 -1.5970526989466206e-05 -0.00015120726976462288 0 -3.1761136669808218e-05 -0.00016045875083820296 0 -1.5944548468830223e-05 -0.00017506921584765176 0 -1.5970526989466206e-05 -0.00015120726976462288 0 -1.6659349512566121e-06 -0.00016355170183209958 0 -1.9152061942286948e-06 -0.00014454205604306166 0 -1.9090950505409181e-05 -0.00012719141411796011 0 -1.9152061942286948e-06 -0.00014454205604306166 0 -2.969089047177895e-06 -0.00012439805416294427 0 -1.5970526989466206e-05 -0.00015120726976462288 0 -1.9152061942286948e-06 -0.00014454205604306166 0 -1.9090950505409181e-05 -0.00012719141411796011 0 -1.5970526989466206e-05 -0.00015120726976462288 0 -1.9090950505409181e-05 -0.00012719141411796008 0 -2.8989383954872351e-05 -0.00014005763356233773 0 -1.9090950505409181e-05 -0.00012719141411796011 0 -2.9690890471778946e-06 -0.00012439805416294424 0 -1.3289733260090968e-05 -0.00010824920430318379 0 1.1697138143913797e-05 -0.00013689825911233685 0 9.2411632273152871e-06 -0.00012005277657673282 0 -2.969089047177895e-06 -0.00012439805416294427 0 1.1697138143913797e-05 -0.00013689825911233685 0 -2.969089047177895e-06 -0.00012439805416294427 0 -1.9152061942286948e-06 -0.00014454205604306166 0 1.1697138143913797e-05 -0.00013689825911233685 0 2.6286720530039146e-05 -0.00014349555495085309 0 2.2310705440713729e-05 -0.00012505462601611697 0 1.1697138143913797e-05 -0.00013689825911233685 0 2.2310705440713729e-05 -0.000125054626016117 0 9.2411632273152871e-06 -0.00012005277657673282 0 1.6530570702669587e-05 -0.00010668316518908613 0 9.2411632273152871e-06 -0.00012005277657673282 0 2.2310705440713729e-05 -0.00012505462601611697 0 -1.0804645646934439e-06 -0.00010742523545402673 0 9.2411632273152871e-06 -0.00012005277657673282 0 1.6530570702669587e-05 -0.00010668316518908613 0 -1.0804645646934439e-06 -0.00010742523545402673 0 1.6530570702669583e-05 -0.00010668316518908613 0 6.6027097662508628e-06 -9.4740623526166508e-05 0 1.6530570702669587e-05 -0.00010668316518908613 0 1.7232393519209125e-05 -8.8567929564663329e-05 0 6.6027097662508628e-06 -9.4740623526166508e-05 0 -1.0804645646934439e-06 -0.00010742523545402673 0 6.6027097662508628e-06 -9.4740623526166508e-05 0 -4.9466018808336433e-06 -9.2102519301164279e-05 0 -1.0804645646934439e-06 -0.00010742523545402673 0 -2.969089047177895e-06 -0.00012439805416294427 0 9.2411632273152871e-06 -0.00012005277657673282 0 -1.0804645646934439e-06 -0.00010742523545402673 0 -1.3289733260090968e-05 -0.00010824920430318379 0 -2.969089047177895e-06 -0.00012439805416294427 0 -3.2924570258441419e-05 -0.00010827792851241015 0 -1.9090950505409181e-05 -0.00012719141411796011 0 -1.3289733260090968e-05 -0.00010824920430318379 0 -3.2924570258441419e-05 -0.00010827792851241015 0 -1.3289733260090968e-05 -0.00010824920430318379 0 -1.9008370627402112e-05 -9.1296376256423602e-05 0 -1.0804645646934439e-06 -0.00010742523545402673 0 -4.9466018808336433e-06 -9.2102519301164279e-05 0 -1.3289733260090968e-05 -0.00010824920430318379 0 -1.9008370627402112e-05 -9.1296376256423602e-05 0 -1.3289733260090968e-05 -0.00010824920430318379 0 -4.9466018808336433e-06 -9.2102519301164279e-05 0 -1.9008370627402112e-05 -9.1296376256423602e-05 0 -4.9466018808336433e-06 -9.2102519301164279e-05 0 -6.3842458161358175e-06 -7.4250691007385469e-05 0 -1.7770241184067361e-05 -6.8559923343014181e-05 0 -2.8077981283284517e-05 -7.9820847672795595e-05 0 -1.9008370627402112e-05 -9.1296376256423602e-05 0 -1.7770241184067361e-05 -6.8559923343014181e-05 0 -1.9008370627402112e-05 -9.1296376256423602e-05 0 -6.3842458161358175e-06 -7.4250691007385469e-05 0 5.5197088828783983e-06 -7.9258579427810968e-05 0 4.8228043219708392e-06 -5.8626016009789344e-05 0 -6.3842458161358175e-06 -7.4250691007385469e-05 0 5.5197088828783983e-06 -7.9258579427810968e-05 0 1.5858412415091562e-05 -6.8858715394204796e-05 0 4.8228043219708392e-06 -5.8626016009789344e-05 0 5.5197088828783983e-06 -7.9258579427810968e-05 0 6.6027097662508636e-06 -9.4740623526166508e-05 0 1.7232393519209125e-05 -8.8567929564663329e-05 0 5.5197088828783983e-06 -7.9258579427810968e-05 0 -6.3842458161358192e-06 -7.4250691007385456e-05 0 -4.9466018808336433e-06 -9.2102519301164279e-05 0 5.5197088828783983e-06 -7.9258579427810968e-05 0 -4.9466018808336433e-06 -9.2102519301164279e-05 0 6.6027097662508628e-06 -9.4740623526166508e-05 0 -6.9146408489645923e-05 -0.00010004510634842549 0 -6.0312545183859288e-05 -0.00011005998341103888 0 -4.8453106498787021e-05 -9.9219234950961776e-05 0 -6.9146408489645923e-05 -0.00010004510634842549 0 -4.8453106498787021e-05 -9.9219234950961776e-05 0 -5.3676307255840209e-05 -8.5292313377896193e-05 0 -7.2316852759241141e-05 -0.0001200583812215934 0 -5.1579094601840334e-05 -0.00012029923067745371 0 -6.0312545183859288e-05 -0.00011005998341103889 0 -6.9146408489645923e-05 -0.00010004510634842549 0 -7.2316852759241141e-05 -0.0001200583812215934 0 -6.0312545183859288e-05 -0.00011005998341103889 0 -5.1579094601840334e-05 -0.00012029923067745371 0 -4.8453106498787021e-05 -9.9219234950961776e-05 0 -6.0312545183859288e-05 -0.00011005998341103889 0 -3.2924570258441419e-05 -0.00010827792851241015 0 -3.3112598923049838e-05 -9.1643901210360098e-05 0 -4.8453106498787021e-05 -9.9219234950961776e-05 0 -3.2924570258441419e-05 -0.00010827792851241015 0 -4.8453106498787015e-05 -9.9219234950961776e-05 0 -5.1579094601840334e-05 -0.00012029923067745371 0 -3.2924570258441419e-05 -0.00010827792851241015 0 -5.1579094601840334e-05 -0.00012029923067745371 0 -3.5615666449438798e-05 -0.00012659626454156355 0 -3.2924570258441419e-05 -0.00010827792851241015 0 -1.9008370627402112e-05 -9.1296376256423588e-05 0 -3.3112598923049838e-05 -9.1643901210360098e-05 0 -4.0739581530326658e-05 -8.0854764869521705e-05 0 -3.3112598923049838e-05 -9.1643901210360098e-05 0 -2.8077981283284517e-05 -7.9820847672795595e-05 0 -1.9008370627402112e-05 -9.1296376256423602e-05 0 -2.8077981283284517e-05 -7.9820847672795595e-05 0 -3.3112598923049838e-05 -9.1643901210360098e-05 0 -1.7770241184067361e-05 -6.8559923343014181e-05 0 -3.0176004728110505e-05 -6.7848541371787899e-05 0 -2.8077981283284517e-05 -7.9820847672795595e-05 0 -4.0739581530326658e-05 -8.0854764869521705e-05 0 -2.8077981283284517e-05 -7.9820847672795595e-05 0 -3.0176004728110505e-05 -6.7848541371787899e-05 0 -4.0739581530326658e-05 -8.0854764869521705e-05 0 -3.0176004728110505e-05 -6.7848541371787899e-05 0 -4.7125916827978507e-05 -6.9000179007156235e-05 0 -4.0739581530326658e-05 -8.0854764869521705e-05 0 -4.8453106498787021e-05 -9.9219234950961776e-05 0 -3.3112598923049838e-05 -9.1643901210360098e-05 0 -4.0739581530326658e-05 -8.0854764869521705e-05 0 -5.3676307255840209e-05 -8.5292313377896193e-05 0 -4.8453106498787021e-05 -9.9219234950961776e-05 0 -4.0739581530326658e-05 -8.0854764869521705e-05 0 -4.7125916827978507e-05 -6.9000179007156235e-05 0 -5.3676307255840209e-05 -8.5292313377896193e-05 0 -6.5237104204911748e-05 -8.1212478460476311e-05 0 -5.3676307255840209e-05 -8.5292313377896193e-05 0 -4.7125916827978507e-05 -6.9000179007156235e-05 0 -6.5237104204911748e-05 -8.1212478460476311e-05 0 -6.9146408489645923e-05 -0.0001000451063484255 0 -5.3676307255840209e-05 -8.5292313377896193e-05 0 -5.4662261948954037e-05 -4.8425218179554066e-05 0 -6.0531269199388747e-05 -6.3940235654636512e-05 0 -4.6775130169498897e-05 -5.4301688178117235e-05 0 -6.0531269199388747e-05 -6.3940235654636512e-05 0 -6.5237104204911748e-05 -8.1212478460476311e-05 0 -4.7125916827978507e-05 -6.9000179007156235e-05 0 -6.0531269199388747e-05 -6.3940235654636512e-05 0 -4.7125916827978507e-05 -6.9000179007156235e-05 0 -4.6775130169498897e-05 -5.4301688178117235e-05 0 -3.5509040506802057e-05 -5.3906563459675269e-05 0 -4.6775130169498897e-05 -5.4301688178117235e-05 0 -4.7125916827978507e-05 -6.9000179007156235e-05 0 -3.5509040506802057e-05 -5.3906563459675269e-05 0 -4.7125916827978507e-05 -6.9000179007156235e-05 0 -3.0176004728110505e-05 -6.7848541371787899e-05 0 -1.7770241184067361e-05 -6.8559923343014181e-05 0 -2.5797235730756052e-05 -5.5884812288240972e-05 0 -3.0176004728110505e-05 -6.7848541371787899e-05 0 -3.5509040506802057e-05 -5.3906563459675269e-05 0 -3.0176004728110505e-05 -6.7848541371787899e-05 0 -2.5797235730756052e-05 -5.5884812288240972e-05 0 -1.6749717250168402e-05 -4.7528985597246127e-05 0 -2.7090172607640417e-05 -4.5119195638105623e-05 0 -2.5797235730756052e-05 -5.5884812288240972e-05 0 -3.5509040506802057e-05 -5.3906563459675269e-05 0 -2.5797235730756052e-05 -5.5884812288240972e-05 0 -2.7090172607640417e-05 -4.5119195638105623e-05 0 -2.2014699071220145e-05 -3.3650267781633664e-05 0 -3.6691431547015907e-05 -3.8900253213857661e-05 0 -2.7090172607640417e-05 -4.5119195638105623e-05 0 -2.2014699071220145e-05 -3.3650267781633664e-05 0 -2.5871716263799713e-05 -2.6837607147061235e-05 0 -3.6691431547015907e-05 -3.8900253213857661e-05 0 -3.5509040506802057e-05 -5.3906563459675269e-05 0 -2.7090172607640417e-05 -4.5119195638105623e-05 0 -3.6691431547015907e-05 -3.8900253213857661e-05 0 -5.4662261948954037e-05 -4.8425218179554066e-05 0 -4.6775130169498897e-05 -5.4301688178117235e-05 0 -3.6691431547015907e-05 -3.8900253213857661e-05 0 -3.5509040506802057e-05 -5.3906563459675269e-05 0 -3.6691431547015901e-05 -3.8900253213857661e-05 0 -4.6775130169498897e-05 -5.4301688178117235e-05 0 -4.8716088801922188e-05 -3.5205360722380079e-05 0 -5.4662261948954037e-05 -4.8425218179554066e-05 0 -3.6691431547015907e-05 -3.8900253213857661e-05 0 -4.7113672536539018e-06 -4.3440987397576893e-05 0 -8.3060241374411724e-06 -5.7907112596132443e-05 0 4.8228043219708392e-06 -5.8626016009789344e-05 0 -4.7113672536539018e-06 -4.3440987397576893e-05 0 4.8228043219708392e-06 -5.8626016009789344e-05 0 5.7220998443841511e-06 -3.8717288131107761e-05 0 4.8228043219708392e-06 -5.8626016009789344e-05 0 -8.3060241374411724e-06 -5.7907112596132443e-05 0 -6.3842458161358175e-06 -7.4250691007385469e-05 0 -1.7770241184067361e-05 -6.8559923343014181e-05 0 -6.3842458161358175e-06 -7.4250691007385469e-05 0 -8.3060241374411724e-06 -5.7907112596132443e-05 0 -1.7770241184067361e-05 -6.8559923343014181e-05 0 -1.6749717250168399e-05 -4.7528985597246134e-05 0 -2.5797235730756052e-05 -5.5884812288240972e-05 0 -1.7770241184067361e-05 -6.8559923343014181e-05 0 -8.3060241374411724e-06 -5.7907112596132443e-05 0 -1.6749717250168402e-05 -4.7528985597246127e-05 0 -4.7113672536539018e-06 -4.3440987397576893e-05 0 -1.6749717250168402e-05 -4.7528985597246127e-05 0 -8.3060241374411724e-06 -5.7907112596132443e-05 0 -4.7113672536539018e-06 -4.3440987397576893e-05 0 -1.2037140936472128e-05 -3.3860814254460703e-05 0 -1.6749717250168402e-05 -4.7528985597246127e-05 0 -2.2014699071220145e-05 -3.3650267781633664e-05 0 -2.7090172607640417e-05 -4.5119195638105623e-05 0 -1.6749717250168402e-05 -4.7528985597246127e-05 0 -2.2014699071220145e-05 -3.3650267781633664e-05 0 -1.2037140936472127e-05 -3.3860814254460703e-05 0 -1.6511974495159458e-05 -2.6720083862525846e-05 0 -2.2014699071220145e-05 -3.3650267781633664e-05 0 -1.6749717250168402e-05 -4.7528985597246127e-05 0 -1.2037140936472127e-05 -3.3860814254460703e-05 0 -4.7113672536539018e-06 -4.3440987397576893e-05 0 -4.2573237623939494e-06 -2.9749233730057579e-05 0 -1.2037140936472127e-05 -3.3860814254460703e-05 0 -4.2573237623939494e-06 -2.9749233730057579e-05 0 -4.7113672536539018e-06 -4.3440987397576893e-05 0 5.7220998443841511e-06 -3.8717288131107761e-05 0 3.7258666653201084e-06 -2.4545935342263324e-05 0 -4.2573237623939494e-06 -2.9749233730057579e-05 0 5.7220998443841511e-06 -3.8717288131107761e-05 0 1.0737525785364146e-05 -2.0516338125240021e-05 0 3.7258666653201084e-06 -2.4545935342263324e-05 0 5.7220998443841511e-06 -3.8717288131107761e-05 0 1.0737525785364146e-05 -2.0516338125240021e-05 0 7.0723484301455539e-06 -1.6547246125969871e-05 0 7.808382539022188e-06 -1.5545165526353374e-05 0 1.0737525785364146e-05 -2.0516338125240021e-05 0 5.7220998443841511e-06 -3.8717288131107761e-05 0 1.9198167767687138e-05 -4.219465915187491e-05 0 8.8664946114430514e-06 -2.024960057417507e-05 0 1.3852378966016986e-05 -2.9612713351956048e-05 0 1.9198167767687138e-05 -4.219465915187491e-05 0 5.7220998443841511e-06 -3.8717288131107761e-05 0 1.4109220258273065e-05 -5.200079237165183e-05 0 4.8228043219708392e-06 -5.8626016009789344e-05 0 1.4109220258273065e-05 -5.200079237165183e-05 0 5.7220998443841511e-06 -3.8717288131107761e-05 0 1.3852378966016986e-05 -2.9612713351956048e-05 0 1.4922989146759005e-05 -4.030899699664277e-05 0 1.9198167767687138e-05 -4.219465915187491e-05 0 1.4109220258273065e-05 -5.200079237165183e-05 0 2.4728410241359612e-05 -5.9182199992248704e-05 0 1.4922989146759005e-05 -4.030899699664277e-05 0 1.6737240096246527e-05 -5.2769001386874979e-05 0 2.4728410241359612e-05 -5.9182199992248704e-05 0 1.4109220258273065e-05 -5.200079237165183e-05 0 1.5858412415091565e-05 -6.8858715394204783e-05 0 4.8228043219708392e-06 -5.8626016009789344e-05 0 1.5858412415091565e-05 -6.8858715394204783e-05 0 1.4109220258273065e-05 -5.200079237165183e-05 0 1.12873267667865e-05 -2.0798632147462929e-05 0 8.7774724288835153e-06 -1.6685244274347637e-05 0 8.2603674084009431e-06 -2.2845873406332717e-05 0 5.3975657041012313e-06 -2.1551489089071744e-05 0 4.5447058561879269e-06 -2.8571488294841452e-05 0 8.2603674084009431e-06 -2.2845873406332717e-05 0 5.3975657041012313e-06 -2.1551489089071744e-05 0 8.2603674084009431e-06 -2.2845873406332717e-05 0 8.7774724288835153e-06 -1.6685244274347637e-05 0 7.0723484301455539e-06 -1.6547246125969871e-05 0 5.3975657041012313e-06 -2.1551489089071744e-05 0 8.7774724288835153e-06 -1.6685244274347637e-05 0 8.7774724288835153e-06 -1.6685244274347637e-05 0 1.0373032683900854e-05 -1.2642686164354829e-05 0 7.808382539022188e-06 -1.5545165526353374e-05 0 7.0723484301455539e-06 -1.6547246125969871e-05 0 8.7774724288835153e-06 -1.6685244274347634e-05 0 7.808382539022188e-06 -1.5545165526353374e-05 0 1.0737525785364146e-05 -2.0516338125240021e-05 0 7.808382539022188e-06 -1.5545165526353374e-05 0 8.7943010633187478e-06 -1.3793883887334835e-05 0 7.808382539022188e-06 -1.5545165526353374e-05 0 1.0373032683900854e-05 -1.2642686164354831e-05 0 8.7943010633187478e-06 -1.3793883887334835e-05 0 1.0373032683900854e-05 -1.2642686164354829e-05 0 8.7774724288835153e-06 -1.6685244274347637e-05 0 1.2890313555652377e-05 -1.6714738451147852e-05 0 1.0373032683900854e-05 -1.2642686164354829e-05 0 1.2890313555652377e-05 -1.6714738451147852e-05 0 1.4991163180851894e-05 -1.1616264473184814e-05 0 1.0373032683900854e-05 -1.2642686164354829e-05 0 1.4991163180851894e-05 -1.1616264473184814e-05 0 1.3194762268533002e-05 -7.6810107559510088e-06 0 1.6594006948512916e-05 -4.9510372833437009e-06 0 1.4991163180851894e-05 -1.1616264473184814e-05 0 1.8629726122430308e-05 -9.1831888867924562e-06 0 1.6594006948512916e-05 -4.9510372833437009e-06 0 1.3194762268533002e-05 -7.6810107559510088e-06 0 1.4991163180851894e-05 -1.1616264473184814e-05 0 1.9592545097175759e-05 -1.5633279136091768e-05 0 1.8629726122430308e-05 -9.1831888867924562e-06 0 1.4991163180851894e-05 -1.1616264473184814e-05 0 1.9592545097175759e-05 -1.5633279136091768e-05 0 1.667269856387431e-05 -1.6617615948678239e-05 0 2.0217216775395821e-05 -2.172241634699359e-05 0 1.9592545097175759e-05 -1.5633279136091768e-05 0 1.4991163180851894e-05 -1.1616264473184814e-05 0 1.667269856387431e-05 -1.6617615948678239e-05 0 1.6726843286449803e-05 -2.1160541678220196e-05 0 1.667269856387431e-05 -1.6617615948678239e-05 0 1.2890313555652377e-05 -1.6714738451147852e-05 0 1.4991163180851894e-05 -1.1616264473184814e-05 0 1.2890313555652377e-05 -1.6714738451147852e-05 0 1.667269856387431e-05 -1.6617615948678239e-05 0 1.6726843286449803e-05 -2.1160541678220196e-05 0 2.0217216775395821e-05 -2.172241634699359e-05 0 1.667269856387431e-05 -1.6617615948678239e-05 0 1.12873267667865e-05 -2.0798632147462929e-05 0 1.2890313555652377e-05 -1.6714738451147852e-05 0 8.7774724288835153e-06 -1.6685244274347637e-05 0 1.6726843286449803e-05 -2.1160541678220196e-05 0 1.2890313555652377e-05 -1.6714738451147852e-05 0 1.4770843692177491e-05 -2.483779935785193e-05 0 1.12873267667865e-05 -2.0798632147462929e-05 0 1.4770843692177491e-05 -2.483779935785193e-05 0 1.2890313555652377e-05 -1.6714738451147852e-05 0 1.12873267667865e-05 -2.0798632147462929e-05 0 1.0482671611154744e-05 -2.7585258980546431e-05 0 1.4770843692177491e-05 -2.483779935785193e-05 0 1.8638039742473306e-05 -3.22429399815021e-05 0 1.9702672250006691e-05 -2.6931596265685762e-05 0 1.4770843692177491e-05 -2.483779935785193e-05 0 1.8638039742473306e-05 -3.22429399815021e-05 0 1.4770843692177491e-05 -2.483779935785193e-05 0 1.4053004173531806e-05 -3.1264472560296244e-05 0 1.0482671611154745e-05 -2.7585258980546431e-05 0 1.4053004173531806e-05 -3.1264472560296244e-05 0 1.4770843692177491e-05 -2.483779935785193e-05 0 2.3836072897163234e-05 -2.7726342391561069e-05 0 2.0217216775395821e-05 -2.172241634699359e-05 0 1.9702672250006694e-05 -2.6931596265685762e-05 0 1.6726843286449803e-05 -2.1160541678220196e-05 0 1.9702672250006698e-05 -2.6931596265685762e-05 0 2.0217216775395821e-05 -2.172241634699359e-05 0 1.6726843286449803e-05 -2.1160541678220196e-05 0 1.4770843692177491e-05 -2.483779935785193e-05 0 1.9702672250006694e-05 -2.6931596265685762e-05 0 1.8638039742473306e-05 -3.22429399815021e-05 0 2.4486772643099375e-05 -3.3660499439577632e-05 0 1.9702672250006694e-05 -2.6931596265685762e-05 0 2.3836072897163234e-05 -2.7726342391561069e-05 0 1.9702672250006694e-05 -2.6931596265685762e-05 0 2.4486772643099375e-05 -3.3660499439577632e-05 0 3.0519487358208034e-05 -3.7518159295085683e-05 0 2.4486772643099375e-05 -3.3660499439577632e-05 0 2.7908631351982201e-05 -4.062801513467903e-05 0 1.8638039742473306e-05 -3.22429399815021e-05 0 2.2748562337614058e-05 -3.9551928292529171e-05 0 2.4486772643099375e-05 -3.3660499439577632e-05 0 2.2748562337614058e-05 -3.9551928292529171e-05 0 2.7908631351982201e-05 -4.062801513467903e-05 0 2.4486772643099375e-05 -3.3660499439577632e-05 0 1.3076235960819882e-05 -3.6884899705304054e-05 0 1.7407322164757868e-05 -3.8214066730978067e-05 0 1.4053004173531806e-05 -3.1264472560296244e-05 0 1.8638039742473306e-05 -3.22429399815021e-05 0 1.7407322164757868e-05 -3.8214066730978067e-05 0 2.2748562337614058e-05 -3.9551928292529171e-05 0 1.8638039742473306e-05 -3.22429399815021e-05 0 1.4053004173531806e-05 -3.1264472560296244e-05 0 1.7407322164757868e-05 -3.8214066730978067e-05 0 1.9578634152542596e-05 -4.5593703826432244e-05 0 2.2748562337614058e-05 -3.9551928292529171e-05 0 1.7407322164757868e-05 -3.8214066730978067e-05 0 1.3076235960819882e-05 -3.6884899705304054e-05 0 1.4904039996691128e-05 -4.1968946875217735e-05 0 1.7407322164757868e-05 -3.8214066730978067e-05 0 1.9578634152542596e-05 -4.5593703826432244e-05 0 1.7407322164757868e-05 -3.8214066730978067e-05 0 1.4904039996691128e-05 -4.1968946875217735e-05 0 1.3076235960819882e-05 -3.6884899705304054e-05 0 1.0309886577088749e-05 -4.0224688769898009e-05 0 1.4904039996691128e-05 -4.1968946875217735e-05 0 1.3076235960819882e-05 -3.6884899705304054e-05 0 9.1106840689069877e-06 -3.338599540607356e-05 0 1.0309886577088749e-05 -4.0224688769898009e-05 0 1.3076235960819882e-05 -3.6884899705304054e-05 0 1.4053004173531806e-05 -3.1264472560296244e-05 0 9.1106840689069877e-06 -3.338599540607356e-05 0 4.8681856490965204e-06 -3.6762054387408651e-05 0 1.0309886577088749e-05 -4.0224688769898009e-05 0 9.1106840689069877e-06 -3.338599540607356e-05 0 3.251989631583784e-05 -9.5484365331001517e-05 0 1.6530570702669587e-05 -0.00010668316518908613 0 3.5902847603543325e-05 -0.0001150048382380971 0 1.8633344563405293e-05 -6.6132817762922018e-05 0 2.0995738501319008e-05 -8.0043320630968505e-05 0 4.8681856490965204e-06 -3.6762054387408651e-05 0 6.2779116179533243e-06 -4.5059057672779872e-05 0 1.0309886577088749e-05 -4.0224688769898009e-05 0 3.5902847603543325e-05 -0.0001150048382380971 0 1.6530570702669587e-05 -0.00010668316518908613 0 2.2310705440713729e-05 -0.00012505462601611697 0 3.251989631583784e-05 -9.5484365331001517e-05 0 1.7232393519209125e-05 -8.8567929564663329e-05 0 1.6530570702669587e-05 -0.00010668316518908613 0 2.8871119723011461e-05 -7.6896861307974328e-05 0 1.7232393519209125e-05 -8.8567929564663329e-05 0 3.251989631583784e-05 -9.5484365331001517e-05 0 4.5447058561879269e-06 -2.8571488294841452e-05 0 4.8681856490965204e-06 -3.6762054387408651e-05 0 9.1106840689069877e-06 -3.338599540607356e-05 0 1.6737240096246527e-05 -5.2769001386874979e-05 0 1.8633344563405293e-05 -6.6132817762922018e-05 0 2.8871119723011461e-05 -7.6896861307974328e-05 0 1.5858412415091565e-05 -6.8858715394204783e-05 0 1.7232393519209125e-05 -8.8567929564663329e-05 0 5.5197088828783983e-06 -7.9258579427810968e-05 0 1.7232393519209125e-05 -8.8567929564663329e-05 0 1.5858412415091565e-05 -6.8858715394204783e-05 0 2.4728410241359612e-05 -5.9182199992248704e-05 0 1.5858412415091565e-05 -6.8858715394204783e-05 0 2.8871119723011461e-05 -7.6896861307974328e-05 0 4.5447058561879269e-06 -2.8571488294841452e-05 0 1.0482671611154744e-05 -2.7585258980546431e-05 0 8.2603674084009431e-06 -2.2845873406332717e-05 0 1.12873267667865e-05 -2.0798632147462929e-05 0 8.2603674084009414e-06 -2.2845873406332717e-05 0 1.0482671611154745e-05 -2.7585258980546431e-05 0 1.0482671611154745e-05 -2.7585258980546431e-05 0 9.1106840689069877e-06 -3.338599540607356e-05 0 1.4053004173531806e-05 -3.1264472560296244e-05 0 4.5447058561879269e-06 -2.8571488294841452e-05 0 9.1106840689069877e-06 -3.338599540607356e-05 0 1.0482671611154745e-05 -2.7585258980546431e-05 0 
</DataArray>
</PointData>
<CellData Scalars="region_id,cross_section_updated,displacement_divergence," Vectors="" Tensors="stress,">
<DataArray type="Float64" Name="region_id" format="ascii">
1 1 1 1 1 1 1 1 1 1 1 1 1 1 1 1 1 1 1 1 1 1 1 1 1 1 1 1 1 1 1 1 1 1 1 1 1 1 1 1 1 1 1 1 1 1 1 1 1 1 1 1 1 1 1 1 1 1 1 1 1 1 1 1 1 1 1 1 1 1 1 1 1 1 1 1 1 1 1 1 1 1 1 1 1 1 1 1 1 1 1 1 1 1 1 1 1 1 1 1 1 1 1 1 1 1 1 1 1 1 1 1 1 1 1 1 1 1 1 1 1 1 1 1 1 1 1 1 1 1 1 1 1 1 1 1 1 1 1 1 1 1 1 1 1 1 1 1 1 1 1 1 1 1 1 1 1 1 1 1 1 1 1 1 1 1 1 1 1 1 1 1 1 1 1 1 1 1 1 1 1 1 1 1 1 1 1 1 1 1 1 1 1 1 1 1 1 1 1 1 1 1 1 1 1 1 1 1 1 1 1 1 1 1 1 1 1 1 1 1 1 1 1 1 1 1 1 1 1 1 1 1 1 1 1 1 1 1 1 1 1 1 1 1 1 1 1 1 1 1 1 1 1 1 1 1 1 1 1 1 1 1 1 1 1 1 1 1 1 1 1 1 1 1 1 1 1 1 1 1 1 1 1 1 1 1 1 1 1 1 1 1 1 1 1 1 1 1 1 1 1 1 1 1 1 1 1 1 1 1 1 1 1 1 1 1 1 1 1 1 1 1 1 1 1 1 1 1 1 1 1 1 1 1 1 1 1 1 1 1 1 1 1 1 1 1 1 1 1 1 1 1 1 1 1 1 1 1 1 1 1 1 1 1 1 1 1 1 1 1 1 1 1 1 1 1 1 1 1 1 1 1 1 1 1 1 1 1 1 1 1 1 1 1 1 1 1 1 1 1 1 1 1 1 1 1 1 1 1 1 1 1 1 1 1 1 1 1 1 1 1 1 1 1 1 1 1 1 1 1 1 1 1 1 1 1 1 1 1 1 1 1 1 1 1 1 1 1 1 1 1 1 1 1 1 1 1 1 1 1 1 1 1 1 1 1 1 1 1 1 1 1 1 1 1 1 1 1 1 1 1 1 1 1 1 1 1 1 1 1 1 1 1 1 1 1 1 1 1 1 1 1 1 1 1 1 1 1 1 1 1 1 1 1 1 1 1 1 1 1 1 1 1 1 1 1 1 1 1 1 1 1 1 1 1 1 1 1 3 1 1 3 1 1 3 1 1 1 1 1 1 1 1 1 1 1 1 1 3 1 1 1 1 1 3 1 1 1 1 1 1 1 1 1 1 1 1 1 1 1 1 1 1 1 1 1 1 1 1 1 1 1 1 1 1 1 1 1 1 1 1 1 1 1 1 1 1 1 1 1 1 1 1 1 1 1 1 1 1 1 1 1 1 1 1 1 1 1 1 1 1 1 1 1 1 1 1 1 1 1 1 1 1 1 1 1 1 1 1 1 1 1 1 1 1 1 1 1 1 1 1 1 1 1 1 1 1 1 1 1 1 1 1 1 1 1 1 1 1 1 1 1 1 1 1 1 1 1 1 1 1 1 1 1 1 1 1 1 1 1 1 1 1 1 1 1 1 1 1 1 1 1 1 1 1 1 1 1 1 1 1 1 1 1 1 1 1 1 1 1 1 1 1 3 1 1 1 3 1 1 3 1 1 1 1 1 1 1 1 1 1 1 3 1 1 1 1 3 1 1 1 1 1 1 1 1 1 1 1 1 1 1 1 1 1 1 1 1 1 1 1 1 1 1 1 1 1 1 1 1 1 1 1 1 1 1 1 1 1 1 1 1 1 1 1 1 1 1 1 1 1 1 1 1 1 1 2 1 1 1 1 1 1 1 1 1 1 1 1 1 1 2 1 1 2 1 2 1 1 1 1 1 1 1 1 1 1 1 1 1 2 1 1 1 1 1 1 1 1 1 1 1 1 1 1 1 1 1 1 1 1 1 1 1 1 1 1 1 1 1 1 1 1 1 1 1 1 1 1 1 1 1 1 1 1 1 1 1 1 1 1 1 1 1 1 1 1 1 1 1 1 1 1 1 1 1 1 1 1 1 1 1 1 1 1 1 1 1 1 1 1 1 1 1 1 1 1 1 1 1 1 1 1 1 1 1 1 1 1 1 1 1 1 1 1 1 1 1 1 1 1 1 1 1 1 1 1 1 1 1 1 1 1 1 1 1 1 1 1 1 1 1 1 1 1 1 1 2 1 1 2 1 2 1 1 1 1 1 1 1 1 1 1 1 1 1 1 1 1 1 1 1 1 1 1 1 1 1 1 1 1 1 1 1 1 1 1 1 1 1 1 1 1 1 1 1 1 1 1 1 2 1 1 1 1 1 2 1 1 1 1 1 1 1 
</DataArray>
<DataArray type="Float64" Name="stress" NumberOfComponents="9" format="ascii">
-0.053488304905390444 0.0022185775601631062 0 0.0022185775601631062 -0.0068935114981564169 0 0 0 -0.015095454100886713 -0.050239175718334701 0.0035429516709416086 0 0.0035429516709416086 -0.01671496704032141 0 0 0 -0.01673853568966403 -0.05378956326908569 0.0046655309086782179 0 0.0046655309086782179 0.0029460378830263824 0 0 0 -0.012710881346514824 -0.051001718207754544 0.0056182995491236565 0 0.0056182995491236565 -0.0074166572652231665 0 0 0 -0.014604593868244427 -0.041337498539505788 0.012342012925633777 0 0.012342012925633777 -0.013784613475669399 0 0 0 -0.013780528003793794 -0.04133019218383549 0.012348663774103904 0 0.012348663774103904 -0.013760933534880226 0 0 0 -0.013772781429678929 -0.047592092394621574 0.011868774116729642 0 0.011868774116729642 -0.003414974530505533 0 0 0 -0.012751766731281779 -0.049551341894835281 0.010768266588159462 0 0.010768266588159462 -0.0045071769731425786 0 0 0 -0.013514629716994462 -0.045789628980644037 0.014047525595513349 0 0.014047525595513349 -0.0033815536383116247 0 0 0 -0.012292795654738918 -0.036313609417822433 0.014493625991110273 0 0.014493625991110273 -0.00075256548824832042 0 0 0 -0.0092665437265176884 -0.052625330423782847 0.014851817696895125 0 0.014851817696895125 -0.0016860549775015859 0 0 0 -0.013577846350321117 -0.035824563606995645 0.016297206681803386 0 0.016297206681803386 0.0011286194947627698 0 0 0 -0.0086739860280582171 -0.065099618334912221 0.01161389125329068 0 0.01161389125329068 -0.00076933829694215625 0 0 0 -0.016467239157963595 -0.050838330889243812 0.012390709353673316 0 0.012390709353673316 0.00082051506769246704 0 0 0 -0.012504453955387846 -0.077635889979539269 0.004478663675441647 0 0.004478663675441647 -0.0025134113798994176 0 0 0 -0.020037325339859659 -0.063092135267250063 0.0057769845195273419 0 0.0057769845195273419 -0.00031023263120374261 0 0 0 -0.015850591974613453 -0.057730231526884529 0.0080477867682743204 0 0.0080477867682743204 0.0034869531671687347 0 0 0 -0.013560819589928948 -0.058431376810409261 0.011939510432252678 0 0.011939510432252678 -0.000951227094270337 0 0 0 -0.014845650976169904 -0.0064743124721338696 0.017419406330690224 0 0.017419406330690224 -0.0021541871483466498 0 0 0 -0.0021571249051201297 -0.013324124202305266 0.021077278304267352 0 0.021077278304267352 -0.0024099335010151629 0 0 0 -0.0039335144258301064 -0.015582881514897859 0.015947130585011147 0 0.015947130585011147 -0.0013336231029082921 0 0 0 -0.0042291261544515346 -0.028405554646165752 0.018655379568867335 0 0.018655379568867335 -0.0020122530154876583 0 0 0 -0.0076044519154133544 -0.030007993957754407 0.01701804829129858 0 0.01701804829129858 -0.0058565311454161287 0 0 0 -0.008966131275792634 -0.018789816905333295 0.01883846899858959 0 0.01883846899858959 -0.0030815386671260783 0 0 0 -0.0054678388931148417 -0.019099055264990904 0.016640815593694062 0 0.016640815593694062 -0.0063733131867572644 0 0 0 -0.0063680921129370431 -0.031618056486591925 0.01862857202227786 0 0.01862857202227786 -0.00078835622521065962 0 0 0 -0.0081016031779506462 -0.033832431372882679 0.01449959142948181 0 0.01449959142948181 -0.0010412587957432662 0 0 0 -0.0087184225421564898 -0.028224152131270892 0.015965175814113004 0 0.015965175814113004 -0.0027803701161338984 0 0 0 -0.0077511305618511942 -0.012602236599924675 0.015684367562440012 0 0.015684367562440012 -0.00017127566040610331 0 0 0 -0.0031933780650826929 -0.013437663320810232 0.017307942063371107 0 0.017307942063371107 -0.0019595165655385965 0 0 0 -0.0038492949715872096 -0.0059760367974795022 0.020281711055669394 0 0.020281711055669394 -0.0017750028143413542 0 0 0 -0.0019377599029552139 -0.00039940881926101793 0.01519062283580299 0 0.01519062283580299 0.0004370052837523869 0 0 0 9.3991161228433248e-06 -0.0016325155744713448 0.01816476006206472 0 0.01816476006206472 -0.0010164922228155203 0 0 0 -0.00066225194932171931 -0.0021696340200620598 0.01376021969741612 0 0.01376021969741612 0.00066346689997520691 0 0 0 -0.00037654178002171496 -0.014852635765023499 0.018946240118009723 0 0.018946240118009723 -0.00038954873791241518 0 0 0 -0.0038105461257339802 -0.033895279670406397 0.018714602391948925 0 0.018714602391948925 -0.00031870829481646379 0 0 0 -0.0085534969913057153 -0.027375972530654026 0.018773565877155972 0 0.018773565877155972 -0.00075923488878305856 0 0 0 -0.0070338018548592798 -0.018180402983632851 0.015128435067170924 0 0.015128435067170924 0.0012049977748739144 0 0 0 -0.004243851302189728 -0.034104501874769814 0.015310741304966157 0 0.015310741304966157 0.0017354585361163341 0 0 0 -0.0080922608346633788 -0.037902176728269538 0.018643372532161223 0 0.018643372532161223 0.00043580378649721307 0 0 0 -0.0093665932354430881 -0.027451035772548284 0.014547593320493834 0 0.014547593320493834 0.00096143007022474539 0 0 0 -0.0066224014255808709 -0.019658008800853347 0.019025216381059092 0 0.019025216381059092 0.0027785632483003156 0 0 0 -0.0042198613881382612 -0.019842629335240416 0.014834199203446672 0 0.014834199203446672 0.0030162051515748994 0 0 0 -0.00420660604591638 -0.0051010229072884295 0.014013529015219907 0 0.014013529015219907 0.0023143368326582073 0 0 0 -0.00069667151865755814 -0.018116821827547865 0.019169480675002092 0 0.019169480675002092 0.00065588503849126761 0 0 0 -0.0043652341972641546 -0.014082185927203627 0.012580936769768031 0 0.012580936769768031 0.0045069299156303005 0 0 0 -0.0023938140028933325 0.0078768876880415811 0.012930380371465124 0 0.012930380371465124 0.0023649975132067069 0 0 0 0.0025604713003120685 -0.002987435918773259 0.016576414138339886 0 0.016576414138339886 0.0027375277694031142 0 0 0 -6.2477037342537067e-05 -0.076254807840332284 0.0051394600137832612 0 0.0051394600137832612 -0.0029137618661494308 0 0 0 -0.019792142426620439 -0.060834144059121811 0.013524940104042905 0 0.013524940104042905 4.8562908813346017e-05 0 0 0 -0.015196395287577127 -0.090832930915651325 0.0071455204402683849 0 0.0071455204402683849 -0.00036512198476176122 0 0 0 -0.022799513225103259 -0.062485143046287973 0.0098175061663412829 0 0.0098175061663412829 0.0023979607107288167 0 0 0 -0.015021795583889788 -0.048039047390028698 0.013842485431320349 0 0.013842485431320349 0.0016769926499923191 0 0 0 -0.011590513685009107 -0.049616533154604951 0.015429482658931661 0 0.015429482658931661 -0.00052423915063419535 0 0 0 -0.012535193076309792 -0.050646320353453816 0.017305819771580973 0 0.017305819771580973 -0.00024523351537443505 0 0 0 -0.012722888467207049 -0.058219033041939094 0.01167439810254875 0 0.01167439810254875 0.0017266474780008173 0 0 0 -0.014123096390984583 -0.0412499048903762 0.014127628126105428 0 0.014127628126105428 0.00047834163805657998 0 0 0 -0.010192890813079905 -0.060519298410619926 0.015947478178105698 0 0.015947478178105698 -4.0054305825931724e-05 0 0 0 -0.015139838179111458 -0.047827868758406389 0.01241597013856291 0 0.01241597013856291 0.00019424208218751099 0 0 0 -0.011908406669054714 -0.059247466979227614 0.012134084549229917 0 0.012134084549229917 0.0015890021802795785 0 0 0 -0.014414616199737003 -0.081781465276496781 0.0091697748528835402 0 0.0091697748528835402 -0.0002519998129281607 0 0 0 -0.020508366272356238 -0.078311055770688517 0.0096074560309209189 0 0.0096074560309209189 -0.00079906454491661784 0 0 0 -0.019777530078901279 -0.076113930007957853 0.0059252939466126388 0 0.0059252939466126388 0.00092594843222832193 0 0 0 -0.01879699539393237 -0.10281872545672251 0.0068541931255756174 0 0.0068541931255756174 -0.00054995993079695951 0 0 0 -0.025842171346879852 -0.10872774350830648 0.005723723023830847 0 0.005723723023830847 -0.00034311618806242422 0 0 0 -0.027267714924092239 -0.079809073459467889 0.0075879018055392874 0 0.0075879018055392874 0.0024253843520355882 0 0 0 -0.019345922276858076 -0.090743173452721315 0.0048067146963677466 0 0.0048067146963677466 0.0016627585290688203 0 0 0 -0.022270103730913111 -0.12436502757636397 0.0036777081876550538 0 0.0036777081876550538 0.0023475823826052955 0 0 0 -0.030504361298439676 -0.094213301960114265 0.010819271951223342 0 0.010819271951223342 0.0035953768308173428 0 0 0 -0.022654481282324224 -0.091252056398232376 0.0016192029705666133 0 0.0016192029705666133 0.00023736367688845239 0 0 0 -0.02275367318033597 -0.099397262120459462 0.0040171399646336398 0 0.0040171399646336398 0.0042668602304854406 0 0 0 -0.023782600472493483 -0.13733890589002667 -0.00068537472642942962 0 -0.00068537472642942962 -0.00052373695889557093 0 0 0 -0.034465660712230589 -0.05651316188428436 0.0043553434198413954 0 0.0043553434198413954 0.0074368866162856095 0 0 0 -0.012269068816999684 -0.047454611503179547 0.014972484513889547 0 0.014972484513889547 0.0053684848869519422 0 0 0 -0.010521531654056877 -0.070932650845589168 0.0099814279517777063 0 0.0099814279517777063 0.00050737352782126433 0 0 0 -0.017606319329441983 -0.06970419425000085 0.010852956651374691 0 0.010852956651374691 0.0041099413269871377 0 0 0 -0.016398563230753421 -0.047488913801179825 0.016420350762437433 0 0.016420350762437433 0.0037908278980069571 0 0 0 -0.01092452147579322 -0.081951820515048471 0.015312069994114165 0 0.015312069994114165 0.0045225158768402579 0 0 0 -0.019357326159552046 -0.068068067390087569 0.009825512239950502 0 0.009825512239950502 0.00023334270785792602 0 0 0 -0.016958681170557426 -0.061504962132207838 0.016150380253196359 0 0.016150380253196359 0.0024950820085308336 0 0 0 -0.014752470030919245 -0.043803484636982248 0.017214472574705486 0 0.017214472574705486 0.0025358087060863115 0 0 0 -0.010316918982723989 -0.028998434666602246 0.01604742927078812 0 0.01604742927078812 0.0026970936989965943 0 0 0 -0.006575335241901412 -0.028444825438003179 0.013321258794199233 0 0.013321258794199233 0.0042590174684637855 0 0 0 -0.0060464519923848466 -0.026010417298770419 0.012049522448693362 0 0.012049522448693362 0.0077949176113617756 0 0 0 -0.0045538749218521635 -0.01338706836844431 0.015736054077326506 0 0.015736054077326506 0.0039711974021238959 0 0 0 -0.0023539677415801057 -0.046649943607274112 0.01306278978702366 0 0.01306278978702366 0.0042550085689166892 0 0 0 -0.010598733759589342 -0.00020109693425479289 0.011671443894733579 0 0.011671443894733579 0.0075493614143879589 0 0 0 0.0018370661200332906 -0.0038697638706452209 0.016763040290693674 0 0.016763040290693674 0.0024773549213389368 0 0 0 -0.00034810223732657103 -0.010228315233825152 0.010513446824682311 0 0.010513446824682311 0.0092196387697298654 0 0 0 -0.00025216911602382423 0.0091471001872816815 0.0056369871699785907 0 0.0056369871699785907 0.012322966435986075 0 0 0 0.0053675166558169373 0.0045013227783810214 0.013657469522159947 0 0.013657469522159947 0.0069498189429219107 0 0 0 0.0028627854303257365 -0.0076098747271419985 0.010009677567705121 0 0.010009677567705121 0.014835335757811208 0 0 0 0.0018063652576673014 0.01114908111155935 0.0062330383939594031 0 0.0062330383939594031 0.014394210658525503 0 0 0 0.0063858229425212132 0.011485867091674762 0.0048900890879988168 0 0.0048900890879988168 0.023413435757515838 0 0 0 0.00872482571229765 -0.027821535098966683 0.016007425425774553 0 0.016007425425774553 0.0055261570661091497 0 0 0 -0.0055738445082143817 -0.038849474866963489 0.0084104659011525196 0 0.0084104659011525196 0.0066701435205210949 0 0 0 -0.0080448328366105916 -0.0090382793769115347 0.010931250120780486 0 0.010931250120780486 0.0074644909854494623 0 0 0 -0.00039344709786550726 -0.01943993444880527 0.0056839405784664537 0 0.0056839405784664537 0.011774968015836107 0 0 0 -0.001916241608242289 -0.025780037256321095 0.014587287486077231 0 0.014587287486077231 0.012365943775975496 0 0 0 -0.0033535233700863962 -0.037189977261161938 0.012606483295602336 0 0.012606483295602336 0.014642685632406921 0 0 0 -0.0056368229071887821 -0.022768469479058903 0.0056822122490826216 0 0.0056822122490826216 0.028986863753262482 0 0 0 0.0015545985685509051 -0.034939041272122301 -0.0014075309686509552 0 -0.0014075309686509552 0.015242226583675184 0 0 0 -0.0049242036721117545 0.034483245902823048 -0.0014981937665308025 0 -0.0014981937665308025 0.027134479871288503 0 0 0 0.015404431443527898 -0.012087723464239008 0.010090733948133208 0 0.010090733948133208 0.021407601463623804 0 0 0 0.0023299694998462021 0.004397978839405646 0.0017608731752238177 0 0.0017608731752238177 0.022244560353532866 0 0 0 0.0066606347982346367 0.0093950555098572253 0.0041417821399075266 0 0.0041417821399075266 0.036892939961717164 0 0 0 0.011571998867893618 0.026811907795618695 -0.007707395144838175 0 -0.007707395144838175 0.039264679923290476 0 0 0 0.016519146929727297 0.004109484805345124 -0.0019383408419542669 0 -0.0019383408419542669 0.054079654668059987 0 0 0 0.014547284868351277 0.001139689078671402 -0.016075794553522232 0 -0.016075794553522232 0.05025665572116389 0 0 0 0.012849086199958837 0.012036903878976546 -0.022369203498850049 0 -0.022369203498850049 0.043934211699109993 0 0 0 0.013992778894521662 0.029388424764792642 -0.012763063601521824 0 -0.012763063601521824 0.08118459252614052 0 0 0 0.027643254322733346 -0.030647468552426033 -0.0080856723585816526 0 -0.0080856723585816526 0.033319239721654514 0 0 0 0.000667942792307058 -0.0063939985941031396 -0.0060796002821135176 0 -0.0060796002821135176 0.026084695376675793 0 0 0 0.0049226741956431841 -0.0077158987213461899 -0.02085897557294264 0 -0.02085897557294264 0.031181052223606343 0 0 0 0.0058662883755650624 -0.036349699776108635 -0.003606197968871544 0 -0.003606197968871544 0.017031086294297171 0 0 0 -0.0048296533704528799 -0.04129654382285855 -0.016451768421944374 0 -0.016451768421944374 0.019597020395230258 0 0 0 -0.0054248808569070939 -0.062632078436425889 -0.0079695022885322292 0 -0.0079695022885322292 0.013873571989455935 0 0 0 -0.012189626611742457 -0.073245380608059185 0.0024150792065002202 0 0.0024150792065002202 0.007280474438279283 0 0 0 -0.016491226542445003 -0.084937578970913002 -0.013414285414525662 0 -0.013414285414525662 0.010935603818083339 0 0 0 -0.018500493788207478 -0.09746066408035256 0.00012768069349630706 0 0.00012768069349630706 0.0033549254893129876 0 0 0 -0.023526434647759858 -0.13950233384683511 -0.0019307383931199496 0 -0.0019307383931199496 0.0047756840712240844 0 0 0 -0.033681662443902777 -0.10425573687574148 0.002231154646371164 0 0.002231154646371164 0.0037959909912392842 0 0 0 -0.025114936471125573 -0.10097321251694354 -0.0041702549279695189 0 -0.0041702549279695189 0.0046363105552982148 0 0 0 -0.024084225490411351 -0.108091728887712 -0.0019493417839079458 0 -0.0019493417839079458 0.00024624855739818763 0 0 0 -0.026961370082578415 -0.090945766731182515 0.0086438337300721174 0 0.0086438337300721174 0.0038880974116535238 0 0 0 -0.021764417329882269 -0.14238247855593955 0.0036244605678173863 0 0.0036244605678173863 0.0015169493047075822 0 0 0 -0.035216382312807937 -0.10561818049232027 0.0091716072678906385 0 0.0091716072678906385 0.0031873531572200117 0 0 0 -0.025607706833775036 -0.070550085000479643 0.01220155816488646 0 0.01220155816488646 0.0075687898378074547 0 0 0 -0.015745323790668023 -0.053517978497596763 0.0077498510205751547 0 0.0077498510205751547 0.012751212004891717 0 0 0 -0.010191691623176232 -0.074832327961710424 -0.00077447683226712638 0 -0.00077447683226712638 0.0076136654551688387 0 0 0 -0.016804665626635421 0.028443066446154675 -0.0051346197302114052 0 -0.0051346197302114052 0.071834543656920269 0 0 0 0.025069402525768739 0.026927374498313585 -0.0075455554921098067 0 -0.0075455554921098067 0.05946554529080314 0 0 0 0.021598229947279186 0.026561174516735311 -0.009833860594596136 0 -0.009833860594596136 0.052987441351701942 0 0 0 0.019887153967109297 0.022868905428162351 -0.0017529961760544312 0 -0.0017529961760544312 0.061600320566009163 0 0 0 0.02111730649854289 0.030271871886723971 0.0063842386666860748 0 0.0063842386666860748 0.067063135533200854 0 0 0 0.024333751854981205 0.033291422809167991 0.00447614028267386 0 0.00447614028267386 0.079242509533079375 0 0 0 0.028133483085561847 0.024009197665506649 -0.0051572204461978136 0 -0.0051572204461978136 0.077313089216031569 0 0 0 0.025330571720384557 0.022373071863816756 -0.0040191661027340038 0 -0.0040191661027340038 0.074292957299905205 0 0 0 0.024166507290930499 0.029573832757747994 -0.0054540618997156185 0 -0.0054540618997156185 0.073317429459591951 0 0 0 0.025722815554334984 0.027230139097280018 -0.0040081859658355687 0 -0.0040081859658355687 0.069330202592622209 0 0 0 0.024140085422475532 0.014382251577409452 -0.0033887188744683439 0 -0.0033887188744683439 0.068899093956152957 0 0 0 0.020820336383390606 0.022676972767866767 -0.0070956484053331242 0 -0.0070956484053331242 0.075087246644079703 0 0 0 0.024441054852986609 0.018328501943239706 -0.0090078517365059646 0 -0.0090078517365059646 0.071596929826969941 0 0 0 0.022481357942552405 0.020619870775343142 -0.014142527494892601 0 -0.014142527494892601 0.077057006815609647 0 0 0 0.024419219397738216 0.020493566438294752 -0.0068042128435274601 0 -0.0068042128435274601 0.089005398881583875 0 0 0 0.027374741329969657 0.068141265807016432 -0.058081777050694949 0 -0.058081777050694949 0.1388182363338463 0 0 0 0.051739875535215689 0.0097156707778422446 -0.030641725664331348 0 -0.030641725664331348 0.086813409330715047 0 0 0 0.02413227002713933 0.061552565257911619 -0.037652939202441171 0 -0.037652939202441171 0.076696578174201752 0 0 0 0.034562285858028348 0.01129897990948274 -0.013773210082339974 0 -0.013773210082339974 0.07735080707854225 0 0 0 0.022162446747006251 0.071036808652562844 -0.011137398916177363 0 -0.011137398916177363 0.12075575678988815 0 0 0 0.047948141360612762 0.055033789383066745 -0.024454352293180631 0 -0.024454352293180631 0.065870239043650358 0 0 0 0.030226007106679276 0.10242206166110525 -0.031524068998033658 0 -0.031524068998033658 0.084351659749051067 0 0 0 0.046693430352539117 0.04614204211228265 -0.02176917601359396 0 -0.02176917601359396 0.064537887702788954 0 0 0 0.027669982453767894 0.03343410890368001 -0.0041458832757010899 0 -0.0041458832757010899 0.062953119034919125 0 0 0 0.024096806984649805 0.063611593935648081 -0.014895560007295479 0 -0.014895560007295479 0.049417982675177358 0 0 0 0.028257394152706353 0.03113984395792127 -0.0058091579994242748 0 -0.0058091579994242748 0.040804406105658983 0 0 0 0.017986062515895032 0.04123628320835411 -0.0068216888050025293 0 -0.0068216888050025293 0.029848774109087109 0 0 0 0.017771264329360301 0.030773878110578586 -0.02112228697961311 0 -0.02112228697961311 0.067285436635633411 0 0 0 0.024514828686553004 0.026787127721705419 -0.021323761530328129 0 -0.021323761530328129 0.051215501285868215 0 0 0 0.0195006572518934 0.043285654486383579 -0.018870123128617827 0 -0.018870123128617827 0.056527512065755736 0 0 0 0.024953291638034808 0.028212561798207837 -0.0095229858295453034 0 -0.0095229858295453034 0.031040940290004135 0 0 0 0.014813375522052988 0.03386140896448793 -0.0099506491928604592 0 -0.0099506491928604592 0.053435604095250555 0 0 0 0.021824253264934628 0.032466296581882222 -0.0075761730260508302 0 -0.0075761730260508302 0.034581076744116118 0 0 0 0.016761843331499566 0.031774582723062536 0.0027205984515624657 0 0.0027205984515624657 0.030567388444832536 0 0 0 0.015585492791973767 0.027248179152916083 -0.00029876264282015924 0 -0.00029876264282015924 0.018156610624186505 0 0 0 0.011351197444275655 0.026198447265138015 -0.0028383611165801251 0 -0.0028383611165801251 0.028966875192582425 0 0 0 0.013791330614430101 0.031826376962550813 -0.0034621409548522986 0 -0.0034621409548522986 0.02252577114421847 0 0 0 0.013588037026692328 0.02677278005044554 0.0037829914552179583 0 0.0037829914552179583 0.02441093984591574 0 0 0 0.012795929974090309 0.015900330998211785 0.0088890973859292802 0 0.0088890973859292802 0.016146381499279456 0 0 0 0.0080116781243728136 0.023553106003848447 0.0018432234505483605 0 0.0018432234505483605 0.014598430946067205 0 0 0 0.0095378842374789115 0.020984194206192394 0.010340268284569624 0 0.010340268284569624 0.012569788487553982 0 0 0 0.0083884956734365922 0.016239250291429964 0.0076668511686570039 0 0.0076668511686570039 0.0077595827710157522 0 0 0 0.0059997082656114281 0.010060000522320544 0.014017961866730872 0 0.014017961866730872 0.0065454231420313761 0 0 0 0.0041513559160879796 0.030940974779998683 0.0020895765014292602 0 0.0020895765014292602 0.021189687095063046 0 0 0 0.013032665468765438 0.029183372398350685 0.00039660389979287707 0 0.00039660389979287707 0.019107203046997256 0 0 0 0.012072643861336975 0.027623029506713727 0.0068164478367249391 0 0.0068164478367249391 0.017170463898286841 0 0 0 0.011198373351250145 0.024924427736161752 0.0053641599710486255 0 0.0053641599710486255 0.013985401752870358 0 0 0 0.0097274573722580387 0.030901948143146535 0.0036542371080964756 0 0.0036542371080964756 0.023503598214199468 0 0 0 0.013601386589336491 0.033971545267084596 0.010071637197014111 0 0.010071637197014111 0.01525343515761983 0 0 0 0.012306245106176103 0.041107711682343014 0.010706501102912984 0 0.010706501102912984 0.023521685535731342 0 0 0 0.016157349304518599 0.04159393926052251 0.0098166940855363618 0 0.0098166940855363618 0.020512477461368951 0 0 0 0.015526604180472858 0.035073166079311893 0.0037390529825349038 0 0.0037390529825349038 0.026725158211208855 0 0 0 0.015449581072630206 0.035394921641268375 0.0036889371248063035 0 0.0036889371248063035 0.034717184885693197 0 0 0 0.017528026631740398 0.030531247785358089 0.00092731847411792363 0 0.00092731847411792363 0.030904894885107552 0 0 0 0.015359035667616379 0.03636867638320411 0.0020245341631316711 0 0.0020245341631316711 0.04815959071654298 0 0 0 0.021132066774936772 0.039453902544855778 0.0075071928696467689 0 0.0075071928696467689 0.036980217236283884 0 0 0 0.019108529945284926 0.027755639301282511 -0.00046574183900688695 0 -0.00046574183900688695 0.044107742602019502 0 0 0 0.017965845475825512 0.032414488932780032 -0.0028889861218945514 0 -0.0028889861218945514 0.059081478308033217 0 0 0 0.022873991810203324 0.027537692143173302 -0.0064101432248341366 0 -0.0064101432248341366 0.040824868863084798 0 0 0 0.017090640251564516 0.042591065042038058 0.012221695565097845 0 0.012221695565097845 0.073661534161724038 0 0 0 0.029063149800940536 0.031764764762423688 0.0063658222839490988 0 0.0063658222839490988 0.050567545048162847 0 0 0 0.020583077452646627 0.036248557339704439 0.0040050609001642864 0 0.0040050609001642864 0.064743948070711543 0 0 0 0.02524812635260399 0.039498782665498625 0.008078070905008429 0 0.008078070905008429 0.038276888152259214 0 0 0 0.01944391770443946 0.043976807506621148 0.0132776909987176 0 0.0132776909987176 0.048432332647461843 0 0 0 0.023102285038520749 0.04521796585853937 0.01271882047597914 0 0.01271882047597914 0.051536919078190989 0 0 0 0.024188721234182576 0.047436197437632374 0.01334575535967906 0 0.01334575535967906 0.027214372735630085 0 0 0 0.018662642543315622 0.048099051566293009 0.013953838366985931 0 0.013953838366985931 0.031587269135412606 0 0 0 0.019921580175426397 0.056294407787609843 0.016680614267036271 0 0.016680614267036271 0.0232621485025373 0 0 0 0.019889139072536793 0.054191444069465113 0.014860088631183915 0 0.014860088631183915 0.014023207932867803 0 0 0 0.017053663000583218 0.047849839313802697 0.011391901804807519 0 0.011391901804807519 0.0067551840508376648 0 0 0 0.013651255841160111 0.047244957810450572 0.013887335525155139 0 0.013887335525155139 0.016950932115906266 0 0 0 0.016048972481589208 0.048477225380806122 0.012251378893281154 0 0.012251378893281154 0.01548179291114736 0 0 0 0.01598975457298837 0.035713537470210416 0.0075946860784618549 0 0.0075946860784618549 0.015478500235861829 0 0 0 0.012798009426518053 0.036803090273218333 0.011530234271961001 0 0.011530234271961001 0.0088124742206484169 0 0 0 0.011403891123466689 0.042168008057039803 0.01213947846278127 0 0.01213947846278127 0.010156120756604631 0 0 0 0.013081032203411119 0.043489139701914009 0.012375975568479938 0 0.012375975568479938 0.014413177530589197 0 0 0 0.014475579308125801 0.044519116814821853 0.010898999409210828 0 0.010898999409210828 0.0046943601421153072 0 0 0 0.01230336923923429 0.044233306731450789 0.012920754915487522 0 0.012920754915487522 0.0039818724857958177 0 0 0 0.012053794804311655 0.03590326062977052 0.011942382408460787 0 0.011942382408460787 0.0037614652742239338 0 0 0 0.0099161814759986047 0.050640718978320592 0.01203095246959102 0 0.01203095246959102 0.0027310311836519496 0 0 0 0.013342937540493136 0.04995558241823312 0.0096746366291800018 0 0.0096746366291800018 0.0015178166487128317 0 0 0 0.012868349766736491 0.056921544649640721 0.011395759965240494 0 0.011395759965240494 0.0035621309691754241 0 0 0 0.015120918904704036 0.05265095232826409 0.01038460724884149 0 0.01038460724884149 0.0027369896006675318 0 0 0 0.013846985482232909 0.049909047704843335 0.012826700024112434 0 0.012826700024112434 0.0071309536660959932 0 0 0 0.014260000342734832 0.0098172790534945941 0.013224953235069094 0 0.013224953235069094 0.0085495432132995097 0 0 0 0.0045917055666985281 0.019851715899838272 0.011459974808381087 0 0.011459974808381087 0.0039969122352718246 0 0 0 0.0059621570337775234 0.010431404882958264 0.014343208067213148 0 0.014343208067213148 0.0039969537054083126 0 0 0 0.0036070896470916415 0.026507285193859136 0.010660536657144181 0 0.010660536657144181 0.002455874302662836 0 0 0 0.0072407898741305016 0.022015047442248595 0.012275906631316074 0 0.012275906631316074 0.0099232152474403312 0 0 0 0.0079845656724222419 0.027475818731941666 0.011279837543716927 0 0.011279837543716927 0.0086383709911431322 0 0 0 0.0090285474307711996 0.030031047818980788 0.0077722015023804839 0 0.0077722015023804839 0.0086533083858691857 0 0 0 0.0096710890512124968 0.031174668150501361 0.01331848071301203 0 0.01331848071301203 0.011486573428056895 0 0 0 0.010665310394639572 0.034566395650570667 0.010352891364992081 0 0.010352891364992081 0.0038254151792863761 0 0 0 0.0095979527074642607 0.028954388260072801 0.010972894598030664 0 0.010972894598030664 0.0045481686996943632 0 0 0 0.0083756392399417998 0.035475648986103114 0.013661976390372258 0 0.013661976390372258 0.0023751786345992676 0 0 0 0.0094627069051755851 0.024847313166564185 0.014522388274748044 0 0.014522388274748044 0.0056043012548953434 0 0 0 0.0076129036053648805 0.022634220930183815 0.013068701770354027 0 0.013068701770354027 0.0020384156838601925 0 0 0 0.006168159153510995 0.011913020036237152 0.013899660441837046 0 0.013899660441837046 0.0020862835192114598 0 0 0 0.0034998258888621486 0.010107123767240087 0.016616358039862569 0 0.016616358039862569 0.00086872149307502811 0 0 0 0.0027439613150787787 0.0096994123886062593 0.014157799018593178 0 0.014157799018593178 0.0017335340496424101 0 0 0 0.0028582366095621682 0.0003595263324219708 0.017179030866015681 0 0.017179030866015681 0.001096053589108574 0 0 0 0.00036389498038263621 0.007002381246240242 0.018835103509461139 0 0.018835103509461139 6.2411116145202894e-05 0 0 0 0.0017661980905963603 -0.00076248100669396718 0.01633973134459835 0 0.01633973134459835 0.0020043544958309456 0 0 0 0.0003104683722842394 0.0075297263613922846 0.014214506705717885 0 0.014214506705717885 -6.3478273163969368e-05 0 0 0 0.0018665620220570771 0.017738149457505275 0.01675406232416388 0 0.01675406232416388 0.0014150261158382138 0 0 0 0.0047882938933358661 0.016048276248586728 0.014617704460483152 0 0.014617704460483152 0.0013981851650281263 0 0 0 0.0043616153534037153 0.019564802124326829 0.017417442311245222 0 0.017417442311245222 0.001451903896822454 0 0 0 0.0052541765052873148 0.025107165679344977 0.012582659581059741 0 0.012582659581059741 0.0014013194055139244 0 0 0 0.0066271212712147223 0.026823120774326983 0.014125116520323678 0 0.014125116520323678 0.0030086152765059354 0 0 0 0.0074579340127082332 0.034741570360802068 0.01454616910553477 0 0.01454616910553477 0.0013160906533379313 0 0 0 0.0090144152535349999 0.027131609690536067 0.013169634699629869 0 0.013169634699629869 0.0052130736780132692 0 0 0 0.0080861708421373357 0.023538008655751785 0.018053128757885131 0 0.018053128757885131 0.0031000757500717693 0 0 0 0.0066595211014558904 0.020391873579903557 0.015680158291313091 0 0.015680158291313091 0.0067974101361993932 0 0 0 0.0067973209290257373 0.012235689272171193 0.020401364687779078 0 0.020401364687779078 0.00113718075445398 0 0 0 0.0033432175066562958 0.0072301150857464989 0.016865580968460379 0 0.016865580968460379 0.0024075442323402271 0 0 0 0.0024094148295216813 -8.2367006248855457e-05 0.021588037232645685 0 0.021588037232645685 -0.0014645871412609507 0 0 0 -0.0003867385368774498 0.048942861432680458 0.0091199181141966429 0 0.0091199181141966429 0.003819727142757974 0 0 0 0.01319064714385961 0.050906019756545212 0.010199692024336326 0 0.010199692024336326 0.0015482985120730333 0 0 0 0.013113579567154563 0.043296720543926547 0.011403131600381675 0 0.011403131600381675 0.0022436307715759315 0 0 0 0.011385087828875623 0.043432679726190443 0.012152420282821777 0 0.012152420282821777 0.0017406207278514094 0 0 0 0.011293325113510465 0.035892833732861881 0.012267044532295941 0 0.012267044532295941 0.0039259727933701957 0 0 0 0.009954701631558021 0.040975129177279287 0.011840297460184963 0 0.011840297460184963 0.0046716848899547234 0 0 0 0.011411703516808501 0.032179601693174138 0.013541780944704075 0 0.013541780944704075 0.010720547900517493 0 0 0 0.010725037398422906 0.032509831809887466 0.015341665998554251 0 0.015341665998554251 0.0064842527439994656 0 0 0 0.0097485211384717371 0.039277976191733267 0.011840495999639527 0 0.011840495999639527 0.013090813244760203 0 0 0 0.01309219735912337 0.039813015156399914 0.011756575852289522 0 0.011756575852289522 0.0068577776610319018 0 0 0 0.011667698204357955 0.048399532521740757 0.0082082967500091975 0 0.0082082967500091975 0.0079876656956752654 0 0 0 0.014096799554354007 0.044471596087727487 0.010372197022228795 0 0.010372197022228795 0.0030436243549062849 0 0 0 0.011878805110658438 0.042781318471478355 0.0097344069169257759 0 0.0097344069169257759 0.0075507927242983719 0 0 0 0.012583027798944183 0.043884893353762319 0.0093678656372444755 0 0.0093678656372444755 0.014626675566502529 0 0 0 0.014627892230066213 0.046670963527678959 0.005925850509676229 0 0.005925850509676229 0.0057036024012526321 0 0 0 0.013093641482232896 0.050551080191964623 0.0029402316315092348 0 0.0029402316315092348 0.016839452030828882 0 0 0 0.016847633055698374 0.046043855658847173 0.0013066061968383712 0 0.0013066061968383712 0.0038255425144553094 0 0 0 0.012467349543325616 0.054298448222753946 0.001107866126520347 0 0.001107866126520347 0.0059109709587287212 0 0 0 0.015052354795370669 0.053627773532411223 0.0043284757858057452 0 0.0043284757858057452 0.0037616331745337237 0 0 0 0.014347351676736231 0.054739042192636714 0.0062099205358753292 0 0.0062099205358753292 0.0020002586120613716 0 0 0 0.014184825201174527 0.052134868468057496 0.0032915477692141409 0 0.0032915477692141409 -0.00038186413980428532 0 0 0 0.012938251082063304 0.059202812705041866 0.0036016671669404947 0 0.0036016671669404947 0.0018493628914794868 0 0 0 0.015263043899130338 0.054823836951520023 0.0057492677127431533 0 0.0057492677127431533 -0.0023393328876447931 0 0 0 0.013121126015968803 0.056445744160081399 0.0010497736247286359 0 0.0010497736247286359 -0.0054020541674922908 0 0 0 0.012760922498147271 0.052138452281711378 -0.0056577277430143735 0 -0.0056577277430143735 -0.0063243891677890636 0 0 0 0.01145351577848058 0.055301418204948286 -0.0016143717586399719 0 -0.0016143717586399719 1.9113709172196083e-05 0 0 0 0.013830132978530127 0.052242581501711662 -0.0010374105660539432 0 -0.0010374105660539432 0.0013687065424595472 0 0 0 0.013402822011042802 0.049974810486322747 -0.0014871189913485379 0 -0.0014871189913485379 0.016661320545802012 0 0 0 0.016659032758031191 0.049173833583074651 -0.0056282218692551315 0 -0.0056282218692551315 0.016377711003019477 0 0 0 0.016387886146523537 0.045344359612648204 -0.0048305735760893979 0 -0.0048305735760893979 0.0043551110476164785 0 0 0 0.012424867665066171 0.040903638398677944 -0.011779909617449414 0 -0.011779909617449414 0.01363100308879805 0 0 0 0.013633660371868998 0.049642202911550783 -0.0070189985644156048 0 -0.0070189985644156048 0.0035336275678818935 0 0 0 0.01329395761985817 0.038935961241001626 -0.011722625940491439 0 -0.011722625940491439 -0.00074152015867355592 0 0 0 0.0095486102705820211 0.024927645037210271 -0.01744815985035551 0 -0.01744815985035551 0.0083011516730973796 0 0 0 0.0083071991775769127 0.026992110511933801 -0.019697978573918737 0 -0.019697978573918737 -0.0046055106045878313 0 0 0 0.0055966499768364958 0.012028727918598645 -0.025351101497729303 0 -0.025351101497729303 -0.0061622864862392324 0 0 0 0.001466610358089853 0.026663752903069889 -0.020021021266605661 0 -0.020021021266605661 -0.010976673640032492 0 0 0 0.0039217698157593475 0.032389016806243294 -0.015417391230872043 0 -0.015417391230872043 -0.0070391582792458107 0 0 0 0.0063374646317493621 0.039905681818730804 -0.012552646416772419 0 -0.012552646416772419 -0.0014374851189900288 0 0 0 0.0096170491749351904 0.02131422371249796 -0.018834165606516719 0 -0.018834165606516719 -0.006750744263025521 0 0 0 0.0036408698623681089 0.03915072567116807 -0.012845585790357278 0 -0.012845585790357278 -0.0073274636420465767 0 0 0 0.007955815507280372 0.051591947174000057 -0.0074783115859962885 0 -0.0074783115859962885 -0.0095104243875119079 0 0 0 0.010520380696622041 0.054159989743270159 -0.0037659008371299235 0 -0.0037659008371299235 -0.0037381967301604209 0 0 0 0.012605448253277432 0.056513019774941137 -0.0054859747656578811 0 -0.0054859747656578811 -0.0062666826384170579 0 0 0 0.012561584284131023 0.055122181735724765 -0.0047199961869455014 0 -0.0047199961869455014 -0.010036006482419183 0 0 0 0.011271543813326398 0.067851850005655079 0.00028345764640050949 0 0.00028345764640050949 -0.0077493847841707438 0 0 0 0.015025616305371095 0.045192398441581211 -0.013757663128860547 0 -0.013757663128860547 -0.01324277472272628 0 0 0 0.0079874059297137291 0.034991682100726396 -0.019364810816766224 0 -0.019364810816766224 -0.011562507834712701 0 0 0 0.0058572935665034132 0.045185102876296665 -0.013107596896926331 0 -0.013107596896926331 -0.010205813084626474 0 0 0 0.0087448224479175531 0.048915682058277177 -0.0090404325316030335 0 -0.0090404325316030335 -0.0089487635392102513 0 0 0 0.0099917296297667366 0.027148474761870503 -0.019557864023255253 0 -0.019557864023255253 -0.01392637731139286 0 0 0 0.0033055243626194108 0.045782447402348145 -0.01995048379925023 0 -0.01995048379925023 -0.014378767570015265 0 0 0 0.0078509199580832183 0.055453436263333968 -0.015223882019807712 0 -0.015223882019807712 -0.0093039768538204521 0 0 0 0.011537364852378362 0.051418260092135168 -0.012495223073253601 0 -0.012495223073253601 -0.012852189977859054 0 0 0 0.0096415175285690102 0.074560028531505368 -0.004790285773012536 0 -0.004790285773012536 -0.0056294099661306565 0 0 0 0.017232654641343687 0.05538415860141932 -0.019245157600412038 0 -0.019245157600412038 -0.0062766947785776253 0 0 0 0.01227686595571042 0.053449152620455034 -0.018123654677643958 0 -0.018123654677643958 -0.0092216459870041352 0 0 0 0.011056876658362733 0.063295486626217048 0.00024598049568358665 0 0.00024598049568358665 -0.0061834979905499247 0 0 0 0.014277997158916774 0.065354275342585297 -0.00871537734242947 0 -0.00871537734242947 -0.0096045677605993279 0 0 0 0.013937426895496494 0.073572046647255154 0.0022144135916942233 0 0.0022144135916942233 -0.0077977322986029236 0 0 0 0.016443578587163044 0.085155493095278464 0.008519126942804562 0 0.008519126942804562 0.002783755600053308 0 0 0 0.02198481217383292 0.072333655306050584 0.010638852761737342 0 0.010638852761737342 0.0038637981954581049 0 0 0 0.019049363375377174 0.0758750924830046 0.009933083921999087 0 0.009933083921999087 0.0052891728698897383 0 0 0 0.020291066338223557 0.068563778712188481 0.0071107197602808311 0 0.0071107197602808311 -0.0031887514128562267 0 0 0 0.016343756824833064 0.068616105487116871 0.012895778511553897 0 0.012895778511553897 0.0051662761808725626 0 0 0 0.01844559541699738 0.071550948629186276 0.016675123279583814 0 0.016675123279583814 0.014485809196382052 0 0 0 0.021509189456392092 0.064862909355435525 0.01216056202857705 0 0.01216056202857705 0.0057688331614642041 0 0 0 0.017657935629224932 0.063808208821687584 0.016890549683511339 0 0.016890549683511339 0.016359804589464504 0 0 0 0.020042003352788017 0.056942859719733153 0.012545453676064662 0 0.012545453676064662 0.0070858027285967892 0 0 0 0.016007165612082493 0.055437347354851639 0.012388065706243984 0 0.012388065706243984 0.0066271786568700315 0 0 0 0.015516131502930403 0.060828666905003527 0.0086863050048289741 0 0.0086863050048289741 -0.00077834208365006562 0 0 0 0.015012581205338368 0.063347699238676655 0.010504652288982945 0 0.010504652288982945 0.00262047840995841 0 0 0 0.016492044412158759 0.055173013343012098 0.0078989530546238543 0 0.0078989530546238543 -0.0017828176392029257 0 0 0 0.0133475489259523 0.06220090651168126 0.0065716157392135873 0 0.0065716157392135873 0.00027427906764885103 0 0 0 0.015618796394832522 0.057985400360181238 0.0039851759194482941 0 0.0039851759194482941 -0.004737977282510946 0 0 0 0.013311855769417574 0.061670010887303103 0.0025338088902234026 0 0.0025338088902234026 -0.0028380005768299764 0 0 0 0.014708002577618288 0.060296885434788415 -0.0025226317468291203 0 -0.0025226317468291203 -0.0061725779318254001 0 0 0 0.013531076875740757 0.062978179907535625 0.0056157093623427981 0 0.0056157093623427981 -0.0030472765590474934 0 0 0 0.014982725837122058 0.067215653920968801 0.0065770513137835716 0 0.0065770513137835716 -0.0027938979064754859 0 0 0 0.016105439003623306 -0.11140353827675994 -0.0079746892289961676 0 -0.0079746892289961676 -0.0046028134159999123 0 0 0 -0.029001587923189964 -0.077784034383527947 -0.021057892187816025 0 -0.021057892187816025 -0.0022217751890272266 0 0 0 -0.020001452393138795 -0.086037066903624476 -0.0098658842811696519 0 -0.0098658842811696519 -0.00069842431224656975 0 0 0 -0.021683872803967764 -0.076484323925751455 -0.013888472173675779 0 -0.013888472173675779 0.0059788213461038908 0 0 0 -0.017626375644911891 -0.068503132890352814 -0.0092781696397891272 0 -0.0092781696397891272 0.0051828704028791042 0 0 0 -0.015830065621868433 -0.067278620565511885 -0.0061584579459637613 0 -0.0061584579459637613 -0.0081621141553447976 0 0 0 -0.018860183680214172 -0.063718526161955794 -0.0081230566490244471 0 -0.0081230566490244471 -0.02119791098286021 0 0 0 -0.021229109286204001 -0.065495127272459083 -0.010761214098794497 0 -0.010761214098794497 -0.0085321402395296016 0 0 0 -0.018506816877997174 -0.063878441898028576 -0.018703369517945378 0 -0.018703369517945378 -0.0059115328526638013 0 0 0 -0.017447493687673093 -0.058190807367790642 -0.019681971072747096 0 -0.019681971072747096 -0.0037207135331308872 0 0 0 -0.015477880225230379 -0.050034266371932264 -0.019764224484447934 0 -0.019764224484447934 -0.016686455747517558 0 0 0 -0.016680180529862452 -0.050023561159464561 -0.019771734519131969 0 -0.019771734519131969 -0.016652331739984559 0 0 0 -0.016668973224862278 -0.055922842013552979 -0.023425401613270138 0 -0.023425401613270138 -0.006964387986519327 0 0 0 -0.015721807500018073 -0.038445272516537565 -0.02410876389114059 0 -0.02410876389114059 -0.0022414735165983482 0 0 0 -0.01017168650828398 -0.063233978537598864 -0.021763954947209452 0 -0.021763954947209452 0.00098148775776239761 0 0 0 -0.015563122694959113 -0.091100679217816477 -0.021846316523523607 0 -0.021846316523523607 -0.0037344946377447924 0 0 0 -0.0237087934638903 -0.036649692822577962 -0.02885735683137728 0 -0.02885735683137728 -0.0017748510385350441 0 0 0 -0.0096061359652782514 -0.067371529136341049 -0.026467882525293696 0 -0.026467882525293696 -0.0064931942035526824 0 0 0 -0.018466180834973433 -0.032502156691959785 -0.024729856133544847 0 -0.024729856133544847 -0.0057397187251869153 0 0 0 -0.0095604688542866786 -0.025797225243871003 -0.025113446695415299 0 -0.025113446695415299 -0.0089405622943262222 0 0 0 -0.0086844468845493038 -0.032222015650960112 -0.0301933717056048 0 -0.0301933717056048 -0.0063805138188831045 0 0 0 -0.009650632367460811 -0.029245951033691233 -0.027626932395041295 0 -0.027626932395041295 -0.003655066158831155 0 0 0 -0.0082252542981305979 -0.031027202706255062 -0.026185647040771927 0 -0.026185647040771927 -0.0081695414558820151 0 0 0 -0.00979918604053427 -0.013143122919981588 -0.022812198037925422 0 -0.022812198037925422 -0.0043932579612214308 0 0 0 -0.0043840952203007544 -0.011898492277402674 -0.027109743329145744 0 -0.027109743329145744 -0.0073996745279180549 0 0 0 -0.0048245417013301787 -0.0056701721667421247 -0.021664818093849965 0 -0.021664818093849965 -0.0032446123808300142 0 0 0 -0.0022286961368930339 -0.0067462292404211373 -0.028674973506328715 0 -0.028674973506328715 -0.0060395427202068752 0 0 0 -0.0031964429901570023 0.0065466821623872276 -0.021365426521447631 0 -0.021365426521447631 0.0021844281589887757 0 0 0 0.0021827775803440006 0.018231950786362909 -0.017858322327032744 0 -0.017858322327032744 -0.0018238145269602601 0 0 0 0.0041020340648506605 0.0075238725083595567 -0.027204646410877071 0 -0.027204646410877071 -0.0090649395119033749 0 0 0 -0.0003852667508859528 0.0006891751596433196 -0.026973570723512721 0 -0.026973570723512721 -0.0090249514689101917 0 0 0 -0.0020839440773167267 0.0017505827347977145 -0.022013641661837006 0 -0.022013641661837006 -0.0082941768494913838 0 0 0 -0.0016358985286734195 0.018210565853022342 -0.02639862349711079 0 -0.02639862349711079 -0.015151458574247045 0 0 0 0.00076477681969382844 0.028827359178370336 -0.021405043237701184 0 -0.021405043237701184 -0.010094227979582815 0 0 0 0.004683282799696882 0.0026626160849578815 -0.031166071859556395 0 -0.031166071859556395 -0.01534067257104847 0 0 0 -0.0031695141215226435 0.027486438354010226 -0.026620875720563784 0 -0.026620875720563784 -0.015324578821253293 0 0 0 0.0030404648831892298 0.0043246956885219737 -0.027931272361875186 0 -0.027931272361875186 -0.0052229258051580425 0 0 0 -0.00022455752915901067 -0.0058136283138275693 -0.035589564206964942 0 -0.035589564206964942 -0.011814491451553374 0 0 0 -0.0044070299413452307 0.025330666253246391 -0.02397401730266923 0 -0.02397401730266923 -0.0063278950059612871 0 0 0 0.0047506928118212707 -0.0042781870997541903 -0.032077133750880393 0 -0.032077133750880393 -0.0061695000352937901 0 0 0 -0.0026119217837619925 0.00079218563016426186 -0.038527311911427026 0 -0.038527311911427026 -0.004148602517805508 0 0 0 -0.00083910422191031328 -0.039701177641290199 -0.033290048914207719 0 -0.033290048914207719 -0.012889042591418369 0 0 0 -0.013147555058177149 -0.03551070331572205 -0.034964684054629117 0 -0.034964684054629117 -0.0086701399044887689 0 0 0 -0.011045210805052712 -0.038110348530800336 -0.028468666248221759 0 -0.028468666248221759 -0.0032999901448620972 0 0 0 -0.010352584668915608 -0.0029735452938016264 -0.027534493517533849 0 -0.027534493517533849 -0.0052104932194753789 0 0 0 -0.0020460096283192487 -0.023281635156677583 -0.030913108653339537 0 -0.030913108653339537 -0.010763078292382863 0 0 0 -0.0085111783622651149 -0.061229371804798927 -0.029222212801370488 0 -0.029222212801370488 -0.0063398753513354972 0 0 0 -0.016892311789033609 -0.057297940674298595 -0.026600555083451868 0 -0.026600555083451868 0.002072550639519527 0 0 0 -0.01380634750869476 -0.08100612705056183 -0.024577192969715861 0 -0.024577192969715861 -0.00034663866903944518 0 0 0 -0.020338191429900329 -0.061527373245664305 -0.036261030397168478 0 -0.036261030397168478 -0.00093917785169406187 0 0 0 -0.015616637774339581 -0.077636491514529379 -0.027925767831710094 0 -0.027925767831710094 -0.0070061019103669284 0 0 0 -0.021160648356224079 -0.042308576168356232 -0.041155495963178419 0 -0.041155495963178419 -0.0020308725730077762 0 0 0 -0.011084862185341004 -0.077191870688532505 -0.031994012104172437 0 -0.031994012104172437 0.0032701297164605056 0 0 0 -0.018480435243017981 -0.12152937773182007 -0.022476945939724862 0 -0.022476945939724862 -0.0068242270220893464 0 0 0 -0.032088401188477354 -0.13134471872392656 -0.026533486149663211 0 -0.026533486149663211 -0.0036045552429488301 0 0 0 -0.033737318491718855 -0.16069913079595163 -0.014556332154179185 0 -0.014556332154179185 -0.0010076374689302683 0 0 0 -0.040426692066220453 -0.11500494197926539 -0.011594017207330687 0 -0.011594017207330687 0.00039599159273579626 0 0 0 -0.02865223759663239 -0.13448564212507072 -0.013349112962647394 0 -0.013349112962647394 -0.0010890836467797455 0 0 0 -0.033893681442962606 -0.08304123164272792 -0.026329843007903281 0 -0.026329843007903281 -0.00098960979891165451 0 0 0 -0.021007710360409888 -0.11334833511264894 -0.010429236341025962 0 -0.010429236341025962 -0.0063070545370773508 0 0 0 -0.029913847412431565 -0.084672800418251717 -0.01744903684095821 0 -0.01744903684095821 0.0043123068757034561 0 0 0 -0.020090123385637062 -0.17138087576645633 -0.012994759347182389 0 -0.012994759347182389 0.0085519054266631755 0 0 0 -0.040707242584948358 -0.25059992403549358 -0.0019937875803879429 0 -0.0019937875803879429 0.00039920496315987153 0 0 0 -0.062550179768083414 -0.15939381835217981 -0.029631164258893131 0 -0.029631164258893131 0.0086472592593762679 0 0 0 -0.037686639773200928 -0.1582207133131189 -0.0079113452788394795 0 -0.0079113452788394795 0.0035622140865287921 0 0 0 -0.038664624806647535 -0.21589627289287378 -0.010929296381680083 0 -0.010929296381680083 0.0033728897866374119 0 0 0 -0.053130845776559035 -0.18475139030882437 -0.013609856303745328 0 -0.013609856303745328 -0.00020912933864565553 0 0 0 -0.04624012991186751 -0.12528792779450093 -0.014462126425014271 0 -0.014462126425014271 0.0025280709925140678 0 0 0 -0.030689964200496744 -0.14501841367531307 -0.012226558741746274 0 -0.012226558741746274 0.0024276327835604655 0 0 0 -0.035647695222938106 -0.13900806130744517 -0.032124136762181031 0 -0.032124136762181031 0.0045285918671648384 0 0 0 -0.033619867360070083 -0.081996575500213609 -0.033401147407456068 0 -0.033401147407456068 0.0047599530382547994 0 0 0 -0.019309155615489702 -0.083384464378320117 -0.032307383338772852 0 -0.032307383338772852 -0.00074778453475973089 0 0 0 -0.02103306222826996 -0.055738773165994487 -0.031802144869743545 0 -0.031802144869743545 -0.0089694702572082757 0 0 0 -0.016177060855800687 -0.081537885026845294 -0.044311725889892378 0 -0.044311725889892378 0.011769609499889089 0 0 0 -0.017442068881739034 -0.10853917854113361 -0.021614814439811794 0 -0.021614814439811794 0.0034460552217998874 0 0 0 -0.026273280829833396 -0.090009167164757722 -0.016543155542297711 0 -0.016543155542297711 0.011092585764616407 0 0 0 -0.019729145350035317 -0.017276459215363277 -0.035044569348957028 0 -0.035044569348957028 0.014800827989586401 0 0 0 -0.00061890780644420496 -0.0096207325429192719 -0.030454146807930266 0 -0.030454146807930266 0.035936486485701469 0 0 0 0.0065789384856955596 0.02111321967738379 -0.04166100423038871 0 -0.04166100423038871 0.0094690802936216178 0 0 0 0.0076455749927513555 -0.066462104639404121 -0.030927392517579769 0 -0.030927392517579769 0.014225271665105343 0 0 0 -0.013059208243574715 -0.025238803642149463 -0.040754259081419247 0 -0.040754259081419247 0.0065587763221944349 0 0 0 -0.0046700068299887626 -0.062243735568681735 -0.044208814512151605 0 -0.044208814512151605 0.00072603133470920678 0 0 0 -0.015379426058493153 -0.028209104017188652 -0.045749920880291298 0 -0.045749920880291298 -0.0052546155342687462 0 0 0 -0.0083659298878643526 -0.021148444229133697 -0.034295243603747541 0 -0.034295243603747541 -0.00026563495369706647 0 0 0 -0.00535351979570769 0.011338410761063036 -0.041668670852788255 0 -0.041668670852788255 0.0007726665624327219 0 0 0 0.0030277693308739364 -0.024298243309794434 -0.034349979486844762 0 -0.034349979486844762 0.005535669457429733 0 0 0 -0.0046906434630911813 0.013099179122000218 -0.03004637443083797 0 -0.03004637443083797 0.00017234000847300007 0 0 0 0.0033178797826183062 0.048810697021077647 -0.036523625351360167 0 -0.036523625351360167 0.0010856665756502487 0 0 0 0.012474090899181974 0.033031459123040639 -0.035113559602067919 0 -0.035113559602067919 -0.0049441446890390161 0 0 0 0.0070218286085004071 0.064739343888507619 -0.027405471367227371 0 -0.027405471367227371 -0.0028856673535424242 0 0 0 0.015463419133741307 0.033578126082743312 -0.023561805172458934 0 -0.023561805172458934 -0.0062603885944141693 0 0 0 0.0068294343720822874 0.051274401675814464 -0.020911752258388813 0 -0.020911752258388813 0.0076079409232538073 0 0 0 0.014720585649767068 0.085666166407671607 -0.029560530710277567 0 -0.029560530710277567 0.012561177764760151 0 0 0 0.024556836043107946 0.024714911973246698 -0.029421574699469814 0 -0.029421574699469814 0.018084462902262947 0 0 0 0.010699843718877411 0.069204879742922693 -0.036052460173358725 0 -0.036052460173358725 0.021920373498887924 0 0 0 0.022781313310452661 0.067584243741553474 -0.018276017071392869 0 -0.018276017071392869 0.032811111313058403 0 0 0 0.025098838763652979 0.10315437094707801 -0.0092186684453196693 0 -0.0092186684453196693 0.068247024919241756 0 0 0 0.042850348966579951 0.11716844258196688 -0.030355471079822883 0 -0.030355471079822883 0.050250995897404532 0 0 0 0.041854859619842873 0.040693294059596624 -0.022022941033219834 0 -0.022022941033219834 0.044532801959380419 0 0 0 0.021306524004744254 0.021245994663698517 -0.043723492913978881 0 -0.043723492913978881 0.047985180251658155 0 0 0 0.017307793728839158 0.077168486269457465 -0.043238150647177134 0 -0.043238150647177134 0.10282328538768692 0 0 0 0.044997942914286077 0.10763270406820108 -0.025267244882143991 0 -0.025267244882143991 0.19125506392736302 0 0 0 0.074721941998890984 0.11241896457071801 0.02834489330911566 0 0.02834489330911566 0.16148481923555613 0 0 0 0.068475945951568501 0.091452656092949169 0.022215552376725511 0 0.022215552376725511 0.20643714319846751 0 0 0 0.074472449822854281 0.068720481775795816 0.016476806731718655 0 0.016476806731718655 0.13043238448354511 0 0 0 0.04978821656483523 0.038040988275877131 -0.020562286685456732 0 -0.020562286685456732 0.098464545559075453 0 0 0 0.034126383458738148 0.064248987492707854 -0.0014678737730074443 0 -0.0014678737730074443 0.10060333417405021 0 0 0 0.041213080416689474 0.012576850983718413 0.034366061489843253 0 0.034366061489843253 0.11336667517990406 0 0 0 0.031485881540905647 -0.017637821547640153 0.013204331659372182 0 0.013204331659372182 0.066035821173552778 0 0 0 0.012099499906478128 -0.052175985316131768 0.023462670100279609 0 0.023462670100279609 0.082275795081094838 0 0 0 0.0075249524412407953 -0.025218338869711476 -0.017398576336156969 0 -0.017398576336156969 0.035688973739105179 0 0 0 0.0026176587173484256 -0.064418480810676443 -0.0057256468113671133 0 -0.0057256468113671133 0.036864657606887841 0 0 0 -0.0068884558009471852 -0.0064353930806759496 -0.012533383992826913 0 -0.012533383992826913 0.093344312558508391 0 0 0 0.021727229869458131 -0.060625123007879318 -0.037114368638057865 0 -0.037114368638057865 0.041632754866035807 0 0 0 -0.0047480920354608441 -0.11400332988321801 -0.030826754860386732 0 -0.030826754860386732 0.018393468533946078 0 0 0 -0.023902465337318018 -0.1239837349398086 -0.0040325096307221725 0 -0.0040325096307221725 0.016963186457208734 0 0 0 -0.026755137120649974 -0.083835063501515483 -0.025323844135583612 0 -0.025323844135583612 0.035789992599667531 0 0 0 -0.01201126772546196 -0.1125745257944793 0.015304880043550517 0 0.015304880043550517 0.035430036242404789 0 0 0 -0.019286122388018641 -0.073181342353710765 0.0088948365840507138 0 0.0088948365840507138 0.022866590843582835 0 0 0 -0.012578687877531969 -0.14529552090377879 0.029955601658667091 0 0.029955601658667091 0.017539348419317369 0 0 0 -0.03193904312111534 -0.11690884795947112 0.013069015806631445 0 0.013069015806631445 0.047723631545022627 0 0 0 -0.017296304103612076 -0.1251948150591205 -0.0034083766572787916 0 -0.0034083766572787916 0.018275279431564817 0 0 0 -0.026729883906888852 -0.17689628955321152 0.0097893020024361621 0 0.0097893020024361621 0.016349065539305152 0 0 0 -0.040136806003476633 -0.17066485426529684 0.00093277904970118231 0 0.00093277904970118231 0.0099519028698935585 0 0 0 -0.040178237848850884 -0.25878752055532211 0.004428607465294763 0 0.004428607465294763 0.011405695596901966 0 0 0 -0.061845456239605079 -0.18801059783173157 -0.0048130424831670515 0 -0.0048130424831670515 0.0064281202298258622 0 0 0 -0.045395619400476372 -0.26728864988391177 -0.0083693360449762257 0 -0.0083693360449762257 0.0073834456009957972 0 0 0 -0.064976301070728992 -0.19577351173401181 0.0020262171763494874 0 0.0020262171763494874 0.00082132575378700279 0 0 0 -0.048738046495056205 -0.15383602472772745 -0.021585519460993408 0 -0.021585519460993408 0.012324130856713481 0 0 0 -0.035377973467753565 -0.18508842427703426 -0.022468603789023406 0 -0.022468603789023406 0.0085038157953978288 0 0 0 -0.04414615212040908 0.084390706340345817 0.030488382308731972 0 0.030488382308731972 0.044104248572047006 0 0 0 0.032123738728098206 0.088327047246216955 0.032356986379605976 0 0.032356986379605976 0.053657649838249943 0 0 0 0.035496174271116732 0.094289831061601673 0.034966407989394113 0 0.034966407989394113 0.055465093911338678 0 0 0 0.037438731243235067 0.072107914689989339 0.029474900913290351 0 0.029474900913290351 0.066612267934220065 0 0 0 0.034680045656052351 0.054326512431875244 0.022280657628736066 0 0.022280657628736066 0.074011518982673274 0 0 0 0.032084507853637111 0.062619372404572535 0.024339287886937892 0 0.024339287886937892 0.046065537428419553 0 0 0 0.027171227458247994 0.04453757364793838 0.016246959033803649 0 0.016246959033803649 0.052349117901026546 0 0 0 0.024221672887241242 0.071678328589259474 0.026767388828109809 0 0.026767388828109809 0.049173777387469392 0 0 0 0.030213026494182196 0.056746144271385954 0.018064123007634686 0 0.018064123007634686 0.028771580713649145 0 0 0 0.021379431246258768 0.057012872826343083 0.020180964800735324 0 0.020180964800735324 0.042717657707278971 0 0 0 0.024932632633405519 0.056150785048370441 0.014541433800362467 0 0.014541433800362467 0.01551813483848815 0 0 0 0.017917229971714643 0.066637462663347108 0.021554307956268212 0 0.021554307956268212 0.030601512992336974 0 0 0 0.02430974391392102 0.069617444980795196 0.017737841001245026 0 0.017737841001245026 0.013153893278478462 0 0 0 0.020692834564818397 0.070146640996764556 0.02161493598735155 0 0.02161493598735155 0.030998334960672079 0 0 0 0.025286243989359164 0.080447444154541942 0.024645634300424601 0 0.024645634300424601 0.027474656818580148 0 0 0 0.026980525243280533 0.084162921961290077 0.015409622720270827 0 0.015409622720270827 0.010651608473629962 0 0 0 0.023703632608730017 0.074834207964926625 0.01246708666792689 0 0.01246708666792689 0.0096898560868975119 0 0 0 0.021131016012956055 0.071828544522527807 -0.0037974183744340665 0 -0.0037974183744340665 -0.0048691680641972466 0 0 0 0.016739844114582642 0.091845886477164032 0.004025382028117204 0 0.004025382028117204 0.010734099473015526 0 0 0 0.02564499648754491 0.088260403437396773 0.0059759740260994683 0 0.0059759740260994683 0.0069045499039373723 0 0 0 0.023791238335333545 0.091620886872902707 0.021486533535619554 0 0.021486533535619554 0.025453771192323629 0 0 0 0.029268664516306601 0.067790095644769857 -0.010845321738675012 0 -0.010845321738675012 -0.0010770072157534425 0 0 0 0.016678272107254113 0.082945878786181301 -0.015077449746366888 0 -0.015077449746366888 0.0019509208359660152 0 0 0 0.021224199905536818 0.092365752853375879 -0.0025172277290156642 0 -0.0025172277290156642 0.016899809724140263 0 0 0 0.027316390644379039 0.10590982547642756 -0.0089015486064162545 0 -0.0089015486064162545 0.028145621310953772 0 0 0 0.033513861696845365 0.12469818672802384 0.01060103463687587 0 0.01060103463687587 0.04709508010632979 0 0 0 0.042948316708588397 0.10484861298109323 0.023131860646045201 0 0.023131860646045201 0.028823371068619416 0 0 0 0.033417996012428161 0.11895348076694749 0.016189479883821849 0 0.016189479883821849 0.025675224887398596 0 0 0 0.036157176413586525 0.1026728502812365 0.021946367291841476 0 0.021946367291841476 0.041549131636598569 0 0 0 0.036055495479458757 0.13094005331046502 0.028044099350704718 0 0.028044099350704718 0.048041308719375425 0 0 0 0.044745340507460075 0.11152024978790105 0.044075872804966373 0 0.044075872804966373 0.093438670953555625 0 0 0 0.051239730185364152 0.16609935140639814 0.046898978038019443 0 0.046898978038019443 0.088071637083012883 0 0 0 0.063542747122352777 0.13734449229029325 0.044888113768086824 0 0.044888113768086824 0.13765574728860996 0 0 0 0.068750059894725823 0.10548635081580462 0.05013774573003265 0 0.05013774573003265 0.14526200911359971 0 0 0 0.062687089982351063 0.12351342821836141 0.040865821142429856 0 0.040865821142429856 0.097519210784087929 0 0 0 0.055258159750612365 0.16217780725489192 -0.0048029520956737598 0 -0.0048029520956737598 0.073650827357263304 0 0 0 0.058957158653038827 0.16553220852195433 0.015326410012930891 0 0.015326410012930891 0.11892457125003683 0 0 0 0.071114194942997755 0.17302994958270379 -0.030283376286676593 0 -0.030283376286676593 0.102578100072934 0 0 0 0.068902012413909447 0.30328611120948207 -0.014350744038929095 0 -0.014350744038929095 0.17563801979572191 0 0 0 0.11973103275130094 0.19891969866816697 -0.0064265965374725731 0 -0.0064265965374725731 0.39137501329250063 0 0 0 0.14757367799016691 0.28714260362302801 0.1301354125921852 0 0.1301354125921852 0.28253220642465637 0 0 0 0.1424187025119211 0.14520838997355617 0.076911527189915674 0 0.076911527189915674 0.24309452471959253 0 0 0 0.097075728673287162 0.073105932024632628 0.034008763387324364 0 0.034008763387324364 0.13810231933562536 0 0 0 0.052802062840064515 0.13901177067326148 0.050938479232636086 0 0.050938479232636086 0.14016539229293346 0 0 0 0.069794290741548692 0.081327474674983039 -0.025221671186562572 0 -0.025221671186562572 0.27889605471762902 0 0 0 0.090055882348153052 0.059210666122809757 -0.026663169523913264 0 -0.026663169523913264 0.15600336985929028 0 0 0 0.053803508995525037 0.061395327260620053 -0.0261453339033553 0 -0.0261453339033553 0.16694490097017528 0 0 0 0.057085057057698813 0.07882323417067294 0.033331367697075953 0 0.033331367697075953 0.15655113453020886 0 0 0 0.058843592175220436 0.076909105797753119 0.033165257375362855 0 0.033165257375362855 0.089900008006688625 0 0 0 0.041702278451110401 0.067892317428553978 0.026198826452459401 0 0.026198826452459401 0.14021244426234958 0 0 0 0.052026190422725944 0.047004876199758031 0.013588729670973739 0 0.013588729670973739 0.092254582261610596 0 0 0 0.034814864615342153 0.063119049918241243 0.02707855730988435 0 0.02707855730988435 0.11112951135171181 0 0 0 0.043562140317488264 0.06766172258234282 0.028918563016851372 0 0.028918563016851372 0.065162790235981483 0 0 0 0.033206128204581062 0.084042349077507572 0.039882291747225455 0 0.039882291747225455 0.097440963227986205 0 0 0 0.045370828076373465 0.044096550481428437 0.017101054262160142 0 0.017101054262160142 0.068022671725529657 0 0 0 0.028029805551739534 0.044856903281375739 0.0150154854272955 0 0.0150154854272955 0.094531836809451791 0 0 0 0.034847185022706874 0.054230328508725847 -0.024177561391406258 0 -0.024177561391406258 0.10502406156658878 0 0 0 0.039813597518828674 0.037172650050882307 -0.0030566737932835753 0 -0.0030566737932835753 0.094740099520751353 0 0 0 0.032978187392908413 0.03301105152145177 -8.7045750930662275e-05 0 -8.7045750930662275e-05 0.083752574419368855 0 0 0 0.029190906485205146 0.050396845357939112 0.0083731669259541827 0 0.0083731669259541827 0.12521073710305641 0 0 0 0.043901895615248883 0.04660103324902589 -0.020507741053248128 0 -0.020507741053248128 0.080253001439066149 0 0 0 0.031713508672023029 0.043234822501442317 -0.020962755635306141 0 -0.020962755635306141 0.065657370814118821 0 0 0 0.027223048328890269 0.072974111939529254 -0.039282482830619442 0 -0.039282482830619442 0.074584079219606303 0 0 0 0.036889547789783865 0.063649633079234311 -0.036789430764157499 0 -0.036789430764157499 0.039115093575083082 0 0 0 0.025691181663579352 0.049184402846106257 -0.024091042719048647 0 -0.024091042719048647 0.031944618839265623 0 0 0 0.020282255421342956 0.076941080351544622 -0.034472539425004028 0 -0.034472539425004028 0.039963343055669842 0 0 0 0.029226105851803602 0.078295152857676589 -0.034301401666332665 0 -0.034301401666332665 0.04403451421975102 0 0 0 0.030582416769356875 0.063386826192901757 -0.025145716806426868 0 -0.025145716806426868 0.014648118455678871 0 0 0 0.019508736162145157 0.11243420999883671 -0.015875397689525408 0 -0.015875397689525408 0.031418215565556795 0 0 0 0.035963106391098343 0.095230136974203933 -0.024976731832767447 0 -0.024976731832767447 0.01236328412140042 0 0 0 0.026898355273901081 0.10152119223801856 -0.030677238618841224 0 -0.030677238618841224 0.021274067003467567 0 0 0 0.030698814810371511 0.13001100005830749 -0.05617941245939042 0 -0.05617941245939042 0.063523667392448135 0 0 0 0.048383666862688919 0.052040773884891665 -0.026167488720173458 0 -0.026167488720173458 0.10492749671022045 0 0 0 0.03924206764877803 0.081062809802740304 -0.046420246317314708 0 -0.046420246317314708 0.075462572799086899 0 0 0 0.039131345650456839 0.081992461955499113 -0.050300250120877861 0 -0.050300250120877861 0.089679827305339577 0 0 0 0.042918072315209693 0.089336679152822673 -0.06202666721117725 0 -0.06202666721117725 0.13740073079039067 0 0 0 0.056684352485803335 0.054897195979169172 -0.055284373367666173 0 -0.055284373367666173 0.18057409079239484 0 0 0 0.058867821692891037 0.10523713270131488 -0.054265337584838744 0 -0.054265337584838744 0.18032666411500731 0 0 0 0.071390949204080553 0.14112858971626963 -0.017141104244619038 0 -0.017141104244619038 0.49895961271208139 0 0 0 0.1600220506070878 0.12721256828392002 -0.020694527391617978 0 -0.020694527391617978 -0.015466310691301055 0 0 0 0.02793656439815477 0.1670227344741026 -0.085531697432637235 0 -0.085531697432637235 0.11365220711766462 0 0 0 0.070168735397941787 0.2667636935858293 0.18037811577651497 0 0.18037811577651497 0.32527680256162816 0 0 0 0.14801012403686442 0.16222955034006681 -0.12354272346949546 0 -0.12354272346949546 0.2170825408093767 0 0 0 0.094828022787360869 0.009721391877395999 0.0016378177376602798 0 0.0016378177376602798 0.026542912877014581 0 0 0 0.0090660761886026432 0.44270788279101186 0.15152992245786484 0 0.15152992245786484 0.093725515126365178 0 0 0 0.13410834947934436 0.23802885927835016 0.040776712268319137 0 0.040776712268319137 0.056554583186913754 0 0 0 0.073645860616316061 0.022489487095976798 0.0039696423592908286 0 0.0039696423592908286 0.067667483610175522 0 0 0 0.022539242676538077 0.046132047332370821 0.0065075314994020306 0 0.0065075314994020306 0.067277684076450128 0 0 0 0.028352432852205137 0.22938346426912948 0.036813943605465388 0 0.036813943605465388 0.049597130349675389 0 0 0 0.069745148654701272 0.032138597216997099 0.0055699400721186572 0 0.0055699400721186572 0.095971710681317671 0 0 0 0.032027576974578691 0.063769211203840631 0.013722802094783576 0 0.013722802094783576 0.079716168819848221 0 0 0 0.035871345005922289 0.18125914827987799 0.032280640507489577 0 0.032280640507489577 0.036432845659350122 0 0 0 0.054422998484806917 0.10934750383659697 -0.02969388139657092 0 -0.02969388139657092 0.0025567183128831772 0 0 0 0.027976055537370009 0.10534749826280425 0.0077246503131424837 0 0.0077246503131424837 0.049539388961083397 0 0 0 0.038721721805971984 0.10647158116571737 -0.0093257488112601372 0 -0.0093257488112601372 0.045263882234054198 0 0 0 0.037933865849942905 0.10979580638819311 -0.0031681768418009293 0 -0.0031681768418009293 0.032505793663710703 0 0 0 0.035575400012975988 0.093298218110029085 0.0093839747578497446 0 0.0093839747578497446 0.046211168835013416 0 0 0 0.034877346736260639 0.10324984932242734 0.0071088495160465115 0 0.0071088495160465115 0.081897551511014577 0 0 0 0.046286850208360514 0.093876475516233154 0.013903881226468795 0 0.013903881226468795 0.095783816302480951 0 0 0 0.047415072954678589 0.1079926251801156 0.0034001923649584487 0 0.0034001923649584487 0.048844201866499515 0 0 0 0.039209206761653792 0.16891844199394301 0.02768559481591093 0 0.02768559481591093 0.048479588306636678 0 0 0 0.054349507575144673 0.1801433884194088 0.018937743166116627 0 0.018937743166116627 0.0871918840513497 0 0 0 0.066833818117689736 0.20452527250688002 0.014303102158073389 0 0.014303102158073389 0.081969735557733792 0 0 0 0.071623752016153563 0.040608248778518666 0.006657577826712344 0 0.006657577826712344 0.12154586223327642 0 0 0 0.040538527752948771 0.18685392383914778 0.014903921114535024 0 0.014903921114535024 0.093265999795567822 0 0 0 0.070029980908678624 0.17926447575525301 0.013041674312600282 0 0.013041674312600282 0.095372016971478901 0 0 0 0.068659123181683268 0.15551732935980056 0.026091200152823735 0 0.026091200152823735 0.093404531800968638 0 0 0 0.062230465290192383 0.18448258348535229 0.012846985197043708 0 0.012846985197043708 0.11677026010663205 0 0 0 0.075313210897996363 0.1172662519547063 0.01380302124486954 0 0.01380302124486954 0.12379551986353721 0 0 0 0.060265442954560711 0.049079923922679153 0.0074367424031076615 0 0.0074367424031076615 0.14691480372045576 0 0 0 0.048998681910783728 0.16548125334853508 0.013947403729810404 0 0.013947403729810404 0.11979088797772453 0 0 0 0.071318035331564833 0.10324140990723996 0.011698586777526665 0 0.011698586777526665 0.074882852709526992 0 0 0 0.044531065654191737 0.099217966885935899 0.0075069880330060623 0 0.0075069880330060623 0.045928554727653781 0 0 0 0.036286630403397413 0.11491998309660834 0.0075455346177301097 0 0.0075455346177301097 0.10661933828176606 0 0 0 0.055384830344593627 0.11026574354891533 0.0082525593814395531 0 0.0082525593814395531 0.079445785508976519 0 0 0 0.047427882264472976 0.11736002368115533 0.013056484667317139 0 0.013056484667317139 0.087853634060642838 0 0 0 0.051303414435449557 0.097569973706023716 0.0075222358909516895 0 0.0075222358909516895 0.040011063634886865 0 0 0 0.034395259335227794 0.093533960315617115 0.0054989517514980601 0 0.0054989517514980601 0.04518257687294791 0 0 0 0.034679134297141201 0.1001882980670708 0.0060415255063520634 0 0.0060415255063520634 0.040557089048909534 0 0 0 0.035186346778995015 0.088972297604337974 -0.0061579583162807427 0 -0.0061579583162807427 0.011938744410309315 0 0 0 0.02522776050366185 0.089272684419245518 -0.0010998312931180115 0 -0.0010998312931180115 0.018915423544641152 0 0 0 0.027047026990971612 0.07457721944300183 -0.0031278316913435772 0 -0.0031278316913435772 0.012261236024740052 0 0 0 0.021709613866935484 0.077834193947959318 -0.0059327793128511885 0 -0.0059327793128511885 0.014148792913968311 0 0 0 0.022995746715481935 0.073491547005283014 -0.014197500387253648 0 -0.014197500387253648 0.0076026151206296522 0 0 0 0.020273540531478174 0.082027382990189801 -0.0057012709066554534 0 -0.0057012709066554534 0.015064027017800942 0 0 0 0.024272852501997726 0.085792836569219211 -0.014024776437856101 0 -0.014024776437856101 0.0096145305118253699 0 0 0 0.023851841770261117 0.068256489928645525 -0.017128302329158587 0 -0.017128302329158587 0.0035760044442789685 0 0 0 0.017958123593231123 0.083523699543705407 -0.022401825479499177 0 -0.022401825479499177 0.012686739220995225 0 0 0 0.024052609691175161 0.067132595585059171 -0.023540462920715904 0 -0.023540462920715904 0.015502750235001861 0 0 0 0.020658836455015275 0.087772135203127905 -0.015059263808221715 0 -0.015059263808221715 0.0091066102086725387 0 0 0 0.024219686352950104 0.095734173901919864 -0.0029266790634616124 0 -0.0029266790634616124 0.017331327228698457 0 0 0 0.028266375282654535 0.10129188442279292 -0.0066199775224127511 0 -0.0066199775224127511 0.023644199289746141 0 0 0 0.031234020928134782 -0.13579910183626043 0.01407030846402868 0 0.01407030846402868 0.0053316924845967506 0 0 0 -0.032616852337916113 -0.16156774362615656 0.019473979129045849 0 0.019473979129045849 0.0079607059430357729 0 0 0 -0.038401759420780168 -0.11022074725615483 0.048108931256813481 0 0.048108931256813481 0.021014389412864709 0 0 0 -0.022301589460822391 -0.21665569240276039 0.020254340290377315 0 0.020254340290377315 0.0074154694653278952 0 0 0 -0.052310055734357874 -0.22603074543712753 0.015253204292898226 0 0.015253204292898226 0.012455173260337737 0 0 0 -0.053393893044197505 -0.1363998636151465 0.018440383150079787 0 0.018440383150079787 0.0058873217440476577 0 0 0 -0.032628135467774481 -0.14284196765134366 0.024234879471325188 0 0.024234879471325188 0.0084826959892032594 0 0 0 -0.033589817915535114 -0.10092621423639014 0.050178304793688011 0 0.050178304793688011 0.02851277099956695 0 0 0 -0.018103360809205715 -0.060203344746150633 0.050283407601917129 0 0.050283407601917129 0.029875718629494008 0 0 0 -0.0075819065291641285 -0.031270909203051533 0.06537603860702712 0 0.06537603860702712 0.055564376277009941 0 0 0 0.0060733667684899073 -0.057803580138431787 0.042963765844538648 0 0.042963765844538648 0.01117683542103709 0 0 0 -0.011656686179349007 -0.04286444385400151 0.06710991613233297 0 0.06710991613233297 0.026455856691835922 0 0 0 -0.0041021467905414943 -0.083617439126070447 0.037684244552403046 0 0.037684244552403046 0.0059370525131718921 0 0 0 -0.01942009665322475 -0.02679832343613775 0.055303649156821066 0 0.055303649156821066 0.010593603840189092 0 0 0 -0.0040511798989870673 0.076844241198460339 0.079808950368533305 0 0.079808950368533305 0.03171406949054123 0 0 0 0.027139577672250392 0.023605066290332433 0.067981250800956933 0 0.067981250800956933 0.023192286550536956 0 0 0 0.011699338210217514 0.098772964635926441 0.098562051958653307 0 0.098562051958653307 0.066534760451952835 0 0 0 0.041326931271969847 0.023242550314238053 0.073397445531938277 0 0.073397445531938277 0.027763066702947814 0 0 0 0.012751404254296661 -0.051873015218391272 0.041206029420222112 0 0.041206029420222112 0.032792208536412293 0 0 0 -0.0047702016704946892 0.0024819052760886653 0.074952728121613243 0 0.074952728121613243 0.085982150138111696 0 0 0 0.022116013853550172 0.01581164614351413 0.061779065597545979 0 0.061779065597545979 0.060954242066835529 0 0 0 0.019191472052587505 0.07633292254504942 0.095330007825088658 0 0.095330007825088658 0.13888410959206965 0 0 0 0.053804258034279795 0.10285965431603616 0.1020805962536934 0 0.1020805962536934 0.2233136951731034 0 0 0 0.081543337372284919 0.15947388982851674 0.12066339450940095 0 0.12066339450940095 0.085443165306523294 0 0 0 0.061229263783760035 0.1795124802760597 0.10293193370192388 0 0.10293193370192388 0.086232783506591248 0 0 0 0.066436315945662697 0.11413990472331126 0.068705763149921273 0 0.068705763149921273 0.033241519927800667 0 0 0 0.036845356162778065 0.15116026059593346 0.075556621708781635 0 0.075556621708781635 0.042531568368798567 0 0 0 0.048422957241183062 0.18291515316998064 0.033682537100467369 0 0.033682537100467369 0.044475942797793877 0 0 0 0.056847773991943518 0.10220189505669011 0.054465202883935637 0 0.054465202883935637 0.023236727612425095 0 0 0 0.03135965566727885 0.10264611645341026 0.058385671921439175 0 0.058385671921439175 0.022886845088833763 0 0 0 0.031383240385561173 0.14881234654537967 0.037523400426605735 0 0.037523400426605735 0.04607803231939922 0 0 0 0.048722594716194889 0.1434296684011036 0.032792164376028499 0 0.032792164376028499 0.049877207207872143 0 0 0 0.048326718902243826 0.14849625868558514 0.02450248195269833 0 0.02450248195269833 0.065226389133423268 0 0 0 0.05343066195475199 0.13285827453247445 0.033124833323316949 0 0.033124833323316949 0.060018997580944422 0 0 0 0.048219318028354774 0.10383829885226059 0.041537599655957269 0 0.041537599655957269 0.036520779099070921 0 0 0 0.035089769487832934 0.10201368229447993 0.049937251957424822 0 0.049937251957424822 0.025728578126701152 0 0 0 0.03193556510529505 0.053423435827522736 0.042892226217298157 0 0.042892226217298157 0.023569466939554085 0 0 0 0.019248225691769427 0.060019687317312886 0.04559021444867084 0 0.04559021444867084 0.025298821155930185 0 0 0 0.021329627118310768 0.050247512751306678 0.045695292567613066 0 0.045695292567613066 0.018486108262720791 0 0 0 0.017183405253506701 0.00087972825879867322 0.054418312902782262 0 0.054418312902782262 0.012269695405492165 0 0 0 0.003287355916072654 0.053706848625408754 0.059470637110695668 0 0.059470637110695668 0.017529358427110342 0 0 0 0.017809051763129746 0.07037921466403918 0.047646199285481639 0 0.047646199285481639 0.016699344473024347 0 0 0 0.021769639784265937 0.017165264207892328 0.055626598828720009 0 0.055626598828720009 0.010380005439416973 0 0 0 0.0068863174118276582 0.0012567502675393527 0.068210078992643752 0 0.068210078992643752 0.015522248789741067 0 0 0 0.0041947497643202158 -0.036198409458388037 0.043218333619564619 0 0.043218333619564619 0.0041759267306726855 0 0 0 -0.0080056206819287823 -0.052060239167400213 0.053554870084815076 0 0.053554870084815076 0.014877897742374913 0 0 0 -0.0092955853562561863 -0.043212381716032366 0.033484109048219607 0 0.033484109048219607 0.0080364049099079793 0 0 0 -0.0087939942015309303 -0.041884473960311197 0.050966105386518912 0 0.050966105386518912 0.0070240847493587832 0 0 0 -0.0087150973027380618 0.0033653662085624259 0.048514979204761111 0 0.048514979204761111 0.0084858427696268279 0 0 0 0.002962802244547369 0.0096284884559336426 0.048696576492497368 0 0.048696576492497368 0.0059807788094238257 0 0 0 0.0039023168163394295 -0.016885309101274393 0.037041427778037317 0 0.037041427778037317 0.011237925938795357 0 0 0 -0.0014118457906198145 -0.035207793553098554 0.033210607278465254 0 0.033210607278465254 0.0051304311215210063 0 0 0 -0.007519340607894387 -0.055573528849202969 0.039846680696770775 0 0.039846680696770775 0.0090563894440602866 0 0 0 -0.011629284851285782 -0.084733001280030473 0.014152550579474924 0 0.014152550579474924 0.007043201231976326 0 0 0 -0.019422450012013703 -0.041677199724744929 0.013694262726616557 0 0.013694262726616557 0.011704293179623182 0 0 0 -0.0074932266362803812 -0.068718352121512227 0.015789370947138615 0 0.015789370947138615 0.010900561464828318 0 0 0 -0.014454447664171033 -0.12725822185168134 0.015218696174884012 0 0.015218696174884012 0.0055938014350846998 0 0 0 -0.03041610510414916 -0.096665877884697493 0.037742759806196902 0 0.037742759806196902 0.0069646429174690105 0 0 0 -0.022425308741807037 -0.091297495720225941 0.018994644975558028 0 0.018994644975558028 0.0052953008106904065 0 0 0 -0.02150054872738405 0.0030840374541260401 0.013257326278077741 0 0.013257326278077741 0.017042494336505509 0 0 0 0.0050316329476577798 -0.021244527092233678 0.0094318068511598518 0 0.0094318068511598518 0.0086769618212692023 0 0 0 -0.00314189131774123 0.0018141459264713333 0.019412175415790656 0 0.019412175415790656 0.013594812649001753 0 0 0 0.0038522396438680495 -0.033565899520305642 0.011231005252195522 0 0.011231005252195522 0.012344565171881428 0 0 0 -0.0053053335871067198 -0.028620609620857884 0.008905797258471182 0 0.008905797258471182 0.01058502138602968 0 0 0 -0.0045088970587068289 -0.060113482277411201 0.012688777794814187 0 0.012688777794814187 0.0087079652971668864 0 0 0 -0.012851379245060635 -0.049239284970779007 0.02475975066366698 0 0.02475975066366698 0.0068679667055944194 0 0 0 -0.010592829566296036 -0.031623203574644876 0.019902430955189843 0 0.019902430955189843 0.0095964190331416788 0 0 0 -0.0055066961353755772 -0.012536691299990022 0.033441412964871658 0 0.033441412964871658 0.009765367842186734 0 0 0 -0.00069283086445093289 -0.0091968292723776379 0.024977692431125575 0 0.024977692431125575 0.014657239814566125 0 0 0 0.0013651026355470108 0.0053518430770473913 0.030552594213840489 0 0.030552594213840489 0.011290270188736073 0 0 0 0.0041605283164454221 0.021979036284112574 0.026459551498564604 0 0.026459551498564604 0.017915203553538817 0 0 0 0.0099735599594130697 0.023058182527993409 0.022040909186531898 0 0.022040909186531898 0.019684991816861341 0 0 0 0.010685793586213244 -0.0015932154285608346 0.027825587955551345 0 0.027825587955551345 0.014754112544501208 0 0 0 0.0032902242789852876 0.023987080130962291 0.025004063394683529 0 0.025004063394683529 0.020658140511521594 0 0 0 0.011161305160620749 0.060187091990702157 0.02373389922555183 0 0.02373389922555183 0.033717523915445469 0 0 0 0.023476153976536906 0.064651404952190017 0.027096798250705323 0 0.027096798250705323 0.045873736372540108 0 0 0 0.02763128533118242 0.0876108624294063 0.025153675050305413 0 0.025153675050305413 0.045593563693490324 0 0 0 0.033301106530724045 0.026182117828868368 0.032728222397194973 0 0.032728222397194973 0.02307487317269441 0 0 0 0.012314247750390361 0.021247346034900971 0.040787645362586389 0 0.040787645362586389 0.014659210468329853 0 0 0 0.008976639125807484 0.053626758669443886 0.030543798090428842 0 0.030543798090428842 0.025589349759533198 0 0 0 0.019804027107244382 0.049775972037023559 0.032221467575302754 0 0.032221467575302754 0.02411528617053818 0 0 0 0.018472814551890322 0.079282055197199275 0.039001661592909631 0 0.039001661592909631 0.034770004674104016 0 0 0 0.028513014967826267 0.056921423416437467 0.032383296486472424 0 0.032383296486472424 0.037502595380724202 0 0 0 0.023606004699290306 0.10784639936858316 0.023285332699227279 0 0.023285332699227279 0.063762429140299115 0 0 0 0.042902207127220662 0.10573318446950752 0.030428702924079953 0 0.030428702924079953 0.063980175824596586 0 0 0 0.042428340073526138 0.097627367052004921 0.033319477263216546 0 0.033319477263216546 0.040229174817116409 0 0 0 0.034464135467279888 0.12247334358402906 0.030134751391862169 0 0.030134751391862169 0.068451845442328185 0 0 0 0.047731297256589089 0.1456885892326869 0.01627585385297925 0 0.01627585385297925 0.10547592716637766 0 0 0 0.062791129099766696 0.12719151958998642 0.01724027649323312 0 0.01724027649323312 0.084443980470348734 0 0 0 0.052908875015083456 0.14056109167822228 0.025636076524578666 0 0.025636076524578666 0.11121011896269195 0 0 0 0.06294280266022767 0.09568683254235566 0.032955299137381378 0 0.032955299137381378 0.060630634903422909 0 0 0 0.03907936686144442 0.1139544234980896 0.025966806120078956 0 0.025966806120078956 0.084100954911376036 0 0 0 0.049513844602365964 0.15319590364754987 0.0063077853894175639 0 0.0063077853894175639 0.11544610867671601 0 0 0 0.067160503081066025 0.1246431458502002 0.0016634840037164089 0 0.0016634840037164089 0.1033554250589539 0 0 0 0.056999642727288968 0.16892298749505244 0.017118934001607577 0 0.017118934001607577 0.11891465364917575 0 0 0 0.071959410286057041 0.15080969995292337 0.0087905425937311321 0 0.0087905425937311321 0.10713413189039223 0 0 0 0.064485957960829676 0.18133254779834607 -0.0085689970463516119 0 -0.0085689970463516119 0.1488234712816574 0 0 0 0.082539004770000979 0.20204096331019006 0.011075290979811303 0 0.011075290979811303 0.15225830008808394 0 0 0 0.088574815849568722 0.15523084866909778 -0.012126982388910967 0 -0.012126982388910967 0.10633437603447682 0 0 0 0.065391306175894101 0.11513034777557252 0.00083093576688553217 0 0.00083093576688553217 0.096140564355383873 0 0 0 0.052817728032739097 0.060634606946406322 0.012765089880443892 0 0.012765089880443892 0.032354872730254947 0 0 0 0.023247369919165539 0.066871171930836137 0.0074521898333946221 0 0.0074521898333946221 0.051064567683662077 0 0 0 0.029483934903624665 0.099231377316439939 2.272005201797711e-05 0 2.272005201797711e-05 0.047985389970122583 0 0 0 0.036804191821640408 0.061164486070820923 0.018659110739581042 0 0.018659110739581042 0.033454672790421469 0 0 0 0.02365478971531032 0.10793610338854975 0.011804355283404289 0 0.011804355283404289 0.063971299117987712 0 0 0 0.042976850626633922 0.069174280818455225 0.016794452954774997 0 0.016794452954774997 0.056826064414411626 0 0 0 0.031500086308216657 0.10109544427744233 0.015779756625832864 0 0.015779756625832864 0.060554702869055177 0 0 0 0.040412536786624376 0.031817612950095775 0.019197500930626221 0 0.019197500930626221 0.027592585528688929 0 0 0 0.014852549619696287 0.0027373689735181728 0.013247775655013783 0 0.013247775655013783 0.015205760977939353 0 0 0 0.0044857824878636876 0.029057983077973581 0.011767057763834576 0 0.011767057763834576 0.019174673729015268 0 0 0 0.01205816420174699 0.015148354886564075 0.01510317338473266 0 0.01510317338473266 0.01973983943685198 0 0 0 0.0087220485808541248 0.031899654831523794 0.013761548544080071 0 0.013761548544080071 0.025479973740577755 0 0 0 0.014344907143025054 0.038040776176809565 0.0032790051771289797 0 0.0032790051771289797 0.017081671643619956 0 0 0 0.013780611955107158 0.025069562726550629 0.0030511775298789345 0 0.0030511775298789345 0.0098216373360724592 0 0 0 0.0087228000156553288 0.037057383113240139 0.0080460331346321468 0 0.0080460331346321468 0.017592363454609128 0 0 0 0.01366243664196265 0.023390124839955728 0.0097459814873195327 0 0.0097459814873195327 0.016375946242550121 0 0 0 0.0099415177706263513 0.01559632376556408 0.0055837228723829568 0 0.0055837228723829568 0.01349601500222164 0 0 0 0.0072730846919455416 0.018527236154538329 0.0037443594447617023 0 0.0037443594447617023 0.014144577699241268 0 0 0 0.0081679534634453432 0.015674842810197376 0.0021217262502570833 0 0.0021217262502570833 0.012838298493464961 0 0 0 0.0071282853259155843 0.011007520505303958 0.0030738678503195649 0 0.0030738678503195649 0.012381826271719021 0 0 0 0.0058473366942557448 0.015164915628048892 0.0052880236310279827 0 0.0052880236310279827 0.016415284521555051 0 0 0 0.0078950500374008747 0.0025829545333566628 0.0070434338255898387 0 0.0070434338255898387 0.016706597425663716 0 0 0 0.0048223879897548727 0.0079996389632750464 0.0059674254219634904 0 0.0059674254219634904 0.013905358746530538 0 0 0 0.0054762494274513962 -0.013708133974977166 0.0072686415524389402 0 0.0072686415524389402 0.011270031385418378 0 0 0 -0.0006095256473899191 0.08578494497723832 0.0057421090972735456 0 0.0057421090972735456 0.039197308609237647 0 0 0 0.031245563396619103 0.11440875110515358 0.0090602594749953358 0 0.0090602594749953358 0.081087344521964644 0 0 0 0.04887402390677964 0.11532698839027294 0.014929011843328885 0 0.014929011843328885 0.071877319137592988 0 0 0 0.046801076881966552 0.10266453586848548 0.016639940543733966 0 0.016639940543733966 0.060924022208112744 0 0 0 0.040897139519149556 0.079182854455362162 0.0097944952852009881 0 0.0097944952852009881 0.032175317117522972 0 0 0 0.027839542893221159 0.062947395404188977 0.0020464415180420636 0 0.0020464415180420636 0.02219136424043 0 0 0 0.021284689911154675 0.063251738581960204 -0.0022143260322774472 0 -0.0022143260322774472 0.017480571112036491 0 0 0 0.020183077423499229 0.075550827419217481 0.0028228884331899795 0 0.0028228884331899795 0.024022417683877029 0 0 0 0.024893311275773655 0.063916248886139337 -0.0028724933503531114 0 -0.0028724933503531114 0.015127172160122937 0 0 0 0.019760855261565569 0.063696878792152023 -0.0056204820593983573 0 -0.0056204820593983573 0.013938476456724608 0 0 0 0.019408838812219172 0.089882631493540199 0.0054016197787599141 0 0.0054016197787599141 0.032172248642362344 0 0 0 0.030513720033975622 0.089891146212036921 0.0061437019721409126 0 0.0061437019721409126 0.032118786152437462 0 0 0 0.030502483091118582 0.078992162211472733 0.0066769536589719736 0 0.0066769536589719736 0.038012665219585406 0 0 0 0.029251206857764639 0.10080576292809595 0.010813768336940094 0 0.010813768336940094 0.064624723161450515 0 0 0 0.041357621522386534 0.1049295670612394 0.012636204055444189 0 0.012636204055444189 0.058870604004237048 0 0 0 0.040950042766369099 0.11715344792931701 0.0095414697398657489 0 0.0095414697398657489 0.095078433620096603 0 0 0 0.053057970387353354 0.13146803655201011 0.0076909679608189729 0 0.0076909679608189729 0.13478478081800371 0 0 0 0.066563204342503457 0.15334328349865184 0.0071249615873064109 0 0.0071249615873064109 0.15835813247192909 0 0 0 0.077925353992645108 0.13502409256709499 0.016144993126284146 0 0.016144993126284146 0.10655209361496543 0 0 0 0.06039404654551514 0.1640986352291578 0.024596397796642355 0 0.024596397796642355 0.11491794452864212 0 0 0 0.069754144939449869 0.19220036805258589 0.0087248417168049146 0 0.0087248417168049146 0.151489832306412 0 0 0 0.085922550089749361 0.14644879709326841 0.013501822147732379 0 0.013501822147732379 0.14489450229888634 0 0 0 0.072835824848038744 0.05767056170068742 0.0079699261321825553 0 0.0079699261321825553 0.17264913977426039 0 0 0 0.057579925368736955 0.1555877783313433 0.018620985964383774 0 0.018620985964383774 0.10484898618692107 0 0 0 0.065109191129566257 0.17338057472065738 0.01600805253882287 0 0.01600805253882287 0.15748168153467823 0 0 0 0.082715564063833957 0.17498242148244458 0.0061373933901327504 0 0.0061373933901327504 0.15927862294375961 0 0 0 0.083565261106550826 0.066528445664829808 0.0082769613742545729 0 0.0082769613742545729 0.19926377582790644 0 0 0 0.066448055373184059 0.17840970174470278 0.014302645932806335 0 0.014302645932806335 0.1685176884798969 0 0 0 0.086731847556149932 0.19962689166178738 0.012434627599513486 0 0.012434627599513486 0.16474938090197355 0 0 0 0.09109406814094001 0.075949170319039069 0.0083878944633369087 0 0.0083878944633369087 0.22715806138596392 0 0 0 0.075776807926250758 0.17651419704495952 0.021445835516380907 0 0.021445835516380907 0.15643423101124032 0 0 0 0.083237107014049627 0.13031295677263999 0.011904256229788301 0 0.011904256229788301 0.11559988830390833 0 0 0 0.061478211269136884 0.17331519902170817 0.011342765928440579 0 0.011342765928440579 0.17860360690722576 0 0 0 0.087979701482233497 0.13726883178673521 0.022337254714646815 0 0.022337254714646815 0.10642728211020547 0 0 0 0.06092402847423517 0.15672101352994305 0.011726493484114697 0 0.011726493484114697 0.12103738864919 0 0 0 0.069439600544783264 0.17589041508326031 0.024170082278545779 0 0.024170082278545779 0.1376034721036134 0 0 0 0.078373471796718372 0.14673379753037352 0.0087215271538285122 0 0.0087215271538285122 0.11400898389626302 0 0 0 0.065185695356659301 0.21365615308959646 0.016553655518495192 0 0.016553655518495192 0.18565644858939023 0 0 0 0.099828150419746631 0.20598974491086702 0.0059148728191166233 0 0.0059148728191166233 0.20195061821663718 0 0 0 0.10198509078187595 0.19616052969435549 0.0028913952361566686 0 0.0028913952361566686 0.14888842180994377 0 0 0 0.086262237876074899 0.21615922615436078 0.0011184258921099755 0 0.0011184258921099755 0.1981020725734588 0 0 0 0.10356532468195478 0.08539492868341772 0.008267247629544127 0 0.008267247629544127 0.25660413625203182 0 0 0 0.085499766233862379 0.26077315670435258 0.013759219787177979 0 0.013759219787177979 0.21276693742271569 0 0 0 0.11838502353176705 0.24071403519681667 0.013588176259275997 0 0.013588176259275997 0.20629312825241186 0 0 0 0.11175179086230669 0.20113187169538366 -0.0016992821692376481 0 -0.0016992821692376481 0.18953423938532032 0 0 0 0.097666527770175871 0.23232447297648617 0.018295319065396498 0 0.018295319065396498 0.20535069278167128 0 0 0 0.10941879143953992 0.097876253721672218 0.0082284340860123914 0 0.0082284340860123914 0.28942350970494946 0 0 0 0.096824940856655412 0.29491350651014958 0.00071675835722295744 0 0.00071675835722295744 0.23433893695272889 0 0 0 0.13231311086571962 0.24380167779546 -0.013021574375551737 0 -0.013021574375551737 0.21947052182621096 0 0 0 0.11581804990541784 0.15761610200139287 0.024045441505706588 0 0.024045441505706588 0.10360652723338437 0 0 0 0.065305657308694198 0.22644522244041754 0.019974708227849414 0 0.019974708227849414 0.21546704021552521 0 0 0 0.11047806566398577 0.28833695544824534 0.0021792068557566768 0 0.0021792068557566768 0.22529968121847399 0 0 0 0.12840915916667983 0.22946367880698981 0.023348645380238842 0 0.023348645380238842 0.19960659280614856 0 0 0 0.10726756790328462 0.18999774834331279 -0.003266454095791696 0 -0.003266454095791696 0.11329097731946836 0 0 0 0.0758221814156953 0.084751191157521666 0.01061119969190949 0 0.01061119969190949 0.030498039211589445 0 0 0 0.028812307592277819 0.13741325564269724 0.018679754169375729 0 0.018679754169375729 0.074492377006170729 0 0 0 0.052976408162216937 0.11353973519025629 0.0055339756772836424 0 0.0055339756772836424 0.0031527065469088979 0 0 0 0.029173110434291268 0.12013530769468919 0.0059296486564697215 0 0.0059296486564697215 0.081296569130298146 0 0 0 0.050357969206246717 0.1044973605834712 0.0097878883553338403 0 0.0097878883553338403 0.033103063606168881 0 0 0 0.034400106047410006 0.089395177475514787 0.012787665517990598 0 0.012787665517990598 0.037200583276961074 0 0 0 0.031648940188118979 0.099759441771405943 0.0075204514952185164 0 0.0075204514952185164 0.061149193991960393 0 0 0 0.040227158940841612 0.12597781880268022 0.021400786070681993 0 0.021400786070681993 0.077282264890592201 0 0 0 0.050815020923318133 0.065004814958603163 0.005744294849445164 0 0.005744294849445164 0.014428595629168983 0 0 0 0.019858352646943078 0.068722235057728454 0.00477876689406731 0 0.00477876689406731 0.028818730511905429 0 0 0 0.024385241392408556 0.069049896324113014 0.010922283252251364 0 0.010922283252251364 0.013970198725480332 0 0 0 0.02075502376239835 0.078048626594514114 0.0045841717714971697 0 0.0045841717714971697 0.034483809081188088 0 0 0 0.028133108918925676 0.057283403469456373 0.00064337763545629922 0 0.00064337763545629922 0.0092853220089261779 0 0 0 0.016642181369595499 0.069258195672400324 -0.0019373475029776238 0 -0.0019373475029776238 -0.0031926520277587578 0 0 0 0.016516385911160447 0.060692361737916201 0.0054735765908865419 0 0.0054735765908865419 -0.040758995868544305 0 0 0 0.0049833414673429756 0.055201912497610195 -0.0026860702699414984 0 -0.0026860702699414984 -0.015909806975882734 0 0 0 0.0098230263804317541 0.052251540286683211 -0.0036074586111392026 0 -0.0036074586111392026 -0.052265648199594582 0 0 0 -3.5269782278149657e-06 0.051674975002168888 0.0020202158733002018 0 0.0020202158733002018 -0.018384376593371998 0 0 0 0.0083226496021991947 0.048858257164757279 -0.0066160591257796719 0 -0.0066160591257796719 -0.0011146316220613794 0 0 0 0.011935906385673933 0.053985393359068379 0.0017481568584236662 0 0.0017481568584236662 -0.014319393901663258 0 0 0 0.0099164998643512803 0.091530650813708314 -0.014652184695996495 0 -0.014652184695996495 0.017974798025851186 0 0 0 0.027376362209889878 0.07652845451644219 -0.0025728100482292904 0 -0.0025728100482292904 -0.027184449304547442 0 0 0 0.012336001302973632 0.060864646476381457 -0.009879044925590684 0 -0.009879044925590684 0.0007763681993160354 0 0 0 0.015410253668924345 0.077066901500805751 -0.0080368945805627812 0 -0.0080368945805627812 0.040181442056871575 0 0 0 0.029312085889419248 0.067444828684596614 -0.0079618714363931531 0 -0.0079618714363931531 0.0041687877373330906 0 0 0 0.017903404105482468 0.061360977688730056 -0.0087386385773658981 0 -0.0087386385773658981 0.018297874621524768 0 0 0 0.019914713077563651 0.065132807423814609 -0.010501971667222776 0 -0.010501971667222776 0.035511761425768257 0 0 0 0.025161142212395682 0.079083653668576365 -0.015919141644216039 0 -0.015919141644216039 0.035114676021595903 0 0 0 0.028549582422542991 0.05870779264816911 -0.0023737826018332409 0 -0.0023737826018332409 0.0054450364180251842 0 0 0 0.016038207266548643 0.056533803491973122 -0.0079659671560331491 0 -0.0079659671560331491 0.018416490856047574 0 0 0 0.01873757358700523 0.052154468526718845 -0.0037322525359398673 0 -0.0037322525359398673 0.013097238366885922 0 0 0 0.016312926723401233 0.059926834145092478 -0.0016726831934387731 0 -0.0016726831934387731 0.016726886235296279 0 0 0 0.019163430095097245 0.057858179969914991 -0.0045978226797663835 0 -0.0045978226797663835 0.015323195855258875 0 0 0 0.018295343956293397 0.060108819598676755 -0.0060696285168944653 0 -0.0060696285168944653 0.018713082582208163 0 0 0 0.019705475545221285 0.055322832936756827 -0.0088954302018409703 0 -0.0088954302018409703 0.018421614457974078 0 0 0 0.018436111848682712 0.052512220792706475 -0.0054552754019251415 0 -0.0054552754019251415 0.016307498833752002 0 0 0 0.017204929906614617 0.058670362516202612 -0.010730253175736504 0 -0.010730253175736504 0.021126485503155989 0 0 0 0.019949212004839567 0.056968756438470491 -0.010485510006263077 0 -0.010485510006263077 0.021327780907194782 0 0 0 0.019574134336416471 0.065563835073007226 -0.015538164990001602 0 -0.015538164990001602 0.034134980324877162 0 0 0 0.024924703849471208 0.071182589809699326 -0.013705181007455436 0 -0.013705181007455436 0.049766819749868629 0 0 0 0.030237352389892058 0.059727068048617271 -0.011970467699833148 0 -0.011970467699833148 0.02804027742312809 0 0 0 0.02194183636793634 0.055336499635764369 -0.013603204416128445 0 -0.013603204416128445 0.019968584673569767 0 0 0 0.01882627107733359 0.05778209066043527 -0.015381710630881132 0 -0.015381710630881132 0.029076611793052765 0 0 0 0.021714675613372036 0.062024770782588765 -0.015545908914038953 0 -0.015545908914038953 0.042941604844416448 0 0 0 0.026241593906751334 0.059363406832927776 -0.015645509072010122 0 -0.015645509072010122 0.021915768984427653 0 0 0 0.020319793954338902 0.054935008958272802 -0.014624553732698511 0 -0.014624553732698511 0.0090486528412729861 0 0 0 0.015995915449886489 0.066275860471261827 -0.009991049518909792 0 -0.009991049518909792 0.014578080963818518 0 0 0 0.020213485358770045 0.057066719521589405 -0.0085394705456270925 0 -0.0085394705456270925 0.011628275282442861 0 0 0 0.017173748701008108 0.065770648928708986 -0.0041142168332458651 0 -0.0041142168332458651 0.017945893553999781 0 0 0 0.020929135620677219 0.060204923498782884 -0.01026945057206663 0 -0.01026945057206663 0.019403588339148098 0 0 0 0.019902127959482832 0.08690117991394275 -0.018033035412100773 0 -0.018033035412100773 0.082354121306749573 0 0 0 0.042313825305173136 0.030483639273844766 -0.012178585218012416 0 -0.012178585218012416 0.091264275215621471 0 0 0 0.030436978622366551 0.098341668274266159 -0.015674185982954114 0 -0.015674185982954114 0.074429613876405121 0 0 0 0.04319282053766782 0.075554112866984102 -0.017069137065754081 0 -0.017069137065754081 0.074666799598597011 0 0 0 0.037555228116395278 0.06270417193190006 -0.014229319691776099 0 -0.014229319691776099 0.070224675869173692 0 0 0 0.033232211950268459 0.057444808612051146 -0.02018923624063429 0 -0.02018923624063429 0.039705836320693022 0 0 0 0.024287661233185986 0.059199219763584554 -0.018786787841047647 0 -0.018786787841047647 0.047677477415425051 0 0 0 0.026719174294752401 0.068591544913842367 -0.016430492730391266 0 -0.016430492730391266 0.044051803883907392 0 0 0 0.028160837199437488 0.084928459521895261 -0.01142494484507478 0 -0.01142494484507478 0.08253508355286121 0 0 0 0.041865885768689159 0.075053016791098437 -0.017488886569506423 0 -0.017488886569506423 0.066938427477384987 0 0 0 0.035497861067120828 0.093080858242115788 -0.013475758564703955 0 -0.013475758564703955 0.068155191559369943 0 0 0 0.040309012450371356 0.081705112316355022 -0.019661846610123046 0 -0.019661846610123046 0.056960189809036388 0 0 0 0.034666325531347741 0.10238066981538341 -0.014186982924871971 0 -0.014186982924871971 0.098530063265486301 0 0 0 0.050227683270217427 0.12959736264980692 -0.016057273360403659 0 -0.016057273360403659 0.10113261469643664 0 0 0 0.057682494336560919 0.093456385727162528 -0.013135155392982156 0 -0.013135155392982156 0.08333071825287286 0 0 0 0.04419677599500893 0.096123594360241274 -0.022153391047143645 0 -0.022153391047143645 0.083578545863146489 0 0 0 0.044925535055847024 0.041362786299598303 -0.012401562629192227 0 -0.012401562629192227 0.12377493634056554 0 0 0 0.041284430660040956 0.10120477575932452 -0.016991124499434851 0 -0.016991124499434851 0.091009875491483427 0 0 0 0.048053662812701958 0.1055007758403973 -0.016879625800612308 0 -0.016879625800612308 0.087014309846458859 0 0 0 0.048128771421714123 0.035633458957249051 -0.012447087844144777 0 -0.012447087844144777 0.10669450432410443 0 0 0 0.035581990820338374 0.1210277641660451 -0.0099228590671192052 0 -0.0099228590671192052 0.1073693235483324 0 0 0 0.057099271928594542 0.047739086629353375 -0.012058530377678501 0 -0.012058530377678501 0.1430528920634126 0 0 0 0.047697994673191482 0.16392784647711212 -0.013983686969109357 0 -0.013983686969109357 0.11623856745009675 0 0 0 0.070041603481802328 0.13827514651215006 -0.016372025295290582 0 -0.016372025295290582 0.11348997583546268 0 0 0 0.062941280586903348 0.11789166881347923 -0.0079148650895923822 0 -0.0079148650895923822 0.10202826835542389 0 0 0 0.054979984292225614 0.090794168497377481 -0.010253098151589923 0 -0.010253098151589923 0.063152054978925509 0 0 0 0.038486555869075789 0.10946468492898154 -0.019626517986377157 0 -0.019626517986377157 0.072032937287197507 0 0 0 0.045374405554044706 0.12655870932230806 -0.010341421148627128 0 -0.010341421148627128 0.11252108325912635 0 0 0 0.05976994814535852 0.12348616229025508 -0.0051804023410859656 0 -0.0051804023410859656 0.079265919262420131 0 0 0 0.050688020388168858 0.10062658435173488 -0.018343455170884371 0 -0.018343455170884371 0.044262231308599853 0 0 0 0.036222203915083684 0.14367846659720307 -0.018341088869272992 0 -0.018341088869272992 0.11718971085039215 0 0 0 0.065217044361898791 0.1838427176985723 -0.0045077100853884167 0 -0.0045077100853884167 0.12242701460164995 0 0 0 0.076567433075055535 0.14744341234588537 -0.018754413889040533 0 -0.018754413889040533 0.10186526241224476 0 0 0 0.062327168689532537 0.12173170376862852 0.0015334305219407707 0 0.0015334305219407707 0.050459582981575046 0 0 0 0.043047821687550891 0.14295044241182508 -0.01691915380786746 0 -0.01691915380786746 0.11270856713032451 0 0 0 0.063914752385537676 0.055516215523227289 -0.011784768738116298 0 -0.011784768738116298 0.16549928714685255 0 0 0 0.055253875667519957 0.18249928380591074 -0.0046580996382340886 0 -0.0046580996382340886 0.13334910708646497 0 0 0 0.07896209772309426 0.15194359978813421 0.0046137093949116803 0 0.0046137093949116803 0.12130488979024001 0 0 0 0.068312122394593722 0.12876215920690015 -0.0087736794138690843 0 -0.0087736794138690843 0.082416706804851358 0 0 0 0.052794716502937877 0.097244531970705289 0.0057917810797132319 0 0.0057917810797132319 0.055948037200112176 0 0 0 0.038298142292704368 0.094081994035381533 -0.0094682189494728064 0 -0.0094682189494728064 0.057333564176127449 0 0 0 0.037853889552877162 0.11070599184818875 -8.5732153560780233e-05 0 -8.5732153560780233e-05 0.077964836881385224 0 0 0 0.047167707182393936 0.069999123104970806 -0.0032554064554395357 0 -0.0032554064554395357 0.047997438331763398 0 0 0 0.029499140359184217 0.039299687140295525 -0.0076508047717680494 0 -0.0076508047717680494 0.023069121911269974 0 0 0 0.015592202262891597 0.037249530024004551 -0.0097894723332580518 0 -0.0097894723332580518 0.016918650562498527 0 0 0 0.013542045146625936 0.061547574149362294 -0.0020558979138856071 0 -0.0020558979138856071 0.022966118962856281 0 0 0 0.021128423278054646 0.065402794519844987 -0.01319468212658248 0 -0.01319468212658248 0.034165611076202307 0 0 0 0.024892101399011768 0.037232070604377387 -0.017226739656884371 0 -0.017226739656884371 0.027735077052322143 0 0 0 0.016241786914174883 0.033654522982538349 -0.015877050517950408 0 -0.015877050517950408 0.017539532840646022 0 0 0 0.012798513955795898 0.052157740791519469 -0.017372318671832865 0 -0.017372318671832865 0.03056982486886195 0 0 0 0.020681891415095244 0.082617576956216743 -0.014004945124181711 0 -0.014004945124181711 0.059431588205373254 0 0 0 0.035512291290397346 0.10082950447057359 -0.018133309530415254 0 -0.018133309530415254 0.064175205746932029 0 0 0 0.041251177554376239 0.073143009351244181 -0.0081415686643608876 0 -0.0081415686643608876 0.051894737402022884 0 0 0 0.031259436688316544 0.008916727361369281 -0.0034713942545825383 0 -0.0034713942545825383 0.010012986408012736 0 0 0 0.0047324284423455598 0.006527221908662284 -0.0019399290164825445 0 -0.0019399290164825445 0.007173314850276391 0 0 0 0.0034251341897346688 0.0091913365283837079 -0.0013164881763252367 0 -0.0013164881763252367 0.0076721783070605896 0 0 0 0.0042158787088610187 0.011293093166812929 -0.002508261191561667 0 -0.002508261191561667 0.0080914233754043607 0 0 0 0.0048461291355541558 0.0079368006293625282 -0.0042404891354894669 0 -0.0042404891354894669 0.0072841559773122455 0 0 0 0.0038052391516685269 0.013596723235184793 -0.0072046915018952884 0 -0.0072046915018952884 0.0076965379852564908 0 0 0 0.0053233153051097659 0.022656773199891234 -0.0056731400019993106 0 -0.0056731400019993106 0.0093892853218093819 0 0 0 0.0080115146304247098 0.014406398768467141 -0.0024435008092273947 0 -0.0024435008092273947 0.0049173956573449846 0 0 0 0.0048309486064529207 0.022362524709718928 -0.0035540303263890127 0 -0.0035540303263890127 0.0069245966911171122 0 0 0 0.0073217803502091758 0.017468292325198975 -0.011808571948931812 0 -0.011808571948931812 0.010782028657603249 0 0 0 0.0070625802457005005 0.011150492508351317 -0.017317467971378342 0 -0.017317467971378342 0.012258546226327383 0 0 0 0.0058522596836695362 -0.0042443452998761622 -0.011364958270006831 0 -0.011364958270006831 0.0070716028529362873 0 0 0 0.00070681438826514231 0.016104393027502661 -0.0095106183053319526 0 -0.0095106183053319526 0.0097160236020625845 0 0 0 0.006455104157391256 0.0077763979083266127 -0.011424039714657441 0 -0.011424039714657441 0.011049778754031847 0 0 0 0.0047065441655896739 0.0022867685086351286 -0.0046177177060611196 0 -0.0046177177060611196 0.0075419913985016462 0 0 0 0.0024571899767841798 -0.011298079367895175 -0.0054315906180674367 0 -0.0054315906180674367 0.0058679151800129503 0 0 0 -0.0013575410469701676 0.00049368529657467519 -0.0047022411237311879 0 -0.0047022411237311879 0.0097988610063497461 0 0 0 0.0025731365757308833 -0.025851346087957028 -0.0067645630646807568 0 -0.0067645630646807568 0.0083792578296550957 0 0 0 -0.0043680220645756496 -0.0015830114975050602 -0.0091953306322463124 0 -0.0091953306322463124 0.010043831426247873 0 0 0 0.0021152049821855368 -0.0050723594165612562 -0.014465590119586258 0 -0.014465590119586258 0.0083207675402052761 0 0 0 0.00081210203091119926 -0.019727032567687014 -0.0071468086813109011 0 -0.0071468086813109011 0.0036561938767557534 0 0 0 -0.0040177096727329331 -0.0072283481096448998 -0.017118840993646467 0 -0.017118840993646467 0.0076554582729793097 0 0 0 0.00010677754083343594 0.010774806291268257 -0.018205424279507221 0 -0.018205424279507221 0.012772709323216169 0 0 0 0.0058868789036210512 0.0067346037848368123 -0.023335520069472482 0 -0.023335520069472482 0.011041353071065352 0 0 0 0.0044439892139755965 0.008105227849206309 -0.02228963125433947 0 -0.02228963125433947 0.013976185637128324 0 0 0 0.0055203533715834086 -0.0082147877528569099 -0.018796167820349652 0 -0.018796167820349652 0.0063912301167589614 0 0 0 -0.00045588940902432235 -0.0094741856563191895 -0.023662327521783794 0 -0.023662327521783794 0.0088812087438308041 0 0 0 -0.00014824422812198534 0.0064241674338959692 -0.02730657996654795 0 -0.02730657996654795 0.014695683747500854 0 0 0 0.0052799627953493827 -0.015988876543176933 -0.022393787377324004 0 -0.022393787377324004 0.0063779379849546736 0 0 0 -0.0024027346395555371 -0.024151618747725645 -0.013443837742061815 0 -0.013443837742061815 0.006643961176391322 0 0 0 -0.0043769143928337195 -0.030429870098151124 -0.01122436856538167 0 -0.01122436856538167 0.0029527554781925147 0 0 0 -0.0068692786549897633 -0.031571997230407711 -0.011399627547862501 0 -0.011399627547862501 0.0083116764058619452 0 0 0 -0.0058150802061366358 -0.046166833279918329 -0.0063108048602821109 0 -0.0063108048602821109 0.0037379850907441892 0 0 0 -0.010607212047293757 -0.026515930491924244 -0.0055914677247472788 0 -0.0055914677247472788 0.0065467217736956407 0 0 0 -0.0049923021795570399 0.06426422137997434 -0.02412253701534639 0 -0.02412253701534639 0.040560414008121271 0 0 0 0.02620615884702393 0.050488379095217972 -0.021812520315337203 0 -0.021812520315337203 0.040005131450471243 0 0 0 0.022623377636422415 0.070943933305349427 -0.024833962293877854 0 -0.024833962293877854 0.061178557720547921 0 0 0 0.033030622756474282 0.063111109336175364 -0.024988690112641598 0 -0.024988690112641598 0.043414816776915721 0 0 0 0.02663148152827266 0.028500976140894307 -0.022154149385537211 0 -0.022154149385537211 0.023433669899006304 0 0 0 0.012983661509975208 0.02642170488820339 -0.021576198170537575 0 -0.021576198170537575 0.016928684117198056 0 0 0 0.010837597251350362 0.045118174277951173 -0.025597365359572688 0 -0.025597365359572688 0.025975050968277458 0 0 0 0.017773306311557047 0.036866760705479118 -0.02903097798890486 0 -0.02903097798890486 0.021788397938271586 0 0 0 0.014663789660937621 0.022688254810441344 -0.025853593324736024 0 -0.025853593324736024 0.02106667180109123 0 0 0 0.010938731652883171 0.019742545113262899 -0.023763847877422334 0 -0.023763847877422334 0.013872636509182357 0 0 0 0.008403795405611092 0.019122252949010834 -0.024587254435779027 0 -0.024587254435779027 0.017559417149216772 0 0 0 0.0091704175245567315 0.056227468899952004 -0.026783941123714836 0 -0.026783941123714836 0.033147704315125814 0 0 0 0.022343793303769566 0.041526399449879459 -0.025287840239333281 0 -0.025287840239333281 0.035329088965974975 0 0 0 0.019213872103963747 0.078552312126447532 -0.020113801420461153 0 -0.020113801420461153 0.055182287562749677 0 0 0 0.033433649922299358 0.061145917885588319 -0.024960583426369753 0 -0.024960583426369753 0.048800637773313671 0 0 0 0.027486638914725359 0.072596977359338233 -0.020581559039976827 0 -0.020581559039976827 0.045854807816452681 0 0 0 0.029612946293947617 0.054926538668556568 -0.028864955364069522 0 -0.028864955364069522 0.033514829178628691 0 0 0 0.022110341961796287 0.05858655421072459 -0.02330766139781737 0 -0.02330766139781737 0.034734834359353289 0 0 0 0.023330347142519609 0.067161298087603072 -0.026365518038035524 0 -0.026365518038035524 0.034667921905002785 0 0 0 0.025457304998151242 0.037902171378956462 -0.032290850623464928 0 -0.032290850623464928 0.022305450330485588 0 0 0 0.015051905427360568 0.043109122517239973 -0.024456021925252591 0 -0.024456021925252591 0.031204950460602454 0 0 0 0.018578518244460662 0.035255509631899856 -0.031960216079973902 0 -0.031960216079973902 0.019494074349741902 0 0 0 0.013687395995410717 0.011012185167378008 -0.031002294990025603 0 -0.031002294990025603 0.01257358901969674 0 0 0 0.0058964435467685483 0.0050384262537643519 -0.02534017541312461 0 -0.02534017541312461 0.010299780786713363 0 0 0 0.0038345517601194555 0.033761884500628669 -0.02683126755881049 0 -0.02683126755881049 0.01950074003337976 0 0 0 0.013315656133501941 0.016278883720026949 -0.035242200397972434 0 -0.035242200397972434 0.011935080440401702 0 0 0 0.0070534910401072182 0.029265056902703354 -0.028427623550268843 0 -0.028427623550268843 0.0151297225427314 0 0 0 0.011098694861358657 0.0035905793893025173 -0.030357797615410798 0 -0.030357797615410798 0.008729280333416245 0 0 0 0.0030799649306796351 0.0049543103662864629 -0.034554594361235459 0 -0.034554594361235459 0.015274485733030474 0 0 0 0.005057199024829151 0.061502984656798043 -0.032124063396726812 0 -0.032124063396726812 0.023273152422981003 0 0 0 0.021194034269944817 0.066210860809776173 -0.025346687920846545 0 -0.025346687920846545 0.03058402478114064 0 0 0 0.024198721397729162 0.059502464917370324 -0.024291390393837028 0 -0.024291390393837028 0.035885869222676448 0 0 0 0.023847083535011526 0.030869502887773681 -0.034195004527927564 0 -0.034195004527927564 0.018737929769930162 0 0 0 0.012401858164425961 0.055365428303635333 -0.027748254802816397 0 -0.027748254802816397 0.024880103677892951 0 0 0 0.020061382995382182 -0.050411708481242323 -0.012133025286187205 0 -0.012133025286187205 0.0063631034485620575 0 0 0 -0.011012151258170122 -0.063806930646558735 -0.0077223677871879337 0 -0.0077223677871879337 0.0016886774793992629 0 0 0 -0.015529563291789894 -0.048619389698792592 -0.007100719120186394 0 -0.007100719120186394 0.0020664786633233789 0 0 0 -0.011638227758867081 -0.065631588524071693 -0.0084998364738012137 0 -0.0084998364738012137 0.0060136676813442591 0 0 0 -0.014904480210681914 -0.034752967987087491 -0.010618629653079525 0 -0.010618629653079525 0.0014694279970184354 0 0 0 -0.0083208849975173749 -0.017540664330881972 -0.021241210983060782 0 -0.021241210983060782 0.0071825350347332062 0 0 0 -0.002589532324037358 -0.035284179762939349 -0.021323451889151412 0 -0.021323451889151412 0.0061170847027736119 0 0 0 -0.007291773765041476 -0.0092926277981306704 -0.021448443336573586 0 -0.021448443336573586 0.0068359489410938501 0 0 0 -0.00061416971425920508 -0.015158317465311599 -0.030683884836367081 0 -0.030683884836367081 0.0092616093377446695 0 0 0 -0.001474177031891899 -0.02066127261867734 -0.027822312496675661 0 -0.027822312496675661 0.0085521659023641838 0 0 0 -0.0030272766790783168 -0.016803121887534078 -0.024886989593559172 0 -0.024886989593559172 0.0084986926761305703 0 0 0 -0.0020761073028510157 -0.018971720055349917 -0.032958231865591325 0 -0.032958231865591325 0.012628254050729926 0 0 0 -0.0015858665011549422 -0.031071754798315539 -0.020413250096582125 0 -0.020413250096582125 0.0056645278023155637 0 0 0 -0.0063518067489999955 -0.044911930048585347 -0.024420614186462686 0 -0.024420614186462686 0.0076066599803015222 0 0 0 -0.009326317517070859 -0.04340702240796579 -0.020044874666253987 0 -0.020044874666253987 0.0039537169651699955 0 0 0 -0.0098633263606989763 -0.043127246953844539 -0.020346262198916443 0 -0.020346262198916443 0.0067635919679610579 0 0 0 -0.0090909137464707801 -0.070539731911998249 -0.013910961550611889 0 -0.013910961550611889 0.0037396101225111167 0 0 0 -0.016700030447372005 -0.066531652933330993 -0.0078689674878879012 0 -0.0078689674878879012 0.0035678157067567939 0 0 0 -0.01574095930664357 -0.081936342919529781 -0.011572972501796785 0 -0.011572972501796785 0.0043864454637394523 0 0 0 -0.01938747436394761 -0.12398795727283135 -0.0084746764631515141 0 -0.0084746764631515141 0.0036525922083381346 0 0 0 -0.03008384126612329 -0.099036299597404731 -0.0092400193026077118 0 -0.0092400193026077118 0.0040645415604643187 0 0 0 -0.023742939509235006 -0.083416628309272156 -0.0055123204369922352 0 -0.0055123204369922352 0.002466060229473821 0 0 0 -0.020237642019949542 -0.071520688468348609 -0.021726633493323155 0 -0.021726633493323155 0.0093640177497264221 0 0 0 -0.015539167679655491 -0.057197954732047196 -0.016298752726839116 0 -0.016298752726839116 0.0034515229702212213 0 0 0 -0.013436607940456369 -0.026188570379505727 -0.023916032386563368 0 -0.023916032386563368 0.0080334549620251217 0 0 0 -0.0045387788543702623 -0.031359399412458244 -0.030640482756124798 0 -0.030640482756124798 0.014833494201290875 0 0 0 -0.0041314763027918699 -0.029382641484184402 -0.02871031481792452 0 -0.02871031481792452 0.024489985062023822 0 0 0 -0.0012231641055400755 -0.043406888471526947 -0.017947470966394818 0 -0.017947470966394818 0.0036834389460390637 0 0 0 -0.0099308623813719604 -0.044829739217335671 -0.021443029618016418 0 -0.021443029618016418 0.012229733566657686 0 0 0 -0.0081500014126695691 -0.068072597652922479 -0.0063353586371170945 0 -0.0063353586371170945 0.014151270775526248 0 0 0 -0.013480331719349065 -0.065783472552823241 -0.021243476273123951 0 -0.021243476273123951 0.011361845869628739 0 0 0 -0.013605406670798514 -0.086540474604348855 -0.010602108906862778 0 -0.010602108906862778 0.0041782871374914654 0 0 0 -0.020590546866714327 -0.081968055906725845 -0.006899803979517477 0 -0.006899803979517477 0.0033335232373681301 0 0 0 -0.019658633167339512 -0.12526413587903845 -0.0056209222676774084 0 -0.0056209222676774084 0.0047626737720039003 0 0 0 -0.030125365526758596 0.033590652353225836 -0.032431125293075236 0 -0.032431125293075236 0.023273736868993256 0 0 0 0.014216097305554787 0.074348295176846158 -0.052422505916232709 0 -0.052422505916232709 0.04633167130312188 0 0 0 0.030169991619992009 0.032274257607414376 -0.037897847939135532 0 -0.037897847939135532 0.023936965041486374 0 0 0 0.014052805662225228 0.027850777681542982 -0.030820328776362094 0 -0.030820328776362094 0.014680260308492121 0 0 0 0.010632759497508637 -0.0047080017798457607 -0.032186863610606242 0 -0.032186863610606242 0.013246412007275499 0 0 0 0.002134602556857379 -0.0026623451409427124 -0.033631454902357416 0 -0.033631454902357416 0.019755196854346235 0 0 0 0.0042732129283509224 0.023117639238533938 -0.042003445358187119 0 -0.042003445358187119 0.029023647374373907 0 0 0 0.013035321653226961 -0.0046164876680435674 -0.025060437736403318 0 -0.025060437736403318 0.028492529888254015 0 0 0 0.0059690105550526673 -0.039735892386816685 -0.016505778057024051 0 -0.016505778057024051 0.012572480904074146 0 0 0 -0.0067908528706856486 -0.028348103823749353 -0.011794131861781409 0 -0.011794131861781409 0.020904051592614686 0 0 0 -0.0018610130577836823 -0.011844482625095465 -0.03236920834030918 0 -0.03236920834030918 0.033634238908352154 0 0 0 0.0054474390708141862 0.027786849586925844 -0.037372926322323793 0 -0.037372926322323793 0.043089251078554103 0 0 0 0.017719025166369917 0.0286256670448089 -0.034583472956588292 0 -0.034583472956588292 0.043131054128785484 0 0 0 0.017939180293398582 0.060325584473059232 -0.047664964684791922 0 -0.047664964684791922 0.066340399282835666 0 0 0 0.031666495938973707 0.085779039212357244 -0.070824142006547242 0 -0.070824142006547242 0.13534778991385565 0 0 0 0.055281707281553225 -0.052809393969611318 0.020249360261176214 0 0.020249360261176214 0.07614316882515626 0 0 0 0.0058334437138862494 0.20121610966751108 -0.071649768477783593 0 -0.071649768477783593 0.062167242133861156 0 0 0 0.0658458379503431 0.0052491438296907835 -0.0025000687697305656 0 -0.0025000687697305656 0.015428334890379616 0 0 0 0.0051693696800176004 0.098640545807936242 -0.033302954570012533 0 -0.033302954570012533 0.014084349766331827 0 0 0 0.028181223893567031 0.091806305891323658 -0.028177806615239387 0 -0.028177806615239387 0.028277253764063315 0 0 0 0.030020889913846882 0.012681319430154211 -0.0063769030441174872 0 -0.0063769030441174872 0.03797543923889514 0 0 0 0.012664189667262338 0.13003991918229724 -0.019815966921827077 0 -0.019815966921827077 0.036184239231852322 0 0 0 0.04155603960353732 0.017234758806049674 -0.0088311317159382417 0 -0.0088311317159382417 0.051588164357381804 0 0 0 0.017205730790857871 0.094767611443061506 -0.017087727188605406 0 -0.017087727188605406 0.037498204222095266 0 0 0 0.033066453916289207 0.087520491287498337 -0.028670606751525496 0 -0.028670606751525496 0.027176861200730373 0 0 0 0.028674338122057164 0.020010830922770728 -0.015847363764017436 0 -0.015847363764017436 0.026263235075615787 0 0 0 0.011568516499596587 -0.0052682138363484843 -0.022790753357544279 0 -0.022790753357544279 0.038778388757406024 0 0 0 0.0083775437302643918 0.020570695823955189 -0.017419017909374654 0 -0.017419017909374654 0.032793483431914017 0 0 0 0.013341044813967341 -0.027191891871539892 -0.022289502380508152 0 -0.022289502380508152 0.025610418852217265 0 0 0 -0.00039536825483069138 0.020496278832564163 -0.0031726377615938911 0 -0.0031726377615938911 0.053159939855119687 0 0 0 0.018414054671920962 0.014104289545722584 -0.0011239035059086577 0 -0.0011239035059086577 0.013985846674650665 0 0 0 0.0070225340550933019 -0.010140100701542559 -0.0077709898720493831 0 -0.0077709898720493831 0.13881402346203109 0 0 0 0.032168480690122153 0.01385924446299831 0.0077035449820630486 0 0.0077035449820630486 0.053165850642337475 0 0 0 0.016756273776333954 0.029458482225032917 -0.0067407796636999445 0 -0.0067407796636999445 0.021459652502154147 0 0 0 0.012729533681796773 0.037934923705192899 -0.0094243265023710929 0 -0.0094243265023710929 0.05172122830006895 0 0 0 0.022414038001315473 0.027006944522565884 -0.010226702057648265 0 -0.010226702057648265 0.049131923152798969 0 0 0 0.019034716918841205 0.036446576228295738 -0.016017539608611617 0 -0.016017539608611617 0.052288432358408354 0 0 0 0.02218375214667602 0.036330943796667792 -0.014435395001458476 0 -0.014435395001458476 0.07365985189229296 0 0 0 0.027497698922240205 0.055108866770284266 -0.02737575271483407 0 -0.02737575271483407 0.055316879520218909 0 0 0 0.027606436572625778 0.061836538225038672 -0.029077617874949779 0 -0.029077617874949779 0.032295854034234156 0 0 0 0.023533098064818202 0.047456768347967165 -0.018055113071770629 0 -0.018055113071770629 0.030296783379562819 0 0 0 0.019438387931882517 0.049985090983598879 -0.022678888909770586 0 -0.022678888909770586 0.026156573615512491 0 0 0 0.019035416149777828 0.044978293694479227 -0.016485369502236502 0 -0.016485369502236502 0.023673465484954581 0 0 0 0.017162939794858445 0.049397584842929637 -0.021983302602489152 0 -0.021983302602489152 0.014163431176778082 0 0 0 0.015890254004926916 0.02993736883026267 -0.020451161982245836 0 -0.020451161982245836 0.026908583467048774 0 0 0 0.014211488074327872 0.045478387806630424 -0.019853381544884502 0 -0.019853381544884502 0.01885854996994718 0 0 0 0.016084234444144446 0.043651050401025265 -0.021862070915621756 0 -0.021862070915621756 0.014540573415116886 0 0 0 0.014547905954035573 0.035659459223858214 -0.021819924236284413 0 -0.021819924236284413 0.022294893344132038 0 0 0 0.014488588141997577 0.049572256568503975 -0.023854858785862604 0 -0.023854858785862604 0.012237365556595381 0 0 0 0.01545240553127486 0.047821319876697521 -0.021575835600430374 0 -0.021575835600430374 0.016947045541063965 0 0 0 0.016192091354440385 0.044577491259386676 -0.023448055927405398 0 -0.023448055927405398 0.023286756246637841 0 0 0 0.016966061876506094 0.063455158973617171 -0.021183067025591834 0 -0.021183067025591834 0.009588425229051678 0 0 0 0.018260896050667219 0.056451437469823673 -0.023514472226606561 0 -0.023514472226606561 0.016824324424676518 0 0 0 0.018318940473625006 0.053715862457242414 -0.021752468856430007 0 -0.021752468856430007 0.011870459919779197 0 0 0 0.016396580594255389 0.060204632505785199 -0.020265966645135636 0 -0.020265966645135636 0.0098233916358482498 0 0 0 0.017507006035408366 0.063535644289593809 -0.022169821193415762 0 -0.022169821193415762 0.009766228736318161 0 0 0 0.018325468256477979 0.061946373465676552 -0.012027567404482575 0 -0.012027567404482575 0.0035769729827398455 0 0 0 0.016380836612104099 0.054637115166338568 -0.019272836999482956 0 -0.019272836999482956 0.007735508774302291 0 0 0 0.015593155985160201 0.065890132023968401 -0.014776595130258252 0 -0.014776595130258252 0.012629391753848557 0 0 0 0.019629880944454191 0.047171625245212234 -0.020378022545075702 0 -0.020378022545075702 0.028672068244511073 0 0 0 0.018960923372430938 0.056405222015234513 -0.018786377465097731 0 -0.018786377465097731 0.018950384762309369 0 0 0 0.018838901694386012 0.04728449742283742 -0.022839936768741631 0 -0.022839936768741631 0.017296640936152963 0 0 0 0.016145284589747629 0.051964961114732366 -0.01844768480820147 0 -0.01844768480820147 0.017441032481716801 0 0 0 0.017351498399112264 0.049390861387874851 -0.020291372590724943 0 -0.020291372590724943 0.02914860844411038 0 0 0 0.019634867457996363 0.057175031589749514 -0.017818000220394824 0 -0.017818000220394824 0.033215258016024096 0 0 0 0.022597572401443333 0.054107694305028875 -0.01872745918098756 0 -0.01872745918098756 0.047021492651500574 0 0 0 0.025282296739132348 0.042539657582734702 -0.021599740545536428 0 -0.021599740545536428 0.041908643053639283 0 0 0 0.02111207515909358 0.046871221433739729 -0.020460639369060507 0 -0.020460639369060507 0.03579525508583048 0 0 0 0.020666619129892538 0.048993036190861539 -0.015378861412546241 0 -0.015378861412546241 0.062078714810668179 0 0 0 0.027767937750382388 0.092657182437064056 -0.015235491918717536 0 -0.015235491918717536 0.061462664898042085 0 0 0 0.038529961833776494 0.025790315756291957 -0.011566613353410639 0 -0.011566613353410639 0.07721975405684936 0 0 0 0.025752517453285328 0.051843030806553281 -0.016957144751127168 0 -0.016957144751127168 0.065306630412824251 0 0 0 0.029287415304844466 0.078311409660863363 -0.01977581106496662 0 -0.01977581106496662 0.066706317201966847 0 0 0 0.036254431715707747 0.078366540626190251 -0.017778652884999691 0 -0.017778652884999691 0.056452752451519261 0 0 0 0.033704823269427309 0.09507065025851491 -0.013603380189637693 0 -0.013603380189637693 0.051690248834656671 0 0 0 0.036690224773292868 0.024866498021542172 -0.018008779490349403 0 -0.018008779490349403 0.05389678731847658 0 0 0 0.01969082133500466 0.021455043298556957 -0.010502535437721349 0 -0.010502535437721349 0.064243779209772714 0 0 0 0.021424705627082416 0.084375223870301774 -0.016040278344192638 0 -0.016040278344192638 0.048418533237288175 0 0 0 0.033198439276897529 0.076060451171949373 -0.024456933750470089 0 -0.024456933750470089 0.030591750547278362 0 0 0 0.026663050429806767 0.10243214246542248 -0.014301148387246276 0 -0.014301148387246276 0.042163020570549214 0 0 0 0.036148790758992966 0.023139475766246642 -0.018371181204571263 0 -0.018371181204571263 0.03996164235745156 0 0 0 0.015775279530924557 0.031475682710642341 -0.024701594435725782 0 -0.024701594435725782 0.022855524375981706 0 0 0 0.013582801771656008 0.03155569819966042 -0.023009582836106685 0 -0.023009582836106685 0.029966218706249603 0 0 0 0.015380479226477506 0.037340931379165332 -0.019605963044080771 0 -0.019605963044080771 0.044884749096293475 0 0 0 0.020556420118864716 
</DataArray>
<DataArray type="Float64" Name="cross_section_updated" format="ascii">
1 1 1 1 1 1 1 1 1 1 1 1 1 1 1 1 1 1 1 1 1 1 1 1 1 1 1 1 1 1 1 1 1 1 1 1 1 1 1 1 1 1 1 1 1 1 1 1 1 1 1 1 1 1 1 1 1 1 1 1 1 1 1 1 1 1 1 1 1 1 1 1 1 1 1 1 1 1 1 1 1 1 1 1 1 1 1 1 1 1 1 1 1 1 1 1 1 1 1 1 1 1 1 1 1 1 1 1 1 1 1 1 1 1 1 1 1 1 1 1 1 1 1 1 1 1 1 1 1 1 1 1 1 1 1 1 1 1 1 1 1 1 1 1 1 1 1 1 1 1 1 1 1 1 1 1 1 1 1 1 1 1 1 1 1 1 1 1 1 1 1 1 1 1 1 1 1 1 1 1 1 1 1 1 1 1 1 1 1 1 1 1 1 1 1 1 1 1 1 1 1 1 1 1 1 1 1 1 1 1 1 1 1 1 1 1 1 1 1 1 1 1 1 1 1 1 1 1 1 1 1 1 1 1 1 1 1 1 1 1 1 1 1 1 1 1 1 1 1 1 1 1 1 1 1 1 1 1 1 1 1 1 1 1 1 1 1 1 1 1 1 1 1 1 1 1 1 1 1 1 1 1 1 1 1 1 1 1 1 1 1 1 1 1 1 1 1 1 1 1 1 1 1 1 1 1 1 1 1 1 1 1 1 1 1 1 1 1 1 1 1 1 1 1 1 1 1 1 1 1 1 1 1 1 1 1 1 1 1 1 1 1 1 1 1 1 1 1 1 1 1 1 1 1 1 1 1 1 1 1 1 1 1 1 1 1 1 1 1 1 1 1 1 1 1 1 1 1 1 1 1 1 1 1 1 1 1 1 1 1 1 1 1 1 1 1 1 1 1 1 1 1 1 1 1 1 1 1 1 1 1 1 1 1 1 1 1 1 1 1 1 1 1 1 1 1 1 1 1 1 1 1 1 1 1 1 1 1 1 1 1 1 1 1 1 1 1 1 1 1 1 1 1 1 1 1 1 1 1 1 1 1 1 1 1 1 1 1 1 1 1 1 1 1 1 1 1 1 1 1 1 1 1 1 1 1 1 1 1 1 1 1 1 1 1 1 1 1 1 1 1 1 1 1 1 1 1 1 1 1 1 1 1 1 1 1 1 1 1 1 1 1 1 1 1 1 1 1 1 1 1 1 1 1 1 1 1 1 0.0020436920917210298 1 1 0.0021128206023340937 1 1 0.0021598603342668473 1 1 1 1 1 1 1 1 1 1 1 1 1 0.002202518336200819 1 1 1 1 1 0.0022447903045241802 1 1 1 1 1 1 1 1 1 1 1 1 1 1 1 1 1 1 1 1 1 1 1 1 1 1 1 1 1 1 1 1 1 1 1 1 1 1 1 1 1 1 1 1 1 1 1 1 1 1 1 1 1 1 1 1 1 1 1 1 1 1 1 1 1 1 1 1 1 1 1 1 1 1 1 1 1 1 1 1 1 1 1 1 1 1 1 1 1 1 1 1 1 1 1 1 1 1 1 1 1 1 1 1 1 1 1 1 1 1 1 1 1 1 1 1 1 1 1 1 1 1 1 1 1 1 1 1 1 1 1 1 1 1 1 1 1 1 1 1 1 1 1 1 1 1 1 1 1 1 1 1 1 1 1 1 1 1 1 1 1 1 1 1 1 1 1 1 0.0022876730360138087 1 1 1 0.0023320393011368062 1 1 0.0023784531336492826 1 1 1 1 1 1 1 1 1 1 1 0.0024277609250454237 1 1 1 1 0.0024814964221207352 1 1 1 1 1 1 1 1 1 1 1 1 1 1 1 1 1 1 1 1 1 1 1 1 1 1 1 1 1 1 1 1 1 1 1 1 1 1 1 1 1 1 1 1 1 1 1 1 1 1 1 1 1 1 1 1 1 1 0.0010760341207415687 1 1 1 1 1 1 1 1 1 1 1 1 1 1 0.0011031131321006557 1 1 0.0010888906418797075 1 0.0011191936217377764 1 1 1 1 1 1 1 1 1 1 1 1 1 0.0011378067643491657 1 1 1 1 1 1 1 1 1 1 1 1 1 1 1 1 1 1 1 1 1 1 1 1 1 1 1 1 1 1 1 1 1 1 1 1 1 1 1 1 1 1 1 1 1 1 1 1 1 1 1 1 1 1 1 1 1 1 1 1 1 1 1 1 1 1 1 1 1 1 1 1 1 1 1 1 1 1 1 1 1 1 1 1 1 1 1 1 1 1 1 1 1 1 1 1 1 1 1 1 1 1 1 1 1 1 1 1 1 1 1 1 1 1 1 1 1 1 1 1 1 1 1 1 1 1 1 1 1 1 1 1 1 1 1 1 0.0010128237065129525 1 1 0.0010316390619645411 1 0.0010429780419581548 1 1 1 1 1 1 1 1 1 1 1 1 1 1 1 1 1 1 1 1 1 1 1 1 1 1 1 1 1 1 1 1 1 1 1 1 1 1 1 1 1 1 1 1 1 1 1 0.001064334045754455 1 1 1 1 1 0.0010535238419783629 1 1 1 1 1 1 1 
</DataArray>
<DataArray type="Float64" Name="displacement_divergence" format="ascii">
-3.7738635252216793e-05 -4.1846339224160079e-05 -3.1777203366287065e-05 -3.6511484670611062e-05 -3.4451320009484487e-05 -3.4431953574197316e-05 -3.1879416828204437e-05 -3.3786574292486157e-05 -3.0731989136847307e-05 -2.3166359316294222e-05 -3.3944615875802761e-05 -2.1684965070145554e-05 -4.1168097894908959e-05 -3.1261134888469614e-05 -5.0093313349649169e-05 -3.962647993653362e-05 -3.3902048974822382e-05 -3.711412744042476e-05 -5.3928122628003251e-06 -9.8337860645752667e-06 -1.0572815386128832e-05 -1.9011129788533387e-05 -2.2415328189481587e-05 -1.3669597232787111e-05 -1.5920230282342606e-05 -2.0254007944876622e-05 -2.1796056355391232e-05 -1.9377826404627992e-05 -7.9834451627067539e-06 -9.6232374289679989e-06 -4.8443997573880262e-06 2.3497790307107567e-08 -1.655629873304295e-06 -9.4135445005429877e-07 -9.5263653143349381e-06 -2.1383742478264331e-05 -1.758450463714821e-05 -1.060962825547433e-05 -2.0230652086658428e-05 -2.3416483088607729e-05 -1.6556003563952192e-05 -1.0549653470345649e-05 -1.0516515114790943e-05 -1.7416787966438974e-06 -1.0913085493160381e-05 -5.9845350072333149e-06 6.4011782507801659e-06 -1.5619259335633237e-07 -4.9480356066551061e-05 -3.7990988218942787e-05 -5.6998783062758203e-05 -3.7554488959724482e-05 -2.8976284212522788e-05 -3.1337982690774486e-05 -3.1807221168017645e-05 -3.5307740977461456e-05 -2.548222703269978e-05 -3.78495954477787e-05 -2.9771016672636789e-05 -3.6036540499342513e-05 -5.127091568089057e-05 -4.9443825197253202e-05 -4.6992488484830954e-05 -6.4605428367199672e-05 -6.8169287310230583e-05 -4.8364805692145175e-05 -5.5675259327282784e-05 -7.6260903246099218e-05 -5.6636203205810622e-05 -5.6884182950839983e-05 -5.9456501181233695e-05 -8.616415178057648e-05 -3.0672672042499267e-05 -2.6303829135142321e-05 -4.4015798323604927e-05 -4.099640807688363e-05 -2.731130368948311e-05 -4.8393315398880145e-05 -4.2396702926393611e-05 -3.6881175077298119e-05 -2.5792297456810007e-05 -1.6438338104753498e-05 -1.5116129980962126e-05 -1.1384687304630374e-05 -5.8849193539502613e-06 -2.6496834398973396e-05 4.5926653000832125e-06 -8.7025559331642961e-07 -6.3042279005956316e-07 1.3418791639542345e-05 7.1569635758143374e-06 4.5159131441682644e-06 1.5964557356303009e-05 2.1812064280744126e-05 -1.393461127053589e-05 -2.0112082091526448e-05 -9.8361774466375215e-07 -4.7906040206056541e-06 -8.3838084252160159e-06 -1.4092057267971967e-05 3.8864964213773494e-06 -1.2310509180279472e-05 3.8511078608819728e-05 5.8249237496155105e-06 1.6651586995586538e-05 2.892999716973404e-05 4.1297867324318222e-05 3.6368212170878239e-05 3.2122715499897166e-05 3.4981947236303998e-05 6.9108135806833352e-05 1.6698569807676949e-06 1.2306685489107982e-05 1.4665720938912568e-05 -1.2074133426132169e-05 -1.3562202142267826e-05 -3.0474066529356033e-05 -4.1228066356112424e-05 -4.6251234470518605e-05 -5.8816086619399398e-05 -8.4204156109756899e-05 -6.2787341177813886e-05 -6.0210563726028512e-05 -6.7403425206445932e-05 -5.4411043324705725e-05 -8.8040955782019777e-05 -6.4019267084437626e-05 -3.9363309476669981e-05 -2.5479229057940632e-05 -4.2011664066588666e-05 6.2673506314421813e-05 5.3995574868197967e-05 4.9717884917773212e-05 5.2793266246357265e-05 6.0834379637453039e-05 7.0333707713904602e-05 6.3326429300961516e-05 6.0416268227326294e-05 6.4307038885837468e-05 6.0350213556188904e-05 5.2050840958476526e-05 6.1102637132466508e-05 5.6203394856380967e-05 6.1048048494345491e-05 6.8436853324924183e-05 0.00012934968883803914 6.0330675067848288e-05 8.6405714645070779e-05 5.5406116867515561e-05 0.00011987035340153189 7.55650177666982e-05 0.00011673357588134776 6.9174956134419874e-05 6.0242017461624496e-05 7.0643485381765929e-05 4.4965156289737622e-05 4.4428160823400762e-05 6.1287071716382491e-05 4.8751643129733477e-05 6.238322909508706e-05 3.7033438805132458e-05 5.4560633162336559e-05 4.190460832874893e-05 3.8963731979934428e-05 2.8377993610689138e-05 3.4478326536075269e-05 3.3970092566730853e-05 3.1989824935225783e-05 2.0029195310932027e-05 2.3844710593697275e-05 2.0971239183591495e-05 1.4999270664028574e-05 1.0378389790219952e-05 3.2581663671913587e-05 3.0181609653342452e-05 2.7995933378125365e-05 2.4318643430645075e-05 3.400346647334127e-05 3.0765612765440251e-05 4.0393373261296469e-05 3.8816510451182132e-05 3.8623952681575487e-05 4.3820066579351004e-05 3.8397589169040939e-05 5.2830166937341962e-05 4.7771324863212252e-05 4.491461368956379e-05 5.7184979525508332e-05 4.2726600628911296e-05 7.2657874502351344e-05 5.1457693631616647e-05 6.312031588150996e-05 4.8609794261098665e-05 5.7755712596301891e-05 6.0471803085456477e-05 4.6656606358288973e-05 4.980395043856605e-05 4.9722847681341972e-05 4.2634157501458021e-05 3.4128139602900233e-05 4.0122431203973068e-05 3.997438643247093e-05 3.1995023566295136e-05 2.8509727808666722e-05 3.2702580508527769e-05 3.6188948270314492e-05 3.0758423098085748e-05 3.013448701077911e-05 2.4790453689996533e-05 3.3357343851232819e-05 3.217087441684122e-05 3.7802297261760056e-05 3.4617463705582298e-05 3.5650000856837102e-05 1.1479263916746335e-05 1.4905392584443815e-05 9.0177241177291084e-06 1.8101974685326253e-05 1.9961414181055603e-05 2.2571368576927958e-05 2.4177722628031245e-05 2.6663275986598929e-05 2.3994881768660686e-05 2.0939098099854456e-05 2.3656767262938979e-05 1.9032259013412189e-05 1.5420397883777505e-05 8.749564722155371e-06 6.8599032876969496e-06 7.145591523905433e-06 9.0973745095660095e-07 4.4154952264909028e-06 7.7617093071059254e-07 4.6664050551426922e-06 1.1970734733339679e-05 1.0904038383509291e-05 1.3135441263218282e-05 1.6567803178036797e-05 1.864483503177057e-05 2.2536038133837504e-05 2.0215427105343333e-05 1.6648802753639722e-05 1.6993302322564347e-05 8.3580437666407364e-06 6.0235370738042046e-06 -9.6684634219363128e-07 3.297661785964902e-05 3.27839489178864e-05 2.8462719572189045e-05 2.8233312783776133e-05 2.4886754078895052e-05 2.8529258792021251e-05 2.6812593496057262e-05 2.4371302846179335e-05 3.2730493397808423e-05 2.9169245510894893e-05 3.5241998885885021e-05 2.9697012776646108e-05 3.1457569497360464e-05 3.6569730575165524e-05 3.2734103705582257e-05 4.2119082639245938e-05 3.1168373858314041e-05 3.7630886988426674e-05 3.5868379191840582e-05 3.5462063002936297e-05 3.2345627705158267e-05 3.8157609747825853e-05 3.2802815039922003e-05 3.190230624536817e-05 2.8633789446201453e-05 3.4575332446325297e-05 3.3507055027606999e-05 4.1647581895077976e-05 4.0969715366308827e-05 3.1062169162665431e-05 3.4084150929672495e-05 3.323489404964542e-05 2.3871525676455042e-05 2.0767997943942278e-05 1.3991624942091236e-05 3.6665258952246272e-06 9.8044245393983628e-06 1.5843661579373394e-05 2.4042622937337968e-05 9.1021746559202623e-06 1.9889538768200936e-05 2.6300951741555109e-05 3.1513620633193555e-05 3.1403960710327545e-05 2.8178859533315969e-05 3.7564040763427703e-05 1.9968514824284307e-05 1.464323391625853e-05 2.1862056119793866e-05 2.4979324074416803e-05 8.2638109065485325e-06 1.9627299895208022e-05 2.8843412130945891e-05 2.4103793821422559e-05 4.3081636603359257e-05 3.0692164889276092e-05 2.7642191645906817e-05 3.5694992897291933e-05 3.4843567238741233e-05 4.1108946467907574e-05 5.4962030434582433e-05 4.7623408438442967e-05 5.0727665845558991e-05 4.0859392062082597e-05 4.6113988542493411e-05 5.3772973640980265e-05 4.4144839073062295e-05 5.0105008381970047e-05 4.0017914030206178e-05 3.8790328757326009e-05 3.7531453013345935e-05 4.1230111030396896e-05 3.3368872314880739e-05 3.9046990987081334e-05 3.3279639423543923e-05 3.6770006444045711e-05 3.3827692189351863e-05 3.745681459280507e-05 4.0263597509058348e-05 -7.25039698079749e-05 -5.0003630982846968e-05 -5.4209682009919414e-05 -4.40659391122797e-05 -3.9575164054671079e-05 -4.7150459200535433e-05 -5.307277321551e-05 -4.6267042194992925e-05 -4.3618734219182741e-05 -3.8694700563075947e-05 -4.1700451324656125e-05 -4.1672433062155692e-05 -3.9304518750045173e-05 -2.5429216270709949e-05 -3.8907806737397804e-05 -5.9271983659725758e-05 -2.4015339913195606e-05 -4.6165452087433586e-05 -2.3901172135716678e-05 -2.1711117211373253e-05 -2.4126580918652042e-05 -2.0563135745326498e-05 -2.4497965101335667e-05 -1.0960238050751886e-05 -1.2061354253325451e-05 -5.5717403422325787e-06 -7.9911074753925029e-06 5.4569439508600008e-06 1.0255085162126641e-05 -9.6316687721487062e-07 -5.2098601932917832e-06 -4.089746321683535e-06 1.9119420492345483e-06 1.1708206999242173e-05 -7.9237853038066142e-06 7.6011622079730706e-06 -5.6139382289756531e-07 -1.1017574853363092e-05 1.1876732029553205e-05 -6.5298044594049858e-06 -2.0977605547757783e-06 -3.2868887645442871e-05 -2.7613027012631791e-05 -2.5881461672288999e-05 -5.1150240707981325e-06 -2.1277945905662804e-05 -4.2230779472584067e-05 -3.4515868771736887e-05 -5.0845478574750811e-05 -3.9041594435848941e-05 -5.2901620890560225e-05 -2.7712155463352513e-05 -4.6201088107545016e-05 -8.0221002971193363e-05 -8.4343296229297211e-05 -0.00010106673016555123 -7.1630593991581036e-05 -8.4734203607406507e-05 -5.2519275901024781e-05 -7.4784618531078983e-05 -5.0225308464092622e-05 -0.00010176810646237062 -0.00015637544942020845 -9.4216599433002429e-05 -9.6661562016618846e-05 -0.00013282711444139768 -0.00011560032477966886 -7.6724910501241791e-05 -8.91192380573454e-05 -8.4049668400175209e-05 -4.8272889038724259e-05 -5.25826555706749e-05 -4.0442652139501712e-05 -4.360517220434757e-05 -6.568320207458363e-05 -4.9322863375088253e-05 -1.5472695161105373e-06 1.6447346214238891e-05 1.9113937481878414e-05 -3.2648020608936774e-05 -1.1675017074971869e-05 -3.8448565146232846e-05 -2.0914824719660853e-05 -1.3383799489269218e-05 7.569423327184845e-06 -1.1726608657727947e-05 8.2946994565457672e-06 3.1185227247954938e-05 1.7554571521250988e-05 3.8658547834353248e-05 1.7073585930205712e-05 3.6801464124417659e-05 6.1392090107769863e-05 2.6749609297193541e-05 5.6953283276131605e-05 6.2747096909132426e-05 0.00010712587241644983 0.00010463714904960715 5.3266310011860693e-05 4.3269484322097911e-05 0.00011249485728571527 0.00018680485499722769 0.00017118986487892122 0.00018618112455713555 0.00012447054141208813 8.5315958646845302e-05 0.00010303270104172378 7.8714703852264035e-05 3.0248749766195607e-05 1.8812381103101871e-05 6.5441467933710076e-06 -1.7221139502367926e-05 5.4318074673645228e-05 -1.1870230088652126e-05 -5.9756163343295272e-05 -6.6887842801624726e-05 -3.0028169313654979e-05 -4.8215305970046552e-05 -3.1446719693829892e-05 -7.9847607802788212e-05 -4.3240760259030317e-05 -6.6824709767222259e-05 -0.00010034201500869135 -0.00010044559462212715 -0.00015461364059901226 -0.00011348904850119122 -0.0001624407526768228 -0.00012184511623764051 -8.8444933669383881e-05 -0.00011036538030102252 8.0309346820245448e-05 8.8740435677791879e-05 9.3596828108087802e-05 8.6700114140130961e-05 8.0211269634092785e-05 6.7928068645620022e-05 6.0554182218103037e-05 7.5532566235455491e-05 5.3448578115646908e-05 6.2331581583513794e-05 4.4793074929286635e-05 6.0774359784802521e-05 5.1732086412046042e-05 6.321560997339792e-05 6.7451313108201315e-05 5.925908152182506e-05 5.2827540032390003e-05 4.1849610286456609e-05 6.4112491218862148e-05 5.9478095838333873e-05 7.3171661290766512e-05 4.1695680268135279e-05 5.3060499763842055e-05 6.8290976610947655e-05 8.3784654242113389e-05 0.00010737079177147098 8.3544990031070402e-05 9.0392941033966365e-05 9.0138738698646912e-05 0.0001118633512686502 0.00012809932546341041 0.00015885686780588198 0.00017187514973681446 0.00015671772495587773 0.00013814539937653109 0.00014739289663259707 0.0001777854873574945 0.00017225503103477372 0.00029932758187825245 0.00036893419497541723 0.00035604675627980283 0.00024268932168321797 0.00013200515710016126 0.0001744857268538719 0.00022513970587038267 0.00013450877248881251 0.00014271264264424714 0.0001471089804380511 0.00010425569612777609 0.00013006547605681475 8.7037161538355365e-05 0.00010890535079372071 8.301532051145275e-05 0.00011342707019093372 7.0074513879348925e-05 8.711796255676727e-05 9.9533993797071692e-05 8.2445468482271098e-05 7.2977266213012873e-05 0.0001097547390381221 7.9283771680057534e-05 6.8057620822225634e-05 9.222386947445969e-05 6.4227954158948338e-05 5.0705638553357451e-05 7.306526462950904e-05 7.6456041923392263e-05 4.8771840405362893e-05 8.9907765977745822e-05 6.724588818475259e-05 7.674703702592882e-05 0.00012095916715672223 9.8105169121945069e-05 9.7828364126142039e-05 0.00010729518078802421 0.00014171088121450853 0.00014716955423222749 0.00017847737301020136 0.00040005512651771939 6.9841410995387013e-05 0.00017542183849485445 0.000370025310092161 0.00023707005696840225 0.02266519047150661 0.00033527087369836076 0.00018411465154079002 0.056348106691345198 7.0881082130512855e-05 0.0001743628716367534 0.080068942436446702 8.9678362514805546e-05 0.00013605749621201763 6.9940138843425145e-05 9.6804304514930175e-05 9.4834664624857449e-05 8.8938500032439846e-05 8.7193366840651338e-05 0.00011571712552090106 0.0001185376823866964 9.8023016904134376e-05 0.00013587376893786206 0.00016708454529422434 0.00017905938004038335 0.10134631938237192 0.00017507495227169715 0.00017164780795420737 0.00015557616322548103 0.00018828302724499014 0.00015066360738640212 0.12249670477695933 0.0001782950883289123 0.00011132766413547937 9.0716576008493632e-05 0.00013846207586148414 0.00011856970566118271 0.0001282585360886236 8.5988148338069276e-05 8.6697835742852961e-05 8.796586694748761e-05 6.3069401259154798e-05 6.7617567477429048e-05 5.4274034667338759e-05 5.7489366788705018e-05 5.0683851328695408e-05 6.068213125499413e-05 5.9629604425652928e-05 4.4895308983077713e-05 6.0131524227937749e-05 5.1647091137538368e-05 6.0549215882375201e-05 7.0665938206636325e-05 7.8085052320336982e-05 -8.154213084478985e-05 -9.6004398551949918e-05 -5.5753973652055214e-05 -0.00013077513933589446 -0.00013348473261049387 -8.1570338669436536e-05 -8.3974544788837637e-05 -4.5258402023014548e-05 -1.8954766322910356e-05 1.5183416921223884e-05 -2.9141715448371876e-05 -1.0255366976353632e-05 -4.8550241633061719e-05 -1.0127949747467486e-05 6.7848944180626172e-05 2.9248345525543454e-05 0.00010331732817992411 3.1878510635741748e-05 -1.1925504176236654e-05 5.529003463387546e-05 4.7978680131468892e-05 0.00013451064508569928 0.00020385834343071216 0.00015307315945940043 0.00016609078986415664 9.2113390406945057e-05 0.00012105739310295767 0.000142119434979859 7.8399139168196897e-05 7.8458100963902603e-05 0.00012180648679048674 0.00012081679725561064 0.00013357665488688024 0.00012054829507088683 8.772442371958282e-05 7.9838912763237867e-05 4.8120564229423132e-05 5.3324067795776798e-05 4.2958513133766439e-05 8.2183897901818431e-06 4.4522629407824001e-05 5.4424099460664496e-05 1.7215793529568556e-05 1.0486874410799932e-05 -2.0014051704821904e-05 -2.3238963390640344e-05 -2.1984985503827915e-05 -2.1787743256845502e-05 7.4070056113682142e-06 9.7557920408486692e-06 -3.5296144765494496e-06 -1.8798351519736054e-05 -2.9073212128213552e-05 -4.8556125030034016e-05 -1.8733066590702514e-05 -3.61361191604276e-05 -7.6040262760371929e-05 -5.6063271854517923e-05 -5.3751371818459371e-05 1.2579082369145443e-05 -7.8547282943526239e-06 9.6305991096716503e-06 -1.3263333967766973e-05 -1.1272242646767801e-05 -3.2128448112652211e-05 -2.6482073915740263e-05 -1.3766740338438683e-05 -1.7320771611281302e-06 3.4127565888674577e-06 1.0401320791114319e-05 2.4933899898531113e-05 2.6714483965534046e-05 8.2255606974617097e-06 2.7903262901553087e-05 5.8690384941342821e-05 6.9078213327955322e-05 8.3252766326809106e-05 3.0785619375975175e-05 2.2441597814518155e-05 4.9510067768111657e-05 4.618203637972543e-05 7.1282537419565812e-05 5.9015011748226459e-05 0.00010725551781805157 0.00010607085018381548 8.6160338668198576e-05 0.00011932824314147324 0.00015697782274941372 0.00013227218753770857 0.00015735700665057018 9.769841715361223e-05 0.00012378461150591453 0.00016790125770266544 0.00014249910681822346 0.00017989852571514205 0.00016121489490207412 0.00020634751192500148 0.00022143703962392361 0.00016347826543973407 0.00013204432008184948 5.8118424797912356e-05 7.370983725906062e-05 9.2010479554103033e-05 5.9136974288276356e-05 0.00010744212656658807 7.8750215770540585e-05 0.0001010313419665611 3.7131374049240509e-05 1.1214456219661066e-05 3.0145410504367129e-05 2.1805121452135416e-05 3.5862267857561872e-05 3.4451529887768659e-05 2.1807000039139014e-05 3.4156091604906416e-05 2.4853794426567093e-05 1.8182711729862813e-05 2.0419883658613983e-05 1.7820713314789169e-05 1.4618341735642484e-05 1.9737625093502924e-05 1.2055969974385933e-05 1.3690623568627519e-05 -1.523814118475561e-06 7.8113908491547496e-05 0.00012218505976694912 0.00011700269220491681 0.00010224284879787402 6.9598857233052914e-05 5.3211724777886907e-05 5.0457693558748039e-05 6.2233278189434025e-05 4.9402138153914238e-05 4.8522097030547829e-05 7.6284300084938808e-05 7.6256207727796359e-05 7.3128017144411482e-05 0.0001033940538059659 0.00010237510691592277 0.00013264492596838358 0.00016640801085625898 0.00019481338498161295 0.00015098511636378793 0.00017438536234862419 0.00021480637522437208 0.00018208956212009708 0.14394981342184238 0.00016277297782391455 0.00020678891015958427 0.00020891315276637726 0.16612013843296014 0.00021682961889037491 0.00022773517035235002 0.18944201981562686 0.00020809276753512487 0.00015369552817284229 0.00021994925370558377 0.00015231007118558771 0.00017359900136195826 0.00019593367949179608 0.0001629642383916476 0.00024957037604936673 0.00025496272695468987 0.000215655594690187 0.00025891331170488623 0.21374941558465596 0.00029596255882941751 0.00027937947715576603 0.00024416631942544007 0.00027354697859884904 0.24206235214163857 0.00033078277716430075 0.00028954512476354611 0.00016326414327173561 0.00027619516415996418 0.00032102289791669956 0.00026816891975821105 0.00018955545353923861 7.2030768980694713e-05 0.00013244102040554234 7.2932776085728233e-05 0.00012589492301561702 8.6000265118524712e-05 7.9122350470297361e-05 0.00010056789735210406 0.000127037552308295 4.9645881617357639e-05 6.09631034810215e-05 5.1887559405996379e-05 7.0332772297313981e-05 4.1605453423988791e-05 4.1290964777901049e-05 1.2458353668357621e-05 2.4557565951079108e-05 -8.8174455694333307e-09 2.0806624005497831e-05 2.9839765964185128e-05 2.4791249660878478e-05 6.8440905524724867e-05 3.084000325743433e-05 3.8525634172310776e-05 7.3280214723548407e-05 4.4758510263705632e-05 4.9786782693909048e-05 6.2902855530989275e-05 7.1373956056357572e-05 4.0095518166371764e-05 4.6843933967512892e-05 4.0782316808503317e-05 4.7908575237743225e-05 4.5738359890733563e-05 4.9263688863053099e-05 4.6090279621706582e-05 4.3012324766536568e-05 4.9873030012099334e-05 4.8935335841041126e-05 6.2311759623677769e-05 7.5593380974730163e-05 5.4854590919840634e-05 4.7065677693333956e-05 5.4286689033430317e-05 6.5603984766878274e-05 5.0799484885847199e-05 3.9989788624716026e-05 5.0533713396925259e-05 4.2934371752520294e-05 5.2322839051693404e-05 4.9755319898707039e-05 0.00010578456326293308 0.076092446555916377 0.00010798205134416997 9.3888070290987745e-05 8.3080529875671143e-05 6.071915308296491e-05 6.6797935736881051e-05 7.0402092998593643e-05 0.00010466471442172292 8.8744652667801941e-05 0.0001007725311259284 8.6665813828369805e-05 0.00012556920817554339 0.0001442062358414022 0.00011049193998752217 0.00011231383763961764 0.10321107665010242 0.00012013415703175504 0.00012032192855428538 0.088954977050845901 0.00014274817982148609 0.11924498668297871 0.00017510400870450601 0.00015735320146725862 0.00013744996073056411 9.6216389672689178e-05 0.00011343601388511134 0.00014942487036339637 0.00012672005097042204 9.0555509787709418e-05 0.00016304261090474694 0.00019141858268763865 0.00015581792172383161 0.00010761955421887759 0.00015978688096384417 0.1381346891687999 0.00019740524430773496 0.00017078030598648326 0.00013198679125734497 9.5745355731761362e-05 9.4634723882192377e-05 0.00011791926795598397 7.3747850897960474e-05 3.898050565722842e-05 3.3855112866564355e-05 5.2821058195136611e-05 6.2230253497529316e-05 4.0604467285437415e-05 3.1996284889489884e-05 5.1704728537738023e-05 8.8780728225993234e-05 0.00010312794388594136 7.8148591720791395e-05 1.183107110586416e-05 8.5628354743361342e-06 1.0539696772152027e-05 1.2115322838885875e-05 9.5130978791709703e-06 1.3308288262775698e-05 2.0028786576061289e-05 1.207737151613296e-05 1.830445087552242e-05 1.7656450614250349e-05 1.4630649209173251e-05 1.7670359706623874e-06 1.6137760393478487e-05 1.1766360413974187e-05 6.1429749419595714e-06 -3.3938526174254191e-06 6.4328414393277286e-06 -1.0920055161438985e-05 5.2880124554637378e-06 2.0302550772779634e-06 -1.0044274181832472e-05 2.6694385208379801e-07 1.4717197259052437e-05 1.1109973034939546e-05 1.3800883428958903e-05 -1.1397235225603088e-06 -3.7061057030478989e-07 1.3199906988372895e-05 -6.0068365988884959e-06 -1.0942285982084698e-05 -1.71731966374742e-05 -1.4537700515341277e-05 -2.6518030118233976e-05 -1.2480755448892721e-05 6.5515397117559687e-05 5.6558444091056419e-05 8.2576556891185079e-05 6.6578703820682587e-05 3.2459153774937535e-05 2.709399312837658e-05 4.4433265778891923e-05 3.6659474152343774e-05 2.7346829132207911e-05 2.1009488514026758e-05 2.2926043811392167e-05 5.5859483259423914e-05 4.8034680259909351e-05 8.3584124805747596e-05 6.8716597286813674e-05 7.4032365734868523e-05 5.5275854904490978e-05 5.832586785629925e-05 6.3643262495378678e-05 3.7629763568401611e-05 4.6446295611151343e-05 3.42184899885264e-05 1.4741108866921961e-05 9.5863794002988426e-06 3.3289140333754748e-05 1.7633727600267768e-05 2.7746737153396445e-05 7.6999123266993305e-06 1.2642997562073302e-05 5.2985085674861704e-05 6.0496803494322886e-05 5.9617708837528694e-05 3.1004645411065036e-05 5.0153457488454935e-05 -2.7530378145425565e-05 -3.8823908229474759e-05 -2.9095569397168228e-05 -3.7261200526704855e-05 -2.080221249379198e-05 -6.473830810093794e-06 -1.822943441260336e-05 -1.5354242856476224e-06 -3.6854425797296086e-06 -7.5681916976960261e-06 -5.1902682571278516e-06 -3.9646662528875409e-06 -1.5879516872499846e-05 -2.3315793792677304e-05 -2.4658315901747354e-05 -2.2727284366177254e-05 -4.1750076118429605e-05 -3.9352398266608371e-05 -4.8468685909868695e-05 -7.5209603165308407e-05 -5.9357348773087567e-05 -5.0594105049874341e-05 -3.884791919913894e-05 -3.3591519851140783e-05 -1.134694713592543e-05 -1.032869075698003e-05 -3.0579102638506723e-06 -2.4827155953429747e-05 -2.0375003531673808e-05 -3.3700829298372601e-05 -3.401351667699649e-05 -5.1476367166785914e-05 -4.9146582918348702e-05 -7.5313413816896686e-05 3.5540243263887036e-05 7.542497904997991e-05 3.5132014155562954e-05 2.6581898743771593e-05 5.3365063921435949e-06 1.068303232087725e-05 3.2588304133067587e-05 1.4922526387631729e-05 -1.6977132176714178e-05 -4.65253264445912e-06 1.3618597677035539e-05 4.4297562915924919e-05 4.4847950733496473e-05 7.9166239847434347e-05 0.00013820426820388305 1.4583609284715541e-05 0.00016461459487585777 0.012923424200044002 7.0453059733917626e-05 7.5052224784617283e-05 0.031660474168155844 0.00010389009900884359 0.043014326977144676 8.2666134790722865e-05 7.1685845305142766e-05 2.8921291248991561e-05 2.0943859325660914e-05 3.3352612034918434e-05 -9.8842063707665472e-07 4.603513667980242e-05 1.7556335137733218e-05 8.0421201725305386e-05 4.1890684440834853e-05 3.1823834204491993e-05 5.6035095003288725e-05 4.7586792297103055e-05 5.5459380366690075e-05 6.8744247305600509e-05 6.9016091431564446e-05 5.8832745162045439e-05 4.8595969829706253e-05 4.758854037444451e-05 4.290734948714616e-05 3.9725635012317377e-05 3.5528720185819674e-05 4.0210586110361142e-05 3.6369764885088769e-05 3.6221470354993904e-05 3.8631013828187147e-05 4.0480228386100795e-05 4.2415154691265243e-05 4.5652240126667983e-05 4.5797351184062498e-05 4.0991451485638414e-05 4.3767515088520938e-05 4.5813670641194965e-05 4.0952091530260283e-05 3.898288996290048e-05 4.907470236113545e-05 4.74023084310773e-05 4.7097254235964922e-05 4.0363211474369042e-05 4.3378745997780751e-05 4.9087168644990726e-05 5.6493931003608316e-05 6.3205741847830875e-05 5.2780187897734148e-05 5.1666547824731558e-05 6.9419844375955908e-05 9.6324904584441052e-05 0.064381293633213307 7.3218538262110992e-05 9.0636079289269219e-05 8.4262058173568705e-05 9.1725561933232334e-05 4.9227053337511811e-05 0.053561764067706054 8.2996098192243293e-05 6.6657626074516688e-05 9.0371976897482293e-05 3.9438198827311424e-05 3.3957004429140147e-05 3.8451198066193765e-05 5.1391050297161858e-05 
</DataArray>
</CellData>
</Piece>
</UnstructuredGrid>
</VTKFile>
