<?xml version="1.0"?>
<VTKFile type="UnstructuredGrid" version="0.1" byte_order="LittleEndian">
<UnstructuredGrid>
<Piece NumberOfPoints="3142" NumberOfCells="1054">
<Points>
<DataArray type="Float64" NumberOfComponents="3" format="ascii">
0 0 0 0.049999999999899652 0 0 0.02576622439977887 0.024532886826226379 0 0 0 0 0.02576622439977887 0.024532886826226379 0 0 0.050000000000207989 0 0.049999999999899652 0 0 0.053064897599215843 0.048131547304697528 0 0.02576622439977887 0.024532886826226379 0 0 0.050000000000207989 0 0.02576622439977887 0.024532886826226379 0 0.053064897599215843 0.048131547304697528 0 0 0.10000000000041601 0 0 0.050000000000207989 0 0.044310582753132287 0.101412518374475 0 0 0.15000000000062411 0 0 0.10000000000041601 0 0.044310582753132287 0.101412518374475 0 0.083411279318303222 0.089699755330707398 0 0.044310582753132287 0.101412518374475 0 0.053064897599215843 0.048131547304697528 0 0 0.050000000000207989 0 0.053064897599215843 0.048131547304697528 0 0.044310582753132287 0.101412518374475 0 0.083411279318303222 0.089699755330707398 0 0.065374659239632718 0.1448908038746782 0 0.044310582753132287 0.101412518374475 0 0.083411279318303222 0.089699755330707398 0 0.1053400320299198 0.12877248826361379 0 0.065374659239632718 0.1448908038746782 0 0.083411279318303222 0.089699755330707398 0 0.12372429750337779 0.095814237875728972 0 0.1053400320299198 0.12877248826361379 0 0.14332333627550789 0.14578431753966009 0 0.1053400320299198 0.12877248826361379 0 0.12372429750337779 0.095814237875728972 0 0.14618258501891079 0.062070108745602003 0 0.12372429750337779 0.095814237875728972 0 0.10266856499169109 0.044518360900210059 0 0.083411279318303222 0.089699755330707398 0 0.10266856499169109 0.044518360900210059 0 0.12372429750337779 0.095814237875728972 0 0.099999999999814668 0 0 0.14999999999970359 0 0 0.10266856499169109 0.044518360900210059 0 0.049999999999899652 0 0 0.099999999999814668 0 0 0.053064897599215843 0.048131547304697528 0 0.099999999999814668 0 0 0.10266856499169109 0.044518360900210059 0 0.053064897599215843 0.048131547304697528 0 0.083411279318303222 0.089699755330707398 0 0.053064897599215843 0.048131547304697528 0 0.10266856499169109 0.044518360900210059 0 0 0.25000000000104028 0 0 0.20000000000083221 0 0.044081577119474857 0.2271058242433576 0 0 0.20000000000083221 0 0.038512288486115001 0.1844147282893184 0 0.044081577119474857 0.2271058242433576 0 0.083105206071467416 0.20007701332709979 0 0.044081577119474857 0.2271058242433576 0 0.038512288486115001 0.1844147282893184 0 0 0.15000000000062411 0 0.065374659239632718 0.1448908038746782 0 0.038512288486115001 0.1844147282893184 0 0 0.15000000000062411 0 0.044310582753132287 0.101412518374475 0 0.065374659239632718 0.1448908038746782 0 0.083105206071467416 0.20007701332709979 0 0.038512288486115001 0.1844147282893184 0 0.065374659239632718 0.1448908038746782 0 0 0.20000000000083221 0 0 0.15000000000062411 0 0.038512288486115001 0.1844147282893184 0 0.065374659239632718 0.1448908038746782 0 0.1053400320299198 0.12877248826361379 0 0.106902708054812 0.16453234188234539 0 0.14332333627550789 0.14578431753966009 0 0.106902708054812 0.16453234188234539 0 0.1053400320299198 0.12877248826361379 0 0.083105206071467416 0.20007701332709979 0 0.065374659239632718 0.1448908038746782 0 0.106902708054812 0.16453234188234539 0 0.083105206071467416 0.20007701332709979 0 0.13737030665753211 0.20313708640667491 0 0.095326043202144745 0.24554465089224409 0 0.083105206071467416 0.20007701332709979 0 0.106902708054812 0.16453234188234539 0 0.13737030665753211 0.20313708640667491 0 0.083105206071467416 0.20007701332709979 0 0.095326043202144745 0.24554465089224409 0 0.044081577119474857 0.2271058242433576 0 0.049706944316556423 0.27522722923869108 0 0.044081577119474857 0.2271058242433576 0 0.095326043202144745 0.24554465089224409 0 0.13737030665753211 0.20313708640667491 0 0.14377654328998779 0.2442024734791064 0 0.095326043202144745 0.24554465089224409 0 0.17933913398461551 0.2350063570234002 0 0.14377654328998779 0.2442024734791064 0 0.13737030665753211 0.20313708640667491 0 0.17933913398461551 0.2350063570234002 0 0.13737030665753211 0.20313708640667491 0 0.18124454140915969 0.18790916706335251 0 0.14332333627550789 0.14578431753966009 0 0.18652628422869419 0.14162325200928061 0 0.18124454140915969 0.18790916706335251 0 0.14332333627550789 0.14578431753966009 0 0.13737030665753211 0.20313708640667491 0 0.106902708054812 0.16453234188234539 0 0.14332333627550789 0.14578431753966009 0 0.18124454140915969 0.18790916706335251 0 0.13737030665753211 0.20313708640667491 0 0.14332333627550789 0.14578431753966009 0 0.16141998738593399 0.10404039647458049 0 0.18652628422869419 0.14162325200928061 0 0.2185883431182947 0.18019736283949719 0 0.18652628422869419 0.14162325200928061 0 0.22985637510995899 0.1298347970200906 0 0.2185883431182947 0.18019736283949719 0 0.22985637510995899 0.1298347970200906 0 0.25557216766470708 0.15874861286892261 0 0.2185883431182947 0.18019736283949719 0 0.25557216766470708 0.15874861286892261 0 0.26429849586623999 0.19346700179430079 0 0.2185883431182947 0.18019736283949719 0 0.18124454140915969 0.18790916706335251 0 0.18652628422869419 0.14162325200928061 0 0.17933913398461551 0.2350063570234002 0 0.18124454140915969 0.18790916706335251 0 0.224700362040408 0.22206622194729711 0 0.2185883431182947 0.18019736283949719 0 0.224700362040408 0.22206622194729711 0 0.18124454140915969 0.18790916706335251 0 0.2185883431182947 0.18019736283949719 0 0.26429849586623999 0.19346700179430079 0 0.224700362040408 0.22206622194729711 0 0.25195515620380449 0.25883339815888678 0 0.21049769590865089 0.26857363548218488 0 0.224700362040408 0.22206622194729711 0 0.17933913398461551 0.2350063570234002 0 0.224700362040408 0.22206622194729711 0 0.21049769590865089 0.26857363548218488 0 0.14999999999970359 0 0 0.184418230509967 0.038773194583122873 0 0.14618258501891079 0.062070108745602003 0 0.19922788606653311 0.085920220746880993 0 0.14618258501891079 0.062070108745602003 0 0.184418230509967 0.038773194583122873 0 0.14999999999970359 0 0 0.19999999999955789 0 0 0.184418230509967 0.038773194583122873 0 0.14999999999970359 0 0 0.14618258501891079 0.062070108745602003 0 0.10266856499169109 0.044518360900210059 0 0.14618258501891079 0.062070108745602003 0 0.16141998738593399 0.10404039647458049 0 0.12372429750337779 0.095814237875728972 0 0.14332333627550789 0.14578431753966009 0 0.12372429750337779 0.095814237875728972 0 0.16141998738593399 0.10404039647458049 0 0.19922788606653311 0.085920220746880993 0 0.18652628422869419 0.14162325200928061 0 0.16141998738593399 0.10404039647458049 0 0.19922788606653311 0.085920220746880993 0 0.16141998738593399 0.10404039647458049 0 0.14618258501891079 0.062070108745602003 0 0.19922788606653311 0.085920220746880993 0 0.22985637510995899 0.1298347970200906 0 0.18652628422869419 0.14162325200928061 0 0.19922788606653311 0.085920220746880993 0 0.24218496799700481 0.089025544070598317 0 0.22985637510995899 0.1298347970200906 0 0.27474541102162192 0.11822029332053539 0 0.22985637510995899 0.1298347970200906 0 0.24218496799700481 0.089025544070598317 0 0.19922788606653311 0.085920220746880993 0 0.22668068146512929 0.045875643423131329 0 0.24218496799700481 0.089025544070598317 0 0.27499999999933927 0.060310814194988557 0 0.24218496799700481 0.089025544070598317 0 0.22668068146512929 0.045875643423131329 0 0.19922788606653311 0.085920220746880993 0 0.184418230509967 0.038773194583122873 0 0.22668068146512929 0.045875643423131329 0 0.19999999999955789 0 0 0.22668068146512929 0.045875643423131329 0 0.184418230509967 0.038773194583122873 0 0.19999999999955789 0 0 0.24999999999941211 0 0 0.22668068146512929 0.045875643423131329 0 0.24999999999941211 0 0 0.29999999999926641 0 0 0.27499999999933927 0.060310814194988557 0 0.24999999999941211 0 0 0.27499999999933927 0.060310814194988557 0 0.22668068146512929 0.045875643423131329 0 0.29999999999926641 0 0 0.32541448401678508 0.046215317981507749 0 0.27499999999933927 0.060310814194988557 0 0.29999999999926641 0 0 0.34999999999912063 0 0 0.32541448401678508 0.046215317981507749 0 0.35312867752657662 0.084946736076730367 0 0.32541448401678508 0.046215317981507749 0 0.3615861437013822 0.03582617922508851 0 0.35312867752657662 0.084946736076730367 0 0.3615861437013822 0.03582617922508851 0 0.39591832466117061 0.056982757562006353 0 0.34999999999912063 0 0 0.3615861437013822 0.03582617922508851 0 0.32541448401678508 0.046215317981507749 0 0.34999999999912063 0 0 0.3999999999989749 0 0 0.3615861437013822 0.03582617922508851 0 0.35312867752657662 0.084946736076730367 0 0.39823268594401579 0.1116623613130045 0 0.36246644853392812 0.1399454205365751 0 0.35312867752657662 0.084946736076730367 0 0.36246644853392812 0.1399454205365751 0 0.32215584939770009 0.1218492143506909 0 0.35312867752657662 0.084946736076730367 0 0.3096713403101819 0.085471541595262421 0 0.32541448401678508 0.046215317981507749 0 0.35312867752657662 0.084946736076730367 0 0.32215584939770009 0.1218492143506909 0 0.3096713403101819 0.085471541595262421 0 0.27474541102162192 0.11822029332053539 0 0.3096713403101819 0.085471541595262421 0 0.32215584939770009 0.1218492143506909 0 0.27499999999933927 0.060310814194988557 0 0.32541448401678508 0.046215317981507749 0 0.3096713403101819 0.085471541595262421 0 0.3096713403101819 0.085471541595262421 0 0.27474541102162192 0.11822029332053539 0 0.27499999999933927 0.060310814194988557 0 0.27499999999933927 0.060310814194988557 0 0.27474541102162192 0.11822029332053539 0 0.24218496799700481 0.089025544070598317 0 0.27474541102162192 0.11822029332053539 0 0.25557216766470708 0.15874861286892261 0 0.22985637510995899 0.1298347970200906 0 0.27474541102162192 0.11822029332053539 0 0.29336099386129338 0.15892013001050981 0 0.25557216766470708 0.15874861286892261 0 0.26429849586623999 0.19346700179430079 0 0.25557216766470708 0.15874861286892261 0 0.29336099386129338 0.15892013001050981 0 0.33084213324567391 0.16272720141332131 0 0.31255190597181792 0.19850845631528771 0 0.29336099386129338 0.15892013001050981 0 0.26429849586623999 0.19346700179430079 0 0.29336099386129338 0.15892013001050981 0 0.31255190597181792 0.19850845631528771 0 0.27474541102162192 0.11822029332053539 0 0.32215584939770009 0.1218492143506909 0 0.29336099386129338 0.15892013001050981 0 0.28040350263641872 0.23054717217092141 0 0.25195515620380449 0.25883339815888678 0 0.224700362040408 0.22206622194729711 0 0.26429849586623999 0.19346700179430079 0 0.28040350263641872 0.23054717217092141 0 0.224700362040408 0.22206622194729711 0 0.26429849586623999 0.19346700179430079 0 0.31255190597181792 0.19850845631528771 0 0.28040350263641872 0.23054717217092141 0 0.33758650185219202 0.23837101504325639 0 0.29132859388405002 0.27203693976649962 0 0.28040350263641872 0.23054717217092141 0 0.33758650185219202 0.23837101504325639 0 0.28040350263641872 0.23054717217092141 0 0.31255190597181792 0.19850845631528771 0 0.33758650185219202 0.23837101504325639 0 0.31255190597181792 0.19850845631528771 0 0.3572130504031617 0.1874703368446563 0 0.33758650185219202 0.23837101504325639 0 0.3572130504031617 0.1874703368446563 0 0.38831533174504851 0.2189834941785925 0 0.33758650185219202 0.23837101504325639 0 0.38831533174504851 0.2189834941785925 0 0.3786248352540974 0.27082301512024259 0 0.33084213324567391 0.16272720141332131 0 0.29336099386129338 0.15892013001050981 0 0.32215584939770009 0.1218492143506909 0 0.33084213324567391 0.16272720141332131 0 0.32215584939770009 0.1218492143506909 0 0.36246644853392812 0.1399454205365751 0 0.33084213324567391 0.16272720141332131 0 0.3572130504031617 0.1874703368446563 0 0.31255190597181792 0.19850845631528771 0 0.39801143831225599 0.16651381068160659 0 0.3572130504031617 0.1874703368446563 0 0.36246644853392812 0.1399454205365751 0 0.33084213324567391 0.16272720141332131 0 0.36246644853392812 0.1399454205365751 0 0.3572130504031617 0.1874703368446563 0 0.39801143831225599 0.16651381068160659 0 0.36246644853392812 0.1399454205365751 0 0.39823268594401579 0.1116623613130045 0 0.39801143831225599 0.16651381068160659 0 0.44288491854585582 0.14116182884956319 0 0.42905200079338551 0.19982395548231649 0 0.39801143831225599 0.16651381068160659 0 0.39823268594401579 0.1116623613130045 0 0.44288491854585582 0.14116182884956319 0 0.42377727103934271 0.25099357235810238 0 0.3786248352540974 0.27082301512024259 0 0.38831533174504851 0.2189834941785925 0 0.39801143831225599 0.16651381068160659 0 0.38831533174504851 0.2189834941785925 0 0.3572130504031617 0.1874703368446563 0 0.39801143831225599 0.16651381068160659 0 0.42905200079338551 0.19982395548231649 0 0.38831533174504851 0.2189834941785925 0 0.42377727103934271 0.25099357235810238 0 0.38831533174504851 0.2189834941785925 0 0.42905200079338551 0.19982395548231649 0 0.42377727103934271 0.25099357235810238 0 0.42905200079338551 0.19982395548231649 0 0.46429753744194407 0.22870891180733599 0 0.47357141910802508 0.1873585799078378 0 0.46429753744194407 0.22870891180733599 0 0.42905200079338551 0.19982395548231649 0 0.47357141910802508 0.1873585799078378 0 0.51729576145820033 0.1683240575987815 0 0.50760557329222289 0.20700468884612061 0 0.47357141910802508 0.1873585799078378 0 0.50760557329222289 0.20700468884612061 0 0.46429753744194407 0.22870891180733599 0 0.49695729691142171 0.25014895411178018 0 0.46429753744194407 0.22870891180733599 0 0.50760557329222289 0.20700468884612061 0 0.47357141910802508 0.1873585799078378 0 0.44288491854585582 0.14116182884956319 0 0.48466639505193998 0.1421439844745814 0 0.47357141910802508 0.1873585799078378 0 0.42905200079338551 0.19982395548231649 0 0.44288491854585582 0.14116182884956319 0 0.47357141910802508 0.1873585799078378 0 0.48466639505193998 0.1421439844745814 0 0.51729576145820033 0.1683240575987815 0 0.44288491854585582 0.14116182884956319 0 0.47881186583059909 0.093591717165689425 0 0.48466639505193998 0.1421439844745814 0 0.51076801031701946 0.1202837388510348 0 0.48466639505193998 0.1421439844745814 0 0.47881186583059909 0.093591717165689425 0 0.43698630808430822 0.080423614171545449 0 0.47881186583059909 0.093591717165689425 0 0.44288491854585582 0.14116182884956319 0 0.43698630808430822 0.080423614171545449 0 0.47040171442036788 0.044141676406503738 0 0.47881186583059909 0.093591717165689425 0 0.52375890611712683 0.059318771819432882 0 0.47881186583059909 0.093591717165689425 0 0.47040171442036788 0.044141676406503738 0 0.49999999999869432 0 0 0.52375890611712683 0.059318771819432882 0 0.47040171442036788 0.044141676406503738 0 0.44999999999882923 0 0 0.49999999999869432 0 0 0.47040171442036788 0.044141676406503738 0 0.44999999999882923 0 0 0.47040171442036788 0.044141676406503738 0 0.4320097814748517 0.037406712692169303 0 0.43698630808430822 0.080423614171545449 0 0.4320097814748517 0.037406712692169303 0 0.47040171442036788 0.044141676406503738 0 0.3999999999989749 0 0 0.4320097814748517 0.037406712692169303 0 0.39591832466117061 0.056982757562006353 0 0.43698630808430822 0.080423614171545449 0 0.39591832466117061 0.056982757562006353 0 0.4320097814748517 0.037406712692169303 0 0.3999999999989749 0 0 0.44999999999882923 0 0 0.4320097814748517 0.037406712692169303 0 0.3999999999989749 0 0 0.39591832466117061 0.056982757562006353 0 0.3615861437013822 0.03582617922508851 0 0.35312867752657662 0.084946736076730367 0 0.39591832466117061 0.056982757562006353 0 0.39823268594401579 0.1116623613130045 0 0.43698630808430822 0.080423614171545449 0 0.44288491854585582 0.14116182884956319 0 0.39823268594401579 0.1116623613130045 0 0.43698630808430822 0.080423614171545449 0 0.39823268594401579 0.1116623613130045 0 0.39591832466117061 0.056982757562006353 0 0.43249999999999988 0.43937499999999979 0 0.38707855792647411 0.42299362914874578 0 0.42161023666869668 0.39493916313643851 0 0.38083244760691543 0.38531983672244652 0 0.42161023666869668 0.39493916313643851 0 0.38707855792647411 0.42299362914874578 0 0.38083244760691543 0.38531983672244652 0 0.40076539126862748 0.34589349467022118 0 0.42161023666869668 0.39493916313643851 0 0.43249999999999988 0.43937499999999979 0 0.3908716102680424 0.47010282357248828 0 0.38707855792647411 0.42299362914874578 0 0.38244435121258652 0.51653317813019495 0 0.3908716102680424 0.47010282357248828 0 0.43507373378304309 0.49699695397193322 0 0.43249999999999988 0.43937499999999979 0 0.43507373378304309 0.49699695397193322 0 0.3908716102680424 0.47010282357248828 0 0.43249999999999988 0.43937499999999979 0 0.46111841286828259 0.46690301029591341 0 0.43507373378304309 0.49699695397193322 0 0.43249999999999988 0.43937499999999979 0 0.48858720058566618 0.43964267759203868 0 0.46111841286828259 0.46690301029591341 0 0.49102375406324739 0.49123754822244059 0 0.43507373378304309 0.49699695397193322 0 0.46111841286828259 0.46690301029591341 0 0.49102375406324739 0.49123754822244059 0 0.46111841286828259 0.46690301029591341 0 0.48858720058566618 0.43964267759203868 0 0.52289427570932567 0.3932284363388488 0 0.48858720058566618 0.43964267759203868 0 0.46655310992796922 0.39650496622958609 0 0.43249999999999988 0.43937499999999979 0 0.46655310992796922 0.39650496622958609 0 0.48858720058566618 0.43964267759203868 0 0.43249999999999988 0.43937499999999979 0 0.42161023666869668 0.39493916313643851 0 0.46655310992796922 0.39650496622958609 0 0.4409427642593301 0.35743108089689513 0 0.46655310992796922 0.39650496622958609 0 0.42161023666869668 0.39493916313643851 0 0.52289427570932567 0.3932284363388488 0 0.46655310992796922 0.39650496622958609 0 0.49077833859261139 0.35229981449445641 0 0.5 0.29999999999999999 0 0.49077833859261139 0.35229981449445641 0 0.46226845272279993 0.31901800744800313 0 0.4409427642593301 0.35743108089689513 0 0.46226845272279993 0.31901800744800313 0 0.49077833859261139 0.35229981449445641 0 0.4409427642593301 0.35743108089689513 0 0.41914690343363781 0.30688979866601612 0 0.46226845272279993 0.31901800744800313 0 0.4409427642593301 0.35743108089689513 0 0.49077833859261139 0.35229981449445641 0 0.46655310992796922 0.39650496622958609 0 0.5 0.29999999999999999 0 0.4604742573284204 0.27846934318264788 0 0.49695729691142171 0.25014895411178018 0 0.49695729691142171 0.25014895411178018 0 0.4604742573284204 0.27846934318264788 0 0.46429753744194407 0.22870891180733599 0 0.5 0.29999999999999999 0 0.46226845272279993 0.31901800744800313 0 0.4604742573284204 0.27846934318264788 0 0.41914690343363781 0.30688979866601612 0 0.4604742573284204 0.27846934318264788 0 0.46226845272279993 0.31901800744800313 0 0.42377727103934271 0.25099357235810238 0 0.46429753744194407 0.22870891180733599 0 0.4604742573284204 0.27846934318264788 0 0.42377727103934271 0.25099357235810238 0 0.4604742573284204 0.27846934318264788 0 0.41914690343363781 0.30688979866601612 0 0.42377727103934271 0.25099357235810238 0 0.41914690343363781 0.30688979866601612 0 0.3786248352540974 0.27082301512024259 0 0.36575549820117997 0.31677992835137742 0 0.3786248352540974 0.27082301512024259 0 0.41914690343363781 0.30688979866601612 0 0.4409427642593301 0.35743108089689513 0 0.42161023666869668 0.39493916313643851 0 0.40076539126862748 0.34589349467022118 0 0.4409427642593301 0.35743108089689513 0 0.40076539126862748 0.34589349467022118 0 0.41914690343363781 0.30688979866601612 0 0.36575549820117997 0.31677992835137742 0 0.41914690343363781 0.30688979866601612 0 0.40076539126862748 0.34589349467022118 0 0.40076539126862748 0.34589349467022118 0 0.33277555741076909 0.36432196682010132 0 0.36575549820117997 0.31677992835137742 0 0.38083244760691543 0.38531983672244652 0 0.33277555741076909 0.36432196682010132 0 0.40076539126862748 0.34589349467022118 0 0.36575549820117997 0.31677992835137742 0 0.33277555741076909 0.36432196682010132 0 0.32752639306529541 0.32610012995269699 0 0.33277555741076909 0.36432196682010132 0 0.29644548887253103 0.34914008784168082 0 0.32752639306529541 0.32610012995269699 0 0.33758650185219202 0.23837101504325639 0 0.3786248352540974 0.27082301512024259 0 0.33402499257867951 0.28911035184473982 0 0.36575549820117997 0.31677992835137742 0 0.33402499257867951 0.28911035184473982 0 0.3786248352540974 0.27082301512024259 0 0.36575549820117997 0.31677992835137742 0 0.32752639306529541 0.32610012995269699 0 0.33402499257867951 0.28911035184473982 0 0.29348325746214782 0.31350119524708198 0 0.33402499257867951 0.28911035184473982 0 0.32752639306529541 0.32610012995269699 0 0.33758650185219202 0.23837101504325639 0 0.33402499257867951 0.28911035184473982 0 0.29132859388405002 0.27203693976649962 0 0.29348325746214782 0.31350119524708198 0 0.29132859388405002 0.27203693976649962 0 0.33402499257867951 0.28911035184473982 0 0.29348325746214782 0.31350119524708198 0 0.24432083401701241 0.3006253385567515 0 0.29132859388405002 0.27203693976649962 0 0.25195515620380449 0.25883339815888678 0 0.29132859388405002 0.27203693976649962 0 0.24432083401701241 0.3006253385567515 0 0.25195515620380449 0.25883339815888678 0 0.28040350263641872 0.23054717217092141 0 0.29132859388405002 0.27203693976649962 0 0.27866744612395528 0.38416094670951489 0 0.29644548887253103 0.34914008784168082 0 0.33277555741076909 0.36432196682010132 0 0.29348325746214782 0.31350119524708198 0 0.32752639306529541 0.32610012995269699 0 0.29644548887253103 0.34914008784168082 0 0.29348325746214782 0.31350119524708198 0 0.29644548887253103 0.34914008784168082 0 0.25966125648670141 0.34351016742083729 0 0.29348325746214782 0.31350119524708198 0 0.25966125648670141 0.34351016742083729 0 0.24432083401701241 0.3006253385567515 0 0.27866744612395528 0.38416094670951489 0 0.25966125648670141 0.34351016742083729 0 0.29644548887253103 0.34914008784168082 0 0.27866744612395528 0.38416094670951489 0 0.22033343844674469 0.36963382230740238 0 0.25966125648670141 0.34351016742083729 0 0.27866744612395528 0.38416094670951489 0 0.29124338931648802 0.43334555462578611 0 0.24049127783545701 0.41270748208749802 0 0.29124338931648802 0.43334555462578611 0 0.25982634974572738 0.46097799597715272 0 0.24049127783545701 0.41270748208749802 0 0.27866744612395528 0.38416094670951489 0 0.31778888742534622 0.40581751814196781 0 0.29124338931648802 0.43334555462578611 0 0.27866744612395528 0.38416094670951489 0 0.33277555741076909 0.36432196682010132 0 0.31778888742534622 0.40581751814196781 0 0.33277555741076909 0.36432196682010132 0 0.35221190152536241 0.40457127605439203 0 0.31778888742534622 0.40581751814196781 0 0.34258405725730701 0.4444034294386992 0 0.31778888742534622 0.40581751814196781 0 0.35221190152536241 0.40457127605439203 0 0.34258405725730701 0.4444034294386992 0 0.29124338931648802 0.43334555462578611 0 0.31778888742534622 0.40581751814196781 0 0.34258405725730701 0.4444034294386992 0 0.35221190152536241 0.40457127605439203 0 0.38707855792647411 0.42299362914874578 0 0.38083244760691543 0.38531983672244652 0 0.38707855792647411 0.42299362914874578 0 0.35221190152536241 0.40457127605439203 0 0.38083244760691543 0.38531983672244652 0 0.35221190152536241 0.40457127605439203 0 0.33277555741076909 0.36432196682010132 0 0.38244435121258652 0.51653317813019495 0 0.35024835142131061 0.48654922671676981 0 0.3908716102680424 0.47010282357248828 0 0.34258405725730701 0.4444034294386992 0 0.3908716102680424 0.47010282357248828 0 0.35024835142131061 0.48654922671676981 0 0.34258405725730701 0.4444034294386992 0 0.38707855792647411 0.42299362914874578 0 0.3908716102680424 0.47010282357248828 0 0.34258405725730701 0.4444034294386992 0 0.31068898841644388 0.47541502461811092 0 0.29124338931648802 0.43334555462578611 0 0.35024835142131061 0.48654922671676981 0 0.33190227185843768 0.52715113583864037 0 0.31068898841644388 0.47541502461811092 0 0.34258405725730701 0.4444034294386992 0 0.35024835142131061 0.48654922671676981 0 0.31068898841644388 0.47541502461811092 0 0.28307294598219601 0.50789252727458634 0 0.25982634974572738 0.46097799597715272 0 0.31068898841644388 0.47541502461811092 0 0.29124338931648802 0.43334555462578611 0 0.31068898841644388 0.47541502461811092 0 0.25982634974572738 0.46097799597715272 0 0.28307294598219601 0.50789252727458634 0 0.23975172658309729 0.49475499200540818 0 0.25982634974572738 0.46097799597715272 0 0.22278230690790279 0.44824268025881547 0 0.23975172658309729 0.49475499200540818 0 0.19604738184454831 0.47787523520405789 0 0.22278230690790279 0.44824268025881547 0 0.19604738184454831 0.47787523520405789 0 0.191953871957803 0.42546416763755879 0 0.22278230690790279 0.44824268025881547 0 0.24049127783545701 0.41270748208749802 0 0.25982634974572738 0.46097799597715272 0 0.22278230690790279 0.44824268025881547 0 0.25982634974572738 0.46097799597715272 0 0.23975172658309729 0.49475499200540818 0 0.27866744612395528 0.38416094670951489 0 0.24049127783545701 0.41270748208749802 0 0.22033343844674469 0.36963382230740238 0 0.1650278706801647 0.38791388161335733 0 0.22033343844674469 0.36963382230740238 0 0.191953871957803 0.42546416763755879 0 0.22033343844674469 0.36963382230740238 0 0.24049127783545701 0.41270748208749802 0 0.191953871957803 0.42546416763755879 0 0.22278230690790279 0.44824268025881547 0 0.191953871957803 0.42546416763755879 0 0.24049127783545701 0.41270748208749802 0 0.15801167086041079 0.46008690540259539 0 0.13773355295499351 0.42497777642586831 0 0.191953871957803 0.42546416763755879 0 0.1650278706801647 0.38791388161335733 0 0.191953871957803 0.42546416763755879 0 0.13773355295499351 0.42497777642586831 0 0.1650278706801647 0.38791388161335733 0 0.13773355295499351 0.42497777642586831 0 0.1117088112799664 0.38831403004970022 0 0.15801167086041079 0.46008690540259539 0 0.113541300460994 0.46208784312094731 0 0.13773355295499351 0.42497777642586831 0 0.1216098864341134 0.50637075089503902 0 0.113541300460994 0.46208784312094731 0 0.15801167086041079 0.46008690540259539 0 0.1216098864341134 0.50637075089503902 0 0.15801167086041079 0.46008690540259539 0 0.16618607197337229 0.50652878253548905 0 0.15801167086041079 0.46008690540259539 0 0.19604738184454831 0.47787523520405789 0 0.16618607197337229 0.50652878253548905 0 0.15801167086041079 0.46008690540259539 0 0.191953871957803 0.42546416763755879 0 0.19604738184454831 0.47787523520405789 0 0.25195515620380449 0.25883339815888678 0 0.24432083401701241 0.3006253385567515 0 0.21049769590865089 0.26857363548218488 0 0.19670163708476801 0.31472518408333222 0 0.21049769590865089 0.26857363548218488 0 0.24432083401701241 0.3006253385567515 0 0.19670163708476801 0.31472518408333222 0 0.168349569971391 0.28054490850913671 0 0.21049769590865089 0.26857363548218488 0 0.19670163708476801 0.31472518408333222 0 0.22615676742807109 0.33458786033114157 0 0.18434624290945251 0.35208838264196463 0 0.19670163708476801 0.31472518408333222 0 0.24432083401701241 0.3006253385567515 0 0.22615676742807109 0.33458786033114157 0 0.24432083401701241 0.3006253385567515 0 0.25966125648670141 0.34351016742083729 0 0.22615676742807109 0.33458786033114157 0 0.22033343844674469 0.36963382230740238 0 0.22615676742807109 0.33458786033114157 0 0.25966125648670141 0.34351016742083729 0 0.22033343844674469 0.36963382230740238 0 0.18434624290945251 0.35208838264196463 0 0.22615676742807109 0.33458786033114157 0 0.1650278706801647 0.38791388161335733 0 0.18434624290945251 0.35208838264196463 0 0.22033343844674469 0.36963382230740238 0 0.1650278706801647 0.38791388161335733 0 0.14223753364722069 0.3341983344262433 0 0.18434624290945251 0.35208838264196463 0 0.1650278706801647 0.38791388161335733 0 0.1117088112799664 0.38831403004970022 0 0.14223753364722069 0.3341983344262433 0 0.19670163708476801 0.31472518408333222 0 0.18434624290945251 0.35208838264196463 0 0.14223753364722069 0.3341983344262433 0 0.19670163708476801 0.31472518408333222 0 0.14223753364722069 0.3341983344262433 0 0.168349569971391 0.28054490850913671 0 0.1247745017231483 0.27198077544791172 0 0.168349569971391 0.28054490850913671 0 0.14223753364722069 0.3341983344262433 0 0.1247745017231483 0.27198077544791172 0 0.14377654328998779 0.2442024734791064 0 0.168349569971391 0.28054490850913671 0 0.17933913398461551 0.2350063570234002 0 0.21049769590865089 0.26857363548218488 0 0.168349569971391 0.28054490850913671 0 0.17933913398461551 0.2350063570234002 0 0.168349569971391 0.28054490850913671 0 0.14377654328998779 0.2442024734791064 0 0.049706944316556423 0.27522722923869108 0 0.095326043202144745 0.24554465089224409 0 0.093851963071650835 0.30582068233324772 0 0.1247745017231483 0.27198077544791172 0 0.095326043202144745 0.24554465089224409 0 0.14377654328998779 0.2442024734791064 0 0.1247745017231483 0.27198077544791172 0 0.093851963071650835 0.30582068233324772 0 0.095326043202144745 0.24554465089224409 0 0.1247745017231483 0.27198077544791172 0 0.14223753364722069 0.3341983344262433 0 0.093851963071650835 0.30582068233324772 0 0.049706944316556423 0.27522722923869108 0 0.093851963071650835 0.30582068233324772 0 0.046389130980076937 0.32668781832131749 0 0.087545339447545459 0.35122518864182262 0 0.046389130980076937 0.32668781832131749 0 0.093851963071650835 0.30582068233324772 0 0.087545339447545459 0.35122518864182262 0 0.093851963071650835 0.30582068233324772 0 0.14223753364722069 0.3341983344262433 0 0.087545339447545459 0.35122518864182262 0 0.14223753364722069 0.3341983344262433 0 0.1117088112799664 0.38831403004970022 0 0.087545339447545459 0.35122518864182262 0 0.1117088112799664 0.38831403004970022 0 0.050583896093752537 0.38543522283434112 0 0.087545339447545459 0.35122518864182262 0 0.050583896093752537 0.38543522283434112 0 0.046389130980076937 0.32668781832131749 0 0 0.35000000000145642 0 0.046389130980076937 0.32668781832131749 0 0.050583896093752537 0.38543522283434112 0 0 0.35000000000145642 0 0 0.30000000000124832 0 0.046389130980076937 0.32668781832131749 0 0 0.30000000000124832 0 0.049706944316556423 0.27522722923869108 0 0.046389130980076937 0.32668781832131749 0 0 0.30000000000124832 0 0 0.25000000000104028 0 0.049706944316556423 0.27522722923869108 0 0 0.25000000000104028 0 0.044081577119474857 0.2271058242433576 0 0.049706944316556423 0.27522722923869108 0 0.078358742472063481 0.43365249433908948 0 0.113541300460994 0.46208784312094731 0 0.068743045408989428 0.48853989837882689 0 0.1216098864341134 0.50637075089503902 0 0.068743045408989428 0.48853989837882689 0 0.113541300460994 0.46208784312094731 0 0.113541300460994 0.46208784312094731 0 0.078358742472063481 0.43365249433908948 0 0.13773355295499351 0.42497777642586831 0 0.078358742472063481 0.43365249433908948 0 0.1117088112799664 0.38831403004970022 0 0.13773355295499351 0.42497777642586831 0 0.078358742472063481 0.43365249433908948 0 0.050583896093752537 0.38543522283434112 0 0.1117088112799664 0.38831403004970022 0 0.078358742472063481 0.43365249433908948 0 0.035463093262830522 0.42673416072819947 0 0.050583896093752537 0.38543522283434112 0 0 0.40000000000166441 0 0 0.35000000000145642 0 0.050583896093752537 0.38543522283434112 0 0 0.40000000000166441 0 0.050583896093752537 0.38543522283434112 0 0.035463093262830522 0.42673416072819947 0 0 0.45000000000187229 0 0 0.40000000000166441 0 0.035463093262830522 0.42673416072819947 0 0 0.45000000000187229 0 0.035463093262830522 0.42673416072819947 0 0.033550201249889847 0.46247875832467239 0 0 0.50000000000205869 0 0.033550201249889847 0.46247875832467239 0 0.068743045408989428 0.48853989837882689 0 0.078358742472063481 0.43365249433908948 0 0.068743045408989428 0.48853989837882689 0 0.033550201249889847 0.46247875832467239 0 0.078358742472063481 0.43365249433908948 0 0.033550201249889847 0.46247875832467239 0 0.035463093262830522 0.42673416072819947 0 0 0.50000000000205869 0 0 0.45000000000187229 0 0.033550201249889847 0.46247875832467239 0 0 0.50000000000205869 0 0.068743045408989428 0.48853989837882689 0 0.044576108720083309 0.53509043209532614 0 0 0.55000000000173355 0 0 0.50000000000205869 0 0.044576108720083309 0.53509043209532614 0 0 0.55000000000173355 0 0.044576108720083309 0.53509043209532614 0 0.034381862692950467 0.57372682250960894 0 0.077693244765132896 0.56932317963405099 0 0.034381862692950467 0.57372682250960894 0 0.044576108720083309 0.53509043209532614 0 0.068743045408989428 0.48853989837882689 0 0.085622222639554768 0.53333248912060549 0 0.044576108720083309 0.53509043209532614 0 0.1216098864341134 0.50637075089503902 0 0.085622222639554768 0.53333248912060549 0 0.068743045408989428 0.48853989837882689 0 0.077693244765132896 0.56932317963405099 0 0.044576108720083309 0.53509043209532614 0 0.085622222639554768 0.53333248912060549 0 0.077693244765132896 0.56932317963405099 0 0.085622222639554768 0.53333248912060549 0 0.1154888278694548 0.56733818459978413 0 0.085622222639554768 0.53333248912060549 0 0.1216098864341134 0.50637075089503902 0 0.1154888278694548 0.56733818459978413 0 0.077693244765132896 0.56932317963405099 0 0.1154888278694548 0.56733818459978413 0 0.1024350934457823 0.60772393977513839 0 0.086179601630648681 0.64647209519980475 0 0.050069554451969707 0.61308520079857043 0 0.1024350934457823 0.60772393977513839 0 0.077693244765132896 0.56932317963405099 0 0.1024350934457823 0.60772393977513839 0 0.050069554451969707 0.61308520079857043 0 0.077693244765132896 0.56932317963405099 0 0.050069554451969707 0.61308520079857043 0 0.034381862692950467 0.57372682250960894 0 0 0.60000000000138687 0 0 0.55000000000173355 0 0.034381862692950467 0.57372682250960894 0 0 0.65000000000104008 0 0 0.60000000000138687 0 0.050069554451969707 0.61308520079857043 0 0 0.60000000000138687 0 0.034381862692950467 0.57372682250960894 0 0.050069554451969707 0.61308520079857043 0 0 0.7000000000006934 0 0 0.65000000000104008 0 0.046634677244967337 0.671418230738282 0 0.086179601630648681 0.64647209519980475 0 0.046634677244967337 0.671418230738282 0 0.050069554451969707 0.61308520079857043 0 0 0.65000000000104008 0 0.050069554451969707 0.61308520079857043 0 0.046634677244967337 0.671418230738282 0 0 0.75000000000034661 0 0 0.7000000000006934 0 0.049706944316475897 0.72477277076253799 0 0 0.7000000000006934 0 0.046634677244967337 0.671418230738282 0 0.049706944316475897 0.72477277076253799 0 0 0.75000000000034661 0 0.049706944316475897 0.72477277076253799 0 0.04408157711937423 0.7728941757575627 0 0.049706944316475897 0.72477277076253799 0 0.1020579365089687 0.69352219419301997 0 0.090953281884486245 0.7564451946902494 0 0.1215415378367805 0.72939333680004137 0 0.090953281884486245 0.7564451946902494 0 0.1020579365089687 0.69352219419301997 0 0.049706944316475897 0.72477277076253799 0 0.046634677244967337 0.671418230738282 0 0.1020579365089687 0.69352219419301997 0 0.1215415378367805 0.72939333680004137 0 0.14335651144331049 0.75565258250209677 0 0.090953281884486245 0.7564451946902494 0 0.086179601630648681 0.64647209519980475 0 0.1020579365089687 0.69352219419301997 0 0.046634677244967337 0.671418230738282 0 0.086179601630648681 0.64647209519980475 0 0.1241190223511371 0.64391885572885044 0 0.1020579365089687 0.69352219419301997 0 0.086179601630648681 0.64647209519980475 0 0.1024350934457823 0.60772393977513839 0 0.1241190223511371 0.64391885572885044 0 0.16500388252850301 0.66612077714085194 0 0.1020579365089687 0.69352219419301997 0 0.1241190223511371 0.64391885572885044 0 0.15720202157091859 0.60665697304410315 0 0.16500388252850301 0.66612077714085194 0 0.1241190223511371 0.64391885572885044 0 0.15720202157091859 0.60665697304410315 0 0.19914261668318661 0.62286739485272158 0 0.16500388252850301 0.66612077714085194 0 0.16500388252850301 0.66612077714085194 0 0.15332765547575641 0.71200081858233666 0 0.1020579365089687 0.69352219419301997 0 0.1215415378367805 0.72939333680004137 0 0.15332765547575641 0.71200081858233666 0 0.14335651144331049 0.75565258250209677 0 0.1215415378367805 0.72939333680004137 0 0.1020579365089687 0.69352219419301997 0 0.15332765547575641 0.71200081858233666 0 0.16500388252850301 0.66612077714085194 0 0.19068556247388771 0.71028988922845504 0 0.15332765547575641 0.71200081858233666 0 0.18269480424590959 0.75905448272264375 0 0.14335651144331049 0.75565258250209677 0 0.15332765547575641 0.71200081858233666 0 0.18269480424590959 0.75905448272264375 0 0.15332765547575641 0.71200081858233666 0 0.19068556247388771 0.71028988922845504 0 0.18269480424590959 0.75905448272264375 0 0.19068556247388771 0.71028988922845504 0 0.2248999640082178 0.72584299459689172 0 0.2236846579037573 0.67380363126050236 0 0.2248999640082178 0.72584299459689172 0 0.19068556247388771 0.71028988922845504 0 0.2236846579037573 0.67380363126050236 0 0.26439878998046262 0.7048065392091396 0 0.2248999640082178 0.72584299459689172 0 0.25676291524611189 0.7436741304886243 0 0.22556077506376701 0.77837424984191617 0 0.2248999640082178 0.72584299459689172 0 0.25676291524611189 0.7436741304886243 0 0.2248999640082178 0.72584299459689172 0 0.26439878998046262 0.7048065392091396 0 0.2236846579037573 0.67380363126050236 0 0.16500388252850301 0.66612077714085194 0 0.19914261668318661 0.62286739485272158 0 0.2236846579037573 0.67380363126050236 0 0.19068556247388771 0.71028988922845504 0 0.16500388252850301 0.66612077714085194 0 0.2236846579037573 0.67380363126050236 0 0.19914261668318661 0.62286739485272158 0 0.2459498854893499 0.63248470766216769 0 0.2236846579037573 0.67380363126050236 0 0.2459498854893499 0.63248470766216769 0 0.27820712747429932 0.65530134213254643 0 0.22549374774072969 0.58452645269293457 0 0.2459498854893499 0.63248470766216769 0 0.19914261668318661 0.62286739485272158 0 0.26573297623774761 0.59828298563722948 0 0.2459498854893499 0.63248470766216769 0 0.22549374774072969 0.58452645269293457 0 0.22549374774072969 0.58452645269293457 0 0.19914261668318661 0.62286739485272158 0 0.18381867841758909 0.57774125163628387 0 0.20050006573841939 0.53248514016039872 0 0.22549374774072969 0.58452645269293457 0 0.18381867841758909 0.57774125163628387 0 0.26573297623774761 0.59828298563722948 0 0.22549374774072969 0.58452645269293457 0 0.25115337790845271 0.54719303014923271 0 0.20050006573841939 0.53248514016039872 0 0.25115337790845271 0.54719303014923271 0 0.22549374774072969 0.58452645269293457 0 0.20050006573841939 0.53248514016039872 0 0.23975172658309729 0.49475499200540818 0 0.25115337790845271 0.54719303014923271 0 0.20050006573841939 0.53248514016039872 0 0.16618607197337229 0.50652878253548905 0 0.19604738184454831 0.47787523520405789 0 0.20050006573841939 0.53248514016039872 0 0.19604738184454831 0.47787523520405789 0 0.23975172658309729 0.49475499200540818 0 0.20050006573841939 0.53248514016039872 0 0.18381867841758909 0.57774125163628387 0 0.14934928745814749 0.55042914607228977 0 0.20050006573841939 0.53248514016039872 0 0.14934928745814749 0.55042914607228977 0 0.16618607197337229 0.50652878253548905 0 0.1216098864341134 0.50637075089503902 0 0.16618607197337229 0.50652878253548905 0 0.14934928745814749 0.55042914607228977 0 0.1154888278694548 0.56733818459978413 0 0.1216098864341134 0.50637075089503902 0 0.14934928745814749 0.55042914607228977 0 0.15720202157091859 0.60665697304410315 0 0.1154888278694548 0.56733818459978413 0 0.14934928745814749 0.55042914607228977 0 0.15720202157091859 0.60665697304410315 0 0.1024350934457823 0.60772393977513839 0 0.1154888278694548 0.56733818459978413 0 0.15720202157091859 0.60665697304410315 0 0.1241190223511371 0.64391885572885044 0 0.1024350934457823 0.60772393977513839 0 0.18381867841758909 0.57774125163628387 0 0.19914261668318661 0.62286739485272158 0 0.15720202157091859 0.60665697304410315 0 0.15720202157091859 0.60665697304410315 0 0.14934928745814749 0.55042914607228977 0 0.18381867841758909 0.57774125163628387 0 0.15000000000062411 1 0 0.10000000000041601 1 0 0.10266856499240549 0.95548163909968886 0 0.083411279318375747 0.91030024466934134 0 0.10266856499240549 0.95548163909968886 0 0.053064897599294662 0.95186845269532028 0 0.050000000000207989 1 0 0.053064897599294662 0.95186845269532028 0 0.10000000000041601 1 0 0.10000000000041601 1 0 0.053064897599294662 0.95186845269532028 0 0.10266856499240549 0.95548163909968886 0 0.050000000000207989 1 0 0.025766224399875661 0.97546711317377799 0 0.053064897599294662 0.95186845269532028 0 0 1 0 0.025766224399875661 0.97546711317377799 0 0.050000000000207989 1 0 0 1 0 0 0.94999999999979179 0 0.025766224399875661 0.97546711317377799 0 0 0.94999999999979179 0 0.053064897599294662 0.95186845269532028 0 0.025766224399875661 0.97546711317377799 0 0 0.94999999999979179 0 0.0443105827531413 0.89858748162559932 0 0.053064897599294662 0.95186845269532028 0 0.083411279318375747 0.91030024466934134 0 0.053064897599294662 0.95186845269532028 0 0.0443105827531413 0.89858748162559932 0 0 0.94999999999979179 0 0 0.89999999999958358 0 0.0443105827531413 0.89858748162559932 0 0 0.89999999999958358 0 0 0.84999999999965292 0 0.0443105827531413 0.89858748162559932 0 0.083411279318375747 0.91030024466934134 0 0.0443105827531413 0.89858748162559932 0 0.065374659239661639 0.8551091961254178 0 0.083411279318375747 0.91030024466934134 0 0.065374659239661639 0.8551091961254178 0 0.10562472963403439 0.87143394428979881 0 0.083411279318375747 0.91030024466934134 0 0.1241151115713819 0.9045666525468371 0 0.10266856499240549 0.95548163909968886 0 0.14617343800780541 0.93808063414349496 0 0.10266856499240549 0.95548163909968886 0 0.1241151115713819 0.9045666525468371 0 0.14474682429600511 0.85524784522713515 0 0.1241151115713819 0.9045666525468371 0 0.10562472963403439 0.87143394428979881 0 0.083411279318375747 0.91030024466934134 0 0.10562472963403439 0.87143394428979881 0 0.1241151115713819 0.9045666525468371 0 0.14474682429600511 0.85524784522713515 0 0.10562472963403439 0.87143394428979881 0 0.1074251789111534 0.83564394292147814 0 0.083105206071452636 0.79992298667296435 0 0.1074251789111534 0.83564394292147814 0 0.065374659239661639 0.8551091961254178 0 0.065374659239661639 0.8551091961254178 0 0.1074251789111534 0.83564394292147814 0 0.10562472963403439 0.87143394428979881 0 0 0.84999999999965292 0 0.038512288486097702 0.8155852717111195 0 0.065374659239661639 0.8551091961254178 0 0 0.84999999999965292 0 0.065374659239661639 0.8551091961254178 0 0.0443105827531413 0.89858748162559932 0 0 0.84999999999965292 0 0 0.79999999999999982 0 0.038512288486097702 0.8155852717111195 0 0.083105206071452636 0.79992298667296435 0 0.065374659239661639 0.8551091961254178 0 0.038512288486097702 0.8155852717111195 0 0.083105206071452636 0.79992298667296435 0 0.038512288486097702 0.8155852717111195 0 0.04408157711937423 0.7728941757575627 0 0 0.79999999999999982 0 0.04408157711937423 0.7728941757575627 0 0.038512288486097702 0.8155852717111195 0 0 0.79999999999999982 0 0 0.75000000000034661 0 0.04408157711937423 0.7728941757575627 0 0.049706944316475897 0.72477277076253799 0 0.090953281884486245 0.7564451946902494 0 0.04408157711937423 0.7728941757575627 0 0.083105206071452636 0.79992298667296435 0 0.04408157711937423 0.7728941757575627 0 0.090953281884486245 0.7564451946902494 0 0.083105206071452636 0.79992298667296435 0 0.1382744753146134 0.79650574229207483 0 0.1074251789111534 0.83564394292147814 0 0.083105206071452636 0.79992298667296435 0 0.090953281884486245 0.7564451946902494 0 0.1382744753146134 0.79650574229207483 0 0.1382744753146134 0.79650574229207483 0 0.090953281884486245 0.7564451946902494 0 0.14335651144331049 0.75565258250209677 0 0.18269480424590959 0.75905448272264375 0 0.1382744753146134 0.79650574229207483 0 0.14335651144331049 0.75565258250209677 0 0.18269480424590959 0.75905448272264375 0 0.17777405986036951 0.81832336108265358 0 0.1382744753146134 0.79650574229207483 0 0.18269480424590959 0.75905448272264375 0 0.2248999640082178 0.72584299459689172 0 0.22556077506376701 0.77837424984191617 0 0.21858834311891909 0.81980263716112767 0 0.22556077506376701 0.77837424984191617 0 0.26104540868854792 0.81401944968719064 0 0.21858834311891909 0.81980263716112767 0 0.17777405986036951 0.81832336108265358 0 0.22556077506376701 0.77837424984191617 0 0.18269480424590959 0.75905448272264375 0 0.22556077506376701 0.77837424984191617 0 0.17777405986036951 0.81832336108265358 0 0.21858834311891909 0.81980263716112767 0 0.19741632902693801 0.86755867406447229 0 0.17777405986036951 0.81832336108265358 0 0.21858834311891909 0.81980263716112767 0 0.26104540868854792 0.81401944968719064 0 0.2401283238295133 0.85648409884788523 0 0.21858834311891909 0.81980263716112767 0 0.2401283238295133 0.85648409884788523 0 0.19741632902693801 0.86755867406447229 0 0.14474682429600511 0.85524784522713515 0 0.17777405986036951 0.81832336108265358 0 0.19741632902693801 0.86755867406447229 0 0.14474682429600511 0.85524784522713515 0 0.19741632902693801 0.86755867406447229 0 0.16206583317966519 0.89685560785156404 0 0.14474682429600511 0.85524784522713515 0 0.1382744753146134 0.79650574229207483 0 0.17777405986036951 0.81832336108265358 0 0.14474682429600511 0.85524784522713515 0 0.1074251789111534 0.83564394292147814 0 0.1382744753146134 0.79650574229207483 0 0.14474682429600511 0.85524784522713515 0 0.16206583317966519 0.89685560785156404 0 0.1241151115713819 0.9045666525468371 0 0.14617343800780541 0.93808063414349496 0 0.1241151115713819 0.9045666525468371 0 0.16206583317966519 0.89685560785156404 0 0.19901705110390991 0.9175543425573498 0 0.14617343800780541 0.93808063414349496 0 0.16206583317966519 0.89685560785156404 0 0.19901705110390991 0.9175543425573498 0 0.16206583317966519 0.89685560785156404 0 0.19741632902693801 0.86755867406447229 0 0.19901705110390991 0.9175543425573498 0 0.19741632902693801 0.86755867406447229 0 0.24536017905392571 0.90704567837671446 0 0.19741632902693801 0.86755867406447229 0 0.2401283238295133 0.85648409884788523 0 0.24536017905392571 0.90704567837671446 0 0.19901705110390991 0.9175543425573498 0 0.24536017905392571 0.90704567837671446 0 0.22850979588452081 0.95594428570238643 0 0.19901705110390991 0.9175543425573498 0 0.22850979588452081 0.95594428570238643 0 0.18474005699953849 0.96231585248064622 0 0.27609987656793722 0.94991445621608572 0 0.22850979588452081 0.95594428570238643 0 0.24536017905392571 0.90704567837671446 0 0.25000000000104028 1 0 0.20000000000083221 1 0 0.22850979588452081 0.95594428570238643 0 0.20000000000083221 1 0 0.18474005699953849 0.96231585248064622 0 0.22850979588452081 0.95594428570238643 0 0.20000000000083221 1 0 0.15000000000062411 1 0 0.18474005699953849 0.96231585248064622 0 0.19901705110390991 0.9175543425573498 0 0.18474005699953849 0.96231585248064622 0 0.14617343800780541 0.93808063414349496 0 0.15000000000062411 1 0 0.14617343800780541 0.93808063414349496 0 0.18474005699953849 0.96231585248064622 0 0.15000000000062411 1 0 0.10266856499240549 0.95548163909968886 0 0.14617343800780541 0.93808063414349496 0 0.35000000000145642 1 0 0.32544832635163229 0.95485394099568932 0 0.36184234618600131 0.96443954459096326 0 0.40000000000166441 1 0 0.35000000000145642 1 0 0.36184234618600131 0.96443954459096326 0 0.35752321586431363 0.9185439911803448 0 0.36184234618600131 0.96443954459096326 0 0.32544832635163229 0.95485394099568932 0 0.35752321586431363 0.9185439911803448 0 0.39641108128798319 0.94356127926187128 0 0.36184234618600131 0.96443954459096326 0 0.35000000000145642 1 0 0.30000000000124832 1 0 0.32544832635163229 0.95485394099568932 0 0.30000000000124832 1 0 0.25000000000104028 1 0 0.27609987656793722 0.94991445621608572 0 0.25000000000104028 1 0 0.22850979588452081 0.95594428570238643 0 0.27609987656793722 0.94991445621608572 0 0.30000000000124832 1 0 0.27609987656793722 0.94991445621608572 0 0.32544832635163229 0.95485394099568932 0 0.27609987656793722 0.94991445621608572 0 0.30864387279288652 0.89906554525974958 0 0.32544832635163229 0.95485394099568932 0 0.27270076654418179 0.87751467830216623 0 0.30864387279288652 0.89906554525974958 0 0.24536017905392571 0.90704567837671446 0 0.27609987656793722 0.94991445621608572 0 0.24536017905392571 0.90704567837671446 0 0.30864387279288652 0.89906554525974958 0 0.27270076654418179 0.87751467830216623 0 0.24536017905392571 0.90704567837671446 0 0.2401283238295133 0.85648409884788523 0 0.35752321586431363 0.9185439911803448 0 0.30864387279288652 0.89906554525974958 0 0.35864759629805099 0.87963482415279515 0 0.35752321586431363 0.9185439911803448 0 0.32544832635163229 0.95485394099568932 0 0.30864387279288652 0.89906554525974958 0 0.35752321586431363 0.9185439911803448 0 0.35864759629805099 0.87963482415279515 0 0.39767323751400468 0.89584229130535065 0 0.35864759629805099 0.87963482415279515 0 0.33403534827021109 0.84402799729020661 0 0.39536230704883951 0.84069429572832477 0 0.33403534827021109 0.84402799729020661 0 0.35642984951668422 0.80994399665655703 0 0.39536230704883951 0.84069429572832477 0 0.33403534827021109 0.84402799729020661 0 0.30857225866488791 0.81101973481716805 0 0.35642984951668422 0.80994399665655703 0 0.33403534827021109 0.84402799729020661 0 0.35864759629805099 0.87963482415279515 0 0.30864387279288652 0.89906554525974958 0 0.33403534827021109 0.84402799729020661 0 0.30864387279288652 0.89906554525974958 0 0.29209212897034281 0.84715728365233667 0 0.27270076654418179 0.87751467830216623 0 0.29209212897034281 0.84715728365233667 0 0.30864387279288652 0.89906554525974958 0 0.27270076654418179 0.87751467830216623 0 0.2401283238295133 0.85648409884788523 0 0.29209212897034281 0.84715728365233667 0 0.26104540868854792 0.81401944968719064 0 0.29209212897034281 0.84715728365233667 0 0.2401283238295133 0.85648409884788523 0 0.26104540868854792 0.81401944968719064 0 0.30857225866488791 0.81101973481716805 0 0.29209212897034281 0.84715728365233667 0 0.33403534827021109 0.84402799729020661 0 0.29209212897034281 0.84715728365233667 0 0.30857225866488791 0.81101973481716805 0 0.26104540868854792 0.81401944968719064 0 0.2792923945214143 0.77665808831789485 0 0.30857225866488791 0.81101973481716805 0 0.33123028043633618 0.77629643437932982 0 0.30857225866488791 0.81101973481716805 0 0.2792923945214143 0.77665808831789485 0 0.26104540868854792 0.81401944968719064 0 0.22556077506376701 0.77837424984191617 0 0.2792923945214143 0.77665808831789485 0 0.25676291524611189 0.7436741304886243 0 0.29904318922293632 0.74132814928635593 0 0.2792923945214143 0.77665808831789485 0 0.25676291524611189 0.7436741304886243 0 0.2792923945214143 0.77665808831789485 0 0.22556077506376701 0.77837424984191617 0 0.33123028043633618 0.77629643437932982 0 0.2792923945214143 0.77665808831789485 0 0.29904318922293632 0.74132814928635593 0 0.33123028043633618 0.77629643437932982 0 0.29904318922293632 0.74132814928635593 0 0.35415581127540569 0.73730480045900215 0 0.33123028043633618 0.77629643437932982 0 0.35642984951668422 0.80994399665655703 0 0.30857225866488791 0.81101973481716805 0 0.33123028043633618 0.77629643437932982 0 0.38586766253264881 0.78219501014812498 0 0.35642984951668422 0.80994399665655703 0 0.33123028043633618 0.77629643437932982 0 0.35415581127540569 0.73730480045900215 0 0.38586766253264881 0.78219501014812498 0 0.40326160981139969 0.73346192995102844 0 0.42676259796334498 0.76772545931379299 0 0.38586766253264881 0.78219501014812498 0 0.40326160981139969 0.73346192995102844 0 0.38586766253264881 0.78219501014812498 0 0.35415581127540569 0.73730480045900215 0 0.39536230704883951 0.84069429572832477 0 0.38586766253264881 0.78219501014812498 0 0.42609163930740518 0.80361684430568059 0 0.39536230704883951 0.84069429572832477 0 0.35642984951668422 0.80994399665655703 0 0.38586766253264881 0.78219501014812498 0 0.38586766253264881 0.78219501014812498 0 0.42676259796334498 0.76772545931379299 0 0.42609163930740518 0.80361684430568059 0 0.4656888918609538 0.78493261229743638 0 0.42676259796334498 0.76772545931379299 0 0.45582236402875981 0.73896743678908217 0 0.4656888918609538 0.78493261229743638 0 0.45582236402875981 0.73896743678908217 0 0.50945740445113552 0.75476055527778108 0 0.4656888918609538 0.78493261229743638 0 0.50945740445113552 0.75476055527778108 0 0.50731287292894423 0.78963574450233831 0 0.4656888918609538 0.78493261229743638 0 0.50731287292894423 0.78963574450233831 0 0.50627822638148745 0.8263979829520941 0 0.4656888918609538 0.78493261229743638 0 0.45677673713123867 0.84253684404072415 0 0.42609163930740518 0.80361684430568059 0 0.4656888918609538 0.78493261229743638 0 0.42609163930740518 0.80361684430568059 0 0.42676259796334498 0.76772545931379299 0 0.4656888918609538 0.78493261229743638 0 0.50627822638148745 0.8263979829520941 0 0.45677673713123867 0.84253684404072415 0 0.50202631463681879 0.87892870825713787 0 0.45677673713123867 0.84253684404072415 0 0.50627822638148745 0.8263979829520941 0 0.50202631463681879 0.87892870825713787 0 0.44003836461056539 0.88093474584252718 0 0.45677673713123867 0.84253684404072415 0 0.39536230704883951 0.84069429572832477 0 0.45677673713123867 0.84253684404072415 0 0.44003836461056539 0.88093474584252718 0 0.39536230704883951 0.84069429572832477 0 0.44003836461056539 0.88093474584252718 0 0.39767323751400468 0.89584229130535065 0 0.39536230704883951 0.84069429572832477 0 0.42609163930740518 0.80361684430568059 0 0.45677673713123867 0.84253684404072415 0 0.39536230704883951 0.84069429572832477 0 0.39767323751400468 0.89584229130535065 0 0.35864759629805099 0.87963482415279515 0 0.35752321586431363 0.9185439911803448 0 0.39767323751400468 0.89584229130535065 0 0.39641108128798319 0.94356127926187128 0 0.4367309254023824 0.92065556789053882 0 0.39641108128798319 0.94356127926187128 0 0.39767323751400468 0.89584229130535065 0 0.4367309254023824 0.92065556789053882 0 0.39767323751400468 0.89584229130535065 0 0.44003836461056539 0.88093474584252718 0 0.4367309254023824 0.92065556789053882 0 0.44003836461056539 0.88093474584252718 0 0.47401147028110507 0.91529957330468115 0 0.50202631463681879 0.87892870825713787 0 0.47401147028110507 0.91529957330468115 0 0.44003836461056539 0.88093474584252718 0 0.52122150208832174 0.94089974453840242 0 0.47135117303824892 0.95556877749289892 0 0.47401147028110507 0.91529957330468115 0 0.50202631463681879 0.87892870825713787 0 0.52122150208832174 0.94089974453840242 0 0.47401147028110507 0.91529957330468115 0 0.4367309254023824 0.92065556789053882 0 0.47401147028110507 0.91529957330468115 0 0.47135117303824892 0.95556877749289892 0 0.4367309254023824 0.92065556789053882 0 0.47135117303824892 0.95556877749289892 0 0.4308986359464303 0.96395712492906194 0 0.50000000000205869 1 0 0.47135117303824892 0.95556877749289892 0 0.52122150208832174 0.94089974453840242 0 0.50000000000205869 1 0 0.45000000000187229 1 0 0.47135117303824892 0.95556877749289892 0 0.45000000000187229 1 0 0.4308986359464303 0.96395712492906194 0 0.47135117303824892 0.95556877749289892 0 0.45000000000187229 1 0 0.40000000000166441 1 0 0.4308986359464303 0.96395712492906194 0 0.40000000000166441 1 0 0.39641108128798319 0.94356127926187128 0 0.4308986359464303 0.96395712492906194 0 0.4367309254023824 0.92065556789053882 0 0.4308986359464303 0.96395712492906194 0 0.39641108128798319 0.94356127926187128 0 0.40000000000166441 1 0 0.36184234618600131 0.96443954459096326 0 0.39641108128798319 0.94356127926187128 0 0.33122374654748771 0.57588941099433744 0 0.35765792684946668 0.6000687869219653 0 0.31502927232353312 0.6134992213375432 0 0.35864735590330371 0.63903383440414463 0 0.31502927232353312 0.6134992213375432 0 0.35765792684946668 0.6000687869219653 0 0.35864735590330371 0.63903383440414463 0 0.35765792684946668 0.6000687869219653 0 0.39743091024207589 0.6239520004230239 0 0.33122374654748771 0.57588941099433744 0 0.37272913873093971 0.56192925302619479 0 0.35765792684946668 0.6000687869219653 0 0.38244435121258652 0.51653317813019495 0 0.37272913873093971 0.56192925302619479 0 0.33190227185843768 0.52715113583864037 0 0.33122374654748771 0.57588941099433744 0 0.33190227185843768 0.52715113583864037 0 0.37272913873093971 0.56192925302619479 0 0.38244435121258652 0.51653317813019495 0 0.33190227185843768 0.52715113583864037 0 0.35024835142131061 0.48654922671676981 0 0.33122374654748771 0.57588941099433744 0 0.29110487519241501 0.56588143995431495 0 0.33190227185843768 0.52715113583864037 0 0.28307294598219601 0.50789252727458634 0 0.33190227185843768 0.52715113583864037 0 0.29110487519241501 0.56588143995431495 0 0.31068898841644388 0.47541502461811092 0 0.33190227185843768 0.52715113583864037 0 0.28307294598219601 0.50789252727458634 0 0.28307294598219601 0.50789252727458634 0 0.25115337790845271 0.54719303014923271 0 0.23975172658309729 0.49475499200540818 0 0.28307294598219601 0.50789252727458634 0 0.29110487519241501 0.56588143995431495 0 0.25115337790845271 0.54719303014923271 0 0.26573297623774761 0.59828298563722948 0 0.25115337790845271 0.54719303014923271 0 0.29110487519241501 0.56588143995431495 0 0.33122374654748771 0.57588941099433744 0 0.31502927232353312 0.6134992213375432 0 0.29110487519241501 0.56588143995431495 0 0.26573297623774761 0.59828298563722948 0 0.29110487519241501 0.56588143995431495 0 0.31502927232353312 0.6134992213375432 0 0.26573297623774761 0.59828298563722948 0 0.31502927232353312 0.6134992213375432 0 0.27820712747429932 0.65530134213254643 0 0.26573297623774761 0.59828298563722948 0 0.27820712747429932 0.65530134213254643 0 0.2459498854893499 0.63248470766216769 0 0.2236846579037573 0.67380363126050236 0 0.27820712747429932 0.65530134213254643 0 0.26439878998046262 0.7048065392091396 0 0.31378396441836959 0.70157213313026345 0 0.27820712747429932 0.65530134213254643 0 0.32263089806001177 0.66003674931826484 0 0.31378396441836959 0.70157213313026345 0 0.26439878998046262 0.7048065392091396 0 0.27820712747429932 0.65530134213254643 0 0.27820712747429932 0.65530134213254643 0 0.31502927232353312 0.6134992213375432 0 0.32263089806001177 0.66003674931826484 0 0.25676291524611189 0.7436741304886243 0 0.26439878998046262 0.7048065392091396 0 0.29904318922293632 0.74132814928635593 0 0.31378396441836959 0.70157213313026345 0 0.29904318922293632 0.74132814928635593 0 0.26439878998046262 0.7048065392091396 0 0.31378396441836959 0.70157213313026345 0 0.35415581127540569 0.73730480045900215 0 0.29904318922293632 0.74132814928635593 0 0.31378396441836959 0.70157213313026345 0 0.36622285152418499 0.69092437780804039 0 0.35415581127540569 0.73730480045900215 0 0.40326160981139969 0.73346192995102844 0 0.35415581127540569 0.73730480045900215 0 0.36622285152418499 0.69092437780804039 0 0.35864735590330371 0.63903383440414463 0 0.32263089806001177 0.66003674931826484 0 0.31502927232353312 0.6134992213375432 0 0.31378396441836959 0.70157213313026345 0 0.32263089806001177 0.66003674931826484 0 0.36622285152418499 0.69092437780804039 0 0.35864735590330371 0.63903383440414463 0 0.36622285152418499 0.69092437780804039 0 0.32263089806001177 0.66003674931826484 0 0.35864735590330371 0.63903383440414463 0 0.3977710372045391 0.65868194622830212 0 0.36622285152418499 0.69092437780804039 0 0.35864735590330371 0.63903383440414463 0 0.39743091024207589 0.6239520004230239 0 0.3977710372045391 0.65868194622830212 0 0.36622285152418499 0.69092437780804039 0 0.3977710372045391 0.65868194622830212 0 0.43323420005758778 0.6913544522562407 0 0.43846182030517877 0.64845797726506715 0 0.43323420005758778 0.6913544522562407 0 0.3977710372045391 0.65868194622830212 0 0.43846182030517877 0.64845797726506715 0 0.39743091024207589 0.6239520004230239 0 0.43545892161006339 0.61093128915313821 0 0.43846182030517877 0.64845797726506715 0 0.3977710372045391 0.65868194622830212 0 0.39743091024207589 0.6239520004230239 0 0.40326160981139969 0.73346192995102844 0 0.36622285152418499 0.69092437780804039 0 0.43323420005758778 0.6913544522562407 0 0.40326160981139969 0.73346192995102844 0 0.43323420005758778 0.6913544522562407 0 0.45582236402875981 0.73896743678908217 0 0.40326160981139969 0.73346192995102844 0 0.45582236402875981 0.73896743678908217 0 0.42676259796334498 0.76772545931379299 0 0.5 0.69999999999999996 0 0.45582236402875981 0.73896743678908217 0 0.43323420005758778 0.6913544522562407 0 0.5 0.69999999999999996 0 0.50945740445113552 0.75476055527778108 0 0.45582236402875981 0.73896743678908217 0 0.5 0.69999999999999996 0 0.43323420005758778 0.6913544522562407 0 0.47913475093885149 0.66010775372412711 0 0.43846182030517877 0.64845797726506715 0 0.47095389620662098 0.61892551373708504 0 0.47913475093885149 0.66010775372412711 0 0.43846182030517877 0.64845797726506715 0 0.43545892161006339 0.61093128915313821 0 0.47095389620662098 0.61892551373708504 0 0.43846182030517877 0.64845797726506715 0 0.47913475093885149 0.66010775372412711 0 0.43323420005758778 0.6913544522562407 0 0.50715858906372158 0.63295939104129484 0 0.47913475093885149 0.66010775372412711 0 0.47095389620662098 0.61892551373708504 0 0.50715858906372158 0.63295939104129484 0 0.47095389620662098 0.61892551373708504 0 0.5166924242153631 0.59825134841919447 0 0.46666084890304671 0.57634471035397938 0 0.5166924242153631 0.59825134841919447 0 0.47095389620662098 0.61892551373708504 0 0.46666084890304671 0.57634471035397938 0 0.47095389620662098 0.61892551373708504 0 0.43545892161006339 0.61093128915313821 0 0.4089290844030305 0.58728915500154233 0 0.43545892161006339 0.61093128915313821 0 0.39743091024207589 0.6239520004230239 0 0.43545892161006339 0.61093128915313821 0 0.4089290844030305 0.58728915500154233 0 0.46666084890304671 0.57634471035397938 0 0.4089290844030305 0.58728915500154233 0 0.42644501560315817 0.54603747078095544 0 0.46666084890304671 0.57634471035397938 0 0.4089290844030305 0.58728915500154233 0 0.37272913873093971 0.56192925302619479 0 0.42644501560315817 0.54603747078095544 0 0.4089290844030305 0.58728915500154233 0 0.35765792684946668 0.6000687869219653 0 0.37272913873093971 0.56192925302619479 0 0.4089290844030305 0.58728915500154233 0 0.39743091024207589 0.6239520004230239 0 0.35765792684946668 0.6000687869219653 0 0.38244435121258652 0.51653317813019495 0 0.42644501560315817 0.54603747078095544 0 0.37272913873093971 0.56192925302619479 0 0.38244435121258652 0.51653317813019495 0 0.43507373378304309 0.49699695397193322 0 0.42644501560315817 0.54603747078095544 0 0.46666084890304671 0.57634471035397938 0 0.47793794143994173 0.52940715638744962 0 0.53245488764484505 0.55078124999999989 0 0.49102375406324739 0.49123754822244059 0 0.47793794143994173 0.52940715638744962 0 0.43507373378304309 0.49699695397193322 0 0.43507373378304309 0.49699695397193322 0 0.47793794143994173 0.52940715638744962 0 0.42644501560315817 0.54603747078095544 0 0.46666084890304671 0.57634471035397938 0 0.42644501560315817 0.54603747078095544 0 0.47793794143994173 0.52940715638744962 0 0.49102375406324739 0.49123754822244059 0 0.53330375813596242 0.50827942741749099 0 0.47793794143994173 0.52940715638744962 0 0.53245488764484505 0.55078124999999989 0 0.47793794143994173 0.52940715638744962 0 0.53330375813596242 0.50827942741749099 0 0.53245488764484505 0.55078124999999989 0 0.53330375813596242 0.50827942741749099 0 0.57435499076887508 0.54267261987897775 0 0.57412547362576272 0.58273804879550706 0 0.53245488764484505 0.55078124999999989 0 0.57435499076887508 0.54267261987897775 0 0.57611405284611883 0.50165903596042916 0 0.57435499076887508 0.54267261987897775 0 0.53330375813596242 0.50827942741749099 0 0.57611405284611883 0.50165903596042916 0 0.62042975506801734 0.54295974692364424 0 0.57435499076887508 0.54267261987897775 0 0.57412547362576272 0.58273804879550706 0 0.57435499076887508 0.54267261987897775 0 0.62042975506801734 0.54295974692364424 0 0.57611405284611883 0.50165903596042916 0 0.61547661924074692 0.48539576058873962 0 0.62042975506801734 0.54295974692364424 0 0.6405463747586706 0.63290524857395714 0 0.5991018319127801 0.62925360607495295 0 0.63065402604362242 0.59661356661633302 0 0.57412547362576272 0.58273804879550706 0 0.63065402604362242 0.59661356661633302 0 0.5991018319127801 0.62925360607495295 0 0.57412547362576272 0.58273804879550706 0 0.62042975506801734 0.54295974692364424 0 0.63065402604362242 0.59661356661633302 0 0.57412547362576272 0.58273804879550706 0 0.5991018319127801 0.62925360607495295 0 0.5498280205245758 0.6290146943450976 0 0.46666084890304671 0.57634471035397938 0 0.53245488764484505 0.55078124999999989 0 0.5166924242153631 0.59825134841919447 0 0.57412547362576272 0.58273804879550706 0 0.5498280205245758 0.6290146943450976 0 0.5166924242153631 0.59825134841919447 0 0.57412547362576272 0.58273804879550706 0 0.5166924242153631 0.59825134841919447 0 0.53245488764484505 0.55078124999999989 0 0.50715858906372158 0.63295939104129484 0 0.5166924242153631 0.59825134841919447 0 0.5498280205245758 0.6290146943450976 0 0.50715858906372158 0.63295939104129484 0 0.52584555706968406 0.66664215091846768 0 0.47913475093885149 0.66010775372412711 0 0.50715858906372158 0.63295939104129484 0 0.5498280205245758 0.6290146943450976 0 0.52584555706968406 0.66664215091846768 0 0.5 0.69999999999999996 0 0.47913475093885149 0.66010775372412711 0 0.52584555706968406 0.66664215091846768 0 0.54999999999999993 0.69999999999999996 0 0.52584555706968406 0.66664215091846768 0 0.57484956128872922 0.66573805030881994 0 0.57484956128872922 0.66573805030881994 0 0.52584555706968406 0.66664215091846768 0 0.5498280205245758 0.6290146943450976 0 0.50945740445113552 0.75476055527778108 0 0.5 0.69999999999999996 0 0.55363780716230748 0.74348740161571747 0 0.5 0.69999999999999996 0 0.52584555706968406 0.66664215091846768 0 0.54999999999999993 0.69999999999999996 0 0.5 0.69999999999999996 0 0.54999999999999993 0.69999999999999996 0 0.5 0.69999999999999996 0 0.54999999999999993 0.69999999999999996 0 0.55363780716230748 0.74348740161571747 0 0.59999999999999976 0.69999999999999996 0 0.59636844454254345 0.75937156204589151 0 0.55363780716230748 0.74348740161571747 0 0.54999999999999993 0.69999999999999996 0 0.59999999999999976 0.69999999999999996 0 0.54999999999999993 0.69999999999999996 0 0.57484956128872922 0.66573805030881994 0 0.59999999999999976 0.69999999999999996 0 0.54999999999999993 0.69999999999999996 0 0.59999999999999976 0.69999999999999996 0 0.55363780716230748 0.74348740161571747 0 0.59999999999999976 0.69999999999999996 0 0.6499999999999998 0.69999999999999996 0 0.59999999999999976 0.69999999999999996 0 0.62460753523532009 0.66851202781000296 0 0.6499999999999998 0.69999999999999996 0 0.59999999999999976 0.69999999999999996 0 0.63221990677827677 0.73442891067859706 0 0.59636844454254345 0.75937156204589151 0 0.57484956128872922 0.66573805030881994 0 0.5498280205245758 0.6290146943450976 0 0.5991018319127801 0.62925360607495295 0 0.59999999999999976 0.69999999999999996 0 0.57484956128872922 0.66573805030881994 0 0.62460753523532009 0.66851202781000296 0 0.57484956128872922 0.66573805030881994 0 0.5991018319127801 0.62925360607495295 0 0.62460753523532009 0.66851202781000296 0 0.6405463747586706 0.63290524857395714 0 0.62460753523532009 0.66851202781000296 0 0.5991018319127801 0.62925360607495295 0 0.6405463747586706 0.63290524857395714 0 0.675261390228442 0.65996937624687813 0 0.62460753523532009 0.66851202781000296 0 0.6499999999999998 0.69999999999999996 0 0.62460753523532009 0.66851202781000296 0 0.675261390228442 0.65996937624687813 0 0.6499999999999998 0.69999999999999996 0 0.675261390228442 0.65996937624687813 0 0.69999999999999984 0.69999999999999996 0 0.6405463747586706 0.63290524857395714 0 0.67529834988829951 0.61613270668143583 0 0.675261390228442 0.65996937624687813 0 0.64753070846764316 0.77332939069435502 0 0.63221990677827677 0.73442891067859706 0 0.66427993341343905 0.73232764502436276 0 0.6499999999999998 0.69999999999999996 0 0.66427993341343905 0.73232764502436276 0 0.63221990677827677 0.73442891067859706 0 0.59999999999999976 0.69999999999999996 0 0.6499999999999998 0.69999999999999996 0 0.63221990677827677 0.73442891067859706 0 0.6499999999999998 0.69999999999999996 0 0.69999999999999984 0.69999999999999996 0 0.6499999999999998 0.69999999999999996 0 0.69999999999999984 0.69999999999999996 0 0.66427993341343905 0.73232764502436276 0 0.69999999999999984 0.69999999999999996 0 0.6916490518212759 0.75387992374886192 0 0.66427993341343905 0.73232764502436276 0 0.69999999999999984 0.69999999999999996 0 0.72501250972655151 0.74067302935308721 0 0.6916490518212759 0.75387992374886192 0 0.69999999999999984 0.69999999999999996 0 0.74999999999999989 0.69999999999999996 0 0.72501250972655151 0.74067302935308721 0 0.69999999999999984 0.69999999999999996 0 0.72500000000000064 0.67022701834392062 0 0.74999999999999989 0.69999999999999996 0 0.69999999999999984 0.69999999999999996 0 0.74999999999999989 0.69999999999999996 0 0.74999999999999989 0.69999999999999996 0 0.75841349681148107 0.75422312624214749 0 0.72501250972655151 0.74067302935308721 0 0.71406021706547751 0.63292083137662503 0 0.72500000000000064 0.67022701834392062 0 0.675261390228442 0.65996937624687813 0 0.71406021706547751 0.63292083137662503 0 0.675261390228442 0.65996937624687813 0 0.67529834988829951 0.61613270668143583 0 0.69999999999999984 0.69999999999999996 0 0.675261390228442 0.65996937624687813 0 0.72500000000000064 0.67022701834392062 0 0.71406021706547751 0.63292083137662503 0 0.74994237037456724 0.62775548192980357 0 0.72500000000000064 0.67022701834392062 0 0.7750489929959945 0.66593931409600093 0 0.72500000000000064 0.67022701834392062 0 0.74994237037456724 0.62775548192980357 0 0.71406021706547751 0.63292083137662503 0 0.71809016091162536 0.58185040402320831 0 0.74994237037456724 0.62775548192980357 0 0.77293540622714185 0.59448302402785813 0 0.74994237037456724 0.62775548192980357 0 0.71809016091162536 0.58185040402320831 0 0.71406021706547751 0.63292083137662503 0 0.67529834988829951 0.61613270668143583 0 0.71809016091162536 0.58185040402320831 0 0.67323294229744413 0.57556450033612505 0 0.67569444444444449 0.53500863336860327 0 0.71809016091162536 0.58185040402320831 0 0.67323294229744413 0.57556450033612505 0 0.71809016091162536 0.58185040402320831 0 0.67529834988829951 0.61613270668143583 0 0.7152569930854884 0.5237994455134295 0 0.77151014687832564 0.54436834383023036 0 0.71809016091162536 0.58185040402320831 0 0.7152569930854884 0.5237994455134295 0 0.73947346780852752 0.49062440112282169 0 0.77151014687832564 0.54436834383023036 0 0.7152569930854884 0.5237994455134295 0 0.67569444444444449 0.53500863336860327 0 0.69385896817107129 0.48377516041410151 0 0.7152569930854884 0.5237994455134295 0 0.71809016091162536 0.58185040402320831 0 0.67569444444444449 0.53500863336860327 0 0.67323294229744413 0.57556450033612505 0 0.62042975506801734 0.54295974692364424 0 0.67569444444444449 0.53500863336860327 0 0.6541250972820879 0.49999999999999989 0 0.69385896817107129 0.48377516041410151 0 0.67569444444444449 0.53500863336860327 0 0.6541250972820879 0.49999999999999989 0 0.67569444444444449 0.53500863336860327 0 0.62042975506801734 0.54295974692364424 0 0.6541250972820879 0.49999999999999989 0 0.62042975506801734 0.54295974692364424 0 0.61547661924074692 0.48539576058873962 0 0.67323294229744413 0.57556450033612505 0 0.63065402604362242 0.59661356661633302 0 0.62042975506801734 0.54295974692364424 0 0.6405463747586706 0.63290524857395714 0 0.63065402604362242 0.59661356661633302 0 0.67529834988829951 0.61613270668143583 0 0.67323294229744413 0.57556450033612505 0 0.67529834988829951 0.61613270668143583 0 0.63065402604362242 0.59661356661633302 0 0.60000000000138687 1 0 0.57382506491224949 0.9629411906298494 0 0.62065498684670595 0.95224934003983619 0 0.65000000000104008 1 0 0.60000000000138687 1 0 0.62065498684670595 0.95224934003983619 0 0.57724883562309992 0.92155686857100794 0 0.62065498684670595 0.95224934003983619 0 0.57382506491224949 0.9629411906298494 0 0.60000000000138687 1 0 0.55000000000173355 1 0 0.57382506491224949 0.9629411906298494 0 0.55000000000173355 1 0 0.50000000000205869 1 0 0.52122150208832174 0.94089974453840242 0 0.57724883562309992 0.92155686857100794 0 0.57382506491224949 0.9629411906298494 0 0.52122150208832174 0.94089974453840242 0 0.55000000000173355 1 0 0.52122150208832174 0.94089974453840242 0 0.57382506491224949 0.9629411906298494 0 0.57724883562309992 0.92155686857100794 0 0.52122150208832174 0.94089974453840242 0 0.54783390826260769 0.89287767010860219 0 0.50202631463681879 0.87892870825713787 0 0.54783390826260769 0.89287767010860219 0 0.52122150208832174 0.94089974453840242 0 0.55899371797446828 0.85003102233514438 0 0.5832743223239254 0.88483152652961872 0 0.54783390826260769 0.89287767010860219 0 0.57724883562309992 0.92155686857100794 0 0.54783390826260769 0.89287767010860219 0 0.5832743223239254 0.88483152652961872 0 0.57724883562309992 0.92155686857100794 0 0.5832743223239254 0.88483152652961872 0 0.61885627562261258 0.90282959257498208 0 0.57724883562309992 0.92155686857100794 0 0.61885627562261258 0.90282959257498208 0 0.62065498684670595 0.95224934003983619 0 0.61343887413683884 0.856862479058357 0 0.61885627562261258 0.90282959257498208 0 0.5832743223239254 0.88483152652961872 0 0.61343887413683884 0.856862479058357 0 0.60294066490120068 0.80851322453934582 0 0.65005442820240822 0.82644988530054031 0 0.61343887413683884 0.856862479058357 0 0.55899371797446828 0.85003102233514438 0 0.60294066490120068 0.80851322453934582 0 0.54782696902220018 0.79245182748204157 0 0.60294066490120068 0.80851322453934582 0 0.55899371797446828 0.85003102233514438 0 0.61343887413683884 0.856862479058357 0 0.5832743223239254 0.88483152652961872 0 0.55899371797446828 0.85003102233514438 0 0.50202631463681879 0.87892870825713787 0 0.55899371797446828 0.85003102233514438 0 0.54783390826260769 0.89287767010860219 0 0.50202631463681879 0.87892870825713787 0 0.50627822638148745 0.8263979829520941 0 0.55899371797446828 0.85003102233514438 0 0.54782696902220018 0.79245182748204157 0 0.55899371797446828 0.85003102233514438 0 0.50627822638148745 0.8263979829520941 0 0.54782696902220018 0.79245182748204157 0 0.50627822638148745 0.8263979829520941 0 0.50731287292894423 0.78963574450233831 0 0.54782696902220018 0.79245182748204157 0 0.50731287292894423 0.78963574450233831 0 0.50945740445113552 0.75476055527778108 0 0.54782696902220018 0.79245182748204157 0 0.50945740445113552 0.75476055527778108 0 0.55363780716230748 0.74348740161571747 0 0.54782696902220018 0.79245182748204157 0 0.55363780716230748 0.74348740161571747 0 0.59636844454254345 0.75937156204589151 0 0.54782696902220018 0.79245182748204157 0 0.59636844454254345 0.75937156204589151 0 0.60294066490120068 0.80851322453934582 0 0.64753070846764316 0.77332939069435502 0 0.60294066490120068 0.80851322453934582 0 0.59636844454254345 0.75937156204589151 0 0.64753070846764316 0.77332939069435502 0 0.59636844454254345 0.75937156204589151 0 0.63221990677827677 0.73442891067859706 0 0.64753070846764316 0.77332939069435502 0 0.65005442820240822 0.82644988530054031 0 0.60294066490120068 0.80851322453934582 0 0.64753070846764316 0.77332939069435502 0 0.68024162096458085 0.79868546898116533 0 0.65005442820240822 0.82644988530054031 0 0.64753070846764316 0.77332939069435502 0 0.6916490518212759 0.75387992374886192 0 0.68024162096458085 0.79868546898116533 0 0.64753070846764316 0.77332939069435502 0 0.66427993341343905 0.73232764502436276 0 0.6916490518212759 0.75387992374886192 0 0.6916490518212759 0.75387992374886192 0 0.72501250972655151 0.74067302935308721 0 0.72500000000000064 0.7952620967744265 0 0.72501250972655151 0.74067302935308721 0 0.75841349681148107 0.75422312624214749 0 0.72500000000000064 0.7952620967744265 0 0.72500000000000064 0.7952620967744265 0 0.68024162096458085 0.79868546898116533 0 0.6916490518212759 0.75387992374886192 0 0.72500000000000064 0.7952620967744265 0 0.68697391633157634 0.84450604838764298 0 0.68024162096458085 0.79868546898116533 0 0.72500000000000064 0.7952620967744265 0 0.72863726579783861 0.85390518901155588 0 0.68697391633157634 0.84450604838764298 0 0.72500000000000064 0.7952620967744265 0 0.76901770135486491 0.84293557325473656 0 0.72863726579783861 0.85390518901155588 0 0.7250000000005199 0.89375000000045834 0 0.68697391633157634 0.84450604838764298 0 0.72863726579783861 0.85390518901155588 0 0.7250000000005199 0.89375000000045834 0 0.66412543161245952 0.88015090885499059 0 0.68697391633157634 0.84450604838764298 0 0.68697391633157634 0.84450604838764298 0 0.66412543161245952 0.88015090885499059 0 0.65005442820240822 0.82644988530054031 0 0.68697391633157634 0.84450604838764298 0 0.65005442820240822 0.82644988530054031 0 0.68024162096458085 0.79868546898116533 0 0.61343887413683884 0.856862479058357 0 0.65005442820240822 0.82644988530054031 0 0.66412543161245952 0.88015090885499059 0 0.61343887413683884 0.856862479058357 0 0.66412543161245952 0.88015090885499059 0 0.61885627562261258 0.90282959257498208 0 0.65507451745379841 0.92229208810758578 0 0.61885627562261258 0.90282959257498208 0 0.66412543161245952 0.88015090885499059 0 0.65507451745379841 0.92229208810758578 0 0.62065498684670595 0.95224934003983619 0 0.61885627562261258 0.90282959257498208 0 0.65507451745379841 0.92229208810758578 0 0.68987011941058407 0.92105047536677087 0 0.68015064798562208 0.95924320340003011 0 0.65507451745379841 0.92229208810758578 0 0.66412543161245952 0.88015090885499059 0 0.68987011941058407 0.92105047536677087 0 0.7250000000005199 0.89375000000045834 0 0.68987011941058407 0.92105047536677087 0 0.66412543161245952 0.88015090885499059 0 0.7250000000005199 0.89375000000045834 0 0.72863726579783861 0.85390518901155588 0 0.76891166905518427 0.88835469571185499 0 0.7250000000005199 0.89375000000045834 0 0.75729602384198635 0.92353652857884294 0 0.7250000000005199 0.94981617647078953 0 0.7250000000005199 0.89375000000045834 0 0.7250000000005199 0.94981617647078953 0 0.68987011941058407 0.92105047536677087 0 0.7250000000005199 0.94981617647078953 0 0.68015064798562208 0.95924320340003011 0 0.68987011941058407 0.92105047536677087 0 0.75000000000034661 1 0 0.7000000000006934 1 0 0.7250000000005199 0.94981617647078953 0 0.75000000000034661 1 0 0.7250000000005199 0.94981617647078953 0 0.770759834363826 0.95919399014344442 0 0.7000000000006934 1 0 0.68015064798562208 0.95924320340003011 0 0.7250000000005199 0.94981617647078953 0 0.7000000000006934 1 0 0.65000000000104008 1 0 0.68015064798562208 0.95924320340003011 0 0.65507451745379841 0.92229208810758578 0 0.68015064798562208 0.95924320340003011 0 0.62065498684670595 0.95224934003983619 0 0.65000000000104008 1 0 0.62065498684670595 0.95224934003983619 0 0.68015064798562208 0.95924320340003011 0 0.84999999999965292 1 0 0.85170973911348691 0.93569607295217616 0 0.89898474358632463 0.95391965591118966 0 0.84999999999965292 1 0 0.81486180804382891 0.96321394949790495 0 0.85170973911348691 0.93569607295217616 0 0.79680861578988083 0.92656778056766709 0 0.85170973911348691 0.93569607295217616 0 0.81486180804382891 0.96321394949790495 0 0.84999999999965292 1 0 0.79999999999999982 1 0 0.81486180804382891 0.96321394949790495 0 0.79999999999999982 1 0 0.770759834363826 0.95919399014344442 0 0.81486180804382891 0.96321394949790495 0 0.79999999999999982 1 0 0.75000000000034661 1 0 0.770759834363826 0.95919399014344442 0 0.7250000000005199 0.94981617647078953 0 0.75729602384198635 0.92353652857884294 0 0.770759834363826 0.95919399014344442 0 0.79680861578988083 0.92656778056766709 0 0.81486180804382891 0.96321394949790495 0 0.770759834363826 0.95919399014344442 0 0.79680861578988083 0.92656778056766709 0 0.75729602384198635 0.92353652857884294 0 0.76891166905518427 0.88835469571185499 0 0.79680861578988083 0.92656778056766709 0 0.770759834363826 0.95919399014344442 0 0.75729602384198635 0.92353652857884294 0 0.7250000000005199 0.89375000000045834 0 0.76891166905518427 0.88835469571185499 0 0.75729602384198635 0.92353652857884294 0 0.79680861578988083 0.92656778056766709 0 0.76891166905518427 0.88835469571185499 0 0.81159157511211755 0.88795995483179491 0 0.85170973911348691 0.93569607295217616 0 0.81159157511211755 0.88795995483179491 0 0.85600844944837662 0.88483418979512773 0 0.79680861578988083 0.92656778056766709 0 0.81159157511211755 0.88795995483179491 0 0.85170973911348691 0.93569607295217616 0 0.90416666666660628 0.9041666666666166 0 0.85170973911348691 0.93569607295217616 0 0.85600844944837662 0.88483418979512773 0 0.82709327591091286 0.84937141670920724 0 0.88088768115933802 0.84674609810493673 0 0.85600844944837662 0.88483418979512773 0 0.82709327591091286 0.84937141670920724 0 0.84725310900444062 0.80779732082917555 0 0.88088768115933802 0.84674609810493673 0 0.82709327591091286 0.84937141670920724 0 0.80041942726660109 0.81543261647703358 0 0.84725310900444062 0.80779732082917555 0 0.82709327591091286 0.84937141670920724 0 0.85600844944837662 0.88483418979512773 0 0.81159157511211755 0.88795995483179491 0 0.76901770135486491 0.84293557325473656 0 0.81159157511211755 0.88795995483179491 0 0.76891166905518427 0.88835469571185499 0 0.82709327591091286 0.84937141670920724 0 0.81159157511211755 0.88795995483179491 0 0.76901770135486491 0.84293557325473656 0 0.76901770135486491 0.84293557325473656 0 0.76891166905518427 0.88835469571185499 0 0.72863726579783861 0.85390518901155588 0 0.76901770135486491 0.84293557325473656 0 0.77094201086366854 0.79647480515688507 0 0.80041942726660109 0.81543261647703358 0 0.82709327591091286 0.84937141670920724 0 0.76901770135486491 0.84293557325473656 0 0.80041942726660109 0.81543261647703358 0 0.80185942888539485 0.77452061303608133 0 0.80041942726660109 0.81543261647703358 0 0.77094201086366854 0.79647480515688507 0 0.72500000000000064 0.7952620967744265 0 0.75841349681148107 0.75422312624214749 0 0.77094201086366854 0.79647480515688507 0 0.72500000000000064 0.7952620967744265 0 0.77094201086366854 0.79647480515688507 0 0.76901770135486491 0.84293557325473656 0 0.80185942888539485 0.77452061303608133 0 0.77094201086366854 0.79647480515688507 0 0.75841349681148107 0.75422312624214749 0 0.80185942888539485 0.77452061303608133 0 0.75841349681148107 0.75422312624214749 0 0.78578450296893509 0.73292684821144505 0 0.80185942888539485 0.77452061303608133 0 0.85491058998424563 0.76004753345552634 0 0.84725310900444062 0.80779732082917555 0 0.80185942888539485 0.77452061303608133 0 0.81864958914779962 0.73589050177899629 0 0.85491058998424563 0.76004753345552634 0 0.80185942888539485 0.77452061303608133 0 0.84725310900444062 0.80779732082917555 0 0.80041942726660109 0.81543261647703358 0 0.90299850604011456 0.79563452813489832 0 0.84725310900444062 0.80779732082917555 0 0.85491058998424563 0.76004753345552634 0 0.90299850604011456 0.79563452813489832 0 0.85491058998424563 0.76004753345552634 0 0.89999166460796554 0.74528934923809909 0 0.90299850604011456 0.79563452813489832 0 0.94399509803918602 0.75600490196082126 0 0.95386563387742829 0.80414874155775029 0 0.90299850604011456 0.79563452813489832 0 0.89999166460796554 0.74528934923809909 0 0.94399509803918602 0.75600490196082126 0 0.94399509803918602 0.75600490196082126 0 0.97435614836745565 0.77499999999987745 0 0.95386563387742829 0.80414874155775029 0 0.94399509803918602 0.75600490196082126 0 0.97166519676947294 0.73337114490064459 0 0.97435614836745565 0.77499999999987745 0 1 0.74999999999993494 0 0.97435614836745565 0.77499999999987745 0 0.97166519676947294 0.73337114490064459 0 1 0.74999999999993494 0 1 0.7999999999998193 0 0.97435614836745565 0.77499999999987745 0 1 0.7999999999998193 0 0.95386563387742829 0.80414874155775029 0 0.97435614836745565 0.77499999999987745 0 1 0.84999999999982645 0 0.95391631417670719 0.89584263333814784 0 0.93677536231884972 0.85000000000000286 0 1 0.84999999999982645 0 0.93677536231884972 0.85000000000000286 0 0.95386563387742829 0.80414874155775029 0 1 0.7999999999998193 0 1 0.84999999999982645 0 0.95386563387742829 0.80414874155775029 0 0.90416666666660628 0.9041666666666166 0 0.88088768115933802 0.84674609810493673 0 0.93677536231884972 0.85000000000000286 0 0.90299850604011456 0.79563452813489832 0 0.95386563387742829 0.80414874155775029 0 0.93677536231884972 0.85000000000000286 0 0.90299850604011456 0.79563452813489832 0 0.93677536231884972 0.85000000000000286 0 0.88088768115933802 0.84674609810493673 0 0.90299850604011456 0.79563452813489832 0 0.88088768115933802 0.84674609810493673 0 0.84725310900444062 0.80779732082917555 0 0.90416666666660628 0.9041666666666166 0 0.85600844944837662 0.88483418979512773 0 0.88088768115933802 0.84674609810493673 0 0.90416666666660628 0.9041666666666166 0 0.89898474358632463 0.95391965591118966 0 0.85170973911348691 0.93569607295217616 0 0.90416666666660628 0.9041666666666166 0 0.95391631417670719 0.89584263333814784 0 0.94399509803919068 0.9439950980391687 0 0.90416666666660628 0.9041666666666166 0 0.94399509803919068 0.9439950980391687 0 0.89898474358632463 0.95391965591118966 0 0.90416666666660628 0.9041666666666166 0 0.93677536231884972 0.85000000000000286 0 0.95391631417670719 0.89584263333814784 0 1 0.84999999999982645 0 1 0.8999999999998336 0 0.95391631417670719 0.89584263333814784 0 1 0.8999999999998336 0 1 0.94999999999997109 0 0.97435614836744289 0.92499999999990257 0 1 0.8999999999998336 0 0.97435614836744289 0.92499999999990257 0 0.95391631417670719 0.89584263333814784 0 0.94399509803919068 0.9439950980391687 0 0.95391631417670719 0.89584263333814784 0 0.97435614836744289 0.92499999999990257 0 0.94399509803919068 0.9439950980391687 0 0.97435614836744289 0.92499999999990257 0 0.97166519676946206 0.96662885509935492 0 1 0.94999999999997109 0 0.97166519676946206 0.96662885509935492 0 0.97435614836744289 0.92499999999990257 0 1 1 0 0.97166519676946206 0.96662885509935492 0 1 0.94999999999997109 0 1 1 0 0.94999999999979179 1 0 0.97166519676946206 0.96662885509935492 0 0.94999999999979179 1 0 0.94399509803919068 0.9439950980391687 0 0.97166519676946206 0.96662885509935492 0 0.94999999999979179 1 0 0.89999999999958358 1 0 0.89898474358632463 0.95391965591118966 0 0.94999999999979179 1 0 0.89898474358632463 0.95391965591118966 0 0.94399509803919068 0.9439950980391687 0 0.89999999999958358 1 0 0.84999999999965292 1 0 0.89898474358632463 0.95391965591118966 0 0.86956835336234861 0.571283299838105 0 0.81723410853263523 0.59419663659258926 0 0.82862096804812391 0.55037090955459045 0 0.83758014339878906 0.63222013025741819 0 0.81723410853263523 0.59419663659258926 0 0.87159648282691515 0.61285406320581504 0 0.83758014339878906 0.63222013025741819 0 0.79884539758237771 0.62875045078114233 0 0.81723410853263523 0.59419663659258926 0 0.86956835336234861 0.571283299838105 0 0.87159648282691515 0.61285406320581504 0 0.81723410853263523 0.59419663659258926 0 0.86956835336234861 0.571283299838105 0 0.82862096804812391 0.55037090955459045 0 0.86907294890112186 0.52008116128001669 0 0.82862096804812391 0.55037090955459045 0 0.81441713509985358 0.51161854125224959 0 0.86907294890112186 0.52008116128001669 0 0.84723782639812573 0.48638347960178252 0 0.86907294890112186 0.52008116128001669 0 0.81441713509985358 0.51161854125224959 0 0.82862096804812391 0.55037090955459045 0 0.77151014687832564 0.54436834383023036 0 0.81441713509985358 0.51161854125224959 0 0.77846603114747959 0.49850927265137401 0 0.81441713509985358 0.51161854125224959 0 0.77151014687832564 0.54436834383023036 0 0.77846603114747959 0.49850927265137401 0 0.77151014687832564 0.54436834383023036 0 0.73947346780852752 0.49062440112282169 0 0.77293540622714185 0.59448302402785813 0 0.71809016091162536 0.58185040402320831 0 0.77151014687832564 0.54436834383023036 0 0.81723410853263523 0.59419663659258926 0 0.77293540622714185 0.59448302402785813 0 0.77151014687832564 0.54436834383023036 0 0.82862096804812391 0.55037090955459045 0 0.81723410853263523 0.59419663659258926 0 0.77151014687832564 0.54436834383023036 0 0.77293540622714185 0.59448302402785813 0 0.81723410853263523 0.59419663659258926 0 0.79884539758237771 0.62875045078114233 0 0.77293540622714185 0.59448302402785813 0 0.79884539758237771 0.62875045078114233 0 0.74994237037456724 0.62775548192980357 0 0.7750489929959945 0.66593931409600093 0 0.74994237037456724 0.62775548192980357 0 0.79884539758237771 0.62875045078114233 0 0.74999999999999989 0.69999999999999996 0 0.72500000000000064 0.67022701834392062 0 0.7750489929959945 0.66593931409600093 0 0.79999999999999982 0.69999999999999996 0 0.7750489929959945 0.66593931409600093 0 0.82457059160610424 0.66831947184359608 0 0.7750489929959945 0.66593931409600093 0 0.79884539758237771 0.62875045078114233 0 0.82457059160610424 0.66831947184359608 0 0.74999999999999989 0.69999999999999996 0 0.78578450296893509 0.73292684821144505 0 0.75841349681148107 0.75422312624214749 0 0.74999999999999989 0.69999999999999996 0 0.79999999999999982 0.69999999999999996 0 0.78578450296893509 0.73292684821144505 0 0.74999999999999989 0.69999999999999996 0 0.7750489929959945 0.66593931409600093 0 0.79999999999999982 0.69999999999999996 0 0.74999999999999989 0.69999999999999996 0 0.79999999999999982 0.69999999999999996 0 0.80185942888539485 0.77452061303608133 0 0.78578450296893509 0.73292684821144505 0 0.81864958914779962 0.73589050177899629 0 0.79999999999999982 0.69999999999999996 0 0.81864958914779962 0.73589050177899629 0 0.78578450296893509 0.73292684821144505 0 0.84999999999999987 0.69999999999999996 0 0.85491058998424563 0.76004753345552634 0 0.81864958914779962 0.73589050177899629 0 0.79999999999999982 0.69999999999999996 0 0.84999999999999987 0.69999999999999996 0 0.79999999999999982 0.69999999999999996 0 0.82457059160610424 0.66831947184359608 0 0.84999999999999987 0.69999999999999996 0 0.79999999999999982 0.69999999999999996 0 0.84999999999999987 0.69999999999999996 0 0.81864958914779962 0.73589050177899629 0 0.84999999999999987 0.69999999999999996 0 0.89999999999999991 0.69999999999999996 0 0.84999999999999987 0.69999999999999996 0 0.89999166460796554 0.74528934923809909 0 0.85491058998424563 0.76004753345552634 0 0.83758014339878906 0.63222013025741819 0 0.82457059160610424 0.66831947184359608 0 0.79884539758237771 0.62875045078114233 0 0.84999999999999987 0.69999999999999996 0 0.82457059160610424 0.66831947184359608 0 0.87712158428786946 0.65709029563313581 0 0.83758014339878906 0.63222013025741819 0 0.87159648282691515 0.61285406320581504 0 0.87712158428786946 0.65709029563313581 0 0.83758014339878906 0.63222013025741819 0 0.87712158428786946 0.65709029563313581 0 0.82457059160610424 0.66831947184359608 0 0.91750694127105259 0.63017627779935648 0 0.92057473616084773 0.66770436535372446 0 0.87712158428786946 0.65709029563313581 0 0.91750694127105259 0.63017627779935648 0 0.87712158428786946 0.65709029563313581 0 0.87159648282691515 0.61285406320581504 0 0.84999999999999987 0.69999999999999996 0 0.87712158428786946 0.65709029563313581 0 0.89999999999999991 0.69999999999999996 0 0.89999999999999991 0.69999999999999996 0 0.87712158428786946 0.65709029563313581 0 0.92057473616084773 0.66770436535372446 0 0.91750694127105259 0.63017627779935648 0 0.9578014258160763 0.65787212321113708 0 0.92057473616084773 0.66770436535372446 0 0.84999999999999987 0.69999999999999996 0 0.89999999999999991 0.69999999999999996 0 0.89999166460796554 0.74528934923809909 0 0.89999999999999991 0.69999999999999996 0 0.94999999999999996 0.69999999999999996 0 0.89999999999999991 0.69999999999999996 0 0.92057473616084773 0.66770436535372446 0 0.94999999999999996 0.69999999999999996 0 0.89999999999999991 0.69999999999999996 0 0.94999999999999996 0.69999999999999996 0 0.89999166460796554 0.74528934923809909 0 0.94999999999999996 0.69999999999999996 0 0.94399509803918602 0.75600490196082126 0 0.89999166460796554 0.74528934923809909 0 0.94999999999999996 0.69999999999999996 0 0.97166519676947294 0.73337114490064459 0 0.94399509803918602 0.75600490196082126 0 0.94999999999999996 0.69999999999999996 0 1 0.69999999999999996 0 1 0.69999999999999996 0 0.97166519676947294 0.73337114490064459 0 0.94999999999999996 0.69999999999999996 0 1 0.69999999999999996 0 1 0.74999999999993494 0 0.97166519676947294 0.73337114490064459 0 0.91750694127105259 0.63017627779935648 0 0.95867599106212187 0.60011091146651041 0 0.9578014258160763 0.65787212321113708 0 0.94999999999999996 0.69999999999999996 0 0.92057473616084773 0.66770436535372446 0 0.9578014258160763 0.65787212321113708 0 1 0.69999999999999996 0 0.94999999999999996 0.69999999999999996 0 0.9578014258160763 0.65787212321113708 0 1 0.69999999999999996 0 0.9578014258160763 0.65787212321113708 0 1 0.64999999999986979 0 1 0.64999999999986979 0 0.9578014258160763 0.65787212321113708 0 0.95867599106212187 0.60011091146651041 0 1 0.54999999999963112 0 0.95867599106212187 0.60011091146651041 0 0.93732437411268477 0.55911392101136159 0 1 0.59999999999973963 0 1 0.64999999999986979 0 0.95867599106212187 0.60011091146651041 0 1 0.54999999999963112 0 1 0.59999999999973963 0 0.95867599106212187 0.60011091146651041 0 0.91750694127105259 0.63017627779935648 0 0.91143117093204207 0.58709913730335972 0 0.95867599106212187 0.60011091146651041 0 0.93732437411268477 0.55911392101136159 0 0.95867599106212187 0.60011091146651041 0 0.91143117093204207 0.58709913730335972 0 0.86956835336234861 0.571283299838105 0 0.90900154012161016 0.53607784105648792 0 0.91143117093204207 0.58709913730335972 0 0.86956835336234861 0.571283299838105 0 0.91143117093204207 0.58709913730335972 0 0.87159648282691515 0.61285406320581504 0 0.91750694127105259 0.63017627779935648 0 0.87159648282691515 0.61285406320581504 0 0.91143117093204207 0.58709913730335972 0 0.91696753777131557 0.497780560203536 0 0.90900154012161016 0.53607784105648792 0 0.86907294890112186 0.52008116128001669 0 0.86956835336234861 0.571283299838105 0 0.86907294890112186 0.52008116128001669 0 0.90900154012161016 0.53607784105648792 0 0.93732437411268477 0.55911392101136159 0 0.90900154012161016 0.53607784105648792 0 0.95631871884947484 0.51827533208233789 0 0.93732437411268477 0.55911392101136159 0 0.91143117093204207 0.58709913730335972 0 0.90900154012161016 0.53607784105648792 0 0.91696753777131557 0.497780560203536 0 0.95631871884947484 0.51827533208233789 0 0.90900154012161016 0.53607784105648792 0 1 0.54999999999963112 0 0.93732437411268477 0.55911392101136159 0 0.95631871884947484 0.51827533208233789 0 1 0.49999999999950101 0 1 0.54999999999963112 0 0.95631871884947484 0.51827533208233789 0 1 0.49999999999950101 0 0.95631871884947484 0.51827533208233789 0 0.96228564064454991 0.48206450662049471 0 1 0.44999999999963131 0 1 0.49999999999950101 0 0.96228564064454991 0.48206450662049471 0 1 0.44999999999963131 0 0.96228564064454991 0.48206450662049471 0 0.93814194660195893 0.44426664081746747 0 0.91696753777131557 0.497780560203536 0 0.93814194660195893 0.44426664081746747 0 0.96228564064454991 0.48206450662049471 0 0.91696753777131557 0.497780560203536 0 0.96228564064454991 0.48206450662049471 0 0.95631871884947484 0.51827533208233789 0 1 0.34999999999993492 0 1 0.39999999999978308 0 0.95871855522754235 0.40006508612975411 0 1 0.39999999999978308 0 1 0.44999999999963131 0 0.95871855522754235 0.40006508612975411 0 1 0.44999999999963131 0 0.93814194660195893 0.44426664081746747 0 0.95871855522754235 0.40006508612975411 0 0.91750694127107502 0.36982372220068471 0 0.95871855522754235 0.40006508612975411 0 0.90594285160987287 0.4141265964174129 0 0.93814194660195893 0.44426664081746747 0 0.90594285160987287 0.4141265964174129 0 0.95871855522754235 0.40006508612975411 0 0.90594285160987287 0.4141265964174129 0 0.88594198078881503 0.46167788676578442 0 0.86411095495256451 0.42388805655111889 0 0.86411095495256451 0.42388805655111889 0 0.86844634540301924 0.38530937474099819 0 0.90594285160987287 0.4141265964174129 0 0.91750694127107502 0.36982372220068471 0 0.90594285160987287 0.4141265964174129 0 0.86844634540301924 0.38530937474099819 0 0.91696753777131557 0.497780560203536 0 0.88594198078881503 0.46167788676578442 0 0.93814194660195893 0.44426664081746747 0 0.93814194660195893 0.44426664081746747 0 0.88594198078881503 0.46167788676578442 0 0.90594285160987287 0.4141265964174129 0 0.91696753777131557 0.497780560203536 0 0.86907294890112186 0.52008116128001669 0 0.88594198078881503 0.46167788676578442 0 0.84723782639812573 0.48638347960178252 0 0.88594198078881503 0.46167788676578442 0 0.86907294890112186 0.52008116128001669 0 0.84723782639812573 0.48638347960178252 0 0.81441713509985358 0.51161854125224959 0 0.81400510706333218 0.47357325943904899 0 0.84723782639812573 0.48638347960178252 0 0.81400510706333218 0.47357325943904899 0 0.84925632466077294 0.45359738909549091 0 0.81973119833356312 0.43505687159469048 0 0.84925632466077294 0.45359738909549091 0 0.81400510706333218 0.47357325943904899 0 0.84723782639812573 0.48638347960178252 0 0.84925632466077294 0.45359738909549091 0 0.88594198078881503 0.46167788676578442 0 0.86411095495256451 0.42388805655111889 0 0.84925632466077294 0.45359738909549091 0 0.81973119833356312 0.43505687159469048 0 0.86411095495256451 0.42388805655111889 0 0.88594198078881503 0.46167788676578442 0 0.84925632466077294 0.45359738909549091 0 0.86411095495256451 0.42388805655111889 0 0.81308179852519835 0.39754945808726527 0 0.86844634540301924 0.38530937474099819 0 0.83573492347052902 0.36590755630746369 0 0.86844634540301924 0.38530937474099819 0 0.81308179852519835 0.39754945808726527 0 0.86411095495256451 0.42388805655111889 0 0.81973119833356312 0.43505687159469048 0 0.81308179852519835 0.39754945808726527 0 0.77354604466818633 0.40378688774472771 0 0.81973119833356312 0.43505687159469048 0 0.77972660463949339 0.45529290596363098 0 0.77354604466818633 0.40378688774472771 0 0.81308179852519835 0.39754945808726527 0 0.81973119833356312 0.43505687159469048 0 0.77354604466818633 0.40378688774472771 0 0.78145581580700685 0.34881365920033602 0 0.81308179852519835 0.39754945808726527 0 0.77354604466818633 0.40378688774472771 0 0.77972660463949339 0.45529290596363098 0 0.73483647259922602 0.44789725365921768 0 0.73483647259922602 0.44789725365921768 0 0.77972660463949339 0.45529290596363098 0 0.73947346780852752 0.49062440112282169 0 0.77846603114747959 0.49850927265137401 0 0.73947346780852752 0.49062440112282169 0 0.77972660463949339 0.45529290596363098 0 0.77846603114747959 0.49850927265137401 0 0.77972660463949339 0.45529290596363098 0 0.81400510706333218 0.47357325943904899 0 0.77846603114747959 0.49850927265137401 0 0.81400510706333218 0.47357325943904899 0 0.81441713509985358 0.51161854125224959 0 0.81973119833356312 0.43505687159469048 0 0.81400510706333218 0.47357325943904899 0 0.77972660463949339 0.45529290596363098 0 0.79999999999999982 0.29999999999999999 0 0.77075983436335049 0.25919399014334171 0 0.81486180804364938 0.26321394949780091 0 0.74999999999999989 0.29999999999999999 0 0.79999999999999982 0.29999999999999999 0 0.74999999999999989 0.29999999999999999 0 0.77075983436335049 0.25919399014334171 0 0.79999999999999982 0.29999999999999999 0 0.74999999999999989 0.29999999999999999 0 0.79999999999999982 0.29999999999999999 0 0.78145581580700685 0.34881365920033602 0 0.74999999999999989 0.29999999999999999 0 0.78145581580700685 0.34881365920033602 0 0.73090396928863699 0.33699297293167962 0 0.77354604466818633 0.40378688774472771 0 0.74764719760526988 0.3719647154012321 0 0.78145581580700685 0.34881365920033602 0 0.78145581580700685 0.34881365920033602 0 0.74764719760526988 0.3719647154012321 0 0.73090396928863699 0.33699297293167962 0 0.83573492347052902 0.36590755630746369 0 0.81308179852519835 0.39754945808726527 0 0.78145581580700685 0.34881365920033602 0 0.79999999999999982 0.29999999999999999 0 0.82500000000000062 0.33010209762754811 0 0.78145581580700685 0.34881365920033602 0 0.83573492347052902 0.36590755630746369 0 0.78145581580700685 0.34881365920033602 0 0.82500000000000062 0.33010209762754811 0 0.83573492347052902 0.36590755630746369 0 0.82500000000000062 0.33010209762754811 0 0.87430060258887643 0.34056085888204451 0 0.83573492347052902 0.36590755630746369 0 0.87430060258887643 0.34056085888204451 0 0.86844634540301924 0.38530937474099819 0 0.84999999999999987 0.29999999999999999 0 0.87430060258887643 0.34056085888204451 0 0.82500000000000062 0.33010209762754811 0 0.84999999999999987 0.29999999999999999 0 0.89999999999999991 0.29999999999999999 0 0.87430060258887643 0.34056085888204451 0 0.84999999999999987 0.29999999999999999 0 0.81486180804364938 0.26321394949780091 0 0.8517097391133297 0.2356960729520409 0 0.84999999999999987 0.29999999999999999 0 0.8517097391133297 0.2356960729520409 0 0.89898474358614167 0.25391965591104898 0 0.84999999999999987 0.29999999999999999 0 0.89999999999999991 0.29999999999999999 0 0.79999999999999982 0.29999999999999999 0 0.84999999999999987 0.29999999999999999 0 0.82500000000000062 0.33010209762754811 0 0.79999999999999982 0.29999999999999999 0 0.81486180804364938 0.26321394949780091 0 0.84999999999999987 0.29999999999999999 0 0.79999999999999982 0.29999999999999999 0 0.84999999999999987 0.29999999999999999 0 0.84999999999999987 0.29999999999999999 0 0.89898474358614167 0.25391965591104898 0 0.89999999999999991 0.29999999999999999 0 0.89999999999999991 0.29999999999999999 0 0.94999999999999996 0.29999999999999999 0 0.89999999999999991 0.29999999999999999 0 0.94999999999999996 0.29999999999999999 0 0.92012390126144183 0.33123581297173937 0 0.89999999999999991 0.29999999999999999 0 0.89898474358614167 0.25391965591104898 0 0.94999999999999996 0.29999999999999999 0 0.94999999999999996 0.29999999999999999 0 0.89898474358614167 0.25391965591104898 0 0.94399509803921056 0.24399509803922639 0 0.91750694127107502 0.36982372220068471 0 0.86844634540301924 0.38530937474099819 0 0.87430060258887643 0.34056085888204451 0 0.91750694127107502 0.36982372220068471 0 0.87430060258887643 0.34056085888204451 0 0.92012390126144183 0.33123581297173937 0 0.89999999999999991 0.29999999999999999 0 0.92012390126144183 0.33123581297173937 0 0.87430060258887643 0.34056085888204451 0 0.91750694127107502 0.36982372220068471 0 0.92012390126144183 0.33123581297173937 0 0.95780851984364423 0.34215720972155339 0 0.91750694127107502 0.36982372220068471 0 0.95780851984364423 0.34215720972155339 0 0.95871855522754235 0.40006508612975411 0 0.94999999999999996 0.29999999999999999 0 0.95780851984364423 0.34215720972155339 0 0.92012390126144183 0.33123581297173937 0 1 0.29999999999999999 0 0.95780851984364423 0.34215720972155339 0 0.94999999999999996 0.29999999999999999 0 1 0.29999999999999999 0 1 0.34999999999993492 0 0.95780851984364423 0.34215720972155339 0 1 0.34999999999993492 0 0.95871855522754235 0.40006508612975411 0 0.95780851984364423 0.34215720972155339 0 0.94999999999999996 0.29999999999999999 0 0.94399509803921056 0.24399509803922639 0 0.97166519676951801 0.26662885509932011 0 0.94999999999999996 0.29999999999999999 0 1 0.29999999999999999 0 1 0.29999999999999999 0 0.94999999999999996 0.29999999999999999 0 0.97166519676951801 0.26662885509932011 0 1 0.29999999999999999 0 0.97166519676951801 0.26662885509932011 0 1 0.24999999999987299 0 1 0.24999999999987299 0 0.97166519676951801 0.26662885509932011 0 0.97435614836740092 0.22499999999981049 0 1 0.19999999999974799 0 1 0.24999999999987299 0 0.97435614836740092 0.22499999999981049 0 0.94399509803921056 0.24399509803922639 0 0.95391631417672862 0.19584263333809451 0 0.97435614836740092 0.22499999999981049 0 0.94399509803921056 0.24399509803922639 0 0.97435614836740092 0.22499999999981049 0 0.97166519676951801 0.26662885509932011 0 1 0.19999999999974799 0 0.97435614836740092 0.22499999999981049 0 0.95391631417672862 0.19584263333809451 0 1 0.14999999999961891 0 0.95391631417672862 0.19584263333809451 0 0.93677536231883773 0.14999999999999089 0 1 0.14999999999961891 0 0.93677536231883773 0.14999999999999089 0 0.95386563387744361 0.1041487415577465 0 1 0.14999999999961891 0 1 0.19999999999974799 0 0.95391631417672862 0.19584263333809451 0 0.90416666666668166 0.20416666666667119 0 0.93677536231883773 0.14999999999999089 0 0.95391631417672862 0.19584263333809451 0 0.90416666666668166 0.20416666666667119 0 0.88088768115941807 0.14674609810479519 0 0.93677536231883773 0.14999999999999089 0 0.90299850604006393 0.09563452813493091 0 0.93677536231883773 0.14999999999999089 0 0.88088768115941807 0.14674609810479519 0 0.90416666666668166 0.20416666666667119 0 0.85600844944842547 0.1848341897950983 0 0.88088768115941807 0.14674609810479519 0 0.90416666666668166 0.20416666666667119 0 0.89898474358614167 0.25391965591104898 0 0.8517097391133297 0.2356960729520409 0 0.90416666666668166 0.20416666666667119 0 0.94399509803921056 0.24399509803922639 0 0.89898474358614167 0.25391965591104898 0 0.90416666666668166 0.20416666666667119 0 0.95391631417672862 0.19584263333809451 0 0.94399509803921056 0.24399509803922639 0 0.94999999999986839 0 0 0.97166519676946894 0.033371144900598393 0 0.94399509803922566 0.056004901960802607 0 1 0 0 0.97166519676946894 0.033371144900598393 0 0.94999999999986839 0 0 1 0 0 1 0.049999999999896842 0 0.97166519676946894 0.033371144900598393 0 1 0.049999999999896842 0 0.97435614836748241 0.074999999999825387 0 0.97166519676946894 0.033371144900598393 0 0.94399509803922566 0.056004901960802607 0 0.97166519676946894 0.033371144900598393 0 0.97435614836748241 0.074999999999825387 0 0.94399509803922566 0.056004901960802607 0 0.97435614836748241 0.074999999999825387 0 0.95386563387744361 0.1041487415577465 0 1 0.099999999999753911 0 0.95386563387744361 0.1041487415577465 0 0.97435614836748241 0.074999999999825387 0 1 0.049999999999896842 0 1 0.099999999999753911 0 0.97435614836748241 0.074999999999825387 0 1 0.099999999999753911 0 1 0.14999999999961891 0 0.95386563387744361 0.1041487415577465 0 0.90299850604006393 0.09563452813493091 0 0.95386563387744361 0.1041487415577465 0 0.93677536231883773 0.14999999999999089 0 0.90299850604006393 0.09563452813493091 0 0.88088768115941807 0.14674609810479519 0 0.84725310900442086 0.10779732082922661 0 0.90299850604006393 0.09563452813493091 0 0.85491058998398861 0.060047533455626502 0 0.899991664607802 0.045289349238254978 0 0.90299850604006393 0.09563452813493091 0 0.94399509803922566 0.056004901960802607 0 0.95386563387744361 0.1041487415577465 0 0.90299850604006393 0.09563452813493091 0 0.899991664607802 0.045289349238254978 0 0.94399509803922566 0.056004901960802607 0 0.94999999999986839 0 0 0.94399509803922566 0.056004901960802607 0 0.899991664607802 0.045289349238254978 0 0.84999999999960507 0 0 0.89999999999973679 0 0 0.899991664607802 0.045289349238254978 0 0.89999999999973679 0 0 0.94999999999986839 0 0 0.899991664607802 0.045289349238254978 0 0.79999999999947335 0 0 0.84999999999960507 0 0 0.81864958914740749 0.035890501779055867 0 0.84999999999960507 0 0 0.899991664607802 0.045289349238254978 0 0.85491058998398861 0.060047533455626502 0 0.80185942888501827 0.074520613036224564 0 0.81864958914740749 0.035890501779055867 0 0.85491058998398861 0.060047533455626502 0 0.84999999999960507 0 0 0.85491058998398861 0.060047533455626502 0 0.81864958914740749 0.035890501779055867 0 0.80185942888501827 0.074520613036224564 0 0.85491058998398861 0.060047533455626502 0 0.84725310900442086 0.10779732082922661 0 0.90299850604006393 0.09563452813493091 0 0.84725310900442086 0.10779732082922661 0 0.85491058998398861 0.060047533455626502 0 0.80185942888501827 0.074520613036224564 0 0.84725310900442086 0.10779732082922661 0 0.80076557130237269 0.1154587552654202 0 0.82709327591102189 0.14937141670914489 0 0.80076557130237269 0.1154587552654202 0 0.84725310900442086 0.10779732082922661 0 0.80185942888501827 0.074520613036224564 0 0.80076557130237269 0.1154587552654202 0 0.76878382444651716 0.097147941686331368 0 0.72525833953073282 0.1032114801687094 0 0.76878382444651716 0.097147941686331368 0 0.77144070960558853 0.14311854477243749 0 0.77144070960558853 0.14311854477243749 0 0.76878382444651716 0.097147941686331368 0 0.80076557130237269 0.1154587552654202 0 0.80185942888501827 0.074520613036224564 0 0.76878382444651716 0.097147941686331368 0 0.7527966693318906 0.053051678021508272 0 0.80185942888501827 0.074520613036224564 0 0.78393852574753176 0.032039079577822822 0 0.81864958914740749 0.035890501779055867 0 0.80185942888501827 0.074520613036224564 0 0.7527966693318906 0.053051678021508272 0 0.78393852574753176 0.032039079577822822 0 0.74999999999934175 0 0 0.78393852574753176 0.032039079577822822 0 0.7527966693318906 0.053051678021508272 0 0.74999999999934175 0 0 0.79999999999947335 0 0 0.78393852574753176 0.032039079577822822 0 0.79999999999947335 0 0 0.81864958914740749 0.035890501779055867 0 0.78393852574753176 0.032039079577822822 0 0.79680861578956375 0.22656778056752541 0 0.81283102246527783 0.1881007222486438 0 0.8517097391133297 0.2356960729520409 0 0.8517097391133297 0.2356960729520409 0 0.81283102246527783 0.1881007222486438 0 0.85600844944842547 0.1848341897950983 0 0.79680861578956375 0.22656778056752541 0 0.8517097391133297 0.2356960729520409 0 0.81486180804364938 0.26321394949780091 0 0.90416666666668166 0.20416666666667119 0 0.8517097391133297 0.2356960729520409 0 0.85600844944842547 0.1848341897950983 0 0.82709327591102189 0.14937141670914489 0 0.88088768115941807 0.14674609810479519 0 0.85600844944842547 0.1848341897950983 0 0.82709327591102189 0.14937141670914489 0 0.84725310900442086 0.10779732082922661 0 0.88088768115941807 0.14674609810479519 0 0.82709327591102189 0.14937141670914489 0 0.85600844944842547 0.1848341897950983 0 0.81283102246527783 0.1881007222486438 0 0.77144070960558853 0.14311854477243749 0 0.81283102246527783 0.1881007222486438 0 0.76587607630038135 0.18880039518954719 0 0.82709327591102189 0.14937141670914489 0 0.81283102246527783 0.1881007222486438 0 0.77144070960558853 0.14311854477243749 0 0.82709327591102189 0.14937141670914489 0 0.77144070960558853 0.14311854477243749 0 0.80076557130237269 0.1154587552654202 0 0.77144070960558853 0.14311854477243749 0 0.76587607630038135 0.18880039518954719 0 0.72634814642510737 0.16106886917518889 0 0.79680861578956375 0.22656778056752541 0 0.75668890529066124 0.2244279804069782 0 0.76587607630038135 0.18880039518954719 0 0.79680861578956375 0.22656778056752541 0 0.76587607630038135 0.18880039518954719 0 0.81283102246527783 0.1881007222486438 0 0.79680861578956375 0.22656778056752541 0 0.81486180804364938 0.26321394949780091 0 0.77075983436335049 0.25919399014334171 0 0.79680861578956375 0.22656778056752541 0 0.77075983436335049 0.25919399014334171 0 0.75668890529066124 0.2244279804069782 0 0.72500000000000064 0.2498161764706 0 0.75668890529066124 0.2244279804069782 0 0.77075983436335049 0.25919399014334171 0 0.72500000000001008 0.19776155966387679 0 0.75668890529066124 0.2244279804069782 0 0.72500000000000064 0.2498161764706 0 0.72500000000001008 0.19776155966387679 0 0.72500000000000064 0.2498161764706 0 0.69397719155551807 0.2245125647000914 0 0.72500000000000064 0.2498161764706 0 0.67933712972090698 0.25920070958121938 0 0.69397719155551807 0.2245125647000914 0 0.72500000000001008 0.19776155966387679 0 0.69397719155551807 0.2245125647000914 0 0.6865991819015953 0.189116534044597 0 0.72500000000001008 0.19776155966387679 0 0.76587607630038135 0.18880039518954719 0 0.75668890529066124 0.2244279804069782 0 0.72500000000001008 0.19776155966387679 0 0.72634814642510737 0.16106886917518889 0 0.76587607630038135 0.18880039518954719 0 0.72525833953073282 0.1032114801687094 0 0.77144070960558853 0.14311854477243749 0 0.72634814642510737 0.16106886917518889 0 0.72525833953073282 0.1032114801687094 0 0.72634814642510737 0.16106886917518889 0 0.68391457121233579 0.14440470121196541 0 0.72500000000001008 0.19776155966387679 0 0.6865991819015953 0.189116534044597 0 0.72634814642510737 0.16106886917518889 0 0.68391457121233579 0.14440470121196541 0 0.72634814642510737 0.16106886917518889 0 0.6865991819015953 0.189116534044597 0 0.68391457121233579 0.14440470121196541 0 0.6865991819015953 0.189116534044597 0 0.64011864159029941 0.18789607982138171 0 0.6236733212988993 0.14864538214901801 0 0.65290632656860115 0.11434202593454081 0 0.68391457121233579 0.14440470121196541 0 0.6236733212988993 0.14864538214901801 0 0.68391457121233579 0.14440470121196541 0 0.64011864159029941 0.18789607982138171 0 0.65394964615507722 0.22666784374016369 0 0.59814117807200873 0.23398510860739519 0 0.64011864159029941 0.18789607982138171 0 0.65394964615507722 0.22666784374016369 0 0.62657463266645097 0.26524202571255862 0 0.59814117807200873 0.23398510860739519 0 0.65394964615507722 0.22666784374016369 0 0.69397719155551807 0.2245125647000914 0 0.67933712972090698 0.25920070958121938 0 0.65394964615507722 0.22666784374016369 0 0.64011864159029941 0.18789607982138171 0 0.6865991819015953 0.189116534044597 0 0.65394964615507722 0.22666784374016369 0 0.6865991819015953 0.189116534044597 0 0.69397719155551807 0.2245125647000914 0 0.69999999999921003 0 0 0.72683645290270404 0.027797073151180601 0 0.7010294155333181 0.056779085686491267 0 0.69999999999921003 0 0 0.7010294155333181 0.056779085686491267 0 0.66369801598854572 0.036327466368102787 0 0.74999999999934175 0 0 0.7527966693318906 0.053051678021508272 0 0.72683645290270404 0.027797073151180601 0 0.69999999999921003 0 0 0.74999999999934175 0 0 0.72683645290270404 0.027797073151180601 0 0.7527966693318906 0.053051678021508272 0 0.7010294155333181 0.056779085686491267 0 0.72683645290270404 0.027797073151180601 0 0.72525833953073282 0.1032114801687094 0 0.68330259535470161 0.10038702501083881 0 0.7010294155333181 0.056779085686491267 0 0.72525833953073282 0.1032114801687094 0 0.7010294155333181 0.056779085686491267 0 0.7527966693318906 0.053051678021508272 0 0.72525833953073282 0.1032114801687094 0 0.7527966693318906 0.053051678021508272 0 0.76878382444651716 0.097147941686331368 0 0.72525833953073282 0.1032114801687094 0 0.68391457121233579 0.14440470121196541 0 0.68330259535470161 0.10038702501083881 0 0.65408113592120842 0.073941773121567966 0 0.68330259535470161 0.10038702501083881 0 0.65290632656860115 0.11434202593454081 0 0.68391457121233579 0.14440470121196541 0 0.65290632656860115 0.11434202593454081 0 0.68330259535470161 0.10038702501083881 0 0.6236733212988993 0.14864538214901801 0 0.61956000905586006 0.1043312481793135 0 0.65290632656860115 0.11434202593454081 0 0.65408113592120842 0.073941773121567966 0 0.65290632656860115 0.11434202593454081 0 0.61956000905586006 0.1043312481793135 0 0.65408113592120842 0.073941773121567966 0 0.61956000905586006 0.1043312481793135 0 0.61940220174112337 0.047251958781050582 0 0.65408113592120842 0.073941773121567966 0 0.7010294155333181 0.056779085686491267 0 0.68330259535470161 0.10038702501083881 0 0.65408113592120842 0.073941773121567966 0 0.66369801598854572 0.036327466368102787 0 0.7010294155333181 0.056779085686491267 0 0.65408113592120842 0.073941773121567966 0 0.61940220174112337 0.047251958781050582 0 0.66369801598854572 0.036327466368102787 0 0.64999999999907843 0 0 0.66369801598854572 0.036327466368102787 0 0.61940220174112337 0.047251958781050582 0 0.64999999999907843 0 0 0.69999999999921003 0 0 0.66369801598854572 0.036327466368102787 0 0.5499999999988151 0 0 0.59999999999894682 0 0 0.57396793757665954 0.037011367187645222 0 0.59999999999894682 0 0 0.64999999999907843 0 0 0.61940220174112337 0.047251958781050582 0 0.59999999999894682 0 0 0.61940220174112337 0.047251958781050582 0 0.57396793757665954 0.037011367187645222 0 0.57667858002728545 0.078486105337742612 0 0.57396793757665954 0.037011367187645222 0 0.61940220174112337 0.047251958781050582 0 0.57667858002728545 0.078486105337742612 0 0.61940220174112337 0.047251958781050582 0 0.61956000905586006 0.1043312481793135 0 0.6236733212988993 0.14864538214901801 0 0.58516465772821369 0.11653801664834119 0 0.61956000905586006 0.1043312481793135 0 0.57667858002728545 0.078486105337742612 0 0.61956000905586006 0.1043312481793135 0 0.58516465772821369 0.11653801664834119 0 0.56202748619534593 0.15054058349222879 0 0.54979595918804436 0.1060565713905809 0 0.58516465772821369 0.11653801664834119 0 0.57667858002728545 0.078486105337742612 0 0.58516465772821369 0.11653801664834119 0 0.54979595918804436 0.1060565713905809 0 0.51076801031701946 0.1202837388510348 0 0.52375890611712683 0.059318771819432882 0 0.54979595918804436 0.1060565713905809 0 0.51076801031701946 0.1202837388510348 0 0.47881186583059909 0.093591717165689425 0 0.52375890611712683 0.059318771819432882 0 0.57667858002728545 0.078486105337742612 0 0.54979595918804436 0.1060565713905809 0 0.52375890611712683 0.059318771819432882 0 0.5499999999988151 0 0 0.57396793757665954 0.037011367187645222 0 0.52375890611712683 0.059318771819432882 0 0.57667858002728545 0.078486105337742612 0 0.52375890611712683 0.059318771819432882 0 0.57396793757665954 0.037011367187645222 0 0.49999999999869432 0 0 0.5499999999988151 0 0 0.52375890611712683 0.059318771819432882 0 0.55306006949600994 0.20198184231352201 0 0.59443395090188023 0.18455690917515069 0 0.59814117807200873 0.23398510860739519 0 0.55306006949600994 0.20198184231352201 0 0.59814117807200873 0.23398510860739519 0 0.54248833945060504 0.2520322959927106 0 0.59814117807200873 0.23398510860739519 0 0.59443395090188023 0.18455690917515069 0 0.64011864159029941 0.18789607982138171 0 0.6236733212988993 0.14864538214901801 0 0.64011864159029941 0.18789607982138171 0 0.59443395090188023 0.18455690917515069 0 0.6236733212988993 0.14864538214901801 0 0.56202748619534593 0.15054058349222879 0 0.58516465772821369 0.11653801664834119 0 0.6236733212988993 0.14864538214901801 0 0.59443395090188023 0.18455690917515069 0 0.56202748619534593 0.15054058349222879 0 0.55306006949600994 0.20198184231352201 0 0.56202748619534593 0.15054058349222879 0 0.59443395090188023 0.18455690917515069 0 0.55306006949600994 0.20198184231352201 0 0.51729576145820033 0.1683240575987815 0 0.56202748619534593 0.15054058349222879 0 0.51076801031701946 0.1202837388510348 0 0.54979595918804436 0.1060565713905809 0 0.56202748619534593 0.15054058349222879 0 0.51076801031701946 0.1202837388510348 0 0.51729576145820033 0.1683240575987815 0 0.48466639505193998 0.1421439844745814 0 0.51076801031701946 0.1202837388510348 0 0.56202748619534593 0.15054058349222879 0 0.51729576145820033 0.1683240575987815 0 0.55306006949600994 0.20198184231352201 0 0.50760557329222289 0.20700468884612061 0 0.51729576145820033 0.1683240575987815 0 0.50760557329222289 0.20700468884612061 0 0.55306006949600994 0.20198184231352201 0 0.54248833945060504 0.2520322959927106 0 0.49695729691142171 0.25014895411178018 0 0.50760557329222289 0.20700468884612061 0 0.54248833945060504 0.2520322959927106 0 0.5 0.29999999999999999 0 0.49695729691142171 0.25014895411178018 0 0.54248833945060504 0.2520322959927106 0 0.5 0.29999999999999999 0 0.54999999999999993 0.29999999999999999 0 0.52752007115234678 0.33170632466418198 0 0.5 0.29999999999999999 0 0.54248833945060504 0.2520322959927106 0 0.54999999999999993 0.29999999999999999 0 0.5 0.29999999999999999 0 0.54999999999999993 0.29999999999999999 0 0.54999999999999993 0.29999999999999999 0 0.54248833945060504 0.2520322959927106 0 0.5794309697024993 0.27124795968204829 0 0.59814117807200873 0.23398510860739519 0 0.5794309697024993 0.27124795968204829 0 0.54248833945060504 0.2520322959927106 0 0.54999999999999993 0.29999999999999999 0 0.59999999999999976 0.29999999999999999 0 0.54999999999999993 0.29999999999999999 0 0.5794309697024993 0.27124795968204829 0 0.59999999999999976 0.29999999999999999 0 0.59999999999999976 0.29999999999999999 0 0.6499999999999998 0.29999999999999999 0 0.59999999999999976 0.29999999999999999 0 0.5794309697024993 0.27124795968204829 0 0.62657463266645097 0.26524202571255862 0 0.59814117807200873 0.23398510860739519 0 0.62657463266645097 0.26524202571255862 0 0.5794309697024993 0.27124795968204829 0 0.6084546825910605 0.37989672713932537 0 0.56836770495988642 0.3523062350852913 0 0.61959173890754571 0.33832250091341232 0 0.59999999999999976 0.29999999999999999 0 0.6499999999999998 0.29999999999999999 0 0.61959173890754571 0.33832250091341232 0 0.59999999999999976 0.29999999999999999 0 0.61959173890754571 0.33832250091341232 0 0.56836770495988642 0.3523062350852913 0 0.54999999999999993 0.29999999999999999 0 0.59999999999999976 0.29999999999999999 0 0.56836770495988642 0.3523062350852913 0 0.56836770495988642 0.3523062350852913 0 0.52289427570932567 0.3932284363388488 0 0.52752007115234678 0.33170632466418198 0 0.54999999999999993 0.29999999999999999 0 0.56836770495988642 0.3523062350852913 0 0.52752007115234678 0.33170632466418198 0 0.5 0.29999999999999999 0 0.52752007115234678 0.33170632466418198 0 0.49077833859261139 0.35229981449445641 0 0.52752007115234678 0.33170632466418198 0 0.52289427570932567 0.3932284363388488 0 0.49077833859261139 0.35229981449445641 0 0.52289427570932567 0.3932284363388488 0 0.56836770495988642 0.3523062350852913 0 0.57744073070774993 0.41535148636609359 0 0.52289427570932567 0.3932284363388488 0 0.57744073070774993 0.41535148636609359 0 0.53823865529665704 0.45873898050322898 0 0.52289427570932567 0.3932284363388488 0 0.53823865529665704 0.45873898050322898 0 0.48858720058566618 0.43964267759203868 0 0.49102375406324739 0.49123754822244059 0 0.53823865529665704 0.45873898050322898 0 0.53330375813596242 0.50827942741749099 0 0.49102375406324739 0.49123754822244059 0 0.48858720058566618 0.43964267759203868 0 0.53823865529665704 0.45873898050322898 0 0.57611405284611883 0.50165903596042916 0 0.53330375813596242 0.50827942741749099 0 0.53823865529665704 0.45873898050322898 0 0.57611405284611883 0.50165903596042916 0 0.57975577671020095 0.46172033326338591 0 0.61547661924074692 0.48539576058873962 0 0.57611405284611883 0.50165903596042916 0 0.53823865529665704 0.45873898050322898 0 0.57975577671020095 0.46172033326338591 0 0.61209567303293111 0.44669033081290321 0 0.57975577671020095 0.46172033326338591 0 0.57744073070774993 0.41535148636609359 0 0.53823865529665704 0.45873898050322898 0 0.57744073070774993 0.41535148636609359 0 0.57975577671020095 0.46172033326338591 0 0.61209567303293111 0.44669033081290321 0 0.61547661924074692 0.48539576058873962 0 0.57975577671020095 0.46172033326338591 0 0.6084546825910605 0.37989672713932537 0 0.57744073070774993 0.41535148636609359 0 0.56836770495988642 0.3523062350852913 0 0.61209567303293111 0.44669033081290321 0 0.57744073070774993 0.41535148636609359 0 0.63912439215427275 0.41063340167983359 0 0.6084546825910605 0.37989672713932537 0 0.63912439215427275 0.41063340167983359 0 0.57744073070774993 0.41535148636609359 0 0.6084546825910605 0.37989672713932537 0 0.65481233915350323 0.35652751921065562 0 0.63912439215427275 0.41063340167983359 0 0.6879972333610942 0.43038561374960838 0 0.65178832218679827 0.45929119821019959 0 0.63912439215427275 0.41063340167983359 0 0.6879972333610942 0.43038561374960838 0 0.63912439215427275 0.41063340167983359 0 0.68128176404677243 0.38629093627004979 0 0.65481233915350323 0.35652751921065562 0 0.68128176404677243 0.38629093627004979 0 0.63912439215427275 0.41063340167983359 0 0.6541250972820879 0.49999999999999989 0 0.61547661924074692 0.48539576058873962 0 0.65178832218679827 0.45929119821019959 0 0.61209567303293111 0.44669033081290321 0 0.65178832218679827 0.45929119821019959 0 0.61547661924074692 0.48539576058873962 0 0.61209567303293111 0.44669033081290321 0 0.63912439215427275 0.41063340167983359 0 0.65178832218679827 0.45929119821019959 0 0.6879972333610942 0.43038561374960838 0 0.69385896817107129 0.48377516041410151 0 0.65178832218679827 0.45929119821019959 0 0.6541250972820879 0.49999999999999989 0 0.65178832218679827 0.45929119821019959 0 0.69385896817107129 0.48377516041410151 0 0.7152569930854884 0.5237994455134295 0 0.69385896817107129 0.48377516041410151 0 0.73947346780852752 0.49062440112282169 0 0.6879972333610942 0.43038561374960838 0 0.73483647259922602 0.44789725365921768 0 0.69385896817107129 0.48377516041410151 0 0.73483647259922602 0.44789725365921768 0 0.73947346780852752 0.49062440112282169 0 0.69385896817107129 0.48377516041410151 0 0.71508799138962864 0.36622814920737751 0 0.72622533758026719 0.40265885511101601 0 0.68128176404677243 0.38629093627004979 0 0.6879972333610942 0.43038561374960838 0 0.72622533758026719 0.40265885511101601 0 0.73483647259922602 0.44789725365921768 0 0.6879972333610942 0.43038561374960838 0 0.68128176404677243 0.38629093627004979 0 0.72622533758026719 0.40265885511101601 0 0.77354604466818633 0.40378688774472771 0 0.73483647259922602 0.44789725365921768 0 0.72622533758026719 0.40265885511101601 0 0.71508799138962864 0.36622814920737751 0 0.74764719760526988 0.3719647154012321 0 0.72622533758026719 0.40265885511101601 0 0.77354604466818633 0.40378688774472771 0 0.72622533758026719 0.40265885511101601 0 0.74764719760526988 0.3719647154012321 0 0.71508799138962864 0.36622814920737751 0 0.73090396928863699 0.33699297293167962 0 0.74764719760526988 0.3719647154012321 0 0.71508799138962864 0.36622814920737751 0 0.68887083591306764 0.33632058575757479 0 0.73090396928863699 0.33699297293167962 0 0.71508799138962864 0.36622814920737751 0 0.68128176404677243 0.38629093627004979 0 0.68887083591306764 0.33632058575757479 0 0.69999999999999984 0.29999999999999999 0 0.73090396928863699 0.33699297293167962 0 0.68887083591306764 0.33632058575757479 0 0.69999999999999984 0.29999999999999999 0 0.72500000000000064 0.2498161764706 0 0.74999999999999989 0.29999999999999999 0 0.69999999999999984 0.29999999999999999 0 0.74999999999999989 0.29999999999999999 0 0.69999999999999984 0.29999999999999999 0 0.74999999999999989 0.29999999999999999 0 0.73090396928863699 0.33699297293167962 0 0.74999999999999989 0.29999999999999999 0 0.72500000000000064 0.2498161764706 0 0.77075983436335049 0.25919399014334171 0 0.69999999999999984 0.29999999999999999 0 0.67933712972090698 0.25920070958121938 0 0.72500000000000064 0.2498161764706 0 0.6499999999999998 0.29999999999999999 0 0.67933712972090698 0.25920070958121938 0 0.69999999999999984 0.29999999999999999 0 0.6499999999999998 0.29999999999999999 0 0.69999999999999984 0.29999999999999999 0 0.68887083591306764 0.33632058575757479 0 0.6499999999999998 0.29999999999999999 0 0.69999999999999984 0.29999999999999999 0 0.6499999999999998 0.29999999999999999 0 0.62657463266645097 0.26524202571255862 0 0.67933712972090698 0.25920070958121938 0 0.65394964615507722 0.22666784374016369 0 0.67933712972090698 0.25920070958121938 0 0.62657463266645097 0.26524202571255862 0 0.59999999999999976 0.29999999999999999 0 0.62657463266645097 0.26524202571255862 0 0.6499999999999998 0.29999999999999999 0 0.6499999999999998 0.29999999999999999 0 0.65481233915350323 0.35652751921065562 0 0.61959173890754571 0.33832250091341232 0 0.6084546825910605 0.37989672713932537 0 0.61959173890754571 0.33832250091341232 0 0.65481233915350323 0.35652751921065562 0 0.65481233915350323 0.35652751921065562 0 0.68887083591306764 0.33632058575757479 0 0.68128176404677243 0.38629093627004979 0 0.6499999999999998 0.29999999999999999 0 0.68887083591306764 0.33632058575757479 0 0.65481233915350323 0.35652751921065562 0 
</DataArray>
</Points>
<Cells>
<DataArray type="UInt32" Name="connectivity" format="ascii">
0 1 2 3 4 5 6 7 8 9 10 11 12 13 14 15 16 17 18 19 20 21 22 23 24 25 26 27 28 29 30 31 32 33 34 35 36 37 38 39 40 41 42 43 44 45 46 47 48 49 50 51 52 53 54 55 56 57 58 59 60 61 62 63 64 65 66 67 68 69 70 71 72 73 74 75 76 77 78 79 80 81 82 83 84 85 86 87 88 89 90 91 92 93 94 95 96 97 98 99 100 101 102 103 104 105 106 107 108 109 110 111 112 113 114 115 116 117 118 119 120 121 122 123 124 125 126 127 128 129 130 131 132 133 134 135 136 137 138 139 140 141 142 143 144 145 146 147 148 149 150 151 152 153 154 155 156 157 158 159 160 161 162 163 164 165 166 167 168 169 170 171 172 173 174 175 176 177 178 179 180 181 182 183 184 185 186 187 188 189 190 191 192 193 194 195 196 197 198 199 200 201 202 203 204 205 206 207 208 209 210 211 212 213 214 215 216 217 218 219 220 221 222 223 224 225 226 227 228 229 230 231 232 233 234 235 236 237 238 239 240 241 242 243 244 245 246 247 248 249 250 251 252 253 254 255 256 257 258 259 260 261 262 263 264 265 266 267 268 269 270 271 272 273 274 275 276 277 278 279 280 281 282 283 284 285 286 287 288 289 290 291 292 293 294 295 296 297 298 299 300 301 302 303 304 305 306 307 308 309 310 311 312 313 314 315 316 317 318 319 320 321 322 323 324 325 326 327 328 329 330 331 332 333 334 335 336 337 338 339 340 341 342 343 344 345 346 347 348 349 350 351 352 353 354 355 356 357 358 359 360 361 362 363 364 365 366 367 368 369 370 371 372 373 374 375 376 377 378 379 380 381 382 383 384 385 386 387 388 389 390 391 392 393 394 395 396 397 398 399 400 401 402 403 404 405 406 407 408 409 410 411 412 413 414 415 416 417 418 419 420 421 422 423 424 425 426 427 428 429 430 431 432 433 434 435 436 437 438 439 440 441 442 443 444 445 446 447 448 449 450 451 452 453 454 455 456 457 458 459 460 461 462 463 464 465 466 467 468 469 470 471 472 473 474 475 476 477 478 479 480 481 482 483 484 485 486 487 488 489 490 491 492 493 494 495 496 497 498 499 500 501 502 503 504 505 506 507 508 509 510 511 512 513 514 515 516 517 518 519 520 521 522 523 524 525 526 527 528 529 530 531 532 533 534 535 536 537 538 539 540 541 542 543 544 545 546 547 548 549 550 551 552 553 554 555 556 557 558 559 560 561 562 563 564 565 566 567 568 569 570 571 572 573 574 575 576 577 578 579 580 581 582 583 584 585 586 587 588 589 590 591 592 593 594 595 596 597 598 599 600 601 602 603 604 605 606 607 608 609 610 611 612 613 614 615 616 617 618 619 620 621 622 623 624 625 626 627 628 629 630 631 632 633 634 635 636 637 638 639 640 641 642 643 644 645 646 647 648 649 650 651 652 653 654 655 656 657 658 659 660 661 662 663 664 665 666 667 668 669 670 671 672 673 674 675 676 677 678 679 680 681 682 683 684 685 686 687 688 689 690 691 692 693 694 695 696 697 698 699 700 701 702 703 704 705 706 707 708 709 710 711 712 713 714 715 716 717 718 719 720 721 722 723 724 725 726 727 728 729 730 731 732 733 734 735 736 737 738 739 740 741 742 743 744 745 746 747 748 749 750 751 752 753 754 755 756 757 758 759 760 761 762 763 764 765 766 767 768 769 770 771 772 773 774 775 776 777 778 779 780 781 782 783 784 785 786 787 788 789 790 791 792 793 794 795 796 797 798 799 800 801 802 803 804 805 806 807 808 809 810 811 812 813 814 815 816 817 818 819 820 821 822 823 824 825 826 827 828 829 830 831 832 833 834 835 836 837 838 839 840 841 842 843 844 845 846 847 848 849 850 851 852 853 854 855 856 857 858 859 860 861 862 863 864 865 866 867 868 869 870 871 872 873 874 875 876 877 878 879 880 881 882 883 884 885 886 887 888 889 890 891 892 893 894 895 896 897 898 899 900 901 902 903 904 905 906 907 908 909 910 911 912 913 914 915 916 917 918 919 920 921 922 923 924 925 926 927 928 929 930 931 932 933 934 935 936 937 938 939 940 941 942 943 944 945 946 947 948 949 950 951 952 953 954 955 956 957 958 959 960 961 962 963 964 965 966 967 968 969 970 971 972 973 974 975 976 977 978 979 980 981 982 983 984 985 986 987 988 989 990 991 992 993 994 995 996 997 998 999 1000 1001 1002 1003 1004 1005 1006 1007 1008 1009 1010 1011 1012 1013 1014 1015 1016 1017 1018 1019 1020 1021 1022 1023 1024 1025 1026 1027 1028 1029 1030 1031 1032 1033 1034 1035 1036 1037 1038 1039 1040 1041 1042 1043 1044 1045 1046 1047 1048 1049 1050 1051 1052 1053 1054 1055 1056 1057 1058 1059 1060 1061 1062 1063 1064 1065 1066 1067 1068 1069 1070 1071 1072 1073 1074 1075 1076 1077 1078 1079 1080 1081 1082 1083 1084 1085 1086 1087 1088 1089 1090 1091 1092 1093 1094 1095 1096 1097 1098 1099 1100 1101 1102 1103 1104 1105 1106 1107 1108 1109 1110 1111 1112 1113 1114 1115 1116 1117 1118 1119 1120 1121 1122 1123 1124 1125 1126 1127 1128 1129 1130 1131 1132 1133 1134 1135 1136 1137 1138 1139 1140 1141 1142 1143 1144 1145 1146 1147 1148 1149 1150 1151 1152 1153 1154 1155 1156 1157 1158 1159 1160 1161 1162 1163 1164 1165 1166 1167 1168 1169 1170 1171 1172 1173 1174 1175 1176 1177 1178 1179 1180 1181 1182 1183 1184 1185 1186 1187 1188 1189 1190 1191 1192 1193 1194 1195 1196 1197 1198 1199 1200 1201 1202 1203 1204 1205 1206 1207 1208 1209 1210 1211 1212 1213 1214 1215 1216 1217 1218 1219 1220 1221 1222 1223 1224 1225 1226 1227 1228 1229 1230 1231 1232 1233 1234 1235 1236 1237 1238 1239 1240 1241 1242 1243 1244 1245 1246 1247 1248 1249 1250 1251 1252 1253 1254 1255 1256 1257 1258 1259 1260 1261 1262 1263 1264 1265 1266 1267 1268 1269 1270 1271 1272 1273 1274 1275 1276 1277 1278 1279 1280 1281 1282 1283 1284 1285 1286 1287 1288 1289 1290 1291 1292 1293 1294 1295 1296 1297 1298 1299 1300 1301 1302 1303 1304 1305 1306 1307 1308 1309 1310 1311 1312 1313 1314 1315 1316 1317 1318 1319 1320 1321 1322 1323 1324 1325 1326 1327 1328 1329 1330 1331 1332 1333 1334 1335 1336 1337 1338 1339 1340 1341 1342 1343 1344 1345 1346 1347 1348 1349 1350 1351 1352 1353 1354 1355 1356 1357 1358 1359 1360 1361 1362 1363 1364 1365 1366 1367 1368 1369 1370 1371 1372 1373 1374 1375 1376 1377 1378 1379 1380 1381 1382 1383 1384 1385 1386 1387 1388 1389 1390 1391 1392 1393 1394 1395 1396 1397 1398 1399 1400 1401 1402 1403 1404 1405 1406 1407 1408 1409 1410 1411 1412 1413 1414 1415 1416 1417 1418 1419 1420 1421 1422 1423 1424 1425 1426 1427 1428 1429 1430 1431 1432 1433 1434 1435 1436 1437 1438 1439 1440 1441 1442 1443 1444 1445 1446 1447 1448 1449 1450 1451 1452 1453 1454 1455 1456 1457 1458 1459 1460 1461 1462 1463 1464 1465 1466 1467 1468 1469 1470 1471 1472 1473 1474 1475 1476 1477 1478 1479 1480 1481 1482 1483 1484 1485 1486 1487 1488 1489 1490 1491 1492 1493 1494 1495 1496 1497 1498 1499 1500 1501 1502 1503 1504 1505 1506 1507 1508 1509 1510 1511 1512 1513 1514 1515 1516 1517 1518 1519 1520 1521 1522 1523 1524 1525 1526 1527 1528 1529 1530 1531 1532 1533 1534 1535 1536 1537 1538 1539 1540 1541 1542 1543 1544 1545 1546 1547 1548 1549 1550 1551 1552 1553 1554 1555 1556 1557 1558 1559 1560 1561 1562 1563 1564 1565 1566 1567 1568 1569 1570 1571 1572 1573 1574 1575 1576 1577 1578 1579 1580 1581 1582 1583 1584 1585 1586 1587 1588 1589 1590 1591 1592 1593 1594 1595 1596 1597 1598 1599 1600 1601 1602 1603 1604 1605 1606 1607 1608 1609 1610 1611 1612 1613 1614 1615 1616 1617 1618 1619 1620 1621 1622 1623 1624 1625 1626 1627 1628 1629 1630 1631 1632 1633 1634 1635 1636 1637 1638 1639 1640 1641 1642 1643 1644 1645 1646 1647 1648 1649 1650 1651 1652 1653 1654 1655 1656 1657 1658 1659 1660 1661 1662 1663 1664 1665 1666 1667 1668 1669 1670 1671 1672 1673 1674 1675 1676 1677 1678 1679 1680 1681 1682 1683 1684 1685 1686 1687 1688 1689 1690 1691 1692 1693 1694 1695 1696 1697 1698 1699 1700 1701 1702 1703 1704 1705 1706 1707 1708 1709 1710 1711 1712 1713 1714 1715 1716 1717 1718 1719 1720 1721 1722 1723 1724 1725 1726 1727 1728 1729 1730 1731 1732 1733 1734 1735 1736 1737 1738 1739 1740 1741 1742 1743 1744 1745 1746 1747 1748 1749 1750 1751 1752 1753 1754 1755 1756 1757 1758 1759 1760 1761 1762 1763 1764 1765 1766 1767 1768 1769 1770 1771 1772 1773 1774 1775 1776 1777 1778 1779 1780 1781 1782 1783 1784 1785 1786 1787 1788 1789 1790 1791 1792 1793 1794 1795 1796 1797 1798 1799 1800 1801 1802 1803 1804 1805 1806 1807 1808 1809 1810 1811 1812 1813 1814 1815 1816 1817 1818 1819 1820 1821 1822 1823 1824 1825 1826 1827 1828 1829 1830 1831 1832 1833 1834 1835 1836 1837 1838 1839 1840 1841 1842 1843 1844 1845 1846 1847 1848 1849 1850 1851 1852 1853 1854 1855 1856 1857 1858 1859 1860 1861 1862 1863 1864 1865 1866 1867 1868 1869 1870 1871 1872 1873 1874 1875 1876 1877 1878 1879 1880 1881 1882 1883 1884 1885 1886 1887 1888 1889 1890 1891 1892 1893 1894 1895 1896 1897 1898 1899 1900 1901 1902 1903 1904 1905 1906 1907 1908 1909 1910 1911 1912 1913 1914 1915 1916 1917 1918 1919 1920 1921 1922 1923 1924 1925 1926 1927 1928 1929 1930 1931 1932 1933 1934 1935 1936 1937 1938 1939 1940 1941 1942 1943 1944 1945 1946 1947 1948 1949 1950 1951 1952 1953 1954 1955 1956 1957 1958 1959 1960 1961 1962 1963 1964 1965 1966 1967 1968 1969 1970 1971 1972 1973 1974 1975 1976 1977 1978 1979 1980 1981 1982 1983 1984 1985 1986 1987 1988 1989 1990 1991 1992 1993 1994 1995 1996 1997 1998 1999 2000 2001 2002 2003 2004 2005 2006 2007 2008 2009 2010 2011 2012 2013 2014 2015 2016 2017 2018 2019 2020 2021 2022 2023 2024 2025 2026 2027 2028 2029 2030 2031 2032 2033 2034 2035 2036 2037 2038 2039 2040 2041 2042 2043 2044 2045 2046 2047 2048 2049 2050 2051 2052 2053 2054 2055 2056 2057 2058 2059 2060 2061 2062 2063 2064 2065 2066 2067 2068 2069 2070 2071 2072 2073 2074 2075 2076 2077 2078 2079 2080 2081 2082 2083 2084 2085 2086 2087 2088 2089 2090 2091 2092 2093 2094 2095 2096 2097 2098 2099 2100 2101 2102 2103 2104 2105 2106 2107 2108 2109 2110 2111 2112 2113 2114 2115 2116 2117 2118 2119 2120 2121 2122 2123 2124 2125 2126 2127 2128 2129 2130 2131 2132 2133 2134 2135 2136 2137 2138 2139 2140 2141 2142 2143 2144 2145 2146 2147 2148 2149 2150 2151 2152 2153 2154 2155 2156 2157 2158 2159 2160 2161 2162 2163 2164 2165 2166 2167 2168 2169 2170 2171 2172 2173 2174 2175 2176 2177 2178 2179 2180 2181 2182 2183 2184 2185 2186 2187 2188 2189 2190 2191 2192 2193 2194 2195 2196 2197 2198 2199 2200 2201 2202 2203 2204 2205 2206 2207 2208 2209 2210 2211 2212 2213 2214 2215 2216 2217 2218 2219 2220 2221 2222 2223 2224 2225 2226 2227 2228 2229 2230 2231 2232 2233 2234 2235 2236 2237 2238 2239 2240 2241 2242 2243 2244 2245 2246 2247 2248 2249 2250 2251 2252 2253 2254 2255 2256 2257 2258 2259 2260 2261 2262 2263 2264 2265 2266 2267 2268 2269 2270 2271 2272 2273 2274 2275 2276 2277 2278 2279 2280 2281 2282 2283 2284 2285 2286 2287 2288 2289 2290 2291 2292 2293 2294 2295 2296 2297 2298 2299 2300 2301 2302 2303 2304 2305 2306 2307 2308 2309 2310 2311 2312 2313 2314 2315 2316 2317 2318 2319 2320 2321 2322 2323 2324 2325 2326 2327 2328 2329 2330 2331 2332 2333 2334 2335 2336 2337 2338 2339 2340 2341 2342 2343 2344 2345 2346 2347 2348 2349 2350 2351 2352 2353 2354 2355 2356 2357 2358 2359 2360 2361 2362 2363 2364 2365 2366 2367 2368 2369 2370 2371 2372 2373 2374 2375 2376 2377 2378 2379 2380 2381 2382 2383 2384 2385 2386 2387 2388 2389 2390 2391 2392 2393 2394 2395 2396 2397 2398 2399 2400 2401 2402 2403 2404 2405 2406 2407 2408 2409 2410 2411 2412 2413 2414 2415 2416 2417 2418 2419 2420 2421 2422 2423 2424 2425 2426 2427 2428 2429 2430 2431 2432 2433 2434 2435 2436 2437 2438 2439 2440 2441 2442 2443 2444 2445 2446 2447 2448 2449 2450 2451 2452 2453 2454 2455 2456 2457 2458 2459 2460 2461 2462 2463 2464 2465 2466 2467 2468 2469 2470 2471 2472 2473 2474 2475 2476 2477 2478 2479 2480 2481 2482 2483 2484 2485 2486 2487 2488 2489 2490 2491 2492 2493 2494 2495 2496 2497 2498 2499 2500 2501 2502 2503 2504 2505 2506 2507 2508 2509 2510 2511 2512 2513 2514 2515 2516 2517 2518 2519 2520 2521 2522 2523 2524 2525 2526 2527 2528 2529 2530 2531 2532 2533 2534 2535 2536 2537 2538 2539 2540 2541 2542 2543 2544 2545 2546 2547 2548 2549 2550 2551 2552 2553 2554 2555 2556 2557 2558 2559 2560 2561 2562 2563 2564 2565 2566 2567 2568 2569 2570 2571 2572 2573 2574 2575 2576 2577 2578 2579 2580 2581 2582 2583 2584 2585 2586 2587 2588 2589 2590 2591 2592 2593 2594 2595 2596 2597 2598 2599 2600 2601 2602 2603 2604 2605 2606 2607 2608 2609 2610 2611 2612 2613 2614 2615 2616 2617 2618 2619 2620 2621 2622 2623 2624 2625 2626 2627 2628 2629 2630 2631 2632 2633 2634 2635 2636 2637 2638 2639 2640 2641 2642 2643 2644 2645 2646 2647 2648 2649 2650 2651 2652 2653 2654 2655 2656 2657 2658 2659 2660 2661 2662 2663 2664 2665 2666 2667 2668 2669 2670 2671 2672 2673 2674 2675 2676 2677 2678 2679 2680 2681 2682 2683 2684 2685 2686 2687 2688 2689 2690 2691 2692 2693 2694 2695 2696 2697 2698 2699 2700 2701 2702 2703 2704 2705 2706 2707 2708 2709 2710 2711 2712 2713 2714 2715 2716 2717 2718 2719 2720 2721 2722 2723 2724 2725 2726 2727 2728 2729 2730 2731 2732 2733 2734 2735 2736 2737 2738 2739 2740 2741 2742 2743 2744 2745 2746 2747 2748 2749 2750 2751 2752 2753 2754 2755 2756 2757 2758 2759 2760 2761 2762 2763 2764 2765 2766 2767 2768 2769 2770 2771 2772 2773 2774 2775 2776 2777 2778 2779 2780 2781 2782 2783 2784 2785 2786 2787 2788 2789 2790 2791 2792 2793 2794 2795 2796 2797 2798 2799 2800 2801 2802 2803 2804 2805 2806 2807 2808 2809 2810 2811 2812 2813 2814 2815 2816 2817 2818 2819 2820 2821 2822 2823 2824 2825 2826 2827 2828 2829 2830 2831 2832 2833 2834 2835 2836 2837 2838 2839 2840 2841 2842 2843 2844 2845 2846 2847 2848 2849 2850 2851 2852 2853 2854 2855 2856 2857 2858 2859 2860 2861 2862 2863 2864 2865 2866 2867 2868 2869 2870 2871 2872 2873 2874 2875 2876 2877 2878 2879 2880 2881 2882 2883 2884 2885 2886 2887 2888 2889 2890 2891 2892 2893 2894 2895 2896 2897 2898 2899 2900 2901 2902 2903 2904 2905 2906 2907 2908 2909 2910 2911 2912 2913 2914 2915 2916 2917 2918 2919 2920 2921 2922 2923 2924 2925 2926 2927 2928 2929 2930 2931 2932 2933 2934 2935 2936 2937 2938 2939 2940 2941 2942 2943 2944 2945 2946 2947 2948 2949 2950 2951 2952 2953 2954 2955 2956 2957 2958 2959 2960 2961 2962 2963 2964 2965 2966 2967 2968 2969 2970 2971 2972 2973 2974 2975 2976 2977 2978 2979 2980 2981 2982 2983 2984 2985 2986 2987 2988 2989 2990 2991 2992 2993 2994 2995 2996 2997 2998 2999 3000 3001 3002 3003 3004 3005 3006 3007 3008 3009 3010 3011 3012 3013 3014 3015 3016 3017 3018 3019 3020 3021 3022 3023 3024 3025 3026 3027 3028 3029 3030 3031 3032 3033 3034 3035 3036 3037 3038 3039 3040 3041 3042 3043 3044 3045 3046 3047 3048 3049 3050 3051 3052 3053 3054 3055 3056 3057 3058 3059 3060 3061 3062 3063 3064 3065 3066 3067 3068 3069 3070 3071 3072 3073 3074 3075 3076 3077 3078 3079 3080 3081 3082 3083 3084 3085 3086 3087 3088 3089 3090 3091 3092 3093 3094 3095 3096 3097 3098 3099 3100 3101 3102 3103 3104 3105 3106 3107 3108 3109 3110 3111 3112 3113 3114 3115 3116 3117 3118 3119 3120 3121 3122 3123 3124 3125 3126 3127 3128 3129 3130 3131 3132 3133 3134 3135 3136 3137 3138 3139 3140 3141 
</DataArray>
<DataArray type="UInt32" Name="offsets" format="ascii">
3 6 9 12 15 18 21 24 27 30 33 36 39 42 45 48 51 54 57 60 63 66 69 72 75 78 81 84 87 90 93 96 99 102 105 108 111 114 117 120 123 126 129 132 135 138 141 144 147 150 153 156 159 162 165 168 171 174 177 180 183 186 189 192 195 198 201 204 207 210 213 216 219 222 225 228 231 234 237 240 243 246 249 252 255 258 261 264 267 270 273 276 279 282 285 288 291 294 297 300 303 306 309 312 315 318 321 324 327 330 333 336 339 342 345 348 351 354 357 360 363 366 369 372 375 378 381 384 387 390 393 396 399 402 405 408 411 414 417 420 423 426 429 432 435 438 441 444 447 450 453 456 459 462 465 468 471 474 477 480 483 486 489 492 495 498 501 504 507 510 513 516 519 522 525 528 531 534 537 540 543 546 549 552 555 558 561 564 567 570 573 576 579 582 585 588 591 594 597 600 603 606 609 612 615 618 621 624 627 630 633 636 639 642 645 648 651 654 657 660 663 666 669 672 675 678 681 684 687 690 693 696 699 702 705 708 711 714 717 720 723 726 729 732 735 738 741 744 747 750 753 756 759 762 765 768 771 774 777 780 783 786 789 792 795 798 801 804 807 810 813 816 819 822 825 828 831 834 837 840 843 846 849 852 855 858 861 864 867 870 873 876 879 882 885 888 891 894 897 900 903 906 909 912 915 918 921 924 927 930 933 936 939 942 945 948 951 954 957 960 963 966 969 972 975 978 981 984 987 990 993 996 999 1002 1005 1008 1011 1014 1017 1020 1023 1026 1029 1032 1035 1038 1041 1044 1047 1050 1053 1056 1059 1062 1065 1068 1071 1074 1077 1080 1083 1086 1089 1092 1095 1098 1101 1104 1107 1110 1113 1116 1119 1122 1125 1128 1131 1134 1137 1140 1143 1146 1149 1152 1155 1158 1161 1164 1167 1170 1173 1176 1179 1182 1185 1188 1191 1194 1197 1200 1203 1206 1209 1212 1215 1218 1221 1224 1227 1230 1233 1236 1239 1242 1245 1248 1251 1254 1257 1260 1263 1266 1269 1272 1275 1278 1281 1284 1287 1290 1293 1296 1299 1302 1305 1308 1311 1314 1317 1320 1323 1326 1329 1332 1335 1338 1341 1344 1347 1350 1353 1356 1359 1362 1365 1368 1371 1374 1377 1380 1383 1386 1389 1392 1395 1398 1401 1404 1407 1410 1413 1416 1419 1422 1425 1428 1431 1434 1437 1440 1443 1446 1449 1452 1455 1458 1461 1464 1467 1470 1473 1476 1479 1482 1485 1488 1491 1494 1497 1500 1503 1506 1509 1512 1515 1518 1521 1524 1527 1530 1533 1536 1539 1542 1545 1548 1551 1554 1557 1560 1563 1566 1569 1572 1575 1578 1581 1584 1587 1590 1593 1596 1599 1602 1605 1608 1611 1614 1616 1619 1622 1624 1627 1630 1632 1635 1638 1641 1644 1647 1650 1653 1656 1659 1662 1665 1668 1671 1673 1676 1679 1682 1685 1688 1690 1693 1696 1699 1702 1705 1708 1711 1714 1717 1720 1723 1726 1729 1732 1735 1738 1741 1744 1747 1750 1753 1756 1759 1762 1765 1768 1771 1774 1777 1780 1783 1786 1789 1792 1795 1798 1801 1804 1807 1810 1813 1816 1819 1822 1825 1828 1831 1834 1837 1840 1843 1846 1849 1852 1855 1858 1861 1864 1867 1870 1873 1876 1879 1882 1885 1888 1891 1894 1897 1900 1903 1906 1909 1912 1915 1918 1921 1924 1927 1930 1933 1936 1939 1942 1945 1948 1951 1954 1957 1960 1963 1966 1969 1972 1975 1978 1981 1984 1987 1990 1993 1996 1999 2002 2005 2008 2011 2014 2017 2020 2023 2026 2029 2032 2035 2038 2041 2044 2047 2050 2053 2056 2059 2062 2065 2068 2071 2074 2077 2080 2083 2086 2089 2092 2095 2098 2101 2104 2107 2110 2113 2116 2119 2122 2125 2128 2131 2134 2137 2140 2143 2146 2149 2152 2155 2158 2161 2164 2167 2170 2173 2176 2179 2182 2185 2188 2191 2194 2196 2199 2202 2205 2207 2210 2213 2215 2218 2221 2224 2227 2230 2233 2236 2239 2242 2245 2248 2250 2253 2256 2259 2262 2264 2267 2270 2273 2276 2279 2282 2285 2288 2291 2294 2297 2300 2303 2306 2309 2312 2315 2318 2321 2324 2327 2330 2333 2336 2339 2342 2345 2348 2351 2354 2357 2360 2363 2366 2369 2372 2375 2378 2381 2384 2387 2390 2393 2396 2399 2402 2405 2408 2411 2414 2417 2420 2423 2426 2429 2432 2435 2438 2440 2443 2446 2449 2452 2455 2458 2461 2464 2467 2470 2473 2476 2479 2482 2484 2487 2490 2492 2495 2497 2500 2503 2506 2509 2512 2515 2518 2521 2524 2527 2530 2533 2536 2538 2541 2544 2547 2550 2553 2556 2559 2562 2565 2568 2571 2574 2577 2580 2583 2586 2589 2592 2595 2598 2601 2604 2607 2610 2613 2616 2619 2622 2625 2628 2631 2634 2637 2640 2643 2646 2649 2652 2655 2658 2661 2664 2667 2670 2673 2676 2679 2682 2685 2688 2691 2694 2697 2700 2703 2706 2709 2712 2715 2718 2721 2724 2727 2730 2733 2736 2739 2742 2745 2748 2751 2754 2757 2760 2763 2766 2769 2772 2775 2778 2781 2784 2787 2790 2793 2796 2799 2802 2805 2808 2811 2814 2817 2820 2823 2826 2829 2832 2835 2838 2841 2844 2847 2850 2853 2856 2859 2862 2865 2868 2871 2874 2877 2880 2883 2886 2889 2892 2895 2898 2901 2904 2907 2910 2913 2916 2919 2922 2925 2928 2931 2934 2937 2940 2943 2946 2948 2951 2954 2956 2959 2961 2964 2967 2970 2973 2976 2979 2982 2985 2988 2991 2994 2997 3000 3003 3006 3009 3012 3015 3018 3021 3024 3027 3030 3033 3036 3039 3042 3045 3048 3051 3054 3057 3060 3063 3066 3069 3072 3075 3078 3081 3084 3087 3090 3093 3096 3099 3102 3104 3107 3110 3113 3116 3119 3121 3124 3127 3130 3133 3136 3139 3142 
</DataArray>
<DataArray type="UInt32" Name="types" format="ascii">
5 5 5 5 5 5 5 5 5 5 5 5 5 5 5 5 5 5 5 5 5 5 5 5 5 5 5 5 5 5 5 5 5 5 5 5 5 5 5 5 5 5 5 5 5 5 5 5 5 5 5 5 5 5 5 5 5 5 5 5 5 5 5 5 5 5 5 5 5 5 5 5 5 5 5 5 5 5 5 5 5 5 5 5 5 5 5 5 5 5 5 5 5 5 5 5 5 5 5 5 5 5 5 5 5 5 5 5 5 5 5 5 5 5 5 5 5 5 5 5 5 5 5 5 5 5 5 5 5 5 5 5 5 5 5 5 5 5 5 5 5 5 5 5 5 5 5 5 5 5 5 5 5 5 5 5 5 5 5 5 5 5 5 5 5 5 5 5 5 5 5 5 5 5 5 5 5 5 5 5 5 5 5 5 5 5 5 5 5 5 5 5 5 5 5 5 5 5 5 5 5 5 5 5 5 5 5 5 5 5 5 5 5 5 5 5 5 5 5 5 5 5 5 5 5 5 5 5 5 5 5 5 5 5 5 5 5 5 5 5 5 5 5 5 5 5 5 5 5 5 5 5 5 5 5 5 5 5 5 5 5 5 5 5 5 5 5 5 5 5 5 5 5 5 5 5 5 5 5 5 5 5 5 5 5 5 5 5 5 5 5 5 5 5 5 5 5 5 5 5 5 5 5 5 5 5 5 5 5 5 5 5 5 5 5 5 5 5 5 5 5 5 5 5 5 5 5 5 5 5 5 5 5 5 5 5 5 5 5 5 5 5 5 5 5 5 5 5 5 5 5 5 5 5 5 5 5 5 5 5 5 5 5 5 5 5 5 5 5 5 5 5 5 5 5 5 5 5 5 5 5 5 5 5 5 5 5 5 5 5 5 5 5 5 5 5 5 5 5 5 5 5 5 5 5 5 5 5 5 5 5 5 5 5 5 5 5 5 5 5 5 5 5 5 5 5 5 5 5 5 5 5 5 5 5 5 5 5 5 5 5 5 5 5 5 5 5 5 5 5 5 5 5 5 5 5 5 5 5 5 5 5 5 5 5 5 5 5 5 5 5 5 5 5 5 5 5 5 5 5 5 5 5 5 5 5 5 5 5 5 5 5 5 5 5 5 5 5 5 5 5 5 5 5 5 5 5 5 5 5 5 5 5 5 5 5 5 5 5 5 5 5 5 5 5 5 5 5 5 5 5 5 5 5 5 5 5 5 3 5 5 3 5 5 3 5 5 5 5 5 5 5 5 5 5 5 5 5 3 5 5 5 5 5 3 5 5 5 5 5 5 5 5 5 5 5 5 5 5 5 5 5 5 5 5 5 5 5 5 5 5 5 5 5 5 5 5 5 5 5 5 5 5 5 5 5 5 5 5 5 5 5 5 5 5 5 5 5 5 5 5 5 5 5 5 5 5 5 5 5 5 5 5 5 5 5 5 5 5 5 5 5 5 5 5 5 5 5 5 5 5 5 5 5 5 5 5 5 5 5 5 5 5 5 5 5 5 5 5 5 5 5 5 5 5 5 5 5 5 5 5 5 5 5 5 5 5 5 5 5 5 5 5 5 5 5 5 5 5 5 5 5 5 5 5 5 5 5 5 5 5 5 5 5 5 5 5 5 5 5 5 5 5 5 5 5 5 5 5 5 5 5 5 3 5 5 5 3 5 5 3 5 5 5 5 5 5 5 5 5 5 5 3 5 5 5 5 3 5 5 5 5 5 5 5 5 5 5 5 5 5 5 5 5 5 5 5 5 5 5 5 5 5 5 5 5 5 5 5 5 5 5 5 5 5 5 5 5 5 5 5 5 5 5 5 5 5 5 5 5 5 5 5 5 5 5 3 5 5 5 5 5 5 5 5 5 5 5 5 5 5 3 5 5 3 5 3 5 5 5 5 5 5 5 5 5 5 5 5 5 3 5 5 5 5 5 5 5 5 5 5 5 5 5 5 5 5 5 5 5 5 5 5 5 5 5 5 5 5 5 5 5 5 5 5 5 5 5 5 5 5 5 5 5 5 5 5 5 5 5 5 5 5 5 5 5 5 5 5 5 5 5 5 5 5 5 5 5 5 5 5 5 5 5 5 5 5 5 5 5 5 5 5 5 5 5 5 5 5 5 5 5 5 5 5 5 5 5 5 5 5 5 5 5 5 5 5 5 5 5 5 5 5 5 5 5 5 5 5 5 5 5 5 5 5 5 5 5 5 5 5 5 5 5 5 5 5 3 5 5 3 5 3 5 5 5 5 5 5 5 5 5 5 5 5 5 5 5 5 5 5 5 5 5 5 5 5 5 5 5 5 5 5 5 5 5 5 5 5 5 5 5 5 5 5 5 5 5 5 5 3 5 5 5 5 5 3 5 5 5 5 5 5 5 
</DataArray>
</Cells>
<PointData Scalars="" Vectors="displacement," Tensors="">
<DataArray type="Float64" Name="displacement" NumberOfComponents="3" format="ascii">
-1.8216119132066466e-09 -7.4930352595638868e-10 0 -2.0927701181552971e-06 1.4392951133711178e-09 0 -9.4785141057437843e-07 2.183855809554103e-07 0 -1.8216119132066466e-09 -7.4930352595638868e-10 0 -9.4785141057437864e-07 2.1838558095541036e-07 0 -1.6724563054687198e-09 5.3502674166742594e-10 0 -2.0927701181552971e-06 1.4392951133711178e-09 0 -2.1271896067457802e-06 8.5656945049896171e-07 0 -9.4785141057437843e-07 2.183855809554103e-07 0 -1.6724563054687198e-09 5.3502674166742594e-10 0 -9.4785141057437853e-07 2.1838558095541038e-07 0 -2.1271896067457802e-06 8.5656945049896171e-07 0 -1.656166916450373e-09 3.252551257333024e-10 0 -1.6724563054687198e-09 5.3502674166742594e-10 0 -1.3555368621214081e-06 1.2443709476450157e-06 0 -8.6922134691633182e-10 9.7458288593427909e-10 0 -1.656166916450373e-09 3.252551257333024e-10 0 -1.3555368621214081e-06 1.2443709476450157e-06 0 -2.9625572103321985e-06 1.8617185043890595e-06 0 -1.3555368621214081e-06 1.2443709476450157e-06 0 -2.1271896067457802e-06 8.5656945049896171e-07 0 -1.6724563054687198e-09 5.3502674166742594e-10 0 -2.1271896067457802e-06 8.5656945049896171e-07 0 -1.3555368621214081e-06 1.2443709476450157e-06 0 -2.9625572103321985e-06 1.8617185043890595e-06 0 -1.5672590864549516e-06 2.0703587664198262e-06 0 -1.3555368621214081e-06 1.2443709476450157e-06 0 -2.9625572103321985e-06 1.8617185043890595e-06 0 -3.0202441357973422e-06 2.6173475457926313e-06 0 -1.5672590864549516e-06 2.0703587664198262e-06 0 -2.9625572103321985e-06 1.8617185043890595e-06 0 -4.5710496477727771e-06 2.3831912467299291e-06 0 -3.0202441357973422e-06 2.6173475457926313e-06 0 -3.6557010696006154e-06 3.0610046911507699e-06 0 -3.0202441357973422e-06 2.6173475457926313e-06 0 -4.5710496477727771e-06 2.3831912467299291e-06 0 -6.5297438422712402e-06 1.8922413365948472e-06 0 -4.5710496477727771e-06 2.3831912467299291e-06 0 -4.5685416573479529e-06 1.3997408072468229e-06 0 -2.9625572103321985e-06 1.8617185043890595e-06 0 -4.5685416573479529e-06 1.3997408072468229e-06 0 -4.5710496477727771e-06 2.3831912467299291e-06 0 -4.6936498502906581e-06 5.2768214217931059e-07 0 -7.8790373997807434e-06 7.0753946693669362e-07 0 -4.5685416573479529e-06 1.3997408072468229e-06 0 -2.0927701181552971e-06 1.4392951133711178e-09 0 -4.6936498502906581e-06 5.2768214217931059e-07 0 -2.1271896067457802e-06 8.5656945049896171e-07 0 -4.6936498502906581e-06 5.2768214217931059e-07 0 -4.5685416573479529e-06 1.3997408072468229e-06 0 -2.1271896067457802e-06 8.5656945049896171e-07 0 -2.9625572103321985e-06 1.8617185043890595e-06 0 -2.1271896067457802e-06 8.5656945049896171e-07 0 -4.5685416573479529e-06 1.3997408072468229e-06 0 -2.4746717325653524e-11 8.534386200738615e-10 0 -5.4375578088074202e-10 6.9084577294672725e-10 0 -2.1829446659912094e-07 1.7390797203985209e-06 0 -5.4375578088074202e-10 6.9084577294672725e-10 0 -5.4955494618284089e-07 1.4523228652529298e-06 0 -2.1829446659912094e-07 1.7390797203985209e-06 0 -9.7126576878006064e-07 2.6981005475302808e-06 0 -2.1829446659912094e-07 1.7390797203985209e-06 0 -5.4955494618284089e-07 1.4523228652529298e-06 0 -8.6922134691633182e-10 9.7458288593427909e-10 0 -1.5672590864549516e-06 2.0703587664198262e-06 0 -5.4955494618284089e-07 1.4523228652529298e-06 0 -8.6922134691633182e-10 9.7458288593427909e-10 0 -1.3555368621214081e-06 1.2443709476450157e-06 0 -1.5672590864549516e-06 2.0703587664198262e-06 0 -9.7126576878006064e-07 2.6981005475302808e-06 0 -5.4955494618284089e-07 1.4523228652529298e-06 0 -1.5672590864549516e-06 2.0703587664198262e-06 0 -5.4375578088074202e-10 6.9084577294672725e-10 0 -8.6922134691633182e-10 9.7458288593427909e-10 0 -5.4955494618284089e-07 1.4523228652529298e-06 0 -1.5672590864549516e-06 2.0703587664198262e-06 0 -3.0202441357973426e-06 2.6173475457926313e-06 0 -2.1605333603350716e-06 2.9350403361420047e-06 0 -3.6557010696006154e-06 3.0610046911507699e-06 0 -2.1605333603350716e-06 2.9350403361420047e-06 0 -3.0202441357973422e-06 2.6173475457926313e-06 0 -9.7126576878006064e-07 2.6981005475302808e-06 0 -1.5672590864549516e-06 2.0703587664198262e-06 0 -2.1605333603350716e-06 2.9350403361420047e-06 0 -9.7126576878006064e-07 2.6981005475302808e-06 0 -1.4771901422255124e-06 3.4157191340024618e-06 0 -6.5742332968807678e-08 3.0077811643294849e-06 0 -9.7126576878006064e-07 2.6981005475302808e-06 0 -2.1605333603350716e-06 2.9350403361420047e-06 0 -1.4771901422255124e-06 3.4157191340024618e-06 0 -9.7126576878006064e-07 2.6981005475302808e-06 0 -6.5742332968807678e-08 3.0077811643294849e-06 0 -2.1829446659912094e-07 1.7390797203985209e-06 0 2.5856799969320929e-07 1.8994122305499657e-06 0 -2.1829446659912094e-07 1.7390797203985209e-06 0 -6.5742332968807678e-08 3.0077811643294849e-06 0 -1.4771901422255124e-06 3.4157191340024618e-06 0 -1.6752587182417224e-07 3.4549661339509485e-06 0 -6.5742332968807678e-08 3.0077811643294849e-06 0 -5.3942632786848731e-07 3.4246871663978516e-06 0 -1.6752587182417203e-07 3.4549661339509485e-06 0 -1.4771901422255124e-06 3.4157191340024618e-06 0 -5.3942632786848731e-07 3.4246871663978516e-06 0 -1.4771901422255124e-06 3.4157191340024618e-06 0 -2.7175339051806212e-06 3.2488381346434661e-06 0 -3.6557010696006154e-06 3.0610046911507699e-06 0 -5.0768684851179734e-06 2.8028596234166589e-06 0 -2.7175339051806212e-06 3.2488381346434661e-06 0 -3.6557010696006154e-06 3.0610046911507699e-06 0 -1.4771901422255124e-06 3.4157191340024614e-06 0 -2.1605333603350716e-06 2.9350403361420047e-06 0 -3.6557010696006154e-06 3.0610046911507699e-06 0 -2.7175339051806212e-06 3.2488381346434661e-06 0 -1.4771901422255124e-06 3.4157191340024618e-06 0 -3.6557010696006154e-06 3.0610046911507699e-06 0 -5.8433327185750726e-06 2.5167812225602217e-06 0 -5.0768684851179734e-06 2.8028596234166594e-06 0 -3.7509236123889618e-06 2.632206027508503e-06 0 -5.0768684851179734e-06 2.8028596234166594e-06 0 -7.1754174433040321e-06 1.8863879798549569e-06 0 -3.7509236123889618e-06 2.632206027508503e-06 0 -7.1754174433040321e-06 1.8863879798549569e-06 0 -5.9625181194328655e-06 1.3766863460791748e-06 0 -3.7509236123889618e-06 2.632206027508503e-06 0 -5.9625181194328655e-06 1.3766863460791746e-06 0 -3.5714265728457663e-06 1.3793737988900609e-06 0 -3.7509236123889618e-06 2.632206027508503e-06 0 -2.7175339051806212e-06 3.2488381346434661e-06 0 -5.0768684851179734e-06 2.8028596234166594e-06 0 -5.3942632786848731e-07 3.4246871663978516e-06 0 -2.7175339051806212e-06 3.2488381346434661e-06 0 -1.3637816143398406e-06 2.7618846621547642e-06 0 -3.7509236123889618e-06 2.632206027508503e-06 0 -1.3637816143398406e-06 2.7618846621547642e-06 0 -2.7175339051806212e-06 3.2488381346434661e-06 0 -3.7509236123889618e-06 2.632206027508503e-06 0 -3.5714265728457663e-06 1.3793737988900609e-06 0 -1.3637816143398406e-06 2.7618846621547642e-06 0 8.0701259844700726e-07 2.0687989872367125e-06 0 1.0990026469004198e-06 3.0876938048135134e-06 0 -1.3637816143398406e-06 2.7618846621547642e-06 0 -5.3942632786848731e-07 3.4246871663978516e-06 0 -1.3637816143398406e-06 2.7618846621547642e-06 0 1.0990026469004198e-06 3.0876938048135134e-06 0 -7.8790373997807434e-06 7.0753946693669362e-07 0 -9.3457739923107739e-06 1.2234093233451298e-06 0 -6.5297438422712402e-06 1.8922413365948472e-06 0 -8.3200400904283932e-06 1.915708253078505e-06 0 -6.5297438422712394e-06 1.8922413365948472e-06 0 -9.3457739923107756e-06 1.2234093233451296e-06 0 -7.8790373997807434e-06 7.0753946693669362e-07 0 -1.1650225346580246e-05 5.6153159499841151e-08 0 -9.3457739923107756e-06 1.2234093233451296e-06 0 -7.8790373997807434e-06 7.0753946693669362e-07 0 -6.5297438422712411e-06 1.8922413365948474e-06 0 -4.5685416573479529e-06 1.3997408072468229e-06 0 -6.5297438422712402e-06 1.8922413365948472e-06 0 -5.8433327185750726e-06 2.5167812225602217e-06 0 -4.5710496477727771e-06 2.3831912467299291e-06 0 -3.6557010696006154e-06 3.0610046911507699e-06 0 -4.5710496477727771e-06 2.3831912467299291e-06 0 -5.8433327185750726e-06 2.5167812225602217e-06 0 -8.3200400904283932e-06 1.915708253078505e-06 0 -5.0768684851179734e-06 2.8028596234166594e-06 0 -5.8433327185750726e-06 2.5167812225602217e-06 0 -8.3200400904283932e-06 1.915708253078505e-06 0 -5.8433327185750726e-06 2.5167812225602217e-06 0 -6.5297438422712402e-06 1.8922413365948472e-06 0 -8.3200400904283932e-06 1.915708253078505e-06 0 -7.1754174433040321e-06 1.8863879798549569e-06 0 -5.0768684851179734e-06 2.8028596234166594e-06 0 -8.3200400904283932e-06 1.915708253078505e-06 0 -1.0304794750210598e-05 8.9832318457534731e-07 0 -7.1754174433040321e-06 1.8863879798549569e-06 0 -9.7315505744671723e-06 1.2276765978191968e-07 0 -7.1754174433040321e-06 1.8863879798549569e-06 0 -1.0304794750210598e-05 8.983231845753472e-07 0 -8.3200400904283932e-06 1.915708253078505e-06 0 -1.1800456655916161e-05 5.1677751372233723e-07 0 -1.0304794750210598e-05 8.983231845753472e-07 0 -1.4254351326002549e-05 -9.9454418750375003e-07 0 -1.0304794750210598e-05 8.983231845753472e-07 0 -1.1800456655916161e-05 5.1677751372233723e-07 0 -8.3200400904283932e-06 1.915708253078505e-06 0 -9.3457739923107756e-06 1.2234093233451296e-06 0 -1.1800456655916161e-05 5.1677751372233723e-07 0 -1.1650225346580245e-05 5.6153159499841369e-08 0 -1.1800456655916161e-05 5.1677751372233723e-07 0 -9.3457739923107756e-06 1.2234093233451296e-06 0 -1.1650225346580245e-05 5.6153159499841369e-08 0 -1.5929765822194897e-05 -1.4928656635730976e-06 0 -1.1800456655916161e-05 5.1677751372233723e-07 0 -1.5929765822194897e-05 -1.4928656635730976e-06 0 -2.0472392857714126e-05 -4.1077621427782259e-06 0 -1.4254351326002549e-05 -9.9454418750375003e-07 0 -1.5929765822194897e-05 -1.4928656635730976e-06 0 -1.4254351326002549e-05 -9.9454418750375003e-07 0 -1.1800456655916161e-05 5.1677751372233723e-07 0 -2.0472392857714126e-05 -4.1077621427782259e-06 0 -1.9126592005538544e-05 -4.4006734638492505e-06 0 -1.4254351326002549e-05 -9.9454418750375003e-07 0 -2.0472392857714126e-05 -4.1077621427782259e-06 0 -2.5722284868677996e-05 -8.0158856489911753e-06 0 -1.9126592005538544e-05 -4.4006734638492505e-06 0 -1.6939735721239924e-05 -5.7249284198540192e-06 0 -1.9126592005538544e-05 -4.4006734638492505e-06 0 -2.3214208485969016e-05 -7.9108659370434896e-06 0 -1.6939735721239924e-05 -5.7249284198540192e-06 0 -2.3214208485969016e-05 -7.9108659370434896e-06 0 -2.3450470201036748e-05 -1.1127460988745885e-05 0 -2.5722284868677996e-05 -8.0158856489911753e-06 0 -2.3214208485969016e-05 -7.9108659370434896e-06 0 -1.9126592005538544e-05 -4.4006734638492505e-06 0 -2.5722284868677996e-05 -8.0158856489911753e-06 0 -3.1500874331176592e-05 -1.3427683643857657e-05 0 -2.3214208485969016e-05 -7.9108659370434896e-06 0 -1.6939735721239924e-05 -5.7249284198540192e-06 0 -1.6025743590769914e-05 -9.9668796265996178e-06 0 -1.0883117121259782e-05 -5.5330714273392208e-06 0 -1.6939735721239924e-05 -5.7249284198540192e-06 0 -1.0883117121259782e-05 -5.5330714273392208e-06 0 -1.1329605626651086e-05 -2.538581290271224e-06 0 -1.6939735721239924e-05 -5.7249284198540192e-06 0 -1.4283095707518081e-05 -2.413605295685881e-06 0 -1.9126592005538544e-05 -4.4006734638492505e-06 0 -1.6939735721239924e-05 -5.7249284198540192e-06 0 -1.1329605626651086e-05 -2.538581290271224e-06 0 -1.4283095707518081e-05 -2.413605295685881e-06 0 -9.7315505744671723e-06 1.2276765978191968e-07 0 -1.4283095707518083e-05 -2.413605295685881e-06 0 -1.1329605626651086e-05 -2.538581290271224e-06 0 -1.4254351326002549e-05 -9.9454418750375003e-07 0 -1.9126592005538544e-05 -4.4006734638492505e-06 0 -1.4283095707518081e-05 -2.413605295685881e-06 0 -1.4283095707518081e-05 -2.413605295685881e-06 0 -9.7315505744671723e-06 1.2276765978191963e-07 0 -1.4254351326002549e-05 -9.9454418750375003e-07 0 -1.4254351326002549e-05 -9.9454418750375003e-07 0 -9.7315505744671723e-06 1.2276765978191968e-07 0 -1.0304794750210598e-05 8.983231845753472e-07 0 -9.7315505744671723e-06 1.2276765978191968e-07 0 -5.9625181194328655e-06 1.3766863460791748e-06 0 -7.1754174433040321e-06 1.8863879798549569e-06 0 -9.7315505744671723e-06 1.2276765978191968e-07 0 -6.9008878540272114e-06 -2.8434054501175336e-07 0 -5.9625181194328655e-06 1.3766863460791748e-06 0 -3.5714265728457663e-06 1.3793737988900609e-06 0 -5.9625181194328646e-06 1.376686346079175e-06 0 -6.9008878540272114e-06 -2.8434054501175336e-07 0 -7.4582963469513462e-06 -2.5926162680123134e-06 0 -3.7402516226546888e-06 -9.6844476651018709e-07 0 -6.9008878540272114e-06 -2.8434054501175336e-07 0 -3.5714265728457663e-06 1.3793737988900609e-06 0 -6.9008878540272114e-06 -2.8434054501175336e-07 0 -3.7402516226546888e-06 -9.6844476651018709e-07 0 -9.7315505744671723e-06 1.2276765978191968e-07 0 -1.1329605626651086e-05 -2.538581290271224e-06 0 -6.9008878540272114e-06 -2.8434054501175336e-07 0 -9.8152049821632975e-07 9.5144281876170127e-07 0 8.0701259844700726e-07 2.0687989872367125e-06 0 -1.3637816143398406e-06 2.7618846621547642e-06 0 -3.5714265728457663e-06 1.3793737988900609e-06 0 -9.8152049821632975e-07 9.5144281876170127e-07 0 -1.3637816143398406e-06 2.7618846621547642e-06 0 -3.5714265728457663e-06 1.3793737988900609e-06 0 -3.7402516226546883e-06 -9.6844476651018731e-07 0 -9.8152049821632975e-07 9.5144281876170127e-07 0 -1.9895693341866818e-07 -2.2090118918594792e-06 0 1.9836060283383526e-06 6.3186945788595029e-07 0 -9.8152049821632975e-07 9.5144281876170127e-07 0 -1.9895693341866818e-07 -2.2090118918594792e-06 0 -9.8152049821633017e-07 9.5144281876170105e-07 0 -3.7402516226546888e-06 -9.6844476651018709e-07 0 -1.9895693341866818e-07 -2.2090118918594792e-06 0 -3.7402516226546888e-06 -9.6844476651018709e-07 0 -5.2725195338057549e-06 -4.3075206332151307e-06 0 -1.9895693341866818e-07 -2.2090118918594792e-06 0 -5.2725195338057549e-06 -4.3075206332151307e-06 0 -1.9114888494015317e-06 -6.7242916155823088e-06 0 -1.9895693341866818e-07 -2.2090118918594792e-06 0 -1.9114888494015317e-06 -6.7242916155823088e-06 0 3.0278075071037893e-06 -5.1296949140787734e-06 0 -7.4582963469513462e-06 -2.5926162680123134e-06 0 -6.9008878540272114e-06 -2.8434054501175336e-07 0 -1.1329605626651086e-05 -2.538581290271224e-06 0 -7.4582963469513462e-06 -2.5926162680123134e-06 0 -1.1329605626651084e-05 -2.538581290271224e-06 0 -1.0883117121259782e-05 -5.5330714273392208e-06 0 -7.4582963469513462e-06 -2.5926162680123134e-06 0 -5.2725195338057549e-06 -4.3075206332151307e-06 0 -3.7402516226546888e-06 -9.6844476651018709e-07 0 -8.5126381070136862e-06 -8.7359040028005736e-06 0 -5.2725195338057549e-06 -4.3075206332151307e-06 0 -1.0883117121259782e-05 -5.5330714273392208e-06 0 -7.4582963469513462e-06 -2.5926162680123134e-06 0 -1.0883117121259782e-05 -5.5330714273392208e-06 0 -5.2725195338057549e-06 -4.3075206332151307e-06 0 -8.5126381070136862e-06 -8.7359040028005736e-06 0 -1.0883117121259782e-05 -5.5330714273392208e-06 0 -1.6025743590769914e-05 -9.9668796265996178e-06 0 -8.5126381070136862e-06 -8.7359040028005736e-06 0 -1.3514117091623591e-05 -1.5456375450320047e-05 0 -4.423709736102808e-06 -1.1886314612678504e-05 0 -8.5126381070136862e-06 -8.7359040028005736e-06 0 -1.6025743590769914e-05 -9.9668796265996178e-06 0 -1.3514117091623591e-05 -1.5456375450320047e-05 0 2.003463708631458e-06 -9.9204486168342107e-06 0 3.0278075071037893e-06 -5.1296949140787742e-06 0 -1.9114888494015317e-06 -6.7242916155823088e-06 0 -8.5126381070136862e-06 -8.7359040028005736e-06 0 -1.9114888494015317e-06 -6.724291615582308e-06 0 -5.2725195338057549e-06 -4.3075206332151307e-06 0 -8.5126381070136862e-06 -8.7359040028005736e-06 0 -4.423709736102808e-06 -1.1886314612678504e-05 0 -1.9114888494015317e-06 -6.7242916155823088e-06 0 2.003463708631458e-06 -9.9204486168342107e-06 0 -1.9114888494015317e-06 -6.7242916155823088e-06 0 -4.423709736102808e-06 -1.1886314612678504e-05 0 2.003463708631458e-06 -9.9204486168342107e-06 0 -4.423709736102808e-06 -1.1886314612678504e-05 0 -3.649522818783889e-07 -1.6195908046403376e-05 0 -6.8978848180974184e-06 -1.9400564004239495e-05 0 -3.6495228187838869e-07 -1.6195908046403376e-05 0 -4.423709736102808e-06 -1.1886314612678504e-05 0 -6.8978848180974184e-06 -1.9400564004239495e-05 0 -1.0874922555301842e-05 -2.9321785379195088e-05 0 -3.8922624356349488e-06 -2.5726345881580268e-05 0 -6.8978848180974184e-06 -1.9400564004239495e-05 0 -3.8922624356349488e-06 -2.5726345881580268e-05 0 -3.649522818783889e-07 -1.6195908046403376e-05 0 3.2294785359038459e-06 -2.121621743591222e-05 0 -3.649522818783889e-07 -1.6195908046403376e-05 0 -3.8922624356349488e-06 -2.5726345881580268e-05 0 -6.8978848180974184e-06 -1.9400564004239495e-05 0 -1.3514117091623591e-05 -1.5456375450320047e-05 0 -1.4848772191823283e-05 -2.3020838572346192e-05 0 -6.8978848180974184e-06 -1.9400564004239495e-05 0 -4.423709736102808e-06 -1.1886314612678504e-05 0 -1.3514117091623591e-05 -1.5456375450320047e-05 0 -6.8978848180974184e-06 -1.9400564004239495e-05 0 -1.4848772191823283e-05 -2.3020838572346192e-05 0 -1.0874922555301842e-05 -2.9321785379195088e-05 0 -1.3514117091623591e-05 -1.5456375450320047e-05 0 -2.3206633628271377e-05 -2.3119098883269896e-05 0 -1.4848772191823283e-05 -2.3020838572346192e-05 0 -1.9807066887776553e-05 -2.9124951325408468e-05 0 -1.4848772191823283e-05 -2.3020838572346192e-05 0 -2.3206633628271377e-05 -2.3119098883269896e-05 0 -2.2906336046052087e-05 -1.6167206876376333e-05 0 -2.3206633628271377e-05 -2.3119098883269896e-05 0 -1.3514117091623591e-05 -1.5456375450320047e-05 0 -2.2906336046052087e-05 -1.6167206876376333e-05 0 -3.1674331721353194e-05 -2.2965452422773281e-05 0 -2.3206633628271377e-05 -2.3119098883269896e-05 0 -3.2951437333732423e-05 -3.377781008959031e-05 0 -2.3206633628271377e-05 -2.3119098883269896e-05 0 -3.1674331721353194e-05 -2.2965452422773281e-05 0 -4.3564791845678544e-05 -3.055457417559904e-05 0 -3.2951437333732423e-05 -3.377781008959031e-05 0 -3.1674331721353194e-05 -2.2965452422773281e-05 0 -3.754850773566509e-05 -2.09581331343025e-05 0 -4.3564791845678544e-05 -3.055457417559904e-05 0 -3.1674331721353194e-05 -2.2965452422773281e-05 0 -3.754850773566509e-05 -2.09581331343025e-05 0 -3.1674331721353194e-05 -2.2965452422773281e-05 0 -2.9402583490049698e-05 -1.6708141569135239e-05 0 -2.2906336046052087e-05 -1.6167206876376333e-05 0 -2.9402583490049698e-05 -1.6708141569135239e-05 0 -3.1674331721353194e-05 -2.2965452422773281e-05 0 -3.1500874331176592e-05 -1.3427683643857657e-05 0 -2.9402583490049698e-05 -1.6708141569135239e-05 0 -2.3450470201036748e-05 -1.1127460988745885e-05 0 -2.2906336046052087e-05 -1.6167206876376333e-05 0 -2.3450470201036748e-05 -1.1127460988745885e-05 0 -2.9402583490049698e-05 -1.6708141569135239e-05 0 -3.1500874331176592e-05 -1.3427683643857657e-05 0 -3.754850773566509e-05 -2.09581331343025e-05 0 -2.9402583490049698e-05 -1.6708141569135239e-05 0 -3.1500874331176592e-05 -1.3427683643857657e-05 0 -2.3450470201036744e-05 -1.1127460988745885e-05 0 -2.3214208485969016e-05 -7.9108659370434896e-06 0 -1.6939735721239924e-05 -5.7249284198540192e-06 0 -2.3450470201036748e-05 -1.1127460988745885e-05 0 -1.6025743590769914e-05 -9.9668796265996178e-06 0 -2.2906336046052087e-05 -1.6167206876376333e-05 0 -1.3514117091623589e-05 -1.5456375450320043e-05 0 -1.6025743590769914e-05 -9.9668796265996178e-06 0 -2.2906336046052087e-05 -1.6167206876376333e-05 0 -1.6025743590769914e-05 -9.9668796265996178e-06 0 -2.3450470201036748e-05 -1.1127460988745885e-05 0 1.1837533028329891e-05 -3.1335972282126227e-06 0 1.0991563911671726e-05 -1.5668877144209102e-06 0 9.9076739332348833e-06 -4.8189956036052323e-06 0 9.2510334682499525e-06 -2.7345327018251322e-06 0 9.9076739332348833e-06 -4.8189956036052323e-06 0 1.0991563911671726e-05 -1.5668877144209102e-06 0 9.2510334682499525e-06 -2.7345327018251322e-06 0 7.8617242172673208e-06 -5.3255599454173782e-06 0 9.9076739332348833e-06 -4.8189956036052323e-06 0 1.1837533028329891e-05 -3.1335972282126227e-06 0 1.3247527355336253e-05 3.1346979624603016e-07 0 1.0991563911671726e-05 -1.5668877144209102e-06 0 1.5584861573814285e-05 2.7666075185638633e-06 0 1.3247527355336253e-05 3.1346979624603037e-07 0 1.4903347127590699e-05 -2.6057672453908276e-08 0 1.1837533028329891e-05 -3.1335972282126227e-06 0 1.4903347127590699e-05 -2.6057672453908276e-08 0 1.3247527355336253e-05 3.1346979624603037e-07 0 1.1837533028329891e-05 -3.1335972282126227e-06 0 1.3235187872606555e-05 -3.3934255926285824e-06 0 1.4903347127590699e-05 -2.6057672453908276e-08 0 1.1837533028329891e-05 -3.1335972282126227e-06 0 1.1674588346984901e-05 -6.5899114840562836e-06 0 1.3235187872606555e-05 -3.3934255926285819e-06 0 1.473541473000782e-05 -4.1951734828252924e-06 0 1.4903347127590699e-05 -2.6057672453908276e-08 0 1.3235187872606555e-05 -3.3934255926285819e-06 0 1.473541473000782e-05 -4.1951734828252924e-06 0 1.3235187872606555e-05 -3.3934255926285815e-06 0 1.1674588346984901e-05 -6.5899114840562844e-06 0 9.0719636986718495e-06 -1.0984850410461401e-05 0 1.1674588346984901e-05 -6.5899114840562844e-06 0 9.7291900920278911e-06 -7.6062890871444211e-06 0 1.1837533028329891e-05 -3.1335972282126227e-06 0 9.7291900920278911e-06 -7.6062890871444202e-06 0 1.1674588346984901e-05 -6.5899114840562844e-06 0 1.1837533028329891e-05 -3.1335972282126227e-06 0 9.9076739332348833e-06 -4.8189956036052323e-06 0 9.7291900920278911e-06 -7.6062890871444211e-06 0 8.5627819445179608e-06 -8.1989811495660593e-06 0 9.7291900920278911e-06 -7.6062890871444202e-06 0 9.9076739332348833e-06 -4.8189956036052323e-06 0 9.0719636986718495e-06 -1.0984850410461401e-05 0 9.7291900920278911e-06 -7.6062890871444211e-06 0 7.7078182818020342e-06 -1.192216463022093e-05 0 9.3902839699500545e-06 -1.7768910062310928e-05 0 7.7078182818020342e-06 -1.1922164630220931e-05 0 8.1959279392568775e-06 -1.2248516974632857e-05 0 8.5627819445179608e-06 -8.1989811495660593e-06 0 8.1959279392568775e-06 -1.2248516974632857e-05 0 7.7078182818020342e-06 -1.192216463022093e-05 0 8.5627819445179608e-06 -8.1989811495660593e-06 0 6.637635092714438e-06 -8.1409369890170725e-06 0 8.1959279392568775e-06 -1.2248516974632857e-05 0 8.5627819445179608e-06 -8.1989811495660593e-06 0 7.7078182818020342e-06 -1.192216463022093e-05 0 9.7291900920278911e-06 -7.6062890871444211e-06 0 9.3902839699500545e-06 -1.7768910062310928e-05 0 5.7841856080393294e-06 -1.3647225431918853e-05 0 3.2294785359038459e-06 -2.121621743591222e-05 0 3.2294785359038459e-06 -2.121621743591222e-05 0 5.7841856080393294e-06 -1.3647225431918853e-05 0 -3.649522818783889e-07 -1.6195908046403376e-05 0 9.3902839699500545e-06 -1.7768910062310928e-05 0 8.1959279392568775e-06 -1.2248516974632857e-05 0 5.7841856080393294e-06 -1.3647225431918853e-05 0 6.637635092714438e-06 -8.1409369890170725e-06 0 5.7841856080393294e-06 -1.3647225431918853e-05 0 8.1959279392568775e-06 -1.2248516974632857e-05 0 2.003463708631458e-06 -9.9204486168342107e-06 0 -3.649522818783889e-07 -1.6195908046403376e-05 0 5.7841856080393294e-06 -1.3647225431918853e-05 0 2.003463708631458e-06 -9.9204486168342107e-06 0 5.7841856080393285e-06 -1.3647225431918855e-05 0 6.637635092714438e-06 -8.1409369890170725e-06 0 2.003463708631458e-06 -9.9204486168342107e-06 0 6.637635092714438e-06 -8.1409369890170725e-06 0 3.0278075071037893e-06 -5.1296949140787734e-06 0 5.9757620858688847e-06 -3.4673543175136482e-06 0 3.0278075071037893e-06 -5.1296949140787734e-06 0 6.637635092714438e-06 -8.1409369890170725e-06 0 8.5627819445179608e-06 -8.1989811495660593e-06 0 9.9076739332348833e-06 -4.8189956036052323e-06 0 7.8617242172673208e-06 -5.3255599454173782e-06 0 8.5627819445179608e-06 -8.1989811495660593e-06 0 7.8617242172673208e-06 -5.3255599454173782e-06 0 6.637635092714438e-06 -8.1409369890170725e-06 0 5.9757620858688847e-06 -3.4673543175136482e-06 0 6.637635092714438e-06 -8.1409369890170725e-06 0 7.8617242172673208e-06 -5.3255599454173782e-06 0 7.8617242172673208e-06 -5.3255599454173782e-06 0 7.740575601750212e-06 -4.4177093244320984e-07 0 5.9757620858688847e-06 -3.4673543175136482e-06 0 9.2510334682499525e-06 -2.7345327018251322e-06 0 7.740575601750212e-06 -4.4177093244320984e-07 0 7.8617242172673208e-06 -5.3255599454173782e-06 0 5.9757620858688847e-06 -3.4673543175136482e-06 0 7.7405756017502103e-06 -4.4177093244320931e-07 0 5.7730696269603952e-06 -8.2598050158974881e-07 0 7.740575601750212e-06 -4.4177093244320984e-07 0 6.3438453616470627e-06 8.3062759941638487e-07 0 5.7730696269603952e-06 -8.2598050158974881e-07 0 -1.9895693341866818e-07 -2.2090118918594792e-06 0 3.0278075071037893e-06 -5.1296949140787734e-06 0 3.6643153121514159e-06 -1.5961002912231743e-06 0 5.9757620858688847e-06 -3.4673543175136482e-06 0 3.6643153121514163e-06 -1.5961002912231743e-06 0 3.0278075071037893e-06 -5.1296949140787734e-06 0 5.9757620858688847e-06 -3.4673543175136482e-06 0 5.7730696269603943e-06 -8.259805015897486e-07 0 3.6643153121514159e-06 -1.5961002912231743e-06 0 4.4941888728635522e-06 7.2036801722217096e-07 0 3.6643153121514159e-06 -1.5961002912231743e-06 0 5.7730696269603952e-06 -8.2598050158974881e-07 0 -1.9895693341866818e-07 -2.2090118918594792e-06 0 3.6643153121514163e-06 -1.5961002912231741e-06 0 1.9836060283383526e-06 6.3186945788595029e-07 0 4.4941888728635522e-06 7.2036801722217096e-07 0 1.9836060283383526e-06 6.3186945788595019e-07 0 3.6643153121514159e-06 -1.5961002912231743e-06 0 4.4941888728635522e-06 7.2036801722217096e-07 0 3.0367495335795235e-06 2.4124442717717484e-06 0 1.9836060283383526e-06 6.3186945788595029e-07 0 8.0701259844700726e-07 2.0687989872367125e-06 0 1.9836060283383526e-06 6.3186945788595029e-07 0 3.0367495335795235e-06 2.4124442717717484e-06 0 8.0701259844700726e-07 2.0687989872367125e-06 0 -9.8152049821632975e-07 9.5144281876170127e-07 0 1.9836060283383526e-06 6.3186945788595029e-07 0 7.5449677246107345e-06 1.8058712863715243e-06 0 6.3438453616470627e-06 8.3062759941638466e-07 0 7.740575601750212e-06 -4.4177093244320984e-07 0 4.4941888728635522e-06 7.2036801722217096e-07 0 5.7730696269603952e-06 -8.2598050158974881e-07 0 6.3438453616470627e-06 8.3062759941638487e-07 0 4.4941888728635522e-06 7.2036801722217096e-07 0 6.3438453616470627e-06 8.3062759941638487e-07 0 5.3875807472736683e-06 2.0450714441811311e-06 0 4.4941888728635522e-06 7.2036801722217096e-07 0 5.3875807472736683e-06 2.0450714441811311e-06 0 3.0367495335795235e-06 2.4124442717717484e-06 0 7.5449677246107345e-06 1.8058712863715243e-06 0 5.3875807472736683e-06 2.0450714441811311e-06 0 6.3438453616470627e-06 8.3062759941638487e-07 0 7.5449677246107345e-06 1.8058712863715243e-06 0 5.5286233512570868e-06 2.828961730110624e-06 0 5.3875807472736683e-06 2.0450714441811311e-06 0 7.5449677246107345e-06 1.8058712863715243e-06 0 9.8291390296430586e-06 1.9893844022637156e-06 0 7.6013445404643966e-06 2.563911913519227e-06 0 9.8291390296430586e-06 1.9893844022637156e-06 0 9.9142058423778907e-06 2.5365571204934444e-06 0 7.6013445404643966e-06 2.563911913519227e-06 0 7.5449677246107345e-06 1.8058712863715243e-06 0 9.2849671899069668e-06 8.374876581176634e-07 0 9.8291390296430586e-06 1.9893844022637156e-06 0 7.5449677246107345e-06 1.8058712863715243e-06 0 7.740575601750212e-06 -4.4177093244320984e-07 0 9.2849671899069668e-06 8.374876581176634e-07 0 7.740575601750212e-06 -4.4177093244320984e-07 0 9.8096178825135835e-06 -5.6054430660718569e-07 0 9.2849671899069668e-06 8.374876581176634e-07 0 1.1457693295212164e-05 9.7953849262956187e-07 0 9.2849671899069668e-06 8.374876581176634e-07 0 9.8096178825135835e-06 -5.6054430660718569e-07 0 1.1457693295212164e-05 9.7953849262956187e-07 0 9.8291390296430586e-06 1.9893844022637156e-06 0 9.2849671899069668e-06 8.374876581176634e-07 0 1.1457693295212164e-05 9.7953849262956187e-07 0 9.8096178825135835e-06 -5.6054430660718569e-07 0 1.0991563911671726e-05 -1.5668877144209102e-06 0 9.2510334682499525e-06 -2.7345327018251322e-06 0 1.0991563911671726e-05 -1.5668877144209105e-06 0 9.8096178825135835e-06 -5.6054430660718569e-07 0 9.2510334682499525e-06 -2.7345327018251322e-06 0 9.8096178825135835e-06 -5.6054430660718579e-07 0 7.740575601750212e-06 -4.4177093244320984e-07 0 1.5584861573814285e-05 2.7666075185638633e-06 0 1.3511279721354569e-05 2.1022335478410298e-06 0 1.3247527355336253e-05 3.1346979624603037e-07 0 1.1457693295212164e-05 9.7953849262956187e-07 0 1.3247527355336253e-05 3.1346979624603037e-07 0 1.3511279721354569e-05 2.1022335478410298e-06 0 1.1457693295212164e-05 9.7953849262956187e-07 0 1.0991563911671726e-05 -1.5668877144209102e-06 0 1.3247527355336253e-05 3.1346979624603037e-07 0 1.1457693295212164e-05 9.7953849262956187e-07 0 1.2084254496556201e-05 2.363147445880475e-06 0 9.8291390296430586e-06 1.9893844022637156e-06 0 1.3511279721354569e-05 2.1022335478410298e-06 0 1.4910469558457564e-05 3.456370934104885e-06 0 1.2084254496556201e-05 2.363147445880475e-06 0 1.1457693295212164e-05 9.7953849262956187e-07 0 1.3511279721354569e-05 2.1022335478410298e-06 0 1.2084254496556201e-05 2.363147445880475e-06 0 1.2383419846514854e-05 2.7993370159761929e-06 0 9.9142058423778907e-06 2.5365571204934444e-06 0 1.2084254496556201e-05 2.363147445880475e-06 0 9.8291390296430586e-06 1.9893844022637156e-06 0 1.2084254496556201e-05 2.363147445880475e-06 0 9.9142058423778907e-06 2.5365571204934444e-06 0 1.2383419846514854e-05 2.7993370159761929e-06 0 1.0187863204938398e-05 2.5187965969408578e-06 0 9.9142058423778907e-06 2.5365571204934444e-06 0 8.1879340193352326e-06 2.6099343175646509e-06 0 1.0187863204938398e-05 2.5187965969408574e-06 0 7.900046371614272e-06 2.3258942795751029e-06 0 8.1879340193352326e-06 2.6099343175646509e-06 0 7.900046371614272e-06 2.3258942795751029e-06 0 6.4440184254307585e-06 2.7553850877073908e-06 0 8.1879340193352326e-06 2.6099343175646509e-06 0 7.6013445404643966e-06 2.563911913519227e-06 0 9.9142058423778907e-06 2.5365571204934444e-06 0 8.1879340193352326e-06 2.6099343175646509e-06 0 9.9142058423778907e-06 2.5365571204934444e-06 0 1.0187863204938398e-05 2.5187965969408578e-06 0 7.5449677246107345e-06 1.8058712863715243e-06 0 7.6013445404643966e-06 2.5639119135192266e-06 0 5.5286233512570876e-06 2.828961730110624e-06 0 4.5245201797744567e-06 2.9967300198212647e-06 0 5.5286233512570876e-06 2.828961730110624e-06 0 6.4440184254307585e-06 2.7553850877073908e-06 0 5.5286233512570876e-06 2.828961730110624e-06 0 7.6013445404643966e-06 2.563911913519227e-06 0 6.4440184254307585e-06 2.7553850877073908e-06 0 8.1879340193352326e-06 2.6099343175646509e-06 0 6.4440184254307585e-06 2.7553850877073908e-06 0 7.6013445404643966e-06 2.563911913519227e-06 0 5.9449229256507361e-06 2.3040794579906626e-06 0 4.4846767445103153e-06 2.5343900701478013e-06 0 6.4440184254307585e-06 2.7553850877073908e-06 0 4.5245201797744567e-06 2.9967300198212647e-06 0 6.4440184254307585e-06 2.7553850877073908e-06 0 4.4846767445103153e-06 2.5343900701478013e-06 0 4.5245201797744567e-06 2.9967300198212647e-06 0 4.4846767445103153e-06 2.5343900701478013e-06 0 2.9909428180111094e-06 2.6140696291117664e-06 0 5.9449229256507361e-06 2.3040794579906626e-06 0 4.1292315907794649e-06 1.8447031542823168e-06 0 4.4846767445103153e-06 2.5343900701478013e-06 0 5.0077693712247836e-06 1.3452339052414206e-06 0 4.1292315907794649e-06 1.8447031542823168e-06 0 5.9449229256507361e-06 2.3040794579906626e-06 0 5.0077693712247836e-06 1.3452339052414206e-06 0 5.9449229256507361e-06 2.3040794579906626e-06 0 7.0933518661497633e-06 1.7567239468772283e-06 0 5.9449229256507361e-06 2.3040794579906626e-06 0 7.900046371614272e-06 2.3258942795751029e-06 0 7.0933518661497633e-06 1.7567239468772283e-06 0 5.9449229256507361e-06 2.3040794579906626e-06 0 6.4440184254307585e-06 2.7553850877073908e-06 0 7.900046371614272e-06 2.3258942795751029e-06 0 8.0701259844700726e-07 2.0687989872367125e-06 0 3.0367495335795235e-06 2.412444271771748e-06 0 1.0990026469004198e-06 3.0876938048135134e-06 0 2.9268645098308569e-06 3.2118597436541376e-06 0 1.0990026469004198e-06 3.0876938048135134e-06 0 3.0367495335795235e-06 2.4124442717717484e-06 0 2.9268645098308569e-06 3.2118597436541376e-06 0 1.2833286121823366e-06 3.4590251856031468e-06 0 1.0990026469004198e-06 3.0876938048135134e-06 0 2.9268645098308569e-06 3.2118597436541376e-06 0 4.2762823977272164e-06 2.7643523749059496e-06 0 4.0133326495082455e-06 3.1395338389381342e-06 0 2.9268645098308569e-06 3.2118597436541376e-06 0 3.0367495335795235e-06 2.4124442717717484e-06 0 4.2762823977272164e-06 2.7643523749059496e-06 0 3.0367495335795235e-06 2.4124442717717484e-06 0 5.3875807472736683e-06 2.0450714441811311e-06 0 4.2762823977272164e-06 2.7643523749059496e-06 0 5.5286233512570876e-06 2.828961730110624e-06 0 4.2762823977272164e-06 2.7643523749059496e-06 0 5.3875807472736683e-06 2.0450714441811311e-06 0 5.5286233512570876e-06 2.828961730110624e-06 0 4.0133326495082455e-06 3.1395338389381342e-06 0 4.2762823977272164e-06 2.7643523749059496e-06 0 4.5245201797744567e-06 2.9967300198212647e-06 0 4.0133326495082455e-06 3.1395338389381342e-06 0 5.5286233512570876e-06 2.828961730110624e-06 0 4.5245201797744567e-06 2.9967300198212647e-06 0 2.5731685838346928e-06 3.2740017828406025e-06 0 4.0133326495082455e-06 3.1395338389381342e-06 0 4.5245201797744567e-06 2.9967300198212647e-06 0 2.9909428180111094e-06 2.6140696291117664e-06 0 2.5731685838346928e-06 3.2740017828406025e-06 0 2.9268645098308569e-06 3.2118597436541376e-06 0 4.0133326495082447e-06 3.1395338389381342e-06 0 2.5731685838346928e-06 3.2740017828406025e-06 0 2.9268645098308569e-06 3.2118597436541376e-06 0 2.5731685838346928e-06 3.2740017828406029e-06 0 1.2833286121823366e-06 3.4590251856031468e-06 0 6.3552177845995817e-07 3.327079455505353e-06 0 1.2833286121823366e-06 3.4590251856031468e-06 0 2.5731685838346928e-06 3.2740017828406025e-06 0 6.3552177845995817e-07 3.327079455505353e-06 0 -1.6752587182417224e-07 3.4549661339509485e-06 0 1.2833286121823366e-06 3.4590251856031468e-06 0 -5.3942632786848731e-07 3.4246871663978516e-06 0 1.0990026469004198e-06 3.0876938048135134e-06 0 1.2833286121823366e-06 3.4590251856031468e-06 0 -5.3942632786848731e-07 3.4246871663978516e-06 0 1.2833286121823366e-06 3.4590251856031468e-06 0 -1.6752587182417224e-07 3.4549661339509485e-06 0 2.5856799969320929e-07 1.8994122305499657e-06 0 -6.5742332968807678e-08 3.0077811643294849e-06 0 1.1109233860694416e-06 2.8547657346544149e-06 0 6.3552177845995817e-07 3.327079455505353e-06 0 -6.5742332968807692e-08 3.0077811643294849e-06 0 -1.6752587182417224e-07 3.4549661339509485e-06 0 6.3552177845995817e-07 3.327079455505353e-06 0 1.1109233860694416e-06 2.8547657346544149e-06 0 -6.5742332968807678e-08 3.0077811643294849e-06 0 6.3552177845995817e-07 3.327079455505353e-06 0 2.5731685838346928e-06 3.2740017828406025e-06 0 1.1109233860694416e-06 2.8547657346544149e-06 0 2.5856799969320929e-07 1.8994122305499657e-06 0 1.1109233860694416e-06 2.8547657346544149e-06 0 6.9462529488002747e-07 1.6480421013307872e-06 0 1.7363039418533904e-06 2.5078666583460897e-06 0 6.9462529488002747e-07 1.6480421013307872e-06 0 1.1109233860694416e-06 2.8547657346544149e-06 0 1.7363039418533904e-06 2.5078666583460897e-06 0 1.1109233860694416e-06 2.8547657346544144e-06 0 2.5731685838346928e-06 3.2740017828406025e-06 0 1.7363039418533904e-06 2.5078666583460897e-06 0 2.5731685838346928e-06 3.2740017828406025e-06 0 2.9909428180111094e-06 2.6140696291117664e-06 0 1.7363039418533904e-06 2.5078666583460897e-06 0 2.9909428180111094e-06 2.6140696291117664e-06 0 1.201217374662133e-06 1.5515384311745824e-06 0 1.7363039418533904e-06 2.5078666583460897e-06 0 1.201217374662133e-06 1.5515384311745822e-06 0 6.9462529488002747e-07 1.6480421013307872e-06 0 8.1299373199644205e-10 7.5429834877265904e-10 0 6.9462529488002747e-07 1.6480421013307872e-06 0 1.201217374662133e-06 1.5515384311745824e-06 0 8.1299373199644205e-10 7.5429834877265904e-10 0 4.813530222180447e-10 7.4933132848440687e-10 0 6.9462529488002747e-07 1.6480421013307872e-06 0 4.813530222180447e-10 7.4933132848440687e-10 0 2.5856799969320929e-07 1.8994122305499657e-06 0 6.9462529488002747e-07 1.6480421013307872e-06 0 4.813530222180447e-10 7.4933132848440687e-10 0 -2.4746717325653524e-11 8.534386200738615e-10 0 2.5856799969320929e-07 1.8994122305499657e-06 0 -2.4746717325653524e-11 8.534386200738615e-10 0 -2.1829446659912094e-07 1.7390797203985209e-06 0 2.5856799969320929e-07 1.8994122305499657e-06 0 2.4928463241457752e-06 1.7099555359772944e-06 0 4.1292315907794649e-06 1.8447031542823166e-06 0 2.5640243967029301e-06 1.0052650885009454e-06 0 5.0077693712247836e-06 1.3452339052414206e-06 0 2.5640243967029301e-06 1.0052650885009454e-06 0 4.1292315907794649e-06 1.8447031542823168e-06 0 4.1292315907794649e-06 1.8447031542823168e-06 0 2.4928463241457752e-06 1.7099555359772944e-06 0 4.4846767445103153e-06 2.5343900701478013e-06 0 2.4928463241457752e-06 1.7099555359772944e-06 0 2.9909428180111094e-06 2.6140696291117664e-06 0 4.4846767445103153e-06 2.5343900701478013e-06 0 2.4928463241457752e-06 1.7099555359772944e-06 0 1.201217374662133e-06 1.5515384311745824e-06 0 2.9909428180111094e-06 2.6140696291117664e-06 0 2.4928463241457752e-06 1.7099555359772944e-06 0 1.0303130155177718e-06 9.5062442386688552e-07 0 1.201217374662133e-06 1.5515384311745824e-06 0 1.2789183241402722e-09 5.0166171884502871e-10 0 8.1299373199644205e-10 7.5429834877265904e-10 0 1.201217374662133e-06 1.5515384311745824e-06 0 1.2789183241402722e-09 5.0166171884502871e-10 0 1.201217374662133e-06 1.5515384311745824e-06 0 1.030313015517772e-06 9.5062442386688573e-07 0 1.5088004432561883e-09 4.2318126713973864e-10 0 1.2789183241402722e-09 5.0166171884502871e-10 0 1.030313015517772e-06 9.5062442386688573e-07 0 1.5088004432561883e-09 4.2318126713973864e-10 0 1.030313015517772e-06 9.5062442386688584e-07 0 1.0896447903823494e-06 7.1121807991056127e-07 0 1.6253638186263548e-09 3.5347793216195144e-10 0 1.0896447903823494e-06 7.1121807991056127e-07 0 2.5640243967029301e-06 1.0052650885009454e-06 0 2.4928463241457752e-06 1.7099555359772944e-06 0 2.5640243967029301e-06 1.0052650885009454e-06 0 1.0896447903823494e-06 7.1121807991056127e-07 0 2.4928463241457752e-06 1.7099555359772944e-06 0 1.0896447903823494e-06 7.1121807991056127e-07 0 1.030313015517772e-06 9.5062442386688573e-07 0 1.6253638186263548e-09 3.5347793216195144e-10 0 1.5088004432561883e-09 4.2318126713973864e-10 0 1.0896447903823494e-06 7.1121807991056127e-07 0 1.6253638186263548e-09 3.5347793216195144e-10 0 2.5640243967029301e-06 1.0052650885009454e-06 0 1.6701468888312196e-06 2.9515210387367811e-07 0 1.7525256790248936e-09 -1.0786231970048468e-10 0 1.625363818626446e-09 3.5347793216196757e-10 0 1.6701468888312196e-06 2.9515210387367811e-07 0 1.7525256790248936e-09 -1.0786231970048468e-10 0 1.6701468888312196e-06 2.9515210387367811e-07 0 1.2742040673000172e-06 -1.1709430352875161e-07 0 3.1616717820647676e-06 -2.1956044032916166e-08 0 1.2742040673000172e-06 -1.1709430352875161e-07 0 1.6701468888312196e-06 2.9515210387367811e-07 0 2.5640243967029301e-06 1.0052650885009454e-06 0 3.4599264091309086e-06 5.7123058910755882e-07 0 1.6701468888312196e-06 2.9515210387367811e-07 0 5.0077693712247836e-06 1.3452339052414206e-06 0 3.4599264091309082e-06 5.7123058910755882e-07 0 2.5640243967029301e-06 1.0052650885009454e-06 0 3.1616717820647676e-06 -2.1956044032916166e-08 0 1.6701468888312196e-06 2.9515210387367811e-07 0 3.4599264091309082e-06 5.7123058910755882e-07 0 3.1616717820647676e-06 -2.1956044032916166e-08 0 3.4599264091309082e-06 5.7123058910755882e-07 0 5.0105389153264875e-06 2.1648254748219134e-07 0 3.4599264091309082e-06 5.7123058910755882e-07 0 5.0077693712247836e-06 1.3452339052414206e-06 0 5.0105389153264875e-06 2.1648254748219134e-07 0 3.1616717820647676e-06 -2.1956044032916166e-08 0 5.0105389153264875e-06 2.1648254748219134e-07 0 4.2564589711669072e-06 -6.8686875392674202e-07 0 3.1328635962750741e-06 -1.4206134711902022e-06 0 1.8263001369229341e-06 -6.4033707137679005e-07 0 4.2564589711669072e-06 -6.8686875392674202e-07 0 3.1616717820647676e-06 -2.1956044032916166e-08 0 4.2564589711669072e-06 -6.8686875392674202e-07 0 1.8263001369229341e-06 -6.4033707137679005e-07 0 3.1616717820647676e-06 -2.1956044032916166e-08 0 1.8263001369229341e-06 -6.4033707137679005e-07 0 1.2742040673000172e-06 -1.1709430352875161e-07 0 1.7839265689831691e-09 2.0962792393366348e-11 0 1.7525256790246603e-09 -1.0786231970046323e-10 0 1.2742040673000172e-06 -1.1709430352875161e-07 0 1.3894266969224173e-09 -5.533431142145037e-10 0 1.7839265689831691e-09 2.0962792393366348e-11 0 1.8263001369229341e-06 -6.4033707137679005e-07 0 1.7839265689831691e-09 2.0962792393366348e-11 0 1.2742040673000172e-06 -1.1709430352875168e-07 0 1.8263001369229341e-06 -6.4033707137679005e-07 0 1.0258692496912704e-09 -7.02722571831972e-10 0 1.3894266969224173e-09 -5.533431142145037e-10 0 1.4141068418707171e-06 -1.2458913523948052e-06 0 3.1328635962750741e-06 -1.4206134711902022e-06 0 1.4141068418707173e-06 -1.2458913523948052e-06 0 1.8263001369229341e-06 -6.4033707137679005e-07 0 1.3894266969224173e-09 -5.533431142145037e-10 0 1.8263001369229341e-06 -6.4033707137679005e-07 0 1.4141068418707171e-06 -1.2458913523948052e-06 0 4.4841268751323984e-10 -1.0428342054642518e-09 0 1.0258692496912704e-09 -7.02722571831972e-10 0 9.1614636397020186e-07 -1.9653467513261216e-06 0 1.0258692496912704e-09 -7.02722571831972e-10 0 1.4141068418707171e-06 -1.2458913523948052e-06 0 9.1614636397020186e-07 -1.9653467513261216e-06 0 4.4841268751323984e-10 -1.0428342054642518e-09 0 9.1614636397020186e-07 -1.9653467513261216e-06 0 2.098500075284022e-07 -2.1325070149128264e-06 0 9.1614636397020186e-07 -1.9653467513261216e-06 0 3.0355537356330701e-06 -2.4829942857359498e-06 0 1.1568843627333161e-06 -3.3239898052848572e-06 0 2.7155961038864592e-06 -3.2357406965274051e-06 0 1.1568843627333161e-06 -3.3239898052848572e-06 0 3.0355537356330701e-06 -2.4829942857359498e-06 0 9.1614636397020186e-07 -1.9653467513261216e-06 0 1.4141068418707171e-06 -1.2458913523948052e-06 0 3.0355537356330701e-06 -2.4829942857359498e-06 0 2.7155961038864592e-06 -3.2357406965274051e-06 0 2.2198126604954275e-06 -3.7177030927564438e-06 0 1.1568843627333161e-06 -3.3239898052848572e-06 0 3.1328635962750741e-06 -1.4206134711902022e-06 0 3.0355537356330701e-06 -2.4829942857359498e-06 0 1.4141068418707171e-06 -1.2458913523948052e-06 0 3.1328635962750741e-06 -1.4206134711902022e-06 0 4.9180210391605991e-06 -1.345622768458636e-06 0 3.0355537356330701e-06 -2.4829942857359498e-06 0 3.1328635962750741e-06 -1.4206134711902022e-06 0 4.256458971166908e-06 -6.8686875392674202e-07 0 4.9180210391605991e-06 -1.345622768458636e-06 0 6.5723516966400216e-06 -1.6900315818725221e-06 0 3.0355537356330701e-06 -2.4829942857359498e-06 0 4.9180210391605991e-06 -1.345622768458636e-06 0 7.1344633359897416e-06 -2.7236350291885142e-07 0 6.5723516966400216e-06 -1.6900315818725221e-06 0 4.9180210391605991e-06 -1.345622768458636e-06 0 7.1344633359897416e-06 -2.7236350291885142e-07 0 9.3383546425150746e-06 3.7480402901202323e-08 0 6.5723516966400216e-06 -1.6900315818725221e-06 0 6.5723516966400216e-06 -1.6900315818725221e-06 0 4.5514923872053834e-06 -2.8284433863825437e-06 0 3.0355537356330701e-06 -2.4829942857359498e-06 0 2.7155961038864592e-06 -3.2357406965274051e-06 0 4.5514923872053834e-06 -2.8284433863825437e-06 0 2.2198126604954275e-06 -3.7177030927564438e-06 0 2.7155961038864592e-06 -3.2357406965274051e-06 0 3.0355537356330701e-06 -2.4829942857359498e-06 0 4.5514923872053834e-06 -2.8284433863825437e-06 0 6.5723516966400216e-06 -1.6900315818725221e-06 0 6.2376601523240815e-06 -2.3511944499797288e-06 0 4.5514923872053834e-06 -2.8284433863825437e-06 0 3.1088754498222845e-06 -3.6889777695873914e-06 0 2.2198126604954275e-06 -3.7177030927564438e-06 0 4.5514923872053834e-06 -2.8284433863825437e-06 0 3.1088754498222845e-06 -3.6889777695873914e-06 0 4.5514923872053834e-06 -2.8284433863825437e-06 0 6.2376601523240815e-06 -2.3511944499797288e-06 0 3.1088754498222845e-06 -3.6889777695873914e-06 0 6.2376601523240815e-06 -2.3511944499797288e-06 0 7.0519340320246639e-06 -2.0117007406231485e-06 0 9.6413743547820635e-06 -6.7321165143738736e-07 0 7.0519340320246639e-06 -2.0117007406231485e-06 0 6.2376601523240815e-06 -2.3511944499797288e-06 0 9.6413743547820635e-06 -6.7321165143738736e-07 0 1.0673352792092841e-05 1.0656430182106995e-07 0 7.0519340320246639e-06 -2.0117007406231485e-06 0 7.094334628170771e-06 -1.1380777715250491e-06 0 2.6665122010260915e-06 -3.1227126592504486e-06 0 7.0519340320246639e-06 -2.0117007406231485e-06 0 7.094334628170771e-06 -1.1380777715250491e-06 0 7.0519340320246639e-06 -2.0117007406231485e-06 0 1.0673352792092842e-05 1.0656430182106959e-07 0 9.6413743547820635e-06 -6.7321165143738736e-07 0 6.5723516966400216e-06 -1.6900315818725221e-06 0 9.3383546425150746e-06 3.7480402901202323e-08 0 9.6413743547820635e-06 -6.7321165143738736e-07 0 6.2376601523240815e-06 -2.3511944499797288e-06 0 6.5723516966400216e-06 -1.6900315818725221e-06 0 9.6413743547820635e-06 -6.7321165143738736e-07 0 9.3383546425150746e-06 3.7480402901202323e-08 0 1.2100965356627436e-05 1.1484041718771055e-06 0 9.6413743547820635e-06 -6.7321165143738736e-07 0 1.2100965356627436e-05 1.1484041718771055e-06 0 1.3904929027144371e-05 1.9095296670958052e-06 0 1.1066987159597867e-05 1.4530186754300352e-06 0 1.2100965356627436e-05 1.1484041718771055e-06 0 9.3383546425150746e-06 3.7480402901202323e-08 0 1.3510980723814744e-05 2.3022238135715753e-06 0 1.2100965356627436e-05 1.1484041718771055e-06 0 1.1066987159597867e-05 1.4530186754300352e-06 0 1.1066987159597867e-05 1.4530186754300352e-06 0 9.3383546425150746e-06 3.7480402901202323e-08 0 8.6583266352200455e-06 7.4616381781654271e-07 0 9.1747461102755104e-06 1.7807275441247833e-06 0 1.1066987159597867e-05 1.453018675430035e-06 0 8.6583266352200455e-06 7.4616381781654271e-07 0 1.3510980723814744e-05 2.3022238135715753e-06 0 1.1066987159597867e-05 1.4530186754300352e-06 0 1.2019015272920454e-05 2.4110065164225443e-06 0 9.1747461102755104e-06 1.7807275441247833e-06 0 1.2019015272920454e-05 2.4110065164225443e-06 0 1.1066987159597867e-05 1.4530186754300352e-06 0 9.1747461102755104e-06 1.7807275441247833e-06 0 1.0187863204938398e-05 2.5187965969408578e-06 0 1.2019015272920454e-05 2.4110065164225443e-06 0 9.1747461102755104e-06 1.7807275441247833e-06 0 7.0933518661497633e-06 1.7567239468772283e-06 0 7.900046371614272e-06 2.3258942795751029e-06 0 9.1747461102755104e-06 1.7807275441247833e-06 0 7.900046371614272e-06 2.3258942795751029e-06 0 1.0187863204938398e-05 2.5187965969408578e-06 0 9.1747461102755104e-06 1.7807275441247833e-06 0 8.6583266352200455e-06 7.4616381781654271e-07 0 6.6848402834220761e-06 8.3334409003820699e-07 0 9.1747461102755104e-06 1.7807275441247833e-06 0 6.6848402834220761e-06 8.3334409003820699e-07 0 7.0933518661497633e-06 1.7567239468772283e-06 0 5.0077693712247836e-06 1.3452339052414206e-06 0 7.0933518661497633e-06 1.7567239468772283e-06 0 6.6848402834220761e-06 8.3334409003820699e-07 0 5.0105389153264875e-06 2.1648254748219134e-07 0 5.0077693712247836e-06 1.3452339052414206e-06 0 6.6848402834220761e-06 8.3334409003820699e-07 0 7.1344633359897416e-06 -2.7236350291885142e-07 0 5.0105389153264875e-06 2.1648254748219134e-07 0 6.6848402834220761e-06 8.3334409003820699e-07 0 7.1344633359897416e-06 -2.7236350291885142e-07 0 4.2564589711669072e-06 -6.8686875392674202e-07 0 5.0105389153264875e-06 2.1648254748219134e-07 0 7.1344633359897416e-06 -2.7236350291885142e-07 0 4.9180210391605991e-06 -1.345622768458636e-06 0 4.2564589711669072e-06 -6.8686875392674202e-07 0 8.6583266352200455e-06 7.4616381781654271e-07 0 9.3383546425150746e-06 3.7480402901202323e-08 0 7.1344633359897416e-06 -2.7236350291885142e-07 0 7.1344633359897416e-06 -2.7236350291885142e-07 0 6.6848402834220761e-06 8.333440900382071e-07 0 8.6583266352200455e-06 7.4616381781654271e-07 0 -1.0778157212036926e-05 -1.8182965900555227e-06 0 -6.2037166342847297e-06 -1.3917870120207915e-06 0 -6.0193956497625619e-06 -2.6191623871188322e-06 0 -3.6556042936221563e-06 -3.0731371087627644e-06 0 -6.0193956497625619e-06 -2.6191623871188322e-06 0 -2.7535060210458195e-06 -1.5666821354499836e-06 0 -2.6473743436276231e-06 -3.9026349231412584e-07 0 -2.7535060210458195e-06 -1.5666821354499836e-06 0 -6.2037166342847297e-06 -1.3917870120207915e-06 0 -6.2037166342847297e-06 -1.3917870120207915e-06 0 -2.7535060210458195e-06 -1.5666821354499836e-06 0 -6.0193956497625619e-06 -2.6191623871188322e-06 0 -2.6473743436276231e-06 -3.9026349231412584e-07 0 -1.2059608838179628e-06 -4.8614217258270009e-07 0 -2.7535060210458195e-06 -1.5666821354499836e-06 0 -2.0493598858174557e-09 8.3813158771516071e-10 0 -1.2059608838179628e-06 -4.8614217258270009e-07 0 -2.6473743436276231e-06 -3.9026349231412584e-07 0 -2.0493598858174557e-09 8.3813158771516071e-10 0 -2.246439761356171e-09 -8.6937988167847833e-10 0 -1.2059608838179628e-06 -4.8614217258270009e-07 0 -2.246439761356171e-09 -8.6937988167847833e-10 0 -2.7535060210458195e-06 -1.5666821354499836e-06 0 -1.2059608838179628e-06 -4.8614217258270009e-07 0 -2.246439761356171e-09 -8.6937988167847833e-10 0 -1.6450807396404486e-06 -1.9873117631740695e-06 0 -2.7535060210458195e-06 -1.5666821354499836e-06 0 -3.6556042936221563e-06 -3.0731371087627644e-06 0 -2.7535060210458195e-06 -1.5666821354499836e-06 0 -1.6450807396404484e-06 -1.9873117631740695e-06 0 -2.246439761356171e-09 -8.6937988167847833e-10 0 -2.0010391451336577e-09 -5.4054090222645325e-10 0 -1.6450807396404484e-06 -1.9873117631740695e-06 0 -2.0010391451340307e-09 -5.4054090222690458e-10 0 -8.741317723266992e-10 -1.4568625317984279e-09 0 -1.6450807396404484e-06 -1.9873117631740695e-06 0 -3.6556042936221563e-06 -3.0731371087627644e-06 0 -1.6450807396404484e-06 -1.9873117631740695e-06 0 -1.6131049840426879e-06 -3.0561784840762443e-06 0 -3.6556042936221563e-06 -3.0731371087627644e-06 0 -1.6131049840426881e-06 -3.0561784840762443e-06 0 -3.3189314623278561e-06 -4.0389198442381103e-06 0 -3.6556042936221563e-06 -3.0731371087627644e-06 0 -5.6446911572980535e-06 -3.9748173082013441e-06 0 -6.0193956497625619e-06 -2.6191623871188322e-06 0 -8.6073831150860533e-06 -3.4646712908046198e-06 0 -6.0193956497625619e-06 -2.6191623871188322e-06 0 -5.6446911572980535e-06 -3.9748173082013441e-06 0 -3.6355041656347287e-06 -4.6489460270601824e-06 0 -5.6446911572980526e-06 -3.9748173082013433e-06 0 -3.3189314623278561e-06 -4.0389198442381103e-06 0 -3.6556042936221563e-06 -3.0731371087627644e-06 0 -3.3189314623278561e-06 -4.0389198442381103e-06 0 -5.6446911572980535e-06 -3.9748173082013441e-06 0 -3.6355041656347287e-06 -4.6489460270601824e-06 0 -3.3189314623278561e-06 -4.0389198442381103e-06 0 -1.8457025759750733e-06 -4.2127363945740673e-06 0 -3.2983810318295826e-07 -3.5252909420588361e-06 0 -1.8457025759750733e-06 -4.2127363945740673e-06 0 -1.6131049840426879e-06 -3.0561784840762443e-06 0 -1.6131049840426879e-06 -3.0561784840762443e-06 0 -1.8457025759750731e-06 -4.2127363945740673e-06 0 -3.3189314623278561e-06 -4.0389198442381103e-06 0 -8.741317723266992e-10 -1.4568625317984279e-09 0 -3.7923688857476213e-07 -1.9896030546692215e-06 0 -1.6131049840426879e-06 -3.0561784840762443e-06 0 -8.741317723266992e-10 -1.4568625317984279e-09 0 -1.6131049840426879e-06 -3.0561784840762448e-06 0 -1.6450807396404484e-06 -1.9873117631740695e-06 0 -8.741317723266992e-10 -1.4568625317984279e-09 0 -2.8414657700190554e-10 -9.5293103811649094e-10 0 -3.7923688857476213e-07 -1.9896030546692215e-06 0 -3.2983810318295826e-07 -3.5252909420588361e-06 0 -1.6131049840426883e-06 -3.0561784840762443e-06 0 -3.7923688857476213e-07 -1.9896030546692215e-06 0 -3.2983810318295826e-07 -3.5252909420588361e-06 0 -3.7923688857476213e-07 -1.9896030546692215e-06 0 2.098500075284022e-07 -2.1325070149128264e-06 0 -2.8414657700190554e-10 -9.5293103811649094e-10 0 2.098500075284022e-07 -2.1325070149128264e-06 0 -3.7923688857476213e-07 -1.9896030546692215e-06 0 -2.8414657700190554e-10 -9.5293103811649094e-10 0 4.4841268751323984e-10 -1.0428342054642518e-09 0 2.098500075284022e-07 -2.1325070149128264e-06 0 9.1614636397020186e-07 -1.9653467513261216e-06 0 1.1568843627333161e-06 -3.3239898052848572e-06 0 2.098500075284022e-07 -2.1325070149128264e-06 0 -3.2983810318295826e-07 -3.5252909420588361e-06 0 2.098500075284022e-07 -2.1325070149128264e-06 0 1.1568843627333161e-06 -3.3239898052848572e-06 0 -3.2983810318295826e-07 -3.5252909420588361e-06 0 -8.928002080593871e-09 -4.4190087591557682e-06 0 -1.8457025759750733e-06 -4.2127363945740673e-06 0 -3.2983810318295826e-07 -3.5252909420588361e-06 0 1.1568843627333161e-06 -3.3239898052848572e-06 0 -8.928002080593871e-09 -4.4190087591557682e-06 0 -8.928002080593871e-09 -4.4190087591557682e-06 0 1.1568843627333161e-06 -3.3239898052848572e-06 0 2.2198126604954275e-06 -3.7177030927564438e-06 0 3.1088754498222845e-06 -3.6889777695873914e-06 0 -8.928002080593871e-09 -4.4190087591557682e-06 0 2.2198126604954275e-06 -3.7177030927564438e-06 0 3.1088754498222845e-06 -3.6889777695873914e-06 0 -1.3950494672815651e-06 -4.5482332928514019e-06 0 -8.928002080593871e-09 -4.4190087591557682e-06 0 3.1088754498222845e-06 -3.6889777695873914e-06 0 7.0519340320246639e-06 -2.0117007406231485e-06 0 2.6665122010260915e-06 -3.1227126592504486e-06 0 -1.611957925561259e-06 -3.6496002346523517e-06 0 2.6665122010260915e-06 -3.1227126592504486e-06 0 -8.0476449462547789e-07 -1.9995746073311371e-06 0 -1.611957925561259e-06 -3.6496002346523517e-06 0 -1.3950494672815651e-06 -4.5482332928514019e-06 0 2.6665122010260915e-06 -3.1227126592504486e-06 0 3.1088754498222845e-06 -3.6889777695873914e-06 0 2.6665122010260915e-06 -3.1227126592504486e-06 0 -1.3950494672815651e-06 -4.5482332928514019e-06 0 -1.611957925561259e-06 -3.6496002346523517e-06 0 -6.1234292713628178e-06 -4.3259621537970665e-06 0 -1.3950494672815651e-06 -4.5482332928514019e-06 0 -1.611957925561259e-06 -3.6496002346523517e-06 0 -8.0476449462547789e-07 -1.9995746073311371e-06 0 -6.2042251602268486e-06 -2.9827377148697081e-06 0 -1.611957925561259e-06 -3.6496002346523517e-06 0 -6.2042251602268486e-06 -2.9827377148697081e-06 0 -6.1234292713628178e-06 -4.3259621537970665e-06 0 -3.6355041656347287e-06 -4.6489460270601824e-06 0 -1.3950494672815651e-06 -4.5482332928514019e-06 0 -6.1234292713628178e-06 -4.3259621537970665e-06 0 -3.6355041656347287e-06 -4.6489460270601824e-06 0 -6.1234292713628178e-06 -4.3259621537970665e-06 0 -7.0491514874708039e-06 -4.2524854562697793e-06 0 -3.6355041656347287e-06 -4.6489460270601824e-06 0 -8.928002080593871e-09 -4.4190087591557682e-06 0 -1.3950494672815651e-06 -4.5482332928514019e-06 0 -3.6355041656347287e-06 -4.6489460270601824e-06 0 -1.8457025759750733e-06 -4.2127363945740673e-06 0 -8.928002080593871e-09 -4.4190087591557682e-06 0 -3.6355041656347287e-06 -4.6489460270601824e-06 0 -7.0491514874708039e-06 -4.2524854562697793e-06 0 -5.6446911572980535e-06 -3.9748173082013441e-06 0 -8.6073831150860533e-06 -3.4646712908046198e-06 0 -5.6446911572980535e-06 -3.9748173082013441e-06 0 -7.0491514874708039e-06 -4.2524854562697793e-06 0 -1.0877579623392469e-05 -3.4991326364109172e-06 0 -8.6073831150860516e-06 -3.4646712908046198e-06 0 -7.0491514874708039e-06 -4.2524854562697793e-06 0 -1.0877579623392469e-05 -3.4991326364109172e-06 0 -7.0491514874708039e-06 -4.2524854562697793e-06 0 -6.1234292713628178e-06 -4.3259621537970665e-06 0 -1.0877579623392469e-05 -3.4991326364109172e-06 0 -6.1234292713628178e-06 -4.3259621537970665e-06 0 -1.2834353963743515e-05 -2.3127492377708369e-06 0 -6.1234292713628178e-06 -4.3259621537970665e-06 0 -6.2042251602268486e-06 -2.9827377148697085e-06 0 -1.2834353963743515e-05 -2.3127492377708369e-06 0 -1.0877579623392469e-05 -3.4991326364109172e-06 0 -1.2834353963743513e-05 -2.3127492377708369e-06 0 -1.6792925417020546e-05 -1.65378706302601e-06 0 -1.0877579623392469e-05 -3.4991326364109172e-06 0 -1.6792925417020546e-05 -1.65378706302601e-06 0 -1.2907951534942658e-05 -2.6162380961513743e-06 0 -2.1286552166421851e-05 8.9980484125832645e-07 0 -1.6792925417020546e-05 -1.65378706302601e-06 0 -1.2834353963743515e-05 -2.3127492377708369e-06 0 -2.3088451918458523e-05 1.2337850469007246e-06 0 -1.637500725577958e-05 -9.8909725658744549e-07 0 -1.6792925417020546e-05 -1.65378706302601e-06 0 -1.637500725577958e-05 -9.8909725658744549e-07 0 -1.2907951534942658e-05 -2.6162380961513743e-06 0 -1.6792925417020546e-05 -1.65378706302601e-06 0 -1.637500725577958e-05 -9.8909725658744549e-07 0 -1.0778157212036926e-05 -1.8182965900555227e-06 0 -1.2907951534942658e-05 -2.6162380961513743e-06 0 -1.0877579623392469e-05 -3.4991326364109172e-06 0 -1.2907951534942658e-05 -2.6162380961513743e-06 0 -8.6073831150860533e-06 -3.4646712908046198e-06 0 -1.0778157212036926e-05 -1.8182965900555227e-06 0 -8.6073831150860533e-06 -3.4646712908046198e-06 0 -1.2907951534942658e-05 -2.6162380961513743e-06 0 -1.0778157212036926e-05 -1.8182965900555227e-06 0 -6.0193956497625619e-06 -2.6191623871188327e-06 0 -8.6073831150860533e-06 -3.4646712908046198e-06 0 -3.9990812360033404e-05 1.2549448380191631e-05 0 -2.8011331964439299e-05 6.2463774812807787e-06 0 -3.5155244714946581e-05 1.2421441371955469e-05 0 -5.0602081053254502e-05 2.2599351657521694e-05 0 -3.9990812360033404e-05 1.2549448380191631e-05 0 -3.5155244714946581e-05 1.2421441371955469e-05 0 -2.4261920380226355e-05 9.374298744208857e-06 0 -3.5155244714946581e-05 1.2421441371955469e-05 0 -2.8011331964439299e-05 6.2463774812807787e-06 0 -2.4261920380226355e-05 9.374298744208857e-06 0 -3.5157062853741006e-05 1.8509853207179568e-05 0 -3.5155244714946581e-05 1.2421441371955469e-05 0 -3.9990812360033404e-05 1.2549448380191631e-05 0 -3.0845514693229179e-05 5.5209876846246563e-06 0 -2.8011331964439299e-05 6.2463774812807787e-06 0 -3.0845514693229179e-05 5.5209876846246563e-06 0 -2.3088451918458523e-05 1.2337850469007246e-06 0 -2.1286552166421851e-05 8.9980484125832645e-07 0 -2.3088451918458523e-05 1.2337850469007246e-06 0 -1.6792925417020546e-05 -1.65378706302601e-06 0 -2.1286552166421851e-05 8.9980484125832645e-07 0 -3.0845514693229179e-05 5.5209876846246563e-06 0 -2.1286552166421851e-05 8.9980484125832655e-07 0 -2.8011331964439299e-05 6.2463774812807787e-06 0 -2.1286552166421851e-05 8.9980484125832645e-07 0 -1.6099966301772183e-05 2.1339139812514953e-06 0 -2.8011331964439299e-05 6.2463774812807787e-06 0 -1.0317564232629599e-05 -1.082005081598092e-06 0 -1.6099966301772183e-05 2.1339139812514962e-06 0 -1.2834353963743515e-05 -2.3127492377708369e-06 0 -2.1286552166421851e-05 8.9980484125832645e-07 0 -1.2834353963743515e-05 -2.3127492377708369e-06 0 -1.6099966301772183e-05 2.1339139812514962e-06 0 -1.0317564232629599e-05 -1.082005081598092e-06 0 -1.2834353963743515e-05 -2.3127492377708369e-06 0 -6.2042251602268486e-06 -2.9827377148697081e-06 0 -2.4261920380226355e-05 9.374298744208857e-06 0 -1.6099966301772183e-05 2.1339139812514962e-06 0 -1.5103477730198693e-05 8.2787400993564077e-06 0 -2.4261920380226355e-05 9.374298744208857e-06 0 -2.8011331964439299e-05 6.2463774812807787e-06 0 -1.6099966301772183e-05 2.1339139812514962e-06 0 -2.4261920380226355e-05 9.374298744208857e-06 0 -1.5103477730198693e-05 8.278740099356406e-06 0 -2.2075556398902881e-05 1.6530434165039823e-05 0 -1.5103477730198693e-05 8.2787400993564077e-06 0 -6.2461159939644039e-06 3.9192310683595021e-06 0 -6.6310255491748318e-06 1.3297885246163093e-05 0 -6.2461159939644039e-06 3.9192310683595021e-06 0 1.0536593501938874e-06 6.3198317145378114e-06 0 -6.6310255491748318e-06 1.3297885246163093e-05 0 -6.2461159939644039e-06 3.9192310683595021e-06 0 1.1964852864780473e-07 1.1391301525057089e-06 0 1.0536593501938874e-06 6.3198317145378114e-06 0 -6.2461159939644039e-06 3.9192310683595021e-06 0 -1.5103477730198693e-05 8.2787400993564077e-06 0 -1.6099966301772183e-05 2.1339139812514962e-06 0 -6.2461159939644039e-06 3.9192310683595021e-06 0 -1.6099966301772183e-05 2.1339139812514962e-06 0 -5.8615447933344551e-06 -7.0739235371165458e-08 0 -1.0317564232629599e-05 -1.082005081598092e-06 0 -5.8615447933344551e-06 -7.0739235371165458e-08 0 -1.6099966301772183e-05 2.1339139812514962e-06 0 -1.0317564232629599e-05 -1.082005081598092e-06 0 -6.2042251602268486e-06 -2.9827377148697081e-06 0 -5.8615447933344551e-06 -7.0739235371165458e-08 0 -8.0476449462547789e-07 -1.9995746073311371e-06 0 -5.8615447933344551e-06 -7.0739235371165405e-08 0 -6.2042251602268486e-06 -2.9827377148697081e-06 0 -8.0476449462547789e-07 -1.9995746073311371e-06 0 1.1964852864780365e-07 1.1391301525057087e-06 0 -5.8615447933344551e-06 -7.0739235371165458e-08 0 -6.2461159939644039e-06 3.9192310683595021e-06 0 -5.8615447933344542e-06 -7.0739235371165696e-08 0 1.1964852864780473e-07 1.1391301525057089e-06 0 -8.0476449462547789e-07 -1.9995746073311371e-06 0 4.4529289363226993e-06 -6.23109273219275e-07 0 1.1964852864780473e-07 1.1391301525057089e-06 0 6.6266219033366123e-06 3.3700341450176628e-06 0 1.1964852864780473e-07 1.1391301525057089e-06 0 4.4529289363226985e-06 -6.23109273219275e-07 0 -8.0476449462547789e-07 -1.9995746073311371e-06 0 2.6665122010260915e-06 -3.1227126592504486e-06 0 4.4529289363226985e-06 -6.23109273219275e-07 0 7.094334628170771e-06 -1.1380777715250491e-06 0 9.7104676552799407e-06 1.2322471446831585e-06 0 4.4529289363226985e-06 -6.23109273219275e-07 0 7.094334628170771e-06 -1.1380777715250491e-06 0 4.4529289363226985e-06 -6.2310927321927511e-07 0 2.6665122010260915e-06 -3.1227126592504486e-06 0 6.6266219033366123e-06 3.3700341450176628e-06 0 4.4529289363226976e-06 -6.2310927321927542e-07 0 9.7104676552799407e-06 1.2322471446831585e-06 0 6.6266219033366123e-06 3.3700341450176628e-06 0 9.7104676552799407e-06 1.2322471446831585e-06 0 1.4096249602863582e-05 5.8770082523327811e-06 0 6.6266219033366123e-06 3.3700341450176628e-06 0 1.0536593501938874e-06 6.3198317145378114e-06 0 1.1964852864780473e-07 1.1391301525057089e-06 0 6.6266219033366123e-06 3.3700341450176628e-06 0 8.2569664311361476e-06 9.9640041865912234e-06 0 1.0536593501938874e-06 6.3198317145378114e-06 0 6.6266219033366123e-06 3.3700341450176628e-06 0 1.4096249602863582e-05 5.8770082523327811e-06 0 8.2569664311361493e-06 9.9640041865912234e-06 0 1.8956932390033013e-05 1.1722608814426535e-05 0 1.3832835439861484e-05 1.6632032449521686e-05 0 8.2569664311361493e-06 9.9640041865912234e-06 0 1.8956932390033013e-05 1.1722608814426535e-05 0 8.2569664311361493e-06 9.9640041865912234e-06 0 1.4096249602863582e-05 5.8770082523327811e-06 0 -6.6310255491748318e-06 1.3297885246163093e-05 0 8.2569664311361476e-06 9.9640041865912251e-06 0 3.5898632705665749e-06 1.8710161619405459e-05 0 -6.6310255491748318e-06 1.3297885246163093e-05 0 1.0536593501938874e-06 6.3198317145378114e-06 0 8.2569664311361493e-06 9.9640041865912234e-06 0 8.2569664311361493e-06 9.9640041865912234e-06 0 1.3832835439861484e-05 1.6632032449521686e-05 0 3.5898632705665749e-06 1.8710161619405459e-05 0 9.9207020304602028e-06 2.853236826057873e-05 0 1.3832835439861485e-05 1.6632032449521686e-05 0 2.3788435383130044e-05 2.0283993565626131e-05 0 9.9207020304602028e-06 2.853236826057873e-05 0 2.3788435383130044e-05 2.0283993565626131e-05 0 2.1483601940385612e-05 4.1823045128483974e-05 0 9.9207020304602028e-06 2.853236826057873e-05 0 2.1483601940385612e-05 4.1823045128483974e-05 0 8.9853810701806964e-06 4.5958713036223743e-05 0 9.9207020304602028e-06 2.853236826057873e-05 0 8.985381070180693e-06 4.5958713036223743e-05 0 -4.8921046154640686e-06 4.8722475196393606e-05 0 9.9207020304602028e-06 2.853236826057873e-05 0 -9.1836863279998698e-06 3.0011313888925883e-05 0 3.5898632705665749e-06 1.8710161619405459e-05 0 9.9207020304602028e-06 2.853236826057873e-05 0 3.5898632705665766e-06 1.8710161619405456e-05 0 1.3832835439861484e-05 1.6632032449521686e-05 0 9.9207020304602028e-06 2.853236826057873e-05 0 -4.8921046154640686e-06 4.8722475196393606e-05 0 -9.1836863279998698e-06 3.0011313888925883e-05 0 -2.4351378527107416e-05 5.0106818118265182e-05 0 -9.1836863279998698e-06 3.0011313888925883e-05 0 -4.8921046154640686e-06 4.8722475196393606e-05 0 -2.4351378527107416e-05 5.0106818118265182e-05 0 -2.0733251308866369e-05 2.6832894075780862e-05 0 -9.1836863279998698e-06 3.0011313888925883e-05 0 -6.6310255491748318e-06 1.3297885246163093e-05 0 -9.1836863279998647e-06 3.0011313888925883e-05 0 -2.0733251308866373e-05 2.6832894075780862e-05 0 -6.6310255491748318e-06 1.3297885246163093e-05 0 -2.0733251308866373e-05 2.6832894075780862e-05 0 -2.2075556398902881e-05 1.6530434165039823e-05 0 -6.6310255491748318e-06 1.3297885246163093e-05 0 3.5898632705665745e-06 1.8710161619405463e-05 0 -9.1836863279998698e-06 3.0011313888925883e-05 0 -6.6310255491748318e-06 1.3297885246163093e-05 0 -2.2075556398902881e-05 1.6530434165039823e-05 0 -1.5103477730198693e-05 8.2787400993564077e-06 0 -2.4261920380226355e-05 9.374298744208857e-06 0 -2.2075556398902881e-05 1.6530434165039823e-05 0 -3.5157062853741006e-05 1.8509853207179568e-05 0 -3.3283121900654372e-05 2.8062270201671875e-05 0 -3.5157062853741006e-05 1.8509853207179568e-05 0 -2.2075556398902881e-05 1.6530434165039823e-05 0 -3.3283121900654372e-05 2.8062270201671875e-05 0 -2.2075556398902881e-05 1.6530434165039823e-05 0 -2.0733251308866373e-05 2.6832894075780862e-05 0 -3.3283121900654372e-05 2.8062270201671875e-05 0 -2.0733251308866373e-05 2.6832894075780862e-05 0 -3.5534879814700717e-05 4.0959046489667962e-05 0 -2.4351378527107416e-05 5.0106818118265182e-05 0 -3.5534879814700717e-05 4.0959046489667962e-05 0 -2.0733251308866373e-05 2.6832894075780862e-05 0 -5.1086580308262264e-05 6.2655769889235428e-05 0 -4.9915939778241391e-05 4.2045386938465991e-05 0 -3.5534879814700717e-05 4.0959046489667962e-05 0 -2.4351378527107416e-05 5.0106818118265182e-05 0 -5.1086580308262264e-05 6.2655769889235428e-05 0 -3.5534879814700717e-05 4.0959046489667962e-05 0 -3.3283121900654372e-05 2.8062270201671875e-05 0 -3.5534879814700717e-05 4.0959046489667962e-05 0 -4.9915939778241391e-05 4.2045386938465991e-05 0 -3.3283121900654372e-05 2.8062270201671875e-05 0 -4.9915939778241391e-05 4.2045386938465991e-05 0 -4.6289175579156124e-05 2.881165339755103e-05 0 -7.331438107238122e-05 5.6868446436848371e-05 0 -4.9915939778241391e-05 4.2045386938465991e-05 0 -5.1086580308262264e-05 6.2655769889235428e-05 0 -7.331438107238122e-05 5.6868446436848371e-05 0 -6.2068053531959928e-05 3.7390415134478706e-05 0 -4.9915939778241391e-05 4.2045386938465991e-05 0 -6.2068053531959928e-05 3.7390415134478706e-05 0 -4.6289175579156124e-05 2.881165339755103e-05 0 -4.9915939778241391e-05 4.2045386938465991e-05 0 -6.2068053531959928e-05 3.7390415134478706e-05 0 -5.0602081053254502e-05 2.2599351657521694e-05 0 -4.6289175579156124e-05 2.881165339755103e-05 0 -5.0602081053254502e-05 2.2599351657521694e-05 0 -3.5157062853741e-05 1.8509853207179568e-05 0 -4.6289175579156124e-05 2.881165339755103e-05 0 -3.3283121900654372e-05 2.8062270201671875e-05 0 -4.6289175579156124e-05 2.881165339755103e-05 0 -3.5157062853741006e-05 1.8509853207179568e-05 0 -5.0602081053254502e-05 2.2599351657521694e-05 0 -3.5155244714946581e-05 1.2421441371955469e-05 0 -3.5157062853741006e-05 1.8509853207179568e-05 0 1.6716943728377875e-05 4.3938786372379264e-06 0 1.8895715069798582e-05 5.7966401499874087e-06 0 1.6740191517118044e-05 4.1414755834220182e-06 0 2.0038407144140915e-05 6.5426209038184083e-06 0 1.6740191517118044e-05 4.1414755834220182e-06 0 1.8895715069798582e-05 5.7966401499874087e-06 0 2.0038407144140915e-05 6.5426209038184083e-06 0 1.8895715069798582e-05 5.7966401499874087e-06 0 2.2087659416322087e-05 8.2381521393228037e-06 0 1.6716943728377875e-05 4.3938786372379264e-06 0 1.7842996883809154e-05 4.8533277639305205e-06 0 1.8895715069798582e-05 5.7966401499874087e-06 0 1.5584861573814285e-05 2.7666075185638633e-06 0 1.7842996883809154e-05 4.8533277639305205e-06 0 1.4910469558457564e-05 3.456370934104885e-06 0 1.6716943728377875e-05 4.3938786372379264e-06 0 1.4910469558457564e-05 3.456370934104885e-06 0 1.7842996883809154e-05 4.8533277639305205e-06 0 1.5584861573814285e-05 2.7666075185638633e-06 0 1.4910469558457564e-05 3.456370934104885e-06 0 1.3511279721354569e-05 2.1022335478410298e-06 0 1.6716943728377875e-05 4.3938786372379264e-06 0 1.4468311766628492e-05 3.2882790653983508e-06 0 1.4910469558457564e-05 3.456370934104885e-06 0 1.2383419846514854e-05 2.7993370159761929e-06 0 1.4910469558457564e-05 3.456370934104885e-06 0 1.4468311766628492e-05 3.2882790653983508e-06 0 1.2084254496556201e-05 2.363147445880475e-06 0 1.4910469558457564e-05 3.456370934104885e-06 0 1.2383419846514854e-05 2.7993370159761929e-06 0 1.2383419846514854e-05 2.7993370159761929e-06 0 1.2019015272920454e-05 2.4110065164225443e-06 0 1.0187863204938398e-05 2.5187965969408578e-06 0 1.2383419846514854e-05 2.7993370159761929e-06 0 1.4468311766628492e-05 3.2882790653983508e-06 0 1.2019015272920454e-05 2.4110065164225443e-06 0 1.3510980723814744e-05 2.3022238135715753e-06 0 1.2019015272920454e-05 2.4110065164225443e-06 0 1.4468311766628492e-05 3.2882790653983508e-06 0 1.6716943728377875e-05 4.3938786372379264e-06 0 1.6740191517118044e-05 4.1414755834220182e-06 0 1.4468311766628492e-05 3.2882790653983508e-06 0 1.3510980723814744e-05 2.3022238135715753e-06 0 1.4468311766628492e-05 3.2882790653983508e-06 0 1.6740191517118044e-05 4.1414755834220182e-06 0 1.3510980723814744e-05 2.3022238135715753e-06 0 1.6740191517118044e-05 4.1414755834220182e-06 0 1.3904929027144371e-05 1.9095296670958052e-06 0 1.3510980723814744e-05 2.3022238135715753e-06 0 1.3904929027144369e-05 1.9095296670958048e-06 0 1.2100965356627436e-05 1.1484041718771055e-06 0 9.6413743547820635e-06 -6.7321165143738736e-07 0 1.3904929027144371e-05 1.9095296670958052e-06 0 1.0673352792092842e-05 1.0656430182106959e-07 0 1.4394922895067466e-05 2.9999364742501812e-06 0 1.3904929027144371e-05 1.9095296670958052e-06 0 1.6989529600781025e-05 4.2612551290274849e-06 0 1.4394922895067466e-05 2.9999364742501812e-06 0 1.0673352792092842e-05 1.065643018210697e-07 0 1.3904929027144371e-05 1.9095296670958052e-06 0 1.3904929027144371e-05 1.9095296670958052e-06 0 1.6740191517118044e-05 4.1414755834220182e-06 0 1.6989529600781025e-05 4.2612551290274849e-06 0 7.094334628170771e-06 -1.1380777715250491e-06 0 1.0673352792092842e-05 1.0656430182106959e-07 0 9.7104676552799407e-06 1.2322471446831585e-06 0 1.4394922895067466e-05 2.9999364742501812e-06 0 9.7104676552799407e-06 1.2322471446831583e-06 0 1.0673352792092842e-05 1.0656430182106959e-07 0 1.4394922895067466e-05 2.9999364742501812e-06 0 1.4096249602863582e-05 5.8770082523327811e-06 0 9.7104676552799407e-06 1.2322471446831585e-06 0 1.4394922895067466e-05 2.9999364742501812e-06 0 1.9717158280299713e-05 7.224273172436239e-06 0 1.4096249602863582e-05 5.8770082523327811e-06 0 1.8956932390033013e-05 1.1722608814426535e-05 0 1.4096249602863582e-05 5.8770082523327811e-06 0 1.9717158280299713e-05 7.224273172436239e-06 0 2.0038407144140915e-05 6.5426209038184083e-06 0 1.6989529600781025e-05 4.2612551290274849e-06 0 1.6740191517118044e-05 4.1414755834220182e-06 0 1.4394922895067466e-05 2.9999364742501812e-06 0 1.6989529600781025e-05 4.2612551290274849e-06 0 1.9717158280299713e-05 7.224273172436239e-06 0 2.0038407144140915e-05 6.5426209038184083e-06 0 1.9717158280299713e-05 7.224273172436239e-06 0 1.6989529600781025e-05 4.2612551290274849e-06 0 2.0038407144140915e-05 6.5426209038184083e-06 0 2.3408639532480786e-05 9.7948431222049169e-06 0 1.9717158280299713e-05 7.224273172436239e-06 0 2.0038407144140915e-05 6.5426209038184083e-06 0 2.2087659416322087e-05 8.2381521393228037e-06 0 2.3408639532480786e-05 9.7948431222049169e-06 0 1.9717158280299713e-05 7.224273172436239e-06 0 2.3408639532480786e-05 9.7948431222049169e-06 0 2.7377354518619097e-05 1.435955508708595e-05 0 2.6115723681880006e-05 1.1538063291338288e-05 0 2.7377354518619097e-05 1.435955508708595e-05 0 2.3408639532480786e-05 9.7948431222049169e-06 0 2.6115723681880006e-05 1.1538063291338288e-05 0 2.2087659416322087e-05 8.2381521393228037e-06 0 2.2786420842241581e-05 8.1189638930076511e-06 0 2.6115723681880006e-05 1.1538063291338288e-05 0 2.3408639532480782e-05 9.7948431222049152e-06 0 2.2087659416322087e-05 8.2381521393228037e-06 0 1.8956932390033013e-05 1.1722608814426535e-05 0 1.9717158280299713e-05 7.224273172436239e-06 0 2.7377354518619097e-05 1.435955508708595e-05 0 1.8956932390033013e-05 1.1722608814426535e-05 0 2.7377354518619097e-05 1.435955508708595e-05 0 2.3788435383130044e-05 2.0283993565626131e-05 0 1.8956932390033013e-05 1.1722608814426535e-05 0 2.3788435383130044e-05 2.0283993565626131e-05 0 1.3832835439861484e-05 1.6632032449521686e-05 0 3.9479426110512407e-05 2.4168321634514669e-05 0 2.3788435383130041e-05 2.0283993565626131e-05 0 2.7377354518619097e-05 1.435955508708595e-05 0 3.9479426110512407e-05 2.4168321634514669e-05 0 2.1483601940385612e-05 4.1823045128483974e-05 0 2.3788435383130044e-05 2.0283993565626131e-05 0 3.9479426110512407e-05 2.4168321634514669e-05 0 2.7377354518619097e-05 1.435955508708595e-05 0 2.9671397613930375e-05 1.5453587377156926e-05 0 2.6115723681880006e-05 1.1538063291338288e-05 0 2.4260298856260019e-05 8.4919240385190738e-06 0 2.9671397613930375e-05 1.5453587377156926e-05 0 2.6115723681880006e-05 1.1538063291338288e-05 0 2.2786420842241581e-05 8.1189638930076511e-06 0 2.4260298856260019e-05 8.4919240385190738e-06 0 2.6115723681880006e-05 1.1538063291338288e-05 0 2.9671397613930375e-05 1.5453587377156926e-05 0 2.7377354518619097e-05 1.435955508708595e-05 0 2.5739777365658524e-05 4.5818358953015693e-06 0 2.9671397613930375e-05 1.5453587377156926e-05 0 2.4260298856260019e-05 8.4919240385190738e-06 0 2.5739777365658524e-05 4.5818358953015693e-06 0 2.4260298856260019e-05 8.4919240385190738e-06 0 2.2532745123842476e-05 -7.1049153733069301e-07 0 2.0382870326334383e-05 4.0286060022473034e-06 0 2.2532745123842476e-05 -7.1049153733069301e-07 0 2.4260298856260019e-05 8.4919240385190738e-06 0 2.0382870326334383e-05 4.0286060022473034e-06 0 2.4260298856260019e-05 8.4919240385190738e-06 0 2.2786420842241581e-05 8.1189638930076511e-06 0 2.0323588071705259e-05 6.5228214088788909e-06 0 2.2786420842241581e-05 8.1189638930076511e-06 0 2.2087659416322087e-05 8.2381521393228037e-06 0 2.2786420842241581e-05 8.1189638930076511e-06 0 2.0323588071705259e-05 6.5228214088788909e-06 0 2.0382870326334383e-05 4.0286060022473034e-06 0 2.0323588071705259e-05 6.5228214088788909e-06 0 1.7944383766356993e-05 3.413907417087386e-06 0 2.0382870326334383e-05 4.0286060022473034e-06 0 2.0323588071705259e-05 6.5228214088788909e-06 0 1.7842996883809154e-05 4.8533277639305205e-06 0 1.7944383766356993e-05 3.413907417087386e-06 0 2.0323588071705259e-05 6.5228214088788909e-06 0 1.8895715069798582e-05 5.7966401499874087e-06 0 1.7842996883809154e-05 4.8533277639305205e-06 0 2.0323588071705259e-05 6.5228214088788909e-06 0 2.2087659416322087e-05 8.2381521393228037e-06 0 1.8895715069798582e-05 5.7966401499874087e-06 0 1.5584861573814285e-05 2.7666075185638633e-06 0 1.7944383766356993e-05 3.413907417087386e-06 0 1.7842996883809154e-05 4.8533277639305205e-06 0 1.5584861573814285e-05 2.7666075185638633e-06 0 1.4903347127590699e-05 -2.6057672453908276e-08 0 1.7944383766356993e-05 3.413907417087386e-06 0 2.0382870326334383e-05 4.0286060022473034e-06 0 1.70691061488152e-05 -7.2589466478109167e-07 0 1.9416443618441479e-05 -6.0840492930707862e-06 0 1.473541473000782e-05 -4.1951734828252924e-06 0 1.70691061488152e-05 -7.2589466478109167e-07 0 1.4903347127590699e-05 -2.6057672453908276e-08 0 1.4903347127590699e-05 -2.6057672453908276e-08 0 1.70691061488152e-05 -7.2589466478109167e-07 0 1.7944383766356993e-05 3.413907417087386e-06 0 2.0382870326334383e-05 4.0286060022473034e-06 0 1.7944383766356993e-05 3.413907417087386e-06 0 1.70691061488152e-05 -7.2589466478109167e-07 0 1.473541473000782e-05 -4.1951734828252924e-06 0 1.6468830705985098e-05 -7.9628532216023328e-06 0 1.70691061488152e-05 -7.2589466478109167e-07 0 1.9416443618441479e-05 -6.0840492930707862e-06 0 1.70691061488152e-05 -7.2589466478109167e-07 0 1.6468830705985098e-05 -7.9628532216023328e-06 0 1.9416443618441479e-05 -6.0840492930707862e-06 0 1.6468830705985098e-05 -7.9628532216023328e-06 0 2.0397480636047253e-05 -1.2965360123265402e-05 0 2.363449623430719e-05 -1.2371626654598884e-05 0 1.9416443618441476e-05 -6.0840492930707871e-06 0 2.0397480636047253e-05 -1.2965360123265402e-05 0 1.7188598347916965e-05 -1.3709250968917967e-05 0 2.0397480636047253e-05 -1.2965360123265402e-05 0 1.6468830705985098e-05 -7.9628532216023328e-06 0 1.7188598347916965e-05 -1.3709250968917967e-05 0 2.2686500286133253e-05 -2.017928277793829e-05 0 2.0397480636047253e-05 -1.2965360123265402e-05 0 2.363449623430719e-05 -1.2371626654598884e-05 0 2.039748063604725e-05 -1.2965360123265402e-05 0 2.2686500286133256e-05 -2.017928277793829e-05 0 1.7188598347916965e-05 -1.3709250968917967e-05 0 1.7576741381327893e-05 -1.9154313219710324e-05 0 2.2686500286133256e-05 -2.017928277793829e-05 0 3.4954689153122451e-05 -2.456314502814011e-05 0 3.1113577640936472e-05 -1.7625787366199063e-05 0 2.9397943552354792e-05 -2.2648704200083666e-05 0 2.363449623430719e-05 -1.2371626654598884e-05 0 2.9397943552354792e-05 -2.2648704200083666e-05 0 3.1113577640936472e-05 -1.7625787366199063e-05 0 2.363449623430719e-05 -1.2371626654598884e-05 0 2.2686500286133256e-05 -2.017928277793829e-05 0 2.9397943552354792e-05 -2.2648704200083666e-05 0 2.363449623430719e-05 -1.2371626654598884e-05 0 3.1113577640936472e-05 -1.7625787366199063e-05 0 2.6789226361303186e-05 -5.9109891168608266e-06 0 2.0382870326334383e-05 4.0286060022473034e-06 0 1.9416443618441483e-05 -6.0840492930707845e-06 0 2.2532745123842476e-05 -7.1049153733069301e-07 0 2.363449623430719e-05 -1.2371626654598884e-05 0 2.6789226361303186e-05 -5.9109891168608241e-06 0 2.2532745123842476e-05 -7.1049153733069301e-07 0 2.363449623430719e-05 -1.2371626654598884e-05 0 2.2532745123842476e-05 -7.1049153733069301e-07 0 1.9416443618441479e-05 -6.0840492930707862e-06 0 2.5739777365658524e-05 4.5818358953015693e-06 0 2.2532745123842476e-05 -7.1049153733069301e-07 0 2.6789226361303186e-05 -5.9109891168608266e-06 0 2.5739777365658524e-05 4.5818358953015693e-06 0 3.0319102506684932e-05 4.1744298010742223e-06 0 2.9671397613930375e-05 1.5453587377156926e-05 0 2.5739777365658524e-05 4.5818358953015693e-06 0 2.6789226361303186e-05 -5.9109891168608266e-06 0 3.0319102506684932e-05 4.1744298010742215e-06 0 3.9479426110512407e-05 2.4168321634514669e-05 0 2.9671397613930375e-05 1.5453587377156929e-05 0 3.0319102506684932e-05 4.1744298010742215e-06 0 4.3081801601806508e-05 -5.8776246120163843e-06 0 3.0319102506684932e-05 4.1744298010742215e-06 0 3.5294250197468752e-05 -1.2937021051376583e-05 0 3.5294250197468752e-05 -1.2937021051376583e-05 0 3.0319102506684932e-05 4.1744298010742215e-06 0 2.6789226361303186e-05 -5.9109891168608266e-06 0 2.1483601940385612e-05 4.1823045128483974e-05 0 3.9479426110512407e-05 2.4168321634514669e-05 0 3.1288733208225501e-05 7.2829688917311913e-05 0 3.9479426110512407e-05 2.4168321634514669e-05 0 3.0319102506684932e-05 4.1744298010742215e-06 0 4.3081801601806508e-05 -5.8776246120163843e-06 0 2.0888368250491682e-05 2.0803409390091736e-05 0 5.6237727839833959e-05 3.5537041834365008e-05 0 3.9479426110512407e-05 2.4168321634514669e-05 0 5.6688410311264278e-05 7.1438493871925902e-05 0 3.1288733208225501e-05 7.2829688917311913e-05 0 6.5691852158861398e-05 0.00010555986341982732 0 2.9583490597959221e-05 0.00010181454884286793 0 3.1288733208225501e-05 7.2829688917311913e-05 0 5.6237727839833959e-05 3.5537041834365008e-05 0 5.375952359986759e-05 4.3012647478101951e-05 0 4.3081801601806508e-05 -5.8776246120163843e-06 0 3.5294250197468752e-05 -1.2937021051376583e-05 0 4.397448633050678e-05 -1.7168706228250616e-05 0 5.6688410311264278e-05 7.1438493871925902e-05 0 6.5691852158861398e-05 0.00010555986341982732 0 3.1288733208225501e-05 7.2829688917311913e-05 0 5.375952359986759e-05 4.3012647478101951e-05 0 5.9858710873461755e-05 5.7244124125786353e-05 0 4.397448633050678e-05 -1.7168706228250616e-05 0 3.9382114999178247e-05 -2.2079473279452775e-05 0 4.5414971850016074e-05 -2.4081564884477809e-05 0 6.5691852158861398e-05 0.00010555986341982732 0 4.9593813014474717e-05 0.00012651935265587671 0 2.9583490597959221e-05 0.00010181454884286793 0 3.5294250197468752e-05 -1.2937021051376583e-05 0 2.6789226361303186e-05 -5.9109891168608266e-06 0 3.1113577640936472e-05 -1.7625787366199063e-05 0 4.397448633050678e-05 -1.7168706228250616e-05 0 3.5294250197468752e-05 -1.2937021051376583e-05 0 3.9382114999178247e-05 -2.2079473279452775e-05 0 3.5294250197468752e-05 -1.2937021051376583e-05 0 3.1113577640936472e-05 -1.7625787366199063e-05 0 3.9382114999178247e-05 -2.2079473279452775e-05 0 3.4954689153122451e-05 -2.456314502814011e-05 0 3.9382114999178247e-05 -2.2079473279452775e-05 0 3.1113577640936472e-05 -1.7625787366199063e-05 0 3.4954689153122451e-05 -2.456314502814011e-05 0 4.1199541992701584e-05 -2.887469068679518e-05 0 3.9382114999178247e-05 -2.2079473279452775e-05 0 4.5414971850016074e-05 -2.4081564884477809e-05 0 3.9382114999178247e-05 -2.2079473279452775e-05 0 4.1199541992701584e-05 -2.887469068679518e-05 0 4.5414971850016074e-05 -2.4081564884477809e-05 0 4.1199541992701584e-05 -2.887469068679518e-05 0 4.787195488516059e-05 -2.9374603713135913e-05 0 3.4954689153122451e-05 -2.456314502814011e-05 0 3.5169708153477218e-05 -2.9240111606417617e-05 0 4.1199541992701584e-05 -2.887469068679518e-05 0 2.8251868373574847e-05 0.00013627159829117562 0 4.9593813014474717e-05 0.00012651935265587671 0 5.4936188329935303e-05 0.00014777539981958911 0 7.3211732112210442e-05 0.00013759818751964866 0 5.4936188329935303e-05 0.00014777539981958911 0 4.9593813014474717e-05 0.00012651935265587671 0 6.5691852158861398e-05 0.00010555986341982732 0 7.3211732112210442e-05 0.00013759818751964866 0 4.9593813014474717e-05 0.00012651935265587671 0 5.9858710873461755e-05 5.7244124125786353e-05 0 6.3726932552639161e-05 7.0383538191474737e-05 0 7.3211732112210442e-05 0.00013759818751964866 0 7.9804465605631629e-05 0.00017054856973024876 0 5.4936188329935303e-05 0.00014777539981958911 0 7.9804465605631616e-05 0.00017054856973024876 0 4.4681490083933831e-05 0.00016648296248584026 0 5.4936188329935303e-05 0.00014777539981958911 0 7.9804465605631616e-05 0.00017054856973024876 0 5.6509226031339584e-05 0.00018932374681236494 0 4.4681490083933831e-05 0.00016648296248584026 0 7.9804465605631616e-05 0.00017054856973024876 0 8.5943911675194742e-05 0.00020451239310474091 0 5.6509226031339584e-05 0.00018932374681236494 0 4.787195488516059e-05 -2.9374603713135913e-05 0 4.5627827535830404e-05 -3.3864820266908928e-05 0 5.0905600619481066e-05 -3.4171758544862924e-05 0 6.3726932552639161e-05 7.0383538191474737e-05 0 6.8183531736141251e-05 8.5172191072457881e-05 0 8.5943911675194742e-05 0.00020451239310474091 0 5.1046716443389355e-05 0.00021315102599944773 0 5.6509226031339584e-05 0.00018932374681236494 0 4.0033760340783208e-05 -3.385653760261862e-05 0 4.5627827535830404e-05 -3.3864820266908928e-05 0 4.1199541992701584e-05 -2.887469068679518e-05 0 4.0033760340783208e-05 -3.385653760261862e-05 0 4.1199541992701584e-05 -2.887469068679518e-05 0 3.5169708153477218e-05 -2.9240111606417617e-05 0 4.787195488516059e-05 -2.9374603713135913e-05 0 4.1199541992701584e-05 -2.887469068679518e-05 0 4.5627827535830404e-05 -3.3864820266908928e-05 0 4.0033760340783208e-05 -3.385653760261862e-05 0 4.1713179266295322e-05 -3.8099693182903868e-05 0 4.5627827535830404e-05 -3.3864820266908928e-05 0 4.8559696593966131e-05 -3.9325533270726304e-05 0 4.5627827535830404e-05 -3.3864820266908928e-05 0 4.1713179266295322e-05 -3.8099693182903868e-05 0 4.0033760340783208e-05 -3.385653760261862e-05 0 3.3536718854815076e-05 -3.4483750949119479e-05 0 4.1713179266295322e-05 -3.8099693182903868e-05 0 3.858121949223514e-05 -4.1248264929355494e-05 0 4.1713179266295322e-05 -3.8099693182903868e-05 0 3.3536718854815076e-05 -3.4483750949119479e-05 0 4.0033760340783208e-05 -3.385653760261862e-05 0 3.5169708153477218e-05 -2.9240111606417617e-05 0 3.3536718854815076e-05 -3.4483750949119479e-05 0 2.9847827631601504e-05 -2.8509467256286706e-05 0 2.5323877053062664e-05 -2.81668077991683e-05 0 3.3536718854815076e-05 -3.4483750949119479e-05 0 2.9847827631601504e-05 -2.8509467256286706e-05 0 3.3536718854815076e-05 -3.4483750949119479e-05 0 3.5169708153477218e-05 -2.9240111606417617e-05 0 2.6309272313446069e-05 -3.3383940635031985e-05 0 3.1818063598573652e-05 -4.0968371750954501e-05 0 3.3536718854815076e-05 -3.4483750949119479e-05 0 2.6309272313446069e-05 -3.3383940635031985e-05 0 2.3832519648066217e-05 -3.6151730631313134e-05 0 3.1818063598573652e-05 -4.0968371750954501e-05 0 2.6309272313446069e-05 -3.3383940635031985e-05 0 2.5323877053062664e-05 -2.81668077991683e-05 0 2.101644863629555e-05 -2.9870152427851859e-05 0 2.6309272313446069e-05 -3.3383940635031985e-05 0 3.3536718854815076e-05 -3.4483750949119479e-05 0 2.5323877053062664e-05 -2.81668077991683e-05 0 2.9847827631601504e-05 -2.8509467256286706e-05 0 2.2686500286133256e-05 -2.017928277793829e-05 0 2.5323877053062664e-05 -2.81668077991683e-05 0 2.0639834902484916e-05 -2.4542078979927321e-05 0 2.101644863629555e-05 -2.9870152427851859e-05 0 2.5323877053062664e-05 -2.81668077991683e-05 0 2.0639834902484916e-05 -2.4542078979927321e-05 0 2.5323877053062664e-05 -2.81668077991683e-05 0 2.2686500286133256e-05 -2.017928277793829e-05 0 2.0639834902484916e-05 -2.4542078979927321e-05 0 2.2686500286133256e-05 -2.017928277793829e-05 0 1.7576741381327893e-05 -1.9154313219710324e-05 0 2.9847827631601504e-05 -2.8509467256286706e-05 0 2.9397943552354792e-05 -2.2648704200083666e-05 0 2.2686500286133256e-05 -2.017928277793829e-05 0 3.4954689153122451e-05 -2.456314502814011e-05 0 2.9397943552354792e-05 -2.2648704200083666e-05 0 3.5169708153477218e-05 -2.9240111606417617e-05 0 2.9847827631601504e-05 -2.8509467256286706e-05 0 3.5169708153477218e-05 -2.9240111606417617e-05 0 2.9397943552354792e-05 -2.2648704200083666e-05 0 -9.2848986393310676e-05 0.0001092197911156492 0 -6.8449077417236231e-05 9.1855514858284689e-05 0 -6.8032035984409492e-05 0.00011961747490325011 0 -0.00010016388730343782 0.00014052207881464052 0 -9.2848986393310676e-05 0.0001092197911156492 0 -6.8032035984409492e-05 0.00011961747490325011 0 -4.8209457357976238e-05 9.1903019625486624e-05 0 -6.8032035984409492e-05 0.00011961747490325011 0 -6.8449077417236231e-05 9.1855514858284689e-05 0 -9.2848986393310676e-05 0.0001092197911156492 0 -8.326806087377102e-05 8.0869498333766099e-05 0 -6.8449077417236231e-05 9.1855514858284689e-05 0 -8.326806087377102e-05 8.0869498333766099e-05 0 -7.331438107238122e-05 5.6868446436848371e-05 0 -5.1086580308262264e-05 6.2655769889235428e-05 0 -4.8209457357976238e-05 9.1903019625486624e-05 0 -6.8449077417236231e-05 9.1855514858284689e-05 0 -5.1086580308262264e-05 6.2655769889235428e-05 0 -8.326806087377102e-05 8.0869498333766099e-05 0 -5.1086580308262264e-05 6.2655769889235428e-05 0 -6.8449077417236231e-05 9.1855514858284689e-05 0 -4.8209457357976238e-05 9.1903019625486624e-05 0 -5.1086580308262264e-05 6.2655769889235428e-05 0 -3.2965863835718465e-05 7.4518173929649932e-05 0 -2.4351378527107416e-05 5.0106818118265182e-05 0 -3.2965863835718465e-05 7.4518173929649932e-05 0 -5.1086580308262264e-05 6.2655769889235428e-05 0 -1.5010095244360871e-05 7.857124931764272e-05 0 -3.1130100377332885e-05 9.4400232708443882e-05 0 -3.2965863835718465e-05 7.4518173929649932e-05 0 -4.8209457357976238e-05 9.1903019625486624e-05 0 -3.2965863835718465e-05 7.4518173929649932e-05 0 -3.1130100377332885e-05 9.4400232708443882e-05 0 -4.8209457357976238e-05 9.1903019625486624e-05 0 -3.1130100377332878e-05 9.4400232708443882e-05 0 -4.1371833870903385e-05 0.00011710643071177019 0 -4.8209457357976238e-05 9.1903019625486624e-05 0 -4.1371833870903385e-05 0.00011710643071177019 0 -6.8032035984409492e-05 0.00011961747490325011 0 -1.7790835454228565e-05 0.0001129665534488077 0 -4.1371833870903385e-05 0.00011710643071177019 0 -3.1130100377332885e-05 9.4400232708443882e-05 0 -1.7790835454228565e-05 0.0001129665534488077 0 5.4013080257211554e-06 0.00010579517667765002 0 -9.6620072149958779e-07 0.0001373587843461167 0 -1.7790835454228565e-05 0.0001129665534488077 0 -1.5010095244360871e-05 7.857124931764272e-05 0 5.4013080257211554e-06 0.00010579517667765002 0 8.8848626306949368e-06 6.9891137236810036e-05 0 5.4013080257211537e-06 0.00010579517667765002 0 -1.5010095244360871e-05 7.857124931764272e-05 0 -1.7790835454228565e-05 0.0001129665534488077 0 -3.1130100377332885e-05 9.4400232708443882e-05 0 -1.5010095244360871e-05 7.857124931764272e-05 0 -2.4351378527107416e-05 5.0106818118265182e-05 0 -1.5010095244360871e-05 7.857124931764272e-05 0 -3.2965863835718465e-05 7.4518173929649932e-05 0 -2.4351378527107416e-05 5.0106818118265182e-05 0 -4.8921046154640695e-06 4.8722475196393606e-05 0 -1.5010095244360871e-05 7.857124931764272e-05 0 8.8848626306949368e-06 6.9891137236810036e-05 0 -1.5010095244360871e-05 7.857124931764272e-05 0 -4.8921046154640686e-06 4.8722475196393606e-05 0 8.8848626306949368e-06 6.9891137236810036e-05 0 -4.8921046154640712e-06 4.8722475196393613e-05 0 8.9853810701806964e-06 4.5958713036223743e-05 0 8.8848626306949368e-06 6.9891137236810036e-05 0 8.9853810701806947e-06 4.595871303622375e-05 0 2.1483601940385612e-05 4.1823045128483974e-05 0 8.8848626306949368e-06 6.9891137236810036e-05 0 2.1483601940385612e-05 4.1823045128483974e-05 0 3.1288733208225501e-05 7.2829688917311913e-05 0 8.8848626306949368e-06 6.9891137236810036e-05 0 3.1288733208225501e-05 7.2829688917311913e-05 0 2.9583490597959221e-05 0.00010181454884286793 0 8.8848626306949368e-06 6.9891137236810036e-05 0 2.9583490597959221e-05 0.00010181454884286793 0 5.4013080257211554e-06 0.00010579517667765002 0 2.8251868373574847e-05 0.00013627159829117562 0 5.4013080257211554e-06 0.00010579517667765002 0 2.9583490597959221e-05 0.00010181454884286793 0 2.8251868373574847e-05 0.00013627159829117562 0 2.9583490597959221e-05 0.00010181454884286793 0 4.9593813014474717e-05 0.00012651935265587671 0 2.8251868373574847e-05 0.00013627159829117562 0 -9.6620072149959012e-07 0.00013735878434611667 0 5.4013080257211554e-06 0.00010579517667765002 0 2.8251868373574847e-05 0.00013627159829117562 0 1.6711777250035478e-05 0.00015840915584888521 0 -9.6620072149958779e-07 0.0001373587843461167 0 2.8251868373574847e-05 0.00013627159829117562 0 4.4681490083933831e-05 0.00016648296248584026 0 1.6711777250035478e-05 0.00015840915584888521 0 2.8251868373574847e-05 0.00013627159829117562 0 5.4936188329935303e-05 0.00014777539981958911 0 4.4681490083933831e-05 0.00016648296248584026 0 4.4681490083933831e-05 0.00016648296248584026 0 5.6509226031339584e-05 0.00018932374681236494 0 2.2070462003987734e-05 0.00018980534311524081 0 5.6509226031339584e-05 0.00018932374681236494 0 5.1046716443389355e-05 0.00021315102599944773 0 2.2070462003987734e-05 0.00018980534311524081 0 2.2070462003987734e-05 0.00018980534311524081 0 1.6711777250035478e-05 0.00015840915584888521 0 4.4681490083933831e-05 0.00016648296248584026 0 2.2070462003987734e-05 0.00018980534311524081 0 -9.623466538241483e-06 0.00016266548173978716 0 1.6711777250035478e-05 0.00015840915584888521 0 2.2070462003987734e-05 0.00018980534311524081 0 -1.4021690917712686e-05 0.00019251249302908185 0 -9.623466538241483e-06 0.00016266548173978716 0 2.2070462003987734e-05 0.00018980534311524081 0 -5.6793071409664536e-06 0.00022174410248166103 0 -1.4021690917712686e-05 0.00019251249302908185 0 -3.8520031605165273e-05 0.00018987354040560434 0 -9.6234665382414847e-06 0.00016266548173978713 0 -1.4021690917712686e-05 0.00019251249302908185 0 -3.8520031605165273e-05 0.00018987354040560434 0 -3.0133848628431593e-05 0.00014689591052735509 0 -9.623466538241483e-06 0.00016266548173978716 0 -9.623466538241483e-06 0.00016266548173978716 0 -3.0133848628431593e-05 0.00014689591052735509 0 -9.6620072149958779e-07 0.0001373587843461167 0 -9.623466538241483e-06 0.00016266548173978716 0 -9.6620072149958779e-07 0.0001373587843461167 0 1.6711777250035478e-05 0.00015840915584888521 0 -1.7790835454228565e-05 0.0001129665534488077 0 -9.6620072149958779e-07 0.0001373587843461167 0 -3.0133848628431593e-05 0.00014689591052735509 0 -1.7790835454228565e-05 0.0001129665534488077 0 -3.0133848628431593e-05 0.00014689591052735509 0 -4.1371833870903385e-05 0.00011710643071177019 0 -5.3782203238253519e-05 0.00014143002331004737 0 -4.1371833870903385e-05 0.00011710643071177019 0 -3.0133848628431593e-05 0.00014689591052735509 0 -5.3782203238253519e-05 0.00014143002331004737 0 -6.8032035984409492e-05 0.00011961747490325011 0 -4.1371833870903385e-05 0.00011710643071177019 0 -5.3782203238253519e-05 0.00014143002331004737 0 -5.4577917266018413e-05 0.00016524372473660171 0 -7.7436519260630799e-05 0.0001592874342030289 0 -5.3782203238253519e-05 0.00014143002331004737 0 -3.0133848628431593e-05 0.00014689591052735509 0 -5.4577917266018413e-05 0.00016524372473660171 0 -3.8520031605165273e-05 0.00018987354040560434 0 -5.457791726601842e-05 0.00016524372473660171 0 -3.0133848628431593e-05 0.00014689591052735509 0 -3.8520031605165273e-05 0.00018987354040560434 0 -1.4021690917712686e-05 0.00019251249302908185 0 -3.5159167066679115e-05 0.00022182515912594803 0 -3.8520031605165273e-05 0.00018987354040560434 0 -5.8219493715126297e-05 0.00021358346733044582 0 -7.4175808655363863e-05 0.0001906243661231961 0 -3.8520031605165273e-05 0.00018987354040560434 0 -7.4175808655363863e-05 0.0001906243661231961 0 -5.4577917266018413e-05 0.00016524372473660171 0 -7.4175808655363863e-05 0.0001906243661231961 0 -7.7436519260630799e-05 0.0001592874342030289 0 -5.4577917266018413e-05 0.00016524372473660171 0 -0.00011011851280337316 0.00020983629563575812 0 -0.00010603536249729231 0.00017443597387238981 0 -7.4175808655363863e-05 0.0001906243661231961 0 -0.00011011851280337316 0.00020983629563575812 0 -7.4175808655363863e-05 0.0001906243661231961 0 -8.2745961952902826e-05 0.00022404184137906727 0 -0.00010603536249729233 0.00017443597387238981 0 -7.7436519260630799e-05 0.0001592874342030289 0 -7.4175808655363863e-05 0.0001906243661231961 0 -0.00010603536249729233 0.00017443597387238981 0 -0.00010016388730343782 0.00014052207881464052 0 -7.7436519260630799e-05 0.0001592874342030289 0 -5.3782203238253519e-05 0.00014143002331004737 0 -7.7436519260630799e-05 0.0001592874342030289 0 -6.8032035984409492e-05 0.00011961747490325011 0 -0.00010016388730343782 0.00014052207881464052 0 -6.8032035984409492e-05 0.00011961747490325011 0 -7.7436519260630799e-05 0.0001592874342030289 0 -0.00011506904718223368 0.00028393990858384773 0 -6.7884912764712069e-05 0.00028449138460938541 0 -8.1594247936538181e-05 0.0003209450583850108 0 -0.00011506904718223368 0.00028393990858384773 0 -8.7122979687077092e-05 0.00025687392896245873 0 -6.7884912764712069e-05 0.00028449138460938541 0 -6.0985922440819685e-05 0.00024287679651364508 0 -6.7884912764712069e-05 0.00028449138460938541 0 -8.7122979687077092e-05 0.00025687392896245873 0 -0.00011506904718223368 0.00028393990858384773 0 -0.00011316079295155727 0.00024642232502925096 0 -8.7122979687077092e-05 0.00025687392896245873 0 -0.00011316079295155727 0.00024642232502925096 0 -8.2745961952902826e-05 0.00022404184137906727 0 -8.7122979687077092e-05 0.00025687392896245873 0 -0.00011316079295155727 0.00024642232502925096 0 -0.00011011851280337316 0.00020983629563575812 0 -8.2745961952902826e-05 0.00022404184137906727 0 -7.4175808655363863e-05 0.0001906243661231961 0 -5.8219493715126297e-05 0.00021358346733044582 0 -8.2745961952902826e-05 0.00022404184137906727 0 -6.0985922440819685e-05 0.00024287679651364508 0 -8.7122979687077092e-05 0.00025687392896245873 0 -8.2745961952902826e-05 0.00022404184137906727 0 -6.0985922440819685e-05 0.00024287679651364508 0 -5.821949371512629e-05 0.00021358346733044579 0 -3.5159167066679115e-05 0.00022182515912594803 0 -6.0985922440819685e-05 0.00024287679651364508 0 -8.2745961952902826e-05 0.00022404184137906727 0 -5.8219493715126297e-05 0.00021358346733044582 0 -3.8520031605165273e-05 0.00018987354040560434 0 -3.5159167066679115e-05 0.00022182515912594803 0 -5.8219493715126297e-05 0.00021358346733044582 0 -6.0985922440819685e-05 0.00024287679651364508 0 -3.5159167066679115e-05 0.00022182515912594803 0 -3.4544453442031264e-05 0.00025364230438728686 0 -6.7884912764712069e-05 0.00028449138460938541 0 -3.4544453442031264e-05 0.00025364230438728686 0 -3.1957000327643659e-05 0.00028740077112496233 0 -6.0985922440819685e-05 0.00024287679651364508 0 -3.4544453442031264e-05 0.00025364230438728686 0 -6.7884912764712069e-05 0.00028449138460938541 0 -4.5149670988355621e-05 0.00032447667695027695 0 -6.7884912764712069e-05 0.00028449138460938541 0 -3.1957000327643659e-05 0.00028740077112496233 0 -8.0828287722738717e-06 0.00026510976156918605 0 -4.2802235306241554e-06 0.00030610861020001284 0 -3.1957000327643659e-05 0.00028740077112496233 0 -8.0828287722738717e-06 0.00026510976156918605 0 2.1608704637184735e-05 0.00027987083079857126 0 -4.2802235306241605e-06 0.00030610861020001284 0 -8.0828287722738717e-06 0.00026510976156918605 0 1.3706217571296238e-05 0.00024484186688344972 0 2.1608704637184735e-05 0.00027987083079857126 0 -8.0828287722738717e-06 0.00026510976156918605 0 -3.1957000327643659e-05 0.00028740077112496233 0 -3.4544453442031264e-05 0.00025364230438728686 0 -5.6793071409664536e-06 0.00022174410248166103 0 -3.4544453442031264e-05 0.00025364230438728686 0 -3.5159167066679115e-05 0.00022182515912594803 0 -8.0828287722738717e-06 0.00026510976156918605 0 -3.4544453442031264e-05 0.00025364230438728686 0 -5.6793071409664536e-06 0.00022174410248166103 0 -5.6793071409664536e-06 0.00022174410248166103 0 -3.5159167066679115e-05 0.00022182515912594803 0 -1.4021690917712686e-05 0.00019251249302908185 0 -5.6793071409664536e-06 0.00022174410248166103 0 2.4380073819929299e-05 0.00022304555480008527 0 1.3706217571296239e-05 0.00024484186688344972 0 -8.0828287722738717e-06 0.00026510976156918605 0 -5.6793071409664579e-06 0.00022174410248166103 0 1.3706217571296239e-05 0.00024484186688344972 0 4.1250776260073778e-05 0.00024515351133547913 0 1.3706217571296239e-05 0.00024484186688344972 0 2.4380073819929296e-05 0.00022304555480008527 0 2.2070462003987734e-05 0.00018980534311524081 0 5.1046716443389355e-05 0.00021315102599944773 0 2.4380073819929296e-05 0.00022304555480008527 0 2.2070462003987734e-05 0.00018980534311524081 0 2.4380073819929296e-05 0.00022304555480008527 0 -5.6793071409664536e-06 0.00022174410248166103 0 4.1250776260073778e-05 0.00024515351133547913 0 2.4380073819929296e-05 0.00022304555480008527 0 5.1046716443389355e-05 0.00021315102599944773 0 4.1250776260073778e-05 0.00024515351133547913 0 5.1046716443389355e-05 0.00021315102599944773 0 6.7945121073139281e-05 0.00023182800029388262 0 4.1250776260073778e-05 0.00024515351133547913 0 5.5635306429191332e-05 0.00028418779445089546 0 2.1608704637184735e-05 0.00027987083079857126 0 4.1250776260073778e-05 0.00024515351133547913 0 6.9194689421758074e-05 0.00025582584944705566 0 5.5635306429191332e-05 0.00028418779445089546 0 4.1250776260073778e-05 0.00024515351133547913 0 2.1608704637184735e-05 0.00027987083079857126 0 1.3706217571296239e-05 0.00024484186688344972 0 3.3939524948572074e-05 0.00032214611940531462 0 2.1608704637184735e-05 0.00027987083079857126 0 5.5635306429191332e-05 0.00028418779445089546 0 3.3939524948572074e-05 0.00032214611940531462 0 5.5635306429191339e-05 0.00028418779445089546 0 7.0761396439665027e-05 0.00031752172265584632 0 3.3939524948572074e-05 0.00032214611940531462 0 6.7545431301135056e-05 0.00035236356442488851 0 3.1034338549204866e-05 0.00036212020490905246 0 3.3939524948572074e-05 0.00032214611940531462 0 7.076139643966504e-05 0.00031752172265584632 0 6.754543130113507e-05 0.00035236356442488851 0 6.754543130113507e-05 0.00035236356442488851 0 5.5610592830735299e-05 0.00037738108435590771 0 3.1034338549204866e-05 0.00036212020490905246 0 6.754543130113507e-05 0.00035236356442488851 0 8.8776508261095095e-05 0.0003725566615313454 0 5.5610592830735299e-05 0.00037738108435590771 0 7.8963009499578352e-05 0.00039716978195333987 0 5.5610592830735299e-05 0.00037738108435590771 0 8.8776508261095095e-05 0.0003725566615313454 0 7.8963009499578352e-05 0.00039716978195333987 0 3.7368518631819611e-05 0.00039879896637323058 0 5.5610592830735299e-05 0.00037738108435590771 0 3.7368518631819611e-05 0.00039879896637323058 0 3.1034338549204866e-05 0.00036212020490905246 0 5.5610592830735299e-05 0.00037738108435590771 0 -2.2117513181191419e-06 0.00039883687396729032 0 -3.822704051500535e-05 0.00036300293433349335 0 -4.5640409424385728e-06 0.00034944372725580994 0 -2.2117513181191419e-06 0.00039883687396729032 0 -4.5640409424385728e-06 0.00034944372725580994 0 3.1034338549204866e-05 0.00036212020490905246 0 3.7368518631819611e-05 0.00039879896637323058 0 -2.2117513181191419e-06 0.00039883687396729032 0 3.1034338549204866e-05 0.00036212020490905246 0 -4.5149670988355621e-05 0.00032447667695027695 0 -4.2802235306241605e-06 0.00030610861020001284 0 -4.5640409424385728e-06 0.00034944372725580994 0 3.3939524948572074e-05 0.00032214611940531462 0 3.1034338549204866e-05 0.00036212020490905246 0 -4.5640409424385728e-06 0.00034944372725580994 0 3.3939524948572074e-05 0.00032214611940531462 0 -4.5640409424385728e-06 0.00034944372725580994 0 -4.2802235306241605e-06 0.00030610861020001284 0 3.3939524948572074e-05 0.00032214611940531462 0 -4.2802235306241605e-06 0.00030610861020001284 0 2.1608704637184735e-05 0.00027987083079857126 0 -4.5149670988355621e-05 0.00032447667695027695 0 -3.1957000327643659e-05 0.00028740077112496233 0 -4.2802235306241605e-06 0.00030610861020001284 0 -4.5149670988355621e-05 0.00032447667695027695 0 -8.1594247936538181e-05 0.0003209450583850108 0 -6.7884912764712069e-05 0.00028449138460938541 0 -4.5149670988355621e-05 0.00032447667695027695 0 -3.8227040515005344e-05 0.00036300293433349335 0 -7.4188841995021911e-05 0.00035548946152769335 0 -4.5149670988355621e-05 0.00032447667695027695 0 -7.4188841995021911e-05 0.00035548946152769335 0 -8.1594247936538181e-05 0.0003209450583850108 0 -4.5149670988355621e-05 0.00032447667695027695 0 -4.564040942438566e-06 0.00034944372725580989 0 -3.8227040515005344e-05 0.00036300293433349335 0 -2.2117513181191419e-06 0.00039883687396729032 0 -4.0319426799040809e-05 0.00039860787467468011 0 -3.8227040515005344e-05 0.00036300293433349335 0 -4.0319426799040809e-05 0.00039860787467468011 0 -7.832750664126213e-05 0.00039841998591951135 0 -5.9700010649193673e-05 0.00037878291112611713 0 -4.0319426799040809e-05 0.00039860787467468011 0 -5.9700010649193673e-05 0.00037878291112611713 0 -3.8227040515005344e-05 0.00036300293433349335 0 -7.4188841995021911e-05 0.00035548946152769335 0 -3.8227040515005344e-05 0.00036300293433349335 0 -5.9700010649193673e-05 0.00037878291112611713 0 -7.4188841995021911e-05 0.00035548946152769335 0 -5.9700010649193673e-05 0.00037878291112611713 0 -9.1112237536815932e-05 0.00037685347917718748 0 -7.832750664126213e-05 0.00039841998591951135 0 -9.1112237536815932e-05 0.00037685347917718748 0 -5.9700010649193673e-05 0.00037878291112611713 0 -0.00011622131265029346 0.00039859764388757915 0 -9.1112237536815932e-05 0.00037685347917718748 0 -7.832750664126213e-05 0.00039841998591951135 0 -0.00011622131265029346 0.00039859764388757915 0 -0.0001163722141791467 0.00036048207715061974 0 -9.1112237536815932e-05 0.00037685347917718748 0 -0.0001163722141791467 0.00036048207715061974 0 -7.4188841995021911e-05 0.00035548946152769335 0 -9.1112237536815932e-05 0.00037685347917718748 0 -0.0001163722141791467 0.00036048207715061974 0 -0.0001160542218292832 0.0003222363099326279 0 -8.1594247936538181e-05 0.0003209450583850108 0 -0.0001163722141791467 0.00036048207715061974 0 -8.1594247936538181e-05 0.0003209450583850108 0 -7.4188841995021911e-05 0.00035548946152769335 0 -0.0001160542218292832 0.0003222363099326279 0 -0.00011506904718223368 0.00028393990858384773 0 -8.1594247936538181e-05 0.0003209450583850108 0 4.0820114555254807e-05 -5.3750489609183578e-05 0 4.1244178932618017e-05 -4.6643706035646004e-05 0 3.5531109303843804e-05 -4.83323341478868e-05 0 4.8445701640873258e-05 -4.8228143311198927e-05 0 4.1244178932618017e-05 -4.6643706035646004e-05 0 4.7811448965113066e-05 -5.3379320052767449e-05 0 4.8445701640873258e-05 -4.8228143311198927e-05 0 4.512460237522679e-05 -4.3678838549262455e-05 0 4.1244178932618017e-05 -4.6643706035646004e-05 0 4.0820114555254807e-05 -5.3750489609183578e-05 0 4.7811448965113066e-05 -5.3379320052767449e-05 0 4.1244178932618017e-05 -4.6643706035646004e-05 0 4.0820114555254807e-05 -5.3750489609183578e-05 0 3.5531109303843804e-05 -4.83323341478868e-05 0 3.3036110099917586e-05 -5.3605777958920597e-05 0 3.5531109303843804e-05 -4.83323341478868e-05 0 2.9673544137935792e-05 -4.6309525174359506e-05 0 3.3036110099917586e-05 -5.3605777958920597e-05 0 2.7910144941777187e-05 -5.0456118886727549e-05 0 3.3036110099917586e-05 -5.3605777958920597e-05 0 2.9673544137935792e-05 -4.6309525174359506e-05 0 3.5531109303843804e-05 -4.83323341478868e-05 0 3.1818063598573652e-05 -4.0968371750954501e-05 0 2.9673544137935792e-05 -4.6309525174359506e-05 0 2.651019544418122e-05 -4.1519200872596416e-05 0 2.9673544137935792e-05 -4.6309525174359506e-05 0 3.1818063598573652e-05 -4.0968371750954501e-05 0 2.651019544418122e-05 -4.1519200872596416e-05 0 3.1818063598573652e-05 -4.0968371750954501e-05 0 2.3832519648066217e-05 -3.6151730631313134e-05 0 3.858121949223514e-05 -4.1248264929355494e-05 0 3.3536718854815076e-05 -3.4483750949119479e-05 0 3.1818063598573652e-05 -4.0968371750954501e-05 0 4.1244178932618017e-05 -4.6643706035646004e-05 0 3.858121949223514e-05 -4.1248264929355494e-05 0 3.1818063598573652e-05 -4.0968371750954501e-05 0 3.5531109303843804e-05 -4.83323341478868e-05 0 4.1244178932618017e-05 -4.6643706035646004e-05 0 3.1818063598573652e-05 -4.0968371750954501e-05 0 3.858121949223514e-05 -4.1248264929355494e-05 0 4.1244178932618017e-05 -4.6643706035646004e-05 0 4.512460237522679e-05 -4.3678838549262455e-05 0 3.858121949223514e-05 -4.1248264929355494e-05 0 4.512460237522679e-05 -4.3678838549262455e-05 0 4.1713179266295322e-05 -3.8099693182903868e-05 0 4.8559696593966131e-05 -3.9325533270726304e-05 0 4.1713179266295322e-05 -3.8099693182903868e-05 0 4.512460237522679e-05 -4.3678838549262455e-05 0 5.0905600619481066e-05 -3.4171758544862924e-05 0 4.5627827535830404e-05 -3.3864820266908928e-05 0 4.8559696593966131e-05 -3.9325533270726304e-05 0 5.487524303828182e-05 -3.9044587269446649e-05 0 4.8559696593966131e-05 -3.9325533270726304e-05 0 5.2858528326596821e-05 -4.4603987814445462e-05 0 4.8559696593966131e-05 -3.9325533270726304e-05 0 4.512460237522679e-05 -4.3678838549262455e-05 0 5.2858528326596821e-05 -4.4603987814445462e-05 0 8.5943911675194742e-05 0.00020451239310474091 0 6.7945121073139281e-05 0.00023182800029388262 0 5.1046716443389355e-05 0.00021315102599944773 0 8.5943911675194742e-05 0.00020451239310474091 0 9.1900135499189896e-05 0.0002393864638503176 0 6.7945121073139281e-05 0.00023182800029388262 0 5.0905600619481066e-05 -3.4171758544862924e-05 0 4.8559696593966131e-05 -3.9325533270726304e-05 0 5.487524303828182e-05 -3.9044587269446649e-05 0 6.8183531736141251e-05 8.5172191072457881e-05 0 7.3177708342388252e-05 0.00010039351109552524 0 4.1250776260073778e-05 0.00024515351133547913 0 6.7945121073139281e-05 0.00023182800029388262 0 6.9194689421758074e-05 0.00025582584944705566 0 9.1900135499189896e-05 0.0002393864638503176 0 6.9194689421758074e-05 0.00025582584944705566 0 6.7945121073139281e-05 0.00023182800029388262 0 9.7945011921213364e-05 0.00027571600429263543 0 5.5635306429191332e-05 0.00028418779445089546 0 6.9194689421758074e-05 0.00025582584944705566 0 7.3177708342388252e-05 0.00010039351109552524 0 7.7523788711245426e-05 0.00011509747801636136 0 5.487524303828182e-05 -3.9044587269446649e-05 0 5.2858528326596821e-05 -4.4603987814445462e-05 0 5.9879129960464001e-05 -4.4527456355688057e-05 0 9.1900135499189896e-05 0.0002393864638503176 0 9.7945011921213364e-05 0.00027571600429263543 0 6.9194689421758074e-05 0.00025582584944705566 0 7.7523788711245426e-05 0.00011509747801636136 0 8.7283568287781319e-05 0.00013182350007021618 0 9.7945011921213364e-05 0.00027571600429263543 0 7.0761396439665027e-05 0.00031752172265584632 0 5.5635306429191332e-05 0.00028418779445089546 0 4.8445701640873258e-05 -4.8228143311198927e-05 0 5.2858528326596821e-05 -4.4603987814445462e-05 0 4.512460237522679e-05 -4.3678838549262455e-05 0 5.9879129960464001e-05 -4.4527456355688057e-05 0 5.2858528326596821e-05 -4.4603987814445462e-05 0 5.6058558156759219e-05 -5.2125440826824371e-05 0 4.8445701640873258e-05 -4.8228143311198927e-05 0 4.7811448965113066e-05 -5.3379320052767449e-05 0 5.6058558156759219e-05 -5.2125440826824371e-05 0 4.8445701640873258e-05 -4.8228143311198927e-05 0 5.6058558156759219e-05 -5.2125440826824371e-05 0 5.2858528326596821e-05 -4.4603987814445462e-05 0 5.4855859723155956e-05 -5.9771966345023479e-05 0 6.2885154657757323e-05 -5.8014331177517895e-05 0 5.6058558156759219e-05 -5.2125440826824371e-05 0 5.4855859723155956e-05 -5.9771966345023479e-05 0 5.6058558156759219e-05 -5.2125440826824371e-05 0 4.7811448965113066e-05 -5.3379320052767449e-05 0 5.9879129960464001e-05 -4.4527456355688057e-05 0 5.6058558156759219e-05 -5.2125440826824371e-05 0 6.6196829167952981e-05 -5.1101420785421871e-05 0 6.6196829167952981e-05 -5.1101420785421871e-05 0 5.6058558156759219e-05 -5.2125440826824371e-05 0 6.2885154657757323e-05 -5.8014331177517895e-05 0 5.4855859723155956e-05 -5.9771966345023479e-05 0 6.5398072993842605e-05 -6.6054956761485225e-05 0 6.2885154657757323e-05 -5.8014331177517895e-05 0 9.7945011921213364e-05 0.00027571600429263543 0 0.00010424050762987244 0.00031282702953026469 0 7.0761396439665027e-05 0.00031752172265584632 0 8.7283568287781319e-05 0.00013182350007021618 0 8.0764655662738378e-05 0.00014448223610418471 0 6.6196829167952981e-05 -5.1101420785421871e-05 0 6.2885154657757323e-05 -5.8014331177517895e-05 0 7.4229031837208458e-05 -5.9782579595357241e-05 0 0.00010424050762987244 0.00031282702953026469 0 0.00011148932820092041 0.00035146376338999677 0 7.0761396439665027e-05 0.00031752172265584632 0 0.00011148932820092041 0.00035146376338999677 0 6.7545431301135056e-05 0.00035236356442488846 0 7.0761396439665027e-05 0.00031752172265584632 0 0.00011148932820092041 0.00035146376338999677 0 8.8776508261095095e-05 0.0003725566615313454 0 6.754543130113507e-05 0.00035236356442488851 0 8.0764655662738378e-05 0.00014448223610418471 0 0.00014228517665904701 0.00016120307124230842 0 0.00012084996036765538 0.00039165493458185972 0 8.8776508261095095e-05 0.0003725566615313454 0 0.00011148932820092041 0.00035146376338999677 0 0.00012084996036765538 0.00039165493458185972 0 7.8963009499578352e-05 0.00039716978195333987 0 8.8776508261095095e-05 0.0003725566615313454 0 5.4855859723155956e-05 -5.9771966345023479e-05 0 5.1979430893523856e-05 -6.8074800573738621e-05 0 6.5398072993842605e-05 -6.6054956761485225e-05 0 7.4229031837208458e-05 -5.9782579595357241e-05 0 6.2885154657757323e-05 -5.8014331177517895e-05 0 6.5398072993842605e-05 -6.6054956761485225e-05 0 8.3378498257574008e-05 -7.173408008659373e-05 0 7.4229031837208458e-05 -5.9782579595357241e-05 0 6.5398072993842605e-05 -6.6054956761485225e-05 0 8.3378498257574008e-05 -7.173408008659373e-05 0 6.5398072993842605e-05 -6.6054956761485225e-05 0 6.8909063842764924e-05 -7.6584470298301927e-05 0 6.8909063842764924e-05 -7.6584470298301927e-05 0 6.5398072993842605e-05 -6.6054956761485225e-05 0 5.1979430893523856e-05 -6.8074800573738621e-05 0 4.4304220226805055e-05 -7.4860852048115858e-05 0 5.1979430893523856e-05 -6.8074800573738621e-05 0 4.252181167091516e-05 -6.38884803428815e-05 0 5.5736197005798186e-05 -7.7094362438625056e-05 0 6.8909063842764924e-05 -7.6584470298301927e-05 0 5.1979430893523856e-05 -6.8074800573738621e-05 0 4.4304220226805055e-05 -7.4860852048115858e-05 0 5.5736197005798186e-05 -7.7094362438625056e-05 0 5.1979430893523856e-05 -6.8074800573738621e-05 0 5.4855859723155956e-05 -5.9771966345023479e-05 0 4.598885856645281e-05 -5.9764221659139766e-05 0 5.1979430893523856e-05 -6.8074800573738621e-05 0 4.252181167091516e-05 -6.38884803428815e-05 0 5.1979430893523856e-05 -6.8074800573738621e-05 0 4.598885856645281e-05 -5.9764221659139766e-05 0 4.0820114555254807e-05 -5.3750489609183578e-05 0 3.7194939359605051e-05 -5.9298745575332857e-05 0 4.598885856645281e-05 -5.9764221659139766e-05 0 4.0820114555254807e-05 -5.3750489609183578e-05 0 4.5988858566452817e-05 -5.9764221659139766e-05 0 4.7811448965113066e-05 -5.3379320052767449e-05 0 5.4855859723155956e-05 -5.9771966345023479e-05 0 4.7811448965113066e-05 -5.3379320052767449e-05 0 4.598885856645281e-05 -5.9764221659139766e-05 0 3.1886454293794788e-05 -5.9850262515066784e-05 0 3.7194939359605051e-05 -5.9298745575332857e-05 0 3.3036110099917586e-05 -5.3605777958920597e-05 0 4.0820114555254807e-05 -5.3750489609183578e-05 0 3.3036110099917586e-05 -5.3605777958920597e-05 0 3.7194939359605051e-05 -5.9298745575332857e-05 0 4.252181167091516e-05 -6.38884803428815e-05 0 3.7194939359605051e-05 -5.9298745575332857e-05 0 3.6456639422802905e-05 -6.5959401182084606e-05 0 4.252181167091516e-05 -6.38884803428815e-05 0 4.598885856645281e-05 -5.9764221659139766e-05 0 3.7194939359605051e-05 -5.9298745575332857e-05 0 3.1886454293794788e-05 -5.9850262515066784e-05 0 3.6456639422802905e-05 -6.5959401182084606e-05 0 3.7194939359605051e-05 -5.9298745575332857e-05 0 4.4304220226805055e-05 -7.4860852048115858e-05 0 4.252181167091516e-05 -6.38884803428815e-05 0 3.6456639422802905e-05 -6.5959401182084606e-05 0 3.5948082033435866e-05 -7.1593645772078922e-05 0 4.4304220226805055e-05 -7.4860852048115858e-05 0 3.6456639422802905e-05 -6.5959401182084606e-05 0 3.5948082033435866e-05 -7.1593645772078922e-05 0 3.6456639422802905e-05 -6.5959401182084606e-05 0 3.1724119793219164e-05 -6.5409625590084371e-05 0 2.9918242529761276e-05 -6.8028270386444008e-05 0 3.5948082033435866e-05 -7.1593645772078922e-05 0 3.1724119793219164e-05 -6.5409625590084371e-05 0 2.9918242529761276e-05 -6.8028270386444008e-05 0 3.1724119793219164e-05 -6.5409625590084371e-05 0 2.6561931906114636e-05 -6.1399515718773851e-05 0 3.1886454293794788e-05 -5.9850262515066784e-05 0 2.6561931906114632e-05 -6.1399515718773851e-05 0 3.1724119793219164e-05 -6.5409625590084371e-05 0 3.1886454293794788e-05 -5.9850262515066784e-05 0 3.1724119793219164e-05 -6.5409625590084371e-05 0 3.6456639422802905e-05 -6.5959401182084606e-05 0 2.5208642886522375e-05 -6.4221950319548335e-05 0 2.6809649709617876e-05 -6.5224967675438434e-05 0 2.3933743625640478e-05 -6.2438447869702222e-05 0 2.6809649709617876e-05 -6.5224967675438434e-05 0 2.9918242529761276e-05 -6.8028270386444008e-05 0 2.3933743625640478e-05 -6.2438447869702222e-05 0 2.9918242529761276e-05 -6.8028270386444008e-05 0 2.6561931906114639e-05 -6.1399515718773851e-05 0 2.3933743625640478e-05 -6.2438447869702222e-05 0 1.9612443968354543e-05 -5.8755410159328155e-05 0 2.3933743625640478e-05 -6.2438447869702222e-05 0 2.2378888078874458e-05 -5.7392759678095782e-05 0 2.6561931906114636e-05 -6.1399515718773851e-05 0 2.2378888078874458e-05 -5.7392759678095782e-05 0 2.3933743625640478e-05 -6.2438447869702222e-05 0 2.2378888078874458e-05 -5.7392759678095782e-05 0 2.6348922692748089e-05 -5.5330951994169023e-05 0 2.1622148042418067e-05 -5.2388697283610565e-05 0 2.1622148042418067e-05 -5.2388697283610565e-05 0 1.8187584034120606e-05 -5.3177170279758205e-05 0 2.2378888078874458e-05 -5.7392759678095782e-05 0 1.9612443968354543e-05 -5.8755410159328155e-05 0 2.2378888078874458e-05 -5.7392759678095782e-05 0 1.8187584034120606e-05 -5.3177170279758205e-05 0 3.1886454293794788e-05 -5.9850262515066784e-05 0 2.6348922692748089e-05 -5.5330951994169023e-05 0 2.6561931906114636e-05 -6.1399515718773851e-05 0 2.6561931906114636e-05 -6.1399515718773851e-05 0 2.6348922692748089e-05 -5.5330951994169023e-05 0 2.2378888078874458e-05 -5.7392759678095782e-05 0 3.1886454293794788e-05 -5.9850262515066784e-05 0 3.3036110099917586e-05 -5.3605777958920597e-05 0 2.6348922692748089e-05 -5.5330951994169023e-05 0 2.7910144941777187e-05 -5.0456118886727549e-05 0 2.6348922692748089e-05 -5.5330951994169023e-05 0 3.3036110099917586e-05 -5.3605777958920597e-05 0 2.7910144941777187e-05 -5.0456118886727549e-05 0 2.9673544137935792e-05 -4.6309525174359506e-05 0 2.5104240845083774e-05 -4.6002597662730163e-05 0 2.7910144941777187e-05 -5.0456118886727549e-05 0 2.5104240845083774e-05 -4.6002597662730163e-05 0 2.4176014656698795e-05 -5.0541385947807556e-05 0 2.1098693628806942e-05 -4.6631759044185898e-05 0 2.4176014656698795e-05 -5.0541385947807556e-05 0 2.5104240845083774e-05 -4.6002597662730163e-05 0 2.7910144941777187e-05 -5.0456118886727549e-05 0 2.4176014656698795e-05 -5.0541385947807556e-05 0 2.6348922692748089e-05 -5.5330951994169023e-05 0 2.1622148042418067e-05 -5.2388697283610565e-05 0 2.4176014656698795e-05 -5.0541385947807556e-05 0 2.1098693628806942e-05 -4.6631759044185898e-05 0 2.1622148042418067e-05 -5.2388697283610565e-05 0 2.6348922692748089e-05 -5.5330951994169023e-05 0 2.4176014656698795e-05 -5.0541385947807556e-05 0 2.1622148042418067e-05 -5.2388697283610565e-05 0 1.7059997094927288e-05 -4.5912297583410723e-05 0 1.8187584034120606e-05 -5.3177170279758205e-05 0 1.4975300597908471e-05 -4.9387113560997797e-05 0 1.8187584034120606e-05 -5.3177170279758205e-05 0 1.7059997094927285e-05 -4.5912297583410723e-05 0 2.1622148042418067e-05 -5.2388697283610565e-05 0 2.1098693628806942e-05 -4.6631759044185898e-05 0 1.7059997094927285e-05 -4.5912297583410723e-05 0 1.6280358573484019e-05 -4.0462556544555348e-05 0 2.1098693628806942e-05 -4.6631759044185905e-05 0 2.173422662698506e-05 -4.1323631268708467e-05 0 1.6280358573484019e-05 -4.0462556544555348e-05 0 1.7059997094927285e-05 -4.5912297583410723e-05 0 2.1098693628806942e-05 -4.6631759044185898e-05 0 1.6280358573484019e-05 -4.0462556544555348e-05 0 1.1095213239014152e-05 -4.2447371566566539e-05 0 1.7059997094927285e-05 -4.5912297583410723e-05 0 1.6280358573484019e-05 -4.0462556544555348e-05 0 2.173422662698506e-05 -4.1323631268708467e-05 0 1.9259895291515911e-05 -3.5134592853368387e-05 0 1.9259895291515911e-05 -3.5134592853368387e-05 0 2.173422662698506e-05 -4.1323631268708467e-05 0 2.3832519648066217e-05 -3.6151730631313134e-05 0 2.651019544418122e-05 -4.1519200872596416e-05 0 2.3832519648066217e-05 -3.6151730631313134e-05 0 2.173422662698506e-05 -4.1323631268708467e-05 0 2.651019544418122e-05 -4.1519200872596416e-05 0 2.173422662698506e-05 -4.1323631268708467e-05 0 2.5104240845083774e-05 -4.6002597662730163e-05 0 2.651019544418122e-05 -4.1519200872596416e-05 0 2.5104240845083774e-05 -4.6002597662730163e-05 0 2.9673544137935792e-05 -4.6309525174359506e-05 0 2.1098693628806942e-05 -4.6631759044185898e-05 0 2.5104240845083774e-05 -4.6002597662730163e-05 0 2.173422662698506e-05 -4.1323631268708467e-05 0 3.497923466644401e-05 -0.00012072767513653634 0 1.9565763931027943e-05 -0.00011126268457721698 0 2.3083419661148323e-05 -0.00012807403958022077 0 1.8204948656389775e-05 -7.1055944394666178e-05 0 2.0739263211228176e-05 -8.39421387168272e-05 0 3.1905507369029562e-05 -0.00010219448543890433 0 1.9565763931027943e-05 -0.00011126268457721698 0 3.497923466644401e-05 -0.00012072767513653634 0 4.6900345860903427e-06 -3.9895651695221547e-05 0 6.6784346239894872e-06 -4.712093867265015e-05 0 1.1095213239014152e-05 -4.2447371566566539e-05 0 4.6900345860903427e-06 -3.9895651695221547e-05 0 1.1095213239014152e-05 -4.2447371566566539e-05 0 8.2882666160357058e-06 -3.561042505824398e-05 0 1.6280358573484019e-05 -4.0462556544555348e-05 0 1.227279601322285e-05 -3.7190258567121024e-05 0 1.1095213239014152e-05 -4.2447371566566539e-05 0 1.1095213239014152e-05 -4.2447371566566539e-05 0 1.227279601322285e-05 -3.7190258567121024e-05 0 8.2882666160357058e-06 -3.561042505824398e-05 0 1.4975300597908471e-05 -4.9387113560997797e-05 0 1.7059997094927285e-05 -4.5912297583410723e-05 0 1.1095213239014152e-05 -4.2447371566566539e-05 0 6.6784346239894872e-06 -4.712093867265015e-05 0 1.1038859900807713e-05 -4.9089205622732908e-05 0 1.1095213239014152e-05 -4.2447371566566539e-05 0 1.4975300597908471e-05 -4.9387113560997797e-05 0 1.1095213239014152e-05 -4.2447371566566539e-05 0 1.1038859900807713e-05 -4.9089205622732908e-05 0 1.4975300597908471e-05 -4.9387113560997797e-05 0 1.1038859900807713e-05 -4.9089205622732908e-05 0 1.4788216786618621e-05 -5.4863515041111464e-05 0 1.4975300597908471e-05 -4.9387113560997797e-05 0 1.4788216786618621e-05 -5.4863515041111464e-05 0 1.8187584034120606e-05 -5.3177170279758205e-05 0 9.5544327200639947e-06 -5.3917565621009345e-05 0 1.4788216786618623e-05 -5.4863515041111464e-05 0 1.1038859900807713e-05 -4.9089205622732908e-05 0 9.5544327200639947e-06 -5.3917565621009345e-05 0 1.3547688848437907e-05 -5.982015044263561e-05 0 1.4788216786618621e-05 -5.4863515041111464e-05 0 3.8161351804724258e-05 -0.00014019639370753701 0 2.3083419661148323e-05 -0.00012807403958022077 0 1.5220090596118081e-05 -0.00014356587625900336 0 3.8161351804724258e-05 -0.00014019639370753701 0 1.5220090596118078e-05 -0.00014356587625900336 0 2.4383643014215519e-05 -0.00016224575221592628 0 2.3539718209594525e-05 -9.6947894889040805e-05 0 2.7934484244386239e-05 -0.00011023774483438184 0 6.6784346239894872e-06 -4.712093867265015e-05 0 9.5544327200639947e-06 -5.3917565621009345e-05 0 1.1038859900807713e-05 -4.9089205622732908e-05 0 3.497923466644401e-05 -0.00012072767513653634 0 2.3083419661148323e-05 -0.00012807403958022077 0 3.8161351804724258e-05 -0.00014019639370753701 0 2.0739263211228176e-05 -8.39421387168272e-05 0 2.3539718209594525e-05 -9.6947894889040805e-05 0 3.8161351804724258e-05 -0.00014019639370753701 0 2.4383643014215519e-05 -0.00016224575221592628 0 4.1734733487299812e-05 -0.00016010531866789398 0 2.7934484244386239e-05 -0.00011023774483438184 0 3.0136485722198286e-05 -0.00012199810888788319 0 1.3547688848437907e-05 -5.982015044263561e-05 0 1.887053319012871e-05 -6.4200516632364332e-05 0 1.7426094889296231e-05 -6.0012747888742575e-05 0 4.1734733487299812e-05 -0.00016010531866789398 0 2.4383643014215519e-05 -0.00016224575221592628 0 4.597701240539172e-05 -0.00018080445000282524 0 4.597701240539172e-05 -0.00018080445000282524 0 2.4383643014215516e-05 -0.00016224575221592628 0 2.3654609885652896e-05 -0.00018116132713729013 0 1.9612443968354543e-05 -5.8755410159328155e-05 0 1.8187584034120606e-05 -5.3177170279758205e-05 0 1.4788216786618621e-05 -5.4863515041111464e-05 0 1.9612443968354543e-05 -5.8755410159328155e-05 0 1.4788216786618621e-05 -5.4863515041111464e-05 0 1.7426094889296231e-05 -6.0012747888742575e-05 0 1.3547688848437907e-05 -5.982015044263561e-05 0 1.7426094889296231e-05 -6.0012747888742575e-05 0 1.4788216786618621e-05 -5.4863515041111464e-05 0 1.9612443968354543e-05 -5.8755410159328155e-05 0 1.7426094889296231e-05 -6.0012747888742575e-05 0 2.1137309349961132e-05 -6.2454653913553563e-05 0 1.9612443968354543e-05 -5.8755410159328155e-05 0 2.1137309349961132e-05 -6.2454653913553563e-05 0 2.3933743625640478e-05 -6.2438447869702222e-05 0 1.887053319012871e-05 -6.4200516632364332e-05 0 2.1137309349961132e-05 -6.2454653913553563e-05 0 1.7426094889296231e-05 -6.0012747888742575e-05 0 2.503912941997809e-05 -6.623567703079966e-05 0 2.1137309349961132e-05 -6.2454653913553563e-05 0 1.887053319012871e-05 -6.4200516632364332e-05 0 2.503912941997809e-05 -6.623567703079966e-05 0 2.5208642886522375e-05 -6.4221950319548335e-05 0 2.1137309349961132e-05 -6.2454653913553563e-05 0 2.5208642886522375e-05 -6.4221950319548335e-05 0 2.3933743625640478e-05 -6.2438447869702222e-05 0 2.1137309349961132e-05 -6.2454653913553563e-05 0 4.597701240539172e-05 -0.00018080445000282524 0 2.3654609885652893e-05 -0.00018116132713729013 0 3.4920762437976528e-05 -0.00019186601243061877 0 3.0136485722198286e-05 -0.00012199810888788319 0 4.5485981269980313e-05 -0.00013454983402268794 0 5.1969806174613939e-05 -0.00020180281588867916 0 4.597701240539172e-05 -0.00018080445000282524 0 3.4920762437976528e-05 -0.00019186601243061877 0 5.1969806174613939e-05 -0.00020180281588867916 0 3.4920762437976528e-05 -0.00019186601243061877 0 3.0480225963712764e-05 -0.00020460683577852823 0 3.0480225963712764e-05 -0.00020460683577852823 0 3.4920762437976528e-05 -0.00019186601243061877 0 1.8003137826498712e-05 -0.0001941846665448228 0 8.9012028666302988e-06 -0.00020519429845635592 0 3.0480225963712764e-05 -0.00020460683577852823 0 1.8003137826498712e-05 -0.0001941846665448228 0 2.3654609885652896e-05 -0.00018116132713729013 0 5.2213668703141942e-06 -0.0001861082476344791 0 1.8003137826498712e-05 -0.0001941846665448228 0 2.3654609885652896e-05 -0.00018116132713729013 0 1.8003137826498712e-05 -0.0001941846665448228 0 3.4920762437976528e-05 -0.00019186601243061877 0 8.9012028666302988e-06 -0.00020519429845635592 0 1.8003137826498715e-05 -0.00019418466654482283 0 5.2213668703141942e-06 -0.0001861082476344791 0 -1.1442970882183e-05 -0.00020494301261376593 0 5.2213668703141942e-06 -0.0001861082476344791 0 -1.2947692013110284e-05 -0.0001792770781732162 0 -1.1442970882183e-05 -0.00020494301261376593 0 -1.2947692013110284e-05 -0.0001792770781732162 0 -3.0022664013334766e-05 -0.00018621263575683717 0 -1.1442970882183e-05 -0.00020494301261376593 0 8.9012028666302988e-06 -0.00020519429845635592 0 5.2213668703141942e-06 -0.0001861082476344791 0 6.2501836645849931e-06 -0.00016547050533242993 0 -1.2947692013110284e-05 -0.0001792770781732162 0 5.2213668703141942e-06 -0.0001861082476344791 0 6.2501836645849931e-06 -0.00016547050533242993 0 -1.5294606034306234e-05 -0.00015646733707391121 0 -1.2947692013110284e-05 -0.0001792770781732162 0 -3.368474045411611e-05 -0.0001656168699294322 0 -1.2947692013110284e-05 -0.0001792770781732162 0 -1.5294606034306234e-05 -0.00015646733707391121 0 6.2501836645849931e-06 -0.00016547050533242993 0 -2.3259326312825667e-06 -0.00014610757779396328 0 -1.5294606034306234e-05 -0.00015646733707391121 0 6.2501836645849931e-06 -0.00016547050533242993 0 2.4383643014215519e-05 -0.00016224575221592628 0 1.5220090596118081e-05 -0.00014356587625900336 0 6.2501836645849931e-06 -0.00016547050533242993 0 2.3654609885652896e-05 -0.00018116132713729013 0 2.4383643014215519e-05 -0.00016224575221592628 0 6.2501836645849931e-06 -0.00016547050533242993 0 5.2213668703141925e-06 -0.0001861082476344791 0 2.3654609885652896e-05 -0.00018116132713729013 0 -7.0233946683857801e-05 -0.0001849049928024245 0 -5.7177104873987863e-05 -0.00019337415129221317 0 -4.8439474207841223e-05 -0.00018226886570147125 0 -7.0141670794209992e-05 -0.00020463845424648091 0 -5.7177104873987869e-05 -0.00019337415129221317 0 -7.0233946683857801e-05 -0.0001849049928024245 0 -7.0141670794209992e-05 -0.00020463845424648091 0 -5.0559063175214675e-05 -0.00020452893671910969 0 -5.7177104873987863e-05 -0.00019337415129221317 0 -5.0559063175214675e-05 -0.00020452893671910969 0 -4.098464078179244e-05 -0.00019437582998677424 0 -5.7177104873987863e-05 -0.00019337415129221317 0 -4.8439474207841223e-05 -0.00018226886570147125 0 -5.7177104873987863e-05 -0.00019337415129221317 0 -4.098464078179244e-05 -0.00019437582998677424 0 -4.8439474207841223e-05 -0.00018226886570147125 0 -4.098464078179244e-05 -0.00019437582998677424 0 -3.0022664013334766e-05 -0.00018621263575683717 0 -3.0969244056315469e-05 -0.0002046732906654499 0 -3.0022664013334766e-05 -0.00018621263575683717 0 -4.098464078179244e-05 -0.00019437582998677424 0 -5.0559063175214675e-05 -0.00020452893671910969 0 -3.0969244056315469e-05 -0.0002046732906654499 0 -4.098464078179244e-05 -0.00019437582998677424 0 -3.0969244056315469e-05 -0.0002046732906654499 0 -1.1442970882183e-05 -0.00020494301261376593 0 -3.0022664013334766e-05 -0.00018621263575683717 0 -3.368474045411611e-05 -0.0001656168699294322 0 -3.0022664013334766e-05 -0.00018621263575683717 0 -1.2947692013110284e-05 -0.0001792770781732162 0 -3.368474045411611e-05 -0.0001656168699294322 0 -1.5294606034306234e-05 -0.00015646733707391121 0 -2.9457205989597889e-05 -0.00014308568131535788 0 -3.368474045411611e-05 -0.0001656168699294322 0 -4.6576063456192059e-05 -0.00014647159387496812 0 -5.2484816140466645e-05 -0.00016467976857140575 0 -3.368474045411611e-05 -0.0001656168699294322 0 -4.8439474207841223e-05 -0.00018226886570147125 0 -3.0022664013334766e-05 -0.00018621263575683717 0 -3.368474045411611e-05 -0.0001656168699294322 0 -5.2484816140466645e-05 -0.00016467976857140575 0 -4.8439474207841223e-05 -0.00018226886570147125 0 -7.0233946683857801e-05 -0.0001849049928024245 0 -4.8439474207841223e-05 -0.00018226886570147125 0 -5.2484816140466645e-05 -0.00016467976857140575 0 -6.9304358566198501e-05 -0.0001449819583063694 0 -7.0005193879409426e-05 -0.00016499459523520977 0 -5.2484816140466645e-05 -0.00016467976857140575 0 -7.0005193879409426e-05 -0.00016499459523520977 0 -7.0233946683857801e-05 -0.0001849049928024245 0 -5.2484816140466645e-05 -0.00016467976857140575 0 -6.7915896400680059e-05 -0.00012545921597634002 0 -6.9304358566198501e-05 -0.0001449819583063694 0 -5.4997329650270008e-05 -0.00013223939166161122 0 -6.9304358566198501e-05 -0.0001449819583063694 0 -5.2484816140466645e-05 -0.00016467976857140575 0 -4.6576063456192059e-05 -0.00014647159387496812 0 -4.0807412406115013e-05 -0.00012526852427522785 0 -5.4997329650270008e-05 -0.00013223939166161122 0 -4.6576063456192059e-05 -0.00014647159387496812 0 -6.9304358566198501e-05 -0.0001449819583063694 0 -4.6576063456192059e-05 -0.00014647159387496812 0 -5.4997329650270008e-05 -0.00013223939166161122 0 -4.0807412406115013e-05 -0.00012526852427522785 0 -4.6576063456192052e-05 -0.00014647159387496812 0 -2.9457205989597889e-05 -0.00014308568131535788 0 -3.368474045411611e-05 -0.0001656168699294322 0 -2.9457205989597889e-05 -0.00014308568131535788 0 -4.6576063456192059e-05 -0.00014647159387496812 0 -4.0807412406115013e-05 -0.00012526852427522785 0 -2.9457205989597889e-05 -0.00014308568131535788 0 -2.681415700274457e-05 -0.00012457803424970976 0 -1.5153972627957572e-05 -0.00013476513765721304 0 -2.6814157002744574e-05 -0.00012457803424970976 0 -2.9457205989597889e-05 -0.00014308568131535788 0 -4.0807412406115013e-05 -0.00012526852427522785 0 -2.681415700274457e-05 -0.00012457803424970976 0 -3.2685620343085226e-05 -0.00011236005653172135 0 -3.0127988071402222e-05 -9.5802469464987327e-05 0 -3.2685620343085226e-05 -0.00011236005653172135 0 -1.7805981386651099e-05 -0.00011294546655421033 0 -1.7805981386651099e-05 -0.00011294546655421033 0 -3.2685620343085226e-05 -0.00011236005653172135 0 -2.681415700274457e-05 -0.00012457803424970976 0 -4.0807412406115013e-05 -0.00012526852427522785 0 -3.2685620343085226e-05 -0.00011236005653172135 0 -4.7016589905270592e-05 -0.00010663771175802898 0 -4.0807412406115013e-05 -0.00012526852427522785 0 -5.5473671713477554e-05 -0.0001188266415256072 0 -5.4997329650270008e-05 -0.00013223939166161122 0 -4.0807412406115013e-05 -0.00012526852427522785 0 -4.7016589905270592e-05 -0.00010663771175802898 0 -5.5473671713477554e-05 -0.0001188266415256072 0 -6.5704541457001624e-05 -0.00010641659957322608 0 -5.5473671713477554e-05 -0.00011882664152560722 0 -4.7016589905270592e-05 -0.00010663771175802898 0 -6.5704541457001624e-05 -0.00010641659957322608 0 -6.7915896400680059e-05 -0.00012545921597634002 0 -5.5473671713477554e-05 -0.0001188266415256072 0 -6.7915896400680059e-05 -0.00012545921597634002 0 -5.4997329650270008e-05 -0.00013223939166161122 0 -5.5473671713477554e-05 -0.0001188266415256072 0 9.9082126763177772e-06 -0.00012195616853669162 0 -2.4331046994631735e-06 -0.00012880184312513229 0 1.5220090596118081e-05 -0.00014356587625900336 0 1.5220090596118081e-05 -0.00014356587625900336 0 -2.4331046994631735e-06 -0.00012880184312513229 0 -2.3259326312825667e-06 -0.00014610757779396328 0 9.9082126763177772e-06 -0.00012195616853669162 0 1.5220090596118079e-05 -0.00014356587625900336 0 2.3083419661148323e-05 -0.00012807403958022077 0 6.2501836645849931e-06 -0.00016547050533242993 0 1.5220090596118081e-05 -0.00014356587625900336 0 -2.3259326312825667e-06 -0.00014610757779396328 0 -1.5153972627957572e-05 -0.00013476513765721304 0 -1.5294606034306234e-05 -0.00015646733707391121 0 -2.3259326312825667e-06 -0.00014610757779396328 0 -1.5153972627957572e-05 -0.00013476513765721304 0 -2.9457205989597889e-05 -0.00014308568131535788 0 -1.5294606034306234e-05 -0.00015646733707391121 0 -1.5153972627957572e-05 -0.00013476513765721304 0 -2.3259326312825667e-06 -0.00014610757779396328 0 -2.4331046994631735e-06 -0.00012880184312513229 0 -1.7805981386651099e-05 -0.00011294546655421033 0 -2.4331046994631735e-06 -0.00012880184312513229 0 -3.2555540480488323e-06 -0.00011049902000159005 0 -1.5153972627957572e-05 -0.00013476513765721304 0 -2.4331046994631735e-06 -0.00012880184312513229 0 -1.7805981386651099e-05 -0.00011294546655421033 0 -1.5153972627957572e-05 -0.00013476513765721304 0 -1.7805981386651099e-05 -0.00011294546655421033 0 -2.681415700274457e-05 -0.00012457803424970976 0 -1.7805981386651099e-05 -0.00011294546655421033 0 -3.2555540480488318e-06 -0.00011049902000159005 0 -1.2452333064783851e-05 -9.5828457022936509e-05 0 9.9082126763177772e-06 -0.00012195616853669162 0 7.7837517451889626e-06 -0.00010663673847333827 0 -3.2555540480488323e-06 -0.00011049902000159005 0 9.9082126763177772e-06 -0.00012195616853669162 0 -3.2555540480488323e-06 -0.00011049902000159005 0 -2.4331046994631735e-06 -0.00012880184312513229 0 9.9082126763177772e-06 -0.00012195616853669162 0 2.3083419661148323e-05 -0.00012807403958022077 0 1.9565763931027943e-05 -0.00011126268457721698 0 9.9082126763177772e-06 -0.00012195616853669162 0 1.9565763931027943e-05 -0.00011126268457721698 0 7.7837517451889626e-06 -0.00010663673847333827 0 1.4421474822337656e-05 -9.4564041527351176e-05 0 7.7837517451889626e-06 -0.00010663673847333827 0 1.9565763931027943e-05 -0.00011126268457721698 0 -1.4517153037003039e-06 -9.5139124015719323e-05 0 7.7837517451889626e-06 -0.00010663673847333827 0 1.4421474822337656e-05 -9.4564041527351176e-05 0 -1.4517153037003039e-06 -9.5139124015719323e-05 0 1.4421474822337656e-05 -9.4564041527351163e-05 0 5.5331287619468245e-06 -8.3720147005977017e-05 0 1.4421474822337656e-05 -9.4564041527351176e-05 0 1.512099018324063e-05 -7.8201175007393701e-05 0 5.5331287619468245e-06 -8.3720147005977017e-05 0 -1.4517153037003039e-06 -9.5139124015719323e-05 0 5.5331287619468245e-06 -8.3720147005977017e-05 0 -4.8425720246307246e-06 -8.1291369689914699e-05 0 -1.4517153037003039e-06 -9.5139124015719323e-05 0 -3.2555540480488323e-06 -0.00011049902000159005 0 7.7837517451889626e-06 -0.00010663673847333827 0 -1.4517153037003039e-06 -9.5139124015719323e-05 0 -1.2452333064783851e-05 -9.5828457022936509e-05 0 -3.2555540480488323e-06 -0.00011049902000159005 0 -3.0127988071402222e-05 -9.5802469464987327e-05 0 -1.7805981386651099e-05 -0.00011294546655421033 0 -1.2452333064783851e-05 -9.5828457022936509e-05 0 -3.0127988071402222e-05 -9.5802469464987327e-05 0 -1.2452333064783851e-05 -9.5828457022936509e-05 0 -1.74858055800609e-05 -8.05242047456432e-05 0 -1.4517153037003039e-06 -9.5139124015719323e-05 0 -4.8425720246307246e-06 -8.1291369689914699e-05 0 -1.2452333064783851e-05 -9.5828457022936509e-05 0 -1.74858055800609e-05 -8.05242047456432e-05 0 -1.2452333064783851e-05 -9.5828457022936509e-05 0 -4.8425720246307246e-06 -8.1291369689914699e-05 0 -1.74858055800609e-05 -8.05242047456432e-05 0 -4.8425720246307246e-06 -8.1291369689914699e-05 0 -6.0272375483318132e-06 -6.5249563711395554e-05 0 -1.6220029957885287e-05 -6.0133695438422617e-05 0 -2.555923029307631e-05 -7.0215995185150695e-05 0 -1.74858055800609e-05 -8.05242047456432e-05 0 -1.6220029957885287e-05 -6.0133695438422617e-05 0 -1.74858055800609e-05 -8.05242047456432e-05 0 -6.0272375483318132e-06 -6.5249563711395554e-05 0 4.6340782288668311e-06 -6.9778389934559748e-05 0 4.106174104087506e-06 -5.1312424864412789e-05 0 -6.0272375483318132e-06 -6.5249563711395554e-05 0 4.6340782288668311e-06 -6.9778389934559748e-05 0 1.394045521221378e-05 -6.0490694283667502e-05 0 4.106174104087506e-06 -5.1312424864412789e-05 0 4.6340782288668311e-06 -6.9778389934559748e-05 0 5.5331287619468253e-06 -8.3720147005977031e-05 0 1.512099018324063e-05 -7.8201175007393701e-05 0 4.6340782288668311e-06 -6.9778389934559748e-05 0 -6.0272375483318149e-06 -6.524956371139554e-05 0 -4.8425720246307246e-06 -8.1291369689914699e-05 0 4.6340782288668311e-06 -6.9778389934559748e-05 0 -4.8425720246307246e-06 -8.1291369689914699e-05 0 5.5331287619468245e-06 -8.3720147005977017e-05 0 -6.2626002452760007e-05 -8.8385742157446028e-05 0 -5.4790731099369923e-05 -9.7398413273029437e-05 0 -4.4023685500195238e-05 -8.7630310313319961e-05 0 -6.2626002452760007e-05 -8.8385742157446028e-05 0 -4.4023685500195238e-05 -8.7630310313319961e-05 0 -4.8582198020833892e-05 -7.5126652938679549e-05 0 -6.5704541457001624e-05 -0.00010641659957322608 0 -4.7016589905270592e-05 -0.00010663771175802898 0 -5.4790731099369923e-05 -9.7398413273029451e-05 0 -6.2626002452760007e-05 -8.8385742157446028e-05 0 -6.5704541457001624e-05 -0.00010641659957322608 0 -5.4790731099369923e-05 -9.7398413273029451e-05 0 -4.7016589905270592e-05 -0.00010663771175802898 0 -4.4023685500195238e-05 -8.7630310313319961e-05 0 -5.4790731099369923e-05 -9.7398413273029451e-05 0 -3.0127988071402222e-05 -9.5802469464987327e-05 0 -3.0170519527779898e-05 -8.082401756638526e-05 0 -4.4023685500195238e-05 -8.7630310313319961e-05 0 -3.0127988071402222e-05 -9.5802469464987327e-05 0 -4.4023685500195231e-05 -8.7630310313319961e-05 0 -4.7016589905270592e-05 -0.00010663771175802898 0 -3.0127988071402222e-05 -9.5802469464987327e-05 0 -4.7016589905270592e-05 -0.00010663771175802898 0 -3.2685620343085226e-05 -0.00011236005653172135 0 -3.0127988071402222e-05 -9.5802469464987327e-05 0 -1.74858055800609e-05 -8.0524204745643186e-05 0 -3.0170519527779898e-05 -8.082401756638526e-05 0 -3.6934690204395355e-05 -7.11387145744021e-05 0 -3.0170519527779898e-05 -8.082401756638526e-05 0 -2.555923029307631e-05 -7.0215995185150695e-05 0 -1.74858055800609e-05 -8.05242047456432e-05 0 -2.555923029307631e-05 -7.0215995185150695e-05 0 -3.0170519527779898e-05 -8.082401756638526e-05 0 -1.6220029957885287e-05 -6.0133695438422617e-05 0 -2.7354385846268489e-05 -5.9500267698680547e-05 0 -2.555923029307631e-05 -7.0215995185150695e-05 0 -3.6934690204395355e-05 -7.11387145744021e-05 0 -2.555923029307631e-05 -7.0215995185150695e-05 0 -2.7354385846268489e-05 -5.9500267698680547e-05 0 -3.6934690204395355e-05 -7.11387145744021e-05 0 -2.7354385846268489e-05 -5.9500267698680547e-05 0 -4.2552392226147911e-05 -6.0541562000394337e-05 0 -3.6934690204395355e-05 -7.11387145744021e-05 0 -4.4023685500195238e-05 -8.7630310313319961e-05 0 -3.0170519527779898e-05 -8.082401756638526e-05 0 -3.6934690204395355e-05 -7.11387145744021e-05 0 -4.8582198020833892e-05 -7.5126652938679549e-05 0 -4.4023685500195238e-05 -8.7630310313319961e-05 0 -3.6934690204395355e-05 -7.11387145744021e-05 0 -4.2552392226147911e-05 -6.0541562000394337e-05 0 -4.8582198020833892e-05 -7.5126652938679549e-05 0 -5.8888382966355469e-05 -7.1489808599090808e-05 0 -4.8582198020833892e-05 -7.5126652938679549e-05 0 -4.2552392226147911e-05 -6.0541562000394337e-05 0 -5.8888382966355469e-05 -7.1489808599090808e-05 0 -6.2626002452760007e-05 -8.8385742157446028e-05 0 -4.8582198020833892e-05 -7.5126652938679549e-05 0 -4.9022714084743341e-05 -4.2263201623916041e-05 0 -5.4462270551490412e-05 -5.6057054519691755e-05 0 -4.2088081500995935e-05 -4.745144632605463e-05 0 -5.4462270551490412e-05 -5.6057054519691755e-05 0 -5.8888382966355469e-05 -7.1489808599090808e-05 0 -4.2552392226147911e-05 -6.0541562000394337e-05 0 -5.4462270551490412e-05 -5.6057054519691755e-05 0 -4.2552392226147911e-05 -6.0541562000394337e-05 0 -4.2088081500995935e-05 -4.745144632605463e-05 0 -3.2023038331461779e-05 -4.7080304995603205e-05 0 -4.2088081500995935e-05 -4.745144632605463e-05 0 -4.2552392226147911e-05 -6.0541562000394337e-05 0 -3.2023038331461779e-05 -4.7080304995603205e-05 0 -4.2552392226147911e-05 -6.0541562000394337e-05 0 -2.7354385846268489e-05 -5.9500267698680547e-05 0 -1.6220029957885287e-05 -6.0133695438422617e-05 0 -2.3338725527173912e-05 -4.8836024402543447e-05 0 -2.7354385846268489e-05 -5.9500267698680547e-05 0 -3.2023038331461779e-05 -4.7080304995603205e-05 0 -2.7354385846268489e-05 -5.9500267698680547e-05 0 -2.3338725527173912e-05 -4.8836024402543447e-05 0 -1.5170052413622298e-05 -4.1405138202478535e-05 0 -2.4421740872275759e-05 -3.9272411518858885e-05 0 -2.3338725527173912e-05 -4.8836024402543447e-05 0 -3.2023038331461779e-05 -4.7080304995603205e-05 0 -2.3338725527173912e-05 -4.8836024402543447e-05 0 -2.4421740872275759e-05 -3.9272411518858885e-05 0 -1.9807066887776553e-05 -2.9124951325408468e-05 0 -3.2951437333732423e-05 -3.377781008959031e-05 0 -2.4421740872275759e-05 -3.9272411518858885e-05 0 -1.9807066887776553e-05 -2.9124951325408468e-05 0 -2.320663362827138e-05 -2.3119098883269896e-05 0 -3.2951437333732423e-05 -3.377781008959031e-05 0 -3.2023038331461779e-05 -4.7080304995603205e-05 0 -2.4421740872275759e-05 -3.9272411518858885e-05 0 -3.2951437333732423e-05 -3.377781008959031e-05 0 -4.9022714084743341e-05 -4.2263201623916041e-05 0 -4.2088081500995935e-05 -4.745144632605463e-05 0 -3.2951437333732423e-05 -3.377781008959031e-05 0 -3.2023038331461779e-05 -4.7080304995603205e-05 0 -3.2951437333732423e-05 -3.377781008959031e-05 0 -4.2088081500995935e-05 -4.745144632605463e-05 0 -4.3564791845678544e-05 -3.055457417559904e-05 0 -4.9022714084743341e-05 -4.2263201623916041e-05 0 -3.2951437333732423e-05 -3.377781008959031e-05 0 -4.357487700038236e-06 -3.7805625137791658e-05 0 -7.6565193741533982e-06 -5.0647644561203332e-05 0 4.106174104087506e-06 -5.1312424864412789e-05 0 -4.357487700038236e-06 -3.7805625137791658e-05 0 4.106174104087506e-06 -5.1312424864412789e-05 0 4.994543060636437e-06 -3.3663436374907976e-05 0 4.106174104087506e-06 -5.1312424864412789e-05 0 -7.6565193741533982e-06 -5.0647644561203332e-05 0 -6.0272375483318132e-06 -6.5249563711395554e-05 0 -1.6220029957885287e-05 -6.0133695438422617e-05 0 -6.0272375483318132e-06 -6.5249563711395554e-05 0 -7.6565193741533982e-06 -5.0647644561203332e-05 0 -1.6220029957885287e-05 -6.0133695438422617e-05 0 -1.5170052413622296e-05 -4.1405138202478535e-05 0 -2.3338725527173912e-05 -4.8836024402543447e-05 0 -1.6220029957885287e-05 -6.0133695438422617e-05 0 -7.6565193741533982e-06 -5.0647644561203332e-05 0 -1.5170052413622298e-05 -4.1405138202478535e-05 0 -4.357487700038236e-06 -3.7805625137791658e-05 0 -1.5170052413622298e-05 -4.1405138202478535e-05 0 -7.6565193741533982e-06 -5.0647644561203332e-05 0 -4.357487700038236e-06 -3.7805625137791658e-05 0 -1.0874922555301844e-05 -2.9321785379195088e-05 0 -1.5170052413622298e-05 -4.1405138202478535e-05 0 -1.9807066887776553e-05 -2.9124951325408468e-05 0 -2.4421740872275759e-05 -3.9272411518858885e-05 0 -1.5170052413622298e-05 -4.1405138202478535e-05 0 -1.9807066887776553e-05 -2.9124951325408468e-05 0 -1.0874922555301842e-05 -2.9321785379195088e-05 0 -1.4848772191823283e-05 -2.3020838572346192e-05 0 -1.9807066887776553e-05 -2.9124951325408468e-05 0 -1.5170052413622298e-05 -4.1405138202478535e-05 0 -1.0874922555301842e-05 -2.9321785379195088e-05 0 -4.357487700038236e-06 -3.7805625137791658e-05 0 -3.8922624356349488e-06 -2.5726345881580268e-05 0 -1.0874922555301842e-05 -2.9321785379195088e-05 0 -3.8922624356349488e-06 -2.5726345881580268e-05 0 -4.357487700038236e-06 -3.7805625137791658e-05 0 4.994543060636437e-06 -3.3663436374907976e-05 0 3.2294785359038459e-06 -2.121621743591222e-05 0 -3.8922624356349488e-06 -2.5726345881580268e-05 0 4.994543060636437e-06 -3.3663436374907976e-05 0 9.3902839699500545e-06 -1.7768910062310928e-05 0 3.2294785359038459e-06 -2.121621743591222e-05 0 4.994543060636437e-06 -3.3663436374907976e-05 0 9.3902839699500545e-06 -1.7768910062310928e-05 0 5.9740692173015604e-06 -1.448827143617477e-05 0 6.7544256517403204e-06 -1.3515646352765948e-05 0 9.3902839699500545e-06 -1.7768910062310928e-05 0 4.994543060636437e-06 -3.3663436374907976e-05 0 1.6895221307665488e-05 -3.6777031565801145e-05 0 7.867108422057239e-06 -1.7544326639070477e-05 0 1.2029810313515456e-05 -2.5841072812153349e-05 0 1.6895221307665488e-05 -3.6777031565801145e-05 0 4.994543060636437e-06 -3.3663436374907976e-05 0 1.2406716198034251e-05 -4.5448028925430149e-05 0 4.106174104087506e-06 -5.1312424864412789e-05 0 1.2406716198034251e-05 -4.5448028925430149e-05 0 4.994543060636437e-06 -3.3663436374907976e-05 0 1.2029810313515456e-05 -2.5841072812153349e-05 0 1.2992072633713775e-05 -3.5381563635319589e-05 0 1.6895221307665488e-05 -3.6777031565801145e-05 0 1.2406716198034251e-05 -4.5448028925430149e-05 0 2.1867104064885679e-05 -5.1871750770056318e-05 0 1.2992072633713775e-05 -3.5381563635319589e-05 0 1.4543112966103393e-05 -4.6535074486747073e-05 0 2.1867104064885679e-05 -5.1871750770056318e-05 0 1.2406716198034251e-05 -4.5448028925430149e-05 0 1.3940455212213783e-05 -6.0490694283667502e-05 0 4.106174104087506e-06 -5.1312424864412789e-05 0 1.3940455212213783e-05 -6.0490694283667502e-05 0 1.2406716198034251e-05 -4.5448028925430149e-05 0 9.610041292922655e-06 -1.8330963826660565e-05 0 7.5041554179243099e-06 -1.4628356542596218e-05 0 6.8562055031805695e-06 -2.0154019428412269e-05 0 4.3472493442862378e-06 -1.8993371426948947e-05 0 3.4454791338340974e-06 -2.5256502627805638e-05 0 6.8562055031805695e-06 -2.0154019428412269e-05 0 4.3472493442862378e-06 -1.8993371426948947e-05 0 6.8562055031805695e-06 -2.0154019428412269e-05 0 7.5041554179243099e-06 -1.4628356542596218e-05 0 5.9740692173015604e-06 -1.448827143617477e-05 0 4.3472493442862378e-06 -1.8993371426948947e-05 0 7.5041554179243099e-06 -1.4628356542596218e-05 0 7.5041554179243099e-06 -1.4628356542596218e-05 0 9.0719636986718495e-06 -1.0984850410461401e-05 0 6.7544256517403204e-06 -1.3515646352765948e-05 0 5.9740692173015604e-06 -1.448827143617477e-05 0 7.5041554179243099e-06 -1.4628356542596218e-05 0 6.7544256517403204e-06 -1.3515646352765948e-05 0 9.3902839699500545e-06 -1.7768910062310928e-05 0 6.7544256517403204e-06 -1.3515646352765948e-05 0 7.7078182818020342e-06 -1.192216463022093e-05 0 6.7544256517403204e-06 -1.3515646352765948e-05 0 9.0719636986718495e-06 -1.0984850410461401e-05 0 7.7078182818020342e-06 -1.192216463022093e-05 0 9.0719636986718495e-06 -1.0984850410461401e-05 0 7.5041554179243099e-06 -1.4628356542596218e-05 0 1.1162287544002324e-05 -1.4674739028316222e-05 0 9.0719636986718495e-06 -1.0984850410461401e-05 0 1.1162287544002324e-05 -1.4674739028316222e-05 0 1.3177357127306844e-05 -1.0110269026606241e-05 0 9.0719636986718495e-06 -1.0984850410461401e-05 0 1.3177357127306844e-05 -1.0110269026606241e-05 0 1.1674588346984901e-05 -6.5899114840562844e-06 0 1.473541473000782e-05 -4.1951734828252924e-06 0 1.3177357127306844e-05 -1.0110269026606241e-05 0 1.6468830705985098e-05 -7.9628532216023328e-06 0 1.473541473000782e-05 -4.1951734828252924e-06 0 1.1674588346984901e-05 -6.5899114840562844e-06 0 1.3177357127306844e-05 -1.0110269026606241e-05 0 1.7188598347916965e-05 -1.3709250968917967e-05 0 1.6468830705985098e-05 -7.9628532216023328e-06 0 1.3177357127306844e-05 -1.0110269026606241e-05 0 1.7188598347916965e-05 -1.3709250968917967e-05 0 1.4541016810800987e-05 -1.4587101247562817e-05 0 1.7576741381327893e-05 -1.9154313219710324e-05 0 1.7188598347916965e-05 -1.3709250968917967e-05 0 1.3177357127306844e-05 -1.0110269026606241e-05 0 1.4541016810800987e-05 -1.4587101247562817e-05 0 1.4460275461925219e-05 -1.8654328634440412e-05 0 1.4541016810800987e-05 -1.4587101247562817e-05 0 1.1162287544002324e-05 -1.4674739028316222e-05 0 1.3177357127306844e-05 -1.0110269026606241e-05 0 1.1162287544002324e-05 -1.4674739028316222e-05 0 1.4541016810800987e-05 -1.4587101247562817e-05 0 1.4460275461925219e-05 -1.8654328634440412e-05 0 1.7576741381327893e-05 -1.9154313219710324e-05 0 1.4541016810800987e-05 -1.4587101247562817e-05 0 9.610041292922655e-06 -1.8330963826660565e-05 0 1.1162287544002324e-05 -1.4674739028316222e-05 0 7.5041554179243099e-06 -1.4628356542596218e-05 0 1.4460275461925219e-05 -1.8654328634440412e-05 0 1.1162287544002324e-05 -1.4674739028316222e-05 0 1.2598115359847638e-05 -2.1947462072705207e-05 0 9.610041292922655e-06 -1.8330963826660565e-05 0 1.2598115359847638e-05 -2.1947462072705207e-05 0 1.1162287544002324e-05 -1.4674739028316222e-05 0 9.610041292922655e-06 -1.8330963826660565e-05 0 8.7112103626832954e-06 -2.4385541858179316e-05 0 1.2598115359847638e-05 -2.1947462072705207e-05 0 1.5828983178110751e-05 -2.8575896126718342e-05 0 1.6947093617371602e-05 -2.3824545027402138e-05 0 1.2598115359847638e-05 -2.1947462072705207e-05 0 1.5828983178110751e-05 -2.8575896126718342e-05 0 1.2598115359847638e-05 -2.1947462072705207e-05 0 1.1782953566710712e-05 -2.7679382409663191e-05 0 8.7112103626832954e-06 -2.4385541858179316e-05 0 1.1782953566710712e-05 -2.7679382409663191e-05 0 1.2598115359847638e-05 -2.1947462072705207e-05 0 2.0639834902484916e-05 -2.4542078979927321e-05 0 1.7576741381327893e-05 -1.9154313219710324e-05 0 1.6947093617371602e-05 -2.3824545027402138e-05 0 1.4460275461925219e-05 -1.8654328634440412e-05 0 1.6947093617371602e-05 -2.3824545027402138e-05 0 1.7576741381327893e-05 -1.9154313219710324e-05 0 1.4460275461925219e-05 -1.8654328634440412e-05 0 1.2598115359847638e-05 -2.1947462072705207e-05 0 1.6947093617371602e-05 -2.3824545027402138e-05 0 1.5828983178110751e-05 -2.8575896126718342e-05 0 2.101644863629555e-05 -2.9870152427851859e-05 0 1.6947093617371602e-05 -2.3824545027402138e-05 0 2.0639834902484916e-05 -2.4542078979927321e-05 0 1.6947093617371602e-05 -2.3824545027402138e-05 0 2.101644863629555e-05 -2.9870152427851859e-05 0 2.6309272313446069e-05 -3.3383940635031985e-05 0 2.101644863629555e-05 -2.9870152427851859e-05 0 2.3832519648066217e-05 -3.6151730631313134e-05 0 1.5828983178110751e-05 -2.8575896126718342e-05 0 1.9259895291515911e-05 -3.5134592853368387e-05 0 2.101644863629555e-05 -2.9870152427851859e-05 0 1.9259895291515911e-05 -3.5134592853368387e-05 0 2.3832519648066217e-05 -3.6151730631313134e-05 0 2.101644863629555e-05 -2.9870152427851859e-05 0 1.0784247567813108e-05 -3.266828500121249e-05 0 1.4568468773808176e-05 -3.3887696432308797e-05 0 1.1782953566710712e-05 -2.7679382409663191e-05 0 1.5828983178110751e-05 -2.8575896126718342e-05 0 1.4568468773808176e-05 -3.3887696432308797e-05 0 1.9259895291515911e-05 -3.5134592853368387e-05 0 1.5828983178110751e-05 -2.8575896126718342e-05 0 1.1782953566710712e-05 -2.7679382409663191e-05 0 1.4568468773808176e-05 -3.3887696432308797e-05 0 1.6280358573484019e-05 -4.0462556544555348e-05 0 1.9259895291515911e-05 -3.5134592853368387e-05 0 1.4568468773808176e-05 -3.3887696432308797e-05 0 1.0784247567813108e-05 -3.266828500121249e-05 0 1.227279601322285e-05 -3.7190258567121024e-05 0 1.4568468773808176e-05 -3.3887696432308797e-05 0 1.6280358573484019e-05 -4.0462556544555348e-05 0 1.4568468773808176e-05 -3.3887696432308797e-05 0 1.227279601322285e-05 -3.7190258567121024e-05 0 1.0784247567813108e-05 -3.266828500121249e-05 0 8.2882666160357058e-06 -3.561042505824398e-05 0 1.227279601322285e-05 -3.7190258567121024e-05 0 1.0784247567813108e-05 -3.266828500121249e-05 0 7.370433712784627e-06 -2.9539511351252106e-05 0 8.2882666160357058e-06 -3.561042505824398e-05 0 1.0784247567813108e-05 -3.266828500121249e-05 0 1.1782953566710712e-05 -2.7679382409663191e-05 0 7.370433712784627e-06 -2.9539511351252106e-05 0 3.5814165904136976e-06 -3.2542199318834076e-05 0 8.2882666160357058e-06 -3.561042505824398e-05 0 7.370433712784627e-06 -2.9539511351252106e-05 0 2.8880464585949878e-05 -8.4505024026296433e-05 0 1.4421474822337656e-05 -9.4564041527351176e-05 0 3.1905507369029562e-05 -0.00010219448543890433 0 1.6173396451632718e-05 -5.8534306935431185e-05 0 1.8204948656389775e-05 -7.1055944394666178e-05 0 3.5814165904136976e-06 -3.2542199318834076e-05 0 4.6900345860903419e-06 -3.9895651695221547e-05 0 8.2882666160357058e-06 -3.561042505824398e-05 0 3.1905507369029562e-05 -0.00010219448543890433 0 1.4421474822337656e-05 -9.4564041527351176e-05 0 1.9565763931027943e-05 -0.00011126268457721698 0 2.8880464585949878e-05 -8.4505024026296433e-05 0 1.512099018324063e-05 -7.8201175007393701e-05 0 1.4421474822337656e-05 -9.4564041527351176e-05 0 2.5599283407800923e-05 -6.7746602471743472e-05 0 1.512099018324063e-05 -7.8201175007393701e-05 0 2.8880464585949878e-05 -8.4505024026296433e-05 0 3.4454791338340974e-06 -2.5256502627805638e-05 0 3.5814165904136976e-06 -3.2542199318834076e-05 0 7.370433712784627e-06 -2.9539511351252106e-05 0 1.4543112966103393e-05 -4.6535074486747073e-05 0 1.6173396451632718e-05 -5.8534306935431185e-05 0 2.5599283407800923e-05 -6.7746602471743472e-05 0 1.3940455212213783e-05 -6.0490694283667502e-05 0 1.512099018324063e-05 -7.8201175007393701e-05 0 4.6340782288668311e-06 -6.9778389934559748e-05 0 1.512099018324063e-05 -7.8201175007393701e-05 0 1.3940455212213783e-05 -6.0490694283667502e-05 0 2.1867104064885679e-05 -5.1871750770056318e-05 0 1.3940455212213783e-05 -6.0490694283667502e-05 0 2.5599283407800923e-05 -6.7746602471743472e-05 0 3.4454791338340974e-06 -2.5256502627805638e-05 0 8.7112103626832937e-06 -2.4385541858179319e-05 0 6.8562055031805695e-06 -2.0154019428412269e-05 0 9.610041292922655e-06 -1.8330963826660565e-05 0 6.8562055031805695e-06 -2.0154019428412269e-05 0 8.7112103626832954e-06 -2.4385541858179316e-05 0 8.7112103626832954e-06 -2.4385541858179316e-05 0 7.370433712784627e-06 -2.9539511351252106e-05 0 1.1782953566710712e-05 -2.7679382409663191e-05 0 3.4454791338340974e-06 -2.5256502627805638e-05 0 7.370433712784627e-06 -2.9539511351252106e-05 0 8.7112103626832954e-06 -2.4385541858179316e-05 0 
</DataArray>
</PointData>
<CellData Scalars="region_id,cross_section_updated,displacement_divergence," Vectors="" Tensors="stress,">
<DataArray type="Float64" Name="region_id" format="ascii">
1 1 1 1 1 1 1 1 1 1 1 1 1 1 1 1 1 1 1 1 1 1 1 1 1 1 1 1 1 1 1 1 1 1 1 1 1 1 1 1 1 1 1 1 1 1 1 1 1 1 1 1 1 1 1 1 1 1 1 1 1 1 1 1 1 1 1 1 1 1 1 1 1 1 1 1 1 1 1 1 1 1 1 1 1 1 1 1 1 1 1 1 1 1 1 1 1 1 1 1 1 1 1 1 1 1 1 1 1 1 1 1 1 1 1 1 1 1 1 1 1 1 1 1 1 1 1 1 1 1 1 1 1 1 1 1 1 1 1 1 1 1 1 1 1 1 1 1 1 1 1 1 1 1 1 1 1 1 1 1 1 1 1 1 1 1 1 1 1 1 1 1 1 1 1 1 1 1 1 1 1 1 1 1 1 1 1 1 1 1 1 1 1 1 1 1 1 1 1 1 1 1 1 1 1 1 1 1 1 1 1 1 1 1 1 1 1 1 1 1 1 1 1 1 1 1 1 1 1 1 1 1 1 1 1 1 1 1 1 1 1 1 1 1 1 1 1 1 1 1 1 1 1 1 1 1 1 1 1 1 1 1 1 1 1 1 1 1 1 1 1 1 1 1 1 1 1 1 1 1 1 1 1 1 1 1 1 1 1 1 1 1 1 1 1 1 1 1 1 1 1 1 1 1 1 1 1 1 1 1 1 1 1 1 1 1 1 1 1 1 1 1 1 1 1 1 1 1 1 1 1 1 1 1 1 1 1 1 1 1 1 1 1 1 1 1 1 1 1 1 1 1 1 1 1 1 1 1 1 1 1 1 1 1 1 1 1 1 1 1 1 1 1 1 1 1 1 1 1 1 1 1 1 1 1 1 1 1 1 1 1 1 1 1 1 1 1 1 1 1 1 1 1 1 1 1 1 1 1 1 1 1 1 1 1 1 1 1 1 1 1 1 1 1 1 1 1 1 1 1 1 1 1 1 1 1 1 1 1 1 1 1 1 1 1 1 1 1 1 1 1 1 1 1 1 1 1 1 1 1 1 1 1 1 1 1 1 1 1 1 1 1 1 1 1 1 1 1 1 1 1 1 1 1 1 1 1 1 1 1 1 1 1 1 1 1 1 1 1 1 1 1 1 1 1 1 1 1 1 1 1 1 1 1 1 1 1 1 1 1 1 1 1 1 1 1 1 1 1 1 1 1 1 1 1 1 1 1 3 1 1 3 1 1 3 1 1 1 1 1 1 1 1 1 1 1 1 1 3 1 1 1 1 1 3 1 1 1 1 1 1 1 1 1 1 1 1 1 1 1 1 1 1 1 1 1 1 1 1 1 1 1 1 1 1 1 1 1 1 1 1 1 1 1 1 1 1 1 1 1 1 1 1 1 1 1 1 1 1 1 1 1 1 1 1 1 1 1 1 1 1 1 1 1 1 1 1 1 1 1 1 1 1 1 1 1 1 1 1 1 1 1 1 1 1 1 1 1 1 1 1 1 1 1 1 1 1 1 1 1 1 1 1 1 1 1 1 1 1 1 1 1 1 1 1 1 1 1 1 1 1 1 1 1 1 1 1 1 1 1 1 1 1 1 1 1 1 1 1 1 1 1 1 1 1 1 1 1 1 1 1 1 1 1 1 1 1 1 1 1 1 1 1 3 1 1 1 3 1 1 3 1 1 1 1 1 1 1 1 1 1 1 3 1 1 1 1 3 1 1 1 1 1 1 1 1 1 1 1 1 1 1 1 1 1 1 1 1 1 1 1 1 1 1 1 1 1 1 1 1 1 1 1 1 1 1 1 1 1 1 1 1 1 1 1 1 1 1 1 1 1 1 1 1 1 1 2 1 1 1 1 1 1 1 1 1 1 1 1 1 1 2 1 1 2 1 2 1 1 1 1 1 1 1 1 1 1 1 1 1 2 1 1 1 1 1 1 1 1 1 1 1 1 1 1 1 1 1 1 1 1 1 1 1 1 1 1 1 1 1 1 1 1 1 1 1 1 1 1 1 1 1 1 1 1 1 1 1 1 1 1 1 1 1 1 1 1 1 1 1 1 1 1 1 1 1 1 1 1 1 1 1 1 1 1 1 1 1 1 1 1 1 1 1 1 1 1 1 1 1 1 1 1 1 1 1 1 1 1 1 1 1 1 1 1 1 1 1 1 1 1 1 1 1 1 1 1 1 1 1 1 1 1 1 1 1 1 1 1 1 1 1 1 1 1 1 1 2 1 1 2 1 2 1 1 1 1 1 1 1 1 1 1 1 1 1 1 1 1 1 1 1 1 1 1 1 1 1 1 1 1 1 1 1 1 1 1 1 1 1 1 1 1 1 1 1 1 1 1 1 2 1 1 1 1 1 2 1 1 1 1 1 1 1 
</DataArray>
<DataArray type="Float64" Name="stress" NumberOfComponents="9" format="ascii">
-0.046628236750794208 0.0021613603574470071 0 0.0021613603574470071 -0.0060640058526202911 0 0 0 -0.01317306065085363 -0.04405219885035136 0.0033933040098551963 0 0.0033933040098551963 -0.014656667237741259 0 0 0 -0.014677216522023154 -0.047186023228208238 0.004256377698468157 0 0.004256377698468157 0.0026458549057850039 0 0 0 -0.011135042080605808 -0.044992208814644927 0.0051673286826845093 0 0.0051673286826845093 -0.0064064310976224628 0 0 0 -0.012849659978066849 -0.036666900914746961 0.011230419256022799 0 0.011230419256022799 -0.012226775432722218 0 0 0 -0.012223419086867292 -0.036660617721199634 0.011236365416738472 0 0.011236365416738472 -0.012206353581515651 0 0 0 -0.012216742825678821 -0.04224353509818931 0.010811648643766715 0 0.010811648643766715 -0.0030052977523838849 0 0 0 -0.011312208212643306 -0.04373556302504298 0.009772372959632002 0 0.009772372959632002 -0.0039260010546690836 0 0 0 -0.011915391019928015 -0.040633507981712787 0.0127572072132886 0 0.0127572072132886 -0.0029735332431608339 0 0 0 -0.010901760306218403 -0.032355225623199646 0.013181853826513216 0 0.013181853826513216 -0.00064527442894306286 0 0 0 -0.0082501250130356824 -0.046760118455408832 0.013518352042457474 0 0.013518352042457474 -0.0015033823077431341 0 0 0 -0.012065875190787986 -0.031937968656907956 0.014792421163872586 0 0.014792421163872586 0.00097798858570445624 0 0 0 -0.0077399950178008714 -0.057824467197471023 0.010563593114175797 0 0.010563593114175797 -0.00070566535424707727 0 0 0 -0.014632533137929535 -0.045136393052176996 0.011242675469220538 0 0.011242675469220538 0.00072277140922727412 0 0 0 -0.011103405410737429 -0.068700054104975428 0.0040904968073590042 0 0.0040904968073590042 -0.0022353591471079293 0 0 0 -0.017733853313020839 -0.055582583811206114 0.0052488382149967006 0 0.0052488382149967006 -0.00029144857667230684 0 0 0 -0.01396850809696961 -0.05101925208460735 0.0072234910600366391 0 0.0072234910600366391 0.0031002990795084701 0 0 0 -0.011979738251274723 -0.051598700329163444 0.010841743279134508 0 0.010841743279134508 -0.00080560352955599129 0 0 0 -0.013101075964679862 -0.0059340243095851774 0.0157776415341172 0 0.0157776415341172 -0.0019745394557896976 0 0 0 -0.0019771409413437183 -0.011985739247607229 0.019008536213265391 0 0.019008536213265391 -0.0021717310492199854 0 0 0 -0.0035393675742068052 -0.01403265735083181 0.014492289711530378 0 0.014492289711530378 -0.0012428137278153797 0 0 0 -0.0038188677696617945 -0.025332274498474777 0.016853899508623864 0 0.016853899508623864 -0.0018239363105130024 0 0 0 -0.0067890527022469466 -0.026731948025505374 0.015369051074391422 0 0.015369051074391422 -0.0051469393603826852 0 0 0 -0.0079697218464720183 -0.016840718727407444 0.017033997649213584 0 0.017033997649213584 -0.0027287641922055308 0 0 0 -0.0048923707299032438 -0.017105685848337878 0.015078763923144394 0 0.015078763923144394 -0.0057079483411896625 0 0 0 -0.0057034085473818847 -0.028181066870755306 0.016862622687289462 0 0.016862622687289462 -0.00070839090377015912 0 0 0 -0.0072223644436313697 -0.030239263309342762 0.013248769603130152 0 0.013248769603130152 -0.00096956588803949473 0 0 0 -0.0078022072993455642 -0.025233125941905361 0.014542312268714764 0 0.014542312268714764 -0.0025178929974218889 0 0 0 -0.0069377547348318108 -0.011405777602852735 0.01432183780833312 0 0.01432183780833312 -0.00027479282408224281 0 0 0 -0.0029201426067337437 -0.012119260746217143 0.01573267521205016 0 0.01573267521205016 -0.0017909672555141351 0 0 0 -0.0034775570004328196 -0.0054958889434610428 0.018343101061214707 0 0.018343101061214707 -0.0016470628652346993 0 0 0 -0.001785737952173936 -0.00055473699046150373 0.013829937785190382 0 0.013829937785190382 0.00030242024317292567 0 0 0 -6.3079186822144299e-05 -0.0016472865726830039 0.016519050532554098 0 0.016519050532554098 -0.0010632746577317366 0 0 0 -0.00067764030760368663 -0.0021313795263900488 0.012657121310516146 0 0.012657121310516146 0.00040562957683093481 0 0 0 -0.00043143748738978804 -0.013419220567411568 0.017280910931309172 0 0.017280910931309172 -0.00060016814687025022 0 0 0 -0.0035048471785704555 -0.030334864474310743 0.017056336988751031 0 0.017056336988751031 -0.00045513173961432563 0 0 0 -0.007697499053481268 -0.024490775711735746 0.017057629405751465 0 0.017057629405751465 -0.00078956560145250487 0 0 0 -0.0063200853282970645 -0.016378164096092069 0.013856400376686742 0 0.013856400376686742 0.00094740057971566538 0 0 0 -0.0038576908790941 -0.030512507439763685 0.013952957835576964 0 0.013952957835576964 0.0014580299063235297 0 0 0 -0.0072636193833600423 -0.033955004059361582 0.01705358919821514 0 0.01705358919821514 0.0001268240585535832 0 0 0 -0.008457045000201991 -0.024765126368924317 0.013448263558218066 0 0.013448263558218066 0.00058669122814062301 0 0 0 -0.0060446087851959134 -0.01779127279271113 0.017454967691767152 0 0.017454967691767152 0.0020852088666513946 0 0 0 -0.003926515981514932 -0.017896462208548257 0.013638510826473153 0 0.013638510826473153 0.0025018389248770562 0 0 0 -0.0038486558209178054 -0.0047744006724550906 0.01293541730125145 0 0.01293541730125145 0.0017997842047756092 0 0 0 -0.0007436541169198738 -0.016381053661220793 0.017543784487928676 0 0.017543784487928676 0.00024263204203398177 0 0 0 -0.0040346054047967006 -0.012854842613223283 0.011751684111762065 0 0.011751684111762065 0.0036216438747164598 0 0 0 -0.0023082996846267058 0.0067632992744246639 0.01201090256789036 0 0.01201090256789036 0.0016800168194173182 0 0 0 0.0021108290234604921 -0.0029169625783451898 0.015244738458423371 0 0.015244738458423371 0.0019994816540840621 0 0 0 -0.00022937023106528107 -0.067822356402586353 0.0047149513210397922 0 0.0047149513210397922 -0.0026481026358050677 0 0 0 -0.017617614759597833 -0.054055067831269558 0.01220254726519957 0 0.01220254726519957 4.7677076747354441e-05 0 0 0 -0.013501847688630554 -0.080560801762258424 0.0064383569551582781 0 0.0064383569551582781 -0.00032637669090393451 0 0 0 -0.02022179461329059 -0.055321244424354217 0.008815628688068804 0 0.008815628688068804 0.0021502289102374415 0 0 0 -0.013292753878529183 -0.04273253505449387 0.012556762804324037 0 0.012556762804324037 0.0015036391563318201 0 0 0 -0.010307223974540508 -0.04421313026944855 0.014059174088474256 0 0.014059174088474256 -0.00053613921827422306 0 0 0 -0.0111873173719307 -0.045136235140760754 0.015726788182522846 0 0.015726788182522846 -0.00031410671030168355 0 0 0 -0.011362585462765591 -0.051909968472663402 0.010688619701479551 0 0.010688619701479551 0.0014608871528460216 0 0 0 -0.012612270329954359 -0.036961411409197287 0.012947632547820453 0 0.012947632547820453 0.00030664436160636466 0 0 0 -0.0091636917618977201 -0.054091809458597068 0.014597572699225299 0 0.014597572699225299 -0.00022546839977143074 0 0 0 -0.013579319464592118 -0.042942643049396725 0.011479867550518334 0 0.011479867550518334 -3.2394618117062568e-05 0 0 0 -0.010743759416878456 -0.052883389156513506 0.011063534105840035 0 0.011063534105840035 0.0013747888864247375 0 0 0 -0.012877150067522193 -0.073192440923819491 0.0085095419897723429 0 0.0085095419897723429 -0.00040221473118956345 0 0 0 -0.018398663913752278 -0.069795841658470206 0.0087890679285673352 0 0.0087890679285673352 -0.00081521961721081875 0 0 0 -0.017652765318920259 -0.067754111037474973 0.0053631644465588317 0 0.0053631644465588317 0.00078166667124867154 0 0 0 -0.016743111091556576 -0.091485569938985559 0.0062093525788035567 0 0.0062093525788035567 -0.00056611937682035304 0 0 0 -0.023012922328951468 -0.097046624791689545 0.0052567507873520214 0 0.0052567507873520214 -0.00041174410099093645 0 0 0 -0.024364592223170133 -0.071230575069239507 0.0068867562778101073 0 0.0068867562778101073 0.0020997955147132779 0 0 0 -0.017282694888631576 -0.081365843553760447 0.0044832687574501776 0 0.0044832687574501776 0.0013677375652103117 0 0 0 -0.019999526497137519 -0.11133951905581219 0.0034790488594949797 0 0.0034790488594949797 0.0019745315352305698 0 0 0 -0.02734124688014538 -0.084650578843536578 0.010107041524879304 0 0.010107041524879304 0.0029712322585654372 0 0 0 -0.020419836646242785 -0.082603678222816293 0.0019664461408551992 0 0.0019664461408551992 -0.000175925647441115 0 0 0 -0.020694900967564388 -0.089444567806609324 0.0037889241024225903 0 0.0037889241024225903 0.0036767389587110608 0 0 0 -0.021441957211974554 -0.12351224771762753 -0.0003413499029287614 0 -0.0003413499029287614 -0.00070701755189467308 0 0 0 -0.031054816317380517 -0.051335692774355388 0.0046998655473898913 0 0.0046998655473898913 0.0059615858564031898 0 0 0 -0.011343526729488032 -0.042858465520961064 0.014025391150920677 0 0.014025391150920677 0.0043049034410933742 0 0 0 -0.0096383905199669169 -0.06385576078363106 0.0093571685234759023 0 0.0093571685234759023 0.00021638718576319493 0 0 0 -0.015909843399466952 -0.062835702755166339 0.010329621205287349 0 0.010329621205287349 0.003183761432544667 0 0 0 -0.014912985330655441 -0.042695390973557804 0.015152541126148774 0 0.015152541126148774 0.0031082731904738814 0 0 0 -0.0098967794457709875 -0.073397141236214464 0.014062327681509022 0 0.014062327681509022 0.0037940937806675429 0 0 0 -0.017400761863886727 -0.06116699738192171 0.0092373477070426466 0 0.0092373477070426466 -6.5388190645644662e-05 0 0 0 -0.015308096393141856 -0.055014434133863754 0.014765771993243514 0 0.014765771993243514 0.0020501736287205806 0 0 0 -0.013241065126285787 -0.039330870938043092 0.015850272481844327 0 0.015850272481844327 0.001903632504962751 0 0 0 -0.0093568096082700773 -0.026190711582514042 0.014829761642035177 0 0.014829761642035177 0.0020676292669802691 0 0 0 -0.0060307705788834303 -0.025752636931967336 0.012476870908811628 0 0.012476870908811628 0.0032964851308098569 0 0 0 -0.0056140379502893703 -0.023715538377252831 0.011450635354323052 0 0.011450635354323052 0.006201248175794853 0 0 0 -0.0043785725503644995 -0.012309022556831622 0.014613347768933348 0 0.014613347768933348 0.002982385062106109 0 0 0 -0.0023316593736813773 -0.042039233248563471 0.0122688024367275 0 0.0122688024367275 0.0033106264888621579 0 0 0 -0.0096821516899253147 -0.00051318966223510426 0.010966983472057767 0 0.010966983472057767 0.0061319318440819018 0 0 0 0.0014046855454616994 -0.0037434037416911869 0.015471512532375522 0 0.015471512532375522 0.00169416657327294 0 0 0 -0.00051230929210455828 -0.0095520185285725666 0.010020915161908962 0 0.010020915161908962 0.0075338593824552449 0 0 0 -0.00050453978652933301 0.007706610114920626 0.0056630591127922571 0 0.0056630591127922571 0.01014973918264751 0 0 0 0.0044640873243920309 0.0035797217269472343 0.012791912849508525 0 0.012791912849508525 0.00538157174420998 0 0 0 0.0022403233677893031 -0.0073489471369918673 0.0096701977335855241 0 0.0096701977335855241 0.012169527929679513 0 0 0 0.0012051451981719141 0.0093421735579824472 0.0062897063038551901 0 0.0062897063038551901 0.011755220761508617 0 0 0 0.0052743485798727625 0.0095153356444064377 0.0050477066084672131 0 0.0050477066084672131 0.019393888818764693 0 0 0 0.007227306115792774 -0.02522799364406747 0.014886672792746129 0 0.014886672792746129 0.0044163092291280986 0 0 0 -0.0052029211037348429 -0.035308776086932545 0.0082503703665542383 0 0.0082503703665542383 0.0052847459547757034 0 0 0 -0.0075060075330392276 -0.0085646982349018956 0.010451107802222947 0 0.010451107802222947 0.0059044012874516459 0 0 0 -0.00066507423686255548 -0.01804125792523352 0.0059286407768186569 0 0.0059286407768186569 0.0095801515542797144 0 0 0 -0.0021152765927384409 -0.023574701896520753 0.013768825512067307 0 0.013768825512067307 0.010116543163056158 0 0 0 -0.0033645396833661412 -0.033895820436751614 0.012107487504811242 0 0.012107487504811242 0.012181043759671106 0 0 0 -0.0054286941692701235 -0.021313282734205782 0.0061365500163384976 0 0.0061365500163384976 0.024328443938151811 0 0 0 0.00075379030098651767 -0.0322257856026716 -0.00022596655279885636 0 -0.00022596655279885636 0.012605035949474132 0 0 0 -0.0049051874132993835 0.02980673032084882 -0.00067684645960440146 0 -0.00067684645960440146 0.022632739655335521 0 0 0 0.013109867494046079 -0.011536635148938098 0.0098478854664744847 0 0.0098478854664744847 0.017698552382441675 0 0 0 0.0015404793083758882 0.0032533174696023556 0.0025090186901167016 0 0.0025090186901167016 0.018516298000848613 0 0 0 0.0054424038676127232 0.0073875388174437506 0.0044562858312081066 0 0.0044562858312081066 0.030887274155012634 0 0 0 0.0095687032431140961 0.023041593133969505 -0.0060057791923926185 0 -0.0060057791923926185 0.033070781217907831 0 0 0 0.014028093587969321 0.0024032245446891122 -0.00066593239103424073 0 -0.00066593239103424073 0.045923164273582243 0 0 0 0.012081597204567838 -0.00045086905468250116 -0.012887300402376484 0 -0.012887300402376484 0.043080025185555759 0 0 0 0.010657289032718342 0.0096163763972801353 -0.018701397967416863 0 -0.018701397967416863 0.03702915456379996 0 0 0 0.011661382740270065 0.024675509535918794 -0.010364373199649182 0 -0.010364373199649182 0.06935829468083432 0 0 0 0.023508451054188279 -0.028869407222448323 -0.0059342161257969483 0 -0.0059342161257969483 0.028177191705189175 0 0 0 -0.00017305387931482175 -0.0066386568989025979 -0.0042350635291124664 0 -0.0042350635291124664 0.021835955061453527 0 0 0 0.0037993245406377496 -0.0084308999189847827 -0.017250430022575314 0 -0.017250430022575314 0.026317142827246093 0 0 0 0.004471560727065324 -0.03374193032132411 -0.0020467852506438344 0 -0.0020467852506438344 0.014270314531829975 0 0 0 -0.0048679039473735475 -0.038929464102088668 -0.013485051128464765 0 -0.013485051128464765 0.016304419171634055 0 0 0 -0.0056562612326136741 -0.057661768816072212 -0.0060095232170701562 0 -0.0060095232170701562 0.011417386225091308 0 0 0 -0.011561095647745212 -0.06682291737187665 0.0030535694654553747 0 0.0030535694654553747 0.0060825839086521283 0 0 0 -0.015185083365806124 -0.078421873782201917 -0.01111746564170496 0 -0.01111746564170496 0.0090069491456588602 0 0 0 -0.017353731159135827 -0.08922852921784917 0.00059690032739226351 0 0.00059690032739226351 0.0025508637885872931 0 0 0 -0.021669416357315438 -0.12709779437295329 -0.001296132757084301 0 -0.001296132757084301 0.0037487999230395586 0 0 0 -0.030837248612478441 -0.094762287013489876 0.0023578457560581023 0 0.0023578457560581023 0.0030678801753710738 0 0 0 -0.022923601709529728 -0.092094652840594204 -0.0029924594422255091 0 -0.0029924594422255091 0.0035219224417253892 0 0 0 -0.022143182599717252 -0.098038433525068566 -0.0013592613032710199 0 -0.0013592613032710199 -0.00017264742257822041 0 0 0 -0.024552770236911617 -0.082260346435701598 0.0083894370961984238 0 0.0083894370961984238 0.0031554494904003083 0 0 0 -0.019776224236325385 -0.12867019121402462 0.0035947783781670344 0 0.0035947783781670344 0.0010379642463179684 0 0 0 -0.031908056741926649 -0.095070991649377559 0.0085119425718582081 0 0.0085119425718582081 0.0026917049556053098 0 0 0 -0.023094821673443029 -0.063711172161899171 0.011614473959722774 0 0.011614473959722774 0.0063404961129704673 0 0 0 -0.014342669012232169 -0.048764309177173962 0.0079078510950224279 0 0.0079078510950224279 0.010692772447491842 0 0 0 -0.0095178841824205395 -0.068185098556224163 0.00016116179937837594 0 0.00016116179937837594 0.0061498118373928545 0 0 0 -0.01550882167970781 0.024250031195151636 -0.0040832846670961261 0 -0.0040832846670961261 0.062353973895024159 0 0 0 0.021651001272543956 0.02292959508086817 -0.006202005828940693 0 -0.006202005828940693 0.051456574605958982 0 0 0 0.018596542421706781 0.022602555626792996 -0.0083058107981740376 0 -0.0083058107981740376 0.045534836468674442 0 0 0 0.017034348023866865 0.01926088993051514 -0.0010298163843873026 0 -0.0010298163843873026 0.053320436497642967 0 0 0 0.018145331607039527 0.025912088057822667 0.0062361266503790612 0 0.0062361266503790612 0.058050508836755457 0 0 0 0.020990649223644537 0.028591750886032281 0.0045387210586846864 0 0.0045387210586846864 0.069038862824208083 0 0 0 0.024407653427560079 0.019774717182087679 -0.0041502131819181063 0 -0.0041502131819181063 0.067151116317488005 0 0 0 0.02173145837489392 0.018163588965314933 -0.0031301364823419463 0 -0.0031301364823419463 0.064613033172424755 0 0 0 0.020694155534434919 0.024380060904904143 -0.0044625903773354569 0 -0.0044625903773354569 0.063639091376677046 0 0 0 0.022004788070395295 0.022196206453572745 -0.0031708529688643933 0 -0.0031708529688643933 0.060290258567591792 0 0 0 0.020621616255291103 0.010513150478842624 -0.0029290565160264709 0 -0.0029290565160264709 0.059640624292415512 0 0 0 0.017538443692814522 0.018315253622221764 -0.0060768381477563083 0 -0.0060768381477563083 0.064955541423149729 0 0 0 0.020817698761342873 0.014795997598495168 -0.0076398429281557059 0 -0.0076398429281557059 0.062089376533627873 0 0 0 0.019221343533030757 0.016694616146655315 -0.01231839336058236 0 -0.01231839336058236 0.066494970266950823 0 0 0 0.020797396603401526 0.015598226311686766 -0.0061784691208776141 0 -0.0061784691208776141 0.076562101496900237 0 0 0 0.02304008195214674 0.058087987678506169 -0.05116648115504388 0 -0.05116648115504388 0.12003860606883358 0 0 0 0.044531648436834943 0.006545130131574553 -0.027079465761512253 0 -0.027079465761512253 0.074524527192266959 0 0 0 0.020267414330960368 0.052896951593161656 -0.032969469855285219 0 -0.032969469855285219 0.066104068549788272 0 0 0 0.029750255035737472 0.0082021859491814841 -0.012010190674687577 0 -0.012010190674687577 0.066820364762379458 0 0 0 0.018755637677890222 0.060930233389712055 -0.0099018845621940271 0 -0.0099018845621940271 0.1036316826309906 0 0 0 0.041140479005175673 0.048060233285373372 -0.021060957279089701 0 -0.021060957279089701 0.056037416335521339 0 0 0 0.026024412405223671 0.088375793687651444 -0.027719208734339015 0 -0.027719208734339015 0.07220482614243301 0 0 0 0.040145154957521134 0.039262880844888631 -0.019068888686398937 0 -0.019068888686398937 0.054898027016078377 0 0 0 0.023540226965241745 0.028339127277823034 -0.0031823127628656106 0 -0.0031823127628656106 0.053237782299984326 0 0 0 0.020394227394451847 0.055094014598232918 -0.012787089317844495 0 -0.012787089317844495 0.041890367845056231 0 0 0 0.024246095610822277 0.02665664050088673 -0.0046047549277414071 0 -0.0046047549277414071 0.034396748887146125 0 0 0 0.015263347347008197 0.0356476036872833 -0.0055758286937885593 0 -0.0055758286937885593 0.024999675890483852 0 0 0 0.015161819894441788 0.02603058140864763 -0.018308605014314819 0 -0.018308605014314819 0.058154900906746604 0 0 0 0.021046370578848578 0.022473511874029101 -0.018545885222721645 0 -0.018545885222721645 0.04364135868019578 0 0 0 0.016528717638556206 0.03749739194183456 -0.01618810758013197 0 -0.01618810758013197 0.048646123086457937 0 0 0 0.021535878757073121 0.024306777274387858 -0.007992600266584755 0 -0.007992600266584755 0.026245162491150123 0 0 0 0.012637984941384493 0.029387676304360573 -0.0082874517214955468 0 -0.0082874517214955468 0.0461384073234926 0 0 0 0.018881520906963288 0.028291314501667959 -0.0061519289086194931 0 -0.0061519289086194931 0.029598855284776848 0 0 0 0.01447254244661119 0.027865285773658828 0.0029586540566844768 0 0.0029586540566844768 0.026106405915574497 0 0 0 0.013492922922308333 0.023625013922553981 0.00035501813967455179 0 0.00035501813967455179 0.015033964749937553 0 0 0 0.0096647446681228828 0.022628803495002934 -0.0019194888082658852 0 -0.0019194888082658852 0.024395545116541059 0 0 0 0.011756087152885997 0.027699805354991038 -0.0025395016632570339 0 -0.0025395016632570339 0.018907425104975013 0 0 0 0.011651807614991513 0.023377583661363551 0.003936331223648175 0 0.003936331223648175 0.020651949622815843 0 0 0 0.011007383321044843 0.013683709093087333 0.0085171695837260759 0 0.0085171695837260759 0.013294105952512868 0 0 0 0.0067444537614000499 0.020548038244864265 0.0022333818093037902 0 0.0022333818093037902 0.012128016903141517 0 0 0 0.0081690137870014425 0.018364154211119817 0.0097448431903873999 0 0.0097448431903873999 0.010363488980441409 0 0 0 0.0071819107978903065 0.014145536149988477 0.0073723031900829305 0 0.0073723031900829305 0.0062791859860434063 0 0 0 0.0051061805340079681 0.0086253048012667338 0.013024373993042588 0 0.013024373993042588 0.0051066935465845405 0 0 0 0.0034329995869628203 0.027194173864509449 0.0023606230779948069 0 0.0023606230779948069 0.017924653379394265 0 0 0 0.011279706810975922 0.025564870690929629 0.0009117699383279841 0 0.0009117699383279841 0.016081404571546661 0 0 0 0.01041156881561907 0.024308227634509374 0.0065838796349120612 0 0.0065838796349120612 0.014410145611104146 0 0 0 0.0096795933114033877 0.021895621090203675 0.0053130939757397508 0 0.0053130939757397508 0.011706451497397942 0 0 0 0.0084005181469004042 0.027217118016390447 0.0037920982449773655 0 0.0037920982449773655 0.020046454774110906 0 0 0 0.011815893197625337 0.030043193828555928 0.0094331914418903772 0 0.0094331914418903772 0.012810122033417998 0 0 0 0.010713328965493478 0.036453291010696436 0.0099906371013159696 0 0.0099906371013159696 0.020038457356821929 0 0 0 0.014122937091879582 0.036889471839877633 0.0091944658661806782 0 0.0091944658661806782 0.017352211671588187 0 0 0 0.013560420877866457 0.030923267618268607 0.003844025669156273 0 0.003844025669156273 0.022807987345623254 0 0 0 0.013432813740972971 0.031171954427346715 0.0038210195330078585 0 0.0038210195330078585 0.029848529650499347 0 0 0 0.015255121019461523 0.026720151561263332 0.0013073582970552465 0 0.0013073582970552465 0.026373268160564421 0 0 0 0.013273354930456928 0.031905331324903266 0.0023590347392272995 0 0.0023590347392272995 0.041677592809643331 0 0 0 0.018395731033636634 0.034864999239409583 0.0071787028092674416 0 0.0071787028092674416 0.031827238593328033 0 0 0 0.016673059458184383 0.024048988464801344 9.8506418918401645e-05 0 9.8506418918401645e-05 0.037988926291849343 0 0 0 0.015509478689162663 0.028165007004766578 -0.0020424445813946365 0 -0.0020424445813946365 0.051216582310377387 0 0 0 0.01984539732878601 0.023825743972766232 -0.0051670745321975558 0 -0.0051670745321975558 0.035098993214738604 0 0 0 0.014731184296876212 0.037346812356118385 0.011449093793243903 0 0.011449093793243903 0.064074657613185815 0 0 0 0.025355367492326038 0.02769987943278629 0.006206299660470347 0 0.006206299660470347 0.043654656928730981 0 0 0 0.017838634090379307 0.031662308119728297 0.0041232578340030454 0 0.0041232578340030454 0.056273812473259931 0 0 0 0.021984030148247059 0.034872282256546927 0.0077114961899905337 0 0.0077114961899905337 0.032918678469717626 0 0 0 0.01694774018156614 0.038855505492672589 0.01234176978387256 0 0.01234176978387256 0.041692794712674106 0 0 0 0.020137075051336696 0.040013786080865935 0.011834869322278934 0 0.011834869322278934 0.044633348712358759 0 0 0 0.021161783698306163 0.04210953692814734 0.012331173381933319 0 0.012331173381933319 0.023085956131699642 0 0 0 0.016298873264961749 0.042729763072465232 0.012869512377026288 0 0.012869512377026288 0.027085885211092162 0 0 0 0.017453912070889345 0.05015767165574686 0.015203149850534729 0 0.015203149850534729 0.019722417989031307 0 0 0 0.017470022411194542 0.048261433933367806 0.013535287044934747 0 0.013535287044934747 0.011654858361205823 0 0 0 0.014979073073643392 0.042576577478416838 0.010484879371272456 0 0.010484879371272456 0.0053330328577423022 0 0 0 0.011977402584039801 0.042032503086210295 0.012739260413533623 0 0.012739260413533623 0.014291300187132323 0 0 0 0.014080950818335653 0.043092252278181684 0.011291936901558964 0 0.011291936901558964 0.012855679918429543 0 0 0 0.013986983049152805 0.031603199658672101 0.0072162755294198095 0 0.0072162755294198095 0.013014776885547329 0 0 0 0.011154494136054863 0.032627870322857036 0.010651969457990356 0 0.010651969457990356 0.0072094446281991825 0 0 0 0.0099593287377640581 0.037459056166162422 0.011184230931606098 0 0.011184230931606098 0.0083951341019628187 0 0 0 0.011463547567031319 0.038607334822903322 0.011408433837325479 0 0.011408433837325479 0.01204575131751795 0 0 0 0.012663271535105321 0.039555636809634385 0.0099936821955665528 0 0.0099936821955665528 0.0036274605450489772 0 0 0 0.010795774338670835 0.039326733657887983 0.011811680947913128 0 0.011811680947913128 0.0030711041615780477 0 0 0 0.010599459454866504 0.031805204304304294 0.010936076983132436 0 0.010936076983132436 0.0028908047573923748 0 0 0 0.0086740022654241637 0.045059320213056059 0.010933663837601734 0 0.010933663837601734 0.0019969764682798707 0 0 0 0.011764074170333986 0.044437478534883092 0.0088166544783896683 0 0.0088166544783896683 0.00088801112829170643 0 0 0 0.011331372415793699 0.050706495410910282 0.010312882672529219 0 0.010312882672529219 0.0025885634427972662 0 0 0 0.013323764713426891 0.046911964858545513 0.0094874867727849331 0 0.0094874867727849331 0.0018207641392092855 0 0 0 0.0121831822494387 0.044418563390584295 0.011696093962394192 0 0.011696093962394192 0.0056842374896950779 0 0 0 0.012525700220069842 0.0084461501126997622 0.012296425290798788 0 0.012296425290798788 0.0069760277782492143 0 0 0 0.003855544472737245 0.017455408976757382 0.010665805887695961 0 0.010665805887695961 0.0030942106898890313 0 0 0 0.0051374049166616042 0.0090413823078697129 0.013223685843386866 0 0.013223685843386866 0.0030799809305221693 0 0 0 0.0030303408095979749 0.023434976290547024 0.0099233858042882574 0 0.0099233858042882574 0.0017414943861636945 0 0 0 0.0062941176691776839 0.019355447007524652 0.011411817825348669 0 0.011411817825348669 0.0082047907149098709 0 0 0 0.006890059430608636 0.024238991514669055 0.010507131034160073 0 0.010507131034160073 0.0070338361661909168 0 0 0 0.0078182069202149922 0.026520095504092938 0.007387695937115267 0 0.007387695937115267 0.0070793785187873524 0 0 0 0.0083998685057200782 0.027552839211487493 0.012285471533952918 0 0.012285471533952918 0.0095884097938082197 0 0 0 0.0092853122513239343 0.030662472160495842 0.0095929504708973119 0 0.0095929504708973119 0.0029235728210704678 0 0 0 0.0083965112453915688 0.025615160920705371 0.010157516191470602 0 0.010157516191470602 0.0035846656370498858 0 0 0 0.0072999566394388159 0.03145898949129837 0.012465252823400028 0 0.012465252823400028 0.0017601796113164703 0 0 0 0.0083047922756537065 0.021937591874443683 0.013333668845284839 0 0.013333668845284839 0.0045144483698063564 0 0 0 0.006613010061062503 0.019983070342548738 0.012022788689616842 0 0.012022788689616842 0.001490636138565718 0 0 0 0.0053684266202786088 0.010386571382957841 0.012770925596743688 0 0.012770925596743688 0.0015396111613861785 0 0 0 0.002981545636086002 0.0088225360776507632 0.015165695208210419 0 0.015165695208210419 0.00055965657741550295 0 0 0 0.0023455481637665622 0.0084230172185585511 0.01304419710889591 0 0.01304419710889591 0.0012364430081454464 0 0 0 0.0024148650566759994 9.6883651496211878e-05 0.015719568789761572 0 0.015719568789761572 0.00065638436341711875 0 0 0 0.00018831700372832876 0.0060293631125535804 0.017068329997481868 0 0.017068329997481868 -9.7779094530958677e-05 0 0 0 0.0014828960045056537 -0.00089289330958976926 0.014912308894297777 0 0.014912308894297777 0.0015614489633390821 0 0 0 0.00016713891343732995 0.0064946696858702337 0.013004567051067825 0 0.013004567051067825 -0.00020799404389603565 0 0 0 0.0015716689104935504 0.015600801018274461 0.015238782025045913 0 0.015238782025045913 0.001005773873350449 0 0 0 0.0041516437229062262 0.014097160307904207 0.01330355341186165 0 0.01330355341186165 0.0011361802577101801 0 0 0 0.0038083351414035967 0.017198691936526043 0.015787025861718509 0 0.015787025861718509 0.0010651893958839725 0 0 0 0.004565970333102503 0.022188925619311635 0.011509052842745747 0 0.011509052842745747 0.0010476666588131369 0 0 0 0.0058091480695311891 0.023689296346995656 0.012889188572911525 0 0.012889188572911525 0.0023425340004459283 0 0 0 0.0065079575868603953 0.030783870729869489 0.013205251007167226 0 0.013205251007167226 0.00094991898481334644 0 0 0 0.0079334474286707098 0.023969663482858828 0.011985046677587584 0 0.011985046677587584 0.0044978372368592451 0 0 0 0.0071168751799295209 0.020732560400770469 0.016310723106632119 0 0.016310723106632119 0.0026084479443916689 0 0 0 0.0058352520862905337 0.017951665348178651 0.014206757268358324 0 0.014206757268358324 0.0059839944124923583 0 0 0 0.0059839149401677508 0.010672368477173838 0.018420309612096293 0 0.018420309612096293 0.00088818766034884367 0 0 0 0.0028901390343806736 0.0062358183801516608 0.015282488016459936 0 0.015282488016459936 0.002076385171163324 0 0 0 0.002078050887828746 -0.00026109019422864213 0.019477788882707146 0 0.019477788882707146 -0.0013719529704838765 0 0 0 -0.00040826079117813052 0.043525740311591767 0.0082872622755364375 0 0.0082872622755364375 0.0031393179702140367 0 0 0 0.011666264570451446 0.045239688282319862 0.0092277594188590016 0 0.0092277594188590016 0.00092949287868344943 0 0 0 0.011542295290250828 0.038423188101873354 0.010372362648938068 0 0.010372362648938068 0.0015687189847038222 0 0 0 0.0099979767716442958 0.038585630157986606 0.011052575017091731 0 0.011052575017091731 0.0012362500638880419 0 0 0 0.0099554700554686636 0.031793272431393738 0.011162718334338861 0 0.011162718334338861 0.0032214214324041944 0 0 0 0.0087536734659494839 0.036341430232434947 0.010724167815025564 0 0.010724167815025564 0.0039866086247753452 0 0 0 0.010082009714302573 0.028467296712081647 0.012268209157151858 0 0.012268209157151858 0.0094837093225887872 0 0 0 0.0094877515086676106 0.028736127915794434 0.013870285687446131 0 0.013870285687446131 0.0056155022010130756 0 0 0 0.0085879075292018756 0.034815664422520057 0.010719062366112135 0 0.010719062366112135 0.01160354722453698 0 0 0 0.011604802911764259 0.035251587557780198 0.010617746161198807 0 0.010617746161198807 0.0059315156362225244 0 0 0 0.010295775798500681 0.042987223004095007 0.0074236418023135098 0 0.0074236418023135098 0.0069653591999045712 0 0 0 0.012488145550999896 0.039452503770958436 0.009382407542185979 0 0.009382407542185979 0.0024107533018534861 0 0 0 0.010465814268202981 0.037965089362414453 0.0088304018753141266 0 0.0088304018753141266 0.0065737895441457112 0 0 0 0.011134719726640038 0.038918084577966458 0.0084755439058503499 0 0.0084755439058503499 0.012971207854842631 0 0 0 0.012972323108202271 0.041406009802478848 0.0053530950993071853 0 0.0053530950993071853 0.0048507952316946597 0 0 0 0.011564201258543376 0.044910923755359253 0.0026492735648088002 0 0.0026492735648088002 0.014960465993079953 0 0 0 0.014967847437109801 0.040835270650845079 0.0011768170707343955 0 0.0011768170707343955 0.0031735308109166393 0 0 0 0.011002200365440428 0.048304207998255425 0.00097092626524414305 0 0.00097092626524414305 0.0050416963459942749 0 0 0 0.013336476086062431 0.047693375066018416 0.0038895660862997032 0 0.0038895660862997032 0.0030654792675856952 0 0 0 0.012689713583401032 0.048721362226310183 0.0056277448972395124 0 0.0056277448972395124 0.0014384964138413649 0 0 0 0.012539964660037891 0.046336286751182731 0.0029637407871198201 0 0.0029637407871198201 -0.00070684128918856691 0 0 0 0.011407361365498542 0.052752409958900563 0.0032102978265814777 0 0.0032102978265814777 0.0012977395342431068 0 0 0 0.013512537373285921 0.048780608052514669 0.0051906299411700893 0 0.0051906299411700893 -0.0026036986926861174 0 0 0 0.011544227339957127 0.050245660887185933 0.00092505793524650987 0 0.00092505793524650987 -0.0053101197977527791 0 0 0 0.011233885272358295 0.046395678238014659 -0.005164185674158374 0 -0.005164185674158374 -0.0060553974340694632 0 0 0 0.010085070200986304 0.049246180615417398 -0.0015206964677202039 0 -0.0015206964677202039 -0.00033819287725628429 0 0 0 0.012226996934540277 0.046455697721103653 -0.00096014829105863712 0 -0.00096014829105863712 0.0009593919933391956 0 0 0 0.011853772428610713 0.044411770721095131 -0.0013614850602342785 0 -0.0013614850602342785 0.0148066718427564 0 0 0 0.014804610640962883 0.043725440042390464 -0.0051177030966238456 0 -0.0051177030966238456 0.014562894821455763 0 0 0 0.014572083715961553 0.040241614672217201 -0.0043811445030141633 0 -0.0043811445030141633 0.0036541331776029709 0 0 0 0.010973936962455043 0.036354750379754275 -0.010684007538406919 0 -0.010684007538406919 0.012115063364822232 0 0 0 0.01211745343614413 0.044192070326143543 -0.0064283339489319465 0 -0.0064283339489319465 0.0029422364230074129 0 0 0 0.011783576687287738 0.034531121730424164 -0.0106008284523707 0 -0.0106008284523707 -0.00090420866852152643 0 0 0 0.0084067282654756593 0.022096563895947087 -0.015813078978390668 0 -0.015813078978390668 0.0073582655837981601 0 0 0 0.0073637073699363122 0.023875792369165996 -0.01778946238195863 0 -0.01778946238195863 -0.0043503960395530894 0 0 0 0.0048813490824032284 0.010556425300420978 -0.022879212893669017 0 -0.022879212893669017 -0.0056585443924580883 0 0 0 0.0012244702269907197 0.023640506726057071 -0.018142649622033893 0 -0.018142649622033893 -0.010135647932663916 0 0 0 0.0033762146983482948 0.028819090019430973 -0.014123927827991038 0 -0.014123927827991038 -0.0066432194380420945 0 0 0 0.0055439676453472135 0.035509329162676039 -0.011447199075895927 0 -0.011447199075895927 -0.0014818224123549612 0 0 0 0.008506876687580267 0.018915039450057736 -0.017192692632212632 0 -0.017192692632212632 -0.0064545818684765832 0 0 0 0.0031151143953952881 0.034755778308135053 -0.011674076420797508 0 -0.011674076420797508 -0.006961017830868426 0 0 0 0.0069486901193166585 0.045953967291565173 -0.0068408174521134256 0 -0.0068408174521134256 -0.0089279710742270896 0 0 0 0.0092564990543345244 0.04824079947019573 -0.0035217163997743519 0 -0.0035217163997743519 -0.0037950360332699509 0 0 0 0.01111144085923144 0.050434792845123817 -0.0051314269916583055 0 -0.0051314269916583055 -0.0061073701891484408 0 0 0 0.011081855663993842 0.049121327979934876 -0.0044099441120381711 0 -0.0044099441120381711 -0.0097379602968890935 0 0 0 0.0098458419207614386 0.060590485408373126 0.0001074130730659385 0 0.0001074130730659385 -0.0076810545333734701 0 0 0 0.013227357718749914 0.040230644061008659 -0.012573338245954867 0 -0.012573338245954867 -0.012508444308356782 0 0 0 0.0069305499381629694 0.031152077376759055 -0.017625045873025665 0 -0.017625045873025665 -0.010881620476932169 0 0 0 0.005067614224956718 0.040298201863161874 -0.012013473425789593 0 -0.012013473425789593 -0.0095456218111830207 0 0 0 0.0076881450129947255 0.043625720028642082 -0.0084671615684610672 0 -0.0084671615684610672 -0.0087283671645552868 0 0 0 0.0087243382160217021 0.024105525373993738 -0.017949846809737026 0 -0.017949846809737026 -0.013099213681178654 0 0 0 0.002751577923203772 0.040806629941331787 -0.018235360756053719 0 -0.018235360756053719 -0.013631641226507216 0 0 0 0.0067937471787061499 0.049544818704996545 -0.014097111133683308 0 -0.014097111133683308 -0.0091047332353959634 0 0 0 0.010110021367400152 0.045807653341076594 -0.011603365556821468 0 -0.011603365556821468 -0.012710408150118029 0 0 0 0.0082743112977396501 0.066602219934655899 -0.0047293000431391317 0 -0.0047293000431391317 -0.0062171376578635321 0 0 0 0.015096270569198097 0.049408810805229783 -0.017823487691562969 0 -0.017823487691562969 -0.0066203492055131735 0 0 0 0.010697115399929171 0.047551783501367573 -0.016751237549276526 0 -0.016751237549276526 -0.0097469801329401317 0 0 0 0.0094512008421068668 0.056467205574601685 -4.0783121504112143e-05 0 -4.0783121504112143e-05 -0.0065675725893559016 0 0 0 0.01247490824631144 0.058377263124298473 -0.0080959809830025587 0 -0.0080959809830025587 -0.0094557618989328865 0 0 0 0.012230375306341402 0.065708098258670342 0.0018256840239144045 0 0.0018256840239144045 -0.0081533897408119088 0 0 0 0.01438867712946461 0.076086202080460102 0.0073526968423424481 0 0.0073526968423424481 0.0011334785335782756 0 0 0 0.019304920153509587 0.064578969262509445 0.0093928585758797385 0 0.0093928585758797385 0.002264726414315073 0 0 0 0.016710923919206137 0.067781757557987543 0.0088640388384675466 0 0.0088640388384675466 0.0034212574144450725 0 0 0 0.017800753743108154 0.061209730465212095 0.0063346404389598172 0 0.0063346404389598172 -0.0038317443068524235 0 0 0 0.014344496539589913 0.061264869751933966 0.011537836416972893 0 0.011537836416972893 0.0037090194795176053 0 0 0 0.016243472307862904 0.063874614124018708 0.014938193358250945 0 0.014938193358250945 0.011656408529204257 0 0 0 0.018882755663305731 0.057874200829301371 0.010999524637508246 0 0.010999524637508246 0.0040787188471088434 0 0 0 0.015488229919102559 0.05690258619332586 0.015264103485209506 0 0.015264103485209506 0.013546831156968496 0 0 0 0.017612354337573584 0.050712559829093312 0.01135946864043918 0 0.01135946864043918 0.0054909578448966712 0 0 0 0.014050879418497478 0.04941790765270123 0.011292893252993697 0 0.011292893252993697 0.0050815824431672645 0 0 0 0.013624872523967125 0.05420551163287933 0.0078252412913838616 0 0.0078252412913838616 -0.0015734403857193269 0 0 0 0.013158017811790009 0.056529587818244201 0.009477664077007307 0 0.009477664077007307 0.0016744340682617528 0 0 0 0.014551005471626494 0.049119836733257038 0.0071679141471631619 0 0.0071679141471631619 -0.0022607719169907524 0 0 0 0.011714766204066578 0.05547087019809175 0.005888086832083971 0 0.005888086832083971 -0.00024639790290255023 0 0 0 0.013806118073797304 0.051643057609185222 0.0035479135843471095 0 0.0035479135843471095 -0.0049308486364484441 0 0 0 0.011678052243184186 0.055001190346114628 0.0021923575608378109 0 0.0021923575608378109 -0.0030507640426165336 0 0 0 0.012987606575874531 0.053766070687638459 -0.0023685020366819324 0 -0.0023685020366819324 -0.0060482316416081774 0 0 0 0.011929459761507579 0.056152952944190461 0.0049187403127418285 0 0.0049187403127418285 -0.0036448694756084326 0 0 0 0.013127020867145503 0.060017634426630592 0.0058707986690738657 0 0.0058707986690738657 -0.0031562282751336551 0 0 0 0.014215351537874238 -0.098963066619030593 -0.0072618573936420686 0 -0.0072618573936420686 -0.0041250028821697704 0 0 0 -0.025772017375300094 -0.06893832084605131 -0.019074267147587351 0 -0.019074267147587351 -0.0019628921865642128 0 0 0 -0.017725303258153885 -0.076085716265467299 -0.008941847209186185 0 -0.008941847209186185 -0.00065124219529405806 0 0 0 -0.019184239615190342 -0.067830250568886058 -0.012470745972954521 0 -0.012470745972954521 0.0053194181953742092 0 0 0 -0.015627708093377959 -0.060290148390430683 -0.008405918698998191 0 -0.008405918698998191 0.0046480656619692085 0 0 0 -0.013910520682115369 -0.058833866102228488 -0.0057259670892787929 0 -0.0057259670892787929 -0.0072007993479142173 0 0 0 -0.016508666362535677 -0.056051123315423904 -0.0075453963736207439 0 -0.0075453963736207439 -0.018647280860461055 0 0 0 -0.018674601043971239 -0.057964658602468501 -0.009807794939725889 0 -0.009807794939725889 -0.007376896472051947 0 0 0 -0.016335388768630117 -0.056567632271231502 -0.016925985067534191 0 -0.016925985067534191 -0.0051844872953074883 0 0 0 -0.015438029891634748 -0.051791000693807716 -0.01787573505053754 0 -0.01787573505053754 -0.0032880322427112155 0 0 0 -0.013769758234129738 -0.044499990874486674 -0.017937006155390681 0 -0.017937006155390681 -0.014840345523057163 0 0 0 -0.01483508409938596 -0.044490703998884558 -0.017943740666837613 0 -0.017943740666837613 -0.014810686471530632 0 0 0 -0.014825347617603797 -0.049764433943305236 -0.021231142087366189 0 -0.021231142087366189 -0.0062206283089697584 0 0 0 -0.013996265563068749 -0.034326190381066268 -0.021879618234426988 0 -0.021879618234426988 -0.0020082664104720399 0 0 0 -0.0090836141978845788 -0.056307790807901506 -0.019707356187908222 0 -0.019707356187908222 0.00084218584508351235 0 0 0 -0.013866401240704505 -0.081226301289285735 -0.019820019509598052 0 -0.019820019509598052 -0.0034214428256678225 0 0 0 -0.021161936028738379 -0.032745486083602601 -0.026150739098037168 0 -0.026150739098037168 -0.0016976560741711888 0 0 0 -0.008610785539443451 -0.060065464909391367 -0.024032243047654323 0 -0.024032243047654323 -0.0058829223694764204 0 0 0 -0.016487096819716954 -0.029124264515906662 -0.022530439920022686 0 -0.022530439920022686 -0.0052721318665641947 0 0 0 -0.0085990990956177071 -0.023128740403243517 -0.022836135329523565 0 -0.022836135329523565 -0.0081307338080749206 0 0 0 -0.0078148685528296076 -0.028784149330164391 -0.027314995967382141 0 -0.027314995967382141 -0.0058019118667821945 0 0 0 -0.0086465152992366429 -0.026145935528700225 -0.02495536429502351 0 -0.02495536429502351 -0.0033397020727475024 0 0 0 -0.0073714094003619317 -0.027697515664947776 -0.023637389765720298 0 -0.023637389765720298 -0.0072322664323974384 0 0 0 -0.0087324455243363037 -0.011806046506224792 -0.020657795807329661 0 -0.020657795807329661 -0.0039460993739402275 0 0 0 -0.003938036470041254 -0.01070491372460123 -0.02450519563457294 0 -0.02450519563457294 -0.0066509744894789717 0 0 0 -0.0043389720535200486 -0.0051820433661258006 -0.019667787681161265 0 -0.019667787681161265 -0.0030075787326800246 0 0 0 -0.002047405524701458 -0.0061382685966826639 -0.025864104967291211 0 -0.025864104967291211 -0.0054796538694506167 0 0 0 -0.0029044806165333219 0.0057102342297771676 -0.019347322238185718 0 -0.019347322238185718 0.001905329344162484 0 0 0 0.0019038908934849129 0.016149174460720436 -0.0162484161971602 0 -0.0162484161971602 -0.0017860513309546008 0 0 0 0.0035907807824414571 0.0065745483231732481 -0.0245951294159935 0 -0.0245951294159935 -0.0083065663833834652 0 0 0 -0.00043300451505254647 0.00051781683796969791 -0.024482792106181643 0 -0.024482792106181643 -0.0082361950961786778 0 0 0 -0.001929594564552245 0.0014328754938913429 -0.020077017131191196 0 -0.020077017131191196 -0.0076712148042270903 0 0 0 -0.0015595848275839399 0.0161401030297126 -0.023966884872012841 0 -0.023966884872012841 -0.013964219254371441 0 0 0 0.00054397094383528549 0.025675423400816428 -0.019600636917744475 0 -0.019600636917744475 -0.00946170855394457 0 0 0 0.0040534287117179671 0.002247464641985161 -0.028366622446883261 0 -0.028366622446883261 -0.014313891655051387 0 0 0 -0.0030166067532665613 0.024378967328133071 -0.024382261703702029 0 -0.024382261703702029 -0.01474008360234505 0 0 0 0.002409720931447 0.0035440776494212222 -0.025767964667288056 0 -0.025767964667288056 -0.005562348835625416 0 0 0 -0.00050456779655104391 -0.005457438362302048 -0.032477788057825356 0 -0.032477788057825356 -0.0113741416243585 0 0 0 -0.0042078949966651465 0.022512979835374522 -0.02201770248567534 0 -0.02201770248567534 -0.0062743024150495319 0 0 0 0.004059669355081251 -0.0039656256628406578 -0.029247766743933361 0 -0.029247766743933361 -0.005942705311814088 0 0 0 -0.0024770827436636916 0.0004577485070030099 -0.035192143867406593 0 -0.035192143867406593 -0.004431597509644572 0 0 0 -0.00099346225066038879 -0.035875421804424212 -0.030521038558863109 0 -0.030521038558863109 -0.012224360013842181 0 0 0 -0.012024945454566597 -0.031893979318729768 -0.031812213436744383 0 -0.031812213436744383 -0.0081985949926727947 0 0 0 -0.010023143577850637 -0.034209828091710096 -0.025911570357083493 0 -0.025911570357083493 -0.0031602303126139486 0 0 0 -0.0093425146010810076 -0.0027805053202312972 -0.025120911440858928 0 -0.025120911440858928 -0.0049633031176204365 0 0 0 -0.0019359521094629312 -0.020892755750601372 -0.028057898297291356 0 -0.028057898297291356 -0.0099380202766649189 0 0 0 -0.0077076940068165761 -0.054752744098470182 -0.026561498753145757 0 -0.026561498753145757 -0.005884537483849657 0 0 0 -0.015159320395579962 -0.051112823789007028 -0.024085967834108293 0 -0.024085967834108293 0.0018145712283575699 0 0 0 -0.012324563140162361 -0.07248145888396601 -0.02238795883687732 0 -0.02238795883687732 -0.00050182961719161256 0 0 0 -0.018245822125289399 -0.055042219325784618 -0.032849248250210433 0 -0.032849248250210433 -0.0010936817900574075 0 0 0 -0.014033975278960505 -0.069749803273023742 -0.025570058173099916 0 -0.025570058173099916 -0.0066045077711674813 0 0 0 -0.01908857776104779 -0.038050340408600759 -0.037416090022087581 0 -0.037416090022087581 -0.0022987887183923694 0 0 0 -0.010087282281748287 -0.069183784956498406 -0.029006187777402201 0 -0.029006187777402201 0.0027391176207651885 0 0 0 -0.016611166833933301 -0.1087909120906126 -0.020474625141940202 0 -0.020474625141940202 -0.0063544615771726279 0 0 0 -0.028786343416946334 -0.11798167349081398 -0.024312476103658689 0 -0.024312476103658689 -0.0036728024836314016 0 0 0 -0.030413618993611356 -0.14357971973810971 -0.013178287979085278 0 -0.013178287979085278 -0.0010787008046647048 0 0 0 -0.036164605135693598 -0.10281250160953327 -0.010495732527353169 0 -0.010495732527353169 0.00025310993913839688 0 0 0 -0.02563984791759873 -0.11973927453100526 -0.012036361624696634 0 -0.012036361624696634 -0.0010194207949768275 0 0 0 -0.030189673831495522 -0.074065687998475765 -0.023765554123221101 0 -0.023765554123221101 -0.00092716613153799934 0 0 0 -0.018748213532503437 -0.10121441677047129 -0.0095201907894784214 0 -0.0095201907894784214 -0.0057393731497800589 0 0 0 -0.026738447480062839 -0.075235994100513071 -0.015684934826646312 0 -0.015684934826646312 0.0038490278005333806 0 0 0 -0.017846741574994909 -0.15494193435591591 -0.011998367363067836 0 -0.011998367363067836 0.0072938192425656134 0 0 0 -0.036912028778337644 -0.22645601039015481 -0.0022635395645618644 0 -0.0022635395645618644 -0.00024683480713916239 0 0 0 -0.056675711299323445 -0.14393255951513007 -0.027354798838068808 0 -0.027354798838068808 0.0071767332184946263 0 0 0 -0.034188956574158907 -0.14397387169398285 -0.0079942660058210796 0 -0.0079942660058210796 0.0022902965523179941 0 0 0 -0.035420893785416227 -0.19421927791033891 -0.010124357434447943 0 -0.010124357434447943 0.0026412169420183818 0 0 0 -0.047894515242080118 -0.16562953274444847 -0.01243097105362051 0 -0.01243097105362051 -0.0004365806500895332 0 0 0 -0.041516528348634521 -0.11234405759751422 -0.013138777309262127 0 -0.013138777309262127 0.0021016731871266146 0 0 0 -0.027560596102596875 -0.13061397462196625 -0.011223227357129058 0 -0.011223227357129058 0.0019027084441347736 0 0 0 -0.032177816544457859 -0.12522367467633466 -0.029488103693213155 0 -0.029488103693213155 0.0034401752965940863 0 0 0 -0.030445874844935154 -0.074122349068448889 -0.030790939200425624 0 -0.030790939200425624 0.0035244145111387529 0 0 0 -0.017649483639327539 -0.075142173559691119 -0.029510195460662005 0 -0.029510195460662005 -0.0010280379047830426 0 0 0 -0.019042552866118549 -0.050425524579526496 -0.029260558278801918 0 -0.029260558278801918 -0.0085640905185649652 0 0 0 -0.014747403774522869 -0.073992072641592466 -0.040848895886229128 0 -0.040848895886229128 0.0095419177483907491 0 0 0 -0.016112538723300401 -0.098457163466029313 -0.020209824301221327 0 -0.020209824301221327 0.0024510972371547951 0 0 0 -0.024001516557218633 -0.082384158444022179 -0.016123880645621452 0 -0.016123880645621452 0.0086566317496545933 0 0 0 -0.018431881673591877 -0.016449418149057156 -0.0327039719355601 0 -0.0327039719355601 0.011712680790427588 0 0 0 -0.0011841843396573695 -0.0098342053956449807 -0.028702695737755857 0 -0.028702695737755857 0.029960477217782999 0 0 0 0.0050315679555345064 0.018189127340660839 -0.038438811585728545 0 -0.038438811585728545 0.0068145561685260814 0 0 0 0.0062509208772967284 -0.060763187075731195 -0.029029117974553799 0 -0.029029117974553799 0.011269801900789318 0 0 0 -0.012373346293735463 -0.023252605516981974 -0.0375156776642597 0 -0.0375156776642597 0.0048966442499774375 0 0 0 -0.0045889903167511317 -0.056329788443493005 -0.040521465711501864 0 -0.040521465711501864 -0.00038926226664387498 0 0 0 -0.014179762677534234 -0.025648772966079026 -0.041797268624488439 0 -0.041797268624488439 -0.0055569339011200466 0 0 0 -0.007801426716799769 -0.019408519167126381 -0.031602022697168164 0 -0.031602022697168164 -0.0012613453578280004 0 0 0 -0.0051674661312385919 0.0097399902432368842 -0.038184769787480914 0 -0.038184769787480914 -0.00044624360758332548 0 0 0 0.0023234366589133895 -0.022629741285052379 -0.031911003974537541 0 -0.031911003974537541 0.0033914205924029106 0 0 0 -0.0048095801731623655 0.011191629110464034 -0.027863174611171423 0 -0.027863174611171423 -0.0013192229286144285 0 0 0 0.0024681015454623995 0.043220883576191041 -0.033612628072661334 0 -0.033612628072661334 -0.00067970042321255017 0 0 0 0.010635295788244632 0.029311268421162745 -0.032159415124850793 0 -0.032159415124850793 -0.0055316128982223038 0 0 0 0.0059449138807351112 0.05766159737839506 -0.025211309358254292 0 -0.025211309358254292 -0.0040883091870638141 0 0 0 0.013393322047832815 0.029713839647372522 -0.021832452008997652 0 -0.021832452008997652 -0.0069674090225819926 0 0 0 0.0056866076561976342 0.045341363214152226 -0.019635805719960802 0 -0.019635805719960802 0.0049038604673274575 0 0 0 0.012561305920369921 0.076080427930193401 -0.02724839199839104 0 -0.02724839199839104 0.008928695068445236 0 0 0 0.021252280749659652 0.021232492041396607 -0.027544664593828518 0 -0.027544664593828518 0.013994976034912274 0 0 0 0.0088068670190772219 0.061118972374895525 -0.033402034085744117 0 -0.033402034085744117 0.017219281997127855 0 0 0 0.019584563593005838 0.059512952849825558 -0.017451604979012242 0 -0.017451604979012242 0.026521069497517785 0 0 0 0.021508505586835834 0.090689151357946793 -0.0094370421982503949 0 -0.0094370421982503949 0.057223486221664621 0 0 0 0.036978159394902843 0.10361687273576428 -0.027988219975929426 0 -0.027988219975929426 0.041563935033383403 0 0 0 0.036295201942286935 0.035126693535964877 -0.021271180814593171 0 -0.021271180814593171 0.037044895760054375 0 0 0 0.018042897324004832 0.017793878119673645 -0.040486246874833667 0 -0.040486246874833667 0.040066880019256845 0 0 0 0.014465189534732636 0.067267752791801694 -0.039984473305490653 0 -0.039984473305490653 0.087867335338559616 0 0 0 0.038783772032590313 0.093874777420632077 -0.023748454290762999 0 -0.023748454290762999 0.16543425826942615 0 0 0 0.064827258922514591 0.098566647164946453 0.024026281235574376 0 0.024026281235574376 0.1390299592069402 0 0 0 0.059399151592971655 0.078810213000309992 0.018078560061324689 0 0.018078560061324689 0.17915869857165423 0 0 0 0.064492227892991139 0.058816941448317617 0.012775859545708146 0 0.012775859545708146 0.1120713793674275 0 0 0 0.042722080203936252 0.032026454324298327 -0.020170941265736486 0 -0.020170941265736486 0.084377378204138043 0 0 0 0.029100958132109091 0.055769161136764972 -0.002835304381409734 0 -0.002835304381409734 0.085890184485516219 0 0 0 0.035414836405570305 0.0083669738623609879 0.028698123644487622 0 0.028698123644487622 0.097322372682200675 0 0 0 0.026422336636140409 -0.018603358185165453 0.0095171327013511831 0 0.0095171327013511831 0.056190095125535189 0 0 0 0.0093966842350923785 -0.050071507913799773 0.018886391112471416 0 0.018886391112471416 0.070830833162680462 0 0 0 0.0051898313122201722 -0.024387139293884641 -0.017483331138498568 0 -0.017483331138498568 0.029623459161067678 0 0 0 0.0013090799667957453 -0.059980501645905571 -0.0069279678506836834 0 -0.0069279678506836834 0.030909812005659343 0 0 0 -0.0072676724100615708 -0.0079256418857808764 -0.013110091072937202 0 -0.013110091072937202 0.080179295402015793 0 0 0 0.018063413379058729 -0.055885127736597311 -0.034793593057592706 0 -0.034793593057592706 0.0353841926366186 0 0 0 -0.0051252337749946777 -0.10373066056985716 -0.028833999527525522 0 -0.028833999527525522 0.015445899960952914 0 0 0 -0.022071190152226083 -0.11372194334766844 -0.0050461244406687783 0 -0.0050461244406687783 0.013799901824354033 0 0 0 -0.024980510380828658 -0.077173897801485064 -0.024411344818388248 0 -0.024411344818388248 0.030536675705667315 0 0 0 -0.011659305523954472 -0.10429614378686465 0.011903914570262686 0 0.011903914570262686 0.029745796368634642 0 0 0 -0.018637586854557534 -0.068619091978612573 0.0061024472476270131 0 0.0061024472476270131 0.018352310887764289 0 0 0 -0.01256669527271212 -0.13513715704785806 0.025512069020623612 0 0.025512069020623612 0.013999632348160151 0 0 0 -0.03028438117492438 -0.10878468362006843 0.0098036090042356583 0 0.0098036090042356583 0.040844039231195006 0 0 0 -0.016985161097218426 -0.11520990564293654 -0.0045629156608282331 0 -0.0045629156608282331 0.015258677092065742 0 0 0 -0.024987807137717755 -0.16231163608266874 0.0075283951937994698 0 0.0075283951937994698 0.013237157553700585 0 0 0 -0.037268619632242039 -0.15735191994734718 -2.5193678196422375e-05 0 -2.5193678196422375e-05 0.007747528022383765 0 0 0 -0.037401097981240833 -0.23693861086063944 0.0031878069104178076 0 0.0031878069104178076 0.0089491300023611942 0 0 0 -0.056997370214569576 -0.17178578321974178 -0.0049623992046450294 0 -0.0049623992046450294 0.0048628259042794442 0 0 0 -0.041730739328865535 -0.2426867978952752 -0.0081715412411803925 0 -0.0081715412411803925 0.0057618449482703671 0 0 0 -0.059231238236751138 -0.1784591374937898 0.0011323693447081173 0 0.0011323693447081173 -0.00022945558961280643 0 0 0 -0.044672148270850656 -0.14001633060804047 -0.020510331107985058 0 -0.020510331107985058 0.010175173944322505 0 0 0 -0.032460289165929523 -0.16746460270940089 -0.02071218683317505 0 -0.02071218683317505 0.0071050514388327768 0 0 0 -0.040089887817642056 0.075103538894028266 0.027352313527645725 0 0.027352313527645725 0.037384860898200561 0 0 0 0.028122099948057217 0.078401752511261358 0.028929090769251056 0 0.028929090769251056 0.045349716832369019 0 0 0 0.03093786733590758 0.083480291043325522 0.031349266628816659 0 0.031349266628816659 0.046875736722650038 0 0 0 0.032589006941493873 0.063822468142792549 0.026622889333083072 0 0.026622889333083072 0.057081246774412814 0 0 0 0.030225928729301348 0.047925126518047173 0.020358526050721807 0 0.020358526050721807 0.064052658961078368 0 0 0 0.027994446369781378 0.055532138651342183 0.022096233508628452 0 0.022096233508628452 0.039290321334690688 0 0 0 0.023705614996508195 0.039304409811317081 0.014959912333536858 0 0.014959912333536858 0.045140094608617884 0 0 0 0.021111126104983734 0.063789899007087245 0.024157994708778292 0 0.024157994708778292 0.042118032873559988 0 0 0 0.026476982970161829 0.050471331122512605 0.016465631207656335 0 0.016465631207656335 0.024234390545556421 0 0 0 0.018676430417017258 0.050691909971003826 0.018384760816994687 0 0.018384760816994687 0.036764642926989194 0 0 0 0.021864138224498252 0.050022071358855565 0.013275306279562298 0 0.013275306279562298 0.012718696574629124 0 0 0 0.015685191983371177 0.059390386602531597 0.019450672821594656 0 0.019450672821594656 0.025944699635488268 0 0 0 0.021333771559504972 0.062108283225939191 0.016000736701335616 0 0.016000736701335616 0.010367914272971339 0 0 0 0.018119049374727636 0.062430207185475727 0.019499363871942354 0 0.019499363871942354 0.02577557253098843 0 0 0 0.022051444929116058 0.071727782305427548 0.02205107152979404 0 0.02205107152979404 0.022863987976992885 0 0 0 0.02364794257060511 0.075099755582339722 0.013733004510055271 0 0.013733004510055271 0.0078177453820840598 0 0 0 0.020729375241105963 0.066755087078298248 0.010951202090298706 0 0.010951202090298706 0.0070461720068997064 0 0 0 0.018450314771299502 0.064033613377886739 -0.0037355091876765793 0 -0.0037355091876765793 -0.0059975166343507347 0 0 0 0.014509024185884008 0.081819208504828059 0.0033236432309681901 0 0.0033236432309681901 0.0073608294918790923 0 0 0 0.022295009499176829 0.078705951917124511 0.0048667030440863734 0 0.0048667030440863734 0.004420292215799905 0 0 0 0.020781561033231102 0.081629613295216549 0.019002854970633136 0 0.019002854970633136 0.020616833467550971 0 0 0 0.025561611690691887 0.06037462776793473 -0.010369387038376468 0 -0.010369387038376468 -0.0025313922402823751 0 0 0 0.014460808881913079 0.07386682304486844 -0.01402578306930318 0 -0.01402578306930318 -0.00023760141722391367 0 0 0 0.018407305406911136 0.082108547258475134 -0.0029980271560885279 0 -0.0029980271560885279 0.012881462473278166 0 0 0 0.023747502432938331 0.093993161448171894 -0.0084994464487555942 0 -0.0084994464487555942 0.022221417760265982 0 0 0 0.029053644802109486 0.11041728248110963 0.008709113784313903 0 0.008709113784313903 0.03890000028729218 0 0 0 0.037329320692100459 0.093332682862219657 0.020588314739954462 0 0.020588314739954462 0.023541010025305356 0 0 0 0.02921842322188125 0.10586716383680704 0.01402322270761315 0 0.01402322270761315 0.020562746599437798 0 0 0 0.031607477609061213 0.091054374718112951 0.019335300150664515 0 0.019335300150664515 0.034174284425728972 0 0 0 0.03130716478596049 0.11600818613162811 0.024933072670232315 0 0.024933072670232315 0.039821248898874034 0 0 0 0.038957358757625543 0.098537620550378832 0.039316819713679792 0 0.039316819713679792 0.080020433020763504 0 0 0 0.04463951339278556 0.14691734396276343 0.041479335566393945 0 0.041479335566393945 0.074899974634856425 0 0 0 0.055454329649404971 0.12079858202693566 0.039978437047712007 0 0.039978437047712007 0.11838652281383627 0 0 0 0.05979627621019297 0.09251228730503884 0.044893937598146111 0 0.044893937598146111 0.12569128675668001 0 0 0 0.054550893515429702 0.1087956251013618 0.036504992045831582 0 0.036504992045831582 0.083512329168577704 0 0 0 0.048076988567484921 0.14332708734637301 -0.0046688026454813902 0 -0.0046688026454813902 0.061758322917809499 0 0 0 0.051271352566045578 0.14589265462145462 0.012992090615169094 0 0.012992090615169094 0.1015588667446789 0 0 0 0.061862880341533366 0.15269998008211244 -0.027892279891161477 0 -0.027892279891161477 0.087172987934420521 0 0 0 0.059968242004133226 0.26755573587624454 -0.013027880376838226 0 -0.013027880376838226 0.15138696454653822 0 0 0 0.10473567510569563 0.17465108200486076 -0.006132852629487151 0 -0.006132852629487151 0.34259090317072205 0 0 0 0.12931049629389568 0.25309765964934849 0.11570919660374297 0 0.11570919660374297 0.2463964731657835 0 0 0 0.124873533203783 0.12693482664900502 0.068657464952000855 0 0.068657464952000855 0.21187585637789549 0 0 0 0.084702670756725107 0.063096058162855892 0.030706511944154316 0 0.030706511944154316 0.11908756227264901 0 0 0 0.045545905108876218 0.12155600496953176 0.045412366353185352 0 0.045412366353185352 0.1204036300448374 0 0 0 0.060489908753592253 0.069467993991396651 -0.021776651373714553 0 -0.021776651373714553 0.24330742427826471 0 0 0 0.078193854567415386 0.04987290909712784 -0.022948559282546521 0 -0.022948559282546521 0.13502091689890999 0 0 0 0.046223456499009483 0.05175130329191855 -0.022551561742864535 0 -0.022551561742864535 0.14487925309066141 0 0 0 0.049157639095644974 0.068272268591983584 0.030195142123198571 0 0.030195142123198571 0.13600695064124352 0 0 0 0.051069804808306786 0.067376195843232164 0.029918392780979339 0 0.029918392780979339 0.077193545765004284 0 0 0 0.03614243540205915 0.058815523764046293 0.023950669495824368 0 0.023950669495824368 0.12162795589588278 0 0 0 0.045110869914982268 0.04041377361211989 0.012700307379597788 0 0.012700307379597788 0.079616818125982175 0 0 0 0.030007647934525497 0.055279537312943744 0.02469242242193824 0 0.02469242242193824 0.096484186242841843 0 0 0 0.037940930888946414 0.059686056275210383 0.026149706853544362 0 0.026149706853544362 0.055782107569472522 0 0 0 0.028867040961170723 0.074094691106593863 0.035874587267851032 0 0.035874587267851032 0.083975868662165859 0 0 0 0.03951763994218993 0.03845208455217277 0.015778725094775518 0 0.015778725094775518 0.058632435452503601 0 0 0 0.024271130001169115 0.038950724624742056 0.013997261687933343 0 0.013997261687933343 0.082378875699077245 0 0 0 0.030332400080954818 0.045261874637719982 -0.020856861830192783 0 -0.020856861830192783 0.090813554324332635 0 0 0 0.034018857240513165 0.031189278405275335 -0.0020929729945306395 0 -0.0020929729945306395 0.08264744988289964 0 0 0 0.028459182072043752 0.027603444746022936 0.0005422952428598693 0 0.0005422952428598693 0.072533042273099549 0 0 0 0.025034121754780612 0.04309926411227441 0.0081674479991132205 0 0.0081674479991132205 0.10916612022049488 0 0 0 0.038066346083192315 0.038448650431997702 -0.017765995172079892 0 -0.017765995172079892 0.069365006474327209 0 0 0 0.026953414226581221 0.035657378682853645 -0.018020045237147411 0 -0.018020045237147411 0.056594122765484284 0 0 0 0.02306287536208447 0.060807124901733026 -0.034475802988012463 0 -0.034475802988012463 0.064091899558541485 0 0 0 0.031224756115068593 0.052468349148749455 -0.032210173073713835 0 -0.032210173073713835 0.032309386279708363 0 0 0 0.021194433857114447 0.039911715535777374 -0.021125656885969443 0 -0.021125656885969443 0.026598062724764227 0 0 0 0.016627444565135423 0.063583552170628249 -0.030516913327301276 0 -0.030516913327301276 0.033375182583816276 0 0 0 0.024239683688611124 0.06457904458242239 -0.030232699642509575 0 -0.030232699642509575 0.036376140005069266 0 0 0 0.025238796146872914 0.051646009208407201 -0.022314526351785782 0 -0.022314526351785782 0.011135016901036021 0 0 0 0.015695256527360785 0.094446441118010871 -0.014299583513197309 0 -0.014299583513197309 0.023695341449248564 0 0 0 0.029535445641814817 0.079305433217023047 -0.022131187993063225 0 -0.022131187993063225 0.007593062257897687 0 0 0 0.021724623868730253 0.084922726144907479 -0.027211573617184626 0 -0.027211573617184626 0.015572538140945724 0 0 0 0.025123816071463273 0.11054768769175598 -0.049544158946802336 0 -0.049544158946802336 0.052573933964130334 0 0 0 0.040780405413971613 0.043452303256204056 -0.022479999455475921 0 -0.022479999455475921 0.090611881957644774 0 0 0 0.033516046303462207 0.067955509217655488 -0.040590891323415978 0 -0.040590891323415978 0.063673858734090413 0 0 0 0.032907341987936482 0.068779177164400074 -0.04413665660771094 0 -0.04413665660771094 0.076569329221999785 0 0 0 0.036337126596599961 0.075659068930450782 -0.054445372435961682 0 -0.054445372435961682 0.11817565088218826 0 0 0 0.04845867995315975 0.04614618532830999 -0.048358804499163341 0 -0.048358804499163341 0.15631377780840405 0 0 0 0.050614990784178526 0.089727657464222843 -0.047453474074841892 0 -0.047453474074841892 0.15606147603455839 0 0 0 0.061447283374695329 0.12221048733294218 -0.014422237947138483 0 -0.014422237947138483 0.43750559725602745 0 0 0 0.1399290211472424 0.10944084828537795 -0.018022950525663231 0 -0.018022950525663231 -0.014565854488854613 0 0 0 0.023718748449130883 0.14378813984879765 -0.075171823909319757 0 -0.075171823909319757 0.097013225054267266 0 0 0 0.060200341225766237 0.23578294718691262 0.15980812469828914 0 0.15980812469828914 0.28414025843338714 0 0 0 0.12998080140507495 0.13997134305366513 -0.10819559924571634 0 -0.10819559924571634 0.18936199771817191 0 0 0 0.082333335192959184 0.0085799964785384496 0.0014785299304999645 0 0.0014785299304999645 0.023477630421897426 0 0 0 0.0080144067251089694 0.39417797772051777 0.13301694128124453 0 0.13301694128124453 0.081158944313432624 0 0 0 0.11883423050848774 0.20999129710009332 0.035648725721068697 0 0.035648725721068697 0.047477261126490311 0 0 0 0.06436713955664583 0.019944991911442826 0.003592202298931136 0 0.003592202298931136 0.059993580805686342 0 0 0 0.01998464317928229 0.038327475605639122 0.0057687140451722629 0 0.0057687140451722629 0.057850604180100018 0 0 0 0.024044519946434834 0.20604434806903393 0.033317798550999339 0 0.033317798550999339 0.041912765960884446 0 0 0 0.061989278507479484 0.028587212699786708 0.0050652644222363742 0 0.0050652644222363742 0.085371290113850085 0 0 0 0.028489625703409197 0.053735780064643968 0.012041032896520365 0 0.012041032896520365 0.069016266945337801 0 0 0 0.030688011752495581 0.16048453135208307 0.029730615050509002 0 0.029730615050509002 0.03017333977915615 0 0 0 0.04766446778280975 0.092539199559677071 -0.026094521898464812 0 -0.026094521898464812 -0.00054525980526709539 0 0 0 0.022998484938602487 0.089860863935605689 0.0067520690783718085 0 0.0067520690783718085 0.04259453336000657 0 0 0 0.033113849323903072 0.090131154384040083 -0.0083715315169111126 0 -0.0083715315169111126 0.036603651707509732 0 0 0 0.031683701522887478 0.092356916527229826 -0.0029652187248448147 0 -0.0029652187248448147 0.025473694250044504 0 0 0 0.029457652694318603 0.07798773474930179 0.0077951343978934495 0 0.0077951343978934495 0.037190366505419514 0 0 0 0.028794525313680319 0.087736268967297859 0.0062625136292583095 0 0.0062625136292583095 0.071121711411700095 0 0 0 0.039714495094749502 0.080140736969173287 0.012181604686735181 0 0.012181604686735181 0.083175296658270947 0 0 0 0.040829008406861045 0.090415644724378408 0.0028009049873665426 0 0.0028009049873665426 0.038912781053038081 0 0 0 0.032332106444354081 0.14887184226324179 0.02543319136160882 0 0.02543319136160882 0.038960079626254362 0 0 0 0.046957980472373873 0.15965801544128733 0.017381259807188965 0 0.017381259807188965 0.07597112247135529 0 0 0 0.058907284478160515 0.18412583053915421 0.012978118522777839 0 0.012978118522777839 0.071105174603125043 0 0 0 0.063807751285569481 0.036253129905051376 0.0060780424107920433 0 0.0060780424107920433 0.10851182352768676 0 0 0 0.036191238358184538 0.16771131826476804 0.014176665220327076 0 0.014176665220327076 0.081199011215350225 0 0 0 0.062227582370029566 0.15914808779693751 0.011764293046402807 0 0.011764293046402807 0.082029121813777972 0 0 0 0.060294302402678912 0.13638957988114631 0.024634075752212992 0 0.024634075752212992 0.080295012103331675 0 0 0 0.054171147996119551 0.16489905286760553 0.012408547445224547 0 0.012408547445224547 0.10177261015077743 0 0 0 0.066667915754595963 0.10090866884088248 0.012151126424762126 0 0.012151126424762126 0.10857267952613692 0 0 0 0.052370337091754787 0.043967690889702898 0.0068153914006663374 0 0.0068153914006663374 0.13161785032136455 0 0 0 0.043896385302766863 0.14567565855292475 0.013032401475687294 0 0.013032401475687294 0.10391133861059387 0 0 0 0.062396749290880016 0.086647508708587381 0.010031057298642315 0 0.010031057298642315 0.062032001938370801 0 0 0 0.037169877661739556 0.082356539825466701 0.0059780550882939931 0 0.0059780550882939931 0.036233561114340063 0 0 0 0.029647525234951705 0.097865288884661172 0.0063769569872140219 0 0.0063769569872140219 0.093149984065122982 0 0 0 0.047753818237446066 0.091967096529904868 0.0068856347419277569 0 0.0068856347419277569 0.0659188326762008 0 0 0 0.039471482301526417 0.099006788708719318 0.010954504822353016 0 0.010954504822353016 0.073026724238220764 0 0 0 0.043008378236734923 0.080231895955352434 0.0058366832755472053 0 0.0058366832755472053 0.029926881839050484 0 0 0 0.027539694448600799 0.076014184938864415 0.0043331511185922267 0 0.0043331511185922267 0.033984899608710151 0 0 0 0.027499771136893669 0.0827877923678281 0.0049132936071114991 0 0.0049132936071114991 0.030569962557667862 0 0 0 0.028339438731373984 0.072694484879189045 -0.0061320838259808497 0 -0.0061320838259808497 0.0067454607211073769 0 0 0 0.019859986400074119 0.072650514194913196 -0.0014760995932102186 0 -0.0014760995932102186 0.012152541167047004 0 0 0 0.021200763840489967 0.058992168299773468 -0.0033302143761759356 0 -0.0033302143761759356 0.0062346401601021118 0 0 0 0.016306702114968902 0.062167846139831229 -0.006059378113497299 0 -0.006059378113497299 0.008103265070712351 0 0 0 0.017567777802635881 0.058997064834834995 -0.013137953625588075 0 -0.013137953625588075 0.0036491204673383404 0 0 0 0.015661546325543341 0.066297942144020627 -0.0055047428314843883 0 -0.0055047428314843883 0.0089376492148247125 0 0 0 0.018808897839711406 0.070250724869943687 -0.012631366392337778 0 -0.012631366392337778 0.0048856775602749147 0 0 0 0.018784100607554616 0.054784132183095136 -0.015473377379523617 0 -0.015473377379523617 0.00043153471988821579 0 0 0 0.013803916725745824 0.068499095974136864 -0.020221294118817429 0 -0.020221294118817429 0.0086358319884347057 0 0 0 0.019283731990642899 0.054296376398296833 -0.020973544983919623 0 -0.020973544983919623 0.01169253028450562 0 0 0 0.016497226670700624 0.072167644862216135 -0.013643873237148732 0 -0.013643873237148732 0.0047585626484849541 0 0 0 0.019231551877675293 0.079249552811376828 -0.0030450484279478385 0 -0.0030450484279478385 0.011270444568331733 0 0 0 0.022629999344927237 0.08398562340795232 -0.0062048622052415792 0 -0.0062048622052415792 0.016547328850954675 0 0 0 0.025133238064726691 -0.12896716783119433 0.012091296297667475 0 0.012091296297667475 0.0027936960136722977 0 0 0 -0.031543367954380397 -0.15433669608011602 0.017217469826177969 0 0.017217469826177969 0.0051435700110373794 0 0 0 -0.037298281517269771 -0.10615110941888817 0.042496704052398915 0 0.042496704052398915 0.016690238850129546 0 0 0 -0.022365217642189572 -0.20271052495910524 0.017574822709862548 0 0.017574822709862548 0.0050476583774736739 0 0 0 -0.04941571664540767 -0.20911217317679659 0.012974052018829951 0 0.012974052018829951 0.0096989877627007282 0 0 0 -0.049853296353523924 -0.12782647622943866 0.01515474017216395 0 0.01515474017216395 0.0035514138990907079 0 0 0 -0.03106876558258688 -0.13458898295496985 0.021185390263363746 0 0.021185390263363746 0.0059072994871085527 0 0 0 -0.032170420866965144 -0.096204810389000306 0.043455023916328939 0 0.043455023916328939 0.023682654427288785 0 0 0 -0.018130538990428047 -0.058577267244375619 0.043319258126645221 0 0.043319258126645221 0.024558610849289675 0 0 0 -0.0085046640987714861 -0.033377764288543332 0.056945051239487676 0 0.056945051239487676 0.047285633742261357 0 0 0 0.0034769673634296172 -0.057048240690547258 0.036979096257933053 0 0.036979096257933053 0.0076249047763554678 0 0 0 -0.012355833978547892 -0.044727645284577455 0.059188416896016172 0 0.059188416896016172 0.021239233430336291 0 0 0 -0.0058721029635602773 -0.081330336255670543 0.032730446794110635 0 0.032730446794110635 0.0030764994565291026 0 0 0 -0.019563459199785416 -0.029859067055890504 0.048281532891541135 0 0.048281532891541135 0.0068964253373101636 0 0 0 -0.005740660429644856 0.063339038085694632 0.071137519780062552 0 0.071137519780062552 0.024435703465399139 0 0 0 0.021943685387773471 0.015828055223313098 0.059436019098064605 0 0.059436019098064605 0.017505188655887682 0 0 0 0.0083333109698000563 0.08377687166057457 0.086821768340605399 0 0.086821768340605399 0.055522294228214308 0 0 0 0.034824791472197192 0.015438860770275564 0.064482459978322693 0 0.064482459978322693 0.02160285122394634 0 0 0 0.0092604279985555316 -0.050821727429185892 0.034712430037130704 0 0.034712430037130704 0.026748095347399747 0 0 0 -0.0060184080204466195 -0.0020880638269950152 0.065015943488554773 0 0.065015943488554773 0.073604096584046208 0 0 0 0.017879008189262788 0.010195063701857382 0.052952307005781962 0 0.052952307005781962 0.051224810365508799 0 0 0 0.015354968516841566 0.065104100302260881 0.083009633631348501 0 0.083009633631348501 0.11943520628869408 0 0 0 0.046134826647738714 0.088499870169768624 0.089200032781627053 0 0.089200032781627053 0.19403302351176022 0 0 0 0.070633223420382196 0.13976216177354994 0.10530458324493258 0 0.10530458324493258 0.072188360345259328 0 0 0 0.052987630529702345 0.15746201741867433 0.091305893278475936 0 0.091305893278475936 0.073414682887062266 0 0 0 0.057719175076434162 0.097594741746441338 0.060023364898813159 0 0.060023364898813159 0.025736017976499603 0 0 0 0.030832689930735291 0.13101969674028979 0.067576178477760651 0 0.067576178477760651 0.033633258549323752 0 0 0 0.041163238822403247 0.15978134249433218 0.029892320136800377 0 0.029892320136800377 0.036077546168596264 0 0 0 0.048964722165732333 0.086114332765703377 0.048289384632665078 0 0.048289384632665078 0.016361838090128034 0 0 0 0.025619042713958019 0.0868089461834608 0.053002329728724096 0 0.053002329728724096 0.015994441184369546 0 0 0 0.025700846841957503 0.12875140990488743 0.034201304196823212 0 0.034201304196823212 0.035885202180715225 0 0 0 0.041159153021400829 0.12471443128698989 0.03044604150586272 0 0.03044604150586272 0.040484266773644251 0 0 0 0.041299674515158591 0.12934084196631646 0.022924246769717271 0 0.022924246769717271 0.052692186176153122 0 0 0 0.045508257035617339 0.11445028186871742 0.031549517949851946 0 0.031549517949851946 0.047733937724910191 0 0 0 0.040546054898407125 0.087434843088311398 0.038310856738918903 0 0.038310856738918903 0.027397885764331775 0 0 0 0.028708182213161182 0.085883698354370708 0.04597389961368914 0 0.04597389961368914 0.017897899202599099 0 0 0 0.025945399389242674 0.041203546444065639 0.039376631360341641 0 0.039376631360341641 0.015606286728041485 0 0 0 0.014202458293026674 0.04699651581842712 0.042554014543341845 0 0.042554014543341845 0.016991238435699607 0 0 0 0.015996938563531682 0.038639910525376298 0.04187608637961926 0 0.04187608637961926 0.012007316530621814 0 0 0 0.012661806763999417 -0.0061271732089667186 0.049377277374454409 0 0.049377277374454409 0.0074211340697853956 0 0 0 0.00032349021520472476 0.041947512078211235 0.053629683538735984 0 0.053629683538735984 0.011523522625700888 0 0 0 0.013367758675977948 0.056879163908321706 0.042981411486760823 0 0.042981411486760823 0.0099712970651841815 0 0 0 0.016712615243376305 0.0092376871742371192 0.049319843232185079 0 0.049319843232185079 0.0057451936274306448 0 0 0 0.0037457202004168577 -0.0051907125136507748 0.060778308757802157 0 0.060778308757802157 0.010867515308019549 0 0 0 0.0014192006985920269 -0.039005096498407887 0.038198903954258956 0 0.038198903954258956 0.00089898798672116698 0 0 0 -0.0095265271279219021 -0.053823412383868119 0.047850695021702028 0 0.047850695021702028 0.010744886068121406 0 0 0 -0.010769631578936845 -0.046204121832791323 0.030071911084997273 0 0.030071911084997273 0.0042037847442761844 0 0 0 -0.010500084272128785 -0.044900686448939076 0.045822670910662167 0 0.045822670910662167 0.0036138984647944294 0 0 0 -0.010321696996036245 -0.003973153387185846 0.044143962083671218 0 0.044143962083671218 0.0038949916188406597 0 0 0 -1.954044208618555e-05 0.0012824636030931702 0.045162178995308944 0 0.045162178995308944 0.00063447684917372627 0 0 0 0.00047923511306660616 -0.022750444963441474 0.034333545900107953 0 0.034333545900107953 0.006701080194586595 0 0 0 -0.0040123411922137198 -0.039189684267826763 0.030222267535900738 0 0.030222267535900738 0.0012213337597923868 0 0 0 -0.0094920876270083721 -0.058081289503459033 0.03631463730010337 0 0.03631463730010337 0.0052734952163264737 0 0 0 -0.01320194857178314 -0.085945759211809136 0.012986981825584158 0 0.012986981825584158 0.0034843419555574684 0 0 0 -0.020615354314062806 -0.04565745595287396 0.012875611679014742 0 0.012875611679014742 0.00738606942668385 0 0 0 -0.0095678466315476385 -0.070020266135941922 0.014418811572490586 0 0.014418811572490586 0.0070365461595769396 0 0 0 -0.01574592999409119 -0.12437668732750473 0.01350931273717537 0 0.01350931273717537 0.0026443504267801288 0 0 0 -0.030433084225181206 -0.09461820742769822 0.033504986991395924 0 0.033504986991395924 0.0041397012905353137 0 0 0 -0.022619626534290838 -0.090057410746466338 0.017047585192605297 0 0.017047585192605297 0.002201863994803599 0 0 0 -0.021963886687915379 -0.003756936333951244 0.013036872550320489 0 0.013036872550320489 0.011339895502874398 0 0 0 0.0018957397922308994 -0.02705350873041068 0.009471118499039699 0 0.009471118499039699 0.0033361340561874897 0 0 0 -0.0059293436685561307 -0.0055269702702323009 0.018805547056244598 0 0.018805547056244598 0.0080799343774700105 0 0 0 0.00063824102680998251 -0.038186753664732898 0.010846057434376419 0 0.010846057434376419 0.007568009769938655 0 0 0 -0.0076546859736987827 -0.033772187319839775 0.0086579649602485098 0 0.0086579649602485098 0.0058692099965558242 0 0 0 -0.0069757443308209321 -0.063360729306722874 0.011987469841984018 0 0.011987469841984018 0.0046237415649637015 0 0 0 -0.014684246935439571 -0.052638887609204321 0.02300103434197065 0 0.02300103434197065 0.0027515180653807647 0 0 0 -0.012471842385955778 -0.036645847501374007 0.018975351198392332 0 0.018975351198392332 0.0047682211959561016 0 0 0 -0.0079694065763540323 -0.018990282376365464 0.031506557152303383 0 0.031506557152303383 0.0046037081718397488 0 0 0 -0.0035966435511314288 -0.015804654803007745 0.02367246454625116 0 0.02367246454625116 0.0094188505598564731 0 0 0 -0.0015964510607882065 -0.0025086885015945803 0.02862490952906005 0 0.02862490952906005 0.0058076464163443475 0 0 0 0.00082473947868733077 0.012367392694230483 0.025508581297691624 0 0.025508581297691624 0.011190967738262003 0 0 0 0.0058895901081228441 0.013144043929527616 0.021951795714919342 0 0.021951795714919342 0.011929802537622436 0 0 0 0.0062684616167874019 -0.0090164762615752014 0.026837321983042894 0 0.026837321983042894 0.008419449869515816 0 0 0 -0.00014925659801479085 0.014212249688023704 0.024491054524154343 0 0.024491054524154343 0.012852735266162263 0 0 0 0.0067662462385462696 0.046413075234634338 0.023836136771444444 0 0.023836136771444444 0.02280729308849061 0 0 0 0.017305092080781126 0.049990190716211025 0.026591658168188204 0 0.026591658168188204 0.03252372751092647 0 0 0 0.020628479556784818 0.071465229314809697 0.02506023292823345 0 0.02506023292823345 0.03266304336009096 0 0 0 0.026032068168725608 0.015698252737666563 0.031608619948106931 0 0.031608619948106931 0.014176493122694644 0 0 0 0.0074686864650905793 0.011489985663347246 0.038588998418021436 0 0.038588998418021436 0.0075900650552718218 0 0 0 0.0047700126796548226 0.040827739147500486 0.029594341028568394 0 0.029594341028568394 0.016462861927542871 0 0 0 0.01432265026876034 0.037740727981661802 0.030343094152827543 0 0.030343094152827543 0.01628885106997037 0 0 0 0.013507394762907932 0.064127758932135875 0.03719236269803794 0 0.03719236269803794 0.024091396034070456 0 0 0 0.022054788741551895 0.043641475953989151 0.031130684756863036 0 0.031130684756863036 0.026605225775405472 0 0 0 0.017561675432348878 0.090389039542710686 0.022809460044959096 0 0.022809460044959096 0.049330736305668033 0 0 0 0.034929943962094895 0.088870268706748634 0.028744579731511788 0 0.028744579731511788 0.050738219004661467 0 0 0 0.034902121927852692 0.081513449336480859 0.031710463514846562 0 0.031710463514846562 0.029254290188140075 0 0 0 0.027691934881155067 0.10397241432989346 0.029214256808190564 0 0.029214256808190564 0.054173719107383 0 0 0 0.03953653335931917 0.12631986218238023 0.015758458639051121 0 0.015758458639051121 0.088569215936331602 0 0 0 0.053722269529677735 0.10783723295968173 0.01756927003856712 0 0.01756927003856712 0.066718823969913466 0 0 0 0.043639014232398576 0.12022729098568807 0.024911578460046879 0 0.024911578460046879 0.092755760134191956 0 0 0 0.053245762779969619 0.078702514017227276 0.031934259626401618 0 0.031934259626401618 0.046304910817657863 0 0 0 0.03125185620872184 0.094659446373746903 0.025495644324372679 0 0.025495644324372679 0.066049059696531742 0 0 0 0.040177126517569217 0.13181527643049273 0.00708714942282751 0 0.00708714942282751 0.093834544359502559 0 0 0 0.056412455197498268 0.10397329620318363 0.0021814318771706809 0 0.0021814318771706809 0.080540659821387806 0 0 0 0.046128489006142637 0.14597327865976126 0.017213166963462534 0 0.017213166963462534 0.096894290661224902 0 0 0 0.060716892330246436 0.12748774388074713 0.00891512241475656 0 0.00891512241475656 0.083753951482187006 0 0 0 0.052810423840733645 0.1578593726814379 -0.0082539650164741296 0 -0.0082539650164741296 0.1222370794941412 0 0 0 0.070024113043894776 0.17604042980662493 0.010944453096567663 0 0.010944453096567663 0.124915820887054 0 0 0 0.075239062673420065 0.13260231103533746 -0.011380025964998985 0 -0.011380025964998985 0.078956704636192587 0 0 0 0.052889753917882844 0.093839098782864561 0.00057376185964835846 0 0.00057376185964835846 0.071512644247899715 0 0 0 0.041337935757691291 0.046113402578993767 0.013201906100491101 0 0.013201906100491101 0.019283348362619357 0 0 0 0.01634918773540317 0.050534921917869902 0.0074847717107352175 0 0.0074847717107352175 0.032547906379372549 0 0 0 0.020770707074310835 0.079637105501610517 0.0014019357106289654 0 0.0014019357106289654 0.027354397173809275 0 0 0 0.026747875668855503 0.046954878063712346 0.019285080781350938 0 0.019285080781350938 0.021694510793801136 0 0 0 0.017162347214378482 0.088465917255927895 0.012971761650540981 0 0.012971761650540981 0.045998541426360617 0 0 0 0.033616114670572017 0.053468064017701211 0.017049516627928085 0 0.017049516627928085 0.040360538472197227 0 0 0 0.023457150622474332 0.083228956000105936 0.016705778712362118 0 0.016705778712362118 0.044577865046590226 0 0 0 0.031951705261674346 0.020596619052454468 0.019476517103778512 0 0.019476517103778512 0.016763526003376938 0 0 0 0.0093400362639579626 -0.0052067809102308293 0.013746906781865853 0 0.013746906781865853 0.0078313997626775489 0 0 0 0.00065615471311156193 0.019095363848277369 0.012483584578419249 0 0.012483584578419249 0.010254909466901552 0 0 0 0.0073375683287948412 0.0073641445479610823 0.014923135352008288 0 0.014923135352008288 0.012227925672884332 0 0 0 0.0048980175552117977 0.020733080928113434 0.014134155447318442 0 0.014134155447318442 0.013156542167646279 0 0 0 0.0084724057739395953 0.026190902405661465 0.0043498094942360233 0 0.0043498094942360233 0.0038449825595385789 0 0 0 0.0075089712412998999 0.016117203838366217 0.0037053398715576336 0 0.0037053398715576336 0.0013641078358651076 0 0 0 0.0043703279185579426 0.026766607045776603 0.0081854320209755471 0 0.0081854320209755471 0.0084479922092270954 0 0 0 0.0088036498137507024 0.014670507005475786 0.009682450055240821 0 0.009682450055240821 0.0073881963884065982 0 0 0 0.0055146758484700964 0.0077598053440586234 0.0060391557441401567 0 0.0060391557441401567 0.006194367478689955 0 0 0 0.0034885432056870336 0.011617001067516952 0.0035419746056857271 0 0.0035419746056857271 0.0070346950274178255 0 0 0 0.0046629240237336944 0.009134126614101401 0.0021361853100372308 0 0.0021361853100372308 0.0068347455234789578 0 0 0 0.0039922180343952007 0.0053503522120221803 0.0029320132178372493 0 0.0029320132178372493 0.0063933587894950961 0 0 0 0.0029359277503795411 0.0087095047557453897 0.0050626637628479187 0 0.0050626637628479187 0.010340486554586192 0 0 0 0.0047624978275823127 -0.0031642600115495689 0.0068927024324405622 0 0.0068927024324405622 0.01085873035653151 0 0 0 0.0019236175862453742 0.0008598353743334286 0.0063630753699377429 0 0.0063630753699377429 0.0074312067241901758 0 0 0 0.0020727605246309011 -0.019185559838933663 0.0074153720165707742 0 0.0074153720165707742 0.0054944978944551082 0 0 0 -0.0034227654861198609 0.067774876385246374 0.0042097367749518722 0 0.0042097367749518722 0.026500631144661169 0 0 0 0.023568876882476886 0.094096294379723056 0.0074251795093607242 0 0.0074251795093607242 0.063546207191005677 0 0 0 0.039410625392682308 0.095580478080431686 0.012521422750948648 0 0.012521422750948648 0.055584200107865689 0 0 0 0.037791169547074288 0.083083207627309058 0.014368125405420373 0 0.014368125405420373 0.04393810339475597 0 0 0 0.03175532775551617 0.061515131507761001 0.0079990184557389155 0 0.0079990184557389155 0.018847761707158073 0 0 0 0.020090723303729741 0.047108388082416547 0.0013534321973308616 0 0.0013534321973308616 0.01200626356725254 0 0 0 0.014778662912417223 0.047546917544355777 -0.0030104380173496814 0 -0.0030104380173496814 0.0075881513463288419 0 0 0 0.013783767222671134 0.059261414817561031 0.0016094469811904627 0 0.0016094469811904627 0.014276010470702927 0 0 0 0.018384356322065865 0.048955328284756627 -0.0032354547039694787 0 -0.0032354547039694787 0.0080309145810777416 0 0 0 0.014246560716458578 0.049261688461171842 -0.005403647766532238 0 -0.005403647766532238 0.0072429552735379099 0 0 0 0.014126160933677405 0.072716832081223981 0.0041415218266840914 0 0.0041415218266840914 0.022008524842872634 0 0 0 0.023681339231024168 0.072321650985955832 0.0045635724109834618 0 0.0045635724109834618 0.021845065107561235 0 0 0 0.023541679023379281 0.061897432112798453 0.0055522555235112403 0 0.0055522555235112403 0.025853872274768791 0 0 0 0.021937826096891808 0.081683504193918566 0.0092517680781058105 0 0.0092517680781058105 0.049691254590216838 0 0 0 0.032843689696033795 0.086512391288876556 0.010384641168204367 0 0.010384641168204367 0.045447196672296797 0 0 0 0.03298989699029331 0.09780547801918768 0.0081098914756407847 0 0.0081098914756407847 0.078993189206054026 0 0 0 0.044199666806310406 0.11291950516007848 0.0067495716466282052 0 0.0067495716466282052 0.11854692999320793 0 0 0 0.057866608788321616 0.13267763564264903 0.0061546101690207466 0 0.0061546101690207466 0.13967132272339511 0 0 0 0.068087239591510945 0.11485112661507402 0.013853895515025028 0 0.013853895515025028 0.088841121731254247 0 0 0 0.050923062086582038 0.1439583743698456 0.02389168214921078 0 0.02389168214921078 0.09884634532488068 0 0 0 0.060701179923681625 0.171577455597689 0.0085554972070219244 0 0.0085554972070219244 0.13353404205737718 0 0 0 0.076277874413766877 0.1271273317184099 0.011921981351033228 0 0.011921981351033228 0.12732488035198053 0 0 0 0.063613053017597621 0.051831380515486733 0.0073280909118467151 0 0.0073280909118467151 0.15517451424366041 0 0 0 0.051751473689786789 0.1350495917781811 0.018575934696764218 0 0.018575934696764218 0.087203552410228813 0 0 0 0.0555632860471027 0.15268452964910995 0.015317918671146735 0 0.015317918671146735 0.13887513976972432 0 0 0 0.072889917354708844 0.15378781486902329 0.0059849358924721763 0 0.0059849358924721763 0.13826479466560093 0 0 0 0.07301315238365616 0.059971757105661355 0.0076267091775324408 0 0.0076267091775324408 0.17963712217337716 0 0 0 0.059902219819759635 0.15626760479144092 0.012647266202257146 0 0.012647266202257146 0.14855405135466315 0 0 0 0.07620541403652592 0.17727235478441994 0.012455366743583083 0 0.012455366743583083 0.14494497334375822 0 0 0 0.080554332032044318 0.06865142580623787 0.0077447642186977226 0 0.0077447642186977226 0.20532965152581531 0 0 0 0.068495269333013295 0.15396240220335744 0.020867710297289177 0 0.020867710297289177 0.13506912783253266 0 0 0 0.072257882508972138 0.10944192684085316 0.01034590295543808 0 0.01034590295543808 0.09648282230349603 0 0 0 0.051481187286087221 0.15092957332923804 0.010283150547118369 0 0.010283150547118369 0.15711240307973895 0 0 0 0.077010494102244337 0.11567136550463042 0.019967023350439539 0 0.019967023350439539 0.085620150020170094 0 0 0 0.050322878881200128 0.13428362038657404 0.0097560011897506738 0 0.0097560011897506738 0.10117321648755473 0 0 0 0.058864209218532138 0.15200996619940438 0.022100807694766578 0 0.022100807694766578 0.11370325986443391 0 0 0 0.066428306515959601 0.1238459230688731 0.0072759302915094137 0 0.0072759302915094137 0.092480128429247133 0 0 0 0.054081512874530002 0.18921122370079324 0.014968685099662482 0 0.014968685099662482 0.16330092182308575 0 0 0 0.088128036380969776 0.18133294453389659 0.0051299707331059485 0 0.0051299707331059485 0.17832699561333654 0 0 0 0.089914985036808281 0.17092116814125502 0.0018853980531757242 0 0.0018853980531757242 0.12431102626986568 0 0 0 0.073808048602780341 0.19261053133175832 0.0012066587134027529 0 0.0012066587134027529 0.17491986864109776 0 0 0 0.091882599993213798 0.077361025427103047 0.0076316673708348923 0 0.0076316673708348923 0.23250028668931183 0 0 0 0.077465328029103719 0.23414885047005862 0.012504635636637063 0 0.012504635636637063 0.18838558057782662 0 0 0 0.10563360776197139 0.21549257445209546 0.013413731346775482 0 0.013413731346775482 0.18255320680921905 0 0 0 0.099511445315328295 0.17734208302821081 -0.0017908948257199242 0 -0.0017908948257199242 0.16406846103491879 0 0 0 0.085352636015782524 0.20638529941984496 0.017778808127991041 0 0.017778808127991041 0.17906854639709646 0 0 0 0.096363461454234578 0.088940028269292162 0.0076069425284843277 0 0.0076069425284843277 0.26288277146411271 0 0 0 0.087955699933351228 0.26874003042592198 0.00066751387962815656 0 0.00066751387962815656 0.20713963260673118 0 0 0 0.11896991575816251 0.21848280482654553 -0.013526287688233829 0 -0.013526287688233829 0.19047767886724368 0 0 0 0.10224012092344718 0.13399183245518692 0.022292606803401893 0 0.022292606803401893 0.079087529086583563 0 0 0 0.053269840385442635 0.20082052002120315 0.019117701755497873 0 0.019117701755497873 0.18906353426028311 0 0 0 0.097471013570371412 0.26143693931808437 0.0017917799397109135 0 0.0017917799397109135 0.19874496705085898 0 0 0 0.11504547659223585 0.2034274779734434 0.023184990762289415 0 0.023184990762289415 0.17128415050732015 0 0 0 0.093677907120190862 0.16478906279564443 -0.0037816608272428776 0 -0.0037816608272428776 0.088294137843169418 0 0 0 0.063270800159703378 0.065077865241978339 0.0096547407916767747 0 0.0096547407916767747 0.010847950294229802 0 0 0 0.018981453884052035 0.11401967723662687 0.018088104992560416 0 0.018088104992560416 0.048884258072407372 0 0 0 0.04072598382725845 0.091960318013314155 0.0041020793439039416 0 0.0041020793439039416 -0.016994782326321164 0 0 0 0.018741383921748164 0.097779762571965453 0.0050359671337650846 0 0.0050359671337650846 0.059927580241320277 0 0 0 0.039426835703321547 0.083725656403078219 0.007878578444428852 0 0.007878578444428852 0.014832881770178719 0 0 0 0.024639634543314248 0.070375018932745614 0.010701201661937887 0 0.010701201661937887 0.020979164878899059 0 0 0 0.022838545952911182 0.079761329900080113 0.0061651792093206093 0 0.0061651792093206093 0.04390589314590998 0 0 0 0.030916805761497468 0.10426057719790616 0.019022203894665218 0 0.019022203894665218 0.05667690625114763 0 0 0 0.040234370862263447 0.048227445837363089 0.0044047057965115877 0 0.0044047057965115877 0.0010544818987419102 0 0 0 0.012320481934026281 0.051521688032086052 0.0038432165020091391 0 0.0038432165020091391 0.015624673673497409 0 0 0 0.016786590426395891 0.051422722904479412 0.0094890618769736812 0 0.0094890618769736812 -0.0019444786775733025 0 0 0 0.01236956105672643 0.059200198407644566 0.0036498225113438809 0 0.0036498225113438809 0.018172874052543753 0 0 0 0.019343268115047163 0.041124447365243788 8.2925965789182321e-06 0 8.2925965789182321e-06 -0.0035102942187006381 0 0 0 0.0094035382866358708 0.051220212833745338 -0.0025523575712557423 0 -0.0025523575712557423 -0.018065452202353782 0 0 0 0.0082886901578478334 0.043796194729991474 0.0043195276251560832 0 0.0043195276251560832 -0.055101668978609158 0 0 0 -0.0028263685621545045 0.039814347282193574 -0.0028193296261999623 0 -0.0028193296261999623 -0.028472813937451047 0 0 0 0.002835383336185604 0.037054119651384144 -0.0037848095810522064 0 -0.0037848095810522064 -0.063709968343281742 0 0 0 -0.0066639621729743985 0.037056177143639346 0.0019507906847643919 0 0.0019507906847643919 -0.030328112006477559 0 0 0 0.0016820162842904884 0.033927625111890736 -0.0067474156613852587 0 -0.0067474156613852587 -0.012909317255760611 0 0 0 0.0052545769640325868 0.038108821115819147 0.00091796223263002075 0 0.00091796223263002075 -0.027342537653459953 0 0 0 0.0026915708655899095 0.075635437505502459 -0.014204812541940393 0 -0.014204812541940393 0.0038141089094466452 0 0 0 0.019862386603737247 0.061290200887807678 -0.0021668318340775095 0 -0.0021668318340775095 -0.039373724205697735 0 0 0 0.0054791191705274578 0.045961290226020801 -0.009441391892234724 0 -0.009441391892234724 -0.011655178342512729 0 0 0 0.0085765279708770459 0.061948030576722046 -0.0074274265193453592 0 -0.0074274265193453592 0.027300874322095936 0 0 0 0.022312226224704523 0.052472013622304692 -0.0073836967118355856 0 -0.0073836967118355856 -0.0080834674122844952 0 0 0 0.011097136552504994 0.046908507101123764 -0.0081639699647224617 0 -0.0081639699647224617 0.0074091166276398779 0 0 0 0.013579405932190924 0.050766776744870262 -0.0097736940642798587 0 -0.0097736940642798587 0.024584583269563726 0 0 0 0.018837840003608414 0.064226680723931992 -0.014807089638068927 0 -0.014807089638068927 0.022663137236939079 0 0 0 0.021722454490217799 0.043664556799723309 -0.0025285837223452123 0 -0.0025285837223452123 -0.0063967497983791199 0 0 0 0.0093169517503360333 0.041989282601279765 -0.0077178248765497892 0 -0.0077178248765497892 0.00712323382630764 0 0 0 0.012278129106896851 0.036884090525694413 -0.0041865838427040114 0 -0.0041865838427040114 0.0022881200694166992 0 0 0 0.009793052648777778 0.044829447279021772 -0.0020825937917087756 0 -0.0020825937917087756 0.0059974290968918265 0 0 0 0.012706719093978414 0.043297936493408962 -0.0047048689167833446 0 -0.0047048689167833446 0.0073458823243774951 0 0 0 0.012660954704446559 0.045300270567488532 -0.0062206858783624419 0 -0.0062206858783624419 0.0092134251178495052 0 0 0 0.013628423921334565 0.041492630102294314 -0.0084816142531813909 0 -0.0084816142531813909 0.010561633707862672 0 0 0 0.013013565952539219 0.038278703042096789 -0.0053630558374554438 0 -0.0053630558374554438 0.0070375691816862707 0 0 0 0.011329068055945683 0.044661885595561002 -0.010163876999170263 0 -0.010163876999170263 0.011616767371649961 0 0 0 0.014069663241802643 0.042441802725556921 -0.010332416165733993 0 -0.010332416165733993 0.011169791635065707 0 0 0 0.01340289859015581 0.051617932926179111 -0.014514249054773498 0 -0.014514249054773498 0.023432078635518883 0 0 0 0.018762502890424471 0.057345002026348124 -0.012581542667219725 0 -0.012581542667219725 0.039231811104820657 0 0 0 0.024144203282792265 0.046139672717362523 -0.0110896459641842 0 -0.0110896459641842 0.019275622062278064 0 0 0 0.016353823694910119 0.042324028083621013 -0.012576719163067018 0 -0.012576719163067018 0.013307725356539901 0 0 0 0.013907938360040228 0.044895718677835206 -0.014276032335861694 0 -0.014276032335861694 0.020418412123103247 0 0 0 0.016328532700234655 0.049144983085833205 -0.014320483563920849 0 -0.014320483563920849 0.034141241764570174 0 0 0 0.020821556212600872 0.046050438546362329 -0.014626246743077831 0 -0.014626246743077831 0.015160931217277948 0 0 0 0.015302842440910028 0.0422033822824181 -0.013404296270920595 0 -0.013404296270920595 0.0044636579173342739 0 0 0 0.011666760049938107 0.051866759808761098 -0.0096322099455330573 0 -0.0096322099455330573 0.0082324025131075285 0 0 0 0.015024790580467129 0.043178465693113462 -0.0081549857726564978 0 -0.0081549857726564978 0.0054578137656709699 0 0 0 0.01215906986469612 0.050585482761565159 -0.0044797082669802424 0 -0.0044797082669802424 0.0097678017600588696 0 0 0 0.015088321130406035 0.046179119737053256 -0.009857688871764192 0 -0.009857688871764192 0.011481458127471228 0 0 0 0.014415144466131194 0.075830329200998414 -0.016895211027267765 0 -0.016895211027267765 0.072292841106535111 0 0 0 0.037030792576883242 0.027241937590829921 -0.011206344119656044 0 -0.011206344119656044 0.081563616640980108 0 0 0 0.027201388557952504 0.087231003338211266 -0.014795522575126174 0 -0.014795522575126174 0.064974462980109671 0 0 0 0.038051366579580137 0.064059864318740223 -0.015566218209149718 0 -0.015566218209149718 0.064921990530675266 0 0 0 0.032245463712353872 0.051527796129122144 -0.01299260766432303 0 -0.01299260766432303 0.060980588692310711 0 0 0 0.028127096205358193 0.045704631077048197 -0.018397863735467423 0 -0.018397863735467423 0.031482883740602707 0 0 0 0.019296878704412712 0.047848281847114871 -0.016814909378436382 0 -0.016814909378436382 0.039463464184244623 0 0 0 0.021827936507839929 0.05564934541851313 -0.014811100727899318 0 -0.014811100727899318 0.0344647425745086 0 0 0 0.022528521998255446 0.071973113475178402 -0.010229057728484425 0 -0.010229057728484425 0.072173392507886458 0 0 0 0.03603662649576625 0.062101608606984326 -0.016221529691470893 0 -0.016221529691470893 0.056050756777281441 0 0 0 0.029538091346066442 0.079017479447640482 -0.012055055157353556 0 -0.012055055157353556 0.056862067327068555 0 0 0 0.033969886693677176 0.06754221535411975 -0.018337830903480234 0 -0.018337830903480234 0.044812624357258857 0 0 0 0.028088709927844624 0.088385788904475793 -0.013153763799943208 0 -0.013153763799943208 0.086710682648205806 0 0 0 0.043774117888170427 0.114800052650469 -0.014745888313692645 0 -0.014745888313692645 0.088831765735476909 0 0 0 0.05090795459648656 0.081747036016236563 -0.012327006021869202 0 -0.012327006021869202 0.072108671136549063 0 0 0 0.038463926788196323 0.083473732290148706 -0.02114897464547183 0 -0.02114897464547183 0.072057504867157521 0 0 0 0.038882809289326588 0.037418273647192205 -0.011465111544267149 0 -0.011465111544267149 0.11197355591534996 0 0 0 0.037347957390635539 0.088026570559191386 -0.015539492887691908 0 -0.015539492887691908 0.080015833528806146 0 0 0 0.042010601021999383 0.093328949060968558 -0.016113608111355093 0 -0.016113608111355093 0.076331350332970116 0 0 0 0.042415074848484835 0.032044323830043568 -0.011485589874800674 0 -0.011485589874800674 0.095953742370235254 0 0 0 0.031999516550069704 0.10785029077806807 -0.009285258379025052 0 -0.009285258379025052 0.094854444649367764 0 0 0 0.050676183856859236 0.043430668354611346 -0.011152787683252998 0 -0.011152787683252998 0.13015107696925407 0 0 0 0.043395436330966347 0.14785856117456908 -0.012811036105164901 0 -0.012811036105164901 0.10291364565549665 0 0 0 0.062693051707516378 0.12404310500328017 -0.015724808184232497 0 -0.015724808184232497 0.10062346425195938 0 0 0 0.056166642313810057 0.10413608657725582 -0.0072401352849906786 0 -0.0072401352849906786 0.088305586794797719 0 0 0 0.048110418343013439 0.075882728407255073 -0.009195912954402724 0 -0.009195912954402724 0.050672805658438014 0 0 0 0.031638883516423244 0.094200908294839736 -0.018323991452044053 0 -0.018323991452044053 0.058400015971810326 0 0 0 0.038150231066662488 0.11130063464073964 -0.0093884775848673829 0 -0.0093884775848673829 0.099557282471522401 0 0 0 0.05271447927806544 0.10763286648110815 -0.0042774804373104658 0 -0.0042774804373104658 0.065366526562476296 0 0 0 0.043249848260896166 0.084957481182367289 -0.017372759232431645 0 -0.017372759232431645 0.03013671981686028 0 0 0 0.028773550249806878 0.12769844315331916 -0.017445196025218879 0 -0.017445196025218879 0.1027745153634238 0 0 0 0.057618239629185802 0.16762724990181377 -0.0039140127056143115 0 -0.0039140127056143115 0.10809159099508148 0 0 0 0.068929710224223895 0.13114946672583622 -0.018393482694541885 0 -0.018393482694541885 0.086675992082029557 0 0 0 0.054456364701966312 0.10570800272626718 0.0019396986105288949 0 0.0019396986105288949 0.036239605627008897 0 0 0 0.035486902088319061 0.12769328502211613 -0.016291840958027048 0 -0.016291840958027048 0.098514373839341141 0 0 0 0.056551914715364082 0.050802602338814867 -0.01090784499505822 0 -0.01090784499505822 0.15142543930138649 0 0 0 0.050557010410050347 0.16735501581617296 -0.0043371496250591808 0 -0.0043371496250591808 0.11852624621829566 0 0 0 0.071470315508617155 0.13705046000633203 0.005220293835330958 0 0.005220293835330958 0.10550257765207238 0 0 0 0.060638259414601325 0.11308180419022462 -0.0086080625803175437 0 -0.0086080625803175437 0.067221581521287099 0 0 0 0.045075846427877986 0.083669582212008542 0.0054825580174000521 0 0.0054825580174000521 0.040422397864295752 0 0 0 0.03102299501907585 0.080098059818489054 -0.0092832017995467808 0 -0.0092832017995467808 0.044277162109293666 0 0 0 0.031093805481945624 0.096840075285050897 0.00010731290772758584 0 0.00010731290772758584 0.063372510349713806 0 0 0 0.040053146408691287 0.057326315646713644 -0.0028939209750398209 0 -0.0028939209750398209 0.03429864014155104 0 0 0 0.022906238947066004 0.029669150593796489 -0.0074047071134775155 0 -0.0074047071134775155 0.012848729548597948 0 0 0 0.010629470035598665 0.028540248334428364 -0.0098712838188714756 0 -0.0098712838188714756 0.0094620227706103677 0 0 0 0.0095005677762596275 0.049763493939103669 -0.0027295286054465073 0 -0.0027295286054465073 0.011227066671128636 0 0 0 0.015247640152558131 0.053831696734254031 -0.013438027201232661 0 -0.013438027201232661 0.02406318590498735 0 0 0 0.019473720659810123 0.028313543700288601 -0.01672307428237807 0 -0.01672307428237807 0.018908909683951425 0 0 0 0.011805613346060229 0.025590063790680517 -0.015836233481877793 0 -0.015836233481877793 0.011081168490311377 0 0 0 0.0091678080702479736 0.042322631582840886 -0.0172529407025096 0 -0.0172529407025096 0.022019334366171428 0 0 0 0.016085491487252801 0.070635446793839762 -0.013636104399174842 0 -0.013636104399174842 0.047809429076260235 0 0 0 0.029611218967524888 0.087425858982451921 -0.01767600950107262 0 -0.01767600950107262 0.052117622892252413 0 0 0 0.034885870468676083 0.061055796807267804 -0.0079100600083460426 0 -0.0079100600083460426 0.039423887096511123 0 0 0 0.02511992097594451 0.0051148265304836737 -0.0033098921167082906 0 -0.0033098921167082906 0.006424876137247626 0 0 0 0.0028849256669327694 0.0031906503496181848 -0.0018423787554051607 0 -0.0018423787554051607 0.0036662941114107284 0 0 0 0.0017142361152573393 0.0053363006788455219 -0.001324474011434873 0 -0.001324474011434873 0.0041151408102071086 0 0 0 0.0023628603722628803 0.007174034116290029 -0.0023626134348628813 0 -0.0023626134348628813 0.0039278239704918505 0 0 0 0.0027754645216955254 0.0034444640466584353 -0.0044237028697595715 0 -0.0044237028697595715 0.003054286439504672 0 0 0 0.0016246876215406658 0.0084729777275884821 -0.0070296173653705551 0 -0.0070296173653705551 0.0026277893478017234 0 0 0 0.0027751917688472183 0.016509909381388077 -0.0056868281226473139 0 -0.0056868281226473139 0.0040939000420490146 0 0 0 0.0051509523558590509 0.0091628306519556096 -0.0027782941216645263 0 -0.0027782941216645263 -2.5273971281218441e-05 0 0 0 0.0022843891701685424 0.015363458151603691 -0.0040437562571662422 0 -0.0040437562571662422 -0.00063291551355653395 0 0 0 0.0036826356595117894 0.011041464414208058 -0.011663734031441497 0 -0.011663734031441497 0.0040268826818596892 0 0 0 0.0037670867740169367 0.0053729427723540057 -0.016839786825178393 0 -0.016839786825178393 0.0066942458919174719 0 0 0 0.0030167971660678417 -0.0082218381716461231 -0.011275661784972968 0 -0.011275661784972968 0.0030230797304167112 0 0 0 -0.001299689610307464 0.010349413461773427 -0.0096947167366092657 0 -0.0096947167366092657 0.004659942889392088 0 0 0 0.0037523390877913787 0.0033498036199655079 -0.011063053101315834 0 -0.011063053101315834 0.0068096584716041964 0 0 0 0.0025398655228927591 -0.0016711285988930957 -0.0047453759372884097 0 -0.0047453759372884097 0.0038204870655128564 0 0 0 0.00053733961665478058 -0.014068933574388209 -0.0053604228537703696 0 -0.0053604228537703696 0.0026466593222176371 0 0 0 -0.0028555685630426986 -0.0027388028289176969 -0.0045418128758873966 0 -0.0045418128758873966 0.0064237709979053648 0 0 0 0.00092124204224663941 -0.027732233558411368 -0.00643255021598153 0 -0.00643255021598153 0.0056648779177121966 0 0 0 -0.0055168389101745152 -0.0051627618511460582 -0.0088806386726146824 0 -0.0088806386726146824 0.0068211158317708076 0 0 0 0.00041458849515629836 -0.0085488320970816822 -0.013785019665508047 0 -0.013785019665508047 0.0053050541377039906 0 0 0 -0.00081094448984453393 -0.022196448518087608 -0.0069607240289590866 0 -0.0069607240289590866 0.0008250832680721798 0 0 0 -0.0053428413125037877 -0.010866012879660047 -0.016419654592411959 0 -0.016419654592411959 0.0039802924878782342 0 0 0 -0.0017214300979453423 0.0054914463174500217 -0.017557879530613663 0 -0.017557879530613663 0.0085646491333259966 0 0 0 0.003514023862693838 0.0018736427483430074 -0.022115555011582022 0 -0.022115555011582022 0.0072981782921486271 0 0 0 0.0022929552601229641 0.0028777585535014749 -0.021156550435589505 0 -0.021156550435589505 0.0091714977975572154 0 0 0 0.0030123140877645893 -0.011694828838876084 -0.017715587565579449 0 -0.017715587565579449 0.0030975515129720438 0 0 0 -0.002149319331475899 -0.012602173450394383 -0.021868700778708228 0 -0.021868700778708228 0.0055887717197200537 0 0 0 -0.0017533504326684435 0.0017188245773463173 -0.025513030899761757 0 -0.025513030899761757 0.01088216231711675 0 0 0 0.0031502467236159959 -0.018570499803257756 -0.020842492733462392 0 -0.020842492733462392 0.0038301984523272381 0 0 0 -0.0036850753377324352 -0.026177969250979483 -0.012646592814422375 0 -0.012646592814422375 0.0039960694889260573 0 0 0 -0.0055454749405133841 -0.031881103336701466 -0.010561117462768665 0 -0.010561117462768665 0.00056009742980744903 0 0 0 -0.0078302514767234488 -0.032903825926384522 -0.01067516272834601 0 -0.01067516272834601 0.0059916608843293417 0 0 0 -0.0067280412605137396 -0.046636321396815283 -0.0058714017374130465 0 -0.0058714017374130465 0.0016177522046012527 0 0 0 -0.01125464229805373 -0.028341754272434239 -0.0053641599595877221 0 -0.0053641599595877221 0.0039956095595297114 0 0 0 -0.0060865361782260763 0.05396068139486665 -0.023220852413514237 0 -0.023220852413514237 0.031966859284003002 0 0 0 0.021481885169717496 0.040998025544938033 -0.020869771388198899 0 -0.020869771388198899 0.030947323185732678 0 0 0 0.017986337182667844 0.0600772150963651 -0.023524170333707295 0 -0.023524170333707295 0.051351584958797325 0 0 0 0.027857200013790218 0.052143462434784071 -0.024026782215788356 0 -0.024026782215788356 0.033878308190728568 0 0 0 0.021505442656377882 0.02085779932838272 -0.021224828171791763 0 -0.021224828171791763 0.016289401893269329 0 0 0 0.0092868003054129566 0.019271106937345017 -0.020848180945563621 0 -0.020848180945563621 0.011350764920255996 0 0 0 0.0076554679644000867 0.036360348365300887 -0.024599961797697745 0 -0.024599961797697745 0.019115295965293821 0 0 0 0.01386891108264876 0.029196067019987337 -0.027388588857030882 0 -0.027388588857030882 0.016220547553027043 0 0 0 0.011354153643253539 0.016070900446564951 -0.024338941659565405 0 -0.024338941659565405 0.015182163738752807 0 0 0 0.0078132660463294257 0.013607573322694355 -0.022561426357119302 0 -0.022561426357119302 0.0091942165884892901 0 0 0 0.0057004474777961889 0.013250373826883641 -0.022795056083172671 0 -0.022795056083172671 0.012616232985418641 0 0 0 0.0064666517030754628 0.047042296159965247 -0.025298980635431914 0 -0.025298980635431914 0.026142142584142825 0 0 0 0.018296109686026796 0.033203031458085119 -0.023755327652451586 0 -0.023755327652451586 0.02781516238371573 0 0 0 0.015254548460450268 0.067769801705872323 -0.019157987066866111 0 -0.019157987066866111 0.045869567121876731 0 0 0 0.028409842206937208 0.051560488458210818 -0.023418911016887867 0 -0.023418911016887867 0.040609525113111999 0 0 0 0.023042503392830538 0.062608406413663165 -0.019303411821082084 0 -0.019303411821082084 0.037892251500782237 0 0 0 0.02512516447861135 0.04622494336310734 -0.026876428362998639 0 -0.026876428362998639 0.027192501113544765 0 0 0 0.018354361119162999 0.049770099700332554 -0.021449390562382264 0 -0.021449390562382264 0.028374219892621656 0 0 0 0.019536079898238721 0.057956917812782116 -0.02439873019691513 0 -0.02439873019691513 0.028505742272832979 0 0 0 0.021615665021403663 0.030838881009438657 -0.029562179766714269 0 -0.029562179766714269 0.017609326459871788 0 0 0 0.012112051867327556 0.035149290926258514 -0.022694266395969664 0 -0.022694266395969664 0.024728419044425021 0 0 0 0.014969427492670828 0.028133818050132556 -0.029625080150748273 0 -0.029625080150748273 0.014733482867704595 0 0 0 0.010716825229459229 0.0061007064828146884 -0.02859987151445087 0 -0.02859987151445087 0.0091280635952721845 0 0 0 0.0038071925195216627 0.00091859893852748106 -0.023057699131893483 0 -0.023057699131893483 0.0071239150630424131 0 0 0 0.0020106285003924189 0.026961448422181844 -0.024513985163482549 0 -0.024513985163482549 0.014845098023981151 0 0 0 0.010451636611540582 0.011148516024522603 -0.03206663837095125 0 -0.03206663837095125 0.0086289971173103552 0 0 0 0.0049443782854582397 0.023137287289309492 -0.025415178389753934 0 -0.025415178389753934 0.011520520582163019 0 0 0 0.0086644519678681017 -3.1480306719067208e-05 -0.026996919538846864 0 -0.026996919538846864 0.0061915042295463962 0 0 0 0.001540005980706749 0.0012763797452487458 -0.030759996998873787 0 -0.030759996998873787 0.012318909305409242 0 0 0 0.0033988222626644138 0.052643639700484801 -0.028504468680616013 0 -0.028504468680616013 0.018798680050022831 0 0 0 0.017860579937626908 0.056996550039007221 -0.022642856987843019 0 -0.022642856987843019 0.026005969865665612 0 0 0 0.020750629976168167 0.050807550037400229 -0.02204333837624288 0 -0.02204333837624288 0.030144288027717625 0 0 0 0.020237959516279602 0.024675899631327491 -0.030759411613024312 0 -0.030759411613024312 0.015019933037991429 0 0 0 0.0099239581673298827 0.046959831160435672 -0.025137376492812114 0 -0.025137376492812114 0.019855582991075593 0 0 0 0.016703853537877844 -0.050050444938586125 -0.011122896692629114 0 -0.011122896692629114 0.0043988718043967978 0 0 0 -0.011412893283547443 -0.061714824203259105 -0.0067927747911418201 0 -0.0067927747911418201 0.00030478178864576377 0 0 0 -0.015352510603653363 -0.048515882586795275 -0.0064823369864901448 0 -0.0064823369864901448 0.00023628605332826069 0 0 0 -0.012069899133366632 -0.064315381814529227 -0.00772007261327054 0 -0.00772007261327054 0.0040803508273556943 0 0 0 -0.015058757746793328 -0.035517764575128563 -0.0097770890639083119 0 -0.0097770890639083119 -0.00033552197264885564 0 0 0 -0.0089633216369442437 -0.01953022639216806 -0.019243707991190184 0 -0.019243707991190184 0.0048636832280313236 0 0 0 -0.0036666357910341008 -0.035932757051522268 -0.019432836294803413 0 -0.019432836294803413 0.0040518477380118156 0 0 0 -0.0079702273283776548 -0.012303244823862247 -0.019873273624976262 0 -0.019873273624976262 0.0041734910692894367 0 0 0 -0.0020324384386432026 -0.017369675567692755 -0.027748140801073462 0 -0.027748140801073462 0.0067814799722194508 0 0 0 -0.0026470488988683538 -0.022143289836711877 -0.024871141359991911 0 -0.024871141359991911 0.0063391926231428641 0 0 0 -0.0039510243033923365 -0.018502329741702406 -0.02209161605054033 0 -0.02209161605054033 0.0061943965675212986 0 0 0 -0.0030769832935452213 -0.020266462935469937 -0.029128784113107709 0 -0.029128784113107709 0.010288961795566681 0 0 0 -0.0024943752849758416 -0.031164125358061633 -0.017871477074348663 0 -0.017871477074348663 0.0038819696578639429 0 0 0 -0.006820538925049479 -0.043974327099200239 -0.021568194159970744 0 -0.021568194159970744 0.0057456039998746711 0 0 0 -0.0095571807748314197 -0.042898043614844172 -0.017815214941715618 0 -0.017815214941715618 0.0023456507031465179 0 0 0 -0.01013809822792433 -0.042878081992202111 -0.018294930705630819 0 -0.018294930705630819 0.0047829662695270114 0 0 0 -0.0095237789306685805 -0.067210605649708044 -0.012066889970834604 0 -0.012066889970834604 0.0024582372962709265 0 0 0 -0.016188092088359363 -0.063835247646294502 -0.0069258297669219093 0 -0.0069258297669219093 0.0021859819252995072 0 0 0 -0.015412316430248707 -0.078780322058713326 -0.010411788998417659 0 -0.010411788998417659 0.0028666809531205928 0 0 0 -0.018978410276398128 -0.11515992747357962 -0.0072243265705784548 0 -0.0072243265705784548 0.002651831450156461 0 0 0 -0.028127024005855761 -0.093494267642055928 -0.0081025411173368377 0 -0.0081025411173368377 0.002788391624450437 0 0 0 -0.022676469004401345 -0.078326841381486156 -0.0046165194894302597 0 -0.0046165194894302597 0.0013913608902190733 0 0 0 -0.019233870122816688 -0.067788361919210754 -0.018992281418402257 0 -0.018992281418402257 0.0074773273955727054 0 0 0 -0.01507775863090946 -0.054399530085101566 -0.013891119302260391 0 -0.013891119302260391 0.0022140074626002537 0 0 0 -0.0130463806556253 -0.026430114614873101 -0.020533670664311277 0 -0.020533670664311277 0.0061481231935569536 0 0 0 -0.0050704978553288704 -0.031231869176617466 -0.026748666883657513 0 -0.026748666883657513 0.012328232566896524 0 0 0 -0.0047259091524303187 -0.029017798146948992 -0.024662168848986643 0 -0.024662168848986643 0.020992678206892434 0 0 0 -0.00200627998501407 -0.041492548858797523 -0.015132142511711244 0 -0.015132142511711244 0.0023444373064894775 0 0 0 -0.0097870278880769768 -0.042508169213753999 -0.018116723438110438 0 -0.018116723438110438 0.010020354547313759 0 0 0 -0.0081219536666101155 -0.06276714910839426 -0.0045550251039957468 0 -0.0045550251039957468 0.01192225868841057 0 0 0 -0.012711222604995881 -0.061736756817380722 -0.018071627009383584 0 -0.018071627009383584 0.0094526297944521609 0 0 0 -0.013071031755732127 -0.080764325805689485 -0.0091348579569604793 0 -0.0091348579569604793 0.0030473157217145164 0 0 0 -0.019429252520993701 -0.076074626511257681 -0.0053589786850817278 0 -0.0053589786850817278 0.0023672925118403132 0 0 0 -0.018426833499854411 -0.1152079614459785 -0.0046122886497046356 0 -0.0046122886497046356 0.0036831389613677379 0 0 0 -0.027881205621152677 0.027644710462156052 -0.027956140155236564 0 -0.027956140155236564 0.019379692632507162 0 0 0 0.01175610077366579 0.064268612492857757 -0.045864904356842179 0 -0.045864904356842179 0.039488374095086654 0 0 0 0.025939246646986103 0.026276824831094121 -0.033519900502783528 0 -0.033519900502783528 0.020045459718854214 0 0 0 0.011580571137487068 0.022128400802919057 -0.026967990154167232 0 -0.026967990154167232 0.011313522732622538 0 0 0 0.0083604808838854683 -0.0069980386703164532 -0.027962214753000161 0 -0.027962214753000161 0.010534960591869424 0 0 0 0.00088423048038821506 -0.0050530183752592328 -0.029167972050145874 0 -0.029167972050145874 0.016682165763104773 0 0 0 0.0029072868469613988 0.01822892851126913 -0.036533101429595982 0 -0.036533101429595982 0.024339960369487434 0 0 0 0.010642222220189138 -0.0062252598580471163 -0.02099802053209382 0 -0.02099802053209382 0.02415146105628041 0 0 0 0.0044815502995583789 -0.037710056198508257 -0.01344895705981107 0 -0.01344895705981107 0.010259995773085118 0 0 0 -0.0068625151063558265 -0.026953236709435648 -0.0091753711633256185 0 -0.0091753711633256185 0.017523959457617644 0 0 0 -0.0023573193129544992 -0.012787948761982804 -0.027620290908480588 0 -0.027620290908480588 0.028736677968557389 0 0 0 0.0039871823016436325 0.022839239658904276 -0.031889262607698511 0 -0.031889262607698511 0.036550924726455603 0 0 0 0.014847541096340011 0.023700148140651134 -0.029450991289043771 0 -0.029450991289043771 0.036983498677124915 0 0 0 0.015170911704444012 0.052614603350019745 -0.040810150047908056 0 -0.040810150047908056 0.056674023126518452 0 0 0 0.027322156619134549 0.074909451533212643 -0.062165345077606848 0 -0.062165345077606848 0.11676217471862096 0 0 0 0.047917906562958371 -0.051110828465871533 0.016713018930271453 0 0.016713018930271453 0.065305258771889085 0 0 0 0.0035486075765044367 0.177967514998912 -0.062227964937618396 0 -0.062227964937618396 0.053586555382947543 0 0 0 0.057888517595464928 0.0045576568713202722 -0.0022506043874574487 0 -0.0022506043874574487 0.013406557692907488 0 0 0 0.0044910536410569402 0.087016385341349783 -0.029854286423317555 0 -0.029854286423317555 0.011637905663206605 0 0 0 0.024663572751139201 0.079775476808285506 -0.0245348967056227 0 -0.0245348967056227 0.024228868552346627 0 0 0 0.026001086340158075 0.01105652219023151 -0.0057645252887780045 0 -0.0057645252887780045 0.03310798178220184 0 0 0 0.011041125993108337 0.11634735073110553 -0.017599137501410733 0 -0.017599137501410733 0.030841555731223824 0 0 0 0.036797226615582324 0.015110920805386393 -0.0080239598857246731 0 -0.0080239598857246731 0.045233495834886242 0 0 0 0.015086104160068156 0.083657165846114823 -0.015317774045850385 0 -0.015317774045850385 0.032627812745686158 0 0 0 0.029071244647950301 0.076877202723663385 -0.025614461228996022 0 -0.025614461228996022 0.022393758533416519 0 0 0 0.024817740314269976 0.013487735046556343 -0.014263552928828555 0 -0.014263552928828555 0.021704622589762024 0 0 0 0.0087980894090795847 -0.0081416477638802109 -0.020229117493579654 0 -0.020229117493579654 0.033288350177296255 0 0 0 0.006286675603354025 0.014227064903452491 -0.015516162955639998 0 -0.015516162955639998 0.028013664304226582 0 0 0 0.010560182301919796 -0.027458963657557664 -0.019769660195629545 0 -0.019769660195629545 0.021739580900308031 0 0 0 -0.0014298456893123979 0.014320539171017221 -0.0034438070081365402 0 -0.0034438070081365402 0.044944338032323977 0 0 0 0.014816219300835307 0.0086004365913091643 -0.0014984202666112334 0 -0.0014984202666112334 0.011794536588239285 0 0 0 0.0050987432948871106 -0.012336066067105189 -0.0077479631086264378 0 -0.0077479631086264378 0.11915943910224466 0 0 0 0.026705843258784862 0.0097598190039086437 0.0064334460212126243 0 0.0064334460212126243 0.045431231888997274 0 0 0 0.013797762723226487 0.022669124770148472 -0.0063037116467406923 0 -0.0063037116467406923 0.017750918315613706 0 0 0 0.010105010771440548 0.030015447639986856 -0.0085611811493461788 0 -0.0085611811493461788 0.044415367193608085 0 0 0 0.018607703708398746 0.021298303985402497 -0.0089931705743280244 0 -0.0089931705743280244 0.042217528247139667 0 0 0 0.015878958058135533 0.029659111630685089 -0.013867320035163548 0 -0.013867320035163548 0.045234972369288529 0 0 0 0.018723520999993401 0.029378427324920679 -0.012571429235737605 0 -0.012571429235737605 0.063854803400561849 0 0 0 0.023308307681370634 0.04519152438726956 -0.02413624084678432 0 -0.02413624084678432 0.047538140534638534 0 0 0 0.023182416230477024 0.050343169730373893 -0.025795556354520077 0 -0.025795556354520077 0.027163153447356377 0 0 0 0.019376580794432555 0.038310597339317812 -0.01594490752023181 0 -0.01594490752023181 0.025643353188323614 0 0 0 0.015988487631910367 0.039981597044736736 -0.020287502860201638 0 -0.020287502860201638 0.021843253094244452 0 0 0 0.015456212534745259 0.036174966971368613 -0.014748969386501221 0 -0.014748969386501221 0.019844815301909458 0 0 0 0.014004945568319507 0.03953113064516374 -0.019616789001955681 0 -0.019616789001955681 0.01119661519020896 0 0 0 0.012681936458843173 0.022353241482244594 -0.018378045813377056 0 -0.018378045813377056 0.022317431963644774 0 0 0 0.01116766836147233 0.035911911870549859 -0.017747086450658506 0 -0.017747086450658506 0.015308175968076265 0 0 0 0.012805021959656548 0.034237106219274074 -0.019664949104723231 0 -0.019664949104723231 0.011398490867267963 0 0 0 0.011408899271635534 0.027016220218104653 -0.01952277852780597 0 -0.01952277852780597 0.017990443200622708 0 0 0 0.011251665854681847 0.038745834289348122 -0.021395139645762576 0 -0.021395139645762576 0.0090071561213695972 0 0 0 0.011938247602679419 0.037250241504240694 -0.01948714536529049 0 -0.01948714536529049 0.012784826025964091 0 0 0 0.012508766882551148 0.034626558184428738 -0.021001396345394607 0 -0.021001396345394607 0.018765885349969147 0 0 0 0.013348110883599454 0.051235225655429317 -0.019046017621708045 0 -0.019046017621708045 0.0065853140874514438 0 0 0 0.014455134935720204 0.04514481700836212 -0.021027317919550911 0 -0.021027317919550911 0.013359072514585901 0 0 0 0.014625972380737012 0.042798859274666423 -0.019593599661233196 0 -0.019593599661233196 0.0088292624147842114 0 0 0 0.012907030422362686 0.047891140519567457 -0.018395609067186708 0 -0.018395609067186708 0.0063186022734799535 0 0 0 0.013552435698261853 0.050663992197676519 -0.019981373216611031 0 -0.019981373216611031 0.0065399125602472671 0 0 0 0.014300976189480966 0.048480390232383347 -0.011000415208282655 0 -0.011000415208282655 -0.00027146630794172566 0 0 0 0.01205223098111044 0.04250485519950517 -0.017453225898389463 0 -0.017453225898389463 0.0043040977705079975 0 0 0 0.011702238242503327 0.052105186692437647 -0.013750642383602185 0 -0.013750642383602185 0.007760815266751861 0 0 0 0.014966500489797432 0.036550374714033412 -0.01846307365289529 0 -0.01846307365289529 0.022695535493310715 0 0 0 0.014811477551836122 0.044150854948611096 -0.017208340773731151 0 -0.017208340773731151 0.013673199574930184 0 0 0 0.014456013630885334 0.036584719104400192 -0.020502143221305058 0 -0.020502143221305058 0.012992240379317704 0 0 0 0.012394239870929462 0.040181372883540012 -0.016662472616928881 0 -0.016662472616928881 0.012198977702514213 0 0 0 0.01309508764651357 0.03857236829101568 -0.018216983392505992 0 -0.018216983392505992 0.022989080284840258 0 0 0 0.015390362143963998 0.04477755013875373 -0.016315591687342805 0 -0.016315591687342805 0.026074704080069067 0 0 0 0.017713063554705699 0.042920690598472727 -0.016983816412321939 0 -0.016983816412321939 0.039141455084182541 0 0 0 0.020515536420663866 0.033276570241663361 -0.019373330448239079 0 -0.019373330448239079 0.034887043159531839 0 0 0 0.017040903350298842 0.036664512743606714 -0.018317268100999318 0 -0.018317268100999318 0.029586566743270315 0 0 0 0.01656276987171923 0.039373908420755055 -0.013828920663580935 0 -0.013828920663580935 0.053901628029829007 0 0 0 0.023318884112645932 0.082279737656101803 -0.014211631690536519 0 -0.014211631690536519 0.053236474851206417 0 0 0 0.033879053126827041 0.022901088943143202 -0.010603077255368965 0 -0.010603077255368965 0.068573247488325148 0 0 0 0.022868584107867081 0.042575179089358428 -0.015342213247957285 0 -0.015342213247957285 0.056773985544769978 0 0 0 0.024837291158532115 0.068069766686586264 -0.018426304325132037 0 -0.018426304325132037 0.058021116144038043 0 0 0 0.031522720707656049 0.068453957481095284 -0.016335251905558956 0 -0.016335251905558956 0.048877322811092361 0 0 0 0.029332820073046939 0.08484348167615674 -0.012462296912131188 0 -0.012462296912131188 0.044534849626937989 0 0 0 0.032344582825773571 0.018471655523370989 -0.016223757091017643 0 -0.016223757091017643 0.046714969349018531 0 0 0 0.016296656218097394 0.018929711713932741 -0.0095865643134900747 0 -0.0095865643134900747 0.056684796998724349 0 0 0 0.018903627178164271 0.074198790518080315 -0.014563101779879517 0 -0.014563101779879517 0.042030529592280708 0 0 0 0.029057330027590145 0.066421090372835223 -0.022185819346362101 0 -0.022185819346362101 0.025116577525462036 0 0 0 0.022884416974574162 0.091661913480207025 -0.0129498800090041 0 -0.0129498800090041 0.036126262494045269 0 0 0 0.031947043993563073 0.016398160845039918 -0.016501237236751676 0 -0.016501237236751676 0.03406963794558978 0 0 0 0.012616949697657417 0.023525265354270741 -0.021945751055195334 0 -0.021945751055195334 0.018772182779850627 0 0 0 0.010574362033530349 0.023436589792054485 -0.02062547272316631 0 -0.02062547272316631 0.024508517535880014 0 0 0 0.011986276831983611 0.028936041680583002 -0.017393751462232571 0 -0.017393751462232571 0.038371073010868617 0 0 0 0.016826778672862891 
</DataArray>
<DataArray type="Float64" Name="cross_section_updated" format="ascii">
1 1 1 1 1 1 1 1 1 1 1 1 1 1 1 1 1 1 1 1 1 1 1 1 1 1 1 1 1 1 1 1 1 1 1 1 1 1 1 1 1 1 1 1 1 1 1 1 1 1 1 1 1 1 1 1 1 1 1 1 1 1 1 1 1 1 1 1 1 1 1 1 1 1 1 1 1 1 1 1 1 1 1 1 1 1 1 1 1 1 1 1 1 1 1 1 1 1 1 1 1 1 1 1 1 1 1 1 1 1 1 1 1 1 1 1 1 1 1 1 1 1 1 1 1 1 1 1 1 1 1 1 1 1 1 1 1 1 1 1 1 1 1 1 1 1 1 1 1 1 1 1 1 1 1 1 1 1 1 1 1 1 1 1 1 1 1 1 1 1 1 1 1 1 1 1 1 1 1 1 1 1 1 1 1 1 1 1 1 1 1 1 1 1 1 1 1 1 1 1 1 1 1 1 1 1 1 1 1 1 1 1 1 1 1 1 1 1 1 1 1 1 1 1 1 1 1 1 1 1 1 1 1 1 1 1 1 1 1 1 1 1 1 1 1 1 1 1 1 1 1 1 1 1 1 1 1 1 1 1 1 1 1 1 1 1 1 1 1 1 1 1 1 1 1 1 1 1 1 1 1 1 1 1 1 1 1 1 1 1 1 1 1 1 1 1 1 1 1 1 1 1 1 1 1 1 1 1 1 1 1 1 1 1 1 1 1 1 1 1 1 1 1 1 1 1 1 1 1 1 1 1 1 1 1 1 1 1 1 1 1 1 1 1 1 1 1 1 1 1 1 1 1 1 1 1 1 1 1 1 1 1 1 1 1 1 1 1 1 1 1 1 1 1 1 1 1 1 1 1 1 1 1 1 1 1 1 1 1 1 1 1 1 1 1 1 1 1 1 1 1 1 1 1 1 1 1 1 1 1 1 1 1 1 1 1 1 1 1 1 1 1 1 1 1 1 1 1 1 1 1 1 1 1 1 1 1 1 1 1 1 1 1 1 1 1 1 1 1 1 1 1 1 1 1 1 1 1 1 1 1 1 1 1 1 1 1 1 1 1 1 1 1 1 1 1 1 1 1 1 1 1 1 1 1 1 1 1 1 1 1 1 1 1 1 1 1 1 1 1 1 1 1 1 1 1 1 1 1 1 1 1 1 1 1 1 1 1 1 1 1 1 1 1 1 1 1 1 1 1 1 1 1 1 1 1 1 1 0.0020386580592419712 1 1 0.0021000223440660101 1 1 0.0021422041610261022 1 1 1 1 1 1 1 1 1 1 1 1 1 0.0021808014629237558 1 1 1 1 1 0.0022193036625464944 1 1 1 1 1 1 1 1 1 1 1 1 1 1 1 1 1 1 1 1 1 1 1 1 1 1 1 1 1 1 1 1 1 1 1 1 1 1 1 1 1 1 1 1 1 1 1 1 1 1 1 1 1 1 1 1 1 1 1 1 1 1 1 1 1 1 1 1 1 1 1 1 1 1 1 1 1 1 1 1 1 1 1 1 1 1 1 1 1 1 1 1 1 1 1 1 1 1 1 1 1 1 1 1 1 1 1 1 1 1 1 1 1 1 1 1 1 1 1 1 1 1 1 1 1 1 1 1 1 1 1 1 1 1 1 1 1 1 1 1 1 1 1 1 1 1 1 1 1 1 1 1 1 1 1 1 1 1 1 1 1 1 1 1 1 1 1 1 0.0022585576013846843 1 1 1 0.0022993372558840438 1 1 0.002342085955482005 1 1 1 1 1 1 1 1 1 1 1 0.0023875873966505202 1 1 1 1 0.002437317678826904 1 1 1 1 1 1 1 1 1 1 1 1 1 1 1 1 1 1 1 1 1 1 1 1 1 1 1 1 1 1 1 1 1 1 1 1 1 1 1 1 1 1 1 1 1 1 1 1 1 1 1 1 1 1 1 1 1 1 0.0010679527851037843 1 1 1 1 1 1 1 1 1 1 1 1 1 1 0.001093281998155893 1 1 0.001079942782275207 1 0.0011084445507978597 1 1 1 1 1 1 1 1 1 1 1 1 1 0.0011260855361141702 1 1 1 1 1 1 1 1 1 1 1 1 1 1 1 1 1 1 1 1 1 1 1 1 1 1 1 1 1 1 1 1 1 1 1 1 1 1 1 1 1 1 1 1 1 1 1 1 1 1 1 1 1 1 1 1 1 1 1 1 1 1 1 1 1 1 1 1 1 1 1 1 1 1 1 1 1 1 1 1 1 1 1 1 1 1 1 1 1 1 1 1 1 1 1 1 1 1 1 1 1 1 1 1 1 1 1 1 1 1 1 1 1 1 1 1 1 1 1 1 1 1 1 1 1 1 1 1 1 1 1 1 1 1 1 1 0.001011144380064813 1 1 0.0010275835697363669 1 0.0010376842395935226 1 1 1 1 1 1 1 1 1 1 1 1 1 1 1 1 1 1 1 1 1 1 1 1 1 1 1 1 1 1 1 1 1 1 1 1 1 1 1 1 1 1 1 1 1 1 1 0.0010571308292255726 1 1 1 1 1 0.0010472264622757002 1 1 1 1 1 1 1 
</DataArray>
<DataArray type="Float64" Name="displacement_divergence" format="ascii">
-3.2932651627134063e-05 -3.6693041305057894e-05 -2.7837605201514511e-05 -3.2124149945167115e-05 -3.0558547717168238e-05 -3.0541857064197049e-05 -2.8280520531608252e-05 -2.9788477549820041e-05 -2.7254400765546034e-05 -2.0625312532589191e-05 -3.0164687976969967e-05 -1.9349987544502188e-05 -3.6581332844823847e-05 -2.7758513526843571e-05 -4.4334633282552089e-05 -3.492127024242402e-05 -2.9949345628186811e-05 -3.2752689911699636e-05 -4.942852353359297e-06 -8.8484189355170082e-06 -9.5471694241544834e-06 -1.6972631755617369e-05 -1.9924304616180039e-05 -1.2230926824758111e-05 -1.4258521368454712e-05 -1.8055911109078404e-05 -1.9505518248363939e-05 -1.7344386837079539e-05 -7.3003565168343662e-06 -8.6938925010820518e-06 -4.4643448804348336e-06 -1.5769796705536305e-07 -1.6941007690092116e-06 -1.0785937184744685e-06 -8.7621179464261465e-06 -1.9243747633703175e-05 -1.580021332074267e-05 -9.6442271977352731e-06 -1.8159048458400107e-05 -2.1142612500504992e-05 -1.5111521962989796e-05 -9.8162899537873415e-06 -9.6216395522944869e-06 -1.8591352922997038e-06 -1.0086513511991755e-05 -5.7707492115667628e-06 5.2770725586512231e-06 -5.7342557766320754e-07 -4.4044036898994623e-05 -3.3754619221576367e-05 -5.0554486533226472e-05 -3.3231884696322976e-05 -2.5768059936351331e-05 -2.7968293429826742e-05 -2.8406463656913948e-05 -3.1530675824885893e-05 -2.2909229404744313e-05 -3.3948298661480347e-05 -2.6859398542196134e-05 -3.219287516880548e-05 -4.5996659784380591e-05 -4.4131913297300656e-05 -4.1857777728891409e-05 -5.7532305822378683e-05 -6.0911480557925308e-05 -4.3206737221578956e-05 -4.9998816242843848e-05 -6.8353117200363564e-05 -5.1049591615606878e-05 -5.1737252418910937e-05 -5.3604893029936482e-05 -7.7637040793451356e-05 -2.8358816823720128e-05 -2.4095976299917333e-05 -3.9774608498667445e-05 -3.7282463326638598e-05 -2.4741948614427474e-05 -4.3501904659716783e-05 -3.8270240982854614e-05 -3.310266281571448e-05 -2.3392024020675245e-05 -1.5076926447208621e-05 -1.4035094875723453e-05 -1.0946431375911196e-05 -5.8291484342034471e-06 -2.4205379224813349e-05 3.5117138636542522e-06 -1.2807732302614064e-06 -1.2613494663233249e-06 1.1160218310980077e-05 5.6008084194732576e-06 3.012862995429788e-06 1.318587144968191e-05 1.8068265289481982e-05 -1.3007302759337057e-05 -1.8765018832598018e-05 -1.6626855921563788e-06 -5.2881914818460796e-06 -8.4113492084153291e-06 -1.3571735423175384e-05 1.8844757524663506e-06 -1.2262968533248398e-05 3.2774668735115211e-05 3.8511982709397436e-06 1.3606009669031815e-05 2.3921758107785278e-05 3.5070233969923312e-05 3.0203993011419669e-05 2.6643222581795791e-05 2.9153456850675044e-05 5.8771127635470711e-05 -4.3263469828706304e-07 9.4983113515943914e-06 1.1178901817663359e-05 -1.216975986843388e-05 -1.4140653081534053e-05 -2.8902739119362911e-05 -3.7962708414515526e-05 -4.3384327897839458e-05 -5.4173540893288463e-05 -7.7093121531196106e-05 -5.7309004273824258e-05 -5.5357956499293146e-05 -6.1381925592279092e-05 -4.9440560590813449e-05 -7.977014185481658e-05 -5.7737054183607572e-05 -3.5856672530580369e-05 -2.3794710456051309e-05 -3.8772054199269598e-05 5.4127503181359825e-05 4.6491356054266948e-05 4.2585870059667128e-05 4.5363329017598843e-05 5.2476623059111361e-05 6.1019133568900162e-05 5.4328645937234858e-05 5.1735388836087289e-05 5.5011970175988231e-05 5.1554040638227851e-05 4.3846109232036326e-05 5.2044246903357194e-05 4.8053358832576902e-05 5.199349150850378e-05 5.7600204880366921e-05 0.00011132912109208733 5.0668535827400946e-05 7.4375637589343686e-05 4.6889094194725551e-05 0.00010285119751293916 6.5061031013059246e-05 0.00010036288739380286 5.8850567413104452e-05 5.0985568486129618e-05 6.0615239027055745e-05 3.8158368367520504e-05 3.7904549736104486e-05 5.2615926447121429e-05 4.1321794096390484e-05 5.38396968926828e-05 3.1594962353461219e-05 4.7203802267408229e-05 3.6181356116528008e-05 3.3732307305770818e-05 2.41618616703072e-05 2.9390217882214998e-05 2.912951903747878e-05 2.7518458302612122e-05 1.6861134403500123e-05 2.0422534467503602e-05 1.7954776994725777e-05 1.2765451335019919e-05 8.5824989674070465e-06 2.8199267027439818e-05 2.6028922039047685e-05 2.4198983278508465e-05 2.1001295367251007e-05 2.9539732994063361e-05 2.6783322413733689e-05 3.530734272969897e-05 3.390105219466613e-05 3.3582034352432409e-05 3.8137802548653792e-05 3.3183387326142314e-05 4.5989327584091631e-05 4.1682648645460964e-05 3.8773696722906679e-05 4.9613493321965005e-05 3.6827960742190534e-05 6.3388418730815101e-05 4.4596585225948314e-05 5.4960075370617627e-05 4.2369350453915359e-05 5.0342687628341752e-05 5.2904459245765359e-05 4.0747183162404414e-05 4.3634780177223439e-05 4.3675056027986373e-05 3.7447682684108513e-05 2.9943506460099432e-05 3.5202377045839123e-05 3.4967457622881991e-05 2.7886235340137139e-05 2.4898321844410163e-05 2.8658868917578259e-05 3.1658178837763325e-05 2.6989435846677104e-05 2.6498648637166245e-05 2.1685005663560414e-05 2.9410185425834942e-05 2.8328431039484261e-05 3.3309411783567222e-05 3.0457955623596747e-05 3.1314250550174614e-05 9.6388611818431288e-06 1.2843512291653996e-05 7.5758520239949307e-06 1.5735294172944194e-05 1.7225148576521568e-05 1.9545517300537472e-05 2.0999671264300174e-05 2.3213280628309838e-05 2.0991278113478952e-05 1.824989159859701e-05 2.0761980689134263e-05 1.6532525152656272e-05 1.3421066550696532e-05 7.4538640902150141e-06 5.8638704094164255e-06 6.0371626416899955e-06 4.7079250932082013e-07 3.7072400112641424e-06 4.1784728359330861e-07 3.9291722762338694e-06 1.037910930726555e-05 9.5208378535089952e-06 1.1414925832756275e-05 1.4522870173827977e-05 1.626989396715098e-05 1.9833618571676782e-05 1.779218794982379e-05 1.4588130215726334e-05 1.4959787350419378e-05 7.2253475859516824e-06 5.1951272195718643e-06 -1.020651977945326e-06 2.9165661426128612e-05 2.8855738225627066e-05 2.499494192911073e-05 2.4888675138671643e-05 2.1884183664873707e-05 2.520502428575643e-05 2.3719378771669026e-05 2.1469768823004691e-05 2.9012007279410645e-05 2.5739439496251704e-05 3.1220363877499735e-05 2.6164535670507455e-05 2.7836799316600104e-05 3.2430807770505669e-05 2.8910503146358439e-05 3.7419618592774499e-05 2.7505500913601073e-05 3.334119021515607e-05 3.1724283958502562e-05 3.1349911650094717e-05 2.8518403413746358e-05 3.3781343433214776e-05 2.8860568349892822e-05 2.8084713180895718e-05 2.521267550246576e-05 3.0567492336350698e-05 2.9634431071526793e-05 3.701152660240721e-05 3.6430209289903877e-05 2.7434842406137606e-05 3.0293633590360322e-05 2.9458941718219337e-05 2.1016820663689135e-05 1.8409268424840778e-05 1.2203372706008076e-05 3.0611755674768063e-06 8.4405367458707318e-06 1.3859919113368033e-05 2.1267191718950673e-05 7.7877859884882211e-06 1.7371725298291651e-05 2.314124763583629e-05 2.7778602148078602e-05 2.7704639159984628e-05 2.4614604801903592e-05 3.3068394296874796e-05 1.7326374845407413e-05 1.26690355623918e-05 1.9220362532486814e-05 2.1810845540054229e-05 6.8789448080094209e-06 1.6984367946765381e-05 2.5275053418500341e-05 2.0685778244349077e-05 3.7740676422995207e-05 2.6742788499822898e-05 2.3628002105267164e-05 3.1187270615778597e-05 3.0575938265853519e-05 3.5971692823661531e-05 4.8262300383774007e-05 4.1777309798015417e-05 4.4501884357770364e-05 3.5861241348974749e-05 4.0608680769657187e-05 4.7206889158264407e-05 3.8720574797756357e-05 4.4030885843933956e-05 3.5127198546243707e-05 3.4062181309917797e-05 3.2895044529475026e-05 3.637751367906623e-05 2.928691551016645e-05 3.451529518449326e-05 2.9195130607960476e-05 3.2469016439686327e-05 2.9823649403768942e-05 3.2817552167863727e-05 3.5538378844685614e-05 -6.4430043438250235e-05 -4.4313258145384687e-05 -4.7960599037975862e-05 -3.9069270233444916e-05 -3.4776301705288405e-05 -4.127166590633919e-05 -4.6686502609928096e-05 -4.0838471921575295e-05 -3.859507472908687e-05 -3.4424395585324339e-05 -3.7087710248464892e-05 -3.7063369044009491e-05 -3.4990663907671869e-05 -2.2709035494711448e-05 -3.4666003101761249e-05 -5.2904840071845915e-05 -2.1526963848608623e-05 -4.1217742049292349e-05 -2.1497747739044294e-05 -1.9537171382074012e-05 -2.1616288248091619e-05 -1.8428523500904834e-05 -2.1831113810840762e-05 -9.8450911751031388e-06 -1.0847430133800129e-05 -5.1185138117536361e-06 -7.2612015413332952e-06 4.7597272337122822e-06 8.9769519561036434e-06 -1.0825112876313743e-06 -4.8239864113806005e-06 -3.8989620689598411e-06 1.3599273595882078e-06 1.0133571779294897e-05 -7.5415168831663997e-06 6.0243023286174921e-06 -1.2614194913776361e-06 -1.0519737491662844e-05 1.0149173387703149e-05 -6.1927068591592155e-06 -2.4836556266509747e-06 -3.0062363636416495e-05 -2.5057858944626601e-05 -2.3356286502702515e-05 -4.8398802736573255e-06 -1.926923501704144e-05 -3.7898300988949932e-05 -3.0811407850405914e-05 -4.5614555313223506e-05 -3.5084938197401256e-05 -4.7721444402619467e-05 -2.5218205704370687e-05 -4.1527917084833208e-05 -7.1965858542365733e-05 -7.6034047484028412e-05 -9.0411512839233982e-05 -6.4099619793996803e-05 -7.5474184578738798e-05 -4.6870533831258586e-05 -6.6846118700157115e-05 -4.4616853937487285e-05 -9.2280071945844008e-05 -0.00014168927824830869 -8.5472391435397168e-05 -8.8552234463540639e-05 -0.00011973628810520023 -0.00010379132087158635 -6.8901490256492178e-05 -8.0444541361144705e-05 -7.6114687112337849e-05 -4.4123709098318858e-05 -4.7606382165296368e-05 -3.6868509436307178e-05 -4.0281346808251065e-05 -6.0003791393046583e-05 -4.6079704183979686e-05 -2.9604608491434455e-06 1.257891988883626e-05 1.562730219324183e-05 -3.0933365734338671e-05 -1.1472475791877822e-05 -3.544940669383561e-05 -1.9503566791999405e-05 -1.2918665328096504e-05 5.8085916472834753e-06 -1.2023950432905897e-05 6.1702538636560068e-06 2.6588239470611587e-05 1.4862284701837769e-05 3.3483305119582003e-05 1.4216519140494076e-05 3.1403264800924803e-05 5.3130701874149147e-05 2.2017167547693048e-05 4.8961408982514583e-05 5.3771263967089612e-05 9.2445398487257108e-05 9.0738004855717334e-05 4.5107243310012044e-05 3.6162973836831552e-05 9.6959430081475782e-05 0.00016206814730628655 0.00014849787898242923 0.00016123056973247805 0.00010680520050984047 7.2752395330272679e-05 8.8537091013925749e-05 6.6055841590350987e-05 2.3491710587731068e-05 1.2974578280550413e-05 3.2726999169894024e-06 -1.8169181025153914e-05 4.5158533447646899e-05 -1.2813084437486626e-05 -5.5177975380565328e-05 -6.2451275952071458e-05 -2.9148263809885937e-05 -4.6593967136393844e-05 -3.1416738181780173e-05 -7.5710952937311084e-05 -4.2462902743045953e-05 -6.2469517844294248e-05 -9.3171549080605276e-05 -9.3502744953102217e-05 -0.00014249342553642374 -0.00010432684832216405 -0.00014807809559187822 -0.00011168037067712632 -8.1150722914823714e-05 -0.00010022471954410523 7.0305249870143021e-05 7.734466833976905e-05 8.1472517353734731e-05 7.5564821823253408e-05 6.9986115924453471e-05 5.9264037491270553e-05 5.2777815262459341e-05 6.6192457425404499e-05 4.6691076042543123e-05 5.4660345561245629e-05 3.9212979958427898e-05 5.3334428898762481e-05 4.5297623436819066e-05 5.5128612322790045e-05 5.9119856426512804e-05 5.1823438102764903e-05 4.6125786928248729e-05 3.627256046471001e-05 5.573752374794192e-05 5.1953902583077765e-05 6.3904029226729818e-05 3.615202220478272e-05 4.6018263517277795e-05 5.9368756082345846e-05 7.2634112005273718e-05 9.3323301730251164e-05 7.3046058054703221e-05 7.9018694022653049e-05 7.8267911964901275e-05 9.7393396894063765e-05 0.00011159878348196401 0.00013863582412351245 0.0001494906905254824 0.00013637723378857427 0.00012019247141871231 0.00012817838141511407 0.00015465720085383345 0.00014992060501033312 0.00026183918776423898 0.00032327624073473938 0.00031218383300945764 0.00021175667689181282 0.00011386476277219058 0.00015122477188398076 0.00019548463641853858 0.0001155586412475237 0.00012289409773911245 0.00012767451202076683 9.0356088505148021e-05 0.00011277717478745559 7.5019119836313772e-05 9.4852327222366044e-05 7.2167602402926765e-05 9.879409985547479e-05 6.0677825002922804e-05 7.5831000202387111e-05 8.5047143101282899e-05 7.1147955180109353e-05 6.2585304386951501e-05 9.5165865207980782e-05 6.7383535566453072e-05 5.7657188405211158e-05 7.8061890287671571e-05 5.2986084642786091e-05 4.1568611412838455e-05 6.0599209221527792e-05 6.3096990367182408e-05 3.9238141318401947e-05 7.3838614104536977e-05 5.4311559671825515e-05 6.2809540178658248e-05 0.00010195101353492898 8.3790115758655532e-05 8.2268354969841165e-05 9.0842816491499894e-05 0.00012114669988289945 0.00012653747696044637 0.00015361820843673841 0.00034982255286810607 5.9296871122827189e-05 0.00015050085306441557 0.00032495200351268715 0.00020583333798239797 0.020036016812772423 0.000297085576271219 0.00016091784889161483 0.049961607948205727 6.011129986608683e-05 0.0001549731962686993 0.071224064258522984 7.6720029381239043e-05 0.00011916116945702437 5.7496212346506135e-05 8.2784623309757946e-05 7.9209253807218738e-05 7.3644131735796386e-05 7.1986313284200948e-05 9.9286237736873452e-05 0.00010207252101715263 8.0830266110885223e-05 0.00011739495118093485 0.00014726821119540176 0.00015951937821392448 0.090478095895461338 0.0001555689559250735 0.00015073575600669771 0.00013542786999029858 0.0001666697893864897 0.00013092584272938698 0.10974096325691715 0.00015599187322719917 9.2924694154348863e-05 7.411881308737908e-05 0.00011938454559361542 9.8678705753816004e-05 0.0001075209455918372 6.8849236121501953e-05 6.8749427842234028e-05 7.0848596828434638e-05 4.96499660001854e-05 5.3001909601224856e-05 4.0766755287422254e-05 4.3919444506589805e-05 3.9153865813858538e-05 4.7022244599278445e-05 4.6960251518886635e-05 3.4509791814364569e-05 4.8209329976607357e-05 4.1243066676751683e-05 4.8078879694188109e-05 5.6574998362317856e-05 6.2833095161816848e-05 -7.8858419885950671e-05 -9.3245703793173526e-05 -5.5913044105474364e-05 -0.00012353929161351869 -0.00012463324088380983 -7.7671913956467388e-05 -8.0426052167413163e-05 -4.5326347476069883e-05 -2.1261660246928377e-05 8.6924184085740951e-06 -3.0889584946369644e-05 -1.4680257408900823e-05 -4.89086479994634e-05 -1.4351651074112387e-05 5.4859213469434062e-05 2.0833277424500089e-05 8.7061978680492806e-05 2.3151069996389011e-05 -1.5046020051116479e-05 4.4697520473157122e-05 3.8387421292103983e-05 0.00011533706661934684 0.00017658305855095544 0.00013246907632425602 0.00014429793769108493 7.7081724826838418e-05 0.00010290809705600806 0.0001224118054143305 6.4047606784894552e-05 6.425211710489381e-05 0.00010289788255350187 0.00010324918628789692 0.00011377064258904319 0.0001013651372460179 7.1770455532902712e-05 6.4863498473106615e-05 3.5506145732566892e-05 3.9992346408828684e-05 3.1654516909998195e-05 8.0872553801132618e-07 3.3419396689945676e-05 4.1781538108440468e-05 9.3643005010424392e-06 3.5480017464800499e-06 -2.3816317819804183e-05 -2.6924078947341938e-05 -2.6250210680322378e-05 -2.5804242490090439e-05 -4.8851105215273055e-08 1.1980877826672548e-06 -1.0030852980534143e-05 -2.373021906752152e-05 -3.300487142945778e-05 -5.1538385785157136e-05 -2.3919616578868541e-05 -3.9364824985227767e-05 -7.6082710562952113e-05 -5.6549066335725463e-05 -5.4909716719788891e-05 4.7393494805778014e-06 -1.4823359171389425e-05 1.5956025670241236e-06 -1.9136714934247546e-05 -1.7439360827052434e-05 -3.6710617338599205e-05 -3.1179605964888613e-05 -1.9923516440885965e-05 -8.9916088778282249e-06 -3.9911276519697877e-06 2.0618486967190555e-06 1.4723975270307561e-05 1.5671154041968505e-05 -3.7314149503738479e-07 1.6915615596366576e-05 4.3262730201953231e-05 5.1571198891961316e-05 6.508017042181416e-05 1.8671716162724228e-05 1.1925031699136675e-05 3.5806625671902081e-05 3.3768486907270314e-05 5.5136971853880204e-05 4.3904188580872264e-05 8.7324859905235945e-05 8.7255304819632267e-05 6.9229837202888257e-05 9.8841333398298238e-05 0.00013430567382419472 0.00010909753558099606 0.00013311440694992399 7.8129640521804565e-05 0.00010044281629392401 0.00014103113799374643 0.0001153212225153584 0.00015179223082561647 0.00013202605960183425 0.00017506028260973541 0.00018809765668354947 0.00013222438479470807 0.00010334483939423121 4.0872969338507856e-05 5.1926767685775074e-05 6.6869689172138411e-05 4.2905868035946274e-05 8.4040286676430494e-05 5.8642876556185951e-05 7.9879263154184355e-05 2.3350090659894629e-05 1.6403867827793255e-06 1.8343920821987762e-05 1.2245043888029633e-05 2.1181014434849474e-05 1.8772428103249264e-05 1.092581979639548e-05 2.2009124534377519e-05 1.3786689621175709e-05 8.7213580142152247e-06 1.1657310059335832e-05 9.9805450859864753e-06 7.3398193759493385e-06 1.190624456895743e-05 4.8090439656129844e-06 5.1819013115782589e-06 -8.5569137152985766e-06 5.8922192206192032e-05 9.8526563481705562e-05 9.4477923867686059e-05 7.9388319388790405e-05 5.0226808259324273e-05 3.6946657281043173e-05 3.4459418056677848e-05 4.5960890805164713e-05 3.5616401791146611e-05 3.5315402334193586e-05 5.920334807756045e-05 5.8854197558448011e-05 5.4844565242229587e-05 8.2109224240084315e-05 8.2474742475732938e-05 0.0001104991670157759 0.00014466652197080404 0.00017021809897877751 0.0001273076552164551 0.00015175294980920417 0.00019069468603441671 0.0001590326325439941 0.12937868422446697 0.00013890821511775573 0.00018222479338677244 0.00018253288095913995 0.14975554954939907 0.00019051353509131458 0.00020138583008011152 0.17123817333253324 0.00018064470627243007 0.00012870296821521781 0.00019252623525561105 0.00012580719720300037 0.00014716052304633012 0.00016607076628989868 0.0001352037821863248 0.00022032009095242417 0.00022478746259202052 0.00018452012150695063 0.0002297064999830338 0.1936633200727593 0.00026408401940492844 0.00024877861328832102 0.00021338159003945676 0.00024090865363558811 0.21988924983337804 0.00029742478939540854 0.00025560030230861882 0.00013317460096360636 0.00024367753392592916 0.00028761369148058995 0.00023419476780047691 0.00015817700039925855 4.7453634710130192e-05 0.00010181495956814671 4.6853459804370299e-05 9.8567089258303419e-05 6.159908635828572e-05 5.7096364882277791e-05 7.7292014403743678e-05 0.0001005859271556585 3.080120483506569e-05 4.1966476065989721e-05 3.0923902641816301e-05 4.8358170287617856e-05 2.3508845716589634e-05 2.0721725394619176e-05 -7.06592140538581e-06 7.088458340464036e-06 -1.6659905432436073e-05 4.2050407107262038e-06 1.3136442410081623e-05 6.7289271639746177e-06 4.9655966509343165e-05 1.3697797926318783e-05 2.1441319927192675e-05 5.5780565561761551e-05 2.7742841381262493e-05 3.3948514830477194e-05 4.7094600009020868e-05 5.430613622554425e-05 2.3292379375840374e-05 3.0695322767242258e-05 2.4482631621944783e-05 3.1766797734946155e-05 3.1652386761116475e-05 3.4071059803336429e-05 3.2533914881348151e-05 2.8322670139864246e-05 3.5174158104506604e-05 3.3507246475389363e-05 4.6906257226060968e-05 6.0360508206980809e-05 4.0884559237275124e-05 3.4769845900100649e-05 4.0821331750586767e-05 5.2053890531502094e-05 3.8257106102275183e-05 2.9166900124844952e-05 3.7561976451167835e-05 3.0397674661740456e-05 3.7720802826015287e-05 3.6037861165327979e-05 9.2576981442208349e-05 0.068003471394881249 9.5128416448950941e-05 8.0613659280884546e-05 7.0317740513395474e-05 4.8242196761031828e-05 5.456984126960007e-05 5.6321304995638627e-05 9.0091566239415641e-05 7.384522836516587e-05 8.492471673419294e-05 7.0221774819611768e-05 0.00010943529472042608 0.0001272698864912161 9.6159816970490999e-05 9.7207023223316939e-05 0.093369893476588833 0.0001050265025549983 0.00010603768712121194 0.079998791375174266 0.00012669045964214774 0.10848859082741588 0.00015673262926879086 0.00014041660578452495 0.00012027604585753337 7.9097208791058205e-05 9.5375577666655803e-05 0.00013178619819516368 0.00010812462065224078 7.1933875624517491e-05 0.00014404559907296434 0.00017232427556055957 0.00013614091175491612 8.8717255220797714e-05 0.00014137978678841151 0.12639252602512585 0.00017867578877154341 0.00015159564853650317 0.00011268961606969528 7.7557487547689696e-05 7.7734513704864113e-05 0.00010013286602172846 5.726559736766567e-05 2.6573675088996645e-05 2.3751419440649554e-05 3.8119100381395435e-05 4.8684301649525898e-05 2.9514033365150502e-05 2.2919520175620394e-05 4.0213728718132592e-05 7.4028047418812058e-05 8.7214676171690209e-05 6.2799802439862055e-05 7.2123141673322705e-06 4.2855902881422901e-06 5.9071509306575132e-06 6.9386613042385359e-06 4.0617190538516992e-06 6.9379794221183233e-06 1.2877380889648495e-05 5.7109729254213904e-06 9.2065891487798896e-06 9.4177169350415611e-06 7.5419929151693699e-06 -3.2492240257682957e-06 9.3808477194786202e-06 6.3496638072315162e-06 1.3433490416366349e-06 -7.1389214076067464e-06 2.3031051056177261e-06 -1.3792097275437155e-05 1.0364712378905551e-06 -2.0273612246111353e-06 -1.3357103281259116e-05 -4.3035752448628006e-06 8.7850596567351502e-06 5.7323881503075144e-06 7.5307852194115774e-06 -5.3732983286899487e-06 -4.3833760816707444e-06 7.8756168090395148e-06 -9.212688344331383e-06 -1.3863687351283556e-05 -1.957562869180909e-05 -1.6820103151283811e-05 -2.8136605745133526e-05 -1.5216340445564939e-05 5.3704712924293506e-05 4.496584295666942e-05 6.9643000034475336e-05 5.3763606640945451e-05 2.3217000763532322e-05 1.9138669911000295e-05 3.467227770662237e-05 2.838538410813345e-05 1.9533165115823755e-05 1.4251118694489848e-05 1.6166629257688674e-05 4.5740274215067163e-05 3.8136371151125271e-05 7.1024605517342907e-05 5.7606258482076865e-05 6.2812911196527717e-05 4.5885902797907245e-05 4.8840199745596386e-05 5.4039162553509365e-05 3.0280129668318334e-05 3.7423568731677175e-05 2.6792063073647837e-05 9.5179812988044864e-06 5.0265712509810911e-06 2.6129091528851942e-05 1.2360945713645521e-05 2.1661129919670096e-05 3.8500149517669419e-06 8.4970556566612426e-06 4.4651449844067097e-05 5.1876574940420321e-05 5.0594898790698711e-05 2.4809895418324433e-05 4.175963384469455e-05 -2.8532233208868399e-05 -3.8381276509133174e-05 -3.0174747833416204e-05 -3.7646894366983371e-05 -2.240830409236047e-05 -9.166589477585356e-06 -1.9925568320944623e-05 -5.0810960966077637e-06 -6.6176222471706677e-06 -9.8775607584808151e-06 -7.6924582338635129e-06 -6.2359382124395932e-06 -1.7051347312623421e-05 -2.3892951937078393e-05 -2.5345245569810548e-05 -2.3809447326671651e-05 -4.047023022089825e-05 -3.853079107562162e-05 -4.7446025690995371e-05 -7.0317560014639341e-05 -5.6691172511003085e-05 -4.8084675307041673e-05 -3.7694396577273972e-05 -3.2615951639063069e-05 -1.2676244638322931e-05 -1.1814772881075727e-05 -5.015699962535394e-06 -2.4467569720192268e-05 -2.0304884166525247e-05 -3.1778056512489614e-05 -3.267757938933024e-05 -4.8573131302484453e-05 -4.6067083749636029e-05 -6.9703014052881641e-05 2.9390251934164734e-05 6.4848116617465304e-05 2.8951427843718002e-05 2.0901202209713365e-05 2.2105762009705029e-06 7.2682171174036445e-06 2.6605555550472914e-05 1.1203875748895921e-05 -1.7156287765889835e-05 -5.8932982823863862e-06 9.9679557541092591e-06 3.7118852740849985e-05 3.7927279261109996e-05 6.8305391547836448e-05 0.00011979476640739599 8.8715189412610332e-06 0.0001447212939886623 0.01122763410264235 6.1658931877847862e-05 6.5002715850395168e-05 0.027602814982770833 9.1993066538955835e-05 0.037715260400170397 7.2678111619875626e-05 6.2044350785675061e-05 2.1995223522698962e-05 1.5716689008384997e-05 2.6400455754799505e-05 -3.5746142232810185e-06 3.7040548252088244e-05 1.2746858237217706e-05 6.6764608146962151e-05 3.4494406808066222e-05 2.5262526928601463e-05 4.651925927099689e-05 3.9697395145338823e-05 4.6808802499983501e-05 5.8270769203426577e-05 5.7956040576192538e-05 4.8441451986081421e-05 3.9971219079775887e-05 3.8640531336863284e-05 3.5012363920798779e-05 3.170484114710796e-05 2.7919170903680803e-05 3.2012554899141276e-05 2.8522248179088644e-05 2.8129164636704715e-05 2.984561900669857e-05 3.1271917206377939e-05 3.3370277208998446e-05 3.6137837339300432e-05 3.6564930951842522e-05 3.2267576055906584e-05 3.388108924565455e-05 3.5752440473702352e-05 3.0130577452776146e-05 2.9255595606258165e-05 3.7416251224493623e-05 3.7028693879590055e-05 3.6140034077213317e-05 3.0985599677323751e-05 3.2737719116283904e-05 3.8475905359909926e-05 4.4282658886764248e-05 5.1288841051659552e-05 4.2602258375747212e-05 4.1406924679298208e-05 5.8297210281615052e-05 8.4697632817067308e-05 0.057171460269667712 6.2093227896330215e-05 7.8806801769139853e-05 7.3332050182617456e-05 8.0861457064434258e-05 4.0741640545243429e-05 0.047259067945410682 7.2643325068975375e-05 5.7211042436435705e-05 7.9867609983907527e-05 3.1542374244143593e-05 2.6435905083825812e-05 2.9965692079959166e-05 4.2066946682157308e-05 
</DataArray>
</CellData>
</Piece>
</UnstructuredGrid>
</VTKFile>
