<?xml version="1.0"?>
<VTKFile type="UnstructuredGrid" version="0.1" byte_order="LittleEndian">
<UnstructuredGrid>
<Piece NumberOfPoints="3142" NumberOfCells="1054">
<Points>
<DataArray type="Float64" NumberOfComponents="3" format="ascii">
0 0 0 0.049999999999899652 0 0 0.02576622439977887 0.024532886826226379 0 0 0 0 0.02576622439977887 0.024532886826226379 0 0 0.050000000000207989 0 0.049999999999899652 0 0 0.053064897599215843 0.048131547304697528 0 0.02576622439977887 0.024532886826226379 0 0 0.050000000000207989 0 0.02576622439977887 0.024532886826226379 0 0.053064897599215843 0.048131547304697528 0 0 0.10000000000041601 0 0 0.050000000000207989 0 0.044310582753132287 0.101412518374475 0 0 0.15000000000062411 0 0 0.10000000000041601 0 0.044310582753132287 0.101412518374475 0 0.083411279318303222 0.089699755330707398 0 0.044310582753132287 0.101412518374475 0 0.053064897599215843 0.048131547304697528 0 0 0.050000000000207989 0 0.053064897599215843 0.048131547304697528 0 0.044310582753132287 0.101412518374475 0 0.083411279318303222 0.089699755330707398 0 0.065374659239632718 0.1448908038746782 0 0.044310582753132287 0.101412518374475 0 0.083411279318303222 0.089699755330707398 0 0.1053400320299198 0.12877248826361379 0 0.065374659239632718 0.1448908038746782 0 0.083411279318303222 0.089699755330707398 0 0.12372429750337779 0.095814237875728972 0 0.1053400320299198 0.12877248826361379 0 0.14332333627550789 0.14578431753966009 0 0.1053400320299198 0.12877248826361379 0 0.12372429750337779 0.095814237875728972 0 0.14618258501891079 0.062070108745602003 0 0.12372429750337779 0.095814237875728972 0 0.10266856499169109 0.044518360900210059 0 0.083411279318303222 0.089699755330707398 0 0.10266856499169109 0.044518360900210059 0 0.12372429750337779 0.095814237875728972 0 0.099999999999814668 0 0 0.14999999999970359 0 0 0.10266856499169109 0.044518360900210059 0 0.049999999999899652 0 0 0.099999999999814668 0 0 0.053064897599215843 0.048131547304697528 0 0.099999999999814668 0 0 0.10266856499169109 0.044518360900210059 0 0.053064897599215843 0.048131547304697528 0 0.083411279318303222 0.089699755330707398 0 0.053064897599215843 0.048131547304697528 0 0.10266856499169109 0.044518360900210059 0 0 0.25000000000104028 0 0 0.20000000000083221 0 0.044081577119474857 0.2271058242433576 0 0 0.20000000000083221 0 0.038512288486115001 0.1844147282893184 0 0.044081577119474857 0.2271058242433576 0 0.083105206071467416 0.20007701332709979 0 0.044081577119474857 0.2271058242433576 0 0.038512288486115001 0.1844147282893184 0 0 0.15000000000062411 0 0.065374659239632718 0.1448908038746782 0 0.038512288486115001 0.1844147282893184 0 0 0.15000000000062411 0 0.044310582753132287 0.101412518374475 0 0.065374659239632718 0.1448908038746782 0 0.083105206071467416 0.20007701332709979 0 0.038512288486115001 0.1844147282893184 0 0.065374659239632718 0.1448908038746782 0 0 0.20000000000083221 0 0 0.15000000000062411 0 0.038512288486115001 0.1844147282893184 0 0.065374659239632718 0.1448908038746782 0 0.1053400320299198 0.12877248826361379 0 0.106902708054812 0.16453234188234539 0 0.14332333627550789 0.14578431753966009 0 0.106902708054812 0.16453234188234539 0 0.1053400320299198 0.12877248826361379 0 0.083105206071467416 0.20007701332709979 0 0.065374659239632718 0.1448908038746782 0 0.106902708054812 0.16453234188234539 0 0.083105206071467416 0.20007701332709979 0 0.13737030665753211 0.20313708640667491 0 0.095326043202144745 0.24554465089224409 0 0.083105206071467416 0.20007701332709979 0 0.106902708054812 0.16453234188234539 0 0.13737030665753211 0.20313708640667491 0 0.083105206071467416 0.20007701332709979 0 0.095326043202144745 0.24554465089224409 0 0.044081577119474857 0.2271058242433576 0 0.049706944316556423 0.27522722923869108 0 0.044081577119474857 0.2271058242433576 0 0.095326043202144745 0.24554465089224409 0 0.13737030665753211 0.20313708640667491 0 0.14377654328998779 0.2442024734791064 0 0.095326043202144745 0.24554465089224409 0 0.17933913398461551 0.2350063570234002 0 0.14377654328998779 0.2442024734791064 0 0.13737030665753211 0.20313708640667491 0 0.17933913398461551 0.2350063570234002 0 0.13737030665753211 0.20313708640667491 0 0.18124454140915969 0.18790916706335251 0 0.14332333627550789 0.14578431753966009 0 0.18652628422869419 0.14162325200928061 0 0.18124454140915969 0.18790916706335251 0 0.14332333627550789 0.14578431753966009 0 0.13737030665753211 0.20313708640667491 0 0.106902708054812 0.16453234188234539 0 0.14332333627550789 0.14578431753966009 0 0.18124454140915969 0.18790916706335251 0 0.13737030665753211 0.20313708640667491 0 0.14332333627550789 0.14578431753966009 0 0.16141998738593399 0.10404039647458049 0 0.18652628422869419 0.14162325200928061 0 0.2185883431182947 0.18019736283949719 0 0.18652628422869419 0.14162325200928061 0 0.22985637510995899 0.1298347970200906 0 0.2185883431182947 0.18019736283949719 0 0.22985637510995899 0.1298347970200906 0 0.25557216766470708 0.15874861286892261 0 0.2185883431182947 0.18019736283949719 0 0.25557216766470708 0.15874861286892261 0 0.26429849586623999 0.19346700179430079 0 0.2185883431182947 0.18019736283949719 0 0.18124454140915969 0.18790916706335251 0 0.18652628422869419 0.14162325200928061 0 0.17933913398461551 0.2350063570234002 0 0.18124454140915969 0.18790916706335251 0 0.224700362040408 0.22206622194729711 0 0.2185883431182947 0.18019736283949719 0 0.224700362040408 0.22206622194729711 0 0.18124454140915969 0.18790916706335251 0 0.2185883431182947 0.18019736283949719 0 0.26429849586623999 0.19346700179430079 0 0.224700362040408 0.22206622194729711 0 0.25195515620380449 0.25883339815888678 0 0.21049769590865089 0.26857363548218488 0 0.224700362040408 0.22206622194729711 0 0.17933913398461551 0.2350063570234002 0 0.224700362040408 0.22206622194729711 0 0.21049769590865089 0.26857363548218488 0 0.14999999999970359 0 0 0.184418230509967 0.038773194583122873 0 0.14618258501891079 0.062070108745602003 0 0.19922788606653311 0.085920220746880993 0 0.14618258501891079 0.062070108745602003 0 0.184418230509967 0.038773194583122873 0 0.14999999999970359 0 0 0.19999999999955789 0 0 0.184418230509967 0.038773194583122873 0 0.14999999999970359 0 0 0.14618258501891079 0.062070108745602003 0 0.10266856499169109 0.044518360900210059 0 0.14618258501891079 0.062070108745602003 0 0.16141998738593399 0.10404039647458049 0 0.12372429750337779 0.095814237875728972 0 0.14332333627550789 0.14578431753966009 0 0.12372429750337779 0.095814237875728972 0 0.16141998738593399 0.10404039647458049 0 0.19922788606653311 0.085920220746880993 0 0.18652628422869419 0.14162325200928061 0 0.16141998738593399 0.10404039647458049 0 0.19922788606653311 0.085920220746880993 0 0.16141998738593399 0.10404039647458049 0 0.14618258501891079 0.062070108745602003 0 0.19922788606653311 0.085920220746880993 0 0.22985637510995899 0.1298347970200906 0 0.18652628422869419 0.14162325200928061 0 0.19922788606653311 0.085920220746880993 0 0.24218496799700481 0.089025544070598317 0 0.22985637510995899 0.1298347970200906 0 0.27474541102162192 0.11822029332053539 0 0.22985637510995899 0.1298347970200906 0 0.24218496799700481 0.089025544070598317 0 0.19922788606653311 0.085920220746880993 0 0.22668068146512929 0.045875643423131329 0 0.24218496799700481 0.089025544070598317 0 0.27499999999933927 0.060310814194988557 0 0.24218496799700481 0.089025544070598317 0 0.22668068146512929 0.045875643423131329 0 0.19922788606653311 0.085920220746880993 0 0.184418230509967 0.038773194583122873 0 0.22668068146512929 0.045875643423131329 0 0.19999999999955789 0 0 0.22668068146512929 0.045875643423131329 0 0.184418230509967 0.038773194583122873 0 0.19999999999955789 0 0 0.24999999999941211 0 0 0.22668068146512929 0.045875643423131329 0 0.24999999999941211 0 0 0.29999999999926641 0 0 0.27499999999933927 0.060310814194988557 0 0.24999999999941211 0 0 0.27499999999933927 0.060310814194988557 0 0.22668068146512929 0.045875643423131329 0 0.29999999999926641 0 0 0.32541448401678508 0.046215317981507749 0 0.27499999999933927 0.060310814194988557 0 0.29999999999926641 0 0 0.34999999999912063 0 0 0.32541448401678508 0.046215317981507749 0 0.35312867752657662 0.084946736076730367 0 0.32541448401678508 0.046215317981507749 0 0.3615861437013822 0.03582617922508851 0 0.35312867752657662 0.084946736076730367 0 0.3615861437013822 0.03582617922508851 0 0.39591832466117061 0.056982757562006353 0 0.34999999999912063 0 0 0.3615861437013822 0.03582617922508851 0 0.32541448401678508 0.046215317981507749 0 0.34999999999912063 0 0 0.3999999999989749 0 0 0.3615861437013822 0.03582617922508851 0 0.35312867752657662 0.084946736076730367 0 0.39823268594401579 0.1116623613130045 0 0.36246644853392812 0.1399454205365751 0 0.35312867752657662 0.084946736076730367 0 0.36246644853392812 0.1399454205365751 0 0.32215584939770009 0.1218492143506909 0 0.35312867752657662 0.084946736076730367 0 0.3096713403101819 0.085471541595262421 0 0.32541448401678508 0.046215317981507749 0 0.35312867752657662 0.084946736076730367 0 0.32215584939770009 0.1218492143506909 0 0.3096713403101819 0.085471541595262421 0 0.27474541102162192 0.11822029332053539 0 0.3096713403101819 0.085471541595262421 0 0.32215584939770009 0.1218492143506909 0 0.27499999999933927 0.060310814194988557 0 0.32541448401678508 0.046215317981507749 0 0.3096713403101819 0.085471541595262421 0 0.3096713403101819 0.085471541595262421 0 0.27474541102162192 0.11822029332053539 0 0.27499999999933927 0.060310814194988557 0 0.27499999999933927 0.060310814194988557 0 0.27474541102162192 0.11822029332053539 0 0.24218496799700481 0.089025544070598317 0 0.27474541102162192 0.11822029332053539 0 0.25557216766470708 0.15874861286892261 0 0.22985637510995899 0.1298347970200906 0 0.27474541102162192 0.11822029332053539 0 0.29336099386129338 0.15892013001050981 0 0.25557216766470708 0.15874861286892261 0 0.26429849586623999 0.19346700179430079 0 0.25557216766470708 0.15874861286892261 0 0.29336099386129338 0.15892013001050981 0 0.33084213324567391 0.16272720141332131 0 0.31255190597181792 0.19850845631528771 0 0.29336099386129338 0.15892013001050981 0 0.26429849586623999 0.19346700179430079 0 0.29336099386129338 0.15892013001050981 0 0.31255190597181792 0.19850845631528771 0 0.27474541102162192 0.11822029332053539 0 0.32215584939770009 0.1218492143506909 0 0.29336099386129338 0.15892013001050981 0 0.28040350263641872 0.23054717217092141 0 0.25195515620380449 0.25883339815888678 0 0.224700362040408 0.22206622194729711 0 0.26429849586623999 0.19346700179430079 0 0.28040350263641872 0.23054717217092141 0 0.224700362040408 0.22206622194729711 0 0.26429849586623999 0.19346700179430079 0 0.31255190597181792 0.19850845631528771 0 0.28040350263641872 0.23054717217092141 0 0.33758650185219202 0.23837101504325639 0 0.29132859388405002 0.27203693976649962 0 0.28040350263641872 0.23054717217092141 0 0.33758650185219202 0.23837101504325639 0 0.28040350263641872 0.23054717217092141 0 0.31255190597181792 0.19850845631528771 0 0.33758650185219202 0.23837101504325639 0 0.31255190597181792 0.19850845631528771 0 0.3572130504031617 0.1874703368446563 0 0.33758650185219202 0.23837101504325639 0 0.3572130504031617 0.1874703368446563 0 0.38831533174504851 0.2189834941785925 0 0.33758650185219202 0.23837101504325639 0 0.38831533174504851 0.2189834941785925 0 0.3786248352540974 0.27082301512024259 0 0.33084213324567391 0.16272720141332131 0 0.29336099386129338 0.15892013001050981 0 0.32215584939770009 0.1218492143506909 0 0.33084213324567391 0.16272720141332131 0 0.32215584939770009 0.1218492143506909 0 0.36246644853392812 0.1399454205365751 0 0.33084213324567391 0.16272720141332131 0 0.3572130504031617 0.1874703368446563 0 0.31255190597181792 0.19850845631528771 0 0.39801143831225599 0.16651381068160659 0 0.3572130504031617 0.1874703368446563 0 0.36246644853392812 0.1399454205365751 0 0.33084213324567391 0.16272720141332131 0 0.36246644853392812 0.1399454205365751 0 0.3572130504031617 0.1874703368446563 0 0.39801143831225599 0.16651381068160659 0 0.36246644853392812 0.1399454205365751 0 0.39823268594401579 0.1116623613130045 0 0.39801143831225599 0.16651381068160659 0 0.44288491854585582 0.14116182884956319 0 0.42905200079338551 0.19982395548231649 0 0.39801143831225599 0.16651381068160659 0 0.39823268594401579 0.1116623613130045 0 0.44288491854585582 0.14116182884956319 0 0.42377727103934271 0.25099357235810238 0 0.3786248352540974 0.27082301512024259 0 0.38831533174504851 0.2189834941785925 0 0.39801143831225599 0.16651381068160659 0 0.38831533174504851 0.2189834941785925 0 0.3572130504031617 0.1874703368446563 0 0.39801143831225599 0.16651381068160659 0 0.42905200079338551 0.19982395548231649 0 0.38831533174504851 0.2189834941785925 0 0.42377727103934271 0.25099357235810238 0 0.38831533174504851 0.2189834941785925 0 0.42905200079338551 0.19982395548231649 0 0.42377727103934271 0.25099357235810238 0 0.42905200079338551 0.19982395548231649 0 0.46429753744194407 0.22870891180733599 0 0.47357141910802508 0.1873585799078378 0 0.46429753744194407 0.22870891180733599 0 0.42905200079338551 0.19982395548231649 0 0.47357141910802508 0.1873585799078378 0 0.51729576145820033 0.1683240575987815 0 0.50760557329222289 0.20700468884612061 0 0.47357141910802508 0.1873585799078378 0 0.50760557329222289 0.20700468884612061 0 0.46429753744194407 0.22870891180733599 0 0.49695729691142171 0.25014895411178018 0 0.46429753744194407 0.22870891180733599 0 0.50760557329222289 0.20700468884612061 0 0.47357141910802508 0.1873585799078378 0 0.44288491854585582 0.14116182884956319 0 0.48466639505193998 0.1421439844745814 0 0.47357141910802508 0.1873585799078378 0 0.42905200079338551 0.19982395548231649 0 0.44288491854585582 0.14116182884956319 0 0.47357141910802508 0.1873585799078378 0 0.48466639505193998 0.1421439844745814 0 0.51729576145820033 0.1683240575987815 0 0.44288491854585582 0.14116182884956319 0 0.47881186583059909 0.093591717165689425 0 0.48466639505193998 0.1421439844745814 0 0.51076801031701946 0.1202837388510348 0 0.48466639505193998 0.1421439844745814 0 0.47881186583059909 0.093591717165689425 0 0.43698630808430822 0.080423614171545449 0 0.47881186583059909 0.093591717165689425 0 0.44288491854585582 0.14116182884956319 0 0.43698630808430822 0.080423614171545449 0 0.47040171442036788 0.044141676406503738 0 0.47881186583059909 0.093591717165689425 0 0.52375890611712683 0.059318771819432882 0 0.47881186583059909 0.093591717165689425 0 0.47040171442036788 0.044141676406503738 0 0.49999999999869432 0 0 0.52375890611712683 0.059318771819432882 0 0.47040171442036788 0.044141676406503738 0 0.44999999999882923 0 0 0.49999999999869432 0 0 0.47040171442036788 0.044141676406503738 0 0.44999999999882923 0 0 0.47040171442036788 0.044141676406503738 0 0.4320097814748517 0.037406712692169303 0 0.43698630808430822 0.080423614171545449 0 0.4320097814748517 0.037406712692169303 0 0.47040171442036788 0.044141676406503738 0 0.3999999999989749 0 0 0.4320097814748517 0.037406712692169303 0 0.39591832466117061 0.056982757562006353 0 0.43698630808430822 0.080423614171545449 0 0.39591832466117061 0.056982757562006353 0 0.4320097814748517 0.037406712692169303 0 0.3999999999989749 0 0 0.44999999999882923 0 0 0.4320097814748517 0.037406712692169303 0 0.3999999999989749 0 0 0.39591832466117061 0.056982757562006353 0 0.3615861437013822 0.03582617922508851 0 0.35312867752657662 0.084946736076730367 0 0.39591832466117061 0.056982757562006353 0 0.39823268594401579 0.1116623613130045 0 0.43698630808430822 0.080423614171545449 0 0.44288491854585582 0.14116182884956319 0 0.39823268594401579 0.1116623613130045 0 0.43698630808430822 0.080423614171545449 0 0.39823268594401579 0.1116623613130045 0 0.39591832466117061 0.056982757562006353 0 0.43249999999999988 0.43937499999999979 0 0.38707855792647411 0.42299362914874578 0 0.42161023666869668 0.39493916313643851 0 0.38083244760691543 0.38531983672244652 0 0.42161023666869668 0.39493916313643851 0 0.38707855792647411 0.42299362914874578 0 0.38083244760691543 0.38531983672244652 0 0.40076539126862748 0.34589349467022118 0 0.42161023666869668 0.39493916313643851 0 0.43249999999999988 0.43937499999999979 0 0.3908716102680424 0.47010282357248828 0 0.38707855792647411 0.42299362914874578 0 0.38244435121258652 0.51653317813019495 0 0.3908716102680424 0.47010282357248828 0 0.43507373378304309 0.49699695397193322 0 0.43249999999999988 0.43937499999999979 0 0.43507373378304309 0.49699695397193322 0 0.3908716102680424 0.47010282357248828 0 0.43249999999999988 0.43937499999999979 0 0.46111841286828259 0.46690301029591341 0 0.43507373378304309 0.49699695397193322 0 0.43249999999999988 0.43937499999999979 0 0.48858720058566618 0.43964267759203868 0 0.46111841286828259 0.46690301029591341 0 0.49102375406324739 0.49123754822244059 0 0.43507373378304309 0.49699695397193322 0 0.46111841286828259 0.46690301029591341 0 0.49102375406324739 0.49123754822244059 0 0.46111841286828259 0.46690301029591341 0 0.48858720058566618 0.43964267759203868 0 0.52289427570932567 0.3932284363388488 0 0.48858720058566618 0.43964267759203868 0 0.46655310992796922 0.39650496622958609 0 0.43249999999999988 0.43937499999999979 0 0.46655310992796922 0.39650496622958609 0 0.48858720058566618 0.43964267759203868 0 0.43249999999999988 0.43937499999999979 0 0.42161023666869668 0.39493916313643851 0 0.46655310992796922 0.39650496622958609 0 0.4409427642593301 0.35743108089689513 0 0.46655310992796922 0.39650496622958609 0 0.42161023666869668 0.39493916313643851 0 0.52289427570932567 0.3932284363388488 0 0.46655310992796922 0.39650496622958609 0 0.49077833859261139 0.35229981449445641 0 0.5 0.29999999999999999 0 0.49077833859261139 0.35229981449445641 0 0.46226845272279993 0.31901800744800313 0 0.4409427642593301 0.35743108089689513 0 0.46226845272279993 0.31901800744800313 0 0.49077833859261139 0.35229981449445641 0 0.4409427642593301 0.35743108089689513 0 0.41914690343363781 0.30688979866601612 0 0.46226845272279993 0.31901800744800313 0 0.4409427642593301 0.35743108089689513 0 0.49077833859261139 0.35229981449445641 0 0.46655310992796922 0.39650496622958609 0 0.5 0.29999999999999999 0 0.4604742573284204 0.27846934318264788 0 0.49695729691142171 0.25014895411178018 0 0.49695729691142171 0.25014895411178018 0 0.4604742573284204 0.27846934318264788 0 0.46429753744194407 0.22870891180733599 0 0.5 0.29999999999999999 0 0.46226845272279993 0.31901800744800313 0 0.4604742573284204 0.27846934318264788 0 0.41914690343363781 0.30688979866601612 0 0.4604742573284204 0.27846934318264788 0 0.46226845272279993 0.31901800744800313 0 0.42377727103934271 0.25099357235810238 0 0.46429753744194407 0.22870891180733599 0 0.4604742573284204 0.27846934318264788 0 0.42377727103934271 0.25099357235810238 0 0.4604742573284204 0.27846934318264788 0 0.41914690343363781 0.30688979866601612 0 0.42377727103934271 0.25099357235810238 0 0.41914690343363781 0.30688979866601612 0 0.3786248352540974 0.27082301512024259 0 0.36575549820117997 0.31677992835137742 0 0.3786248352540974 0.27082301512024259 0 0.41914690343363781 0.30688979866601612 0 0.4409427642593301 0.35743108089689513 0 0.42161023666869668 0.39493916313643851 0 0.40076539126862748 0.34589349467022118 0 0.4409427642593301 0.35743108089689513 0 0.40076539126862748 0.34589349467022118 0 0.41914690343363781 0.30688979866601612 0 0.36575549820117997 0.31677992835137742 0 0.41914690343363781 0.30688979866601612 0 0.40076539126862748 0.34589349467022118 0 0.40076539126862748 0.34589349467022118 0 0.33277555741076909 0.36432196682010132 0 0.36575549820117997 0.31677992835137742 0 0.38083244760691543 0.38531983672244652 0 0.33277555741076909 0.36432196682010132 0 0.40076539126862748 0.34589349467022118 0 0.36575549820117997 0.31677992835137742 0 0.33277555741076909 0.36432196682010132 0 0.32752639306529541 0.32610012995269699 0 0.33277555741076909 0.36432196682010132 0 0.29644548887253103 0.34914008784168082 0 0.32752639306529541 0.32610012995269699 0 0.33758650185219202 0.23837101504325639 0 0.3786248352540974 0.27082301512024259 0 0.33402499257867951 0.28911035184473982 0 0.36575549820117997 0.31677992835137742 0 0.33402499257867951 0.28911035184473982 0 0.3786248352540974 0.27082301512024259 0 0.36575549820117997 0.31677992835137742 0 0.32752639306529541 0.32610012995269699 0 0.33402499257867951 0.28911035184473982 0 0.29348325746214782 0.31350119524708198 0 0.33402499257867951 0.28911035184473982 0 0.32752639306529541 0.32610012995269699 0 0.33758650185219202 0.23837101504325639 0 0.33402499257867951 0.28911035184473982 0 0.29132859388405002 0.27203693976649962 0 0.29348325746214782 0.31350119524708198 0 0.29132859388405002 0.27203693976649962 0 0.33402499257867951 0.28911035184473982 0 0.29348325746214782 0.31350119524708198 0 0.24432083401701241 0.3006253385567515 0 0.29132859388405002 0.27203693976649962 0 0.25195515620380449 0.25883339815888678 0 0.29132859388405002 0.27203693976649962 0 0.24432083401701241 0.3006253385567515 0 0.25195515620380449 0.25883339815888678 0 0.28040350263641872 0.23054717217092141 0 0.29132859388405002 0.27203693976649962 0 0.27866744612395528 0.38416094670951489 0 0.29644548887253103 0.34914008784168082 0 0.33277555741076909 0.36432196682010132 0 0.29348325746214782 0.31350119524708198 0 0.32752639306529541 0.32610012995269699 0 0.29644548887253103 0.34914008784168082 0 0.29348325746214782 0.31350119524708198 0 0.29644548887253103 0.34914008784168082 0 0.25966125648670141 0.34351016742083729 0 0.29348325746214782 0.31350119524708198 0 0.25966125648670141 0.34351016742083729 0 0.24432083401701241 0.3006253385567515 0 0.27866744612395528 0.38416094670951489 0 0.25966125648670141 0.34351016742083729 0 0.29644548887253103 0.34914008784168082 0 0.27866744612395528 0.38416094670951489 0 0.22033343844674469 0.36963382230740238 0 0.25966125648670141 0.34351016742083729 0 0.27866744612395528 0.38416094670951489 0 0.29124338931648802 0.43334555462578611 0 0.24049127783545701 0.41270748208749802 0 0.29124338931648802 0.43334555462578611 0 0.25982634974572738 0.46097799597715272 0 0.24049127783545701 0.41270748208749802 0 0.27866744612395528 0.38416094670951489 0 0.31778888742534622 0.40581751814196781 0 0.29124338931648802 0.43334555462578611 0 0.27866744612395528 0.38416094670951489 0 0.33277555741076909 0.36432196682010132 0 0.31778888742534622 0.40581751814196781 0 0.33277555741076909 0.36432196682010132 0 0.35221190152536241 0.40457127605439203 0 0.31778888742534622 0.40581751814196781 0 0.34258405725730701 0.4444034294386992 0 0.31778888742534622 0.40581751814196781 0 0.35221190152536241 0.40457127605439203 0 0.34258405725730701 0.4444034294386992 0 0.29124338931648802 0.43334555462578611 0 0.31778888742534622 0.40581751814196781 0 0.34258405725730701 0.4444034294386992 0 0.35221190152536241 0.40457127605439203 0 0.38707855792647411 0.42299362914874578 0 0.38083244760691543 0.38531983672244652 0 0.38707855792647411 0.42299362914874578 0 0.35221190152536241 0.40457127605439203 0 0.38083244760691543 0.38531983672244652 0 0.35221190152536241 0.40457127605439203 0 0.33277555741076909 0.36432196682010132 0 0.38244435121258652 0.51653317813019495 0 0.35024835142131061 0.48654922671676981 0 0.3908716102680424 0.47010282357248828 0 0.34258405725730701 0.4444034294386992 0 0.3908716102680424 0.47010282357248828 0 0.35024835142131061 0.48654922671676981 0 0.34258405725730701 0.4444034294386992 0 0.38707855792647411 0.42299362914874578 0 0.3908716102680424 0.47010282357248828 0 0.34258405725730701 0.4444034294386992 0 0.31068898841644388 0.47541502461811092 0 0.29124338931648802 0.43334555462578611 0 0.35024835142131061 0.48654922671676981 0 0.33190227185843768 0.52715113583864037 0 0.31068898841644388 0.47541502461811092 0 0.34258405725730701 0.4444034294386992 0 0.35024835142131061 0.48654922671676981 0 0.31068898841644388 0.47541502461811092 0 0.28307294598219601 0.50789252727458634 0 0.25982634974572738 0.46097799597715272 0 0.31068898841644388 0.47541502461811092 0 0.29124338931648802 0.43334555462578611 0 0.31068898841644388 0.47541502461811092 0 0.25982634974572738 0.46097799597715272 0 0.28307294598219601 0.50789252727458634 0 0.23975172658309729 0.49475499200540818 0 0.25982634974572738 0.46097799597715272 0 0.22278230690790279 0.44824268025881547 0 0.23975172658309729 0.49475499200540818 0 0.19604738184454831 0.47787523520405789 0 0.22278230690790279 0.44824268025881547 0 0.19604738184454831 0.47787523520405789 0 0.191953871957803 0.42546416763755879 0 0.22278230690790279 0.44824268025881547 0 0.24049127783545701 0.41270748208749802 0 0.25982634974572738 0.46097799597715272 0 0.22278230690790279 0.44824268025881547 0 0.25982634974572738 0.46097799597715272 0 0.23975172658309729 0.49475499200540818 0 0.27866744612395528 0.38416094670951489 0 0.24049127783545701 0.41270748208749802 0 0.22033343844674469 0.36963382230740238 0 0.1650278706801647 0.38791388161335733 0 0.22033343844674469 0.36963382230740238 0 0.191953871957803 0.42546416763755879 0 0.22033343844674469 0.36963382230740238 0 0.24049127783545701 0.41270748208749802 0 0.191953871957803 0.42546416763755879 0 0.22278230690790279 0.44824268025881547 0 0.191953871957803 0.42546416763755879 0 0.24049127783545701 0.41270748208749802 0 0.15801167086041079 0.46008690540259539 0 0.13773355295499351 0.42497777642586831 0 0.191953871957803 0.42546416763755879 0 0.1650278706801647 0.38791388161335733 0 0.191953871957803 0.42546416763755879 0 0.13773355295499351 0.42497777642586831 0 0.1650278706801647 0.38791388161335733 0 0.13773355295499351 0.42497777642586831 0 0.1117088112799664 0.38831403004970022 0 0.15801167086041079 0.46008690540259539 0 0.113541300460994 0.46208784312094731 0 0.13773355295499351 0.42497777642586831 0 0.1216098864341134 0.50637075089503902 0 0.113541300460994 0.46208784312094731 0 0.15801167086041079 0.46008690540259539 0 0.1216098864341134 0.50637075089503902 0 0.15801167086041079 0.46008690540259539 0 0.16618607197337229 0.50652878253548905 0 0.15801167086041079 0.46008690540259539 0 0.19604738184454831 0.47787523520405789 0 0.16618607197337229 0.50652878253548905 0 0.15801167086041079 0.46008690540259539 0 0.191953871957803 0.42546416763755879 0 0.19604738184454831 0.47787523520405789 0 0.25195515620380449 0.25883339815888678 0 0.24432083401701241 0.3006253385567515 0 0.21049769590865089 0.26857363548218488 0 0.19670163708476801 0.31472518408333222 0 0.21049769590865089 0.26857363548218488 0 0.24432083401701241 0.3006253385567515 0 0.19670163708476801 0.31472518408333222 0 0.168349569971391 0.28054490850913671 0 0.21049769590865089 0.26857363548218488 0 0.19670163708476801 0.31472518408333222 0 0.22615676742807109 0.33458786033114157 0 0.18434624290945251 0.35208838264196463 0 0.19670163708476801 0.31472518408333222 0 0.24432083401701241 0.3006253385567515 0 0.22615676742807109 0.33458786033114157 0 0.24432083401701241 0.3006253385567515 0 0.25966125648670141 0.34351016742083729 0 0.22615676742807109 0.33458786033114157 0 0.22033343844674469 0.36963382230740238 0 0.22615676742807109 0.33458786033114157 0 0.25966125648670141 0.34351016742083729 0 0.22033343844674469 0.36963382230740238 0 0.18434624290945251 0.35208838264196463 0 0.22615676742807109 0.33458786033114157 0 0.1650278706801647 0.38791388161335733 0 0.18434624290945251 0.35208838264196463 0 0.22033343844674469 0.36963382230740238 0 0.1650278706801647 0.38791388161335733 0 0.14223753364722069 0.3341983344262433 0 0.18434624290945251 0.35208838264196463 0 0.1650278706801647 0.38791388161335733 0 0.1117088112799664 0.38831403004970022 0 0.14223753364722069 0.3341983344262433 0 0.19670163708476801 0.31472518408333222 0 0.18434624290945251 0.35208838264196463 0 0.14223753364722069 0.3341983344262433 0 0.19670163708476801 0.31472518408333222 0 0.14223753364722069 0.3341983344262433 0 0.168349569971391 0.28054490850913671 0 0.1247745017231483 0.27198077544791172 0 0.168349569971391 0.28054490850913671 0 0.14223753364722069 0.3341983344262433 0 0.1247745017231483 0.27198077544791172 0 0.14377654328998779 0.2442024734791064 0 0.168349569971391 0.28054490850913671 0 0.17933913398461551 0.2350063570234002 0 0.21049769590865089 0.26857363548218488 0 0.168349569971391 0.28054490850913671 0 0.17933913398461551 0.2350063570234002 0 0.168349569971391 0.28054490850913671 0 0.14377654328998779 0.2442024734791064 0 0.049706944316556423 0.27522722923869108 0 0.095326043202144745 0.24554465089224409 0 0.093851963071650835 0.30582068233324772 0 0.1247745017231483 0.27198077544791172 0 0.095326043202144745 0.24554465089224409 0 0.14377654328998779 0.2442024734791064 0 0.1247745017231483 0.27198077544791172 0 0.093851963071650835 0.30582068233324772 0 0.095326043202144745 0.24554465089224409 0 0.1247745017231483 0.27198077544791172 0 0.14223753364722069 0.3341983344262433 0 0.093851963071650835 0.30582068233324772 0 0.049706944316556423 0.27522722923869108 0 0.093851963071650835 0.30582068233324772 0 0.046389130980076937 0.32668781832131749 0 0.087545339447545459 0.35122518864182262 0 0.046389130980076937 0.32668781832131749 0 0.093851963071650835 0.30582068233324772 0 0.087545339447545459 0.35122518864182262 0 0.093851963071650835 0.30582068233324772 0 0.14223753364722069 0.3341983344262433 0 0.087545339447545459 0.35122518864182262 0 0.14223753364722069 0.3341983344262433 0 0.1117088112799664 0.38831403004970022 0 0.087545339447545459 0.35122518864182262 0 0.1117088112799664 0.38831403004970022 0 0.050583896093752537 0.38543522283434112 0 0.087545339447545459 0.35122518864182262 0 0.050583896093752537 0.38543522283434112 0 0.046389130980076937 0.32668781832131749 0 0 0.35000000000145642 0 0.046389130980076937 0.32668781832131749 0 0.050583896093752537 0.38543522283434112 0 0 0.35000000000145642 0 0 0.30000000000124832 0 0.046389130980076937 0.32668781832131749 0 0 0.30000000000124832 0 0.049706944316556423 0.27522722923869108 0 0.046389130980076937 0.32668781832131749 0 0 0.30000000000124832 0 0 0.25000000000104028 0 0.049706944316556423 0.27522722923869108 0 0 0.25000000000104028 0 0.044081577119474857 0.2271058242433576 0 0.049706944316556423 0.27522722923869108 0 0.078358742472063481 0.43365249433908948 0 0.113541300460994 0.46208784312094731 0 0.068743045408989428 0.48853989837882689 0 0.1216098864341134 0.50637075089503902 0 0.068743045408989428 0.48853989837882689 0 0.113541300460994 0.46208784312094731 0 0.113541300460994 0.46208784312094731 0 0.078358742472063481 0.43365249433908948 0 0.13773355295499351 0.42497777642586831 0 0.078358742472063481 0.43365249433908948 0 0.1117088112799664 0.38831403004970022 0 0.13773355295499351 0.42497777642586831 0 0.078358742472063481 0.43365249433908948 0 0.050583896093752537 0.38543522283434112 0 0.1117088112799664 0.38831403004970022 0 0.078358742472063481 0.43365249433908948 0 0.035463093262830522 0.42673416072819947 0 0.050583896093752537 0.38543522283434112 0 0 0.40000000000166441 0 0 0.35000000000145642 0 0.050583896093752537 0.38543522283434112 0 0 0.40000000000166441 0 0.050583896093752537 0.38543522283434112 0 0.035463093262830522 0.42673416072819947 0 0 0.45000000000187229 0 0 0.40000000000166441 0 0.035463093262830522 0.42673416072819947 0 0 0.45000000000187229 0 0.035463093262830522 0.42673416072819947 0 0.033550201249889847 0.46247875832467239 0 0 0.50000000000205869 0 0.033550201249889847 0.46247875832467239 0 0.068743045408989428 0.48853989837882689 0 0.078358742472063481 0.43365249433908948 0 0.068743045408989428 0.48853989837882689 0 0.033550201249889847 0.46247875832467239 0 0.078358742472063481 0.43365249433908948 0 0.033550201249889847 0.46247875832467239 0 0.035463093262830522 0.42673416072819947 0 0 0.50000000000205869 0 0 0.45000000000187229 0 0.033550201249889847 0.46247875832467239 0 0 0.50000000000205869 0 0.068743045408989428 0.48853989837882689 0 0.044576108720083309 0.53509043209532614 0 0 0.55000000000173355 0 0 0.50000000000205869 0 0.044576108720083309 0.53509043209532614 0 0 0.55000000000173355 0 0.044576108720083309 0.53509043209532614 0 0.034381862692950467 0.57372682250960894 0 0.077693244765132896 0.56932317963405099 0 0.034381862692950467 0.57372682250960894 0 0.044576108720083309 0.53509043209532614 0 0.068743045408989428 0.48853989837882689 0 0.085622222639554768 0.53333248912060549 0 0.044576108720083309 0.53509043209532614 0 0.1216098864341134 0.50637075089503902 0 0.085622222639554768 0.53333248912060549 0 0.068743045408989428 0.48853989837882689 0 0.077693244765132896 0.56932317963405099 0 0.044576108720083309 0.53509043209532614 0 0.085622222639554768 0.53333248912060549 0 0.077693244765132896 0.56932317963405099 0 0.085622222639554768 0.53333248912060549 0 0.1154888278694548 0.56733818459978413 0 0.085622222639554768 0.53333248912060549 0 0.1216098864341134 0.50637075089503902 0 0.1154888278694548 0.56733818459978413 0 0.077693244765132896 0.56932317963405099 0 0.1154888278694548 0.56733818459978413 0 0.1024350934457823 0.60772393977513839 0 0.086179601630648681 0.64647209519980475 0 0.050069554451969707 0.61308520079857043 0 0.1024350934457823 0.60772393977513839 0 0.077693244765132896 0.56932317963405099 0 0.1024350934457823 0.60772393977513839 0 0.050069554451969707 0.61308520079857043 0 0.077693244765132896 0.56932317963405099 0 0.050069554451969707 0.61308520079857043 0 0.034381862692950467 0.57372682250960894 0 0 0.60000000000138687 0 0 0.55000000000173355 0 0.034381862692950467 0.57372682250960894 0 0 0.65000000000104008 0 0 0.60000000000138687 0 0.050069554451969707 0.61308520079857043 0 0 0.60000000000138687 0 0.034381862692950467 0.57372682250960894 0 0.050069554451969707 0.61308520079857043 0 0 0.7000000000006934 0 0 0.65000000000104008 0 0.046634677244967337 0.671418230738282 0 0.086179601630648681 0.64647209519980475 0 0.046634677244967337 0.671418230738282 0 0.050069554451969707 0.61308520079857043 0 0 0.65000000000104008 0 0.050069554451969707 0.61308520079857043 0 0.046634677244967337 0.671418230738282 0 0 0.75000000000034661 0 0 0.7000000000006934 0 0.049706944316475897 0.72477277076253799 0 0 0.7000000000006934 0 0.046634677244967337 0.671418230738282 0 0.049706944316475897 0.72477277076253799 0 0 0.75000000000034661 0 0.049706944316475897 0.72477277076253799 0 0.04408157711937423 0.7728941757575627 0 0.049706944316475897 0.72477277076253799 0 0.1020579365089687 0.69352219419301997 0 0.090953281884486245 0.7564451946902494 0 0.1215415378367805 0.72939333680004137 0 0.090953281884486245 0.7564451946902494 0 0.1020579365089687 0.69352219419301997 0 0.049706944316475897 0.72477277076253799 0 0.046634677244967337 0.671418230738282 0 0.1020579365089687 0.69352219419301997 0 0.1215415378367805 0.72939333680004137 0 0.14335651144331049 0.75565258250209677 0 0.090953281884486245 0.7564451946902494 0 0.086179601630648681 0.64647209519980475 0 0.1020579365089687 0.69352219419301997 0 0.046634677244967337 0.671418230738282 0 0.086179601630648681 0.64647209519980475 0 0.1241190223511371 0.64391885572885044 0 0.1020579365089687 0.69352219419301997 0 0.086179601630648681 0.64647209519980475 0 0.1024350934457823 0.60772393977513839 0 0.1241190223511371 0.64391885572885044 0 0.16500388252850301 0.66612077714085194 0 0.1020579365089687 0.69352219419301997 0 0.1241190223511371 0.64391885572885044 0 0.15720202157091859 0.60665697304410315 0 0.16500388252850301 0.66612077714085194 0 0.1241190223511371 0.64391885572885044 0 0.15720202157091859 0.60665697304410315 0 0.19914261668318661 0.62286739485272158 0 0.16500388252850301 0.66612077714085194 0 0.16500388252850301 0.66612077714085194 0 0.15332765547575641 0.71200081858233666 0 0.1020579365089687 0.69352219419301997 0 0.1215415378367805 0.72939333680004137 0 0.15332765547575641 0.71200081858233666 0 0.14335651144331049 0.75565258250209677 0 0.1215415378367805 0.72939333680004137 0 0.1020579365089687 0.69352219419301997 0 0.15332765547575641 0.71200081858233666 0 0.16500388252850301 0.66612077714085194 0 0.19068556247388771 0.71028988922845504 0 0.15332765547575641 0.71200081858233666 0 0.18269480424590959 0.75905448272264375 0 0.14335651144331049 0.75565258250209677 0 0.15332765547575641 0.71200081858233666 0 0.18269480424590959 0.75905448272264375 0 0.15332765547575641 0.71200081858233666 0 0.19068556247388771 0.71028988922845504 0 0.18269480424590959 0.75905448272264375 0 0.19068556247388771 0.71028988922845504 0 0.2248999640082178 0.72584299459689172 0 0.2236846579037573 0.67380363126050236 0 0.2248999640082178 0.72584299459689172 0 0.19068556247388771 0.71028988922845504 0 0.2236846579037573 0.67380363126050236 0 0.26439878998046262 0.7048065392091396 0 0.2248999640082178 0.72584299459689172 0 0.25676291524611189 0.7436741304886243 0 0.22556077506376701 0.77837424984191617 0 0.2248999640082178 0.72584299459689172 0 0.25676291524611189 0.7436741304886243 0 0.2248999640082178 0.72584299459689172 0 0.26439878998046262 0.7048065392091396 0 0.2236846579037573 0.67380363126050236 0 0.16500388252850301 0.66612077714085194 0 0.19914261668318661 0.62286739485272158 0 0.2236846579037573 0.67380363126050236 0 0.19068556247388771 0.71028988922845504 0 0.16500388252850301 0.66612077714085194 0 0.2236846579037573 0.67380363126050236 0 0.19914261668318661 0.62286739485272158 0 0.2459498854893499 0.63248470766216769 0 0.2236846579037573 0.67380363126050236 0 0.2459498854893499 0.63248470766216769 0 0.27820712747429932 0.65530134213254643 0 0.22549374774072969 0.58452645269293457 0 0.2459498854893499 0.63248470766216769 0 0.19914261668318661 0.62286739485272158 0 0.26573297623774761 0.59828298563722948 0 0.2459498854893499 0.63248470766216769 0 0.22549374774072969 0.58452645269293457 0 0.22549374774072969 0.58452645269293457 0 0.19914261668318661 0.62286739485272158 0 0.18381867841758909 0.57774125163628387 0 0.20050006573841939 0.53248514016039872 0 0.22549374774072969 0.58452645269293457 0 0.18381867841758909 0.57774125163628387 0 0.26573297623774761 0.59828298563722948 0 0.22549374774072969 0.58452645269293457 0 0.25115337790845271 0.54719303014923271 0 0.20050006573841939 0.53248514016039872 0 0.25115337790845271 0.54719303014923271 0 0.22549374774072969 0.58452645269293457 0 0.20050006573841939 0.53248514016039872 0 0.23975172658309729 0.49475499200540818 0 0.25115337790845271 0.54719303014923271 0 0.20050006573841939 0.53248514016039872 0 0.16618607197337229 0.50652878253548905 0 0.19604738184454831 0.47787523520405789 0 0.20050006573841939 0.53248514016039872 0 0.19604738184454831 0.47787523520405789 0 0.23975172658309729 0.49475499200540818 0 0.20050006573841939 0.53248514016039872 0 0.18381867841758909 0.57774125163628387 0 0.14934928745814749 0.55042914607228977 0 0.20050006573841939 0.53248514016039872 0 0.14934928745814749 0.55042914607228977 0 0.16618607197337229 0.50652878253548905 0 0.1216098864341134 0.50637075089503902 0 0.16618607197337229 0.50652878253548905 0 0.14934928745814749 0.55042914607228977 0 0.1154888278694548 0.56733818459978413 0 0.1216098864341134 0.50637075089503902 0 0.14934928745814749 0.55042914607228977 0 0.15720202157091859 0.60665697304410315 0 0.1154888278694548 0.56733818459978413 0 0.14934928745814749 0.55042914607228977 0 0.15720202157091859 0.60665697304410315 0 0.1024350934457823 0.60772393977513839 0 0.1154888278694548 0.56733818459978413 0 0.15720202157091859 0.60665697304410315 0 0.1241190223511371 0.64391885572885044 0 0.1024350934457823 0.60772393977513839 0 0.18381867841758909 0.57774125163628387 0 0.19914261668318661 0.62286739485272158 0 0.15720202157091859 0.60665697304410315 0 0.15720202157091859 0.60665697304410315 0 0.14934928745814749 0.55042914607228977 0 0.18381867841758909 0.57774125163628387 0 0.15000000000062411 1 0 0.10000000000041601 1 0 0.10266856499240549 0.95548163909968886 0 0.083411279318375747 0.91030024466934134 0 0.10266856499240549 0.95548163909968886 0 0.053064897599294662 0.95186845269532028 0 0.050000000000207989 1 0 0.053064897599294662 0.95186845269532028 0 0.10000000000041601 1 0 0.10000000000041601 1 0 0.053064897599294662 0.95186845269532028 0 0.10266856499240549 0.95548163909968886 0 0.050000000000207989 1 0 0.025766224399875661 0.97546711317377799 0 0.053064897599294662 0.95186845269532028 0 0 1 0 0.025766224399875661 0.97546711317377799 0 0.050000000000207989 1 0 0 1 0 0 0.94999999999979179 0 0.025766224399875661 0.97546711317377799 0 0 0.94999999999979179 0 0.053064897599294662 0.95186845269532028 0 0.025766224399875661 0.97546711317377799 0 0 0.94999999999979179 0 0.0443105827531413 0.89858748162559932 0 0.053064897599294662 0.95186845269532028 0 0.083411279318375747 0.91030024466934134 0 0.053064897599294662 0.95186845269532028 0 0.0443105827531413 0.89858748162559932 0 0 0.94999999999979179 0 0 0.89999999999958358 0 0.0443105827531413 0.89858748162559932 0 0 0.89999999999958358 0 0 0.84999999999965292 0 0.0443105827531413 0.89858748162559932 0 0.083411279318375747 0.91030024466934134 0 0.0443105827531413 0.89858748162559932 0 0.065374659239661639 0.8551091961254178 0 0.083411279318375747 0.91030024466934134 0 0.065374659239661639 0.8551091961254178 0 0.10562472963403439 0.87143394428979881 0 0.083411279318375747 0.91030024466934134 0 0.1241151115713819 0.9045666525468371 0 0.10266856499240549 0.95548163909968886 0 0.14617343800780541 0.93808063414349496 0 0.10266856499240549 0.95548163909968886 0 0.1241151115713819 0.9045666525468371 0 0.14474682429600511 0.85524784522713515 0 0.1241151115713819 0.9045666525468371 0 0.10562472963403439 0.87143394428979881 0 0.083411279318375747 0.91030024466934134 0 0.10562472963403439 0.87143394428979881 0 0.1241151115713819 0.9045666525468371 0 0.14474682429600511 0.85524784522713515 0 0.10562472963403439 0.87143394428979881 0 0.1074251789111534 0.83564394292147814 0 0.083105206071452636 0.79992298667296435 0 0.1074251789111534 0.83564394292147814 0 0.065374659239661639 0.8551091961254178 0 0.065374659239661639 0.8551091961254178 0 0.1074251789111534 0.83564394292147814 0 0.10562472963403439 0.87143394428979881 0 0 0.84999999999965292 0 0.038512288486097702 0.8155852717111195 0 0.065374659239661639 0.8551091961254178 0 0 0.84999999999965292 0 0.065374659239661639 0.8551091961254178 0 0.0443105827531413 0.89858748162559932 0 0 0.84999999999965292 0 0 0.79999999999999982 0 0.038512288486097702 0.8155852717111195 0 0.083105206071452636 0.79992298667296435 0 0.065374659239661639 0.8551091961254178 0 0.038512288486097702 0.8155852717111195 0 0.083105206071452636 0.79992298667296435 0 0.038512288486097702 0.8155852717111195 0 0.04408157711937423 0.7728941757575627 0 0 0.79999999999999982 0 0.04408157711937423 0.7728941757575627 0 0.038512288486097702 0.8155852717111195 0 0 0.79999999999999982 0 0 0.75000000000034661 0 0.04408157711937423 0.7728941757575627 0 0.049706944316475897 0.72477277076253799 0 0.090953281884486245 0.7564451946902494 0 0.04408157711937423 0.7728941757575627 0 0.083105206071452636 0.79992298667296435 0 0.04408157711937423 0.7728941757575627 0 0.090953281884486245 0.7564451946902494 0 0.083105206071452636 0.79992298667296435 0 0.1382744753146134 0.79650574229207483 0 0.1074251789111534 0.83564394292147814 0 0.083105206071452636 0.79992298667296435 0 0.090953281884486245 0.7564451946902494 0 0.1382744753146134 0.79650574229207483 0 0.1382744753146134 0.79650574229207483 0 0.090953281884486245 0.7564451946902494 0 0.14335651144331049 0.75565258250209677 0 0.18269480424590959 0.75905448272264375 0 0.1382744753146134 0.79650574229207483 0 0.14335651144331049 0.75565258250209677 0 0.18269480424590959 0.75905448272264375 0 0.17777405986036951 0.81832336108265358 0 0.1382744753146134 0.79650574229207483 0 0.18269480424590959 0.75905448272264375 0 0.2248999640082178 0.72584299459689172 0 0.22556077506376701 0.77837424984191617 0 0.21858834311891909 0.81980263716112767 0 0.22556077506376701 0.77837424984191617 0 0.26104540868854792 0.81401944968719064 0 0.21858834311891909 0.81980263716112767 0 0.17777405986036951 0.81832336108265358 0 0.22556077506376701 0.77837424984191617 0 0.18269480424590959 0.75905448272264375 0 0.22556077506376701 0.77837424984191617 0 0.17777405986036951 0.81832336108265358 0 0.21858834311891909 0.81980263716112767 0 0.19741632902693801 0.86755867406447229 0 0.17777405986036951 0.81832336108265358 0 0.21858834311891909 0.81980263716112767 0 0.26104540868854792 0.81401944968719064 0 0.2401283238295133 0.85648409884788523 0 0.21858834311891909 0.81980263716112767 0 0.2401283238295133 0.85648409884788523 0 0.19741632902693801 0.86755867406447229 0 0.14474682429600511 0.85524784522713515 0 0.17777405986036951 0.81832336108265358 0 0.19741632902693801 0.86755867406447229 0 0.14474682429600511 0.85524784522713515 0 0.19741632902693801 0.86755867406447229 0 0.16206583317966519 0.89685560785156404 0 0.14474682429600511 0.85524784522713515 0 0.1382744753146134 0.79650574229207483 0 0.17777405986036951 0.81832336108265358 0 0.14474682429600511 0.85524784522713515 0 0.1074251789111534 0.83564394292147814 0 0.1382744753146134 0.79650574229207483 0 0.14474682429600511 0.85524784522713515 0 0.16206583317966519 0.89685560785156404 0 0.1241151115713819 0.9045666525468371 0 0.14617343800780541 0.93808063414349496 0 0.1241151115713819 0.9045666525468371 0 0.16206583317966519 0.89685560785156404 0 0.19901705110390991 0.9175543425573498 0 0.14617343800780541 0.93808063414349496 0 0.16206583317966519 0.89685560785156404 0 0.19901705110390991 0.9175543425573498 0 0.16206583317966519 0.89685560785156404 0 0.19741632902693801 0.86755867406447229 0 0.19901705110390991 0.9175543425573498 0 0.19741632902693801 0.86755867406447229 0 0.24536017905392571 0.90704567837671446 0 0.19741632902693801 0.86755867406447229 0 0.2401283238295133 0.85648409884788523 0 0.24536017905392571 0.90704567837671446 0 0.19901705110390991 0.9175543425573498 0 0.24536017905392571 0.90704567837671446 0 0.22850979588452081 0.95594428570238643 0 0.19901705110390991 0.9175543425573498 0 0.22850979588452081 0.95594428570238643 0 0.18474005699953849 0.96231585248064622 0 0.27609987656793722 0.94991445621608572 0 0.22850979588452081 0.95594428570238643 0 0.24536017905392571 0.90704567837671446 0 0.25000000000104028 1 0 0.20000000000083221 1 0 0.22850979588452081 0.95594428570238643 0 0.20000000000083221 1 0 0.18474005699953849 0.96231585248064622 0 0.22850979588452081 0.95594428570238643 0 0.20000000000083221 1 0 0.15000000000062411 1 0 0.18474005699953849 0.96231585248064622 0 0.19901705110390991 0.9175543425573498 0 0.18474005699953849 0.96231585248064622 0 0.14617343800780541 0.93808063414349496 0 0.15000000000062411 1 0 0.14617343800780541 0.93808063414349496 0 0.18474005699953849 0.96231585248064622 0 0.15000000000062411 1 0 0.10266856499240549 0.95548163909968886 0 0.14617343800780541 0.93808063414349496 0 0.35000000000145642 1 0 0.32544832635163229 0.95485394099568932 0 0.36184234618600131 0.96443954459096326 0 0.40000000000166441 1 0 0.35000000000145642 1 0 0.36184234618600131 0.96443954459096326 0 0.35752321586431363 0.9185439911803448 0 0.36184234618600131 0.96443954459096326 0 0.32544832635163229 0.95485394099568932 0 0.35752321586431363 0.9185439911803448 0 0.39641108128798319 0.94356127926187128 0 0.36184234618600131 0.96443954459096326 0 0.35000000000145642 1 0 0.30000000000124832 1 0 0.32544832635163229 0.95485394099568932 0 0.30000000000124832 1 0 0.25000000000104028 1 0 0.27609987656793722 0.94991445621608572 0 0.25000000000104028 1 0 0.22850979588452081 0.95594428570238643 0 0.27609987656793722 0.94991445621608572 0 0.30000000000124832 1 0 0.27609987656793722 0.94991445621608572 0 0.32544832635163229 0.95485394099568932 0 0.27609987656793722 0.94991445621608572 0 0.30864387279288652 0.89906554525974958 0 0.32544832635163229 0.95485394099568932 0 0.27270076654418179 0.87751467830216623 0 0.30864387279288652 0.89906554525974958 0 0.24536017905392571 0.90704567837671446 0 0.27609987656793722 0.94991445621608572 0 0.24536017905392571 0.90704567837671446 0 0.30864387279288652 0.89906554525974958 0 0.27270076654418179 0.87751467830216623 0 0.24536017905392571 0.90704567837671446 0 0.2401283238295133 0.85648409884788523 0 0.35752321586431363 0.9185439911803448 0 0.30864387279288652 0.89906554525974958 0 0.35864759629805099 0.87963482415279515 0 0.35752321586431363 0.9185439911803448 0 0.32544832635163229 0.95485394099568932 0 0.30864387279288652 0.89906554525974958 0 0.35752321586431363 0.9185439911803448 0 0.35864759629805099 0.87963482415279515 0 0.39767323751400468 0.89584229130535065 0 0.35864759629805099 0.87963482415279515 0 0.33403534827021109 0.84402799729020661 0 0.39536230704883951 0.84069429572832477 0 0.33403534827021109 0.84402799729020661 0 0.35642984951668422 0.80994399665655703 0 0.39536230704883951 0.84069429572832477 0 0.33403534827021109 0.84402799729020661 0 0.30857225866488791 0.81101973481716805 0 0.35642984951668422 0.80994399665655703 0 0.33403534827021109 0.84402799729020661 0 0.35864759629805099 0.87963482415279515 0 0.30864387279288652 0.89906554525974958 0 0.33403534827021109 0.84402799729020661 0 0.30864387279288652 0.89906554525974958 0 0.29209212897034281 0.84715728365233667 0 0.27270076654418179 0.87751467830216623 0 0.29209212897034281 0.84715728365233667 0 0.30864387279288652 0.89906554525974958 0 0.27270076654418179 0.87751467830216623 0 0.2401283238295133 0.85648409884788523 0 0.29209212897034281 0.84715728365233667 0 0.26104540868854792 0.81401944968719064 0 0.29209212897034281 0.84715728365233667 0 0.2401283238295133 0.85648409884788523 0 0.26104540868854792 0.81401944968719064 0 0.30857225866488791 0.81101973481716805 0 0.29209212897034281 0.84715728365233667 0 0.33403534827021109 0.84402799729020661 0 0.29209212897034281 0.84715728365233667 0 0.30857225866488791 0.81101973481716805 0 0.26104540868854792 0.81401944968719064 0 0.2792923945214143 0.77665808831789485 0 0.30857225866488791 0.81101973481716805 0 0.33123028043633618 0.77629643437932982 0 0.30857225866488791 0.81101973481716805 0 0.2792923945214143 0.77665808831789485 0 0.26104540868854792 0.81401944968719064 0 0.22556077506376701 0.77837424984191617 0 0.2792923945214143 0.77665808831789485 0 0.25676291524611189 0.7436741304886243 0 0.29904318922293632 0.74132814928635593 0 0.2792923945214143 0.77665808831789485 0 0.25676291524611189 0.7436741304886243 0 0.2792923945214143 0.77665808831789485 0 0.22556077506376701 0.77837424984191617 0 0.33123028043633618 0.77629643437932982 0 0.2792923945214143 0.77665808831789485 0 0.29904318922293632 0.74132814928635593 0 0.33123028043633618 0.77629643437932982 0 0.29904318922293632 0.74132814928635593 0 0.35415581127540569 0.73730480045900215 0 0.33123028043633618 0.77629643437932982 0 0.35642984951668422 0.80994399665655703 0 0.30857225866488791 0.81101973481716805 0 0.33123028043633618 0.77629643437932982 0 0.38586766253264881 0.78219501014812498 0 0.35642984951668422 0.80994399665655703 0 0.33123028043633618 0.77629643437932982 0 0.35415581127540569 0.73730480045900215 0 0.38586766253264881 0.78219501014812498 0 0.40326160981139969 0.73346192995102844 0 0.42676259796334498 0.76772545931379299 0 0.38586766253264881 0.78219501014812498 0 0.40326160981139969 0.73346192995102844 0 0.38586766253264881 0.78219501014812498 0 0.35415581127540569 0.73730480045900215 0 0.39536230704883951 0.84069429572832477 0 0.38586766253264881 0.78219501014812498 0 0.42609163930740518 0.80361684430568059 0 0.39536230704883951 0.84069429572832477 0 0.35642984951668422 0.80994399665655703 0 0.38586766253264881 0.78219501014812498 0 0.38586766253264881 0.78219501014812498 0 0.42676259796334498 0.76772545931379299 0 0.42609163930740518 0.80361684430568059 0 0.4656888918609538 0.78493261229743638 0 0.42676259796334498 0.76772545931379299 0 0.45582236402875981 0.73896743678908217 0 0.4656888918609538 0.78493261229743638 0 0.45582236402875981 0.73896743678908217 0 0.50945740445113552 0.75476055527778108 0 0.4656888918609538 0.78493261229743638 0 0.50945740445113552 0.75476055527778108 0 0.50731287292894423 0.78963574450233831 0 0.4656888918609538 0.78493261229743638 0 0.50731287292894423 0.78963574450233831 0 0.50627822638148745 0.8263979829520941 0 0.4656888918609538 0.78493261229743638 0 0.45677673713123867 0.84253684404072415 0 0.42609163930740518 0.80361684430568059 0 0.4656888918609538 0.78493261229743638 0 0.42609163930740518 0.80361684430568059 0 0.42676259796334498 0.76772545931379299 0 0.4656888918609538 0.78493261229743638 0 0.50627822638148745 0.8263979829520941 0 0.45677673713123867 0.84253684404072415 0 0.50202631463681879 0.87892870825713787 0 0.45677673713123867 0.84253684404072415 0 0.50627822638148745 0.8263979829520941 0 0.50202631463681879 0.87892870825713787 0 0.44003836461056539 0.88093474584252718 0 0.45677673713123867 0.84253684404072415 0 0.39536230704883951 0.84069429572832477 0 0.45677673713123867 0.84253684404072415 0 0.44003836461056539 0.88093474584252718 0 0.39536230704883951 0.84069429572832477 0 0.44003836461056539 0.88093474584252718 0 0.39767323751400468 0.89584229130535065 0 0.39536230704883951 0.84069429572832477 0 0.42609163930740518 0.80361684430568059 0 0.45677673713123867 0.84253684404072415 0 0.39536230704883951 0.84069429572832477 0 0.39767323751400468 0.89584229130535065 0 0.35864759629805099 0.87963482415279515 0 0.35752321586431363 0.9185439911803448 0 0.39767323751400468 0.89584229130535065 0 0.39641108128798319 0.94356127926187128 0 0.4367309254023824 0.92065556789053882 0 0.39641108128798319 0.94356127926187128 0 0.39767323751400468 0.89584229130535065 0 0.4367309254023824 0.92065556789053882 0 0.39767323751400468 0.89584229130535065 0 0.44003836461056539 0.88093474584252718 0 0.4367309254023824 0.92065556789053882 0 0.44003836461056539 0.88093474584252718 0 0.47401147028110507 0.91529957330468115 0 0.50202631463681879 0.87892870825713787 0 0.47401147028110507 0.91529957330468115 0 0.44003836461056539 0.88093474584252718 0 0.52122150208832174 0.94089974453840242 0 0.47135117303824892 0.95556877749289892 0 0.47401147028110507 0.91529957330468115 0 0.50202631463681879 0.87892870825713787 0 0.52122150208832174 0.94089974453840242 0 0.47401147028110507 0.91529957330468115 0 0.4367309254023824 0.92065556789053882 0 0.47401147028110507 0.91529957330468115 0 0.47135117303824892 0.95556877749289892 0 0.4367309254023824 0.92065556789053882 0 0.47135117303824892 0.95556877749289892 0 0.4308986359464303 0.96395712492906194 0 0.50000000000205869 1 0 0.47135117303824892 0.95556877749289892 0 0.52122150208832174 0.94089974453840242 0 0.50000000000205869 1 0 0.45000000000187229 1 0 0.47135117303824892 0.95556877749289892 0 0.45000000000187229 1 0 0.4308986359464303 0.96395712492906194 0 0.47135117303824892 0.95556877749289892 0 0.45000000000187229 1 0 0.40000000000166441 1 0 0.4308986359464303 0.96395712492906194 0 0.40000000000166441 1 0 0.39641108128798319 0.94356127926187128 0 0.4308986359464303 0.96395712492906194 0 0.4367309254023824 0.92065556789053882 0 0.4308986359464303 0.96395712492906194 0 0.39641108128798319 0.94356127926187128 0 0.40000000000166441 1 0 0.36184234618600131 0.96443954459096326 0 0.39641108128798319 0.94356127926187128 0 0.33122374654748771 0.57588941099433744 0 0.35765792684946668 0.6000687869219653 0 0.31502927232353312 0.6134992213375432 0 0.35864735590330371 0.63903383440414463 0 0.31502927232353312 0.6134992213375432 0 0.35765792684946668 0.6000687869219653 0 0.35864735590330371 0.63903383440414463 0 0.35765792684946668 0.6000687869219653 0 0.39743091024207589 0.6239520004230239 0 0.33122374654748771 0.57588941099433744 0 0.37272913873093971 0.56192925302619479 0 0.35765792684946668 0.6000687869219653 0 0.38244435121258652 0.51653317813019495 0 0.37272913873093971 0.56192925302619479 0 0.33190227185843768 0.52715113583864037 0 0.33122374654748771 0.57588941099433744 0 0.33190227185843768 0.52715113583864037 0 0.37272913873093971 0.56192925302619479 0 0.38244435121258652 0.51653317813019495 0 0.33190227185843768 0.52715113583864037 0 0.35024835142131061 0.48654922671676981 0 0.33122374654748771 0.57588941099433744 0 0.29110487519241501 0.56588143995431495 0 0.33190227185843768 0.52715113583864037 0 0.28307294598219601 0.50789252727458634 0 0.33190227185843768 0.52715113583864037 0 0.29110487519241501 0.56588143995431495 0 0.31068898841644388 0.47541502461811092 0 0.33190227185843768 0.52715113583864037 0 0.28307294598219601 0.50789252727458634 0 0.28307294598219601 0.50789252727458634 0 0.25115337790845271 0.54719303014923271 0 0.23975172658309729 0.49475499200540818 0 0.28307294598219601 0.50789252727458634 0 0.29110487519241501 0.56588143995431495 0 0.25115337790845271 0.54719303014923271 0 0.26573297623774761 0.59828298563722948 0 0.25115337790845271 0.54719303014923271 0 0.29110487519241501 0.56588143995431495 0 0.33122374654748771 0.57588941099433744 0 0.31502927232353312 0.6134992213375432 0 0.29110487519241501 0.56588143995431495 0 0.26573297623774761 0.59828298563722948 0 0.29110487519241501 0.56588143995431495 0 0.31502927232353312 0.6134992213375432 0 0.26573297623774761 0.59828298563722948 0 0.31502927232353312 0.6134992213375432 0 0.27820712747429932 0.65530134213254643 0 0.26573297623774761 0.59828298563722948 0 0.27820712747429932 0.65530134213254643 0 0.2459498854893499 0.63248470766216769 0 0.2236846579037573 0.67380363126050236 0 0.27820712747429932 0.65530134213254643 0 0.26439878998046262 0.7048065392091396 0 0.31378396441836959 0.70157213313026345 0 0.27820712747429932 0.65530134213254643 0 0.32263089806001177 0.66003674931826484 0 0.31378396441836959 0.70157213313026345 0 0.26439878998046262 0.7048065392091396 0 0.27820712747429932 0.65530134213254643 0 0.27820712747429932 0.65530134213254643 0 0.31502927232353312 0.6134992213375432 0 0.32263089806001177 0.66003674931826484 0 0.25676291524611189 0.7436741304886243 0 0.26439878998046262 0.7048065392091396 0 0.29904318922293632 0.74132814928635593 0 0.31378396441836959 0.70157213313026345 0 0.29904318922293632 0.74132814928635593 0 0.26439878998046262 0.7048065392091396 0 0.31378396441836959 0.70157213313026345 0 0.35415581127540569 0.73730480045900215 0 0.29904318922293632 0.74132814928635593 0 0.31378396441836959 0.70157213313026345 0 0.36622285152418499 0.69092437780804039 0 0.35415581127540569 0.73730480045900215 0 0.40326160981139969 0.73346192995102844 0 0.35415581127540569 0.73730480045900215 0 0.36622285152418499 0.69092437780804039 0 0.35864735590330371 0.63903383440414463 0 0.32263089806001177 0.66003674931826484 0 0.31502927232353312 0.6134992213375432 0 0.31378396441836959 0.70157213313026345 0 0.32263089806001177 0.66003674931826484 0 0.36622285152418499 0.69092437780804039 0 0.35864735590330371 0.63903383440414463 0 0.36622285152418499 0.69092437780804039 0 0.32263089806001177 0.66003674931826484 0 0.35864735590330371 0.63903383440414463 0 0.3977710372045391 0.65868194622830212 0 0.36622285152418499 0.69092437780804039 0 0.35864735590330371 0.63903383440414463 0 0.39743091024207589 0.6239520004230239 0 0.3977710372045391 0.65868194622830212 0 0.36622285152418499 0.69092437780804039 0 0.3977710372045391 0.65868194622830212 0 0.43323420005758778 0.6913544522562407 0 0.43846182030517877 0.64845797726506715 0 0.43323420005758778 0.6913544522562407 0 0.3977710372045391 0.65868194622830212 0 0.43846182030517877 0.64845797726506715 0 0.39743091024207589 0.6239520004230239 0 0.43545892161006339 0.61093128915313821 0 0.43846182030517877 0.64845797726506715 0 0.3977710372045391 0.65868194622830212 0 0.39743091024207589 0.6239520004230239 0 0.40326160981139969 0.73346192995102844 0 0.36622285152418499 0.69092437780804039 0 0.43323420005758778 0.6913544522562407 0 0.40326160981139969 0.73346192995102844 0 0.43323420005758778 0.6913544522562407 0 0.45582236402875981 0.73896743678908217 0 0.40326160981139969 0.73346192995102844 0 0.45582236402875981 0.73896743678908217 0 0.42676259796334498 0.76772545931379299 0 0.5 0.69999999999999996 0 0.45582236402875981 0.73896743678908217 0 0.43323420005758778 0.6913544522562407 0 0.5 0.69999999999999996 0 0.50945740445113552 0.75476055527778108 0 0.45582236402875981 0.73896743678908217 0 0.5 0.69999999999999996 0 0.43323420005758778 0.6913544522562407 0 0.47913475093885149 0.66010775372412711 0 0.43846182030517877 0.64845797726506715 0 0.47095389620662098 0.61892551373708504 0 0.47913475093885149 0.66010775372412711 0 0.43846182030517877 0.64845797726506715 0 0.43545892161006339 0.61093128915313821 0 0.47095389620662098 0.61892551373708504 0 0.43846182030517877 0.64845797726506715 0 0.47913475093885149 0.66010775372412711 0 0.43323420005758778 0.6913544522562407 0 0.50715858906372158 0.63295939104129484 0 0.47913475093885149 0.66010775372412711 0 0.47095389620662098 0.61892551373708504 0 0.50715858906372158 0.63295939104129484 0 0.47095389620662098 0.61892551373708504 0 0.5166924242153631 0.59825134841919447 0 0.46666084890304671 0.57634471035397938 0 0.5166924242153631 0.59825134841919447 0 0.47095389620662098 0.61892551373708504 0 0.46666084890304671 0.57634471035397938 0 0.47095389620662098 0.61892551373708504 0 0.43545892161006339 0.61093128915313821 0 0.4089290844030305 0.58728915500154233 0 0.43545892161006339 0.61093128915313821 0 0.39743091024207589 0.6239520004230239 0 0.43545892161006339 0.61093128915313821 0 0.4089290844030305 0.58728915500154233 0 0.46666084890304671 0.57634471035397938 0 0.4089290844030305 0.58728915500154233 0 0.42644501560315817 0.54603747078095544 0 0.46666084890304671 0.57634471035397938 0 0.4089290844030305 0.58728915500154233 0 0.37272913873093971 0.56192925302619479 0 0.42644501560315817 0.54603747078095544 0 0.4089290844030305 0.58728915500154233 0 0.35765792684946668 0.6000687869219653 0 0.37272913873093971 0.56192925302619479 0 0.4089290844030305 0.58728915500154233 0 0.39743091024207589 0.6239520004230239 0 0.35765792684946668 0.6000687869219653 0 0.38244435121258652 0.51653317813019495 0 0.42644501560315817 0.54603747078095544 0 0.37272913873093971 0.56192925302619479 0 0.38244435121258652 0.51653317813019495 0 0.43507373378304309 0.49699695397193322 0 0.42644501560315817 0.54603747078095544 0 0.46666084890304671 0.57634471035397938 0 0.47793794143994173 0.52940715638744962 0 0.53245488764484505 0.55078124999999989 0 0.49102375406324739 0.49123754822244059 0 0.47793794143994173 0.52940715638744962 0 0.43507373378304309 0.49699695397193322 0 0.43507373378304309 0.49699695397193322 0 0.47793794143994173 0.52940715638744962 0 0.42644501560315817 0.54603747078095544 0 0.46666084890304671 0.57634471035397938 0 0.42644501560315817 0.54603747078095544 0 0.47793794143994173 0.52940715638744962 0 0.49102375406324739 0.49123754822244059 0 0.53330375813596242 0.50827942741749099 0 0.47793794143994173 0.52940715638744962 0 0.53245488764484505 0.55078124999999989 0 0.47793794143994173 0.52940715638744962 0 0.53330375813596242 0.50827942741749099 0 0.53245488764484505 0.55078124999999989 0 0.53330375813596242 0.50827942741749099 0 0.57435499076887508 0.54267261987897775 0 0.57412547362576272 0.58273804879550706 0 0.53245488764484505 0.55078124999999989 0 0.57435499076887508 0.54267261987897775 0 0.57611405284611883 0.50165903596042916 0 0.57435499076887508 0.54267261987897775 0 0.53330375813596242 0.50827942741749099 0 0.57611405284611883 0.50165903596042916 0 0.62042975506801734 0.54295974692364424 0 0.57435499076887508 0.54267261987897775 0 0.57412547362576272 0.58273804879550706 0 0.57435499076887508 0.54267261987897775 0 0.62042975506801734 0.54295974692364424 0 0.57611405284611883 0.50165903596042916 0 0.61547661924074692 0.48539576058873962 0 0.62042975506801734 0.54295974692364424 0 0.6405463747586706 0.63290524857395714 0 0.5991018319127801 0.62925360607495295 0 0.63065402604362242 0.59661356661633302 0 0.57412547362576272 0.58273804879550706 0 0.63065402604362242 0.59661356661633302 0 0.5991018319127801 0.62925360607495295 0 0.57412547362576272 0.58273804879550706 0 0.62042975506801734 0.54295974692364424 0 0.63065402604362242 0.59661356661633302 0 0.57412547362576272 0.58273804879550706 0 0.5991018319127801 0.62925360607495295 0 0.5498280205245758 0.6290146943450976 0 0.46666084890304671 0.57634471035397938 0 0.53245488764484505 0.55078124999999989 0 0.5166924242153631 0.59825134841919447 0 0.57412547362576272 0.58273804879550706 0 0.5498280205245758 0.6290146943450976 0 0.5166924242153631 0.59825134841919447 0 0.57412547362576272 0.58273804879550706 0 0.5166924242153631 0.59825134841919447 0 0.53245488764484505 0.55078124999999989 0 0.50715858906372158 0.63295939104129484 0 0.5166924242153631 0.59825134841919447 0 0.5498280205245758 0.6290146943450976 0 0.50715858906372158 0.63295939104129484 0 0.52584555706968406 0.66664215091846768 0 0.47913475093885149 0.66010775372412711 0 0.50715858906372158 0.63295939104129484 0 0.5498280205245758 0.6290146943450976 0 0.52584555706968406 0.66664215091846768 0 0.5 0.69999999999999996 0 0.47913475093885149 0.66010775372412711 0 0.52584555706968406 0.66664215091846768 0 0.54999999999999993 0.69999999999999996 0 0.52584555706968406 0.66664215091846768 0 0.57484956128872922 0.66573805030881994 0 0.57484956128872922 0.66573805030881994 0 0.52584555706968406 0.66664215091846768 0 0.5498280205245758 0.6290146943450976 0 0.50945740445113552 0.75476055527778108 0 0.5 0.69999999999999996 0 0.55363780716230748 0.74348740161571747 0 0.5 0.69999999999999996 0 0.52584555706968406 0.66664215091846768 0 0.54999999999999993 0.69999999999999996 0 0.5 0.69999999999999996 0 0.54999999999999993 0.69999999999999996 0 0.5 0.69999999999999996 0 0.54999999999999993 0.69999999999999996 0 0.55363780716230748 0.74348740161571747 0 0.59999999999999976 0.69999999999999996 0 0.59636844454254345 0.75937156204589151 0 0.55363780716230748 0.74348740161571747 0 0.54999999999999993 0.69999999999999996 0 0.59999999999999976 0.69999999999999996 0 0.54999999999999993 0.69999999999999996 0 0.57484956128872922 0.66573805030881994 0 0.59999999999999976 0.69999999999999996 0 0.54999999999999993 0.69999999999999996 0 0.59999999999999976 0.69999999999999996 0 0.55363780716230748 0.74348740161571747 0 0.59999999999999976 0.69999999999999996 0 0.6499999999999998 0.69999999999999996 0 0.59999999999999976 0.69999999999999996 0 0.62460753523532009 0.66851202781000296 0 0.6499999999999998 0.69999999999999996 0 0.59999999999999976 0.69999999999999996 0 0.63221990677827677 0.73442891067859706 0 0.59636844454254345 0.75937156204589151 0 0.57484956128872922 0.66573805030881994 0 0.5498280205245758 0.6290146943450976 0 0.5991018319127801 0.62925360607495295 0 0.59999999999999976 0.69999999999999996 0 0.57484956128872922 0.66573805030881994 0 0.62460753523532009 0.66851202781000296 0 0.57484956128872922 0.66573805030881994 0 0.5991018319127801 0.62925360607495295 0 0.62460753523532009 0.66851202781000296 0 0.6405463747586706 0.63290524857395714 0 0.62460753523532009 0.66851202781000296 0 0.5991018319127801 0.62925360607495295 0 0.6405463747586706 0.63290524857395714 0 0.675261390228442 0.65996937624687813 0 0.62460753523532009 0.66851202781000296 0 0.6499999999999998 0.69999999999999996 0 0.62460753523532009 0.66851202781000296 0 0.675261390228442 0.65996937624687813 0 0.6499999999999998 0.69999999999999996 0 0.675261390228442 0.65996937624687813 0 0.69999999999999984 0.69999999999999996 0 0.6405463747586706 0.63290524857395714 0 0.67529834988829951 0.61613270668143583 0 0.675261390228442 0.65996937624687813 0 0.64753070846764316 0.77332939069435502 0 0.63221990677827677 0.73442891067859706 0 0.66427993341343905 0.73232764502436276 0 0.6499999999999998 0.69999999999999996 0 0.66427993341343905 0.73232764502436276 0 0.63221990677827677 0.73442891067859706 0 0.59999999999999976 0.69999999999999996 0 0.6499999999999998 0.69999999999999996 0 0.63221990677827677 0.73442891067859706 0 0.6499999999999998 0.69999999999999996 0 0.69999999999999984 0.69999999999999996 0 0.6499999999999998 0.69999999999999996 0 0.69999999999999984 0.69999999999999996 0 0.66427993341343905 0.73232764502436276 0 0.69999999999999984 0.69999999999999996 0 0.6916490518212759 0.75387992374886192 0 0.66427993341343905 0.73232764502436276 0 0.69999999999999984 0.69999999999999996 0 0.72501250972655151 0.74067302935308721 0 0.6916490518212759 0.75387992374886192 0 0.69999999999999984 0.69999999999999996 0 0.74999999999999989 0.69999999999999996 0 0.72501250972655151 0.74067302935308721 0 0.69999999999999984 0.69999999999999996 0 0.72500000000000064 0.67022701834392062 0 0.74999999999999989 0.69999999999999996 0 0.69999999999999984 0.69999999999999996 0 0.74999999999999989 0.69999999999999996 0 0.74999999999999989 0.69999999999999996 0 0.75841349681148107 0.75422312624214749 0 0.72501250972655151 0.74067302935308721 0 0.71406021706547751 0.63292083137662503 0 0.72500000000000064 0.67022701834392062 0 0.675261390228442 0.65996937624687813 0 0.71406021706547751 0.63292083137662503 0 0.675261390228442 0.65996937624687813 0 0.67529834988829951 0.61613270668143583 0 0.69999999999999984 0.69999999999999996 0 0.675261390228442 0.65996937624687813 0 0.72500000000000064 0.67022701834392062 0 0.71406021706547751 0.63292083137662503 0 0.74994237037456724 0.62775548192980357 0 0.72500000000000064 0.67022701834392062 0 0.7750489929959945 0.66593931409600093 0 0.72500000000000064 0.67022701834392062 0 0.74994237037456724 0.62775548192980357 0 0.71406021706547751 0.63292083137662503 0 0.71809016091162536 0.58185040402320831 0 0.74994237037456724 0.62775548192980357 0 0.77293540622714185 0.59448302402785813 0 0.74994237037456724 0.62775548192980357 0 0.71809016091162536 0.58185040402320831 0 0.71406021706547751 0.63292083137662503 0 0.67529834988829951 0.61613270668143583 0 0.71809016091162536 0.58185040402320831 0 0.67323294229744413 0.57556450033612505 0 0.67569444444444449 0.53500863336860327 0 0.71809016091162536 0.58185040402320831 0 0.67323294229744413 0.57556450033612505 0 0.71809016091162536 0.58185040402320831 0 0.67529834988829951 0.61613270668143583 0 0.7152569930854884 0.5237994455134295 0 0.77151014687832564 0.54436834383023036 0 0.71809016091162536 0.58185040402320831 0 0.7152569930854884 0.5237994455134295 0 0.73947346780852752 0.49062440112282169 0 0.77151014687832564 0.54436834383023036 0 0.7152569930854884 0.5237994455134295 0 0.67569444444444449 0.53500863336860327 0 0.69385896817107129 0.48377516041410151 0 0.7152569930854884 0.5237994455134295 0 0.71809016091162536 0.58185040402320831 0 0.67569444444444449 0.53500863336860327 0 0.67323294229744413 0.57556450033612505 0 0.62042975506801734 0.54295974692364424 0 0.67569444444444449 0.53500863336860327 0 0.6541250972820879 0.49999999999999989 0 0.69385896817107129 0.48377516041410151 0 0.67569444444444449 0.53500863336860327 0 0.6541250972820879 0.49999999999999989 0 0.67569444444444449 0.53500863336860327 0 0.62042975506801734 0.54295974692364424 0 0.6541250972820879 0.49999999999999989 0 0.62042975506801734 0.54295974692364424 0 0.61547661924074692 0.48539576058873962 0 0.67323294229744413 0.57556450033612505 0 0.63065402604362242 0.59661356661633302 0 0.62042975506801734 0.54295974692364424 0 0.6405463747586706 0.63290524857395714 0 0.63065402604362242 0.59661356661633302 0 0.67529834988829951 0.61613270668143583 0 0.67323294229744413 0.57556450033612505 0 0.67529834988829951 0.61613270668143583 0 0.63065402604362242 0.59661356661633302 0 0.60000000000138687 1 0 0.57382506491224949 0.9629411906298494 0 0.62065498684670595 0.95224934003983619 0 0.65000000000104008 1 0 0.60000000000138687 1 0 0.62065498684670595 0.95224934003983619 0 0.57724883562309992 0.92155686857100794 0 0.62065498684670595 0.95224934003983619 0 0.57382506491224949 0.9629411906298494 0 0.60000000000138687 1 0 0.55000000000173355 1 0 0.57382506491224949 0.9629411906298494 0 0.55000000000173355 1 0 0.50000000000205869 1 0 0.52122150208832174 0.94089974453840242 0 0.57724883562309992 0.92155686857100794 0 0.57382506491224949 0.9629411906298494 0 0.52122150208832174 0.94089974453840242 0 0.55000000000173355 1 0 0.52122150208832174 0.94089974453840242 0 0.57382506491224949 0.9629411906298494 0 0.57724883562309992 0.92155686857100794 0 0.52122150208832174 0.94089974453840242 0 0.54783390826260769 0.89287767010860219 0 0.50202631463681879 0.87892870825713787 0 0.54783390826260769 0.89287767010860219 0 0.52122150208832174 0.94089974453840242 0 0.55899371797446828 0.85003102233514438 0 0.5832743223239254 0.88483152652961872 0 0.54783390826260769 0.89287767010860219 0 0.57724883562309992 0.92155686857100794 0 0.54783390826260769 0.89287767010860219 0 0.5832743223239254 0.88483152652961872 0 0.57724883562309992 0.92155686857100794 0 0.5832743223239254 0.88483152652961872 0 0.61885627562261258 0.90282959257498208 0 0.57724883562309992 0.92155686857100794 0 0.61885627562261258 0.90282959257498208 0 0.62065498684670595 0.95224934003983619 0 0.61343887413683884 0.856862479058357 0 0.61885627562261258 0.90282959257498208 0 0.5832743223239254 0.88483152652961872 0 0.61343887413683884 0.856862479058357 0 0.60294066490120068 0.80851322453934582 0 0.65005442820240822 0.82644988530054031 0 0.61343887413683884 0.856862479058357 0 0.55899371797446828 0.85003102233514438 0 0.60294066490120068 0.80851322453934582 0 0.54782696902220018 0.79245182748204157 0 0.60294066490120068 0.80851322453934582 0 0.55899371797446828 0.85003102233514438 0 0.61343887413683884 0.856862479058357 0 0.5832743223239254 0.88483152652961872 0 0.55899371797446828 0.85003102233514438 0 0.50202631463681879 0.87892870825713787 0 0.55899371797446828 0.85003102233514438 0 0.54783390826260769 0.89287767010860219 0 0.50202631463681879 0.87892870825713787 0 0.50627822638148745 0.8263979829520941 0 0.55899371797446828 0.85003102233514438 0 0.54782696902220018 0.79245182748204157 0 0.55899371797446828 0.85003102233514438 0 0.50627822638148745 0.8263979829520941 0 0.54782696902220018 0.79245182748204157 0 0.50627822638148745 0.8263979829520941 0 0.50731287292894423 0.78963574450233831 0 0.54782696902220018 0.79245182748204157 0 0.50731287292894423 0.78963574450233831 0 0.50945740445113552 0.75476055527778108 0 0.54782696902220018 0.79245182748204157 0 0.50945740445113552 0.75476055527778108 0 0.55363780716230748 0.74348740161571747 0 0.54782696902220018 0.79245182748204157 0 0.55363780716230748 0.74348740161571747 0 0.59636844454254345 0.75937156204589151 0 0.54782696902220018 0.79245182748204157 0 0.59636844454254345 0.75937156204589151 0 0.60294066490120068 0.80851322453934582 0 0.64753070846764316 0.77332939069435502 0 0.60294066490120068 0.80851322453934582 0 0.59636844454254345 0.75937156204589151 0 0.64753070846764316 0.77332939069435502 0 0.59636844454254345 0.75937156204589151 0 0.63221990677827677 0.73442891067859706 0 0.64753070846764316 0.77332939069435502 0 0.65005442820240822 0.82644988530054031 0 0.60294066490120068 0.80851322453934582 0 0.64753070846764316 0.77332939069435502 0 0.68024162096458085 0.79868546898116533 0 0.65005442820240822 0.82644988530054031 0 0.64753070846764316 0.77332939069435502 0 0.6916490518212759 0.75387992374886192 0 0.68024162096458085 0.79868546898116533 0 0.64753070846764316 0.77332939069435502 0 0.66427993341343905 0.73232764502436276 0 0.6916490518212759 0.75387992374886192 0 0.6916490518212759 0.75387992374886192 0 0.72501250972655151 0.74067302935308721 0 0.72500000000000064 0.7952620967744265 0 0.72501250972655151 0.74067302935308721 0 0.75841349681148107 0.75422312624214749 0 0.72500000000000064 0.7952620967744265 0 0.72500000000000064 0.7952620967744265 0 0.68024162096458085 0.79868546898116533 0 0.6916490518212759 0.75387992374886192 0 0.72500000000000064 0.7952620967744265 0 0.68697391633157634 0.84450604838764298 0 0.68024162096458085 0.79868546898116533 0 0.72500000000000064 0.7952620967744265 0 0.72863726579783861 0.85390518901155588 0 0.68697391633157634 0.84450604838764298 0 0.72500000000000064 0.7952620967744265 0 0.76901770135486491 0.84293557325473656 0 0.72863726579783861 0.85390518901155588 0 0.7250000000005199 0.89375000000045834 0 0.68697391633157634 0.84450604838764298 0 0.72863726579783861 0.85390518901155588 0 0.7250000000005199 0.89375000000045834 0 0.66412543161245952 0.88015090885499059 0 0.68697391633157634 0.84450604838764298 0 0.68697391633157634 0.84450604838764298 0 0.66412543161245952 0.88015090885499059 0 0.65005442820240822 0.82644988530054031 0 0.68697391633157634 0.84450604838764298 0 0.65005442820240822 0.82644988530054031 0 0.68024162096458085 0.79868546898116533 0 0.61343887413683884 0.856862479058357 0 0.65005442820240822 0.82644988530054031 0 0.66412543161245952 0.88015090885499059 0 0.61343887413683884 0.856862479058357 0 0.66412543161245952 0.88015090885499059 0 0.61885627562261258 0.90282959257498208 0 0.65507451745379841 0.92229208810758578 0 0.61885627562261258 0.90282959257498208 0 0.66412543161245952 0.88015090885499059 0 0.65507451745379841 0.92229208810758578 0 0.62065498684670595 0.95224934003983619 0 0.61885627562261258 0.90282959257498208 0 0.65507451745379841 0.92229208810758578 0 0.68987011941058407 0.92105047536677087 0 0.68015064798562208 0.95924320340003011 0 0.65507451745379841 0.92229208810758578 0 0.66412543161245952 0.88015090885499059 0 0.68987011941058407 0.92105047536677087 0 0.7250000000005199 0.89375000000045834 0 0.68987011941058407 0.92105047536677087 0 0.66412543161245952 0.88015090885499059 0 0.7250000000005199 0.89375000000045834 0 0.72863726579783861 0.85390518901155588 0 0.76891166905518427 0.88835469571185499 0 0.7250000000005199 0.89375000000045834 0 0.75729602384198635 0.92353652857884294 0 0.7250000000005199 0.94981617647078953 0 0.7250000000005199 0.89375000000045834 0 0.7250000000005199 0.94981617647078953 0 0.68987011941058407 0.92105047536677087 0 0.7250000000005199 0.94981617647078953 0 0.68015064798562208 0.95924320340003011 0 0.68987011941058407 0.92105047536677087 0 0.75000000000034661 1 0 0.7000000000006934 1 0 0.7250000000005199 0.94981617647078953 0 0.75000000000034661 1 0 0.7250000000005199 0.94981617647078953 0 0.770759834363826 0.95919399014344442 0 0.7000000000006934 1 0 0.68015064798562208 0.95924320340003011 0 0.7250000000005199 0.94981617647078953 0 0.7000000000006934 1 0 0.65000000000104008 1 0 0.68015064798562208 0.95924320340003011 0 0.65507451745379841 0.92229208810758578 0 0.68015064798562208 0.95924320340003011 0 0.62065498684670595 0.95224934003983619 0 0.65000000000104008 1 0 0.62065498684670595 0.95224934003983619 0 0.68015064798562208 0.95924320340003011 0 0.84999999999965292 1 0 0.85170973911348691 0.93569607295217616 0 0.89898474358632463 0.95391965591118966 0 0.84999999999965292 1 0 0.81486180804382891 0.96321394949790495 0 0.85170973911348691 0.93569607295217616 0 0.79680861578988083 0.92656778056766709 0 0.85170973911348691 0.93569607295217616 0 0.81486180804382891 0.96321394949790495 0 0.84999999999965292 1 0 0.79999999999999982 1 0 0.81486180804382891 0.96321394949790495 0 0.79999999999999982 1 0 0.770759834363826 0.95919399014344442 0 0.81486180804382891 0.96321394949790495 0 0.79999999999999982 1 0 0.75000000000034661 1 0 0.770759834363826 0.95919399014344442 0 0.7250000000005199 0.94981617647078953 0 0.75729602384198635 0.92353652857884294 0 0.770759834363826 0.95919399014344442 0 0.79680861578988083 0.92656778056766709 0 0.81486180804382891 0.96321394949790495 0 0.770759834363826 0.95919399014344442 0 0.79680861578988083 0.92656778056766709 0 0.75729602384198635 0.92353652857884294 0 0.76891166905518427 0.88835469571185499 0 0.79680861578988083 0.92656778056766709 0 0.770759834363826 0.95919399014344442 0 0.75729602384198635 0.92353652857884294 0 0.7250000000005199 0.89375000000045834 0 0.76891166905518427 0.88835469571185499 0 0.75729602384198635 0.92353652857884294 0 0.79680861578988083 0.92656778056766709 0 0.76891166905518427 0.88835469571185499 0 0.81159157511211755 0.88795995483179491 0 0.85170973911348691 0.93569607295217616 0 0.81159157511211755 0.88795995483179491 0 0.85600844944837662 0.88483418979512773 0 0.79680861578988083 0.92656778056766709 0 0.81159157511211755 0.88795995483179491 0 0.85170973911348691 0.93569607295217616 0 0.90416666666660628 0.9041666666666166 0 0.85170973911348691 0.93569607295217616 0 0.85600844944837662 0.88483418979512773 0 0.82709327591091286 0.84937141670920724 0 0.88088768115933802 0.84674609810493673 0 0.85600844944837662 0.88483418979512773 0 0.82709327591091286 0.84937141670920724 0 0.84725310900444062 0.80779732082917555 0 0.88088768115933802 0.84674609810493673 0 0.82709327591091286 0.84937141670920724 0 0.80041942726660109 0.81543261647703358 0 0.84725310900444062 0.80779732082917555 0 0.82709327591091286 0.84937141670920724 0 0.85600844944837662 0.88483418979512773 0 0.81159157511211755 0.88795995483179491 0 0.76901770135486491 0.84293557325473656 0 0.81159157511211755 0.88795995483179491 0 0.76891166905518427 0.88835469571185499 0 0.82709327591091286 0.84937141670920724 0 0.81159157511211755 0.88795995483179491 0 0.76901770135486491 0.84293557325473656 0 0.76901770135486491 0.84293557325473656 0 0.76891166905518427 0.88835469571185499 0 0.72863726579783861 0.85390518901155588 0 0.76901770135486491 0.84293557325473656 0 0.77094201086366854 0.79647480515688507 0 0.80041942726660109 0.81543261647703358 0 0.82709327591091286 0.84937141670920724 0 0.76901770135486491 0.84293557325473656 0 0.80041942726660109 0.81543261647703358 0 0.80185942888539485 0.77452061303608133 0 0.80041942726660109 0.81543261647703358 0 0.77094201086366854 0.79647480515688507 0 0.72500000000000064 0.7952620967744265 0 0.75841349681148107 0.75422312624214749 0 0.77094201086366854 0.79647480515688507 0 0.72500000000000064 0.7952620967744265 0 0.77094201086366854 0.79647480515688507 0 0.76901770135486491 0.84293557325473656 0 0.80185942888539485 0.77452061303608133 0 0.77094201086366854 0.79647480515688507 0 0.75841349681148107 0.75422312624214749 0 0.80185942888539485 0.77452061303608133 0 0.75841349681148107 0.75422312624214749 0 0.78578450296893509 0.73292684821144505 0 0.80185942888539485 0.77452061303608133 0 0.85491058998424563 0.76004753345552634 0 0.84725310900444062 0.80779732082917555 0 0.80185942888539485 0.77452061303608133 0 0.81864958914779962 0.73589050177899629 0 0.85491058998424563 0.76004753345552634 0 0.80185942888539485 0.77452061303608133 0 0.84725310900444062 0.80779732082917555 0 0.80041942726660109 0.81543261647703358 0 0.90299850604011456 0.79563452813489832 0 0.84725310900444062 0.80779732082917555 0 0.85491058998424563 0.76004753345552634 0 0.90299850604011456 0.79563452813489832 0 0.85491058998424563 0.76004753345552634 0 0.89999166460796554 0.74528934923809909 0 0.90299850604011456 0.79563452813489832 0 0.94399509803918602 0.75600490196082126 0 0.95386563387742829 0.80414874155775029 0 0.90299850604011456 0.79563452813489832 0 0.89999166460796554 0.74528934923809909 0 0.94399509803918602 0.75600490196082126 0 0.94399509803918602 0.75600490196082126 0 0.97435614836745565 0.77499999999987745 0 0.95386563387742829 0.80414874155775029 0 0.94399509803918602 0.75600490196082126 0 0.97166519676947294 0.73337114490064459 0 0.97435614836745565 0.77499999999987745 0 1 0.74999999999993494 0 0.97435614836745565 0.77499999999987745 0 0.97166519676947294 0.73337114490064459 0 1 0.74999999999993494 0 1 0.7999999999998193 0 0.97435614836745565 0.77499999999987745 0 1 0.7999999999998193 0 0.95386563387742829 0.80414874155775029 0 0.97435614836745565 0.77499999999987745 0 1 0.84999999999982645 0 0.95391631417670719 0.89584263333814784 0 0.93677536231884972 0.85000000000000286 0 1 0.84999999999982645 0 0.93677536231884972 0.85000000000000286 0 0.95386563387742829 0.80414874155775029 0 1 0.7999999999998193 0 1 0.84999999999982645 0 0.95386563387742829 0.80414874155775029 0 0.90416666666660628 0.9041666666666166 0 0.88088768115933802 0.84674609810493673 0 0.93677536231884972 0.85000000000000286 0 0.90299850604011456 0.79563452813489832 0 0.95386563387742829 0.80414874155775029 0 0.93677536231884972 0.85000000000000286 0 0.90299850604011456 0.79563452813489832 0 0.93677536231884972 0.85000000000000286 0 0.88088768115933802 0.84674609810493673 0 0.90299850604011456 0.79563452813489832 0 0.88088768115933802 0.84674609810493673 0 0.84725310900444062 0.80779732082917555 0 0.90416666666660628 0.9041666666666166 0 0.85600844944837662 0.88483418979512773 0 0.88088768115933802 0.84674609810493673 0 0.90416666666660628 0.9041666666666166 0 0.89898474358632463 0.95391965591118966 0 0.85170973911348691 0.93569607295217616 0 0.90416666666660628 0.9041666666666166 0 0.95391631417670719 0.89584263333814784 0 0.94399509803919068 0.9439950980391687 0 0.90416666666660628 0.9041666666666166 0 0.94399509803919068 0.9439950980391687 0 0.89898474358632463 0.95391965591118966 0 0.90416666666660628 0.9041666666666166 0 0.93677536231884972 0.85000000000000286 0 0.95391631417670719 0.89584263333814784 0 1 0.84999999999982645 0 1 0.8999999999998336 0 0.95391631417670719 0.89584263333814784 0 1 0.8999999999998336 0 1 0.94999999999997109 0 0.97435614836744289 0.92499999999990257 0 1 0.8999999999998336 0 0.97435614836744289 0.92499999999990257 0 0.95391631417670719 0.89584263333814784 0 0.94399509803919068 0.9439950980391687 0 0.95391631417670719 0.89584263333814784 0 0.97435614836744289 0.92499999999990257 0 0.94399509803919068 0.9439950980391687 0 0.97435614836744289 0.92499999999990257 0 0.97166519676946206 0.96662885509935492 0 1 0.94999999999997109 0 0.97166519676946206 0.96662885509935492 0 0.97435614836744289 0.92499999999990257 0 1 1 0 0.97166519676946206 0.96662885509935492 0 1 0.94999999999997109 0 1 1 0 0.94999999999979179 1 0 0.97166519676946206 0.96662885509935492 0 0.94999999999979179 1 0 0.94399509803919068 0.9439950980391687 0 0.97166519676946206 0.96662885509935492 0 0.94999999999979179 1 0 0.89999999999958358 1 0 0.89898474358632463 0.95391965591118966 0 0.94999999999979179 1 0 0.89898474358632463 0.95391965591118966 0 0.94399509803919068 0.9439950980391687 0 0.89999999999958358 1 0 0.84999999999965292 1 0 0.89898474358632463 0.95391965591118966 0 0.86956835336234861 0.571283299838105 0 0.81723410853263523 0.59419663659258926 0 0.82862096804812391 0.55037090955459045 0 0.83758014339878906 0.63222013025741819 0 0.81723410853263523 0.59419663659258926 0 0.87159648282691515 0.61285406320581504 0 0.83758014339878906 0.63222013025741819 0 0.79884539758237771 0.62875045078114233 0 0.81723410853263523 0.59419663659258926 0 0.86956835336234861 0.571283299838105 0 0.87159648282691515 0.61285406320581504 0 0.81723410853263523 0.59419663659258926 0 0.86956835336234861 0.571283299838105 0 0.82862096804812391 0.55037090955459045 0 0.86907294890112186 0.52008116128001669 0 0.82862096804812391 0.55037090955459045 0 0.81441713509985358 0.51161854125224959 0 0.86907294890112186 0.52008116128001669 0 0.84723782639812573 0.48638347960178252 0 0.86907294890112186 0.52008116128001669 0 0.81441713509985358 0.51161854125224959 0 0.82862096804812391 0.55037090955459045 0 0.77151014687832564 0.54436834383023036 0 0.81441713509985358 0.51161854125224959 0 0.77846603114747959 0.49850927265137401 0 0.81441713509985358 0.51161854125224959 0 0.77151014687832564 0.54436834383023036 0 0.77846603114747959 0.49850927265137401 0 0.77151014687832564 0.54436834383023036 0 0.73947346780852752 0.49062440112282169 0 0.77293540622714185 0.59448302402785813 0 0.71809016091162536 0.58185040402320831 0 0.77151014687832564 0.54436834383023036 0 0.81723410853263523 0.59419663659258926 0 0.77293540622714185 0.59448302402785813 0 0.77151014687832564 0.54436834383023036 0 0.82862096804812391 0.55037090955459045 0 0.81723410853263523 0.59419663659258926 0 0.77151014687832564 0.54436834383023036 0 0.77293540622714185 0.59448302402785813 0 0.81723410853263523 0.59419663659258926 0 0.79884539758237771 0.62875045078114233 0 0.77293540622714185 0.59448302402785813 0 0.79884539758237771 0.62875045078114233 0 0.74994237037456724 0.62775548192980357 0 0.7750489929959945 0.66593931409600093 0 0.74994237037456724 0.62775548192980357 0 0.79884539758237771 0.62875045078114233 0 0.74999999999999989 0.69999999999999996 0 0.72500000000000064 0.67022701834392062 0 0.7750489929959945 0.66593931409600093 0 0.79999999999999982 0.69999999999999996 0 0.7750489929959945 0.66593931409600093 0 0.82457059160610424 0.66831947184359608 0 0.7750489929959945 0.66593931409600093 0 0.79884539758237771 0.62875045078114233 0 0.82457059160610424 0.66831947184359608 0 0.74999999999999989 0.69999999999999996 0 0.78578450296893509 0.73292684821144505 0 0.75841349681148107 0.75422312624214749 0 0.74999999999999989 0.69999999999999996 0 0.79999999999999982 0.69999999999999996 0 0.78578450296893509 0.73292684821144505 0 0.74999999999999989 0.69999999999999996 0 0.7750489929959945 0.66593931409600093 0 0.79999999999999982 0.69999999999999996 0 0.74999999999999989 0.69999999999999996 0 0.79999999999999982 0.69999999999999996 0 0.80185942888539485 0.77452061303608133 0 0.78578450296893509 0.73292684821144505 0 0.81864958914779962 0.73589050177899629 0 0.79999999999999982 0.69999999999999996 0 0.81864958914779962 0.73589050177899629 0 0.78578450296893509 0.73292684821144505 0 0.84999999999999987 0.69999999999999996 0 0.85491058998424563 0.76004753345552634 0 0.81864958914779962 0.73589050177899629 0 0.79999999999999982 0.69999999999999996 0 0.84999999999999987 0.69999999999999996 0 0.79999999999999982 0.69999999999999996 0 0.82457059160610424 0.66831947184359608 0 0.84999999999999987 0.69999999999999996 0 0.79999999999999982 0.69999999999999996 0 0.84999999999999987 0.69999999999999996 0 0.81864958914779962 0.73589050177899629 0 0.84999999999999987 0.69999999999999996 0 0.89999999999999991 0.69999999999999996 0 0.84999999999999987 0.69999999999999996 0 0.89999166460796554 0.74528934923809909 0 0.85491058998424563 0.76004753345552634 0 0.83758014339878906 0.63222013025741819 0 0.82457059160610424 0.66831947184359608 0 0.79884539758237771 0.62875045078114233 0 0.84999999999999987 0.69999999999999996 0 0.82457059160610424 0.66831947184359608 0 0.87712158428786946 0.65709029563313581 0 0.83758014339878906 0.63222013025741819 0 0.87159648282691515 0.61285406320581504 0 0.87712158428786946 0.65709029563313581 0 0.83758014339878906 0.63222013025741819 0 0.87712158428786946 0.65709029563313581 0 0.82457059160610424 0.66831947184359608 0 0.91750694127105259 0.63017627779935648 0 0.92057473616084773 0.66770436535372446 0 0.87712158428786946 0.65709029563313581 0 0.91750694127105259 0.63017627779935648 0 0.87712158428786946 0.65709029563313581 0 0.87159648282691515 0.61285406320581504 0 0.84999999999999987 0.69999999999999996 0 0.87712158428786946 0.65709029563313581 0 0.89999999999999991 0.69999999999999996 0 0.89999999999999991 0.69999999999999996 0 0.87712158428786946 0.65709029563313581 0 0.92057473616084773 0.66770436535372446 0 0.91750694127105259 0.63017627779935648 0 0.9578014258160763 0.65787212321113708 0 0.92057473616084773 0.66770436535372446 0 0.84999999999999987 0.69999999999999996 0 0.89999999999999991 0.69999999999999996 0 0.89999166460796554 0.74528934923809909 0 0.89999999999999991 0.69999999999999996 0 0.94999999999999996 0.69999999999999996 0 0.89999999999999991 0.69999999999999996 0 0.92057473616084773 0.66770436535372446 0 0.94999999999999996 0.69999999999999996 0 0.89999999999999991 0.69999999999999996 0 0.94999999999999996 0.69999999999999996 0 0.89999166460796554 0.74528934923809909 0 0.94999999999999996 0.69999999999999996 0 0.94399509803918602 0.75600490196082126 0 0.89999166460796554 0.74528934923809909 0 0.94999999999999996 0.69999999999999996 0 0.97166519676947294 0.73337114490064459 0 0.94399509803918602 0.75600490196082126 0 0.94999999999999996 0.69999999999999996 0 1 0.69999999999999996 0 1 0.69999999999999996 0 0.97166519676947294 0.73337114490064459 0 0.94999999999999996 0.69999999999999996 0 1 0.69999999999999996 0 1 0.74999999999993494 0 0.97166519676947294 0.73337114490064459 0 0.91750694127105259 0.63017627779935648 0 0.95867599106212187 0.60011091146651041 0 0.9578014258160763 0.65787212321113708 0 0.94999999999999996 0.69999999999999996 0 0.92057473616084773 0.66770436535372446 0 0.9578014258160763 0.65787212321113708 0 1 0.69999999999999996 0 0.94999999999999996 0.69999999999999996 0 0.9578014258160763 0.65787212321113708 0 1 0.69999999999999996 0 0.9578014258160763 0.65787212321113708 0 1 0.64999999999986979 0 1 0.64999999999986979 0 0.9578014258160763 0.65787212321113708 0 0.95867599106212187 0.60011091146651041 0 1 0.54999999999963112 0 0.95867599106212187 0.60011091146651041 0 0.93732437411268477 0.55911392101136159 0 1 0.59999999999973963 0 1 0.64999999999986979 0 0.95867599106212187 0.60011091146651041 0 1 0.54999999999963112 0 1 0.59999999999973963 0 0.95867599106212187 0.60011091146651041 0 0.91750694127105259 0.63017627779935648 0 0.91143117093204207 0.58709913730335972 0 0.95867599106212187 0.60011091146651041 0 0.93732437411268477 0.55911392101136159 0 0.95867599106212187 0.60011091146651041 0 0.91143117093204207 0.58709913730335972 0 0.86956835336234861 0.571283299838105 0 0.90900154012161016 0.53607784105648792 0 0.91143117093204207 0.58709913730335972 0 0.86956835336234861 0.571283299838105 0 0.91143117093204207 0.58709913730335972 0 0.87159648282691515 0.61285406320581504 0 0.91750694127105259 0.63017627779935648 0 0.87159648282691515 0.61285406320581504 0 0.91143117093204207 0.58709913730335972 0 0.91696753777131557 0.497780560203536 0 0.90900154012161016 0.53607784105648792 0 0.86907294890112186 0.52008116128001669 0 0.86956835336234861 0.571283299838105 0 0.86907294890112186 0.52008116128001669 0 0.90900154012161016 0.53607784105648792 0 0.93732437411268477 0.55911392101136159 0 0.90900154012161016 0.53607784105648792 0 0.95631871884947484 0.51827533208233789 0 0.93732437411268477 0.55911392101136159 0 0.91143117093204207 0.58709913730335972 0 0.90900154012161016 0.53607784105648792 0 0.91696753777131557 0.497780560203536 0 0.95631871884947484 0.51827533208233789 0 0.90900154012161016 0.53607784105648792 0 1 0.54999999999963112 0 0.93732437411268477 0.55911392101136159 0 0.95631871884947484 0.51827533208233789 0 1 0.49999999999950101 0 1 0.54999999999963112 0 0.95631871884947484 0.51827533208233789 0 1 0.49999999999950101 0 0.95631871884947484 0.51827533208233789 0 0.96228564064454991 0.48206450662049471 0 1 0.44999999999963131 0 1 0.49999999999950101 0 0.96228564064454991 0.48206450662049471 0 1 0.44999999999963131 0 0.96228564064454991 0.48206450662049471 0 0.93814194660195893 0.44426664081746747 0 0.91696753777131557 0.497780560203536 0 0.93814194660195893 0.44426664081746747 0 0.96228564064454991 0.48206450662049471 0 0.91696753777131557 0.497780560203536 0 0.96228564064454991 0.48206450662049471 0 0.95631871884947484 0.51827533208233789 0 1 0.34999999999993492 0 1 0.39999999999978308 0 0.95871855522754235 0.40006508612975411 0 1 0.39999999999978308 0 1 0.44999999999963131 0 0.95871855522754235 0.40006508612975411 0 1 0.44999999999963131 0 0.93814194660195893 0.44426664081746747 0 0.95871855522754235 0.40006508612975411 0 0.91750694127107502 0.36982372220068471 0 0.95871855522754235 0.40006508612975411 0 0.90594285160987287 0.4141265964174129 0 0.93814194660195893 0.44426664081746747 0 0.90594285160987287 0.4141265964174129 0 0.95871855522754235 0.40006508612975411 0 0.90594285160987287 0.4141265964174129 0 0.88594198078881503 0.46167788676578442 0 0.86411095495256451 0.42388805655111889 0 0.86411095495256451 0.42388805655111889 0 0.86844634540301924 0.38530937474099819 0 0.90594285160987287 0.4141265964174129 0 0.91750694127107502 0.36982372220068471 0 0.90594285160987287 0.4141265964174129 0 0.86844634540301924 0.38530937474099819 0 0.91696753777131557 0.497780560203536 0 0.88594198078881503 0.46167788676578442 0 0.93814194660195893 0.44426664081746747 0 0.93814194660195893 0.44426664081746747 0 0.88594198078881503 0.46167788676578442 0 0.90594285160987287 0.4141265964174129 0 0.91696753777131557 0.497780560203536 0 0.86907294890112186 0.52008116128001669 0 0.88594198078881503 0.46167788676578442 0 0.84723782639812573 0.48638347960178252 0 0.88594198078881503 0.46167788676578442 0 0.86907294890112186 0.52008116128001669 0 0.84723782639812573 0.48638347960178252 0 0.81441713509985358 0.51161854125224959 0 0.81400510706333218 0.47357325943904899 0 0.84723782639812573 0.48638347960178252 0 0.81400510706333218 0.47357325943904899 0 0.84925632466077294 0.45359738909549091 0 0.81973119833356312 0.43505687159469048 0 0.84925632466077294 0.45359738909549091 0 0.81400510706333218 0.47357325943904899 0 0.84723782639812573 0.48638347960178252 0 0.84925632466077294 0.45359738909549091 0 0.88594198078881503 0.46167788676578442 0 0.86411095495256451 0.42388805655111889 0 0.84925632466077294 0.45359738909549091 0 0.81973119833356312 0.43505687159469048 0 0.86411095495256451 0.42388805655111889 0 0.88594198078881503 0.46167788676578442 0 0.84925632466077294 0.45359738909549091 0 0.86411095495256451 0.42388805655111889 0 0.81308179852519835 0.39754945808726527 0 0.86844634540301924 0.38530937474099819 0 0.83573492347052902 0.36590755630746369 0 0.86844634540301924 0.38530937474099819 0 0.81308179852519835 0.39754945808726527 0 0.86411095495256451 0.42388805655111889 0 0.81973119833356312 0.43505687159469048 0 0.81308179852519835 0.39754945808726527 0 0.77354604466818633 0.40378688774472771 0 0.81973119833356312 0.43505687159469048 0 0.77972660463949339 0.45529290596363098 0 0.77354604466818633 0.40378688774472771 0 0.81308179852519835 0.39754945808726527 0 0.81973119833356312 0.43505687159469048 0 0.77354604466818633 0.40378688774472771 0 0.78145581580700685 0.34881365920033602 0 0.81308179852519835 0.39754945808726527 0 0.77354604466818633 0.40378688774472771 0 0.77972660463949339 0.45529290596363098 0 0.73483647259922602 0.44789725365921768 0 0.73483647259922602 0.44789725365921768 0 0.77972660463949339 0.45529290596363098 0 0.73947346780852752 0.49062440112282169 0 0.77846603114747959 0.49850927265137401 0 0.73947346780852752 0.49062440112282169 0 0.77972660463949339 0.45529290596363098 0 0.77846603114747959 0.49850927265137401 0 0.77972660463949339 0.45529290596363098 0 0.81400510706333218 0.47357325943904899 0 0.77846603114747959 0.49850927265137401 0 0.81400510706333218 0.47357325943904899 0 0.81441713509985358 0.51161854125224959 0 0.81973119833356312 0.43505687159469048 0 0.81400510706333218 0.47357325943904899 0 0.77972660463949339 0.45529290596363098 0 0.79999999999999982 0.29999999999999999 0 0.77075983436335049 0.25919399014334171 0 0.81486180804364938 0.26321394949780091 0 0.74999999999999989 0.29999999999999999 0 0.79999999999999982 0.29999999999999999 0 0.74999999999999989 0.29999999999999999 0 0.77075983436335049 0.25919399014334171 0 0.79999999999999982 0.29999999999999999 0 0.74999999999999989 0.29999999999999999 0 0.79999999999999982 0.29999999999999999 0 0.78145581580700685 0.34881365920033602 0 0.74999999999999989 0.29999999999999999 0 0.78145581580700685 0.34881365920033602 0 0.73090396928863699 0.33699297293167962 0 0.77354604466818633 0.40378688774472771 0 0.74764719760526988 0.3719647154012321 0 0.78145581580700685 0.34881365920033602 0 0.78145581580700685 0.34881365920033602 0 0.74764719760526988 0.3719647154012321 0 0.73090396928863699 0.33699297293167962 0 0.83573492347052902 0.36590755630746369 0 0.81308179852519835 0.39754945808726527 0 0.78145581580700685 0.34881365920033602 0 0.79999999999999982 0.29999999999999999 0 0.82500000000000062 0.33010209762754811 0 0.78145581580700685 0.34881365920033602 0 0.83573492347052902 0.36590755630746369 0 0.78145581580700685 0.34881365920033602 0 0.82500000000000062 0.33010209762754811 0 0.83573492347052902 0.36590755630746369 0 0.82500000000000062 0.33010209762754811 0 0.87430060258887643 0.34056085888204451 0 0.83573492347052902 0.36590755630746369 0 0.87430060258887643 0.34056085888204451 0 0.86844634540301924 0.38530937474099819 0 0.84999999999999987 0.29999999999999999 0 0.87430060258887643 0.34056085888204451 0 0.82500000000000062 0.33010209762754811 0 0.84999999999999987 0.29999999999999999 0 0.89999999999999991 0.29999999999999999 0 0.87430060258887643 0.34056085888204451 0 0.84999999999999987 0.29999999999999999 0 0.81486180804364938 0.26321394949780091 0 0.8517097391133297 0.2356960729520409 0 0.84999999999999987 0.29999999999999999 0 0.8517097391133297 0.2356960729520409 0 0.89898474358614167 0.25391965591104898 0 0.84999999999999987 0.29999999999999999 0 0.89999999999999991 0.29999999999999999 0 0.79999999999999982 0.29999999999999999 0 0.84999999999999987 0.29999999999999999 0 0.82500000000000062 0.33010209762754811 0 0.79999999999999982 0.29999999999999999 0 0.81486180804364938 0.26321394949780091 0 0.84999999999999987 0.29999999999999999 0 0.79999999999999982 0.29999999999999999 0 0.84999999999999987 0.29999999999999999 0 0.84999999999999987 0.29999999999999999 0 0.89898474358614167 0.25391965591104898 0 0.89999999999999991 0.29999999999999999 0 0.89999999999999991 0.29999999999999999 0 0.94999999999999996 0.29999999999999999 0 0.89999999999999991 0.29999999999999999 0 0.94999999999999996 0.29999999999999999 0 0.92012390126144183 0.33123581297173937 0 0.89999999999999991 0.29999999999999999 0 0.89898474358614167 0.25391965591104898 0 0.94999999999999996 0.29999999999999999 0 0.94999999999999996 0.29999999999999999 0 0.89898474358614167 0.25391965591104898 0 0.94399509803921056 0.24399509803922639 0 0.91750694127107502 0.36982372220068471 0 0.86844634540301924 0.38530937474099819 0 0.87430060258887643 0.34056085888204451 0 0.91750694127107502 0.36982372220068471 0 0.87430060258887643 0.34056085888204451 0 0.92012390126144183 0.33123581297173937 0 0.89999999999999991 0.29999999999999999 0 0.92012390126144183 0.33123581297173937 0 0.87430060258887643 0.34056085888204451 0 0.91750694127107502 0.36982372220068471 0 0.92012390126144183 0.33123581297173937 0 0.95780851984364423 0.34215720972155339 0 0.91750694127107502 0.36982372220068471 0 0.95780851984364423 0.34215720972155339 0 0.95871855522754235 0.40006508612975411 0 0.94999999999999996 0.29999999999999999 0 0.95780851984364423 0.34215720972155339 0 0.92012390126144183 0.33123581297173937 0 1 0.29999999999999999 0 0.95780851984364423 0.34215720972155339 0 0.94999999999999996 0.29999999999999999 0 1 0.29999999999999999 0 1 0.34999999999993492 0 0.95780851984364423 0.34215720972155339 0 1 0.34999999999993492 0 0.95871855522754235 0.40006508612975411 0 0.95780851984364423 0.34215720972155339 0 0.94999999999999996 0.29999999999999999 0 0.94399509803921056 0.24399509803922639 0 0.97166519676951801 0.26662885509932011 0 0.94999999999999996 0.29999999999999999 0 1 0.29999999999999999 0 1 0.29999999999999999 0 0.94999999999999996 0.29999999999999999 0 0.97166519676951801 0.26662885509932011 0 1 0.29999999999999999 0 0.97166519676951801 0.26662885509932011 0 1 0.24999999999987299 0 1 0.24999999999987299 0 0.97166519676951801 0.26662885509932011 0 0.97435614836740092 0.22499999999981049 0 1 0.19999999999974799 0 1 0.24999999999987299 0 0.97435614836740092 0.22499999999981049 0 0.94399509803921056 0.24399509803922639 0 0.95391631417672862 0.19584263333809451 0 0.97435614836740092 0.22499999999981049 0 0.94399509803921056 0.24399509803922639 0 0.97435614836740092 0.22499999999981049 0 0.97166519676951801 0.26662885509932011 0 1 0.19999999999974799 0 0.97435614836740092 0.22499999999981049 0 0.95391631417672862 0.19584263333809451 0 1 0.14999999999961891 0 0.95391631417672862 0.19584263333809451 0 0.93677536231883773 0.14999999999999089 0 1 0.14999999999961891 0 0.93677536231883773 0.14999999999999089 0 0.95386563387744361 0.1041487415577465 0 1 0.14999999999961891 0 1 0.19999999999974799 0 0.95391631417672862 0.19584263333809451 0 0.90416666666668166 0.20416666666667119 0 0.93677536231883773 0.14999999999999089 0 0.95391631417672862 0.19584263333809451 0 0.90416666666668166 0.20416666666667119 0 0.88088768115941807 0.14674609810479519 0 0.93677536231883773 0.14999999999999089 0 0.90299850604006393 0.09563452813493091 0 0.93677536231883773 0.14999999999999089 0 0.88088768115941807 0.14674609810479519 0 0.90416666666668166 0.20416666666667119 0 0.85600844944842547 0.1848341897950983 0 0.88088768115941807 0.14674609810479519 0 0.90416666666668166 0.20416666666667119 0 0.89898474358614167 0.25391965591104898 0 0.8517097391133297 0.2356960729520409 0 0.90416666666668166 0.20416666666667119 0 0.94399509803921056 0.24399509803922639 0 0.89898474358614167 0.25391965591104898 0 0.90416666666668166 0.20416666666667119 0 0.95391631417672862 0.19584263333809451 0 0.94399509803921056 0.24399509803922639 0 0.94999999999986839 0 0 0.97166519676946894 0.033371144900598393 0 0.94399509803922566 0.056004901960802607 0 1 0 0 0.97166519676946894 0.033371144900598393 0 0.94999999999986839 0 0 1 0 0 1 0.049999999999896842 0 0.97166519676946894 0.033371144900598393 0 1 0.049999999999896842 0 0.97435614836748241 0.074999999999825387 0 0.97166519676946894 0.033371144900598393 0 0.94399509803922566 0.056004901960802607 0 0.97166519676946894 0.033371144900598393 0 0.97435614836748241 0.074999999999825387 0 0.94399509803922566 0.056004901960802607 0 0.97435614836748241 0.074999999999825387 0 0.95386563387744361 0.1041487415577465 0 1 0.099999999999753911 0 0.95386563387744361 0.1041487415577465 0 0.97435614836748241 0.074999999999825387 0 1 0.049999999999896842 0 1 0.099999999999753911 0 0.97435614836748241 0.074999999999825387 0 1 0.099999999999753911 0 1 0.14999999999961891 0 0.95386563387744361 0.1041487415577465 0 0.90299850604006393 0.09563452813493091 0 0.95386563387744361 0.1041487415577465 0 0.93677536231883773 0.14999999999999089 0 0.90299850604006393 0.09563452813493091 0 0.88088768115941807 0.14674609810479519 0 0.84725310900442086 0.10779732082922661 0 0.90299850604006393 0.09563452813493091 0 0.85491058998398861 0.060047533455626502 0 0.899991664607802 0.045289349238254978 0 0.90299850604006393 0.09563452813493091 0 0.94399509803922566 0.056004901960802607 0 0.95386563387744361 0.1041487415577465 0 0.90299850604006393 0.09563452813493091 0 0.899991664607802 0.045289349238254978 0 0.94399509803922566 0.056004901960802607 0 0.94999999999986839 0 0 0.94399509803922566 0.056004901960802607 0 0.899991664607802 0.045289349238254978 0 0.84999999999960507 0 0 0.89999999999973679 0 0 0.899991664607802 0.045289349238254978 0 0.89999999999973679 0 0 0.94999999999986839 0 0 0.899991664607802 0.045289349238254978 0 0.79999999999947335 0 0 0.84999999999960507 0 0 0.81864958914740749 0.035890501779055867 0 0.84999999999960507 0 0 0.899991664607802 0.045289349238254978 0 0.85491058998398861 0.060047533455626502 0 0.80185942888501827 0.074520613036224564 0 0.81864958914740749 0.035890501779055867 0 0.85491058998398861 0.060047533455626502 0 0.84999999999960507 0 0 0.85491058998398861 0.060047533455626502 0 0.81864958914740749 0.035890501779055867 0 0.80185942888501827 0.074520613036224564 0 0.85491058998398861 0.060047533455626502 0 0.84725310900442086 0.10779732082922661 0 0.90299850604006393 0.09563452813493091 0 0.84725310900442086 0.10779732082922661 0 0.85491058998398861 0.060047533455626502 0 0.80185942888501827 0.074520613036224564 0 0.84725310900442086 0.10779732082922661 0 0.80076557130237269 0.1154587552654202 0 0.82709327591102189 0.14937141670914489 0 0.80076557130237269 0.1154587552654202 0 0.84725310900442086 0.10779732082922661 0 0.80185942888501827 0.074520613036224564 0 0.80076557130237269 0.1154587552654202 0 0.76878382444651716 0.097147941686331368 0 0.72525833953073282 0.1032114801687094 0 0.76878382444651716 0.097147941686331368 0 0.77144070960558853 0.14311854477243749 0 0.77144070960558853 0.14311854477243749 0 0.76878382444651716 0.097147941686331368 0 0.80076557130237269 0.1154587552654202 0 0.80185942888501827 0.074520613036224564 0 0.76878382444651716 0.097147941686331368 0 0.7527966693318906 0.053051678021508272 0 0.80185942888501827 0.074520613036224564 0 0.78393852574753176 0.032039079577822822 0 0.81864958914740749 0.035890501779055867 0 0.80185942888501827 0.074520613036224564 0 0.7527966693318906 0.053051678021508272 0 0.78393852574753176 0.032039079577822822 0 0.74999999999934175 0 0 0.78393852574753176 0.032039079577822822 0 0.7527966693318906 0.053051678021508272 0 0.74999999999934175 0 0 0.79999999999947335 0 0 0.78393852574753176 0.032039079577822822 0 0.79999999999947335 0 0 0.81864958914740749 0.035890501779055867 0 0.78393852574753176 0.032039079577822822 0 0.79680861578956375 0.22656778056752541 0 0.81283102246527783 0.1881007222486438 0 0.8517097391133297 0.2356960729520409 0 0.8517097391133297 0.2356960729520409 0 0.81283102246527783 0.1881007222486438 0 0.85600844944842547 0.1848341897950983 0 0.79680861578956375 0.22656778056752541 0 0.8517097391133297 0.2356960729520409 0 0.81486180804364938 0.26321394949780091 0 0.90416666666668166 0.20416666666667119 0 0.8517097391133297 0.2356960729520409 0 0.85600844944842547 0.1848341897950983 0 0.82709327591102189 0.14937141670914489 0 0.88088768115941807 0.14674609810479519 0 0.85600844944842547 0.1848341897950983 0 0.82709327591102189 0.14937141670914489 0 0.84725310900442086 0.10779732082922661 0 0.88088768115941807 0.14674609810479519 0 0.82709327591102189 0.14937141670914489 0 0.85600844944842547 0.1848341897950983 0 0.81283102246527783 0.1881007222486438 0 0.77144070960558853 0.14311854477243749 0 0.81283102246527783 0.1881007222486438 0 0.76587607630038135 0.18880039518954719 0 0.82709327591102189 0.14937141670914489 0 0.81283102246527783 0.1881007222486438 0 0.77144070960558853 0.14311854477243749 0 0.82709327591102189 0.14937141670914489 0 0.77144070960558853 0.14311854477243749 0 0.80076557130237269 0.1154587552654202 0 0.77144070960558853 0.14311854477243749 0 0.76587607630038135 0.18880039518954719 0 0.72634814642510737 0.16106886917518889 0 0.79680861578956375 0.22656778056752541 0 0.75668890529066124 0.2244279804069782 0 0.76587607630038135 0.18880039518954719 0 0.79680861578956375 0.22656778056752541 0 0.76587607630038135 0.18880039518954719 0 0.81283102246527783 0.1881007222486438 0 0.79680861578956375 0.22656778056752541 0 0.81486180804364938 0.26321394949780091 0 0.77075983436335049 0.25919399014334171 0 0.79680861578956375 0.22656778056752541 0 0.77075983436335049 0.25919399014334171 0 0.75668890529066124 0.2244279804069782 0 0.72500000000000064 0.2498161764706 0 0.75668890529066124 0.2244279804069782 0 0.77075983436335049 0.25919399014334171 0 0.72500000000001008 0.19776155966387679 0 0.75668890529066124 0.2244279804069782 0 0.72500000000000064 0.2498161764706 0 0.72500000000001008 0.19776155966387679 0 0.72500000000000064 0.2498161764706 0 0.69397719155551807 0.2245125647000914 0 0.72500000000000064 0.2498161764706 0 0.67933712972090698 0.25920070958121938 0 0.69397719155551807 0.2245125647000914 0 0.72500000000001008 0.19776155966387679 0 0.69397719155551807 0.2245125647000914 0 0.6865991819015953 0.189116534044597 0 0.72500000000001008 0.19776155966387679 0 0.76587607630038135 0.18880039518954719 0 0.75668890529066124 0.2244279804069782 0 0.72500000000001008 0.19776155966387679 0 0.72634814642510737 0.16106886917518889 0 0.76587607630038135 0.18880039518954719 0 0.72525833953073282 0.1032114801687094 0 0.77144070960558853 0.14311854477243749 0 0.72634814642510737 0.16106886917518889 0 0.72525833953073282 0.1032114801687094 0 0.72634814642510737 0.16106886917518889 0 0.68391457121233579 0.14440470121196541 0 0.72500000000001008 0.19776155966387679 0 0.6865991819015953 0.189116534044597 0 0.72634814642510737 0.16106886917518889 0 0.68391457121233579 0.14440470121196541 0 0.72634814642510737 0.16106886917518889 0 0.6865991819015953 0.189116534044597 0 0.68391457121233579 0.14440470121196541 0 0.6865991819015953 0.189116534044597 0 0.64011864159029941 0.18789607982138171 0 0.6236733212988993 0.14864538214901801 0 0.65290632656860115 0.11434202593454081 0 0.68391457121233579 0.14440470121196541 0 0.6236733212988993 0.14864538214901801 0 0.68391457121233579 0.14440470121196541 0 0.64011864159029941 0.18789607982138171 0 0.65394964615507722 0.22666784374016369 0 0.59814117807200873 0.23398510860739519 0 0.64011864159029941 0.18789607982138171 0 0.65394964615507722 0.22666784374016369 0 0.62657463266645097 0.26524202571255862 0 0.59814117807200873 0.23398510860739519 0 0.65394964615507722 0.22666784374016369 0 0.69397719155551807 0.2245125647000914 0 0.67933712972090698 0.25920070958121938 0 0.65394964615507722 0.22666784374016369 0 0.64011864159029941 0.18789607982138171 0 0.6865991819015953 0.189116534044597 0 0.65394964615507722 0.22666784374016369 0 0.6865991819015953 0.189116534044597 0 0.69397719155551807 0.2245125647000914 0 0.69999999999921003 0 0 0.72683645290270404 0.027797073151180601 0 0.7010294155333181 0.056779085686491267 0 0.69999999999921003 0 0 0.7010294155333181 0.056779085686491267 0 0.66369801598854572 0.036327466368102787 0 0.74999999999934175 0 0 0.7527966693318906 0.053051678021508272 0 0.72683645290270404 0.027797073151180601 0 0.69999999999921003 0 0 0.74999999999934175 0 0 0.72683645290270404 0.027797073151180601 0 0.7527966693318906 0.053051678021508272 0 0.7010294155333181 0.056779085686491267 0 0.72683645290270404 0.027797073151180601 0 0.72525833953073282 0.1032114801687094 0 0.68330259535470161 0.10038702501083881 0 0.7010294155333181 0.056779085686491267 0 0.72525833953073282 0.1032114801687094 0 0.7010294155333181 0.056779085686491267 0 0.7527966693318906 0.053051678021508272 0 0.72525833953073282 0.1032114801687094 0 0.7527966693318906 0.053051678021508272 0 0.76878382444651716 0.097147941686331368 0 0.72525833953073282 0.1032114801687094 0 0.68391457121233579 0.14440470121196541 0 0.68330259535470161 0.10038702501083881 0 0.65408113592120842 0.073941773121567966 0 0.68330259535470161 0.10038702501083881 0 0.65290632656860115 0.11434202593454081 0 0.68391457121233579 0.14440470121196541 0 0.65290632656860115 0.11434202593454081 0 0.68330259535470161 0.10038702501083881 0 0.6236733212988993 0.14864538214901801 0 0.61956000905586006 0.1043312481793135 0 0.65290632656860115 0.11434202593454081 0 0.65408113592120842 0.073941773121567966 0 0.65290632656860115 0.11434202593454081 0 0.61956000905586006 0.1043312481793135 0 0.65408113592120842 0.073941773121567966 0 0.61956000905586006 0.1043312481793135 0 0.61940220174112337 0.047251958781050582 0 0.65408113592120842 0.073941773121567966 0 0.7010294155333181 0.056779085686491267 0 0.68330259535470161 0.10038702501083881 0 0.65408113592120842 0.073941773121567966 0 0.66369801598854572 0.036327466368102787 0 0.7010294155333181 0.056779085686491267 0 0.65408113592120842 0.073941773121567966 0 0.61940220174112337 0.047251958781050582 0 0.66369801598854572 0.036327466368102787 0 0.64999999999907843 0 0 0.66369801598854572 0.036327466368102787 0 0.61940220174112337 0.047251958781050582 0 0.64999999999907843 0 0 0.69999999999921003 0 0 0.66369801598854572 0.036327466368102787 0 0.5499999999988151 0 0 0.59999999999894682 0 0 0.57396793757665954 0.037011367187645222 0 0.59999999999894682 0 0 0.64999999999907843 0 0 0.61940220174112337 0.047251958781050582 0 0.59999999999894682 0 0 0.61940220174112337 0.047251958781050582 0 0.57396793757665954 0.037011367187645222 0 0.57667858002728545 0.078486105337742612 0 0.57396793757665954 0.037011367187645222 0 0.61940220174112337 0.047251958781050582 0 0.57667858002728545 0.078486105337742612 0 0.61940220174112337 0.047251958781050582 0 0.61956000905586006 0.1043312481793135 0 0.6236733212988993 0.14864538214901801 0 0.58516465772821369 0.11653801664834119 0 0.61956000905586006 0.1043312481793135 0 0.57667858002728545 0.078486105337742612 0 0.61956000905586006 0.1043312481793135 0 0.58516465772821369 0.11653801664834119 0 0.56202748619534593 0.15054058349222879 0 0.54979595918804436 0.1060565713905809 0 0.58516465772821369 0.11653801664834119 0 0.57667858002728545 0.078486105337742612 0 0.58516465772821369 0.11653801664834119 0 0.54979595918804436 0.1060565713905809 0 0.51076801031701946 0.1202837388510348 0 0.52375890611712683 0.059318771819432882 0 0.54979595918804436 0.1060565713905809 0 0.51076801031701946 0.1202837388510348 0 0.47881186583059909 0.093591717165689425 0 0.52375890611712683 0.059318771819432882 0 0.57667858002728545 0.078486105337742612 0 0.54979595918804436 0.1060565713905809 0 0.52375890611712683 0.059318771819432882 0 0.5499999999988151 0 0 0.57396793757665954 0.037011367187645222 0 0.52375890611712683 0.059318771819432882 0 0.57667858002728545 0.078486105337742612 0 0.52375890611712683 0.059318771819432882 0 0.57396793757665954 0.037011367187645222 0 0.49999999999869432 0 0 0.5499999999988151 0 0 0.52375890611712683 0.059318771819432882 0 0.55306006949600994 0.20198184231352201 0 0.59443395090188023 0.18455690917515069 0 0.59814117807200873 0.23398510860739519 0 0.55306006949600994 0.20198184231352201 0 0.59814117807200873 0.23398510860739519 0 0.54248833945060504 0.2520322959927106 0 0.59814117807200873 0.23398510860739519 0 0.59443395090188023 0.18455690917515069 0 0.64011864159029941 0.18789607982138171 0 0.6236733212988993 0.14864538214901801 0 0.64011864159029941 0.18789607982138171 0 0.59443395090188023 0.18455690917515069 0 0.6236733212988993 0.14864538214901801 0 0.56202748619534593 0.15054058349222879 0 0.58516465772821369 0.11653801664834119 0 0.6236733212988993 0.14864538214901801 0 0.59443395090188023 0.18455690917515069 0 0.56202748619534593 0.15054058349222879 0 0.55306006949600994 0.20198184231352201 0 0.56202748619534593 0.15054058349222879 0 0.59443395090188023 0.18455690917515069 0 0.55306006949600994 0.20198184231352201 0 0.51729576145820033 0.1683240575987815 0 0.56202748619534593 0.15054058349222879 0 0.51076801031701946 0.1202837388510348 0 0.54979595918804436 0.1060565713905809 0 0.56202748619534593 0.15054058349222879 0 0.51076801031701946 0.1202837388510348 0 0.51729576145820033 0.1683240575987815 0 0.48466639505193998 0.1421439844745814 0 0.51076801031701946 0.1202837388510348 0 0.56202748619534593 0.15054058349222879 0 0.51729576145820033 0.1683240575987815 0 0.55306006949600994 0.20198184231352201 0 0.50760557329222289 0.20700468884612061 0 0.51729576145820033 0.1683240575987815 0 0.50760557329222289 0.20700468884612061 0 0.55306006949600994 0.20198184231352201 0 0.54248833945060504 0.2520322959927106 0 0.49695729691142171 0.25014895411178018 0 0.50760557329222289 0.20700468884612061 0 0.54248833945060504 0.2520322959927106 0 0.5 0.29999999999999999 0 0.49695729691142171 0.25014895411178018 0 0.54248833945060504 0.2520322959927106 0 0.5 0.29999999999999999 0 0.54999999999999993 0.29999999999999999 0 0.52752007115234678 0.33170632466418198 0 0.5 0.29999999999999999 0 0.54248833945060504 0.2520322959927106 0 0.54999999999999993 0.29999999999999999 0 0.5 0.29999999999999999 0 0.54999999999999993 0.29999999999999999 0 0.54999999999999993 0.29999999999999999 0 0.54248833945060504 0.2520322959927106 0 0.5794309697024993 0.27124795968204829 0 0.59814117807200873 0.23398510860739519 0 0.5794309697024993 0.27124795968204829 0 0.54248833945060504 0.2520322959927106 0 0.54999999999999993 0.29999999999999999 0 0.59999999999999976 0.29999999999999999 0 0.54999999999999993 0.29999999999999999 0 0.5794309697024993 0.27124795968204829 0 0.59999999999999976 0.29999999999999999 0 0.59999999999999976 0.29999999999999999 0 0.6499999999999998 0.29999999999999999 0 0.59999999999999976 0.29999999999999999 0 0.5794309697024993 0.27124795968204829 0 0.62657463266645097 0.26524202571255862 0 0.59814117807200873 0.23398510860739519 0 0.62657463266645097 0.26524202571255862 0 0.5794309697024993 0.27124795968204829 0 0.6084546825910605 0.37989672713932537 0 0.56836770495988642 0.3523062350852913 0 0.61959173890754571 0.33832250091341232 0 0.59999999999999976 0.29999999999999999 0 0.6499999999999998 0.29999999999999999 0 0.61959173890754571 0.33832250091341232 0 0.59999999999999976 0.29999999999999999 0 0.61959173890754571 0.33832250091341232 0 0.56836770495988642 0.3523062350852913 0 0.54999999999999993 0.29999999999999999 0 0.59999999999999976 0.29999999999999999 0 0.56836770495988642 0.3523062350852913 0 0.56836770495988642 0.3523062350852913 0 0.52289427570932567 0.3932284363388488 0 0.52752007115234678 0.33170632466418198 0 0.54999999999999993 0.29999999999999999 0 0.56836770495988642 0.3523062350852913 0 0.52752007115234678 0.33170632466418198 0 0.5 0.29999999999999999 0 0.52752007115234678 0.33170632466418198 0 0.49077833859261139 0.35229981449445641 0 0.52752007115234678 0.33170632466418198 0 0.52289427570932567 0.3932284363388488 0 0.49077833859261139 0.35229981449445641 0 0.52289427570932567 0.3932284363388488 0 0.56836770495988642 0.3523062350852913 0 0.57744073070774993 0.41535148636609359 0 0.52289427570932567 0.3932284363388488 0 0.57744073070774993 0.41535148636609359 0 0.53823865529665704 0.45873898050322898 0 0.52289427570932567 0.3932284363388488 0 0.53823865529665704 0.45873898050322898 0 0.48858720058566618 0.43964267759203868 0 0.49102375406324739 0.49123754822244059 0 0.53823865529665704 0.45873898050322898 0 0.53330375813596242 0.50827942741749099 0 0.49102375406324739 0.49123754822244059 0 0.48858720058566618 0.43964267759203868 0 0.53823865529665704 0.45873898050322898 0 0.57611405284611883 0.50165903596042916 0 0.53330375813596242 0.50827942741749099 0 0.53823865529665704 0.45873898050322898 0 0.57611405284611883 0.50165903596042916 0 0.57975577671020095 0.46172033326338591 0 0.61547661924074692 0.48539576058873962 0 0.57611405284611883 0.50165903596042916 0 0.53823865529665704 0.45873898050322898 0 0.57975577671020095 0.46172033326338591 0 0.61209567303293111 0.44669033081290321 0 0.57975577671020095 0.46172033326338591 0 0.57744073070774993 0.41535148636609359 0 0.53823865529665704 0.45873898050322898 0 0.57744073070774993 0.41535148636609359 0 0.57975577671020095 0.46172033326338591 0 0.61209567303293111 0.44669033081290321 0 0.61547661924074692 0.48539576058873962 0 0.57975577671020095 0.46172033326338591 0 0.6084546825910605 0.37989672713932537 0 0.57744073070774993 0.41535148636609359 0 0.56836770495988642 0.3523062350852913 0 0.61209567303293111 0.44669033081290321 0 0.57744073070774993 0.41535148636609359 0 0.63912439215427275 0.41063340167983359 0 0.6084546825910605 0.37989672713932537 0 0.63912439215427275 0.41063340167983359 0 0.57744073070774993 0.41535148636609359 0 0.6084546825910605 0.37989672713932537 0 0.65481233915350323 0.35652751921065562 0 0.63912439215427275 0.41063340167983359 0 0.6879972333610942 0.43038561374960838 0 0.65178832218679827 0.45929119821019959 0 0.63912439215427275 0.41063340167983359 0 0.6879972333610942 0.43038561374960838 0 0.63912439215427275 0.41063340167983359 0 0.68128176404677243 0.38629093627004979 0 0.65481233915350323 0.35652751921065562 0 0.68128176404677243 0.38629093627004979 0 0.63912439215427275 0.41063340167983359 0 0.6541250972820879 0.49999999999999989 0 0.61547661924074692 0.48539576058873962 0 0.65178832218679827 0.45929119821019959 0 0.61209567303293111 0.44669033081290321 0 0.65178832218679827 0.45929119821019959 0 0.61547661924074692 0.48539576058873962 0 0.61209567303293111 0.44669033081290321 0 0.63912439215427275 0.41063340167983359 0 0.65178832218679827 0.45929119821019959 0 0.6879972333610942 0.43038561374960838 0 0.69385896817107129 0.48377516041410151 0 0.65178832218679827 0.45929119821019959 0 0.6541250972820879 0.49999999999999989 0 0.65178832218679827 0.45929119821019959 0 0.69385896817107129 0.48377516041410151 0 0.7152569930854884 0.5237994455134295 0 0.69385896817107129 0.48377516041410151 0 0.73947346780852752 0.49062440112282169 0 0.6879972333610942 0.43038561374960838 0 0.73483647259922602 0.44789725365921768 0 0.69385896817107129 0.48377516041410151 0 0.73483647259922602 0.44789725365921768 0 0.73947346780852752 0.49062440112282169 0 0.69385896817107129 0.48377516041410151 0 0.71508799138962864 0.36622814920737751 0 0.72622533758026719 0.40265885511101601 0 0.68128176404677243 0.38629093627004979 0 0.6879972333610942 0.43038561374960838 0 0.72622533758026719 0.40265885511101601 0 0.73483647259922602 0.44789725365921768 0 0.6879972333610942 0.43038561374960838 0 0.68128176404677243 0.38629093627004979 0 0.72622533758026719 0.40265885511101601 0 0.77354604466818633 0.40378688774472771 0 0.73483647259922602 0.44789725365921768 0 0.72622533758026719 0.40265885511101601 0 0.71508799138962864 0.36622814920737751 0 0.74764719760526988 0.3719647154012321 0 0.72622533758026719 0.40265885511101601 0 0.77354604466818633 0.40378688774472771 0 0.72622533758026719 0.40265885511101601 0 0.74764719760526988 0.3719647154012321 0 0.71508799138962864 0.36622814920737751 0 0.73090396928863699 0.33699297293167962 0 0.74764719760526988 0.3719647154012321 0 0.71508799138962864 0.36622814920737751 0 0.68887083591306764 0.33632058575757479 0 0.73090396928863699 0.33699297293167962 0 0.71508799138962864 0.36622814920737751 0 0.68128176404677243 0.38629093627004979 0 0.68887083591306764 0.33632058575757479 0 0.69999999999999984 0.29999999999999999 0 0.73090396928863699 0.33699297293167962 0 0.68887083591306764 0.33632058575757479 0 0.69999999999999984 0.29999999999999999 0 0.72500000000000064 0.2498161764706 0 0.74999999999999989 0.29999999999999999 0 0.69999999999999984 0.29999999999999999 0 0.74999999999999989 0.29999999999999999 0 0.69999999999999984 0.29999999999999999 0 0.74999999999999989 0.29999999999999999 0 0.73090396928863699 0.33699297293167962 0 0.74999999999999989 0.29999999999999999 0 0.72500000000000064 0.2498161764706 0 0.77075983436335049 0.25919399014334171 0 0.69999999999999984 0.29999999999999999 0 0.67933712972090698 0.25920070958121938 0 0.72500000000000064 0.2498161764706 0 0.6499999999999998 0.29999999999999999 0 0.67933712972090698 0.25920070958121938 0 0.69999999999999984 0.29999999999999999 0 0.6499999999999998 0.29999999999999999 0 0.69999999999999984 0.29999999999999999 0 0.68887083591306764 0.33632058575757479 0 0.6499999999999998 0.29999999999999999 0 0.69999999999999984 0.29999999999999999 0 0.6499999999999998 0.29999999999999999 0 0.62657463266645097 0.26524202571255862 0 0.67933712972090698 0.25920070958121938 0 0.65394964615507722 0.22666784374016369 0 0.67933712972090698 0.25920070958121938 0 0.62657463266645097 0.26524202571255862 0 0.59999999999999976 0.29999999999999999 0 0.62657463266645097 0.26524202571255862 0 0.6499999999999998 0.29999999999999999 0 0.6499999999999998 0.29999999999999999 0 0.65481233915350323 0.35652751921065562 0 0.61959173890754571 0.33832250091341232 0 0.6084546825910605 0.37989672713932537 0 0.61959173890754571 0.33832250091341232 0 0.65481233915350323 0.35652751921065562 0 0.65481233915350323 0.35652751921065562 0 0.68887083591306764 0.33632058575757479 0 0.68128176404677243 0.38629093627004979 0 0.6499999999999998 0.29999999999999999 0 0.68887083591306764 0.33632058575757479 0 0.65481233915350323 0.35652751921065562 0 
</DataArray>
</Points>
<Cells>
<DataArray type="UInt32" Name="connectivity" format="ascii">
0 1 2 3 4 5 6 7 8 9 10 11 12 13 14 15 16 17 18 19 20 21 22 23 24 25 26 27 28 29 30 31 32 33 34 35 36 37 38 39 40 41 42 43 44 45 46 47 48 49 50 51 52 53 54 55 56 57 58 59 60 61 62 63 64 65 66 67 68 69 70 71 72 73 74 75 76 77 78 79 80 81 82 83 84 85 86 87 88 89 90 91 92 93 94 95 96 97 98 99 100 101 102 103 104 105 106 107 108 109 110 111 112 113 114 115 116 117 118 119 120 121 122 123 124 125 126 127 128 129 130 131 132 133 134 135 136 137 138 139 140 141 142 143 144 145 146 147 148 149 150 151 152 153 154 155 156 157 158 159 160 161 162 163 164 165 166 167 168 169 170 171 172 173 174 175 176 177 178 179 180 181 182 183 184 185 186 187 188 189 190 191 192 193 194 195 196 197 198 199 200 201 202 203 204 205 206 207 208 209 210 211 212 213 214 215 216 217 218 219 220 221 222 223 224 225 226 227 228 229 230 231 232 233 234 235 236 237 238 239 240 241 242 243 244 245 246 247 248 249 250 251 252 253 254 255 256 257 258 259 260 261 262 263 264 265 266 267 268 269 270 271 272 273 274 275 276 277 278 279 280 281 282 283 284 285 286 287 288 289 290 291 292 293 294 295 296 297 298 299 300 301 302 303 304 305 306 307 308 309 310 311 312 313 314 315 316 317 318 319 320 321 322 323 324 325 326 327 328 329 330 331 332 333 334 335 336 337 338 339 340 341 342 343 344 345 346 347 348 349 350 351 352 353 354 355 356 357 358 359 360 361 362 363 364 365 366 367 368 369 370 371 372 373 374 375 376 377 378 379 380 381 382 383 384 385 386 387 388 389 390 391 392 393 394 395 396 397 398 399 400 401 402 403 404 405 406 407 408 409 410 411 412 413 414 415 416 417 418 419 420 421 422 423 424 425 426 427 428 429 430 431 432 433 434 435 436 437 438 439 440 441 442 443 444 445 446 447 448 449 450 451 452 453 454 455 456 457 458 459 460 461 462 463 464 465 466 467 468 469 470 471 472 473 474 475 476 477 478 479 480 481 482 483 484 485 486 487 488 489 490 491 492 493 494 495 496 497 498 499 500 501 502 503 504 505 506 507 508 509 510 511 512 513 514 515 516 517 518 519 520 521 522 523 524 525 526 527 528 529 530 531 532 533 534 535 536 537 538 539 540 541 542 543 544 545 546 547 548 549 550 551 552 553 554 555 556 557 558 559 560 561 562 563 564 565 566 567 568 569 570 571 572 573 574 575 576 577 578 579 580 581 582 583 584 585 586 587 588 589 590 591 592 593 594 595 596 597 598 599 600 601 602 603 604 605 606 607 608 609 610 611 612 613 614 615 616 617 618 619 620 621 622 623 624 625 626 627 628 629 630 631 632 633 634 635 636 637 638 639 640 641 642 643 644 645 646 647 648 649 650 651 652 653 654 655 656 657 658 659 660 661 662 663 664 665 666 667 668 669 670 671 672 673 674 675 676 677 678 679 680 681 682 683 684 685 686 687 688 689 690 691 692 693 694 695 696 697 698 699 700 701 702 703 704 705 706 707 708 709 710 711 712 713 714 715 716 717 718 719 720 721 722 723 724 725 726 727 728 729 730 731 732 733 734 735 736 737 738 739 740 741 742 743 744 745 746 747 748 749 750 751 752 753 754 755 756 757 758 759 760 761 762 763 764 765 766 767 768 769 770 771 772 773 774 775 776 777 778 779 780 781 782 783 784 785 786 787 788 789 790 791 792 793 794 795 796 797 798 799 800 801 802 803 804 805 806 807 808 809 810 811 812 813 814 815 816 817 818 819 820 821 822 823 824 825 826 827 828 829 830 831 832 833 834 835 836 837 838 839 840 841 842 843 844 845 846 847 848 849 850 851 852 853 854 855 856 857 858 859 860 861 862 863 864 865 866 867 868 869 870 871 872 873 874 875 876 877 878 879 880 881 882 883 884 885 886 887 888 889 890 891 892 893 894 895 896 897 898 899 900 901 902 903 904 905 906 907 908 909 910 911 912 913 914 915 916 917 918 919 920 921 922 923 924 925 926 927 928 929 930 931 932 933 934 935 936 937 938 939 940 941 942 943 944 945 946 947 948 949 950 951 952 953 954 955 956 957 958 959 960 961 962 963 964 965 966 967 968 969 970 971 972 973 974 975 976 977 978 979 980 981 982 983 984 985 986 987 988 989 990 991 992 993 994 995 996 997 998 999 1000 1001 1002 1003 1004 1005 1006 1007 1008 1009 1010 1011 1012 1013 1014 1015 1016 1017 1018 1019 1020 1021 1022 1023 1024 1025 1026 1027 1028 1029 1030 1031 1032 1033 1034 1035 1036 1037 1038 1039 1040 1041 1042 1043 1044 1045 1046 1047 1048 1049 1050 1051 1052 1053 1054 1055 1056 1057 1058 1059 1060 1061 1062 1063 1064 1065 1066 1067 1068 1069 1070 1071 1072 1073 1074 1075 1076 1077 1078 1079 1080 1081 1082 1083 1084 1085 1086 1087 1088 1089 1090 1091 1092 1093 1094 1095 1096 1097 1098 1099 1100 1101 1102 1103 1104 1105 1106 1107 1108 1109 1110 1111 1112 1113 1114 1115 1116 1117 1118 1119 1120 1121 1122 1123 1124 1125 1126 1127 1128 1129 1130 1131 1132 1133 1134 1135 1136 1137 1138 1139 1140 1141 1142 1143 1144 1145 1146 1147 1148 1149 1150 1151 1152 1153 1154 1155 1156 1157 1158 1159 1160 1161 1162 1163 1164 1165 1166 1167 1168 1169 1170 1171 1172 1173 1174 1175 1176 1177 1178 1179 1180 1181 1182 1183 1184 1185 1186 1187 1188 1189 1190 1191 1192 1193 1194 1195 1196 1197 1198 1199 1200 1201 1202 1203 1204 1205 1206 1207 1208 1209 1210 1211 1212 1213 1214 1215 1216 1217 1218 1219 1220 1221 1222 1223 1224 1225 1226 1227 1228 1229 1230 1231 1232 1233 1234 1235 1236 1237 1238 1239 1240 1241 1242 1243 1244 1245 1246 1247 1248 1249 1250 1251 1252 1253 1254 1255 1256 1257 1258 1259 1260 1261 1262 1263 1264 1265 1266 1267 1268 1269 1270 1271 1272 1273 1274 1275 1276 1277 1278 1279 1280 1281 1282 1283 1284 1285 1286 1287 1288 1289 1290 1291 1292 1293 1294 1295 1296 1297 1298 1299 1300 1301 1302 1303 1304 1305 1306 1307 1308 1309 1310 1311 1312 1313 1314 1315 1316 1317 1318 1319 1320 1321 1322 1323 1324 1325 1326 1327 1328 1329 1330 1331 1332 1333 1334 1335 1336 1337 1338 1339 1340 1341 1342 1343 1344 1345 1346 1347 1348 1349 1350 1351 1352 1353 1354 1355 1356 1357 1358 1359 1360 1361 1362 1363 1364 1365 1366 1367 1368 1369 1370 1371 1372 1373 1374 1375 1376 1377 1378 1379 1380 1381 1382 1383 1384 1385 1386 1387 1388 1389 1390 1391 1392 1393 1394 1395 1396 1397 1398 1399 1400 1401 1402 1403 1404 1405 1406 1407 1408 1409 1410 1411 1412 1413 1414 1415 1416 1417 1418 1419 1420 1421 1422 1423 1424 1425 1426 1427 1428 1429 1430 1431 1432 1433 1434 1435 1436 1437 1438 1439 1440 1441 1442 1443 1444 1445 1446 1447 1448 1449 1450 1451 1452 1453 1454 1455 1456 1457 1458 1459 1460 1461 1462 1463 1464 1465 1466 1467 1468 1469 1470 1471 1472 1473 1474 1475 1476 1477 1478 1479 1480 1481 1482 1483 1484 1485 1486 1487 1488 1489 1490 1491 1492 1493 1494 1495 1496 1497 1498 1499 1500 1501 1502 1503 1504 1505 1506 1507 1508 1509 1510 1511 1512 1513 1514 1515 1516 1517 1518 1519 1520 1521 1522 1523 1524 1525 1526 1527 1528 1529 1530 1531 1532 1533 1534 1535 1536 1537 1538 1539 1540 1541 1542 1543 1544 1545 1546 1547 1548 1549 1550 1551 1552 1553 1554 1555 1556 1557 1558 1559 1560 1561 1562 1563 1564 1565 1566 1567 1568 1569 1570 1571 1572 1573 1574 1575 1576 1577 1578 1579 1580 1581 1582 1583 1584 1585 1586 1587 1588 1589 1590 1591 1592 1593 1594 1595 1596 1597 1598 1599 1600 1601 1602 1603 1604 1605 1606 1607 1608 1609 1610 1611 1612 1613 1614 1615 1616 1617 1618 1619 1620 1621 1622 1623 1624 1625 1626 1627 1628 1629 1630 1631 1632 1633 1634 1635 1636 1637 1638 1639 1640 1641 1642 1643 1644 1645 1646 1647 1648 1649 1650 1651 1652 1653 1654 1655 1656 1657 1658 1659 1660 1661 1662 1663 1664 1665 1666 1667 1668 1669 1670 1671 1672 1673 1674 1675 1676 1677 1678 1679 1680 1681 1682 1683 1684 1685 1686 1687 1688 1689 1690 1691 1692 1693 1694 1695 1696 1697 1698 1699 1700 1701 1702 1703 1704 1705 1706 1707 1708 1709 1710 1711 1712 1713 1714 1715 1716 1717 1718 1719 1720 1721 1722 1723 1724 1725 1726 1727 1728 1729 1730 1731 1732 1733 1734 1735 1736 1737 1738 1739 1740 1741 1742 1743 1744 1745 1746 1747 1748 1749 1750 1751 1752 1753 1754 1755 1756 1757 1758 1759 1760 1761 1762 1763 1764 1765 1766 1767 1768 1769 1770 1771 1772 1773 1774 1775 1776 1777 1778 1779 1780 1781 1782 1783 1784 1785 1786 1787 1788 1789 1790 1791 1792 1793 1794 1795 1796 1797 1798 1799 1800 1801 1802 1803 1804 1805 1806 1807 1808 1809 1810 1811 1812 1813 1814 1815 1816 1817 1818 1819 1820 1821 1822 1823 1824 1825 1826 1827 1828 1829 1830 1831 1832 1833 1834 1835 1836 1837 1838 1839 1840 1841 1842 1843 1844 1845 1846 1847 1848 1849 1850 1851 1852 1853 1854 1855 1856 1857 1858 1859 1860 1861 1862 1863 1864 1865 1866 1867 1868 1869 1870 1871 1872 1873 1874 1875 1876 1877 1878 1879 1880 1881 1882 1883 1884 1885 1886 1887 1888 1889 1890 1891 1892 1893 1894 1895 1896 1897 1898 1899 1900 1901 1902 1903 1904 1905 1906 1907 1908 1909 1910 1911 1912 1913 1914 1915 1916 1917 1918 1919 1920 1921 1922 1923 1924 1925 1926 1927 1928 1929 1930 1931 1932 1933 1934 1935 1936 1937 1938 1939 1940 1941 1942 1943 1944 1945 1946 1947 1948 1949 1950 1951 1952 1953 1954 1955 1956 1957 1958 1959 1960 1961 1962 1963 1964 1965 1966 1967 1968 1969 1970 1971 1972 1973 1974 1975 1976 1977 1978 1979 1980 1981 1982 1983 1984 1985 1986 1987 1988 1989 1990 1991 1992 1993 1994 1995 1996 1997 1998 1999 2000 2001 2002 2003 2004 2005 2006 2007 2008 2009 2010 2011 2012 2013 2014 2015 2016 2017 2018 2019 2020 2021 2022 2023 2024 2025 2026 2027 2028 2029 2030 2031 2032 2033 2034 2035 2036 2037 2038 2039 2040 2041 2042 2043 2044 2045 2046 2047 2048 2049 2050 2051 2052 2053 2054 2055 2056 2057 2058 2059 2060 2061 2062 2063 2064 2065 2066 2067 2068 2069 2070 2071 2072 2073 2074 2075 2076 2077 2078 2079 2080 2081 2082 2083 2084 2085 2086 2087 2088 2089 2090 2091 2092 2093 2094 2095 2096 2097 2098 2099 2100 2101 2102 2103 2104 2105 2106 2107 2108 2109 2110 2111 2112 2113 2114 2115 2116 2117 2118 2119 2120 2121 2122 2123 2124 2125 2126 2127 2128 2129 2130 2131 2132 2133 2134 2135 2136 2137 2138 2139 2140 2141 2142 2143 2144 2145 2146 2147 2148 2149 2150 2151 2152 2153 2154 2155 2156 2157 2158 2159 2160 2161 2162 2163 2164 2165 2166 2167 2168 2169 2170 2171 2172 2173 2174 2175 2176 2177 2178 2179 2180 2181 2182 2183 2184 2185 2186 2187 2188 2189 2190 2191 2192 2193 2194 2195 2196 2197 2198 2199 2200 2201 2202 2203 2204 2205 2206 2207 2208 2209 2210 2211 2212 2213 2214 2215 2216 2217 2218 2219 2220 2221 2222 2223 2224 2225 2226 2227 2228 2229 2230 2231 2232 2233 2234 2235 2236 2237 2238 2239 2240 2241 2242 2243 2244 2245 2246 2247 2248 2249 2250 2251 2252 2253 2254 2255 2256 2257 2258 2259 2260 2261 2262 2263 2264 2265 2266 2267 2268 2269 2270 2271 2272 2273 2274 2275 2276 2277 2278 2279 2280 2281 2282 2283 2284 2285 2286 2287 2288 2289 2290 2291 2292 2293 2294 2295 2296 2297 2298 2299 2300 2301 2302 2303 2304 2305 2306 2307 2308 2309 2310 2311 2312 2313 2314 2315 2316 2317 2318 2319 2320 2321 2322 2323 2324 2325 2326 2327 2328 2329 2330 2331 2332 2333 2334 2335 2336 2337 2338 2339 2340 2341 2342 2343 2344 2345 2346 2347 2348 2349 2350 2351 2352 2353 2354 2355 2356 2357 2358 2359 2360 2361 2362 2363 2364 2365 2366 2367 2368 2369 2370 2371 2372 2373 2374 2375 2376 2377 2378 2379 2380 2381 2382 2383 2384 2385 2386 2387 2388 2389 2390 2391 2392 2393 2394 2395 2396 2397 2398 2399 2400 2401 2402 2403 2404 2405 2406 2407 2408 2409 2410 2411 2412 2413 2414 2415 2416 2417 2418 2419 2420 2421 2422 2423 2424 2425 2426 2427 2428 2429 2430 2431 2432 2433 2434 2435 2436 2437 2438 2439 2440 2441 2442 2443 2444 2445 2446 2447 2448 2449 2450 2451 2452 2453 2454 2455 2456 2457 2458 2459 2460 2461 2462 2463 2464 2465 2466 2467 2468 2469 2470 2471 2472 2473 2474 2475 2476 2477 2478 2479 2480 2481 2482 2483 2484 2485 2486 2487 2488 2489 2490 2491 2492 2493 2494 2495 2496 2497 2498 2499 2500 2501 2502 2503 2504 2505 2506 2507 2508 2509 2510 2511 2512 2513 2514 2515 2516 2517 2518 2519 2520 2521 2522 2523 2524 2525 2526 2527 2528 2529 2530 2531 2532 2533 2534 2535 2536 2537 2538 2539 2540 2541 2542 2543 2544 2545 2546 2547 2548 2549 2550 2551 2552 2553 2554 2555 2556 2557 2558 2559 2560 2561 2562 2563 2564 2565 2566 2567 2568 2569 2570 2571 2572 2573 2574 2575 2576 2577 2578 2579 2580 2581 2582 2583 2584 2585 2586 2587 2588 2589 2590 2591 2592 2593 2594 2595 2596 2597 2598 2599 2600 2601 2602 2603 2604 2605 2606 2607 2608 2609 2610 2611 2612 2613 2614 2615 2616 2617 2618 2619 2620 2621 2622 2623 2624 2625 2626 2627 2628 2629 2630 2631 2632 2633 2634 2635 2636 2637 2638 2639 2640 2641 2642 2643 2644 2645 2646 2647 2648 2649 2650 2651 2652 2653 2654 2655 2656 2657 2658 2659 2660 2661 2662 2663 2664 2665 2666 2667 2668 2669 2670 2671 2672 2673 2674 2675 2676 2677 2678 2679 2680 2681 2682 2683 2684 2685 2686 2687 2688 2689 2690 2691 2692 2693 2694 2695 2696 2697 2698 2699 2700 2701 2702 2703 2704 2705 2706 2707 2708 2709 2710 2711 2712 2713 2714 2715 2716 2717 2718 2719 2720 2721 2722 2723 2724 2725 2726 2727 2728 2729 2730 2731 2732 2733 2734 2735 2736 2737 2738 2739 2740 2741 2742 2743 2744 2745 2746 2747 2748 2749 2750 2751 2752 2753 2754 2755 2756 2757 2758 2759 2760 2761 2762 2763 2764 2765 2766 2767 2768 2769 2770 2771 2772 2773 2774 2775 2776 2777 2778 2779 2780 2781 2782 2783 2784 2785 2786 2787 2788 2789 2790 2791 2792 2793 2794 2795 2796 2797 2798 2799 2800 2801 2802 2803 2804 2805 2806 2807 2808 2809 2810 2811 2812 2813 2814 2815 2816 2817 2818 2819 2820 2821 2822 2823 2824 2825 2826 2827 2828 2829 2830 2831 2832 2833 2834 2835 2836 2837 2838 2839 2840 2841 2842 2843 2844 2845 2846 2847 2848 2849 2850 2851 2852 2853 2854 2855 2856 2857 2858 2859 2860 2861 2862 2863 2864 2865 2866 2867 2868 2869 2870 2871 2872 2873 2874 2875 2876 2877 2878 2879 2880 2881 2882 2883 2884 2885 2886 2887 2888 2889 2890 2891 2892 2893 2894 2895 2896 2897 2898 2899 2900 2901 2902 2903 2904 2905 2906 2907 2908 2909 2910 2911 2912 2913 2914 2915 2916 2917 2918 2919 2920 2921 2922 2923 2924 2925 2926 2927 2928 2929 2930 2931 2932 2933 2934 2935 2936 2937 2938 2939 2940 2941 2942 2943 2944 2945 2946 2947 2948 2949 2950 2951 2952 2953 2954 2955 2956 2957 2958 2959 2960 2961 2962 2963 2964 2965 2966 2967 2968 2969 2970 2971 2972 2973 2974 2975 2976 2977 2978 2979 2980 2981 2982 2983 2984 2985 2986 2987 2988 2989 2990 2991 2992 2993 2994 2995 2996 2997 2998 2999 3000 3001 3002 3003 3004 3005 3006 3007 3008 3009 3010 3011 3012 3013 3014 3015 3016 3017 3018 3019 3020 3021 3022 3023 3024 3025 3026 3027 3028 3029 3030 3031 3032 3033 3034 3035 3036 3037 3038 3039 3040 3041 3042 3043 3044 3045 3046 3047 3048 3049 3050 3051 3052 3053 3054 3055 3056 3057 3058 3059 3060 3061 3062 3063 3064 3065 3066 3067 3068 3069 3070 3071 3072 3073 3074 3075 3076 3077 3078 3079 3080 3081 3082 3083 3084 3085 3086 3087 3088 3089 3090 3091 3092 3093 3094 3095 3096 3097 3098 3099 3100 3101 3102 3103 3104 3105 3106 3107 3108 3109 3110 3111 3112 3113 3114 3115 3116 3117 3118 3119 3120 3121 3122 3123 3124 3125 3126 3127 3128 3129 3130 3131 3132 3133 3134 3135 3136 3137 3138 3139 3140 3141 
</DataArray>
<DataArray type="UInt32" Name="offsets" format="ascii">
3 6 9 12 15 18 21 24 27 30 33 36 39 42 45 48 51 54 57 60 63 66 69 72 75 78 81 84 87 90 93 96 99 102 105 108 111 114 117 120 123 126 129 132 135 138 141 144 147 150 153 156 159 162 165 168 171 174 177 180 183 186 189 192 195 198 201 204 207 210 213 216 219 222 225 228 231 234 237 240 243 246 249 252 255 258 261 264 267 270 273 276 279 282 285 288 291 294 297 300 303 306 309 312 315 318 321 324 327 330 333 336 339 342 345 348 351 354 357 360 363 366 369 372 375 378 381 384 387 390 393 396 399 402 405 408 411 414 417 420 423 426 429 432 435 438 441 444 447 450 453 456 459 462 465 468 471 474 477 480 483 486 489 492 495 498 501 504 507 510 513 516 519 522 525 528 531 534 537 540 543 546 549 552 555 558 561 564 567 570 573 576 579 582 585 588 591 594 597 600 603 606 609 612 615 618 621 624 627 630 633 636 639 642 645 648 651 654 657 660 663 666 669 672 675 678 681 684 687 690 693 696 699 702 705 708 711 714 717 720 723 726 729 732 735 738 741 744 747 750 753 756 759 762 765 768 771 774 777 780 783 786 789 792 795 798 801 804 807 810 813 816 819 822 825 828 831 834 837 840 843 846 849 852 855 858 861 864 867 870 873 876 879 882 885 888 891 894 897 900 903 906 909 912 915 918 921 924 927 930 933 936 939 942 945 948 951 954 957 960 963 966 969 972 975 978 981 984 987 990 993 996 999 1002 1005 1008 1011 1014 1017 1020 1023 1026 1029 1032 1035 1038 1041 1044 1047 1050 1053 1056 1059 1062 1065 1068 1071 1074 1077 1080 1083 1086 1089 1092 1095 1098 1101 1104 1107 1110 1113 1116 1119 1122 1125 1128 1131 1134 1137 1140 1143 1146 1149 1152 1155 1158 1161 1164 1167 1170 1173 1176 1179 1182 1185 1188 1191 1194 1197 1200 1203 1206 1209 1212 1215 1218 1221 1224 1227 1230 1233 1236 1239 1242 1245 1248 1251 1254 1257 1260 1263 1266 1269 1272 1275 1278 1281 1284 1287 1290 1293 1296 1299 1302 1305 1308 1311 1314 1317 1320 1323 1326 1329 1332 1335 1338 1341 1344 1347 1350 1353 1356 1359 1362 1365 1368 1371 1374 1377 1380 1383 1386 1389 1392 1395 1398 1401 1404 1407 1410 1413 1416 1419 1422 1425 1428 1431 1434 1437 1440 1443 1446 1449 1452 1455 1458 1461 1464 1467 1470 1473 1476 1479 1482 1485 1488 1491 1494 1497 1500 1503 1506 1509 1512 1515 1518 1521 1524 1527 1530 1533 1536 1539 1542 1545 1548 1551 1554 1557 1560 1563 1566 1569 1572 1575 1578 1581 1584 1587 1590 1593 1596 1599 1602 1605 1608 1611 1614 1616 1619 1622 1624 1627 1630 1632 1635 1638 1641 1644 1647 1650 1653 1656 1659 1662 1665 1668 1671 1673 1676 1679 1682 1685 1688 1690 1693 1696 1699 1702 1705 1708 1711 1714 1717 1720 1723 1726 1729 1732 1735 1738 1741 1744 1747 1750 1753 1756 1759 1762 1765 1768 1771 1774 1777 1780 1783 1786 1789 1792 1795 1798 1801 1804 1807 1810 1813 1816 1819 1822 1825 1828 1831 1834 1837 1840 1843 1846 1849 1852 1855 1858 1861 1864 1867 1870 1873 1876 1879 1882 1885 1888 1891 1894 1897 1900 1903 1906 1909 1912 1915 1918 1921 1924 1927 1930 1933 1936 1939 1942 1945 1948 1951 1954 1957 1960 1963 1966 1969 1972 1975 1978 1981 1984 1987 1990 1993 1996 1999 2002 2005 2008 2011 2014 2017 2020 2023 2026 2029 2032 2035 2038 2041 2044 2047 2050 2053 2056 2059 2062 2065 2068 2071 2074 2077 2080 2083 2086 2089 2092 2095 2098 2101 2104 2107 2110 2113 2116 2119 2122 2125 2128 2131 2134 2137 2140 2143 2146 2149 2152 2155 2158 2161 2164 2167 2170 2173 2176 2179 2182 2185 2188 2191 2194 2196 2199 2202 2205 2207 2210 2213 2215 2218 2221 2224 2227 2230 2233 2236 2239 2242 2245 2248 2250 2253 2256 2259 2262 2264 2267 2270 2273 2276 2279 2282 2285 2288 2291 2294 2297 2300 2303 2306 2309 2312 2315 2318 2321 2324 2327 2330 2333 2336 2339 2342 2345 2348 2351 2354 2357 2360 2363 2366 2369 2372 2375 2378 2381 2384 2387 2390 2393 2396 2399 2402 2405 2408 2411 2414 2417 2420 2423 2426 2429 2432 2435 2438 2440 2443 2446 2449 2452 2455 2458 2461 2464 2467 2470 2473 2476 2479 2482 2484 2487 2490 2492 2495 2497 2500 2503 2506 2509 2512 2515 2518 2521 2524 2527 2530 2533 2536 2538 2541 2544 2547 2550 2553 2556 2559 2562 2565 2568 2571 2574 2577 2580 2583 2586 2589 2592 2595 2598 2601 2604 2607 2610 2613 2616 2619 2622 2625 2628 2631 2634 2637 2640 2643 2646 2649 2652 2655 2658 2661 2664 2667 2670 2673 2676 2679 2682 2685 2688 2691 2694 2697 2700 2703 2706 2709 2712 2715 2718 2721 2724 2727 2730 2733 2736 2739 2742 2745 2748 2751 2754 2757 2760 2763 2766 2769 2772 2775 2778 2781 2784 2787 2790 2793 2796 2799 2802 2805 2808 2811 2814 2817 2820 2823 2826 2829 2832 2835 2838 2841 2844 2847 2850 2853 2856 2859 2862 2865 2868 2871 2874 2877 2880 2883 2886 2889 2892 2895 2898 2901 2904 2907 2910 2913 2916 2919 2922 2925 2928 2931 2934 2937 2940 2943 2946 2948 2951 2954 2956 2959 2961 2964 2967 2970 2973 2976 2979 2982 2985 2988 2991 2994 2997 3000 3003 3006 3009 3012 3015 3018 3021 3024 3027 3030 3033 3036 3039 3042 3045 3048 3051 3054 3057 3060 3063 3066 3069 3072 3075 3078 3081 3084 3087 3090 3093 3096 3099 3102 3104 3107 3110 3113 3116 3119 3121 3124 3127 3130 3133 3136 3139 3142 
</DataArray>
<DataArray type="UInt32" Name="types" format="ascii">
5 5 5 5 5 5 5 5 5 5 5 5 5 5 5 5 5 5 5 5 5 5 5 5 5 5 5 5 5 5 5 5 5 5 5 5 5 5 5 5 5 5 5 5 5 5 5 5 5 5 5 5 5 5 5 5 5 5 5 5 5 5 5 5 5 5 5 5 5 5 5 5 5 5 5 5 5 5 5 5 5 5 5 5 5 5 5 5 5 5 5 5 5 5 5 5 5 5 5 5 5 5 5 5 5 5 5 5 5 5 5 5 5 5 5 5 5 5 5 5 5 5 5 5 5 5 5 5 5 5 5 5 5 5 5 5 5 5 5 5 5 5 5 5 5 5 5 5 5 5 5 5 5 5 5 5 5 5 5 5 5 5 5 5 5 5 5 5 5 5 5 5 5 5 5 5 5 5 5 5 5 5 5 5 5 5 5 5 5 5 5 5 5 5 5 5 5 5 5 5 5 5 5 5 5 5 5 5 5 5 5 5 5 5 5 5 5 5 5 5 5 5 5 5 5 5 5 5 5 5 5 5 5 5 5 5 5 5 5 5 5 5 5 5 5 5 5 5 5 5 5 5 5 5 5 5 5 5 5 5 5 5 5 5 5 5 5 5 5 5 5 5 5 5 5 5 5 5 5 5 5 5 5 5 5 5 5 5 5 5 5 5 5 5 5 5 5 5 5 5 5 5 5 5 5 5 5 5 5 5 5 5 5 5 5 5 5 5 5 5 5 5 5 5 5 5 5 5 5 5 5 5 5 5 5 5 5 5 5 5 5 5 5 5 5 5 5 5 5 5 5 5 5 5 5 5 5 5 5 5 5 5 5 5 5 5 5 5 5 5 5 5 5 5 5 5 5 5 5 5 5 5 5 5 5 5 5 5 5 5 5 5 5 5 5 5 5 5 5 5 5 5 5 5 5 5 5 5 5 5 5 5 5 5 5 5 5 5 5 5 5 5 5 5 5 5 5 5 5 5 5 5 5 5 5 5 5 5 5 5 5 5 5 5 5 5 5 5 5 5 5 5 5 5 5 5 5 5 5 5 5 5 5 5 5 5 5 5 5 5 5 5 5 5 5 5 5 5 5 5 5 5 5 5 5 5 5 5 5 5 5 5 5 5 5 5 5 5 5 5 5 5 5 5 5 5 5 5 5 5 5 5 5 5 5 5 5 5 5 5 5 5 5 5 5 5 5 5 5 5 5 5 5 5 5 5 5 5 3 5 5 3 5 5 3 5 5 5 5 5 5 5 5 5 5 5 5 5 3 5 5 5 5 5 3 5 5 5 5 5 5 5 5 5 5 5 5 5 5 5 5 5 5 5 5 5 5 5 5 5 5 5 5 5 5 5 5 5 5 5 5 5 5 5 5 5 5 5 5 5 5 5 5 5 5 5 5 5 5 5 5 5 5 5 5 5 5 5 5 5 5 5 5 5 5 5 5 5 5 5 5 5 5 5 5 5 5 5 5 5 5 5 5 5 5 5 5 5 5 5 5 5 5 5 5 5 5 5 5 5 5 5 5 5 5 5 5 5 5 5 5 5 5 5 5 5 5 5 5 5 5 5 5 5 5 5 5 5 5 5 5 5 5 5 5 5 5 5 5 5 5 5 5 5 5 5 5 5 5 5 5 5 5 5 5 5 5 5 5 5 5 5 5 3 5 5 5 3 5 5 3 5 5 5 5 5 5 5 5 5 5 5 3 5 5 5 5 3 5 5 5 5 5 5 5 5 5 5 5 5 5 5 5 5 5 5 5 5 5 5 5 5 5 5 5 5 5 5 5 5 5 5 5 5 5 5 5 5 5 5 5 5 5 5 5 5 5 5 5 5 5 5 5 5 5 5 3 5 5 5 5 5 5 5 5 5 5 5 5 5 5 3 5 5 3 5 3 5 5 5 5 5 5 5 5 5 5 5 5 5 3 5 5 5 5 5 5 5 5 5 5 5 5 5 5 5 5 5 5 5 5 5 5 5 5 5 5 5 5 5 5 5 5 5 5 5 5 5 5 5 5 5 5 5 5 5 5 5 5 5 5 5 5 5 5 5 5 5 5 5 5 5 5 5 5 5 5 5 5 5 5 5 5 5 5 5 5 5 5 5 5 5 5 5 5 5 5 5 5 5 5 5 5 5 5 5 5 5 5 5 5 5 5 5 5 5 5 5 5 5 5 5 5 5 5 5 5 5 5 5 5 5 5 5 5 5 5 5 5 5 5 5 5 5 5 5 5 3 5 5 3 5 3 5 5 5 5 5 5 5 5 5 5 5 5 5 5 5 5 5 5 5 5 5 5 5 5 5 5 5 5 5 5 5 5 5 5 5 5 5 5 5 5 5 5 5 5 5 5 5 3 5 5 5 5 5 3 5 5 5 5 5 5 5 
</DataArray>
</Cells>
<PointData Scalars="" Vectors="displacement," Tensors="">
<DataArray type="Float64" Name="displacement" NumberOfComponents="3" format="ascii">
-1.1552193839119472e-09 -4.7463173829583923e-10 0 -1.3667728389856439e-06 7.7452936082575751e-08 0 -6.3009670274923464e-07 1.7992997343274374e-07 0 -1.1552193839119472e-09 -4.7463173829583923e-10 0 -6.3009670274923475e-07 1.7992997343274379e-07 0 -1.1329394163136257e-09 3.6568370464297916e-10 0 -1.3667728389856439e-06 7.7452936082575751e-08 0 -1.4413418966061192e-06 6.5768290604361754e-07 0 -6.3009670274923464e-07 1.7992997343274374e-07 0 -1.1329394163136257e-09 3.6568370464297916e-10 0 -6.3009670274923464e-07 1.7992997343274379e-07 0 -1.4413418966061192e-06 6.5768290604361754e-07 0 -1.1378482587609466e-09 2.5255709809748972e-10 0 -1.1329394163136257e-09 3.6568370464297916e-10 0 -9.3000038992420794e-07 9.1233968389347533e-07 0 -6.046277349387982e-10 6.8446572603064347e-10 0 -1.1378482587609466e-09 2.5255709809748972e-10 0 -9.3000038992420794e-07 9.1233968389347533e-07 0 -2.0309171325480606e-06 1.4007100251514176e-06 0 -9.3000038992420794e-07 9.1233968389347533e-07 0 -1.4413418966061192e-06 6.5768290604361754e-07 0 -1.1329394163136257e-09 3.6568370464297916e-10 0 -1.4413418966061192e-06 6.5768290604361754e-07 0 -9.3000038992420794e-07 9.1233968389347533e-07 0 -2.0309171325480606e-06 1.4007100251514176e-06 0 -1.0885860769512118e-06 1.5167956315806897e-06 0 -9.3000038992420794e-07 9.1233968389347533e-07 0 -2.0309171325480606e-06 1.4007100251514176e-06 0 -2.0899151050480744e-06 1.965260573068373e-06 0 -1.0885860769512118e-06 1.5167956315806897e-06 0 -2.0309171325480606e-06 1.4007100251514176e-06 0 -3.1424873540592161e-06 1.8407905343850529e-06 0 -2.0899151050480744e-06 1.965260573068373e-06 0 -2.5437676799384522e-06 2.3494046087826979e-06 0 -2.0899151050480744e-06 1.965260573068373e-06 0 -3.1424873540592157e-06 1.8407905343850529e-06 0 -4.4612480955177745e-06 1.549643052222911e-06 0 -3.1424873540592157e-06 1.8407905343850529e-06 0 -3.0954606938418964e-06 1.1219699862314028e-06 0 -2.0309171325480606e-06 1.4007100251514176e-06 0 -3.0954606938418964e-06 1.1219699862314028e-06 0 -3.1424873540592157e-06 1.8407905343850529e-06 0 -3.1182135756931655e-06 5.2258775046488007e-07 0 -5.2899238335206105e-06 7.4507241554536837e-07 0 -3.0954606938418964e-06 1.1219699862314028e-06 0 -1.3667728389856439e-06 7.7452936082575751e-08 0 -3.1182135756931655e-06 5.2258775046488007e-07 0 -1.4413418966061192e-06 6.5768290604361754e-07 0 -3.1182135756931655e-06 5.2258775046488007e-07 0 -3.0954606938418964e-06 1.1219699862314028e-06 0 -1.4413418966061192e-06 6.5768290604361754e-07 0 -2.0309171325480606e-06 1.4007100251514176e-06 0 -1.4413418966061192e-06 6.5768290604361754e-07 0 -3.0954606938418964e-06 1.1219699862314028e-06 0 -3.0979733698485236e-11 6.112321535973747e-10 0 -3.8597823309959363e-10 5.0016728880139944e-10 0 -1.6204797616673803e-07 1.2601242818409196e-06 0 -3.8597823309959363e-10 5.0016728880139944e-10 0 -3.8640713515397668e-07 1.0535979978360874e-06 0 -1.6204797616673803e-07 1.2601242818409196e-06 0 -6.9008996781107078e-07 1.981940449585025e-06 0 -1.6204797616673803e-07 1.2601242818409196e-06 0 -3.8640713515397668e-07 1.0535979978360874e-06 0 -6.046277349387982e-10 6.8446572603064347e-10 0 -1.0885860769512118e-06 1.5167956315806897e-06 0 -3.8640713515397668e-07 1.0535979978360874e-06 0 -6.046277349387982e-10 6.8446572603064347e-10 0 -9.3000038992420794e-07 9.1233968389347533e-07 0 -1.0885860769512118e-06 1.5167956315806897e-06 0 -6.9008996781107078e-07 1.981940449585025e-06 0 -3.8640713515397668e-07 1.0535979978360874e-06 0 -1.0885860769512118e-06 1.5167956315806897e-06 0 -3.8597823309959363e-10 5.0016728880139944e-10 0 -6.046277349387982e-10 6.8446572603064347e-10 0 -3.8640713515397668e-07 1.0535979978360874e-06 0 -1.0885860769512118e-06 1.5167956315806897e-06 0 -2.0899151050480744e-06 1.965260573068373e-06 0 -1.5098488454123866e-06 2.1884077909053518e-06 0 -2.5437676799384522e-06 2.3494046087826979e-06 0 -1.5098488454123866e-06 2.1884077909053518e-06 0 -2.0899151050480744e-06 1.965260573068373e-06 0 -6.9008996781107078e-07 1.981940449585025e-06 0 -1.0885860769512118e-06 1.5167956315806897e-06 0 -1.5098488454123866e-06 2.1884077909053518e-06 0 -6.9008996781107078e-07 1.981940449585025e-06 0 -1.053016040225156e-06 2.5761059093016504e-06 0 -7.066218498717842e-08 2.2133002130304592e-06 0 -6.9008996781107078e-07 1.981940449585025e-06 0 -1.5098488454123866e-06 2.1884077909053518e-06 0 -1.053016040225156e-06 2.5761059093016504e-06 0 -6.9008996781107078e-07 1.981940449585025e-06 0 -7.066218498717842e-08 2.2133002130304592e-06 0 -1.6204797616673803e-07 1.2601242818409196e-06 0 1.6489930829346749e-07 1.3773795424664406e-06 0 -1.6204797616673803e-07 1.2601242818409196e-06 0 -7.066218498717842e-08 2.2133002130304592e-06 0 -1.053016040225156e-06 2.5761059093016504e-06 0 -1.508119017518738e-07 2.607382540103684e-06 0 -7.066218498717842e-08 2.2133002130304592e-06 0 -4.1405370895825545e-07 2.6601280870878937e-06 0 -1.5081190175187367e-07 2.6073825401036836e-06 0 -1.053016040225156e-06 2.5761059093016504e-06 0 -4.1405370895825545e-07 2.6601280870878937e-06 0 -1.053016040225156e-06 2.5761059093016504e-06 0 -1.9168187904660864e-06 2.5577502770401483e-06 0 -2.5437676799384522e-06 2.3494046087826979e-06 0 -3.5331954934893572e-06 2.2700630062243218e-06 0 -1.9168187904660864e-06 2.5577502770401483e-06 0 -2.5437676799384522e-06 2.3494046087826979e-06 0 -1.0530160402251558e-06 2.5761059093016504e-06 0 -1.5098488454123866e-06 2.1884077909053518e-06 0 -2.5437676799384522e-06 2.3494046087826979e-06 0 -1.9168187904660864e-06 2.5577502770401483e-06 0 -1.053016040225156e-06 2.5761059093016504e-06 0 -2.5437676799384522e-06 2.3494046087826979e-06 0 -4.0306425462413722e-06 2.0162461296660315e-06 0 -3.5331954934893567e-06 2.2700630062243222e-06 0 -2.6384632209502729e-06 2.2244460805885834e-06 0 -3.5331954934893572e-06 2.2700630062243222e-06 0 -4.9892957500993314e-06 1.75360219401126e-06 0 -2.6384632209502729e-06 2.2244460805885834e-06 0 -4.9892957500993314e-06 1.75360219401126e-06 0 -4.1723245811457261e-06 1.4673658969438097e-06 0 -2.6384632209502729e-06 2.2244460805885834e-06 0 -4.1723245811457261e-06 1.4673658969438095e-06 0 -2.5263700673240104e-06 1.4764948418355207e-06 0 -2.6384632209502729e-06 2.2244460805885834e-06 0 -1.9168187904660864e-06 2.5577502770401483e-06 0 -3.5331954934893567e-06 2.2700630062243222e-06 0 -4.1405370895825545e-07 2.6601280870878937e-06 0 -1.9168187904660864e-06 2.5577502770401483e-06 0 -9.9141228176048177e-07 2.3107734382528507e-06 0 -2.6384632209502729e-06 2.2244460805885834e-06 0 -9.9141228176048177e-07 2.3107734382528507e-06 0 -1.9168187904660864e-06 2.5577502770401483e-06 0 -2.6384632209502729e-06 2.2244460805885834e-06 0 -2.5263700673240104e-06 1.4764948418355207e-06 0 -9.9141228176048177e-07 2.3107734382528507e-06 0 5.1477817845758188e-07 1.8718451569819108e-06 0 7.2035350915951784e-07 2.4758934957119292e-06 0 -9.9141228176048177e-07 2.3107734382528507e-06 0 -4.1405370895825545e-07 2.6601280870878937e-06 0 -9.9141228176048177e-07 2.3107734382528507e-06 0 7.2035350915951794e-07 2.4758934957119292e-06 0 -5.2899238335206105e-06 7.4507241554536837e-07 0 -6.3674526654586304e-06 1.1791062023517079e-06 0 -4.4612480955177745e-06 1.549643052222911e-06 0 -5.7310353874479369e-06 1.6929478487421576e-06 0 -4.4612480955177745e-06 1.549643052222911e-06 0 -6.3674526654586312e-06 1.1791062023517077e-06 0 -5.2899238335206105e-06 7.4507241554536837e-07 0 -7.8771598644938327e-06 4.1370829224703961e-07 0 -6.3674526654586312e-06 1.1791062023517077e-06 0 -5.2899238335206105e-06 7.4507241554536837e-07 0 -4.4612480955177745e-06 1.5496430522229112e-06 0 -3.0954606938418964e-06 1.1219699862314028e-06 0 -4.4612480955177745e-06 1.549643052222911e-06 0 -4.0306425462413722e-06 2.0162461296660315e-06 0 -3.1424873540592157e-06 1.8407905343850529e-06 0 -2.5437676799384522e-06 2.3494046087826979e-06 0 -3.1424873540592157e-06 1.8407905343850529e-06 0 -4.0306425462413722e-06 2.0162461296660315e-06 0 -5.7310353874479369e-06 1.6929478487421576e-06 0 -3.5331954934893567e-06 2.2700630062243222e-06 0 -4.0306425462413722e-06 2.0162461296660315e-06 0 -5.7310353874479369e-06 1.6929478487421576e-06 0 -4.0306425462413722e-06 2.0162461296660315e-06 0 -4.4612480955177745e-06 1.549643052222911e-06 0 -5.7310353874479369e-06 1.6929478487421576e-06 0 -4.9892957500993314e-06 1.75360219401126e-06 0 -3.5331954934893567e-06 2.2700630062243222e-06 0 -5.7310353874479369e-06 1.6929478487421576e-06 0 -7.1196609788521121e-06 1.112452240358171e-06 0 -4.9892957500993314e-06 1.75360219401126e-06 0 -6.7684410616282444e-06 6.7330700451873766e-07 0 -4.9892957500993314e-06 1.75360219401126e-06 0 -7.1196609788521121e-06 1.112452240358171e-06 0 -5.7310353874479369e-06 1.6929478487421576e-06 0 -8.0824442379379121e-06 8.014036215984729e-07 0 -7.1196609788521121e-06 1.112452240358171e-06 0 -9.8313539618363457e-06 -9.4017348374394815e-08 0 -7.1196609788521121e-06 1.112452240358171e-06 0 -8.0824442379379121e-06 8.014036215984729e-07 0 -5.7310353874479369e-06 1.6929478487421576e-06 0 -6.3674526654586312e-06 1.1791062023517077e-06 0 -8.0824442379379121e-06 8.014036215984729e-07 0 -7.8771598644938327e-06 4.1370829224703971e-07 0 -8.0824442379379121e-06 8.014036215984729e-07 0 -6.3674526654586312e-06 1.1791062023517077e-06 0 -7.8771598644938327e-06 4.1370829224703971e-07 0 -1.0836334043578901e-05 -5.20415855679438e-07 0 -8.0824442379379121e-06 8.014036215984729e-07 0 -1.0836334043578901e-05 -5.2041585567943789e-07 0 -1.4002664099996936e-05 -2.1722940524884936e-06 0 -9.8313539618363457e-06 -9.4017348374394815e-08 0 -1.0836334043578901e-05 -5.2041585567943789e-07 0 -9.8313539618363457e-06 -9.4017348374394815e-08 0 -8.0824442379379121e-06 8.014036215984729e-07 0 -1.4002664099996936e-05 -2.1722940524884936e-06 0 -1.3216667381796298e-05 -2.2716097622362528e-06 0 -9.8313539618363457e-06 -9.4017348374394815e-08 0 -1.4002664099996936e-05 -2.1722940524884936e-06 0 -1.7691690477346994e-05 -4.7006878994660883e-06 0 -1.3216667381796298e-05 -2.2716097622362528e-06 0 -1.1793466752769549e-05 -3.0743205631059927e-06 0 -1.3216667381796298e-05 -2.2716097622362528e-06 0 -1.6076148090318322e-05 -4.5644649184158882e-06 0 -1.1793466752769549e-05 -3.0743205631059927e-06 0 -1.6076148090318322e-05 -4.5644649184158882e-06 0 -1.6348816003709793e-05 -6.6388666193734384e-06 0 -1.7691690477346994e-05 -4.7006878994660883e-06 0 -1.6076148090318322e-05 -4.5644649184158882e-06 0 -1.3216667381796298e-05 -2.2716097622362528e-06 0 -1.7691690477346994e-05 -4.7006878994660883e-06 0 -2.1799024314909924e-05 -8.2473175485774659e-06 0 -1.6076148090318322e-05 -4.5644649184158882e-06 0 -1.1793466752769549e-05 -3.0743205631059927e-06 0 -1.122338729644004e-05 -5.8250787539397693e-06 0 -7.6246489484572707e-06 -2.9257237001355179e-06 0 -1.1793466752769549e-05 -3.0743205631059927e-06 0 -7.6246489484572707e-06 -2.9257237001355179e-06 0 -7.9013511826587227e-06 -1.0023581596666404e-06 0 -1.1793466752769549e-05 -3.0743205631059927e-06 0 -9.9092012715899652e-06 -9.5449397504796259e-07 0 -1.3216667381796298e-05 -2.2716097622362528e-06 0 -1.1793466752769549e-05 -3.0743205631059927e-06 0 -7.9013511826587227e-06 -1.0023581596666404e-06 0 -9.9092012715899652e-06 -9.5449397504796259e-07 0 -6.7684410616282444e-06 6.7330700451873766e-07 0 -9.9092012715899652e-06 -9.5449397504796259e-07 0 -7.9013511826587227e-06 -1.0023581596666404e-06 0 -9.8313539618363457e-06 -9.4017348374394815e-08 0 -1.3216667381796298e-05 -2.2716097622362528e-06 0 -9.9092012715899652e-06 -9.5449397504796259e-07 0 -9.9092012715899652e-06 -9.5449397504796259e-07 0 -6.7684410616282444e-06 6.7330700451873766e-07 0 -9.8313539618363457e-06 -9.4017348374394815e-08 0 -9.8313539618363457e-06 -9.4017348374394815e-08 0 -6.7684410616282444e-06 6.7330700451873766e-07 0 -7.1196609788521121e-06 1.112452240358171e-06 0 -6.7684410616282444e-06 6.7330700451873766e-07 0 -4.1723245811457261e-06 1.4673658969438097e-06 0 -4.9892957500993314e-06 1.75360219401126e-06 0 -6.7684410616282444e-06 6.7330700451873766e-07 0 -4.8358464636771554e-06 4.3745335855240894e-07 0 -4.1723245811457261e-06 1.4673658969438097e-06 0 -2.5263700673240104e-06 1.4764948418355207e-06 0 -4.1723245811457261e-06 1.4673658969438099e-06 0 -4.8358464636771554e-06 4.3745335855240894e-07 0 -5.2360416376404862e-06 -1.032174729778473e-06 0 -2.6533640784197131e-06 -5.699493625456684e-09 0 -4.8358464636771554e-06 4.3745335855240894e-07 0 -2.5263700673240104e-06 1.4764948418355207e-06 0 -4.8358464636771554e-06 4.3745335855240894e-07 0 -2.6533640784197131e-06 -5.699493625456684e-09 0 -6.7684410616282444e-06 6.7330700451873766e-07 0 -7.9013511826587227e-06 -1.0023581596666404e-06 0 -4.8358464636771554e-06 4.3745335855240894e-07 0 -7.311121601411477e-07 1.196177151620349e-06 0 5.1477817845758188e-07 1.8718451569819108e-06 0 -9.9141228176048177e-07 2.3107734382528507e-06 0 -2.5263700673240104e-06 1.4764948418355207e-06 0 -7.311121601411477e-07 1.196177151620349e-06 0 -9.9141228176048177e-07 2.3107734382528507e-06 0 -2.5263700673240104e-06 1.4764948418355207e-06 0 -2.6533640784197127e-06 -5.6994936254567088e-09 0 -7.311121601411477e-07 1.196177151620349e-06 0 -1.8809776848433164e-07 -8.3845566288089816e-07 0 1.3346401572073147e-06 9.575872645567066e-07 0 -7.311121601411477e-07 1.196177151620349e-06 0 -1.8809776848433164e-07 -8.3845566288089816e-07 0 -7.3111216014114802e-07 1.1961771516203488e-06 0 -2.6533640784197131e-06 -5.699493625456684e-09 0 -1.8809776848433164e-07 -8.3845566288089816e-07 0 -2.6533640784197131e-06 -5.699493625456684e-09 0 -3.7245628618869851e-06 -2.1507953253142968e-06 0 -1.8809776848433164e-07 -8.3845566288089816e-07 0 -3.7245628618869851e-06 -2.1507953253142968e-06 0 -1.3809872217895454e-06 -3.7670919919503572e-06 0 -1.8809776848433164e-07 -8.3845566288089816e-07 0 -1.3809872217895454e-06 -3.7670919919503572e-06 0 2.0628232266021533e-06 -2.8029172703185149e-06 0 -5.2360416376404862e-06 -1.032174729778473e-06 0 -4.8358464636771554e-06 4.3745335855240894e-07 0 -7.9013511826587227e-06 -1.0023581596666404e-06 0 -5.2360416376404862e-06 -1.032174729778473e-06 0 -7.9013511826587227e-06 -1.0023581596666402e-06 0 -7.6246489484572707e-06 -2.9257237001355179e-06 0 -5.2360416376404862e-06 -1.032174729778473e-06 0 -3.7245628618869851e-06 -2.1507953253142968e-06 0 -2.6533640784197131e-06 -5.699493625456684e-09 0 -5.9908761344483343e-06 -5.0237386471663886e-06 0 -3.7245628618869851e-06 -2.1507953253142968e-06 0 -7.6246489484572707e-06 -2.9257237001355179e-06 0 -5.2360416376404862e-06 -1.032174729778473e-06 0 -7.6246489484572707e-06 -2.9257237001355179e-06 0 -3.7245628618869851e-06 -2.1507953253142968e-06 0 -5.9908761344483343e-06 -5.0237386471663886e-06 0 -7.6246489484572707e-06 -2.9257237001355179e-06 0 -1.122338729644004e-05 -5.8250787539397693e-06 0 -5.9908761344483343e-06 -5.0237386471663886e-06 0 -9.5154419356990408e-06 -9.4369132166686155e-06 0 -3.1276743688745851e-06 -7.1343900264759993e-06 0 -5.9908761344483343e-06 -5.0237386471663886e-06 0 -1.1223387296440038e-05 -5.8250787539397693e-06 0 -9.5154419356990408e-06 -9.4369132166686155e-06 0 1.3437639662916251e-06 -5.9413887426664104e-06 0 2.0628232266021533e-06 -2.8029172703185149e-06 0 -1.3809872217895454e-06 -3.7670919919503572e-06 0 -5.9908761344483343e-06 -5.0237386471663886e-06 0 -1.3809872217895454e-06 -3.7670919919503567e-06 0 -3.7245628618869851e-06 -2.1507953253142968e-06 0 -5.9908761344483343e-06 -5.0237386471663886e-06 0 -3.1276743688745851e-06 -7.1343900264759993e-06 0 -1.3809872217895454e-06 -3.7670919919503572e-06 0 1.3437639662916251e-06 -5.9413887426664104e-06 0 -1.3809872217895454e-06 -3.7670919919503572e-06 0 -3.1276743688745851e-06 -7.1343900264759993e-06 0 1.3437639662916251e-06 -5.9413887426664104e-06 0 -3.1276743688745851e-06 -7.1343900264760002e-06 0 -2.8655541176892388e-07 -1.0048490544093341e-05 0 -4.8692429897044975e-06 -1.2094966063437456e-05 0 -2.8655541176892377e-07 -1.0048490544093341e-05 0 -3.1276743688745851e-06 -7.1343900264759993e-06 0 -4.8692429897044975e-06 -1.2094966063437456e-05 0 -7.7289812240406378e-06 -1.8720657467442512e-05 0 -2.7551661011647001e-06 -1.6342718285659172e-05 0 -4.8692429897044975e-06 -1.2094966063437456e-05 0 -2.7551661011647001e-06 -1.6342718285659172e-05 0 -2.8655541176892388e-07 -1.0048490544093341e-05 0 2.2239474820903107e-06 -1.3461771319512919e-05 0 -2.8655541176892388e-07 -1.0048490544093341e-05 0 -2.7551661011647001e-06 -1.6342718285659172e-05 0 -4.8692429897044975e-06 -1.2094966063437456e-05 0 -9.5154419356990408e-06 -9.4369132166686155e-06 0 -1.0501030195083648e-05 -1.4488883740924169e-05 0 -4.8692429897044975e-06 -1.2094966063437456e-05 0 -3.1276743688745851e-06 -7.1343900264759993e-06 0 -9.5154419356990408e-06 -9.4369132166686155e-06 0 -4.8692429897044975e-06 -1.2094966063437456e-05 0 -1.0501030195083648e-05 -1.4488883740924169e-05 0 -7.7289812240406378e-06 -1.8720657467442512e-05 0 -9.5154419356990408e-06 -9.4369132166686155e-06 0 -1.6374939060393041e-05 -1.45635132276436e-05 0 -1.0501030195083648e-05 -1.4488883740924169e-05 0 -1.4056779052174426e-05 -1.8597362806852566e-05 0 -1.0501030195083648e-05 -1.4488883740924169e-05 0 -1.6374939060393041e-05 -1.45635132276436e-05 0 -1.6070834207112547e-05 -9.9404411644804011e-06 0 -1.6374939060393041e-05 -1.45635132276436e-05 0 -9.5154419356990408e-06 -9.4369132166686155e-06 0 -1.6070834207112547e-05 -9.9404411644804011e-06 0 -2.2244432361785903e-05 -1.452515529393142e-05 0 -1.6374939060393041e-05 -1.45635132276436e-05 0 -2.3358591788700501e-05 -2.181332033195571e-05 0 -1.6374939060393041e-05 -1.45635132276436e-05 0 -2.2244432361785903e-05 -1.452515529393142e-05 0 -3.0568393024272608e-05 -1.9730588912789082e-05 0 -2.3358591788700501e-05 -2.181332033195571e-05 0 -2.2244432361785903e-05 -1.452515529393142e-05 0 -2.6151458446616333e-05 -1.3260874240236044e-05 0 -3.0568393024272608e-05 -1.9730588912789082e-05 0 -2.2244432361785903e-05 -1.452515529393142e-05 0 -2.6151458446616333e-05 -1.3260874240236044e-05 0 -2.2244432361785903e-05 -1.452515529393142e-05 0 -2.0531620707708858e-05 -1.0357806078935841e-05 0 -1.6070834207112547e-05 -9.9404411644804011e-06 0 -2.0531620707708858e-05 -1.0357806078935841e-05 0 -2.2244432361785903e-05 -1.452515529393142e-05 0 -2.1799024314909924e-05 -8.2473175485774659e-06 0 -2.0531620707708858e-05 -1.0357806078935841e-05 0 -1.6348816003709793e-05 -6.6388666193734384e-06 0 -1.6070834207112547e-05 -9.9404411644804011e-06 0 -1.6348816003709793e-05 -6.6388666193734384e-06 0 -2.0531620707708858e-05 -1.0357806078935841e-05 0 -2.1799024314909924e-05 -8.2473175485774659e-06 0 -2.6151458446616333e-05 -1.3260874240236044e-05 0 -2.0531620707708858e-05 -1.0357806078935841e-05 0 -2.1799024314909924e-05 -8.2473175485774659e-06 0 -1.6348816003709793e-05 -6.6388666193734376e-06 0 -1.6076148090318322e-05 -4.5644649184158882e-06 0 -1.1793466752769549e-05 -3.0743205631059927e-06 0 -1.6348816003709793e-05 -6.6388666193734384e-06 0 -1.122338729644004e-05 -5.8250787539397693e-06 0 -1.6070834207112547e-05 -9.9404411644804011e-06 0 -9.5154419356990408e-06 -9.4369132166686138e-06 0 -1.122338729644004e-05 -5.8250787539397693e-06 0 -1.6070834207112547e-05 -9.9404411644804011e-06 0 -1.122338729644004e-05 -5.8250787539397693e-06 0 -1.6348816003709793e-05 -6.6388666193734384e-06 0 8.320228463594463e-06 -1.693569763968365e-06 0 7.7170974931752192e-06 -6.3446309714424134e-07 0 6.9233366342863801e-06 -2.788038770039465e-06 0 6.4637441551350897e-06 -1.3790671538119601e-06 0 6.9233366342863801e-06 -2.788038770039465e-06 0 7.7170974931752192e-06 -6.3446309714424134e-07 0 6.4637441551350897e-06 -1.3790671538119601e-06 0 5.4602884168509712e-06 -3.0588643475132901e-06 0 6.9233366342863801e-06 -2.788038770039465e-06 0 8.320228463594463e-06 -1.693569763968365e-06 0 9.3534700236135023e-06 5.8251463890730472e-07 0 7.7170974931752192e-06 -6.3446309714424134e-07 0 1.104127091041812e-05 2.1660248145042829e-06 0 9.3534700236135023e-06 5.8251463890730483e-07 0 1.0546447300041575e-05 3.657806291878063e-07 0 8.320228463594463e-06 -1.693569763968365e-06 0 1.0546447300041575e-05 3.657806291878063e-07 0 9.3534700236135023e-06 5.8251463890730483e-07 0 8.320228463594463e-06 -1.693569763968365e-06 0 9.3154905543282475e-06 -1.8947571236941429e-06 0 1.0546447300041575e-05 3.657806291878063e-07 0 8.320228463594463e-06 -1.693569763968365e-06 0 8.1364481782572403e-06 -4.0758324777951716e-06 0 9.3154905543282475e-06 -1.8947571236941427e-06 0 1.0340461838367943e-05 -2.4269543781846135e-06 0 1.0546447300041575e-05 3.657806291878063e-07 0 9.3154905543282475e-06 -1.8947571236941427e-06 0 1.0340461838367943e-05 -2.4269543781846135e-06 0 9.3154905543282475e-06 -1.8947571236941423e-06 0 8.1364481782572403e-06 -4.0758324777951716e-06 0 6.1850131092573041e-06 -7.1310665486162033e-06 0 8.1364481782572403e-06 -4.0758324777951716e-06 0 6.7659949352554372e-06 -4.7089270085946295e-06 0 8.320228463594463e-06 -1.693569763968365e-06 0 6.7659949352554372e-06 -4.7089270085946286e-06 0 8.1364481782572403e-06 -4.0758324777951716e-06 0 8.320228463594463e-06 -1.693569763968365e-06 0 6.9233366342863801e-06 -2.788038770039465e-06 0 6.7659949352554372e-06 -4.7089270085946295e-06 0 5.938023791204529e-06 -5.0240583125026694e-06 0 6.7659949352554372e-06 -4.7089270085946295e-06 0 6.9233366342863801e-06 -2.788038770039465e-06 0 6.1850131092573041e-06 -7.1310665486162033e-06 0 6.7659949352554372e-06 -4.7089270085946295e-06 0 5.284549589961602e-06 -7.6069774612992115e-06 0 6.34302591158136e-06 -1.1370534285570621e-05 0 5.284549589961602e-06 -7.6069774612992115e-06 0 5.6093596631068955e-06 -7.6908002522872397e-06 0 5.938023791204529e-06 -5.0240583125026694e-06 0 5.6093596631068955e-06 -7.6908002522872397e-06 0 5.284549589961602e-06 -7.6069774612992115e-06 0 5.938023791204529e-06 -5.0240583125026694e-06 0 4.5690175148256246e-06 -4.8799322723843461e-06 0 5.6093596631068955e-06 -7.6908002522872397e-06 0 5.938023791204529e-06 -5.0240583125026694e-06 0 5.284549589961602e-06 -7.6069774612992115e-06 0 6.7659949352554372e-06 -4.7089270085946295e-06 0 6.34302591158136e-06 -1.1370534285570621e-05 0 3.9447263257167146e-06 -8.5136913523914185e-06 0 2.2239474820903107e-06 -1.3461771319512919e-05 0 2.2239474820903107e-06 -1.3461771319512919e-05 0 3.9447263257167146e-06 -8.5136913523914185e-06 0 -2.8655541176892388e-07 -1.0048490544093341e-05 0 6.34302591158136e-06 -1.1370534285570621e-05 0 5.6093596631068955e-06 -7.6908002522872397e-06 0 3.9447263257167146e-06 -8.5136913523914185e-06 0 4.5690175148256246e-06 -4.8799322723843461e-06 0 3.9447263257167146e-06 -8.5136913523914185e-06 0 5.6093596631068955e-06 -7.6908002522872397e-06 0 1.3437639662916251e-06 -5.9413887426664104e-06 0 -2.8655541176892388e-07 -1.0048490544093341e-05 0 3.9447263257167146e-06 -8.5136913523914185e-06 0 1.3437639662916251e-06 -5.9413887426664104e-06 0 3.9447263257167137e-06 -8.5136913523914185e-06 0 4.5690175148256246e-06 -4.8799322723843461e-06 0 1.3437639662916251e-06 -5.9413887426664104e-06 0 4.5690175148256246e-06 -4.8799322723843461e-06 0 2.0628232266021533e-06 -2.8029172703185149e-06 0 4.1313912108162162e-06 -1.7768731912017763e-06 0 2.0628232266021533e-06 -2.8029172703185149e-06 0 4.5690175148256246e-06 -4.8799322723843461e-06 0 5.938023791204529e-06 -5.0240583125026694e-06 0 6.9233366342863801e-06 -2.788038770039465e-06 0 5.4602884168509712e-06 -3.0588643475132901e-06 0 5.938023791204529e-06 -5.0240583125026694e-06 0 5.4602884168509712e-06 -3.0588643475132901e-06 0 4.5690175148256246e-06 -4.8799322723843461e-06 0 4.1313912108162162e-06 -1.7768731912017763e-06 0 4.5690175148256246e-06 -4.8799322723843461e-06 0 5.4602884168509712e-06 -3.0588643475132901e-06 0 5.4602884168509712e-06 -3.0588643475132901e-06 0 5.3897069945013012e-06 1.667938181631664e-07 0 4.1313912108162162e-06 -1.7768731912017763e-06 0 6.4637441551350897e-06 -1.3790671538119601e-06 0 5.3897069945013012e-06 1.667938181631664e-07 0 5.4602884168509712e-06 -3.0588643475132901e-06 0 4.1313912108162162e-06 -1.7768731912017763e-06 0 5.3897069945013012e-06 1.6679381816316672e-07 0 3.9951814795776008e-06 -4.5014654939931701e-08 0 5.3897069945013012e-06 1.667938181631664e-07 0 4.3999314758584611e-06 1.0044053229056727e-06 0 3.9951814795776008e-06 -4.5014654939931701e-08 0 -1.8809776848433164e-07 -8.3845566288089816e-07 0 2.0628232266021533e-06 -2.8029172703185149e-06 0 2.5118734861488671e-06 -5.0415382683869526e-07 0 4.1313912108162162e-06 -1.7768731912017763e-06 0 2.5118734861488675e-06 -5.0415382683869516e-07 0 2.0628232266021533e-06 -2.8029172703185149e-06 0 4.1313912108162162e-06 -1.7768731912017763e-06 0 3.9951814795776008e-06 -4.5014654939931582e-08 0 2.5118734861488671e-06 -5.0415382683869526e-07 0 3.095183575468584e-06 9.713536841290235e-07 0 2.5118734861488671e-06 -5.0415382683869526e-07 0 3.9951814795776008e-06 -4.5014654939931701e-08 0 -1.8809776848433164e-07 -8.3845566288089816e-07 0 2.5118734861488671e-06 -5.0415382683869505e-07 0 1.3346401572073147e-06 9.575872645567066e-07 0 3.095183575468584e-06 9.713536841290235e-07 0 1.3346401572073147e-06 9.575872645567066e-07 0 2.5118734861488671e-06 -5.0415382683869526e-07 0 3.095183575468584e-06 9.713536841290235e-07 0 2.0715269062834828e-06 2.0533412218508978e-06 0 1.3346401572073147e-06 9.575872645567066e-07 0 5.1477817845758188e-07 1.8718451569819108e-06 0 1.3346401572073147e-06 9.575872645567066e-07 0 2.0715269062834828e-06 2.0533412218508978e-06 0 5.1477817845758188e-07 1.8718451569819108e-06 0 -7.311121601411477e-07 1.196177151620349e-06 0 1.3346401572073147e-06 9.575872645567066e-07 0 5.2506913364524718e-06 1.5964503461096577e-06 0 4.3999314758584611e-06 1.0044053229056727e-06 0 5.3897069945013012e-06 1.667938181631664e-07 0 3.095183575468584e-06 9.713536841290235e-07 0 3.9951814795776016e-06 -4.5014654939931695e-08 0 4.3999314758584611e-06 1.0044053229056727e-06 0 3.095183575468584e-06 9.713536841290235e-07 0 4.3999314758584611e-06 1.0044053229056727e-06 0 3.7230165667591625e-06 1.7822077190852926e-06 0 3.095183575468584e-06 9.713536841290235e-07 0 3.7230165667591625e-06 1.7822077190852926e-06 0 2.0715269062834828e-06 2.0533412218508978e-06 0 5.2506913364524718e-06 1.5964503461096577e-06 0 3.7230165667591625e-06 1.7822077190852926e-06 0 4.3999314758584611e-06 1.0044053229056727e-06 0 5.2506913364524718e-06 1.5964503461096577e-06 0 3.8251192716374373e-06 2.2282565850057817e-06 0 3.7230165667591625e-06 1.7822077190852926e-06 0 5.2506913364524718e-06 1.5964503461096577e-06 0 6.879866140786689e-06 1.6661669166313035e-06 0 5.2909265504574414e-06 2.022348177286715e-06 0 6.879866140786689e-06 1.6661669166313033e-06 0 6.9385279568969256e-06 1.9554078561042821e-06 0 5.2909265504574414e-06 2.022348177286715e-06 0 5.2506913364524718e-06 1.5964503461096577e-06 0 6.4921114029125608e-06 9.5755246291292944e-07 0 6.879866140786689e-06 1.6661669166313033e-06 0 5.2506913364524718e-06 1.5964503461096577e-06 0 5.3897069945013012e-06 1.667938181631664e-07 0 6.4921114029125608e-06 9.5755246291292944e-07 0 5.3897069945013012e-06 1.667938181631664e-07 0 6.867524684139891e-06 4.511103066173587e-08 0 6.4921114029125608e-06 9.5755246291292944e-07 0 8.053755698532167e-06 1.02412742592811e-06 0 6.4921114029125608e-06 9.5755246291292944e-07 0 6.867524684139891e-06 4.511103066173587e-08 0 8.053755698532167e-06 1.02412742592811e-06 0 6.879866140786689e-06 1.6661669166313033e-06 0 6.4921114029125608e-06 9.5755246291292944e-07 0 8.053755698532167e-06 1.02412742592811e-06 0 6.867524684139891e-06 4.511103066173587e-08 0 7.7170974931752192e-06 -6.3446309714424134e-07 0 6.4637441551350897e-06 -1.3790671538119601e-06 0 7.7170974931752192e-06 -6.3446309714424144e-07 0 6.867524684139891e-06 4.511103066173587e-08 0 6.4637441551350897e-06 -1.3790671538119601e-06 0 6.867524684139891e-06 4.5111030661735784e-08 0 5.3897069945013012e-06 1.667938181631664e-07 0 1.104127091041812e-05 2.1660248145042829e-06 0 9.5358011908093744e-06 1.726333702173762e-06 0 9.3534700236135023e-06 5.8251463890730483e-07 0 8.053755698532167e-06 1.02412742592811e-06 0 9.3534700236135023e-06 5.8251463890730483e-07 0 9.5358011908093744e-06 1.726333702173762e-06 0 8.053755698532167e-06 1.02412742592811e-06 0 7.7170974931752192e-06 -6.3446309714424134e-07 0 9.3534700236135023e-06 5.8251463890730483e-07 0 8.053755698532167e-06 1.02412742592811e-06 0 8.4977435075657887e-06 1.873846896596289e-06 0 6.879866140786689e-06 1.6661669166313033e-06 0 9.5358011908093744e-06 1.726333702173762e-06 0 1.0530680011332136e-05 2.5385821024877121e-06 0 8.4977435075657887e-06 1.873846896596289e-06 0 8.053755698532167e-06 1.02412742592811e-06 0 9.5358011908093744e-06 1.726333702173762e-06 0 8.4977435075657887e-06 1.873846896596289e-06 0 8.7058573413509013e-06 2.0739311952676738e-06 0 6.9385279568969256e-06 1.9554078561042821e-06 0 8.4977435075657887e-06 1.873846896596289e-06 0 6.879866140786689e-06 1.6661669166313033e-06 0 8.4977435075657887e-06 1.873846896596289e-06 0 6.9385279568969256e-06 1.9554078561042821e-06 0 8.7058573413509013e-06 2.0739311952676738e-06 0 7.1335015407243094e-06 1.8635945430549496e-06 0 6.9385279568969256e-06 1.9554078561042821e-06 0 5.7093952873730548e-06 1.9835871522946192e-06 0 7.1335015407243094e-06 1.8635945430549496e-06 0 5.5080250355845509e-06 1.7201111167497636e-06 0 5.7093952873730548e-06 1.9835871522946192e-06 0 5.5080250355845509e-06 1.7201111167497636e-06 0 4.4745063616922832e-06 2.0772837222531896e-06 0 5.7093952873730548e-06 1.9835871522946192e-06 0 5.2909265504574414e-06 2.022348177286715e-06 0 6.9385279568969256e-06 1.9554078561042821e-06 0 5.7093952873730548e-06 1.9835871522946192e-06 0 6.9385279568969256e-06 1.9554078561042821e-06 0 7.1335015407243094e-06 1.8635945430549496e-06 0 5.2506913364524718e-06 1.5964503461096577e-06 0 5.2909265504574423e-06 2.0223481772867146e-06 0 3.8251192716374373e-06 2.2282565850057817e-06 0 3.1219612588948668e-06 2.2475415103092074e-06 0 3.8251192716374373e-06 2.2282565850057817e-06 0 4.4745063616922832e-06 2.0772837222531896e-06 0 3.8251192716374373e-06 2.2282565850057817e-06 0 5.2909265504574414e-06 2.022348177286715e-06 0 4.4745063616922832e-06 2.0772837222531896e-06 0 5.7093952873730548e-06 1.9835871522946192e-06 0 4.4745063616922832e-06 2.0772837222531896e-06 0 5.2909265504574414e-06 2.022348177286715e-06 0 4.1270443162711554e-06 1.6956759783350291e-06 0 3.1004365557335434e-06 1.8677468317036568e-06 0 4.4745063616922832e-06 2.0772837222531896e-06 0 3.1219612588948668e-06 2.2475415103092074e-06 0 4.4745063616922832e-06 2.0772837222531896e-06 0 3.1004365557335434e-06 1.8677468317036568e-06 0 3.1219612588948668e-06 2.2475415103092074e-06 0 3.1004365557335434e-06 1.8677468317036568e-06 0 2.0554599835670308e-06 1.9200540449665698e-06 0 4.1270443162711554e-06 1.6956759783350291e-06 0 2.8566644965118041e-06 1.3435492238161769e-06 0 3.1004365557335434e-06 1.8677468317036568e-06 0 3.4739877789171639e-06 9.6738153768543758e-07 0 2.8566644965118041e-06 1.3435492238161769e-06 0 4.1270443162711554e-06 1.6956759783350291e-06 0 3.4739877789171639e-06 9.6738153768543758e-07 0 4.1270443162711554e-06 1.6956759783350291e-06 0 4.9399141664088483e-06 1.2701390744559472e-06 0 4.1270443162711554e-06 1.6956759783350291e-06 0 5.5080250355845509e-06 1.7201111167497636e-06 0 4.9399141664088483e-06 1.2701390744559472e-06 0 4.1270443162711554e-06 1.6956759783350291e-06 0 4.4745063616922832e-06 2.0772837222531896e-06 0 5.5080250355845509e-06 1.7201111167497636e-06 0 5.1477817845758188e-07 1.8718451569819108e-06 0 2.0715269062834828e-06 2.0533412218508978e-06 0 7.2035350915951794e-07 2.4758934957119292e-06 0 1.9972658229062687e-06 2.5022233609661685e-06 0 7.2035350915951794e-07 2.4758934957119292e-06 0 2.0715269062834828e-06 2.0533412218508978e-06 0 1.9972658229062687e-06 2.5022233609661685e-06 0 8.5301993605296362e-07 2.6424188355783115e-06 0 7.2035350915951794e-07 2.4758934957119292e-06 0 1.9972658229062687e-06 2.5022233609661685e-06 0 2.9426826981372099e-06 2.2290503284087563e-06 0 2.7615371547332697e-06 2.4043869529520272e-06 0 1.9972658229062687e-06 2.5022233609661685e-06 0 2.0715269062834828e-06 2.0533412218508978e-06 0 2.9426826981372099e-06 2.2290503284087563e-06 0 2.0715269062834828e-06 2.0533412218508978e-06 0 3.7230165667591625e-06 1.7822077190852926e-06 0 2.9426826981372099e-06 2.2290503284087563e-06 0 3.8251192716374373e-06 2.2282565850057817e-06 0 2.9426826981372099e-06 2.2290503284087563e-06 0 3.7230165667591625e-06 1.7822077190852926e-06 0 3.8251192716374373e-06 2.2282565850057817e-06 0 2.7615371547332697e-06 2.4043869529520272e-06 0 2.9426826981372099e-06 2.2290503284087563e-06 0 3.1219612588948668e-06 2.2475415103092074e-06 0 2.7615371547332701e-06 2.4043869529520272e-06 0 3.8251192716374373e-06 2.2282565850057817e-06 0 3.1219612588948668e-06 2.2475415103092074e-06 0 1.7555525299848228e-06 2.4440986092419981e-06 0 2.7615371547332697e-06 2.4043869529520272e-06 0 3.1219612588948668e-06 2.2475415103092074e-06 0 2.0554599835670308e-06 1.9200540449665698e-06 0 1.7555525299848228e-06 2.4440986092419981e-06 0 1.9972658229062687e-06 2.5022233609661685e-06 0 2.7615371547332693e-06 2.4043869529520272e-06 0 1.7555525299848228e-06 2.4440986092419981e-06 0 1.9972658229062687e-06 2.5022233609661685e-06 0 1.7555525299848226e-06 2.4440986092419981e-06 0 8.5301993605296362e-07 2.6424188355783115e-06 0 4.0885752756865186e-07 2.4781381548790073e-06 0 8.5301993605296362e-07 2.6424188355783115e-06 0 1.7555525299848228e-06 2.4440986092419981e-06 0 4.0885752756865186e-07 2.4781381548790073e-06 0 -1.508119017518738e-07 2.607382540103684e-06 0 8.5301993605296362e-07 2.6424188355783115e-06 0 -4.1405370895825545e-07 2.6601280870878937e-06 0 7.2035350915951794e-07 2.4758934957119292e-06 0 8.5301993605296362e-07 2.6424188355783115e-06 0 -4.1405370895825545e-07 2.6601280870878937e-06 0 8.5301993605296362e-07 2.6424188355783115e-06 0 -1.508119017518738e-07 2.607382540103684e-06 0 1.6489930829346749e-07 1.3773795424664406e-06 0 -7.066218498717842e-08 2.2133002130304592e-06 0 7.4564369207034534e-07 2.0954503195423556e-06 0 4.0885752756865186e-07 2.4781381548790073e-06 0 -7.0662184987178433e-08 2.2133002130304592e-06 0 -1.508119017518738e-07 2.607382540103684e-06 0 4.0885752756865186e-07 2.4781381548790073e-06 0 7.4564369207034534e-07 2.0954503195423556e-06 0 -7.066218498717842e-08 2.2133002130304592e-06 0 4.0885752756865186e-07 2.4781381548790073e-06 0 1.7555525299848228e-06 2.4440986092419981e-06 0 7.4564369207034534e-07 2.0954503195423556e-06 0 1.6489930829346749e-07 1.3773795424664406e-06 0 7.4564369207034534e-07 2.0954503195423556e-06 0 4.6802123869704927e-07 1.1941342233700766e-06 0 1.1822926922957719e-06 1.8340050479248818e-06 0 4.6802123869704927e-07 1.1941342233700766e-06 0 7.4564369207034534e-07 2.0954503195423556e-06 0 1.1822926922957719e-06 1.8340050479248818e-06 0 7.4564369207034534e-07 2.0954503195423556e-06 0 1.7555525299848228e-06 2.4440986092419981e-06 0 1.1822926922957719e-06 1.8340050479248818e-06 0 1.7555525299848228e-06 2.4440986092419981e-06 0 2.0554599835670308e-06 1.9200540449665698e-06 0 1.1822926922957719e-06 1.8340050479248818e-06 0 2.0554599835670308e-06 1.9200540449665698e-06 0 8.1946857343621167e-07 1.1229717860530609e-06 0 1.1822926922957719e-06 1.8340050479248818e-06 0 8.1946857343621157e-07 1.1229717860530609e-06 0 4.6802123869704927e-07 1.1941342233700766e-06 0 5.4603542678141492e-10 5.4204192524597789e-10 0 4.6802123869704927e-07 1.1941342233700766e-06 0 8.1946857343621167e-07 1.1229717860530609e-06 0 5.4603542678141492e-10 5.4204192524597789e-10 0 3.173745047142952e-10 5.3871450119505924e-10 0 4.6802123869704927e-07 1.1941342233700766e-06 0 3.173745047142952e-10 5.3871450119505924e-10 0 1.6489930829346749e-07 1.3773795424664406e-06 0 4.6802123869704927e-07 1.1941342233700766e-06 0 3.173745047142952e-10 5.3871450119505924e-10 0 -3.0979733698485236e-11 6.112321535973747e-10 0 1.6489930829346749e-07 1.3773795424664406e-06 0 -3.0979733698485236e-11 6.112321535973747e-10 0 -1.6204797616673803e-07 1.2601242818409196e-06 0 1.6489930829346749e-07 1.3773795424664406e-06 0 1.7156796567637108e-06 1.2412131990446422e-06 0 2.8566644965118041e-06 1.3435492238161767e-06 0 1.7694837889610176e-06 7.2254344880001078e-07 0 3.4739877789171639e-06 9.6738153768543758e-07 0 1.7694837889610176e-06 7.2254344880001078e-07 0 2.8566644965118041e-06 1.3435492238161769e-06 0 2.8566644965118041e-06 1.3435492238161769e-06 0 1.7156796567637108e-06 1.2412131990446422e-06 0 3.1004365557335434e-06 1.8677468317036568e-06 0 1.7156796567637108e-06 1.2412131990446422e-06 0 2.0554599835670308e-06 1.9200540449665698e-06 0 3.1004365557335434e-06 1.8677468317036568e-06 0 1.7156796567637108e-06 1.2412131990446422e-06 0 8.1946857343621178e-07 1.1229717860530611e-06 0 2.0554599835670308e-06 1.9200540449665698e-06 0 1.7156796567637108e-06 1.2412131990446422e-06 0 7.0623869009771527e-07 6.8614795829128266e-07 0 8.1946857343621167e-07 1.1229717860530609e-06 0 8.7257268817806491e-10 3.6111690251749807e-10 0 5.4603542678141492e-10 5.4204192524597789e-10 0 8.1946857343621167e-07 1.1229717860530609e-06 0 8.7257268817806491e-10 3.6111690251749807e-10 0 8.1946857343621167e-07 1.1229717860530609e-06 0 7.0623869009771548e-07 6.8614795829128276e-07 0 1.0323768594769958e-09 3.0400709226290759e-10 0 8.7257268817806491e-10 3.6111690251749807e-10 0 7.0623869009771548e-07 6.8614795829128276e-07 0 1.0323768594769958e-09 3.0400709226290759e-10 0 7.0623869009771548e-07 6.8614795829128276e-07 0 7.4745810651524306e-07 5.1179597820767187e-07 0 1.1118089725395773e-09 2.5133593781397846e-10 0 7.4745810651524306e-07 5.1179597820767187e-07 0 1.7694837889610176e-06 7.2254344880001078e-07 0 1.7156796567637108e-06 1.2412131990446422e-06 0 1.7694837889610176e-06 7.2254344880001078e-07 0 7.4745810651524306e-07 5.1179597820767187e-07 0 1.7156796567637108e-06 1.2412131990446422e-06 0 7.4745810651524306e-07 5.1179597820767187e-07 0 7.0623869009771548e-07 6.8614795829128276e-07 0 1.1118089725395773e-09 2.5133593781397846e-10 0 1.0323768594769958e-09 3.0400709226290759e-10 0 7.4745810651524306e-07 5.1179597820767187e-07 0 1.1118089725395773e-09 2.5133593781397846e-10 0 1.7694837889610176e-06 7.2254344880001078e-07 0 1.1503897689753533e-06 2.0785292761713778e-07 0 1.203243773248808e-09 -7.9249130343135753e-11 0 1.1118089725396402e-09 2.5133593781398978e-10 0 1.1503897689753533e-06 2.0785292761713778e-07 0 1.203243773248808e-09 -7.9249130343135753e-11 0 1.1503897689753533e-06 2.0785292761713778e-07 0 8.7791288087961113e-07 -8.9438968458431768e-08 0 2.1876010452103889e-06 -3.1046210811515161e-08 0 8.7791288087961113e-07 -8.9438968458431768e-08 0 1.1503897689753533e-06 2.0785292761713778e-07 0 1.7694837889610176e-06 7.2254344880001078e-07 0 2.3937786557119829e-06 4.0138169390482072e-07 0 1.1503897689753533e-06 2.0785292761713778e-07 0 3.4739877789171639e-06 9.6738153768543758e-07 0 2.3937786557119825e-06 4.0138169390482072e-07 0 1.7694837889610176e-06 7.2254344880001078e-07 0 2.1876010452103889e-06 -3.1046210811515161e-08 0 1.1503897689753533e-06 2.0785292761713778e-07 0 2.3937786557119825e-06 4.0138169390482072e-07 0 2.1876010452103889e-06 -3.1046210811515161e-08 0 2.3937786557119825e-06 4.0138169390482072e-07 0 3.4791921213371828e-06 1.2978422955582424e-07 0 2.3937786557119825e-06 4.0138169390482072e-07 0 3.4739877789171639e-06 9.6738153768543758e-07 0 3.4791921213371828e-06 1.2978422955582424e-07 0 2.1876010452103889e-06 -3.1046210811515161e-08 0 3.4791921213371828e-06 1.2978422955582424e-07 0 2.9535949994513366e-06 -5.2815092353968518e-07 0 2.1671800457316083e-06 -1.0545183477856495e-06 0 1.2596021449456713e-06 -4.7128743420690362e-07 0 2.9535949994513366e-06 -5.2815092353968518e-07 0 2.1876010452103889e-06 -3.1046210811515161e-08 0 2.9535949994513366e-06 -5.2815092353968518e-07 0 1.2596021449456713e-06 -4.7128743420690362e-07 0 2.1876010452103889e-06 -3.1046210811515161e-08 0 1.2596021449456713e-06 -4.7128743420690362e-07 0 8.7791288087961113e-07 -8.9438968458431768e-08 0 1.2269097101863061e-09 1.2647639645157257e-11 0 1.2032437732486471e-09 -7.9249130343119364e-11 0 8.7791288087961113e-07 -8.9438968458431768e-08 0 9.4955176929081558e-10 -3.9971602454820689e-10 0 1.2269097101863061e-09 1.2647639645157257e-11 0 1.2596021449456713e-06 -4.7128743420690362e-07 0 1.2269097101863061e-09 1.2647639645157257e-11 0 8.7791288087961123e-07 -8.9438968458431821e-08 0 1.2596021449456713e-06 -4.7128743420690362e-07 0 6.9687030708974578e-10 -5.0542216708088856e-10 0 9.4955176929081558e-10 -3.9971602454820689e-10 0 9.7328862206847232e-07 -9.0698612752748334e-07 0 2.1671800457316083e-06 -1.0545183477856495e-06 0 9.7328862206847232e-07 -9.0698612752748334e-07 0 1.2596021449456713e-06 -4.7128743420690362e-07 0 9.4955176929081558e-10 -3.9971602454820689e-10 0 1.2596021449456713e-06 -4.7128743420690362e-07 0 9.7328862206847232e-07 -9.0698612752748334e-07 0 2.9778816190818598e-10 -7.4674781639667287e-10 0 6.9687030708974578e-10 -5.0542216708088856e-10 0 6.253903193021122e-07 -1.4255841279348748e-06 0 6.9687030708974578e-10 -5.0542216708088856e-10 0 9.7328862206847232e-07 -9.0698612752748334e-07 0 6.253903193021122e-07 -1.4255841279348748e-06 0 2.9778816190818598e-10 -7.4674781639667287e-10 0 6.253903193021122e-07 -1.4255841279348748e-06 0 1.3618684989887884e-07 -1.5423209791906068e-06 0 6.253903193021122e-07 -1.4255841279348748e-06 0 2.0974792710402676e-06 -1.8387015302936955e-06 0 7.8832924302593268e-07 -2.4390088523767202e-06 0 1.8754020296741145e-06 -2.415602925349134e-06 0 7.8832924302593268e-07 -2.4390088523767202e-06 0 2.0974792710402676e-06 -1.8387015302936955e-06 0 6.253903193021122e-07 -1.4255841279348748e-06 0 9.7328862206847232e-07 -9.0698612752748334e-07 0 2.0974792710402676e-06 -1.8387015302936955e-06 0 1.8754020296741145e-06 -2.415602925349134e-06 0 1.5313409932782493e-06 -2.8072622956222553e-06 0 7.8832924302593268e-07 -2.4390088523767202e-06 0 2.1671800457316083e-06 -1.0545183477856495e-06 0 2.0974792710402676e-06 -1.8387015302936955e-06 0 9.7328862206847232e-07 -9.0698612752748334e-07 0 2.1671800457316083e-06 -1.0545183477856495e-06 0 3.4147870058364519e-06 -1.030141830922101e-06 0 2.0974792710402676e-06 -1.8387015302936955e-06 0 2.1671800457316083e-06 -1.0545183477856495e-06 0 2.953594999451337e-06 -5.2815092353968518e-07 0 3.4147870058364519e-06 -1.030141830922101e-06 0 4.5801516577720333e-06 -1.3373630351444487e-06 0 2.0974792710402676e-06 -1.8387015302936955e-06 0 3.4147870058364519e-06 -1.030141830922101e-06 0 4.9736824408841569e-06 -2.6605978116339196e-07 0 4.5801516577720333e-06 -1.3373630351444487e-06 0 3.4147870058364519e-06 -1.030141830922101e-06 0 4.9736824408841569e-06 -2.6605978116339196e-07 0 6.5320284532923755e-06 -1.0107551769201941e-07 0 4.5801516577720333e-06 -1.3373630351444487e-06 0 4.5801516577720333e-06 -1.3373630351444487e-06 0 3.1621836996277923e-06 -2.1650504917656351e-06 0 2.0974792710402676e-06 -1.8387015302936955e-06 0 1.8754020296741145e-06 -2.415602925349134e-06 0 3.1621836996277923e-06 -2.1650504917656351e-06 0 1.5313409932782493e-06 -2.8072622956222553e-06 0 1.8754020296741145e-06 -2.415602925349134e-06 0 2.0974792710402676e-06 -1.8387015302936955e-06 0 3.1621836996277923e-06 -2.1650504917656351e-06 0 4.5801516577720333e-06 -1.3373630351444487e-06 0 4.3524670837266242e-06 -1.8981883356300441e-06 0 3.1621836996277923e-06 -2.1650504917656351e-06 0 2.1577193398157661e-06 -2.8782804052918016e-06 0 1.5313409932782493e-06 -2.8072622956222553e-06 0 3.1621836996277923e-06 -2.1650504917656351e-06 0 2.1577193398157661e-06 -2.8782804052918016e-06 0 3.1621836996277923e-06 -2.1650504917656351e-06 0 4.3524670837266242e-06 -1.8981883356300441e-06 0 2.1577193398157661e-06 -2.8782804052918016e-06 0 4.3524670837266242e-06 -1.8981883356300441e-06 0 4.938659051943408e-06 -1.7591126710948543e-06 0 6.7564509803589845e-06 -7.1789953646419857e-07 0 4.938659051943408e-06 -1.7591126710948543e-06 0 4.3524670837266242e-06 -1.8981883356300441e-06 0 6.7564509803589845e-06 -7.1789953646419857e-07 0 7.507056077740618e-06 -3.1724561513449548e-07 0 4.938659051943408e-06 -1.7591126710948543e-06 0 4.9832592496613846e-06 -1.2645884081776099e-06 0 1.8592941781514988e-06 -2.6230996760952091e-06 0 4.938659051943408e-06 -1.7591126710948543e-06 0 4.9832592496613846e-06 -1.2645884081776099e-06 0 4.938659051943408e-06 -1.7591126710948543e-06 0 7.507056077740618e-06 -3.1724561513449569e-07 0 6.7564509803589845e-06 -7.1789953646419857e-07 0 4.5801516577720333e-06 -1.3373630351444487e-06 0 6.5320284532923755e-06 -1.0107551769201941e-07 0 6.7564509803589845e-06 -7.1789953646419857e-07 0 4.3524670837266251e-06 -1.8981883356300439e-06 0 4.5801516577720333e-06 -1.3373630351444487e-06 0 6.7564509803589845e-06 -7.1789953646419857e-07 0 6.5320284532923755e-06 -1.0107551769201941e-07 0 8.4998456789949539e-06 6.2198311082571172e-07 0 6.7564509803589845e-06 -7.1789953646419857e-07 0 8.4998456789949539e-06 6.2198311082571172e-07 0 9.7940860890436779e-06 1.0584469177184459e-06 0 7.7588764654287588e-06 9.4691713272955031e-07 0 8.4998456789949539e-06 6.2198311082571172e-07 0 6.5320284532923755e-06 -1.0107551769201941e-07 0 9.5078196798876454e-06 1.5025006694119077e-06 0 8.4998456789949539e-06 6.2198311082571172e-07 0 7.7588764654287588e-06 9.4691713272955031e-07 0 7.7588764654287588e-06 9.4691713272955031e-07 0 6.5320284532923755e-06 -1.0107551769201941e-07 0 6.0487306552852868e-06 4.72979995647379e-07 0 6.412297092864268e-06 1.2633383491105269e-06 0 7.7588764654287588e-06 9.469171327295502e-07 0 6.0487306552852868e-06 4.72979995647379e-07 0 9.5078196798876454e-06 1.5025006694119077e-06 0 7.7588764654287588e-06 9.4691713272955031e-07 0 8.4390527538823596e-06 1.6954316980753676e-06 0 6.412297092864268e-06 1.2633383491105269e-06 0 8.4390527538823596e-06 1.6954316980753678e-06 0 7.7588764654287588e-06 9.4691713272955031e-07 0 6.412297092864268e-06 1.2633383491105269e-06 0 7.1335015407243094e-06 1.8635945430549496e-06 0 8.4390527538823596e-06 1.6954316980753676e-06 0 6.412297092864268e-06 1.2633383491105269e-06 0 4.9399141664088474e-06 1.270139074455947e-06 0 5.5080250355845509e-06 1.7201111167497636e-06 0 6.412297092864268e-06 1.2633383491105269e-06 0 5.5080250355845509e-06 1.7201111167497636e-06 0 7.1335015407243094e-06 1.8635945430549496e-06 0 6.412297092864268e-06 1.2633383491105269e-06 0 6.0487306552852868e-06 4.72979995647379e-07 0 4.6541393476520745e-06 5.7126734373790573e-07 0 6.412297092864268e-06 1.2633383491105269e-06 0 4.6541393476520745e-06 5.7126734373790573e-07 0 4.9399141664088483e-06 1.2701390744559472e-06 0 3.4739877789171639e-06 9.6738153768543758e-07 0 4.9399141664088483e-06 1.2701390744559472e-06 0 4.6541393476520745e-06 5.7126734373790573e-07 0 3.4791921213371828e-06 1.2978422955582424e-07 0 3.4739877789171639e-06 9.6738153768543758e-07 0 4.6541393476520745e-06 5.7126734373790573e-07 0 4.9736824408841569e-06 -2.6605978116339196e-07 0 3.4791921213371828e-06 1.2978422955582424e-07 0 4.6541393476520745e-06 5.7126734373790573e-07 0 4.9736824408841569e-06 -2.6605978116339196e-07 0 2.9535949994513366e-06 -5.2815092353968518e-07 0 3.4791921213371828e-06 1.2978422955582424e-07 0 4.9736824408841569e-06 -2.6605978116339196e-07 0 3.4147870058364519e-06 -1.030141830922101e-06 0 2.9535949994513366e-06 -5.2815092353968518e-07 0 6.0487306552852868e-06 4.72979995647379e-07 0 6.5320284532923755e-06 -1.0107551769201941e-07 0 4.9736824408841569e-06 -2.6605978116339196e-07 0 4.9736824408841569e-06 -2.6605978116339196e-07 0 4.6541393476520745e-06 5.7126734373790573e-07 0 6.0487306552852868e-06 4.72979995647379e-07 0 -7.2994700027292424e-06 -1.5827553973783112e-06 0 -4.1565589895049489e-06 -1.1611212717422952e-06 0 -4.1083726975438526e-06 -2.0098162756549492e-06 0 -2.5203823563229495e-06 -2.2736398644834253e-06 0 -4.1083726975438526e-06 -2.0098162756549492e-06 0 -1.8787819872880087e-06 -1.1681001313628522e-06 0 -1.742022821204913e-06 -3.6416651895882772e-07 0 -1.8787819872880087e-06 -1.1681001313628522e-06 0 -4.1565589895049489e-06 -1.1611212717422952e-06 0 -4.1565589895049489e-06 -1.1611212717422952e-06 0 -1.8787819872880087e-06 -1.1681001313628522e-06 0 -4.1083726975438526e-06 -2.0098162756549492e-06 0 -1.742022821204913e-06 -3.6416651895882772e-07 0 -8.0757879245850417e-07 -3.7281326226149314e-07 0 -1.8787819872880087e-06 -1.1681001313628522e-06 0 -1.2973029430278848e-09 5.3015734710289269e-10 0 -8.0757879245850417e-07 -3.7281326226149314e-07 0 -1.742022821204913e-06 -3.6416651895882772e-07 0 -1.2973029430278848e-09 5.3015734710289269e-10 0 -1.5338666684698007e-09 -5.9887968839713074e-10 0 -8.0757879245850417e-07 -3.7281326226149314e-07 0 -1.5338666684698007e-09 -5.9887968839713074e-10 0 -1.8787819872880087e-06 -1.1681001313628522e-06 0 -8.0757879245850417e-07 -3.7281326226149314e-07 0 -1.5338666684698007e-09 -5.9887968839713074e-10 0 -1.1351586578161959e-06 -1.4434312343449853e-06 0 -1.8787819872880087e-06 -1.1681001313628522e-06 0 -2.5203823563229495e-06 -2.2736398644834253e-06 0 -1.8787819872880087e-06 -1.1681001313628522e-06 0 -1.1351586578161957e-06 -1.4434312343449855e-06 0 -1.5338666684698007e-09 -5.9887968839713074e-10 0 -1.3826501630084969e-09 -4.089485818398298e-10 0 -1.1351586578161957e-06 -1.4434312343449855e-06 0 -1.3826501630087546e-09 -4.0894858184015757e-10 0 -6.1195644009197192e-10 -1.0250233360907105e-09 0 -1.1351586578161957e-06 -1.4434312343449855e-06 0 -2.5203823563229495e-06 -2.2736398644834253e-06 0 -1.1351586578161957e-06 -1.4434312343449855e-06 0 -1.1256235344447136e-06 -2.2238592573158966e-06 0 -2.5203823563229495e-06 -2.2736398644834253e-06 0 -1.1256235344447136e-06 -2.2238592573158966e-06 0 -2.3061847492018756e-06 -2.9945397209728118e-06 0 -2.5203823563229495e-06 -2.2736398644834253e-06 0 -3.9021178567544758e-06 -3.0007836100878007e-06 0 -4.1083726975438526e-06 -2.0098162756549492e-06 0 -5.9212584261234052e-06 -2.7090053843544357e-06 0 -4.1083726975438526e-06 -2.0098162756549492e-06 0 -3.9021178567544758e-06 -3.0007836100878007e-06 0 -2.5379005341363608e-06 -3.5151351876370525e-06 0 -3.9021178567544758e-06 -3.0007836100878007e-06 0 -2.3061847492018756e-06 -2.9945397209728118e-06 0 -2.5203823563229495e-06 -2.2736398644834253e-06 0 -2.3061847492018756e-06 -2.9945397209728118e-06 0 -3.9021178567544758e-06 -3.0007836100878007e-06 0 -2.5379005341363608e-06 -3.5151351876370525e-06 0 -2.3061847492018756e-06 -2.9945397209728118e-06 0 -1.2954541860625673e-06 -3.1144786108618129e-06 0 -2.4365470935073794e-07 -2.5783708677037235e-06 0 -1.2954541860625673e-06 -3.1144786108618129e-06 0 -1.1256235344447136e-06 -2.2238592573158966e-06 0 -1.1256235344447136e-06 -2.2238592573158966e-06 0 -1.2954541860625671e-06 -3.1144786108618129e-06 0 -2.3061847492018756e-06 -2.9945397209728118e-06 0 -6.1195644009197192e-10 -1.0250233360907105e-09 0 -2.692659597113914e-07 -1.4382484209488458e-06 0 -1.1256235344447136e-06 -2.2238592573158966e-06 0 -6.1195644009197192e-10 -1.0250233360907105e-09 0 -1.1256235344447136e-06 -2.2238592573158966e-06 0 -1.1351586578161957e-06 -1.4434312343449855e-06 0 -6.1195644009197192e-10 -1.0250233360907105e-09 0 -2.0742436156257781e-10 -6.8774602955668002e-10 0 -2.692659597113914e-07 -1.4382484209488458e-06 0 -2.4365470935073794e-07 -2.5783708677037235e-06 0 -1.1256235344447138e-06 -2.2238592573158966e-06 0 -2.692659597113914e-07 -1.4382484209488458e-06 0 -2.4365470935073794e-07 -2.5783708677037235e-06 0 -2.692659597113914e-07 -1.4382484209488458e-06 0 1.3618684989887884e-07 -1.5423209791906068e-06 0 -2.0742436156257781e-10 -6.8774602955668002e-10 0 1.3618684989887884e-07 -1.5423209791906068e-06 0 -2.692659597113914e-07 -1.4382484209488458e-06 0 -2.0742436156257781e-10 -6.8774602955668002e-10 0 2.9778816190818598e-10 -7.4674781639667287e-10 0 1.3618684989887884e-07 -1.5423209791906068e-06 0 6.253903193021122e-07 -1.4255841279348748e-06 0 7.8832924302593268e-07 -2.4390088523767202e-06 0 1.3618684989887884e-07 -1.5423209791906068e-06 0 -2.4365470935073794e-07 -2.5783708677037235e-06 0 1.3618684989887884e-07 -1.5423209791906068e-06 0 7.8832924302593268e-07 -2.4390088523767202e-06 0 -2.4365470935073794e-07 -2.5783708677037235e-06 0 -2.485959817094449e-08 -3.3127981149959837e-06 0 -1.2954541860625673e-06 -3.1144786108618129e-06 0 -2.4365470935073794e-07 -2.5783708677037235e-06 0 7.8832924302593268e-07 -2.4390088523767202e-06 0 -2.485959817094449e-08 -3.3127981149959837e-06 0 -2.485959817094449e-08 -3.3127981149959837e-06 0 7.8832924302593268e-07 -2.4390088523767202e-06 0 1.5313409932782493e-06 -2.8072622956222553e-06 0 2.1577193398157661e-06 -2.8782804052918016e-06 0 -2.485959817094449e-08 -3.3127981149959837e-06 0 1.5313409932782493e-06 -2.8072622956222553e-06 0 2.1577193398157661e-06 -2.8782804052918016e-06 0 -9.8637117002551922e-07 -3.5201737148963052e-06 0 -2.485959817094449e-08 -3.3127981149959837e-06 0 2.1577193398157661e-06 -2.8782804052918016e-06 0 4.938659051943408e-06 -1.7591126710948543e-06 0 1.8592941781514988e-06 -2.6230996760952091e-06 0 -1.1346231798192723e-06 -3.0191303159124124e-06 0 1.8592941781514988e-06 -2.6230996760952091e-06 0 -5.653621974417478e-07 -2.0172919990665523e-06 0 -1.1346231798192723e-06 -3.0191303159124124e-06 0 -9.8637117002551922e-07 -3.5201737148963052e-06 0 1.8592941781514988e-06 -2.6230996760952091e-06 0 2.1577193398157661e-06 -2.8782804052918016e-06 0 1.8592941781514988e-06 -2.6230996760952091e-06 0 -9.8637117002551922e-07 -3.5201737148963052e-06 0 -1.1346231798192723e-06 -3.0191303159124124e-06 0 -4.2709176242862078e-06 -3.4546345069832578e-06 0 -9.8637117002551922e-07 -3.5201737148963052e-06 0 -1.1346231798192723e-06 -3.0191303159124124e-06 0 -5.653621974417478e-07 -2.0172919990665523e-06 0 -4.3383185606438044e-06 -2.6706527282840687e-06 0 -1.1346231798192723e-06 -3.0191303159124124e-06 0 -4.3383185606438044e-06 -2.6706527282840687e-06 0 -4.2709176242862078e-06 -3.4546345069832578e-06 0 -2.5379005341363608e-06 -3.5151351876370525e-06 0 -9.8637117002551922e-07 -3.5201737148963052e-06 0 -4.2709176242862078e-06 -3.4546345069832578e-06 0 -2.5379005341363608e-06 -3.5151351876370525e-06 0 -4.2709176242862078e-06 -3.4546345069832578e-06 0 -4.8867281945237278e-06 -3.3009324295661897e-06 0 -2.5379005341363608e-06 -3.5151351876370525e-06 0 -2.485959817094449e-08 -3.3127981149959837e-06 0 -9.8637117002551922e-07 -3.5201737148963052e-06 0 -2.5379005341363608e-06 -3.5151351876370525e-06 0 -1.2954541860625671e-06 -3.1144786108618129e-06 0 -2.485959817094449e-08 -3.3127981149959837e-06 0 -2.5379005341363608e-06 -3.5151351876370525e-06 0 -4.8867281945237278e-06 -3.3009324295661897e-06 0 -3.9021178567544758e-06 -3.0007836100878007e-06 0 -5.9212584261234052e-06 -2.7090053843544357e-06 0 -3.9021178567544758e-06 -3.0007836100878007e-06 0 -4.8867281945237278e-06 -3.3009324295661897e-06 0 -7.5345720112706118e-06 -2.8993039079673589e-06 0 -5.9212584261234044e-06 -2.7090053843544357e-06 0 -4.8867281945237278e-06 -3.3009324295661897e-06 0 -7.5345720112706118e-06 -2.8993039079673589e-06 0 -4.8867281945237278e-06 -3.3009324295661897e-06 0 -4.2709176242862078e-06 -3.4546345069832578e-06 0 -7.5345720112706118e-06 -2.8993039079673589e-06 0 -4.2709176242862078e-06 -3.4546345069832578e-06 0 -8.9310334388757627e-06 -2.2536159951842974e-06 0 -4.2709176242862078e-06 -3.4546345069832578e-06 0 -4.3383185606438035e-06 -2.6706527282840687e-06 0 -8.9310334388757627e-06 -2.2536159951842974e-06 0 -7.5345720112706118e-06 -2.8993039079673589e-06 0 -8.9310334388757627e-06 -2.2536159951842974e-06 0 -1.1593996345733304e-05 -1.7318991743065699e-06 0 -7.5345720112706118e-06 -2.8993039079673589e-06 0 -1.1593996345733304e-05 -1.7318991743065699e-06 0 -8.8625988673564119e-06 -2.2415475554400695e-06 0 -1.4776969410006154e-05 -1.6912919060161492e-07 0 -1.1593996345733304e-05 -1.7318991743065699e-06 0 -8.9310334388757627e-06 -2.2536159951842974e-06 0 -1.5843500362038035e-05 1.8792675691117531e-07 0 -1.1166744848819383e-05 -1.1653150701315189e-06 0 -1.1593996345733304e-05 -1.7318991743065699e-06 0 -1.1166744848819383e-05 -1.1653150701315189e-06 0 -8.8625988673564119e-06 -2.2415475554400695e-06 0 -1.1593996345733304e-05 -1.7318991743065699e-06 0 -1.1166744848819383e-05 -1.1653150701315189e-06 0 -7.2994700027292424e-06 -1.5827553973783112e-06 0 -8.8625988673564119e-06 -2.2415475554400695e-06 0 -7.5345720112706118e-06 -2.8993039079673589e-06 0 -8.8625988673564119e-06 -2.2415475554400695e-06 0 -5.9212584261234052e-06 -2.7090053843544357e-06 0 -7.2994700027292424e-06 -1.5827553973783112e-06 0 -5.9212584261234052e-06 -2.7090053843544357e-06 0 -8.8625988673564119e-06 -2.2415475554400695e-06 0 -7.2994700027292424e-06 -1.5827553973783112e-06 0 -4.1083726975438535e-06 -2.0098162756549497e-06 0 -5.9212584261234052e-06 -2.7090053843544357e-06 0 -2.7773782346171526e-05 7.5828351689649155e-06 0 -1.9527395065904732e-05 3.2990174022465839e-06 0 -2.4578384927488393e-05 7.3923255237215923e-06 0 -3.538139038491918e-05 1.4288641284418508e-05 0 -2.7773782346171526e-05 7.5828351689649155e-06 0 -2.4578384927488393e-05 7.3923255237215923e-06 0 -1.7035349386730521e-05 5.2806934812337257e-06 0 -2.4578384927488393e-05 7.3923255237215923e-06 0 -1.9527395065904732e-05 3.2990174022465839e-06 0 -1.7035349386730521e-05 5.2806934812337257e-06 0 -2.4750150041165997e-05 1.1408623924469506e-05 0 -2.4578384927488393e-05 7.3923255237215923e-06 0 -2.7773782346171526e-05 7.5828351689649155e-06 0 -2.1293160212669047e-05 2.9445653817830979e-06 0 -1.9527395065904732e-05 3.2990174022465839e-06 0 -2.1293160212669047e-05 2.9445653817830979e-06 0 -1.5843500362038035e-05 1.8792675691117531e-07 0 -1.4776969410006154e-05 -1.6912919060161492e-07 0 -1.5843500362038035e-05 1.8792675691117531e-07 0 -1.1593996345733304e-05 -1.7318991743065699e-06 0 -1.4776969410006154e-05 -1.6912919060161492e-07 0 -2.1293160212669047e-05 2.9445653817830979e-06 0 -1.4776969410006152e-05 -1.6912919060161487e-07 0 -1.9527395065904732e-05 3.2990174022465839e-06 0 -1.4776969410006154e-05 -1.6912919060161492e-07 0 -1.1273280942934075e-05 5.3549519066079414e-07 0 -1.9527395065904732e-05 3.2990174022465839e-06 0 -7.2143494235452723e-06 -1.5126372639103598e-06 0 -1.1273280942934075e-05 5.3549519066079446e-07 0 -8.9310334388757627e-06 -2.2536159951842974e-06 0 -1.4776969410006154e-05 -1.6912919060161492e-07 0 -8.9310334388757627e-06 -2.2536159951842974e-06 0 -1.1273280942934075e-05 5.3549519066079446e-07 0 -7.2143494235452723e-06 -1.5126372639103598e-06 0 -8.9310334388757627e-06 -2.2536159951842974e-06 0 -4.3383185606438044e-06 -2.6706527282840687e-06 0 -1.7035349386730521e-05 5.2806934812337257e-06 0 -1.1273280942934075e-05 5.3549519066079446e-07 0 -1.0622836590137275e-05 4.5406290603981819e-06 0 -1.7035349386730521e-05 5.2806934812337257e-06 0 -1.9527395065904732e-05 3.2990174022465839e-06 0 -1.1273280942934075e-05 5.3549519066079446e-07 0 -1.7035349386730521e-05 5.2806934812337257e-06 0 -1.0622836590137275e-05 4.540629060398181e-06 0 -1.5588588679471828e-05 1.0031239805636212e-05 0 -1.0622836590137275e-05 4.5406290603981819e-06 0 -4.3816712869993449e-06 1.7123852392667356e-06 0 -4.6550284186410598e-06 7.8978354157901033e-06 0 -4.3816712869993449e-06 1.7123852392667358e-06 0 7.6771154938171004e-07 3.3574258770809022e-06 0 -4.6550284186410598e-06 7.8978354157901033e-06 0 -4.3816712869993449e-06 1.7123852392667358e-06 0 9.5829579641137303e-08 -2.2445846244508112e-08 0 7.6771154938171004e-07 3.3574258770809022e-06 0 -4.3816712869993449e-06 1.7123852392667358e-06 0 -1.0622836590137275e-05 4.5406290603981819e-06 0 -1.1273280942934075e-05 5.3549519066079446e-07 0 -4.3816712869993449e-06 1.7123852392667358e-06 0 -1.1273280942934075e-05 5.3549519066079446e-07 0 -4.1021292121184073e-06 -8.575552996224031e-07 0 -7.2143494235452723e-06 -1.5126372639103598e-06 0 -4.1021292121184073e-06 -8.575552996224031e-07 0 -1.1273280942934075e-05 5.3549519066079446e-07 0 -7.2143494235452723e-06 -1.5126372639103598e-06 0 -4.3383185606438044e-06 -2.6706527282840687e-06 0 -4.1021292121184073e-06 -8.575552996224031e-07 0 -5.653621974417478e-07 -2.0172919990665523e-06 0 -4.1021292121184073e-06 -8.575552996224031e-07 0 -4.3383185606438044e-06 -2.6706527282840687e-06 0 -5.653621974417478e-07 -2.0172919990665523e-06 0 9.5829579641136522e-08 -2.2445846244508351e-08 0 -4.1021292121184073e-06 -8.575552996224031e-07 0 -4.3816712869993449e-06 1.7123852392667358e-06 0 -4.1021292121184073e-06 -8.575552996224032e-07 0 9.5829579641137303e-08 -2.2445846244508112e-08 0 -5.653621974417478e-07 -2.0172919990665523e-06 0 3.1356713220946507e-06 -1.0507675928809665e-06 0 9.5829579641137303e-08 -2.2445846244508112e-08 0 4.693906069258904e-06 1.5376770645483208e-06 0 9.5829579641137303e-08 -2.2445846244508112e-08 0 3.1356713220946498e-06 -1.0507675928809665e-06 0 -5.653621974417478e-07 -2.0172919990665523e-06 0 1.8592941781514988e-06 -2.6230996760952091e-06 0 3.1356713220946498e-06 -1.0507675928809665e-06 0 4.9832592496613846e-06 -1.2645884081776099e-06 0 6.8508257614759142e-06 2.7513742822571745e-07 0 3.1356713220946498e-06 -1.0507675928809665e-06 0 4.9832592496613846e-06 -1.2645884081776099e-06 0 3.1356713220946498e-06 -1.0507675928809665e-06 0 1.8592941781514988e-06 -2.6230996760952091e-06 0 4.693906069258904e-06 1.5376770645483208e-06 0 3.135671322094649e-06 -1.0507675928809667e-06 0 6.8508257614759142e-06 2.7513742822571745e-07 0 4.693906069258904e-06 1.5376770645483208e-06 0 6.8508257614759142e-06 2.7513742822571745e-07 0 9.9864637738608004e-06 3.3646916783000456e-06 0 4.693906069258904e-06 1.5376770645483208e-06 0 7.6771154938171004e-07 3.3574258770809022e-06 0 9.5829579641137303e-08 -2.2445846244508112e-08 0 4.693906069258904e-06 1.5376770645483208e-06 0 5.8810147957145939e-06 5.8739360188063565e-06 0 7.6771154938171004e-07 3.3574258770809022e-06 0 4.693906069258904e-06 1.5376770645483208e-06 0 9.9864637738608004e-06 3.3646916783000456e-06 0 5.8810147957145956e-06 5.8739360188063565e-06 0 1.3447713334684167e-05 7.3151853845427527e-06 0 9.8390949126383669e-06 1.040772352824515e-05 0 5.8810147957145956e-06 5.8739360188063565e-06 0 1.3447713334684167e-05 7.3151853845427527e-06 0 5.8810147957145956e-06 5.8739360188063565e-06 0 9.9864637738608004e-06 3.3646916783000456e-06 0 -4.6550284186410598e-06 7.8978354157901033e-06 0 5.8810147957145956e-06 5.8739360188063565e-06 0 2.6011058739053829e-06 1.1627789488857058e-05 0 -4.6550284186410598e-06 7.8978354157901033e-06 0 7.6771154938171004e-07 3.3574258770809022e-06 0 5.8810147957145956e-06 5.8739360188063565e-06 0 5.8810147957145956e-06 5.8739360188063565e-06 0 9.8390949126383669e-06 1.040772352824515e-05 0 2.6011058739053829e-06 1.1627789488857058e-05 0 7.1184941624377258e-06 1.8332564903012839e-05 0 9.8390949126383669e-06 1.040772352824515e-05 0 1.6863358169971263e-05 1.3073312015301044e-05 0 7.1184941624377258e-06 1.8332564903012839e-05 0 1.6863358169971263e-05 1.3073312015301044e-05 0 1.5339619853445929e-05 2.7576514104085713e-05 0 7.1184941624377258e-06 1.8332564903012839e-05 0 1.5339619853445929e-05 2.7576514104085713e-05 0 6.4228869422142911e-06 3.0188318592007796e-05 0 7.1184941624377258e-06 1.8332564903012839e-05 0 6.4228869422142886e-06 3.0188318592007796e-05 0 -3.4890676389603553e-06 3.1897855777482173e-05 0 7.1184941624377258e-06 1.8332564903012839e-05 0 -6.4981813418606895e-06 1.9128967211497079e-05 0 2.6011058739053829e-06 1.1627789488857058e-05 0 7.1184941624377258e-06 1.8332564903012839e-05 0 2.6011058739053838e-06 1.1627789488857057e-05 0 9.8390949126383669e-06 1.040772352824515e-05 0 7.1184941624377258e-06 1.8332564903012839e-05 0 -3.4890676389603553e-06 3.1897855777482173e-05 0 -6.4981813418606895e-06 1.9128967211497079e-05 0 -1.7468308150258741e-05 3.2776995646599027e-05 0 -6.4981813418606895e-06 1.9128967211497079e-05 0 -3.4890676389603553e-06 3.1897855777482173e-05 0 -1.7468308150258741e-05 3.2776995646599027e-05 0 -1.4715297735918404e-05 1.6934833111313156e-05 0 -6.4981813418606895e-06 1.9128967211497079e-05 0 -4.6550284186410598e-06 7.8978354157901033e-06 0 -6.498181341860687e-06 1.9128967211497079e-05 0 -1.4715297735918408e-05 1.6934833111313156e-05 0 -4.6550284186410598e-06 7.8978354157901033e-06 0 -1.4715297735918408e-05 1.6934833111313156e-05 0 -1.5588588679471828e-05 1.0031239805636212e-05 0 -4.6550284186410598e-06 7.8978354157901033e-06 0 2.6011058739053829e-06 1.162778948885706e-05 0 -6.4981813418606895e-06 1.9128967211497079e-05 0 -4.6550284186410598e-06 7.8978354157901033e-06 0 -1.5588588679471828e-05 1.0031239805636212e-05 0 -1.0622836590137275e-05 4.5406290603981819e-06 0 -1.7035349386730521e-05 5.2806934812337257e-06 0 -1.5588588679471828e-05 1.0031239805636212e-05 0 -2.4750150041165997e-05 1.1408623924469506e-05 0 -2.3589895689914904e-05 1.7791158076860019e-05 0 -2.4750150041165997e-05 1.1408623924469506e-05 0 -1.5588588679471828e-05 1.0031239805636212e-05 0 -2.3589895689914904e-05 1.7791158076860019e-05 0 -1.5588588679471828e-05 1.0031239805636212e-05 0 -1.4715297735918408e-05 1.6934833111313156e-05 0 -2.3589895689914904e-05 1.7791158076860019e-05 0 -1.4715297735918408e-05 1.6934833111313156e-05 0 -2.5334766510808379e-05 2.6540655113483121e-05 0 -1.7468308150258741e-05 3.2776995646599027e-05 0 -2.5334766510808379e-05 2.6540655113483121e-05 0 -1.4715297735918408e-05 1.6934833111313156e-05 0 -3.6657729610704947e-05 4.1484472124363182e-05 0 -3.5451125789514435e-05 2.7359117840767861e-05 0 -2.5334766510808379e-05 2.6540655113483121e-05 0 -1.7468308150258741e-05 3.2776995646599027e-05 0 -3.6657729610704947e-05 4.1484472124363182e-05 0 -2.5334766510808379e-05 2.6540655113483121e-05 0 -2.3589895689914904e-05 1.7791158076860019e-05 0 -2.5334766510808379e-05 2.6540655113483121e-05 0 -3.5451125789514435e-05 2.7359117840767861e-05 0 -2.3589895689914904e-05 1.7791158076860019e-05 0 -3.5451125789514435e-05 2.7359117840767861e-05 0 -3.2653394899450983e-05 1.838343242528673e-05 0 -5.2037590990482338e-05 3.7663549807173871e-05 0 -3.5451125789514435e-05 2.7359117840767861e-05 0 -3.6657729610704947e-05 4.1484472124363182e-05 0 -5.2037590990482338e-05 3.7663549807173871e-05 0 -4.3702238315572493e-05 2.4307937362693321e-05 0 -3.5451125789514435e-05 2.7359117840767861e-05 0 -4.3702238315572493e-05 2.4307937362693321e-05 0 -3.2653394899450983e-05 1.838343242528673e-05 0 -3.5451125789514435e-05 2.7359117840767861e-05 0 -4.3702238315572493e-05 2.4307937362693321e-05 0 -3.538139038491918e-05 1.4288641284418508e-05 0 -3.2653394899450983e-05 1.838343242528673e-05 0 -3.538139038491918e-05 1.4288641284418508e-05 0 -2.4750150041165997e-05 1.1408623924469506e-05 0 -3.2653394899450983e-05 1.838343242528673e-05 0 -2.3589895689914904e-05 1.7791158076860019e-05 0 -3.2653394899450983e-05 1.838343242528673e-05 0 -2.4750150041165997e-05 1.1408623924469506e-05 0 -3.538139038491918e-05 1.4288641284418508e-05 0 -2.4578384927488393e-05 7.3923255237215923e-06 0 -2.4750150041165997e-05 1.1408623924469506e-05 0 1.1824542579350458e-05 3.0428498139332411e-06 0 1.339491289193953e-05 3.9493481766974883e-06 0 1.182787449994275e-05 2.73272353141863e-06 0 1.4198543953814712e-05 4.2998843434865888e-06 0 1.182787449994275e-05 2.73272353141863e-06 0 1.339491289193953e-05 3.9493481766974883e-06 0 1.4198543953814712e-05 4.2998843434865888e-06 0 1.339491289193953e-05 3.9493481766974883e-06 0 1.56862544476825e-05 5.5807372297287025e-06 0 1.1824542579350458e-05 3.0428498139332411e-06 0 1.2654332795572829e-05 3.4597222078165502e-06 0 1.339491289193953e-05 3.9493481766974883e-06 0 1.104127091041812e-05 2.1660248145042829e-06 0 1.2654332795572829e-05 3.4597222078165502e-06 0 1.0530680011332136e-05 2.5385821024877121e-06 0 1.1824542579350458e-05 3.0428498139332411e-06 0 1.0530680011332136e-05 2.5385821024877116e-06 0 1.2654332795572829e-05 3.4597222078165502e-06 0 1.104127091041812e-05 2.1660248145042829e-06 0 1.0530680011332136e-05 2.5385821024877121e-06 0 9.5358011908093744e-06 1.726333702173762e-06 0 1.1824542579350458e-05 3.0428498139332411e-06 0 1.0196920149416299e-05 2.2791328904977487e-06 0 1.0530680011332136e-05 2.5385821024877121e-06 0 8.7058573413509013e-06 2.0739311952676738e-06 0 1.0530680011332138e-05 2.5385821024877121e-06 0 1.0196920149416299e-05 2.2791328904977487e-06 0 8.4977435075657887e-06 1.873846896596289e-06 0 1.0530680011332136e-05 2.5385821024877121e-06 0 8.7058573413509013e-06 2.0739311952676738e-06 0 8.7058573413509013e-06 2.0739311952676738e-06 0 8.4390527538823596e-06 1.6954316980753676e-06 0 7.1335015407243094e-06 1.8635945430549496e-06 0 8.7058573413509013e-06 2.0739311952676738e-06 0 1.0196920149416299e-05 2.2791328904977487e-06 0 8.4390527538823596e-06 1.6954316980753676e-06 0 9.5078196798876454e-06 1.5025006694119077e-06 0 8.4390527538823596e-06 1.6954316980753676e-06 0 1.0196920149416299e-05 2.2791328904977487e-06 0 1.1824542579350458e-05 3.0428498139332411e-06 0 1.182787449994275e-05 2.73272353141863e-06 0 1.0196920149416299e-05 2.2791328904977487e-06 0 9.5078196798876454e-06 1.5025006694119077e-06 0 1.0196920149416299e-05 2.2791328904977487e-06 0 1.182787449994275e-05 2.73272353141863e-06 0 9.5078196798876454e-06 1.5025006694119077e-06 0 1.182787449994275e-05 2.73272353141863e-06 0 9.7940860890436779e-06 1.0584469177184459e-06 0 9.5078196798876454e-06 1.5025006694119077e-06 0 9.7940860890436779e-06 1.0584469177184457e-06 0 8.4998456789949539e-06 6.2198311082571172e-07 0 6.7564509803589845e-06 -7.1789953646419857e-07 0 9.7940860890436779e-06 1.0584469177184459e-06 0 7.507056077740618e-06 -3.1724561513449569e-07 0 1.0166732246442999e-05 1.6098177986911592e-06 0 9.7940860890436762e-06 1.0584469177184461e-06 0 1.2011276641593762e-05 2.6403379548310932e-06 0 1.0166732246442999e-05 1.6098177986911592e-06 0 7.507056077740618e-06 -3.1724561513449564e-07 0 9.7940860890436779e-06 1.0584469177184459e-06 0 9.7940860890436779e-06 1.0584469177184459e-06 0 1.182787449994275e-05 2.73272353141863e-06 0 1.2011276641593762e-05 2.6403379548310932e-06 0 4.9832592496613846e-06 -1.2645884081776099e-06 0 7.507056077740618e-06 -3.1724561513449569e-07 0 6.8508257614759142e-06 2.7513742822571745e-07 0 1.0166732246442999e-05 1.6098177986911592e-06 0 6.8508257614759134e-06 2.7513742822571734e-07 0 7.507056077740618e-06 -3.1724561513449569e-07 0 1.0166732246442999e-05 1.6098177986911592e-06 0 9.9864637738608004e-06 3.3646916783000456e-06 0 6.8508257614759142e-06 2.7513742822571745e-07 0 1.0166732246442999e-05 1.6098177986911592e-06 0 1.3968788117387385e-05 4.5105940090023813e-06 0 9.9864637738608004e-06 3.3646916783000456e-06 0 1.3447713334684167e-05 7.3151853845427527e-06 0 9.9864637738608004e-06 3.3646916783000456e-06 0 1.3968788117387385e-05 4.5105940090023813e-06 0 1.4198543953814712e-05 4.2998843434865888e-06 0 1.2011276641593762e-05 2.6403379548310932e-06 0 1.182787449994275e-05 2.73272353141863e-06 0 1.0166732246442999e-05 1.6098177986911592e-06 0 1.2011276641593762e-05 2.6403379548310932e-06 0 1.3968788117387385e-05 4.5105940090023813e-06 0 1.4198543953814712e-05 4.2998843434865888e-06 0 1.3968788117387385e-05 4.5105940090023813e-06 0 1.2011276641593762e-05 2.6403379548310932e-06 0 1.4198543953814712e-05 4.2998843434865888e-06 0 1.6598582162831352e-05 6.4653722767062618e-06 0 1.3968788117387385e-05 4.5105940090023813e-06 0 1.4198543953814712e-05 4.2998843434865888e-06 0 1.56862544476825e-05 5.5807372297287025e-06 0 1.6598582162831349e-05 6.4653722767062618e-06 0 1.3968788117387385e-05 4.5105940090023813e-06 0 1.6598582162831349e-05 6.4653722767062618e-06 0 1.9384658487601671e-05 9.4018594129323142e-06 0 1.8535601318789027e-05 7.7784692658914013e-06 0 1.9384658487601671e-05 9.4018594129323142e-06 0 1.6598582162831349e-05 6.4653722767062618e-06 0 1.8535601318789027e-05 7.7784692658914013e-06 0 1.56862544476825e-05 5.5807372297287025e-06 0 1.621186753596215e-05 5.6404993218387854e-06 0 1.8535601318789027e-05 7.7784692658914013e-06 0 1.6598582162831349e-05 6.4653722767062609e-06 0 1.56862544476825e-05 5.5807372297287025e-06 0 1.3447713334684167e-05 7.3151853845427527e-06 0 1.3968788117387385e-05 4.5105940090023813e-06 0 1.9384658487601671e-05 9.4018594129323142e-06 0 1.3447713334684167e-05 7.3151853845427527e-06 0 1.9384658487601671e-05 9.4018594129323142e-06 0 1.6863358169971263e-05 1.3073312015301044e-05 0 1.3447713334684167e-05 7.3151853845427527e-06 0 1.6863358169971263e-05 1.3073312015301044e-05 0 9.8390949126383669e-06 1.040772352824515e-05 0 2.7733736014210933e-05 1.6081957424763179e-05 0 1.6863358169971263e-05 1.3073312015301042e-05 0 1.9384658487601671e-05 9.4018594129323142e-06 0 2.7733736014210933e-05 1.6081957424763179e-05 0 1.5339619853445925e-05 2.7576514104085713e-05 0 1.6863358169971263e-05 1.3073312015301044e-05 0 2.7733736014210933e-05 1.6081957424763179e-05 0 1.9384658487601671e-05 9.4018594129323142e-06 0 2.1013296210768757e-05 1.0455912688109726e-05 0 1.8535601318789027e-05 7.7784692658914013e-06 0 1.7257129850024783e-05 5.9591711113971724e-06 0 2.1013296210768757e-05 1.0455912688109726e-05 0 1.8535601318789027e-05 7.7784692658914013e-06 0 1.621186753596215e-05 5.6404993218387854e-06 0 1.7257129850024783e-05 5.9591711113971724e-06 0 1.8535601318789027e-05 7.7784692658914013e-06 0 2.1013296210768757e-05 1.0455912688109726e-05 0 1.9384658487601671e-05 9.4018594129323142e-06 0 1.827929451809374e-05 3.3610105396785703e-06 0 2.1013296210768757e-05 1.0455912688109726e-05 0 1.7257129850024783e-05 5.9591711113971724e-06 0 1.827929451809374e-05 3.3610105396785703e-06 0 1.7257129850024783e-05 5.9591711113971724e-06 0 1.5963843798490813e-05 -7.477761132232403e-08 0 1.4504940686308862e-05 3.0672865637856132e-06 0 1.5963843798490813e-05 -7.477761132232403e-08 0 1.7257129850024783e-05 5.9591711113971724e-06 0 1.4504940686308862e-05 3.0672865637856132e-06 0 1.7257129850024783e-05 5.9591711113971724e-06 0 1.621186753596215e-05 5.6404993218387854e-06 0 1.4452217204931912e-05 4.5819742714443093e-06 0 1.621186753596215e-05 5.6404993218387854e-06 0 1.56862544476825e-05 5.5807372297287025e-06 0 1.621186753596215e-05 5.6404993218387854e-06 0 1.4452217204931912e-05 4.5819742714443093e-06 0 1.4504940686308862e-05 3.0672865637856132e-06 0 1.4452217204931912e-05 4.5819742714443093e-06 0 1.2752161772749633e-05 2.6232134602950485e-06 0 1.4504940686308862e-05 3.0672865637856132e-06 0 1.4452217204931912e-05 4.5819742714443093e-06 0 1.2654332795572829e-05 3.4597222078165502e-06 0 1.2752161772749633e-05 2.6232134602950485e-06 0 1.4452217204931912e-05 4.5819742714443093e-06 0 1.339491289193953e-05 3.9493481766974883e-06 0 1.2654332795572829e-05 3.4597222078165502e-06 0 1.4452217204931912e-05 4.5819742714443093e-06 0 1.56862544476825e-05 5.5807372297287025e-06 0 1.339491289193953e-05 3.9493481766974883e-06 0 1.104127091041812e-05 2.1660248145042829e-06 0 1.2752161772749633e-05 2.6232134602950485e-06 0 1.2654332795572829e-05 3.4597222078165502e-06 0 1.104127091041812e-05 2.1660248145042829e-06 0 1.0546447300041575e-05 3.657806291878063e-07 0 1.2752161772749633e-05 2.6232134602950485e-06 0 1.4504940686308862e-05 3.0672865637856132e-06 0 1.2075260596864888e-05 -8.2566130916679525e-08 0 1.3602609838747082e-05 -3.6458547738016013e-06 0 1.0340461838367943e-05 -2.4269543781846135e-06 0 1.2075260596864888e-05 -8.2566130916679525e-08 0 1.0546447300041575e-05 3.657806291878063e-07 0 1.0546447300041575e-05 3.657806291878063e-07 0 1.2075260596864888e-05 -8.2566130916679525e-08 0 1.2752161772749633e-05 2.6232134602950485e-06 0 1.4504940686308862e-05 3.0672865637856132e-06 0 1.2752161772749633e-05 2.6232134602950485e-06 0 1.2075260596864888e-05 -8.2566130916679525e-08 0 1.0340461838367943e-05 -2.4269543781846135e-06 0 1.1434686632000619e-05 -4.9610196857825549e-06 0 1.2075260596864888e-05 -8.2566130916679525e-08 0 1.3602609838747082e-05 -3.6458547738016013e-06 0 1.2075260596864888e-05 -8.2566130916679525e-08 0 1.1434686632000619e-05 -4.9610196857825549e-06 0 1.3602609838747082e-05 -3.6458547738016013e-06 0 1.1434686632000619e-05 -4.9610196857825549e-06 0 1.4028350716414784e-05 -8.326005840836354e-06 0 1.6410218235736567e-05 -7.8766551206268621e-06 0 1.3602609838747082e-05 -3.6458547738016018e-06 0 1.4028350716414784e-05 -8.326005840836354e-06 0 1.1695335283261249e-05 -8.9205412802136905e-06 0 1.4028350716414784e-05 -8.326005840836354e-06 0 1.1434686632000619e-05 -4.9610196857825549e-06 0 1.1695335283261249e-05 -8.9205412802136905e-06 0 1.5286189849750733e-05 -1.3302499963635976e-05 0 1.4028350716414784e-05 -8.326005840836354e-06 0 1.6410218235736567e-05 -7.8766551206268621e-06 0 1.4028350716414784e-05 -8.3260058408363523e-06 0 1.5286189849750733e-05 -1.3302499963635978e-05 0 1.1695335283261249e-05 -8.9205412802136905e-06 0 1.1646250850528131e-05 -1.2768991673818912e-05 0 1.5286189849750733e-05 -1.3302499963635978e-05 0 2.388934945433595e-05 -1.6392638902184069e-05 0 2.1519989054770449e-05 -1.1511844026313718e-05 0 2.000899170340468e-05 -1.4972727918473741e-05 0 1.6410218235736567e-05 -7.8766551206268621e-06 0 2.000899170340468e-05 -1.4972727918473741e-05 0 2.1519989054770449e-05 -1.1511844026313718e-05 0 1.6410218235736567e-05 -7.8766551206268621e-06 0 1.5286189849750733e-05 -1.3302499963635978e-05 0 2.000899170340468e-05 -1.4972727918473741e-05 0 1.6410218235736567e-05 -7.8766551206268621e-06 0 2.1519989054770449e-05 -1.151184402631372e-05 0 1.8858320639293502e-05 -3.6036612940207941e-06 0 1.4504940686308862e-05 3.0672865637856132e-06 0 1.3602609838747082e-05 -3.6458547738016009e-06 0 1.5963843798490813e-05 -7.477761132232403e-08 0 1.6410218235736567e-05 -7.8766551206268621e-06 0 1.8858320639293499e-05 -3.6036612940207929e-06 0 1.5963843798490813e-05 -7.477761132232403e-08 0 1.6410218235736567e-05 -7.8766551206268621e-06 0 1.5963843798490813e-05 -7.477761132232403e-08 0 1.3602609838747082e-05 -3.6458547738016013e-06 0 1.827929451809374e-05 3.3610105396785703e-06 0 1.5963843798490813e-05 -7.477761132232403e-08 0 1.8858320639293502e-05 -3.6036612940207941e-06 0 1.827929451809374e-05 3.3610105396785703e-06 0 2.1455174748151449e-05 2.9796901788209606e-06 0 2.1013296210768757e-05 1.0455912688109726e-05 0 1.827929451809374e-05 3.3610105396785703e-06 0 1.8858320639293499e-05 -3.6036612940207941e-06 0 2.1455174748151449e-05 2.9796901788209602e-06 0 2.7733736014210933e-05 1.6081957424763179e-05 0 2.101329621076876e-05 1.0455912688109728e-05 0 2.1455174748151449e-05 2.9796901788209602e-06 0 2.9940910795981869e-05 -3.7008885058420102e-06 0 2.1455174748151449e-05 2.9796901788209602e-06 0 2.4590823062288968e-05 -8.3970739556335985e-06 0 2.4590823062288968e-05 -8.3970739556335985e-06 0 2.1455174748151449e-05 2.9796901788209602e-06 0 1.8858320639293502e-05 -3.6036612940207941e-06 0 1.5339619853445929e-05 2.7576514104085713e-05 0 2.7733736014210933e-05 1.6081957424763179e-05 0 2.2187839683648265e-05 4.874831983331609e-05 0 2.7733736014210933e-05 1.6081957424763179e-05 0 2.1455174748151449e-05 2.9796901788209602e-06 0 2.9940910795981869e-05 -3.7008885058420102e-06 0 1.6975306559278535e-05 1.3666855739992038e-05 0 3.8625972855560505e-05 2.4229405365583936e-05 0 2.7733736014210933e-05 1.6081957424763179e-05 0 3.9726486609353552e-05 4.805493470546646e-05 0 2.2187839683648265e-05 4.874831983331609e-05 0 4.6309654958358869e-05 7.1752202480169174e-05 0 2.0821805885732095e-05 6.8886417568296635e-05 0 2.2187839683648265e-05 4.874831983331609e-05 0 3.8625972855560505e-05 2.4229405365583936e-05 0 3.7760191201944784e-05 2.9220906873146221e-05 0 2.9940910795981869e-05 -3.7008885058420102e-06 0 2.4590823062288968e-05 -8.3970739556335985e-06 0 3.0457484136153608e-05 -1.1357408273444391e-05 0 3.9726486609353552e-05 4.805493470546646e-05 0 4.6309654958358869e-05 7.1752202480169174e-05 0 2.2187839683648265e-05 4.874831983331609e-05 0 3.7760191201944784e-05 2.9220906873146221e-05 0 4.1903285741639397e-05 3.968969569072598e-05 0 3.0457484136153608e-05 -1.1357408273444391e-05 0 2.7153577300252693e-05 -1.4726872393034753e-05 0 3.1344167858450342e-05 -1.6286370549189615e-05 0 4.6309654958358869e-05 7.1752202480169174e-05 0 3.492517880287702e-05 8.6531186329911124e-05 0 2.0821805885732095e-05 6.8886417568296635e-05 0 2.4590823062288968e-05 -8.3970739556335985e-06 0 1.8858320639293502e-05 -3.6036612940207941e-06 0 2.1519989054770449e-05 -1.1511844026313718e-05 0 3.0457484136153608e-05 -1.1357408273444391e-05 0 2.4590823062288968e-05 -8.3970739556335985e-06 0 2.7153577300252693e-05 -1.4726872393034753e-05 0 2.4590823062288968e-05 -8.3970739556335985e-06 0 2.1519989054770449e-05 -1.1511844026313718e-05 0 2.7153577300252693e-05 -1.4726872393034753e-05 0 2.388934945433595e-05 -1.6392638902184069e-05 0 2.7153577300252693e-05 -1.4726872393034753e-05 0 2.1519989054770449e-05 -1.1511844026313718e-05 0 2.388934945433595e-05 -1.6392638902184069e-05 0 2.8097235510420551e-05 -1.9661267674361145e-05 0 2.7153577300252693e-05 -1.4726872393034753e-05 0 3.1344167858450342e-05 -1.6286370549189615e-05 0 2.7153577300252693e-05 -1.4726872393034753e-05 0 2.8097235510420551e-05 -1.9661267674361145e-05 0 3.1344167858450342e-05 -1.6286370549189615e-05 0 2.8097235510420551e-05 -1.9661267674361145e-05 0 3.289585609548077e-05 -2.0324344690593136e-05 0 2.388934945433595e-05 -1.6392638902184069e-05 0 2.3712181977456625e-05 -1.9742642061279965e-05 0 2.8097235510420551e-05 -1.9661267674361145e-05 0 1.9551806158544454e-05 9.3320541265633084e-05 0 3.492517880287702e-05 8.6531186329911111e-05 0 3.869963790370269e-05 0.00010188678099940034 0 5.1893796762269754e-05 9.4685281913062751e-05 0 3.869963790370269e-05 0.00010188678099940034 0 3.492517880287702e-05 8.6531186329911124e-05 0 4.6309654958358869e-05 7.1752202480169174e-05 0 5.1893796762269754e-05 9.4685281913062751e-05 0 3.492517880287702e-05 8.6531186329911124e-05 0 4.1903285741639397e-05 3.968969569072598e-05 0 4.4683828701257063e-05 4.8964560075130548e-05 0 5.1893796762269754e-05 9.4685281913062751e-05 0 5.6769671867753217e-05 0.00011872088642038803 0 3.869963790370269e-05 0.00010188678099940034 0 5.6769671867753217e-05 0.00011872088642038803 0 3.1173053024905391e-05 0.00011536060563233446 0 3.869963790370269e-05 0.00010188678099940034 0 5.6769671867753217e-05 0.00011872088642038803 0 3.9649031822508617e-05 0.00013228539063674162 0 3.1173053024905391e-05 0.00011536060563233446 0 5.6769671867753217e-05 0.00011872088642038803 0 6.1255789639618648e-05 0.00014388479533860432 0 3.9649031822508617e-05 0.00013228539063674162 0 3.289585609548077e-05 -2.0324344690593136e-05 0 3.0953882621165147e-05 -2.3631769581241125e-05 0 3.4819767084366817e-05 -2.421182044881305e-05 0 4.4683828701257063e-05 4.8964560075130548e-05 0 4.7730039291978395e-05 5.9738248513565239e-05 0 6.1255789639618648e-05 0.00014388479533860432 0 3.5446829906301672e-05 0.00014983979248298516 0 3.9649031822508617e-05 0.00013228539063674162 0 2.6874022247136297e-05 -2.3312301525857539e-05 0 3.0953882621165147e-05 -2.3631769581241125e-05 0 2.8097235510420551e-05 -1.9661267674361145e-05 0 2.6874022247136297e-05 -2.3312301525857539e-05 0 2.8097235510420551e-05 -1.9661267674361145e-05 0 2.3712181977456629e-05 -1.9742642061279965e-05 0 3.289585609548077e-05 -2.0324344690593136e-05 0 2.8097235510420551e-05 -1.9661267674361148e-05 0 3.0953882621165147e-05 -2.3631769581241125e-05 0 2.6874022247136297e-05 -2.3312301525857539e-05 0 2.7713978987904934e-05 -2.6592376996304768e-05 0 3.0953882621165147e-05 -2.3631769581241125e-05 0 3.2643619312862474e-05 -2.8044294345835775e-05 0 3.0953882621165147e-05 -2.3631769581241125e-05 0 2.7713978987904934e-05 -2.6592376996304768e-05 0 2.6874022247136297e-05 -2.3312301525857539e-05 0 2.204915747462067e-05 -2.3569104287871264e-05 0 2.7713978987904934e-05 -2.6592376996304768e-05 0 2.512266421859933e-05 -2.8825763205323632e-05 0 2.7713978987904934e-05 -2.6592376996304768e-05 0 2.204915747462067e-05 -2.3569104287871264e-05 0 2.6874022247136297e-05 -2.3312301525857539e-05 0 2.3712181977456629e-05 -1.9742642061279965e-05 0 2.204915747462067e-05 -2.3569104287871264e-05 0 1.9890098807929525e-05 -1.917749115482842e-05 0 1.6606108337123509e-05 -1.8994570402385523e-05 0 2.204915747462067e-05 -2.3569104287871264e-05 0 1.9890098807929525e-05 -1.917749115482842e-05 0 2.204915747462067e-05 -2.3569104287871264e-05 0 2.3712181977456629e-05 -1.9742642061279965e-05 0 1.6884989524759932e-05 -2.2807878759385599e-05 0 2.0176507087117323e-05 -2.8399479783420611e-05 0 2.204915747462067e-05 -2.3569104287871264e-05 0 1.6884989524759932e-05 -2.2807878759385599e-05 0 1.4865511484707047e-05 -2.48945591869111e-05 0 2.0176507087117323e-05 -2.8399479783420611e-05 0 1.6884989524759932e-05 -2.2807878759385599e-05 0 1.6606108337123509e-05 -1.8994570402385523e-05 0 1.3349086061253346e-05 -2.0384791138904283e-05 0 1.6884989524759932e-05 -2.2807878759385599e-05 0 2.204915747462067e-05 -2.3569104287871264e-05 0 1.6606108337123509e-05 -1.8994570402385523e-05 0 1.9890098807929525e-05 -1.917749115482842e-05 0 1.5286189849750733e-05 -1.3302499963635978e-05 0 1.6606108337123509e-05 -1.8994570402385523e-05 0 1.3479644491190799e-05 -1.6525831969274525e-05 0 1.3349086061253346e-05 -2.0384791138904283e-05 0 1.6606108337123509e-05 -1.8994570402385523e-05 0 1.3479644491190799e-05 -1.6525831969274525e-05 0 1.6606108337123509e-05 -1.8994570402385523e-05 0 1.5286189849750733e-05 -1.3302499963635978e-05 0 1.3479644491190799e-05 -1.6525831969274525e-05 0 1.5286189849750733e-05 -1.3302499963635978e-05 0 1.1646250850528131e-05 -1.2768991673818912e-05 0 1.9890098807929525e-05 -1.917749115482842e-05 0 2.000899170340468e-05 -1.4972727918473741e-05 0 1.5286189849750733e-05 -1.3302499963635978e-05 0 2.388934945433595e-05 -1.6392638902184069e-05 0 2.000899170340468e-05 -1.4972727918473741e-05 0 2.3712181977456629e-05 -1.9742642061279965e-05 0 1.9890098807929525e-05 -1.917749115482842e-05 0 2.3712181977456629e-05 -1.9742642061279965e-05 0 2.000899170340468e-05 -1.4972727918473741e-05 0 -6.7120283332333284e-05 7.424452331980744e-05 0 -4.9457502797173306e-05 6.1891678519240259e-05 0 -4.968999388804545e-05 8.1460477116372584e-05 0 -7.312050935539161e-05 9.654293750798029e-05 0 -6.7120283332333284e-05 7.424452331980744e-05 0 -4.968999388804545e-05 8.1460477116372584e-05 0 -3.5047779836814107e-05 6.1826785557644203e-05 0 -4.968999388804545e-05 8.1460477116372584e-05 0 -4.9457502797173306e-05 6.1891678519240259e-05 0 -6.7120283332333284e-05 7.424452331980744e-05 0 -5.9609100497943238e-05 5.4337585840062718e-05 0 -4.9457502797173306e-05 6.1891678519240259e-05 0 -5.9609100497943231e-05 5.4337585840062712e-05 0 -5.2037590990482338e-05 3.7663549807173871e-05 0 -3.6657729610704947e-05 4.1484472124363182e-05 0 -3.5047779836814107e-05 6.1826785557644203e-05 0 -4.9457502797173306e-05 6.1891678519240259e-05 0 -3.6657729610704947e-05 4.1484472124363182e-05 0 -5.9609100497943231e-05 5.4337585840062712e-05 0 -3.6657729610704947e-05 4.1484472124363182e-05 0 -4.9457502797173306e-05 6.1891678519240259e-05 0 -3.5047779836814107e-05 6.1826785557644203e-05 0 -3.6657729610704947e-05 4.1484472124363182e-05 0 -2.3889132944920624e-05 4.9641478222782502e-05 0 -1.7468308150258741e-05 3.2776995646599027e-05 0 -2.3889132944920624e-05 4.9641478222782502e-05 0 -3.6657729610704947e-05 4.1484472124363182e-05 0 -1.1009714170453719e-05 5.2425341481027354e-05 0 -2.2814256636289912e-05 6.3532866691473432e-05 0 -2.3889132944920624e-05 4.9641478222782502e-05 0 -3.5047779836814107e-05 6.1826785557644203e-05 0 -2.3889132944920624e-05 4.9641478222782502e-05 0 -2.2814256636289912e-05 6.3532866691473432e-05 0 -3.5047779836814107e-05 6.1826785557644203e-05 0 -2.2814256636289912e-05 6.3532866691473432e-05 0 -3.0509469391605421e-05 7.9585456650471646e-05 0 -3.5047779836814107e-05 6.1826785557644203e-05 0 -3.0509469391605421e-05 7.9585456650471646e-05 0 -4.968999388804545e-05 8.1460477116372584e-05 0 -1.3426873079914307e-05 7.6582550567519573e-05 0 -3.0509469391605421e-05 7.9585456650471646e-05 0 -2.2814256636289912e-05 6.3532866691473432e-05 0 -1.3426873079914307e-05 7.6582550567519573e-05 0 3.4144269929061372e-06 7.1534456137133567e-05 0 -1.5707707262934215e-06 9.3982667946561541e-05 0 -1.3426873079914307e-05 7.6582550567519573e-05 0 -1.1009714170453719e-05 5.2425341481027354e-05 0 3.4144269929061372e-06 7.1534456137133567e-05 0 6.2839285310376357e-06 4.6509196265140192e-05 0 3.4144269929061359e-06 7.1534456137133567e-05 0 -1.1009714170453719e-05 5.2425341481027354e-05 0 -1.3426873079914307e-05 7.6582550567519573e-05 0 -2.2814256636289912e-05 6.3532866691473432e-05 0 -1.1009714170453719e-05 5.2425341481027354e-05 0 -1.7468308150258741e-05 3.2776995646599027e-05 0 -1.1009714170453719e-05 5.2425341481027354e-05 0 -2.3889132944920624e-05 4.9641478222782502e-05 0 -1.7468308150258741e-05 3.2776995646599027e-05 0 -3.4890676389603557e-06 3.1897855777482166e-05 0 -1.1009714170453719e-05 5.2425341481027354e-05 0 6.2839285310376357e-06 4.6509196265140192e-05 0 -1.1009714170453719e-05 5.2425341481027354e-05 0 -3.4890676389603553e-06 3.1897855777482173e-05 0 6.2839285310376357e-06 4.6509196265140192e-05 0 -3.4890676389603574e-06 3.1897855777482173e-05 0 6.4228869422142911e-06 3.0188318592007796e-05 0 6.2839285310376357e-06 4.6509196265140192e-05 0 6.4228869422142902e-06 3.0188318592007796e-05 0 1.5339619853445929e-05 2.7576514104085713e-05 0 6.2839285310376357e-06 4.6509196265140192e-05 0 1.5339619853445929e-05 2.7576514104085713e-05 0 2.2187839683648265e-05 4.874831983331609e-05 0 6.2839285310376357e-06 4.6509196265140192e-05 0 2.2187839683648265e-05 4.874831983331609e-05 0 2.0821805885732095e-05 6.8886417568296635e-05 0 6.2839285310376357e-06 4.6509196265140192e-05 0 2.0821805885732095e-05 6.8886417568296635e-05 0 3.4144269929061372e-06 7.1534456137133567e-05 0 1.9551806158544454e-05 9.3320541265633084e-05 0 3.4144269929061372e-06 7.1534456137133567e-05 0 2.0821805885732095e-05 6.8886417568296635e-05 0 1.9551806158544454e-05 9.3320541265633084e-05 0 2.0821805885732095e-05 6.8886417568296635e-05 0 3.492517880287702e-05 8.6531186329911124e-05 0 1.9551806158544454e-05 9.3320541265633084e-05 0 -1.570770726293423e-06 9.3982667946561541e-05 0 3.4144269929061372e-06 7.1534456137133567e-05 0 1.9551806158544454e-05 9.3320541265633084e-05 0 1.0972850364775113e-05 0.00010925061200033196 0 -1.5707707262934215e-06 9.3982667946561541e-05 0 1.9551806158544454e-05 9.3320541265633084e-05 0 3.1173053024905391e-05 0.00011536060563233446 0 1.0972850364775113e-05 0.00010925061200033196 0 1.9551806158544454e-05 9.3320541265633084e-05 0 3.869963790370269e-05 0.00010188678099940034 0 3.1173053024905391e-05 0.00011536060563233446 0 3.1173053024905391e-05 0.00011536060563233446 0 3.9649031822508617e-05 0.00013228539063674162 0 1.4500834990049768e-05 0.0001321845181454316 0 3.9649031822508617e-05 0.00013228539063674162 0 3.5446829906301672e-05 0.00014983979248298516 0 1.4500834990049768e-05 0.0001321845181454316 0 1.4500834990049768e-05 0.0001321845181454316 0 1.0972850364775113e-05 0.00010925061200033196 0 3.1173053024905391e-05 0.00011536060563233446 0 1.4500834990049768e-05 0.0001321845181454316 0 -8.172667602791519e-06 0.00011222567731077632 0 1.0972850364775113e-05 0.00010925061200033196 0 1.4500834990049768e-05 0.0001321845181454316 0 -1.1752417191376304e-05 0.00013398756328942543 0 -8.172667602791519e-06 0.00011222567731077632 0 1.4500834990049768e-05 0.0001321845181454316 0 -6.076154824682246e-06 0.00015553761444962621 0 -1.1752417191376304e-05 0.00013398756328942543 0 -2.950393366752027e-05 0.00013201889890489778 0 -8.172667602791519e-06 0.00011222567731077632 0 -1.1752417191376304e-05 0.00013398756328942543 0 -2.950393366752027e-05 0.00013201889890489778 0 -2.2813269174304801e-05 0.00010082423032905674 0 -8.172667602791519e-06 0.00011222567731077632 0 -8.172667602791519e-06 0.00011222567731077632 0 -2.2813269174304801e-05 0.00010082423032905674 0 -1.5707707262934215e-06 9.3982667946561541e-05 0 -8.172667602791519e-06 0.00011222567731077632 0 -1.5707707262934215e-06 9.3982667946561541e-05 0 1.0972850364775113e-05 0.00010925061200033196 0 -1.3426873079914307e-05 7.6582550567519573e-05 0 -1.5707707262934215e-06 9.3982667946561541e-05 0 -2.2813269174304801e-05 0.00010082423032905674 0 -1.3426873079914307e-05 7.6582550567519573e-05 0 -2.2813269174304801e-05 0.00010082423032905674 0 -3.0509469391605421e-05 7.9585456650471646e-05 0 -3.9816303591098109e-05 9.6988743881095936e-05 0 -3.0509469391605421e-05 7.9585456650471646e-05 0 -2.2813269174304801e-05 0.00010082423032905674 0 -3.9816303591098109e-05 9.6988743881095936e-05 0 -4.968999388804545e-05 8.1460477116372584e-05 0 -3.0509469391605421e-05 7.9585456650471646e-05 0 -3.9816303591098109e-05 9.6988743881095936e-05 0 -4.077268905757676e-05 0.0001141520165205096 0 -5.718777625120724e-05 0.00010990595666987565 0 -3.9816303591098109e-05 9.6988743881095936e-05 0 -2.2813269174304801e-05 0.00010082423032905674 0 -4.077268905757676e-05 0.0001141520165205096 0 -2.950393366752027e-05 0.00013201889890489778 0 -4.077268905757676e-05 0.0001141520165205096 0 -2.2813269174304801e-05 0.00010082423032905674 0 -2.950393366752027e-05 0.00013201889890489778 0 -1.1752417191376304e-05 0.00013398756328942543 0 -2.7510775142355995e-05 0.00015549223238937261 0 -2.950393366752027e-05 0.00013201889890489778 0 -4.4154535251165958e-05 0.00014942062115888736 0 -5.5378924998101468e-05 0.00013263243972514355 0 -2.950393366752027e-05 0.00013201889890489778 0 -5.5378924998101468e-05 0.00013263243972514355 0 -4.077268905757676e-05 0.0001141520165205096 0 -5.5378924998101468e-05 0.00013263243972514355 0 -5.718777625120724e-05 0.00010990595666987565 0 -4.077268905757676e-05 0.0001141520165205096 0 -8.1883332010365058e-05 0.00014677734872110267 0 -7.8164749975071946e-05 0.00012097984135118341 0 -5.5378924998101468e-05 0.00013263243972514355 0 -8.1883332010365058e-05 0.00014677734872110267 0 -5.5378924998101468e-05 0.00013263243972514355 0 -6.2169272777610904e-05 0.00015713469085995184 0 -7.816474997507196e-05 0.00012097984135118341 0 -5.718777625120724e-05 0.00010990595666987565 0 -5.5378924998101468e-05 0.00013263243972514355 0 -7.816474997507196e-05 0.00012097984135118341 0 -7.312050935539161e-05 9.654293750798029e-05 0 -5.718777625120724e-05 0.00010990595666987565 0 -3.9816303591098109e-05 9.6988743881095936e-05 0 -5.718777625120724e-05 0.00010990595666987565 0 -4.968999388804545e-05 8.1460477116372584e-05 0 -7.312050935539161e-05 9.654293750798029e-05 0 -4.968999388804545e-05 8.1460477116372584e-05 0 -5.718777625120724e-05 0.00010990595666987565 0 -8.6688581275000715e-05 0.00020133286816562135 0 -5.2137090614461402e-05 0.00020180810536153546 0 -6.253254033760405e-05 0.00022875947309201623 0 -8.6688581275000715e-05 0.00020133286816562135 0 -6.5859526948226733e-05 0.00018134667217976753 0 -5.2137090614461402e-05 0.00020180810536153546 0 -4.6586177139982523e-05 0.0001710112200817859 0 -5.2137090614461402e-05 0.00020180810536153549 0 -6.5859526948226733e-05 0.0001813466721797675 0 -8.6688581275000715e-05 0.00020133286816562135 0 -8.4778107250968354e-05 0.00017365293873709831 0 -6.5859526948226733e-05 0.0001813466721797675 0 -8.4778107250968354e-05 0.00017365293873709831 0 -6.2169272777610904e-05 0.00015713469085995184 0 -6.5859526948226733e-05 0.0001813466721797675 0 -8.4778107250968354e-05 0.00017365293873709831 0 -8.1883332010365058e-05 0.00014677734872110267 0 -6.2169272777610904e-05 0.00015713469085995184 0 -5.5378924998101468e-05 0.00013263243972514355 0 -4.4154535251165958e-05 0.00014942062115888736 0 -6.2169272777610904e-05 0.00015713469085995184 0 -4.6586177139982523e-05 0.0001710112200817859 0 -6.5859526948226733e-05 0.0001813466721797675 0 -6.2169272777610904e-05 0.00015713469085995184 0 -4.6586177139982523e-05 0.0001710112200817859 0 -4.4154535251165958e-05 0.00014942062115888736 0 -2.7510775142355995e-05 0.00015549223238937261 0 -4.6586177139982523e-05 0.0001710112200817859 0 -6.2169272777610904e-05 0.00015713469085995184 0 -4.4154535251165958e-05 0.00014942062115888736 0 -2.950393366752027e-05 0.00013201889890489778 0 -2.7510775142355995e-05 0.00015549223238937261 0 -4.4154535251165958e-05 0.00014942062115888736 0 -4.6586177139982523e-05 0.0001710112200817859 0 -2.7510775142355995e-05 0.00015549223238937261 0 -2.7494524561559386e-05 0.00017903946298572081 0 -5.2137090614461402e-05 0.00020180810536153546 0 -2.7494524561559386e-05 0.00017903946298572081 0 -2.6038900990417894e-05 0.00020413742325066045 0 -4.6586177139982523e-05 0.0001710112200817859 0 -2.7494524561559386e-05 0.00017903946298572081 0 -5.2137090614461402e-05 0.00020180810536153546 0 -3.6053776605360127e-05 0.00023156137378919049 0 -5.2137090614461402e-05 0.00020180810536153546 0 -2.6038900990417894e-05 0.00020413742325066045 0 -8.3855940350913062e-06 0.00018773371715352679 0 -6.1367535084256211e-06 0.00021835194524787445 0 -2.6038900990417894e-05 0.00020413742325066045 0 -8.3855940350913062e-06 0.00018773371715352679 0 1.3094776703819845e-05 0.00019915628720164775 0 -6.1367535084256245e-06 0.00021835194524787442 0 -8.3855940350913062e-06 0.00018773371715352679 0 7.760952009244639e-06 0.00017287799318784402 0 1.3094776703819845e-05 0.00019915628720164775 0 -8.3855940350913062e-06 0.00018773371715352679 0 -2.6038900990417894e-05 0.00020413742325066045 0 -2.7494524561559386e-05 0.00017903946298572081 0 -6.076154824682246e-06 0.00015553761444962621 0 -2.7494524561559386e-05 0.00017903946298572081 0 -2.7510775142355995e-05 0.00015549223238937261 0 -8.3855940350913062e-06 0.00018773371715352679 0 -2.7494524561559386e-05 0.00017903946298572081 0 -6.076154824682246e-06 0.00015553761444962621 0 -6.076154824682246e-06 0.00015553761444962621 0 -2.7510775142355995e-05 0.00015549223238937261 0 -1.1752417191376304e-05 0.00013398756328942543 0 -6.076154824682246e-06 0.00015553761444962621 0 1.5818987769920277e-05 0.00015680547759119328 0 7.760952009244639e-06 0.00017287799318784402 0 -8.3855940350913062e-06 0.00018773371715352679 0 -6.0761548246822494e-06 0.00015553761444962621 0 7.760952009244639e-06 0.00017287799318784402 0 2.7915818737560038e-05 0.0001735357349923188 0 7.760952009244639e-06 0.00017287799318784402 0 1.5818987769920277e-05 0.00015680547759119331 0 1.4500834990049768e-05 0.0001321845181454316 0 3.5446829906301672e-05 0.00014983979248298516 0 1.5818987769920277e-05 0.00015680547759119331 0 1.4500834990049768e-05 0.0001321845181454316 0 1.5818987769920277e-05 0.00015680547759119331 0 -6.076154824682246e-06 0.00015553761444962621 0 2.7915818737560038e-05 0.0001735357349923188 0 1.5818987769920277e-05 0.00015680547759119331 0 3.5446829906301672e-05 0.00014983979248298516 0 2.7915818737560038e-05 0.0001735357349923188 0 3.5446829906301672e-05 0.00014983979248298516 0 4.7762407906998598e-05 0.00016405912360752237 0 2.7915818737560038e-05 0.0001735357349923188 0 3.80500715237092e-05 0.00020312239688784472 0 1.3094776703819845e-05 0.00019915628720164775 0 2.7915818737560038e-05 0.0001735357349923188 0 4.8448915535197155e-05 0.00018209897203761544 0 3.80500715237092e-05 0.00020312239688784472 0 2.7915818737560038e-05 0.0001735357349923188 0 1.3094776703819845e-05 0.00019915628720164775 0 7.760952009244639e-06 0.00017287799318784402 0 2.1575566874483121e-05 0.00023108239377879136 0 1.3094776703819845e-05 0.00019915628720164775 0 3.80500715237092e-05 0.00020312239688784472 0 2.1575566874483121e-05 0.00023108239377879136 0 3.80500715237092e-05 0.00020312239688784472 0 4.8904721884205283e-05 0.00022861283801935291 0 2.1575566874483121e-05 0.00023108239377879136 0 4.6103748797877133e-05 0.00025470604908047135 0 1.8913276337074625e-05 0.00026088390808111091 0 2.1575566874483121e-05 0.00023108239377879136 0 4.890472188420529e-05 0.00022861283801935291 0 4.610374879787714e-05 0.00025470604908047135 0 4.610374879787714e-05 0.00025470604908047135 0 3.6882686573835806e-05 0.00027300970898847844 0 1.8913276337074625e-05 0.00026088390808111091 0 4.610374879787714e-05 0.00025470604908047135 0 6.1860520452281661e-05 0.00027055202416641374 0 3.6882686573835806e-05 0.00027300970898847844 0 5.4159157934063865e-05 0.0002887310327606312 0 3.6882686573835806e-05 0.00027300970898847844 0 6.1860520452281661e-05 0.00027055202416641374 0 5.4159157934063865e-05 0.0002887310327606312 0 2.3093741452786918e-05 0.00028816517008359874 0 3.6882686573835806e-05 0.00027300970898847844 0 2.3093741452786918e-05 0.00028816517008359874 0 1.8913276337074625e-05 0.00026088390808111091 0 3.6882686573835806e-05 0.00027300970898847844 0 -5.7034407847777508e-06 0.00028695649675239014 0 -3.1369248792350475e-05 0.00026009090491627379 0 -6.8702938335544619e-06 0.00025062891435848771 0 -5.7034407847777508e-06 0.00028695649675239014 0 -6.8702938335544619e-06 0.00025062891435848771 0 1.8913276337074625e-05 0.00026088390808111091 0 2.3093741452786918e-05 0.00028816517008359874 0 -5.7034407847777508e-06 0.00028695649675239014 0 1.8913276337074625e-05 0.00026088390808111091 0 -3.6053776605360127e-05 0.00023156137378919049 0 -6.1367535084256245e-06 0.00021835194524787442 0 -6.8702938335544619e-06 0.00025062891435848771 0 2.1575566874483121e-05 0.00023108239377879136 0 1.8913276337074625e-05 0.00026088390808111091 0 -6.8702938335544619e-06 0.00025062891435848771 0 2.1575566874483121e-05 0.00023108239377879136 0 -6.8702938335544619e-06 0.00025062891435848771 0 -6.1367535084256245e-06 0.00021835194524787442 0 2.1575566874483121e-05 0.00023108239377879136 0 -6.1367535084256245e-06 0.00021835194524787442 0 1.3094776703819845e-05 0.00019915628720164775 0 -3.6053776605360127e-05 0.00023156137378919049 0 -2.6038900990417894e-05 0.00020413742325066045 0 -6.1367535084256245e-06 0.00021835194524787442 0 -3.6053776605360127e-05 0.00023156137378919049 0 -6.253254033760405e-05 0.00022875947309201623 0 -5.2137090614461402e-05 0.00020180810536153546 0 -3.6053776605360127e-05 0.00023156137378919049 0 -3.1369248792350468e-05 0.00026009090491627379 0 -5.7407694714031224e-05 0.00025423730708496616 0 -3.6053776605360127e-05 0.00023156137378919049 0 -5.7407694714031224e-05 0.00025423730708496616 0 -6.253254033760405e-05 0.00022875947309201623 0 -3.6053776605360127e-05 0.00023156137378919049 0 -6.8702938335544568e-06 0.00025062891435848771 0 -3.1369248792350468e-05 0.00026009090491627379 0 -5.7034407847777508e-06 0.00028695649675239014 0 -3.313653610826755e-05 0.0002860674791272801 0 -3.1369248792350468e-05 0.00026009090491627379 0 -3.313653610826755e-05 0.0002860674791272801 0 -6.0667132503330818e-05 0.00028559213068635414 0 -4.7041363181980616e-05 0.00027141464082028501 0 -3.313653610826755e-05 0.0002860674791272801 0 -4.7041363181980616e-05 0.00027141464082028501 0 -3.1369248792350468e-05 0.00026009090491627379 0 -5.7407694714031224e-05 0.00025423730708496616 0 -3.1369248792350468e-05 0.00026009090491627379 0 -4.7041363181980616e-05 0.00027141464082028501 0 -5.7407694714031224e-05 0.00025423730708496616 0 -4.7041363181980616e-05 0.00027141464082028501 0 -6.9872847742251734e-05 0.00026981153629146432 0 -6.0667132503330818e-05 0.00028559213068635414 0 -6.9872847742251734e-05 0.00026981153629146432 0 -4.7041363181980616e-05 0.00027141464082028501 0 -8.8270478879402665e-05 0.00028557397405118429 0 -6.9872847742251734e-05 0.00026981153629146432 0 -6.0667132503330818e-05 0.00028559213068635414 0 -8.8270478879402665e-05 0.00028557397405118429 0 -8.8239831429621094e-05 0.00025774110506363349 0 -6.9872847742251734e-05 0.00026981153629146432 0 -8.8239831429621094e-05 0.00025774110506363349 0 -5.7407694714031224e-05 0.00025423730708496616 0 -6.9872847742251734e-05 0.00026981153629146432 0 -8.8239831429621094e-05 0.00025774110506363349 0 -8.7768835655190964e-05 0.00022960994314005244 0 -6.253254033760405e-05 0.00022875947309201623 0 -8.8239831429621094e-05 0.00025774110506363349 0 -6.253254033760405e-05 0.00022875947309201623 0 -5.7407694714031224e-05 0.00025423730708496616 0 -8.7768835655190964e-05 0.00022960994314005244 0 -8.6688581275000715e-05 0.00020133286816562135 0 -6.253254033760405e-05 0.00022875947309201623 0 2.5572956133501697e-05 -3.8436379851985962e-05 0 2.6531469802974742e-05 -3.3059418993996789e-05 0 2.2211641475815447e-05 -3.4040440280424016e-05 0 3.1722824273302241e-05 -3.4901462233400668e-05 0 2.6531469802974742e-05 -3.3059418993996789e-05 0 3.0782532636728483e-05 -3.87635458135567e-05 0 3.1722824273302241e-05 -3.4901462233400668e-05 0 2.9689382222639922e-05 -3.1094561634444332e-05 0 2.6531469802974742e-05 -3.3059418993996789e-05 0 2.5572956133501697e-05 -3.8436379851985962e-05 0 3.0782532636728483e-05 -3.87635458135567e-05 0 2.6531469802974742e-05 -3.3059418993996789e-05 0 2.5572956133501697e-05 -3.8436379851985962e-05 0 2.2211641475815447e-05 -3.4040440280424016e-05 0 1.9949104800425155e-05 -3.7828786180672366e-05 0 2.2211641475815447e-05 -3.4040440280424016e-05 0 1.8172477276554712e-05 -3.2343743382523173e-05 0 1.9949104800425155e-05 -3.7828786180672366e-05 0 1.6599621298673836e-05 -3.5303349176671088e-05 0 1.9949104800425155e-05 -3.7828786180672366e-05 0 1.8172477276554712e-05 -3.2343743382523173e-05 0 2.2211641475815447e-05 -3.4040440280424016e-05 0 2.0176507087117323e-05 -2.8399479783420611e-05 0 1.8172477276554712e-05 -3.2343743382523173e-05 0 1.634211361554034e-05 -2.8793079378149873e-05 0 1.8172477276554712e-05 -3.2343743382523173e-05 0 2.0176507087117323e-05 -2.8399479783420611e-05 0 1.634211361554034e-05 -2.8793079378149873e-05 0 2.0176507087117323e-05 -2.8399479783420611e-05 0 1.4865511484707047e-05 -2.48945591869111e-05 0 2.512266421859933e-05 -2.8825763205323632e-05 0 2.204915747462067e-05 -2.3569104287871264e-05 0 2.0176507087117323e-05 -2.8399479783420611e-05 0 2.6531469802974742e-05 -3.3059418993996789e-05 0 2.512266421859933e-05 -2.8825763205323632e-05 0 2.0176507087117323e-05 -2.8399479783420611e-05 0 2.2211641475815447e-05 -3.4040440280424016e-05 0 2.6531469802974742e-05 -3.3059418993996789e-05 0 2.0176507087117323e-05 -2.8399479783420611e-05 0 2.512266421859933e-05 -2.8825763205323632e-05 0 2.6531469802974746e-05 -3.3059418993996789e-05 0 2.9689382222639922e-05 -3.1094561634444332e-05 0 2.512266421859933e-05 -2.8825763205323632e-05 0 2.9689382222639922e-05 -3.1094561634444332e-05 0 2.7713978987904934e-05 -2.6592376996304768e-05 0 3.2643619312862474e-05 -2.8044294345835775e-05 0 2.7713978987904934e-05 -2.6592376996304768e-05 0 2.9689382222639922e-05 -3.1094561634444332e-05 0 3.4819767084366817e-05 -2.421182044881305e-05 0 3.0953882621165147e-05 -2.3631769581241125e-05 0 3.2643619312862474e-05 -2.8044294345835775e-05 0 3.7385352749967096e-05 -2.83336424245817e-05 0 3.2643619312862474e-05 -2.8044294345835775e-05 0 3.5363406800954318e-05 -3.2544762300748863e-05 0 3.2643619312862474e-05 -2.8044294345835775e-05 0 2.9689382222639922e-05 -3.1094561634444332e-05 0 3.5363406800954318e-05 -3.2544762300748863e-05 0 6.1255789639618648e-05 0.00014388479533860432 0 4.7762407906998598e-05 0.00016405912360752237 0 3.5446829906301672e-05 0.00014983979248298516 0 6.1255789639618648e-05 0.00014388479533860432 0 6.5538287680441177e-05 0.00017002275921524165 0 4.7762407906998598e-05 0.00016405912360752237 0 3.4819767084366817e-05 -2.421182044881305e-05 0 3.2643619312862474e-05 -2.8044294345835775e-05 0 3.7385352749967096e-05 -2.83336424245817e-05 0 4.7730039291978395e-05 5.9738248513565239e-05 0 5.1154190295218248e-05 7.1279316251332312e-05 0 2.7915818737560038e-05 0.0001735357349923188 0 4.7762407906998598e-05 0.00016405912360752237 0 4.8448915535197155e-05 0.00018209897203761544 0 6.5538287680441177e-05 0.00017002275921524165 0 4.8448915535197155e-05 0.00018209897203761544 0 4.7762407906998598e-05 0.00016405912360752237 0 6.9740798476831427e-05 0.00019755855092603536 0 3.80500715237092e-05 0.00020312239688784472 0 4.8448915535197155e-05 0.00018209897203761544 0 5.1154190295218248e-05 7.1279316251332312e-05 0 5.3867336511482902e-05 8.1294748359074835e-05 0 3.7385352749967096e-05 -2.83336424245817e-05 0 3.5363406800954318e-05 -3.2544762300748863e-05 0 4.0676474992193664e-05 -3.3096669025446184e-05 0 6.5538287680441177e-05 0.00017002275921524165 0 6.9740798476831427e-05 0.00019755855092603536 0 4.8448915535197155e-05 0.00018209897203761544 0 5.3867336511482902e-05 8.1294748359074835e-05 0 6.1003599272991228e-05 9.5070219835219482e-05 0 6.9740798476831427e-05 0.00019755855092603536 0 4.8904721884205283e-05 0.00022861283801935291 0 3.80500715237092e-05 0.00020312239688784472 0 3.1722824273302241e-05 -3.4901462233400668e-05 0 3.5363406800954318e-05 -3.2544762300748863e-05 0 2.9689382222639922e-05 -3.1094561634444332e-05 0 4.0676474992193664e-05 -3.3096669025446184e-05 0 3.5363406800954318e-05 -3.2544762300748863e-05 0 3.7103012860277236e-05 -3.8688082551660731e-05 0 3.1722824273302241e-05 -3.4901462233400668e-05 0 3.0782532636728483e-05 -3.87635458135567e-05 0 3.7103012860277236e-05 -3.8688082551660731e-05 0 3.1722824273302241e-05 -3.4901462233400668e-05 0 3.7103012860277236e-05 -3.8688082551660731e-05 0 3.5363406800954318e-05 -3.2544762300748863e-05 0 3.5559831504552776e-05 -4.4359928733859532e-05 0 4.1888592549072468e-05 -4.3903083765688799e-05 0 3.7103012860277236e-05 -3.8688082551660731e-05 0 3.5559831504552776e-05 -4.4359928733859532e-05 0 3.7103012860277236e-05 -3.8688082551660731e-05 0 3.0782532636728483e-05 -3.87635458135567e-05 0 4.0676474992193664e-05 -3.3096669025446184e-05 0 3.7103012860277236e-05 -3.8688082551660731e-05 0 4.5002399722077466e-05 -3.8730512596940389e-05 0 4.5002399722077466e-05 -3.8730512596940389e-05 0 3.7103012860277236e-05 -3.8688082551660731e-05 0 4.1888592549072468e-05 -4.3903083765688799e-05 0 3.5559831504552776e-05 -4.4359928733859532e-05 0 4.3289882537427712e-05 -5.029912068324477e-05 0 4.1888592549072468e-05 -4.3903083765688799e-05 0 6.9740798476831427e-05 0.00019755855092603536 0 7.4119988465493132e-05 0.00022562187021671635 0 4.8904721884205283e-05 0.00022861283801935291 0 6.1003599272991228e-05 9.5070219835219482e-05 0 5.459862572622275e-05 0.00010258118889423122 0 4.5002399722077466e-05 -3.8730512596940389e-05 0 4.1888592549072468e-05 -4.3903083765688799e-05 0 5.0723261861597397e-05 -4.6150635059719042e-05 0 7.4119988465493132e-05 0.00022562187021671635 0 7.9203234542524529e-05 0.00025509090763369999 0 4.8904721884205283e-05 0.00022861283801935291 0 7.9203234542524529e-05 0.00025509090763369999 0 4.610374879787714e-05 0.00025470604908047135 0 4.8904721884205283e-05 0.00022861283801935291 0 7.9203234542524529e-05 0.00025509090763369999 0 6.1860520452281661e-05 0.00027055202416641374 0 4.610374879787714e-05 0.00025470604908047135 0 5.459862572622275e-05 0.00010258118889423122 0 0.00010469066964503615 0.00011648007834280679 0 8.6332501501708623e-05 0.00028578698175723188 0 6.1860520452281661e-05 0.00027055202416641374 0 7.9203234542524529e-05 0.00025509090763369999 0 8.6332501501708623e-05 0.00028578698175723188 0 5.4159157934063865e-05 0.0002887310327606312 0 6.1860520452281661e-05 0.00027055202416641374 0 3.5559831504552776e-05 -4.4359928733859532e-05 0 3.2755015893157952e-05 -5.0224912419145689e-05 0 4.3289882537427719e-05 -5.029912068324477e-05 0 5.0723261861597397e-05 -4.6150635059719042e-05 0 4.1888592549072468e-05 -4.3903083765688799e-05 0 4.3289882537427719e-05 -5.029912068324477e-05 0 5.7555319465103026e-05 -5.6167248461533221e-05 0 5.0723261861597397e-05 -4.6150635059719042e-05 0 4.3289882537427719e-05 -5.029912068324477e-05 0 5.7555319465103026e-05 -5.6167248461533221e-05 0 4.3289882537427719e-05 -5.029912068324477e-05 0 4.5460778379590853e-05 -5.8574248193654314e-05 0 4.5460778379590853e-05 -5.8574248193654314e-05 0 4.3289882537427719e-05 -5.029912068324477e-05 0 3.2755015893157952e-05 -5.0224912419145689e-05 0 2.6749946744904703e-05 -5.4083873097783644e-05 0 3.2755015893157952e-05 -5.0224912419145689e-05 0 2.6045850196659259e-05 -4.6105334178003039e-05 0 3.5170242881020462e-05 -5.722602472470208e-05 0 4.5460778379590853e-05 -5.8574248193654314e-05 0 3.2755015893157952e-05 -5.0224912419145689e-05 0 2.6749946744904703e-05 -5.4083873097783644e-05 0 3.5170242881020462e-05 -5.722602472470208e-05 0 3.2755015893157952e-05 -5.0224912419145689e-05 0 3.5559831504552776e-05 -4.4359928733859532e-05 0 2.8885009844911919e-05 -4.3406404124262724e-05 0 3.2755015893157952e-05 -5.0224912419145689e-05 0 2.6045850196659259e-05 -4.6105334178003039e-05 0 3.2755015893157952e-05 -5.0224912419145689e-05 0 2.8885009844911919e-05 -4.3406404124262724e-05 0 2.5572956133501697e-05 -3.8436379851985962e-05 0 2.2491227506079936e-05 -4.2265906126890321e-05 0 2.8885009844911919e-05 -4.3406404124262724e-05 0 2.5572956133501697e-05 -3.8436379851985962e-05 0 2.8885009844911919e-05 -4.3406404124262724e-05 0 3.0782532636728483e-05 -3.87635458135567e-05 0 3.5559831504552776e-05 -4.4359928733859532e-05 0 3.0782532636728483e-05 -3.87635458135567e-05 0 2.8885009844911919e-05 -4.3406404124262724e-05 0 1.8687859115499514e-05 -4.2191936169228831e-05 0 2.2491227506079936e-05 -4.2265906126890321e-05 0 1.9949104800425155e-05 -3.7828786180672366e-05 0 2.5572956133501697e-05 -3.8436379851985962e-05 0 1.9949104800425155e-05 -3.7828786180672366e-05 0 2.2491227506079936e-05 -4.2265906126890321e-05 0 2.6045850196659259e-05 -4.6105334178003039e-05 0 2.2491227506079936e-05 -4.2265906126890321e-05 0 2.1548636697858083e-05 -4.6910138704559614e-05 0 2.6045850196659259e-05 -4.6105334178003039e-05 0 2.8885009844911919e-05 -4.3406404124262724e-05 0 2.2491227506079936e-05 -4.2265906126890321e-05 0 1.8687859115499514e-05 -4.2191936169228831e-05 0 2.1548636697858083e-05 -4.6910138704559614e-05 0 2.2491227506079936e-05 -4.2265906126890321e-05 0 2.6749946744904703e-05 -5.4083873097783644e-05 0 2.6045850196659259e-05 -4.6105334178003039e-05 0 2.1548636697858083e-05 -4.6910138704559614e-05 0 2.0981469562246465e-05 -5.0544510345301124e-05 0 2.6749946744904703e-05 -5.4083873097783644e-05 0 2.1548636697858083e-05 -4.6910138704559614e-05 0 2.0981469562246465e-05 -5.0544510345301124e-05 0 2.1548636697858083e-05 -4.6910138704559614e-05 0 1.8271193197586467e-05 -4.5883872127414484e-05 0 1.6920925214566904e-05 -4.6945853240230435e-05 0 2.0981469562246465e-05 -5.054451034530113e-05 0 1.8271193197586467e-05 -4.5883872127414484e-05 0 1.6920925214566904e-05 -4.6945853240230435e-05 0 1.8271193197586467e-05 -4.5883872127414484e-05 0 1.498151530086203e-05 -4.2545228280381909e-05 0 1.8687859115499514e-05 -4.2191936169228831e-05 0 1.4981515300862028e-05 -4.2545228280381909e-05 0 1.8271193197586467e-05 -4.5883872127414484e-05 0 1.8687859115499514e-05 -4.2191936169228831e-05 0 1.8271193197586467e-05 -4.5883872127414484e-05 0 2.1548636697858083e-05 -4.6910138704559614e-05 0 1.4878404528238898e-05 -4.2005546636085601e-05 0 1.5191150879126217e-05 -4.3838342131609748e-05 0 1.3314511427695783e-05 -4.2399478472015526e-05 0 1.5191150879126217e-05 -4.3838342131609748e-05 0 1.6920925214566904e-05 -4.6945853240230435e-05 0 1.3314511427695783e-05 -4.2399478472015526e-05 0 1.6920925214566904e-05 -4.6945853240230435e-05 0 1.498151530086203e-05 -4.2545228280381909e-05 0 1.3314511427695783e-05 -4.2399478472015526e-05 0 1.0869395783259448e-05 -3.9826633333748355e-05 0 1.3314511427695783e-05 -4.2399478472015526e-05 0 1.2474874358324597e-05 -3.9519583060339388e-05 0 1.498151530086203e-05 -4.2545228280381909e-05 0 1.2474874358324597e-05 -3.9519583060339388e-05 0 1.3314511427695783e-05 -4.2399478472015526e-05 0 1.2474874358324597e-05 -3.9519583060339388e-05 0 1.5176614001033434e-05 -3.8617463741531293e-05 0 1.2242570679212239e-05 -3.6292011399719023e-05 0 1.2242570679212239e-05 -3.6292011399719023e-05 0 1.0046501364842488e-05 -3.6536164283580768e-05 0 1.2474874358324597e-05 -3.9519583060339388e-05 0 1.0869395783259448e-05 -3.9826633333748355e-05 0 1.2474874358324597e-05 -3.9519583060339388e-05 0 1.0046501364842488e-05 -3.6536164283580768e-05 0 1.8687859115499514e-05 -4.2191936169228831e-05 0 1.5176614001033434e-05 -3.8617463741531293e-05 0 1.498151530086203e-05 -4.2545228280381909e-05 0 1.498151530086203e-05 -4.2545228280381909e-05 0 1.5176614001033434e-05 -3.8617463741531293e-05 0 1.2474874358324597e-05 -3.9519583060339388e-05 0 1.8687859115499514e-05 -4.2191936169228831e-05 0 1.9949104800425155e-05 -3.7828786180672366e-05 0 1.5176614001033434e-05 -3.8617463741531293e-05 0 1.6599621298673836e-05 -3.5303349176671088e-05 0 1.5176614001033434e-05 -3.8617463741531293e-05 0 1.9949104800425155e-05 -3.7828786180672366e-05 0 1.6599621298673836e-05 -3.5303349176671088e-05 0 1.8172477276554712e-05 -3.2343743382523173e-05 0 1.4994713675472603e-05 -3.2035377481694022e-05 0 1.6599621298673836e-05 -3.5303349176671088e-05 0 1.4994713675472605e-05 -3.2035377481694022e-05 0 1.4040671344198343e-05 -3.519370109877871e-05 0 1.2233037253901259e-05 -3.238636390574975e-05 0 1.4040671344198343e-05 -3.519370109877871e-05 0 1.4994713675472603e-05 -3.2035377481694022e-05 0 1.6599621298673836e-05 -3.5303349176671088e-05 0 1.4040671344198343e-05 -3.519370109877871e-05 0 1.5176614001033434e-05 -3.8617463741531293e-05 0 1.2242570679212239e-05 -3.6292011399719023e-05 0 1.4040671344198343e-05 -3.519370109877871e-05 0 1.2233037253901259e-05 -3.238636390574975e-05 0 1.2242570679212239e-05 -3.6292011399719023e-05 0 1.5176614001033434e-05 -3.8617463741531293e-05 0 1.4040671344198343e-05 -3.519370109877871e-05 0 1.2242570679212239e-05 -3.6292011399719023e-05 0 9.626370705014761e-06 -3.1751571115751786e-05 0 1.0046501364842488e-05 -3.6536164283580768e-05 0 8.1738667678935207e-06 -3.3922816323180586e-05 0 1.0046501364842488e-05 -3.6536164283580768e-05 0 9.6263707050147593e-06 -3.1751571115751786e-05 0 1.2242570679212239e-05 -3.6292011399719023e-05 0 1.2233037253901259e-05 -3.238636390574975e-05 0 9.6263707050147593e-06 -3.1751571115751786e-05 0 9.3886042217131079e-06 -2.8012765699074819e-05 0 1.2233037253901261e-05 -3.238636390574975e-05 0 1.3017250718738182e-05 -2.8657311899855607e-05 0 9.3886042217131079e-06 -2.8012765699074819e-05 0 9.6263707050147593e-06 -3.1751571115751786e-05 0 1.2233037253901259e-05 -3.238636390574975e-05 0 9.3886042217131079e-06 -2.8012765699074819e-05 0 5.9377692830265238e-06 -2.9239666747456063e-05 0 9.6263707050147593e-06 -3.1751571115751786e-05 0 9.3886042217131079e-06 -2.8012765699074819e-05 0 1.3017250718738182e-05 -2.8657311899855607e-05 0 1.1736246956954383e-05 -2.4246968048313302e-05 0 1.1736246956954383e-05 -2.4246968048313302e-05 0 1.3017250718738182e-05 -2.8657311899855607e-05 0 1.4865511484707047e-05 -2.48945591869111e-05 0 1.634211361554034e-05 -2.8793079378149873e-05 0 1.4865511484707047e-05 -2.48945591869111e-05 0 1.3017250718738182e-05 -2.8657311899855607e-05 0 1.634211361554034e-05 -2.8793079378149873e-05 0 1.3017250718738182e-05 -2.8657311899855607e-05 0 1.4994713675472603e-05 -3.2035377481694022e-05 0 1.634211361554034e-05 -2.8793079378149873e-05 0 1.4994713675472603e-05 -3.2035377481694022e-05 0 1.8172477276554712e-05 -3.2343743382523173e-05 0 1.2233037253901259e-05 -3.238636390574975e-05 0 1.4994713675472603e-05 -3.2035377481694022e-05 0 1.3017250718738182e-05 -2.8657311899855607e-05 0 2.4622848516273051e-05 -8.4235284859848609e-05 0 1.3363691270982724e-05 -7.7018344759089278e-05 0 1.5771070857228178e-05 -8.956112417250605e-05 0 1.2071214318108787e-05 -4.8987281222242234e-05 0 1.374426873706922e-05 -5.8344202719829539e-05 0 2.2442074322635916e-05 -7.0485887716071713e-05 0 1.3363691270982724e-05 -7.7018344759089278e-05 0 2.4622848516273051e-05 -8.4235284859848609e-05 0 1.8590995446948207e-06 -2.7481758246426577e-05 0 3.0274902763222051e-06 -3.2345332507452103e-05 0 5.9377692830265238e-06 -2.9239666747456063e-05 0 1.8590995446948207e-06 -2.7481758246426577e-05 0 5.9377692830265238e-06 -2.9239666747456063e-05 0 4.35686433279881e-06 -2.455968200474007e-05 0 9.3886042217131079e-06 -2.8012765699074819e-05 0 6.9141349045939336e-06 -2.5696082602369497e-05 0 5.9377692830265238e-06 -2.9239666747456063e-05 0 5.9377692830265238e-06 -2.9239666747456063e-05 0 6.9141349045939336e-06 -2.5696082602369497e-05 0 4.35686433279881e-06 -2.455968200474007e-05 0 8.1738667678935207e-06 -3.3922816323180586e-05 0 9.6263707050147593e-06 -3.1751571115751786e-05 0 5.9377692830265238e-06 -2.9239666747456063e-05 0 3.0274902763222051e-06 -3.2345332507452103e-05 0 5.7506908341810053e-06 -3.3602096832810868e-05 0 5.9377692830265238e-06 -2.9239666747456063e-05 0 8.1738667678935207e-06 -3.3922816323180586e-05 0 5.9377692830265238e-06 -2.9239666747456063e-05 0 5.7506908341810053e-06 -3.3602096832810868e-05 0 8.1738667678935207e-06 -3.3922816323180586e-05 0 5.7506908341810053e-06 -3.3602096832810868e-05 0 8.0317610673376233e-06 -3.7282131207772958e-05 0 8.1738667678935207e-06 -3.3922816323180586e-05 0 8.0317610673376233e-06 -3.7282131207772958e-05 0 1.0046501364842488e-05 -3.6536164283580768e-05 0 4.8780205074114044e-06 -3.6742340096375468e-05 0 8.0317610673376233e-06 -3.7282131207772958e-05 0 5.7506908341810053e-06 -3.3602096832810868e-05 0 4.8780205074114044e-06 -3.6742340096375468e-05 0 7.6225006050887613e-06 -4.0325038331043713e-05 0 8.0317610673376233e-06 -3.7282131207772958e-05 0 2.6811887004597161e-05 -9.8875685922192056e-05 0 1.5771070857228178e-05 -8.956112417250605e-05 0 9.7818758945887179e-06 -0.00010096060029003707 0 2.6811887004597161e-05 -9.8875685922192056e-05 0 9.7818758945887145e-06 -0.00010096060029003707 0 1.6289035637020959e-05 -0.00011520584577770822 0 1.5559302470212889e-05 -6.7566349401039402e-05 0 1.8667856662036148e-05 -7.7580728557566042e-05 0 3.0274902763222051e-06 -3.2345332507452103e-05 0 4.8780205074114044e-06 -3.6742340096375468e-05 0 5.7506908341810053e-06 -3.3602096832810868e-05 0 2.4622848516273051e-05 -8.4235284859848609e-05 0 1.5771070857228178e-05 -8.956112417250605e-05 0 2.6811887004597161e-05 -9.8875685922192056e-05 0 1.374426873706922e-05 -5.8344202719829539e-05 0 1.5559302470212889e-05 -6.7566349401039402e-05 0 2.6811887004597161e-05 -9.8875685922192056e-05 0 1.6289035637020959e-05 -0.00011520584577770822 0 2.9290281778316415e-05 -0.00011388449856397687 0 1.8667856662036148e-05 -7.7580728557566042e-05 0 1.9882366006165551e-05 -8.5445487406995331e-05 0 7.6225006050887613e-06 -4.0325038331043713e-05 0 1.1471021010119137e-05 -4.2533087767878395e-05 0 9.8482083269944522e-06 -4.0240181862497075e-05 0 2.9290281778316415e-05 -0.00011388449856397687 0 1.6289035637020959e-05 -0.00011520584577770822 0 3.2269910593760428e-05 -0.00012967583057987215 0 3.2269910593760428e-05 -0.00012967583057987215 0 1.6289035637020955e-05 -0.00011520584577770822 0 1.5508630929338703e-05 -0.00012936818261348706 0 1.0869395783259448e-05 -3.9826633333748355e-05 0 1.0046501364842488e-05 -3.6536164283580768e-05 0 8.0317610673376233e-06 -3.7282131207772958e-05 0 1.0869395783259448e-05 -3.9826633333748355e-05 0 8.0317610673376233e-06 -3.7282131207772958e-05 0 9.8482083269944522e-06 -4.0240181862497075e-05 0 7.6225006050887613e-06 -4.0325038331043713e-05 0 9.8482083269944522e-06 -4.0240181862497075e-05 0 8.0317610673376233e-06 -3.7282131207772958e-05 0 1.0869395783259448e-05 -3.9826633333748355e-05 0 9.8482083269944522e-06 -4.0240181862497075e-05 0 1.2195665613034299e-05 -4.1429445184257418e-05 0 1.0869395783259448e-05 -3.9826633333748355e-05 0 1.2195665613034299e-05 -4.1429445184257418e-05 0 1.3314511427695783e-05 -4.2399478472015526e-05 0 1.1471021010119135e-05 -4.2533087767878395e-05 0 1.2195665613034299e-05 -4.1429445184257418e-05 0 9.8482083269944522e-06 -4.0240181862497075e-05 0 1.6142532142547887e-05 -4.2799591463595658e-05 0 1.2195665613034299e-05 -4.1429445184257418e-05 0 1.1471021010119135e-05 -4.2533087767878395e-05 0 1.6142532142547887e-05 -4.2799591463595658e-05 0 1.4878404528238898e-05 -4.2005546636085601e-05 0 1.2195665613034299e-05 -4.1429445184257418e-05 0 1.4878404528238898e-05 -4.2005546636085601e-05 0 1.3314511427695783e-05 -4.2399478472015526e-05 0 1.2195665613034299e-05 -4.1429445184257418e-05 0 3.2269910593760428e-05 -0.00012967583057987215 0 1.55086309293387e-05 -0.00012936818261348706 0 2.3839372916537063e-05 -0.00013779372388553532 0 1.9882366006165551e-05 -8.5445487406995331e-05 0 3.2297930503822295e-05 -9.4933608978694993e-05 0 3.6897712037327302e-05 -0.00014575804232222367 0 3.2269910593760428e-05 -0.00012967583057987215 0 2.3839372916537063e-05 -0.00013779372388553532 0 3.6897712037327302e-05 -0.00014575804232222367 0 2.3839372916537063e-05 -0.00013779372388553532 0 2.0328523846980089e-05 -0.00014717764508949475 0 2.0328523846980089e-05 -0.00014717764508949475 0 2.3839372916537063e-05 -0.00013779372388553532 0 1.1128919872099393e-05 -0.00013884818411401357 0 4.2629986797785889e-06 -0.00014653690451857737 0 2.0328523846980089e-05 -0.00014717764508949475 0 1.1128919872099393e-05 -0.00013884818411401357 0 1.5508630929338703e-05 -0.00012936818261348706 0 1.8584879270110908e-06 -0.00013241092526688044 0 1.1128919872099393e-05 -0.00013884818411401357 0 1.5508630929338703e-05 -0.00012936818261348706 0 1.1128919872099393e-05 -0.00013884818411401357 0 2.3839372916537063e-05 -0.00013779372388553532 0 4.2629986797785889e-06 -0.00014653690451857737 0 1.1128919872099395e-05 -0.00013884818411401357 0 1.8584879270110908e-06 -0.00013241092526688044 0 -1.0397373091502473e-05 -0.00014561003126270901 0 1.8584879270110908e-06 -0.00013241092526688044 0 -1.115505992605115e-05 -0.00012688213372457184 0 -1.0397373091502473e-05 -0.00014561003126270901 0 -1.115505992605115e-05 -0.00012688213372457184 0 -2.3454270996304386e-05 -0.0001316467164596145 0 -1.0397373091502473e-05 -0.00014561003126270901 0 4.2629986797785889e-06 -0.00014653690451857737 0 1.8584879270110908e-06 -0.00013241092526688044 0 2.9144990369406869e-06 -0.00011708994992102273 0 -1.115505992605115e-05 -0.00012688213372457184 0 1.8584879270110908e-06 -0.00013241092526688044 0 2.9144990369406869e-06 -0.00011708994992102273 0 -1.2529621340904124e-05 -0.00010997071885593161 0 -1.115505992605115e-05 -0.00012688213372457184 0 -2.5876331223540065e-05 -0.00011652130133527095 0 -1.115505992605115e-05 -0.00012688213372457184 0 -1.2529621340904124e-05 -0.00010997071885593161 0 2.9144990369406869e-06 -0.00011708994992102273 0 -3.0088427340255428e-06 -0.00010249287185844599 0 -1.2529621340904124e-05 -0.00010997071885593161 0 2.9144990369406869e-06 -0.00011708994992102273 0 1.6289035637020959e-05 -0.00011520584577770822 0 9.7818758945887179e-06 -0.00010096060029003707 0 2.9144990369406869e-06 -0.00011708994992102273 0 1.5508630929338703e-05 -0.00012936818261348706 0 1.6289035637020959e-05 -0.00011520584577770822 0 2.9144990369406869e-06 -0.00011708994992102273 0 1.8584879270110894e-06 -0.00013241092526688044 0 1.5508630929338703e-05 -0.00012936818261348706 0 -5.2398785370266564e-05 -0.00013040731817470184 0 -4.3011026964011643e-05 -0.0001365944183772075 0 -3.6633887843190555e-05 -0.00012858394673808749 0 -5.2415342445894042e-05 -0.0001446657461831757 0 -4.3011026964011643e-05 -0.0001365944183772075 0 -5.2398785370266564e-05 -0.00013040731817470184 0 -5.2415342445894042e-05 -0.0001446657461831757 0 -3.8305970242003188e-05 -0.00014467434154408061 0 -4.3011026964011643e-05 -0.0001365944183772075 0 -3.8305970242003195e-05 -0.00014467434154408061 0 -3.1373226034172844e-05 -0.00013743232360812093 0 -4.3011026964011643e-05 -0.0001365944183772075 0 -3.6633887843190555e-05 -0.00012858394673808749 0 -4.3011026964011643e-05 -0.0001365944183772075 0 -3.1373226034172844e-05 -0.00013743232360812093 0 -3.6633887843190555e-05 -0.00012858394673808749 0 -3.1373226034172844e-05 -0.00013743232360812093 0 -2.3454270996304386e-05 -0.0001316467164596145 0 -2.4280059118492194e-05 -0.00014498263625036041 0 -2.3454270996304386e-05 -0.0001316467164596145 0 -3.1373226034172844e-05 -0.00013743232360812093 0 -3.8305970242003195e-05 -0.00014467434154408061 0 -2.4280059118492194e-05 -0.00014498263625036041 0 -3.1373226034172844e-05 -0.00013743232360812093 0 -2.4280059118492194e-05 -0.00014498263625036041 0 -1.0397373091502473e-05 -0.00014561003126270901 0 -2.3454270996304386e-05 -0.0001316467164596145 0 -2.5876331223540065e-05 -0.00011652130133527095 0 -2.3454270996304386e-05 -0.0001316467164596145 0 -1.115505992605115e-05 -0.00012688213372457184 0 -2.5876331223540065e-05 -0.00011652130133527095 0 -1.2529621340904124e-05 -0.00010997071885593161 0 -2.2542997690891848e-05 -9.996096306809371e-05 0 -2.5876331223540065e-05 -0.00011652130133527095 0 -3.4914309199259368e-05 -0.00010238880790615847 0 -3.9393482203280839e-05 -0.00011572751401003821 0 -2.5876331223540065e-05 -0.00011652130133527095 0 -3.6633887843190555e-05 -0.00012858394673808749 0 -2.3454270996304386e-05 -0.0001316467164596145 0 -2.5876331223540065e-05 -0.00011652130133527095 0 -3.9393482203280845e-05 -0.00011572751401003821 0 -3.6633887843190555e-05 -0.00012858394673808749 0 -5.2398785370266564e-05 -0.00013040731817470184 0 -3.6633887843190555e-05 -0.00012858394673808749 0 -3.9393482203280839e-05 -0.00011572751401003821 0 -5.1383683702679093e-05 -0.00010126551511573587 0 -5.2095008309247403e-05 -0.00011590193407742675 0 -3.9393482203280839e-05 -0.00011572751401003821 0 -5.2095008309247403e-05 -0.00011590193407742675 0 -5.2398785370266564e-05 -0.00013040731817470184 0 -3.9393482203280839e-05 -0.00011572751401003821 0 -5.008870250430081e-05 -8.7007613235516731e-05 0 -5.1383683702679093e-05 -0.00010126551511573587 0 -4.0824681351336314e-05 -9.1945071659361524e-05 0 -5.1383683702679093e-05 -0.00010126551511573587 0 -3.9393482203280839e-05 -0.00011572751401003821 0 -3.4914309199259368e-05 -0.00010238880790615847 0 -3.0469519205437974e-05 -8.6841428270983582e-05 0 -4.0824681351336314e-05 -9.1945071659361524e-05 0 -3.4914309199259368e-05 -0.00010238880790615847 0 -5.1383683702679093e-05 -0.00010126551511573587 0 -3.4914309199259368e-05 -0.00010238880790615847 0 -4.0824681351336314e-05 -9.1945071659361524e-05 0 -3.0469519205437974e-05 -8.6841428270983582e-05 0 -3.4914309199259361e-05 -0.00010238880790615847 0 -2.2542997690891848e-05 -9.996096306809371e-05 0 -2.5876331223540065e-05 -0.00011652130133527095 0 -2.2542997690891848e-05 -9.996096306809371e-05 0 -3.4914309199259368e-05 -0.00010238880790615847 0 -3.0469519205437974e-05 -8.6841428270983582e-05 0 -2.2542997690891848e-05 -9.996096306809371e-05 0 -2.0378955823415361e-05 -8.6362877635001224e-05 0 -1.2118179269196862e-05 -9.3922446043546811e-05 0 -2.0378955823415361e-05 -8.6362877635001224e-05 0 -2.2542997690891848e-05 -9.996096306809371e-05 0 -3.0469519205437974e-05 -8.6841428270983582e-05 0 -2.0378955823415361e-05 -8.6362877635001224e-05 0 -2.4426463177125478e-05 -7.7415599778574045e-05 0 -2.2344522965853512e-05 -6.5381507183130566e-05 0 -2.4426463177125478e-05 -7.7415599778574045e-05 0 -1.3727472894862784e-05 -7.7853345960677913e-05 0 -1.3727472894862784e-05 -7.7853345960677913e-05 0 -2.4426463177125478e-05 -7.7415599778574045e-05 0 -2.0378955823415361e-05 -8.6362877635001224e-05 0 -3.0469519205437974e-05 -8.6841428270983582e-05 0 -2.4426463177125478e-05 -7.7415599778574045e-05 0 -3.4652598692757614e-05 -7.3263414136950041e-05 0 -3.0469519205437974e-05 -8.6841428270983582e-05 0 -4.0959530162393301e-05 -8.2152331729120975e-05 0 -4.0824681351336314e-05 -9.1945071659361524e-05 0 -3.0469519205437974e-05 -8.6841428270983582e-05 0 -3.4652598692757614e-05 -7.3263414136950041e-05 0 -4.0959530162393301e-05 -8.2152331729120975e-05 0 -4.8122534652690418e-05 -7.3159705107053198e-05 0 -4.0959530162393301e-05 -8.2152331729120975e-05 0 -3.4652598692757614e-05 -7.3263414136950041e-05 0 -4.8122534652690418e-05 -7.3159705107053198e-05 0 -5.0088702504300804e-05 -8.7007613235516731e-05 0 -4.0959530162393301e-05 -8.2152331729120975e-05 0 -5.008870250430081e-05 -8.7007613235516731e-05 0 -4.0824681351336307e-05 -9.1945071659361524e-05 0 -4.0959530162393301e-05 -8.2152331729120975e-05 0 6.2042661611310432e-06 -8.4770102358257954e-05 0 -2.8481881065055901e-06 -8.9648738489381971e-05 0 9.7818758945887179e-06 -0.00010096060029003707 0 9.7818758945887179e-06 -0.00010096060029003707 0 -2.8481881065055901e-06 -8.9648738489381971e-05 0 -3.0088427340255428e-06 -0.00010249287185844599 0 6.2042661611310432e-06 -8.4770102358257954e-05 0 9.7818758945887162e-06 -0.00010096060029003709 0 1.5771070857228178e-05 -8.956112417250605e-05 0 2.9144990369406869e-06 -0.00011708994992102273 0 9.7818758945887179e-06 -0.00010096060029003707 0 -3.0088427340255428e-06 -0.00010249287185844599 0 -1.2118179269196862e-05 -9.3922446043546811e-05 0 -1.2529621340904124e-05 -0.00010997071885593161 0 -3.0088427340255428e-06 -0.00010249287185844599 0 -1.2118179269196862e-05 -9.3922446043546811e-05 0 -2.2542997690891848e-05 -9.996096306809371e-05 0 -1.2529621340904124e-05 -0.00010997071885593161 0 -1.2118179269196862e-05 -9.3922446043546811e-05 0 -3.0088427340255428e-06 -0.00010249287185844599 0 -2.8481881065055901e-06 -8.9648738489381971e-05 0 -1.3727472894862784e-05 -7.7853345960677913e-05 0 -2.8481881065055901e-06 -8.9648738489381971e-05 0 -3.1934275438813118e-06 -7.6156410531707147e-05 0 -1.2118179269196862e-05 -9.3922446043546811e-05 0 -2.8481881065055901e-06 -8.9648738489381971e-05 0 -1.3727472894862784e-05 -7.7853345960677913e-05 0 -1.2118179269196862e-05 -9.3922446043546811e-05 0 -1.3727472894862786e-05 -7.7853345960677899e-05 0 -2.0378955823415361e-05 -8.6362877635001224e-05 0 -1.3727472894862784e-05 -7.7853345960677913e-05 0 -3.1934275438813114e-06 -7.6156410531707147e-05 0 -9.6353770240325368e-06 -6.540394152280095e-05 0 6.2042661611310432e-06 -8.4770102358257954e-05 0 4.8445113938887206e-06 -7.3445296307858809e-05 0 -3.1934275438813118e-06 -7.6156410531707147e-05 0 6.2042661611310432e-06 -8.4770102358257954e-05 0 -3.1934275438813118e-06 -7.6156410531707147e-05 0 -2.8481881065055901e-06 -8.9648738489381971e-05 0 6.2042661611310432e-06 -8.4770102358257954e-05 0 1.5771070857228178e-05 -8.956112417250605e-05 0 1.3363691270982724e-05 -7.7018344759089278e-05 0 6.2042661611310432e-06 -8.4770102358257954e-05 0 1.3363691270982724e-05 -7.7018344759089278e-05 0 4.8445113938887206e-06 -7.3445296307858809e-05 0 9.7622059834964228e-06 -6.469049434046302e-05 0 4.8445113938887206e-06 -7.3445296307858809e-05 0 1.3363691270982724e-05 -7.7018344759089278e-05 0 -1.7014122723521421e-06 -6.4956531258130172e-05 0 4.8445113938887206e-06 -7.3445296307858809e-05 0 9.7622059834964228e-06 -6.469049434046302e-05 0 -1.7014122723521421e-06 -6.4956531258130172e-05 0 9.7622059834964211e-06 -6.4690494340463006e-05 0 3.4471829543545599e-06 -5.6741083283321636e-05 0 9.7622059834964228e-06 -6.469049434046302e-05 0 1.0368066729091336e-05 -5.2848074702155573e-05 0 3.4471829543545599e-06 -5.6741083283321636e-05 0 -1.7014122723521421e-06 -6.4956531258130172e-05 0 3.4471829543545599e-06 -5.6741083283321636e-05 0 -3.9805614537876444e-06 -5.4934066208840737e-05 0 -1.7014122723521421e-06 -6.4956531258130172e-05 0 -3.1934275438813118e-06 -7.6156410531707147e-05 0 4.8445113938887206e-06 -7.3445296307858809e-05 0 -1.7014122723521421e-06 -6.4956531258130172e-05 0 -9.6353770240325368e-06 -6.540394152280095e-05 0 -3.1934275438813118e-06 -7.6156410531707147e-05 0 -2.2344522965853512e-05 -6.5381507183130566e-05 0 -1.3727472894862784e-05 -7.7853345960677913e-05 0 -9.6353770240325368e-06 -6.540394152280095e-05 0 -2.2344522965853512e-05 -6.5381507183130566e-05 0 -9.6353770240325368e-06 -6.540394152280095e-05 0 -1.3047951604478136e-05 -5.4371587294036514e-05 0 -1.7014122723521421e-06 -6.4956531258130172e-05 0 -3.9805614537876444e-06 -5.4934066208840737e-05 0 -9.6353770240325368e-06 -6.540394152280095e-05 0 -1.3047951604478136e-05 -5.4371587294036514e-05 0 -9.6353770240325368e-06 -6.540394152280095e-05 0 -3.9805614537876444e-06 -5.4934066208840737e-05 0 -1.3047951604478136e-05 -5.4371587294036514e-05 0 -3.9805614537876444e-06 -5.4934066208840737e-05 0 -4.6396023163626012e-06 -4.3508535296367864e-05 0 -1.1869954008057539e-05 -3.9915878826273079e-05 0 -1.8690211894715111e-05 -4.707384722129918e-05 0 -1.3047951604478136e-05 -5.4371587294036514e-05 0 -1.1869954008057539e-05 -3.9915878826273079e-05 0 -1.3047951604478136e-05 -5.4371587294036514e-05 0 -4.6396023163626012e-06 -4.3508535296367864e-05 0 2.9271387423234514e-06 -4.6746231281621868e-05 0 2.7090572383316017e-06 -3.3756490253188984e-05 0 -4.6396023163626012e-06 -4.3508535296367864e-05 0 2.9271387423234514e-06 -4.6746231281621868e-05 0 9.5880235377560155e-06 -4.0236504346694805e-05 0 2.7090572383316017e-06 -3.3756490253188984e-05 0 2.9271387423234514e-06 -4.6746231281621868e-05 0 3.4471829543545604e-06 -5.6741083283321636e-05 0 1.0368066729091336e-05 -5.2848074702155573e-05 0 2.9271387423234514e-06 -4.6746231281621868e-05 0 -4.6396023163626012e-06 -4.3508535296367857e-05 0 -3.9805614537876444e-06 -5.4934066208840737e-05 0 2.9271387423234514e-06 -4.6746231281621868e-05 0 -3.9805614537876444e-06 -5.4934066208840737e-05 0 3.4471829543545599e-06 -5.6741083283321636e-05 0 -4.5494620538210784e-05 -6.0167904026038296e-05 0 -4.0080796124045027e-05 -6.661138671690236e-05 0 -3.217802848366435e-05 -5.9542077484756167e-05 0 -4.5494620538210784e-05 -6.0167904026038296e-05 0 -3.217802848366435e-05 -5.9542077484756167e-05 0 -3.5189497707002176e-05 -5.0652752808852401e-05 0 -4.8122534652690418e-05 -7.3159705107053198e-05 0 -3.4652598692757614e-05 -7.3263414136950041e-05 0 -4.0080796124045027e-05 -6.661138671690236e-05 0 -4.5494620538210784e-05 -6.0167904026038296e-05 0 -4.8122534652690418e-05 -7.3159705107053198e-05 0 -4.0080796124045027e-05 -6.661138671690236e-05 0 -3.4652598692757614e-05 -7.3263414136950041e-05 0 -3.217802848366435e-05 -5.9542077484756167e-05 0 -4.0080796124045027e-05 -6.661138671690236e-05 0 -2.2344522965853512e-05 -6.5381507183130566e-05 0 -2.2146380230455812e-05 -5.4627883506540454e-05 0 -3.217802848366435e-05 -5.9542077484756167e-05 0 -2.2344522965853512e-05 -6.5381507183130566e-05 0 -3.217802848366435e-05 -5.9542077484756167e-05 0 -3.4652598692757614e-05 -7.3263414136950041e-05 0 -2.2344522965853512e-05 -6.5381507183130566e-05 0 -3.4652598692757614e-05 -7.3263414136950041e-05 0 -2.4426463177125478e-05 -7.7415599778574045e-05 0 -2.2344522965853512e-05 -6.5381507183130566e-05 0 -1.3047951604478138e-05 -5.4371587294036514e-05 0 -2.2146380230455812e-05 -5.4627883506540454e-05 0 -2.6821155532487696e-05 -4.7767019069869976e-05 0 -2.2146380230455812e-05 -5.4627883506540454e-05 0 -1.8690211894715111e-05 -4.707384722129918e-05 0 -1.3047951604478136e-05 -5.4371587294036514e-05 0 -1.8690211894715111e-05 -4.707384722129918e-05 0 -2.2146380230455812e-05 -5.4627883506540454e-05 0 -1.1869954008057539e-05 -3.9915878826273079e-05 0 -1.9814287225323563e-05 -3.9531213550557125e-05 0 -1.8690211894715111e-05 -4.707384722129918e-05 0 -2.6821155532487696e-05 -4.7767019069869976e-05 0 -1.8690211894715111e-05 -4.707384722129918e-05 0 -1.9814287225323563e-05 -3.9531213550557125e-05 0 -2.6821155532487696e-05 -4.7767019069869976e-05 0 -1.9814287225323563e-05 -3.9531213550557125e-05 0 -3.0616161968224978e-05 -4.0339843135730302e-05 0 -2.6821155532487696e-05 -4.7767019069869976e-05 0 -3.217802848366435e-05 -5.9542077484756167e-05 0 -2.2146380230455812e-05 -5.4627883506540454e-05 0 -2.6821155532487696e-05 -4.7767019069869976e-05 0 -3.5189497707002176e-05 -5.0652752808852401e-05 0 -3.217802848366435e-05 -5.9542077484756167e-05 0 -2.6821155532487696e-05 -4.7767019069869976e-05 0 -3.0616161968224978e-05 -4.0339843135730302e-05 0 -3.5189497707002176e-05 -5.0652752808852401e-05 0 -4.2398355759269174e-05 -4.8144755417559451e-05 0 -3.5189497707002176e-05 -5.0652752808852401e-05 0 -3.0616161968224978e-05 -4.0339843135730302e-05 0 -4.2398355759269174e-05 -4.8144755417559451e-05 0 -4.5494620538210777e-05 -6.0167904026038296e-05 0 -3.5189497707002176e-05 -5.0652752808852401e-05 0 -3.4670262837380487e-05 -2.7746453178855473e-05 0 -3.8863868256953697e-05 -3.7297065122761254e-05 0 -3.001070555154212e-05 -3.1243362433237724e-05 0 -3.8863868256953697e-05 -3.7297065122761254e-05 0 -4.2398355759269174e-05 -4.8144755417559451e-05 0 -3.0616161968224978e-05 -4.0339843135730302e-05 0 -3.8863868256953697e-05 -3.7297065122761254e-05 0 -3.0616161968224978e-05 -4.0339843135730302e-05 0 -3.001070555154212e-05 -3.1243362433237724e-05 0 -2.2931594837349317e-05 -3.0919110361685577e-05 0 -3.001070555154212e-05 -3.1243362433237724e-05 0 -3.0616161968224978e-05 -4.0339843135730302e-05 0 -2.2931594837349317e-05 -3.0919110361685577e-05 0 -3.0616161968224978e-05 -4.0339843135730302e-05 0 -1.9814287225323563e-05 -3.9531213550557125e-05 0 -1.1869954008057539e-05 -3.9915878826273079e-05 0 -1.6799610354394633e-05 -3.2093698224670179e-05 0 -1.9814287225323563e-05 -3.9531213550557125e-05 0 -2.2931594837349317e-05 -3.0919110361685577e-05 0 -1.9814287225323563e-05 -3.9531213550557125e-05 0 -1.6799610354394633e-05 -3.2093698224670179e-05 0 -1.089212540580638e-05 -2.6927150614983293e-05 0 -1.7439617732475917e-05 -2.5512100206963704e-05 0 -1.6799610354394633e-05 -3.2093698224670179e-05 0 -2.2931594837349317e-05 -3.0919110361685577e-05 0 -1.6799610354394633e-05 -3.2093698224670179e-05 0 -1.7439617732475917e-05 -2.5512100206963704e-05 0 -1.4056779052174426e-05 -1.8597362806852566e-05 0 -2.3358591788700501e-05 -2.181332033195571e-05 0 -1.7439617732475917e-05 -2.5512100206963704e-05 0 -1.4056779052174426e-05 -1.8597362806852566e-05 0 -1.6374939060393041e-05 -1.45635132276436e-05 0 -2.3358591788700501e-05 -2.181332033195571e-05 0 -2.2931594837349317e-05 -3.0919110361685577e-05 0 -1.7439617732475917e-05 -2.5512100206963704e-05 0 -2.3358591788700501e-05 -2.181332033195571e-05 0 -3.4670262837380487e-05 -2.7746453178855473e-05 0 -3.001070555154212e-05 -3.1243362433237724e-05 0 -2.3358591788700501e-05 -2.181332033195571e-05 0 -2.2931594837349317e-05 -3.0919110361685577e-05 0 -2.3358591788700501e-05 -2.181332033195571e-05 0 -3.001070555154212e-05 -3.1243362433237724e-05 0 -3.0568393024272608e-05 -1.9730588912789082e-05 0 -3.4670262837380487e-05 -2.7746453178855473e-05 0 -2.3358591788700501e-05 -2.181332033195571e-05 0 -3.1678844102217653e-06 -2.4469450936912525e-05 0 -5.6396003160476889e-06 -3.3297093062636973e-05 0 2.7090572383316017e-06 -3.3756490253188984e-05 0 -3.1678844102217653e-06 -2.4469450936912525e-05 0 2.7090572383316017e-06 -3.3756490253188984e-05 0 3.4676919332473223e-06 -2.1703470756077832e-05 0 2.7090572383316017e-06 -3.3756490253188984e-05 0 -5.6396003160476889e-06 -3.3297093062636973e-05 0 -4.6396023163626012e-06 -4.3508535296367864e-05 0 -1.1869954008057539e-05 -3.9915878826273079e-05 0 -4.639602316362602e-06 -4.3508535296367864e-05 0 -5.6396003160476889e-06 -3.3297093062636973e-05 0 -1.1869954008057539e-05 -3.9915878826273079e-05 0 -1.0892125405806377e-05 -2.6927150614983293e-05 0 -1.6799610354394633e-05 -3.2093698224670179e-05 0 -1.1869954008057539e-05 -3.9915878826273079e-05 0 -5.6396003160476889e-06 -3.3297093062636973e-05 0 -1.089212540580638e-05 -2.6927150614983293e-05 0 -3.1678844102217653e-06 -2.4469450936912525e-05 0 -1.089212540580638e-05 -2.6927150614983293e-05 0 -5.6396003160476889e-06 -3.3297093062636973e-05 0 -3.1678844102217653e-06 -2.4469450936912525e-05 0 -7.7289812240406395e-06 -1.8720657467442512e-05 0 -1.089212540580638e-05 -2.6927150614983293e-05 0 -1.4056779052174426e-05 -1.8597362806852566e-05 0 -1.7439617732475917e-05 -2.5512100206963704e-05 0 -1.089212540580638e-05 -2.6927150614983293e-05 0 -1.4056779052174426e-05 -1.8597362806852566e-05 0 -7.7289812240406378e-06 -1.8720657467442512e-05 0 -1.0501030195083648e-05 -1.4488883740924169e-05 0 -1.4056779052174426e-05 -1.8597362806852566e-05 0 -1.089212540580638e-05 -2.6927150614983293e-05 0 -7.7289812240406378e-06 -1.8720657467442512e-05 0 -3.1678844102217653e-06 -2.4469450936912525e-05 0 -2.7551661011647001e-06 -1.6342718285659172e-05 0 -7.7289812240406378e-06 -1.8720657467442512e-05 0 -2.7551661011647001e-06 -1.6342718285659172e-05 0 -3.1678844102217653e-06 -2.4469450936912525e-05 0 3.4676919332473223e-06 -2.1703470756077832e-05 0 2.2239474820903107e-06 -1.3461771319512919e-05 0 -2.7551661011647001e-06 -1.6342718285659172e-05 0 3.4676919332473223e-06 -2.1703470756077832e-05 0 6.34302591158136e-06 -1.1370534285570621e-05 0 2.2239474820903107e-06 -1.3461771319512919e-05 0 3.4676919332473223e-06 -2.1703470756077832e-05 0 6.34302591158136e-06 -1.1370534285570621e-05 0 3.7081739371581844e-06 -9.6831284782933189e-06 0 4.5049260822295775e-06 -8.8210225648285363e-06 0 6.34302591158136e-06 -1.1370534285570621e-05 0 3.4676919332473223e-06 -2.1703470756077832e-05 0 1.1519121412675465e-05 -2.3893849412460755e-05 0 5.5855684683704752e-06 -1.1253483167236816e-05 0 7.9360308967980086e-06 -1.6907869218743013e-05 0 1.1519121412675465e-05 -2.3893849412460755e-05 0 3.4676919332473223e-06 -2.1703470756077832e-05 0 8.5273064815543074e-06 -2.975823304521162e-05 0 2.7090572383316017e-06 -3.3756490253188984e-05 0 8.5273064815543074e-06 -2.975823304521162e-05 0 3.4676919332473223e-06 -2.1703470756077832e-05 0 7.9360308967980086e-06 -1.6907869218743013e-05 0 8.6775529184977609e-06 -2.3579009371507851e-05 0 1.1519121412675465e-05 -2.3893849412460755e-05 0 8.5273064815543074e-06 -2.975823304521162e-05 0 1.5118103059632829e-05 -3.4272752863781076e-05 0 8.6775529184977609e-06 -2.3579009371507851e-05 0 9.6821454731222956e-06 -3.1453265367676725e-05 0 1.5118103059632829e-05 -3.4272752863781076e-05 0 8.5273064815543074e-06 -2.975823304521162e-05 0 9.5880235377560172e-06 -4.0236504346694798e-05 0 2.7090572383316017e-06 -3.3756490253188984e-05 0 9.5880235377560172e-06 -4.0236504346694798e-05 0 8.5273064815543074e-06 -2.975823304521162e-05 0 6.0792084718450213e-06 -1.2474404674810637e-05 0 4.8400251929285871e-06 -9.8252388847851119e-06 0 4.0529059542226206e-06 -1.3790862651134423e-05 0 2.3523197839666461e-06 -1.2949126355187795e-05 0 1.4935854304342317e-06 -1.7358173407208747e-05 0 4.0529059542226206e-06 -1.3790862651134423e-05 0 2.3523197839666461e-06 -1.2949126355187795e-05 0 4.0529059542226206e-06 -1.3790862651134423e-05 0 4.8400251929285871e-06 -9.8252388847851119e-06 0 3.7081739371581844e-06 -9.6831284782933189e-06 0 2.3523197839666461e-06 -1.2949126355187795e-05 0 4.8400251929285871e-06 -9.8252388847851119e-06 0 4.8400251929285871e-06 -9.8252388847851119e-06 0 6.1850131092573041e-06 -7.1310665486162033e-06 0 4.5049260822295775e-06 -8.8210225648285363e-06 0 3.7081739371581844e-06 -9.6831284782933189e-06 0 4.8400251929285871e-06 -9.8252388847851102e-06 0 4.5049260822295775e-06 -8.8210225648285363e-06 0 6.34302591158136e-06 -1.1370534285570621e-05 0 4.5049260822295775e-06 -8.8210225648285363e-06 0 5.284549589961602e-06 -7.6069774612992115e-06 0 4.5049260822295775e-06 -8.8210225648285363e-06 0 6.185013109257305e-06 -7.1310665486162033e-06 0 5.284549589961602e-06 -7.6069774612992115e-06 0 6.1850131092573041e-06 -7.1310665486162033e-06 0 4.8400251929285871e-06 -9.8252388847851119e-06 0 7.3817248361770128e-06 -9.8123102273918595e-06 0 6.1850131092573041e-06 -7.1310665486162033e-06 0 7.3817248361770128e-06 -9.8123102273918595e-06 0 9.0392310696789932e-06 -6.5079602510911502e-06 0 6.1850131092573041e-06 -7.1310665486162033e-06 0 9.0392310696789932e-06 -6.5079602510911502e-06 0 8.1364481782572403e-06 -4.0758324777951716e-06 0 1.0340461838367943e-05 -2.4269543781846135e-06 0 9.0392310696789932e-06 -6.5079602510911502e-06 0 1.1434686632000619e-05 -4.9610196857825549e-06 0 1.0340461838367943e-05 -2.4269543781846135e-06 0 8.1364481782572403e-06 -4.0758324777951716e-06 0 9.0392310696789932e-06 -6.5079602510911502e-06 0 1.1695335283261249e-05 -8.9205412802136905e-06 0 1.1434686632000619e-05 -4.9610196857825549e-06 0 9.0392310696789932e-06 -6.5079602510911502e-06 0 1.1695335283261249e-05 -8.9205412802136905e-06 0 9.7496966893053242e-06 -9.6407605693271441e-06 0 1.1646250850528131e-05 -1.2768991673818912e-05 0 1.1695335283261249e-05 -8.9205412802136905e-06 0 9.0392310696789932e-06 -6.5079602510911502e-06 0 9.7496966893053242e-06 -9.6407605693271441e-06 0 9.4579781888402778e-06 -1.2547544666029061e-05 0 9.7496966893053242e-06 -9.6407605693271441e-06 0 7.3817248361770128e-06 -9.8123102273918595e-06 0 9.0392310696789932e-06 -6.5079602510911502e-06 0 7.3817248361770128e-06 -9.8123102273918595e-06 0 9.7496966893053242e-06 -9.6407605693271441e-06 0 9.4579781888402778e-06 -1.2547544666029061e-05 0 1.1646250850528131e-05 -1.2768991673818912e-05 0 9.7496966893053242e-06 -9.6407605693271441e-06 0 6.0792084718450213e-06 -1.2474404674810637e-05 0 7.3817248361770128e-06 -9.8123102273918595e-06 0 4.8400251929285871e-06 -9.8252388847851119e-06 0 9.4579781888402778e-06 -1.2547544666029061e-05 0 7.3817248361770128e-06 -9.8123102273918595e-06 0 7.9445014034108822e-06 -1.4979926485785304e-05 0 6.0792084718450213e-06 -1.2474404674810637e-05 0 7.9445014034108822e-06 -1.4979926485785304e-05 0 7.3817248361770128e-06 -9.8123102273918595e-06 0 6.0792084718450213e-06 -1.2474404674810637e-05 0 5.1281160591706043e-06 -1.676712231067358e-05 0 7.9445014034108822e-06 -1.4979926485785304e-05 0 9.7896800950658491e-06 -1.96226871813605e-05 0 1.088344331656229e-05 -1.6164193709350385e-05 0 7.9445014034108822e-06 -1.4979926485785304e-05 0 9.7896800950658491e-06 -1.96226871813605e-05 0 7.9445014034108822e-06 -1.4979926485785304e-05 0 7.0621416615807723e-06 -1.9063052706569395e-05 0 5.1281160591706051e-06 -1.676712231067358e-05 0 7.0621416615807723e-06 -1.9063052706569395e-05 0 7.9445014034108822e-06 -1.4979926485785304e-05 0 1.3479644491190799e-05 -1.6525831969274525e-05 0 1.1646250850528131e-05 -1.2768991673818912e-05 0 1.0883443316562292e-05 -1.6164193709350389e-05 0 9.4579781888402778e-06 -1.2547544666029061e-05 0 1.0883443316562293e-05 -1.6164193709350389e-05 0 1.1646250850528131e-05 -1.2768991673818912e-05 0 9.4579781888402778e-06 -1.2547544666029061e-05 0 7.9445014034108822e-06 -1.4979926485785304e-05 0 1.0883443316562292e-05 -1.6164193709350389e-05 0 9.7896800950658491e-06 -1.96226871813605e-05 0 1.3349086061253346e-05 -2.0384791138904283e-05 0 1.0883443316562292e-05 -1.6164193709350389e-05 0 1.3479644491190799e-05 -1.6525831969274525e-05 0 1.0883443316562292e-05 -1.6164193709350389e-05 0 1.3349086061253346e-05 -2.0384791138904283e-05 0 1.6884989524759932e-05 -2.2807878759385599e-05 0 1.3349086061253346e-05 -2.0384791138904283e-05 0 1.4865511484707047e-05 -2.48945591869111e-05 0 9.7896800950658491e-06 -1.96226871813605e-05 0 1.1736246956954383e-05 -2.4246968048313302e-05 0 1.3349086061253346e-05 -2.0384791138904283e-05 0 1.1736246956954383e-05 -2.4246968048313302e-05 0 1.4865511484707047e-05 -2.48945591869111e-05 0 1.3349086061253346e-05 -2.0384791138904283e-05 0 6.1393685178987952e-06 -2.2553230401536739e-05 0 8.6180667075140492e-06 -2.3408875515774828e-05 0 7.0621416615807723e-06 -1.9063052706569395e-05 0 9.7896800950658491e-06 -1.96226871813605e-05 0 8.6180667075140492e-06 -2.3408875515774828e-05 0 1.1736246956954383e-05 -2.4246968048313302e-05 0 9.7896800950658491e-06 -1.96226871813605e-05 0 7.0621416615807723e-06 -1.9063052706569395e-05 0 8.6180667075140492e-06 -2.3408875515774828e-05 0 9.3886042217131079e-06 -2.8012765699074819e-05 0 1.1736246956954383e-05 -2.4246968048313302e-05 0 8.6180667075140492e-06 -2.3408875515774828e-05 0 6.1393685178987952e-06 -2.2553230401536739e-05 0 6.9141349045939336e-06 -2.5696082602369497e-05 0 8.6180667075140492e-06 -2.3408875515774828e-05 0 9.3886042217131079e-06 -2.8012765699074819e-05 0 8.6180667075140492e-06 -2.3408875515774828e-05 0 6.9141349045939336e-06 -2.5696082602369497e-05 0 6.1393685178987952e-06 -2.2553230401536739e-05 0 4.35686433279881e-06 -2.455968200474007e-05 0 6.9141349045939336e-06 -2.5696082602369497e-05 0 6.1393685178987952e-06 -2.2553230401536739e-05 0 3.9853503413312146e-06 -2.0358965439802268e-05 0 4.35686433279881e-06 -2.455968200474007e-05 0 6.1393685178987952e-06 -2.2553230401536739e-05 0 7.0621416615807723e-06 -1.9063052706569395e-05 0 3.9853503413312146e-06 -2.0358965439802268e-05 0 1.3336856635278832e-06 -2.2428242676923955e-05 0 4.35686433279881e-06 -2.455968200474007e-05 0 3.9853503413312146e-06 -2.0358965439802268e-05 0 2.0263330803175047e-05 -5.7544502978555815e-05 0 9.7622059834964228e-06 -6.469049434046302e-05 0 2.2442074322635916e-05 -7.0485887716071713e-05 0 1.0754865941958033e-05 -4.0000096072856698e-05 0 1.2071214318108787e-05 -4.8987281222242234e-05 0 1.3336856635278832e-06 -2.2428242676923955e-05 0 1.8590995446948204e-06 -2.7481758246426581e-05 0 4.35686433279881e-06 -2.455968200474007e-05 0 2.2442074322635916e-05 -7.0485887716071713e-05 0 9.7622059834964228e-06 -6.469049434046302e-05 0 1.3363691270982724e-05 -7.7018344759089278e-05 0 2.0263330803175047e-05 -5.7544502978555815e-05 0 1.0368066729091336e-05 -5.2848074702155573e-05 0 9.7622059834964228e-06 -6.469049434046302e-05 0 1.7858519060235363e-05 -4.5482609579344869e-05 0 1.0368066729091336e-05 -5.2848074702155573e-05 0 2.0263330803175047e-05 -5.7544502978555815e-05 0 1.4935854304342319e-06 -1.7358173407208747e-05 0 1.3336856635278832e-06 -2.2428242676923955e-05 0 3.9853503413312146e-06 -2.0358965439802268e-05 0 9.6821454731222956e-06 -3.1453265367676725e-05 0 1.0754865941958033e-05 -4.0000096072856698e-05 0 1.7858519060235363e-05 -4.5482609579344869e-05 0 9.5880235377560172e-06 -4.0236504346694798e-05 0 1.0368066729091336e-05 -5.2848074702155573e-05 0 2.9271387423234514e-06 -4.6746231281621868e-05 0 1.0368066729091336e-05 -5.2848074702155573e-05 0 9.5880235377560172e-06 -4.0236504346694798e-05 0 1.5118103059632829e-05 -3.4272752863781076e-05 0 9.5880235377560172e-06 -4.0236504346694798e-05 0 1.7858519060235363e-05 -4.5482609579344869e-05 0 1.4935854304342319e-06 -1.7358173407208747e-05 0 5.1281160591706043e-06 -1.676712231067358e-05 0 4.0529059542226206e-06 -1.3790862651134423e-05 0 6.0792084718450213e-06 -1.2474404674810637e-05 0 4.0529059542226197e-06 -1.3790862651134423e-05 0 5.1281160591706051e-06 -1.676712231067358e-05 0 5.1281160591706051e-06 -1.676712231067358e-05 0 3.9853503413312146e-06 -2.0358965439802268e-05 0 7.0621416615807723e-06 -1.9063052706569395e-05 0 1.4935854304342319e-06 -1.7358173407208747e-05 0 3.9853503413312146e-06 -2.0358965439802268e-05 0 5.1281160591706051e-06 -1.676712231067358e-05 0 
</DataArray>
</PointData>
<CellData Scalars="region_id,cross_section_updated,displacement_divergence," Vectors="" Tensors="stress,">
<DataArray type="Float64" Name="region_id" format="ascii">
1 1 1 1 1 1 1 1 1 1 1 1 1 1 1 1 1 1 1 1 1 1 1 1 1 1 1 1 1 1 1 1 1 1 1 1 1 1 1 1 1 1 1 1 1 1 1 1 1 1 1 1 1 1 1 1 1 1 1 1 1 1 1 1 1 1 1 1 1 1 1 1 1 1 1 1 1 1 1 1 1 1 1 1 1 1 1 1 1 1 1 1 1 1 1 1 1 1 1 1 1 1 1 1 1 1 1 1 1 1 1 1 1 1 1 1 1 1 1 1 1 1 1 1 1 1 1 1 1 1 1 1 1 1 1 1 1 1 1 1 1 1 1 1 1 1 1 1 1 1 1 1 1 1 1 1 1 1 1 1 1 1 1 1 1 1 1 1 1 1 1 1 1 1 1 1 1 1 1 1 1 1 1 1 1 1 1 1 1 1 1 1 1 1 1 1 1 1 1 1 1 1 1 1 1 1 1 1 1 1 1 1 1 1 1 1 1 1 1 1 1 1 1 1 1 1 1 1 1 1 1 1 1 1 1 1 1 1 1 1 1 1 1 1 1 1 1 1 1 1 1 1 1 1 1 1 1 1 1 1 1 1 1 1 1 1 1 1 1 1 1 1 1 1 1 1 1 1 1 1 1 1 1 1 1 1 1 1 1 1 1 1 1 1 1 1 1 1 1 1 1 1 1 1 1 1 1 1 1 1 1 1 1 1 1 1 1 1 1 1 1 1 1 1 1 1 1 1 1 1 1 1 1 1 1 1 1 1 1 1 1 1 1 1 1 1 1 1 1 1 1 1 1 1 1 1 1 1 1 1 1 1 1 1 1 1 1 1 1 1 1 1 1 1 1 1 1 1 1 1 1 1 1 1 1 1 1 1 1 1 1 1 1 1 1 1 1 1 1 1 1 1 1 1 1 1 1 1 1 1 1 1 1 1 1 1 1 1 1 1 1 1 1 1 1 1 1 1 1 1 1 1 1 1 1 1 1 1 1 1 1 1 1 1 1 1 1 1 1 1 1 1 1 1 1 1 1 1 1 1 1 1 1 1 1 1 1 1 1 1 1 1 1 1 1 1 1 1 1 1 1 1 1 1 1 1 1 1 1 1 1 1 1 1 1 1 1 1 1 1 1 1 1 1 1 1 1 1 1 1 1 1 1 1 1 1 1 1 1 1 1 1 1 1 1 1 1 1 1 1 1 1 1 1 1 1 1 1 3 1 1 3 1 1 3 1 1 1 1 1 1 1 1 1 1 1 1 1 3 1 1 1 1 1 3 1 1 1 1 1 1 1 1 1 1 1 1 1 1 1 1 1 1 1 1 1 1 1 1 1 1 1 1 1 1 1 1 1 1 1 1 1 1 1 1 1 1 1 1 1 1 1 1 1 1 1 1 1 1 1 1 1 1 1 1 1 1 1 1 1 1 1 1 1 1 1 1 1 1 1 1 1 1 1 1 1 1 1 1 1 1 1 1 1 1 1 1 1 1 1 1 1 1 1 1 1 1 1 1 1 1 1 1 1 1 1 1 1 1 1 1 1 1 1 1 1 1 1 1 1 1 1 1 1 1 1 1 1 1 1 1 1 1 1 1 1 1 1 1 1 1 1 1 1 1 1 1 1 1 1 1 1 1 1 1 1 1 1 1 1 1 1 1 3 1 1 1 3 1 1 3 1 1 1 1 1 1 1 1 1 1 1 3 1 1 1 1 3 1 1 1 1 1 1 1 1 1 1 1 1 1 1 1 1 1 1 1 1 1 1 1 1 1 1 1 1 1 1 1 1 1 1 1 1 1 1 1 1 1 1 1 1 1 1 1 1 1 1 1 1 1 1 1 1 1 1 2 1 1 1 1 1 1 1 1 1 1 1 1 1 1 2 1 1 2 1 2 1 1 1 1 1 1 1 1 1 1 1 1 1 2 1 1 1 1 1 1 1 1 1 1 1 1 1 1 1 1 1 1 1 1 1 1 1 1 1 1 1 1 1 1 1 1 1 1 1 1 1 1 1 1 1 1 1 1 1 1 1 1 1 1 1 1 1 1 1 1 1 1 1 1 1 1 1 1 1 1 1 1 1 1 1 1 1 1 1 1 1 1 1 1 1 1 1 1 1 1 1 1 1 1 1 1 1 1 1 1 1 1 1 1 1 1 1 1 1 1 1 1 1 1 1 1 1 1 1 1 1 1 1 1 1 1 1 1 1 1 1 1 1 1 1 1 1 1 1 1 2 1 1 2 1 2 1 1 1 1 1 1 1 1 1 1 1 1 1 1 1 1 1 1 1 1 1 1 1 1 1 1 1 1 1 1 1 1 1 1 1 1 1 1 1 1 1 1 1 1 1 1 1 2 1 1 1 1 1 2 1 1 1 1 1 1 1 
</DataArray>
<DataArray type="Float64" Name="stress" NumberOfComponents="9" format="ascii">
-0.030488151559848551 0.0018429218231942599 0 0.0018429218231942599 -0.0040649270248593813 0 0 0 -0.0086382696461769805 -0.029285225203614807 0.0027944145252772434 0 0.0027944145252772434 -0.0097438150050889842 0 0 0 -0.0097572600521759461 -0.0314062605622362 0.0031421023494720775 0 0.0031421023494720775 0.0018811138691864739 0 0 0 -0.0073812866732624318 -0.030415968678306527 0.0038891853654540215 0 0.0038891853654540215 -0.004075514987839696 0 0 0 -0.0086228709165365562 -0.025155954085363599 0.0082335723497179245 0 0.0082335723497179245 -0.0083877313960608203 0 0 0 -0.0083859213703561062 -0.025152005507006133 0.0082377383889977486 0 0.0082377383889977486 -0.0083747877849395125 0 0 0 -0.0083816983229864118 -0.029033621633897187 0.0079482832513900134 0 0.0079482832513900134 -0.0020135191782028015 0 0 0 -0.0077617852030249998 -0.029608512124986584 0.0071184196361641283 0 0.0071184196361641283 -0.0025581317186424146 0 0 0 -0.0080416609609072487 -0.027907596492855832 0.0093083021562178538 0 0.0093083021562178538 -0.0019891028563252828 0 0 0 -0.0074741748372952809 -0.022453894730560423 0.0096547493489347411 0 0.0096547493489347411 -0.00039498902588790477 0 0 0 -0.0057122209391120794 -0.032227934866761634 0.0099205459410578716 0 0.0099205459410578716 -0.0010398992598742579 0 0 0 -0.0083169585316589731 -0.022191582494353053 0.010783413308165752 0 0.010783413308165752 0.00064056767022659111 0 0 0 -0.0053877537060316172 -0.039822884359796071 0.0077384507311914954 0 0.0077384507311914954 -0.00051810449149378504 0 0 0 -0.01008524721282247 -0.031041007389599355 0.008186742829863411 0 0.008186742829863411 0.00049576432269948095 0 0 0 -0.0076363107667249694 -0.04684225399421732 0.0030257442248053054 0 0.0030257442248053054 -0.0015373054813866381 0 0 0 -0.012094889868900982 -0.037439303700092033 0.0038335872907139762 0 0.0038335872907139762 -0.00022570395080416875 0 0 0 -0.0094162519127240496 -0.034658979984503638 0.0051179088067407688 0 0.0051179088067407688 0.0021499972619735321 0 0 0 -0.0081272456806325295 -0.034979015342414252 0.0079086472669560315 0 0.0079086472669560315 -0.00047646136431581804 0 0 0 -0.0088638691766825192 -0.0044051547957366637 0.011432230556705685 0 0.011432230556705685 -0.0014660155481299193 0 0 0 -0.0014677925859666457 -0.0085179862530039233 0.013626684735798023 0 0.013626684735798023 -0.0015521327847312777 0 0 0 -0.0025175297594338033 -0.0099964479259201638 0.01059038860989601 0 0.01059038860989601 -0.00096016294811742536 0 0 0 -0.0027391527185093977 -0.0176237121541148 0.012136760943692648 0 0.012136760943692648 -0.0013208221980846105 0 0 0 -0.0047361335880498519 -0.018543848859589922 0.011058450997780326 0 0.011058450997780326 -0.0034402664916659345 0 0 0 -0.0054960288378139641 -0.01185761365165135 0.012293996160363162 0 0.012293996160363162 -0.0018603823667850058 0 0 0 -0.0034294990046090882 -0.012027339933933319 0.010938937559698039 0 0.010938937559698039 -0.0040130450113053107 0 0 0 -0.0040100962363096571 -0.019570536042056288 0.012206500731291384 0 0.012206500731291384 -0.00049661426096565819 0 0 0 -0.0050167875757554867 -0.021151262686760371 0.0098169291314978736 0 0.0098169291314978736 -0.00074220141170026899 0 0 0 -0.0054733660246151644 -0.017662054917878742 0.010691023370404625 0 0.010691023370404625 -0.0018213247049828039 0 0 0 -0.0048708449057153855 -0.0082138202093759646 0.010593958238368997 0 0.010593958238368997 -0.00041420490338268945 0 0 0 -0.0021570062781896618 -0.0086508611223011338 0.011510219294730173 0 0.011510219294730173 -0.0013192192693195631 0 0 0 -0.0024925200979051751 -0.0041037157800539502 0.013246640511334265 0 0.013246640511334265 -0.0012628416404410567 0 0 0 -0.0013416393551237528 -0.00071898423566500074 0.010150791819414685 0 0.010150791819414685 5.2364778350666094e-05 0 0 0 -0.00016665486432858529 -0.0014513994432046756 0.012100832180710914 0 0.012100832180710914 -0.0010225234001600761 0 0 0 -0.00061848071084119128 -0.0017812575650158237 0.0095371945184042524 0 0.0095371945184042524 -5.0080743121364013e-05 0 0 0 -0.00045783457703429953 -0.0096084837196817718 0.01275807572592931 0 0.01275807572592931 -0.00086944393234082706 0 0 0 -0.0026194819130056536 -0.021277593737900329 0.012566253449827702 0 0.012566253449827702 -0.00061507362341650662 0 0 0 -0.0054731668403292071 -0.017162180167078687 0.012466612924941316 0 0.012466612924941316 -0.00074941563755864284 0 0 0 -0.0044778989511593311 -0.011656097913800935 0.010333331945270006 0 0.010333331945270006 0.00044042336826140283 0 0 0 -0.0028039186363848848 -0.021384426319821556 0.01027829260442417 0 0.01027829260442417 0.00086964692319681583 0 0 0 -0.0051286948491561842 -0.023866430215719964 0.01268570474901716 0 0.01268570474901716 -0.00036569606899874291 0 0 0 -0.0060580315711796758 -0.017668419494043065 0.010273133049715884 0 0.010273133049715884 -4.4015307033979517e-05 0 0 0 -0.0044281087002692619 -0.012752807509220667 0.013096866667319008 0 0.013096866667319008 0.00078383799821857281 0 0 0 -0.0029922423777505244 -0.012757135730264503 0.010271934901289803 0 0.010271934901289803 0.0014248317233153951 0 0 0 -0.0028330760017372739 -0.003648123223452942 0.0098380613293115836 0 0.0098380613293115836 0.00079346833532480555 0 0 0 -0.00071366372203203671 -0.011740933428412766 0.013069912636048443 0 0.013069912636048443 -0.00042959194896485982 0 0 0 -0.0030426313443444042 -0.009378403268677879 0.0091973155719620135 0 0.0091973155719620135 0.0018311564385671553 0 0 0 -0.0018868117075276844 0.0043812005750318052 0.0092887867070316869 0 0.0092887867070316869 0.00042717045328567738 0 0 0 0.0012020927570793698 -0.0024040595219536609 0.011493499824445801 0 0.011493499824445801 0.00059898156536616898 0 0 0 -0.00045126948914686951 -0.046873490350927298 0.0035288584300780593 0 0.0035288584300780593 -0.0019202576096416617 0 0 0 -0.012198436990142241 -0.037249122403907368 0.0087656407392633726 0 0.0087656407392633726 6.6759732719426368e-05 0 0 0 -0.0092955906677969838 -0.055262830921395778 0.0046059859882727006 0 0.0046059859882727006 -0.00020538678141863997 0 0 0 -0.013867054425703594 -0.037763362912734383 0.0062529687005537724 0 0.0062529687005537724 0.0015331131380639247 0 0 0 -0.0090575624436676147 -0.029528571897706 0.0091410711482503952 0 0.0091410711482503952 0.0010785498755976099 0 0 0 -0.0071125055055271027 -0.030697354003583588 0.010348097054961633 0 0.010348097054961633 -0.00048883362722082491 0 0 0 -0.0077965469077011075 -0.031337588215704495 0.011503363577426786 0 0.011503363577426786 -0.00037368994610031264 0 0 0 -0.0079278195404512003 -0.036098840127988377 0.0079608382905398886 0 0.0079608382905398886 0.000888757656850786 0 0 0 -0.0088025206177843977 -0.026000190342309382 0.00967763935418069 0 0.00967763935418069 2.4675529457507395e-05 0 0 0 -0.006493878703212972 -0.037841700913329765 0.010877702111818741 0 0.010877702111818741 -0.00047529686755550665 0 0 0 -0.0095792494452213266 -0.030348900834759475 0.0087774823262453325 0 0.0087774823262453325 -0.00034966714321402192 0 0 0 -0.0076746419944933898 -0.036858335012972566 0.0081694458424838717 0 0.0081694458424838717 0.0009254044705012017 0 0 0 -0.0089832326356178369 -0.051403699658906704 0.0065570185578757659 0 0.0065570185578757659 -0.0005643040498916306 0 0 0 -0.012992000927199571 -0.048495311198386189 0.0065356550251462649 0 0.0065356550251462649 -0.00073060969213168542 0 0 0 -0.012306480222629472 -0.046919435153675193 0.0038873157786760235 0 0.0038873157786760235 0.00049588010584154102 0 0 0 -0.011605888761958422 -0.063293581693564624 0.0045052261723659325 0 0.0045052261723659325 -0.0004935976186972689 0 0 0 -0.015946794828065471 -0.067686030462709074 0.0039503544290416005 0 0.0039503544290416005 -0.00041296777678257661 0 0 0 -0.017024749559872911 -0.049656069053984356 0.0050325485856734624 0 0.0050325485856734624 0.0014069958973230833 0 0 0 -0.012062268289165312 -0.057405630123363874 0.0035152164029174596 0 0.0035152164029174596 0.00083804655963035796 0 0 0 -0.014141895890933384 -0.078273016209876631 0.0028049595509885175 0 0.0028049595509885175 0.0012786395214622118 0 0 0 -0.019248594172103603 -0.060012446186606568 0.0079537213882785243 0 0.0079537213882785243 0.0017909424067781149 0 0 0 -0.014555375944957129 -0.059696290604992909 0.0024243401791628899 0 0.0024243401791628899 -0.00067618792676711614 0 0 0 -0.015093119632940029 -0.063685305658239405 0.0030610721260371891 0 0.0030610721260371891 0.0024905292925939265 0 0 0 -0.015298694091411359 -0.087879273378983352 0.00029098050654043247 0 0.00029098050654043247 -0.00076845453215662607 0 0 0 -0.022161931977784988 -0.037229993108470846 0.0049209792410248136 0 0.0049209792410248136 0.003073837182144129 0 0 0 -0.0085390389815816845 -0.030607549214400918 0.011130997825742232 0 0.011130997825742232 0.0022711143551802744 0 0 0 -0.0070841087148051721 -0.045434056735968571 0.0074321932738275823 0 0.0074321932738275823 -0.00014997617114136108 0 0 0 -0.011396008226777492 -0.044874944984260895 0.0084767196023625788 0 0.0084767196023625788 0.0014270550884106087 0 0 0 -0.010861972473962585 -0.030212718414893612 0.011564717525088893 0 0.011564717525088893 0.0017751406276789901 0 0 0 -0.0071093944468036512 -0.051606286791954517 0.01059201773275798 0 0.01059201773275798 0.0022956037616824465 0 0 0 -0.012327670757567993 -0.04335895419024214 0.0073556139761935188 0 0.0073556139761935188 -0.00048017477868112684 0 0 0 -0.010959782242230813 -0.03853656350121256 0.010985092889007399 0 0.010985092889007399 0.001169756539998575 0 0 0 -0.0093417017403034808 -0.027791168899112699 0.011991869324638058 0 0.011991869324638058 0.00071205817188608328 0 0 0 -0.0067697776818066453 -0.018699514780227623 0.011338372181513361 0 0.011338372181513361 0.00089722440371554912 0 0 0 -0.0044505725941280192 -0.01850444888138416 0.0098377888420861457 0 0.0098377888420861457 0.0014279637149920317 0 0 0 -0.0042691212915980381 -0.017256622532121815 0.0093535870047488489 0 0.0093535870047488489 0.0030136969373603557 0 0 0 -0.0035607313986903638 -0.0090498116899665835 0.011316300722230815 0 0.011316300722230815 0.0011365088976590899 0 0 0 -0.0019783256980768758 -0.02993613785217427 0.0097466157986780197 0 0.0097466157986780197 0.0014848611136312143 0 0 0 -0.007112819184635754 -0.00081058236676357157 0.0087064934299879281 0 0.0087064934299879281 0.0032102580989979979 0 0 0 0.00059991893305860224 -0.0029829610045119083 0.011790641519598927 0 0.011790641519598927 0.00029747479824113188 0 0 0 -0.00067137155156769563 -0.0072444039131771259 0.0082259195071499903 0 0.0082259195071499903 0.0040452457595113039 0 0 0 -0.00079978953841645592 0.0048425221859536589 0.0051846521820504308 0 0.0051846521820504308 0.0056183201096959429 0 0 0 0.0026152105739124 0.0019948177605150401 0.010133809370722941 0 0.010133809370722941 0.0023628849018873127 0 0 0 0.0010894256656005872 -0.0058263309252032398 0.0082109702090459209 0 0.0082109702090459209 0.0066205912273995457 0 0 0 0.00019856507554907692 0.0059279317235556503 0.0058796423070591533 0 0.0058796423070591533 0.0063821510057929728 0 0 0 0.0030775206823371558 0.0057850265534069405 0.0049166368713632908 0 0.0049166368713632908 0.01089694479513198 0 0 0 0.0041704928371347309 -0.018109867798669854 0.011583905014399345 0 0.011583905014399345 0.0022514935632452875 0 0 0 -0.0039645935588561391 -0.025561829628983922 0.0072326501504614976 0 0.0072326501504614976 0.002574477071168594 0 0 0 -0.0057468381394538328 -0.006547623384375245 0.0086893740353921611 0 0.0086893740353921611 0.0028670068334255734 0 0 0 -0.00092015413773741063 -0.0134290433863117 0.0058867242645336635 0 0.0058867242645336635 0.0051606826914665088 0 0 0 -0.002067090173711289 -0.017189336707999804 0.011119444319010175 0 0.011119444319010175 0.0054970333456102471 0 0 0 -0.002923075840597384 -0.024584991792544489 0.010223410165340736 0 0.010223410165340736 0.007088204759963454 0 0 0 -0.0043741967581452726 -0.016158733807844085 0.0065519480933455346 0 0.0065519480933455346 0.014377023541372852 0 0 0 -0.00044542756661780647 -0.02394959573142974 0.0019981905317989629 0 0.0019981905317989629 0.0072115215918934182 0 0 0 -0.0041845185348840788 0.019764448361790594 0.00092167085724145607 0 0.00092167085724145607 0.013102509885650385 0 0 0 0.0082167395618602396 -0.0089814840403384024 0.0086079039287939828 0 0.0086079039287939828 0.0098959168595460344 0 0 0 0.0002286082048018976 0.0017559526545248734 0.0037406300312065148 0 0.0037406300312065148 0.010719241090482654 0 0 0 0.0031187984362518843 0.0039764606040943937 0.0047377205689419499 0 0.0047377205689419499 0.017909548391576685 0 0 0 0.0054715022489177853 0.015408432890002951 -0.0022473619336502576 0 -0.0022473619336502576 0.019684896521295063 0 0 0 0.0087733323528245057 0.00010097975044062214 0.0019141368547080373 0 0.0019141368547080373 0.027919427726601026 0 0 0 0.0070051018692603943 -0.0021388444289511532 -0.0056429713579277535 0 -0.0056429713579277535 0.027439358602880048 0 0 0 0.0063251285434822724 0.0056405272468526141 -0.010135806893455085 0 -0.010135806893455085 0.022184452744778482 0 0 0 0.0069562449979077706 0.015251105392320441 -0.0048081509437219311 0 -0.0048081509437219311 0.042701814572665531 0 0 0 0.014488229991246521 -0.02238130958078384 -0.0013483361514796954 0 -0.0013483361514796954 0.017224049047410928 0 0 0 -0.0012893151333432384 -0.0055308685519277617 -0.00032919417420641806 0 -0.00032919417420641806 0.012975728774990009 0 0 0 0.0018612150557655721 -0.0079624366219534712 -0.008946339535030795 0 -0.008946339535030795 0.016169126397093336 0 0 0 0.0020516724437849923 -0.02534459804118383 0.0011533947928490662 0 0.0011533947928490662 0.0087923083215437625 0 0 0 -0.0041380724299100169 -0.030589710891929411 -0.0067968898490713553 0 -0.0067968898490713553 0.0096809381076534695 0 0 0 -0.0052271931960690271 -0.043211865142415179 -0.0018598690800361341 0 -0.0018598690800361341 0.0065288761498482339 0 0 0 -0.0091707472481417224 -0.048981706562128011 0.0040758303025548726 0 0.0040758303025548726 0.0039848369144702134 0 0 0 -0.011249217411914439 -0.059466691103053013 -0.0059370518607705786 0 -0.0059370518607705786 0.0053473994334337638 0 0 0 -0.01352982291740483 -0.066252728613510503 0.0014905759526936124 0 0.0014905759526936124 0.0015084340849336741 0 0 0 -0.016186073632144221 -0.093541254265274029 -2.1695488714296945e-05 0 -2.1695488714296945e-05 0.0020600501749420963 0 0 0 -0.022870301022582959 -0.06916608081397338 0.0024410991979654378 0 0.0024410991979654378 0.001933774600207161 0 0 0 -0.016808076553441603 -0.067839155531930539 -0.00056745119220075191 0 -0.00056745119220075191 0.001622765034856144 0 0 0 -0.016554097624268641 -0.071248653516391786 -0.00016091787798879625 0 -0.00016091787798879625 -0.00061491203628133428 0 0 0 -0.017965891388168266 -0.059213318771380488 0.007274155320344762 0 0.007274155320344762 0.0019649856405087318 0 0 0 -0.014312083282717963 -0.09270471536980697 0.0032400539866479432 0 0.0032400539866479432 0.00044163832060106767 0 0 0 -0.023065769262301458 -0.06771065016581862 0.006612856426682516 0 0.006612856426682516 0.0018443568146689366 0 0 0 -0.016466573337787428 -0.045615716348155713 0.0096000394985602464 0 0.0096000394985602464 0.0039022338937218237 0 0 0 -0.010428370613608469 -0.03548188540670575 0.0076290743526699067 0 0.0076290743526699067 0.006575386761782237 0 0 0 -0.0072266246612308713 -0.04997363166391787 0.0018697313929529127 0 0.0018697313929529127 0.0033295724439079966 0 0 0 -0.011661014805002458 0.015869700607747797 -0.0017631573870962695 0 -0.0017631573870962695 0.040795655514536712 0 0 0 0.014166339030571131 0.014886742811914763 -0.0032531689957220299 0 -0.0032531689957220299 0.033261704526794951 0 0 0 0.012037111834677431 0.014630142292165369 -0.0048079691354218669 0 -0.0048079691354218669 0.028832612811219321 0 0 0 0.010865688775846172 0.012343878571337882 0.00042534329650559862 0 0.00042534329650559862 0.034556527496009466 0 0 0 0.011725101516836839 0.01722946005715727 0.0056179465334490215 0 0.0056179465334490215 0.037649130091827056 0 0 0 0.013719647537246086 0.019080495527215614 0.0044329939524437399 0 0.0044329939524437399 0.045786832173353581 0 0 0 0.016216831925142304 0.012077020325819619 -0.001807963895437512 0 -0.001807963895437512 0.044208617007695725 0 0 0 0.014071409333378835 0.010653067801401669 -0.0011570942907786802 0 -0.0011570942907786802 0.043051798105436107 0 0 0 0.013426216476709447 0.014712452447547972 -0.0019606330366631203 0 -0.0019606330366631203 0.042279090187298751 0 0 0 0.014247885658711688 0.013036811665115479 -0.0011239568181821077 0 -0.0011239568181821077 0.040728893655732124 0 0 0 0.013441426330211885 0.0043671341600464812 -0.001981418241569069 0 -0.001981418241569069 0.039405816156194221 0 0 0 0.01094323757906018 0.010460065176243517 -0.0036494420373653358 0 -0.0036494420373653358 0.042377590212340194 0 0 0 0.013209413847145933 0.0085998997294983934 -0.0045608063169965199 0 -0.0045608063169965199 0.040634060698257313 0 0 0 0.012308490106938921 0.0095628292309190496 -0.0079974788914215639 0 -0.0079974788914215639 0.042570867826976819 0 0 0 0.013033424264473979 0.0069869895456885212 -0.0046754502425814855 0 -0.0046754502425814855 0.048603214391463562 0 0 0 0.013897550984288021 0.036216972613380721 -0.034271078905202298 0 -0.034271078905202298 0.076186848907150745 0 0 0 0.02810095538013287 0.0016775617815612473 -0.018414376570560088 0 -0.018414376570560088 0.046546984955952941 0 0 0 0.012056136684378542 0.034041562083984213 -0.021713705403670423 0 -0.021713705403670423 0.042009388088064786 0 0 0 0.019012737543012248 0.0034634420107801378 -0.0079491766343553726 0 -0.0079491766343553726 0.043157589158515364 0 0 0 0.011655257792323868 0.038629890423711177 -0.0067048542386979881 0 -0.0067048542386979881 0.064029362181730776 0 0 0 0.025664813151360474 0.032731046080611496 -0.012878063790955838 0 -0.012878063790955838 0.034076643891500058 0 0 0 0.01670192249302789 0.056741821710372335 -0.018430113491485489 0 -0.018430113491485489 0.044591041580921337 0 0 0 0.025333215822823441 0.024673706751492344 -0.012518733144314231 0 -0.012518733144314231 0.033259549639166636 0 0 0 0.014483314097664735 0.017811501106167776 -0.0010251501917084432 0 -0.0010251501917084432 0.031615238250616406 0 0 0 0.012356684839196039 0.036235832248270462 -0.0078121462758223917 0 -0.0078121462758223917 0.025319387456052972 0 0 0 0.015388804926080857 0.017217185141706625 -0.0019871565112245006 0 -0.0019871565112245006 0.020385821867666756 0 0 0 0.0094007517523433445 0.023479581746829084 -0.0028169569512082812 0 -0.0028169569512082812 0.014634167757187587 0 0 0 0.0095284373760041643 0.016530989546466188 -0.011719080390183677 0 -0.011719080390183677 0.037476059671919575 0 0 0 0.013501762304596441 0.013960301912252171 -0.011931608567372687 0 -0.011931608567372687 0.026861855842524943 0 0 0 0.010205539438694282 0.024800128899642442 -0.0099732874802775373 0 -0.0099732874802775373 0.030821860077023741 0 0 0 0.013905497244166544 0.016063496461822438 -0.0045195516723547926 0 -0.0045195516723547926 0.015826709521949485 0 0 0 0.007972551495942979 0.019666998049269833 -0.0045975219919543514 0 -0.0045975219919543514 0.029570730945907633 0 0 0 0.012309432248794369 0.019018057992796791 -0.0030790451998280442 0 -0.0030790451998280442 0.018480143975146378 0 0 0 0.0093745504919857912 0.018968561590135595 0.0031284088388803589 0 0.0031284088388803589 0.016176776179323699 0 0 0 0.0087863344423648217 0.015741858537453447 0.0015096220978693163 0 0.0015096220978693163 0.0085100068884785759 0 0 0 0.0060629663564830041 0.014937288928032149 -8.8546645641916777e-05 0 -8.8546645641916777e-05 0.014490272041343483 0 0 0 0.0073568902423439067 0.018584791044275017 -0.00064752262815084838 0 -0.00064752262815084838 0.01115805629885077 0 0 0 0.0074357118357814478 0.015757962452408448 0.00386698993051519 0 0.00386698993051519 0.012431166033760026 0 0 0 0.0070472821215421221 0.0089745981892702578 0.0071114287816286242 0 0.0071114287816286242 0.0073342071407017199 0 0 0 0.004077201332492994 0.013844404738746643 0.0027197427364495695 0 0.0027197427364495695 0.0069143647346467134 0 0 0 0.005189692368348338 0.012401021686723432 0.0078191870224292651 0 0.0078191870224292651 0.0057294297367954383 0 0 0 0.0045326128558797179 0.0094585448623355356 0.0061727661477593331 0 0.0061727661477593331 0.0032544790303605797 0 0 0 0.0031782559731740323 0.0055906878141027657 0.010097483176519588 0 0.010097483176519588 0.0022891613451098448 0 0 0 0.0019699622898031507 0.018637593962802141 0.0026409313841311293 0 0.0026409313841311293 0.010789806578953395 0 0 0 0.0073568501354388787 0.017363280939845554 0.0017392233653155216 0 0.0017392233653155216 0.0095393387819024851 0 0 0 0.0067256549304370054 0.016644543043697925 0.005588585613486928 0 0.005588585613486928 0.0084490112250821467 0 0 0 0.0062733885671950171 0.014899208281592019 0.0047264228062731516 0 0.0047264228062731516 0.0067910146327165369 0 0 0 0.0054225557285771404 0.018641275529997021 0.0036753601041701629 0 0.0036753601041701629 0.012322019378208225 0 0 0 0.0077408237270513132 0.020703518244572307 0.0074523626419841322 0 0.0074523626419841322 0.0074979640567455208 0 0 0 0.0070503705753294545 0.025323719174313281 0.007823060289032558 0 0.007823060289032558 0.012264802189035419 0 0 0 0.0093971303408371745 0.025663504570082634 0.0072333923284174581 0 0.0072333923284174581 0.010369437588054427 0 0 0 0.0090082355395342643 0.021331951958993317 0.0036783344024125253 0 0.0036783344024125253 0.014060334491343897 0 0 0 0.0088480716125843087 0.021413136828742151 0.0037159243921454327 0 0.0037159243921454327 0.018834621969743576 0 0 0 0.010061939699621436 0.018273456774142216 0.001900368996287061 0 0.001900368996287061 0.01634059374437084 0 0 0 0.0086535126296282544 0.021840627355968915 0.0027439773405050008 0 0.0027439773405050008 0.026834358583753978 0 0 0 0.012168746484930718 0.024236272349640389 0.0059898163438017581 0 0.0059898163438017581 0.020163423505347507 0 0 0 0.011099923963746974 0.016231486783111586 0.0011326342774413169 0 0.0011326342774413169 0.024202489392687557 0 0 0 0.010108494043949779 0.019009664159072577 -0.00030898143828365606 0 -0.00030898143828365606 0.03322062418688531 0 0 0 0.013057572086489479 0.015933816525695491 -0.0024953995676664522 0 -0.0024953995676664522 0.022224196197605937 0 0 0 0.0095395031808253629 0.025765322220472963 0.0091470793025503344 0 0.0091470793025503344 0.041968782293691428 0 0 0 0.016933526128541109 0.01901084522509108 0.005428188672840081 0 0.005428188672840081 0.027977535073577163 0 0 0 0.01174709507466706 0.021671539870952543 0.0040429598180747699 0 0.0040429598180747699 0.036833460634349231 0 0 0 0.014626250126325445 0.024193390675619084 0.0063612505595197696 0 0.0063612505595197696 0.020759762528587689 0 0 0 0.01123828830105169 0.027094977099346981 0.0095816831058172028 0 0.0095816831058172028 0.02636844075524972 0 0 0 0.013365854463649188 0.027979717094953459 0.0092639603590174285 0 0.0092639603590174285 0.028819727969175164 0 0 0 0.014199861266032173 0.029421665359346517 0.009384065655285545 0 0.009384065655285545 0.013929323094515115 0 0 0 0.0108377471134654 0.02987868384532015 0.0097986977149312655 0 0.0097986977149312655 0.01693046220118908 0 0 0 0.011702286511627304 0.035179998146940991 0.011192105618412451 0 0.011192105618412451 0.011877966894870237 0 0 0 0.011764491260452804 0.033674634099109389 0.009930522265232708 0 0.009930522265232708 0.0065345455814769041 0 0 0 0.010052294920146568 0.029664744465049797 0.007890106054766699 0 0.007890106054766699 0.0024426171386386364 0 0 0 0.0080268404009221136 0.029342959290501944 0.0095364947888044449 0 0.0095364947888044449 0.0084424505118010675 0 0 0 0.0094463524505757571 0.030030862445152247 0.0085246772715310577 0 0.0085246772715310577 0.0072023378586940634 0 0 0 0.0093083000759615758 0.021813679538291993 0.0058647917909090009 0 0.0058647917909090009 0.0076193075042396835 0 0 0 0.0073582467606329131 0.022497642694197531 0.0081019231831487605 0 0.0081019231831487605 0.0038050701773477136 0 0 0 0.0065756782178863129 0.026016910195186368 0.0084667480033196532 0 0.0084667480033196532 0.0046348164991427965 0 0 0 0.0076629316735822893 0.026738809337560548 0.0086258463976292051 0 0.0086258463976292051 0.0068817563239715676 0 0 0 0.0084051414153830314 0.027384691912104103 0.0074433313126599076 0 0.0074433313126599076 0.0014799745001122279 0 0 0 0.0072161666030540889 0.027276419713841975 0.0087574038517996868 0 0.0087574038517996868 0.0012494155791053126 0 0 0 0.0071314588232368227 0.021828528787024168 0.0081306534448183972 0 0.0081306534448183972 0.0011366939351549893 0 0 0 0.0057413056805447945 0.031257003553159551 0.0079684002904466429 0 0.0079684002904466429 0.00056896243925964873 0 0 0 0.0079564914981048 0.030805446580724802 0.0064556419586105484 0 0.0064556419586105484 -0.00024520854783458695 0 0 0 0.0076400595082225485 0.035267280987570621 0.0074202251636377795 0 0.0074202251636377795 0.00070005821068881702 0 0 0 0.0089918347995648577 0.03273005156236547 0.0069915070769326496 0 0.0069915070769326496 0.00012824253425294113 0 0 0 0.008214573524154601 0.030884335785836797 0.0085994192839297847 0 0.0085994192839297847 0.0026944862343444981 0 0 0 0.0083947055050453238 0.0054583572370644571 0.0095265288903249243 0 0.0095265288903249243 0.0036931743029629555 0 0 0 0.0022878828850068575 0.011852289119985964 0.0082837777079072181 0 0.0082837777079072181 0.0013208093015137472 0 0 0 0.0032932746053749261 0.0059106095194006655 0.01002648573122893 0 0.01002648573122893 0.0012585273957308046 0 0 0 0.0017922842287828658 0.016099577447819514 0.0077059035635542467 0 0.0077059035635542467 0.00040788778289789496 0 0 0 0.0041268663076793576 0.013115122803173895 0.0088351053452869911 0 0.0088351053452869911 0.0045390957135504478 0 0 0 0.0044135546291810823 0.016603165690597423 0.008190401582138563 0 0.008190401582138563 0.0037050554806576513 0 0 0 0.0050770552928137633 0.018201241000892956 0.0060210288641327821 0 0.0060210288641327821 0.0037802948301271181 0 0 0 0.0054953839577550163 0.018870862540641568 0.009327202553917684 0 0.009327202553917684 0.0054654898185002854 0 0 0 0.0060840880897854652 0.021199176541557216 0.007360062441770612 0 0.007360062441770612 0.001139564519389194 0 0 0 0.0055846852652366042 0.017561253251682802 0.0077650313644921087 0 0.0077650313644921087 0.0016129517445377592 0 0 0 0.0047935512490551377 0.0216567707899121 0.0091970813916752957 0 0.0091970813916752957 0.00055730516358918486 0 0 0 0.0055535189883753229 0.014965032338921824 0.010004345377663423 0 0.010004345377663423 0.0022476489031067783 0 0 0 0.0043031703105071472 0.013646774177747574 0.0090688783238483221 0 0.0090688783238483221 0.00044631291242117066 0 0 0 0.0035232717725421844 0.0068632930972610043 0.0095938598594313522 0 0.0095938598594313522 0.00047550095955833926 0 0 0 0.0018346985142048342 0.0058622628958033239 0.011214262667841611 0 0.011214262667841611 4.2238656482243564e-06 0 0 0 0.0014666216903628862 0.0055497513188154206 0.0098783693278095067 0 0.0098783693278095067 0.00031271627206234248 0 0 0 0.0014656168977194434 -0.00027834889855267268 0.011698205266075387 0 0.011698205266075387 -0.00012800323202780128 0 0 0 -0.00010158803264511719 0.0038359523378455364 0.012384375072569537 0 0.012384375072569537 -0.0003548616305691088 0 0 0 0.00087027267681910776 -0.00096922288458112238 0.011017143826059426 0 0.011017143826059426 0.00066769045153060314 0 0 0 -7.5383108262626342e-05 0.0041655093752158701 0.0096636272827646877 0 0.0096636272827646877 -0.00042265251523609243 0 0 0 0.00093571421499494614 0.010516412089672002 0.011162800625434337 0 0.011162800625434337 0.0002245176915749679 0 0 0 0.0026852324453117424 0.0094603073761990765 0.009753210159113325 0 0.009753210159113325 0.00058840800037576746 0 0 0 0.0025121788441437119 0.011549940046437741 0.011454568099626482 0 0.011454568099626482 0.00030500944783873329 0 0 0 0.0029637373735691176 0.01514188399068719 0.0085434982113573206 0 0.0085434982113573206 0.00035509781697706019 0 0 0 0.0038742454519160624 0.016123745310211143 0.009507986562890829 0 0.009507986562890829 0.00098717650106439764 0 0 0 0.004277730452818887 0.021111882000001487 0.0096148905529324594 0 0.0096148905529324594 0.00024140227466431206 0 0 0 0.0053383210686664467 0.016311969821334014 0.0087787991409956634 0 0.0087787991409956634 0.0028509925161818508 0 0 0 0.0047907405843789644 0.013979287301272037 0.011732624003028602 0 0.011732624003028602 0.0015206286772841519 0 0 0 0.0038749789946390476 0.012095493081230221 0.01029384129637693 0 0.01029384129637693 0.0040319020121231544 0 0 0 0.0040318487733383432 0.0070112684635850612 0.013236655455880262 0 0.013236655455880262 0.00038085500784244483 0 0 0 0.0018480308678568771 0.0039768406408759718 0.011082163509597048 0 0.011082163509597048 0.0013240665037074172 0 0 0 0.0013252267861458475 -0.00050671056125731716 0.013976144973591025 0 0.013976144973591025 -0.0010774092385417711 0 0 0 -0.00039602994994977075 0.030124345451448348 0.0060294435144123415 0 0.0060294435144123415 0.0016880828458477673 0 0 0 0.007953107074324027 0.031231480463827278 0.0066324538398094971 0 0.0066324538398094971 -0.00020278111725363646 0 0 0 0.0077571748366434129 0.02645631009439476 0.0075704255537585828 0 0.0075704255537585828 0.00027551875467802384 0 0 0 0.0066829572122681959 0.026652898427741691 0.0080784895859833603 0 0.0080784895859833603 0.00026669309689836967 0 0 0 0.0067298978811600151 0.021781607954175899 0.00816708690510215 0 0.00816708690510215 0.0017133908052038016 0 0 0 0.0058737496898449253 0.02495993437310922 0.007750356754762355 0 0.007750356754762355 0.0024385554343613648 0 0 0 0.0068496224518676489 0.019420333430926483 0.0088794134398394089 0 0.0088794134398394089 0.0064695847431573061 0 0 0 0.0064724795435209485 0.019552865202990946 0.0099849863671229548 0 0.0099849863671229548 0.0035944515552397693 0 0 0 0.0057868291895576797 0.02386482754804313 0.0077368402690268408 0 0.0077368402690268408 0.0079537241733956179 0 0 0 0.0079546379303596856 0.024078916239985353 0.0076099589475711526 0 0.0076099589475711526 0.0037782324361479974 0 0 0 0.0069642871690333372 0.029608199446564332 0.0053328933317290921 0 0.0053328933317290921 0.0045565206533425065 0 0 0 0.0085411800249767106 0.027101592236624686 0.0067463740581365133 0 0.0067463740581365133 0.0011022069608687618 0 0 0 0.0070509497993733591 0.026116286631903275 0.0064003998931659875 0 0.0064003998931659875 0.0042793855309209185 0 0 0 0.0075989180407060458 0.026696500052374443 0.0060990205332590239 0 0.0060990205332590239 0.0088977096994965754 0 0 0 0.0088985524379677546 0.02842840412182359 0.0038182327428206648 0 0.0038182327428206648 0.002934772206997718 0 0 0 0.0078407940822053275 0.0309344780948685 0.0018657089751371687 0 0.0018657089751371687 0.010304440216835433 0 0 0 0.010309729577925983 0.027990459231720166 0.00080760368404352901 0 0.00080760368404352901 0.0017680277851251395 0 0 0 0.0074396217542113266 0.033386316175653706 0.00061328712508916625 0 0.00061328712508916625 0.0030848378052922157 0 0 0 0.0091177884952364854 0.032956721813960699 0.0027280447287371715 0 0.0027280447287371715 0.0015940053963674193 0 0 0 0.0086376818025820316 0.033775464361265856 0.0040496675710773606 0 0.0040496675710773606 0.00036438412302989762 0 0 0 0.0085349621210739426 0.031967686318389005 0.0020777310256713533 0 0.0020777310256713533 -0.0011636462149385105 0 0 0 0.0077010100258626257 0.036639566157150784 0.0021950614189216611 0 0.0021950614189216611 0.00025884099235259396 0 0 0 0.0092246017873758423 0.033772609966011891 0.0036911610642891275 0 0.0036911610642891275 -0.0027674274255395999 0 0 0 0.0077512956351180719 0.034812089003207071 0.00058223531979011329 0 0.00058223531979011329 -0.0045809631344047586 0 0 0 0.0075577814672005807 0.03208804925949639 -0.003845621364439587 0 -0.003845621364439587 -0.0049519391999751534 0 0 0 0.0067840275148803092 0.034120946833111843 -0.0012408609172972918 0 -0.0012408609172972918 -0.00087994130534937466 0 0 0 0.0083102513819406192 0.032074360866729025 -0.00076623584958252638 0 -0.00076623584958252638 0.00019500581238045028 0 0 0 0.0080673416697773694 0.030599370783384646 -0.0010399326518576539 0 -0.0010399326518576539 0.010201750725554647 0 0 0 0.010200280377234824 0.030157492446551155 -0.0037665197028454141 0 -0.0037665197028454141 0.010043700390680864 0 0 0 0.010050298209308004 0.027614229364578746 -0.0032135937954016515 0 -0.0032135937954016515 0.0021201128730608618 0 0 0 0.0074335855594099033 0.025022095240658661 -0.0077777041349501863 0 -0.0077777041349501863 0.0083384433491788396 0 0 0 0.0083401346474593751 0.030573522753957062 -0.0048078008789719934 0 -0.0048078008789719934 0.0016733431431179592 0 0 0 0.0080617164742687528 0.023640374753417299 -0.0076687210498703265 0 -0.0076687210498703265 -0.0010660653944628597 0 0 0 0.0056435773397386091 0.015083877263252964 -0.01147007447226984 0 -0.01147007447226984 0.0050228108072322177 0 0 0 0.0050266720176212953 0.016218465259506661 -0.012795039331546552 0 -0.012795039331546552 -0.0034550640621083574 0 0 0 0.0031908502993495784 0.0070041617176471171 -0.01641036065482946 0 -0.01641036065482946 -0.0042158094934600238 0 0 0 0.00069708805604677335 0.016170106926717682 -0.013157923626436991 0 -0.013157923626436991 -0.0076450661540211698 0 0 0 0.0021312601931741289 0.01991213916154121 -0.010525055351324057 0 -0.010525055351324057 -0.0052503437730754415 0 0 0 0.003665448847116436 0.024523542526163237 -0.0084430586167169221 0 -0.0084430586167169221 -0.0013802055482428875 0 0 0 0.0057858342444800891 0.012982684619303053 -0.012694258434542017 0 -0.012694258434542017 -0.0052345719290251558 0 0 0 0.0019370281725694712 0.023863906041805046 -0.0085464894893602823 0 -0.0085464894893602823 -0.0055957480243965735 0 0 0 0.0045670395043521219 0.031864179071628598 -0.0051072931246823544 0 -0.0051072931246823544 -0.0069880734151110541 0 0 0 0.0062190264141293861 0.033440198894003959 -0.0027874032056294257 0 -0.0027874032056294257 -0.0034683167298419429 0 0 0 0.0074929705410405056 0.035160953594326583 -0.0040410053883029144 0 -0.0040410053883029144 -0.0051558345787502957 0 0 0 0.0075012797538940718 0.034136986372524436 -0.0034836889455990318 0 -0.0034836889455990318 -0.008180047104510875 0 0 0 0.0064892348170033885 0.042393701809490689 -0.00025107661932951631 0 -0.00025107661932951631 -0.0066924202854685665 0 0 0 0.0089253203810055297 0.02786686894112704 -0.0093372366202976332 0 -0.0093372366202976332 -0.0099199798075217342 0 0 0 0.004486722283401327 0.021580605136478335 -0.012928161115257741 0 -0.012928161115257741 -0.0085461220101300528 0 0 0 0.0032586207815870731 0.02803604747501337 -0.0089721804717108767 0 -0.0089721804717108767 -0.0073996366830292315 0 0 0 0.0051591026979960364 0.030400828053218781 -0.0066698178603593374 0 -0.0066698178603593374 -0.0073742340722576238 0 0 0 0.0057566484952402911 0.016606595935287721 -0.013437030242222111 0 -0.013437030242222111 -0.010284800870786356 0 0 0 0.0015804487661253384 0.028402443562854041 -0.013526756704961743 0 -0.013526756704961743 -0.010874933767931874 0 0 0 0.0043818774487305399 0.034749127466022295 -0.010795234459974379 0 -0.010795234459974379 -0.007707848235812274 0 0 0 0.0067603198075525065 0.031911689923531682 -0.008963600348346628 0 -0.008963600348346628 -0.01103617477620069 0 0 0 0.0052188787868327393 0.046778967483860276 -0.0041885637164667845 0 -0.0041885637164667845 -0.006385049862733895 0 0 0 0.010098479405281593 0.034632233104390592 -0.013661291645721396 0 -0.013661291645721396 -0.0063336050040578157 0 0 0 0.007074657025083194 0.03311468341888104 -0.012792704512442368 0 -0.012792704512442368 -0.0094548368520620471 0 0 0 0.005914961641704743 0.039420626623065391 -0.0005641189063970869 0 -0.0005641189063970869 -0.0064372430889085858 0 0 0 0.0082458458835392 0.040893352698837621 -0.0062778455865018616 0 -0.0062778455865018616 -0.0081152142817113374 0 0 0 0.0081945346042815639 0.046106002733998501 0.00092589646260866649 0 0.00092589646260866649 -0.0077790725884862751 0 0 0 0.0095817325363780521 0.053510460937378324 0.0046033638814883919 0 0.0046033638814883919 -0.0015761914325546859 0 0 0 0.012983567376205912 0.045260465329367464 0.006294815172850919 0 0.006294815172850919 -0.00053784225237245775 0 0 0 0.011180655769248746 0.047709144514215984 0.0061039127818602081 0 0.0061039127818602081 8.7972480661804159e-05 0 0 0 0.011949279248719429 0.042887832453729055 0.0043266234093855818 0 0.0043266234093855818 -0.0044276693751096677 0 0 0 0.0096150407696548468 0.042926742306752662 0.0080405109094697641 0 0.0080405109094697641 0.00095326114831158822 0 0 0 0.010970000863766063 0.044864787896282246 0.010466755180915461 0 0.010466755180915461 0.0058342712257067678 0 0 0 0.012674764780497245 0.040588171875675268 0.0078808005365891276 0 0.0078808005365891276 0.00091472154340508857 0 0 0 0.010375723354770099 0.039829673404641504 0.010955114945566899 0 0.010955114945566899 0.0075136147547436097 0 0 0 0.011835822039846278 0.035297977210140649 0.0081801118958503612 0 0.0081801118958503612 0.0022760132482012307 0 0 0 0.0093934976145854717 0.034593164476803356 0.0082765469506600568 0 0.0082765469506600568 0.002024235560007524 0 0 0 0.009154350009202717 0.037755942949927082 0.0055309946536456524 0 0.0055309946536456524 -0.0026999373546932777 0 0 0 0.0087640013988084606 0.039532789184172912 0.0067562865423726314 0 0.0067562865423726314 -4.7530380515255211e-05 0 0 0 0.0098713147009144141 0.034118482796850952 0.0051734463779147307 0 0.0051734463779147307 -0.0028101765783189771 0 0 0 0.0078270765546329928 0.038657147738434122 0.0041045300836130231 0 0.0041045300836130231 -0.001072116365971619 0 0 0 0.0093962578431156258 0.035859213084317249 0.0024075561891999438 0 0.0024075561891999438 -0.0047114853741624385 0 0 0 0.0077869319275386973 0.038301356733288223 0.0013589664700946935 0 0.0013589664700946935 -0.0030599535483904106 0 0 0 0.0088103507962244559 0.037428810486277483 -0.0019137341508525313 0 -0.0019137341508525313 -0.0051695944351296715 0 0 0 0.0080648040127869539 0.039133354911466543 0.0031968145915245365 0 0.0031968145915245365 -0.0042149442045150368 0 0 0 0.008729602676737884 0.04199704223657006 0.004039251593919619 0 0.004039251593919619 -0.0033843135811365017 0 0 0 0.0096531821638583901 -0.068006483708597784 -0.0053131941923791736 0 -0.0053131941923791736 -0.0028731462802758373 0 0 0 -0.017719907497218409 -0.047099132055797112 -0.013781180412199742 0 -0.013781180412199742 -0.0013098197544876965 0 0 0 -0.012102237952571194 -0.051673716205949176 -0.00646910649893662 0 -0.00646910649893662 -0.00049083384728815954 0 0 0 -0.013041137513309334 -0.046421711961588438 -0.008815183456587803 0 -0.008815183456587803 0.0036922973854535829 0 0 0 -0.01068235364403371 -0.040426921408171029 -0.006074876608153622 0 -0.006074876608153622 0.0032845396625659287 0 0 0 -0.0092855954364012734 -0.038754428752074833 -0.0043973339875932778 0 -0.0043973339875932778 -0.0048568530879273021 0 0 0 -0.010902820460000531 -0.037536185280752955 -0.0057853651507190065 0 -0.0057853651507190065 -0.012487975636827086 0 0 0 -0.012506040229395009 -0.039462532550181215 -0.0071943878243605252 0 -0.0071943878243605252 -0.0046990502095978978 0 0 0 -0.01104039568994478 -0.03857220780111522 -0.012201573060208543 0 -0.012201573060208543 -0.0034349303961705852 0 0 0 -0.010501784549321451 -0.035794882658579198 -0.013006699374714581 0 -0.013006699374714581 -0.0022204405209637589 0 0 0 -0.0095038307948857384 -0.030706065653304939 -0.013027692903578154 0 -0.013027692903578154 -0.010239407081374845 0 0 0 -0.010236368183669946 -0.030700091546266274 -0.013032443172572171 0 -0.013032443172572171 -0.010220220920664729 0 0 0 -0.010230078116732752 -0.034379087946248763 -0.015366803648709194 0 -0.015366803648709194 -0.0043215343376176996 0 0 0 -0.009675155570966619 -0.023926343155257442 -0.015893679585090702 0 -0.015893679585090702 -0.0013901256619524016 0 0 0 -0.0063291172043024573 -0.038956125885242193 -0.014233520472498474 0 -0.014233520472498474 0.00055209122480858602 0 0 0 -0.0096010086651084018 -0.056369054866464777 -0.014378651399216217 0 -0.014378651399216217 -0.002506586653961862 0 0 0 -0.014718910380106656 -0.022850695271554249 -0.018928524285374733 0 -0.018928524285374733 -0.0013447999144486841 0 0 0 -0.0060488737965007314 -0.04168776358436499 -0.017472260071910738 0 -0.017472260071910738 -0.0042231686294130835 0 0 0 -0.011477733053444527 -0.020481925936295636 -0.016527587628646673 0 -0.016527587628646673 -0.003905955298573599 0 0 0 -0.0060969703087173088 -0.016300640337422741 -0.016673966613876719 0 -0.016673966613876719 -0.0059107417590183869 0 0 0 -0.0055528455241102819 -0.0200870840659025 -0.01968734715038991 0 -0.01968734715038991 -0.0041994671956027269 0 0 0 -0.0060716378153763059 -0.018297448330689171 -0.0179194137025218 0 -0.0179194137025218 -0.0024580713741924332 0 0 0 -0.0051888799262204011 -0.019307983088761412 -0.016942796756143491 0 -0.016942796756143491 -0.0049179766496576169 0 0 0 -0.0060564899346047573 -0.0083823334281245502 -0.014933073981217383 0 -0.014933073981217383 -0.0028013063919142978 0 0 0 -0.002795909955009712 -0.0076230878614999952 -0.017633098847481803 0 -0.017633098847481803 -0.0046938377623941992 0 0 0 -0.0030792314059735482 -0.0038490893998745935 -0.014309058030309851 0 -0.014309058030309851 -0.0022864415199630589 0 0 0 -0.0015338827299594144 -0.0045062584668540424 -0.018511756932019504 0 -0.018511756932019504 -0.0039658816073364078 0 0 0 -0.0021180350185476138 0.0037059761940883597 -0.013992663233805488 0 -0.013992663233805488 0.0012365841028153788 0 0 0 0.0012356400742259347 0.011001286174861985 -0.011896684424859144 0 -0.011896684424859144 -0.0015187145536052285 0 0 0 0.0023706429053141891 0.0043098550582324063 -0.017714124823672781 0 -0.017714124823672781 -0.0061462336089761274 0 0 0 -0.00045909463768593201 0.00018473455610179546 -0.017803928732722976 0 -0.017803928732722976 -0.0060229535297689207 0 0 0 -0.0014595547434167883 0.00075996005209173854 -0.014777549376203115 0 -0.014777549376203115 -0.0057965356788331288 0 0 0 -0.0012591439066853482 0.011044420708739759 -0.01745011674190252 0 -0.01745011674190252 -0.01047704971352334 0 0 0 0.00014184274880410172 0.017829028505028797 -0.014581920692335368 0 -0.014581920692335368 -0.0073529309322779707 0 0 0 0.0026190243931877057 0.0013807247457163431 -0.020781751335583909 0 -0.020781751335583909 -0.011029980686777165 0 0 0 -0.0024123139852652051 0.016836460160713721 -0.018169559748723654 0 -0.018169559748723654 -0.012111788066453327 0 0 0 0.0011811680235650976 0.0020897154596336556 -0.019534352989735125 0 -0.019534352989735125 -0.0054039108817564505 0 0 0 -0.0008285488555307011 -0.0041874950305989742 -0.023956257360555306 0 -0.023956257360555306 -0.0093402374964593887 0 0 0 -0.003381933131764589 0.015617585498542759 -0.016499306175040532 0 -0.016499306175040532 -0.005421485741004789 0 0 0 0.0025490249393844873 -0.0029262359276304578 -0.021524896018435546 0 -0.021524896018435546 -0.0048353842378145231 0 0 0 -0.0019404050413612435 6.5880287493588763e-05 -0.026045177678989808 0 -0.026045177678989808 -0.0042804835304034589 0 0 0 -0.0010536508107274675 -0.025670982732505794 -0.022770386522334912 0 -0.022770386522334912 -0.009740352361213768 0 0 0 -0.0088528337734298922 -0.022524051635357124 -0.023268500265263673 0 -0.023268500265263673 -0.0064811976522734654 0 0 0 -0.0072513123219076492 -0.024130169689079488 -0.018969739731745622 0 -0.018969739731745622 -0.0025251674603199992 0 0 0 -0.0066638342873498735 -0.0021308009893423142 -0.018504712009767187 0 -0.018504712009767187 -0.00396547852072162 0 0 0 -0.001524069877515982 -0.014740261596340481 -0.020395969812840371 0 -0.020395969812840371 -0.0074740601576393229 0 0 0 -0.0055535804384949511 -0.038283628538888038 -0.019368071388560525 0 -0.019368071388560525 -0.0044603869144683866 0 0 0 -0.010686003863339106 -0.035509612154349959 -0.017397904969163092 0 -0.017397904969163092 0.0012521815964026614 0 0 0 -0.0085643576394868193 -0.050743564950172099 -0.016412905989224735 0 -0.016412905989224735 -0.00064314059383688282 0 0 0 -0.012846676386002252 -0.038495829151820253 -0.023761098468992638 0 -0.023761098468992638 -0.0011454683773738927 0 0 0 -0.0099103243822985312 -0.049300135816294985 -0.019006994968004981 0 -0.019006994968004981 -0.0051430961535245722 0 0 0 -0.013610807992454871 -0.02689483100274917 -0.027337399684261993 0 -0.027337399684261993 -0.0023698277080825697 0 0 0 -0.0073161646777079349 -0.048586834286525521 -0.021040322054085472 0 -0.021040322054085472 0.0017050961254763269 0 0 0 -0.011720434540262288 -0.076243858784039428 -0.015013110908153243 0 -0.015013110908153243 -0.0048227127092704825 0 0 0 -0.020266642873327488 -0.08338657555573728 -0.018117732286886908 0 -0.018117732286886908 -0.003273842196611268 0 0 0 -0.02166510443808714 -0.10009208920966453 -0.0095066414444835746 0 -0.0095066414444835746 -0.00096391478424546345 0 0 0 -0.02526400099847749 -0.071795517529824951 -0.0075820228695203714 0 -0.0075820228695203714 8.6158591809274571e-05 0 0 0 -0.017927339734503916 -0.082743197738862601 -0.0085897174579334726 0 -0.0085897174579334726 -0.00072400306784897728 0 0 0 -0.020866800201677905 -0.051417136792838762 -0.017029869010230243 0 -0.017029869010230243 -0.00064658874650829271 0 0 0 -0.013015931384836761 -0.070497124218614565 -0.0070140302136794362 0 -0.0070140302136794362 -0.004144845375580985 0 0 0 -0.018660492398548882 -0.051736663498120242 -0.011116912861829101 0 -0.011116912861829101 0.0027218798965571236 0 0 0 -0.012253695900390771 -0.11125898313716154 -0.0091994276016010013 0 -0.0091994276016010013 0.0048980935339106579 0 0 0 -0.026590222400812769 -0.16257430929963901 -0.0025647094750804247 0 -0.0025647094750804247 -0.0008360134210924075 0 0 0 -0.04085258068018284 -0.10298073887704834 -0.020892864564557516 0 -0.020892864564557516 0.0044201779951596968 0 0 0 -0.024640140220472166 -0.10507534692284815 -0.0075370328983538903 0 -0.0075370328983538903 0.00037688782863271042 0 0 0 -0.026174614773553845 -0.13775909793086288 -0.0077631835551516884 0 -0.0077631835551516884 0.0014825227498442561 0 0 0 -0.03406914379525465 -0.11644826045400453 -0.0091833687964283789 0 -0.0091833687964283789 -0.00056655092308037763 0 0 0 -0.029253702844271246 -0.079018223886314895 -0.0095959739204371595 0 -0.0095959739204371595 0.0013456738352350308 0 0 0 -0.019418137512769971 -0.092871960567509959 -0.0084473848819629528 0 -0.0084473848819629528 0.0011148211668422642 0 0 0 -0.022939284850166917 -0.089083572908699546 -0.022121924744839993 0 -0.022121924744839993 0.0015038029372020159 0 0 0 -0.021894942492874377 -0.053128372119886212 -0.023317950878511809 0 -0.023317950878511809 0.0012659076448665249 0 0 0 -0.012965616118754911 -0.053411414596830159 -0.021871690976038232 0 -0.021871690976038232 -0.0011531147022920407 0 0 0 -0.01364113232478056 -0.036167252510347227 -0.022062389048987028 0 -0.022062389048987028 -0.0068328331669981895 0 0 0 -0.010750021419336356 -0.053305152529187501 -0.031126979651281885 0 -0.031126979651281885 0.0052473009174920926 0 0 0 -0.01201446290292385 -0.07112908630310133 -0.015957719601821119 0 -0.015957719601821119 0.00088962716485363295 0 0 0 -0.017559864784561931 -0.06059641732404434 -0.014107126660635017 0 -0.014107126660635017 0.0041342113109838798 0 0 0 -0.014115551503265081 -0.01243036089417527 -0.025837567856736965 0 -0.025837567856736965 0.0058418310078444252 0 0 0 -0.001647132471582706 -0.0082984440361408077 -0.023134789879671908 0 -0.023134789879671908 0.017150246638953495 0 0 0 0.0022129506507031771 0.012207417999920478 -0.029360112776345797 0 -0.029360112776345797 0.0020533087079675633 0 0 0 0.0035651816769720138 -0.044535710438550667 -0.023115072300116675 0 -0.023115072300116675 0.0053892833067598709 0 0 0 -0.0097866067829476995 -0.017041110892321899 -0.028424271779339393 0 -0.028424271779339393 0.0019246243384427285 0 0 0 -0.0037791216384697977 -0.040362682411808036 -0.030291455393754638 0 -0.030291455393754638 -0.0020241608927720339 0 0 0 -0.01059671082614503 -0.018459672578196508 -0.030992314021170198 0 -0.030992314021170198 -0.0052994502238218333 0 0 0 -0.0059397807005045836 -0.014219251405955308 -0.023905725133757438 0 -0.023905725133757438 -0.0026326481340956318 0 0 0 -0.0042129748850127328 0.0064958289446728629 -0.028544509978217746 0 -0.028544509978217746 -0.0021925301585890497 0 0 0 0.0010758246965209516 -0.017044645146984602 -0.024703613188437518 0 -0.024703613188437518 -0.00034456953654332428 0 0 0 -0.0043473036708819848 0.0072674589854875866 -0.021430907013756342 0 -0.021430907013756342 -0.0034880663990122739 0 0 0 0.00094484814661882817 0.030068499926531975 -0.025443157990623896 0 -0.025443157990623896 -0.0032746691917922635 0 0 0 0.0066984576836849269 0.020395849213846136 -0.023983085126113479 0 -0.023983085126113479 -0.0057469065006407333 0 0 0 0.0036622356783013454 0.040388197384746805 -0.019041809147511159 0 -0.019041809147511159 -0.005438937192057236 0 0 0 0.0087373150481723852 0.020509228419833839 -0.016742924505052673 0 -0.016742924505052673 -0.0072614971744745516 0 0 0 0.0033119328113398235 0.031378450456795076 -0.015583775960762651 0 -0.015583775960762651 0.00010638781840679665 0 0 0 0.0078712095688004691 0.053104188772779476 -0.020748740832996326 0 -0.020748740832996326 0.0022140699458218921 0 0 0 0.013829564679650342 0.013941224691027669 -0.021777784733913057 0 -0.021777784733913057 0.0058961991791424296 0 0 0 0.0049593559675425239 0.04248174169249553 -0.025864063851398028 0 -0.025864063851398028 0.0079455950741187109 0 0 0 0.012606834191653565 0.040978527330585525 -0.014495189089823973 0 -0.014495189089823973 0.013465416865423629 0 0 0 0.013610986049002294 0.062053864324496083 -0.0093040583657666362 0 -0.0093040583657666362 0.03288772941038956 0 0 0 0.023735398433721418 0.071659082288599171 -0.021387836773288975 0 -0.021387836773288975 0.022942221121336818 0 0 0 0.02365032585248401 0.023866908999857175 -0.018499358509059149 0 -0.018499358509059149 0.021243058481243866 0 0 0 0.011277491870275269 0.011274615236891064 -0.031292338049308394 0 -0.031292338049308394 0.022929068020925814 0 0 0 0.0085509208144542159 0.045245667905520967 -0.03098997117792629 0 -0.03098997117792629 0.05380822169051841 0 0 0 0.024763472399009834 0.062839460820610038 -0.019442943794332646 0 -0.019442943794332646 0.10428690252004164 0 0 0 0.041781590835162891 0.067645664319847226 0.013154253795461535 0 0.013154253795461535 0.086739184084194398 0 0 0 0.038596212101010392 0.051218796715094439 0.0078116515335091008 0 0.0078116515335091008 0.11495783434856843 0 0 0 0.041544157765915746 0.038190045162267705 0.0037807453932073298 0 0.0037807453932073298 0.070699124378187705 0 0 0 0.027222292385113811 0.020563244534930646 -0.018504964498246942 0 -0.018504964498246942 0.052906663879904003 0 0 0 0.018367477103708642 0.037910265288960548 -0.005717141806438529 0 -0.005717141806438529 0.052625390185060295 0 0 0 0.022633913868505162 0.0020625248621310988 0.014945287425587164 0 0.014945287425587164 0.061048106231499144 0 0 0 0.015777657773407533 -0.016558391919522492 0.00090824222169885727 0 0.00090824222169885727 0.03569019324810041 0 0 0 0.0047829503321445144 -0.040469766408815028 0.0082605581164958801 0 0.0082605581164958801 0.045221074937364714 0 0 0 0.0011878271321374423 -0.019030168102723954 -0.016777747078570764 0 -0.016777747078570764 0.017427240079562423 0 0 0 -0.00040073200579041068 -0.045565789873126678 -0.0088909365730287238 0 -0.0088909365730287238 0.018298004474484597 0 0 0 -0.0068169463496605132 -0.0083740842967516133 -0.013536526578201202 0 -0.013536526578201202 0.050252480721202419 0 0 0 0.010469599106112698 -0.041493457792113886 -0.027803925463698143 0 -0.027803925463698143 0.021763747353716285 0 0 0 -0.0049324276095993992 -0.075355011019674789 -0.022900993267146001 0 -0.022900993267146001 0.009526745730271069 0 0 0 -0.016457066322350944 -0.084399481024120829 -0.0067141736209227407 0 -0.0067141736209227407 0.0076595147773216299 0 0 0 -0.019184991561699796 -0.057232790457141247 -0.021084662765184198 0 -0.021084662765184198 0.019522578013170311 0 0 0 -0.0094275531109927202 -0.079190065217561473 0.0042383413366833822 0 0.0042383413366833822 0.017975012987257913 0 0 0 -0.015303763057575883 -0.052856138169085382 -0.00019432041358295737 0 -0.00019432041358295737 0.010153671590993396 0 0 0 -0.010675616644523017 -0.10411540432110031 0.014849929790296909 0 0.014849929790296909 0.0077589834780970035 0 0 0 -0.024089105210750833 -0.083327190478387214 0.0023964854893675502 0 0.0023964854893675502 0.026661030843799505 0 0 0 -0.014166539908646913 -0.085958888782622256 -0.0067427408483394513 0 -0.0067427408483394513 0.0099311475834935603 0 0 0 -0.019006935299782202 -0.12103210101001952 0.0025067072320494599 0 0.0025067072320494599 0.0074584736394413542 0 0 0 -0.028393406842644492 -0.11859322839136313 -0.0021003972714654928 0 -0.0021003972714654928 0.0046605270495871931 0 0 0 -0.028483175335444033 -0.17617354724959375 0.00051873515804106145 0 0.00051873515804106145 0.0049419294434605021 0 0 0 -0.042807904451533318 -0.12664162485591707 -0.0050194716471461398 0 -0.0050194716471461398 0.0027487542353024641 0 0 0 -0.030973217655153651 -0.17642961520189676 -0.0071866383185321967 0 -0.0071866383185321967 0.0032454219539070905 0 0 0 -0.043296048311997459 -0.13097238231461944 -0.00072014467019326789 0 -0.00072014467019326789 -0.0013533140257532064 0 0 0 -0.033081424085093132 -0.10196244307701369 -0.017051660798259524 0 -0.017051660798259524 0.0064380576061967495 0 0 0 -0.023881096367704295 -0.12040279778927546 -0.015812383199723751 0 -0.015812383199723751 0.0046945202037158573 0 0 0 -0.0289270693963899 0.052945691333550315 0.019371736856756441 0 0.019371736856756441 0.02263824574444178 0 0 0 0.018895984269498019 0.054780014982629195 0.020264018779403068 0 0.020264018779403068 0.027012870475741052 0 0 0 0.020448221364592553 0.058342398415045953 0.022250046945825601 0 0.022250046945825601 0.028063778677331001 0 0 0 0.021601544273094259 0.044459913277506244 0.019227333570133738 0 0.019227333570133738 0.03549500623101054 0 0 0 0.019988729877129182 0.033348069679441032 0.015208040495978015 0 0.015208040495978015 0.041183004362639296 0 0 0 0.018632768510520065 0.039083157363773956 0.016215641915343065 0 0.016215641915343065 0.024265695652881423 0 0 0 0.015837213254163856 0.027588631483519862 0.011446350466255469 0 0.011446350466255469 0.028847749510832583 0 0 0 0.0141090952485881 0.044826024280045632 0.017366612428797872 0 0.017366612428797872 0.026221727530629499 0 0 0 0.017761937952668786 0.035503908792850709 0.012125097326996563 0 0.012125097326996563 0.014340170975776903 0 0 0 0.012461019942156901 0.035581017596872259 0.01356070391064047 0 0.01356070391064047 0.023244659281196837 0 0 0 0.014706419219517283 0.035103679532270254 0.0097779810939957971 0 0.0097779810939957971 0.0068335138223670072 0 0 0 0.010484298338659319 0.041672554136632733 0.013932066745726099 0 0.013932066745726099 0.01561880789261804 0 0 0 0.014322840507312683 0.04371455022437979 0.011420385086291448 0 0.011420385086291448 0.0047904937669249158 0 0 0 0.012126260997826193 0.043920209102227346 0.01396082482178157 0 0.01396082482178157 0.014592880272024565 0 0 0 0.014628272343562988 0.050400739443206631 0.015443161308892474 0 0.015443161308892474 0.012996831627766971 0 0 0 0.0158493927677434 0.052889027135661792 0.0094732768253719367 0 0.0094732768253719367 0.0024755955642417199 0 0 0 0.013841155674975883 0.04683357898267234 0.0072320109154741415 0 0.0072320109154741415 0.0020476629982656433 0 0 0 0.012220310495234494 0.044803707196670622 -0.0033171415374233571 0 -0.0033171415374233571 -0.0070991642080202623 0 0 0 0.0094261357471626013 0.057379415976612502 0.0017504771928165859 0 0.0017504771928165859 0.0011599915429525848 0 0 0 0.014634851879891279 0.055243385845966629 0.0024549079433355877 0 0.0024549079433355877 4.7128165907777547e-05 0 0 0 0.013822628502968601 0.057264285516152487 0.012867722002639571 0 0.012867722002639571 0.010618795217930896 0 0 0 0.016970770183520868 0.042254793098968402 -0.0085696883850330981 0 -0.0085696883850330981 -0.0044845662790231992 0 0 0 0.009442556704986305 0.051685540277873275 -0.010911104559689234 0 -0.010911104559689234 -0.003655704733871033 0 0 0 0.012007458886000567 0.057406886476374881 -0.0035779191371534454 0 -0.0035779191371534454 0.0051175763708568231 0 0 0 0.01563111571180793 0.065414143554774998 -0.0070516165838978686 0 -0.0070516165838978686 0.010189037781388924 0 0 0 0.01890079533404098 0.076568118881323449 0.0044880078734159477 0 0.0044880078734159477 0.021411423198139101 0 0 0 0.024494885519865645 0.065581810657691905 0.014221697458848959 0 0.014221697458848959 0.012597207021890447 0 0 0 0.019544754419895602 0.074181700095214825 0.0089108865064275976 0 0.0089108865064275976 0.010202276229125572 0 0 0 0.0210959940810851 0.063320046766460289 0.012957588473964051 0 0.012957588473964051 0.018485870225160454 0 0 0 0.020451479247905188 0.080582314880750502 0.017234404813054681 0 0.017234404813054681 0.022233681673279951 0 0 0 0.025703999138507599 0.06808963884176325 0.027425341245679188 0 0.027425341245679188 0.049419719915258287 0 0 0 0.029377339689255398 0.10129327295702359 0.028182036119562392 0 0.028182036119562392 0.045204509802939469 0 0 0 0.036624445689990764 0.082323496379731548 0.027800580855839252 0 0.027800580855839252 0.073410897095901137 0 0 0 0.038933598368908168 0.063039783304712715 0.031884312809666866 0 0.031884312809666866 0.080032193580923561 0 0 0 0.035767994221409069 0.074922497945908426 0.025725966827534242 0 0.025725966827534242 0.051741139242397677 0 0 0 0.03166590929707655 0.098579908929932236 -0.0040441788834127274 0 -0.0040441788834127274 0.0354087131152237 0 0 0 0.033497155511289005 0.099644318177718696 0.0074465585798566825 0 0.0074465585798566825 0.061430357749768377 0 0 0 0.040268668981871744 0.10479545909112488 -0.021459350749228993 0 -0.021459350749228993 0.052304765402404085 0 0 0 0.039275056123382251 0.18128293403997267 -0.0094662185434879892 0 -0.0094662185434879892 0.094117705579253946 0 0 0 0.068850159904806668 0.11712087925367533 -0.0054065360012607172 0 -0.0054065360012607172 0.22245341526353318 0 0 0 0.084893573629302152 0.17094006193525638 0.079311263509730084 0 0.079311263509730084 0.15846631749027823 0 0 0 0.082351594856383631 0.085035904628400688 0.048207139406946986 0 0.048207139406946986 0.13705263357100694 0 0 0 0.055522134549851922 0.041858191357665261 0.022693935725004652 0 0.022693935725004652 0.075057789127029803 0 0 0 0.029228995121173787 0.081789662514460751 0.031773323390737324 0 0.031773323390737324 0.074537503391596677 0 0 0 0.039081791476514353 0.044239138301756617 -0.012346084022435172 0 -0.012346084022435172 0.15740845850526311 0 0 0 0.05041189920175497 0.031234090152439969 -0.012893977437445954 0 -0.012893977437445954 0.086837820462795867 0 0 0 0.029517977653808938 0.03214882765382783 -0.012907454753262815 0 -0.012907454753262815 0.093570647166367357 0 0 0 0.031429868705048797 0.04571132293950491 0.022653389070812283 0 0.022653389070812283 0.088375249438972153 0 0 0 0.033521643094619295 0.046503362061594791 0.021909903550845759 0 0.021909903550845759 0.048643728904455272 0 0 0 0.023786772741512547 0.039343658306556326 0.018356911813345599 0 0.018356911813345599 0.078390197916232862 0 0 0 0.029433464055697311 0.02719751055421623 0.010598963561393697 0 0.010598963561393697 0.051225109341516077 0 0 0 0.019605654973933094 0.037929464111155525 0.018509177658659549 0 0.018509177658659549 0.06250194015114735 0 0 0 0.025107851065575712 0.041751951624702952 0.0191259363634073 0 0.0191259363634073 0.034876143727982409 0 0 0 0.019157023838171326 0.051265981705065994 0.025712146768547772 0 0.025712146768547772 0.053088438935710448 0 0 0 0.026088605160194109 0.026547315189403124 0.012290612508463729 0 0.012290612508463729 0.037506477482262976 0 0 0 0.016013448167916531 0.026487863812257064 0.011214146674523643 0 0.011214146674523643 0.05449270062245079 0 0 0 0.020245141108676961 0.027259297980888331 -0.012128090326259982 0 -0.012128090326259982 0.059196952678367609 0 0 0 0.021614062664813985 0.019611546559317464 0.00024681216612926649 0 0.00024681216612926649 0.055527774804546508 0 0 0 0.018784830340965984 0.017357524507112317 0.002113897077651531 0 0.002113897077651531 0.047388751304831785 0 0 0 0.016186568952986029 0.02827376778630308 0.0076896070187324247 0 0.0076896070187324247 0.072428059549148521 0 0 0 0.025175456833862891 0.022335613351079132 -0.010673009792173492 0 -0.010673009792173492 0.045749381869108492 0 0 0 0.01702124880504691 0.021309778764312112 -0.010289705392903492 0 -0.010289705392903492 0.038471814909014704 0 0 0 0.014945398418331687 0.035661404600236229 -0.02188411004003453 0 -0.02188411004003453 0.042632998521225013 0 0 0 0.019573600780365297 0.030262593473069963 -0.020030104615005859 0 -0.020030104615005859 0.021380642881928175 0 0 0 0.012910809088749531 0.022221387975721086 -0.013329650317023899 0 -0.013329650317023899 0.018713257191934826 0 0 0 0.010233661291914003 0.036270301969016081 -0.020012485243328756 0 -0.020012485243328756 0.022608440030539967 0 0 0 0.014719685499889029 0.036552749398431589 -0.019388573355569635 0 -0.019388573355569635 0.023486978275498165 0 0 0 0.015009931918482437 0.028499094666196323 -0.014777961188681993 0 -0.014777961188681993 0.008618533968974551 0 0 0 0.0092794071587927185 0.055829562902098021 -0.0094187650793258106 0 -0.0094187650793258106 0.010933007148267893 0 0 0 0.016690642512591447 0.04577285397264623 -0.014135364431822096 0 -0.014135364431822096 0.0020543206798612212 0 0 0 0.011956793663126894 0.049919512309595196 -0.017623404834831116 0 -0.017623404834831116 0.008573388281278127 0 0 0 0.014623225147718313 0.067569074821206873 -0.031790625107037992 0 -0.031790625107037992 0.031107562983647107 0 0 0 0.024669159451213479 0.026720912768257239 -0.012682722704003191 0 -0.012682722704003191 0.059544382467425598 0 0 0 0.021566323808920717 0.040642273770545079 -0.025132236663472439 0 -0.025132236663472439 0.039663861617182987 0 0 0 0.020076533846932029 0.041192425609478639 -0.027771159903375975 0 -0.027771159903375975 0.049025718244486989 0 0 0 0.022554535963491395 0.04652877432193081 -0.034324716042276424 0 -0.034324716042276424 0.074780811724912535 0 0 0 0.030327396511710847 0.028745009688563805 -0.030108732775038047 0 -0.030108732775038047 0.099175732969740651 0 0 0 0.031980185664576166 0.055586935969927753 -0.029491813469066323 0 -0.029491813469066323 0.098922538239448188 0 0 0 0.038627368552343992 0.078730652686702512 -0.007019771253834451 0 -0.007019771253834451 0.28489722843778942 0 0 0 0.090906970281123017 0.068634966053272684 -0.010974686073189403 0 -0.010974686073189403 -0.010976517944601777 0 0 0 0.014414612027167734 0.090169592539456278 -0.048220445702115811 0 -0.048220445702115811 0.05918901397023324 0 0 0 0.037339651627422372 0.16049014013551338 0.10714608418689131 0 0.10714608418689131 0.18339226731871389 0 0 0 0.085970601863556803 0.087462353512337818 -0.069294507127750093 0 -0.069294507127750093 0.12112787450367328 0 0 0 0.052147557004002781 0.00569519831224162 0.0010630579783419041 0 0.0010630579783419041 0.015699952293762798 0 0 0 0.0053487876515011037 0.27280699427739924 0.086436443862453097 0 0.086436443862453097 0.050884944743069038 0 0 0 0.080922984755117 0.14212593729724224 0.022673882244209298 0 0.022673882244209298 0.027098167630820666 0 0 0 0.04230602623201566 0.013465764636805426 0.0026037066756181932 0 0.0026037066756181932 0.04045270393624769 0 0 0 0.013479617143263277 0.022799530213453073 0.0042061149786544738 0 0.0042061149786544738 0.035337896869367502 0 0 0 0.014534356770705109 0.14851525612493471 0.023850945853870247 0 0.023850945853870247 0.024222994038462176 0 0 0 0.043184562540849236 0.019507560590539267 0.0037239302831431047 0 0.0037239302831431047 0.058257523721077342 0 0 0 0.019441271077904151 0.033268121422987643 0.0080821757534310923 0 0.0080821757534310923 0.043056606041972478 0 0 0 0.019081181866240055 0.1111199394550112 0.022288327859870116 0 0.022288327859870116 0.016803112072799831 0 0 0 0.031980762881952784 0.055627320371997954 -0.016280725759409018 0 -0.016280725759409018 -0.0041182867885469487 0 0 0 0.012877258395862748 0.055409065830191277 0.004599143380595222 0 0.004599143380595222 0.026231035826997706 0 0 0 0.020410025414297275 0.054480021005732099 -0.0052326595600815373 0 -0.0052326595600815373 0.01899437688758937 0 0 0 0.01836859947333036 0.054391528564565146 -0.0017792139196249196 0 -0.0017792139196249196 0.012040781063850287 0 0 0 0.016608077407103829 0.04562298469669851 0.0045383211501975745 0 0.0045383211501975745 0.018872450461925427 0 0 0 0.01612385878965597 0.053609791966453491 0.0043294533324648166 0 0.0043294533324648166 0.045127774928818476 0 0 0 0.024684391723818033 0.050578309505680041 0.0079742541383762411 0 0.0079742541383762411 0.052426881347093057 0 0 0 0.025751297713193344 0.052548327116701321 0.0018110423066247244 0 0.0018110423066247244 0.01941024914994316 0 0 0 0.017989644066661148 0.10197104521391903 0.019055558327595312 0 0.019055558327595312 0.019449681319047007 0 0 0 0.030355181633241413 0.11045747188099131 0.012992257043630939 0 0.012992257043630939 0.048425103574921247 0 0 0 0.039720643863978222 0.13403044309024348 0.0093913182731299501 0 0.0093913182731299501 0.044706253820434139 0 0 0 0.044684174227669349 0.025068421388354176 0.0045165433826844202 0 0.0045165433826844202 0.075027309415647003 0 0 0 0.025023932701000295 0.12119034363586656 0.011799034703814716 0 0.011799034703814716 0.051515024156658651 0 0 0 0.043176341948131247 0.1109499484601737 0.008456121918338555 0 0.008456121918338555 0.050231837712379712 0 0 0 0.040295446543138436 0.091298573499001723 0.019988496042722792 0 0.019988496042722792 0.048909327439126571 0 0 0 0.035051975234532295 0.11726782158594173 0.010867415637799822 0 0.010867415637799822 0.064691927358437873 0 0 0 0.045489937236094846 0.064494998341689702 0.0079144787956392793 0 0.0079144787956392793 0.070354691736362496 0 0 0 0.033712422519513008 0.030787293744017161 0.0051171733402599045 0 0.0051171733402599045 0.092166923754245345 0 0 0 0.03073855437456563 0.098233567391311671 0.010482395160240854 0 0.010482395160240854 0.064930446585729329 0 0 0 0.040791003494260181 0.050869923862547357 0.0061555779568253366 0 0.0061555779568253366 0.033811037039122249 0 0 0 0.021170240225417365 0.046589974841155762 0.0028806997318252953 0 0.0028806997318252953 0.017426540428085113 0 0 0 0.016004128817310226 0.060009325346769837 0.0036532795511807215 0 0.0036532795511807215 0.060061514210530298 0 0 0 0.030017709889325062 0.052080605668724606 0.0037811298240020483 0 0.0037811298240020483 0.036030893809178566 0 0 0 0.022027874869475744 0.058470739980726605 0.0058626398705283224 0 0.0058626398705283224 0.039630661223278962 0 0 0 0.024525350301001364 0.044036697246153528 0.0022792142578858532 0 0.0022792142578858532 0.012321551009865636 0 0 0 0.01408956206400477 0.039750071078448412 0.0018295410480469454 0 0.0018295410480469454 0.014068980836015932 0 0 0 0.013454762978616086 0.046305640219406502 0.0025688308121019354 0 0.0025688308121019354 0.01312635038090515 0 0 0 0.014857997650077892 0.039623708333227391 -0.0053045622108868207 0 -0.0053045622108868207 0.0021526843468648305 0 0 0 0.010444098170023083 0.03861227142417753 -0.0016866781019877729 0 -0.0016866781019877729 0.0032592561768967077 0 0 0 0.010467881900268566 0.028383492538637117 -0.0034627429072612709 0 -0.0034627429072612709 0.00048843045393387463 0 0 0 0.0072179807481427549 0.031289826949655333 -0.0059402383716441742 0 -0.0059402383716441742 0.0022972097552484416 0 0 0 0.0083967591762259819 0.030301611549934548 -0.010061647822623782 0 -0.010061647822623782 0.0017545740126734266 0 0 0 0.0080140463906520076 0.034858949842686338 -0.0045321046264569231 0 -0.0045321046264569231 0.0027724791280939534 0 0 0 0.0094078572426950797 0.038673431104197631 -0.0085633191252461605 0 -0.0085633191252461605 0.0013109593899487404 0 0 0 0.0099960976235365928 0.028399925218611038 -0.011053311973737143 0 -0.011053311973737143 0.00036388303388890098 0 0 0 0.0071909520631250057 0.037895446992378568 -0.014165051969933631 0 -0.014165051969933631 0.0057140555796815484 0 0 0 0.010902375643015022 0.028828074310226104 -0.014285322463633676 0 -0.014285322463633676 0.0086127051724467218 0 0 0 0.0093601948706682064 0.040159279584961891 -0.0093531546143682254 0 -0.0093531546143682254 0.0013847781803205117 0 0 0 0.010386014441320562 0.044776928238618584 -0.0024637090608896628 0 -0.0024637090608896628 0.0028134339056904711 0 0 0 0.011897590536077245 0.047775482908493809 -0.0044024402713021826 0 -0.0044024402713021826 0.0066615545005098559 0 0 0 0.013609259352250904 -0.10442417652146807 0.0071869399931991929 0 0.0071869399931991929 0.00026765389408756057 0 0 0 -0.026039130656845044 -0.1272892975754023 0.011612812359047368 0 0.011612812359047368 0.0021465727521898792 0 0 0 -0.031285681205803217 -0.088570999863044064 0.028385780045780185 0 0.028385780045780185 0.0097665934000801258 0 0 0 -0.019701101615741012 -0.15941948428461394 0.011051212590306614 0 0.011051212590306614 0.0024572485504545938 0 0 0 -0.039240558933539837 -0.15967883110577563 0.0075489237590321556 0 0.0075489237590321556 0.0055401151633214241 0 0 0 -0.038534678985613524 -0.099983361021838829 0.0073310788242570979 0 0.0073310788242570979 0.0013764323307906834 0 0 0 -0.024651732172762092 -0.10715980302698405 0.013546508209725583 0 0.013546508209725583 0.0025707998041837321 0 0 0 -0.026147250805700017 -0.078070491148313548 0.026942758181539933 0 0.026942758181539933 0.015324940353711014 0 0 0 -0.015686387698650717 -0.0490933374944722 0.02611863092710219 0 0.02611863092710219 0.014814872022534509 0 0 0 -0.0085696163679844783 -0.032577772397238247 0.035932719850323869 0 0.035932719850323869 0.031221784281214027 0 0 0 -0.00033899702900608286 -0.049042158969079708 0.022138786919859599 0 0.022138786919859599 0.0034337744178098983 0 0 0 -0.011402096137817397 -0.042755517727300685 0.039169679684463499 0 0.039169679684463499 0.012896306466547269 0 0 0 -0.0074648028151883539 -0.068649399977064651 0.020388863334596441 0 0.020388863334596441 0.00063149420427954794 0 0 0 -0.017004476443196248 -0.030929942761267981 0.030609419444412755 0 0.030609419444412755 0.0034808719776516228 0 0 0 -0.0068622676959040896 0.035472027217970242 0.048561533876282148 0 0.048561533876282148 0.012931047656023931 0 0 0 0.012100768718498606 0.0024657969786687772 0.037794224940545434 0 0.037794224940545434 0.0096683247308235742 0 0 0 0.0030335304273729768 0.051331063808764343 0.056757821423512808 0 0.056757821423512808 0.03371568133201186 0 0 0 0.021261686285194092 0.0017979440345428643 0.04182958950479515 0 0.04182958950479515 0.011827952045439183 0 0 0 0.0034064740199956089 -0.04261514199410088 0.018842450052923898 0 0.018842450052923898 0.016350446491246062 0 0 0 -0.0065661738757137877 -0.008426600686275109 0.040234235268511442 0 0.040234235268511442 0.046860179964646323 0 0 0 0.0096083948195928477 0.001393214310865816 0.030955765848264816 0 0.030955765848264816 0.032273843316082018 0 0 0 0.0084167644067369499 0.041428620636559554 0.051855476601669948 0 0.051855476601669948 0.075385397470620896 0 0 0 0.029203504526795154 0.056831889752819775 0.056459664402821005 0 0.056459664402821005 0.12479722831044193 0 0 0 0.045407279515815413 0.093851715714906414 0.066466280743006367 0 0.066466280743006367 0.043538519475060156 0 0 0 0.034347558797491629 0.1059314508245961 0.061173262424495944 0 0.061173262424495944 0.045730200158874024 0 0 0 0.037915412745867461 0.06104086719590196 0.037916678597947118 0 0.037916678597947118 0.01275382401851588 0 0 0 0.018448672803604516 0.085296785093208038 0.046484621550292482 0 0.046484621550292482 0.017377164528738165 0 0 0 0.025668487405486662 0.10554921523472116 0.019958593268882385 0 0.019958593268882385 0.019123457681353706 0 0 0 0.031168168229018689 0.051549475305130904 0.032228820710613504 0 0.032228820710613504 0.0061330802454351019 0 0 0 0.01442063888764147 0.052833179169589739 0.038272876838682635 0 0.038272876838682635 0.0057920964791220442 0 0 0 0.01465631891217789 0.083264386991425354 0.025084382240326886 0 0.025084382240326886 0.016727378027599826 0 0 0 0.024997941254756295 0.081839695876807061 0.023449459687462815 0 0.023449459687462815 0.020969568920967019 0 0 0 0.02570231619944352 0.085342199367361427 0.018373633855177818 0 0.018373633855177818 0.026600190965836212 0 0 0 0.027985597583299437 0.072596509685515453 0.026239255748766011 0 0.026239255748766011 0.022356434999541985 0 0 0 0.023738236171264582 0.051852846637427064 0.029041569417373361 0 0.029041569417373361 0.010852693966563187 0 0 0 0.015676385150997563 0.051515928083034845 0.034785797549160113 0 0.034785797549160113 0.0062482947716078208 0 0 0 0.014441055713660611 0.017676189551023555 0.02963110520011436 0 0.02963110520011436 0.0041064353258616071 0 0 0 0.0054456562192212038 0.021442614825186612 0.033684743920669113 0 0.033684743920669113 0.0046776951365736785 0 0 0 0.0065300774904399894 0.016473613285256095 0.031398771926998359 0 0.031398771926998359 0.0036859584066060158 0 0 0 0.0050398929229655831 -0.01604042146943585 0.035937838406478156 0 0.035937838406478156 0.0026911896330394924 0 0 0 -0.003337307959099034 0.019201739664424067 0.038128937622421755 0 0.038128937622421755 0.0038640567410699322 0 0 0 0.005766449101373583 0.029703882863930886 0.030517599103639492 0 0.030517599103639492 0.0010836259422166705 0 0 0 0.0076968772015366671 -0.0037412379052037537 0.033052930140880787 0 0.033052930140880787 0.0012792121122475741 0 0 0 -0.00061550644823893386 -0.014527226455214204 0.041634259703238363 0 0.041634259703238363 0.0052640206390752731 0 0 0 -0.0023158014540346494 -0.038823823844281846 0.025372587976742467 0 0.025372587976742467 -0.0012866851799162582 0 0 0 -0.010027627256049221 -0.050901252345752712 0.033193875783746885 0 0.033193875783746885 0.0052832622135974283 0 0 0 -0.011404497533038738 -0.046063952592065194 0.021193217321465091 0 0.021193217321465091 9.508513422717968e-05 0 0 0 -0.011492216864459559 -0.044631725186892679 0.032501462358613065 0 0.032501462358613065 0.0011659340137404328 0 0 0 -0.010866447793288103 -0.014958455373449531 0.032450290792580105 0 0.032450290792580105 -0.00088515936423516628 0 0 0 -0.0039609036844211465 -0.011593340861853901 0.035241030403433626 0 0.035241030403433626 -0.0045232946502718474 0 0 0 -0.0040291588780315413 -0.029207520222424899 0.026887383484179295 0 0.026887383484179295 0.0019368578481393506 0 0 0 -0.0068176655935714425 -0.041075789260385798 0.02223649219356405 0 0.02223649219356405 -0.002019231831180246 0 0 0 -0.010773755272891594 -0.055887514875494038 0.02697444425430312 0 0.02697444425430312 0.0014084074305569239 0 0 0 -0.013619776861234278 -0.079313243731368832 0.0099413322043689582 0 0.0099413322043689582 4.9519066302572412e-05 0 0 0 -0.019815931166266676 -0.046930974396463321 0.010454091277134037 0 0.010454091277134037 0.0023133387345839473 0 0 0 -0.011154408915469927 -0.064819070855778205 0.010708343581220303 0 0.010708343581220303 0.0025060107354930583 0 0 0 -0.015578265030071203 -0.1075891699099234 0.0092737692723588224 0 0.0092737692723588224 6.3889932009342232e-05 0 0 0 -0.026881319994478181 -0.081353832885539656 0.022785196120304829 0 0.022785196120304829 0.0019947990349185041 0 0 0 -0.019839758462655066 -0.078893707641662592 0.011960937582992326 0 0.011960937582992326 -0.0009606915303805863 0 0 0 -0.019963599793010767 -0.012091445976139231 0.011792928846476647 0 0.011792928846476647 0.004170798165596179 0 0 0 -0.0019801619526356451 -0.03232133073072041 0.0091256305502904755 0 0.0091256305502904755 -0.0027489439042565067 0 0 0 -0.0087675686587445067 -0.015378522912790071 0.016528637667550194 0 0.016528637667550194 0.0014835146517864217 0 0 0 -0.0034737520652510234 -0.040047627527966867 0.0095499610106759922 0 0.0095499610106759922 0.0021274549550209798 0 0 0 -0.0094800431432366938 -0.037707777565917366 0.0077049982564778574 0 0.0077049982564778574 0.00044635521944957901 0 0 0 -0.0093153555866172244 -0.061619745110053525 0.0099764863317740593 0 0.0099764863317740593 0.00040638006973470198 0 0 0 -0.015303341260079373 -0.052201368160680772 0.018179535747098186 0 0.018179535747098186 -0.0010322864524967557 0 0 0 -0.013308413653294382 -0.040051042913157309 0.016158733611991938 0 0.016158733611991938 -0.00042102915436004196 0 0 0 -0.010118018016879171 -0.026495076410526064 0.025851666432810033 0 0.025851666432810033 -0.00068679066992238802 0 0 0 -0.006795466770112224 -0.024029049703094163 0.019709826259578733 0 0.019709826259578733 0.0029923102576470129 0 0 0 -0.0052591848613621206 -0.014298039531225992 0.023039242653066838 0 0.023039242653066838 -0.00041699201396472318 0 0 0 -0.0036787578862975678 -0.0037208282912351009 0.022253780164776416 0 0.022253780164776416 0.0023022581314506851 0 0 0 -0.00035464253994588191 -0.0032409324394850891 0.020716298881402473 0 0.020716298881402473 0.0010228434430707978 0 0 0 -0.00055452224910390591 -0.0187343286898769 0.023432164475404527 0 0.023432164475404527 0.00061992379367636907 0 0 0 -0.0045286012240501883 -0.00138779198015615 0.022107906577508718 0 0.022107906577508718 0.0019431508183647139 0 0 0 0.00013883970955208547 0.019622792144917689 0.023028205867915916 0 0.023028205867915916 0.0049794598425760839 0 0 0 0.0061505629968734432 0.020900139913303972 0.024318398416757647 0 0.024318398416757647 0.0083286712072045965 0 0 0 0.0073072027801273087 0.037481675025954786 0.023825397616400457 0 0.023825397616400457 0.0094036051731336556 0 0 0 0.01172132004977211 -0.0018707460708677903 0.027648434705365821 0 0.027648434705365821 0.001226947286382174 0 0 0 -0.00016094969612168164 -0.004665444945787911 0.031912386430874795 0 0.031912386430874795 -0.0012470713828767188 0 0 0 -0.0014781290821659354 0.016364048884176252 0.026109340832340955 0 0.026109340832340955 0.0027983101217037287 0 0 0 0.004790589751469676 0.014948353186057748 0.024736829739870458 0 0.024736829739870458 0.005246095423437843 0 0 0 0.0050486121523736754 0.032903993178110838 0.031253785614206109 0 0.031253785614206109 0.0060786854941317081 0 0 0 0.0097456696680609661 0.017911362685198107 0.026891912164298426 0 0.026891912164298426 0.0083184083269394193 0 0 0 0.0065574427530341595 0.052225387275593171 0.020858589767853264 0 0.020858589767853264 0.020656967117904379 0 0 0 0.018220588598373999 0.051932130399657828 0.02358803910307361 0 0.02358803910307361 0.02370957064000434 0 0 0 0.018910425259915487 0.047268906724179383 0.026595578555711603 0 0.026595578555711603 0.010330289944857185 0 0 0 0.014399799167259086 0.062313139594698308 0.025651220955002607 0 0.025651220955002607 0.024653416609127898 0 0 0 0.021741639050956385 0.080926029508341379 0.014062391248286343 0 0.014062391248286343 0.049168542548340355 0 0 0 0.032523643014170656 0.063465185992443107 0.018007353309638208 0 0.018007353309638208 0.028267735423754381 0 0 0 0.022933230354049483 0.072057482318792498 0.022110841429131112 0 0.022110841429131112 0.049100887641326363 0 0 0 0.030289592490029271 0.041998270742653387 0.028099767860966907 0 0.028099767860966907 0.017939133586263978 0 0 0 0.014984351082229175 0.051025257253918932 0.02336198442512788 0 0.02336198442512788 0.026717608335249388 0 0 0 0.019435716397292024 0.080231338224786342 0.0095248608855857952 0 0.0095248608855857952 0.042732097958969817 0 0 0 0.03074085904593904 0.055831698581452205 0.0042854616432996817 0 0.0042854616432996817 0.027673348105257567 0 0 0 0.020876261671677554 0.088992029091415153 0.017048859943384009 0 0.017048859943384009 0.044424778780412177 0 0 0 0.033354201967956826 0.070489214792509802 0.0092119979155562692 0 0.0092119979155562692 0.029272013876112446 0 0 0 0.024940307167155229 0.098004860119432102 -0.0060236429406406167 0 -0.0060236429406406167 0.054976140409897845 0 0 0 0.038245250132332487 0.10750135915958348 0.01018148294349297 0 0.01018148294349297 0.055309026057458688 0 0 0 0.040702596304260208 0.077072219242018958 -0.0077109507021830836 0 -0.0077109507021830836 0.013619002637284714 0 0 0 0.022672805469826363 0.044931346010322226 0.00049539127574860231 0 0.00049539127574860231 0.014630765482259278 0 0 0 0.014890527873145043 0.01877134827217386 0.013305831230416176 0 0.013305831230416176 -0.0027440991717533336 0 0 0 0.0040068122751051316 0.018349537841461316 0.0076511454213551312 0 0.0076511454213551312 -0.0040095304637643991 0 0 0 0.0035850018444243403 0.036916894222554397 0.0052904384758467593 0 0.0052904384758467593 -0.013479399658261393 0 0 0 0.0058593736410732511 0.019474270428882612 0.019846173198155848 0 0.019846173198155848 0.0020214063935863891 0 0 0 0.0053739192056172502 0.045208268179606659 0.015612795298782567 0 0.015612795298782567 0.009763233915799141 0 0 0 0.013742875523851339 0.021886976345807385 0.017231441073579656 0 0.017231441073579656 0.0080952300642960218 0 0 0 0.0074955516025256852 0.044253757375194991 0.018546422983283462 0 0.018546422983283462 0.013200487737314415 0 0 0 0.014363561278127324 0.0013254305857999249 0.019300617682597054 0 0.019300617682597054 -0.00059905003091387243 0 0 0 0.00018159513872184618 -0.015826686050485511 0.014113136709384522 0 0.014113136709384522 -0.0021363710177895179 0 0 0 -0.0044907642670689307 0.0031670300120709705 0.013162981929593087 0 0.013162981929593087 -0.0027105568609275821 0 0 0 0.00011411828778618016 -0.0032050271197672231 0.013625185458540079 0 0.013625185458540079 0.0018126861551426288 0 0 0 -0.00034808524115614858 0.0023389725921103555 0.014446052022865086 0 0.014446052022865086 -0.0072721055015225744 0 0 0 -0.0012332832273533878 0.00626442973298591 0.0066499084965587762 0 0.0066499084965587762 -0.016877566091349827 0 0 0 -0.0026532840895909793 0.0027264442672913472 0.0046070068504002748 0 0.0046070068504002748 -0.0092319519839622697 0 0 0 -0.0016263769291673974 0.010092440195694774 0.0076986675906067781 0 0.0076986675906067781 -0.0043622248822563492 0 0 0 0.0014325538283599393 0.00200498716644959 0.0088679170553183084 0 0.0088679170553183084 -0.0054471506419542237 0 0 0 -0.00086054086887621395 -0.0029327265390457491 0.0063751183289133539 0 0.0063751183289133539 -0.0031311394785991098 0 0 0 -0.0015159665044115478 0.002723648238537546 0.0028610541693900871 0 0.0028610541693900871 -0.0018733095567444735 0 0 0 0.00021258467044793505 0.00093360230943195788 0.0018612891194189629 0 0.0018612891194189629 -7.6140780477906844e-05 0 0 0 0.00021436538223795765 -0.00085947295784105648 0.0023497034006043334 0 0.0023497034006043334 -0.00061698208750904371 0 0 0 -0.00036911376133774709 0.00074722609584015887 0.0041458098147169054 0 0.0041458098147169054 0.0028360275279200042 0 0 0 0.00089581340594008241 -0.0088797569922498543 0.0060688846567888378 0 0.0060688846567888378 0.0035044585866526035 0 0 0 -0.0013438246013992572 -0.0080950740646268393 0.0066838787549541312 0 0.0066838787549541312 -0.00074918215118735532 0 0 0 -0.0022110640539541038 -0.023527681942838941 0.0073435760592849989 0 0.0073435760592849989 -0.0014467654962455612 0 0 0 -0.0062436118597708479 0.031689600794540307 0.00039155195335854875 0 0.00039155195335854875 0.0053755860505351194 0 0 0 0.0092662967112688288 0.049842842277430688 0.0031287671971417241 0 0.0031287671971417241 0.026676698456284731 0 0 0 0.019129885183428952 0.052494142658553067 0.0060911143728134068 0 0.0060911143728134068 0.022141492288526576 0 0 0 0.018658908736769841 0.04182651949530973 0.0078418567648211035 0 0.0078418567648211035 0.010957866957569923 0 0 0 0.013196096613219844 0.026994746928149405 0.0031140378760280973 0 0.0031140378760280973 -0.0026088137775345244 0 0 0 0.0060964832876537201 0.01785410095954662 -0.0005347797439836377 0 -0.0005347797439836377 -0.0019642292001894046 0 0 0 0.0039724679398392693 0.018420183207160878 -0.0046314157122464006 0 -0.0046314157122464006 -0.0056166544925699835 0 0 0 0.0032008821786476127 0.027648837268300475 -0.0012486876043628567 0 -0.0012486876043628567 0.00080669402626876163 0 0 0 0.0071138828236422813 0.020799333599777259 -0.004002016730517241 0 -0.004002016730517241 0.00046662766971372616 0 0 0 0.0053164903173727185 0.021850247990435327 -0.0047969583311766872 0 -0.0047969583311766872 0.00047125280166700201 0 0 0 0.0055803751980256153 0.037904071155085844 0.001295264634173135 0 0.001295264634173135 0.0064283576237772477 0 0 0 0.01108310719471578 0.036606590238936809 0.00086650873848764516 0 0.00086650873848764516 0.0060293226420116142 0 0 0 0.010658978220237147 0.028247118708877986 0.0026095849968844065 0 0.0026095849968844065 0.0060115749476550018 0 0 0 0.0085646734141332642 0.041415700304361536 0.0052631428962539462 0 0.0052631428962539462 0.02023084150413923 0 0 0 0.01541163545212515 0.047307887074136523 0.0048782400112167834 0 0.0048782400112167834 0.01945443467354413 0 0 0 0.016690580436920233 0.05506138659931889 0.0045621885448217103 0 0.0045621885448217103 0.042689135239560638 0 0 0 0.024437630459719889 0.070602867501355387 0.00435211865219573 0 0.00435211865219573 0.077813978917861404 0 0 0 0.037104211604804233 0.084067228207218458 0.0035287877396625311 0 0.0035287877396625311 0.092232872213123929 0 0 0 0.044075025105085597 0.068756980526567757 0.0076684341545256718 0 0.0076684341545256718 0.04762003382463359 0 0 0 0.029094253587800378 0.095669767589172894 0.021114809284153546 0 0.021114809284153546 0.059696174545030622 0 0 0 0.038841485533551046 0.12060914015956792 0.0079508657311749779 0 0.0079508657311749779 0.087747545866061927 0 0 0 0.05208917150640735 0.082331407790153854 0.0076758623984772012 0 0.0076758623984772012 0.082796740772043464 0 0 0 0.041282037140549344 0.036727481366801824 0.0055512242904747289 0 0.0055512242904747289 0.10996329843619815 0 0 0 0.036672694950749984 0.085975871185041797 0.017876908453089424 0 0.017876908453089424 0.046009026405475328 0 0 0 0.032996224397629392 0.10186427282812982 0.013243299618785009 0 0.013243299618785009 0.091307362468441067 0 0 0 0.048292908824142833 0.10140093979100381 0.0058143368047844923 0 0.0058143368047844923 0.084841149983720943 0 0 0 0.046560522443680891 0.042966277668320854 0.0058018492983731296 0 0.0058018492983731296 0.1287251916471216 0 0 0 0.042922867328860609 0.10260411896332614 0.0078450509406641222 0 0.0078450509406641222 0.097180533387477674 0 0 0 0.049946163087700973 0.12098356402761024 0.012355285466792801 0 0.012355285466792801 0.093990001113854582 0 0 0 0.053743391285366204 0.04967203058279003 0.0059283949946144984 0 0.0059283949946144984 0.14855937093163357 0 0 0 0.049557850378605897 0.09756408295139507 0.018823042605053075 0 0.018823042605053075 0.080741836785012566 0 0 0 0.044576479934101743 0.062097001251856215 0.0060598690387925203 0 0.0060598690387925203 0.05155873632844532 0 0 0 0.028413934395075308 0.096705933833930696 0.0070034583194862887 0 0.0070034583194862887 0.10181043368873133 0 0 0 0.049629091880665527 0.066096689855159041 0.012610411081262263 0 0.012610411081262263 0.037852930366841009 0 0 0 0.025987405055500068 0.081089514909144012 0.0042586010831663079 0 0.0042586010831663079 0.053788392053923495 0 0 0 0.033719476740766918 0.093385149639581 0.014958636022800009 0 0.014958636022800009 0.055055959644769434 0 0 0 0.037110277321087515 0.070260505717388899 0.0030820601792802271 0 0.0030820601792802271 0.042372991605426291 0 0 0 0.028158374330703728 0.12745729702441128 0.010114723926229752 0 0.010114723926229752 0.10551270836067128 0 0 0 0.058242501346270681 0.11887974030171203 0.0025757624948594682 0 0.0025757624948594682 0.11688881789647598 0 0 0 0.058942139549546996 0.10680125549955155 -0.0011881280915000403 0 -0.0011881280915000403 0.062975832891052574 0 0 0 0.042444272097651115 0.13155840227491411 0.0018092803732800977 0 0.0018092803732800977 0.11440704755039377 0 0 0 0.061491362456326915 0.056405673185585141 0.0058198438949063729 0 0.0058198438949063729 0.16962693786374861 0 0 0 0.056508152762333438 0.16354857225130209 0.0083622505802226077 0 0.0083622505802226077 0.12451053982463167 0 0 0 0.072014778018983427 0.14845781814717318 0.013056062021870929 0 0.013056062021870929 0.12004570551150984 0 0 0 0.067125880914670866 0.11597574355788118 -0.0012399604664277142 0 -0.0012399604664277142 0.097608124052098066 0 0 0 0.05339596690249479 0.13704755357129073 0.016266924495979662 0 0.016266924495979662 0.10944077154432286 0 0 0 0.061622081278902785 0.06552178634526995 0.0058369065873418845 0 0.0058369065873418845 0.1933594682250058 0 0 0 0.06472031364256893 0.19699767456862927 0.00066415736363545363 0 0.00066415736363545363 0.13471993831810813 0 0 0 0.082929403221683851 0.15055190708086938 -0.01457744433038588 0 -0.01457744433038588 0.11299039043288919 0 0 0 0.065885574378439421 0.077560011527826378 0.015352052831880014 0 0.015352052831880014 0.022141088639357598 0 0 0 0.024925275041795925 0.13432682999002804 0.015819409674448892 0 0.015819409674448892 0.11953228773741875 0 0 0 0.063464779431861795 0.18851947608446462 0.00056781433445207696 0 0.00056781433445207696 0.12830674162903355 0 0 0 0.079206554428374543 0.13513925523640768 0.021908647747707843 0 0.021908647747707843 0.096395746030585761 0 0 0 0.057883750316748306 0.10114679644970132 -0.0052844906342072451 0 -0.0052844906342072451 0.029165256056489008 0 0 0 0.032578013126547567 0.026365892242162986 0.0059080108609452231 0 0.0059080108609452231 -0.025109670947343843 0 0 0 0.00031405532370476497 0.060012389431488899 0.014527347975339056 0 0.014527347975339056 -0.0087579708604097473 0 0 0 0.01281360464276976 0.045540493189543355 -0.00047308539490004131 0 -0.00047308539490004131 -0.051852403644266694 0 0 0 -0.0015779776136808207 0.048248928931962629 0.0021517521712171028 0 0.0021517521712171028 0.014108227878535412 0 0 0 0.015589289202624521 0.039790605603363255 0.0020269492529920163 0 0.0020269492529920163 -0.01826736112022076 0 0 0 0.0053808111207856169 0.032022910060626519 0.0045913491009347829 0 0.0045913491009347829 -0.0074652189238234579 0 0 0 0.0061394227842007654 0.037994804604022436 0.0023268985209359272 0 0.0023268985209359272 0.01040680633295854 0 0 0 0.012100402734245286 0.05569927317037876 0.011292042852899226 0 0.011292042852899226 0.012998282399519612 0 0 0 0.017174388892474524 0.017203033316021021 0.00081307706900035637 0 0.00081307706900035637 -0.018926560884760052 0 0 0 -0.00043088189218470907 0.019353814000991384 0.0011436327948924352 0 0.0011436327948924352 -0.0051043150983055979 0 0 0 0.0035623747256714328 0.018710027189009937 0.0049065240789863962 0 0.0049065240789863962 -0.027306552980634446 0 0 0 -0.0021491314479060719 0.022819860164715988 0.00081595996869276988 0 0.00081595996869276988 -0.01003455154677646 0 0 0 0.0031963271544849237 0.013012359897244197 -0.0016098488179717152 0 -0.0016098488179717152 -0.021523536448436964 0 0 0 -0.0021277941377982335 0.018122017918399957 -0.0038982784815707466 0 -0.0038982784815707466 -0.039149840885079223 0 0 0 -0.0052569557416697332 0.0140258777273651 0.0010206407465157552 0 0.0010206407465157552 -0.070831112810308836 0 0 0 -0.014201308770735976 0.014004783736424109 -0.002873730824592996 0 -0.002873730824592996 -0.043508250904551016 0 0 0 -0.0073758667920318377 0.011101725612407364 -0.0032555009322960959 0 -0.0032555009322960959 -0.073070776370905782 0 0 0 -0.015492262689624548 0.011467003310523027 0.0017231548233910543 0 0.0017231548233910543 -0.044802804272501384 0 0 0 -0.0083339502404946031 0.0087347756824385225 -0.0062848867999251712 0 -0.0062848867999251712 -0.028778914673754374 0 0 0 -0.0050110347478289352 0.010528247128599899 -0.00097609319770255998 0 -0.00097609319770255998 -0.043740941317295112 0 0 0 -0.0083031735471736923 0.039901033342310294 -0.011463135878040098 0 -0.011463135878040098 -0.025799292790530705 0 0 0 0.0035254351379449245 0.029756927995495175 -0.00014299018033975264 0 -0.00014299018033975264 -0.056374594318944204 0 0 0 -0.0066544165808622435 0.018082418264056488 -0.0071039647130009195 0 -0.0071039647130009195 -0.03120821576176569 0 0 0 -0.0032814493744273698 0.029827126788575797 -0.0053008621063468375 0 -0.0053008621063468375 0.0015588212193806683 0 0 0 0.0078464870019891997 0.022454606398270766 -0.004715822275617565 0 -0.004715822275617565 -0.027463184049834277 0 0 0 -0.0012521444128909542 0.019051187964752692 -0.0060212231126682281 0 -0.0060212231126682281 -0.0095949230005533126 0 0 0 0.0023640662410498448 0.022250601454712589 -0.0074474846931267824 0 -0.0074474846931267824 0.0048515688449501659 0 0 0 0.0067755425749157008 0.032283260229574423 -0.010577483890995443 0 -0.010577483890995443 -0.0015328869370201947 0 0 0 0.0076875933231385363 0.016092111678606025 -0.0024248085996809721 0 -0.0024248085996809721 -0.023109531184980714 0 0 0 -0.0017543548765937 0.015337343817300342 -0.0063609561224188538 0 -0.0063609561224188538 -0.010617167806667327 0 0 0 0.0011800440026582537 0.010322443099408773 -0.0049456641825068037 0 -0.0049456641825068037 -0.012344866244177299 0 0 0 -0.00050560578619207597 0.017143008468711252 -0.0028985201059276988 0 -0.0028985201059276988 -0.0089697273846879311 0 0 0 0.0020433202710057885 0.016568607870261598 -0.0049040037646436163 0 -0.0049040037646436163 -0.0020182239126107504 0 0 0 0.0036375959894127119 0.017669805084907897 -0.0062609241915969893 0 -0.0062609241915969893 -0.0039027025498916679 0 0 0 0.003441775633754085 0.015940513105931253 -0.0073176962133316703 0 -0.0073176962133316703 0.00041312833547890726 0 0 0 0.0040884103603525679 0.012718741797805154 -0.0049860561775594836 0 -0.0049860561775594836 -0.0053267883736650701 0 0 0 0.0018479883560350227 0.017985131095082624 -0.0082688856975853819 0 -0.0082688856975853819 -0.0025878303306889894 0 0 0 0.0038493251910983461 0.015567445678114633 -0.0091753657388479737 0 -0.0091753657388479737 -0.0041261356607786848 0 0 0 0.0028603275043340703 0.023437162290231628 -0.011175017264804743 0 -0.011175017264804743 0.0041119448987716467 0 0 0 0.0068872767972508186 0.028494271860353526 -0.0094625730487840343 0 -0.0094625730487840343 0.01805132617185301 0 0 0 0.011636399508051565 0.019831916106255509 -0.0087324595857475873 0 -0.0087324595857475873 0.005260010685292249 0 0 0 0.0062729816978869812 0.017638771740676712 -0.010084846226046662 0 -0.010084846226046662 0.0045436973383878865 0 0 0 0.0055456172697661288 0.019757685451762041 -0.011209137116582897 0 -0.011209137116582897 0.0064206151209029727 0 0 0 0.0065445751431662536 0.023110100239505264 -0.01121797632707644 0 -0.01121797632707644 0.017211327231133028 0 0 0 0.010080356867659589 0.020429593931246392 -0.011898911306662291 0 -0.011898911306662291 0.0060213636883768018 0 0 0 0.0066127394049057923 0.018293954146504726 -0.010430129060863234 0 -0.010430129060863234 0.0012170635432053878 0 0 0 0.0048777544224275216 0.024207688976380731 -0.0084724206038399585 0 -0.0084724206038399585 0.0016453453287219588 0 0 0 0.0064632585762757211 0.017315479658861401 -0.0071898795480153654 0 -0.0071898795480153654 -0.00054705470002994888 0 0 0 0.0041921062397078622 0.021818623360032763 -0.0051538516629476006 0 -0.0051538516629476006 -0.00026155026629681721 0 0 0 0.0053892682734340558 0.019573644139579481 -0.0085722531806984303 0 -0.0085722531806984303 0.0010512134851379806 0 0 0 0.0051562144061793255 0.049318483641411892 -0.01347142876405738 0 -0.01347142876405738 0.047177062567523409 0 0 0 0.024123886552233853 0.019018969670463383 -0.0085105219755590902 0 -0.0085105219755590902 0.056949833528576674 0 0 0 0.018992200799760016 0.060413400017246988 -0.012128874538423262 0 -0.012128874538423262 0.041670651658963997 0 0 0 0.025521012919052732 0.038709255711752238 -0.011509574058048588 0 -0.011509574058048588 0.04135076031110374 0 0 0 0.020015004005714016 0.027716206119201559 -0.009774229765178194 0 -0.009774229765178194 0.03893493291534017 0 0 0 0.016662784758635474 0.02198822651761087 -0.013716457384367109 0 -0.013716457384367109 0.01589285218007952 0 0 0 0.009470269674422549 0.024480937918867601 -0.012084026604242376 0 -0.012084026604242376 0.022367570680792537 0 0 0 0.011712127149915041 0.028420168210012808 -0.010605395801343565 0 -0.010605395801343565 0.015435990498253171 0 0 0 0.01096403967706655 0.042800374201103941 -0.0071018814630263993 0 -0.0071018814630263993 0.046854032011597713 0 0 0 0.022413601553175455 0.033817031727409574 -0.012426566993359103 0 -0.012426566993359103 0.031190606622264028 0 0 0 0.016251909587418401 0.046628509257049491 -0.0080907312587754632 0 -0.0080907312587754632 0.030832269988966821 0 0 0 0.019365194811504075 0.036320288580296123 -0.013832803889589823 0 -0.013832803889589823 0.018262104478223629 0 0 0 0.01364559826462991 0.055325356302694334 -0.009984386368636522 0 -0.009984386368636522 0.056827293351821795 0 0 0 0.028038162413629081 0.077715825774194114 -0.010714331240713195 0 -0.010714331240713195 0.057500751071231537 0 0 0 0.033804144211356468 0.05302018421147181 -0.010054683140531817 0 -0.010054683140531817 0.044006704829305798 0 0 0 0.024256722260194485 0.051899270369424967 -0.017947871774408042 0 -0.017947871774408042 0.043073993305805469 0 0 0 0.023743315918807607 0.027213166512353698 -0.0088004445673348884 0 -0.0088004445673348884 0.081440552068784422 0 0 0 0.027163429645284537 0.056926663687662804 -0.011284895855569299 0 -0.011284895855569299 0.052346056273279817 0 0 0 0.027318179990235669 0.063129881582296266 -0.013796660249165815 0 -0.013796660249165815 0.049291181494146352 0 0 0 0.028105265769110654 0.022848220445238064 -0.0087796221208770019 0 -0.0087796221208770019 0.068428499176793001 0 0 0 0.022819179905507768 0.07359684728932514 -0.0076501425319738248 0 -0.0076501425319738248 0.062173276349942963 0 0 0 0.033942530909817137 0.032169588833244486 -0.0085562522221692243 0 -0.0085562522221692243 0.096431037901709177 0 0 0 0.032150156683738412 0.10483156200563881 -0.0089978968208829207 0 -0.0089978968208829207 0.068189380094972663 0 0 0 0.04325523552515298 0.085764389964537779 -0.013998644274130889 0 -0.013998644274130889 0.066596925705196444 0 0 0 0.038090328917433643 0.06807039234210599 -0.0057504594720750868 0 -0.0057504594720750868 0.052120688190071984 0 0 0 0.030047770133044382 0.042077178643901758 -0.0060872413095447581 0 -0.0060872413095447581 0.02281067029852335 0 0 0 0.016221962235606235 0.057358060779390263 -0.013474054790956758 0 -0.013474054790956758 0.02597574599821928 0 0 0 0.020833451694402427 0.073106335888265456 -0.0064659212089656082 0 -0.0064659212089656082 0.066150314859186987 0 0 0 0.034814162686863076 0.067648338927464441 -0.0015596547586401721 0 -0.0015596547586401721 0.031521712833336671 0 0 0 0.02479251294020032 0.04843376396129917 -0.012847811958548477 0 -0.012847811958548477 -0.0008732235762524132 0 0 0 0.011890135096261689 0.086210304406405244 -0.01415767163798326 0 -0.01415767163798326 0.064833997946258048 0 0 0 0.037761075588165868 0.12298285516277613 -0.0021785899967035616 0 -0.0021785899967035616 0.06997185301288833 0 0 0 0.048238677043916156 0.088293774085322047 -0.016755613118481893 0 -0.016755613118481893 0.046370881015343944 0 0 0 0.033666163775166541 0.06556884150451564 0.0031216241758784125 0 0.0031216241758784125 0.0041654164362402435 0 0 0 0.017433564485188902 0.085915435722960731 -0.014471439347292669 0 -0.014471439347292669 0.060389094678846233 0 0 0 0.036576132600451838 0.038318212282068123 -0.0083867188682577413 0 -0.0083867188682577413 0.11416004071835431 0 0 0 0.038119563250105605 0.12484449846249923 -0.0035701995062974315 0 -0.0035701995062974315 0.07835420299921747 0 0 0 0.050799675365429398 0.096044907168477023 0.0067464722827113022 0 0.0067464722827113022 0.062299828091198606 0 0 0 0.039586183814918741 0.07058497253462237 -0.0078980643831964015 0 -0.0078980643831964015 0.027876817742320092 0 0 0 0.024615447569235727 0.049476234640144306 0.00359615535154445 0 0.00359615535154445 0.0028229460338449939 0 0 0 0.013074795168497102 0.045073555024075285 -0.0087027928276213196 0 -0.0087027928276213196 0.013623843405421221 0 0 0 0.014674349607374015 0.060636223011152346 -0.00016323452701738628 0 -0.00016323452701738628 0.025932740518189057 0 0 0 0.021642240882335573 0.027579471106530251 -0.0022392697390949401 0 -0.0022392697390949401 0.0024815369286601552 0 0 0 0.0075152520087977681 0.010441850398316799 -0.0067274408911441874 0 -0.0067274408911441874 -0.0070233893417341875 0 0 0 0.00085461526414554179 0.011783226307431338 -0.0094014621132656861 0 -0.0094014621132656861 -0.0029992616142644479 0 0 0 0.0021959911732916115 0.023455980489813285 -0.0046596349008953819 0 -0.0046596349008953819 -0.011954635961869589 0 0 0 0.0028753361319859235 0.027615691697903122 -0.013676225172838175 0 -0.013676225172838175 0.0037298799129925619 0 0 0 0.0078363929027240875 0.010445877311814233 -0.014905441774234696 0 -0.014905441774234696 0.0020532934509780443 0 0 0 0.0031247926906980972 0.0099237160383210954 -0.014939566004601779 0 -0.014939566004601779 0.00045644629385099833 0 0 0 0.0025950405830431622 0.021008929001138488 -0.016355724998198096 0 -0.016355724998198096 0.005600412120405629 0 0 0 0.0066523352803857794 0.041742677965508498 -0.012602101940402566 0 -0.012602101940402566 0.02056458769695102 0 0 0 0.015576816415614855 0.053591695676412532 -0.016082670256855724 0 -0.016082670256855724 0.023429385210213205 0 0 0 0.019255270221656295 0.032459683407186191 -0.0075749684839644393 0 -0.0075749684839644393 0.010530590387862304 0 0 0 0.010747568448762124 0.00038315159363921936 -0.0026691486792631558 0 -0.0026691486792631558 0.0019013638829470381 0 0 0 0.00057112886914634231 -0.00050365605693492022 -0.0014559727041374426 0 -0.0014559727041374426 -0.00045131533064912688 0 0 0 -0.00023874284689606728 0.00046496675195371862 -0.0011482535298112939 0 -0.0011482535298112939 -2.8378781986735089e-05 0 0 0 0.00010914699249174588 0.0017727419196726935 -0.0018790398643404593 0 -0.0018790398643404593 -0.001288255342471345 0 0 0 0.00012112164430044814 -0.0025813907553253745 -0.0043707922534723664 0 -0.0043707922534723664 -0.0022933173212345004 0 0 0 -0.0012186770191400242 0.00097640366783569021 -0.0061515234109180694 0 -0.0061515234109180694 -0.004404849020659185 0 0 0 -0.00085711133820587371 0.0063519011378310175 -0.0051779028345595168 0 -0.0051779028345595168 -0.0032548088939119424 0 0 0 0.0007742730609798798 0.0012871200289081574 -0.0031601744502096629 0 -0.0031601744502096629 -0.0061479137243514968 0 0 0 -0.0012151984238608904 0.0034636808120361677 -0.0050166453851061554 0 -0.0050166453851061554 -0.012229866659461294 0 0 0 -0.0021915464618561704 0.00046369430762083219 -0.010826687550890696 0 -0.010826687550890696 -0.0067920724733285809 0 0 0 -0.0015820945414268817 -0.0038931596767004528 -0.014949645031642977 0 -0.014949645031642977 -0.001710247090032313 0 0 0 -0.0014008516916831359 -0.012744374552876248 -0.010444045506382671 0 -0.010444045506382671 -0.0022555663183907448 0 0 0 -0.0037499852178165538 0.001130074194810482 -0.0094069576608095673 0 -0.0094069576608095673 -0.0025543302020505365 0 0 0 -0.0003560640018100969 -0.0025663081565400897 -0.0095733900483252476 0 -0.0095733900483252476 0.00096598230851366318 0 0 0 -0.0004000814620066101 -0.0063435754403268346 -0.0046316845197957868 0 -0.0046316845197957868 -0.00083516590351423448 0 0 0 -0.0017946853359602916 -0.015552845688570516 -0.0049112675347103554 0 -0.0049112675347103554 -0.0011337622454603569 0 0 0 -0.0041716519835075516 -0.0057715116622931717 -0.0038623885545010506 0 -0.0038623885545010506 0.0021271969182961037 0 0 0 -0.00091107868599937802 -0.026837514787360073 -0.0054323738339635093 0 -0.0054323738339635093 0.0023662523339122998 0 0 0 -0.0061178156133618877 -0.0090454390184386835 -0.0076390841678571908 0 -0.0076390841678571908 0.0026882427025496369 0 0 0 -0.0015892990789720951 -0.012352689971795616 -0.011516359918365526 0 -0.011516359918365526 0.0016169448790845919 0 0 0 -0.002683936273177645 -0.022982902953408879 -0.0061809280914455478 0 -0.0061809280914455478 -0.0021932393288593977 0 0 0 -0.0062940355705670692 -0.014830890512448125 -0.014030835070711567 0 -0.014030835070711567 -0.00065194917706223876 0 0 0 -0.0038707099223775909 -0.002734168883725685 -0.015121225790725196 0 -0.015121225790725196 0.0026310372401239235 0 0 0 -2.5782910900495892e-05 -0.0055899636118350582 -0.018218014492114465 0 -0.018218014492114465 0.0022870034212529866 0 0 0 -0.00082574004764546238 -0.0053348525556790038 -0.017560663652531172 0 -0.017560663652531172 0.0021691178455667259 0 0 0 -0.00079143367752820826 -0.015553761030649284 -0.014415480762939858 0 -0.014415480762939858 -0.00075693234356279115 0 0 0 -0.004077673343552881 -0.015782393883190471 -0.016788982928368917 0 -0.016788982928368917 0.0015718279142449276 0 0 0 -0.0035526414922364413 -0.0055573989062596141 -0.020224852901918 0 -0.020224852901918 0.0054798955178053665 0 0 0 -1.9375847113423106e-05 -0.020195400252953855 -0.016426206313481295 0 -0.016426206313481295 0.0010948637951719853 0 0 0 -0.0047751341144455228 -0.025978977361771904 -0.010315643878957337 0 -0.010315643878957337 0.0010019570184756077 0 0 0 -0.0062442550858241574 -0.030419658925117665 -0.0085766947760195222 0 -0.0085766947760195222 -0.0018110899670484848 0 0 0 -0.0080576872230414542 -0.031103091296594942 -0.0085648783923727434 0 -0.0085648783923727434 0.0031174531812916406 0 0 0 -0.0069964095288258532 -0.042107668892644279 -0.0046930605969696696 0 -0.0046930605969696696 -0.00048826417519931553 0 0 0 -0.010648983266961176 -0.027691831633634312 -0.0045660321042635399 0 -0.0045660321042635399 0.00098761177622375129 0 0 0 -0.0066760549643527511 0.030714080191826643 -0.020020463322108717 0 -0.020020463322108717 0.0142209410708658 0 0 0 0.011233755315673166 0.020490268581100146 -0.01772501596945919 0 -0.01772501596945919 0.012181078754987862 0 0 0 0.008167836834022224 0.034776063085020459 -0.019261288274285471 0 -0.019261288274285471 0.028487614131102568 0 0 0 0.01581591930403059 0.027329431890108391 -0.020630269688512448 0 -0.020630269688512448 0.013760923467723618 0 0 0 0.01027258883945803 0.0062451248616770538 -0.018085829488651575 0 -0.018085829488651575 0.003693656017288216 0 0 0 0.002484695219741484 0.0058799056753546242 -0.018105947494940433 0 -0.018105947494940433 0.002598900643432378 0 0 0 0.0021197015796967089 0.018089441682515361 -0.02104301068953629 0 -0.02104301068953629 0.0069099808561607912 0 0 0 0.0062498556346689549 0.013829246944633944 -0.022160720967158487 0 -0.022160720967158487 0.006901238561630274 0 0 0 0.005182621376565999 0.0038759372995674779 -0.019641590653430963 0 -0.019641590653430963 0.0054079784787558483 0 0 0 0.0023209789445808315 0.0025816858788421104 -0.018648028315543019 0 -0.018648028315543019 0.002317582859612255 0 0 0 0.0012248171846136469 0.0027974865187241765 -0.017553900208921558 0 -0.017553900208921558 0.0048741042190974249 0 0 0 0.0019178976844554246 0.027180105713726421 -0.020511597542931921 0 -0.020511597542931921 0.012539105504481896 0 0 0 0.0099298028045520237 0.015986297922413351 -0.018943121679281361 0 -0.018943121679281361 0.012992407872883138 0 0 0 0.0072446764488242055 0.042610368502654095 -0.016048511867528314 0 -0.016048511867528314 0.024668161371089958 0 0 0 0.016819632468435985 0.030228796627712828 -0.018588408606017626 0 -0.018588408606017626 0.022582810785048091 0 0 0 0.013202901853190174 0.040006291471309963 -0.015332519313448145 0 -0.015332519313448145 0.020619079287566233 0 0 0 0.015156342689718882 0.02754346260378121 -0.020782383664827875 0 -0.020782383664827875 0.014632595967303708 0 0 0 0.01054401464277116 0.030768516631967266 -0.016075892142357384 0 -0.016075892142357384 0.015707613976701298 0 0 0 0.011619032652167169 0.037659128032966782 -0.018554211867600839 0 -0.018554211867600839 0.015791739982004227 0 0 0 0.013362717003742808 0.016653409075026326 -0.021835719029009049 0 -0.021835719029009049 0.0093016150534230846 0 0 0 0.0064887560321124083 0.018789588827229364 -0.017431855518296208 0 -0.017431855518296208 0.012415218862005695 0 0 0 0.0078012019223088203 0.014046188667834619 -0.022757916875103534 0 -0.022757916875103534 0.0069686486418050197 0 0 0 0.0052537093274099105 -0.002026744321674212 -0.021783550934185547 0 -0.021783550934185547 0.0044196736804484882 0 0 0 0.00059823233969347189 -0.00524640904307286 -0.016800431978386654 0 -0.016800431978386654 0.0030971381090277549 0 0 0 -0.00053731773351120733 0.013735785694532376 -0.017984495620256225 0 -0.017984495620256225 0.0073334519219137029 0 0 0 0.0052673094041114643 0.0022013897060266796 -0.023384721409822617 0 -0.023384721409822617 0.0040443162604926197 0 0 0 0.0015614264916298248 0.011514579675620053 -0.01744270688481786 0 -0.01744270688481786 0.0061662919701474667 0 0 0 0.0044202179114418948 -0.0053207551274794262 -0.018347445995584022 0 -0.018347445995584022 0.0029604492609954791 0 0 0 -0.00059007646662095903 -0.0041777458560574576 -0.020982883142642794 0 -0.020982883142642794 0.007942043228970741 0 0 0 0.00094107434322832084 0.033631832676715212 -0.019082456951427913 0 -0.019082456951427913 0.010725695954475478 0 0 0 0.011089382157797645 0.03670431375538849 -0.015515122687894511 0 -0.015515122687894511 0.016443379832164262 0 0 0 0.013286923396888223 0.031945615523836901 -0.015821883105115911 0 -0.015821883105115911 0.018118216891217731 0 0 0 0.012515958103763714 0.012656733027324368 -0.021609383707981378 0 -0.021609383707981378 0.0087220046621780956 0 0 0 0.0053446844223755952 0.029220196149771338 -0.017922643070982236 0 -0.017922643070982236 0.010791051773956228 0 0 0 0.010002811980931892 -0.044111847221363631 -0.0084150773043346061 0 -0.0084150773043346061 0.0020101666487040148 0 0 0 -0.010525420143164932 -0.051760177912797814 -0.0044791852954341183 0 -0.0044791852954341183 -0.00072735206328299745 0 0 0 -0.013121882494020205 -0.043072742195158879 -0.004830998096890804 0 -0.004830998096890804 -0.001368215729018879 0 0 0 -0.011110239481044386 -0.055449072146294909 -0.0057326700057985956 0 -0.0057326700057985956 0.001839286887368452 0 0 0 -0.013402446314731531 -0.032741192535822861 -0.0074291064872446105 0 -0.0074291064872446105 -0.0019104144443899962 0 0 0 -0.008662901745053353 -0.020295560297084791 -0.013928059108355408 0 -0.013928059108355408 0.0020596782336954611 0 0 0 -0.0045589705158473048 -0.032811412691207742 -0.014413971406545545 0 -0.014413971406545545 0.0019629944660025656 0 0 0 -0.0077121045563013912 -0.015421231243400113 -0.015365882140253029 0 -0.015365882140253029 0.0010307880842923556 0 0 0 -0.0035976107897769949 -0.018628191998720289 -0.01999295993932354 0 -0.01999295993932354 0.0038117409485729503 0 0 0 -0.0037041127625368486 -0.021885681891388953 -0.017306299094512534 0 -0.017306299094512534 0.0034410413066048307 0 0 0 -0.0046111601461960028 -0.018738299230440902 -0.014930751271386988 0 -0.014930751271386988 0.003587366246309065 0 0 0 -0.0037877332460329871 -0.019756292876812229 -0.019520265037205609 0 -0.019520265037205609 0.0069271041664348276 0 0 0 -0.0032072971775942566 -0.027579568498384784 -0.011539966485956288 0 -0.011539966485956288 0.0019946346322923664 0 0 0 -0.0063962334665231876 -0.037633317069755035 -0.01448362338024381 0 -0.01448362338024381 0.0032319490096105463 0 0 0 -0.0086003420150361221 -0.037248555776540626 -0.01219382229464086 0 -0.01219382229464086 0.0010335011313615805 0 0 0 -0.0090537636612947336 -0.037822942657468883 -0.012998100101362042 0 -0.012998100101362042 0.0022115170004178841 0 0 0 -0.0089028564142627498 -0.05461825980834234 -0.0076065653821814627 0 -0.0076065653821814627 0.0013684655001373613 0 0 0 -0.013312448577051217 -0.05275900124660543 -0.0045650740868679041 0 -0.0045650740868679041 0.00071259096331088845 0 0 0 -0.013011602570823622 -0.065657196905869686 -0.0074687156666761734 0 -0.0074687156666761734 0.0011893551341317643 0 0 0 -0.016116960442934314 -0.088960821101663146 -0.0043211088542018609 0 -0.0043211088542018609 0.0015082835469892864 0 0 0 -0.021863134388668493 -0.07495210100852745 -0.0053521524156332203 0 -0.0053521524156332203 0.0013508971220124177 0 0 0 -0.018400300971628814 -0.061794632388270959 -0.0025030758624589033 0 -0.0025030758624589033 0.00034200906806164388 0 0 0 -0.015363155830052294 -0.05459973929671607 -0.012349206874167351 0 -0.012349206874167351 0.004430201867154232 0 0 0 -0.012542384357390406 -0.043820050979404362 -0.0081461353418017801 0 -0.0081461353418017801 0.0011230228866228043 0 0 0 -0.010674257023195299 -0.02349891658309422 -0.012356150442512925 0 -0.012356150442512925 0.0039299073658358719 0 0 0 -0.0048922523043146149 -0.027434941775140109 -0.017234552835909023 0 -0.017234552835909023 0.008009765324017426 0 0 0 -0.0048562941127806569 -0.024915761903436237 -0.015000952219538677 0 -0.015000952219538677 0.014173438913104019 0 0 0 -0.0026855807475830579 -0.033557909262223823 -0.0084913175844884559 0 -0.0084913175844884559 0.00095675652779336762 0 0 0 -0.0081502881836075514 -0.033903636694064418 -0.010338180601802194 0 -0.010338180601802194 0.0060431745369251 0 0 0 -0.0069651155392848746 -0.047147976692838683 -0.00076670102191028766 0 -0.00076670102191028766 0.0076935964172710203 0 0 0 -0.0098635950688919227 -0.048449347634111586 -0.010652225212144678 0 -0.010652225212144678 0.0061906033418532291 0 0 0 -0.010564686073064558 -0.062907895040851217 -0.0056225446258769962 0 -0.0056225446258769962 0.0015153580157410973 0 0 0 -0.015348134256277499 -0.058256796762403362 -0.0019429067783044152 0 -0.0019429067783044152 0.0014088510943861543 0 0 0 -0.01421198641700433 -0.086804500240296581 -0.002366228594019418 0 -0.002366228594019418 0.0021061673173805584 0 0 0 -0.021174583230728988 0.015856021101615048 -0.017019030484434997 0 -0.017019030484434997 0.012221911999609869 0 0 0 0.0070194832753062708 0.041911284765629692 -0.029610409980958471 0 -0.029610409980958471 0.024870099439079529 0 0 0 0.016695346051177312 0.014520024373803762 -0.022353607090194128 0 -0.022353607090194128 0.01285222471765321 0 0 0 0.0068430622728642178 0.011304008200376442 -0.017244695463489945 0 -0.017244695463489945 0.0061004976162660762 0 0 0 0.0043511264541606642 -0.0093915103462164917 -0.017602153132316455 0 -0.017602153132316455 0.00621133969018417 0 0 0 -0.00079504266400814982 -0.0077251011697553051 -0.018239012011544264 0 -0.018239012011544264 0.011380282122816165 0 0 0 0.00091379523826526365 0.0090994930183699516 -0.023095116771836455 0 -0.023095116771836455 0.015215803438639014 0 0 0 0.0060788241142522501 -0.0074170757863286085 -0.011448067920081101 0 -0.011448067920081101 0.015630675362467095 0 0 0 0.0020533998940346077 -0.029869776813351095 -0.0064529190900683986 0 -0.0064529190900683986 0.0064338496931898304 0 0 0 -0.0058589817800402955 -0.021158199177556795 -0.0033483808349976385 0 -0.0033483808349976385 0.01097234746660096 0 0 0 -0.002546462927738944 -0.012402566147905719 -0.016376709462072425 0 -0.016376709462072425 0.018496333228949835 0 0 0 0.0015234417702610081 0.01319515137117061 -0.018793443306023224 0 -0.018793443306023224 0.022704141093575436 0 0 0 0.0089748231161865255 0.014011469671719179 -0.017210343477116842 0 -0.017210343477116842 0.023783160301273032 0 0 0 0.0094486574932480527 0.035528462131106622 -0.024401609857918533 0 -0.024401609857918533 0.035177558425048494 0 0 0 0.017676505139038748 0.050003759290147914 -0.040818059334661205 0 -0.040818059334661205 0.073342190897674006 0 0 0 0.030836487546955473 -0.042789281966318954 0.0086059192470780005 0 0.0086059192470780005 0.040262680464126566 0 0 0 -0.00063165037554810399 0.12164988509537911 -0.039530642794947057 0 -0.039530642794947057 0.033679543216114105 0 0 0 0.038832357077873358 0.0028985552851157484 -0.0016074245835155055 0 -0.0016074245835155055 0.0085452362599278808 0 0 0 0.0028609478862609075 0.059848411871616457 -0.020849884690515408 0 -0.020849884690515408 0.0065720255855220844 0 0 0 0.016605109364284658 0.052347234894244213 -0.015520776128000818 0 -0.015520776128000818 0.015605796412218764 0 0 0 0.016988257826615741 0.0071246660170729368 -0.0041687152714588137 0 -0.0041687152714588137 0.021326540641830028 0 0 0 0.0071128016647257417 0.082969328526170116 -0.011937207557181251 0 -0.011937207557181251 0.01857316017323829 0 0 0 0.025385622174852129 0.0099137227574568713 -0.0058891374290628148 0 -0.0058891374290628148 0.02967687434887464 0 0 0 0.0098976492765828761 0.057590277558463188 -0.010679885201632988 0 -0.010679885201632988 0.021141753278798303 0 0 0 0.019683007709315359 0.05250753311185527 -0.017586969815478359 0 -0.017586969815478359 0.012599601546395278 0 0 0 0.016276783664562672 0.0020473813352382547 -0.010422115646757518 0 -0.010422115646757518 0.013256882800062597 0 0 0 0.0038260660338252234 -0.011363028814619897 -0.014010004633432761 0 -0.014010004633432761 0.020869912182214734 0 0 0 0.002376720841898744 0.0027581308899212384 -0.010945257524722862 0 -0.010945257524722862 0.017406389238602563 0 0 0 0.0050411300321309763 -0.024452230277495123 -0.013663466429691122 0 -0.013663466429691122 0.013417974971773383 0 0 0 -0.0027585638264304296 0.0034358455625529694 -0.0040511493182249225 0 -0.0040511493182249225 0.027475513263962831 0 0 0 0.00772783970662895 -0.0010748436040166759 -0.002166033353414476 0 -0.002166033353414476 0.0073102784823454448 0 0 0 0.0015588587195822096 -0.01400526354139249 -0.0074076618644748418 0 -0.0074076618644748418 0.073611854958912093 0 0 0 0.014901647854379904 0.0030261488669748151 0.0033686818682781838 0 0.0033686818682781838 0.028831528101908664 0 0 0 0.0079644192422208722 0.010213507610890696 -0.0051316353091345399 0 -0.0051316353091345399 0.011650210111691511 0 0 0 0.0054659294306455622 0.014952821019366583 -0.0064454702670210841 0 -0.0064454702670210841 0.029765144565498919 0 0 0 0.011179491396216379 0.011105009499715988 -0.0058608652517549431 0 -0.0058608652517549431 0.028301730994612501 0 0 0 0.0098516851235821278 0.017084782063982673 -0.0083026323012901602 0 -0.0083026323012901602 0.031594176053955647 0 0 0 0.012169739529484587 0.016104534159484606 -0.0079102052266138007 0 -0.0079102052266138007 0.042600627566669179 0 0 0 0.014676290431538449 0.025476786028468659 -0.015722604431944981 0 -0.015722604431944981 0.032339692346449816 0 0 0 0.014454119593729615 0.027333847473930396 -0.017339942706242978 0 -0.017339942706242978 0.019218163842126497 0 0 0 0.011638002829014234 0.020662936237915305 -0.010521904793363387 0 -0.010521904793363387 0.018706407085300386 0 0 0 0.0098423358308039333 0.020456532434605872 -0.014325339616009541 0 -0.014325339616009541 0.01535382248043482 0 0 0 0.0089525887287601746 0.019190075164468121 -0.010240683482171942 0 -0.010240683482171942 0.014390203276092139 0 0 0 0.0083950696101400685 0.020716998434864083 -0.01353715193866907 0 -0.01353715193866907 0.0090889668505222017 0 0 0 0.0074514913213465702 0.0085285222421579848 -0.013479019389833931 0 -0.013479019389833931 0.014345510270035305 0 0 0 0.0057185081280483191 0.017678585190600074 -0.012646052140637395 0 -0.012646052140637395 0.011165739170549804 0 0 0 0.0072110810902874661 0.016119350960842077 -0.014281448622895633 0 -0.014281448622895633 0.0074323432241750753 0 0 0 0.0058879235462542812 0.010940809244458255 -0.013981199555461635 0 -0.013981199555461635 0.01137012538873089 0 0 0 0.0055777336582973069 0.018067029890459774 -0.015460730416300764 0 -0.015460730416300764 0.0064820595677491655 0 0 0 0.0061372723645522209 0.017067025064997909 -0.014390067206371093 0 -0.014390067206371093 0.0077076872328256663 0 0 0 0.0061936780744558939 0.015531394249410524 -0.015276336036076574 0 -0.015276336036076574 0.011517110885840232 0 0 0 0.006762126283812675 0.027276722936939779 -0.013409512699663659 0 -0.013409512699663659 0.0054901232626394236 0 0 0 0.0081917115498947868 0.02309276230596502 -0.014769750673994997 0 -0.014769750673994997 0.010152581516054859 0 0 0 0.0083113359555049837 0.021622231406717651 -0.014099485788474836 0 -0.014099485788474836 0.0064815338994219096 0 0 0 0.0070259413265348902 0.023998958507462829 -0.013579836703665554 0 -0.013579836703665554 0.0042850729709785484 0 0 0 0.0070710078696103948 0.025388524083039238 -0.014376649970186089 0 -0.014376649970186089 0.0050144650237791757 0 0 0 0.0076007472767046242 0.022725842422056636 -0.0083529030743533239 0 -0.0083529030743533239 -0.0013358869827579944 0 0 0 0.0053474888598246395 0.019381494589806952 -0.013049281567363881 0 -0.013049281567363881 0.0026396318872969338 0 0 0 0.0055052816192759646 0.02533892239180921 -0.010962937078008217 0 -0.010962937078008217 0.0036461439377805174 0 0 0 0.007246266582397437 0.01602223942485529 -0.013812375624959849 0 -0.013812375624959849 0.012631448025535813 0 0 0 0.0071634218625978088 0.020512807743624017 -0.013256728176104779 0 -0.013256728176104779 0.0071436464544576417 0 0 0 0.0069141135495204009 0.016224324688750555 -0.015029172493047166 0 -0.015029172493047166 0.0077058750631286421 0 0 0 0.0059825499379698027 0.017645619705196847 -0.012465124612068779 0 -0.012465124612068779 0.0058746597111433152 0 0 0 0.0058800698540850682 0.01752246714001221 -0.013370198291144345 0 -0.013370198291144345 0.012630813601215762 0 0 0 0.0075383201853070347 0.020260973244588476 -0.012665270176313592 0 -0.012665270176313592 0.013694396275208853 0 0 0 0.0084888423799492907 0.020293860355910409 -0.01269950463889874 0 -0.01269950463889874 0.022746345358402698 0 0 0 0.010760051428578277 0.015131255008873218 -0.013992219320656141 0 -0.013992219320656141 0.020447200364163476 0 0 0 0.0088946138432592081 0.016701031275513006 -0.013374719030694149 0 -0.013374719030694149 0.017588444564571537 0 0 0 0.0085723689600211428 0.019648578804637246 -0.010004601413030473 0 -0.010004601413030473 0.034519125045315846 0 0 0 0.013541925962488238 0.057672447430770213 -0.011146753516243835 0 -0.011146753516243835 0.033577757046815537 0 0 0 0.022812551119396507 0.015655670315283018 -0.0079744214647127394 0 -0.0079744214647127394 0.046882764649775394 0 0 0 0.015634608741264606 0.023336667365417951 -0.011250354115063022 0 -0.011250354115063022 0.036383513701569781 0 0 0 0.014930045266746905 0.044323033847653459 -0.014378373164085412 0 -0.014378373164085412 0.037018582876543471 0 0 0 0.020335404181049399 0.045636534773462689 -0.012226240740219163 0 -0.012226240740219163 0.030896949863069789 0 0 0 0.01913337115913305 0.060541398587476258 -0.0092244351698706484 0 -0.0092244351698706484 0.027716244214289532 0 0 0 0.02206441070044135 0.0065230818972725757 -0.011749634858156305 0 -0.011749634858156305 0.029802830773824063 0 0 0 0.0090814781677741596 0.012673884586005654 -0.0071272903995310988 0 -0.0071272903995310988 0.037952999648011479 0 0 0 0.012656721058504281 0.050594411751878482 -0.010518544724322121 0 -0.010518544724322121 0.026925997673937552 0 0 0 0.01938010235645396 0.044755095114802856 -0.015905774546149554 0 -0.015905774546149554 0.013907275965238219 0 0 0 0.014665592770010172 0.065836673674480872 -0.0092761186803483331 0 -0.0092761186803483331 0.022123396984880417 0 0 0 0.021990017664840378 0.003988124091848004 -0.011803473000035147 0 -0.011803473000035147 0.02102260598402144 0 0 0 0.0062526825189673438 0.0087956090556463307 -0.015443026758232531 0 -0.015443026758232531 0.011390666832052143 0 0 0 0.0050465689719246393 0.0082870177864021177 -0.014770048403832142 0 -0.014770048403832142 0.014388141913766028 0 0 0 0.0056687899250420226 0.012647906569942052 -0.012224293793602806 0 -0.012224293793602806 0.0239490425290243 0 0 0 0.0091492372747415673 
</DataArray>
<DataArray type="Float64" Name="cross_section_updated" format="ascii">
1 1 1 1 1 1 1 1 1 1 1 1 1 1 1 1 1 1 1 1 1 1 1 1 1 1 1 1 1 1 1 1 1 1 1 1 1 1 1 1 1 1 1 1 1 1 1 1 1 1 1 1 1 1 1 1 1 1 1 1 1 1 1 1 1 1 1 1 1 1 1 1 1 1 1 1 1 1 1 1 1 1 1 1 1 1 1 1 1 1 1 1 1 1 1 1 1 1 1 1 1 1 1 1 1 1 1 1 1 1 1 1 1 1 1 1 1 1 1 1 1 1 1 1 1 1 1 1 1 1 1 1 1 1 1 1 1 1 1 1 1 1 1 1 1 1 1 1 1 1 1 1 1 1 1 1 1 1 1 1 1 1 1 1 1 1 1 1 1 1 1 1 1 1 1 1 1 1 1 1 1 1 1 1 1 1 1 1 1 1 1 1 1 1 1 1 1 1 1 1 1 1 1 1 1 1 1 1 1 1 1 1 1 1 1 1 1 1 1 1 1 1 1 1 1 1 1 1 1 1 1 1 1 1 1 1 1 1 1 1 1 1 1 1 1 1 1 1 1 1 1 1 1 1 1 1 1 1 1 1 1 1 1 1 1 1 1 1 1 1 1 1 1 1 1 1 1 1 1 1 1 1 1 1 1 1 1 1 1 1 1 1 1 1 1 1 1 1 1 1 1 1 1 1 1 1 1 1 1 1 1 1 1 1 1 1 1 1 1 1 1 1 1 1 1 1 1 1 1 1 1 1 1 1 1 1 1 1 1 1 1 1 1 1 1 1 1 1 1 1 1 1 1 1 1 1 1 1 1 1 1 1 1 1 1 1 1 1 1 1 1 1 1 1 1 1 1 1 1 1 1 1 1 1 1 1 1 1 1 1 1 1 1 1 1 1 1 1 1 1 1 1 1 1 1 1 1 1 1 1 1 1 1 1 1 1 1 1 1 1 1 1 1 1 1 1 1 1 1 1 1 1 1 1 1 1 1 1 1 1 1 1 1 1 1 1 1 1 1 1 1 1 1 1 1 1 1 1 1 1 1 1 1 1 1 1 1 1 1 1 1 1 1 1 1 1 1 1 1 1 1 1 1 1 1 1 1 1 1 1 1 1 1 1 1 1 1 1 1 1 1 1 1 1 1 1 1 1 1 1 1 1 1 1 1 1 1 1 1 1 1 1 1 1 1 1 1 1 1 1 1 1 1 1 1 1 1 1 0.002025877911605654 1 1 0.0020674327169824609 1 1 0.0020970406316079332 1 1 1 1 1 1 1 1 1 1 1 1 1 0.0021250084417866167 1 1 1 1 1 0.0021535709234491991 1 1 1 1 1 1 1 1 1 1 1 1 1 1 1 1 1 1 1 1 1 1 1 1 1 1 1 1 1 1 1 1 1 1 1 1 1 1 1 1 1 1 1 1 1 1 1 1 1 1 1 1 1 1 1 1 1 1 1 1 1 1 1 1 1 1 1 1 1 1 1 1 1 1 1 1 1 1 1 1 1 1 1 1 1 1 1 1 1 1 1 1 1 1 1 1 1 1 1 1 1 1 1 1 1 1 1 1 1 1 1 1 1 1 1 1 1 1 1 1 1 1 1 1 1 1 1 1 1 1 1 1 1 1 1 1 1 1 1 1 1 1 1 1 1 1 1 1 1 1 1 1 1 1 1 1 1 1 1 1 1 1 1 1 1 1 1 1 0.0021832265087136202 1 1 1 0.0022145058107956523 1 1 0.0022475038013825693 1 1 1 1 1 1 1 1 1 1 1 0.002282796962753538 1 1 1 1 0.002321597886456092 1 1 1 1 1 1 1 1 1 1 1 1 1 1 1 1 1 1 1 1 1 1 1 1 1 1 1 1 1 1 1 1 1 1 1 1 1 1 1 1 1 1 1 1 1 1 1 1 1 1 1 1 1 1 1 1 1 1 0.0010474470409110208 1 1 1 1 1 1 1 1 1 1 1 1 1 1 0.0010678464030293747 1 1 0.0010570116490891065 1 0.0010803511015224636 1 1 1 1 1 1 1 1 1 1 1 1 1 0.001095050596835311 1 1 1 1 1 1 1 1 1 1 1 1 1 1 1 1 1 1 1 1 1 1 1 1 1 1 1 1 1 1 1 1 1 1 1 1 1 1 1 1 1 1 1 1 1 1 1 1 1 1 1 1 1 1 1 1 1 1 1 1 1 1 1 1 1 1 1 1 1 1 1 1 1 1 1 1 1 1 1 1 1 1 1 1 1 1 1 1 1 1 1 1 1 1 1 1 1 1 1 1 1 1 1 1 1 1 1 1 1 1 1 1 1 1 1 1 1 1 1 1 1 1 1 1 1 1 1 1 1 1 1 1 1 1 1 1 0.0010071053604670838 1 1 0.0010177671737213805 1 0.0010247240313403646 1 1 1 1 1 1 1 1 1 1 1 1 1 1 1 1 1 1 1 1 1 1 1 1 1 1 1 1 1 1 1 1 1 1 1 1 1 1 1 1 1 1 1 1 1 1 1 0.0010390601948856385 1 1 1 1 1 0.001031620348236884 1 1 1 1 1 1 1 
</DataArray>
<DataArray type="Float64" Name="displacement_divergence" format="ascii">
-2.1595674115442455e-05 -2.4393150130439871e-05 -1.8453216683156079e-05 -2.1557177291341388e-05 -2.0964803425890261e-05 -2.0954245807466029e-05 -1.9404463007562499e-05 -2.0104152402268125e-05 -1.8685437093238199e-05 -1.4280552347780201e-05 -2.0792396329147439e-05 -1.3469384265079028e-05 -2.5213118032056192e-05 -1.9090776916812421e-05 -3.0237224672252454e-05 -2.3540629781810122e-05 -2.0318114201581335e-05 -2.2159672941706295e-05 -3.6694814649166145e-06 -6.2938243985845023e-06 -6.8478817962734855e-06 -1.1840333970124642e-05 -1.3740072094534912e-05 -8.57374751152272e-06 -1.0025240590774145e-05 -1.2541968939388712e-05 -1.3683415061537912e-05 -1.2177112264288468e-05 -5.3925156954741694e-06 -6.2313002447629323e-06 -3.354098387809373e-06 -4.1663716082145983e-07 -1.5462017771029642e-06 -1.144586442585751e-06 -6.548704782514134e-06 -1.3682917100823027e-05 -1.1194747377898333e-05 -7.0097965909622132e-06 -1.2821737122890458e-05 -1.5145078927949198e-05 -1.1070271750673165e-05 -7.4806059443763227e-06 -7.0826900043431904e-06 -1.7841593050800932e-06 -7.6065783608610052e-06 -4.7170292688191958e-06 3.005231892698419e-06 -1.1281737228671735e-06 -3.049609247535559e-05 -2.3238976669492456e-05 -3.4667636064258987e-05 -2.264390610916905e-05 -1.7781263763817758e-05 -1.9491367269252794e-05 -1.981954885112802e-05 -2.2006301544460983e-05 -1.6234696758032422e-05 -2.3948123613053321e-05 -1.9186604986233432e-05 -2.2458081589044607e-05 -3.2480002317998936e-05 -3.0766200556573691e-05 -2.901472190489602e-05 -3.986698707016367e-05 -4.2561873899682289e-05 -3.0155670722913277e-05 -3.5354739727333445e-05 -4.8121485430259e-05 -3.6388439862392784e-05 -3.7732799082350084e-05 -3.8246735228528435e-05 -5.5404829944462547e-05 -2.1347597453954234e-05 -1.7710271787012937e-05 -2.8490020566943697e-05 -2.715493118490645e-05 -1.7773486117009142e-05 -3.0819176893920008e-05 -2.7399455605577055e-05 -2.3354254350758697e-05 -1.6924444204516648e-05 -1.112643148532005e-05 -1.0672803228995085e-05 -8.9018284967258988e-06 -4.945814245192185e-06 -1.7782047961589385e-05 1.4997973326465018e-06 -1.6784288789192288e-06 -1.9994738460411322e-06 6.5380264347809973e-06 2.7235641640014718e-06 4.9641268887268904e-07 7.6938017058428889e-06 1.042623209283683e-05 -9.9114838971403316e-06 -1.4367095348634587e-05 -2.3003853443435174e-06 -5.1677254342782133e-06 -7.3076896014934858e-06 -1.093549189536323e-05 -1.11356891654445e-06 -1.0461296337210215e-05 2.05418489046506e-05 5.7152051200475803e-07 7.7969960906297021e-06 1.3678755622294485e-05 2.1933330882061267e-05 1.7512754673151036e-05 1.581282135870569e-05 1.7390612494769416e-05 3.6220574978116228e-05 -3.22328783335812e-06 4.6530376394139086e-06 5.1291811094624672e-06 -1.0345181074775057e-05 -1.3067982990172457e-05 -2.2926868120354239e-05 -2.8123043529786046e-05 -3.3824557293512072e-05 -4.0465184080360438e-05 -5.7175752556457493e-05 -4.2020191383603959e-05 -4.1385244060671647e-05 -4.4914728470420607e-05 -3.5780208206794863e-05 -5.7664423155753786e-05 -4.1166433344468658e-05 -2.6070926534021123e-05 -1.8066561653077135e-05 -2.9152537012506194e-05 3.5415847576427811e-05 3.0092779586693573e-05 2.7164221939615435e-05 2.9312753792092113e-05 3.4299118843115204e-05 4.0542079812855766e-05 3.5178523333447061e-05 3.35655411917736e-05 3.5619714146779221e-05 3.3603565825529758e-05 2.7358093947650459e-05 3.3023534617864829e-05 3.0771225267347311e-05 3.2583560661184962e-05 3.4743877460720053e-05 7.0252388450332167e-05 3.0140341710946329e-05 4.7531843857530622e-05 2.9138144480809632e-05 6.4162032878401214e-05 4.175480623256974e-05 6.3333039557058609e-05 3.6208285244161898e-05 3.0891712097990098e-05 3.8472012315202142e-05 2.3501879380858365e-05 2.3821093440010427e-05 3.3754405761491107e-05 2.5513848596735671e-05 3.4763743110416374e-05 1.9931378739857459e-05 3.0773580621985893e-05 2.3436376229964467e-05 2.1965836105912052e-05 1.5157415891207516e-05 1.8392225605859768e-05 1.8589279589453644e-05 1.7618205303855306e-05 1.0193003331232482e-05 1.2974230920870851e-05 1.13315321396993e-05 7.9456399329350721e-06 4.9249057245078776e-06 1.8392125338597183e-05 1.6814137326092519e-05 1.5683471417987541e-05 1.3556389321442859e-05 1.9352059317628304e-05 1.7625926438323648e-05 2.3492825852092954e-05 2.2520588848835646e-05 2.212017903146076e-05 2.5154849249053595e-05 2.1633781574070618e-05 3.0421866212326821e-05 2.7749809909367397e-05 2.5271235109874507e-05 3.2643930216223669e-05 2.3848757952063383e-05 4.2333815321352739e-05 2.9367737686667707e-05 3.6565625315813601e-05 2.8095720752629235e-05 3.3414636159122995e-05 3.549965316508044e-05 2.7094367783663518e-05 2.9255716279068227e-05 2.9411228151132013e-05 2.5130737300366422e-05 2.0067101002305277e-05 2.3615881126439407e-05 2.327075018990393e-05 1.839561690158229e-05 1.6439195544715795e-05 1.9157329183955725e-05 2.1012853538457559e-05 1.8040416507635209e-05 1.7828647058092053e-05 1.435326420136198e-05 1.9891228745262e-05 1.910014877055637e-05 2.2479586998912154e-05 2.0536433810386503e-05 2.098676376261334e-05 5.7197072125171424e-06 8.2331865134373027e-06 4.4807105719571748e-06 1.03171657691984e-05 1.1033886572952707e-05 1.2692638232034429e-05 1.3738459894387553e-05 1.5210220224463663e-05 1.3961713163091526e-05 1.1983878122637854e-05 1.38837974709383e-05 1.0757925776267874e-05 8.8081794313554559e-06 4.586746285512093e-06 3.6665542259072282e-06 3.6640422442986125e-06 -2.5397008161279935e-07 2.1756816920477729e-06 -1.8845777065657832e-07 2.3392855374873643e-06 6.713081113279347e-06 6.2804471103592792e-06 7.4093434339227965e-06 9.6856136297901482e-06 1.0694326132047213e-05 1.334580267166612e-05 1.1976851460947405e-05 9.6874474865976159e-06 1.0079621933345859e-05 4.6200771696421938e-06 3.313066965364618e-06 -9.9007487487442363e-07 1.9882767685810053e-05 1.9392937091608534e-05 1.670739303067049e-05 1.6824744702900027e-05 1.4684374224612307e-05 1.712405612966912e-05 1.6181198858802373e-05 1.4467072973894196e-05 1.9886594825899218e-05 1.7410717922583352e-05 2.1352950062441778e-05 1.7627374498433409e-05 1.8997295101765118e-05 2.2246381094919382e-05 1.9601985205513319e-05 2.5774323944814957e-05 1.8599054385528313e-05 2.2794471238091204e-05 2.1594204506455068e-05 2.1337405302684852e-05 1.925252506465656e-05 2.3061504468439605e-05 1.9378239087795189e-05 1.8894453668001446e-05 1.6960068787200776e-05 2.0775628454851551e-05 2.0168354174443429e-05 2.5500700943087054e-05 2.5125745523270011e-05 1.858396389852476e-05 2.0850336618648441e-05 2.0154291185671878e-05 1.4108943349346529e-05 1.2566680044053236e-05 7.9771257483739482e-06 1.7427201401169363e-06 5.3281504829353241e-06 9.1636221177910766e-06 1.4464585611200222e-05 4.8425704314237003e-06 1.14175987608803e-05 1.554756603532347e-05 1.8732426352601254e-05 1.8753199384735195e-05 1.6223087042508438e-05 2.2313300952513816e-05 1.1216805708503331e-05 8.1465519539676654e-06 1.2897756744990095e-05 1.4391621238100721e-05 3.9511219153133583e-06 1.0954693621826368e-05 1.6900799518881263e-05 1.3047196967081863e-05 2.5246198513203985e-05 1.7686642562708005e-05 1.4787404104261866e-05 2.0614614708848001e-05 2.0486336510703905e-05 2.3954331340945141e-05 3.245891844051479e-05 2.7951639423121887e-05 2.9873198121798566e-05 2.4037601924137114e-05 2.7425002159415163e-05 3.1686911951243126e-05 2.5939308386925212e-05 2.9589555099615678e-05 2.348374403646363e-05 2.2885875023006769e-05 2.1910003497021136e-05 2.4678286752286043e-05 1.9567691386582481e-05 2.3490644607789069e-05 1.9467329818846755e-05 2.2025876990561142e-05 2.0162010031967378e-05 2.18240066918447e-05 2.4132955409645988e-05 -4.4299768743046017e-05 -3.0255594881428e-05 -3.2602843783273325e-05 -2.6705884110084279e-05 -2.321398859100318e-05 -2.7257051150001332e-05 -3.1265100573487526e-05 -2.7600989224861947e-05 -2.6254461373303623e-05 -2.3759576987214365e-05 -2.559092045917486e-05 -2.5575195291831875e-05 -2.4187888927416523e-05 -1.5822793010756164e-05 -2.4002521662771013e-05 -3.6797275950266618e-05 -1.5122184491251833e-05 -2.8694332633611309e-05 -1.524242577179327e-05 -1.3882113810275701e-05 -1.5179094538440781e-05 -1.2972199815551004e-05 -1.5141224836511899e-05 -6.98977488752428e-06 -7.6980785149338714e-06 -3.8347068248985352e-06 -5.2950875463690352e-06 3.0891001855648366e-06 5.9266072632854712e-06 -1.14773659421483e-06 -3.6488868585419566e-06 -3.1478597667133651e-06 3.5460687201024942e-07 6.5475609829692555e-06 -6.030784963163018e-06 2.9529200589127456e-06 -2.0713721388267572e-06 -8.4548328294114567e-06 6.3725623484612264e-06 -4.8510126034031147e-06 -2.6341270268186721e-06 -2.2132084433574733e-05 -1.812828080476914e-05 -1.6659585718374685e-05 -3.810174693789959e-06 -1.388395109623736e-05 -2.6715009658347792e-05 -2.1410894098717047e-05 -3.2116690965005619e-05 -2.47758109557463e-05 -3.4027019981137233e-05 -1.829041169426983e-05 -2.9301086350655714e-05 -5.0666607183318685e-05 -5.4162761095217876e-05 -6.316000249619372e-05 -4.4818349336259813e-05 -5.2167000504194773e-05 -3.2539828462091878e-05 -4.6651230996372168e-05 -3.063423975097693e-05 -6.6475556002031826e-05 -0.00010213145170045712 -6.160035055118047e-05 -6.543653693388463e-05 -8.5172859488136617e-05 -7.3134257110678174e-05 -4.8545343781924901e-05 -5.7348212125417269e-05 -5.4737356232185936e-05 -3.2414040296887292e-05 -3.4102830811951401e-05 -2.6875053548340901e-05 -3.0036157257309627e-05 -4.3899661961404868e-05 -3.5288878758162786e-05 -4.117831178956772e-06 5.5323766267579254e-06 8.9129541924300241e-06 -2.4466516957369245e-05 -9.4478040961744998e-06 -2.6491777065362547e-05 -1.4849451751261436e-05 -1.0532437212531824e-05 2.6895617413023836e-06 -1.0868259177204942e-05 2.3621203665470742e-06 1.6746144209212326e-05 9.1555891957533604e-06 2.1843287620430972e-05 8.2798320283495583e-06 1.9678023922001157e-05 3.4573911699125831e-05 1.2398389918856311e-05 3.1517085479133893e-05 3.4027465122505721e-05 5.9338496084303526e-05 5.9125814631209996e-05 2.8193729675688164e-05 2.1377302036135545e-05 6.1908680997524597e-05 0.00010445397708790734 9.6490530252526071e-05 0.00010386039441478946 6.8055730962784467e-05 4.591869275927167e-05 5.6584784671262955e-05 3.944414443351888e-05 1.1957375830361238e-05 2.9695678303435277e-06 -1.0018300144760267e-06 -1.7042365874151306e-05 2.6173997765281741e-05 -1.2331069023998466e-05 -4.1142665805877425e-05 -4.7962478904249427e-05 -2.3568882777481827e-05 -3.8259407643939885e-05 -2.6689041611307568e-05 -6.0222763026876892e-05 -3.5416349771617378e-05 -4.7517338249455422e-05 -7.0983517106611269e-05 -7.1207938338609881e-05 -0.00010701976112883333 -7.7433044137884335e-05 -0.00010824012077999365 -8.2703560212732863e-05 -5.9702740919260683e-05 -7.2317673490974842e-05 4.7239960673745042e-05 5.1120553411481407e-05 5.4003860682735549e-05 4.9971824692822983e-05 4.6581921276300128e-05 3.959303313540965e-05 3.5272738121470267e-05 4.4404844881671952e-05 3.1152549855392259e-05 3.6766048048793222e-05 2.6210745846648278e-05 3.5807101268281722e-05 3.0315652494565432e-05 3.6570680858907479e-05 3.9623481919358474e-05 3.4602889187439708e-05 3.0550776238086291e-05 2.356533936790651e-05 3.6587129699728165e-05 3.4556571257421533e-05 4.2426925458802179e-05 2.3606391762465727e-05 3.0018647215001424e-05 3.907778927951984e-05 4.7251988335102458e-05 6.1237213799664113e-05 4.886188604973901e-05 5.2739985202712771e-05 5.1128698119762969e-05 6.4259997846269015e-05 7.344334922313852e-05 9.1561114224976957e-05 9.7333995922270378e-05 8.9419985553522722e-05 7.9164773242691424e-05 8.3742888778222553e-05 0.00010067167245467941 9.8187640308455604e-05 0.00017212539976201659 0.00021223393407325533 0.00020587898714095914 0.00013880533637462979 7.3072487802934433e-05 9.7704478691285868e-05 0.00012602974800438743 7.3794944134522399e-05 7.8574671762622061e-05 8.3804107736548198e-05 5.9466931853781384e-05 7.3583660139243172e-05 4.9014137434832709e-05 6.2769627663939278e-05 4.7892559595428381e-05 6.5221512900485312e-05 4.0033620419791389e-05 5.0612852771692456e-05 5.4035156662034948e-05 4.6962075852415002e-05 4.0466422382465052e-05 6.2938642084657239e-05 4.2553122012617299e-05 3.7363496045829197e-05 4.8934001950913256e-05 3.2277022721873878e-05 2.5584153229784954e-05 3.6799213749722442e-05 3.7524829796206088e-05 2.3198517896981746e-05 4.1726606281478648e-05 2.9891984157817241e-05 3.6558062869295854e-05 6.1672898628033749e-05 5.391580952230178e-05 5.0191334617330048e-05 5.6386339908728529e-05 7.5818491279277172e-05 7.9950464161440327e-05 9.6568421380860083e-05 0.0002272674257028075 3.603653006791944e-05 9.3349129068556017e-05 0.00021492650465889201 0.00013036889251000694 0.013371969128752761 0.00020230746188779265 0.0001057650655800392 0.033699042858158196 3.6335891926762777e-05 0.00010796140635212334 0.048603177694760372 4.7702954665600151e-05 7.9951907204881727e-05 3.2193145989656773e-05 5.1025063535743351e-05 4.5921498683325926e-05 4.1520193517759592e-05 4.0309646974139989e-05 6.1710979309544919e-05 6.4378244282983245e-05 4.4974110166652907e-05 7.5887954083103497e-05 9.9301609659945564e-05 0.00011171043556917372 0.062559831752500739 0.00010794085487032768 0.00010073861635784601 8.7629938086330496e-05 0.00011372484309023776 8.4281056298782491e-05 0.076846385936414047 0.00010197750873565056 5.2925600563543448e-05 4.0010322043275556e-05 7.5044274723312806e-05 5.5069687173689517e-05 6.1313375752503345e-05 3.5223905160012161e-05 3.3636907446540193e-05 3.7144994125194622e-05 2.6110245425057805e-05 2.616970475067149e-05 1.8044951870356833e-05 2.0991897940564937e-05 2.003511597663e-05 2.3519643106737693e-05 2.4990244058841512e-05 1.7977380157812586e-05 2.725593910753762e-05 2.3400487176670505e-05 2.5965036103301446e-05 2.9743976340193063e-05 3.402314838062728e-05 -6.5097826642112689e-05 -7.8214203014507393e-05 -4.9252754039352505e-05 -9.8101397333849594e-05 -9.6336697464033936e-05 -6.1629330431905269e-05 -6.5368127014250031e-05 -3.9215969246626532e-05 -2.1424040919961027e-05 -8.4749257251511174e-07 -2.8505240344543813e-05 -1.8662007037971136e-05 -4.2511191107990395e-05 -1.7155669239760161e-05 3.0251921796246558e-05 7.5838260684326503e-06 5.3154215712985153e-05 8.5161850499891915e-06 -1.6415434689284443e-05 2.4020987048982089e-05 2.1041911016842467e-05 7.3008761316987808e-05 0.0001135181987895386 8.5868896993729197e-05 9.4788531864668709e-05 4.6121682009011428e-05 6.4171218513716472e-05 7.792042057254726e-05 3.6051597219103934e-05 3.6640797280444899e-05 6.2494853136891172e-05 6.4255790498608453e-05 6.996399395824875e-05 5.9345590428161368e-05 3.9190962877494028e-05 3.6102639284151753e-05 1.3614140548053266e-05 1.6325193726100459e-05 1.2599732307413351e-05 -8.3432698977474462e-06 1.4416122753433888e-05 1.9242193003841685e-05 -1.5387661205974474e-06 -5.7895036350869445e-06 -2.5069068140123711e-05 -2.851124383259707e-05 -2.8730542161148689e-05 -2.7166119483219993e-05 -9.90225921105258e-06 -1.007289719507856e-05 -1.7044163983928346e-05 -2.6934388182229142e-05 -3.4049442153085818e-05 -4.9539827915666499e-05 -2.7886022288674999e-05 -3.8945662575178615e-05 -6.7203299986195661e-05 -4.959939615663744e-05 -4.9908999482526891e-05 -4.9504048815891507e-06 -2.1918921646860504e-05 -8.6843801631276626e-06 -2.370010785809288e-05 -2.3288388966542783e-05 -3.8258353150198536e-05 -3.3271034133235382e-05 -2.5295045042198318e-05 -1.6988666925280525e-05 -1.3147962153405371e-05 -9.1968947157454461e-06 -8.8660634986513845e-07 -1.3863056227596607e-06 -1.1321503060126008e-05 3.4709927388028305e-07 1.537640749218333e-05 1.8268006950318029e-05 2.9303300124430571e-05 -4.0237424030415206e-07 -3.6953227054155151e-06 1.1976474378674494e-05 1.2621530380934467e-05 2.4364174170152665e-05 1.6393606882585815e-05 4.5551471495935432e-05 4.7276063149788959e-05 3.5999497918147785e-05 5.4354097627391795e-05 8.1309107535425772e-05 5.7333075885123395e-05 7.5723981225072744e-05 3.7460877705573596e-05 4.8589290993229436e-05 7.6852147614847079e-05 5.2190654179194024e-05 8.338550491989214e-05 6.2350767917888211e-05 9.5613125330830384e-05 0.00010175649076065146 5.6682013674565661e-05 3.7226319682863093e-05 1.001703068776328e-05 8.9625046110599141e-06 1.4648434102683405e-05 1.3434798014043186e-05 3.4357188809629007e-05 1.8738879006313831e-05 3.5908903195317659e-05 4.5398784680444199e-07 -1.1226910667672596e-05 2.852957194654504e-07 -8.7021310289127352e-07 -3.0832080683829144e-06 -6.6332102239769278e-06 -4.0659423229202635e-06 3.5813845709001951e-06 -2.1513521721899971e-06 -3.7899162610294246e-06 5.3146167612073969e-07 5.3591345559531045e-07 -9.2278440334304934e-07 2.2395335148497203e-06 -3.3595615034987328e-06 -5.5276601348842186e-06 -1.560902964942764e-05 2.3165741778172211e-05 4.782471295857241e-05 4.6647271841924868e-05 3.2990241533049597e-05 1.5241208219134248e-05 9.931169849598223e-06 8.0022054466189819e-06 1.7784707059105781e-05 1.3291225793432039e-05 1.3950937995063864e-05 2.7707767986789368e-05 2.6647445550592708e-05 2.1411683535333304e-05 3.8529088630312762e-05 4.17264510923003e-05 6.1094076149299575e-05 9.2760529012010575e-05 0.00011018756276271391 7.2735633969500961e-05 9.7103713833877284e-05 0.0001302229287660191 0.00010320509285137338 0.091681737376874961 8.2490560994072978e-05 0.00012073227206035615 0.00011640130610920219 0.10730716832215152 0.0001248654077192525 0.00013435847821341527 0.12389462594651474 0.00011144119983525456 7.1034835987688184e-05 0.00012407272970166392 6.4968512638750127e-05 8.4298691851917022e-05 9.2775693302719222e-05 7.039593582675919e-05 0.0001456062533656768 0.00014735534887386713 0.00010611068024412771 0.00015372840614081597 0.14127038190583358 0.00018003694504745832 0.00016781470228667637 0.00013348991725623677 0.00015405520319725736 0.16180078410642232 0.00020732350805421126 0.00016471393594610012 6.2313187604489924e-05 0.00015866194857965454 0.00019801638607093658 0.00014470937579187052 8.1445032816368956e-05 7.8513830926193844e-07 3.2034011606924418e-05 -3.9449440342020601e-06 3.8973223006561386e-05 1.3452027801964025e-05 1.5348556960502013e-05 3.0251006835613258e-05 4.2935972231186422e-05 -1.0772047304618757e-06 8.9059368141787812e-06 -5.3728286197655918e-06 7.9908178862121357e-06 -5.3194853444954362e-06 -1.3142389354174611e-05 -3.5503271926839731e-05 -1.8439666980079542e-05 -3.8730656724061529e-05 -2.0834875601236655e-05 -1.2527586869572277e-05 -2.0757933867934092e-05 8.8135878448623246e-06 -1.6636041452155613e-05 -8.2036234360684246e-06 1.9616217504972986e-05 -3.1303610322276111e-06 5.9101656026245794e-06 1.6938856437289068e-05 1.9218983307846109e-05 -4.3858871914841027e-06 2.9501100066458728e-06 -1.2640144654800902e-06 5.1083006775145493e-06 9.0939899735315933e-06 8.6044390843851171e-06 1.0221025900881411e-05 4.6199708900877584e-06 9.6233129777459326e-06 7.150818760835319e-06 1.7218191993126851e-05 2.9090998770129055e-05 1.5682454244717297e-05 1.3864043174415365e-05 1.6361437857915833e-05 2.5200892169148932e-05 1.6531848512264393e-05 1.2194386056068717e-05 1.6158146440689277e-05 1.0480265599269711e-05 1.3473170683585278e-05 1.2890536015448465e-05 6.0309716380584555e-05 0.047480501999400029 6.3802532297631926e-05 5.0037510014284883e-05 4.1656961896588526e-05 2.3675674186056394e-05 2.9280317874787599e-05 2.7410099192666352e-05 5.6034003882938675e-05 4.0629773968546079e-05 4.8412987028760113e-05 3.4113995661574892e-05 7.0095406034072628e-05 8.4510360528391201e-05 6.0641805650486161e-05 5.9358289797019061e-05 0.067908574113211342 6.8295449975589026e-05 7.0263164422776272e-05 0.057047949763769416 8.4856327274542443e-05 0.080375391709346058 0.00010813808881288242 9.5225822293584377e-05 7.5119425332610939e-05 4.0554905589015714e-05 5.2083629236005825e-05 8.7035406717157738e-05 6.1981282350500919e-05 2.9725337740654323e-05 9.4402688970414623e-05 0.00012059669260979021 8.4165409437916207e-05 4.3583911212972514e-05 9.1440331501129856e-05 0.095298908125264009 0.00012699918841357297 9.8965459537297875e-05 6.1538618923089733e-05 3.2686987921243535e-05 3.6685874018435594e-05 5.410560220583862e-05 1.8788130021994524e-05 2.1365381603641667e-06 5.4899779332287686e-06 7.1883403299648785e-06 1.9590982256809412e-05 7.8119817267450738e-06 6.4876014576077928e-06 1.6630838200964483e-05 3.8942041039037383e-05 4.8138175554140756e-05 2.6868921121905517e-05 1.4278221728667058e-06 -5.9685711724117435e-07 2.7286748122983307e-07 3.0280411075084279e-07 -3.0466925478507025e-06 -2.1427783455148924e-06 1.9356826524482423e-06 -3.0379960596522435e-06 -5.4788661546414326e-06 -3.9552363535677246e-06 -3.5021292292080177e-06 -9.37496304454161e-06 -8.9016000452473917e-07 -1.0002036550164049e-06 -4.4867133399004383e-06 -1.0429129958769174e-05 -2.2776967149983757e-06 -1.5294539033404615e-05 -3.9732476974302725e-06 -6.7098406829444075e-06 -1.5735088926417592e-05 -9.6767748059434916e-06 -6.4457277251361161e-08 -2.0643501191133611e-06 -1.978584193820191e-06 -1.0194183358882159e-05 -8.8816037305907737e-06 -4.843961778401313e-08 -1.1937835286113556e-05 -1.5610637714560515e-05 -2.0144218057603809e-05 -1.7491023822064234e-05 -2.6622458167402038e-05 -1.6690137410881479e-05 2.8084388289182434e-05 2.0419592085055283e-05 3.9539798260076423e-05 2.5681472098645387e-05 6.2117380493532937e-06 5.2992539492419024e-06 1.5624639086672361e-05 1.2956553441415258e-05 5.802447361452634e-06 3.0620429615339263e-06 4.7947442111385377e-06 2.4824507011380476e-05 1.8111691122060314e-05 4.2049081171090306e-05 3.300725463297534e-05 3.7890856724297033e-05 2.6360036606928221e-05 2.9047581630417757e-05 3.3406792509356898e-05 1.6221890080280821e-05 1.9503004805771808e-05 1.3134273318524524e-05 1.4955808492341741e-06 -1.3432943337781048e-06 1.3168273510278479e-05 3.9035662290746748e-06 1.1050544778604773e-05 -1.4751911665525537e-06 2.3526858580705939e-06 2.772345539449393e-05 3.3217308492220312e-05 3.128989525940924e-05 1.336171105593883e-05 2.5007029952329963e-05 -2.6313550357912052e-05 -3.2804706235050278e-05 -2.7775598702610882e-05 -3.350611578682933e-05 -2.1657254362632966e-05 -1.1397426289618418e-05 -1.9280261390753326e-05 -8.9940269744420102e-06 -9.2602819063421042e-06 -1.1527900365490172e-05 -9.4693331150826239e-06 -8.0182429439858008e-06 -1.5990583666307703e-05 -2.1500855037590136e-05 -2.2634409153236791e-05 -2.2257141035657031e-05 -3.3281121442628328e-05 -3.2529006427059134e-05 -4.029240110733608e-05 -5.4657835971671392e-05 -4.6000752429071882e-05 -3.8407889575130965e-05 -3.1355960893476177e-05 -2.6685642557988296e-05 -1.2230630760786494e-05 -1.2140735281951755e-05 -6.7139518689577206e-06 -2.0375720459018908e-05 -1.7412788848212272e-05 -2.465898767222964e-05 -2.6411715182661575e-05 -3.8370335640693732e-05 -3.5529966042510707e-05 -5.2936458076822523e-05 1.7548708188265777e-05 4.1738365127943274e-05 1.7107655682160528e-05 1.0877816135401567e-05 -1.9876066600203485e-06 2.2844880956631375e-06 1.5197060285630543e-05 5.13349973508653e-06 -1.4647454450100934e-05 -6.366157319347314e-06 3.8086044256525962e-06 2.2437057790466357e-05 2.3621643733120123e-05 4.4191262847596957e-05 7.7091218867388674e-05 -1.57912593887026e-06 9.7080892694683351e-05 0.0071523697156522653 4.1512773410711619e-05 4.247064456653943e-05 0.017782004161814351 6.3464055437130094e-05 0.024744123191457197 4.9207519273288653e-05 4.0691959161406584e-05 9.5651650845631061e-06 5.9418021047468014e-06 1.2602825080327464e-05 -6.8964095660760914e-06 1.931959926657241e-05 3.8971467989554854e-06 3.725411963594974e-05 1.9911048105552185e-05 1.3664823576613926e-05 2.7948728490540946e-05 2.4629212808955304e-05 3.0424348823711431e-05 3.6690726078846111e-05 3.6135298984324026e-05 2.9095007072535576e-05 2.4605839577009856e-05 2.2381471821900399e-05 2.0987674025350217e-05 1.8628728303366514e-05 1.4296270320120821e-05 1.8027702725718621e-05 1.4719808865635691e-05 1.3944334145743248e-05 1.5343180911380567e-05 1.5484195186139728e-05 1.690531570953168e-05 2.0479278874736893e-05 2.0778339888762422e-05 1.7564853316337156e-05 1.7677519674025912e-05 1.9001868191761535e-05 1.3368722149561651e-05 1.3763204048189935e-05 1.8115666455993662e-05 1.7908554656494526e-05 1.7285283873800952e-05 1.495637484492456e-05 1.4700174635212627e-05 1.8845800463267474e-05 2.1222105949873218e-05 2.6900128571445703e-05 2.2236534608148029e-05 2.1430922400052894e-05 3.3854814906220674e-05 5.7031377798490873e-05 0.039086521853161513 3.7325113166867207e-05 5.0838510452623303e-05 4.783342789783289e-05 5.5161026751103471e-05 2.2703695419435364e-05 0.031641802646260708 4.8450255891135008e-05 3.6663981925025486e-05 5.497504416210081e-05 1.5631706297418426e-05 1.2616422429811565e-05 1.4171974812605037e-05 2.2873093186853981e-05 
</DataArray>
</CellData>
</Piece>
</UnstructuredGrid>
</VTKFile>
