<?xml version="1.0"?>
<VTKFile type="UnstructuredGrid" version="0.1" byte_order="LittleEndian">
<UnstructuredGrid>
<Piece NumberOfPoints="3142" NumberOfCells="1054">
<Points>
<DataArray type="Float64" NumberOfComponents="3" format="ascii">
0.5 0.29999999999999999 0 0.54999999999999993 0.29999999999999999 0 0.54999999999999993 0.29999999999999999 0 0.59999999999999976 0.29999999999999999 0 0.59999999999999976 0.29999999999999999 0 0.6499999999999998 0.29999999999999999 0 0.6499999999999998 0.29999999999999999 0 0.69999999999999984 0.29999999999999999 0 0.69999999999999984 0.29999999999999999 0 0.74999999999999989 0.29999999999999999 0 0.74999999999999989 0.29999999999999999 0 0.79999999999999982 0.29999999999999999 0 0.79999999999999982 0.29999999999999999 0 0.84999999999999987 0.29999999999999999 0 0.84999999999999987 0.29999999999999999 0 0.89999999999999991 0.29999999999999999 0 0.89999999999999991 0.29999999999999999 0 0.94999999999999996 0.29999999999999999 0 0.94999999999999996 0.29999999999999999 0 1 0.29999999999999999 0 0.5 0.69999999999999996 0 0.54999999999999993 0.69999999999999996 0 0.54999999999999993 0.69999999999999996 0 0.59999999999999976 0.69999999999999996 0 0.59999999999999976 0.69999999999999996 0 0.6499999999999998 0.69999999999999996 0 0.6499999999999998 0.69999999999999996 0 0.69999999999999984 0.69999999999999996 0 0.69999999999999984 0.69999999999999996 0 0.74999999999999989 0.69999999999999996 0 0.74999999999999989 0.69999999999999996 0 0.79999999999999982 0.69999999999999996 0 0.79999999999999982 0.69999999999999996 0 0.84999999999999987 0.69999999999999996 0 0.84999999999999987 0.69999999999999996 0 0.89999999999999991 0.69999999999999996 0 0.89999999999999991 0.69999999999999996 0 0.94999999999999996 0.69999999999999996 0 0.94999999999999996 0.69999999999999996 0 1 0.69999999999999996 0 0.40076539126862748 0.34589349467022118 0 0.33277555741076909 0.36432196682010132 0 0.36575549820117997 0.31677992835137742 0 0.38083244760691543 0.38531983672244652 0 0.33277555741076909 0.36432196682010132 0 0.40076539126862748 0.34589349467022118 0 0.56836770495988642 0.3523062350852913 0 0.52289427570932567 0.3932284363388488 0 0.52752007115234678 0.33170632466418198 0 0.52752007115234678 0.33170632466418198 0 0.52289427570932567 0.3932284363388488 0 0.49077833859261139 0.35229981449445641 0 0.10000000000041601 1 0 0.053064897599294662 0.95186845269532028 0 0.10266856499240549 0.95548163909968886 0 0.099999999999814668 0 0 0.10266856499169109 0.044518360900210059 0 0.053064897599215843 0.048131547304697528 0 0.050000000000207989 1 0 0.053064897599294662 0.95186845269532028 0 0.10000000000041601 1 0 0.049999999999899652 0 0 0.099999999999814668 0 0 0.053064897599215843 0.048131547304697528 0 0.24999999999941211 0 0 0.29999999999926641 0 0 0.27499999999933927 0.060310814194988557 0 0.30000000000124832 1 0 0.25000000000104028 1 0 0.27609987656793722 0.94991445621608572 0 0.15720202157091859 0.60665697304410315 0 0.19914261668318661 0.62286739485272158 0 0.16500388252850301 0.66612077714085194 0 0.2236846579037573 0.67380363126050236 0 0.16500388252850301 0.66612077714085194 0 0.19914261668318661 0.62286739485272158 0 0.1247745017231483 0.27198077544791172 0 0.168349569971391 0.28054490850913671 0 0.14223753364722069 0.3341983344262433 0 0 0.75000000000034661 0 0 0.7000000000006934 0 0.049706944316475897 0.72477277076253799 0 0 0.30000000000124832 0 0 0.25000000000104028 0 0.049706944316556423 0.27522722923869108 0 0.59999999999999976 0.29999999999999999 0 0.61959173890754571 0.33832250091341232 0 0.56836770495988642 0.3523062350852913 0 0.5 0.69999999999999996 0 0.43323420005758778 0.6913544522562407 0 0.47913475093885149 0.66010775372412711 0 1 0.14999999999961891 0 0.95391631417672862 0.19584263333809451 0 0.93677536231883773 0.14999999999999089 0 1 0.84999999999982645 0 0.95391631417670719 0.89584263333814784 0 0.93677536231884972 0.85000000000000286 0 1 0.84999999999982645 0 0.93677536231884972 0.85000000000000286 0 0.95386563387742829 0.80414874155775029 0 1 0.14999999999961891 0 0.93677536231883773 0.14999999999999089 0 0.95386563387744361 0.1041487415577465 0 0.90416666666660628 0.9041666666666166 0 0.88088768115933802 0.84674609810493673 0 0.93677536231884972 0.85000000000000286 0 0.90416666666668166 0.20416666666667119 0 0.88088768115941807 0.14674609810479519 0 0.93677536231883773 0.14999999999999089 0 0.1247745017231483 0.27198077544791172 0 0.14223753364722069 0.3341983344262433 0 0.093851963071650835 0.30582068233324772 0 0.5 0.69999999999999996 0 0.45582236402875981 0.73896743678908217 0 0.43323420005758778 0.6913544522562407 0 0.55000000000173355 1 0 0.50000000000205869 1 0 0.52122150208832174 0.94089974453840242 0 0.49999999999869432 0 0 0.5499999999988151 0 0 0.52375890611712683 0.059318771819432882 0 0.54999999999999993 0.29999999999999999 0 0.59999999999999976 0.29999999999999999 0 0.56836770495988642 0.3523062350852913 0 0.50202631463681879 0.87892870825713787 0 0.44003836461056539 0.88093474584252718 0 0.45677673713123867 0.84253684404072415 0 0.33403534827021109 0.84402799729020661 0 0.35864759629805099 0.87963482415279515 0 0.30864387279288652 0.89906554525974958 0 0.53245488764484505 0.55078124999999989 0 0.47793794143994173 0.52940715638744962 0 0.53330375813596242 0.50827942741749099 0 0.82709327591102189 0.14937141670914489 0 0.81283102246527783 0.1881007222486438 0 0.77144070960558853 0.14311854477243749 0 0.82709327591091286 0.84937141670920724 0 0.81159157511211755 0.88795995483179491 0 0.76901770135486491 0.84293557325473656 0 0.77144070960558853 0.14311854477243749 0 0.81283102246527783 0.1881007222486438 0 0.76587607630038135 0.18880039518954719 0 0.76901770135486491 0.84293557325473656 0 0.81159157511211755 0.88795995483179491 0 0.76891166905518427 0.88835469571185499 0 0.33403534827021109 0.84402799729020661 0 0.30864387279288652 0.89906554525974958 0 0.29209212897034281 0.84715728365233667 0 0.57412547362576272 0.58273804879550706 0 0.5166924242153631 0.59825134841919447 0 0.53245488764484505 0.55078124999999989 0 0.50202631463681879 0.87892870825713787 0 0.47401147028110507 0.91529957330468115 0 0.44003836461056539 0.88093474584252718 0 0.5 0.69999999999999996 0 0.54999999999999993 0.69999999999999996 0 0.55363780716230748 0.74348740161571747 0 1 0.34999999999993492 0 0.95871855522754235 0.40006508612975411 0 0.95780851984364423 0.34215720972155339 0 1 0.64999999999986979 0 0.9578014258160763 0.65787212321113708 0 0.95867599106212187 0.60011091146651041 0 0.46666084890304671 0.57634471035397938 0 0.47793794143994173 0.52940715638744962 0 0.53245488764484505 0.55078124999999989 0 0.94999999999999996 0.29999999999999999 0 0.89898474358614167 0.25391965591104898 0 0.94399509803921056 0.24399509803922639 0 0.94999999999979179 1 0 0.89898474358632463 0.95391965591118966 0 0.94399509803919068 0.9439950980391687 0 0 0.65000000000104008 0 0.050069554451969707 0.61308520079857043 0 0.046634677244967337 0.671418230738282 0 0 0.35000000000145642 0 0.046389130980076937 0.32668781832131749 0 0.050583896093752537 0.38543522283434112 0 0.50202631463681879 0.87892870825713787 0 0.50627822638148745 0.8263979829520941 0 0.55899371797446828 0.85003102233514438 0 0.54782696902220018 0.79245182748204157 0 0.55899371797446828 0.85003102233514438 0 0.50627822638148745 0.8263979829520941 0 0.50945740445113552 0.75476055527778108 0 0.5 0.69999999999999996 0 0.55363780716230748 0.74348740161571747 0 0.84999999999965292 1 0 0.85170973911348691 0.93569607295217616 0 0.89898474358632463 0.95391965591118966 0 0.84999999999999987 0.29999999999999999 0 0.8517097391133297 0.2356960729520409 0 0.89898474358614167 0.25391965591104898 0 0.86956835336234861 0.571283299838105 0 0.82862096804812391 0.55037090955459045 0 0.86907294890112186 0.52008116128001669 0 0.49102375406324739 0.49123754822244059 0 0.53330375813596242 0.50827942741749099 0 0.47793794143994173 0.52940715638744962 0 0.57611405284611883 0.50165903596042916 0 0.61547661924074692 0.48539576058873962 0 0.62042975506801734 0.54295974692364424 0 0.71406021706547751 0.63292083137662503 0 0.67529834988829951 0.61613270668143583 0 0.71809016091162536 0.58185040402320831 0 0.65000000000104008 1 0 0.62065498684670595 0.95224934003983619 0 0.68015064798562208 0.95924320340003011 0 0.84999999999960507 0 0 0.899991664607802 0.045289349238254978 0 0.85491058998398861 0.060047533455626502 0 0.84999999999999987 0.69999999999999996 0 0.89999166460796554 0.74528934923809909 0 0.85491058998424563 0.76004753345552634 0 0.89999999999999991 0.29999999999999999 0 0.89898474358614167 0.25391965591104898 0 0.94999999999999996 0.29999999999999999 0 0.94999999999979179 1 0 0.89999999999958358 1 0 0.89898474358632463 0.95391965591118966 0 0.86411095495256451 0.42388805655111889 0 0.81308179852519835 0.39754945808726527 0 0.86844634540301924 0.38530937474099819 0 0.5 0.29999999999999999 0 0.49695729691142171 0.25014895411178018 0 0.54248833945060504 0.2520322959927106 0 0.86411095495256451 0.42388805655111889 0 0.81973119833356312 0.43505687159469048 0 0.81308179852519835 0.39754945808726527 0 0.67323294229744413 0.57556450033612505 0 0.71809016091162536 0.58185040402320831 0 0.67529834988829951 0.61613270668143583 0 0.6236733212988993 0.14864538214901801 0 0.68391457121233579 0.14440470121196541 0 0.64011864159029941 0.18789607982138171 0 0 0.050000000000207989 0 0.053064897599215843 0.048131547304697528 0 0.044310582753132287 0.101412518374475 0 0 0.94999999999979179 0 0.0443105827531413 0.89858748162559932 0 0.053064897599294662 0.95186845269532028 0 1 0.34999999999993492 0 1 0.39999999999978308 0 0.95871855522754235 0.40006508612975411 0 1 0.59999999999973963 0 1 0.64999999999986979 0 0.95867599106212187 0.60011091146651041 0 0 0.84999999999965292 0 0.065374659239661639 0.8551091961254178 0 0.0443105827531413 0.89858748162559932 0 0 0.15000000000062411 0 0.044310582753132287 0.101412518374475 0 0.065374659239632718 0.1448908038746782 0 0.16500388252850301 0.66612077714085194 0 0.1020579365089687 0.69352219419301997 0 0.1241190223511371 0.64391885572885044 0 0.14999999999970359 0 0 0.14618258501891079 0.062070108745602003 0 0.10266856499169109 0.044518360900210059 0 0.15000000000062411 1 0 0.10266856499240549 0.95548163909968886 0 0.14617343800780541 0.93808063414349496 0 0.7152569930854884 0.5237994455134295 0 0.67569444444444449 0.53500863336860327 0 0.69385896817107129 0.48377516041410151 0 0.6541250972820879 0.49999999999999989 0 0.62042975506801734 0.54295974692364424 0 0.61547661924074692 0.48539576058873962 0 0.94999999999999996 0.69999999999999996 0 0.94399509803918602 0.75600490196082126 0 0.89999166460796554 0.74528934923809909 0 0.94999999999986839 0 0 0.94399509803922566 0.056004901960802607 0 0.899991664607802 0.045289349238254978 0 0.6541250972820879 0.49999999999999989 0 0.69385896817107129 0.48377516041410151 0 0.67569444444444449 0.53500863336860327 0 0.82862096804812391 0.55037090955459045 0 0.81723410853263523 0.59419663659258926 0 0.77151014687832564 0.54436834383023036 0 0.7250000000005199 0.89375000000045834 0 0.66412543161245952 0.88015090885499059 0 0.68697391633157634 0.84450604838764298 0 0 0.94999999999979179 0 0 0.89999999999958358 0 0.0443105827531413 0.89858748162559932 0 0 0.10000000000041601 0 0 0.050000000000207989 0 0.044310582753132287 0.101412518374475 0 0.16500388252850301 0.66612077714085194 0 0.15332765547575641 0.71200081858233666 0 0.1020579365089687 0.69352219419301997 0 0.90299850604011456 0.79563452813489832 0 0.93677536231884972 0.85000000000000286 0 0.88088768115933802 0.84674609810493673 0 0.90299850604006393 0.09563452813493091 0 0.93677536231883773 0.14999999999999089 0 0.88088768115941807 0.14674609810479519 0 0.68391457121233579 0.14440470121196541 0 0.6865991819015953 0.189116534044597 0 0.64011864159029941 0.18789607982138171 0 0.085622222639554768 0.53333248912060549 0 0.1216098864341134 0.50637075089503902 0 0.1154888278694548 0.56733818459978413 0 0.21858834311891909 0.81980263716112767 0 0.22556077506376701 0.77837424984191617 0 0.26104540868854792 0.81401944968719064 0 0.81723410853263523 0.59419663659258926 0 0.77293540622714185 0.59448302402785813 0 0.77151014687832564 0.54436834383023036 0 0.1154888278694548 0.56733818459978413 0 0.1216098864341134 0.50637075089503902 0 0.14934928745814749 0.55042914607228977 0 0.1216098864341134 0.50637075089503902 0 0.068743045408989428 0.48853989837882689 0 0.113541300460994 0.46208784312094731 0 0.078358742472063481 0.43365249433908948 0 0.113541300460994 0.46208784312094731 0 0.068743045408989428 0.48853989837882689 0 0.83573492347052902 0.36590755630746369 0 0.81308179852519835 0.39754945808726527 0 0.78145581580700685 0.34881365920033602 0 0.57611405284611883 0.50165903596042916 0 0.62042975506801734 0.54295974692364424 0 0.57435499076887508 0.54267261987897775 0 0.86956835336234861 0.571283299838105 0 0.81723410853263523 0.59419663659258926 0 0.82862096804812391 0.55037090955459045 0 0.46666084890304671 0.57634471035397938 0 0.53245488764484505 0.55078124999999989 0 0.5166924242153631 0.59825134841919447 0 0.89999999999999991 0.69999999999999996 0 0.94999999999999996 0.69999999999999996 0 0.89999166460796554 0.74528934923809909 0 0.89999999999973679 0 0 0.94999999999986839 0 0 0.899991664607802 0.045289349238254978 0 0.84999999999960507 0 0 0.89999999999973679 0 0 0.899991664607802 0.045289349238254978 0 0.84999999999999987 0.69999999999999996 0 0.89999999999999991 0.69999999999999996 0 0.89999166460796554 0.74528934923809909 0 0.43545892161006339 0.61093128915313821 0 0.4089290844030305 0.58728915500154233 0 0.46666084890304671 0.57634471035397938 0 0.1650278706801647 0.38791388161335733 0 0.1117088112799664 0.38831403004970022 0 0.14223753364722069 0.3341983344262433 0 0.087545339447545459 0.35122518864182262 0 0.14223753364722069 0.3341983344262433 0 0.1117088112799664 0.38831403004970022 0 0.6916490518212759 0.75387992374886192 0 0.72501250972655151 0.74067302935308721 0 0.72500000000000064 0.7952620967744265 0 0.72501250972655151 0.74067302935308721 0 0.75841349681148107 0.75422312624214749 0 0.72500000000000064 0.7952620967744265 0 0.57412547362576272 0.58273804879550706 0 0.53245488764484505 0.55078124999999989 0 0.57435499076887508 0.54267261987897775 0 1 0.54999999999963112 0 0.95867599106212187 0.60011091146651041 0 0.93732437411268477 0.55911392101136159 0 1 0.44999999999963131 0 0.93814194660195893 0.44426664081746747 0 0.95871855522754235 0.40006508612975411 0 0.4089290844030305 0.58728915500154233 0 0.42644501560315817 0.54603747078095544 0 0.46666084890304671 0.57634471035397938 0 0.89999999999958358 1 0 0.84999999999965292 1 0 0.89898474358632463 0.95391965591118966 0 0.84999999999999987 0.29999999999999999 0 0.89898474358614167 0.25391965591104898 0 0.89999999999999991 0.29999999999999999 0 0.29999999999926641 0 0 0.32541448401678508 0.046215317981507749 0 0.27499999999933927 0.060310814194988557 0 0.30000000000124832 1 0 0.27609987656793722 0.94991445621608572 0 0.32544832635163229 0.95485394099568932 0 0.57412547362576272 0.58273804879550706 0 0.62042975506801734 0.54295974692364424 0 0.63065402604362242 0.59661356661633302 0 0.5 0.29999999999999999 0 0.54248833945060504 0.2520322959927106 0 0.54999999999999993 0.29999999999999999 0 0.67323294229744413 0.57556450033612505 0 0.62042975506801734 0.54295974692364424 0 0.67569444444444449 0.53500863336860327 0 0.6541250972820879 0.49999999999999989 0 0.67569444444444449 0.53500863336860327 0 0.62042975506801734 0.54295974692364424 0 1 0.14999999999961891 0 1 0.19999999999974799 0 0.95391631417672862 0.19584263333809451 0 1 0.84999999999982645 0 1 0.8999999999998336 0 0.95391631417670719 0.89584263333814784 0 1 0.7999999999998193 0 1 0.84999999999982645 0 0.95386563387742829 0.80414874155775029 0 1 0.099999999999753911 0 1 0.14999999999961891 0 0.95386563387744361 0.1041487415577465 0 0.4656888918609538 0.78493261229743638 0 0.50627822638148745 0.8263979829520941 0 0.45677673713123867 0.84253684404072415 0 0.6879972333610942 0.43038561374960838 0 0.72622533758026719 0.40265885511101601 0 0.73483647259922602 0.44789725365921768 0 0.67323294229744413 0.57556450033612505 0 0.67569444444444449 0.53500863336860327 0 0.71809016091162536 0.58185040402320831 0 0.7152569930854884 0.5237994455134295 0 0.71809016091162536 0.58185040402320831 0 0.67569444444444449 0.53500863336860327 0 0.65394964615507722 0.22666784374016369 0 0.59814117807200873 0.23398510860739519 0 0.64011864159029941 0.18789607982138171 0 0.55000000000173355 1 0 0.52122150208832174 0.94089974453840242 0 0.57382506491224949 0.9629411906298494 0 0.39801143831225599 0.16651381068160659 0 0.44288491854585582 0.14116182884956319 0 0.42905200079338551 0.19982395548231649 0 0.47357141910802508 0.1873585799078378 0 0.42905200079338551 0.19982395548231649 0 0.44288491854585582 0.14116182884956319 0 0.90594285160987287 0.4141265964174129 0 0.88594198078881503 0.46167788676578442 0 0.86411095495256451 0.42388805655111889 0 0.65507451745379841 0.92229208810758578 0 0.68015064798562208 0.95924320340003011 0 0.62065498684670595 0.95224934003983619 0 0.35312867752657662 0.084946736076730367 0 0.39591832466117061 0.056982757562006353 0 0.39823268594401579 0.1116623613130045 0 0.43698630808430822 0.080423614171545449 0 0.39823268594401579 0.1116623613130045 0 0.39591832466117061 0.056982757562006353 0 0.4367309254023824 0.92065556789053882 0 0.39641108128798319 0.94356127926187128 0 0.39767323751400468 0.89584229130535065 0 0.35752321586431363 0.9185439911803448 0 0.39767323751400468 0.89584229130535065 0 0.39641108128798319 0.94356127926187128 0 0.77354604466818633 0.40378688774472771 0 0.77972660463949339 0.45529290596363098 0 0.73483647259922602 0.44789725365921768 0 0.5499999999988151 0 0 0.57396793757665954 0.037011367187645222 0 0.52375890611712683 0.059318771819432882 0 0.64753070846764316 0.77332939069435502 0 0.60294066490120068 0.80851322453934582 0 0.59636844454254345 0.75937156204589151 0 0.49102375406324739 0.49123754822244059 0 0.48858720058566618 0.43964267759203868 0 0.53823865529665704 0.45873898050322898 0 0.28307294598219601 0.50789252727458634 0 0.29110487519241501 0.56588143995431495 0 0.25115337790845271 0.54719303014923271 0 0.79680861578988083 0.92656778056766709 0 0.81159157511211755 0.88795995483179491 0 0.85170973911348691 0.93569607295217616 0 0.79680861578956375 0.22656778056752541 0 0.81283102246527783 0.1881007222486438 0 0.8517097391133297 0.2356960729520409 0 0.57412547362576272 0.58273804879550706 0 0.57435499076887508 0.54267261987897775 0 0.62042975506801734 0.54295974692364424 0 0.93814194660195893 0.44426664081746747 0 0.88594198078881503 0.46167788676578442 0 0.90594285160987287 0.4141265964174129 0 0.7152569930854884 0.5237994455134295 0 0.73947346780852752 0.49062440112282169 0 0.77151014687832564 0.54436834383023036 0 0 0.7000000000006934 0 0.046634677244967337 0.671418230738282 0 0.049706944316475897 0.72477277076253799 0 0 0.30000000000124832 0 0.049706944316556423 0.27522722923869108 0 0.046389130980076937 0.32668781832131749 0 0.59814117807200873 0.23398510860739519 0 0.59443395090188023 0.18455690917515069 0 0.64011864159029941 0.18789607982138171 0 0.21858834311891909 0.81980263716112767 0 0.26104540868854792 0.81401944968719064 0 0.2401283238295133 0.85648409884788523 0 0.39536230704883951 0.84069429572832477 0 0.45677673713123867 0.84253684404072415 0 0.44003836461056539 0.88093474584252718 0 0.086179601630648681 0.64647209519980475 0 0.050069554451969707 0.61308520079857043 0 0.1024350934457823 0.60772393977513839 0 0.077693244765132896 0.56932317963405099 0 0.1024350934457823 0.60772393977513839 0 0.050069554451969707 0.61308520079857043 0 0.078358742472063481 0.43365249433908948 0 0.050583896093752537 0.38543522283434112 0 0.1117088112799664 0.38831403004970022 0 0.087545339447545459 0.35122518864182262 0 0.1117088112799664 0.38831403004970022 0 0.050583896093752537 0.38543522283434112 0 0.33403534827021109 0.84402799729020661 0 0.35642984951668422 0.80994399665655703 0 0.39536230704883951 0.84069429572832477 0 0.28307294598219601 0.50789252727458634 0 0.33190227185843768 0.52715113583864037 0 0.29110487519241501 0.56588143995431495 0 0.2236846579037573 0.67380363126050236 0 0.19068556247388771 0.71028988922845504 0 0.16500388252850301 0.66612077714085194 0 0.26104540868854792 0.81401944968719064 0 0.22556077506376701 0.77837424984191617 0 0.2792923945214143 0.77665808831789485 0 0.38244435121258652 0.51653317813019495 0 0.37272913873093971 0.56192925302619479 0 0.33190227185843768 0.52715113583864037 0 0.25195515620380449 0.25883339815888678 0 0.29132859388405002 0.27203693976649962 0 0.24432083401701241 0.3006253385567515 0 0.29348325746214782 0.31350119524708198 0 0.24432083401701241 0.3006253385567515 0 0.29132859388405002 0.27203693976649962 0 0 0.89999999999958358 0 0 0.84999999999965292 0 0.0443105827531413 0.89858748162559932 0 0 0.15000000000062411 0 0 0.10000000000041601 0 0.044310582753132287 0.101412518374475 0 0.59999999999999976 0.69999999999999996 0 0.59636844454254345 0.75937156204589151 0 0.55363780716230748 0.74348740161571747 0 0.1650278706801647 0.38791388161335733 0 0.22033343844674469 0.36963382230740238 0 0.191953871957803 0.42546416763755879 0 0.52289427570932567 0.3932284363388488 0 0.46655310992796922 0.39650496622958609 0 0.49077833859261139 0.35229981449445641 0 0.91696753777131557 0.497780560203536 0 0.88594198078881503 0.46167788676578442 0 0.93814194660195893 0.44426664081746747 0 0.24999999999941211 0 0 0.27499999999933927 0.060310814194988557 0 0.22668068146512929 0.045875643423131329 0 0.25000000000104028 1 0 0.22850979588452081 0.95594428570238643 0 0.27609987656793722 0.94991445621608572 0 0.77846603114747959 0.49850927265137401 0 0.77151014687832564 0.54436834383023036 0 0.73947346780852752 0.49062440112282169 0 0.27499999999933927 0.060310814194988557 0 0.27474541102162192 0.11822029332053539 0 0.24218496799700481 0.089025544070598317 0 0.27270076654418179 0.87751467830216623 0 0.29209212897034281 0.84715728365233667 0 0.30864387279288652 0.89906554525974958 0 0.3096713403101819 0.085471541595262421 0 0.27474541102162192 0.11822029332053539 0 0.27499999999933927 0.060310814194988557 0 0.17933913398461551 0.2350063570234002 0 0.18124454140915969 0.18790916706335251 0 0.224700362040408 0.22206622194729711 0 0.18269480424590959 0.75905448272264375 0 0.22556077506376701 0.77837424984191617 0 0.17777405986036951 0.81832336108265358 0 0.35864759629805099 0.87963482415279515 0 0.33403534827021109 0.84402799729020661 0 0.39536230704883951 0.84069429572832477 0 0.77354604466818633 0.40378688774472771 0 0.73483647259922602 0.44789725365921768 0 0.72622533758026719 0.40265885511101601 0 0.80185942888539485 0.77452061303608133 0 0.85491058998424563 0.76004753345552634 0 0.84725310900444062 0.80779732082917555 0 0.80185942888501827 0.074520613036224564 0 0.85491058998398861 0.060047533455626502 0 0.84725310900442086 0.10779732082922661 0 0.086179601630648681 0.64647209519980475 0 0.046634677244967337 0.671418230738282 0 0.050069554451969707 0.61308520079857043 0 0.087545339447545459 0.35122518864182262 0 0.050583896093752537 0.38543522283434112 0 0.046389130980076937 0.32668781832131749 0 0 0.75000000000034661 0 0.049706944316475897 0.72477277076253799 0 0.04408157711937423 0.7728941757575627 0 0 0.25000000000104028 0 0.044081577119474857 0.2271058242433576 0 0.049706944316556423 0.27522722923869108 0 0.52289427570932567 0.3932284363388488 0 0.56836770495988642 0.3523062350852913 0 0.57744073070774993 0.41535148636609359 0 0.6084546825910605 0.37989672713932537 0 0.57744073070774993 0.41535148636609359 0 0.56836770495988642 0.3523062350852913 0 0.61343887413683884 0.856862479058357 0 0.55899371797446828 0.85003102233514438 0 0.60294066490120068 0.80851322453934582 0 0.54782696902220018 0.79245182748204157 0 0.60294066490120068 0.80851322453934582 0 0.55899371797446828 0.85003102233514438 0 0.40326160981139969 0.73346192995102844 0 0.36622285152418499 0.69092437780804039 0 0.43323420005758778 0.6913544522562407 0 0.52289427570932567 0.3932284363388488 0 0.48858720058566618 0.43964267759203868 0 0.46655310992796922 0.39650496622958609 0 0.15720202157091859 0.60665697304410315 0 0.1154888278694548 0.56733818459978413 0 0.14934928745814749 0.55042914607228977 0 0.6879972333610942 0.43038561374960838 0 0.73483647259922602 0.44789725365921768 0 0.69385896817107129 0.48377516041410151 0 0.7250000000005199 0.89375000000045834 0 0.68987011941058407 0.92105047536677087 0 0.66412543161245952 0.88015090885499059 0 0.83573492347052902 0.36590755630746369 0 0.78145581580700685 0.34881365920033602 0 0.82500000000000062 0.33010209762754811 0 0.82862096804812391 0.55037090955459045 0 0.81441713509985358 0.51161854125224959 0 0.86907294890112186 0.52008116128001669 0 0.19670163708476801 0.31472518408333222 0 0.14223753364722069 0.3341983344262433 0 0.168349569971391 0.28054490850913671 0 0.50202631463681879 0.87892870825713787 0 0.45677673713123867 0.84253684404072415 0 0.50627822638148745 0.8263979829520941 0 0.099999999999814668 0 0 0.14999999999970359 0 0 0.10266856499169109 0.044518360900210059 0 0.15000000000062411 1 0 0.10000000000041601 1 0 0.10266856499240549 0.95548163909968886 0 0.67323294229744413 0.57556450033612505 0 0.63065402604362242 0.59661356661633302 0 0.62042975506801734 0.54295974692364424 0 0.083105206071467416 0.20007701332709979 0 0.13737030665753211 0.20313708640667491 0 0.095326043202144745 0.24554465089224409 0 0.083105206071452636 0.79992298667296435 0 0.090953281884486245 0.7564451946902494 0 0.1382744753146134 0.79650574229207483 0 0.50000000000205869 1 0 0.47135117303824892 0.95556877749289892 0 0.52122150208832174 0.94089974453840242 0 0.49999999999869432 0 0 0.52375890611712683 0.059318771819432882 0 0.47040171442036788 0.044141676406503738 0 0.4656888918609538 0.78493261229743638 0 0.45582236402875981 0.73896743678908217 0 0.50945740445113552 0.75476055527778108 0 0.5 0.69999999999999996 0 0.50945740445113552 0.75476055527778108 0 0.45582236402875981 0.73896743678908217 0 0.55306006949600994 0.20198184231352201 0 0.56202748619534593 0.15054058349222879 0 0.59443395090188023 0.18455690917515069 0 0.6236733212988993 0.14864538214901801 0 0.59443395090188023 0.18455690917515069 0 0.56202748619534593 0.15054058349222879 0 0.57412547362576272 0.58273804879550706 0 0.5498280205245758 0.6290146943450976 0 0.5166924242153631 0.59825134841919447 0 0.91696753777131557 0.497780560203536 0 0.93814194660195893 0.44426664081746747 0 0.96228564064454991 0.48206450662049471 0 0.15720202157091859 0.60665697304410315 0 0.16500388252850301 0.66612077714085194 0 0.1241190223511371 0.64391885572885044 0 0.44288491854585582 0.14116182884956319 0 0.47881186583059909 0.093591717165689425 0 0.48466639505193998 0.1421439844745814 0 1 0.54999999999963112 0 0.93732437411268477 0.55911392101136159 0 0.95631871884947484 0.51827533208233789 0 0.57724883562309992 0.92155686857100794 0 0.57382506491224949 0.9629411906298494 0 0.52122150208832174 0.94089974453840242 0 0.85170973911348691 0.93569607295217616 0 0.81159157511211755 0.88795995483179491 0 0.85600844944837662 0.88483418979512773 0 0.8517097391133297 0.2356960729520409 0 0.81283102246527783 0.1881007222486438 0 0.85600844944842547 0.1848341897950983 0 0.27866744612395528 0.38416094670951489 0 0.29124338931648802 0.43334555462578611 0 0.24049127783545701 0.41270748208749802 0 0.6084546825910605 0.37989672713932537 0 0.56836770495988642 0.3523062350852913 0 0.61959173890754571 0.33832250091341232 0 0.20050006573841939 0.53248514016039872 0 0.25115337790845271 0.54719303014923271 0 0.22549374774072969 0.58452645269293457 0 0.26573297623774761 0.59828298563722948 0 0.22549374774072969 0.58452645269293457 0 0.25115337790845271 0.54719303014923271 0 0.26104540868854792 0.81401944968719064 0 0.29209212897034281 0.84715728365233667 0 0.2401283238295133 0.85648409884788523 0 0.6236733212988993 0.14864538214901801 0 0.65290632656860115 0.11434202593454081 0 0.68391457121233579 0.14440470121196541 0 0.19901705110390991 0.9175543425573498 0 0.19741632902693801 0.86755867406447229 0 0.24536017905392571 0.90704567837671446 0 0.72500000000000064 0.7952620967744265 0 0.76901770135486491 0.84293557325473656 0 0.72863726579783861 0.85390518901155588 0 0.72500000000000064 0.7952620967744265 0 0.72863726579783861 0.85390518901155588 0 0.68697391633157634 0.84450604838764298 0 0.7250000000005199 0.89375000000045834 0 0.68697391633157634 0.84450604838764298 0 0.72863726579783861 0.85390518901155588 0 0.72525833953073282 0.1032114801687094 0 0.77144070960558853 0.14311854477243749 0 0.72634814642510737 0.16106886917518889 0 0.72525833953073282 0.1032114801687094 0 0.72634814642510737 0.16106886917518889 0 0.68391457121233579 0.14440470121196541 0 0.36622285152418499 0.69092437780804039 0 0.3977710372045391 0.65868194622830212 0 0.43323420005758778 0.6913544522562407 0 0 0.65000000000104008 0 0 0.60000000000138687 0 0.050069554451969707 0.61308520079857043 0 0 0.40000000000166441 0 0 0.35000000000145642 0 0.050583896093752537 0.38543522283434112 0 0.22033343844674469 0.36963382230740238 0 0.24049127783545701 0.41270748208749802 0 0.191953871957803 0.42546416763755879 0 0.5 0.29999999999999999 0 0.4604742573284204 0.27846934318264788 0 0.49695729691142171 0.25014895411178018 0 0.19741632902693801 0.86755867406447229 0 0.2401283238295133 0.85648409884788523 0 0.24536017905392571 0.90704567837671446 0 0 0.50000000000205869 0 0.068743045408989428 0.48853989837882689 0 0.044576108720083309 0.53509043209532614 0 0.15000000000062411 1 0 0.14617343800780541 0.93808063414349496 0 0.18474005699953849 0.96231585248064622 0 0.14999999999970359 0 0 0.184418230509967 0.038773194583122873 0 0.14618258501891079 0.062070108745602003 0 0.57667858002728545 0.078486105337742612 0 0.52375890611712683 0.059318771819432882 0 0.57396793757665954 0.037011367187645222 0 0.113541300460994 0.46208784312094731 0 0.078358742472063481 0.43365249433908948 0 0.13773355295499351 0.42497777642586831 0 0.77354604466818633 0.40378688774472771 0 0.78145581580700685 0.34881365920033602 0 0.81308179852519835 0.39754945808726527 0 0.38244435121258652 0.51653317813019495 0 0.33190227185843768 0.52715113583864037 0 0.35024835142131061 0.48654922671676981 0 0.64753070846764316 0.77332939069435502 0 0.65005442820240822 0.82644988530054031 0 0.60294066490120068 0.80851322453934582 0 0.15720202157091859 0.60665697304410315 0 0.1024350934457823 0.60772393977513839 0 0.1154888278694548 0.56733818459978413 0 0.90416666666660628 0.9041666666666166 0 0.85600844944837662 0.88483418979512773 0 0.88088768115933802 0.84674609810493673 0 0.90416666666668166 0.20416666666667119 0 0.85600844944842547 0.1848341897950983 0 0.88088768115941807 0.14674609810479519 0 0.078358742472063481 0.43365249433908948 0 0.1117088112799664 0.38831403004970022 0 0.13773355295499351 0.42497777642586831 0 0.38244435121258652 0.51653317813019495 0 0.3908716102680424 0.47010282357248828 0 0.43507373378304309 0.49699695397193322 0 0.90299850604011456 0.79563452813489832 0 0.95386563387742829 0.80414874155775029 0 0.93677536231884972 0.85000000000000286 0 0.90416666666660628 0.9041666666666166 0 0.93677536231884972 0.85000000000000286 0 0.95391631417670719 0.89584263333814784 0 0.90299850604006393 0.09563452813493091 0 0.95386563387744361 0.1041487415577465 0 0.93677536231883773 0.14999999999999089 0 0.90416666666668166 0.20416666666667119 0 0.93677536231883773 0.14999999999999089 0 0.95391631417672862 0.19584263333809451 0 0.39536230704883951 0.84069429572832477 0 0.44003836461056539 0.88093474584252718 0 0.39767323751400468 0.89584229130535065 0 0.51076801031701946 0.1202837388510348 0 0.52375890611712683 0.059318771819432882 0 0.54979595918804436 0.1060565713905809 0 0.57667858002728545 0.078486105337742612 0 0.54979595918804436 0.1060565713905809 0 0.52375890611712683 0.059318771819432882 0 0.57724883562309992 0.92155686857100794 0 0.52122150208832174 0.94089974453840242 0 0.54783390826260769 0.89287767010860219 0 0.50202631463681879 0.87892870825713787 0 0.54783390826260769 0.89287767010860219 0 0.52122150208832174 0.94089974453840242 0 0.087545339447545459 0.35122518864182262 0 0.093851963071650835 0.30582068233324772 0 0.14223753364722069 0.3341983344262433 0 0.54999999999999993 0.69999999999999996 0 0.59999999999999976 0.69999999999999996 0 0.55363780716230748 0.74348740161571747 0 0.083105206071452636 0.79992298667296435 0 0.1074251789111534 0.83564394292147814 0 0.065374659239661639 0.8551091961254178 0 0.083105206071467416 0.20007701332709979 0 0.065374659239632718 0.1448908038746782 0 0.106902708054812 0.16453234188234539 0 0.52289427570932567 0.3932284363388488 0 0.53823865529665704 0.45873898050322898 0 0.48858720058566618 0.43964267759203868 0 0.13737030665753211 0.20313708640667491 0 0.14377654328998779 0.2442024734791064 0 0.095326043202144745 0.24554465089224409 0 0.1382744753146134 0.79650574229207483 0 0.090953281884486245 0.7564451946902494 0 0.14335651144331049 0.75565258250209677 0 0.27270076654418179 0.87751467830216623 0 0.30864387279288652 0.89906554525974958 0 0.24536017905392571 0.90704567837671446 0 0.27609987656793722 0.94991445621608572 0 0.24536017905392571 0.90704567837671446 0 0.30864387279288652 0.89906554525974958 0 0.90299850604011456 0.79563452813489832 0 0.84725310900444062 0.80779732082917555 0 0.85491058998424563 0.76004753345552634 0 0.90299850604006393 0.09563452813493091 0 0.84725310900442086 0.10779732082922661 0 0.85491058998398861 0.060047533455626502 0 1 0.54999999999963112 0 1 0.59999999999973963 0 0.95867599106212187 0.60011091146651041 0 1 0.39999999999978308 0 1 0.44999999999963131 0 0.95871855522754235 0.40006508612975411 0 0.28040350263641872 0.23054717217092141 0 0.25195515620380449 0.25883339815888678 0 0.224700362040408 0.22206622194729711 0 0.84999999999999987 0.29999999999999999 0 0.87430060258887643 0.34056085888204451 0 0.82500000000000062 0.33010209762754811 0 0.84999999999999987 0.69999999999999996 0 0.82457059160610424 0.66831947184359608 0 0.87712158428786946 0.65709029563313581 0 0.86956835336234861 0.571283299838105 0 0.87159648282691515 0.61285406320581504 0 0.81723410853263523 0.59419663659258926 0 0.43698630808430822 0.080423614171545449 0 0.47881186583059909 0.093591717165689425 0 0.44288491854585582 0.14116182884956319 0 1 0.44999999999963131 0 0.96228564064454991 0.48206450662049471 0 0.93814194660195893 0.44426664081746747 0 0.35752321586431363 0.9185439911803448 0 0.30864387279288652 0.89906554525974958 0 0.35864759629805099 0.87963482415279515 0 0.29124338931648802 0.43334555462578611 0 0.25982634974572738 0.46097799597715272 0 0.24049127783545701 0.41270748208749802 0 0.51076801031701946 0.1202837388510348 0 0.56202748619534593 0.15054058349222879 0 0.51729576145820033 0.1683240575987815 0 0.55306006949600994 0.20198184231352201 0 0.51729576145820033 0.1683240575987815 0 0.56202748619534593 0.15054058349222879 0 0.26429849586623999 0.19346700179430079 0 0.28040350263641872 0.23054717217092141 0 0.224700362040408 0.22206622194729711 0 0.51076801031701946 0.1202837388510348 0 0.48466639505193998 0.1421439844745814 0 0.47881186583059909 0.093591717165689425 0 0.2185883431182947 0.18019736283949719 0 0.26429849586623999 0.19346700179430079 0 0.224700362040408 0.22206622194729711 0 0.18269480424590959 0.75905448272264375 0 0.2248999640082178 0.72584299459689172 0 0.22556077506376701 0.77837424984191617 0 0.51076801031701946 0.1202837388510348 0 0.47881186583059909 0.093591717165689425 0 0.52375890611712683 0.059318771819432882 0 0.50202631463681879 0.87892870825713787 0 0.52122150208832174 0.94089974453840242 0 0.47401147028110507 0.91529957330468115 0 0 0.84999999999965292 0 0.038512288486097702 0.8155852717111195 0 0.065374659239661639 0.8551091961254178 0 0 0.15000000000062411 0 0.065374659239632718 0.1448908038746782 0 0.038512288486115001 0.1844147282893184 0 0.2185883431182947 0.18019736283949719 0 0.224700362040408 0.22206622194729711 0 0.18124454140915969 0.18790916706335251 0 0.21858834311891909 0.81980263716112767 0 0.17777405986036951 0.81832336108265358 0 0.22556077506376701 0.77837424984191617 0 0.1215415378367805 0.72939333680004137 0 0.1020579365089687 0.69352219419301997 0 0.15332765547575641 0.71200081858233666 0 0.49695729691142171 0.25014895411178018 0 0.50760557329222289 0.20700468884612061 0 0.54248833945060504 0.2520322959927106 0 0.15720202157091859 0.60665697304410315 0 0.14934928745814749 0.55042914607228977 0 0.18381867841758909 0.57774125163628387 0 0.90416666666660628 0.9041666666666166 0 0.85170973911348691 0.93569607295217616 0 0.85600844944837662 0.88483418979512773 0 0.90416666666668166 0.20416666666667119 0 0.8517097391133297 0.2356960729520409 0 0.85600844944842547 0.1848341897950983 0 0.17933913398461551 0.2350063570234002 0 0.13737030665753211 0.20313708640667491 0 0.18124454140915969 0.18790916706335251 0 0.18269480424590959 0.75905448272264375 0 0.17777405986036951 0.81832336108265358 0 0.1382744753146134 0.79650574229207483 0 0.1216098864341134 0.50637075089503902 0 0.15801167086041079 0.46008690540259539 0 0.16618607197337229 0.50652878253548905 0 0.50760557329222289 0.20700468884612061 0 0.55306006949600994 0.20198184231352201 0 0.54248833945060504 0.2520322959927106 0 0.75000000000034661 1 0 0.7000000000006934 1 0 0.7250000000005199 0.94981617647078953 0 0.69999999999999984 0.29999999999999999 0 0.72500000000000064 0.2498161764706 0 0.74999999999999989 0.29999999999999999 0 0.72525833953073282 0.1032114801687094 0 0.68391457121233579 0.14440470121196541 0 0.68330259535470161 0.10038702501083881 0 0.43249999999999988 0.43937499999999979 0 0.46655310992796922 0.39650496622958609 0 0.48858720058566618 0.43964267759203868 0 0.19901705110390991 0.9175543425573498 0 0.14617343800780541 0.93808063414349496 0 0.16206583317966519 0.89685560785156404 0 0.19922788606653311 0.085920220746880993 0 0.16141998738593399 0.10404039647458049 0 0.14618258501891079 0.062070108745602003 0 0.31378396441836959 0.70157213313026345 0 0.26439878998046262 0.7048065392091396 0 0.27820712747429932 0.65530134213254643 0 0.1216098864341134 0.50637075089503902 0 0.113541300460994 0.46208784312094731 0 0.15801167086041079 0.46008690540259539 0 0.6084546825910605 0.37989672713932537 0 0.65481233915350323 0.35652751921065562 0 0.63912439215427275 0.41063340167983359 0 0.19901705110390991 0.9175543425573498 0 0.18474005699953849 0.96231585248064622 0 0.14617343800780541 0.93808063414349496 0 0.19922788606653311 0.085920220746880993 0 0.14618258501891079 0.062070108745602003 0 0.184418230509967 0.038773194583122873 0 0.38244435121258652 0.51653317813019495 0 0.35024835142131061 0.48654922671676981 0 0.3908716102680424 0.47010282357248828 0 0.82709327591102189 0.14937141670914489 0 0.77144070960558853 0.14311854477243749 0 0.80076557130237269 0.1154587552654202 0 0.82709327591091286 0.84937141670920724 0 0.76901770135486491 0.84293557325473656 0 0.80041942726660109 0.81543261647703358 0 0.43698630808430822 0.080423614171545449 0 0.44288491854585582 0.14116182884956319 0 0.39823268594401579 0.1116623613130045 0 0.39801143831225599 0.16651381068160659 0 0.39823268594401579 0.1116623613130045 0 0.44288491854585582 0.14116182884956319 0 0.36575549820117997 0.31677992835137742 0 0.3786248352540974 0.27082301512024259 0 0.41914690343363781 0.30688979866601612 0 0.42377727103934271 0.25099357235810238 0 0.41914690343363781 0.30688979866601612 0 0.3786248352540974 0.27082301512024259 0 0.049706944316475897 0.72477277076253799 0 0.1020579365089687 0.69352219419301997 0 0.090953281884486245 0.7564451946902494 0 0.1215415378367805 0.72939333680004137 0 0.090953281884486245 0.7564451946902494 0 0.1020579365089687 0.69352219419301997 0 0.1247745017231483 0.27198077544791172 0 0.093851963071650835 0.30582068233324772 0 0.095326043202144745 0.24554465089224409 0 0.049706944316556423 0.27522722923869108 0 0.095326043202144745 0.24554465089224409 0 0.093851963071650835 0.30582068233324772 0 0.77354604466818633 0.40378688774472771 0 0.81973119833356312 0.43505687159469048 0 0.77972660463949339 0.45529290596363098 0 0.43249999999999988 0.43937499999999979 0 0.43507373378304309 0.49699695397193322 0 0.3908716102680424 0.47010282357248828 0 0.26573297623774761 0.59828298563722948 0 0.2459498854893499 0.63248470766216769 0 0.22549374774072969 0.58452645269293457 0 0.72500000000000064 0.7952620967744265 0 0.77094201086366854 0.79647480515688507 0 0.76901770135486491 0.84293557325473656 0 0.72525833953073282 0.1032114801687094 0 0.76878382444651716 0.097147941686331368 0 0.77144070960558853 0.14311854477243749 0 0.72500000000000064 0.7952620967744265 0 0.68697391633157634 0.84450604838764298 0 0.68024162096458085 0.79868546898116533 0 0.31378396441836959 0.70157213313026345 0 0.29904318922293632 0.74132814928635593 0 0.26439878998046262 0.7048065392091396 0 0.31378396441836959 0.70157213313026345 0 0.35415581127540569 0.73730480045900215 0 0.29904318922293632 0.74132814928635593 0 0.61343887413683884 0.856862479058357 0 0.65005442820240822 0.82644988530054031 0 0.66412543161245952 0.88015090885499059 0 0.68697391633157634 0.84450604838764298 0 0.66412543161245952 0.88015090885499059 0 0.65005442820240822 0.82644988530054031 0 0.083411279318375747 0.91030024466934134 0 0.065374659239661639 0.8551091961254178 0 0.10562472963403439 0.87143394428979881 0 0.083411279318303222 0.089699755330707398 0 0.1053400320299198 0.12877248826361379 0 0.065374659239632718 0.1448908038746782 0 0.55306006949600994 0.20198184231352201 0 0.59443395090188023 0.18455690917515069 0 0.59814117807200873 0.23398510860739519 0 0.84999999999999987 0.29999999999999999 0 0.89999999999999991 0.29999999999999999 0 0.87430060258887643 0.34056085888204451 0 0.84999999999999987 0.69999999999999996 0 0.87712158428786946 0.65709029563313581 0 0.89999999999999991 0.69999999999999996 0 0.34258405725730701 0.4444034294386992 0 0.3908716102680424 0.47010282357248828 0 0.35024835142131061 0.48654922671676981 0 0.26573297623774761 0.59828298563722948 0 0.31502927232353312 0.6134992213375432 0 0.27820712747429932 0.65530134213254643 0 0.91696753777131557 0.497780560203536 0 0.86907294890112186 0.52008116128001669 0 0.88594198078881503 0.46167788676578442 0 0.84723782639812573 0.48638347960178252 0 0.88594198078881503 0.46167788676578442 0 0.86907294890112186 0.52008116128001669 0 0.7152569930854884 0.5237994455134295 0 0.77151014687832564 0.54436834383023036 0 0.71809016091162536 0.58185040402320831 0 0.90416666666660628 0.9041666666666166 0 0.89898474358632463 0.95391965591118966 0 0.85170973911348691 0.93569607295217616 0 0.90416666666668166 0.20416666666667119 0 0.89898474358614167 0.25391965591104898 0 0.8517097391133297 0.2356960729520409 0 0.91750694127107502 0.36982372220068471 0 0.95780851984364423 0.34215720972155339 0 0.95871855522754235 0.40006508612975411 0 0.91750694127105259 0.63017627779935648 0 0.95867599106212187 0.60011091146651041 0 0.9578014258160763 0.65787212321113708 0 0.90299850604011456 0.79563452813489832 0 0.88088768115933802 0.84674609810493673 0 0.84725310900444062 0.80779732082917555 0 0.90299850604006393 0.09563452813493091 0 0.88088768115941807 0.14674609810479519 0 0.84725310900442086 0.10779732082922661 0 0.1216098864341134 0.50637075089503902 0 0.16618607197337229 0.50652878253548905 0 0.14934928745814749 0.55042914607228977 0 0.20050006573841939 0.53248514016039872 0 0.14934928745814749 0.55042914607228977 0 0.16618607197337229 0.50652878253548905 0 0.80185942888539485 0.77452061303608133 0 0.84725310900444062 0.80779732082917555 0 0.80041942726660109 0.81543261647703358 0 0.80185942888501827 0.074520613036224564 0 0.84725310900442086 0.10779732082922661 0 0.80076557130237269 0.1154587552654202 0 0.083105206071452636 0.79992298667296435 0 0.065374659239661639 0.8551091961254178 0 0.038512288486097702 0.8155852717111195 0 0.083105206071467416 0.20007701332709979 0 0.038512288486115001 0.1844147282893184 0 0.065374659239632718 0.1448908038746782 0 0.54782696902220018 0.79245182748204157 0 0.59636844454254345 0.75937156204589151 0 0.60294066490120068 0.80851322453934582 0 0.083411279318375747 0.91030024466934134 0 0.0443105827531413 0.89858748162559932 0 0.065374659239661639 0.8551091961254178 0 0.083411279318303222 0.089699755330707398 0 0.065374659239632718 0.1448908038746782 0 0.044310582753132287 0.101412518374475 0 0.84999999999965292 1 0 0.81486180804382891 0.96321394949790495 0 0.85170973911348691 0.93569607295217616 0 0.84999999999999987 0.29999999999999999 0 0.81486180804364938 0.26321394949780091 0 0.8517097391133297 0.2356960729520409 0 0.4656888918609538 0.78493261229743638 0 0.45677673713123867 0.84253684404072415 0 0.42609163930740518 0.80361684430568059 0 0.39536230704883951 0.84069429572832477 0 0.42609163930740518 0.80361684430568059 0 0.45677673713123867 0.84253684404072415 0 0.6236733212988993 0.14864538214901801 0 0.56202748619534593 0.15054058349222879 0 0.58516465772821369 0.11653801664834119 0 0.57412547362576272 0.58273804879550706 0 0.63065402604362242 0.59661356661633302 0 0.5991018319127801 0.62925360607495295 0 0.61343887413683884 0.856862479058357 0 0.5832743223239254 0.88483152652961872 0 0.55899371797446828 0.85003102233514438 0 0.50202631463681879 0.87892870825713787 0 0.55899371797446828 0.85003102233514438 0 0.54783390826260769 0.89287767010860219 0 0.51076801031701946 0.1202837388510348 0 0.54979595918804436 0.1060565713905809 0 0.56202748619534593 0.15054058349222879 0 0.55306006949600994 0.20198184231352201 0 0.59814117807200873 0.23398510860739519 0 0.54248833945060504 0.2520322959927106 0 0.83573492347052902 0.36590755630746369 0 0.82500000000000062 0.33010209762754811 0 0.87430060258887643 0.34056085888204451 0 0.83758014339878906 0.63222013025741819 0 0.87712158428786946 0.65709029563313581 0 0.82457059160610424 0.66831947184359608 0 0.49102375406324739 0.49123754822244059 0 0.53823865529665704 0.45873898050322898 0 0.53330375813596242 0.50827942741749099 0 0.52289427570932567 0.3932284363388488 0 0.57744073070774993 0.41535148636609359 0 0.53823865529665704 0.45873898050322898 0 0.4089290844030305 0.58728915500154233 0 0.37272913873093971 0.56192925302619479 0 0.42644501560315817 0.54603747078095544 0 0.49695729691142171 0.25014895411178018 0 0.4604742573284204 0.27846934318264788 0 0.46429753744194407 0.22870891180733599 0 0.90299850604011456 0.79563452813489832 0 0.85491058998424563 0.76004753345552634 0 0.89999166460796554 0.74528934923809909 0 0.90299850604006393 0.09563452813493091 0 0.85491058998398861 0.060047533455626502 0 0.899991664607802 0.045289349238254978 0 0.38244435121258652 0.51653317813019495 0 0.42644501560315817 0.54603747078095544 0 0.37272913873093971 0.56192925302619479 0 0.71406021706547751 0.63292083137662503 0 0.71809016091162536 0.58185040402320831 0 0.74994237037456724 0.62775548192980357 0 0.84723782639812573 0.48638347960178252 0 0.86907294890112186 0.52008116128001669 0 0.81441713509985358 0.51161854125224959 0 0.33122374654748771 0.57588941099433744 0 0.33190227185843768 0.52715113583864037 0 0.37272913873093971 0.56192925302619479 0 0.086179601630648681 0.64647209519980475 0 0.1241190223511371 0.64391885572885044 0 0.1020579365089687 0.69352219419301997 0 0.59999999999894682 0 0 0.64999999999907843 0 0 0.61940220174112337 0.047251958781050582 0 0.18269480424590959 0.75905448272264375 0 0.14335651144331049 0.75565258250209677 0 0.15332765547575641 0.71200081858233666 0 0.22549374774072969 0.58452645269293457 0 0.2459498854893499 0.63248470766216769 0 0.19914261668318661 0.62286739485272158 0 0.38244435121258652 0.51653317813019495 0 0.43507373378304309 0.49699695397193322 0 0.42644501560315817 0.54603747078095544 0 0.65000000000104008 1 0 0.60000000000138687 1 0 0.62065498684670595 0.95224934003983619 0 0.078358742472063481 0.43365249433908948 0 0.068743045408989428 0.48853989837882689 0 0.033550201249889847 0.46247875832467239 0 0.2236846579037573 0.67380363126050236 0 0.27820712747429932 0.65530134213254643 0 0.26439878998046262 0.7048065392091396 0 0.6879972333610942 0.43038561374960838 0 0.68128176404677243 0.38629093627004979 0 0.72622533758026719 0.40265885511101601 0 0.72525833953073282 0.1032114801687094 0 0.7010294155333181 0.056779085686491267 0 0.7527966693318906 0.053051678021508272 0 0.18269480424590959 0.75905448272264375 0 0.15332765547575641 0.71200081858233666 0 0.19068556247388771 0.71028988922845504 0 0.1216098864341134 0.50637075089503902 0 0.085622222639554768 0.53333248912060549 0 0.068743045408989428 0.48853989837882689 0 0.25676291524611189 0.7436741304886243 0 0.26439878998046262 0.7048065392091396 0 0.29904318922293632 0.74132814928635593 0 0.65481233915350323 0.35652751921065562 0 0.68128176404677243 0.38629093627004979 0 0.63912439215427275 0.41063340167983359 0 0.83573492347052902 0.36590755630746369 0 0.86844634540301924 0.38530937474099819 0 0.81308179852519835 0.39754945808726527 0 0.27270076654418179 0.87751467830216623 0 0.2401283238295133 0.85648409884788523 0 0.29209212897034281 0.84715728365233667 0 0.84999999999999987 0.69999999999999996 0 0.85491058998424563 0.76004753345552634 0 0.81864958914779962 0.73589050177899629 0 0.84999999999960507 0 0 0.85491058998398861 0.060047533455626502 0 0.81864958914740749 0.035890501779055867 0 0.18381867841758909 0.57774125163628387 0 0.19914261668318661 0.62286739485272158 0 0.15720202157091859 0.60665697304410315 0 0.22549374774072969 0.58452645269293457 0 0.19914261668318661 0.62286739485272158 0 0.18381867841758909 0.57774125163628387 0 0.79680861578988083 0.92656778056766709 0 0.85170973911348691 0.93569607295217616 0 0.81486180804382891 0.96321394949790495 0 0.79680861578956375 0.22656778056752541 0 0.8517097391133297 0.2356960729520409 0 0.81486180804364938 0.26321394949780091 0 0.20050006573841939 0.53248514016039872 0 0.23975172658309729 0.49475499200540818 0 0.25115337790845271 0.54719303014923271 0 0.28307294598219601 0.50789252727458634 0 0.25115337790845271 0.54719303014923271 0 0.23975172658309729 0.49475499200540818 0 0.20050006573841939 0.53248514016039872 0 0.18381867841758909 0.57774125163628387 0 0.14934928745814749 0.55042914607228977 0 0.19922788606653311 0.085920220746880993 0 0.22985637510995899 0.1298347970200906 0 0.18652628422869419 0.14162325200928061 0 0.33758650185219202 0.23837101504325639 0 0.38831533174504851 0.2189834941785925 0 0.3786248352540974 0.27082301512024259 0 0.42377727103934271 0.25099357235810238 0 0.3786248352540974 0.27082301512024259 0 0.38831533174504851 0.2189834941785925 0 0.19922788606653311 0.085920220746880993 0 0.18652628422869419 0.14162325200928061 0 0.16141998738593399 0.10404039647458049 0 0.54782696902220018 0.79245182748204157 0 0.55363780716230748 0.74348740161571747 0 0.59636844454254345 0.75937156204589151 0 0.82709327591091286 0.84937141670920724 0 0.88088768115933802 0.84674609810493673 0 0.85600844944837662 0.88483418979512773 0 0.82709327591102189 0.14937141670914489 0 0.88088768115941807 0.14674609810479519 0 0.85600844944842547 0.1848341897950983 0 0.27866744612395528 0.38416094670951489 0 0.22033343844674469 0.36963382230740238 0 0.25966125648670141 0.34351016742083729 0 0 0.50000000000205869 0 0.033550201249889847 0.46247875832467239 0 0.068743045408989428 0.48853989837882689 0 0.31378396441836959 0.70157213313026345 0 0.36622285152418499 0.69092437780804039 0 0.35415581127540569 0.73730480045900215 0 0.77293540622714185 0.59448302402785813 0 0.71809016091162536 0.58185040402320831 0 0.77151014687832564 0.54436834383023036 0 0.7152569930854884 0.5237994455134295 0 0.69385896817107129 0.48377516041410151 0 0.73947346780852752 0.49062440112282169 0 0.15801167086041079 0.46008690540259539 0 0.191953871957803 0.42546416763755879 0 0.19604738184454831 0.47787523520405789 0 0.57667858002728545 0.078486105337742612 0 0.61940220174112337 0.047251958781050582 0 0.61956000905586006 0.1043312481793135 0 0.65408113592120842 0.073941773121567966 0 0.61956000905586006 0.1043312481793135 0 0.61940220174112337 0.047251958781050582 0 0 0.55000000000173355 0 0 0.50000000000205869 0 0.044576108720083309 0.53509043209532614 0 0.65507451745379841 0.92229208810758578 0 0.62065498684670595 0.95224934003983619 0 0.61885627562261258 0.90282959257498208 0 0.57724883562309992 0.92155686857100794 0 0.61885627562261258 0.90282959257498208 0 0.62065498684670595 0.95224934003983619 0 0.91750694127107502 0.36982372220068471 0 0.86844634540301924 0.38530937474099819 0 0.87430060258887643 0.34056085888204451 0 0.91750694127105259 0.63017627779935648 0 0.87712158428786946 0.65709029563313581 0 0.87159648282691515 0.61285406320581504 0 0.33123028043633618 0.77629643437932982 0 0.29904318922293632 0.74132814928635593 0 0.35415581127540569 0.73730480045900215 0 0.86411095495256451 0.42388805655111889 0 0.84925632466077294 0.45359738909549091 0 0.81973119833356312 0.43505687159469048 0 0.43846182030517877 0.64845797726506715 0 0.47913475093885149 0.66010775372412711 0 0.43323420005758778 0.6913544522562407 0 0.18269480424590959 0.75905448272264375 0 0.19068556247388771 0.71028988922845504 0 0.2248999640082178 0.72584299459689172 0 0.39536230704883951 0.84069429572832477 0 0.38586766253264881 0.78219501014812498 0 0.42609163930740518 0.80361684430568059 0 0.59999999999999976 0.69999999999999996 0 0.63221990677827677 0.73442891067859706 0 0.59636844454254345 0.75937156204589151 0 0.27866744612395528 0.38416094670951489 0 0.24049127783545701 0.41270748208749802 0 0.22033343844674469 0.36963382230740238 0 0.82709327591091286 0.84937141670920724 0 0.84725310900444062 0.80779732082917555 0 0.88088768115933802 0.84674609810493673 0 0.82709327591102189 0.14937141670914489 0 0.84725310900442086 0.10779732082922661 0 0.88088768115941807 0.14674609810479519 0 0.1650278706801647 0.38791388161335733 0 0.18434624290945251 0.35208838264196463 0 0.22033343844674469 0.36963382230740238 0 0.4409427642593301 0.35743108089689513 0 0.49077833859261139 0.35229981449445641 0 0.46655310992796922 0.39650496622958609 0 0.80185942888539485 0.77452061303608133 0 0.81864958914779962 0.73589050177899629 0 0.85491058998424563 0.76004753345552634 0 0.80185942888501827 0.074520613036224564 0 0.81864958914740749 0.035890501779055867 0 0.85491058998398861 0.060047533455626502 0 0.29999999999926641 0 0 0.34999999999912063 0 0 0.32541448401678508 0.046215317981507749 0 0.35000000000145642 1 0 0.30000000000124832 1 0 0.32544832635163229 0.95485394099568932 0 0.4656888918609538 0.78493261229743638 0 0.50731287292894423 0.78963574450233831 0 0.50627822638148745 0.8263979829520941 0 0.2185883431182947 0.18019736283949719 0 0.25557216766470708 0.15874861286892261 0 0.26429849586623999 0.19346700179430079 0 1 0.29999999999999999 0 1 0.34999999999993492 0 0.95780851984364423 0.34215720972155339 0 1 0.29999999999999999 0 0.95780851984364423 0.34215720972155339 0 0.94999999999999996 0.29999999999999999 0 1 0.69999999999999996 0 0.94999999999999996 0.69999999999999996 0 0.9578014258160763 0.65787212321113708 0 1 0.69999999999999996 0 0.9578014258160763 0.65787212321113708 0 1 0.64999999999986979 0 0.91750694127107502 0.36982372220068471 0 0.90594285160987287 0.4141265964174129 0 0.86844634540301924 0.38530937474099819 0 0.91750694127105259 0.63017627779935648 0 0.87159648282691515 0.61285406320581504 0 0.91143117093204207 0.58709913730335972 0 0.74999999999999989 0.69999999999999996 0 0.7750489929959945 0.66593931409600093 0 0.79999999999999982 0.69999999999999996 0 0.74999999999999989 0.29999999999999999 0 0.79999999999999982 0.29999999999999999 0 0.78145581580700685 0.34881365920033602 0 0.54999999999999993 0.69999999999999996 0 0.57484956128872922 0.66573805030881994 0 0.59999999999999976 0.69999999999999996 0 0.90299850604011456 0.79563452813489832 0 0.94399509803918602 0.75600490196082126 0 0.95386563387742829 0.80414874155775029 0 0.90416666666660628 0.9041666666666166 0 0.95391631417670719 0.89584263333814784 0 0.94399509803919068 0.9439950980391687 0 0.90299850604006393 0.09563452813493091 0 0.94399509803922566 0.056004901960802607 0 0.95386563387744361 0.1041487415577465 0 0.90416666666668166 0.20416666666667119 0 0.95391631417672862 0.19584263333809451 0 0.94399509803921056 0.24399509803922639 0 0.22278230690790279 0.44824268025881547 0 0.19604738184454831 0.47787523520405789 0 0.191953871957803 0.42546416763755879 0 0.90299850604011456 0.79563452813489832 0 0.89999166460796554 0.74528934923809909 0 0.94399509803918602 0.75600490196082126 0 0.90299850604006393 0.09563452813493091 0 0.899991664607802 0.045289349238254978 0 0.94399509803922566 0.056004901960802607 0 0.49102375406324739 0.49123754822244059 0 0.47793794143994173 0.52940715638744962 0 0.43507373378304309 0.49699695397193322 0 0.90416666666660628 0.9041666666666166 0 0.94399509803919068 0.9439950980391687 0 0.89898474358632463 0.95391965591118966 0 0.90416666666668166 0.20416666666667119 0 0.94399509803921056 0.24399509803922639 0 0.89898474358614167 0.25391965591104898 0 0.65394964615507722 0.22666784374016369 0 0.62657463266645097 0.26524202571255862 0 0.59814117807200873 0.23398510860739519 0 0.6084546825910605 0.37989672713932537 0 0.63912439215427275 0.41063340167983359 0 0.57744073070774993 0.41535148636609359 0 0.61209567303293111 0.44669033081290321 0 0.57744073070774993 0.41535148636609359 0 0.63912439215427275 0.41063340167983359 0 0.25676291524611189 0.7436741304886243 0 0.22556077506376701 0.77837424984191617 0 0.2248999640082178 0.72584299459689172 0 0.61343887413683884 0.856862479058357 0 0.60294066490120068 0.80851322453934582 0 0.65005442820240822 0.82644988530054031 0 0.64999999999907843 0 0 0.66369801598854572 0.036327466368102787 0 0.61940220174112337 0.047251958781050582 0 0.40326160981139969 0.73346192995102844 0 0.38586766253264881 0.78219501014812498 0 0.35415581127540569 0.73730480045900215 0 0.33123028043633618 0.77629643437932982 0 0.35415581127540569 0.73730480045900215 0 0.38586766253264881 0.78219501014812498 0 0.26573297623774761 0.59828298563722948 0 0.29110487519241501 0.56588143995431495 0 0.31502927232353312 0.6134992213375432 0 0.77846603114747959 0.49850927265137401 0 0.81441713509985358 0.51161854125224959 0 0.77151014687832564 0.54436834383023036 0 0.82862096804812391 0.55037090955459045 0 0.77151014687832564 0.54436834383023036 0 0.81441713509985358 0.51161854125224959 0 0.50000000000205869 1 0 0.45000000000187229 1 0 0.47135117303824892 0.95556877749289892 0 0.44999999999882923 0 0 0.49999999999869432 0 0 0.47040171442036788 0.044141676406503738 0 0 0.7000000000006934 0 0 0.65000000000104008 0 0.046634677244967337 0.671418230738282 0 0 0.35000000000145642 0 0 0.30000000000124832 0 0.046389130980076937 0.32668781832131749 0 0.31378396441836959 0.70157213313026345 0 0.27820712747429932 0.65530134213254643 0 0.32263089806001177 0.66003674931826484 0 0.33122374654748771 0.57588941099433744 0 0.31502927232353312 0.6134992213375432 0 0.29110487519241501 0.56588143995431495 0 0.26573297623774761 0.59828298563722948 0 0.27820712747429932 0.65530134213254643 0 0.2459498854893499 0.63248470766216769 0 0.14474682429600511 0.85524784522713515 0 0.16206583317966519 0.89685560785156404 0 0.1241151115713819 0.9045666525468371 0 0.14332333627550789 0.14578431753966009 0 0.12372429750337779 0.095814237875728972 0 0.16141998738593399 0.10404039647458049 0 0.64753070846764316 0.77332939069435502 0 0.59636844454254345 0.75937156204589151 0 0.63221990677827677 0.73442891067859706 0 0.14474682429600511 0.85524784522713515 0 0.1241151115713819 0.9045666525468371 0 0.10562472963403439 0.87143394428979881 0 0.14332333627550789 0.14578431753966009 0 0.1053400320299198 0.12877248826361379 0 0.12372429750337779 0.095814237875728972 0 0.77354604466818633 0.40378688774472771 0 0.81308179852519835 0.39754945808726527 0 0.81973119833356312 0.43505687159469048 0 0.54782696902220018 0.79245182748204157 0 0.50945740445113552 0.75476055527778108 0 0.55363780716230748 0.74348740161571747 0 0.2236846579037573 0.67380363126050236 0 0.2459498854893499 0.63248470766216769 0 0.27820712747429932 0.65530134213254643 0 0.77293540622714185 0.59448302402785813 0 0.74994237037456724 0.62775548192980357 0 0.71809016091162536 0.58185040402320831 0 0 0.79999999999999982 0 0 0.75000000000034661 0 0.04408157711937423 0.7728941757575627 0 0 0.25000000000104028 0 0 0.20000000000083221 0 0.044081577119474857 0.2271058242433576 0 0.19999999999955789 0 0 0.24999999999941211 0 0 0.22668068146512929 0.045875643423131329 0 0.25000000000104028 1 0 0.20000000000083221 1 0 0.22850979588452081 0.95594428570238643 0 0.47357141910802508 0.1873585799078378 0 0.44288491854585582 0.14116182884956319 0 0.48466639505193998 0.1421439844745814 0 0.59999999999999976 0.29999999999999999 0 0.5794309697024993 0.27124795968204829 0 0.62657463266645097 0.26524202571255862 0 0.43249999999999988 0.43937499999999979 0 0.42161023666869668 0.39493916313643851 0 0.46655310992796922 0.39650496622958609 0 0.31068898841644388 0.47541502461811092 0 0.33190227185843768 0.52715113583864037 0 0.28307294598219601 0.50789252727458634 0 0.35024835142131061 0.48654922671676981 0 0.33190227185843768 0.52715113583864037 0 0.31068898841644388 0.47541502461811092 0 0.35864735590330371 0.63903383440414463 0 0.36622285152418499 0.69092437780804039 0 0.32263089806001177 0.66003674931826484 0 0.31378396441836959 0.70157213313026345 0 0.32263089806001177 0.66003674931826484 0 0.36622285152418499 0.69092437780804039 0 0.86956835336234861 0.571283299838105 0 0.90900154012161016 0.53607784105648792 0 0.91143117093204207 0.58709913730335972 0 0.6499999999999998 0.29999999999999999 0 0.65481233915350323 0.35652751921065562 0 0.61959173890754571 0.33832250091341232 0 0.4409427642593301 0.35743108089689513 0 0.46226845272279993 0.31901800744800313 0 0.49077833859261139 0.35229981449445641 0 0.5 0.29999999999999999 0 0.49077833859261139 0.35229981449445641 0 0.46226845272279993 0.31901800744800313 0 0.14999999999970359 0 0 0.19999999999955789 0 0 0.184418230509967 0.038773194583122873 0 0.20000000000083221 1 0 0.15000000000062411 1 0 0.18474005699953849 0.96231585248064622 0 1 0.49999999999950101 0 1 0.54999999999963112 0 0.95631871884947484 0.51827533208233789 0 0.38586766253264881 0.78219501014812498 0 0.42676259796334498 0.76772545931379299 0 0.42609163930740518 0.80361684430568059 0 0.20050006573841939 0.53248514016039872 0 0.22549374774072969 0.58452645269293457 0 0.18381867841758909 0.57774125163628387 0 0.065374659239661639 0.8551091961254178 0 0.1074251789111534 0.83564394292147814 0 0.10562472963403439 0.87143394428979881 0 0.065374659239632718 0.1448908038746782 0 0.1053400320299198 0.12877248826361379 0 0.106902708054812 0.16453234188234539 0 0.1650278706801647 0.38791388161335733 0 0.14223753364722069 0.3341983344262433 0 0.18434624290945251 0.35208838264196463 0 0.43249999999999988 0.43937499999999979 0 0.46111841286828259 0.46690301029591341 0 0.43507373378304309 0.49699695397193322 0 0.83758014339878906 0.63222013025741819 0 0.81723410853263523 0.59419663659258926 0 0.87159648282691515 0.61285406320581504 0 0.19670163708476801 0.31472518408333222 0 0.18434624290945251 0.35208838264196463 0 0.14223753364722069 0.3341983344262433 0 0.75000000000034661 1 0 0.7250000000005199 0.94981617647078953 0 0.770759834363826 0.95919399014344442 0 0.74999999999999989 0.29999999999999999 0 0.72500000000000064 0.2498161764706 0 0.77075983436335049 0.25919399014334171 0 0.69999999999999984 0.29999999999999999 0 0.67933712972090698 0.25920070958121938 0 0.72500000000000064 0.2498161764706 0 0.57611405284611883 0.50165903596042916 0 0.53330375813596242 0.50827942741749099 0 0.53823865529665704 0.45873898050322898 0 0.6499999999999998 0.29999999999999999 0 0.68887083591306764 0.33632058575757479 0 0.65481233915350323 0.35652751921065562 0 0.27866744612395528 0.38416094670951489 0 0.33277555741076909 0.36432196682010132 0 0.31778888742534622 0.40581751814196781 0 0.49102375406324739 0.49123754822244059 0 0.43507373378304309 0.49699695397193322 0 0.46111841286828259 0.46690301029591341 0 0.94999999999999996 0.69999999999999996 0 0.97166519676947294 0.73337114490064459 0 0.94399509803918602 0.75600490196082126 0 0.94999999999986839 0 0 0.97166519676946894 0.033371144900598393 0 0.94399509803922566 0.056004901960802607 0 0.94999999999999996 0.29999999999999999 0 0.94399509803921056 0.24399509803922639 0 0.97166519676951801 0.26662885509932011 0 0.94999999999979179 1 0 0.94399509803919068 0.9439950980391687 0 0.97166519676946206 0.96662885509935492 0 0.34258405725730701 0.4444034294386992 0 0.29124338931648802 0.43334555462578611 0 0.31778888742534622 0.40581751814196781 0 0.27866744612395528 0.38416094670951489 0 0.31778888742534622 0.40581751814196781 0 0.29124338931648802 0.43334555462578611 0 0.36575549820117997 0.31677992835137742 0 0.33277555741076909 0.36432196682010132 0 0.32752639306529541 0.32610012995269699 0 0.35752321586431363 0.9185439911803448 0 0.32544832635163229 0.95485394099568932 0 0.30864387279288652 0.89906554525974958 0 0.27609987656793722 0.94991445621608572 0 0.30864387279288652 0.89906554525974958 0 0.32544832635163229 0.95485394099568932 0 0.33123028043633618 0.77629643437932982 0 0.30857225866488791 0.81101973481716805 0 0.2792923945214143 0.77665808831789485 0 0.33758650185219202 0.23837101504325639 0 0.29132859388405002 0.27203693976649962 0 0.28040350263641872 0.23054717217092141 0 0.4409427642593301 0.35743108089689513 0 0.41914690343363781 0.30688979866601612 0 0.46226845272279993 0.31901800744800313 0 0.14332333627550789 0.14578431753966009 0 0.13737030665753211 0.20313708640667491 0 0.106902708054812 0.16453234188234539 0 0.083105206071467416 0.20007701332709979 0 0.106902708054812 0.16453234188234539 0 0.13737030665753211 0.20313708640667491 0 0.083105206071452636 0.79992298667296435 0 0.1382744753146134 0.79650574229207483 0 0.1074251789111534 0.83564394292147814 0 0.14474682429600511 0.85524784522713515 0 0.1074251789111534 0.83564394292147814 0 0.1382744753146134 0.79650574229207483 0 0.65408113592120842 0.073941773121567966 0 0.7010294155333181 0.056779085686491267 0 0.68330259535470161 0.10038702501083881 0 0.72525833953073282 0.1032114801687094 0 0.68330259535470161 0.10038702501083881 0 0.7010294155333181 0.056779085686491267 0 0.049706944316475897 0.72477277076253799 0 0.046634677244967337 0.671418230738282 0 0.1020579365089687 0.69352219419301997 0 0.086179601630648681 0.64647209519980475 0 0.1020579365089687 0.69352219419301997 0 0.046634677244967337 0.671418230738282 0 0.087545339447545459 0.35122518864182262 0 0.046389130980076937 0.32668781832131749 0 0.093851963071650835 0.30582068233324772 0 0.049706944316556423 0.27522722923869108 0 0.093851963071650835 0.30582068233324772 0 0.046389130980076937 0.32668781832131749 0 0.82709327591091286 0.84937141670920724 0 0.80041942726660109 0.81543261647703358 0 0.84725310900444062 0.80779732082917555 0 0.82709327591102189 0.14937141670914489 0 0.80076557130237269 0.1154587552654202 0 0.84725310900442086 0.10779732082922661 0 0.17933913398461551 0.2350063570234002 0 0.14377654328998779 0.2442024734791064 0 0.13737030665753211 0.20313708640667491 0 0.18269480424590959 0.75905448272264375 0 0.1382744753146134 0.79650574229207483 0 0.14335651144331049 0.75565258250209677 0 0.33758650185219202 0.23837101504325639 0 0.3786248352540974 0.27082301512024259 0 0.33402499257867951 0.28911035184473982 0 0.14332333627550789 0.14578431753966009 0 0.18124454140915969 0.18790916706335251 0 0.13737030665753211 0.20313708640667491 0 0.14474682429600511 0.85524784522713515 0 0.1382744753146134 0.79650574229207483 0 0.17777405986036951 0.81832336108265358 0 0.5 0.29999999999999999 0 0.52752007115234678 0.33170632466418198 0 0.49077833859261139 0.35229981449445641 0 0.27866744612395528 0.38416094670951489 0 0.29644548887253103 0.34914008784168082 0 0.33277555741076909 0.36432196682010132 0 0 0.84999999999965292 0 0 0.79999999999999982 0 0.038512288486097702 0.8155852717111195 0 0 0.20000000000083221 0 0 0.15000000000062411 0 0.038512288486115001 0.1844147282893184 0 0.40326160981139969 0.73346192995102844 0 0.35415581127540569 0.73730480045900215 0 0.36622285152418499 0.69092437780804039 0 0.91696753777131557 0.497780560203536 0 0.96228564064454991 0.48206450662049471 0 0.95631871884947484 0.51827533208233789 0 0.33758650185219202 0.23837101504325639 0 0.31255190597181792 0.19850845631528771 0 0.3572130504031617 0.1874703368446563 0 0.59814117807200873 0.23398510860739519 0 0.62657463266645097 0.26524202571255862 0 0.5794309697024993 0.27124795968204829 0 0.34258405725730701 0.4444034294386992 0 0.31068898841644388 0.47541502461811092 0 0.29124338931648802 0.43334555462578611 0 0.38083244760691543 0.38531983672244652 0 0.35221190152536241 0.40457127605439203 0 0.33277555741076909 0.36432196682010132 0 0.083411279318375747 0.91030024466934134 0 0.10266856499240549 0.95548163909968886 0 0.053064897599294662 0.95186845269532028 0 0.083411279318303222 0.089699755330707398 0 0.053064897599215843 0.048131547304697528 0 0.10266856499169109 0.044518360900210059 0 0.42377727103934271 0.25099357235810238 0 0.4604742573284204 0.27846934318264788 0 0.41914690343363781 0.30688979866601612 0 0.28307294598219601 0.50789252727458634 0 0.25982634974572738 0.46097799597715272 0 0.31068898841644388 0.47541502461811092 0 0.29348325746214782 0.31350119524708198 0 0.29132859388405002 0.27203693976649962 0 0.33402499257867951 0.28911035184473982 0 0.35312867752657662 0.084946736076730367 0 0.39823268594401579 0.1116623613130045 0 0.36246644853392812 0.1399454205365751 0 0.7000000000006934 1 0 0.68015064798562208 0.95924320340003011 0 0.7250000000005199 0.94981617647078953 0 0.42377727103934271 0.25099357235810238 0 0.38831533174504851 0.2189834941785925 0 0.42905200079338551 0.19982395548231649 0 0.53823865529665704 0.45873898050322898 0 0.57744073070774993 0.41535148636609359 0 0.57975577671020095 0.46172033326338591 0 0.33758650185219202 0.23837101504325639 0 0.3572130504031617 0.1874703368446563 0 0.38831533174504851 0.2189834941785925 0 0.29124338931648802 0.43334555462578611 0 0.31068898841644388 0.47541502461811092 0 0.25982634974572738 0.46097799597715272 0 0.6084546825910605 0.37989672713932537 0 0.61959173890754571 0.33832250091341232 0 0.65481233915350323 0.35652751921065562 0 0.40326160981139969 0.73346192995102844 0 0.43323420005758778 0.6913544522562407 0 0.45582236402875981 0.73896743678908217 0 0.33758650185219202 0.23837101504325639 0 0.28040350263641872 0.23054717217092141 0 0.31255190597181792 0.19850845631528771 0 0.79999999999999982 1 0 0.75000000000034661 1 0 0.770759834363826 0.95919399014344442 0 0.74999999999999989 0.29999999999999999 0 0.77075983436335049 0.25919399014334171 0 0.79999999999999982 0.29999999999999999 0 0.6499999999999998 0.29999999999999999 0 0.67933712972090698 0.25920070958121938 0 0.69999999999999984 0.29999999999999999 0 0.39536230704883951 0.84069429572832477 0 0.39767323751400468 0.89584229130535065 0 0.35864759629805099 0.87963482415279515 0 0.54999999999999993 0.69999999999999996 0 0.52584555706968406 0.66664215091846768 0 0.57484956128872922 0.66573805030881994 0 0.35312867752657662 0.084946736076730367 0 0.32541448401678508 0.046215317981507749 0 0.3615861437013822 0.03582617922508851 0 0.35752321586431363 0.9185439911803448 0 0.36184234618600131 0.96443954459096326 0 0.32544832635163229 0.95485394099568932 0 0.35312867752657662 0.084946736076730367 0 0.3615861437013822 0.03582617922508851 0 0.39591832466117061 0.056982757562006353 0 0.35752321586431363 0.9185439911803448 0 0.39641108128798319 0.94356127926187128 0 0.36184234618600131 0.96443954459096326 0 0.083411279318303222 0.089699755330707398 0 0.044310582753132287 0.101412518374475 0 0.053064897599215843 0.048131547304697528 0 0.083411279318375747 0.91030024466934134 0 0.053064897599294662 0.95186845269532028 0 0.0443105827531413 0.89858748162559932 0 0.38083244760691543 0.38531983672244652 0 0.40076539126862748 0.34589349467022118 0 0.42161023666869668 0.39493916313643851 0 0.4409427642593301 0.35743108089689513 0 0.42161023666869668 0.39493916313643851 0 0.40076539126862748 0.34589349467022118 0 0.79999999999999982 0.29999999999999999 0 0.82500000000000062 0.33010209762754811 0 0.78145581580700685 0.34881365920033602 0 0.79999999999999982 0.69999999999999996 0 0.7750489929959945 0.66593931409600093 0 0.82457059160610424 0.66831947184359608 0 0.59999999999999976 0.69999999999999996 0 0.57484956128872922 0.66573805030881994 0 0.62460753523532009 0.66851202781000296 0 0.74999999999999989 0.69999999999999996 0 0.72500000000000064 0.67022701834392062 0 0.7750489929959945 0.66593931409600093 0 0.74999999999999989 0.29999999999999999 0 0.78145581580700685 0.34881365920033602 0 0.73090396928863699 0.33699297293167962 0 0.33758650185219202 0.23837101504325639 0 0.33402499257867951 0.28911035184473982 0 0.29132859388405002 0.27203693976649962 0 0.36575549820117997 0.31677992835137742 0 0.41914690343363781 0.30688979866601612 0 0.40076539126862748 0.34589349467022118 0 0.4409427642593301 0.35743108089689513 0 0.40076539126862748 0.34589349467022118 0 0.41914690343363781 0.30688979866601612 0 0.34258405725730701 0.4444034294386992 0 0.38707855792647411 0.42299362914874578 0 0.3908716102680424 0.47010282357248828 0 0.7000000000006934 1 0 0.65000000000104008 1 0 0.68015064798562208 0.95924320340003011 0 0.49102375406324739 0.49123754822244059 0 0.46111841286828259 0.46690301029591341 0 0.48858720058566618 0.43964267759203868 0 0.4656888918609538 0.78493261229743638 0 0.42676259796334498 0.76772545931379299 0 0.45582236402875981 0.73896743678908217 0 0.40326160981139969 0.73346192995102844 0 0.45582236402875981 0.73896743678908217 0 0.42676259796334498 0.76772545931379299 0 0.59999999999999976 0.29999999999999999 0 0.62657463266645097 0.26524202571255862 0 0.6499999999999998 0.29999999999999999 0 0.40000000000166441 1 0 0.36184234618600131 0.96443954459096326 0 0.39641108128798319 0.94356127926187128 0 0.3999999999989749 0 0 0.39591832466117061 0.056982757562006353 0 0.3615861437013822 0.03582617922508851 0 0.43249999999999988 0.43937499999999979 0 0.48858720058566618 0.43964267759203868 0 0.46111841286828259 0.46690301029591341 0 0.7250000000005199 0.89375000000045834 0 0.7250000000005199 0.94981617647078953 0 0.68987011941058407 0.92105047536677087 0 0.7250000000005199 0.89375000000045834 0 0.75729602384198635 0.92353652857884294 0 0.7250000000005199 0.94981617647078953 0 0.72500000000001008 0.19776155966387679 0 0.75668890529066124 0.2244279804069782 0 0.72500000000000064 0.2498161764706 0 0.72500000000001008 0.19776155966387679 0 0.72500000000000064 0.2498161764706 0 0.69397719155551807 0.2245125647000914 0 0.79999999999999982 0.29999999999999999 0 0.81486180804364938 0.26321394949780091 0 0.84999999999999987 0.29999999999999999 0 0.84999999999965292 1 0 0.79999999999999982 1 0 0.81486180804382891 0.96321394949790495 0 0.1247745017231483 0.27198077544791172 0 0.095326043202144745 0.24554465089224409 0 0.14377654328998779 0.2442024734791064 0 0.1215415378367805 0.72939333680004137 0 0.14335651144331049 0.75565258250209677 0 0.090953281884486245 0.7564451946902494 0 0.72500000000001008 0.19776155966387679 0 0.72634814642510737 0.16106886917518889 0 0.76587607630038135 0.18880039518954719 0 0.72500000000001008 0.19776155966387679 0 0.6865991819015953 0.189116534044597 0 0.72634814642510737 0.16106886917518889 0 0.77144070960558853 0.14311854477243749 0 0.76587607630038135 0.18880039518954719 0 0.72634814642510737 0.16106886917518889 0 0.68391457121233579 0.14440470121196541 0 0.72634814642510737 0.16106886917518889 0 0.6865991819015953 0.189116534044597 0 0.7250000000005199 0.89375000000045834 0 0.72863726579783861 0.85390518901155588 0 0.76891166905518427 0.88835469571185499 0 0.76901770135486491 0.84293557325473656 0 0.76891166905518427 0.88835469571185499 0 0.72863726579783861 0.85390518901155588 0 0 0.20000000000083221 0 0.038512288486115001 0.1844147282893184 0 0.044081577119474857 0.2271058242433576 0 0 0.79999999999999982 0 0.04408157711937423 0.7728941757575627 0 0.038512288486097702 0.8155852717111195 0 0.52375890611712683 0.059318771819432882 0 0.47881186583059909 0.093591717165689425 0 0.47040171442036788 0.044141676406503738 0 0.52122150208832174 0.94089974453840242 0 0.47135117303824892 0.95556877749289892 0 0.47401147028110507 0.91529957330468115 0 0.27474541102162192 0.11822029332053539 0 0.3096713403101819 0.085471541595262421 0 0.32215584939770009 0.1218492143506909 0 0.22278230690790279 0.44824268025881547 0 0.24049127783545701 0.41270748208749802 0 0.25982634974572738 0.46097799597715272 0 0.93732437411268477 0.55911392101136159 0 0.91143117093204207 0.58709913730335972 0 0.90900154012161016 0.53607784105648792 0 0.19901705110390991 0.9175543425573498 0 0.24536017905392571 0.90704567837671446 0 0.22850979588452081 0.95594428570238643 0 0.27609987656793722 0.94991445621608572 0 0.22850979588452081 0.95594428570238643 0 0.24536017905392571 0.90704567837671446 0 0.15720202157091859 0.60665697304410315 0 0.1241190223511371 0.64391885572885044 0 0.1024350934457823 0.60772393977513839 0 0.6499999999999998 0.69999999999999996 0 0.675261390228442 0.65996937624687813 0 0.69999999999999984 0.69999999999999996 0 0.3999999999989749 0 0 0.4320097814748517 0.037406712692169303 0 0.39591832466117061 0.056982757562006353 0 0.40000000000166441 1 0 0.39641108128798319 0.94356127926187128 0 0.4308986359464303 0.96395712492906194 0 0.54999999999999993 0.29999999999999999 0 0.56836770495988642 0.3523062350852913 0 0.52752007115234678 0.33170632466418198 0 0.14474682429600511 0.85524784522713515 0 0.17777405986036951 0.81832336108265358 0 0.19741632902693801 0.86755867406447229 0 0.21858834311891909 0.81980263716112767 0 0.19741632902693801 0.86755867406447229 0 0.17777405986036951 0.81832336108265358 0 0.54782696902220018 0.79245182748204157 0 0.50731287292894423 0.78963574450233831 0 0.50945740445113552 0.75476055527778108 0 0.20000000000083221 1 0 0.18474005699953849 0.96231585248064622 0 0.22850979588452081 0.95594428570238643 0 0.19999999999955789 0 0 0.22668068146512929 0.045875643423131329 0 0.184418230509967 0.038773194583122873 0 0.77846603114747959 0.49850927265137401 0 0.73947346780852752 0.49062440112282169 0 0.77972660463949339 0.45529290596363098 0 0.73483647259922602 0.44789725365921768 0 0.77972660463949339 0.45529290596363098 0 0.73947346780852752 0.49062440112282169 0 0.34258405725730701 0.4444034294386992 0 0.35024835142131061 0.48654922671676981 0 0.31068898841644388 0.47541502461811092 0 0.33123028043633618 0.77629643437932982 0 0.2792923945214143 0.77665808831789485 0 0.29904318922293632 0.74132814928635593 0 0.26573297623774761 0.59828298563722948 0 0.25115337790845271 0.54719303014923271 0 0.29110487519241501 0.56588143995431495 0 0.4656888918609538 0.78493261229743638 0 0.50945740445113552 0.75476055527778108 0 0.50731287292894423 0.78963574450233831 0 0.35312867752657662 0.084946736076730367 0 0.36246644853392812 0.1399454205365751 0 0.32215584939770009 0.1218492143506909 0 0.29348325746214782 0.31350119524708198 0 0.25966125648670141 0.34351016742083729 0 0.24432083401701241 0.3006253385567515 0 0.59999999999999976 0.69999999999999996 0 0.6499999999999998 0.69999999999999996 0 0.63221990677827677 0.73442891067859706 0 0.69999999999921003 0 0 0.7010294155333181 0.056779085686491267 0 0.66369801598854572 0.036327466368102787 0 0.40000000000166441 1 0 0.35000000000145642 1 0 0.36184234618600131 0.96443954459096326 0 0.34999999999912063 0 0 0.3999999999989749 0 0 0.3615861437013822 0.03582617922508851 0 0.43507373378304309 0.49699695397193322 0 0.47793794143994173 0.52940715638744962 0 0.42644501560315817 0.54603747078095544 0 0.14474682429600511 0.85524784522713515 0 0.19741632902693801 0.86755867406447229 0 0.16206583317966519 0.89685560785156404 0 0.19901705110390991 0.9175543425573498 0 0.16206583317966519 0.89685560785156404 0 0.19741632902693801 0.86755867406447229 0 0.35864735590330371 0.63903383440414463 0 0.3977710372045391 0.65868194622830212 0 0.36622285152418499 0.69092437780804039 0 0.7527966693318906 0.053051678021508272 0 0.7010294155333181 0.056779085686491267 0 0.72683645290270404 0.027797073151180601 0 0.71508799138962864 0.36622814920737751 0 0.72622533758026719 0.40265885511101601 0 0.68128176404677243 0.38629093627004979 0 0.79999999999999982 0.69999999999999996 0 0.84999999999999987 0.69999999999999996 0 0.81864958914779962 0.73589050177899629 0 0.79999999999947335 0 0 0.84999999999960507 0 0 0.81864958914740749 0.035890501779055867 0 0.39536230704883951 0.84069429572832477 0 0.35642984951668422 0.80994399665655703 0 0.38586766253264881 0.78219501014812498 0 0.42377727103934271 0.25099357235810238 0 0.46429753744194407 0.22870891180733599 0 0.4604742573284204 0.27846934318264788 0 0.39801143831225599 0.16651381068160659 0 0.42905200079338551 0.19982395548231649 0 0.38831533174504851 0.2189834941785925 0 0.79999999999999982 1 0 0.770759834363826 0.95919399014344442 0 0.81486180804382891 0.96321394949790495 0 0.79999999999999982 0.29999999999999999 0 0.77075983436335049 0.25919399014334171 0 0.81486180804364938 0.26321394949780091 0 0.25195515620380449 0.25883339815888678 0 0.21049769590865089 0.26857363548218488 0 0.224700362040408 0.22206622194729711 0 0.40326160981139969 0.73346192995102844 0 0.42676259796334498 0.76772545931379299 0 0.38586766253264881 0.78219501014812498 0 0.35312867752657662 0.084946736076730367 0 0.3096713403101819 0.085471541595262421 0 0.32541448401678508 0.046215317981507749 0 0.59999999999999976 0.29999999999999999 0 0.6499999999999998 0.29999999999999999 0 0.61959173890754571 0.33832250091341232 0 0.2185883431182947 0.18019736283949719 0 0.18652628422869419 0.14162325200928061 0 0.22985637510995899 0.1298347970200906 0 0.64999999999907843 0 0 0.69999999999921003 0 0 0.66369801598854572 0.036327466368102787 0 0.27499999999933927 0.060310814194988557 0 0.24218496799700481 0.089025544070598317 0 0.22668068146512929 0.045875643423131329 0 0.19922788606653311 0.085920220746880993 0 0.22668068146512929 0.045875643423131329 0 0.24218496799700481 0.089025544070598317 0 0.65507451745379841 0.92229208810758578 0 0.66412543161245952 0.88015090885499059 0 0.68987011941058407 0.92105047536677087 0 0.049706944316475897 0.72477277076253799 0 0.090953281884486245 0.7564451946902494 0 0.04408157711937423 0.7728941757575627 0 0.083105206071452636 0.79992298667296435 0 0.04408157711937423 0.7728941757575627 0 0.090953281884486245 0.7564451946902494 0 0.083105206071467416 0.20007701332709979 0 0.095326043202144745 0.24554465089224409 0 0.044081577119474857 0.2271058242433576 0 0.049706944316556423 0.27522722923869108 0 0.044081577119474857 0.2271058242433576 0 0.095326043202144745 0.24554465089224409 0 0.36575549820117997 0.31677992835137742 0 0.33402499257867951 0.28911035184473982 0 0.3786248352540974 0.27082301512024259 0 0.53245488764484505 0.55078124999999989 0 0.53330375813596242 0.50827942741749099 0 0.57435499076887508 0.54267261987897775 0 0.57611405284611883 0.50165903596042916 0 0.57435499076887508 0.54267261987897775 0 0.53330375813596242 0.50827942741749099 0 0.6499999999999998 0.29999999999999999 0 0.69999999999999984 0.29999999999999999 0 0.68887083591306764 0.33632058575757479 0 0.57611405284611883 0.50165903596042916 0 0.53823865529665704 0.45873898050322898 0 0.57975577671020095 0.46172033326338591 0 0.7750489929959945 0.66593931409600093 0 0.72500000000000064 0.67022701834392062 0 0.74994237037456724 0.62775548192980357 0 0.78145581580700685 0.34881365920033602 0 0.74764719760526988 0.3719647154012321 0 0.73090396928863699 0.33699297293167962 0 0.3999999999989749 0 0 0.44999999999882923 0 0 0.4320097814748517 0.037406712692169303 0 0.45000000000187229 1 0 0.40000000000166441 1 0 0.4308986359464303 0.96395712492906194 0 0.57484956128872922 0.66573805030881994 0 0.5991018319127801 0.62925360607495295 0 0.62460753523532009 0.66851202781000296 0 0.7750489929959945 0.66593931409600093 0 0.79884539758237771 0.62875045078114233 0 0.82457059160610424 0.66831947184359608 0 0.39801143831225599 0.16651381068160659 0 0.36246644853392812 0.1399454205365751 0 0.39823268594401579 0.1116623613130045 0 0.078358742472063481 0.43365249433908948 0 0.033550201249889847 0.46247875832467239 0 0.035463093262830522 0.42673416072819947 0 0.25676291524611189 0.7436741304886243 0 0.2792923945214143 0.77665808831789485 0 0.22556077506376701 0.77837424984191617 0 0.2236846579037573 0.67380363126050236 0 0.2248999640082178 0.72584299459689172 0 0.19068556247388771 0.71028988922845504 0 0.50715858906372158 0.63295939104129484 0 0.5166924242153631 0.59825134841919447 0 0.5498280205245758 0.6290146943450976 0 0.14618258501891079 0.062070108745602003 0 0.12372429750337779 0.095814237875728972 0 0.10266856499169109 0.044518360900210059 0 0.083411279318303222 0.089699755330707398 0 0.10266856499169109 0.044518360900210059 0 0.12372429750337779 0.095814237875728972 0 0.083411279318375747 0.91030024466934134 0 0.1241151115713819 0.9045666525468371 0 0.10266856499240549 0.95548163909968886 0 0.14617343800780541 0.93808063414349496 0 0.10266856499240549 0.95548163909968886 0 0.1241151115713819 0.9045666525468371 0 0.5499999999988151 0 0 0.59999999999894682 0 0 0.57396793757665954 0.037011367187645222 0 0.54782696902220018 0.79245182748204157 0 0.50627822638148745 0.8263979829520941 0 0.50731287292894423 0.78963574450233831 0 0.6499999999999998 0.29999999999999999 0 0.62657463266645097 0.26524202571255862 0 0.67933712972090698 0.25920070958121938 0 0.86956835336234861 0.571283299838105 0 0.86907294890112186 0.52008116128001669 0 0.90900154012161016 0.53607784105648792 0 0.17933913398461551 0.2350063570234002 0 0.224700362040408 0.22206622194729711 0 0.21049769590865089 0.26857363548218488 0 0.43249999999999988 0.43937499999999979 0 0.3908716102680424 0.47010282357248828 0 0.38707855792647411 0.42299362914874578 0 0.27474541102162192 0.11822029332053539 0 0.22985637510995899 0.1298347970200906 0 0.24218496799700481 0.089025544070598317 0 0.64753070846764316 0.77332939069435502 0 0.66427993341343905 0.73232764502436276 0 0.6916490518212759 0.75387992374886192 0 0 0.40000000000166441 0 0.050583896093752537 0.38543522283434112 0 0.035463093262830522 0.42673416072819947 0 0.73483647259922602 0.44789725365921768 0 0.73947346780852752 0.49062440112282169 0 0.69385896817107129 0.48377516041410151 0 0.57484956128872922 0.66573805030881994 0 0.52584555706968406 0.66664215091846768 0 0.5498280205245758 0.6290146943450976 0 0.60000000000138687 1 0 0.55000000000173355 1 0 0.57382506491224949 0.9629411906298494 0 0.068743045408989428 0.48853989837882689 0 0.085622222639554768 0.53333248912060549 0 0.044576108720083309 0.53509043209532614 0 0.083105206071467416 0.20007701332709979 0 0.044081577119474857 0.2271058242433576 0 0.038512288486115001 0.1844147282893184 0 0.083105206071452636 0.79992298667296435 0 0.038512288486097702 0.8155852717111195 0 0.04408157711937423 0.7728941757575627 0 0.28307294598219601 0.50789252727458634 0 0.23975172658309729 0.49475499200540818 0 0.25982634974572738 0.46097799597715272 0 0.43698630808430822 0.080423614171545449 0 0.39591832466117061 0.056982757562006353 0 0.4320097814748517 0.037406712692169303 0 0.4367309254023824 0.92065556789053882 0 0.4308986359464303 0.96395712492906194 0 0.39641108128798319 0.94356127926187128 0 0.80185942888539485 0.77452061303608133 0 0.75841349681148107 0.75422312624214749 0 0.78578450296893509 0.73292684821144505 0 0.80185942888501827 0.074520613036224564 0 0.7527966693318906 0.053051678021508272 0 0.78393852574753176 0.032039079577822822 0 0.6499999999999998 0.69999999999999996 0 0.62460753523532009 0.66851202781000296 0 0.675261390228442 0.65996937624687813 0 0.33123028043633618 0.77629643437932982 0 0.38586766253264881 0.78219501014812498 0 0.35642984951668422 0.80994399665655703 0 0.6405463747586706 0.63290524857395714 0 0.675261390228442 0.65996937624687813 0 0.62460753523532009 0.66851202781000296 0 0.22278230690790279 0.44824268025881547 0 0.191953871957803 0.42546416763755879 0 0.24049127783545701 0.41270748208749802 0 0.077693244765132896 0.56932317963405099 0 0.050069554451969707 0.61308520079857043 0 0.034381862692950467 0.57372682250960894 0 0.25195515620380449 0.25883339815888678 0 0.24432083401701241 0.3006253385567515 0 0.21049769590865089 0.26857363548218488 0 0.46666084890304671 0.57634471035397938 0 0.5166924242153631 0.59825134841919447 0 0.47095389620662098 0.61892551373708504 0 0.50715858906372158 0.63295939104129484 0 0.47095389620662098 0.61892551373708504 0 0.5166924242153631 0.59825134841919447 0 0.72525833953073282 0.1032114801687094 0 0.7527966693318906 0.053051678021508272 0 0.76878382444651716 0.097147941686331368 0 0.80185942888501827 0.074520613036224564 0 0.76878382444651716 0.097147941686331368 0 0.7527966693318906 0.053051678021508272 0 0.72500000000000064 0.7952620967744265 0 0.75841349681148107 0.75422312624214749 0 0.77094201086366854 0.79647480515688507 0 0.80185942888539485 0.77452061303608133 0 0.77094201086366854 0.79647480515688507 0 0.75841349681148107 0.75422312624214749 0 0.72500000000000064 0.7952620967744265 0 0.68024162096458085 0.79868546898116533 0 0.6916490518212759 0.75387992374886192 0 0.64753070846764316 0.77332939069435502 0 0.6916490518212759 0.75387992374886192 0 0.68024162096458085 0.79868546898116533 0 0 0.50000000000205869 0 0 0.45000000000187229 0 0.033550201249889847 0.46247875832467239 0 0.69999999999999984 0.69999999999999996 0 0.675261390228442 0.65996937624687813 0 0.72500000000000064 0.67022701834392062 0 0.71406021706547751 0.63292083137662503 0 0.72500000000000064 0.67022701834392062 0 0.675261390228442 0.65996937624687813 0 0.65408113592120842 0.073941773121567966 0 0.61940220174112337 0.047251958781050582 0 0.66369801598854572 0.036327466368102787 0 0.59999999999894682 0 0 0.61940220174112337 0.047251958781050582 0 0.57396793757665954 0.037011367187645222 0 0.60000000000138687 1 0 0.57382506491224949 0.9629411906298494 0 0.62065498684670595 0.95224934003983619 0 0.33122374654748771 0.57588941099433744 0 0.35765792684946668 0.6000687869219653 0 0.31502927232353312 0.6134992213375432 0 0.35864735590330371 0.63903383440414463 0 0.31502927232353312 0.6134992213375432 0 0.35765792684946668 0.6000687869219653 0 0.15801167086041079 0.46008690540259539 0 0.19604738184454831 0.47787523520405789 0 0.16618607197337229 0.50652878253548905 0 0.078358742472063481 0.43365249433908948 0 0.035463093262830522 0.42673416072819947 0 0.050583896093752537 0.38543522283434112 0 0.19901705110390991 0.9175543425573498 0 0.22850979588452081 0.95594428570238643 0 0.18474005699953849 0.96231585248064622 0 0.19922788606653311 0.085920220746880993 0 0.184418230509967 0.038773194583122873 0 0.22668068146512929 0.045875643423131329 0 0.19922788606653311 0.085920220746880993 0 0.24218496799700481 0.089025544070598317 0 0.22985637510995899 0.1298347970200906 0 0.74999999999999989 0.69999999999999996 0 0.78578450296893509 0.73292684821144505 0 0.75841349681148107 0.75422312624214749 0 0.74999999999934175 0 0 0.78393852574753176 0.032039079577822822 0 0.7527966693318906 0.053051678021508272 0 0 0.60000000000138687 0 0.034381862692950467 0.57372682250960894 0 0.050069554451969707 0.61308520079857043 0 0.2236846579037573 0.67380363126050236 0 0.26439878998046262 0.7048065392091396 0 0.2248999640082178 0.72584299459689172 0 0.6236733212988993 0.14864538214901801 0 0.58516465772821369 0.11653801664834119 0 0.61956000905586006 0.1043312481793135 0 0.26104540868854792 0.81401944968719064 0 0.2792923945214143 0.77665808831789485 0 0.30857225866488791 0.81101973481716805 0 0.42377727103934271 0.25099357235810238 0 0.42905200079338551 0.19982395548231649 0 0.46429753744194407 0.22870891180733599 0 0.27820712747429932 0.65530134213254643 0 0.31502927232353312 0.6134992213375432 0 0.32263089806001177 0.66003674931826484 0 0.61343887413683884 0.856862479058357 0 0.61885627562261258 0.90282959257498208 0 0.5832743223239254 0.88483152652961872 0 0.43698630808430822 0.080423614171545449 0 0.47040171442036788 0.044141676406503738 0 0.47881186583059909 0.093591717165689425 0 0.4367309254023824 0.92065556789053882 0 0.47401147028110507 0.91529957330468115 0 0.47135117303824892 0.95556877749289892 0 0.91696753777131557 0.497780560203536 0 0.95631871884947484 0.51827533208233789 0 0.90900154012161016 0.53607784105648792 0 0.93732437411268477 0.55911392101136159 0 0.90900154012161016 0.53607784105648792 0 0.95631871884947484 0.51827533208233789 0 0.27474541102162192 0.11822029332053539 0 0.25557216766470708 0.15874861286892261 0 0.22985637510995899 0.1298347970200906 0 0.2185883431182947 0.18019736283949719 0 0.22985637510995899 0.1298347970200906 0 0.25557216766470708 0.15874861286892261 0 0.29348325746214782 0.31350119524708198 0 0.33402499257867951 0.28911035184473982 0 0.32752639306529541 0.32610012995269699 0 0.27499999999933927 0.060310814194988557 0 0.32541448401678508 0.046215317981507749 0 0.3096713403101819 0.085471541595262421 0 0.27270076654418179 0.87751467830216623 0 0.24536017905392571 0.90704567837671446 0 0.2401283238295133 0.85648409884788523 0 1 0.44999999999963131 0 1 0.49999999999950101 0 0.96228564064454991 0.48206450662049471 0 0.61343887413683884 0.856862479058357 0 0.66412543161245952 0.88015090885499059 0 0.61885627562261258 0.90282959257498208 0 0 0.45000000000187229 0 0 0.40000000000166441 0 0.035463093262830522 0.42673416072819947 0 0.69999999999999984 0.69999999999999996 0 0.6916490518212759 0.75387992374886192 0 0.66427993341343905 0.73232764502436276 0 0.43846182030517877 0.64845797726506715 0 0.43323420005758778 0.6913544522562407 0 0.3977710372045391 0.65868194622830212 0 0.4367309254023824 0.92065556789053882 0 0.44003836461056539 0.88093474584252718 0 0.47401147028110507 0.91529957330468115 0 0.43846182030517877 0.64845797726506715 0 0.39743091024207589 0.6239520004230239 0 0.43545892161006339 0.61093128915313821 0 0.43846182030517877 0.64845797726506715 0 0.3977710372045391 0.65868194622830212 0 0.39743091024207589 0.6239520004230239 0 0.26429849586623999 0.19346700179430079 0 0.29336099386129338 0.15892013001050981 0 0.31255190597181792 0.19850845631528771 0 0.19670163708476801 0.31472518408333222 0 0.21049769590865089 0.26857363548218488 0 0.24432083401701241 0.3006253385567515 0 0.57724883562309992 0.92155686857100794 0 0.62065498684670595 0.95224934003983619 0 0.57382506491224949 0.9629411906298494 0 0.4409427642593301 0.35743108089689513 0 0.46655310992796922 0.39650496622958609 0 0.42161023666869668 0.39493916313643851 0 0.46666084890304671 0.57634471035397938 0 0.47095389620662098 0.61892551373708504 0 0.43545892161006339 0.61093128915313821 0 0.6879972333610942 0.43038561374960838 0 0.65178832218679827 0.45929119821019959 0 0.63912439215427275 0.41063340167983359 0 0.43698630808430822 0.080423614171545449 0 0.4320097814748517 0.037406712692169303 0 0.47040171442036788 0.044141676406503738 0 0.4367309254023824 0.92065556789053882 0 0.47135117303824892 0.95556877749289892 0 0.4308986359464303 0.96395712492906194 0 0.79680861578988083 0.92656778056766709 0 0.81486180804382891 0.96321394949790495 0 0.770759834363826 0.95919399014344442 0 0.79680861578956375 0.22656778056752541 0 0.81486180804364938 0.26321394949780091 0 0.77075983436335049 0.25919399014334171 0 0.71508799138962864 0.36622814920737751 0 0.68128176404677243 0.38629093627004979 0 0.68887083591306764 0.33632058575757479 0 0.35864735590330371 0.63903383440414463 0 0.32263089806001177 0.66003674931826484 0 0.31502927232353312 0.6134992213375432 0 0.21858834311891909 0.81980263716112767 0 0.2401283238295133 0.85648409884788523 0 0.19741632902693801 0.86755867406447229 0 0.35312867752657662 0.084946736076730367 0 0.32215584939770009 0.1218492143506909 0 0.3096713403101819 0.085471541595262421 0 0.35752321586431363 0.9185439911803448 0 0.35864759629805099 0.87963482415279515 0 0.39767323751400468 0.89584229130535065 0 0.41914690343363781 0.30688979866601612 0 0.4604742573284204 0.27846934318264788 0 0.46226845272279993 0.31901800744800313 0 0.33084213324567391 0.16272720141332131 0 0.32215584939770009 0.1218492143506909 0 0.36246644853392812 0.1399454205365751 0 0.46666084890304671 0.57634471035397938 0 0.42644501560315817 0.54603747078095544 0 0.47793794143994173 0.52940715638744962 0 0 0.60000000000138687 0 0 0.55000000000173355 0 0.034381862692950467 0.57372682250960894 0 0.77354604466818633 0.40378688774472771 0 0.74764719760526988 0.3719647154012321 0 0.78145581580700685 0.34881365920033602 0 0.34999999999912063 0 0 0.3615861437013822 0.03582617922508851 0 0.32541448401678508 0.046215317981507749 0 0.35000000000145642 1 0 0.32544832635163229 0.95485394099568932 0 0.36184234618600131 0.96443954459096326 0 0.57667858002728545 0.078486105337742612 0 0.57396793757665954 0.037011367187645222 0 0.61940220174112337 0.047251958781050582 0 0.47357141910802508 0.1873585799078378 0 0.50760557329222289 0.20700468884612061 0 0.46429753744194407 0.22870891180733599 0 0.49695729691142171 0.25014895411178018 0 0.46429753744194407 0.22870891180733599 0 0.50760557329222289 0.20700468884612061 0 0.33084213324567391 0.16272720141332131 0 0.3572130504031617 0.1874703368446563 0 0.31255190597181792 0.19850845631528771 0 0.6879972333610942 0.43038561374960838 0 0.63912439215427275 0.41063340167983359 0 0.68128176404677243 0.38629093627004979 0 0.65408113592120842 0.073941773121567966 0 0.65290632656860115 0.11434202593454081 0 0.61956000905586006 0.1043312481793135 0 0.33084213324567391 0.16272720141332131 0 0.31255190597181792 0.19850845631528771 0 0.29336099386129338 0.15892013001050981 0 0.61209567303293111 0.44669033081290321 0 0.63912439215427275 0.41063340167983359 0 0.65178832218679827 0.45929119821019959 0 0.086179601630648681 0.64647209519980475 0 0.1024350934457823 0.60772393977513839 0 0.1241190223511371 0.64391885572885044 0 0.44999999999882923 0 0 0.47040171442036788 0.044141676406503738 0 0.4320097814748517 0.037406712692169303 0 0.45000000000187229 1 0 0.4308986359464303 0.96395712492906194 0 0.47135117303824892 0.95556877749289892 0 0.74999999999934175 0 0 0.7527966693318906 0.053051678021508272 0 0.72683645290270404 0.027797073151180601 0 0.74999999999999989 0.69999999999999996 0 0.75841349681148107 0.75422312624214749 0 0.72501250972655151 0.74067302935308721 0 0.69999999999999984 0.69999999999999996 0 0.72501250972655151 0.74067302935308721 0 0.6916490518212759 0.75387992374886192 0 0.74999999999934175 0 0 0.79999999999947335 0 0 0.78393852574753176 0.032039079577822822 0 0.74999999999999989 0.69999999999999996 0 0.79999999999999982 0.69999999999999996 0 0.78578450296893509 0.73292684821144505 0 0.6405463747586706 0.63290524857395714 0 0.5991018319127801 0.62925360607495295 0 0.63065402604362242 0.59661356661633302 0 0.65481233915350323 0.35652751921065562 0 0.68887083591306764 0.33632058575757479 0 0.68128176404677243 0.38629093627004979 0 0.89999999999999991 0.29999999999999999 0 0.94999999999999996 0.29999999999999999 0 0.92012390126144183 0.33123581297173937 0 0.89999999999999991 0.69999999999999996 0 0.92057473616084773 0.66770436535372446 0 0.94999999999999996 0.69999999999999996 0 0.4367309254023824 0.92065556789053882 0 0.39767323751400468 0.89584229130535065 0 0.44003836461056539 0.88093474584252718 0 0.2185883431182947 0.18019736283949719 0 0.18124454140915969 0.18790916706335251 0 0.18652628422869419 0.14162325200928061 0 0.20050006573841939 0.53248514016039872 0 0.19604738184454831 0.47787523520405789 0 0.23975172658309729 0.49475499200540818 0 0.65507451745379841 0.92229208810758578 0 0.61885627562261258 0.90282959257498208 0 0.66412543161245952 0.88015090885499059 0 0.65394964615507722 0.22666784374016369 0 0.67933712972090698 0.25920070958121938 0 0.62657463266645097 0.26524202571255862 0 0.077693244765132896 0.56932317963405099 0 0.034381862692950467 0.57372682250960894 0 0.044576108720083309 0.53509043209532614 0 0.39801143831225599 0.16651381068160659 0 0.38831533174504851 0.2189834941785925 0 0.3572130504031617 0.1874703368446563 0 0.6499999999999998 0.69999999999999996 0 0.69999999999999984 0.69999999999999996 0 0.66427993341343905 0.73232764502436276 0 0.1215415378367805 0.72939333680004137 0 0.15332765547575641 0.71200081858233666 0 0.14335651144331049 0.75565258250209677 0 0.6405463747586706 0.63290524857395714 0 0.63065402604362242 0.59661356661633302 0 0.67529834988829951 0.61613270668143583 0 0.67323294229744413 0.57556450033612505 0 0.67529834988829951 0.61613270668143583 0 0.63065402604362242 0.59661356661633302 0 0.91750694127107502 0.36982372220068471 0 0.87430060258887643 0.34056085888204451 0 0.92012390126144183 0.33123581297173937 0 0.89999999999999991 0.29999999999999999 0 0.92012390126144183 0.33123581297173937 0 0.87430060258887643 0.34056085888204451 0 0.89999999999999991 0.69999999999999996 0 0.87712158428786946 0.65709029563313581 0 0.92057473616084773 0.66770436535372446 0 0.91750694127105259 0.63017627779935648 0 0.92057473616084773 0.66770436535372446 0 0.87712158428786946 0.65709029563313581 0 0.33122374654748771 0.57588941099433744 0 0.29110487519241501 0.56588143995431495 0 0.33190227185843768 0.52715113583864037 0 0.57484956128872922 0.66573805030881994 0 0.5498280205245758 0.6290146943450976 0 0.5991018319127801 0.62925360607495295 0 0.57412547362576272 0.58273804879550706 0 0.5991018319127801 0.62925360607495295 0 0.5498280205245758 0.6290146943450976 0 0.65408113592120842 0.073941773121567966 0 0.66369801598854572 0.036327466368102787 0 0.7010294155333181 0.056779085686491267 0 0.27474541102162192 0.11822029332053539 0 0.32215584939770009 0.1218492143506909 0 0.29336099386129338 0.15892013001050981 0 0.33084213324567391 0.16272720141332131 0 0.29336099386129338 0.15892013001050981 0 0.32215584939770009 0.1218492143506909 0 0.5 0.29999999999999999 0 0.54999999999999993 0.29999999999999999 0 0.52752007115234678 0.33170632466418198 0 0.83573492347052902 0.36590755630746369 0 0.87430060258887643 0.34056085888204451 0 0.86844634540301924 0.38530937474099819 0 0.83758014339878906 0.63222013025741819 0 0.87159648282691515 0.61285406320581504 0 0.87712158428786946 0.65709029563313581 0 0.22278230690790279 0.44824268025881547 0 0.23975172658309729 0.49475499200540818 0 0.19604738184454831 0.47787523520405789 0 1 0.49999999999950101 0 0.95631871884947484 0.51827533208233789 0 0.96228564064454991 0.48206450662049471 0 0.1650278706801647 0.38791388161335733 0 0.13773355295499351 0.42497777642586831 0 0.1117088112799664 0.38831403004970022 0 0.61209567303293111 0.44669033081290321 0 0.57975577671020095 0.46172033326338591 0 0.57744073070774993 0.41535148636609359 0 0.077693244765132896 0.56932317963405099 0 0.1154888278694548 0.56733818459978413 0 0.1024350934457823 0.60772393977513839 0 0.68697391633157634 0.84450604838764298 0 0.65005442820240822 0.82644988530054031 0 0.68024162096458085 0.79868546898116533 0 0.76901770135486491 0.84293557325473656 0 0.77094201086366854 0.79647480515688507 0 0.80041942726660109 0.81543261647703358 0 0.77144070960558853 0.14311854477243749 0 0.76878382444651716 0.097147941686331368 0 0.80076557130237269 0.1154587552654202 0 0.5 0.69999999999999996 0 0.52584555706968406 0.66664215091846768 0 0.54999999999999993 0.69999999999999996 0 0.077693244765132896 0.56932317963405099 0 0.044576108720083309 0.53509043209532614 0 0.085622222639554768 0.53333248912060549 0 0.69999999999921003 0 0 0.72683645290270404 0.027797073151180601 0 0.7010294155333181 0.056779085686491267 0 1 0 0 0.97166519676946894 0.033371144900598393 0 0.94999999999986839 0 0 1 0.69999999999999996 0 0.97166519676947294 0.73337114490064459 0 0.94999999999999996 0.69999999999999996 0 1 0.69999999999999996 0 1 0.74999999999993494 0 0.97166519676947294 0.73337114490064459 0 1 0.29999999999999999 0 0.97166519676951801 0.26662885509932011 0 1 0.24999999999987299 0 1 1 0 0.94999999999979179 1 0 0.97166519676946206 0.96662885509935492 0 1 0 0 1 0.049999999999896842 0 0.97166519676946894 0.033371144900598393 0 1 0.29999999999999999 0 0.94999999999999996 0.29999999999999999 0 0.97166519676951801 0.26662885509932011 0 1 1 0 0.97166519676946206 0.96662885509935492 0 1 0.94999999999997109 0 0 0.55000000000173355 0 0.044576108720083309 0.53509043209532614 0 0.034381862692950467 0.57372682250960894 0 0.6879972333610942 0.43038561374960838 0 0.69385896817107129 0.48377516041410151 0 0.65178832218679827 0.45929119821019959 0 0.33084213324567391 0.16272720141332131 0 0.36246644853392812 0.1399454205365751 0 0.3572130504031617 0.1874703368446563 0 0.65408113592120842 0.073941773121567966 0 0.68330259535470161 0.10038702501083881 0 0.65290632656860115 0.11434202593454081 0 0.16500388252850301 0.66612077714085194 0 0.19068556247388771 0.71028988922845504 0 0.15332765547575641 0.71200081858233666 0 0.82709327591091286 0.84937141670920724 0 0.85600844944837662 0.88483418979512773 0 0.81159157511211755 0.88795995483179491 0 0.82709327591102189 0.14937141670914489 0 0.85600844944842547 0.1848341897950983 0 0.81283102246527783 0.1881007222486438 0 0.79999999999999982 0.29999999999999999 0 0.84999999999999987 0.29999999999999999 0 0.82500000000000062 0.33010209762754811 0 0.79999999999999982 0.69999999999999996 0 0.82457059160610424 0.66831947184359608 0 0.84999999999999987 0.69999999999999996 0 0.59999999999999976 0.69999999999999996 0 0.62460753523532009 0.66851202781000296 0 0.6499999999999998 0.69999999999999996 0 0.39801143831225599 0.16651381068160659 0 0.3572130504031617 0.1874703368446563 0 0.36246644853392812 0.1399454205365751 0 0.69999999999999984 0.29999999999999999 0 0.74999999999999989 0.29999999999999999 0 0.73090396928863699 0.33699297293167962 0 0.69999999999999984 0.69999999999999996 0 0.72500000000000064 0.67022701834392062 0 0.74999999999999989 0.69999999999999996 0 0.6236733212988993 0.14864538214901801 0 0.64011864159029941 0.18789607982138171 0 0.59443395090188023 0.18455690917515069 0 0.20050006573841939 0.53248514016039872 0 0.16618607197337229 0.50652878253548905 0 0.19604738184454831 0.47787523520405789 0 0.79680861578956375 0.22656778056752541 0 0.76587607630038135 0.18880039518954719 0 0.81283102246527783 0.1881007222486438 0 0.79680861578988083 0.92656778056766709 0 0.76891166905518427 0.88835469571185499 0 0.81159157511211755 0.88795995483179491 0 0.71406021706547751 0.63292083137662503 0 0.675261390228442 0.65996937624687813 0 0.67529834988829951 0.61613270668143583 0 0.6405463747586706 0.63290524857395714 0 0.67529834988829951 0.61613270668143583 0 0.675261390228442 0.65996937624687813 0 0.19670163708476801 0.31472518408333222 0 0.168349569971391 0.28054490850913671 0 0.21049769590865089 0.26857363548218488 0 0.47357141910802508 0.1873585799078378 0 0.46429753744194407 0.22870891180733599 0 0.42905200079338551 0.19982395548231649 0 0.59814117807200873 0.23398510860739519 0 0.5794309697024993 0.27124795968204829 0 0.54248833945060504 0.2520322959927106 0 0.6541250972820879 0.49999999999999989 0 0.65178832218679827 0.45929119821019959 0 0.69385896817107129 0.48377516041410151 0 0.54999999999999993 0.29999999999999999 0 0.5794309697024993 0.27124795968204829 0 0.59999999999999976 0.29999999999999999 0 0.7750489929959945 0.66593931409600093 0 0.74994237037456724 0.62775548192980357 0 0.79884539758237771 0.62875045078114233 0 0.77293540622714185 0.59448302402785813 0 0.79884539758237771 0.62875045078114233 0 0.74994237037456724 0.62775548192980357 0 0.14332333627550789 0.14578431753966009 0 0.16141998738593399 0.10404039647458049 0 0.18652628422869419 0.14162325200928061 0 0.38083244760691543 0.38531983672244652 0 0.42161023666869668 0.39493916313643851 0 0.38707855792647411 0.42299362914874578 0 0.43249999999999988 0.43937499999999979 0 0.38707855792647411 0.42299362914874578 0 0.42161023666869668 0.39493916313643851 0 0.43846182030517877 0.64845797726506715 0 0.47095389620662098 0.61892551373708504 0 0.47913475093885149 0.66010775372412711 0 0.50715858906372158 0.63295939104129484 0 0.47913475093885149 0.66010775372412711 0 0.47095389620662098 0.61892551373708504 0 0.69999999999999984 0.69999999999999996 0 0.74999999999999989 0.69999999999999996 0 0.72501250972655151 0.74067302935308721 0 0.4089290844030305 0.58728915500154233 0 0.35765792684946668 0.6000687869219653 0 0.37272913873093971 0.56192925302619479 0 0.69999999999921003 0 0 0.74999999999934175 0 0 0.72683645290270404 0.027797073151180601 0 0.17933913398461551 0.2350063570234002 0 0.21049769590865089 0.26857363548218488 0 0.168349569971391 0.28054490850913671 0 0.14474682429600511 0.85524784522713515 0 0.10562472963403439 0.87143394428979881 0 0.1074251789111534 0.83564394292147814 0 0.14332333627550789 0.14578431753966009 0 0.106902708054812 0.16453234188234539 0 0.1053400320299198 0.12877248826361379 0 0.2236846579037573 0.67380363126050236 0 0.19914261668318661 0.62286739485272158 0 0.2459498854893499 0.63248470766216769 0 0.049999999999899652 0 0 0.053064897599215843 0.048131547304697528 0 0.02576622439977887 0.024532886826226379 0 0 0.050000000000207989 0 0.02576622439977887 0.024532886826226379 0 0.053064897599215843 0.048131547304697528 0 0.050000000000207989 1 0 0.025766224399875661 0.97546711317377799 0 0.053064897599294662 0.95186845269532028 0 0 0.94999999999979179 0 0.053064897599294662 0.95186845269532028 0 0.025766224399875661 0.97546711317377799 0 0.47357141910802508 0.1873585799078378 0 0.48466639505193998 0.1421439844745814 0 0.51729576145820033 0.1683240575987815 0 0.077693244765132896 0.56932317963405099 0 0.085622222639554768 0.53333248912060549 0 0.1154888278694548 0.56733818459978413 0 0.64753070846764316 0.77332939069435502 0 0.63221990677827677 0.73442891067859706 0 0.66427993341343905 0.73232764502436276 0 0.4656888918609538 0.78493261229743638 0 0.42609163930740518 0.80361684430568059 0 0.42676259796334498 0.76772545931379299 0 0.4089290844030305 0.58728915500154233 0 0.39743091024207589 0.6239520004230239 0 0.35765792684946668 0.6000687869219653 0 0.55306006949600994 0.20198184231352201 0 0.50760557329222289 0.20700468884612061 0 0.51729576145820033 0.1683240575987815 0 1 0.8999999999998336 0 1 0.94999999999997109 0 0.97435614836744289 0.92499999999990257 0 1 0.19999999999974799 0 1 0.24999999999987299 0 0.97435614836740092 0.22499999999981049 0 1 0.74999999999993494 0 1 0.7999999999998193 0 0.97435614836745565 0.77499999999987745 0 1 0.049999999999896842 0 1 0.099999999999753911 0 0.97435614836748241 0.074999999999825387 0 0.86411095495256451 0.42388805655111889 0 0.86844634540301924 0.38530937474099819 0 0.90594285160987287 0.4141265964174129 0 0.86956835336234861 0.571283299838105 0 0.91143117093204207 0.58709913730335972 0 0.87159648282691515 0.61285406320581504 0 0 0 0 0.02576622439977887 0.024532886826226379 0 0 0.050000000000207989 0 0 1 0 0 0.94999999999979179 0 0.025766224399875661 0.97546711317377799 0 0 1 0 0.025766224399875661 0.97546711317377799 0 0.050000000000207989 1 0 0 0 0 0.049999999999899652 0 0 0.02576622439977887 0.024532886826226379 0 0.65394964615507722 0.22666784374016369 0 0.64011864159029941 0.18789607982138171 0 0.6865991819015953 0.189116534044597 0 0.25195515620380449 0.25883339815888678 0 0.28040350263641872 0.23054717217092141 0 0.29132859388405002 0.27203693976649962 0 0.61209567303293111 0.44669033081290321 0 0.65178832218679827 0.45929119821019959 0 0.61547661924074692 0.48539576058873962 0 0.6541250972820879 0.49999999999999989 0 0.61547661924074692 0.48539576058873962 0 0.65178832218679827 0.45929119821019959 0 0.19670163708476801 0.31472518408333222 0 0.24432083401701241 0.3006253385567515 0 0.22615676742807109 0.33458786033114157 0 0.15801167086041079 0.46008690540259539 0 0.13773355295499351 0.42497777642586831 0 0.191953871957803 0.42546416763755879 0 0.1650278706801647 0.38791388161335733 0 0.191953871957803 0.42546416763755879 0 0.13773355295499351 0.42497777642586831 0 0.50715858906372158 0.63295939104129484 0 0.52584555706968406 0.66664215091846768 0 0.47913475093885149 0.66010775372412711 0 0.5 0.69999999999999996 0 0.47913475093885149 0.66010775372412711 0 0.52584555706968406 0.66664215091846768 0 0.51076801031701946 0.1202837388510348 0 0.51729576145820033 0.1683240575987815 0 0.48466639505193998 0.1421439844745814 0 0.71406021706547751 0.63292083137662503 0 0.74994237037456724 0.62775548192980357 0 0.72500000000000064 0.67022701834392062 0 0.71508799138962864 0.36622814920737751 0 0.73090396928863699 0.33699297293167962 0 0.74764719760526988 0.3719647154012321 0 0.22278230690790279 0.44824268025881547 0 0.25982634974572738 0.46097799597715272 0 0.23975172658309729 0.49475499200540818 0 0.80185942888539485 0.77452061303608133 0 0.78578450296893509 0.73292684821144505 0 0.81864958914779962 0.73589050177899629 0 0.80185942888501827 0.074520613036224564 0 0.78393852574753176 0.032039079577822822 0 0.81864958914740749 0.035890501779055867 0 0.5 0.29999999999999999 0 0.46226845272279993 0.31901800744800313 0 0.4604742573284204 0.27846934318264788 0 0.6405463747586706 0.63290524857395714 0 0.62460753523532009 0.66851202781000296 0 0.5991018319127801 0.62925360607495295 0 0.79680861578988083 0.92656778056766709 0 0.770759834363826 0.95919399014344442 0 0.75729602384198635 0.92353652857884294 0 0.79680861578956375 0.22656778056752541 0 0.77075983436335049 0.25919399014334171 0 0.75668890529066124 0.2244279804069782 0 0.65394964615507722 0.22666784374016369 0 0.69397719155551807 0.2245125647000914 0 0.67933712972090698 0.25920070958121938 0 0.81973119833356312 0.43505687159469048 0 0.84925632466077294 0.45359738909549091 0 0.81400510706333218 0.47357325943904899 0 0.83758014339878906 0.63222013025741819 0 0.82457059160610424 0.66831947184359608 0 0.79884539758237771 0.62875045078114233 0 0.25676291524611189 0.7436741304886243 0 0.2248999640082178 0.72584299459689172 0 0.26439878998046262 0.7048065392091396 0 0.91696753777131557 0.497780560203536 0 0.90900154012161016 0.53607784105648792 0 0.86907294890112186 0.52008116128001669 0 0.17933913398461551 0.2350063570234002 0 0.168349569971391 0.28054490850913671 0 0.14377654328998779 0.2442024734791064 0 0.1247745017231483 0.27198077544791172 0 0.14377654328998779 0.2442024734791064 0 0.168349569971391 0.28054490850913671 0 0.34258405725730701 0.4444034294386992 0 0.35221190152536241 0.40457127605439203 0 0.38707855792647411 0.42299362914874578 0 0.47357141910802508 0.1873585799078378 0 0.51729576145820033 0.1683240575987815 0 0.50760557329222289 0.20700468884612061 0 0.19670163708476801 0.31472518408333222 0 0.22615676742807109 0.33458786033114157 0 0.18434624290945251 0.35208838264196463 0 0.22033343844674469 0.36963382230740238 0 0.18434624290945251 0.35208838264196463 0 0.22615676742807109 0.33458786033114157 0 0.24432083401701241 0.3006253385567515 0 0.25966125648670141 0.34351016742083729 0 0.22615676742807109 0.33458786033114157 0 0.93814194660195893 0.44426664081746747 0 0.90594285160987287 0.4141265964174129 0 0.95871855522754235 0.40006508612975411 0 0.91750694127107502 0.36982372220068471 0 0.95871855522754235 0.40006508612975411 0 0.90594285160987287 0.4141265964174129 0 0.91750694127105259 0.63017627779935648 0 0.91143117093204207 0.58709913730335972 0 0.95867599106212187 0.60011091146651041 0 0.93732437411268477 0.55911392101136159 0 0.95867599106212187 0.60011091146651041 0 0.91143117093204207 0.58709913730335972 0 0.50715858906372158 0.63295939104129484 0 0.5498280205245758 0.6290146943450976 0 0.52584555706968406 0.66664215091846768 0 0.94399509803918602 0.75600490196082126 0 0.97435614836745565 0.77499999999987745 0 0.95386563387742829 0.80414874155775029 0 0.94399509803922566 0.056004901960802607 0 0.97435614836748241 0.074999999999825387 0 0.95386563387744361 0.1041487415577465 0 0.94399509803921056 0.24399509803922639 0 0.95391631417672862 0.19584263333809451 0 0.97435614836740092 0.22499999999981049 0 0.94399509803919068 0.9439950980391687 0 0.95391631417670719 0.89584263333814784 0 0.97435614836744289 0.92499999999990257 0 0.79680861578988083 0.92656778056766709 0 0.75729602384198635 0.92353652857884294 0 0.76891166905518427 0.88835469571185499 0 0.79680861578956375 0.22656778056752541 0 0.75668890529066124 0.2244279804069782 0 0.76587607630038135 0.18880039518954719 0 0.65394964615507722 0.22666784374016369 0 0.6865991819015953 0.189116534044597 0 0.69397719155551807 0.2245125647000914 0 0.38083244760691543 0.38531983672244652 0 0.38707855792647411 0.42299362914874578 0 0.35221190152536241 0.40457127605439203 0 1 0.7999999999998193 0 0.95386563387742829 0.80414874155775029 0 0.97435614836745565 0.77499999999987745 0 1 0.099999999999753911 0 0.95386563387744361 0.1041487415577465 0 0.97435614836748241 0.074999999999825387 0 1 0.8999999999998336 0 0.97435614836744289 0.92499999999990257 0 0.95391631417670719 0.89584263333814784 0 1 0.19999999999974799 0 0.97435614836740092 0.22499999999981049 0 0.95391631417672862 0.19584263333809451 0 0.84723782639812573 0.48638347960178252 0 0.81400510706333218 0.47357325943904899 0 0.84925632466077294 0.45359738909549091 0 0.54999999999999993 0.29999999999999999 0 0.54248833945060504 0.2520322959927106 0 0.5794309697024993 0.27124795968204829 0 0.94999999999999996 0.29999999999999999 0 0.95780851984364423 0.34215720972155339 0 0.92012390126144183 0.33123581297173937 0 0.94999999999999996 0.69999999999999996 0 0.92057473616084773 0.66770436535372446 0 0.9578014258160763 0.65787212321113708 0 0.15801167086041079 0.46008690540259539 0 0.113541300460994 0.46208784312094731 0 0.13773355295499351 0.42497777642586831 0 0.7250000000005199 0.94981617647078953 0 0.68015064798562208 0.95924320340003011 0 0.68987011941058407 0.92105047536677087 0 0.65507451745379841 0.92229208810758578 0 0.68987011941058407 0.92105047536677087 0 0.68015064798562208 0.95924320340003011 0 0.77846603114747959 0.49850927265137401 0 0.77972660463949339 0.45529290596363098 0 0.81400510706333218 0.47357325943904899 0 0.27866744612395528 0.38416094670951489 0 0.25966125648670141 0.34351016742083729 0 0.29644548887253103 0.34914008784168082 0 0.61209567303293111 0.44669033081290321 0 0.61547661924074692 0.48539576058873962 0 0.57975577671020095 0.46172033326338591 0 0.57611405284611883 0.50165903596042916 0 0.57975577671020095 0.46172033326338591 0 0.61547661924074692 0.48539576058873962 0 0.7250000000005199 0.89375000000045834 0 0.76891166905518427 0.88835469571185499 0 0.75729602384198635 0.92353652857884294 0 0.72500000000001008 0.19776155966387679 0 0.76587607630038135 0.18880039518954719 0 0.75668890529066124 0.2244279804069782 0 0.72500000000001008 0.19776155966387679 0 0.69397719155551807 0.2245125647000914 0 0.6865991819015953 0.189116534044597 0 0.083411279318303222 0.089699755330707398 0 0.12372429750337779 0.095814237875728972 0 0.1053400320299198 0.12877248826361379 0 0.083411279318375747 0.91030024466934134 0 0.10562472963403439 0.87143394428979881 0 0.1241151115713819 0.9045666525468371 0 0.14617343800780541 0.93808063414349496 0 0.1241151115713819 0.9045666525468371 0 0.16206583317966519 0.89685560785156404 0 0.14618258501891079 0.062070108745602003 0 0.16141998738593399 0.10404039647458049 0 0.12372429750337779 0.095814237875728972 0 0.33277555741076909 0.36432196682010132 0 0.35221190152536241 0.40457127605439203 0 0.31778888742534622 0.40581751814196781 0 0.7250000000005199 0.94981617647078953 0 0.75729602384198635 0.92353652857884294 0 0.770759834363826 0.95919399014344442 0 0.72500000000000064 0.2498161764706 0 0.75668890529066124 0.2244279804069782 0 0.77075983436335049 0.25919399014334171 0 0.72500000000000064 0.2498161764706 0 0.67933712972090698 0.25920070958121938 0 0.69397719155551807 0.2245125647000914 0 0.6236733212988993 0.14864538214901801 0 0.61956000905586006 0.1043312481793135 0 0.65290632656860115 0.11434202593454081 0 0.81973119833356312 0.43505687159469048 0 0.81400510706333218 0.47357325943904899 0 0.77972660463949339 0.45529290596363098 0 0.25676291524611189 0.7436741304886243 0 0.29904318922293632 0.74132814928635593 0 0.2792923945214143 0.77665808831789485 0 0.36575549820117997 0.31677992835137742 0 0.32752639306529541 0.32610012995269699 0 0.33402499257867951 0.28911035184473982 0 0.14332333627550789 0.14578431753966009 0 0.18652628422869419 0.14162325200928061 0 0.18124454140915969 0.18790916706335251 0 0.57724883562309992 0.92155686857100794 0 0.5832743223239254 0.88483152652961872 0 0.61885627562261258 0.90282959257498208 0 0.57667858002728545 0.078486105337742612 0 0.61956000905586006 0.1043312481793135 0 0.58516465772821369 0.11653801664834119 0 0.80185942888539485 0.77452061303608133 0 0.80041942726660109 0.81543261647703358 0 0.77094201086366854 0.79647480515688507 0 0.80185942888501827 0.074520613036224564 0 0.80076557130237269 0.1154587552654202 0 0.76878382444651716 0.097147941686331368 0 0.64753070846764316 0.77332939069435502 0 0.68024162096458085 0.79868546898116533 0 0.65005442820240822 0.82644988530054031 0 0.26429849586623999 0.19346700179430079 0 0.25557216766470708 0.15874861286892261 0 0.29336099386129338 0.15892013001050981 0 0.29348325746214782 0.31350119524708198 0 0.29644548887253103 0.34914008784168082 0 0.25966125648670141 0.34351016742083729 0 0.68391457121233579 0.14440470121196541 0 0.65290632656860115 0.11434202593454081 0 0.68330259535470161 0.10038702501083881 0 0.91750694127107502 0.36982372220068471 0 0.92012390126144183 0.33123581297173937 0 0.95780851984364423 0.34215720972155339 0 0.91750694127105259 0.63017627779935648 0 0.9578014258160763 0.65787212321113708 0 0.92057473616084773 0.66770436535372446 0 0.22033343844674469 0.36963382230740238 0 0.22615676742807109 0.33458786033114157 0 0.25966125648670141 0.34351016742083729 0 1 0.94999999999997109 0 0.97166519676946206 0.96662885509935492 0 0.97435614836744289 0.92499999999990257 0 0.94399509803919068 0.9439950980391687 0 0.97435614836744289 0.92499999999990257 0 0.97166519676946206 0.96662885509935492 0 0.94399509803921056 0.24399509803922639 0 0.97435614836740092 0.22499999999981049 0 0.97166519676951801 0.26662885509932011 0 1 0.24999999999987299 0 0.97166519676951801 0.26662885509932011 0 0.97435614836740092 0.22499999999981049 0 1 0.74999999999993494 0 0.97435614836745565 0.77499999999987745 0 0.97166519676947294 0.73337114490064459 0 1 0.049999999999896842 0 0.97435614836748241 0.074999999999825387 0 0.97166519676946894 0.033371144900598393 0 0.94399509803918602 0.75600490196082126 0 0.97166519676947294 0.73337114490064459 0 0.97435614836745565 0.77499999999987745 0 0.94399509803922566 0.056004901960802607 0 0.97166519676946894 0.033371144900598393 0 0.97435614836748241 0.074999999999825387 0 0.77846603114747959 0.49850927265137401 0 0.81400510706333218 0.47357325943904899 0 0.81441713509985358 0.51161854125224959 0 0.77354604466818633 0.40378688774472771 0 0.72622533758026719 0.40265885511101601 0 0.74764719760526988 0.3719647154012321 0 0.71508799138962864 0.36622814920737751 0 0.74764719760526988 0.3719647154012321 0 0.72622533758026719 0.40265885511101601 0 0.84723782639812573 0.48638347960178252 0 0.84925632466077294 0.45359738909549091 0 0.88594198078881503 0.46167788676578442 0 0.86411095495256451 0.42388805655111889 0 0.88594198078881503 0.46167788676578442 0 0.84925632466077294 0.45359738909549091 0 0.43846182030517877 0.64845797726506715 0 0.43545892161006339 0.61093128915313821 0 0.47095389620662098 0.61892551373708504 0 0.33123028043633618 0.77629643437932982 0 0.35642984951668422 0.80994399665655703 0 0.30857225866488791 0.81101973481716805 0 0.33403534827021109 0.84402799729020661 0 0.30857225866488791 0.81101973481716805 0 0.35642984951668422 0.80994399665655703 0 0.26429849586623999 0.19346700179430079 0 0.31255190597181792 0.19850845631528771 0 0.28040350263641872 0.23054717217092141 0 0.57724883562309992 0.92155686857100794 0 0.54783390826260769 0.89287767010860219 0 0.5832743223239254 0.88483152652961872 0 0.55899371797446828 0.85003102233514438 0 0.5832743223239254 0.88483152652961872 0 0.54783390826260769 0.89287767010860219 0 0.4089290844030305 0.58728915500154233 0 0.43545892161006339 0.61093128915313821 0 0.39743091024207589 0.6239520004230239 0 0.77293540622714185 0.59448302402785813 0 0.81723410853263523 0.59419663659258926 0 0.79884539758237771 0.62875045078114233 0 0.83758014339878906 0.63222013025741819 0 0.79884539758237771 0.62875045078114233 0 0.81723410853263523 0.59419663659258926 0 0.35864735590330371 0.63903383440414463 0 0.39743091024207589 0.6239520004230239 0 0.3977710372045391 0.65868194622830212 0 0.56202748619534593 0.15054058349222879 0 0.54979595918804436 0.1060565713905809 0 0.58516465772821369 0.11653801664834119 0 0.57667858002728545 0.078486105337742612 0 0.58516465772821369 0.11653801664834119 0 0.54979595918804436 0.1060565713905809 0 0.33122374654748771 0.57588941099433744 0 0.37272913873093971 0.56192925302619479 0 0.35765792684946668 0.6000687869219653 0 0.35864735590330371 0.63903383440414463 0 0.35765792684946668 0.6000687869219653 0 0.39743091024207589 0.6239520004230239 0 0.71508799138962864 0.36622814920737751 0 0.68887083591306764 0.33632058575757479 0 0.73090396928863699 0.33699297293167962 0 0.29348325746214782 0.31350119524708198 0 0.32752639306529541 0.32610012995269699 0 0.29644548887253103 0.34914008784168082 0 0.33277555741076909 0.36432196682010132 0 0.29644548887253103 0.34914008784168082 0 0.32752639306529541 0.32610012995269699 0 0.34258405725730701 0.4444034294386992 0 0.31778888742534622 0.40581751814196781 0 0.35221190152536241 0.40457127605439203 0 0.79999999999999982 0.69999999999999996 0 0.81864958914779962 0.73589050177899629 0 0.78578450296893509 0.73292684821144505 0 0.79999999999947335 0 0 0.81864958914740749 0.035890501779055867 0 0.78393852574753176 0.032039079577822822 0 0.27474541102162192 0.11822029332053539 0 0.29336099386129338 0.15892013001050981 0 0.25557216766470708 0.15874861286892261 0 0 0.45000000000187229 0 0.035463093262830522 0.42673416072819947 0 0.033550201249889847 0.46247875832467239 0 0.6499999999999998 0.69999999999999996 0 0.66427993341343905 0.73232764502436276 0 0.63221990677827677 0.73442891067859706 0 0.84723782639812573 0.48638347960178252 0 0.81441713509985358 0.51161854125224959 0 0.81400510706333218 0.47357325943904899 0 0.26104540868854792 0.81401944968719064 0 0.30857225866488791 0.81101973481716805 0 0.29209212897034281 0.84715728365233667 0 0.33403534827021109 0.84402799729020661 0 0.29209212897034281 0.84715728365233667 0 0.30857225866488791 0.81101973481716805 0 0.69999999999999984 0.29999999999999999 0 0.73090396928863699 0.33699297293167962 0 0.68887083591306764 0.33632058575757479 0 
</DataArray>
</Points>
<Cells>
<DataArray type="UInt32" Name="connectivity" format="ascii">
0 1 2 3 4 5 6 7 8 9 10 11 12 13 14 15 16 17 18 19 20 21 22 23 24 25 26 27 28 29 30 31 32 33 34 35 36 37 38 39 40 41 42 43 44 45 46 47 48 49 50 51 52 53 54 55 56 57 58 59 60 61 62 63 64 65 66 67 68 69 70 71 72 73 74 75 76 77 78 79 80 81 82 83 84 85 86 87 88 89 90 91 92 93 94 95 96 97 98 99 100 101 102 103 104 105 106 107 108 109 110 111 112 113 114 115 116 117 118 119 120 121 122 123 124 125 126 127 128 129 130 131 132 133 134 135 136 137 138 139 140 141 142 143 144 145 146 147 148 149 150 151 152 153 154 155 156 157 158 159 160 161 162 163 164 165 166 167 168 169 170 171 172 173 174 175 176 177 178 179 180 181 182 183 184 185 186 187 188 189 190 191 192 193 194 195 196 197 198 199 200 201 202 203 204 205 206 207 208 209 210 211 212 213 214 215 216 217 218 219 220 221 222 223 224 225 226 227 228 229 230 231 232 233 234 235 236 237 238 239 240 241 242 243 244 245 246 247 248 249 250 251 252 253 254 255 256 257 258 259 260 261 262 263 264 265 266 267 268 269 270 271 272 273 274 275 276 277 278 279 280 281 282 283 284 285 286 287 288 289 290 291 292 293 294 295 296 297 298 299 300 301 302 303 304 305 306 307 308 309 310 311 312 313 314 315 316 317 318 319 320 321 322 323 324 325 326 327 328 329 330 331 332 333 334 335 336 337 338 339 340 341 342 343 344 345 346 347 348 349 350 351 352 353 354 355 356 357 358 359 360 361 362 363 364 365 366 367 368 369 370 371 372 373 374 375 376 377 378 379 380 381 382 383 384 385 386 387 388 389 390 391 392 393 394 395 396 397 398 399 400 401 402 403 404 405 406 407 408 409 410 411 412 413 414 415 416 417 418 419 420 421 422 423 424 425 426 427 428 429 430 431 432 433 434 435 436 437 438 439 440 441 442 443 444 445 446 447 448 449 450 451 452 453 454 455 456 457 458 459 460 461 462 463 464 465 466 467 468 469 470 471 472 473 474 475 476 477 478 479 480 481 482 483 484 485 486 487 488 489 490 491 492 493 494 495 496 497 498 499 500 501 502 503 504 505 506 507 508 509 510 511 512 513 514 515 516 517 518 519 520 521 522 523 524 525 526 527 528 529 530 531 532 533 534 535 536 537 538 539 540 541 542 543 544 545 546 547 548 549 550 551 552 553 554 555 556 557 558 559 560 561 562 563 564 565 566 567 568 569 570 571 572 573 574 575 576 577 578 579 580 581 582 583 584 585 586 587 588 589 590 591 592 593 594 595 596 597 598 599 600 601 602 603 604 605 606 607 608 609 610 611 612 613 614 615 616 617 618 619 620 621 622 623 624 625 626 627 628 629 630 631 632 633 634 635 636 637 638 639 640 641 642 643 644 645 646 647 648 649 650 651 652 653 654 655 656 657 658 659 660 661 662 663 664 665 666 667 668 669 670 671 672 673 674 675 676 677 678 679 680 681 682 683 684 685 686 687 688 689 690 691 692 693 694 695 696 697 698 699 700 701 702 703 704 705 706 707 708 709 710 711 712 713 714 715 716 717 718 719 720 721 722 723 724 725 726 727 728 729 730 731 732 733 734 735 736 737 738 739 740 741 742 743 744 745 746 747 748 749 750 751 752 753 754 755 756 757 758 759 760 761 762 763 764 765 766 767 768 769 770 771 772 773 774 775 776 777 778 779 780 781 782 783 784 785 786 787 788 789 790 791 792 793 794 795 796 797 798 799 800 801 802 803 804 805 806 807 808 809 810 811 812 813 814 815 816 817 818 819 820 821 822 823 824 825 826 827 828 829 830 831 832 833 834 835 836 837 838 839 840 841 842 843 844 845 846 847 848 849 850 851 852 853 854 855 856 857 858 859 860 861 862 863 864 865 866 867 868 869 870 871 872 873 874 875 876 877 878 879 880 881 882 883 884 885 886 887 888 889 890 891 892 893 894 895 896 897 898 899 900 901 902 903 904 905 906 907 908 909 910 911 912 913 914 915 916 917 918 919 920 921 922 923 924 925 926 927 928 929 930 931 932 933 934 935 936 937 938 939 940 941 942 943 944 945 946 947 948 949 950 951 952 953 954 955 956 957 958 959 960 961 962 963 964 965 966 967 968 969 970 971 972 973 974 975 976 977 978 979 980 981 982 983 984 985 986 987 988 989 990 991 992 993 994 995 996 997 998 999 1000 1001 1002 1003 1004 1005 1006 1007 1008 1009 1010 1011 1012 1013 1014 1015 1016 1017 1018 1019 1020 1021 1022 1023 1024 1025 1026 1027 1028 1029 1030 1031 1032 1033 1034 1035 1036 1037 1038 1039 1040 1041 1042 1043 1044 1045 1046 1047 1048 1049 1050 1051 1052 1053 1054 1055 1056 1057 1058 1059 1060 1061 1062 1063 1064 1065 1066 1067 1068 1069 1070 1071 1072 1073 1074 1075 1076 1077 1078 1079 1080 1081 1082 1083 1084 1085 1086 1087 1088 1089 1090 1091 1092 1093 1094 1095 1096 1097 1098 1099 1100 1101 1102 1103 1104 1105 1106 1107 1108 1109 1110 1111 1112 1113 1114 1115 1116 1117 1118 1119 1120 1121 1122 1123 1124 1125 1126 1127 1128 1129 1130 1131 1132 1133 1134 1135 1136 1137 1138 1139 1140 1141 1142 1143 1144 1145 1146 1147 1148 1149 1150 1151 1152 1153 1154 1155 1156 1157 1158 1159 1160 1161 1162 1163 1164 1165 1166 1167 1168 1169 1170 1171 1172 1173 1174 1175 1176 1177 1178 1179 1180 1181 1182 1183 1184 1185 1186 1187 1188 1189 1190 1191 1192 1193 1194 1195 1196 1197 1198 1199 1200 1201 1202 1203 1204 1205 1206 1207 1208 1209 1210 1211 1212 1213 1214 1215 1216 1217 1218 1219 1220 1221 1222 1223 1224 1225 1226 1227 1228 1229 1230 1231 1232 1233 1234 1235 1236 1237 1238 1239 1240 1241 1242 1243 1244 1245 1246 1247 1248 1249 1250 1251 1252 1253 1254 1255 1256 1257 1258 1259 1260 1261 1262 1263 1264 1265 1266 1267 1268 1269 1270 1271 1272 1273 1274 1275 1276 1277 1278 1279 1280 1281 1282 1283 1284 1285 1286 1287 1288 1289 1290 1291 1292 1293 1294 1295 1296 1297 1298 1299 1300 1301 1302 1303 1304 1305 1306 1307 1308 1309 1310 1311 1312 1313 1314 1315 1316 1317 1318 1319 1320 1321 1322 1323 1324 1325 1326 1327 1328 1329 1330 1331 1332 1333 1334 1335 1336 1337 1338 1339 1340 1341 1342 1343 1344 1345 1346 1347 1348 1349 1350 1351 1352 1353 1354 1355 1356 1357 1358 1359 1360 1361 1362 1363 1364 1365 1366 1367 1368 1369 1370 1371 1372 1373 1374 1375 1376 1377 1378 1379 1380 1381 1382 1383 1384 1385 1386 1387 1388 1389 1390 1391 1392 1393 1394 1395 1396 1397 1398 1399 1400 1401 1402 1403 1404 1405 1406 1407 1408 1409 1410 1411 1412 1413 1414 1415 1416 1417 1418 1419 1420 1421 1422 1423 1424 1425 1426 1427 1428 1429 1430 1431 1432 1433 1434 1435 1436 1437 1438 1439 1440 1441 1442 1443 1444 1445 1446 1447 1448 1449 1450 1451 1452 1453 1454 1455 1456 1457 1458 1459 1460 1461 1462 1463 1464 1465 1466 1467 1468 1469 1470 1471 1472 1473 1474 1475 1476 1477 1478 1479 1480 1481 1482 1483 1484 1485 1486 1487 1488 1489 1490 1491 1492 1493 1494 1495 1496 1497 1498 1499 1500 1501 1502 1503 1504 1505 1506 1507 1508 1509 1510 1511 1512 1513 1514 1515 1516 1517 1518 1519 1520 1521 1522 1523 1524 1525 1526 1527 1528 1529 1530 1531 1532 1533 1534 1535 1536 1537 1538 1539 1540 1541 1542 1543 1544 1545 1546 1547 1548 1549 1550 1551 1552 1553 1554 1555 1556 1557 1558 1559 1560 1561 1562 1563 1564 1565 1566 1567 1568 1569 1570 1571 1572 1573 1574 1575 1576 1577 1578 1579 1580 1581 1582 1583 1584 1585 1586 1587 1588 1589 1590 1591 1592 1593 1594 1595 1596 1597 1598 1599 1600 1601 1602 1603 1604 1605 1606 1607 1608 1609 1610 1611 1612 1613 1614 1615 1616 1617 1618 1619 1620 1621 1622 1623 1624 1625 1626 1627 1628 1629 1630 1631 1632 1633 1634 1635 1636 1637 1638 1639 1640 1641 1642 1643 1644 1645 1646 1647 1648 1649 1650 1651 1652 1653 1654 1655 1656 1657 1658 1659 1660 1661 1662 1663 1664 1665 1666 1667 1668 1669 1670 1671 1672 1673 1674 1675 1676 1677 1678 1679 1680 1681 1682 1683 1684 1685 1686 1687 1688 1689 1690 1691 1692 1693 1694 1695 1696 1697 1698 1699 1700 1701 1702 1703 1704 1705 1706 1707 1708 1709 1710 1711 1712 1713 1714 1715 1716 1717 1718 1719 1720 1721 1722 1723 1724 1725 1726 1727 1728 1729 1730 1731 1732 1733 1734 1735 1736 1737 1738 1739 1740 1741 1742 1743 1744 1745 1746 1747 1748 1749 1750 1751 1752 1753 1754 1755 1756 1757 1758 1759 1760 1761 1762 1763 1764 1765 1766 1767 1768 1769 1770 1771 1772 1773 1774 1775 1776 1777 1778 1779 1780 1781 1782 1783 1784 1785 1786 1787 1788 1789 1790 1791 1792 1793 1794 1795 1796 1797 1798 1799 1800 1801 1802 1803 1804 1805 1806 1807 1808 1809 1810 1811 1812 1813 1814 1815 1816 1817 1818 1819 1820 1821 1822 1823 1824 1825 1826 1827 1828 1829 1830 1831 1832 1833 1834 1835 1836 1837 1838 1839 1840 1841 1842 1843 1844 1845 1846 1847 1848 1849 1850 1851 1852 1853 1854 1855 1856 1857 1858 1859 1860 1861 1862 1863 1864 1865 1866 1867 1868 1869 1870 1871 1872 1873 1874 1875 1876 1877 1878 1879 1880 1881 1882 1883 1884 1885 1886 1887 1888 1889 1890 1891 1892 1893 1894 1895 1896 1897 1898 1899 1900 1901 1902 1903 1904 1905 1906 1907 1908 1909 1910 1911 1912 1913 1914 1915 1916 1917 1918 1919 1920 1921 1922 1923 1924 1925 1926 1927 1928 1929 1930 1931 1932 1933 1934 1935 1936 1937 1938 1939 1940 1941 1942 1943 1944 1945 1946 1947 1948 1949 1950 1951 1952 1953 1954 1955 1956 1957 1958 1959 1960 1961 1962 1963 1964 1965 1966 1967 1968 1969 1970 1971 1972 1973 1974 1975 1976 1977 1978 1979 1980 1981 1982 1983 1984 1985 1986 1987 1988 1989 1990 1991 1992 1993 1994 1995 1996 1997 1998 1999 2000 2001 2002 2003 2004 2005 2006 2007 2008 2009 2010 2011 2012 2013 2014 2015 2016 2017 2018 2019 2020 2021 2022 2023 2024 2025 2026 2027 2028 2029 2030 2031 2032 2033 2034 2035 2036 2037 2038 2039 2040 2041 2042 2043 2044 2045 2046 2047 2048 2049 2050 2051 2052 2053 2054 2055 2056 2057 2058 2059 2060 2061 2062 2063 2064 2065 2066 2067 2068 2069 2070 2071 2072 2073 2074 2075 2076 2077 2078 2079 2080 2081 2082 2083 2084 2085 2086 2087 2088 2089 2090 2091 2092 2093 2094 2095 2096 2097 2098 2099 2100 2101 2102 2103 2104 2105 2106 2107 2108 2109 2110 2111 2112 2113 2114 2115 2116 2117 2118 2119 2120 2121 2122 2123 2124 2125 2126 2127 2128 2129 2130 2131 2132 2133 2134 2135 2136 2137 2138 2139 2140 2141 2142 2143 2144 2145 2146 2147 2148 2149 2150 2151 2152 2153 2154 2155 2156 2157 2158 2159 2160 2161 2162 2163 2164 2165 2166 2167 2168 2169 2170 2171 2172 2173 2174 2175 2176 2177 2178 2179 2180 2181 2182 2183 2184 2185 2186 2187 2188 2189 2190 2191 2192 2193 2194 2195 2196 2197 2198 2199 2200 2201 2202 2203 2204 2205 2206 2207 2208 2209 2210 2211 2212 2213 2214 2215 2216 2217 2218 2219 2220 2221 2222 2223 2224 2225 2226 2227 2228 2229 2230 2231 2232 2233 2234 2235 2236 2237 2238 2239 2240 2241 2242 2243 2244 2245 2246 2247 2248 2249 2250 2251 2252 2253 2254 2255 2256 2257 2258 2259 2260 2261 2262 2263 2264 2265 2266 2267 2268 2269 2270 2271 2272 2273 2274 2275 2276 2277 2278 2279 2280 2281 2282 2283 2284 2285 2286 2287 2288 2289 2290 2291 2292 2293 2294 2295 2296 2297 2298 2299 2300 2301 2302 2303 2304 2305 2306 2307 2308 2309 2310 2311 2312 2313 2314 2315 2316 2317 2318 2319 2320 2321 2322 2323 2324 2325 2326 2327 2328 2329 2330 2331 2332 2333 2334 2335 2336 2337 2338 2339 2340 2341 2342 2343 2344 2345 2346 2347 2348 2349 2350 2351 2352 2353 2354 2355 2356 2357 2358 2359 2360 2361 2362 2363 2364 2365 2366 2367 2368 2369 2370 2371 2372 2373 2374 2375 2376 2377 2378 2379 2380 2381 2382 2383 2384 2385 2386 2387 2388 2389 2390 2391 2392 2393 2394 2395 2396 2397 2398 2399 2400 2401 2402 2403 2404 2405 2406 2407 2408 2409 2410 2411 2412 2413 2414 2415 2416 2417 2418 2419 2420 2421 2422 2423 2424 2425 2426 2427 2428 2429 2430 2431 2432 2433 2434 2435 2436 2437 2438 2439 2440 2441 2442 2443 2444 2445 2446 2447 2448 2449 2450 2451 2452 2453 2454 2455 2456 2457 2458 2459 2460 2461 2462 2463 2464 2465 2466 2467 2468 2469 2470 2471 2472 2473 2474 2475 2476 2477 2478 2479 2480 2481 2482 2483 2484 2485 2486 2487 2488 2489 2490 2491 2492 2493 2494 2495 2496 2497 2498 2499 2500 2501 2502 2503 2504 2505 2506 2507 2508 2509 2510 2511 2512 2513 2514 2515 2516 2517 2518 2519 2520 2521 2522 2523 2524 2525 2526 2527 2528 2529 2530 2531 2532 2533 2534 2535 2536 2537 2538 2539 2540 2541 2542 2543 2544 2545 2546 2547 2548 2549 2550 2551 2552 2553 2554 2555 2556 2557 2558 2559 2560 2561 2562 2563 2564 2565 2566 2567 2568 2569 2570 2571 2572 2573 2574 2575 2576 2577 2578 2579 2580 2581 2582 2583 2584 2585 2586 2587 2588 2589 2590 2591 2592 2593 2594 2595 2596 2597 2598 2599 2600 2601 2602 2603 2604 2605 2606 2607 2608 2609 2610 2611 2612 2613 2614 2615 2616 2617 2618 2619 2620 2621 2622 2623 2624 2625 2626 2627 2628 2629 2630 2631 2632 2633 2634 2635 2636 2637 2638 2639 2640 2641 2642 2643 2644 2645 2646 2647 2648 2649 2650 2651 2652 2653 2654 2655 2656 2657 2658 2659 2660 2661 2662 2663 2664 2665 2666 2667 2668 2669 2670 2671 2672 2673 2674 2675 2676 2677 2678 2679 2680 2681 2682 2683 2684 2685 2686 2687 2688 2689 2690 2691 2692 2693 2694 2695 2696 2697 2698 2699 2700 2701 2702 2703 2704 2705 2706 2707 2708 2709 2710 2711 2712 2713 2714 2715 2716 2717 2718 2719 2720 2721 2722 2723 2724 2725 2726 2727 2728 2729 2730 2731 2732 2733 2734 2735 2736 2737 2738 2739 2740 2741 2742 2743 2744 2745 2746 2747 2748 2749 2750 2751 2752 2753 2754 2755 2756 2757 2758 2759 2760 2761 2762 2763 2764 2765 2766 2767 2768 2769 2770 2771 2772 2773 2774 2775 2776 2777 2778 2779 2780 2781 2782 2783 2784 2785 2786 2787 2788 2789 2790 2791 2792 2793 2794 2795 2796 2797 2798 2799 2800 2801 2802 2803 2804 2805 2806 2807 2808 2809 2810 2811 2812 2813 2814 2815 2816 2817 2818 2819 2820 2821 2822 2823 2824 2825 2826 2827 2828 2829 2830 2831 2832 2833 2834 2835 2836 2837 2838 2839 2840 2841 2842 2843 2844 2845 2846 2847 2848 2849 2850 2851 2852 2853 2854 2855 2856 2857 2858 2859 2860 2861 2862 2863 2864 2865 2866 2867 2868 2869 2870 2871 2872 2873 2874 2875 2876 2877 2878 2879 2880 2881 2882 2883 2884 2885 2886 2887 2888 2889 2890 2891 2892 2893 2894 2895 2896 2897 2898 2899 2900 2901 2902 2903 2904 2905 2906 2907 2908 2909 2910 2911 2912 2913 2914 2915 2916 2917 2918 2919 2920 2921 2922 2923 2924 2925 2926 2927 2928 2929 2930 2931 2932 2933 2934 2935 2936 2937 2938 2939 2940 2941 2942 2943 2944 2945 2946 2947 2948 2949 2950 2951 2952 2953 2954 2955 2956 2957 2958 2959 2960 2961 2962 2963 2964 2965 2966 2967 2968 2969 2970 2971 2972 2973 2974 2975 2976 2977 2978 2979 2980 2981 2982 2983 2984 2985 2986 2987 2988 2989 2990 2991 2992 2993 2994 2995 2996 2997 2998 2999 3000 3001 3002 3003 3004 3005 3006 3007 3008 3009 3010 3011 3012 3013 3014 3015 3016 3017 3018 3019 3020 3021 3022 3023 3024 3025 3026 3027 3028 3029 3030 3031 3032 3033 3034 3035 3036 3037 3038 3039 3040 3041 3042 3043 3044 3045 3046 3047 3048 3049 3050 3051 3052 3053 3054 3055 3056 3057 3058 3059 3060 3061 3062 3063 3064 3065 3066 3067 3068 3069 3070 3071 3072 3073 3074 3075 3076 3077 3078 3079 3080 3081 3082 3083 3084 3085 3086 3087 3088 3089 3090 3091 3092 3093 3094 3095 3096 3097 3098 3099 3100 3101 3102 3103 3104 3105 3106 3107 3108 3109 3110 3111 3112 3113 3114 3115 3116 3117 3118 3119 3120 3121 3122 3123 3124 3125 3126 3127 3128 3129 3130 3131 3132 3133 3134 3135 3136 3137 3138 3139 3140 3141 
</DataArray>
<DataArray type="UInt32" Name="offsets" format="ascii">
2 4 6 8 10 12 14 16 18 20 22 24 26 28 30 32 34 36 38 40 43 46 49 52 55 58 61 64 67 70 73 76 79 82 85 88 91 94 97 100 103 106 109 112 115 118 121 124 127 130 133 136 139 142 145 148 151 154 157 160 163 166 169 172 175 178 181 184 187 190 193 196 199 202 205 208 211 214 217 220 223 226 229 232 235 238 241 244 247 250 253 256 259 262 265 268 271 274 277 280 283 286 289 292 295 298 301 304 307 310 313 316 319 322 325 328 331 334 337 340 343 346 349 352 355 358 361 364 367 370 373 376 379 382 385 388 391 394 397 400 403 406 409 412 415 418 421 424 427 430 433 436 439 442 445 448 451 454 457 460 463 466 469 472 475 478 481 484 487 490 493 496 499 502 505 508 511 514 517 520 523 526 529 532 535 538 541 544 547 550 553 556 559 562 565 568 571 574 577 580 583 586 589 592 595 598 601 604 607 610 613 616 619 622 625 628 631 634 637 640 643 646 649 652 655 658 661 664 667 670 673 676 679 682 685 688 691 694 697 700 703 706 709 712 715 718 721 724 727 730 733 736 739 742 745 748 751 754 757 760 763 766 769 772 775 778 781 784 787 790 793 796 799 802 805 808 811 814 817 820 823 826 829 832 835 838 841 844 847 850 853 856 859 862 865 868 871 874 877 880 883 886 889 892 895 898 901 904 907 910 913 916 919 922 925 928 931 934 937 940 943 946 949 952 955 958 961 964 967 970 973 976 979 982 985 988 991 994 997 1000 1003 1006 1009 1012 1015 1018 1021 1024 1027 1030 1033 1036 1039 1042 1045 1048 1051 1054 1057 1060 1063 1066 1069 1072 1075 1078 1081 1084 1087 1090 1093 1096 1099 1102 1105 1108 1111 1114 1117 1120 1123 1126 1129 1132 1135 1138 1141 1144 1147 1150 1153 1156 1159 1162 1165 1168 1171 1174 1177 1180 1183 1186 1189 1192 1195 1198 1201 1204 1207 1210 1213 1216 1219 1222 1225 1228 1231 1234 1237 1240 1243 1246 1249 1252 1255 1258 1261 1264 1267 1270 1273 1276 1279 1282 1285 1288 1291 1294 1297 1300 1303 1306 1309 1312 1315 1318 1321 1324 1327 1330 1333 1336 1339 1342 1345 1348 1351 1354 1357 1360 1363 1366 1369 1372 1375 1378 1381 1384 1387 1390 1393 1396 1399 1402 1405 1408 1411 1414 1417 1420 1423 1426 1429 1432 1435 1438 1441 1444 1447 1450 1453 1456 1459 1462 1465 1468 1471 1474 1477 1480 1483 1486 1489 1492 1495 1498 1501 1504 1507 1510 1513 1516 1519 1522 1525 1528 1531 1534 1537 1540 1543 1546 1549 1552 1555 1558 1561 1564 1567 1570 1573 1576 1579 1582 1585 1588 1591 1594 1597 1600 1603 1606 1609 1612 1615 1618 1621 1624 1627 1630 1633 1636 1639 1642 1645 1648 1651 1654 1657 1660 1663 1666 1669 1672 1675 1678 1681 1684 1687 1690 1693 1696 1699 1702 1705 1708 1711 1714 1717 1720 1723 1726 1729 1732 1735 1738 1741 1744 1747 1750 1753 1756 1759 1762 1765 1768 1771 1774 1777 1780 1783 1786 1789 1792 1795 1798 1801 1804 1807 1810 1813 1816 1819 1822 1825 1828 1831 1834 1837 1840 1843 1846 1849 1852 1855 1858 1861 1864 1867 1870 1873 1876 1879 1882 1885 1888 1891 1894 1897 1900 1903 1906 1909 1912 1915 1918 1921 1924 1927 1930 1933 1936 1939 1942 1945 1948 1951 1954 1957 1960 1963 1966 1969 1972 1975 1978 1981 1984 1987 1990 1993 1996 1999 2002 2005 2008 2011 2014 2017 2020 2023 2026 2029 2032 2035 2038 2041 2044 2047 2050 2053 2056 2059 2062 2065 2068 2071 2074 2077 2080 2083 2086 2089 2092 2095 2098 2101 2104 2107 2110 2113 2116 2119 2122 2125 2128 2131 2134 2137 2140 2143 2146 2149 2152 2155 2158 2161 2164 2167 2170 2173 2176 2179 2182 2185 2188 2191 2194 2197 2200 2203 2206 2209 2212 2215 2218 2221 2224 2227 2230 2233 2236 2239 2242 2245 2248 2251 2254 2257 2260 2263 2266 2269 2272 2275 2278 2281 2284 2287 2290 2293 2296 2299 2302 2305 2308 2311 2314 2317 2320 2323 2326 2329 2332 2335 2338 2341 2344 2347 2350 2353 2356 2359 2362 2365 2368 2371 2374 2377 2380 2383 2386 2389 2392 2395 2398 2401 2404 2407 2410 2413 2416 2419 2422 2425 2428 2431 2434 2437 2440 2443 2446 2449 2452 2455 2458 2461 2464 2467 2470 2473 2476 2479 2482 2485 2488 2491 2494 2497 2500 2503 2506 2509 2512 2515 2518 2521 2524 2527 2530 2533 2536 2539 2542 2545 2548 2551 2554 2557 2560 2563 2566 2569 2572 2575 2578 2581 2584 2587 2590 2593 2596 2599 2602 2605 2608 2611 2614 2617 2620 2623 2626 2629 2632 2635 2638 2641 2644 2647 2650 2653 2656 2659 2662 2665 2668 2671 2674 2677 2680 2683 2686 2689 2692 2695 2698 2701 2704 2707 2710 2713 2716 2719 2722 2725 2728 2731 2734 2737 2740 2743 2746 2749 2752 2755 2758 2761 2764 2767 2770 2773 2776 2779 2782 2785 2788 2791 2794 2797 2800 2803 2806 2809 2812 2815 2818 2821 2824 2827 2830 2833 2836 2839 2842 2845 2848 2851 2854 2857 2860 2863 2866 2869 2872 2875 2878 2881 2884 2887 2890 2893 2896 2899 2902 2905 2908 2911 2914 2917 2920 2923 2926 2929 2932 2935 2938 2941 2944 2947 2950 2953 2956 2959 2962 2965 2968 2971 2974 2977 2980 2983 2986 2989 2992 2995 2998 3001 3004 3007 3010 3013 3016 3019 3022 3025 3028 3031 3034 3037 3040 3043 3046 3049 3052 3055 3058 3061 3064 3067 3070 3073 3076 3079 3082 3085 3088 3091 3094 3097 3100 3103 3106 3109 3112 3115 3118 3121 3124 3127 3130 3133 3136 3139 3142 
</DataArray>
<DataArray type="UInt32" Name="types" format="ascii">
3 3 3 3 3 3 3 3 3 3 3 3 3 3 3 3 3 3 3 3 5 5 5 5 5 5 5 5 5 5 5 5 5 5 5 5 5 5 5 5 5 5 5 5 5 5 5 5 5 5 5 5 5 5 5 5 5 5 5 5 5 5 5 5 5 5 5 5 5 5 5 5 5 5 5 5 5 5 5 5 5 5 5 5 5 5 5 5 5 5 5 5 5 5 5 5 5 5 5 5 5 5 5 5 5 5 5 5 5 5 5 5 5 5 5 5 5 5 5 5 5 5 5 5 5 5 5 5 5 5 5 5 5 5 5 5 5 5 5 5 5 5 5 5 5 5 5 5 5 5 5 5 5 5 5 5 5 5 5 5 5 5 5 5 5 5 5 5 5 5 5 5 5 5 5 5 5 5 5 5 5 5 5 5 5 5 5 5 5 5 5 5 5 5 5 5 5 5 5 5 5 5 5 5 5 5 5 5 5 5 5 5 5 5 5 5 5 5 5 5 5 5 5 5 5 5 5 5 5 5 5 5 5 5 5 5 5 5 5 5 5 5 5 5 5 5 5 5 5 5 5 5 5 5 5 5 5 5 5 5 5 5 5 5 5 5 5 5 5 5 5 5 5 5 5 5 5 5 5 5 5 5 5 5 5 5 5 5 5 5 5 5 5 5 5 5 5 5 5 5 5 5 5 5 5 5 5 5 5 5 5 5 5 5 5 5 5 5 5 5 5 5 5 5 5 5 5 5 5 5 5 5 5 5 5 5 5 5 5 5 5 5 5 5 5 5 5 5 5 5 5 5 5 5 5 5 5 5 5 5 5 5 5 5 5 5 5 5 5 5 5 5 5 5 5 5 5 5 5 5 5 5 5 5 5 5 5 5 5 5 5 5 5 5 5 5 5 5 5 5 5 5 5 5 5 5 5 5 5 5 5 5 5 5 5 5 5 5 5 5 5 5 5 5 5 5 5 5 5 5 5 5 5 5 5 5 5 5 5 5 5 5 5 5 5 5 5 5 5 5 5 5 5 5 5 5 5 5 5 5 5 5 5 5 5 5 5 5 5 5 5 5 5 5 5 5 5 5 5 5 5 5 5 5 5 5 5 5 5 5 5 5 5 5 5 5 5 5 5 5 5 5 5 5 5 5 5 5 5 5 5 5 5 5 5 5 5 5 5 5 5 5 5 5 5 5 5 5 5 5 5 5 5 5 5 5 5 5 5 5 5 5 5 5 5 5 5 5 5 5 5 5 5 5 5 5 5 5 5 5 5 5 5 5 5 5 5 5 5 5 5 5 5 5 5 5 5 5 5 5 5 5 5 5 5 5 5 5 5 5 5 5 5 5 5 5 5 5 5 5 5 5 5 5 5 5 5 5 5 5 5 5 5 5 5 5 5 5 5 5 5 5 5 5 5 5 5 5 5 5 5 5 5 5 5 5 5 5 5 5 5 5 5 5 5 5 5 5 5 5 5 5 5 5 5 5 5 5 5 5 5 5 5 5 5 5 5 5 5 5 5 5 5 5 5 5 5 5 5 5 5 5 5 5 5 5 5 5 5 5 5 5 5 5 5 5 5 5 5 5 5 5 5 5 5 5 5 5 5 5 5 5 5 5 5 5 5 5 5 5 5 5 5 5 5 5 5 5 5 5 5 5 5 5 5 5 5 5 5 5 5 5 5 5 5 5 5 5 5 5 5 5 5 5 5 5 5 5 5 5 5 5 5 5 5 5 5 5 5 5 5 5 5 5 5 5 5 5 5 5 5 5 5 5 5 5 5 5 5 5 5 5 5 5 5 5 5 5 5 5 5 5 5 5 5 5 5 5 5 5 5 5 5 5 5 5 5 5 5 5 5 5 5 5 5 5 5 5 5 5 5 5 5 5 5 5 5 5 5 5 5 5 5 5 5 5 5 5 5 5 5 5 5 5 5 5 5 5 5 5 5 5 5 5 5 5 5 5 5 5 5 5 5 5 5 5 5 5 5 5 5 5 5 5 5 5 5 5 5 5 5 5 5 5 5 5 5 5 5 5 5 5 5 5 5 5 5 5 5 5 5 5 5 5 5 5 5 5 5 5 5 5 5 5 5 5 5 5 5 5 5 5 5 5 5 5 5 5 5 5 5 5 5 5 5 5 5 5 5 5 5 5 5 5 5 5 5 5 5 5 5 5 5 5 5 5 5 5 5 5 5 5 5 5 5 5 5 5 5 5 5 5 5 5 5 5 5 5 5 5 5 5 5 5 5 5 5 5 5 5 5 5 5 5 5 5 5 5 5 5 5 5 5 5 5 5 5 5 5 5 5 5 5 5 5 5 5 5 5 5 5 5 5 5 5 5 5 5 5 5 5 5 5 5 5 5 5 5 5 5 5 5 5 5 
</DataArray>
</Cells>
<PointData Scalars="" Vectors="displacement," Tensors="">
<DataArray type="Float64" Name="displacement" NumberOfComponents="3" format="ascii">
-1.2755680550549011e-05 -1.3442656020074088e-05 0 -1.3746637738163914e-05 -1.8583981753492546e-05 0 -1.3746637738163914e-05 -1.8583981753492546e-05 0 -1.491606732829805e-05 -2.4574157012933361e-05 0 -1.491606732829805e-05 -2.4574157012933361e-05 0 -1.6286227927091371e-05 -3.151274250725769e-05 0 -1.6286227927091371e-05 -3.151274250725769e-05 0 -1.7561291178755986e-05 -3.8756186179394235e-05 0 -1.7561291178755986e-05 -3.8756186179394235e-05 0 -1.8708326746773174e-05 -4.6052278292358158e-05 0 -1.8708326746773174e-05 -4.6052278292358158e-05 0 -1.9831306790815829e-05 -5.3355886786790775e-05 0 -1.9831306790815829e-05 -5.3355886786790775e-05 0 -2.1065077085025296e-05 -6.011542743970649e-05 0 -2.1065077085025296e-05 -6.011542743970649e-05 0 -2.2380506371416849e-05 -6.722899511121656e-05 0 -2.2380506371416849e-05 -6.722899511121656e-05 0 -2.3217035994106111e-05 -7.2446284300868658e-05 0 -2.3217035994106111e-05 -7.2446284300868658e-05 0 -2.6076810764964763e-05 -7.8818176174227431e-05 0 4.4718189931033811e-06 1.9457642766885948e-05 0 7.9686403155609908e-06 3.032793348933841e-05 0 7.9686403155609908e-06 3.032793348933841e-05 0 7.6418226116895003e-06 3.5561929651092531e-05 0 7.6418226116895003e-06 3.5561929651092531e-05 0 7.0950908098934403e-06 4.6038285433063411e-05 0 7.0950908098934403e-06 4.6038285433063411e-05 0 6.2094545856512238e-06 5.5063423829286267e-05 0 6.2094545856512238e-06 5.5063423829286267e-05 0 5.0235407969297851e-06 6.5242075963071753e-05 0 5.0235407969297851e-06 6.5242075963071753e-05 0 3.528160436846587e-06 7.5856693692317279e-05 0 3.528160436846587e-06 7.5856693692317279e-05 0 1.8257075396961676e-06 8.468025030304131e-05 0 1.8257075396961676e-06 8.468025030304131e-05 0 -1.1112393124119142e-06 9.6787205300239679e-05 0 -1.1112393124119142e-06 9.6787205300239679e-05 0 -1.2937274924414856e-07 0.00010313726709032833 0 -1.2937274924414856e-07 0.00010313726709032833 0 -1.5095614655965514e-05 0.0001150427481885371 0 -1.0389597384277023e-05 -5.1313116487386765e-06 0 -7.6965126385474571e-06 -1.7416711119248892e-06 0 -9.7622549806194897e-06 -4.3784387324460126e-06 0 -9.0595116385456285e-06 -2.8606251996065868e-06 0 -7.6965126385474571e-06 -1.7416711119248892e-06 0 -1.0389597384277023e-05 -5.1313116487386765e-06 0 -1.8840799580608242e-05 -1.0342150657034135e-05 0 -1.6203730391605409e-05 -7.5415527800034891e-06 0 -1.6871175836470155e-05 -1.0085776900262539e-05 0 -1.6871175836470155e-05 -1.0085776900262539e-05 0 -1.6203730391605409e-05 -7.5415527800034882e-06 0 -1.4814711737516926e-05 -8.9931223606536461e-06 0 -1.0494518246538753e-05 3.1684417161148807e-06 0 -4.5735963474332702e-06 7.6237312031087952e-07 0 -9.5401124668543653e-06 1.6909102862830422e-06 0 -7.4170191027638504e-06 -2.8276801080729786e-06 0 -6.7335362090652515e-06 -1.8459644413856072e-06 0 -3.2632343615297217e-06 -9.1526874517444068e-07 0 -5.3605370141071746e-06 2.3188847013962888e-06 0 -4.5735963474332702e-06 7.6237312031087952e-07 0 -1.0494518246538753e-05 3.1684417161148807e-06 0 -3.8877473466941847e-06 -1.9713131251772338e-06 0 -7.4170191027638504e-06 -2.8276801080729786e-06 0 -3.2632343615297217e-06 -9.1526874517444068e-07 0 -1.9150521349097107e-05 -6.1044588689228594e-06 0 -2.3482153839156552e-05 -8.0668522783274923e-06 0 -1.849552104882285e-05 -5.363197904226371e-06 0 -3.6557060921301365e-05 1.1572826485150348e-05 0 -2.902530322531633e-05 7.9527329335071678e-06 0 -2.8304541261815518e-05 7.349429670906004e-06 0 -1.547706607614303e-06 6.7575970635088446e-07 0 -1.9447286213517183e-06 1.3759750893776871e-06 0 -2.3846548911550491e-06 3.3041779900906725e-07 0 -2.9888039367143079e-06 1.712773356696946e-06 0 -2.3846548911550496e-06 3.3041779900906725e-07 0 -1.9447286213517183e-06 1.3759750893776871e-06 0 -3.7381117541043349e-06 6.844445607900013e-07 0 -4.9017562212276339e-06 4.3780398361140375e-07 0 -3.2542885693750254e-06 8.9651980892386601e-07 0 -1.6550274362027168e-09 -4.9444500424585195e-10 0 -1.2301861703054226e-09 -3.3340470030044932e-10 0 -1.3652203230921097e-06 -7.6163238648527004e-07 0 -1.2835002268852511e-09 2.8882469993198512e-10 0 -1.55771576852132e-09 3.0009611036067351e-10 0 -1.4313850734982632e-06 5.9570973694529494e-07 0 -2.1798786025328796e-05 -1.3820997987691595e-05 0 -2.1684277938591007e-05 -1.3813974855960399e-05 0 -1.8840799580608242e-05 -1.0342150657034135e-05 0 3.3371360107203022e-06 2.189469489402398e-05 0 -1.2753238143343132e-06 1.4456024539817412e-05 0 -2.3537973896480268e-06 1.5091580585478045e-05 0 -3.7546736116607186e-05 -0.0001235760566214882 0 -3.0492524637140489e-05 -0.0001156706854812865 0 -3.7632611136164625e-05 -0.00011216531415986985 0 -4.6573892620883895e-05 0.00026771607657296789 0 -6.5037302625875959e-05 0.0002484121687931259 0 -4.6651950345865124e-05 0.00024137527987712126 0 -4.6573892620883895e-05 0.00026771607657296789 0 -4.6651950345865124e-05 0.00024137527987712126 0 -2.898278666985041e-05 0.00024882289669594823 0 -3.7546736116607186e-05 -0.0001235760566214882 0 -3.7632611136164625e-05 -0.00011216531415986985 0 -4.5297960945945128e-05 -0.00011511876474179505 0 -6.8297313720733745e-05 0.0002264122489798947 0 -4.4988427786575881e-05 0.00021599011569469728 0 -4.6651950345865124e-05 0.00024137527987712126 0 -2.894480439615557e-05 -0.00010559986042199293 0 -3.7822202695756025e-05 -0.0001004562139505428 0 -3.7632611136164625e-05 -0.00011216531415986985 0 -3.7381117541043349e-06 6.844445607900013e-07 0 -3.2542885693750254e-06 8.9651980892386601e-07 0 -2.4101587062917848e-06 8.3838391171950183e-07 0 3.3371360107203022e-06 2.189469489402398e-05 0 -4.924245269628191e-06 1.9470856518745338e-05 0 -1.2753238143343132e-06 1.4456024539817412e-05 0 -8.2868976674490896e-05 6.582895828544551e-05 0 -7.412666255372502e-05 4.8928965840122259e-05 0 -5.9435493603721437e-05 5.2381455592699789e-05 0 -4.3623187940470741e-05 -2.5163157225751379e-05 0 -4.8358665961487738e-05 -3.2542068852398204e-05 0 -3.7708852871254969e-05 -2.668852324941185e-05 0 -1.8162707321690331e-05 -1.1205940522431282e-05 0 -2.1798786025328796e-05 -1.3820997987691595e-05 0 -1.8840799580608242e-05 -1.0342150657034135e-05 0 -4.0262632947784254e-05 4.2670335618570509e-05 0 -3.4884175465907104e-05 2.6057813744890524e-05 0 -2.7664717599333598e-05 2.7816389566597527e-05 0 -1.97793186377084e-05 8.5808571082335669e-06 0 -2.7233701016603688e-05 1.2404206952083431e-05 0 -2.573019731154475e-05 7.870580716602622e-06 0 -1.1987640078067787e-05 -1.3288333857892551e-06 0 -1.0245788902136989e-05 1.5515310784230895e-06 0 -1.3529887484051545e-05 -3.4105727494605845e-06 0 -3.6610833403983246e-05 -8.8390674891620846e-05 0 -3.0031662585563287e-05 -8.4823783110608367e-05 0 -3.6451595303456914e-05 -7.5576371835106633e-05 0 -4.5185691552556704e-05 0.00019027005456634773 0 -6.0198552996956422e-05 0.00018283829218196211 0 -4.130782583998156e-05 0.00016175837454754266 0 -3.6451595303456914e-05 -7.5576371835106633e-05 0 -3.0031662585563287e-05 -8.4823783110608367e-05 0 -2.8847244442301856e-05 -7.3782099967866009e-05 0 -4.130782583998156e-05 0.00016175837454754266 0 -6.0198552996956422e-05 0.00018283829218196211 0 -5.9086444695933699e-05 0.00016197538545375623 0 -1.97793186377084e-05 8.5808571082335669e-06 0 -2.573019731154475e-05 7.870580716602622e-06 0 -1.7547347216371547e-05 5.3532631207467206e-06 0 -1.1996311478897355e-05 -4.7745011939101515e-06 0 -9.3255819974715254e-06 3.1338711027090083e-06 0 -1.1987640078067787e-05 -1.3288333857892551e-06 0 -4.0262632947784254e-05 4.2670335618570509e-05 0 -4.6687184348185394e-05 3.6641843037059382e-05 0 -3.4884175465907104e-05 2.6057813744890527e-05 0 3.3371360107203022e-06 2.189469489402398e-05 0 1.2443687634529555e-05 5.4779963665947033e-05 0 -5.2709606687242962e-06 5.6512826974494313e-05 0 -3.0087018754379094e-05 -3.3904945798691474e-05 0 -2.6914076727425185e-05 -3.2142282209462421e-05 0 -3.0556385830890143e-05 -3.2005414127814312e-05 0 -1.6423718631955936e-05 -3.8569446281601087e-05 0 -1.5876940764442857e-05 -3.6471472316761782e-05 0 -1.738366578357896e-05 -3.7471345502296011e-05 0 -7.7122549336643175e-06 5.620337680993665e-06 0 -1.0245788902136989e-05 1.5515310784230895e-06 0 -1.1987640078067787e-05 -1.3288333857892551e-06 0 -1.4379870505957713e-05 -0.00011231855832006075 0 -2.0941197984939805e-05 -0.00010364331511365579 0 -2.3253548194781035e-05 -0.00011347351245418731 0 -0.00010949596387216036 0.00024653148493196424 0 -8.9274825065016781e-05 0.00022399957751086669 0 -8.5226562777738636e-05 0.0002439024739734513 0 -9.5622420281837095e-10 -2.5496054140910367e-10 0 -6.941386640500855e-07 -1.9572679314890414e-07 0 -8.7734504233500107e-07 -4.713713321487919e-07 0 -1.0898683187198423e-09 3.007581431027586e-10 0 -1.0840576838609999e-06 5.8699851323632003e-07 0 -9.4112366256118182e-07 6.1526856335632511e-07 0 -4.0262632947784254e-05 4.2670335618570509e-05 0 -2.720671682975429e-05 4.0907282088116795e-05 0 -3.6752961372562162e-05 6.2401254961186266e-05 0 -2.0157536050030204e-05 5.5310994655654943e-05 0 -3.6752961372562162e-05 6.2401254961186266e-05 0 -2.720671682975429e-05 4.0907282088116802e-05 0 -9.428252390527684e-06 3.4986735714759182e-05 0 3.3371360107203022e-06 2.189469489402398e-05 0 -5.2709606687242962e-06 5.6512826974494313e-05 0 -0.00010910780126282901 0.00020162126177896482 0 -8.0757452592179893e-05 0.00020216437224772465 0 -8.9274825065016781e-05 0.00022399957751086669 0 -1.1189451298728781e-05 -9.023476717174016e-05 0 -2.3037345843595972e-05 -9.3256836738507315e-05 0 -2.0941197984939802e-05 -0.00010364331511365579 0 -1.7961499722083808e-05 -3.1177109846536858e-05 0 -1.8421883745906711e-05 -2.7972597351833284e-05 0 -2.0212391021440703e-05 -3.035017130072967e-05 0 -1.2149020879401679e-05 -1.4429030316557823e-06 0 -1.3529887484051545e-05 -3.4105727494605845e-06 0 -1.0245788902136989e-05 1.5515310784230895e-06 0 -1.5378294378328836e-05 -7.1618879762053102e-06 0 -1.7082905189009374e-05 -1.0865333918641558e-05 0 -1.4956800356596592e-05 -1.055831273543628e-05 0 -1.0983142567670327e-05 -1.8265017540765988e-05 0 -1.1272862558240502e-05 -1.5352138974595092e-05 0 -1.4550774560493448e-05 -1.9337451089336241e-05 0 -9.7513064724980786e-05 0.00010737763571962385 0 -7.4818039624991752e-05 9.2542159758999089e-05 0 -8.3006149684724262e-05 0.00012004894427834428 0 -6.4387113388842795e-05 -9.3954151574049822e-05 0 -5.5825816212015227e-05 -0.00010434948260320528 0 -5.2566979095703714e-05 -9.4820714375922231e-05 0 1.5319044074342304e-05 0.00019591344173557 0 -5.5520096949009976e-06 0.00022333176243241696 0 -1.0418074600108618e-05 0.00020255384338003243 0 -1.2719105199737515e-05 -0.00010108399024230927 0 -2.0941197984939802e-05 -0.00010364331511365579 0 -1.4379870505957713e-05 -0.00011231855832006075 0 -0.00010949596387216036 0.00024653148493196424 0 -0.00010948943333630013 0.00022441866577706108 0 -8.9274825065016781e-05 0.00022399957751086669 0 -2.5162766684708955e-05 -2.8487941121399267e-05 0 -2.5742513739745218e-05 -2.5900941412882714e-05 0 -2.7315156844834841e-05 -2.8599145394397807e-05 0 -1.291103345448197e-05 -1.3557415409135842e-05 0 -1.5718743194490379e-05 -1.6449709431799701e-05 0 -1.6273400958104258e-05 -2.4252994291108588e-05 0 -2.5162766684708955e-05 -2.8487941121399267e-05 0 -2.394031543821551e-05 -2.6243173204263827e-05 0 -2.5742513739745218e-05 -2.5900941412882714e-05 0 -1.3999938298901679e-05 -1.5434501926939388e-05 0 -1.4550774560493448e-05 -1.9337451089336241e-05 0 -1.1272862558240502e-05 -1.5352138974595092e-05 0 -3.1081818598778189e-05 -4.2577003825319621e-05 0 -3.3722836370825278e-05 -5.5561670341142945e-05 0 -2.594099613545837e-05 -4.5406630330068487e-05 0 -2.4523227750525898e-09 2.3624121990557874e-10 0 -3.2632343615297217e-06 -9.1526874517444068e-07 0 -2.2735764718213878e-06 -1.7016986239324439e-07 0 -3.5030182667922777e-09 -5.1712723674340168e-10 0 -3.0825904656046464e-06 -2.1802210162291027e-07 0 -4.5735963474332702e-06 7.6237312031087952e-07 0 -3.0087018754379094e-05 -3.3904945798691474e-05 0 -2.6658182999840275e-05 -3.4600415437671427e-05 0 -2.6914076727425185e-05 -3.2142282209462421e-05 0 -1.7319026029187813e-05 -3.8727897993396132e-05 0 -1.6423718631955936e-05 -3.8569446281601087e-05 0 -1.738366578357896e-05 -3.7471345502296011e-05 0 -2.5588332137879843e-09 -7.5359578037676524e-10 0 -3.9363333482659838e-06 -6.8308858151362463e-07 0 -3.082590465604646e-06 -2.1802210162291051e-07 0 -2.012549590348062e-09 3.5359219843159772e-10 0 -2.2735764718213878e-06 -1.7016986239324439e-07 0 -3.0730573892539224e-06 9.1661829747793726e-08 0 -2.3846548911550491e-06 3.3041779900906725e-07 0 -2.0851811232927479e-06 -6.5458996677084484e-07 0 -1.6816361646489372e-06 -1.048833769828109e-08 0 -1.1063560981856277e-05 -3.6315888287611584e-06 0 -9.3380788968978322e-06 -2.126985600956595e-06 0 -6.7335362090652515e-06 -1.8459644413856072e-06 0 -1.6039084583385059e-05 4.1114206560450737e-06 0 -9.540112466854367e-06 1.6909102862830422e-06 0 -1.3250647335119053e-05 1.8933852756967168e-06 0 -1.76996236114067e-05 -1.912296281076388e-05 0 -1.6349520105677133e-05 -1.5767988010068375e-05 0 -1.9106333904226706e-05 -1.7401546183224609e-05 0 -1.7502399636821759e-05 -1.3985189727392267e-05 0 -1.4956800356596592e-05 -1.055831273543628e-05 0 -1.7082905189009374e-05 -1.0865333918641558e-05 0 1.1038449840954103e-05 0.00024193127116901262 0 -1.0724916761096027e-05 0.00024373416857054083 0 -5.5520096949009976e-06 0.00022333176243241696 0 -6.4686351945894503e-05 -0.00011423128113920907 0 -5.3984412681307187e-05 -0.00011305568975823857 0 -5.5825816212015227e-05 -0.00010434948260320528 0 -1.7502399636821759e-05 -1.3985189727392267e-05 0 -1.9106333904226706e-05 -1.7401546183224609e-05 0 -1.6349520105677133e-05 -1.5767988010068375e-05 0 -1.8421883745906711e-05 -2.7972597351833284e-05 0 -1.6074215734014595e-05 -2.7256633343134192e-05 0 -1.7752188005290984e-05 -2.3702795351921724e-05 0 -5.95258536501573e-05 0.00014050479325816422 0 -5.1711975001424622e-05 0.00011080981905929415 0 -3.9746699852036405e-05 0.00012136073011582472 0 -3.5030182667922777e-09 -5.1712723674340168e-10 0 -3.6955704173529986e-09 1.9324731657615265e-10 0 -3.082590465604646e-06 -2.1802210162291051e-07 0 -2.7271962796348347e-09 -2.4252177019059382e-10 0 -2.4523227750525898e-09 2.3624121990557874e-10 0 -2.2735764718213878e-06 -1.7016986239324439e-07 0 -2.3846548911550491e-06 3.3041779900906725e-07 0 -3.3372927444812639e-06 -1.6246674072219925e-07 0 -2.0851811232927479e-06 -6.5458996677084484e-07 0 -2.533595542608855e-05 0.00022627776734537885 0 -4.6651950345865124e-05 0.00024137527987712126 0 -4.4988427786575881e-05 0.00021599011569469728 0 -4.6654181156134443e-05 -0.00010502015208183074 0 -3.7632611136164625e-05 -0.00011216531415986985 0 -3.7822202695756025e-05 -0.0001004562139505428 0 -3.3722836370825278e-05 -5.5561670341142945e-05 0 -2.689251819244574e-05 -5.5590288703835335e-05 0 -2.594099613545837e-05 -4.5406630330068487e-05 0 -9.2307278098719948e-07 4.3204301460094306e-07 0 -1.2847229565860691e-06 8.3650195576464338e-07 0 -1.1409764412914263e-06 4.6724359221710492e-07 0 -1.0968512415010119e-05 1.4515314175614072e-06 0 -8.1655034569410187e-06 1.3688950078866719e-06 0 -1.2404027985267573e-05 3.1207127137721826e-06 0 -1.6074215734014595e-05 -2.7256633343134192e-05 0 -1.5046193305744653e-05 -2.3685898100484881e-05 0 -1.7752188005290984e-05 -2.3702795351921724e-05 0 -1.1409764412914263e-06 4.6724359221710492e-07 0 -1.2847229565860691e-06 8.3650195576464338e-07 0 -1.3975857802246658e-06 9.0813653641230368e-07 0 -1.2847229565860691e-06 8.3650195576464338e-07 0 -8.2035411354215773e-07 5.1636506430480814e-07 0 -1.4634081245297482e-06 8.9634518286241104e-07 0 -1.1561784300074547e-06 7.4401137838048283e-07 0 -1.4634081245297482e-06 8.9634518286241104e-07 0 -8.2035411354215773e-07 5.1636506430480814e-07 0 -2.7699698746630218e-05 -2.7368123951499648e-05 0 -2.5742513739745218e-05 -2.5900941412882714e-05 0 -2.7222663845418948e-05 -2.4976672442279064e-05 0 -1.5378294378328836e-05 -7.1618879762053102e-06 0 -1.4956800356596592e-05 -1.055831273543628e-05 0 -1.3710737026414311e-05 -5.9049146439640978e-06 0 -1.7961499722083808e-05 -3.1177109846536858e-05 0 -1.6074215734014595e-05 -2.7256633343134192e-05 0 -1.8421883745906711e-05 -2.7972597351833284e-05 0 -7.7122549336643175e-06 5.620337680993665e-06 0 -1.1987640078067787e-05 -1.3288333857892545e-06 0 -9.3255819974715254e-06 3.1338711027090083e-06 0 1.3319213426410006e-05 0.00021858131586318074 0 1.1038449840954103e-05 0.00024193127116901262 0 -5.5520096949009976e-06 0.00022333176243241696 0 -6.4674656731657823e-05 -0.00010433238688269448 0 -6.4686351945894503e-05 -0.00011423128113920907 0 -5.5825816212015227e-05 -0.00010434948260320528 0 -6.4387113388842795e-05 -9.3954151574049822e-05 0 -6.4674656731657823e-05 -0.00010433238688269448 0 -5.5825816212015227e-05 -0.00010434948260320528 0 1.5319044074342304e-05 0.00019591344173557 0 1.3319213426410006e-05 0.00021858131586318074 0 -5.5520096949009976e-06 0.00022333176243241696 0 -4.4821220059422038e-06 8.8015588271948349e-06 0 -4.6288307149870423e-06 7.064438403628801e-06 0 -7.7122549336643175e-06 5.620337680993665e-06 0 -3.0096008543048737e-06 1.0076216728886093e-06 0 -1.9886771732319945e-06 9.7261581045490792e-07 0 -3.2542885693750254e-06 8.9651980892386601e-07 0 -1.8548700482992415e-06 8.7020296688044417e-07 0 -3.2542885693750254e-06 8.9651980892386601e-07 0 -1.9886771732319945e-06 9.7261581045490792e-07 0 -5.128888807887997e-06 0.00012278749822622223 0 2.5319700958370874e-07 0.00013848690455684019 0 -2.1901941557672523e-05 0.00013963125258616252 0 2.5319700958370874e-07 0.00013848690455684019 0 -5.8290927364157921e-06 0.00015514190780429679 0 -2.1901941557672523e-05 0.00013963125258616252 0 -1.1996311478897355e-05 -4.7745011939101515e-06 0 -1.1987640078067787e-05 -1.3288333857892557e-06 0 -1.3710737026414311e-05 -5.9049146439640978e-06 0 -1.8463201847533197e-05 -3.8193624790984091e-05 0 -1.738366578357896e-05 -3.7471345502296011e-05 0 -1.8695661808979001e-05 -3.549146830066996e-05 0 -2.3290374626013004e-05 -3.5646862039298604e-05 0 -2.4179742560048176e-05 -3.2218331992973425e-05 0 -2.6914076727425185e-05 -3.2142282209462421e-05 0 -4.6288307149870423e-06 7.064438403628801e-06 0 -6.963660666147068e-06 4.3254188034163885e-06 0 -7.7122549336643175e-06 5.620337680993665e-06 0 -0.00010948943333630013 0.00022441866577706108 0 -0.00010910780126282901 0.00020162126177896482 0 -8.9274825065016781e-05 0.00022399957751086669 0 -1.1189451298728781e-05 -9.023476717174016e-05 0 -2.0941197984939802e-05 -0.00010364331511365579 0 -1.2719105199737515e-05 -0.00010108399024230927 0 -2.3482153839156552e-05 -8.0668522783274923e-06 0 -2.3184587695919274e-05 -7.9238316691189063e-06 0 -1.849552104882285e-05 -5.363197904226371e-06 0 -3.6557060921301365e-05 1.1572826485150348e-05 0 -2.8304541261815518e-05 7.349429670906004e-06 0 -3.5210704152597386e-05 1.173161246636884e-05 0 -1.1996311478897355e-05 -4.7745011939101515e-06 0 -1.4956800356596592e-05 -1.055831273543628e-05 0 -1.1892019096623285e-05 -1.1272175246800722e-05 0 -1.291103345448197e-05 -1.3557415409135842e-05 0 -1.6273400958104258e-05 -2.4252994291108588e-05 0 -9.4921241323947911e-06 -2.5718269625306159e-05 0 -1.3999938298901679e-05 -1.5434501926939388e-05 0 -1.4956800356596592e-05 -1.055831273543628e-05 0 -1.6349520105677133e-05 -1.5767988010068375e-05 0 -1.7502399636821759e-05 -1.3985189727392267e-05 0 -1.6349520105677133e-05 -1.5767988010068375e-05 0 -1.4956800356596592e-05 -1.055831273543628e-05 0 -3.7546736116607186e-05 -0.0001235760566214882 0 -2.9837196202142063e-05 -0.00012356793663325323 0 -3.0492524637140489e-05 -0.0001156706854812865 0 -4.6573892620883895e-05 0.00026771607657296789 0 -6.6817787656504562e-05 0.00026775368924235012 0 -6.5037302625875959e-05 0.0002484121687931259 0 -2.7472155321722136e-05 0.00026738344778737543 0 -4.6573892620883895e-05 0.00026771607657296789 0 -2.898278666985041e-05 0.00024882289669594823 0 -4.6056892231160632e-05 -0.0001235112439328294 0 -3.7546736116607186e-05 -0.0001235760566214882 0 -4.5297960945945128e-05 -0.00011511876474179505 0 -1.4970072333726617e-05 2.5957775809430138e-05 0 -2.720671682975429e-05 4.0907282088116802e-05 0 -2.7664717599333598e-05 2.7816389566597527e-05 0 -2.1060943961556143e-05 -1.7233955372443296e-05 0 -2.3270785559476971e-05 -2.0385900731609906e-05 0 -2.1569012092836464e-05 -2.0660695869952039e-05 0 -1.3999938298901679e-05 -1.5434501926939388e-05 0 -1.6349520105677133e-05 -1.5767988010068375e-05 0 -1.4550774560493448e-05 -1.9337451089336241e-05 0 -1.76996236114067e-05 -1.912296281076388e-05 0 -1.4550774560493448e-05 -1.9337451089336241e-05 0 -1.6349520105677133e-05 -1.5767988010068375e-05 0 -2.039977832788512e-05 -4.7833459922334966e-05 0 -1.8686784565447708e-05 -3.5881824110615583e-05 0 -2.594099613545837e-05 -4.5406630330068487e-05 0 -8.2868976674490896e-05 6.582895828544551e-05 0 -5.9435493603721437e-05 5.2381455592699789e-05 0 -7.3423013121564333e-05 7.3203669340489552e-05 0 -1.8896747218034341e-05 -9.5983766791074513e-06 0 -2.3411114122754117e-05 -1.4185611861697016e-05 0 -1.7583326577650062e-05 -1.123155186878782e-05 0 -2.0580128103542056e-05 -1.6139392553856872e-05 0 -1.7583326577650062e-05 -1.123155186878782e-05 0 -2.3411114122754117e-05 -1.4185611861697016e-05 0 -2.6014862058708921e-05 -3.016353645317691e-05 0 -2.323713593357774e-05 -3.0100512989436557e-05 0 -2.5162766684708955e-05 -2.8487941121399267e-05 0 -6.6641637208715874e-05 0.00010742241166191419 0 -8.3006149684724262e-05 0.00012004894427834428 0 -7.4818039624991752e-05 9.2542159758999089e-05 0 -2.2595854539567413e-05 -8.4682090941532255e-06 0 -2.8016756574772633e-05 -1.2262799480317102e-05 0 -2.3464197436677499e-05 -1.0975685737288078e-05 0 -2.8935462144642491e-05 -1.5275100238711098e-05 0 -2.3464197436677499e-05 -1.0975685737288078e-05 0 -2.8016756574772633e-05 -1.2262799480317102e-05 0 -4.3513737095968709e-05 2.745714198788583e-05 0 -4.3162734809737394e-05 2.0793614044791426e-05 0 -3.391721335295721e-05 1.8749035479902398e-05 0 -3.3748149322454794e-05 1.3729424130259141e-05 0 -3.391721335295721e-05 1.8749035479902398e-05 0 -4.3162734809737394e-05 2.0793614044791426e-05 0 -2.4491613212439641e-05 -2.3544585284747825e-05 0 -2.2221758921530809e-05 -2.3834676951322244e-05 0 -2.1569012092836464e-05 -2.0660695869952039e-05 0 -4.8358665961487738e-05 -3.2542068852398204e-05 0 -4.4674712812117098e-05 -3.5549960660217521e-05 0 -3.7708852871254969e-05 -2.668852324941185e-05 0 -1.3101551064727137e-05 0.00010185366016854542 0 -2.5562309577852513e-05 8.0930554335940228e-05 0 -9.0636090717560374e-06 7.7274851932252506e-05 0 -1.2149020879401679e-05 -1.4429030316557823e-06 0 -1.3413652378275912e-05 -4.017045228998435e-06 0 -1.5310493462156469e-05 -5.755917928879969e-06 0 -3.3515803811788083e-06 2.3541828291666492e-06 0 -2.5740489406459108e-06 3.5730203673591579e-06 0 -2.2856891601172417e-06 2.4478401345852055e-06 0 -7.5608871330803284e-05 0.00017591308702736294 0 -6.0198552996956422e-05 0.00018283829218196211 0 -8.0757452592179893e-05 0.00020216437224772465 0 -2.3291744271955919e-05 -8.0471622102120641e-05 0 -3.0031662585563287e-05 -8.4823783110608367e-05 0 -2.3037345843595969e-05 -9.3256836738507301e-05 0 -1.1996311478897355e-05 -4.7745011939101515e-06 0 -1.3710737026414311e-05 -5.9049146439640978e-06 0 -1.4956800356596592e-05 -1.055831273543628e-05 0 -2.4179742560048176e-05 -3.2218331992973425e-05 0 -2.323713593357774e-05 -3.0100512989436557e-05 0 -2.6014862058708921e-05 -3.016353645317691e-05 0 -1.76996236114067e-05 -1.912296281076388e-05 0 -1.9777436354040429e-05 -2.0998984740520031e-05 0 -1.7752188005290984e-05 -2.3702795351921724e-05 0 -1.2301861703054226e-09 -3.3340470030044932e-10 0 -8.7734504233500107e-07 -4.713713321487919e-07 0 -1.3652203230921097e-06 -7.6163238648527004e-07 0 -1.2835002268852511e-09 2.8882469993198512e-10 0 -1.4313850734982632e-06 5.9570973694529494e-07 0 -1.0840576838609999e-06 5.8699851323632003e-07 0 -1.8686784565447708e-05 -3.5881824110615583e-05 0 -2.5275689736518864e-05 -3.6082926482604873e-05 0 -2.594099613545837e-05 -4.5406630330068487e-05 0 -1.0968512415010119e-05 1.4515314175614072e-06 0 -1.2404027985267573e-05 3.1207127137721826e-06 0 -1.5366541896883596e-05 2.7541430846050441e-06 0 -2.2944006134628198e-05 1.5668769365077482e-05 0 -2.7664717599333594e-05 2.7816389566597527e-05 0 -3.4884175465907104e-05 2.6057813744890527e-05 0 -1.2973317354593842e-06 -3.4334439503205147e-07 0 -6.941386640500855e-07 -1.9572679314890414e-07 0 -1.1764941135154054e-06 4.8343637555487032e-08 0 -8.526957477046478e-07 1.771383967466499e-07 0 -1.1764941135154054e-06 4.8343637555487032e-08 0 -6.941386640500855e-07 -1.9572679314890414e-07 0 -1.1561784300074547e-06 7.4401137838048283e-07 0 -9.4112366256118193e-07 6.1526856335632511e-07 0 -1.9886771732319945e-06 9.7261581045490792e-07 0 -1.8548700482992415e-06 8.7020296688044417e-07 0 -1.9886771732319945e-06 9.7261581045490792e-07 0 -9.4112366256118182e-07 6.1526856335632511e-07 0 -1.97793186377084e-05 8.5808571082335669e-06 0 -1.5679193233948259e-05 9.9701651401124352e-06 0 -2.2944006134628198e-05 1.5668769365077482e-05 0 -3.3515803811788083e-06 2.3541828291666492e-06 0 -4.0678114816042249e-06 3.3678292061582597e-06 0 -2.5740489406459108e-06 3.5730203673591579e-06 0 -2.9888039367143079e-06 1.712773356696946e-06 0 -3.8795446464226993e-06 6.1655444912129892e-07 0 -2.3846548911550491e-06 3.3041779900906725e-07 0 -1.2404027985267573e-05 3.1207127137721826e-06 0 -8.1655034569410187e-06 1.3688950078866719e-06 0 -9.4983838013175802e-06 3.7791682591058189e-06 0 -6.074563019552944e-06 3.04697958308507e-06 0 -4.3035585572813717e-06 5.1863381807007519e-06 0 -4.0678114816042249e-06 3.3678292061582592e-06 0 -8.2179391054892814e-06 -1.203418830881221e-06 0 -9.0137346988170802e-06 -2.158801810845925e-06 0 -6.6871126757778382e-06 -5.0876180206662955e-07 0 -7.7527714155741866e-06 -1.618466395381524e-06 0 -6.6871126757778382e-06 -5.0876180206662955e-07 0 -9.0137346988170802e-06 -2.158801810845925e-06 0 -3.6955704173529407e-09 1.9324731657615682e-10 0 -2.5588332137879843e-09 -7.5359578037676524e-10 0 -3.082590465604646e-06 -2.1802210162291051e-07 0 -2.012549590348062e-09 3.5359219843159772e-10 0 -2.7271962796348347e-09 -2.4252177019059382e-10 0 -2.2735764718213878e-06 -1.7016986239324439e-07 0 1.5586124233851911e-05 7.8831328348178878e-05 0 -9.0636090717560374e-06 7.7274851932252506e-05 0 -5.2709606687242962e-06 5.6512826974494313e-05 0 -3.0096008543048737e-06 1.0076216728886093e-06 0 -4.4765917221606456e-06 5.653440271715471e-07 0 -2.966283905252887e-06 1.1294174445337259e-06 0 -1.6203730391605409e-05 -7.5415527800034891e-06 0 -1.2985015566733449e-05 -5.5550214458567128e-06 0 -1.4814711737516926e-05 -8.9931223606536461e-06 0 -2.1360534398366991e-05 -3.2643427086890002e-05 0 -2.323713593357774e-05 -3.0100512989436557e-05 0 -2.4179742560048176e-05 -3.2218331992973425e-05 0 -1.9150521349097107e-05 -6.1044588689228594e-06 0 -1.849552104882285e-05 -5.363197904226371e-06 0 -1.5506272442593161e-05 -4.1787953689063581e-06 0 -2.902530322531633e-05 7.9527329335071678e-06 0 -2.3103320952450783e-05 4.9819338220526217e-06 0 -2.8304541261815518e-05 7.349429670906004e-06 0 -2.0108486971358865e-05 -2.3940099016035095e-05 0 -1.7752188005290984e-05 -2.3702795351921724e-05 0 -1.9777436354040429e-05 -2.0998984740520031e-05 0 -1.849552104882285e-05 -5.363197904226371e-06 0 -1.546947802080744e-05 -4.0517107979190432e-06 0 -1.4826951532286263e-05 -3.6231783085475737e-06 0 -1.9909910054099924e-05 4.8445080796426737e-06 0 -1.7547347216371547e-05 5.3532631207467206e-06 0 -2.573019731154475e-05 7.870580716602622e-06 0 -1.9548730579915554e-05 -6.1920353959682086e-06 0 -1.546947802080744e-05 -4.0517107979190432e-06 0 -1.849552104882285e-05 -5.363197904226371e-06 0 -6.3564785082089923e-06 -4.1285352574435988e-08 0 -7.7516443436308914e-06 -5.6825284397647235e-07 0 -8.4813887359193993e-06 -9.6083234294609407e-07 0 -5.7817013423596181e-06 1.3244298915732166e-07 0 -8.1655034569410187e-06 1.3688950078866719e-06 0 -8.8634673541647927e-06 1.5661812954318799e-07 0 -2.7233701016603688e-05 1.2404206952083431e-05 0 -1.97793186377084e-05 8.5808571082335669e-06 0 -2.2944006134628198e-05 1.5668769365077482e-05 0 -2.4491613212439641e-05 -2.3544585284747825e-05 0 -2.1569012092836464e-05 -2.0660695869952039e-05 0 -2.3270785559476971e-05 -2.0385900731609906e-05 0 -1.5048889996202003e-05 0.00017708523446836034 0 -1.0418074600108618e-05 0.00020255384338003243 0 -2.9211525334109461e-05 0.00019982178912244118 0 -4.8964522626018648e-05 -8.3036027836256394e-05 0 -5.2566979095703714e-05 -9.4820714375922231e-05 0 -4.3946079321283539e-05 -9.3052507094223982e-05 0 -1.2973317354593842e-06 -3.4334439503205147e-07 0 -8.7734504233500118e-07 -4.713713321487919e-07 0 -6.941386640500855e-07 -1.9572679314890414e-07 0 -1.8548700482992415e-06 8.7020296688044417e-07 0 -9.4112366256118182e-07 6.1526856335632511e-07 0 -1.0840576838609999e-06 5.8699851323632003e-07 0 -1.6550274362027168e-09 -4.9444500424585195e-10 0 -1.3652203230921097e-06 -7.6163238648527004e-07 0 -1.6500705505053807e-06 -8.0426218991404959e-07 0 -1.55771576852132e-09 3.0009611036067351e-10 0 -1.5275892050218415e-06 4.6012417791673765e-07 0 -1.4313850734982632e-06 5.9570973694529494e-07 0 -1.6203730391605409e-05 -7.5415527800034891e-06 0 -1.8840799580608242e-05 -1.0342150657034135e-05 0 -1.8023479799180526e-05 -9.3264599795085554e-06 0 -2.0022998720081468e-05 -1.2073290079374452e-05 0 -1.8023479799180526e-05 -9.3264599795085554e-06 0 -1.8840799580608242e-05 -1.0342150657034135e-05 0 -4.1341232802006516e-05 8.6737680921654029e-05 0 -3.6752961372562162e-05 6.2401254961186266e-05 0 -2.5562309577852513e-05 8.0930554335940228e-05 0 -2.0157536050030204e-05 5.5310994655654943e-05 0 -2.5562309577852516e-05 8.0930554335940228e-05 0 -3.6752961372562162e-05 6.2401254961186266e-05 0 -5.5029567320630038e-06 1.3006655384805751e-05 0 -3.0490066880433834e-06 8.8794235203618023e-06 0 -1.2753238143343132e-06 1.4456024539817412e-05 0 -1.6203730391605409e-05 -7.5415527800034891e-06 0 -1.3413652378275912e-05 -4.017045228998435e-06 0 -1.2985015566733449e-05 -5.5550214458567128e-06 0 -1.547706607614303e-06 6.7575970635088446e-07 0 -1.1409764412914263e-06 4.6724359221710492e-07 0 -1.3975857802246658e-06 9.0813653641230368e-07 0 -2.1060943961556143e-05 -1.7233955372443296e-05 0 -2.1569012092836464e-05 -2.0660695869952039e-05 0 -1.9106333904226706e-05 -1.7401546183224609e-05 0 -5.95258536501573e-05 0.00014050479325816422 0 -6.8439543160939226e-05 0.00012386578458284335 0 -5.1711975001424622e-05 0.00011080981905929415 0 -2.7699698746630218e-05 -2.7368123951499648e-05 0 -2.7222663845418948e-05 -2.4976672442279064e-05 0 -2.9083743875873188e-05 -2.7884365347599595e-05 0 -1.8421883745906711e-05 -2.7972597351833284e-05 0 -2.0058975135691199e-05 -2.6576171559683351e-05 0 -2.0212391021440703e-05 -3.035017130072967e-05 0 -5.0051410230049975e-06 3.7664463991074429e-07 0 -3.2542885693750254e-06 8.9651980892386601e-07 0 -4.9017562212276339e-06 4.3780398361140375e-07 0 -4.0262632947784254e-05 4.2670335618570509e-05 0 -2.7664717599333598e-05 2.7816389566597527e-05 0 -2.720671682975429e-05 4.0907282088116802e-05 0 -7.4170191027638504e-06 -2.8276801080729786e-06 0 -1.1063560981856277e-05 -3.6315888287611584e-06 0 -6.7335362090652515e-06 -1.8459644413856072e-06 0 -1.6039084583385059e-05 4.1114206560450737e-06 0 -1.0494518246538753e-05 3.1684417161148807e-06 0 -9.5401124668543653e-06 1.6909102862830422e-06 0 -1.3999938298901679e-05 -1.5434501926939388e-05 0 -1.1892019096623285e-05 -1.1272175246800722e-05 0 -1.4956800356596592e-05 -1.055831273543628e-05 0 -3.2752914711220582e-06 4.2431212261929007e-07 0 -5.4342374372171349e-06 1.6337558724348166e-07 0 -3.1361258767511532e-06 6.6131010672668073e-07 0 -3.7349575524629412e-06 -9.8241584026543893e-07 0 -2.9783690285841334e-06 -9.9532663426983915e-07 0 -5.9754274320249654e-06 -6.6292001645322839e-07 0 -7.412666255372502e-05 4.8928965840122259e-05 0 -5.6623231608015342e-05 3.7906705151119285e-05 0 -5.9435493603721437e-05 5.2381455592699789e-05 0 -4.3623187940470741e-05 -2.5163157225751379e-05 0 -3.7708852871254969e-05 -2.668852324941185e-05 0 -3.5368492999569856e-05 -1.9956610629019496e-05 0 -1.4970072333726617e-05 2.5957775809430138e-05 0 -4.9242452696281918e-06 1.9470856518745338e-05 0 -9.428252390527684e-06 3.4986735714759182e-05 0 3.3371360107203022e-06 2.189469489402398e-05 0 -9.428252390527684e-06 3.4986735714759182e-05 0 -4.9242452696281918e-06 1.9470856518745338e-05 0 -2.1954087907049536e-05 -2.7614849331184786e-05 0 -2.8439655904639318e-05 -3.0587265291846234e-05 0 -2.5275689736518864e-05 -3.6082926482604873e-05 0 -3.1081818598778189e-05 -4.2577003825319621e-05 0 -2.5275689736518864e-05 -3.6082926482604873e-05 0 -2.8439655904639318e-05 -3.0587265291846234e-05 0 -1.1996311478897355e-05 -4.7745011939101515e-06 0 -8.687577064599969e-06 3.2573284378874197e-07 0 -9.3255819974715254e-06 3.1338711027090083e-06 0 -2.1360534398366991e-05 -3.2643427086890002e-05 0 -2.4179742560048179e-05 -3.2218331992973425e-05 0 -2.1889428015473226e-05 -3.4577300144930947e-05 0 -1.547706607614303e-06 6.7575970635088446e-07 0 -2.3846548911550491e-06 3.3041779900906725e-07 0 -1.6816361646489372e-06 -1.048833769828109e-08 0 -2.3411114122754117e-05 -1.4185611861697016e-05 0 -3.0434419795287979e-05 -1.9581104761877492e-05 0 -2.5622157800066277e-05 -1.8975979340722996e-05 0 -1.8463201847533197e-05 -3.8193624790984091e-05 0 -1.8695661808979001e-05 -3.549146830066996e-05 0 -2.0161005815548241e-05 -3.5338793601899351e-05 0 -5.9824193408993318e-05 7.2793743107477888e-05 0 -7.3423013121564333e-05 7.3203669340489552e-05 0 -5.9435493603721437e-05 5.2381455592699789e-05 0 -8.0757452592179893e-05 0.00020216437224772465 0 -6.0198552996956422e-05 0.00018283829218196211 0 -5.9873026601150903e-05 0.00020417734605956034 0 -2.3037345843595969e-05 -9.3256836738507301e-05 0 -3.0031662585563287e-05 -8.4823783110608367e-05 0 -3.137292340033853e-05 -9.4791687377404312e-05 0 -5.6493514560694124e-06 -5.4953696607137536e-10 0 -5.0153696455002689e-06 7.9105528282543258e-07 0 -4.1597598165194975e-06 8.5374255665802218e-07 0 -2.0022998720081468e-05 -1.2073290079374452e-05 0 -1.8840799580608242e-05 -1.0342150657034135e-05 0 -2.1684277938591007e-05 -1.3813974855960399e-05 0 -1.8792000187656109e-06 1.5900811975642911e-06 0 -2.2856891601172417e-06 2.4478401345852055e-06 0 -1.8705125377002521e-06 2.1017630775858594e-06 0 -2.1285944043778803e-06 3.1589537122439192e-06 0 -1.8705125377002521e-06 2.1017630775858594e-06 0 -2.2856891601172417e-06 2.4478401345852055e-06 0 -1.2404027985267573e-05 3.1207127137721826e-06 0 -1.7547347216371547e-05 5.3532631207467206e-06 0 -1.5366541896883596e-05 2.7541430846050441e-06 0 -3.1081818598778189e-05 -4.2577003825319621e-05 0 -3.7227220882571769e-05 -4.9322944013848056e-05 0 -3.3722836370825278e-05 -5.5561670341142945e-05 0 -1.7149874383935961e-05 2.6255545058014214e-06 0 -1.3344974539490006e-05 1.2976970188468636e-06 0 -2.0599373120101324e-05 4.050657289244488e-06 0 -2.1901941557672523e-05 0.00013963125258616252 0 -4.130782583998156e-05 0.00016175837454754266 0 -4.4489559539213093e-05 0.00014195971288875534 0 -2.1901941557672523e-05 0.00013963125258616252 0 -4.4489559539213093e-05 0.00014195971288875534 0 -3.9746699852036405e-05 0.00012136073011582472 0 -5.95258536501573e-05 0.00014050479325816422 0 -3.9746699852036405e-05 0.00012136073011582472 0 -4.4489559539213093e-05 0.00014195971288875534 0 -4.1715551878960286e-05 -6.5372892771771519e-05 0 -3.6451595303456914e-05 -7.5576371835106633e-05 0 -3.2322573805130228e-05 -6.4967921226906163e-05 0 -4.1715551878960286e-05 -6.5372892771771519e-05 0 -3.2322573805130228e-05 -6.4967921226906163e-05 0 -3.3722836370825278e-05 -5.5561670341142945e-05 0 -3.0490066880433834e-06 8.8794235203618023e-06 0 -2.1014833848623117e-06 1.0442814930887175e-05 0 -1.2753238143343132e-06 1.4456024539817412e-05 0 -9.5622420281837095e-10 -2.5496054140910367e-10 0 -6.7459037079598043e-10 2.774737574734972e-11 0 -6.941386640500855e-07 -1.9572679314890414e-07 0 -8.6642330217323509e-10 2.2354702275465744e-10 0 -1.0898683187198423e-09 3.007581431027586e-10 0 -9.4112366256118182e-07 6.1526856335632511e-07 0 -4.4765917221606456e-06 5.653440271715471e-07 0 -4.1597598165194975e-06 8.5374255665802207e-07 0 -2.966283905252887e-06 1.1294174445337259e-06 0 -1.291103345448197e-05 -1.3557415409135842e-05 0 -1.3192871606317335e-05 -1.1368739044595856e-05 0 -1.5718743194490379e-05 -1.6449709431799701e-05 0 -1.3344974539490006e-05 1.2976970188468636e-06 0 -1.5366541896883592e-05 2.7541430846050441e-06 0 -2.0599373120101324e-05 4.050657289244488e-06 0 -6.8264036495929662e-10 1.6860610366985112e-10 0 -8.2035411354215773e-07 5.1636506430480814e-07 0 -5.2862009897370986e-07 1.947413614957368e-07 0 -1.6039084583385059e-05 4.1114206560450737e-06 0 -1.3250647335119053e-05 1.8933852756967168e-06 0 -1.8478306788569905e-05 3.6596428468450995e-06 0 -1.1063560981856277e-05 -3.6315888287611584e-06 0 -1.2651859011725394e-05 -3.3523905810118571e-06 0 -9.3380788968978322e-06 -2.126985600956595e-06 0 -3.8717688899185116e-05 -3.4973001915764814e-05 0 -3.7708852871254969e-05 -2.668852324941185e-05 0 -4.4674712812117098e-05 -3.5549960660217521e-05 0 -1.4634081245297482e-06 8.9634518286241104e-07 0 -1.1561784300074547e-06 7.4401137838048283e-07 0 -2.0886615668658389e-06 1.0624607858071849e-06 0 -2.4491613212439641e-05 -2.3544585284747825e-05 0 -2.7222663845418948e-05 -2.4976672442279064e-05 0 -2.5742513739745218e-05 -2.5900941412882714e-05 0 -6.074563019552944e-06 3.04697958308507e-06 0 -4.0678114816042249e-06 3.3678292061582592e-06 0 -5.6681035952021398e-06 1.8986574165760002e-06 0 -1.3101551064727137e-05 0.00010185366016854542 0 -3.2311821444523143e-05 0.00010342601479247505 0 -2.5562309577852513e-05 8.0930554335940228e-05 0 -1.547706607614303e-06 6.7575970635088446e-07 0 -1.1764941135154054e-06 4.8343637555487032e-08 0 -1.1409764412914263e-06 4.6724359221710492e-07 0 -6.8297313720733745e-05 0.0002264122489798947 0 -5.9873026601150903e-05 0.00020417734605956034 0 -4.4988427786575881e-05 0.00021599011569469728 0 -2.894480439615557e-05 -0.00010559986042199293 0 -3.137292340033853e-05 -9.4791687377404312e-05 0 -3.7822202695756025e-05 -0.0001004562139505428 0 -1.1561784300074547e-06 7.4401137838048283e-07 0 -1.9886771732319945e-06 9.7261581045490792e-07 0 -2.0886615668658389e-06 1.0624607858071849e-06 0 -6.074563019552944e-06 3.04697958308507e-06 0 -7.719325540806714e-06 6.2171933617689548e-07 0 -9.105290496344668e-06 1.1369866114780454e-06 0 -2.533595542608855e-05 0.00022627776734537885 0 -2.898278666985041e-05 0.00024882289669594823 0 -4.6651950345865124e-05 0.00024137527987712126 0 -6.8297313720733745e-05 0.0002264122489798947 0 -4.6651950345865124e-05 0.00024137527987712126 0 -6.5037302625875959e-05 0.0002484121687931259 0 -4.6654181156134443e-05 -0.00010502015208183074 0 -4.5297960945945128e-05 -0.00011511876474179505 0 -3.7632611136164625e-05 -0.00011216531415986985 0 -2.894480439615557e-05 -0.00010559986042199293 0 -3.7632611136164625e-05 -0.00011216531415986985 0 -3.0492524637140489e-05 -0.0001156706854812865 0 -2.2944006134628198e-05 1.5668769365077482e-05 0 -3.4884175465907104e-05 2.6057813744890527e-05 0 -3.391721335295721e-05 1.8749035479902398e-05 0 -2.9425662577612873e-05 -2.3110816822367269e-05 0 -3.7708852871254969e-05 -2.668852324941185e-05 0 -3.3401936556709912e-05 -2.973092838355083e-05 0 -3.8717688899185116e-05 -3.4973001915764814e-05 0 -3.3401936556709912e-05 -2.973092838355083e-05 0 -3.7708852871254969e-05 -2.668852324941185e-05 0 -5.9824193408993318e-05 7.2793743107477888e-05 0 -5.9435493603721437e-05 5.2381455592699789e-05 0 -4.824144015101467e-05 6.0152231254122239e-05 0 -4.0262632947784254e-05 4.2670335618570509e-05 0 -4.824144015101467e-05 6.0152231254122239e-05 0 -5.9435493603721437e-05 5.2381455592699789e-05 0 -1.8548700482992415e-06 8.7020296688044417e-07 0 -2.4101587062917848e-06 8.3838391171950183e-07 0 -3.2542885693750254e-06 8.9651980892386601e-07 0 1.2443687634529555e-05 5.4779963665947033e-05 0 1.5586124233851911e-05 7.8831328348178878e-05 0 -5.2709606687242962e-06 5.6512826974494313e-05 0 -3.7349575524629412e-06 -9.8241584026543893e-07 0 -5.9573843613325251e-06 -7.2754357617027407e-07 0 -3.9363333482659838e-06 -6.8308858151362453e-07 0 -3.2752914711220582e-06 4.2431212261929007e-07 0 -3.0730573892539224e-06 9.1661829747793726e-08 0 -4.8300037902017911e-06 3.5459944387084002e-08 0 -1.6203730391605409e-05 -7.5415527800034891e-06 0 -1.5310493462156469e-05 -5.755917928879969e-06 0 -1.3413652378275912e-05 -4.017045228998435e-06 0 -5.4342374372171349e-06 1.6337558724348166e-07 0 -4.8805471583200009e-06 3.9653499400503596e-07 0 -3.1361258767511532e-06 6.6131010672668073e-07 0 -5.9754274320249654e-06 -6.6292001645322839e-07 0 -2.9783690285841339e-06 -9.9532663426983915e-07 0 -4.5922872318469237e-06 -4.8150101809162054e-07 0 -1.9909910054099924e-05 4.8445080796426737e-06 0 -2.573019731154475e-05 7.870580716602622e-06 0 -2.0599373120101324e-05 4.050657289244488e-06 0 -2.8304541261815518e-05 7.349429670906004e-06 0 -2.0599373120101324e-05 4.050657289244488e-06 0 -2.573019731154475e-05 7.870580716602622e-06 0 -2.533595542608855e-05 0.00022627776734537885 0 -2.9211525334109461e-05 0.00019982178912244118 0 -1.0418074600108618e-05 0.00020255384338003243 0 -4.6654181156134443e-05 -0.00010502015208183074 0 -4.3946079321283539e-05 -9.3052507094223982e-05 0 -5.2566979095703714e-05 -9.4820714375922231e-05 0 -1.8463201847533197e-05 -3.8193624790984091e-05 0 -1.7319026029187813e-05 -3.8727897993396132e-05 0 -1.738366578357896e-05 -3.7471345502296011e-05 0 -2.6658182999840275e-05 -3.4600415437671427e-05 0 -2.3290374626013004e-05 -3.5646862039298604e-05 0 -2.6914076727425185e-05 -3.2142282209462421e-05 0 -1.0287298942222154e-05 -2.3718609723574699e-06 0 -8.2179391054892814e-06 -1.203418830881221e-06 0 -8.4813887359193993e-06 -9.6083234294609407e-07 0 -3.0625639175889041e-05 -3.0488949985590054e-05 0 -2.9612893469327143e-05 -2.9482698120490565e-05 0 -2.9083743875873188e-05 -2.7884365347599595e-05 0 -1.0388895803147329e-05 -2.4659216357483421e-05 0 -1.1858926680229024e-05 -2.548808318043272e-05 0 -1.4124294101097136e-05 -3.050218373614567e-05 0 -1.7961499722083808e-05 -3.1177109846536858e-05 0 -1.6210906179263245e-05 -3.1335535240868056e-05 0 -1.6074215734014595e-05 -2.7256633343134192e-05 0 -2.8935462144642491e-05 -1.5275100238711098e-05 0 -3.0434419795287979e-05 -1.9581104761877492e-05 0 -2.3411114122754117e-05 -1.4185611861697016e-05 0 -2.3290374626013004e-05 -3.5646862039298604e-05 0 -2.1889428015473226e-05 -3.4577300144930947e-05 0 -2.4179742560048176e-05 -3.2218331992973425e-05 0 -3.3748149322454794e-05 1.3729424130259141e-05 0 -2.573019731154475e-05 7.870580716602622e-06 0 -2.7233701016603688e-05 1.2404206952083431e-05 0 -5.0153696455002689e-06 7.9105528282543258e-07 0 -3.7165922920632532e-06 1.4575317821898585e-06 0 -4.1597598165194975e-06 8.5374255665802218e-07 0 -2.9425662577612873e-05 -2.3110816822367269e-05 0 -2.8439655904639318e-05 -3.0587265291846234e-05 0 -2.4416718668078239e-05 -2.2662964533820792e-05 0 -2.1954087907049536e-05 -2.7614849331184786e-05 0 -2.4416718668078239e-05 -2.2662964533820792e-05 0 -2.8439655904639318e-05 -3.0587265291846234e-05 0 -1.1241189436670423e-05 -2.3978424452580548e-06 0 -1.0287298942222154e-05 -2.3718609723574699e-06 0 -8.4813887359193993e-06 -9.6083234294609407e-07 0 -2.9425662577612873e-05 -2.3110816822367269e-05 0 -2.5622157800066277e-05 -1.8975979340722996e-05 0 -3.0434419795287979e-05 -1.9581104761877492e-05 0 -9.721810759292763e-06 -1.3899410913018496e-06 0 -1.1241189436670423e-05 -2.3978424452580548e-06 0 -8.4813887359193993e-06 -9.6083234294609407e-07 0 -5.7817013423596181e-06 1.3244298915732166e-07 0 -4.9551141213669534e-06 1.4552825674620936e-06 0 -8.1655034569410187e-06 1.3688950078866719e-06 0 -2.9425662577612873e-05 -2.3110816822367269e-05 0 -3.0434419795287979e-05 -1.9581104761877492e-05 0 -3.7708852871254969e-05 -2.668852324941185e-05 0 -4.0262632947784254e-05 4.2670335618570509e-05 0 -5.9435493603721437e-05 5.2381455592699789e-05 0 -4.6687184348185394e-05 3.6641843037059382e-05 0 -2.5588332137879843e-09 -7.5359578037676524e-10 0 -1.8561346568466347e-06 -6.6305384517594433e-07 0 -3.9363333482659838e-06 -6.8308858151362453e-07 0 -2.012549590348062e-09 3.5359219843159772e-10 0 -3.0730573892539224e-06 9.1661829747793726e-08 0 -1.5508970458879747e-06 2.7645279300996962e-07 0 -9.721810759292763e-06 -1.3899410913018496e-06 0 -8.4813887359193993e-06 -9.6083234294609407e-07 0 -7.7516443436308914e-06 -5.6825284397647235e-07 0 -1.0968512415010119e-05 1.4515314175614072e-06 0 -8.8634673541647927e-06 1.5661812954318799e-07 0 -8.1655034569410187e-06 1.3688950078866719e-06 0 -3.2043490213402411e-06 -6.814638118107347e-07 0 -2.0851811232927479e-06 -6.5458996677084484e-07 0 -3.3372927444812639e-06 -1.6246674072219925e-07 0 -1.5718743194490379e-05 -1.6449709431799701e-05 0 -2.0071805266068424e-05 -1.9869568705307878e-05 0 -1.6273400958104258e-05 -2.4252994291108588e-05 0 -1.547706607614303e-06 6.7575970635088446e-07 0 -1.3975857802246658e-06 9.0813653641230378e-07 0 -1.6161353060872965e-06 1.2706823965095211e-06 0 -6.8297313720733745e-05 0.0002264122489798947 0 -8.0757452592179893e-05 0.00020216437224772465 0 -5.9873026601150903e-05 0.00020417734605956034 0 -2.894480439615557e-05 -0.00010559986042199293 0 -2.3037345843595969e-05 -9.3256836738507301e-05 0 -3.137292340033853e-05 -9.4791687377404312e-05 0 -6.3564785082089923e-06 -4.1285352574435988e-08 0 -5.4342374372171349e-06 1.6337558724348166e-07 0 -7.7516443436308914e-06 -5.6825284397647235e-07 0 -5.7817013423596181e-06 1.3244298915732166e-07 0 -8.8634673541647927e-06 1.5661812954318799e-07 0 -5.9754274320249654e-06 -6.6292001645322839e-07 0 -1.2847229565860691e-06 8.3650195576464338e-07 0 -2.0234743395164804e-06 1.1582414484266431e-06 0 -1.7302621319873037e-06 1.1996856193100659e-06 0 -2.0071805266068424e-05 -1.9869568705307878e-05 0 -2.1954087907049536e-05 -2.7614849331184786e-05 0 -1.6273400958104258e-05 -2.4252994291108588e-05 0 -0.00010593332755342281 0.00015430074492405225 0 -0.00010251385196080423 0.00013058502034804645 0 -8.2066188404654125e-05 0.00014134838541081442 0 -8.0293080904949517e-06 -5.6140242232613892e-05 0 -1.7725291792142508e-05 -6.323726684312662e-05 0 -8.6909299730771277e-06 -6.7168010299545021e-05 0 -4.1715551878960286e-05 -6.5372892771771519e-05 0 -3.3722836370825271e-05 -5.5561670341142945e-05 0 -4.0646743759339771e-05 -5.6083938740611366e-05 0 -1.044606593309847e-05 -2.0082137116801933e-06 0 -1.2985015566733449e-05 -5.5550214458567119e-06 0 -1.3413652378275912e-05 -4.017045228998435e-06 0 -1.7149874383935961e-05 2.6255545058014214e-06 0 -1.3250647335119053e-05 1.8933852756967166e-06 0 -1.2515335132861694e-05 1.0849103425120429e-06 0 -1.2137189517602931e-05 -2.5914840600892932e-06 0 -9.1918268689529369e-06 -1.5376262600970061e-06 0 -9.3380788968978322e-06 -2.126985600956595e-06 0 -4.1150414155633391e-06 5.5866399312606237e-06 0 -4.2872249415360752e-06 3.094758091395346e-06 0 -2.6093246254138595e-06 3.8013617514740953e-06 0 -1.2847229565860691e-06 8.3650195576464338e-07 0 -1.4634081245297482e-06 8.9634518286241104e-07 0 -2.0234743395164804e-06 1.1582414484266431e-06 0 -2.0022998720081468e-05 -1.2073290079374452e-05 0 -2.2564901797677585e-05 -1.5928038898064065e-05 0 -2.0233303625065246e-05 -1.3717829205049499e-05 0 -1.7149874383935961e-05 2.6255545058014214e-06 0 -1.8478306788569905e-05 3.6596428468450995e-06 0 -1.3250647335119053e-05 1.8933852756967168e-06 0 -1.2137189517602931e-05 -2.5914840600892932e-06 0 -9.3380788968978322e-06 -2.126985600956595e-06 0 -1.2651859011725395e-05 -3.3523905810118575e-06 0 -6.074563019552944e-06 3.04697958308507e-06 0 -5.6681035952021398e-06 1.8986574165760002e-06 0 -7.719325540806714e-06 6.2171933617689548e-07 0 -3.6610833403983246e-05 -8.8390674891620846e-05 0 -3.6451595303456907e-05 -7.5576371835106619e-05 0 -4.1762373445750842e-05 -8.2545423847669273e-05 0 -4.5185691552556704e-05 0.00019027005456634773 0 -4.130782583998156e-05 0.00016175837454754266 0 -3.1279554742382893e-05 0.00017697298844476057 0 -2.8935462144642491e-05 -1.5275100238711098e-05 0 -2.3411114122754117e-05 -1.4185611861697016e-05 0 -2.3464197436677499e-05 -1.0975685737288078e-05 0 -1.8896747218034341e-05 -9.5983766791074513e-06 0 -2.3464197436677499e-05 -1.0975685737288078e-05 0 -2.3411114122754117e-05 -1.4185611861697016e-05 0 -9.7622549806194897e-06 -4.3784387324460126e-06 0 -1.1673787668097492e-05 -6.064792115489404e-06 0 -1.1410127767348096e-05 -7.5098483381943385e-06 0 -1.3822062607360449e-05 -9.3760111737959241e-06 0 -1.1410127767348096e-05 -7.5098483381943385e-06 0 -1.1673787668097492e-05 -6.064792115489404e-06 0 -1.3652203230921097e-06 -7.6163238648527004e-07 0 -2.0851811232927479e-06 -6.5458996677084484e-07 0 -2.9783690285841339e-06 -9.9532663426983915e-07 0 -3.2043490213402411e-06 -6.814638118107347e-07 0 -2.9783690285841339e-06 -9.9532663426983915e-07 0 -2.0851811232927479e-06 -6.5458996677084484e-07 0 -3.7381117541043349e-06 6.844445607900013e-07 0 -2.4101587062917848e-06 8.3838391171950183e-07 0 -3.1361258767511532e-06 6.6131010672668073e-07 0 -1.4313850734982632e-06 5.9570973694529494e-07 0 -3.1361258767511532e-06 6.6131010672668073e-07 0 -2.4101587062917848e-06 8.3838391171950183e-07 0 -2.4491613212439641e-05 -2.3544585284747825e-05 0 -2.394031543821551e-05 -2.6243173204263827e-05 0 -2.2221758921530809e-05 -2.3834676951322244e-05 0 -1.044606593309847e-05 -2.0082137116801933e-06 0 -9.105290496344668e-06 1.1369866114780454e-06 0 -7.719325540806714e-06 6.2171933617689548e-07 0 -2.1285944043778803e-06 3.1589537122439192e-06 0 -2.248170380066e-06 2.6558698430940933e-06 0 -1.8705125377002521e-06 2.1017630775858594e-06 0 -2.1901941557672523e-05 0.00013963125258616252 0 -2.322749761577616e-05 0.00016227849536041316 0 -4.130782583998156e-05 0.00016175837454754266 0 -4.1715551878960286e-05 -6.5372892771771519e-05 0 -4.4087893431438484e-05 -7.5400321337452337e-05 0 -3.6451595303456914e-05 -7.5576371835106633e-05 0 -2.1901941557672523e-05 0.00013963125258616252 0 -3.9746699852036405e-05 0.00012136073011582472 0 -2.2617248767691858e-05 0.00011775891189498919 0 -4.1150414155633391e-06 5.5866399312606237e-06 0 -6.7180981629432085e-06 4.7850994504741051e-06 0 -4.2872249415360752e-06 3.094758091395346e-06 0 -4.1150414155633391e-06 5.5866399312606237e-06 0 -6.3885571867440511e-06 8.5362822292197048e-06 0 -6.7180981629432085e-06 4.7850994504741051e-06 0 -4.1341232802006516e-05 8.6737680921654029e-05 0 -3.2311821444523143e-05 0.00010342601479247505 0 -5.1711975001424622e-05 0.00011080981905929415 0 -3.9746699852036405e-05 0.00012136073011582472 0 -5.1711975001424622e-05 0.00011080981905929415 0 -3.2311821444523143e-05 0.00010342601479247505 0 -6.3991419238472472e-06 1.9426201998105986e-07 0 -3.9363333482659838e-06 -6.8308858151362453e-07 0 -7.045198018997489e-06 -3.0991715525268535e-07 0 -4.67132669594817e-06 -6.9060612248071457e-07 0 -5.3741833365263969e-06 -3.680162878059102e-07 0 -3.0730573892539224e-06 9.1661829747793726e-08 0 -2.1954087907049536e-05 -2.7614849331184786e-05 0 -2.5275689736518864e-05 -3.6082926482604873e-05 0 -1.8686784565447708e-05 -3.5881824110615583e-05 0 -3.0625639175889041e-05 -3.0488949985590054e-05 0 -3.131448404629614e-05 -3.2418358181355812e-05 0 -2.9612893469327143e-05 -2.9482698120490565e-05 0 -1.0388895803147329e-05 -2.4659216357483421e-05 0 -1.4124294101097136e-05 -3.050218373614567e-05 0 -1.1868744123580712e-05 -2.8275024153300602e-05 0 -6.3637196431801884e-06 4.2497070058838765e-07 0 -7.719325540806714e-06 6.2171933617689548e-07 0 -5.6681035952021398e-06 1.8986574165760002e-06 0 -2.1285944043778803e-06 3.1589537122439192e-06 0 -2.3497448389160707e-06 5.0594755375392873e-06 0 -2.6093246254138595e-06 3.8013617514740953e-06 0 -2.1360534398366991e-05 -3.2643427086890002e-05 0 -2.0212391021440703e-05 -3.035017130072967e-05 0 -2.323713593357774e-05 -3.0100512989436557e-05 0 -2.1727925508193325e-05 -2.8387382113951525e-05 0 -2.323713593357774e-05 -3.0100512989436557e-05 0 -2.0212391021440703e-05 -3.035017130072967e-05 0 -1.76996236114067e-05 -1.912296281076388e-05 0 -1.7752188005290984e-05 -2.3702795351921724e-05 0 -1.4550774560493448e-05 -1.9337451089336241e-05 0 -6.8297313720733745e-05 0.0002264122489798947 0 -8.9274825065016781e-05 0.00022399957751086669 0 -8.0757452592179893e-05 0.00020216437224772465 0 -2.894480439615557e-05 -0.00010559986042199293 0 -2.0941197984939802e-05 -0.00010364331511365579 0 -2.3037345843595969e-05 -9.3256836738507301e-05 0 -2.8714839543535392e-05 -3.0339616939749994e-05 0 -3.0556385830890143e-05 -3.2005414127814312e-05 0 -2.6914076727425185e-05 -3.2142282209462421e-05 0 -1.6208939243775266e-05 -3.4657993647907929e-05 0 -1.738366578357896e-05 -3.7471345502296011e-05 0 -1.5876940764442857e-05 -3.6471472316761782e-05 0 -2.533595542608855e-05 0.00022627776734537885 0 -4.4988427786575881e-05 0.00021599011569469728 0 -2.9211525334109461e-05 0.00019982178912244118 0 -4.6654181156134443e-05 -0.00010502015208183074 0 -3.7822202695756025e-05 -0.0001004562139505428 0 -4.3946079321283539e-05 -9.3052507094223982e-05 0 -1.2847229565860691e-06 8.3650195576464338e-07 0 -1.7302621319873037e-06 1.1996856193100659e-06 0 -1.3975857802246658e-06 9.0813653641230368e-07 0 -1.8792000187656109e-06 1.5900811975642911e-06 0 -1.3975857802246658e-06 9.0813653641230368e-07 0 -1.7302621319873037e-06 1.1996856193100659e-06 0 -1.5048889996202003e-05 0.00017708523446836034 0 -2.9211525334109461e-05 0.00019982178912244118 0 -3.1279554742382893e-05 0.00017697298844476057 0 -4.8964522626018648e-05 -8.3036027836256394e-05 0 -4.3946079321283539e-05 -9.3052507094223982e-05 0 -4.1762373445750842e-05 -8.2545423847669273e-05 0 -3.7349575524629412e-06 -9.8241584026543893e-07 0 -3.9363333482659846e-06 -6.8308858151362442e-07 0 -1.8561346568466347e-06 -6.6305384517594433e-07 0 -3.2752914711220582e-06 4.2431212261929007e-07 0 -1.5508970458879747e-06 2.7645279300996962e-07 0 -3.0730573892539224e-06 9.1661829747793726e-08 0 -2.0157536050030204e-05 5.5310994655654943e-05 0 -9.0636090717560374e-06 7.7274851932252506e-05 0 -2.5562309577852513e-05 8.0930554335940228e-05 0 -6.3991419238472472e-06 1.9426201998105986e-07 0 -3.082590465604646e-06 -2.1802210162291051e-07 0 -3.9363333482659838e-06 -6.8308858151362453e-07 0 -4.67132669594817e-06 -6.9060612248071457e-07 0 -3.0730573892539224e-06 9.1661829747793726e-08 0 -2.2735764718213878e-06 -1.7016986239324439e-07 0 -0.00010910780126282901 0.00020162126177896482 0 -9.1918341963865261e-05 0.0001848314486757149 0 -8.0757452592179893e-05 0.00020216437224772465 0 -1.1189451298728781e-05 -9.023476717174016e-05 0 -1.7198235765953954e-05 -8.3762851841702064e-05 0 -2.3037345843595969e-05 -9.3256836738507301e-05 0 -1.4970072333726617e-05 2.5957775809430138e-05 0 -2.7664717599333598e-05 2.7816389566597527e-05 0 -1.7322526209884539e-05 1.9128126792807197e-05 0 -2.2944006134628198e-05 1.5668769365077482e-05 0 -1.7322526209884539e-05 1.9128126792807201e-05 0 -2.7664717599333598e-05 2.7816389566597527e-05 0 -3.1081818598778189e-05 -4.2577003825319621e-05 0 -2.8439655904639318e-05 -3.0587265291846227e-05 0 -3.3894412659056419e-05 -3.5720385806692647e-05 0 -1.1996311478897355e-05 -4.7745011939101515e-06 0 -1.1892019096623285e-05 -1.1272175246800722e-05 0 -8.9892152339158357e-06 -7.4031440583192711e-06 0 -4.1341232802006516e-05 8.6737680921654029e-05 0 -4.8672049263918632e-05 7.4081318571972009e-05 0 -3.6752961372562162e-05 6.2401254961186266e-05 0 -4.0262632947784254e-05 4.2670335618570509e-05 0 -3.6752961372562162e-05 6.2401254961186266e-05 0 -4.824144015101467e-05 6.0152231254122239e-05 0 -2.9425662577612873e-05 -2.3110816822367269e-05 0 -3.3401936556709912e-05 -2.973092838355083e-05 0 -2.8439655904639318e-05 -3.0587265291846234e-05 0 -2.1954087907049536e-05 -2.7614849331184786e-05 0 -1.8686784565447708e-05 -3.5881824110615583e-05 0 -1.6273400958104258e-05 -2.4252994291108588e-05 0 -2.7699698746630218e-05 -2.7368123951499648e-05 0 -2.9083743875873188e-05 -2.7884365347599595e-05 0 -2.9612893469327143e-05 -2.9482698120490565e-05 0 -1.4525313067185786e-05 -2.8252790512930594e-05 0 -1.4124294101097136e-05 -3.050218373614567e-05 0 -1.1858926680229024e-05 -2.548808318043272e-05 0 -1.2149020879401679e-05 -1.4429030316557823e-06 0 -1.5310493462156469e-05 -5.755917928879969e-06 0 -1.3529887484051545e-05 -3.4105727494605845e-06 0 -1.6203730391605409e-05 -7.5415527800034891e-06 0 -1.8023479799180526e-05 -9.3264599795085554e-06 0 -1.5310493462156469e-05 -5.755917928879969e-06 0 -4.6288307149870423e-06 7.064438403628801e-06 0 -4.3035585572813717e-06 5.1863381807007519e-06 0 -6.9636606661470688e-06 4.3254188034163885e-06 0 -1.5718743194490379e-05 -1.6449709431799701e-05 0 -1.3192871606317335e-05 -1.1368739044595856e-05 0 -1.6532841739163641e-05 -1.3599750943792597e-05 0 -2.533595542608855e-05 0.00022627776734537885 0 -1.0418074600108615e-05 0.00020255384338003243 0 -5.5520096949009976e-06 0.00022333176243241696 0 -4.6654181156134443e-05 -0.00010502015208183074 0 -5.2566979095703714e-05 -9.4820714375922231e-05 0 -5.5825816212015227e-05 -0.00010434948260320528 0 -6.074563019552944e-06 3.04697958308507e-06 0 -6.9636606661470688e-06 4.3254188034163885e-06 0 -4.3035585572813717e-06 5.1863381807007519e-06 0 -1.0983142567670327e-05 -1.8265017540765988e-05 0 -1.4550774560493448e-05 -1.9337451089336241e-05 0 -1.2348580623084064e-05 -2.1323701525187783e-05 0 -2.1727925508193325e-05 -2.8387382113951525e-05 0 -2.0212391021440703e-05 -3.035017130072967e-05 0 -2.0058975135691199e-05 -2.6576171559683351e-05 0 -3.0447477974564655e-06 4.7803964793300909e-06 0 -4.0678114816042249e-06 3.3678292061582592e-06 0 -4.3035585572813717e-06 5.1863381807007519e-06 0 -1.2973317354593842e-06 -3.4334439503205147e-07 0 -1.6816361646489372e-06 -1.0488337698281083e-08 0 -2.0851811232927479e-06 -6.5458996677084484e-07 0 -5.2929802162754333e-05 -4.1248084010755616e-05 0 -5.669648936945309e-05 -5.0882171486809641e-05 0 -4.6106995648203236e-05 -4.375305999106779e-05 0 -5.7817013423596181e-06 1.3244298915732166e-07 0 -4.5922872318469237e-06 -4.8150101809162054e-07 0 -3.3372927444812639e-06 -1.6246674072219925e-07 0 -1.8705125377002521e-06 2.1017630775858594e-06 0 -2.248170380066e-06 2.6558698430940933e-06 0 -1.9447286213517183e-06 1.3759750893776871e-06 0 -6.074563019552944e-06 3.04697958308507e-06 0 -9.105290496344668e-06 1.1369866114780454e-06 0 -6.9636606661470688e-06 4.3254188034163885e-06 0 -9.7513064724980786e-05 0.00010737763571962385 0 -9.1098163651780577e-05 8.5692725388230567e-05 0 -7.4818039624991752e-05 9.2542159758999089e-05 0 -1.1561784300074547e-06 7.4401137838048283e-07 0 -8.2035411354215773e-07 5.1636506430480814e-07 0 -4.6690975760303903e-07 3.3170078795174229e-07 0 -2.9888039367143079e-06 1.712773356696946e-06 0 -2.6093246254138595e-06 3.8013617514740953e-06 0 -4.2872249415360752e-06 3.094758091395346e-06 0 -2.1060943961556143e-05 -1.7233955372443296e-05 0 -2.2481008764218715e-05 -1.7305125381957374e-05 0 -2.3270785559476971e-05 -2.0385900731609906e-05 0 -4.1715551878960286e-05 -6.5372892771771519e-05 0 -4.88230002889731e-05 -6.0608685000759077e-05 0 -5.1502198022222991e-05 -7.2159314014109906e-05 0 -5.7817013423596181e-06 1.3244298915732166e-07 0 -3.3372927444812639e-06 -1.6246674072219925e-07 0 -3.8795446464226993e-06 6.1655444912129881e-07 0 -1.2847229565860691e-06 8.3650195576464338e-07 0 -9.2307278098719948e-07 4.3204301460094306e-07 0 -8.2035411354215773e-07 5.1636506430480814e-07 0 -6.4908684295965743e-06 2.6783690663356947e-06 0 -4.2872249415360752e-06 3.094758091395346e-06 0 -6.7180981629432085e-06 4.7850994504741051e-06 0 -2.2564901797677585e-05 -1.5928038898064065e-05 0 -2.2481008764218715e-05 -1.7305125381957374e-05 0 -2.0233303625065246e-05 -1.3717829205049499e-05 0 -2.7699698746630218e-05 -2.7368123951499648e-05 0 -2.7315156844834841e-05 -2.8599145394397807e-05 0 -2.5742513739745218e-05 -2.5900941412882714e-05 0 -1.9909910054099924e-05 4.8445080796426737e-06 0 -1.5366541896883596e-05 2.7541430846050441e-06 0 -1.7547347216371547e-05 5.3532631207467206e-06 0 1.5319044074342304e-05 0.00019591344173557 0 -1.0418074600108618e-05 0.00020255384338003243 0 7.3695843151928782e-07 0.00018374093028497308 0 -6.4387113388842795e-05 -9.3954151574049822e-05 0 -5.2566979095703714e-05 -9.4820714375922231e-05 0 -5.6673942854934912e-05 -8.6971665591796459e-05 0 -1.6161353060872965e-06 1.2706823965095211e-06 0 -1.9447286213517183e-06 1.3759750893776871e-06 0 -1.547706607614303e-06 6.7575970635088446e-07 0 -1.8705125377002521e-06 2.1017630775858594e-06 0 -1.9447286213517183e-06 1.3759750893776871e-06 0 -1.6161353060872965e-06 1.2706823965095211e-06 0 -7.5608871330803284e-05 0.00017591308702736294 0 -8.0757452592179893e-05 0.00020216437224772468 0 -9.1918341963865275e-05 0.0001848314486757149 0 -2.3291744271955919e-05 -8.0471622102120641e-05 0 -2.3037345843595972e-05 -9.3256836738507315e-05 0 -1.7198235765953954e-05 -8.3762851841702064e-05 0 -1.8792000187656109e-06 1.5900811975642911e-06 0 -2.8003434348281804e-06 1.8076279646448967e-06 0 -2.2856891601172417e-06 2.4478401345852055e-06 0 -3.3515803811788083e-06 2.3541828291666492e-06 0 -2.2856891601172417e-06 2.4478401345852055e-06 0 -2.8003434348281804e-06 1.8076279646448967e-06 0 -1.8792000187656109e-06 1.5900811975642911e-06 0 -1.6161353060872965e-06 1.2706823965095211e-06 0 -1.3975857802246658e-06 9.0813653641230368e-07 0 -1.2137189517602931e-05 -2.5914840600892932e-06 0 -1.2315587409093467e-05 -2.4694685003608465e-06 0 -9.4635561037066008e-06 -1.3245968378675687e-06 0 -1.1926053484817379e-05 -4.5202151572411869e-06 0 -1.4714637454951983e-05 -7.7138142989438723e-06 0 -1.1673787668097492e-05 -6.064792115489404e-06 0 -1.3822062607360449e-05 -9.3760111737959241e-06 0 -1.1673787668097492e-05 -6.064792115489404e-06 0 -1.4714637454951983e-05 -7.7138142989438723e-06 0 -1.2137189517602931e-05 -2.5914840600892932e-06 0 -9.4635561037066008e-06 -1.3245968378675687e-06 0 -9.1918268689529369e-06 -1.5376262600970061e-06 0 -2.0157536050030204e-05 5.5310994655654943e-05 0 -5.2709606687242962e-06 5.6512826974494313e-05 0 -9.0636090717560374e-06 7.7274851932252506e-05 0 -4.5185691552556704e-05 0.00019027005456634773 0 -4.4988427786575881e-05 0.00021599011569469731 0 -5.9873026601150903e-05 0.00020417734605956034 0 -3.6610833403983246e-05 -8.8390674891620846e-05 0 -3.7822202695756025e-05 -0.0001004562139505428 0 -3.137292340033853e-05 -9.4791687377404312e-05 0 -5.6493514560694124e-06 -5.4953696607137536e-10 0 -4.4765917221606456e-06 5.6534402717154688e-07 0 -6.0126742573099126e-06 -3.109706409814218e-07 0 -6.8264036495929662e-10 1.6860610366985112e-10 0 -4.6690975760303903e-07 3.3170078795174229e-07 0 -8.2035411354215773e-07 5.1636506430480814e-07 0 -4.1150414155633391e-06 5.5866399312606237e-06 0 -3.0490066880433834e-06 8.8794235203618023e-06 0 -6.3885571867440511e-06 8.5362822292197048e-06 0 -1.5046193305744653e-05 -2.3685898100484881e-05 0 -1.4550774560493448e-05 -1.9337451089336241e-05 0 -1.7752188005290984e-05 -2.3702795351921724e-05 0 -1.76996236114067e-05 -1.912296281076388e-05 0 -1.9106333904226706e-05 -1.7401546183224609e-05 0 -1.9777436354040429e-05 -2.0998984740520031e-05 0 -2.0234743395164804e-06 1.1582414484266431e-06 0 -2.966283905252887e-06 1.1294174445337259e-06 0 -2.3662883902292924e-06 1.3647869241720617e-06 0 -3.8717688899185116e-05 -3.4973001915764814e-05 0 -4.6106995648203236e-05 -4.375305999106779e-05 0 -3.7243559242906896e-05 -4.2621690949391646e-05 0 -4.3707298847195891e-05 -5.0241633994390592e-05 0 -3.7243559242906896e-05 -4.2621690949391646e-05 0 -4.6106995648203236e-05 -4.375305999106779e-05 0 -6.5946847297409967e-10 -3.1932155920935851e-11 0 -6.8264036495932547e-10 1.6860610366986175e-10 0 -5.2862009897370986e-07 1.947413614957368e-07 0 -6.6641637208715874e-05 0.00010742241166191419 0 -7.4818039624991752e-05 9.2542159758999089e-05 0 -5.7025832341668615e-05 9.0239864484101858e-05 0 -5.9824193408993318e-05 7.2793743107477888e-05 0 -5.7025832341668615e-05 9.0239864484101858e-05 0 -7.4818039624991752e-05 9.2542159758999089e-05 0 -2.8714839543535392e-05 -3.0339616939749994e-05 0 -2.7315156844834841e-05 -2.8599145394397807e-05 0 -2.9612893469327143e-05 -2.9482698120490565e-05 0 -1.6208939243775266e-05 -3.4657993647907929e-05 0 -1.4124294101097136e-05 -3.050218373614567e-05 0 -1.6210906179263245e-05 -3.1335535240868056e-05 0 -1.0507130628555512e-05 7.1462268001457109e-06 0 -6.7180981629432085e-06 4.7850994504741051e-06 0 -6.3885571867440511e-06 8.5362822292197048e-06 0 -2.5162766684708955e-05 -2.8487941121399267e-05 0 -2.3375436976223847e-05 -2.801847615324036e-05 0 -2.394031543821551e-05 -2.6243173204263827e-05 0 -2.4475595248486523e-06 1.183593594707099e-05 0 -2.3537973896480268e-06 1.5091580585478045e-05 0 -1.2753238143343132e-06 1.4456024539817412e-05 0 -5.7817013423596181e-06 1.3244298915732166e-07 0 -3.8795446464226993e-06 6.1655444912129881e-07 0 -4.9551141213669534e-06 1.4552825674620936e-06 0 -2.2944006134628198e-05 1.5668769365077482e-05 0 -1.2072578113859256e-05 1.2368594169103269e-05 0 -1.7322526209884539e-05 1.9128126792807197e-05 0 1.5586124233851911e-05 7.8831328348178878e-05 0 2.2916243672918505e-06 9.4319740200706842e-05 0 -9.0636090717560374e-06 7.7274851932252506e-05 0 -5.6493514560694124e-06 -5.4953696607137536e-10 0 -4.1597598165194975e-06 8.5374255665802207e-07 0 -4.4765917221606456e-06 5.653440271715471e-07 0 -4.5185691552556704e-05 0.00019027005456634773 0 -2.9211525334109461e-05 0.00019982178912244118 0 -4.4988427786575881e-05 0.00021599011569469728 0 -3.6610833403983246e-05 -8.8390674891620846e-05 0 -4.3946079321283539e-05 -9.3052507094223982e-05 0 -3.7822202695756025e-05 -0.0001004562139505428 0 -3.0096008543048737e-06 1.0076216728886093e-06 0 -3.9719202542301075e-06 7.175312241370316e-07 0 -4.4765917221606456e-06 5.653440271715471e-07 0 -1.1926659476256067e-05 -6.7198333112033758e-06 0 -1.4814711737516926e-05 -8.9931223606536461e-06 0 -1.2985015566733449e-05 -5.5550214458567128e-06 0 -1.5048889996202003e-05 0.00017708523446836034 0 7.3695843151928782e-07 0.00018374093028497308 0 -1.0418074600108618e-05 0.00020255384338003243 0 -4.8964522626018648e-05 -8.3036027836256394e-05 0 -5.6673942854934912e-05 -8.6971665591796445e-05 0 -5.2566979095703714e-05 -9.4820714375922231e-05 0 -2.3482153839156552e-05 -8.0668522783274923e-06 0 -2.8219568028406431e-05 -1.0733041427997919e-05 0 -2.3184587695919274e-05 -7.9238316691189063e-06 0 -4.5008173268807952e-05 1.6990091142114999e-05 0 -3.6557060921301365e-05 1.1572826485150348e-05 0 -3.5210704152597386e-05 1.173161246636884e-05 0 -1.4970072333726617e-05 2.5957775809430138e-05 0 -1.7841175133640514e-05 3.8380673206405784e-05 0 -2.720671682975429e-05 4.0907282088116802e-05 0 -9.721810759292763e-06 -1.3899410913018496e-06 0 -1.2416841408781221e-05 -2.6971386325534746e-06 0 -1.1241189436670423e-05 -2.3978424452580548e-06 0 -3.2505979614563209e-05 -3.5377291189214753e-05 0 -3.0087018754379094e-05 -3.3904945798691474e-05 0 -3.0556385830890143e-05 -3.2005414127814312e-05 0 -3.2505979614563209e-05 -3.5377291189214753e-05 0 -3.0556385830890143e-05 -3.2005414127814312e-05 0 -3.2049478151814418e-05 -3.3907514788456145e-05 0 -1.4787637304434092e-05 -3.5036832099492169e-05 0 -1.3547217695688862e-05 -3.183198065758125e-05 0 -1.5876940764442857e-05 -3.6471472316761782e-05 0 -1.4787637304434092e-05 -3.5036832099492169e-05 0 -1.5876940764442857e-05 -3.6471472316761782e-05 0 -1.6423718631955936e-05 -3.8569446281601087e-05 0 -2.8714839543535392e-05 -3.0339616939749994e-05 0 -2.6014862058708921e-05 -3.016353645317691e-05 0 -2.7315156844834841e-05 -2.8599145394397807e-05 0 -1.6208939243775266e-05 -3.4657993647907929e-05 0 -1.6210906179263245e-05 -3.1335535240868056e-05 0 -1.7648406207733731e-05 -3.429689855721181e-05 0 -7.0703388592831236e-06 -1.7406840132623882e-05 0 -1.0485151656990975e-05 -2.1765624095622782e-05 0 -8.7059456729117831e-06 -2.0894798017658472e-05 0 -2.8573222849777622e-05 -2.4935134078703978e-05 0 -2.9704031759043094e-05 -2.8068409236370424e-05 0 -2.7222663845418948e-05 -2.4976672442279064e-05 0 2.1589935211391549e-06 1.727160236990765e-06 0 -4.7395556398416907e-06 -3.6576096502507404e-06 0 -6.9684412280321509e-07 -5.7316435848626641e-06 0 -2.533595542608855e-05 0.00022627776734537885 0 -1.0724916761096027e-05 0.00024373416857054083 0 -2.898278666985041e-05 0.00024882289669594823 0 -6.8297313720733745e-05 0.0002264122489798947 0 -6.5037302625875959e-05 0.0002484121687931259 0 -8.5226562777738636e-05 0.0002439024739734513 0 -4.6654181156134443e-05 -0.00010502015208183074 0 -5.3984412681307187e-05 -0.00011305568975823857 0 -4.5297960945945128e-05 -0.00011511876474179505 0 -2.894480439615557e-05 -0.00010559986042199293 0 -3.0492524637140489e-05 -0.0001156706854812865 0 -2.3253548194781035e-05 -0.00011347351245418731 0 -3.1921461555391908e-06 1.2795823808044145e-06 0 -2.3662883902292924e-06 1.3647869241720617e-06 0 -2.966283905252887e-06 1.1294174445337259e-06 0 -2.533595542608855e-05 0.00022627776734537885 0 -5.5520096949009959e-06 0.00022333176243241696 0 -1.0724916761096025e-05 0.00024373416857054083 0 -4.6654181156134443e-05 -0.00010502015208183074 0 -5.5825816212015227e-05 -0.00010434948260320528 0 -5.3984412681307187e-05 -0.00011305568975823857 0 -1.2149020879401679e-05 -1.4429030316557823e-06 0 -1.0245788902136989e-05 1.5515310784230895e-06 0 -9.105290496344668e-06 1.1369866114780454e-06 0 -6.8297313720733745e-05 0.0002264122489798947 0 -8.5226562777738636e-05 0.0002439024739734513 0 -8.9274825065016781e-05 0.00022399957751086669 0 -2.894480439615557e-05 -0.00010559986042199293 0 -2.3253548194781035e-05 -0.00011347351245418731 0 -2.0941197984939802e-05 -0.00010364331511365579 0 -2.039977832788512e-05 -4.7833459922334966e-05 0 -1.3919648883980979e-05 -4.1393181963949891e-05 0 -1.8686784565447708e-05 -3.5881824110615583e-05 0 -2.0022998720081468e-05 -1.2073290079374452e-05 0 -2.0233303625065246e-05 -1.3717829205049499e-05 0 -1.8023479799180526e-05 -9.3264599795085554e-06 0 -1.8260299538292629e-05 -1.1193490372627642e-05 0 -1.8023479799180526e-05 -9.3264599795085554e-06 0 -2.0233303625065246e-05 -1.3717829205049499e-05 0 -6.4908684295965743e-06 2.6783690663356947e-06 0 -8.1655034569410187e-06 1.3688950078866719e-06 0 -4.9551141213669534e-06 1.4552825674620936e-06 0 -4.1341232802006516e-05 8.6737680921654029e-05 0 -2.5562309577852513e-05 8.0930554335940228e-05 0 -3.2311821444523143e-05 0.00010342601479247505 0 -5.669648936945309e-05 -5.0882171486809641e-05 0 -5.0726540593843834e-05 -5.2965799756862838e-05 0 -4.6106995648203236e-05 -4.375305999106779e-05 0 -5.5029567320630038e-06 1.3006655384805751e-05 0 -1.2072578113859256e-05 1.2368594169103268e-05 0 -6.3885571867440511e-06 8.5362822292197048e-06 0 -1.0507130628555512e-05 7.1462268001457109e-06 0 -6.3885571867440511e-06 8.5362822292197048e-06 0 -1.2072578113859256e-05 1.2368594169103268e-05 0 -2.1285944043778803e-06 3.1589537122439192e-06 0 -2.5740489406459108e-06 3.5730203673591579e-06 0 -2.3497448389160707e-06 5.0594755375392873e-06 0 -2.0108486971358865e-05 -2.3940099016035095e-05 0 -2.0058975135691199e-05 -2.6576171559683351e-05 0 -1.7752188005290984e-05 -2.3702795351921724e-05 0 -1.8421883745906711e-05 -2.7972597351833284e-05 0 -1.7752188005290984e-05 -2.3702795351921724e-05 0 -2.0058975135691199e-05 -2.6576171559683351e-05 0 -7.412666255372502e-05 4.8928965840122259e-05 0 -6.4392837624011252e-05 3.508229095703772e-05 0 -5.6623231608015342e-05 3.7906705151119285e-05 0 -3.8477256403354194e-05 -1.9074719516269266e-05 0 -4.3623187940470741e-05 -2.5163157225751379e-05 0 -3.5368492999569856e-05 -1.9956610629019496e-05 0 -1.2301861703054226e-09 -3.3340470030044932e-10 0 -9.5622420281837095e-10 -2.5496054140910367e-10 0 -8.7734504233500107e-07 -4.713713321487919e-07 0 -1.0898683187198423e-09 3.007581431027586e-10 0 -1.2835002268852511e-09 2.8882469993198512e-10 0 -1.0840576838609999e-06 5.8699851323632003e-07 0 -4.1150414155633391e-06 5.5866399312606237e-06 0 -2.609324625413859e-06 3.8013617514740958e-06 0 -2.6815703124760352e-06 5.9225641023154582e-06 0 -3.0447477974564655e-06 4.7803964793300909e-06 0 -2.3497448389160707e-06 5.0594755375392873e-06 0 -2.5740489406459108e-06 3.5730203673591579e-06 0 -2.1285944043778803e-06 3.1589537122439192e-06 0 -2.6093246254138595e-06 3.8013617514740953e-06 0 -2.248170380066e-06 2.6558698430940933e-06 0 -9.0298465094737993e-06 -6.8224101523279007e-08 0 -1.2515335132861694e-05 1.0849103425120429e-06 0 -9.7570656958902866e-06 5.6681853339348419e-07 0 -7.0495035953181816e-06 -5.6725628546083334e-07 0 -7.0998355110081069e-06 -1.1147386848668218e-06 0 -9.1918268689529369e-06 -1.5376262600970061e-06 0 -1.3101551064727137e-05 0.00010185366016854542 0 -9.0636090717560374e-06 7.7274851932252506e-05 0 2.2916243672918505e-06 9.4319740200706842e-05 0 -9.0298465094737993e-06 -6.8224101523279007e-08 0 -9.7570656958902849e-06 5.6681853339348398e-07 0 -7.045198018997489e-06 -3.0991715525268535e-07 0 -7.0495035953181816e-06 -5.6725628546083334e-07 0 -5.3741833365263969e-06 -3.680162878059102e-07 0 -7.0998355110081069e-06 -1.1147386848668218e-06 0 -2.4491613212439641e-05 -2.3544585284747825e-05 0 -2.5742513739745218e-05 -2.5900941412882714e-05 0 -2.394031543821551e-05 -2.6243173204263827e-05 0 -2.0157536050030204e-05 5.5310994655654943e-05 0 -9.428252390527684e-06 3.4986735714759182e-05 0 -5.2709606687242962e-06 5.6512826974494313e-05 0 -2.9888039367143079e-06 1.712773356696946e-06 0 -2.248170380066e-06 2.6558698430940933e-06 0 -2.6093246254138595e-06 3.8013617514740953e-06 0 -1.5046193305744653e-05 -2.3685898100484881e-05 0 -1.2348580623084064e-05 -2.1323701525187783e-05 0 -1.4550774560493448e-05 -1.9337451089336241e-05 0 -2.2286916316708491e-09 -3.497139907934922e-10 0 -1.6550274362027168e-09 -4.9444500424585195e-10 0 -1.6500705505053807e-06 -8.0426218991404959e-07 0 -1.55771576852132e-09 3.0009611036067351e-10 0 -1.8958074652825265e-09 1.5269755761021068e-10 0 -1.5275892050218415e-06 4.6012417791673765e-07 0 -1.4975214944419148e-05 -4.6720044290736539e-06 0 -1.9150521349097107e-05 -6.1044588689228594e-06 0 -1.5506272442593161e-05 -4.1787953689063581e-06 0 -2.902530322531633e-05 7.9527329335071678e-06 0 -2.2181090298183806e-05 5.6304993427424829e-06 0 -2.3103320952450783e-05 4.9819338220526217e-06 0 -2.0580128103542056e-05 -1.6139392553856872e-05 0 -2.3411114122754117e-05 -1.4185611861697016e-05 0 -2.5622157800066277e-05 -1.8975979340722996e-05 0 -8.0433825737585605e-06 -3.5393019240053674e-05 0 -1.3110422184784289e-05 -3.16143969198648e-05 0 -1.3919648883980979e-05 -4.1393181963949884e-05 0 -1.044606593309847e-05 -2.0082137116801933e-06 0 -1.0648657703469964e-05 -3.941203207496058e-06 0 -1.2985015566733449e-05 -5.5550214458567128e-06 0 -4.6639952908978374e-06 1.713263480049514e-06 0 -4.0678114816042249e-06 3.3678292061582592e-06 0 -3.3515803811788083e-06 2.3541828291666492e-06 0 -5.6681035952021398e-06 1.8986574165760002e-06 0 -4.0678114816042249e-06 3.3678292061582592e-06 0 -4.6639952908978374e-06 1.713263480049514e-06 0 -2.3518251164234628e-06 7.5118189734563296e-06 0 -3.0490066880433834e-06 8.8794235203618023e-06 0 -2.6815703124760352e-06 5.9225641023154582e-06 0 -4.1150414155633391e-06 5.5866399312606237e-06 0 -2.6815703124760352e-06 5.9225641023154582e-06 0 -3.0490066880433834e-06 8.8794235203618023e-06 0 -1.7961499722083808e-05 -3.1177109846536858e-05 0 -1.9639160531043278e-05 -3.3225835596645995e-05 0 -1.7648406207733731e-05 -3.429689855721181e-05 0 -2.4783489282987342e-05 -1.7407464841534671e-05 0 -2.2564901797677585e-05 -1.5928038898064061e-05 0 -2.1684277938591007e-05 -1.3813974855960399e-05 0 -1.1926659476256067e-05 -6.7198333112033758e-06 0 -1.2455882446946123e-05 -9.8885978095461733e-06 0 -1.4814711737516926e-05 -8.9931223606536461e-06 0 -1.291103345448197e-05 -1.3557415409135842e-05 0 -1.4814711737516928e-05 -8.9931223606536461e-06 0 -1.2455882446946123e-05 -9.8885978095461733e-06 0 -1.1063560981856277e-05 -3.6315888287611584e-06 0 -1.4975214944419148e-05 -4.6720044290736539e-06 0 -1.2651859011725395e-05 -3.3523905810118575e-06 0 -2.2181090298183806e-05 5.6304993427424829e-06 0 -1.6039084583385059e-05 4.1114206560450737e-06 0 -1.8478306788569905e-05 3.6596428468450995e-06 0 -2.0636144120746923e-05 -3.6957001796092604e-05 0 -1.8463201847533197e-05 -3.8193624790984091e-05 0 -2.0161005815548241e-05 -3.5338793601899351e-05 0 -1.2072578113859256e-05 1.2368594169103268e-05 0 -1.0264226059820221e-05 1.7139276092008722e-05 0 -1.7322526209884539e-05 1.9128126792807197e-05 0 -1.8792000187656109e-06 1.5900811975642911e-06 0 -1.8705125377002519e-06 2.1017630775858594e-06 0 -1.6161353060872965e-06 1.2706823965095211e-06 0 -3.9363333482659838e-06 -6.8308858151362453e-07 0 -5.9573843613325251e-06 -7.2754357617027418e-07 0 -7.045198018997489e-06 -3.0991715525268535e-07 0 -3.0730573892539224e-06 9.1661829747793726e-08 0 -5.3741833365263969e-06 -3.6801628780591031e-07 0 -4.8300037902017911e-06 3.5459944387084002e-08 0 -3.0096008543048737e-06 1.0076216728886093e-06 0 -3.2542885693750254e-06 8.9651980892386601e-07 0 -3.9719202542301075e-06 7.175312241370316e-07 0 -1.044606593309847e-05 -2.0082137116801933e-06 0 -1.1273906939974076e-05 -1.5400028218569035e-06 0 -9.105290496344668e-06 1.1369866114780454e-06 0 -1.4525313067185786e-05 -2.8252790512930594e-05 0 -1.6074215734014595e-05 -2.7256633343134192e-05 0 -1.6210906179263245e-05 -3.1335535240868056e-05 0 -5.0051410230049975e-06 3.7664463991074429e-07 0 -3.9719202542301067e-06 7.175312241370316e-07 0 -3.2542885693750254e-06 8.9651980892386601e-07 0 -0.00010593332755342281 0.00015430074492405225 0 -8.2066188404654125e-05 0.00014134838541081442 0 -8.8550120908283234e-05 0.00016366460174735233 0 -8.6909299730771277e-06 -6.7168010299545021e-05 0 -1.7725291792142508e-05 -6.323726684312662e-05 0 -1.692737101184002e-05 -7.3531034608241265e-05 0 -8.0293080904949517e-06 -5.6140242232613892e-05 0 -1.5326050906680115e-05 -5.277796050936396e-05 0 -1.7725291792142508e-05 -6.323726684312662e-05 0 -1.5378294378328836e-05 -7.1618879762053102e-06 0 -1.3529887484051545e-05 -3.4105727494605845e-06 0 -1.5310493462156469e-05 -5.755917928879969e-06 0 -2.4783489282987342e-05 -1.7407464841534671e-05 0 -2.4754850818828362e-05 -1.9068460645523036e-05 0 -2.2564901797677585e-05 -1.5928038898064065e-05 0 -5.6493514560694124e-06 -5.4953696607137536e-10 0 -7.6965126385474571e-06 -1.7416711119248892e-06 0 -6.3684868801399493e-06 -3.17250019985537e-07 0 -1.2149020879401679e-05 -1.4429030316557823e-06 0 -9.105290496344668e-06 1.1369866114780454e-06 0 -1.1273906939974076e-05 -1.540002821856903e-06 0 1.1038449840954103e-05 0.00024193127116901262 0 -2.5880108597901036e-06 0.00025432478785941107 0 -1.0724916761096025e-05 0.00024373416857054083 0 -6.4686351945894503e-05 -0.00011423128113920907 0 -5.8310929439667586e-05 -0.00011834918820254381 0 -5.3984412681307187e-05 -0.00011305568975823857 0 -1.4379870505957713e-05 -0.00011231855832006075 0 -2.3253548194781035e-05 -0.00011347351245418731 0 -2.0072210633488966e-05 -0.00011820944220475404 0 -0.00010949596387216036 0.00024653148493196424 0 -8.5226562777738636e-05 0.0002439024739734513 0 -9.5032545840134005e-05 0.00025588592950744147 0 -6.3637196431801884e-06 4.2497070058838765e-07 0 -5.0153696455002689e-06 7.9105528282543258e-07 0 -6.3684868801399493e-06 -3.17250019985537e-07 0 -5.6493514560694124e-06 -5.4953696607137536e-10 0 -6.3684868801399493e-06 -3.17250019985537e-07 0 -5.0153696455002689e-06 7.9105528282543258e-07 0 -9.7622549806194897e-06 -4.3784387324460126e-06 0 -7.6965126385474571e-06 -1.7416711119248889e-06 0 -8.4022269374445817e-06 -2.5092283233222837e-06 0 -3.3748149322454794e-05 1.3729424130259141e-05 0 -3.5210704152597386e-05 1.173161246636884e-05 0 -2.573019731154475e-05 7.870580716602622e-06 0 -2.8304541261815518e-05 7.349429670906004e-06 0 -2.573019731154475e-05 7.8705807166026203e-06 0 -3.5210704152597386e-05 1.173161246636884e-05 0 -1.0507130628555512e-05 7.1462268001457109e-06 0 -1.4025510873958372e-05 5.8610692337172923e-06 0 -9.4983838013175802e-06 3.7791682591058189e-06 0 -1.1926053484817379e-05 -4.5202151572411869e-06 0 -9.0137346988170802e-06 -2.158801810845925e-06 0 -1.0287298942222154e-05 -2.3718609723574699e-06 0 -1.1926659476256067e-05 -6.7198333112033758e-06 0 -1.1410127767348096e-05 -7.5098483381943385e-06 0 -1.2455882446946123e-05 -9.8885978095461733e-06 0 -7.0495035953181816e-06 -5.6725628546083334e-07 0 -5.4342374372171341e-06 1.6337558724348169e-07 0 -4.8300037902017911e-06 3.5459944387084002e-08 0 -3.2752914711220582e-06 4.2431212261929007e-07 0 -4.8300037902017911e-06 3.5459944387084002e-08 0 -5.4342374372171349e-06 1.6337558724348166e-07 0 -3.7349575524629412e-06 -9.8241584026543893e-07 0 -5.9754274320249654e-06 -6.6292001645322839e-07 0 -5.9573843613325251e-06 -7.2754357617027407e-07 0 -9.0298465094737993e-06 -6.8224101523279007e-08 0 -5.9573843613325251e-06 -7.2754357617027418e-07 0 -5.9754274320249654e-06 -6.6292001645322839e-07 0 -4.3707298847195891e-05 -5.0241633994390592e-05 0 -4.88230002889731e-05 -6.0608685000759077e-05 0 -4.0646743759339771e-05 -5.6083938740611366e-05 0 -4.1715551878960286e-05 -6.5372892771771519e-05 0 -4.0646743759339771e-05 -5.6083938740611366e-05 0 -4.88230002889731e-05 -6.0608685000759077e-05 0 -1.3652203230921097e-06 -7.6163238648527004e-07 0 -8.7734504233500107e-07 -4.713713321487919e-07 0 -2.0851811232927479e-06 -6.5458996677084484e-07 0 -1.2973317354593842e-06 -3.4334439503205147e-07 0 -2.0851811232927479e-06 -6.5458996677084484e-07 0 -8.7734504233500107e-07 -4.713713321487919e-07 0 -1.8548700482992415e-06 8.7020296688044417e-07 0 -1.0840576838609999e-06 5.8699851323632003e-07 0 -2.4101587062917848e-06 8.3838391171950183e-07 0 -1.4313850734982632e-06 5.9570973694529494e-07 0 -2.4101587062917848e-06 8.3838391171950183e-07 0 -1.0840576838609999e-06 5.8699851323632003e-07 0 -4.5185691552556704e-05 0.00019027005456634773 0 -3.1279554742382893e-05 0.00017697298844476057 0 -2.9211525334109461e-05 0.00019982178912244118 0 -3.6610833403983246e-05 -8.8390674891620846e-05 0 -4.1762373445750842e-05 -8.2545423847669273e-05 0 -4.3946079321283539e-05 -9.3052507094223982e-05 0 -6.3564785082089923e-06 -4.1285352574435988e-08 0 -4.88054715832e-06 3.9653499400503606e-07 0 -5.4342374372171349e-06 1.6337558724348166e-07 0 -5.7817013423596181e-06 1.3244298915732166e-07 0 -5.9754274320249654e-06 -6.6292001645322839e-07 0 -4.5922872318469237e-06 -4.8150101809162054e-07 0 -1.1926053484817379e-05 -4.5202151572411869e-06 0 -1.1673787668097492e-05 -6.064792115489404e-06 0 -9.7024103474096107e-06 -3.5016562988985312e-06 0 -7.0495035953181816e-06 -5.6725628546083334e-07 0 -7.7516443436308914e-06 -5.6825284397647235e-07 0 -5.4342374372171349e-06 1.6337558724348166e-07 0 -9.0298465094737993e-06 -6.8224101523279007e-08 0 -5.9754274320249654e-06 -6.6292001645322839e-07 0 -8.8634673541647927e-06 1.5661812954318799e-07 0 -1.291103345448197e-05 -1.3557415409135842e-05 0 -1.6871175836470155e-05 -1.0085776900262539e-05 0 -1.4814711737516926e-05 -8.9931223606536461e-06 0 -5.6493514560694124e-06 -5.4953696607137536e-10 0 -6.9398890411326468e-06 -1.1059390054518618e-06 0 -7.6965126385474571e-06 -1.7416711119248892e-06 0 -2.5588332137879843e-09 -7.5359578037676524e-10 0 -2.2286916316708491e-09 -3.497139907934922e-10 0 -1.8561346568466347e-06 -6.6305384517594433e-07 0 -1.8958074652825265e-09 1.5269755761021068e-10 0 -2.012549590348062e-09 3.5359219843159772e-10 0 -1.5508970458879747e-06 2.7645279300996962e-07 0 -5.5029567320630038e-06 1.3006655384805751e-05 0 -6.3885571867440511e-06 8.5362822292197048e-06 0 -3.0490066880433834e-06 8.8794235203618023e-06 0 -2.1360534398366991e-05 -3.2643427086890002e-05 0 -2.1889428015473226e-05 -3.4577300144930947e-05 0 -2.0161005815548241e-05 -3.5338793601899351e-05 0 -1.1926053484817379e-05 -4.5202151572411869e-06 0 -1.3069134389323174e-05 -4.0918601810168221e-06 0 -1.5559603721861956e-05 -6.4806757111491694e-06 0 -1.8686784565447708e-05 -3.5881824110615583e-05 0 -1.3919648883980979e-05 -4.1393181963949884e-05 0 -1.3110422184784289e-05 -3.16143969198648e-05 0 -6.3637196431801884e-06 4.2497070058838765e-07 0 -4.6639952908978374e-06 1.713263480049514e-06 0 -5.0153696455002689e-06 7.9105528282543258e-07 0 -9.0595116385456285e-06 -2.8606251996065868e-06 0 -7.5721263545244375e-06 -1.1891094630451938e-06 0 -7.6965126385474571e-06 -1.7416711119248892e-06 0 -6.3991419238472472e-06 1.9426201998105986e-07 0 -9.5401124668543653e-06 1.6909102862830422e-06 0 -4.5735963474332702e-06 7.6237312031087952e-07 0 -4.67132669594817e-06 -6.9060612248071457e-07 0 -3.2632343615297217e-06 -9.1526874517444068e-07 0 -6.7335362090652515e-06 -1.8459644413856072e-06 0 -1.3822062607360449e-05 -9.3760111737959241e-06 0 -1.3192871606317335e-05 -1.1368739044595858e-05 0 -1.1410127767348096e-05 -7.5098483381943385e-06 0 -3.3515803811788083e-06 2.3541828291666492e-06 0 -3.7165922920632532e-06 1.4575317821898585e-06 0 -4.6639952908978374e-06 1.713263480049514e-06 0 -7.7527714155741866e-06 -1.618466395381524e-06 0 -9.0137346988170802e-06 -2.1588018108459254e-06 0 -9.7024103474096107e-06 -3.5016562988985312e-06 0 -2.2595854539567413e-05 -8.4682090941532255e-06 0 -2.3464197436677499e-05 -1.0975685737288078e-05 0 -1.912017690733071e-05 -7.790502212518093e-06 0 -0.00010251385196080423 0.00013058502034804645 0 -8.3006149684724262e-05 0.00012004894427834428 0 -8.2066188404654125e-05 0.00014134838541081442 0 -1.3822062607360449e-05 -9.3760111737959241e-06 0 -1.4714637454951983e-05 -7.7138142989438723e-06 0 -1.7583326577650062e-05 -1.123155186878782e-05 0 -1.5310493462156469e-05 -5.755917928879969e-06 0 -1.8023479799180526e-05 -9.3264599795085554e-06 0 -1.6710805492080799e-05 -8.4422608981985867e-06 0 -1.1926053484817379e-05 -4.5202151572411869e-06 0 -1.5559603721861956e-05 -6.4806757111491694e-06 0 -1.4714637454951983e-05 -7.7138142989438723e-06 0 -5.0153696455002689e-06 7.9105528282543258e-07 0 -4.6639952908978374e-06 1.713263480049514e-06 0 -3.7165922920632532e-06 1.4575317821898585e-06 0 -2.0022998720081468e-05 -1.2073290079374452e-05 0 -2.1684277938591007e-05 -1.3813974855960399e-05 0 -2.2564901797677585e-05 -1.5928038898064065e-05 0 -5.5029567320630038e-06 1.3006655384805751e-05 0 -1.2753238143343132e-06 1.4456024539817412e-05 0 -4.9242452696281918e-06 1.9470856518745338e-05 0 -1.1926053484817379e-05 -4.5202151572411869e-06 0 -1.0287298942222154e-05 -2.3718609723574699e-06 0 -1.3069134389323174e-05 -4.0918601810168221e-06 0 -0.00010810614655329029 0.00017810320851240904 0 -0.00010593332755342281 0.00015430074492405225 0 -8.8550120908283234e-05 0.00016366460174735233 0 -8.6909299730771277e-06 -6.7168010299545021e-05 0 -1.692737101184002e-05 -7.3531034608241265e-05 0 -9.7057866159125193e-06 -7.854138162361592e-05 0 -7.7614635193114062e-06 -4.5555170262118701e-05 0 -1.5326050906680115e-05 -5.277796050936396e-05 0 -8.0293080904949517e-06 -5.6140242232613892e-05 0 -2.2944006134628198e-05 1.5668769365077482e-05 0 -3.391721335295721e-05 1.8749035479902398e-05 0 -2.7233701016603688e-05 1.2404206952083431e-05 0 2.1589935211391549e-06 1.727160236990765e-06 0 -4.830616425039391e-06 7.7273623751123584e-06 0 -4.7395556398416907e-06 -3.6576096502507404e-06 0 -2.2595854539567413e-05 -8.4682090941532255e-06 0 -2.3184587695919274e-05 -7.9238316691189063e-06 0 -2.687294965446892e-05 -1.0359809438805947e-05 0 -3.3748149322454794e-05 1.3729424130259141e-05 0 -4.1827705266359227e-05 1.6534037790883705e-05 0 -3.5210704152597386e-05 1.173161246636884e-05 0 -2.2595854539567413e-05 -8.4682090941532255e-06 0 -2.687294965446892e-05 -1.0359809438805947e-05 0 -2.8016756574772633e-05 -1.2262799480317102e-05 0 -3.3748149322454794e-05 1.3729424130259141e-05 0 -4.3162734809737394e-05 2.0793614044791426e-05 0 -4.1827705266359227e-05 1.6534037790883705e-05 0 -4.67132669594817e-06 -6.9060612248071457e-07 0 -2.2735764718213878e-06 -1.7016986239324439e-07 0 -3.2632343615297217e-06 -9.1526874517444068e-07 0 -6.3991419238472472e-06 1.9426201998105986e-07 0 -4.5735963474332702e-06 7.6237312031087952e-07 0 -3.082590465604646e-06 -2.1802210162291051e-07 0 -9.0595116385456285e-06 -2.8606251996065868e-06 0 -1.0389597384277023e-05 -5.1313116487386765e-06 0 -1.0648657703469964e-05 -3.941203207496058e-06 0 -1.1926659476256067e-05 -6.7198333112033758e-06 0 -1.0648657703469964e-05 -3.941203207496058e-06 0 -1.0389597384277023e-05 -5.1313116487386765e-06 0 -2.9704031759043094e-05 -2.8068409236370424e-05 0 -2.9083743875873188e-05 -2.7884365347599595e-05 0 -2.7222663845418948e-05 -2.4976672442279064e-05 0 -8.7059456729117831e-06 -2.0894798017658472e-05 0 -1.0485151656990975e-05 -2.1765624095622782e-05 0 -1.1858926680229024e-05 -2.548808318043272e-05 0 -6.9684412280321509e-07 -5.7316435848626641e-06 0 -4.7395556398416907e-06 -3.65760965025074e-06 0 -5.4099970303082136e-06 -9.6527863555925545e-06 0 -7.0703388592831236e-06 -1.7406840132623882e-05 0 -8.5571860901879449e-06 -1.774889119489245e-05 0 -1.0485151656990975e-05 -2.1765624095622782e-05 0 -2.8573222849777622e-05 -2.4935134078703978e-05 0 -2.7222663845418948e-05 -2.4976672442279064e-05 0 -2.6232278805236888e-05 -2.2132019155227833e-05 0 -1.1926053484817379e-05 -4.5202151572411869e-06 0 -9.7024103474096107e-06 -3.5016562988985312e-06 0 -9.0137346988170802e-06 -2.158801810845925e-06 0 -9.7622549806194897e-06 -4.3784387324460126e-06 0 -1.1410127767348096e-05 -7.5098483381943385e-06 0 -1.0389597384277023e-05 -5.1313116487386765e-06 0 -1.1926659476256067e-05 -6.7198333112033758e-06 0 -1.0389597384277023e-05 -5.1313116487386765e-06 0 -1.1410127767348096e-05 -7.5098483381943385e-06 0 -6.3637196431801884e-06 4.2497070058838765e-07 0 -8.6019842663457269e-06 -1.4512028340316878e-06 0 -7.719325540806714e-06 6.2171933617689548e-07 0 -0.00010251385196080423 0.00013058502034804645 0 -9.7513064724980786e-05 0.00010737763571962385 0 -8.3006149684724262e-05 0.00012004894427834428 0 -1.2149020879401679e-05 -1.4429030316557823e-06 0 -1.1273906939974075e-05 -1.5400028218569026e-06 0 -1.3413652378275912e-05 -4.017045228998435e-06 0 -1.4970072333726617e-05 2.5957775809430138e-05 0 -1.026422605982022e-05 1.7139276092008722e-05 0 -4.9242452696281918e-06 1.9470856518745338e-05 0 -5.5029567320630038e-06 1.3006655384805751e-05 0 -4.9242452696281918e-06 1.9470856518745338e-05 0 -1.0264226059820221e-05 1.7139276092008722e-05 0 -8.0433825737585605e-06 -3.5393019240053674e-05 0 -1.3919648883980979e-05 -4.1393181963949884e-05 0 -7.7614635193114062e-06 -4.5555170262118701e-05 0 -5.442622551487149e-05 2.4430721269822322e-05 0 -4.1827705266359227e-05 1.6534037790883705e-05 0 -4.3162734809737394e-05 2.0793614044791426e-05 0 -3.3269882376969813e-05 -1.4268557215598784e-05 0 -2.8016756574772633e-05 -1.2262799480317102e-05 0 -2.687294965446892e-05 -1.0359809438805947e-05 0 -1.044606593309847e-05 -2.0082137116801933e-06 0 -1.3413652378275912e-05 -4.017045228998435e-06 0 -1.1273906939974076e-05 -1.540002821856903e-06 0 -5.95258536501573e-05 0.00014050479325816422 0 -8.2066188404654125e-05 0.00014134838541081442 0 -6.8439543160939226e-05 0.00012386578458284335 0 -5.95258536501573e-05 0.00014050479325816422 0 -7.2895752872058681e-05 0.00015662360812654293 0 -8.2066188404654125e-05 0.00014134838541081442 0 -2.6433561406910803e-05 -6.4188088610890519e-05 0 -2.2708489115113581e-05 -7.1068220954365147e-05 0 -1.7725291792142508e-05 -6.323726684312662e-05 0 -2.6433561406910803e-05 -6.4188088610890519e-05 0 -1.7725291792142505e-05 -6.3237266843126606e-05 0 -2.1411528273420934e-05 -5.6724099391748169e-05 0 -9.7057866159125193e-06 -7.854138162361592e-05 0 -1.7198235765953954e-05 -8.3762851841702064e-05 0 -1.1189451298728781e-05 -9.023476717174016e-05 0 -0.00010910780126282901 0.00020162126177896482 0 -0.00010810614655329029 0.00017810320851240904 0 -9.1918341963865275e-05 0.0001848314486757149 0 -3.7381117541043349e-06 6.844445607900013e-07 0 -3.1361258767511532e-06 6.6131010672668073e-07 0 -4.8805471583200009e-06 3.9653499400503596e-07 0 -3.2043490213402411e-06 -6.814638118107347e-07 0 -4.5922872318469237e-06 -4.8150101809162054e-07 0 -2.9783690285841339e-06 -9.9532663426983915e-07 0 -2.6433561406910803e-05 -6.4188088610890519e-05 0 -3.2322573805130228e-05 -6.4967921226906163e-05 0 -2.8847244442301856e-05 -7.3782099967866009e-05 0 -2.6433561406910803e-05 -6.4188088610890519e-05 0 -2.689251819244574e-05 -5.5590288703835335e-05 0 -3.2322573805130228e-05 -6.4967921226906163e-05 0 -3.6451595303456914e-05 -7.5576371835106633e-05 0 -2.8847244442301856e-05 -7.3782099967866009e-05 0 -3.2322573805130228e-05 -6.4967921226906163e-05 0 -3.3722836370825278e-05 -5.5561670341142945e-05 0 -3.2322573805130228e-05 -6.4967921226906163e-05 0 -2.689251819244574e-05 -5.5590288703835335e-05 0 -5.95258536501573e-05 0.00014050479325816422 0 -4.4489559539213093e-05 0.00014195971288875534 0 -5.9086444695933699e-05 0.00016197538545375623 0 -4.130782583998156e-05 0.00016175837454754266 0 -5.9086444695933699e-05 0.00016197538545375623 0 -4.4489559539213093e-05 0.00014195971288875534 0 -1.8958074652825265e-09 1.5269755761021068e-10 0 -1.5508970458879747e-06 2.7645279300996962e-07 0 -1.5275892050218415e-06 4.6012417791673765e-07 0 -2.2286916316708491e-09 -3.497139907934922e-10 0 -1.6500705505053807e-06 -8.0426218991404959e-07 0 -1.8561346568466347e-06 -6.6305384517594433e-07 0 -3.7708852871254969e-05 -2.668852324941185e-05 0 -3.0434419795287979e-05 -1.9581104761877492e-05 0 -3.5368492999569856e-05 -1.9956610629019496e-05 0 -5.9435493603721437e-05 5.2381455592699789e-05 0 -5.6623231608015342e-05 3.7906705151119285e-05 0 -4.6687184348185394e-05 3.6641843037059382e-05 0 -1.546947802080744e-05 -4.0517107979190432e-06 0 -1.9548730579915554e-05 -6.1920353959682094e-06 0 -1.8057612816926419e-05 -5.9493827067977101e-06 0 -3.1921461555391908e-06 1.2795823808044145e-06 0 -4.1597598165194975e-06 8.5374255665802218e-07 0 -3.7165922920632532e-06 1.4575317821898585e-06 0 -1.8695661808979001e-05 -3.549146830066996e-05 0 -1.7648406207733731e-05 -3.429689855721181e-05 0 -1.9639160531043278e-05 -3.3225835596645995e-05 0 -1.7149874383935961e-05 2.6255545058014214e-06 0 -2.0599373120101324e-05 4.050657289244488e-06 0 -2.3103320952450783e-05 4.9819338220526217e-06 0 -2.8304541261815518e-05 7.349429670906004e-06 0 -2.3103320952450783e-05 4.9819338220526217e-06 0 -2.0599373120101324e-05 4.050657289244488e-06 0 -1.547706607614303e-06 6.7575970635088446e-07 0 -1.6816361646489372e-06 -1.048833769828109e-08 0 -1.1764941135154054e-06 4.8343637555487032e-08 0 -3.2274214206967968e-06 -1.0329473870798775e-05 0 -7.7504337644962e-06 -1.4412385425237933e-05 0 -5.2026326679045795e-06 -1.3952951012684968e-05 0 -3.3269882376969813e-05 -1.4268557215598784e-05 0 -3.2830845265438056e-05 -1.6030507943787994e-05 0 -2.8016756574772633e-05 -1.2262799480317102e-05 0 -5.442622551487149e-05 2.4430721269822322e-05 0 -4.3162734809737394e-05 2.0793614044791426e-05 0 -5.2466426803158986e-05 2.8518086560903519e-05 0 -1.8162707321690331e-05 -1.1205940522431282e-05 0 -1.8840799580608239e-05 -1.0342150657034134e-05 0 -1.6871175836470155e-05 -1.0085776900262539e-05 0 -9.0298465094737993e-06 -6.8224101523279007e-08 0 -8.8634673541647927e-06 1.5661812954318799e-07 0 -1.3344974539490006e-05 1.2976970188468636e-06 0 -1.0968512415010119e-05 1.4515314175614072e-06 0 -1.3344974539490006e-05 1.2976970188468638e-06 0 -8.8634673541647927e-06 1.5661812954318799e-07 0 -2.0157536050030204e-05 5.5310994655654943e-05 0 -1.7841175133640518e-05 3.8380673206405784e-05 0 -9.428252390527684e-06 3.4986735714759182e-05 0 -2.2181090298183806e-05 5.6304993427424829e-06 0 -1.8478306788569905e-05 3.6596428468450995e-06 0 -2.3103320952450783e-05 4.9819338220526217e-06 0 -1.4975214944419148e-05 -4.6720044290736539e-06 0 -1.5506272442593161e-05 -4.1787953689063581e-06 0 -1.2651859011725395e-05 -3.3523905810118575e-06 0 -2.0108486971358865e-05 -2.3940099016035095e-05 0 -1.9777436354040429e-05 -2.0998984740520031e-05 0 -2.2221758921530809e-05 -2.3834676951322244e-05 0 -2.1569012092836464e-05 -2.0660695869952039e-05 0 -2.2221758921530809e-05 -2.3834676951322244e-05 0 -1.9777436354040429e-05 -2.0998984740520031e-05 0 -6.3637196431801884e-06 4.2497070058838765e-07 0 -5.6681035952021398e-06 1.8986574165760002e-06 0 -4.6639952908978374e-06 1.713263480049514e-06 0 -1.0507130628555512e-05 7.1462268001457109e-06 0 -9.4983838013175802e-06 3.7791682591058185e-06 0 -6.7180981629432085e-06 4.7850994504741051e-06 0 -2.1285944043778803e-06 3.1589537122439192e-06 0 -2.2856891601172417e-06 2.4478401345852055e-06 0 -2.5740489406459108e-06 3.5730203673591579e-06 0 -1.4970072333726617e-05 2.5957775809430138e-05 0 -9.428252390527684e-06 3.4986735714759182e-05 0 -1.7841175133640514e-05 3.8380673206405784e-05 0 -2.2595854539567413e-05 -8.4682090941532255e-06 0 -1.912017690733071e-05 -7.790502212518093e-06 0 -1.8057612816926419e-05 -5.9493827067977101e-06 0 -7.7527714155741866e-06 -1.618466395381524e-06 0 -6.0126742573099126e-06 -3.109706409814218e-07 0 -6.6871126757778382e-06 -5.0876180206662955e-07 0 1.5586124233851911e-05 7.8831328348178878e-05 0 1.7326489367678162e-05 0.00010142675652573938 0 2.2916243672918505e-06 9.4319740200706842e-05 0 -5.9745438999009241e-05 -6.1328577851253887e-05 0 -4.88230002889731e-05 -6.0608685000759077e-05 0 -5.0726540593843834e-05 -5.2965799756862838e-05 0 -5.442622551487149e-05 2.4430721269822322e-05 0 -4.5008173268807952e-05 1.6990091142114999e-05 0 -4.1827705266359227e-05 1.6534037790883705e-05 0 -2.8219568028406431e-05 -1.0733041427997919e-05 0 -3.3269882376969813e-05 -1.4268557215598784e-05 0 -2.687294965446892e-05 -1.0359809438805947e-05 0 -9.105290496344668e-06 1.1369866114780454e-06 0 -1.0245788902136989e-05 1.5515310784230895e-06 0 -6.9636606661470688e-06 4.3254188034163885e-06 0 -9.0298465094737993e-06 -6.8224101523279007e-08 0 -1.3344974539490006e-05 1.2976970188468636e-06 0 -1.2515335132861694e-05 1.0849103425120429e-06 0 -1.7149874383935961e-05 2.6255545058014214e-06 0 -1.2515335132861694e-05 1.0849103425120429e-06 0 -1.3344974539490006e-05 1.2976970188468636e-06 0 -2.3518251164234628e-06 7.5118189734563296e-06 0 -2.1014833848623113e-06 1.0442814930887175e-05 0 -3.0490066880433834e-06 8.8794235203618023e-06 0 -5.1502198022222991e-05 -7.2159314014109906e-05 0 -4.88230002889731e-05 -6.0608685000759077e-05 0 -5.5542444669347294e-05 -6.6685042221076532e-05 0 -2.4450612167392642e-05 -2.02099116026759e-05 0 -2.3270785559476971e-05 -2.0385900731609906e-05 0 -2.2481008764218715e-05 -1.7305125381957374e-05 0 1.6952044677021885e-05 0.00017174624832407465 0 1.5319044074342304e-05 0.00019591344173557 0 7.3695843151928782e-07 0.00018374093028497308 0 -6.3622697735196831e-05 -8.3167754697707186e-05 0 -6.4387113388842795e-05 -9.3954151574049822e-05 0 -5.6673942854934912e-05 -8.6971665591796459e-05 0 -2.2944006134628198e-05 1.5668769365077482e-05 0 -1.5679193233948259e-05 9.9701651401124352e-06 0 -1.2072578113859256e-05 1.2368594169103268e-05 0 -1.3822062607360449e-05 -9.3760111737959241e-06 0 -1.6532841739163641e-05 -1.3599750943792597e-05 0 -1.3192871606317335e-05 -1.1368739044595856e-05 0 -1.8896747218034341e-05 -9.5983766791074513e-06 0 -1.7583326577650062e-05 -1.123155186878782e-05 0 -1.4714637454951983e-05 -7.7138142989438723e-06 0 -0.00010810614655329029 0.00017810320851240904 0 -8.8550120908283234e-05 0.00016366460174735233 0 -9.1918341963865275e-05 0.0001848314486757149 0 -9.7057866159125193e-06 -7.854138162361592e-05 0 -1.692737101184002e-05 -7.3531034608241265e-05 0 -1.7198235765953954e-05 -8.3762851841702064e-05 0 -8.2179391054892814e-06 -1.203418830881221e-06 0 -6.527587632971983e-06 -2.0919883404975704e-07 0 -8.4813887359193993e-06 -9.6083234294609407e-07 0 -5.5029567320630038e-06 1.3006655384805751e-05 0 -1.0264226059820221e-05 1.7139276092008722e-05 0 -1.2072578113859256e-05 1.2368594169103268e-05 0 -2.2595854539567413e-05 -8.4682090941532255e-06 0 -1.9548730579915554e-05 -6.1920353959682086e-06 0 -2.3184587695919274e-05 -7.9238316691189063e-06 0 -2.1798786025328796e-05 -1.3820997987691595e-05 0 -2.4783489282987342e-05 -1.7407464841534671e-05 0 -2.1684277938591007e-05 -1.3813974855960399e-05 0 -9.721810759292763e-06 -1.3899410913018496e-06 0 -9.4635561037066008e-06 -1.3245968378675689e-06 0 -1.2315587409093467e-05 -2.4694685003608465e-06 0 -5.669648936945309e-05 -5.0882171486809641e-05 0 -5.9745438999009241e-05 -6.1328577851253887e-05 0 -5.0726540593843834e-05 -5.2965799756862838e-05 0 -1.849552104882285e-05 -5.363197904226371e-06 0 -1.4826951532286263e-05 -3.6231783085475737e-06 0 -1.5506272442593161e-05 -4.1787953689063581e-06 0 -1.2137189517602931e-05 -2.5914840600892932e-06 0 -1.5506272442593161e-05 -4.1787953689063581e-06 0 -1.4826951532286263e-05 -3.6231783085475737e-06 0 -6.6641637208715874e-05 0.00010742241166191419 0 -5.1711975001424622e-05 0.00011080981905929415 0 -6.8439543160939226e-05 0.00012386578458284335 0 -1.3652203230921097e-06 -7.6163238648527004e-07 0 -2.9783690285841339e-06 -9.9532663426983915e-07 0 -1.6500705505053807e-06 -8.0426218991404959e-07 0 -3.7349575524629412e-06 -9.8241584026543893e-07 0 -1.6500705505053807e-06 -8.0426218991404959e-07 0 -2.9783690285841339e-06 -9.9532663426983915e-07 0 -3.2752914711220582e-06 4.2431212261929007e-07 0 -3.1361258767511532e-06 6.6131010672668073e-07 0 -1.5275892050218415e-06 4.6012417791673765e-07 0 -1.4313850734982632e-06 5.9570973694529494e-07 0 -1.5275892050218415e-06 4.6012417791673765e-07 0 -3.1361258767511532e-06 6.6131010672668073e-07 0 -9.7622549806194897e-06 -4.3784387324460126e-06 0 -9.7024103474096107e-06 -3.5016562988985312e-06 0 -1.1673787668097492e-05 -6.064792115489404e-06 0 -1.1987640078067787e-05 -1.3288333857892551e-06 0 -1.3529887484051545e-05 -3.4105727494605845e-06 0 -1.3710737026414311e-05 -5.9049146439640978e-06 0 -1.5378294378328836e-05 -7.1618879762053102e-06 0 -1.3710737026414311e-05 -5.9049146439640978e-06 0 -1.3529887484051545e-05 -3.4105727494605845e-06 0 -2.4783489282987342e-05 -1.7407464841534671e-05 0 -2.7001321093251229e-05 -2.1349369945415097e-05 0 -2.4754850818828362e-05 -1.9068460645523036e-05 0 -1.5378294378328836e-05 -7.1618879762053102e-06 0 -1.5310493462156469e-05 -5.755917928879969e-06 0 -1.6710805492080799e-05 -8.4422608981985867e-06 0 -1.0485151656990975e-05 -2.1765624095622782e-05 0 -8.5571860901879449e-06 -1.774889119489245e-05 0 -1.2348580623084064e-05 -2.1323701525187783e-05 0 -2.7222663845418948e-05 -2.4976672442279064e-05 0 -2.5240919760994142e-05 -2.230855289546556e-05 0 -2.6232278805236888e-05 -2.2132019155227833e-05 0 -3.3269882376969813e-05 -1.4268557215598784e-05 0 -3.8477256403354194e-05 -1.9074719516269266e-05 0 -3.2830845265438056e-05 -1.6030507943787994e-05 0 -6.4392837624011252e-05 3.508229095703772e-05 0 -5.442622551487149e-05 2.4430721269822322e-05 0 -5.2466426803158986e-05 2.8518086560903519e-05 0 -4.7395556398416907e-06 -3.6576096502507404e-06 0 -8.989215233915834e-06 -7.4031440583192711e-06 0 -5.4099970303082136e-06 -9.6527863555925545e-06 0 -1.0485151656990975e-05 -2.1765624095622782e-05 0 -1.3675363694914083e-05 -2.5202766131218572e-05 0 -1.1858926680229024e-05 -2.548808318043272e-05 0 -1.8896747218034341e-05 -9.5983766791074513e-06 0 -1.912017690733071e-05 -7.790502212518093e-06 0 -2.3464197436677499e-05 -1.0975685737288078e-05 0 -1.1561784300074547e-06 7.4401137838048283e-07 0 -4.6690975760303903e-07 3.3170078795174229e-07 0 -5.5844339291587437e-07 4.0693642846204581e-07 0 -6.4908684295965743e-06 2.6783690663356947e-06 0 -9.4983838013175802e-06 3.7791682591058189e-06 0 -8.1655034569410187e-06 1.3688950078866719e-06 0 -2.9888039367143079e-06 1.712773356696946e-06 0 -4.9551141213669534e-06 1.4552825674620936e-06 0 -3.8795446464226993e-06 6.1655444912129881e-07 0 -6.72707433806841e-06 7.3219809442055502e-06 0 -9.3255819974715254e-06 3.1338711027090083e-06 0 -8.6875770645999707e-06 3.2573284378874076e-07 0 -9.3380788968978322e-06 -2.126985600956595e-06 0 -7.0998355110081069e-06 -1.1147386848668218e-06 0 -6.7335362090652515e-06 -1.8459644413856072e-06 0 -4.67132669594817e-06 -6.9060612248071457e-07 0 -6.7335362090652515e-06 -1.8459644413856072e-06 0 -7.0998355110081069e-06 -1.1147386848668218e-06 0 -6.3991419238472472e-06 1.9426201998105986e-07 0 -9.7570656958902866e-06 5.6681853339348419e-07 0 -9.5401124668543653e-06 1.6909102862830422e-06 0 -1.3250647335119053e-05 1.8933852756967168e-06 0 -9.5401124668543653e-06 1.6909102862830422e-06 0 -9.7570656958902866e-06 5.6681853339348419e-07 0 -4.8358665961487738e-05 -3.2542068852398204e-05 0 -5.2929802162754333e-05 -4.1248084010755616e-05 0 -4.4674712812117098e-05 -3.5549960660217521e-05 0 -2.0157536050030204e-05 5.5310994655654943e-05 0 -2.7206716829754294e-05 4.0907282088116795e-05 0 -1.7841175133640514e-05 3.8380673206405784e-05 0 -7.7614635193114062e-06 -4.5555170262118701e-05 0 -1.3919648883980979e-05 -4.1393181963949884e-05 0 -1.5326050906680115e-05 -5.277796050936396e-05 0 -1.7961499722083808e-05 -3.1177109846536858e-05 0 -2.0212391021440703e-05 -3.035017130072967e-05 0 -1.9639160531043278e-05 -3.3225835596645995e-05 0 -6.3564785082089923e-06 -4.1285352574435988e-08 0 -8.4813887359193993e-06 -9.6083234294609407e-07 0 -6.527587632971983e-06 -2.0919883404975707e-07 0 -1.044606593309847e-05 -2.0082137116801933e-06 0 -7.719325540806714e-06 6.2171933617689548e-07 0 -8.6019842663457269e-06 -1.4512028340316878e-06 0 -1.546947802080744e-05 -4.0517107979190432e-06 0 -1.2315587409093467e-05 -2.4694685003608465e-06 0 -1.4826951532286263e-05 -3.6231783085475737e-06 0 -1.3101551064727137e-05 0.00010185366016854542 0 3.707185272027331e-06 0.0001092814272103064 0 -5.128888807887997e-06 0.00012278749822622223 0 -8.6642330217323509e-10 2.2354702275465744e-10 0 -9.4112366256118182e-07 6.1526856335632511e-07 0 -5.5844339291587437e-07 4.0693642846204581e-07 0 -2.1569012092836464e-05 -2.0660695869952039e-05 0 -1.9777436354040429e-05 -2.0998984740520031e-05 0 -1.9106333904226706e-05 -1.7401546183224609e-05 0 -4.7395556398416907e-06 -3.6576096502507404e-06 0 -4.830616425039391e-06 7.7273623751123584e-06 0 -8.6875770645999707e-06 3.2573284378874076e-07 0 -9.1098163651780577e-05 8.5692725388230567e-05 0 -8.2868976674490896e-05 6.582895828544551e-05 0 -7.3423013121564333e-05 7.3203669340489552e-05 0 -8.2035411354215773e-07 5.1636506430480814e-07 0 -9.2307278098719948e-07 4.3204301460094306e-07 0 -5.2862009897370986e-07 1.947413614957368e-07 0 -3.2752914711220582e-06 4.2431212261929007e-07 0 -1.5275892050218415e-06 4.6012417791673765e-07 0 -1.5508970458879747e-06 2.7645279300996962e-07 0 -3.7349575524629412e-06 -9.8241584026543893e-07 0 -1.8561346568466347e-06 -6.6305384517594433e-07 0 -1.6500705505053807e-06 -8.0426218991404959e-07 0 -3.3515803811788083e-06 2.3541828291666492e-06 0 -2.8003434348281804e-06 1.8076279646448967e-06 0 -3.7165922920632532e-06 1.4575317821898585e-06 0 -2.8935462144642491e-05 -1.5275100238711098e-05 0 -2.8016756574772633e-05 -1.2262799480317102e-05 0 -3.2830845265438056e-05 -1.6030507943787994e-05 0 -4.3513737095968709e-05 2.745714198788583e-05 0 -5.2466426803158986e-05 2.8518086560903519e-05 0 -4.3162734809737394e-05 2.0793614044791426e-05 0 -1.5048889996202003e-05 0.00017708523446836034 0 -5.8290927364157921e-06 0.00015514190780429679 0 2.7913878247221167e-06 0.00016753361438616056 0 -4.8964522626018648e-05 -8.3036027836256394e-05 0 -5.1502198022222991e-05 -7.2159314014109906e-05 0 -5.660646408292133e-05 -7.9358790533086144e-05 0 -3.2274214206967968e-06 -1.0329473870798775e-05 0 -5.4099970303082136e-06 -9.6527863555925545e-06 0 -7.7504337644962e-06 -1.4412385425237933e-05 0 -1.0507130628555512e-05 7.1462268001457109e-06 0 -1.2072578113859256e-05 1.2368594169103268e-05 0 -1.5679193233948259e-05 9.9701651401124352e-06 0 -9.2408536967948909e-06 -1.1952010296253909e-05 0 -7.7504337644962e-06 -1.4412385425237933e-05 0 -5.4099970303082136e-06 -9.6527863555925545e-06 0 -3.1921461555391908e-06 1.2795823808044145e-06 0 -2.966283905252887e-06 1.1294174445337259e-06 0 -4.1597598165194975e-06 8.5374255665802218e-07 0 -8.526957477046478e-07 1.771383967466499e-07 0 -6.941386640500855e-07 -1.9572679314890414e-07 0 -4.3684827439229789e-07 -2.549287207571601e-09 0 -8.2179391054892814e-06 -1.203418830881221e-06 0 -6.6871126757778382e-06 -5.0876180206662966e-07 0 -6.527587632971983e-06 -2.0919883404975707e-07 0 -7.7122549336643175e-06 5.620337680993665e-06 0 -9.3255819974715254e-06 3.1338711027090083e-06 0 -5.520622239958605e-06 9.5080246620325813e-06 0 -6.72707433806841e-06 7.3219809442055502e-06 0 -5.520622239958605e-06 9.5080246620325813e-06 0 -9.3255819974715254e-06 3.1338711027090083e-06 0 -4.1715551878960286e-05 -6.5372892771771519e-05 0 -5.1502198022222991e-05 -7.2159314014109906e-05 0 -4.4087893431438484e-05 -7.5400321337452337e-05 0 -4.8964522626018648e-05 -8.3036027836256394e-05 0 -4.4087893431438484e-05 -7.5400321337452337e-05 0 -5.1502198022222991e-05 -7.2159314014109906e-05 0 -2.1901941557672523e-05 0.00013963125258616252 0 -5.8290927364157921e-06 0.00015514190780429679 0 -2.322749761577616e-05 0.00016227849536041316 0 -1.5048889996202003e-05 0.00017708523446836034 0 -2.322749761577616e-05 0.00016227849536041316 0 -5.8290927364157921e-06 0.00015514190780429679 0 -2.1901941557672523e-05 0.00013963125258616252 0 -2.2617248767691858e-05 0.00011775891189498919 0 -5.128888807887997e-06 0.00012278749822622223 0 -1.3101551064727137e-05 0.00010185366016854542 0 -5.128888807887997e-06 0.00012278749822622223 0 -2.2617248767691858e-05 0.00011775891189498919 0 -6.8264036495929662e-10 1.6860610366985112e-10 0 -7.3610671193658592e-10 1.9437421320194329e-10 0 -4.6690975760303903e-07 3.3170078795174229e-07 0 -5.2026326679045795e-06 -1.3952951012684968e-05 0 -7.7504337644962e-06 -1.4412385425237933e-05 0 -8.5571860901879449e-06 -1.774889119489245e-05 0 -1.0983142567670327e-05 -1.8265017540765988e-05 0 -8.5571860901879449e-06 -1.774889119489245e-05 0 -7.7504337644962e-06 -1.4412385425237933e-05 0 -4.3707298847195891e-05 -5.0241633994390592e-05 0 -4.6106995648203236e-05 -4.375305999106779e-05 0 -5.0726540593843834e-05 -5.2965799756862838e-05 0 -5.2929802162754333e-05 -4.1248084010755616e-05 0 -4.6106995648203236e-05 -4.375305999106779e-05 0 -4.4674712812117098e-05 -3.5549960660217521e-05 0 -9.1098163651780577e-05 8.5692725388230567e-05 0 -7.3423013121564333e-05 7.3203669340489552e-05 0 -7.4818039624991752e-05 9.2542159758999089e-05 0 -3.0447477974564655e-06 4.7803964793300909e-06 0 -2.975031731686925e-06 6.3543043452626195e-06 0 -2.3497448389160707e-06 5.0594755375392873e-06 0 -2.3518251164234628e-06 7.5118189734563296e-06 0 -2.3497448389160707e-06 5.0594755375392873e-06 0 -2.975031731686925e-06 6.3543043452626195e-06 0 -2.0234743395164804e-06 1.1582414484266431e-06 0 -2.3662883902292924e-06 1.3647869241720617e-06 0 -1.7302621319873037e-06 1.1996856193100659e-06 0 -1.1561784300074547e-06 7.4401137838048283e-07 0 -5.5844339291587427e-07 4.0693642846204581e-07 0 -9.4112366256118182e-07 6.1526856335632511e-07 0 -1.7149874383935961e-05 2.6255545058014214e-06 0 -2.3103320952450783e-05 4.9819338220526217e-06 0 -1.8478306788569905e-05 3.6596428468450995e-06 0 -1.2137189517602931e-05 -2.5914840600892932e-06 0 -1.2651859011725395e-05 -3.3523905810118575e-06 0 -1.5506272442593161e-05 -4.1787953689063581e-06 0 -1.2137189517602931e-05 -2.5914840600892932e-06 0 -1.4826951532286263e-05 -3.6231783085475737e-06 0 -1.2315587409093467e-05 -2.4694685003608465e-06 0 1.7758891268730146e-05 0.0001481000580069582 0 2.7913878247221167e-06 0.00016753361438616056 0 -5.8290927364157921e-06 0.00015514190780429679 0 -6.2090575737918356e-05 -7.2141210801957595e-05 0 -5.660646408292133e-05 -7.9358790533086144e-05 0 -5.1502198022222991e-05 -7.2159314014109906e-05 0 -6.7459037079598043e-10 2.774737574734972e-11 0 -4.3684827439229795e-07 -2.5492872075716262e-09 0 -6.941386640500855e-07 -1.9572679314890414e-07 0 -2.9888039367143079e-06 1.712773356696946e-06 0 -4.2872249415360752e-06 3.0947580913953468e-06 0 -4.9551141213669534e-06 1.4552825674620936e-06 0 -3.1081818598778189e-05 -4.2577003825319621e-05 0 -3.3894412659056419e-05 -3.5720385806692647e-05 0 -3.7243559242906896e-05 -4.2621690949391646e-05 0 -1.2404027985267573e-05 3.1207127137721826e-06 0 -9.4983838013175785e-06 3.7791682591058185e-06 0 -1.4025510873958372e-05 5.8610692337172923e-06 0 -1.3822062607360449e-05 -9.3760111737959241e-06 0 -1.7583326577650062e-05 -1.123155186878782e-05 0 -1.6532841739163641e-05 -1.3599750943792597e-05 0 -2.6093246254138595e-06 3.8013617514740953e-06 0 -2.3497448389160707e-06 5.0594755375392873e-06 0 -2.6815703124760352e-06 5.9225641023154582e-06 0 -4.1341232802006516e-05 8.6737680921654029e-05 0 -5.7025832341668615e-05 9.0239864484101858e-05 0 -4.8672049263918632e-05 7.4081318571972009e-05 0 -2.8935462144642491e-05 -1.5275100238711098e-05 0 -3.5368492999569856e-05 -1.9956610629019496e-05 0 -3.0434419795287979e-05 -1.9581104761877492e-05 0 -4.3513737095968709e-05 2.745714198788583e-05 0 -4.6687184348185394e-05 3.6641843037059382e-05 0 -5.6623231608015342e-05 3.7906705151119285e-05 0 -2.1360534398366991e-05 -3.2643427086890002e-05 0 -2.0161005815548241e-05 -3.5338793601899351e-05 0 -1.9639160531043278e-05 -3.3225835596645995e-05 0 -1.8695661808979001e-05 -3.549146830066996e-05 0 -1.9639160531043278e-05 -3.3225835596645995e-05 0 -2.0161005815548241e-05 -3.5338793601899351e-05 0 -1.546947802080744e-05 -4.0517107979190432e-06 0 -1.2416841408781221e-05 -2.6971386325534746e-06 0 -1.2315587409093467e-05 -2.4694685003608465e-06 0 -9.721810759292763e-06 -1.3899410913018496e-06 0 -1.2315587409093467e-05 -2.4694685003608465e-06 0 -1.2416841408781221e-05 -2.6971386325534746e-06 0 -7.7527714155741866e-06 -1.618466395381524e-06 0 -9.7024103474096107e-06 -3.5016562988985312e-06 0 -8.4022269374445817e-06 -2.5092283233222837e-06 0 -1.849552104882285e-05 -5.363197904226371e-06 0 -2.3184587695919274e-05 -7.9238316691189063e-06 0 -1.9548730579915554e-05 -6.1920353959682086e-06 0 -1.9909910054099924e-05 4.8445080796426737e-06 0 -2.0599373120101324e-05 4.050657289244488e-06 0 -1.5366541896883596e-05 2.7541430846050441e-06 0 -2.3290374626013004e-05 -3.5646862039298604e-05 0 -2.0636144120746923e-05 -3.6957001796092604e-05 0 -2.1889428015473226e-05 -3.4577300144930947e-05 0 -4.1341232802006516e-05 8.6737680921654029e-05 0 -5.1711975001424622e-05 0.00011080981905929415 0 -5.7025832341668615e-05 9.0239864484101858e-05 0 -7.3610671193658592e-10 1.9437421320194329e-10 0 -8.6642330217323509e-10 2.2354702275465744e-10 0 -5.5844339291587437e-07 4.0693642846204581e-07 0 1.7905068365678975e-05 0.00012456181559037595 0 -5.128888807887997e-06 0.00012278749822622223 0 3.707185272027331e-06 0.0001092814272103064 0 -2.4475595248486523e-06 1.183593594707099e-05 0 -1.2753238143343132e-06 1.4456024539817412e-05 0 -2.1014833848623117e-06 1.0442814930887175e-05 0 -4.3513737095968709e-05 2.745714198788583e-05 0 -3.4884175465907104e-05 2.6057813744890527e-05 0 -4.6687184348185394e-05 3.6641843037059382e-05 0 -2.4475595248486523e-06 1.183593594707099e-05 0 -2.9290588027858017e-06 8.7796810632287222e-06 0 -4.4821220059422038e-06 8.8015588271948349e-06 0 -2.4475595248486523e-06 1.183593594707099e-05 0 -2.1014833848623117e-06 1.0442814930887174e-05 0 -2.9290588027858017e-06 8.7796810632287222e-06 0 -1.1241189436670423e-05 -2.3978424452580548e-06 0 -1.4312334553711792e-05 -3.9882480982636966e-06 0 -1.3069134389323174e-05 -4.0918601810168221e-06 0 -5.0051410230049975e-06 3.7664463991074429e-07 0 -6.527587632971983e-06 -2.0919883404975707e-07 0 -6.6871126757778382e-06 -5.0876180206662955e-07 0 -5.9824193408993318e-05 7.2793743107477888e-05 0 -7.4818039624991752e-05 9.2542159758999089e-05 0 -7.3423013121564333e-05 7.3203669340489552e-05 0 -1.1926659476256067e-05 -6.7198333112033758e-06 0 -1.2985015566733449e-05 -5.5550214458567119e-06 0 -1.0648657703469964e-05 -3.941203207496058e-06 0 -7.7122549336643175e-06 5.620337680993665e-06 0 -5.520622239958605e-06 9.5080246620325813e-06 0 -4.4821220059422038e-06 8.8015588271948349e-06 0 -2.1060943961556143e-05 -1.7233955372443296e-05 0 -1.9011801869029484e-05 -1.4119946124400882e-05 0 -2.0233303625065246e-05 -1.3717829205049499e-05 0 -2.8935462144642491e-05 -1.5275100238711098e-05 0 -3.2830845265438056e-05 -1.6030507943787994e-05 0 -3.5368492999569856e-05 -1.9956610629019496e-05 0 -4.3513737095968709e-05 2.745714198788583e-05 0 -5.6623231608015342e-05 3.7906705151119285e-05 0 -5.2466426803158986e-05 2.8518086560903519e-05 0 -7.5608871330803284e-05 0.00017591308702736294 0 -9.1918341963865275e-05 0.0001848314486757149 0 -8.8550120908283234e-05 0.00016366460174735233 0 -2.3291744271955919e-05 -8.0471622102120641e-05 0 -1.7198235765953954e-05 -8.3762851841702064e-05 0 -1.692737101184002e-05 -7.3531034608241265e-05 0 -2.4450612167392642e-05 -2.02099116026759e-05 0 -2.2481008764218715e-05 -1.7305125381957374e-05 0 -2.4754850818828362e-05 -1.9068460645523036e-05 0 -2.3518251164234628e-06 7.5118189734563296e-06 0 -2.6815703124760352e-06 5.9225641023154582e-06 0 -2.3497448389160707e-06 5.0594755375392873e-06 0 -1.0968512415010119e-05 1.4515314175614072e-06 0 -1.5366541896883596e-05 2.7541430846050441e-06 0 -1.3344974539490006e-05 1.2976970188468636e-06 0 -2.2595854539567413e-05 -8.4682090941532255e-06 0 -1.8057612816926419e-05 -5.9493827067977101e-06 0 -1.9548730579915554e-05 -6.1920353959682086e-06 0 -3.3748149322454794e-05 1.3729424130259141e-05 0 -2.7233701016603688e-05 1.2404206952083431e-05 0 -3.391721335295721e-05 1.8749035479902398e-05 0 -1.1410127767348096e-05 -7.5098483381943385e-06 0 -1.3192871606317335e-05 -1.1368739044595856e-05 0 -1.2455882446946123e-05 -9.8885978095461733e-06 0 -1.5953259388898657e-05 -5.5807479175437332e-06 0 -1.8057612816926419e-05 -5.9493827067977101e-06 0 -1.912017690733071e-05 -7.790502212518093e-06 0 -7.7122549336643175e-06 5.620337680993665e-06 0 -6.9636606661470688e-06 4.3254188034163885e-06 0 -1.0245788902136989e-05 1.5515310784230895e-06 0 -6.7459037079598043e-10 2.774737574734972e-11 0 -6.5946847297401964e-10 -3.1932155920935392e-11 0 -4.3684827439229789e-07 -2.549287207571601e-09 0 -2.4491613212439641e-05 -2.3544585284747825e-05 0 -2.5240919760994142e-05 -2.230855289546556e-05 0 -2.7222663845418948e-05 -2.4976672442279064e-05 0 -2.8219568028406431e-05 -1.0733041427997919e-05 0 -2.687294965446892e-05 -1.0359809438805947e-05 0 -2.3184587695919274e-05 -7.9238316691189063e-06 0 -4.5008173268807952e-05 1.6990091142114999e-05 0 -3.5210704152597386e-05 1.173161246636884e-05 0 -4.1827705266359227e-05 1.6534037790883705e-05 0 -3.8717688899185116e-05 -3.4973001915764814e-05 0 -4.4674712812117098e-05 -3.5549960660217521e-05 0 -4.6106995648203236e-05 -4.375305999106779e-05 0 -2.0580128103542056e-05 -1.6139392553856872e-05 0 -2.0071805266068424e-05 -1.9869568705307878e-05 0 -1.6532841739163641e-05 -1.3599750943792597e-05 0 -1.5718743194490379e-05 -1.6449709431799701e-05 0 -1.6532841739163641e-05 -1.3599750943792597e-05 0 -2.0071805266068424e-05 -1.9869568705307878e-05 0 -1.5953259388898657e-05 -5.5807479175437332e-06 0 -1.5559603721861956e-05 -6.4806757111491694e-06 0 -1.3069134389323174e-05 -4.0918601810168221e-06 0 -2.1060943961556143e-05 -1.7233955372443296e-05 0 -2.0233303625065246e-05 -1.3717829205049499e-05 0 -2.2481008764218715e-05 -1.7305125381957374e-05 0 -4.3707298847195891e-05 -5.0241633994390592e-05 0 -3.7227220882571769e-05 -4.9322944013848056e-05 0 -3.7243559242906896e-05 -4.2621690949391646e-05 0 -1.5953259388898657e-05 -5.5807479175437332e-06 0 -1.3069134389323174e-05 -4.0918601810168221e-06 0 -1.4312334553711792e-05 -3.9882480982636966e-06 0 -1.8260299538292629e-05 -1.1193490372627642e-05 0 -2.0233303625065246e-05 -1.3717829205049499e-05 0 -1.9011801869029484e-05 -1.4119946124400882e-05 0 -1.2973317354593842e-06 -3.4334439503205147e-07 0 -1.1764941135154054e-06 4.8343637555487065e-08 0 -1.6816361646489372e-06 -1.048833769828109e-08 0 -3.8477256403354194e-05 -1.9074719516269266e-05 0 -3.5368492999569856e-05 -1.9956610629019496e-05 0 -3.2830845265438056e-05 -1.6030507943787994e-05 0 -6.4392837624011252e-05 3.508229095703772e-05 0 -5.2466426803158986e-05 2.8518086560903519e-05 0 -5.6623231608015342e-05 3.7906705151119285e-05 0 -6.2090575737918356e-05 -7.2141210801957595e-05 0 -5.1502198022222991e-05 -7.2159314014109906e-05 0 -5.5542444669347294e-05 -6.6685042221076532e-05 0 1.7758891268730146e-05 0.0001481000580069582 0 -5.8290927364157921e-06 0.00015514190780429679 0 2.5319700958370874e-07 0.00013848690455684019 0 1.7905068365678975e-05 0.00012456181559037595 0 2.5319700958370874e-07 0.00013848690455684019 0 -5.128888807887997e-06 0.00012278749822622223 0 -6.2090575737918356e-05 -7.2141210801957595e-05 0 -6.3622697735196831e-05 -8.3167754697707186e-05 0 -5.660646408292133e-05 -7.9358790533086144e-05 0 1.7758891268730146e-05 0.0001481000580069582 0 1.6952044677021885e-05 0.00017174624832407465 0 2.7913878247221167e-06 0.00016753361438616056 0 -9.2408536967948909e-06 -1.1952010296253909e-05 0 -8.9892152339158357e-06 -7.4031440583192711e-06 0 -1.1892019096623285e-05 -1.1272175246800722e-05 0 -2.2564901797677585e-05 -1.5928038898064065e-05 0 -2.4754850818828362e-05 -1.9068460645523036e-05 0 -2.2481008764218715e-05 -1.7305125381957374e-05 0 -3.131448404629614e-05 -3.2418358181355812e-05 0 -3.2049478151814418e-05 -3.3907514788456145e-05 0 -3.0647631585927607e-05 -3.1263541495329772e-05 0 -1.1868744123580712e-05 -2.8275024153300602e-05 0 -1.4619283344994408e-05 -3.3152635278246631e-05 0 -1.3547217695688862e-05 -3.183198065758125e-05 0 -4.3513737095968709e-05 2.745714198788583e-05 0 -3.391721335295721e-05 1.8749035479902398e-05 0 -3.4884175465907104e-05 2.6057813744890527e-05 0 -9.721810759292763e-06 -1.3899410913018496e-06 0 -7.7516443436308914e-06 -5.6825284397647235e-07 0 -9.4635561037066008e-06 -1.3245968378675687e-06 0 -1.8792000187656109e-06 1.5900811975642911e-06 0 -2.3662883902292924e-06 1.3647869241720617e-06 0 -2.8003434348281804e-06 1.8076279646448967e-06 0 -6.6641637208715874e-05 0.00010742241166191419 0 -5.7025832341668615e-05 9.0239864484101858e-05 0 -5.1711975001424622e-05 0.00011080981905929415 0 -2.039977832788512e-05 -4.7833459922334966e-05 0 -1.5326050906680115e-05 -5.277796050936396e-05 0 -1.3919648883980979e-05 -4.1393181963949884e-05 0 -8.526957477046478e-07 1.771383967466499e-07 0 -4.3684827439229789e-07 -2.549287207571601e-09 0 -5.2862009897370986e-07 1.947413614957368e-07 0 -1.8896747218034341e-05 -9.5983766791074513e-06 0 -1.4714637454951983e-05 -7.7138142989438723e-06 0 -1.5559603721861956e-05 -6.4806757111491694e-06 0 1.7326489367678162e-05 0.00010142675652573938 0 1.7905068365678978e-05 0.00012456181559037595 0 3.707185272027331e-06 0.0001092814272103064 0 -3.2043490213402411e-06 -6.814638118107347e-07 0 -3.3372927444812639e-06 -1.6246674072219925e-07 0 -4.5922872318469237e-06 -4.8150101809162054e-07 0 -9.2408536967948909e-06 -1.1952010296253909e-05 0 -1.1892019096623285e-05 -1.1272175246800722e-05 0 -1.1272862558240502e-05 -1.5352138974595092e-05 0 -1.3999938298901679e-05 -1.5434501926939388e-05 0 -1.1272862558240502e-05 -1.5352138974595092e-05 0 -1.1892019096623285e-05 -1.1272175246800722e-05 0 -2.8714839543535392e-05 -3.0339616939749994e-05 0 -2.9612893469327143e-05 -2.9482698120490565e-05 0 -3.0647631585927607e-05 -3.1263541495329772e-05 0 -3.131448404629614e-05 -3.2418358181355812e-05 0 -3.0647631585927607e-05 -3.1263541495329772e-05 0 -2.9612893469327143e-05 -2.9482698120490565e-05 0 -1.1868744123580712e-05 -2.8275024153300602e-05 0 -1.4124294101097136e-05 -3.050218373614567e-05 0 -1.4619283344994408e-05 -3.3152635278246631e-05 0 -1.6208939243775266e-05 -3.4657993647907929e-05 0 -1.4619283344994408e-05 -3.3152635278246631e-05 0 -1.4124294101097136e-05 -3.050218373614567e-05 0 -3.0447477974564655e-06 4.7803964793300909e-06 0 -2.5740489406459108e-06 3.5730203673591579e-06 0 -4.0678114816042249e-06 3.3678292061582592e-06 0 -4.7395556398416907e-06 -3.6576096502507404e-06 0 -8.6875770645999707e-06 3.2573284378874076e-07 0 -8.9892152339158357e-06 -7.4031440583192711e-06 0 -1.1996311478897355e-05 -4.7745011939101515e-06 0 -8.9892152339158357e-06 -7.403144058319272e-06 0 -8.6875770645999707e-06 3.2573284378874076e-07 0 -4.3707298847195891e-05 -5.0241633994390592e-05 0 -5.0726540593843834e-05 -5.2965799756862838e-05 0 -4.88230002889731e-05 -6.0608685000759077e-05 0 -1.546947802080744e-05 -4.0517107979190432e-06 0 -1.8057612816926419e-05 -5.9493827067977101e-06 0 -1.4312334553711792e-05 -3.9882480982636966e-06 0 -1.5953259388898657e-05 -5.5807479175437332e-06 0 -1.4312334553711792e-05 -3.9882480982636966e-06 0 -1.8057612816926419e-05 -5.9493827067977101e-06 0 -1.291103345448197e-05 -1.3557415409135842e-05 0 -1.8162707321690331e-05 -1.1205940522431282e-05 0 -1.6871175836470155e-05 -1.0085776900262539e-05 0 -2.7699698746630218e-05 -2.7368123951499648e-05 0 -2.9612893469327143e-05 -2.9482698120490565e-05 0 -2.7315156844834841e-05 -2.8599145394397807e-05 0 -1.4525313067185786e-05 -2.8252790512930594e-05 0 -1.6210906179263245e-05 -3.1335535240868056e-05 0 -1.4124294101097136e-05 -3.050218373614567e-05 0 -3.1921461555391908e-06 1.2795823808044145e-06 0 -2.80034343482818e-06 1.8076279646448967e-06 0 -2.3662883902292924e-06 1.3647869241720617e-06 0 -2.0636144120746923e-05 -3.6957001796092604e-05 0 -2.0161005815548241e-05 -3.5338793601899351e-05 0 -2.1889428015473226e-05 -3.4577300144930947e-05 0 -3.0096008543048737e-06 1.0076216728886093e-06 0 -2.0886615668658389e-06 1.0624607858071849e-06 0 -1.9886771732319945e-06 9.7261581045490792e-07 0 -1.8260299538292629e-05 -1.1193490372627642e-05 0 -1.6710805492080799e-05 -8.4422608981985867e-06 0 -1.8023479799180526e-05 -9.3264599795085554e-06 0 -8.526957477046478e-07 1.771383967466499e-07 0 -1.1409764412914263e-06 4.6724359221710492e-07 0 -1.1764941135154054e-06 4.8343637555487032e-08 0 -3.9746699852036405e-05 0.00012136073011582472 0 -3.2311821444523143e-05 0.00010342601479247505 0 -2.2617248767691858e-05 0.00011775891189498919 0 -4.130782583998156e-05 0.00016175837454754266 0 -2.322749761577616e-05 0.00016227849536041314 0 -3.1279554742382893e-05 0.00017697298844476057 0 -3.6451595303456914e-05 -7.5576371835106633e-05 0 -4.4087893431438484e-05 -7.5400321337452337e-05 0 -4.1762373445750842e-05 -8.2545423847669273e-05 0 3.3371360107203022e-06 2.189469489402398e-05 0 -4.830616425039391e-06 7.7273623751123584e-06 0 2.1589935211391549e-06 1.727160236990765e-06 0 -8.526957477046478e-07 1.771383967466499e-07 0 -5.2862009897370986e-07 1.947413614957368e-07 0 -9.2307278098719948e-07 4.3204301460094306e-07 0 -5.9745438999009241e-05 -6.1328577851253887e-05 0 -5.5542444669347294e-05 -6.6685042221076532e-05 0 -4.88230002889731e-05 -6.0608685000759077e-05 0 -6.4638788070993771e-05 -0.00012370376773553039 0 -5.8310929439667586e-05 -0.00011834918820254381 0 -6.4686351945894503e-05 -0.00011423128113920907 0 8.8331578934794156e-06 0.00026167879051117128 0 -2.5880108597901019e-06 0.00025432478785941107 0 1.1038449840954103e-05 0.00024193127116901262 0 8.8331578934794156e-06 0.00026167879051117128 0 -9.1835305508359761e-06 0.00026609384859672177 0 -2.5880108597901036e-06 0.00025432478785941107 0 -1.5668365819209638e-05 -0.00012090994163665769 0 -2.0072210633488966e-05 -0.00011820944220475404 0 -2.2690951721458652e-05 -0.00012313423614148644 0 -0.00010942580743773476 0.00026807913307525948 0 -0.00010949596387216036 0.00024653148493196424 0 -9.5032545840134005e-05 0.00025588592950744147 0 -6.4638788070993771e-05 -0.00012370376773553039 0 -5.518506657102874e-05 -0.00012364874846076815 0 -5.8310929439667586e-05 -0.00011834918820254381 0 -1.5668365819209638e-05 -0.00012090994163665769 0 -1.4379870505957713e-05 -0.00011231855832006075 0 -2.0072210633488966e-05 -0.00011820944220475404 0 -0.00010942580743773476 0.00026807913307525948 0 -9.5032545840134005e-05 0.00025588592950744147 0 -8.7896209399163645e-05 0.0002679973986939411 0 -6.5946847297409967e-10 -3.1932155920935851e-11 0 -5.2862009897370986e-07 1.947413614957368e-07 0 -4.3684827439229789e-07 -2.549287207571601e-09 0 -2.1060943961556143e-05 -1.7233955372443296e-05 0 -1.9106333904226706e-05 -1.7401546183224609e-05 0 -1.9011801869029484e-05 -1.4119946124400882e-05 0 -1.5953259388898657e-05 -5.5807479175437332e-06 0 -1.912017690733071e-05 -7.790502212518093e-06 0 -1.5559603721861956e-05 -6.4806757111491694e-06 0 -4.3707298847195891e-05 -5.0241633994390592e-05 0 -4.0646743759339771e-05 -5.6083938740611366e-05 0 -3.7227220882571769e-05 -4.9322944013848056e-05 0 -2.3846548911550491e-06 3.3041779900906725e-07 0 -3.8795446464226993e-06 6.1655444912129881e-07 0 -3.3372927444812639e-06 -1.6246674072219925e-07 0 -4.5185691552556704e-05 0.00019027005456634773 0 -5.9873026601150903e-05 0.00020417734605956034 0 -6.0198552996956422e-05 0.00018283829218196211 0 -3.6610833403983246e-05 -8.8390674891620846e-05 0 -3.137292340033853e-05 -9.4791687377404312e-05 0 -3.0031662585563287e-05 -8.4823783110608367e-05 0 -2.9704031759043094e-05 -2.8068409236370424e-05 0 -3.0625639175889041e-05 -3.0488949985590054e-05 0 -2.9083743875873188e-05 -2.7884365347599595e-05 0 -8.7059456729117831e-06 -2.0894798017658472e-05 0 -1.1858926680229026e-05 -2.548808318043272e-05 0 -1.0388895803147329e-05 -2.4659216357483421e-05 0 -6.9684412280321509e-07 -5.7316435848626641e-06 0 -5.4099970303082136e-06 -9.6527863555925545e-06 0 -3.2274214206967968e-06 -1.0329473870798775e-05 0 -1.8896747218034341e-05 -9.5983766791074513e-06 0 -1.5559603721861956e-05 -6.4806757111491694e-06 0 -1.912017690733071e-05 -7.790502212518093e-06 0 -2.7001321093251229e-05 -2.1349369945415097e-05 0 -2.8573222849777622e-05 -2.4935134078703981e-05 0 -2.6232278805236888e-05 -2.2132019155227833e-05 0 -5.2026326679045795e-06 -1.3952951012684968e-05 0 -8.5571860901879449e-06 -1.774889119489245e-05 0 -7.0703388592831236e-06 -1.7406840132623882e-05 0 -3.1081818598778189e-05 -4.2577003825319621e-05 0 -2.5940996135458373e-05 -4.5406630330068487e-05 0 -2.5275689736518864e-05 -3.6082926482604873e-05 0 -1.8792000187656109e-06 1.5900811975642911e-06 0 -1.7302621319873037e-06 1.1996856193100657e-06 0 -2.3662883902292924e-06 1.3647869241720617e-06 0 -2.3291744271955919e-05 -8.0471622102120641e-05 0 -2.8847244442301856e-05 -7.3782099967866009e-05 0 -3.0031662585563287e-05 -8.4823783110608367e-05 0 -7.5608871330803284e-05 0.00017591308702736294 0 -5.9086444695933699e-05 0.00016197538545375623 0 -6.0198552996956422e-05 0.00018283829218196211 0 -1.0983142567670327e-05 -1.8265017540765988e-05 0 -7.7504337644962e-06 -1.4412385425237933e-05 0 -1.1272862558240502e-05 -1.5352138974595092e-05 0 -9.2408536967948909e-06 -1.1952010296253909e-05 0 -1.1272862558240502e-05 -1.5352138974595092e-05 0 -7.7504337644962e-06 -1.4412385425237933e-05 0 -5.0051410230049975e-06 3.7664463991074429e-07 0 -4.9017562212276339e-06 4.3780398361140375e-07 0 -6.527587632971983e-06 -2.0919883404975707e-07 0 -2.0580128103542056e-05 -1.6139392553856872e-05 0 -1.6532841739163641e-05 -1.3599750943792595e-05 0 -1.7583326577650062e-05 -1.123155186878782e-05 0 -1.8686784565447708e-05 -3.5881824110615583e-05 0 -1.3110422184784289e-05 -3.16143969198648e-05 0 -1.6273400958104258e-05 -2.4252994291108588e-05 0 -1.7502399636821759e-05 -1.3985189727392267e-05 0 -1.9011801869029484e-05 -1.4119946124400882e-05 0 -1.9106333904226706e-05 -1.7401546183224609e-05 0 -9.4921241323947911e-06 -2.5718269625306159e-05 0 -1.3110422184784289e-05 -3.16143969198648e-05 0 -8.0433825737585605e-06 -3.5393019240053674e-05 0 -1.0485151656990975e-05 -2.1765624095622782e-05 0 -1.2348580623084064e-05 -2.1323701525187783e-05 0 -1.3675363694914083e-05 -2.5202766131218572e-05 0 -1.5046193305744653e-05 -2.3685898100484881e-05 0 -1.3675363694914083e-05 -2.5202766131218572e-05 0 -1.2348580623084064e-05 -2.1323701525187783e-05 0 -7.0495035953181816e-06 -5.6725628546083334e-07 0 -9.1918268689529369e-06 -1.5376262600970061e-06 0 -9.4635561037066008e-06 -1.3245968378675687e-06 0 -9.0595116385456285e-06 -2.8606251996065868e-06 0 -1.0648657703469964e-05 -3.941203207496058e-06 0 -8.6019842663457269e-06 -1.4512028340316878e-06 0 -1.044606593309847e-05 -2.0082137116801933e-06 0 -8.6019842663457269e-06 -1.4512028340316878e-06 0 -1.0648657703469964e-05 -3.941203207496058e-06 0 -2.4475595248486523e-06 1.183593594707099e-05 0 -5.520622239958605e-06 9.5080246620325813e-06 0 -2.3537973896480268e-06 1.5091580585478045e-05 0 -6.72707433806841e-06 7.3219809442055502e-06 0 -2.3537973896480268e-06 1.5091580585478045e-05 0 -5.520622239958605e-06 9.5080246620325813e-06 0 1.7905068365678975e-05 0.00012456181559037595 0 1.7758891268730146e-05 0.0001481000580069582 0 2.5319700958370874e-07 0.00013848690455684019 0 -4.6288307149870423e-06 7.064438403628801e-06 0 -2.975031731686925e-06 6.3543043452626195e-06 0 -4.3035585572813717e-06 5.1863381807007519e-06 0 -5.9745438999009241e-05 -6.1328577851253887e-05 0 -6.2090575737918356e-05 -7.2141210801957595e-05 0 -5.5542444669347294e-05 -6.6685042221076532e-05 0 -6.3564785082089923e-06 -4.1285352574435988e-08 0 -6.527587632971983e-06 -2.0919883404975707e-07 0 -4.9017562212276339e-06 4.3780398361140375e-07 0 -9.0298465094737993e-06 -6.8224101523279007e-08 0 -7.045198018997489e-06 -3.0991715525268535e-07 0 -5.9573843613325251e-06 -7.2754357617027407e-07 0 -7.0495035953181816e-06 -5.6725628546083334e-07 0 -4.8300037902017911e-06 3.5459944387084002e-08 0 -5.3741833365263969e-06 -3.680162878059102e-07 0 -2.9888039367143079e-06 1.712773356696946e-06 0 -1.9447286213517183e-06 1.3759750893776871e-06 0 -2.248170380066e-06 2.6558698430940933e-06 0 -3.8877473466941847e-06 -1.9713131251772338e-06 0 -3.2632343615297217e-06 -9.1526874517444068e-07 0 -1.6382313215795946e-06 -6.2869392912112996e-07 0 -2.4523227750525898e-09 2.3624121990557874e-10 0 -1.6382313215795946e-06 -6.2869392912112996e-07 0 -3.2632343615297217e-06 -9.1526874517444068e-07 0 -5.3605370141071746e-06 2.3188847013962888e-06 0 -2.2680255575845599e-06 6.5159168319843858e-07 0 -4.5735963474332702e-06 7.6237312031087952e-07 0 -3.5030182667922777e-09 -5.1712723674340168e-10 0 -4.5735963474332702e-06 7.6237312031087952e-07 0 -2.2680255575845599e-06 6.5159168319843858e-07 0 -2.0580128103542056e-05 -1.6139392553856872e-05 0 -2.5622157800066277e-05 -1.8975979340722996e-05 0 -2.4416718668078239e-05 -2.2662964533820792e-05 0 -8.526957477046478e-07 1.771383967466499e-07 0 -9.2307278098719948e-07 4.3204301460094306e-07 0 -1.1409764412914263e-06 4.6724359221710492e-07 0 -1.3101551064727137e-05 0.00010185366016854542 0 2.2916243672918501e-06 9.4319740200706842e-05 0 3.707185272027331e-06 0.0001092814272103064 0 -1.4970072333726617e-05 2.5957775809430138e-05 0 -1.7322526209884539e-05 1.9128126792807194e-05 0 -1.0264226059820221e-05 1.7139276092008722e-05 0 -4.6288307149870423e-06 7.064438403628801e-06 0 -2.9290588027858017e-06 8.7796810632287222e-06 0 -2.975031731686925e-06 6.3543043452626195e-06 0 -2.1954087907049536e-05 -2.7614849331184786e-05 0 -2.0071805266068424e-05 -1.9869568705307878e-05 0 -2.4416718668078239e-05 -2.2662964533820792e-05 0 -6.6817787656504562e-05 0.00026775368924235012 0 -8.7896209399163645e-05 0.0002679973986939411 0 -7.7240944423303477e-05 0.00025701576792112695 0 -2.9837196202142063e-05 -0.00012356793663325323 0 -2.2690951721458652e-05 -0.00012313423614148644 0 -2.6216273804472945e-05 -0.00011931481557734935 0 -9.1835305508359761e-06 0.00026609384859672177 0 -2.7472155321722136e-05 0.00026738344778737543 0 -1.8143683093860331e-05 0.00025697393641145041 0 -5.518506657102874e-05 -0.00012364874846076815 0 -4.6056892231160632e-05 -0.0001235112439328294 0 -5.0541636675566796e-05 -0.00011884557944589737 0 -2.5162766684708955e-05 -2.8487941121399267e-05 0 -2.7315156844834841e-05 -2.8599145394397807e-05 0 -2.6014862058708921e-05 -3.016353645317691e-05 0 -1.7961499722083808e-05 -3.1177109846536858e-05 0 -1.7648406207733731e-05 -3.429689855721181e-05 0 -1.6210906179263245e-05 -3.1335535240868056e-05 0 -4.4701532830694489e-09 -1.9090735189307014e-09 0 -1.6382313215795951e-06 -6.2869392912113006e-07 0 -2.4523227750525898e-09 2.3624121990557874e-10 0 -5.9122939963108048e-09 2.5190764943858198e-09 0 -3.5030182667922777e-09 -5.1712723674340168e-10 0 -2.2680255575845599e-06 6.5159168319843858e-07 0 -5.9122939963108048e-09 2.5190764943858198e-09 0 -2.2680255575845599e-06 6.5159168319843858e-07 0 -5.3605370141071746e-06 2.3188847013962888e-06 0 -4.4701532830694489e-09 -1.9090735189307014e-09 0 -3.8877473466941847e-06 -1.9713131251772338e-06 0 -1.6382313215795946e-06 -6.2869392912112996e-07 0 -2.039977832788512e-05 -4.7833459922334966e-05 0 -2.594099613545837e-05 -4.5406630330068481e-05 0 -2.689251819244574e-05 -5.5590288703835335e-05 0 -8.2179391054892814e-06 -1.203418830881221e-06 0 -1.0287298942222154e-05 -2.3718609723574699e-06 0 -9.0137346988170802e-06 -2.158801810845925e-06 0 -1.8260299538292629e-05 -1.1193490372627642e-05 0 -1.9011801869029484e-05 -1.4119946124400882e-05 0 -1.7082905189009374e-05 -1.0865333918641558e-05 0 -1.7502399636821759e-05 -1.3985189727392267e-05 0 -1.7082905189009374e-05 -1.0865333918641558e-05 0 -1.9011801869029484e-05 -1.4119946124400882e-05 0 -5.0051410230049975e-06 3.7664463991074429e-07 0 -6.6871126757778382e-06 -5.0876180206662955e-07 0 -5.3541577735949097e-06 1.468569707004261e-07 0 -2.0234743395164804e-06 1.1582414484266431e-06 0 -2.0886615668658389e-06 1.0624607858071849e-06 0 -2.966283905252887e-06 1.1294174445337259e-06 0 -3.0096008543048737e-06 1.0076216728886093e-06 0 -2.966283905252887e-06 1.1294174445337259e-06 0 -2.0886615668658389e-06 1.0624607858071849e-06 0 -6.72707433806841e-06 7.3219809442055502e-06 0 -4.830616425039391e-06 7.7273623751123584e-06 0 -2.3537973896480268e-06 1.5091580585478045e-05 0 3.3371360107203022e-06 2.189469489402398e-05 0 -2.3537973896480259e-06 1.5091580585478047e-05 0 -4.830616425039391e-06 7.7273623751123584e-06 0 -2.9425662577612873e-05 -2.3110816822367269e-05 0 -2.4416718668078239e-05 -2.2662964533820792e-05 0 -2.5622157800066277e-05 -1.8975979340722996e-05 0 -1.0983142567670327e-05 -1.8265017540765988e-05 0 -1.2348580623084064e-05 -2.1323701525187783e-05 0 -8.5571860901879449e-06 -1.774889119489245e-05 0 -2.4450612167392642e-05 -2.02099116026759e-05 0 -2.6232278805236888e-05 -2.2132019155227833e-05 0 -2.5240919760994142e-05 -2.230855289546556e-05 0 -3.1921461555391908e-06 1.2795823808044145e-06 0 -3.7165922920632532e-06 1.4575317821898585e-06 0 -2.8003434348281804e-06 1.8076279646448967e-06 0 -1.5048889996202003e-05 0.00017708523446836034 0 2.7913878247221167e-06 0.00016753361438616056 0 7.3695843151928782e-07 0.00018374093028497308 0 -4.8964522626018648e-05 -8.3036027836256394e-05 0 -5.660646408292133e-05 -7.9358790533086144e-05 0 -5.6673942854934912e-05 -8.6971665591796459e-05 0 -1.291103345448197e-05 -1.3557415409135842e-05 0 -1.2455882446946123e-05 -9.8885978095461733e-06 0 -1.3192871606317335e-05 -1.1368739044595856e-05 0 -9.2408536967948909e-06 -1.1952010296253909e-05 0 -5.4099970303082136e-06 -9.6527863555925545e-06 0 -8.9892152339158357e-06 -7.4031440583192711e-06 0 -7.5608871330803284e-05 0.00017591308702736294 0 -8.8550120908283234e-05 0.00016366460174735233 0 -7.2895752872058681e-05 0.00015662360812654293 0 -2.3291744271955919e-05 -8.0471622102120641e-05 0 -1.692737101184002e-05 -7.3531034608241265e-05 0 -2.2708489115113581e-05 -7.1068220954365147e-05 0 -2.039977832788512e-05 -4.7833459922334966e-05 0 -2.1411528273420931e-05 -5.6724099391748169e-05 0 -1.5326050906680115e-05 -5.277796050936396e-05 0 -2.394031543821551e-05 -2.6243173204263827e-05 0 -2.3375436976223847e-05 -2.801847615324036e-05 0 -2.19274776909057e-05 -2.6168297384358628e-05 0 -1.4525313067185786e-05 -2.8252790512930594e-05 0 -1.1858926680229024e-05 -2.548808318043272e-05 0 -1.3675363694914083e-05 -2.5202766131218572e-05 0 -6.4908684295965743e-06 2.6783690663356947e-06 0 -4.9551141213669534e-06 1.4552825674620936e-06 0 -4.2872249415360752e-06 3.094758091395346e-06 0 -2.1360534398366991e-05 -3.2643427086890002e-05 0 -1.9639160531043278e-05 -3.3225835596645995e-05 0 -2.0212391021440703e-05 -3.035017130072967e-05 0 -6.3564785082089923e-06 -4.1285352574435988e-08 0 -4.9017562212276339e-06 4.3780398361140375e-07 0 -4.8805471583200009e-06 3.9653499400503596e-07 0 -3.7381117541043349e-06 6.844445607900013e-07 0 -4.8805471583200009e-06 3.9653499400503596e-07 0 -4.9017562212276339e-06 4.3780398361140375e-07 0 -6.3637196431801884e-06 4.2497070058838765e-07 0 -7.5721263545244375e-06 -1.1891094630451935e-06 0 -8.6019842663457269e-06 -1.4512028340316878e-06 0 -2.0580128103542056e-05 -1.6139392553856872e-05 0 -2.4416718668078239e-05 -2.2662964533820792e-05 0 -2.0071805266068424e-05 -1.9869568705307878e-05 0 -5.0051410230049975e-06 3.7664463991074429e-07 0 -5.3541577735949097e-06 1.468569707004261e-07 0 -3.9719202542301075e-06 7.175312241370316e-07 0 -4.4765917221606456e-06 5.653440271715471e-07 0 -3.9719202542301075e-06 7.175312241370316e-07 0 -5.3541577735949097e-06 1.468569707004261e-07 0 -6.6871126757778382e-06 -5.0876180206662955e-07 0 -6.0126742573099126e-06 -3.109706409814218e-07 0 -5.3541577735949097e-06 1.468569707004261e-07 0 -2.4179742560048176e-05 -3.2218331992973425e-05 0 -2.6014862058708921e-05 -3.016353645317691e-05 0 -2.6914076727425185e-05 -3.2142282209462421e-05 0 -2.8714839543535392e-05 -3.0339616939749994e-05 0 -2.6914076727425181e-05 -3.2142282209462421e-05 0 -2.6014862058708921e-05 -3.016353645317691e-05 0 -1.6208939243775266e-05 -3.4657993647907929e-05 0 -1.7648406207733731e-05 -3.429689855721181e-05 0 -1.738366578357896e-05 -3.7471345502296011e-05 0 -1.8695661808979001e-05 -3.549146830066996e-05 0 -1.738366578357896e-05 -3.7471345502296011e-05 0 -1.7648406207733731e-05 -3.429689855721181e-05 0 -6.72707433806841e-06 7.3219809442055502e-06 0 -8.6875770645999707e-06 3.257328437887407e-07 0 -4.830616425039391e-06 7.7273623751123584e-06 0 -1.0724916761096025e-05 0.00024373416857054083 0 -1.8143683093860331e-05 0.00025697393641145041 0 -2.898278666985041e-05 0.00024882289669594823 0 -5.3984412681307187e-05 -0.00011305568975823857 0 -5.0541636675566796e-05 -0.00011884557944589737 0 -4.5297960945945128e-05 -0.00011511876474179505 0 -2.3253548194781035e-05 -0.00011347351245418731 0 -3.0492524637140489e-05 -0.0001156706854812865 0 -2.6216273804472945e-05 -0.00011931481557734935 0 -8.5226562777738636e-05 0.0002439024739734513 0 -6.5037302625875959e-05 0.0002484121687931259 0 -7.7240944423303477e-05 0.00025701576792112695 0 -7.5608871330803284e-05 0.00017591308702736294 0 -7.2895752872058681e-05 0.00015662360812654293 0 -5.9086444695933699e-05 0.00016197538545375623 0 -2.3291744271955919e-05 -8.0471622102120641e-05 0 -2.2708489115113581e-05 -7.1068220954365147e-05 0 -2.8847244442301856e-05 -7.3782099967866009e-05 0 -2.039977832788512e-05 -4.7833459922334966e-05 0 -2.689251819244574e-05 -5.5590288703835335e-05 0 -2.1411528273420934e-05 -5.6724099391748169e-05 0 -9.0595116385456285e-06 -2.8606251996065868e-06 0 -8.6019842663457269e-06 -1.4512028340316878e-06 0 -7.5721263545244375e-06 -1.1891094630451935e-06 0 -2.7472155321722136e-05 0.00026738344778737543 0 -2.898278666985041e-05 0.00024882289669594823 0 -1.8143683093860331e-05 0.00025697393641145041 0 -4.6056892231160632e-05 -0.0001235112439328294 0 -4.5297960945945128e-05 -0.00011511876474179505 0 -5.0541636675566796e-05 -0.00011884557944589737 0 -6.6817787656504562e-05 0.00026775368924235012 0 -7.7240944423303477e-05 0.00025701576792112695 0 -6.5037302625875959e-05 0.0002484121687931259 0 -2.9837196202142063e-05 -0.00012356793663325323 0 -2.6216273804472945e-05 -0.00011931481557734937 0 -3.0492524637140489e-05 -0.0001156706854812865 0 -2.1727925508193325e-05 -2.8387382113951525e-05 0 -2.19274776909057e-05 -2.6168297384358628e-05 0 -2.3375436976223847e-05 -2.801847615324036e-05 0 -9.4921241323947911e-06 -2.5718269625306159e-05 0 -1.6273400958104258e-05 -2.4252994291108588e-05 0 -1.3110422184784289e-05 -3.16143969198648e-05 0 -3.2049478151814418e-05 -3.3907514788456145e-05 0 -3.0556385830890143e-05 -3.2005414127814312e-05 0 -3.0647631585927607e-05 -3.1263541495329772e-05 0 -1.3547217695688862e-05 -3.183198065758125e-05 0 -1.4619283344994408e-05 -3.3152635278246631e-05 0 -1.5876940764442857e-05 -3.6471472316761782e-05 0 -2.0234743395164804e-06 1.1582414484266431e-06 0 -1.4634081245297482e-06 8.9634518286241104e-07 0 -2.0886615668658389e-06 1.0624607858071849e-06 0 -8.2066188404654125e-05 0.00014134838541081442 0 -8.3006149684724262e-05 0.00012004894427834428 0 -6.8439543160939226e-05 0.00012386578458284335 0 -6.6641637208715874e-05 0.00010742241166191419 0 -6.8439543160939226e-05 0.00012386578458284335 0 -8.3006149684724262e-05 0.00012004894427834428 0 -2.0108486971358865e-05 -2.3940099016035095e-05 0 -2.2221758921530809e-05 -2.3834676951322244e-05 0 -2.19274776909057e-05 -2.6168297384358628e-05 0 -5.6493514560694124e-06 -5.4953696607137536e-10 0 -6.0126742573099126e-06 -3.109706409814218e-07 0 -6.9398890411326477e-06 -1.1059390054518618e-06 0 -1.8260299538292629e-05 -1.1193490372627642e-05 0 -1.7082905189009374e-05 -1.0865333918641558e-05 0 -1.6710805492080799e-05 -8.4422608981985867e-06 0 -1.5378294378328836e-05 -7.1618879762053102e-06 0 -1.6710805492080799e-05 -8.4422608981985867e-06 0 -1.7082905189009374e-05 -1.0865333918641558e-05 0 -5.95258536501573e-05 0.00014050479325816422 0 -5.9086444695933699e-05 0.00016197538545375623 0 -7.2895752872058681e-05 0.00015662360812654293 0 -2.6433561406910803e-05 -6.4188088610890519e-05 0 -2.8847244442301856e-05 -7.3782099967866009e-05 0 -2.2708489115113581e-05 -7.1068220954365147e-05 0 -2.6433561406910803e-05 -6.4188088610890519e-05 0 -2.1411528273420934e-05 -5.6724099391748169e-05 0 -2.689251819244574e-05 -5.5590288703835335e-05 0 -4.67132669594817e-06 -6.9060612248071457e-07 0 -7.0998355110081077e-06 -1.114738684866822e-06 0 -5.3741833365263969e-06 -3.680162878059102e-07 0 -6.3991419238472472e-06 1.9426201998105986e-07 0 -7.045198018997489e-06 -3.0991715525268535e-07 0 -9.7570656958902866e-06 5.6681853339348419e-07 0 -1.3250647335119053e-05 1.8933852756967168e-06 0 -9.7570656958902866e-06 5.6681853339348419e-07 0 -1.2515335132861694e-05 1.0849103425120429e-06 0 -9.3380788968978322e-06 -2.126985600956595e-06 0 -9.1918268689529369e-06 -1.5376262600970061e-06 0 -7.0998355110081069e-06 -1.1147386848668218e-06 0 -7.6965126385474571e-06 -1.7416711119248892e-06 0 -7.5721263545244375e-06 -1.1891094630451935e-06 0 -6.3684868801399493e-06 -3.17250019985537e-07 0 -8.2066188404654125e-05 0.00014134838541081442 0 -7.2895752872058681e-05 0.00015662360812654293 0 -8.8550120908283234e-05 0.00016366460174735233 0 -1.7725291792142508e-05 -6.323726684312662e-05 0 -2.2708489115113581e-05 -7.1068220954365147e-05 0 -1.692737101184002e-05 -7.3531034608241265e-05 0 -1.7725291792142508e-05 -6.323726684312662e-05 0 -1.5326050906680115e-05 -5.277796050936396e-05 0 -2.1411528273420934e-05 -5.6724099391748169e-05 0 -3.1081818598778189e-05 -4.2577003825319621e-05 0 -3.7243559242906896e-05 -4.2621690949391646e-05 0 -3.7227220882571769e-05 -4.9322944013848056e-05 0 -2.394031543821551e-05 -2.6243173204263827e-05 0 -2.19274776909057e-05 -2.6168297384358628e-05 0 -2.2221758921530809e-05 -2.3834676951322244e-05 0 -6.4908684295965743e-06 2.6783690663356947e-06 0 -6.7180981629432085e-06 4.7850994504741051e-06 0 -9.4983838013175802e-06 3.7791682591058189e-06 0 -9.7622549806194897e-06 -4.3784387324460126e-06 0 -8.4022269374445817e-06 -2.5092283233222837e-06 0 -9.7024103474096107e-06 -3.5016562988985312e-06 0 -7.0495035953181816e-06 -5.6725628546083334e-07 0 -9.4635561037066025e-06 -1.3245968378675689e-06 0 -7.7516443436308914e-06 -5.6825284397647235e-07 0 -5.9824193408993318e-05 7.2793743107477888e-05 0 -4.8672049263918632e-05 7.4081318571972009e-05 0 -5.7025832341668615e-05 9.0239864484101858e-05 0 -3.8717688899185116e-05 -3.4973001915764814e-05 0 -3.7243559242906896e-05 -4.2621690949391646e-05 0 -3.3894412659056419e-05 -3.5720385806692647e-05 0 -1.5048889996202003e-05 0.00017708523446836034 0 -3.1279554742382893e-05 0.00017697298844476057 0 -2.322749761577616e-05 0.00016227849536041316 0 -4.8964522626018648e-05 -8.3036027836256394e-05 0 -4.1762373445750842e-05 -8.2545423847669273e-05 0 -4.4087893431438484e-05 -7.5400321337452337e-05 0 -1.3101551064727137e-05 0.00010185366016854542 0 -2.2617248767691858e-05 0.00011775891189498919 0 -3.2311821444523143e-05 0.00010342601479247505 0 -1.1241189436670423e-05 -2.3978424452580548e-06 0 -1.2416841408781221e-05 -2.6971386325534741e-06 0 -1.4312334553711792e-05 -3.9882480982636966e-06 0 -7.7527714155741866e-06 -1.618466395381524e-06 0 -6.9398890411326477e-06 -1.1059390054518618e-06 0 -6.0126742573099126e-06 -3.109706409814218e-07 0 -3.3722836370825278e-05 -5.5561670341142945e-05 0 -3.7227220882571769e-05 -4.9322944013848056e-05 0 -4.0646743759339771e-05 -5.6083938740611366e-05 0 -2.8714839543535392e-05 -3.0339616939749994e-05 0 -3.0647631585927607e-05 -3.1263541495329772e-05 0 -3.0556385830890143e-05 -3.2005414127814312e-05 0 -1.6208939243775266e-05 -3.4657993647907929e-05 0 -1.5876940764442857e-05 -3.6471472316761782e-05 0 -1.4619283344994408e-05 -3.3152635278246631e-05 0 -4.4765917221606456e-06 5.653440271715471e-07 0 -5.3541577735949097e-06 1.468569707004261e-07 0 -6.0126742573099126e-06 -3.109706409814218e-07 0 -8.7896209399163645e-05 0.0002679973986939411 0 -9.5032545840134005e-05 0.00025588592950744147 0 -7.7240944423303477e-05 0.00025701576792112695 0 -8.5226562777738636e-05 0.0002439024739734513 0 -7.7240944423303477e-05 0.00025701576792112695 0 -9.5032545840134005e-05 0.00025588592950744147 0 -2.3253548194781035e-05 -0.00011347351245418731 0 -2.6216273804472945e-05 -0.00011931481557734935 0 -2.0072210633488966e-05 -0.00011820944220475404 0 -2.2690951721458652e-05 -0.00012313423614148644 0 -2.0072210633488966e-05 -0.00011820944220475404 0 -2.6216273804472945e-05 -0.00011931481557734935 0 -9.1835305508359761e-06 0.00026609384859672177 0 -1.8143683093860331e-05 0.00025697393641145041 0 -2.5880108597901036e-06 0.00025432478785941107 0 -5.518506657102874e-05 -0.00012364874846076815 0 -5.0541636675566796e-05 -0.00011884557944589737 0 -5.8310929439667586e-05 -0.00011834918820254381 0 -1.0724916761096025e-05 0.00024373416857054083 0 -2.5880108597901036e-06 0.00025432478785941107 0 -1.8143683093860331e-05 0.00025697393641145041 0 -5.3984412681307187e-05 -0.00011305568975823857 0 -5.8310929439667586e-05 -0.00011834918820254381 0 -5.0541636675566796e-05 -0.00011884557944589737 0 -2.0108486971358865e-05 -2.3940099016035095e-05 0 -2.19274776909057e-05 -2.6168297384358628e-05 0 -2.0058975135691199e-05 -2.6576171559683351e-05 0 -2.4491613212439641e-05 -2.3544585284747825e-05 0 -2.3270785559476971e-05 -2.0385900731609906e-05 0 -2.5240919760994142e-05 -2.230855289546556e-05 0 -2.4450612167392642e-05 -2.02099116026759e-05 0 -2.5240919760994142e-05 -2.230855289546556e-05 0 -2.3270785559476971e-05 -2.0385900731609906e-05 0 -2.1727925508193325e-05 -2.8387382113951525e-05 0 -2.3375436976223847e-05 -2.801847615324036e-05 0 -2.323713593357774e-05 -3.0100512989436557e-05 0 -2.5162766684708955e-05 -2.8487941121399267e-05 0 -2.323713593357774e-05 -3.0100512989436557e-05 0 -2.3375436976223847e-05 -2.801847615324036e-05 0 -2.4475595248486523e-06 1.183593594707099e-05 0 -4.4821220059422038e-06 8.8015588271948349e-06 0 -5.520622239958605e-06 9.5080246620325813e-06 0 -1.0507130628555512e-05 7.1462268001457109e-06 0 -1.5679193233948259e-05 9.9701651401124352e-06 0 -1.4025510873958372e-05 5.8610692337172923e-06 0 -1.97793186377084e-05 8.5808571082335669e-06 0 -1.4025510873958372e-05 5.8610692337172923e-06 0 -1.5679193233948259e-05 9.9701651401124352e-06 0 -1.1241189436670423e-05 -2.3978424452580548e-06 0 -1.3069134389323174e-05 -4.0918601810168221e-06 0 -1.0287298942222154e-05 -2.3718609723574699e-06 0 -5.9824193408993318e-05 7.2793743107477888e-05 0 -4.824144015101467e-05 6.0152231254122239e-05 0 -4.8672049263918632e-05 7.4081318571972009e-05 0 -3.6752961372562162e-05 6.2401254961186266e-05 0 -4.8672049263918632e-05 7.4081318571972009e-05 0 -4.824144015101467e-05 6.0152231254122239e-05 0 -4.6288307149870423e-06 7.064438403628801e-06 0 -4.4821220059422038e-06 8.8015588271948349e-06 0 -2.9290588027858017e-06 8.7796810632287222e-06 0 -1.5046193305744653e-05 -2.3685898100484881e-05 0 -1.6074215734014595e-05 -2.7256633343134192e-05 0 -1.3675363694914083e-05 -2.5202766131218572e-05 0 -1.4525313067185786e-05 -2.8252790512930594e-05 0 -1.3675363694914083e-05 -2.5202766131218572e-05 0 -1.6074215734014595e-05 -2.7256633343134192e-05 0 -2.3518251164234628e-06 7.5118189734563296e-06 0 -2.9290588027858017e-06 8.7796810632287222e-06 0 -2.1014833848623117e-06 1.0442814930887175e-05 0 -2.8439655904639318e-05 -3.0587265291846234e-05 0 -3.3401936556709912e-05 -2.973092838355083e-05 0 -3.3894412659056419e-05 -3.5720385806692647e-05 0 -3.8717688899185116e-05 -3.4973001915764814e-05 0 -3.3894412659056419e-05 -3.5720385806692647e-05 0 -3.3401936556709912e-05 -2.973092838355083e-05 0 -3.0447477974564655e-06 4.7803964793300909e-06 0 -4.3035585572813717e-06 5.1863381807007519e-06 0 -2.975031731686925e-06 6.3543043452626195e-06 0 -2.3518251164234628e-06 7.5118189734563296e-06 0 -2.975031731686925e-06 6.3543043452626195e-06 0 -2.9290588027858017e-06 8.7796810632287222e-06 0 -2.4450612167392642e-05 -2.02099116026759e-05 0 -2.4754850818828362e-05 -1.9068460645523036e-05 0 -2.6232278805236888e-05 -2.2132019155227833e-05 0 -7.7527714155741866e-06 -1.618466395381524e-06 0 -8.4022269374445817e-06 -2.5092283233222837e-06 0 -6.9398890411326477e-06 -1.1059390054518618e-06 0 -7.6965126385474571e-06 -1.7416711119248892e-06 0 -6.9398890411326477e-06 -1.1059390054518618e-06 0 -8.4022269374445817e-06 -2.5092283233222837e-06 0 -6.3637196431801884e-06 4.2497070058838765e-07 0 -6.3684868801399493e-06 -3.17250019985537e-07 0 -7.5721263545244375e-06 -1.1891094630451935e-06 0 1.6952044677021885e-05 0.00017174624832407465 0 7.3695843151928761e-07 0.00018374093028497308 0 2.7913878247221167e-06 0.00016753361438616056 0 -6.3622697735196831e-05 -8.3167754697707186e-05 0 -5.6673942854934912e-05 -8.6971665591796445e-05 0 -5.660646408292133e-05 -7.9358790533086144e-05 0 -1.546947802080744e-05 -4.0517107979190432e-06 0 -1.4312334553711792e-05 -3.9882480982636966e-06 0 -1.2416841408781221e-05 -2.6971386325534746e-06 0 -7.3610671193658592e-10 1.9437421320194329e-10 0 -5.5844339291587437e-07 4.0693642846204586e-07 0 -4.6690975760303903e-07 3.3170078795174229e-07 0 1.7326489367678162e-05 0.00010142675652573938 0 3.707185272027331e-06 0.0001092814272103064 0 2.2916243672918505e-06 9.4319740200706842e-05 0 -2.1727925508193325e-05 -2.8387382113951525e-05 0 -2.0058975135691199e-05 -2.6576171559683351e-05 0 -2.19274776909057e-05 -2.6168297384358628e-05 0 -1.2404027985267573e-05 3.1207127137721826e-06 0 -1.4025510873958372e-05 5.8610692337172914e-06 0 -1.7547347216371547e-05 5.3532631207467206e-06 0 -1.97793186377084e-05 8.5808571082335669e-06 0 -1.7547347216371543e-05 5.3532631207467206e-06 0 -1.4025510873958372e-05 5.8610692337172923e-06 0 -2.7001321093251229e-05 -2.1349369945415097e-05 0 -2.6232278805236888e-05 -2.2132019155227833e-05 0 -2.4754850818828362e-05 -1.9068460645523036e-05 0 
</DataArray>
</PointData>
<CellData Scalars="region_id,cross_section_updated,displacement_divergence," Vectors="" Tensors="stress,">
<DataArray type="Float64" Name="region_id" format="ascii">
2 2 2 2 2 2 2 2 2 2 3 3 3 3 3 3 3 3 3 3 1 1 1 1 1 1 1 1 1 1 1 1 1 1 1 1 1 1 1 1 1 1 1 1 1 1 1 1 1 1 1 1 1 1 1 1 1 1 1 1 1 1 1 1 1 1 1 1 1 1 1 1 1 1 1 1 1 1 1 1 1 1 1 1 1 1 1 1 1 1 1 1 1 1 1 1 1 1 1 1 1 1 1 1 1 1 1 1 1 1 1 1 1 1 1 1 1 1 1 1 1 1 1 1 1 1 1 1 1 1 1 1 1 1 1 1 1 1 1 1 1 1 1 1 1 1 1 1 1 1 1 1 1 1 1 1 1 1 1 1 1 1 1 1 1 1 1 1 1 1 1 1 1 1 1 1 1 1 1 1 1 1 1 1 1 1 1 1 1 1 1 1 1 1 1 1 1 1 1 1 1 1 1 1 1 1 1 1 1 1 1 1 1 1 1 1 1 1 1 1 1 1 1 1 1 1 1 1 1 1 1 1 1 1 1 1 1 1 1 1 1 1 1 1 1 1 1 1 1 1 1 1 1 1 1 1 1 1 1 1 1 1 1 1 1 1 1 1 1 1 1 1 1 1 1 1 1 1 1 1 1 1 1 1 1 1 1 1 1 1 1 1 1 1 1 1 1 1 1 1 1 1 1 1 1 1 1 1 1 1 1 1 1 1 1 1 1 1 1 1 1 1 1 1 1 1 1 1 1 1 1 1 1 1 1 1 1 1 1 1 1 1 1 1 1 1 1 1 1 1 1 1 1 1 1 1 1 1 1 1 1 1 1 1 1 1 1 1 1 1 1 1 1 1 1 1 1 1 1 1 1 1 1 1 1 1 1 1 1 1 1 1 1 1 1 1 1 1 1 1 1 1 1 1 1 1 1 1 1 1 1 1 1 1 1 1 1 1 1 1 1 1 1 1 1 1 1 1 1 1 1 1 1 1 1 1 1 1 1 1 1 1 1 1 1 1 1 1 1 1 1 1 1 1 1 1 1 1 1 1 1 1 1 1 1 1 1 1 1 1 1 1 1 1 1 1 1 1 1 1 1 1 1 1 1 1 1 1 1 1 1 1 1 1 1 1 1 1 1 1 1 1 1 1 1 1 1 1 1 1 1 1 1 1 1 1 1 1 1 1 1 1 1 1 1 1 1 1 1 1 1 1 1 1 1 1 1 1 1 1 1 1 1 1 1 1 1 1 1 1 1 1 1 1 1 1 1 1 1 1 1 1 1 1 1 1 1 1 1 1 1 1 1 1 1 1 1 1 1 1 1 1 1 1 1 1 1 1 1 1 1 1 1 1 1 1 1 1 1 1 1 1 1 1 1 1 1 1 1 1 1 1 1 1 1 1 1 1 1 1 1 1 1 1 1 1 1 1 1 1 1 1 1 1 1 1 1 1 1 1 1 1 1 1 1 1 1 1 1 1 1 1 1 1 1 1 1 1 1 1 1 1 1 1 1 1 1 1 1 1 1 1 1 1 1 1 1 1 1 1 1 1 1 1 1 1 1 1 1 1 1 1 1 1 1 1 1 1 1 1 1 1 1 1 1 1 1 1 1 1 1 1 1 1 1 1 1 1 1 1 1 1 1 1 1 1 1 1 1 1 1 1 1 1 1 1 1 1 1 1 1 1 1 1 1 1 1 1 1 1 1 1 1 1 1 1 1 1 1 1 1 1 1 1 1 1 1 1 1 1 1 1 1 1 1 1 1 1 1 1 1 1 1 1 1 1 1 1 1 1 1 1 1 1 1 1 1 1 1 1 1 1 1 1 1 1 1 1 1 1 1 1 1 1 1 1 1 1 1 1 1 1 1 1 1 1 1 1 1 1 1 1 1 1 1 1 1 1 1 1 1 1 1 1 1 1 1 1 1 1 1 1 1 1 1 1 1 1 1 1 1 1 1 1 1 1 1 1 1 1 1 1 1 1 1 1 1 1 1 1 1 1 1 1 1 1 1 1 1 1 1 1 1 1 1 1 1 1 1 1 1 1 1 1 1 1 1 1 1 1 1 1 1 1 1 1 1 1 1 1 1 1 1 1 1 1 1 1 1 1 1 1 1 1 1 1 1 1 1 1 1 1 1 1 1 1 1 1 1 1 1 1 1 1 1 1 1 1 1 1 1 1 1 1 1 1 1 1 1 1 1 1 1 1 1 1 1 1 1 1 1 1 1 1 1 1 1 1 1 1 1 1 1 1 1 1 1 1 1 1 1 1 1 1 1 1 1 1 1 1 1 1 1 1 1 1 1 1 1 1 1 1 1 1 1 1 1 1 1 1 1 1 1 1 1 1 1 1 1 1 1 1 1 1 1 1 1 1 1 1 1 1 1 1 
</DataArray>
<DataArray type="Float64" Name="stress" NumberOfComponents="9" format="ascii">
0.0028786828480722184 -0.0017752472437264557 0 -0.0017752472437264557 0.0086994698042240064 0 0 0 0.0028945381630740567 0.0071888037608841713 -0.0045331187302486819 0 -0.0045331187302486819 0.021641254776421107 0 0 0 0.007207514634326318 0.0099110614802181835 -0.0062109945270038295 0 -0.0062109945270038295 0.029820874718977323 0 0 0 0.0099329840497988774 0.012557114023516615 -0.007256755302663535 0 -0.007256755302663535 0.037752946118656379 0 0 0 0.01257751503554325 0.015377220847975553 -0.0078292299127950687 0 -0.0078292299127950687 0.046205072820279761 0 0 0 0.015395573417063831 0.018514218200560279 -0.0080345364719216789 0 -0.0080345364719216789 0.055614525324499578 0 0 0 0.018532185881264963 0.022014147427618088 -0.0079409629292814966 0 -0.0079409629292814966 0.066121403581683669 0 0 0 0.02203388775232544 0.025650719546547313 -0.0076632218861158521 0 -0.0076632218861158521 0.077036346113971005 0 0 0 0.025671766415129579 0.029395258407567064 -0.0072947356120002822 0 -0.0072947356120002822 0.088239313118553306 0 0 0 0.029408642881530094 0.032720104201308893 -0.0069524194232289289 0 -0.0069524194232289289 0.098343338189261637 0 0 0 0.032765860597642638 0.0053892040546346109 0.0011154317371186613 0 0.0011154317371186613 0.015943815599266543 0 0 0 0.0053332549134752893 0.013753733911306864 0.0026986382162985855 0 0.0026986382162985855 0.041282118066968368 0 0 0 0.013758962994568807 0.019618798669714863 0.0037674987607587765 0 0.0037674987607587765 0.058891386844459541 0 0 0 0.019627546378543602 0.025005844430578093 0.0044383622893656317 0 0.0044383622893656317 0.075074214010085794 0 0 0 0.02502001461016597 0.030373704543334986 0.0048751223332299644 0 0.0048751223332299644 0.091197012112483142 0 0 0 0.030392679163954533 0.035778905319489518 0.0051336389896286571 0 0.0051336389896286571 0.10743242030151391 0 0 0 0.035802831405250854 0.041280511573947042 0.005207181475628128 0 0.005207181475628128 0.12395049170725878 0 0 0 0.041307750820301449 0.046672413086502884 0.0051864453827256225 0 0.0051864453827256225 0.14020520385804355 0 0 0 0.046719404236136609 0.052085523981823555 0.0050281630029840787 0 0.0050281630029840787 0.15619373248542792 0 0 0 0.052069814116812871 0.056688697637964421 0.0049158901222413239 0 0.0049158901222413239 0.17102393239592342 0 0 0 0.056928157508471966 -0.030848910646686857 -0.0092855283329077165 0 -0.0092855283329077165 0.017142917157578486 0 0 0 -0.0034264983722770842 -0.027352435693828767 -0.0095181207924787421 0 -0.0095181207924787421 0.030915238365337758 0 0 0 0.00089070066787724084 -0.046318574170497478 -0.0076725069119938372 0 -0.0076725069119938372 0.026575548457181325 0 0 0 -0.0049357564283290661 -0.04616624252080876 3.3689531654140792e-05 0 3.3689531654140792e-05 0.028173602312173224 0 0 0 -0.0044981600521588685 -0.10409579017260369 -0.0044360817679326807 0 -0.0044360817679326807 0.0017410591131227782 0 0 0 -0.025588682764870224 -0.073021246876620566 0.00095189519915197911 0 0.00095189519915197911 0.00027383527546309618 0 0 0 -0.018186852900289374 -0.10984728883196426 -0.0023588132507022519 0 -0.0023588132507022519 -0.0009670676216388327 0 0 0 -0.027703589113400772 -0.075489953805259732 0.00013699752273299624 0 0.00013699752273299624 -0.00059646902693671899 0 0 0 -0.019021605708049116 -0.092535306996026329 0.0030093817535849499 0 0.0030093817535849499 -0.00038144162346660793 0 0 0 -0.02322918715487321 -0.16085238262092255 -0.0081942511013724968 0 -0.0081942511013724968 -0.00052465532173170959 0 0 0 -0.040344259485663614 -0.0084596919996920844 0.0025733752932145864 0 0.0025733752932145864 -0.011806944231661037 0 0 0 -0.0050666590578382813 -0.011772076972962699 0.0030544392126146264 0 0.0030544392126146264 -0.0093183474435970387 0 0 0 -0.0052726061041399336 -0.03374163780279274 0.0037854427736368364 0 0.0037854427736368364 -0.005605572539745602 0 0 0 -0.0098368025856345812 -0.032924969287401892 -0.0061290554484138933 0 -0.0061290554484138933 -0.010978425288951488 0 0 0 -0.010975848644088347 -0.034521601755411163 0.0047935993192709057 0 0.0047935993192709057 -0.011507441041892866 0 0 0 -0.01150726069932601 -0.045368827649488949 -0.012762908252090394 0 -0.012762908252090394 0.017482088895325446 0 0 0 -0.0069716846885408551 0.11331341191601391 0.084033589439882372 0 0.084033589439882372 0.16621794849042115 0 0 0 0.069882840101608751 -0.001963112410109269 -0.010094050118464315 0 -0.010094050118464315 -0.010235745099905991 0 0 0 -0.0030497143775036761 0.00057046122380666198 0.0060428523313249549 0 0.0060428523313249549 -0.0022393660501203172 0 0 0 -0.00041722620657824727 -0.0013749037533079544 0.012689683208012035 0 0.012689683208012035 -0.0080754609816127143 0 0 0 -0.0023625911837301672 0.00048715763728024442 -0.0051177944972027765 0 -0.0051177944972027765 -0.0028849349579709305 0 0 0 -0.00059944433017244947 -0.0086168032078002277 0.020395199252726481 0 0.020395199252726481 -0.0057563354005036871 0 0 0 -0.0035932846520763118 -0.0087943672250940241 -0.020921034412220929 0 -0.020921034412220929 -0.0080005272179444198 0 0 0 -0.0041987236107596249 -0.030141052939771196 0.0056861741030160388 0 0.0056861741030160388 -0.0061253221962232806 0 0 0 -0.0090665937839986225 0.12337621895702183 -0.0049589000426747548 0 -0.0049589000426747548 0.10075505350015185 0 0 0 0.056032818114293392 -0.18463544641360238 0.010654490117570081 0 0.010654490117570081 0.0056017644918471277 0 0 0 -0.044758420480438821 -0.1002936008729724 -0.003976001925022659 0 -0.003976001925022659 0.0021897907254387894 0 0 0 -0.024525952536883389 -0.073313885330400064 -0.015891337233745188 0 -0.015891337233745188 0.012767381041662584 0 0 0 -0.015136626072184356 -0.084198363123152042 0.016502340840232867 0 0.016502340840232867 0.048778766806234386 0 0 0 -0.0088548990792293725 -0.091297883151217452 -0.017713453128936463 0 -0.017713453128936463 0.0071577149983614724 0 0 0 -0.021035042038213984 -0.035961244925444801 -0.014442537578024649 0 -0.014442537578024649 0.038735484853201704 0 0 0 0.00069355998193922422 -0.022484859421460446 -0.027571615863709042 0 -0.027571615863709042 -1.2182911833691357e-05 0 0 0 -0.0056242605833234927 -0.02540762473565128 0.036920365206155825 0 0.036920365206155825 -0.0037412143912176621 0 0 0 -0.0072872097817172632 -0.02308174411659325 -0.028523358890925166 0 -0.028523358890925166 0.0036682549604203363 0 0 0 -0.0048533722890432562 -0.033245801152615329 0.038949398374105604 0 0.038949398374105604 -0.004768053780471071 0 0 0 -0.0095034637332711558 -0.06679793542432616 -0.023482488038281159 0 -0.023482488038281159 0.0026957529189019086 0 0 0 -0.016025545626356049 -0.020113614368390792 -0.031490878897807155 0 -0.031490878897807155 0.049878044870320076 0 0 0 0.0074411076254823124 -0.097130343028400595 0.0078598693914115614 0 0.0078598693914115614 0.012118673101209065 0 0 0 -0.021252917481797889 0.21248888820868106 0.094047393488223524 0 0.094047393488223524 0.054647360702250403 0 0 0 0.066784062227732865 -0.0013469947067134558 0.0072777283608304599 0 0.0072777283608304599 -0.0022205976029241459 0 0 0 -0.00089189807740941429 -0.0030949088454827467 -0.0082626258357420823 0 -0.0082626258357420823 0.016679935282601033 0 0 0 0.0033962566092795576 -0.031199911978798917 -0.014812771361711725 0 -0.014812771361711725 0.061730134273042706 0 0 0 0.0076325555735609462 -0.0020605501462437337 -0.019498401194547266 0 -0.019498401194547266 0.045203468742309294 0 0 0 0.010785729649016473 -0.0067592490757368839 0.0037308642914899437 0 0.0037308642914899437 -0.0027417838972256803 0 0 0 -0.0023752582432401415 -0.022344046911531749 -0.0047434417449449106 0 -0.0047434417449449106 -0.012973487149718591 0 0 0 -0.0088293835153125857 -0.025790439166000014 0.0065602398505826562 0 0.0065602398505826562 -0.0090311968764545374 0 0 0 -0.0087054090106136375 -0.054979142866661571 0.049983310937560921 0 0.049983310937560921 0.050190040350820697 0 0 0 -0.0011972756289601733 -0.048876965950373732 0.043559865477090065 0 0.043559865477090065 0.035185183386482466 0 0 0 -0.0034229456409727993 0.099143200258802078 0.11450262646218268 0 0.11450262646218268 0.19133198505365212 0 0 0 0.072618796328113577 -0.010616268650446625 0.007705515137315988 0 0.007705515137315988 0.00050994934638659561 0 0 0 -0.0025265798260146743 -0.015401708172579527 -0.020744332730744053 0 -0.020744332730744053 0.038319495929688668 0 0 0 0.005729446939277287 -0.01970441920105101 -0.010515523091360834 0 -0.010515523091360834 -0.023069170185463506 0 0 0 -0.010693397346628664 -0.033660216443783905 -0.01387988825514342 0 -0.01387988825514342 0.047348533737063492 0 0 0 0.0034220793233199036 -0.027311641090884631 -0.019785001493518948 0 -0.019785001493518948 0.0047288494208236054 0 0 0 -0.0056456979175152633 -0.020605766752080951 -0.0053360552388691251 0 -0.0053360552388691251 0.0086740460595320923 0 0 0 -0.0029829301731371938 -0.094293062781143966 0.01513581390358465 0 0.01513581390358465 -0.00089285037042308169 0 0 0 -0.023796478287891665 -0.0080587690252537092 -0.0051953271641261844 0 -0.0051953271641261844 0.00027882394396794297 0 0 0 -0.0019449862703213583 -0.0094390690963117585 0.023243328526150409 0 0.023243328526150409 0.072579919976667462 0 0 0 0.015785212720089037 -0.015661983642400443 -0.018212020400171891 0 -0.018212020400171891 0.059303028670890691 0 0 0 0.010910261257122703 -0.00041641289246951985 0.0014309844589165881 0 0.0014309844589165881 -0.00083128438235746671 0 0 0 -0.00031192431870663562 -0.020840185088085161 0.0018467374858128771 0 0.0018467374858128771 -0.0097844085249036983 0 0 0 -0.0076561484032472427 0.010002969770809986 -0.046805448948920608 0 -0.046805448948920608 0.076563778936346347 0 0 0 0.021641687176789048 -0.017811802345870875 2.1146794676366043e-05 0 2.1146794676366043e-05 -0.0060978679305986327 0 0 0 -0.0059774175691174047 -0.023624159264465705 -0.0078341281883100335 0 -0.0078341281883100335 -0.00093454225351902176 0 0 0 -0.0061396753794961401 -0.033276254724386556 -0.027693914477963565 0 -0.027693914477963565 0.0077837651759748994 0 0 0 -0.0063731223871029696 -0.068892617747941892 -0.0033321515858566199 0 -0.0033321515858566199 -0.011002032956385618 0 0 0 -0.019973662676081881 -0.096306692941410532 -4.2166953030193556e-05 0 -4.2166953030193556e-05 -0.014895119623143561 0 0 0 -0.02780045314113852 0.0020044989512166037 0.0036036271695403244 0 0.0036036271695403244 -0.014168519314545281 0 0 0 -0.0030410050908321281 0.003202346163049985 -0.0049970678492069487 0 -0.0049970678492069487 0.0044477519059687998 0 0 0 0.0019125245172547656 -0.069173772229475988 -0.0080123493577014589 0 -0.0080123493577014589 -0.017261471577492239 0 0 0 -0.021608810951742063 -0.053916171194790356 0.0024041511012217443 0 0.0024041511012217443 -0.012478238785527901 0 0 0 -0.016598602495079565 -0.015338808536200982 -0.00012675380544097784 0 -0.00012675380544097784 -0.013083096703925759 0 0 0 -0.0071054763100316899 -0.073911015457115856 0.0030764753239910739 0 0.0030764753239910739 0.00018009284355625455 0 0 0 -0.018432730653389913 -0.10710208282070656 -0.0081117593369809411 0 -0.0081117593369809411 0.0012876656742656645 0 0 0 -0.026453604286610206 -0.024377620601920447 -0.01514460724128306 0 -0.01514460724128306 -0.0059693906577590883 0 0 0 -0.0075867528149199115 -0.02569657268933212 -0.018551481292047478 0 -0.018551481292047478 0.0049728121308511564 0 0 0 -0.0051809401396202548 0.005116064938474163 0.021289547297503209 0 0.021289547297503209 0.086847951479676055 0 0 0 0.022991004104537249 -0.0055677343875568663 -0.0028801332525528744 0 -0.0028801332525528744 -0.0020878521487018853 0 0 0 -0.0019138966340647157 -0.02515530262193108 -0.015651668225967419 0 -0.015651668225967419 -0.006638290683335657 0 0 0 -0.0079483983263166358 -0.021476694528779844 -0.010107563891151583 0 -0.010107563891151583 -0.010365752230425407 0 0 0 -0.0079606116898013335 -0.050184991519101274 0.047575853298658821 0 0.047575853298658821 -0.0011608111314775904 0 0 0 -0.012836450662644605 -0.083386832985026332 -0.001968511915417527 0 -0.001968511915417527 -0.027810765652146196 0 0 0 -0.027799399659293133 -0.061501775809102356 -0.0015360430933086496 0 -0.0015360430933086496 -0.020510805546822788 0 0 0 -0.020503145338981284 -0.021659416307078194 -0.0049493358983906197 0 -0.0049493358983906197 -0.015329369996992241 0 0 0 -0.0092471965760176078 -0.010503861001893267 0.02674963202542191 0 0.02674963202542191 -0.0084790497769478002 0 0 0 -0.0047457276947104887 -0.008328512096799412 -0.015780380518041759 0 -0.015780380518041759 -0.0041711987188921551 0 0 0 -0.0031249277039229195 -0.024411570444522634 -0.026075523027087044 0 -0.026075523027087044 0.0052331765531206109 0 0 0 -0.0047945984728505198 -0.012879524154191448 0.0034819197033635787 0 0.0034819197033635787 -0.0099775826950843291 0 0 0 -0.0057142767123189424 -0.049318494218459907 -0.013822183210803061 0 -0.013822183210803061 -0.0070385379217917897 0 0 0 -0.014089258035062925 -0.026372339970787667 -0.010377149046869981 0 -0.010377149046869981 -0.0059863899690518751 0 0 0 -0.0080896824849599203 -0.010086698870683085 0.0048820651067493052 0 0.0048820651067493052 -0.0086956238501629882 0 0 0 -0.0046955806802115177 -0.014016919543164134 0.0051768815347510121 0 0.0051768815347510121 -0.0074621369711089201 0 0 0 -0.0053697641285682636 -0.015564736886583268 0.0042994396470703517 0 0.0042994396470703517 -0.0083547960653012517 0 0 0 -0.0059798832379711281 -0.022841398871255802 -0.0010114420077732 0 -0.0010114420077732 0.0052910142634450263 0 0 0 -0.0043875961519526663 -0.022224959001052445 -0.024668979790661613 0 -0.024668979790661613 0.020654590981542514 0 0 0 -0.00039259200487749141 -0.018483725590400568 -0.010634145376101911 0 -0.010634145376101911 -0.0099250719479175853 0 0 0 -0.0071021993845795661 -0.032440656848894467 -0.015886256824925352 0 -0.015886256824925352 0.061367845394763004 0 0 0 0.0072317971364671309 -0.012747533338328676 0.020123780152674797 0 0.020123780152674797 0.10772626945419184 0 0 0 0.023744684028965901 -0.00044625116630214734 -0.0010373389161917321 0 -0.0010373389161917321 -0.00059025978776006127 0 0 0 -0.00025912773851566318 -0.0070673120243798238 -0.0048724734865106161 0 -0.0048724734865106161 -0.0027991621330261118 0 0 0 -0.0024666185393514839 -0.0060061471205110628 0.014667544366970597 0 0.014667544366970597 0.10997072010613351 0 0 0 0.025991143246405723 -0.018191855765363925 0.018158561530864842 0 0.018158561530864842 0.083250729622182204 0 0 0 0.016264718464204568 -0.022149468918555272 0.0053235096554501852 0 0.0053235096554501852 -0.0054801135104995367 0 0 0 -0.0069073956072636996 -0.025833555216039347 0.0047897795961656681 0 0.0047897795961656681 -0.006440481521377172 0 0 0 -0.0080685091843541324 0.0092214312307510315 0.029218262764720282 0 0.029218262764720282 0.025551354693687411 0 0 0 0.0086931964811096663 -0.012511347227549319 0.033692488399440501 0 0.033692488399440501 0.018309830412532424 0 0 0 0.0014496207962455543 -0.028407627017966487 -0.024506738490494284 0 -0.024506738490494284 0.019991233922153795 0 0 0 -0.0021040982739531575 -0.00027956518230945471 -0.0074610592446318069 0 -0.0074610592446318069 -0.025714805214431369 0 0 0 -0.0064985925991851989 -0.00060980904274599013 0.0050950828314655812 0 0.0050950828314655812 -0.028346013726762931 0 0 0 -0.007238955692377258 -0.03143538624626796 0.0093505448293535048 0 0.0093505448293535048 0.054224833968350789 0 0 0 0.0056973619305207071 -0.0095395136775597855 0.0069737780314946419 0 0.0069737780314946419 -0.0041940883304940613 0 0 0 -0.0034334005020133507 -0.012583230241762777 -0.015152369839432578 0 -0.015152369839432578 0.060148158939270058 0 0 0 0.011891232174376931 -0.084109792727883534 0.0026556982194085796 0 0.0026556982194085796 0.00064730357221333412 0 0 0 -0.020865622288917543 -0.13795502731652104 -0.0074045707233257596 0 -0.0074045707233257596 0.0010051708158708428 0 0 0 -0.034237464125162528 -0.011719925836275333 -0.023041493813952818 0 -0.023041493813952818 0.0057156478396519772 0 0 0 -0.0015010694991558077 0.085069926756399045 -0.045021308581664171 0 -0.045021308581664171 0.036399583655617351 0 0 0 0.03036737760300412 -0.01940773010369598 -0.014801145848939212 0 -0.014801145848939212 -0.0037775926776889568 0 0 0 -0.005796330695346269 -0.019927080898394491 -0.019523925349882218 0 -0.019523925349882218 0.00036842209819074045 0 0 0 -0.0048896647000509288 0.00043734550142169085 -0.0068765853945562672 0 -0.0068765853945562672 0.00031900824948586786 0 0 0 0.00018908843772688966 -0.0022316862819646843 0.0059034087286740089 0 0.0059034087286740089 5.8508186166150722e-05 0 0 0 -0.0005432945239496334 0.00072758018183982642 0.0083514321055964125 0 0.0083514321055964125 0.0073386074865844364 0 0 0 0.0020165469171060657 -0.0018919466757042773 -0.0047309101634450679 0 -0.0047309101634450679 -0.0020133195832936256 0 0 0 -0.00097631656474930924 -0.048279385668540703 0.023601848488628785 0 0.023601848488628785 0.066111957597277393 0 0 0 0.0044581429821841656 -0.028802499604380971 -0.013438763348138857 0 -0.013438763348138857 -0.00058415507415354728 0 0 0 -0.0073466636696336574 -0.023104538704444885 -0.012284089244177065 0 -0.012284089244177065 -0.0045898533858387165 0 0 0 -0.006923598022570936 -0.022026577299717957 -0.011812770666997374 0 -0.011812770666997374 -0.0068751464023866296 0 0 0 -0.0072254309255261814 -0.008431302659315687 -0.026172996825366952 0 -0.026172996825366952 0.011254267788997518 0 0 0 0.00070574128242045786 -0.13292357835571747 0.01681925967406217 0 0.01681925967406217 0.0023123958593258553 0 0 0 -0.032652795624097952 -0.049459145281580803 0.00085209900789463833 0 0.00085209900789463833 0.015819193384401076 0 0 0 -0.0084099879742948885 -0.040314724976511007 -0.0054257284441292415 0 -0.0054257284441292415 0.014384662547823057 0 0 0 -0.0064825156071719459 -0.015850778750265027 0.0044803225218453258 0 0.0044803225218453258 -0.023643043385900897 0 0 0 -0.0098734555340415087 -0.099427145957464713 0.031597161056161838 0 0.031597161056161838 -0.00073711882010440988 0 0 0 -0.025041066194392281 -0.073773217468625127 0.0059647072409831497 0 0.0059647072409831497 0.0037374991862743623 0 0 0 -0.017508929570587674 -0.075026623109754775 -0.0010572245226415505 0 -0.0010572245226415505 0.0041147261652857425 0 0 0 -0.017727974236117272 -0.12552857927463393 -0.0017754453304485163 0 -0.0017754453304485163 0.009290806464961221 0 0 0 -0.029059443202418128 -0.11984418799648644 -0.018116178797033228 0 -0.018116178797033228 0.010029242662870197 0 0 0 -0.027453736333404088 -0.025525490802797469 -0.0097785465731267396 0 -0.0097785465731267396 -0.0054047344262612984 0 0 0 -0.0077325563072647048 -0.077818470715589866 -0.0072123269201419538 0 -0.0072123269201419538 0.0014149071123167323 0 0 0 -0.01910089090081829 0.019989759899988302 0.056016534675671414 0 0.056016534675671414 0.017890019264385382 0 0 0 0.0094699447910934209 -0.037213979640685999 -0.01136451587495739 0 -0.01136451587495739 0.043594119629916495 0 0 0 0.0015950349973076297 -0.0099879028910403109 0.014003152687808565 0 0.014003152687808565 0.016194394538825155 0 0 0 0.0015516229119462055 -0.029530738204461504 0.027422743247747627 0 0.027422743247747627 -0.0061200903278950669 0 0 0 -0.008912707133089115 -0.021455752842395814 -0.027887039666492752 0 -0.027887039666492752 0.0089503451185293237 0 0 0 -0.0031263519309664978 -0.021718223275396464 -0.023413876732593625 0 -0.023413876732593625 0.022237534945440843 0 0 0 0.00012982791751110691 -0.0053317198350557038 0.0049741979970815836 0 0.0049741979970815836 -0.02130592712902557 0 0 0 -0.0066594117410203046 -0.023486235838624456 -0.01267403161658337 0 -0.01267403161658337 -0.010253810452075129 0 0 0 -0.0084350115726749136 -0.030148683334411848 -0.0083057135922118518 0 -0.0083057135922118518 -0.015055423643067216 0 0 0 -0.011301026744369766 -0.031251260851074734 0.0069384320520815774 0 0.0069384320520815774 -0.0097525146722074758 0 0 0 -0.01025094388082055 -0.02153537286251251 -0.028150608470703442 0 -0.028150608470703442 0.013602826278093144 0 0 0 -0.0019831366461048397 -0.051112693823884975 -0.020700931753421449 0 -0.020700931753421449 -0.0047655512336105404 0 0 0 -0.013969561264373889 -0.06840613665142814 -0.0088257754460240694 0 -0.0088257754460240694 0.019761214848158404 0 0 0 -0.012161230450817462 -0.015357629671346903 -0.0014030076822461274 0 -0.0014030076822461274 -0.014206291356879647 0 0 0 -0.0073909802570566374 -0.013726836868585335 0.00068307652534670615 0 0.00068307652534670615 -0.010936805952408117 0 0 0 -0.0061659107052483633 -0.02116668928483674 0.0045771155592253133 0 0.0045771155592253133 -0.0078203646168626545 0 0 0 -0.0072467634754248477 -0.021438419388697387 0.005477584863605809 0 0.005477584863605809 -0.0082988602443622109 0 0 0 -0.0074343199082648991 -0.057763748471821447 -0.016941151894459633 0 -0.016941151894459633 0.019656737303828192 0 0 0 -0.0095267527919982997 -0.017654824736547461 0.011808719961227397 0 0.011808719961227397 0.014586078922247378 0 0 0 -0.00076718645357502085 -0.010742577828893827 -0.0022294876908963675 0 -0.0022294876908963675 -0.011915493807841241 0 0 0 -0.0056645179091837656 -0.031526410312099955 -0.01852570676022568 0 -0.01852570676022568 -0.0058666485455475398 0 0 0 -0.009348264714411865 -0.020421539538364439 0.014268442429550915 0 0.014268442429550915 0.044310167843601658 0 0 0 0.0059721570763093101 -0.032148838191342816 0.0011680283064271801 0 0.0011680283064271801 0.0015350988404224889 0 0 0 -0.0076534348377300821 -0.0302998769915978 0.0022514676168654581 0 0.0022514676168654581 0.0052603489279031412 0 0 0 -0.0062598820159236665 -0.083374592235533326 -0.0019787236042798999 0 -0.0019787236042798999 -0.027771331425776084 0 0 0 -0.027786480915327351 -0.061493933839917789 -0.0015284010483880546 0 -0.0015284010483880546 -0.020485260848642044 0 0 0 -0.020494798672139956 0.078311925092934317 0.029340953031013584 0 0.029340953031013584 0.029758325731484195 0 0 0 0.027017562706104656 -0.022458605440505257 0.0042841878975051224 0 0.0042841878975051224 0.00025538352343673631 0 0 0 -0.0055508054792671284 -0.043676885654621481 -0.0085329911402581629 0 -0.0085329911402581629 0.049843928563424234 0 0 0 0.0015417607272006917 -0.011729605678362259 0.0010671938623152966 0 0.0010671938623152966 -0.033398417512127798 0 0 0 -0.011282005797622535 -0.078923784568993738 0.003798674782389648 0 0.003798674782389648 0.0010249967302254914 0 0 0 -0.019474696959692062 -0.12650333709402678 -0.0085953201065122886 0 -0.0085953201065122886 0.0011959015395709427 0 0 0 -0.031326858888613987 -0.024413844588525149 -0.010238146668052533 0 -0.010238146668052533 -0.014622979242046918 0 0 0 -0.0097592059576430273 -0.070589945989645131 0.0074508736241092194 0 0.0074508736241092194 0.00047069701138049893 0 0 0 -0.017529812244566154 -0.089308981715657543 -0.025169212224711635 0 -0.025169212224711635 -0.001217509533091965 0 0 0 -0.022631622812187363 -0.072708545993895174 0.0046973006694016779 0 0.0046973006694016779 -0.00026774841521889914 0 0 0 -0.018244073602278553 -0.042414362168550643 0.0043089913171337601 0 0.0043089913171337601 -0.0029489229267653586 0 0 0 -0.011340821273828999 -0.036137583082207013 -0.010777750632186811 0 -0.010777750632186811 -0.0091641596822242613 0 0 0 -0.011325435691107827 -0.062246412773285006 -0.020150971019388189 0 -0.020150971019388189 0.0075101857713007758 0 0 0 -0.013684056750496026 -0.029516193277779018 -0.0096747128420605344 0 -0.0096747128420605344 -0.0027327773829455837 0 0 0 -0.0080622426651811019 -0.01693381245389558 0.035506848380895017 0 0.035506848380895017 0.016410738019511761 0 0 0 -0.00013076860859606576 -0.022816191304319444 -0.017728516362979757 0 -0.017728516362979757 -0.0060358226711323404 0 0 0 -0.0072130034938628906 -0.017589349526699671 -0.0014579432619988672 0 -0.0014579432619988672 -0.010886760904361508 0 0 0 -0.0071190276077652955 -0.025296358600418907 0.004330198375793363 0 0.004330198375793363 -0.0084434032676641516 0 0 0 -0.0084349404670207642 -0.039964996428816978 -0.010583213964292335 0 -0.010583213964292335 -0.016355985875992476 0 0 0 -0.014080245576202364 -0.037386925348871947 0.0067654894048899726 0 0.0067654894048899726 -0.010855167831048384 0 0 0 -0.012060523294980082 -0.040371872097727281 -0.0091295421735977239 0 -0.0091295421735977239 0.010126990213735809 0 0 0 -0.0075612204709978523 -0.041252161013057703 -0.016455861177033543 0 -0.016455861177033543 0.012681029434132102 0 0 0 -0.0071427828947313865 -0.04396645908396335 0.0509335907458765 0 0.0509335907458765 0.010621710122814765 0 0 0 -0.0083361872402871739 -0.003912711177503414 0.067733389514056663 0 0.067733389514056663 0.03599046189963051 0 0 0 0.0080194376805317602 0.04226836459340047 0.0007482514880250285 0 0.0007482514880250285 0.040438806023428447 0 0 0 0.020676792654207216 -0.046404809898852706 -0.0054156964131073376 0 -0.0054156964131073376 0.040120432098869965 0 0 0 -0.0015710944499956782 -0.01222214305045412 0.0034945280515631286 0 0.0034945280515631286 -0.010008196109713643 0 0 0 -0.0055575847900419407 -0.028660469975885811 -0.014259211414547841 0 -0.014259211414547841 -0.004110543425110802 0 0 0 -0.0081927533502491323 -0.045993765932629049 0.041099394994423499 0 0.041099394994423499 -0.00023167399163837032 0 0 0 -0.011556359981066744 -0.015573837089471299 -0.0032286444015495741 0 -0.0032286444015495741 0.027350283358825278 0 0 0 0.002944111567338481 -0.016440843318079212 -0.0085649178602737741 0 -0.0085649178602737741 -0.017609390977256667 0 0 0 -0.0085125585738339837 -0.02886271548022306 0.0041511475318694695 0 0.0041511475318694695 -0.0045792239595234567 0 0 0 -0.0083604848599366198 -0.065885497497080781 0.011342109281471363 0 0.011342109281471363 0.038259523861605804 0 0 0 -0.0069064934088687302 -0.07831072436981118 0.001458540694182394 0 0.001458540694182394 -0.0015534928469998627 0 0 0 -0.019966054304202761 -0.11934168826449015 -0.0036904229934944231 0 -0.0036904229934944231 -0.0031728192367839886 0 0 0 -0.030628626875318542 -0.021378306063589272 -0.013810093777645097 0 -0.013810093777645097 -0.0019367416131382265 0 0 0 -0.0058287619191818574 -0.046045259346332718 0.0035139687372620554 0 0.0035139687372620554 -0.0083030725726045626 0 0 0 -0.013587082979734322 -0.0500491242923456 -0.0076546679076526444 0 -0.0076546679076526444 -0.015235058552726079 0 0 0 -0.016321045711267915 -0.15327974508401776 0.0018941838150655088 0 0.0018941838150655088 0.0035335890926980751 0 0 0 -0.037436538997829866 -0.08660612943401276 -0.00071335024293606164 0 -0.00071335024293606164 0.0010085530289625222 0 0 0 -0.021399394101262584 0.0086114318407828003 0.020155176124300289 0 0.020155176124300289 0.092857779311930511 0 0 0 0.025367302788178329 0.060313355791326628 0.00011738650256626348 0 0.00011738650256626348 0.23263719154362428 0 0 0 0.073237636833737713 -0.025663774098465264 -0.029465002746204672 0 -0.029465002746204672 0.016890703619536401 0 0 0 -0.0021932676197321532 -0.037413315272426501 -0.025499429355209685 0 -0.025499429355209685 0.012120365012838585 0 0 0 -0.0063232375648968886 -0.020346637317854001 -0.028359762964888992 0 -0.028359762964888992 0.040342944193057062 0 0 0 0.0049990767188007549 -0.0023326938860250557 0.0012220033869087543 0 0.0012220033869087543 -0.031473519203617684 0 0 0 -0.0084515532724106501 -0.01531402661445054 -0.00014080533536980422 0 -0.00014080533536980422 -0.01303112704869366 0 0 0 -0.0070862884157860502 -0.05594213895394165 -0.0037906195985141222 0 -0.0037906195985141222 0.0094733495446551186 0 0 0 -0.01161719735232164 0.0012822991402338668 -0.0025957901544601675 0 -0.0025957901544601675 -0.026790293336446336 0 0 0 -0.0063769985490530479 -0.13221734677549407 0.015883556802891219 0 0.015883556802891219 -0.00010018757887535201 0 0 0 -0.033079383588592463 -0.025622132945795073 0.027222076240034587 0 0.027222076240034587 -0.00743855469706034 0 0 0 -0.0082651719107140753 -0.018248964581186189 -0.027099304293209392 0 -0.027099304293209392 0.005366472376242104 0 0 0 -0.00322062305123616 -0.022271769084513744 0.0042054428814384892 0 0.0042054428814384892 0.012111687370322147 0 0 0 -0.0025400204285479034 -0.047511850217710552 -0.013489836472200908 0 -0.013489836472200908 0.011452160190818794 0 0 0 -0.0090149225067229638 -0.010468100345602187 0.0084132564155033462 0 0.0084132564155033462 -0.0013828795690575407 0 0 0 -0.0029627449786649301 -0.0070800298693298319 0.011710184804866127 0 0.011710184804866127 0.0052299574528706094 0 0 0 -0.00046251810411480562 -0.064706048069924096 -0.018415348217494163 0 -0.018415348217494163 -0.0028406103879974123 0 0 0 -0.016886664614480355 -0.034347781641961062 -0.025494537086612701 0 -0.025494537086612701 0.0032687720001149945 0 0 0 -0.0077697524104615723 -0.099080130813064105 -0.014672574573237063 0 -0.014672574573237063 -0.0059434608400667551 0 0 0 -0.026255897913282721 -0.026838141201718457 0.043676695580048941 0 0.043676695580048941 0.00080449938642424002 0 0 0 -0.0065084104538233323 -0.029124440329972981 0.043548190874953763 0 0.043548190874953763 7.1509284097770465e-05 0 0 0 -0.0072632327614687991 -0.030371609870163851 0.045028428501304285 0 0.045028428501304285 -0.0011163968210166075 0 0 0 -0.0078720016727948927 -0.027550284404721848 -0.027156867482200253 0 -0.027156867482200253 0.0029187294107895223 0 0 0 -0.0061578887484829981 -0.032679818824934814 -0.025264193856565753 0 -0.025264193856565753 0.0011154231031682491 0 0 0 -0.0078910989304415997 0.044881856995961214 0.031816585805685631 0 0.031816585805685631 0.049875497957273141 0 0 0 0.023689338738308599 -0.016620513051363642 -0.0015655228610043635 0 -0.0015655228610043635 -0.0055462021193539279 0 0 0 -0.0055416787926793921 -0.022304763237078268 0.0048651735194774441 0 0.0048651735194774441 -0.0074365682495935058 0 0 0 -0.0074353328716679429 -0.020877452997764681 0.0053224918732350749 0 0.0053224918732350749 0.0019251351178712871 0 0 0 -0.0047380794699733494 -0.0038272404415593819 -0.012864068879302748 0 -0.012864068879302748 0.06646831535669423 0 0 0 0.015660268728783691 -0.078057831154272908 -0.022534937881076935 0 -0.022534937881076935 -0.0030474752268527805 0 0 0 -0.020276326595281422 -0.015610031749257952 0.0028174647902831982 0 0.0028174647902831982 -0.0087191018022404372 0 0 0 -0.0060822833878745961 -0.12017018888402703 -0.005563698520595052 0 -0.005563698520595052 -0.0034443994086205158 0 0 0 -0.030903647073161861 -0.077678456944332064 0.0021566578300770273 0 0.0021566578300770273 -0.0012140827616740416 0 0 0 -0.019723134926501552 -0.077480192916797364 -0.0068463176591433139 0 -0.0068463176591433139 0.0005496749754816399 0 0 0 -0.019232629485328945 -0.017998297898472106 0.0050045812452243505 0 0.0050045812452243505 -0.0071546688872748607 0 0 0 -0.0062882416964367416 -0.022073364556088083 -0.0042416940294741079 0 -0.0042416940294741079 0.011715221794058456 0 0 0 -0.0025895356905073288 -0.02694000792391215 0.010044341384487241 0 0.010044341384487241 0.03028468262771386 0 0 0 0.00083616867595042582 -0.0040042675637955993 0.045369655887222415 0 0.045369655887222415 0.0061775869534458627 0 0 0 0.00054332984741264911 -0.010890609711999791 0.0032942381731880547 0 0.0032942381731880547 -0.010789474934661781 0 0 0 -0.0054200211616653952 -0.019872083598710955 0.025716575768597094 0 0.025716575768597094 -0.01385480827808383 0 0 0 -0.0084317229691985851 -0.016015659851776887 -0.025945823419384062 0 -0.025945823419384062 -0.003544309484122099 0 0 0 -0.004889992333974913 -0.018000051152481628 0.0051253199032010753 0 0.0051253199032010753 -0.0073110239424523521 0 0 0 -0.0063277687737334967 -0.037598128898551894 0.0034613774912629503 0 0.0034613774912629503 0.039675312528729557 0 0 0 0.00051929590754442949 -0.0070795448660527782 0.021959229739189623 0 0.021959229739189623 0.0004225866797957778 0 0 0 -0.0016642395465642501 -0.0062385385731871246 0.015939191059657798 0 0.015939191059657798 -0.0139713579977645 0 0 0 -0.0050524741427382391 -0.0051003532903605153 -0.0121215491367479 0 -0.0121215491367479 -0.011323362175231555 0 0 0 -0.0041059288663979343 -0.0059949111739854288 -0.018009182706401727 0 -0.018009182706401727 -0.0027762768364223422 0 0 0 -0.0021927970026017762 -0.090623005042581861 -0.0023052210784531013 0 -0.0023052210784531013 0.020905625354325663 0 0 0 -0.017429344922064077 -0.05834036525298017 -0.014777520585405046 0 -0.014777520585405046 0.0066203297915884418 0 0 0 -0.012930008865348036 -0.067752682494604338 -0.015133714358695566 0 -0.015133714358695566 0.0069692137595002146 0 0 0 -0.015195867183776024 -0.10988749712986567 0.035373668698890859 0 0.035373668698890859 0.016240804417341437 0 0 0 -0.023411673178131087 -0.088956444958837311 0.034664178525106851 0 0.034664178525106851 0.015684359534066106 0 0 0 -0.01831802135619276 -0.026996036342600241 0.0039195467326874674 0 0.0039195467326874674 -0.0081428706891164722 0 0 0 -0.0087847267579291774 0.075261916024007669 0.027367440920219123 0 0.027367440920219123 0.02466980571539179 0 0 0 0.024982930434849837 -0.067743212940001032 -0.0082874308589766417 0 -0.0082874308589766417 -0.016210347143145187 0 0 0 -0.020988390020786559 -0.054365318633584923 0.0026998227124194365 0 0.0026998227124194365 -0.0099931239468276124 0 0 0 -0.016089610645103131 -0.041710089439940923 -0.010076405179724371 0 -0.010076405179724371 0.02766565964799457 0 0 0 -0.0035111074479865848 -0.039971968725273796 0.0054931616890300959 0 0.0054931616890300959 -0.006388327583641145 0 0 0 -0.011590074077228736 -0.038933844924695836 -0.011200886367079107 0 -0.011200886367079107 -0.016420170023352838 0 0 0 -0.01383850373701217 -0.10101721921111542 -0.018766044645149756 0 -0.018766044645149756 0.0013529329872714602 0 0 0 -0.024916071555960997 -0.10181674003293281 -0.018904922658289393 0 -0.018904922658289393 -0.0010053133425835109 0 0 0 -0.025705513343879067 -0.01250174637679824 0.033023258346007334 0 0.033023258346007334 0.016714622294318637 0 0 0 0.001053218979380377 -0.010346704424940012 -0.014031707143336902 0 -0.014031707143336902 -0.00057225344823974567 0 0 0 -0.0027297394682950227 -0.0023234223564897482 -0.0030209943782161797 0 -0.0030209943782161797 -0.012172302436928635 0 0 0 -0.0036239311983545818 -0.00080562599242250954 0.0031109811989006864 0 0.0031109811989006864 -0.022592736165588434 0 0 0 -0.0058495905395027359 -0.039837753815531764 0.0030981349599727014 0 0.0030981349599727014 0.0013651544249779907 0 0 0 -0.0096181498476384415 -0.0017680020230574356 -0.0028796613689913708 0 -0.0028796613689913708 0.053460954427557883 0 0 0 0.012923238101125112 0.0010830595046703306 -0.0030113552863246795 0 -0.0030113552863246795 0.093915226300814447 0 0 0 0.023749571451371215 -0.020768524875210668 -0.012810466933318887 0 -0.012810466933318887 -0.0070859775242012903 0 0 0 -0.0069636255998530051 -0.068281724101550312 -0.0058446889895046941 0 -0.0058446889895046941 0.0079772266068312558 0 0 0 -0.015076124373679736 -0.00030709145948842886 0.00075201285953016561 0 0.00075201285953016561 -0.030722020904151215 0 0 0 -0.0077572780909098971 -0.10061115330500232 -0.026050633293855846 0 -0.026050633293855846 0.006031833853348656 0 0 0 -0.023644829862913413 -0.023305125938848474 0.0045929521343803063 0 0.0045929521343803063 0.0088005172568555168 0 0 0 -0.0036261521704982393 -0.042525015587561193 -0.021616152025061799 0 -0.021616152025061799 0.019619573405158741 0 0 0 -0.0057263605456006061 -0.039769861763920222 -0.018816131793384094 0 -0.018816131793384094 0.017574526870751339 0 0 0 -0.0055488337232922347 -0.041679421486693964 0.0061542685649755508 0 0.0061542685649755508 -0.0005262554110935843 0 0 0 -0.010551419224446893 -0.056881263374537583 -0.011367516905460631 0 -0.011367516905460631 0.011620737008440407 0 0 0 -0.011315131591524363 -0.046804307815866981 0.0039487707479329594 0 0.0039487707479329594 -0.00060015211110391042 0 0 0 -0.011851114981742714 -0.034679304861300837 -0.012401735738659728 0 -0.012401735738659728 -0.013713145810396395 0 0 0 -0.012098112667924299 -0.071515565841335255 -0.0057310858095042244 0 -0.0057310858095042244 0.0079880311596761677 0 0 0 -0.015881883670414737 -0.12180399160707966 0.010902490392839526 0 0.010902490392839526 0.02790422910653656 0 0 0 -0.023474940625135721 -0.068262528003901882 -0.0093497173367780555 0 -0.0093497173367780555 -0.015334138920963738 0 0 0 -0.020899166731216411 -0.053342988108752799 0.0035262001817686853 0 0.0035262001817686853 -0.011444781866135647 0 0 0 -0.016196942493722114 -0.049102694245038235 0.0067722629869337598 0 0.0067722629869337598 -0.0024294255149549145 0 0 0 -0.012883029939998269 -0.055675374640646161 -0.017765545405468031 0 -0.017765545405468031 -0.010782578214970043 0 0 0 -0.016614488213904051 -0.022627174456953003 -0.0040117461001393977 0 -0.0040117461001393977 -0.015450873169324938 0 0 0 -0.0095195119065694857 -0.0047907482070389806 -0.030399126017195688 0 -0.030399126017195688 0.037436134768006391 0 0 0 0.0081613466402418455 -0.0082202113820611968 0.0054009368153183478 0 0.0054009368153183478 -0.0094586962027721523 0 0 0 -0.0044197268962083355 -0.011931519211098029 0.020194019023613619 0 0.020194019023613619 -0.0045499135195150586 0 0 0 -0.0041203581826534386 -0.013502980684044208 -0.026460917923447846 0 -0.026460917923447846 0.0070624831247574349 0 0 0 -0.0016101243898217765 -0.047506584105956942 0.0059613490969729881 0 0.0059613490969729881 -0.0044605553742347506 0 0 0 -0.012991784870047924 -0.050123792685405802 -0.014359115570956388 0 -0.014359115570956388 -0.01453506863935379 0 0 0 -0.016164715331189898 -0.01224517755757918 0.0064908924251463745 0 0.0064908924251463745 -0.0046598781161250706 0 0 0 -0.0042262639184260653 -0.022700609850875131 -0.023845155240299742 0 -0.023845155240299742 0.026484389388492402 0 0 0 0.00094594488440430391 -0.073343509600262369 0.013115886927512511 0 0.013115886927512511 -0.0011840908716802545 0 0 0 -0.018631900117985989 -0.0032601929634554772 -0.013575199749586431 0 -0.013575199749586431 0.032563221594892999 0 0 0 0.007325757157859325 -0.037334466033567715 -0.025842226006905888 0 -0.025842226006905888 0.0035093834990480577 0 0 0 -0.0084562706336299698 -0.041958812282663106 -0.0075773137705254165 0 -0.0075773137705254165 0.043697912045107506 0 0 0 0.0004347749406110879 -0.10217925360583806 -0.011671300290413349 0 -0.011671300290413349 -0.0027561878698117229 0 0 0 -0.026233860368912447 -0.069689214334117622 0.0036196514253936749 0 0.0036196514253936749 -0.0012767370872249148 0 0 0 -0.017741487855335629 0.0014672191672033402 0.00676451728976637 0 0.00676451728976637 0.0002726433224430197 0 0 0 0.00043496562241158998 -0.015735868553666165 0.0048237448807845057 0 0.0048237448807845057 -0.0078103235934756593 0 0 0 -0.005886548036785455 -0.038689800907794447 -0.016567661417831211 0 -0.016567661417831211 0.0080158185969055329 0 0 0 -0.0076684955777222286 -0.10429175220159136 -0.013872353735825495 0 -0.013872353735825495 -0.0012563126589107514 0 0 0 -0.026387016215125507 -0.071795782541403327 0.0053465602126309981 0 0.0053465602126309981 -0.00046932340746010104 0 0 0 -0.018066276487215871 -0.026735586585378477 0.006895935966678971 0 0.006895935966678971 0.044655353023293209 0 0 0 0.0044799416094786814 -0.023397734110094159 -0.024874566392977096 0 -0.024874566392977096 -0.00032697801681491612 0 0 0 -0.0059311780317272689 -0.025480060919799818 0.039548821458141759 0 0.039548821458141759 -0.0015465253068702722 0 0 0 -0.0067566465566675227 -0.064874147138884578 0.0030348550680814185 0 0.0030348550680814185 0.0067776036323580723 0 0 0 -0.014524135876631632 -0.054514505514003553 -0.0020751794980853749 0 -0.0020751794980853749 0.0082326324927472407 0 0 0 -0.011570468255314088 -0.020759736077989786 -0.0079743442494904365 0 -0.0079743442494904365 0.015884802191239424 0 0 0 -0.0012187334716875949 -0.024313776848308252 -0.0080792073440161885 0 -0.0080792073440161885 0.022127292065454891 0 0 0 -0.00054662119571333156 -0.032071807845296993 -0.0079627944750327376 0 -0.0079627944750327376 -0.016716681035909182 0 0 0 -0.012197122220301546 -0.030063940932139092 -0.0047525260431936075 0 -0.0047525260431936075 -0.01457691743597913 0 0 0 -0.011160214592029545 -0.035541812996459338 0.0037937149936508483 0 0.0037937149936508483 -0.0087609717502778722 0 0 0 -0.011075696186684303 -0.034803557381676009 0.0058855018302138833 0 0.0058855018302138833 -0.0083788367451514273 0 0 0 -0.010795598531706856 -0.022780308072052918 -0.0052153738929533733 0 -0.0052153738929533733 -0.0059921986866685595 0 0 0 -0.0071931266896803348 -0.033911550208287046 0.0012810596236362357 0 0.0012810596236362357 0.047973975474648094 0 0 0 0.0035156063165902645 -0.0050654983111728374 0.0080468758477164476 0 0.0080468758477164476 -0.0012544349172086966 0 0 0 -0.0015799833070953787 -0.018587427594621841 0.041115324387662626 0 0.041115324387662626 0.003630517302124936 0 0 0 -0.0037392275731242819 -0.033571772998895244 -0.02446358574386949 0 -0.02446358574386949 -0.0011537624868336316 0 0 0 -0.0086813838714321356 -0.012273212556131785 0.046874261663544914 0 0.046874261663544914 0.0030892039616503553 0 0 0 -0.0022960021486202464 -0.0015814709085920919 -0.0061679410869328634 0 -0.0061679410869328634 -0.0021151445189262381 0 0 0 -0.00092415385687958512 0.0035660895776870455 0.001370443904495644 0 0.001370443904495644 0.0067529958799937978 0 0 0 0.0025797713644202108 -0.046749188089082572 0.047337337647933908 0 0.047337337647933908 0.00025078436296421813 0 0 0 -0.011624600931529505 -0.029309697420168868 0.050484478939471056 0 0.050484478939471056 0.0027241986669734874 0 0 0 -0.0066463746882987618 -0.075879103850836252 -0.0076349988632054156 0 -0.0076349988632054156 -0.0094714576413617753 0 0 0 -0.021337640373049506 -0.058641513577771885 0.0020072196287557837 0 0.0020072196287557837 -0.0067513709774931711 0 0 0 -0.016348221138816253 -0.02055241661355417 -0.02467443305507544 0 -0.02467443305507544 0.013228991787760491 0 0 0 -0.0018308562064484057 0.0026385942862396372 -0.0021462706826236434 0 -0.0021462706826236434 0.052001854564773131 0 0 0 0.013660112212753206 0.00066789016986973371 -0.0015882951887036811 0 -0.0015882951887036811 0.096713963017345472 0 0 0 0.024345463296803815 -0.033811657599154485 0.0031332881100113799 0 0.0031332881100113799 0.029148519381698549 0 0 0 -0.0011657845543639848 -0.0012092022201711239 0.01185051702278031 0 0.01185051702278031 0.0028368108478633719 0 0 0 0.000406902156923062 -0.0081697094594984088 -0.0023131376574030554 0 -0.0023131376574030554 -0.025035581863983025 0 0 0 -0.0083013228308703446 -0.017097412302449877 -0.0031695425449928538 0 -0.0031695425449928538 -0.028008990598702099 0 0 0 -0.011276600725287994 -0.025261264689290852 -0.010497420328191641 0 -0.010497420328191641 -0.0081178453624752289 0 0 0 -0.0083447775129415203 -0.020494316220943276 0.015448307074974021 0 0.015448307074974021 -0.0072285004007349718 0 0 0 -0.0069307041554196869 -0.014064226229161814 -0.026679845813362579 0 -0.026679845813362579 0.0121735250503546 0 0 0 -0.00047267529470185199 -0.0036643660864637828 0.0081760290145568015 0 0.0081760290145568015 -0.0030301943886282823 0 0 0 -0.0016736401187730232 -0.0049252952905253222 -0.01215097187909614 0 -0.01215097187909614 0.015913171140655491 0 0 0 0.0027469689625325699 -0.01726201545765349 0.033676196987443952 0 0.033676196987443952 -0.0010106799999562988 0 0 0 -0.0045681738644027803 -0.015994602821747805 -0.019177747133005907 0 -0.019177747133005907 -0.0095464191019508648 0 0 0 -0.006385255480924612 -0.013414568762446726 0.00475980888510932 0 0.00475980888510932 -0.0082172675108079761 0 0 0 -0.0054079590683136745 -0.010075378182374495 0.0069185059088955848 0 0.0069185059088955848 -0.0052417153775984535 0 0 0 -0.0038292733899932402 -0.018962225798475174 0.037115661097621322 0 0.037115661097621322 0.0091582283387650065 0 0 0 -0.0024509993649273198 -0.019283031313238275 -0.019836087533291136 0 -0.019836087533291136 -5.8459272383792893e-05 0 0 0 -0.0048353726464055446 -0.057315875926943642 -0.010118795620650352 0 -0.010118795620650352 -0.015350379816141145 0 0 0 -0.018166563935771197 -0.048327632052861731 0.0044898923230551066 0 0.0044898923230551066 -0.010142606836739199 0 0 0 -0.014617559722400234 0.0048070559142477931 0.050174674820546161 0 0.050174674820546161 0.015167898618287712 0 0 0 0.004993738633133904 -0.089528541064383821 -0.0049312878529485741 0 -0.0049312878529485741 -0.015120841326516449 0 0 0 -0.026162345597725071 -0.065677117777660041 -6.4676083468171016e-05 0 -6.4676083468171016e-05 -0.010276259953958073 0 0 0 -0.018988344432904536 -0.030612031871778855 0.012755724866072793 0 0.012755724866072793 -0.00578458036655638 0 0 0 -0.0090991530595840864 -0.0091665922186925375 -0.017353037413747385 0 -0.017353037413747385 0.040634456613695802 0 0 0 0.0078669660987508161 -0.032267890935786019 -0.010132965432643137 0 -0.010132965432643137 0.057075816209992303 0 0 0 0.0062019813185515762 -0.057108791482497562 -0.0057466358535845363 0 -0.0057466358535845363 0.054475862554777543 0 0 0 -0.00065823223193003932 -0.038880026273394319 -0.023938936460625695 0 -0.023938936460625695 0.0073242203631884717 0 0 0 -0.0078889514775515313 -0.016983075359895308 -0.017239005645847724 0 -0.017239005645847724 0.00073779553570332834 0 0 0 -0.0040613199560479984 -0.043897122686217038 0.0531215192445188 0 0.0531215192445188 0.013143984665308528 0 0 0 -0.0076882845052270721 -0.085493316489270499 0.03117692664252375 0 0.03117692664252375 0.017863550307673393 0 0 0 -0.01690744154539936 -0.056810768551769975 -0.013479397795530132 0 -0.013479397795530132 0.0076177838147249988 0 0 0 -0.012298246184261313 0.0014411690507035446 -0.035568973441716001 0 -0.035568973441716001 0.026856585166461944 0 0 0 0.007074438554291379 -0.01395233957849705 0.0027311921216757185 0 0.0027311921216757185 0.022845156191396154 0 0 0 0.0022232041532247587 -0.017237062630640038 -0.0089802825254381158 0 -0.0089802825254381158 0.043023884083613018 0 0 0 0.0064467053632432936 -0.037969933089154716 -0.012664373434972027 0 -0.012664373434972027 0.031138121953885461 0 0 0 -0.0017079527838173222 -0.036133837081479547 -0.0098689522575923401 0 -0.0098689522575923401 0.029115418784339542 0 0 0 -0.0017546045742850014 -0.017721336893720466 0.017927495688960689 0 0.017927495688960689 0.066790437358127869 0 0 0 0.012267275116101845 -0.0073408361997943788 -0.018148067959221817 0 -0.018148067959221817 0.036272505768625174 0 0 0 0.0072329173922076884 -0.012211540106248808 0.031639323058836322 0 0.031639323058836322 0.028350554763845182 0 0 0 0.0040347536643987603 -0.015162238126751104 -0.011470996110677034 0 -0.011470996110677034 -0.0057837883261333545 0 0 0 -0.0052365066132211702 -0.029996581394025175 0.011243556604945217 0 0.011243556604945217 0.039761298303371301 0 0 0 0.0024411792273365263 -0.02820806049330685 -0.0062167272221828329 0 -0.0062167272221828329 0.0059964120569028986 0 0 0 -0.0055529121091009749 -0.019036315533356885 -0.0058858653213889889 0 -0.0058858653213889889 -0.022356520824421355 0 0 0 -0.010348209089444615 -0.016351370156618212 0.016114417533634864 0 0.016114417533634864 0.025755797252387382 0 0 0 0.002351106773942296 -0.01695295582332744 -0.00195491563106051 0 -0.00195491563106051 -0.015638555440357131 0 0 0 -0.0081478778159211427 -0.079958816232276353 -0.0069427223009226567 0 -0.0069427223009226567 0.0011915325312572556 0 0 0 -0.019691820925254733 -0.034122538129125593 -0.0076166913721204431 0 -0.0076166913721204431 -0.015290050965786478 0 0 0 -0.012353147273728021 -0.0064464713013182842 0.0087072790255851469 0 0.0087072790255851469 -0.0022766735854730102 0 0 0 -0.0021807862216978195 -0.028028991733653807 0.009150100531462273 0 0.009150100531462273 0.057566616375180416 0 0 0 0.0073844061603816555 -0.13629423527246642 0.01490456985701474 0 0.01490456985701474 0.0016709628702629153 0 0 0 -0.03365581810055096 -0.016623409608089224 0.0044886841953678883 0 0.0044886841953678883 -0.0085891829933885163 0 0 0 -0.0063031481503694345 -0.0076053532732289694 0.00066767140627721662 0 0.00066767140627721662 -0.0067630246890948154 0 0 0 -0.0035920944905809514 -0.032121710082051766 -0.014506299571125758 0 -0.014506299571125758 0.0029049276797408208 0 0 0 -0.0073041956005777293 -0.041780184985981517 -0.019444249613435494 0 -0.019444249613435494 0.00028530532719373003 0 0 0 -0.010373719914697099 -0.022333600715952188 -0.008458343623396064 0 -0.008458343623396064 -0.014441555240161368 0 0 0 -0.0091937889890283935 -0.012920233642309223 0.0035317669742842284 0 0.0035317669742842284 -0.0093955449918718299 0 0 0 -0.0055789446585452623 -0.010710605496589207 -0.0034450330244148036 0 -0.0034450330244148036 -0.0045665811089986956 0 0 0 -0.0038192966513969726 -0.033210285266803745 -0.016273092468505543 0 -0.016273092468505543 0.0096553642889538605 0 0 0 -0.005888730244462459 -0.015545967842541447 0.0014419214362235977 0 0.0014419214362235977 0.0093630757669141973 0 0 0 -0.0015457230189067916 -0.068952638273180752 -0.026033909495414273 0 -0.026033909495414273 -0.0046821013880932738 0 0 0 -0.01840868491531851 0.00079768908295951846 0.017637960441685863 0 0.017637960441685863 0.077156308594639178 0 0 0 0.019488499419399785 -0.021305641198300099 -0.0081486298460926587 0 -0.0081486298460926587 -0.0034123940650453433 0 0 0 -0.006179508815836468 -0.010724258465056379 0.0053992434172169647 0 0.0053992434172169647 -0.0076709172618673839 0 0 0 -0.0045987939317309427 -0.0081266739110450875 0.0060772367347186728 0 0.0060772367347186728 -0.0077204540003933363 0 0 0 -0.0039617819778596033 -0.022453517940353773 0.016921401020192517 0 0.016921401020192517 0.001586806482870351 0 0 0 -0.0052166778643707445 -0.019225609893216422 -0.023504268202047512 0 -0.023504268202047512 0.022535520583782276 0 0 0 0.00082747767264157446 -0.010288412856306436 0.010651801486529527 0 0.010651801486529527 0.0062788919580045316 0 0 0 -0.0010023802245754769 -0.016117342149002234 0.0092049848812998242 0 0.0092049848812998242 0.0054371068768910083 0 0 0 -0.0026700588180278029 -0.011150951349868826 0.006063411754138515 0 0.006063411754138515 -0.0063428097848047607 0 0 0 -0.0043734402836683953 -0.060372976368460118 0.0054393631740471075 0 0.0054393631740471075 -0.0011115190066004685 0 0 0 -0.015371123843765173 -0.033434444790234233 -0.0010398873021465402 0 -0.0010398873021465402 0.0118780268028717 0 0 0 -0.0053891044968406368 -0.020633993418414778 -0.0041831322384805747 0 -0.0041831322384805747 0.014157229002666721 0 0 0 -0.00161919110393699 -0.066602884095111892 0.0059549844986894231 0 0.0059549844986894231 -0.0025760856732674735 0 0 0 -0.017294742442094828 0.040567479784287042 0.069128009020614556 0 0.069128009020614556 0.047354612674679525 0 0 0 0.021980523114741635 -0.018200308077640948 0.030815607422303465 0 0.030815607422303465 -0.0036821915647182735 0 0 0 -0.0054706249105898053 -0.016753996068290755 -0.025788323922273156 0 -0.025788323922273156 -0.0031441343799345489 0 0 0 -0.0049745326120562705 -0.024816765775853261 0.0030488916634156377 0 0.0030488916634156377 0.0064220785292196892 0 0 0 -0.0045986718116583936 -0.014891006282833064 0.0036665466177220789 0 0.0036665466177220789 -0.0076230200798171315 0 0 0 -0.0056285065906625485 0.011007480305818135 -0.0022905237640644394 0 -0.0022905237640644394 0.01373559512514283 0 0 0 0.0061857688577402481 -0.02489028829170592 -0.010110419673824138 0 -0.010110419673824138 -0.0055136727478394265 0 0 0 -0.0076009902598863643 -0.026449297466943744 -0.012784700636646829 0 -0.012784700636646829 -0.0097969278900487122 0 0 0 -0.0090615563392481557 -0.016205455900644893 0.0064275318618430902 0 0.0064275318618430902 -0.00089954180764315397 0 0 0 -0.0042762494270720108 -0.0630361138169237 -0.014074192575392358 0 -0.014074192575392358 0.0006925484507857016 0 0 0 -0.01558589134153443 -0.052350745818846356 -0.018947271962289014 0 -0.018947271962289014 0.0042901922617590849 0 0 0 -0.012015138389271873 -0.014214250568892316 0.0017474307087147398 0 0.0017474307087147398 -0.004742361672502071 0 0 0 -0.0047391530603485971 -0.076201068481232759 0.04039966638158754 0 0.04039966638158754 0.0064975156792459465 0 0 0 -0.01742588820049662 -0.099583757907864001 0.030618863860090384 0 0.030618863860090384 -0.0003194474942778136 0 0 0 -0.024975801350535343 -0.0091217058253403316 0.0076652229561619684 0 0.0076652229561619684 0.013763956247662135 0 0 0 0.0011605626055803953 -0.010656627092276938 -0.013563896202339665 0 -0.013563896202339665 0.027654353983660895 0 0 0 0.0042494317228459755 -0.00034523225646973521 -0.015317479502268874 0 -0.015317479502268874 0.0047539706130463877 0 0 0 0.0011021845891441839 -0.021370418423840104 -9.8905732091147947e-05 0 -9.8905732091147947e-05 -0.018701356146618831 0 0 0 -0.010017943642614685 0.020975174454529052 0.034846784560645001 0 0.034846784560645001 0.079999657857623807 0 0 0 0.025243708078038218 -0.017505635655390671 -0.0056329868507525409 0 -0.0056329868507525409 -0.011702760088202835 0 0 0 -0.0073020989358983778 -0.028679609444421883 -0.011669386806990312 0 -0.011669386806990312 0.024462817674768836 0 0 0 -0.0010541979424133208 0.036142165867031451 0.025646450322728165 0 0.025646450322728165 0.015238790022490845 0 0 0 0.012845238972380546 -0.024708717825586656 0.0024430171891107757 0 0.0024430171891107757 0.0053291060445025233 0 0 0 -0.0048449029452710332 -0.017682647353181369 0.034598685028291554 0 0.034598685028291554 -0.0036069031682339769 0 0 0 -0.0053223876303535311 -0.015712452177862157 -0.021836387043443484 0 -0.021836387043443484 -0.0015535436383433687 0 0 0 -0.0043164989540513399 -0.023926600393270762 0.0035228406639419702 0 0.0035228406639419702 -0.0030624641086460271 0 0 0 -0.0067472661254791982 -0.045907067213010383 -0.011859247776516889 0 -0.011859247776516889 0.044360439270769686 0 0 0 -0.00038665698556018119 -0.016433681155707758 0.02830462030967551 0 0.02830462030967551 0.038532143923883933 0 0 0 0.0055246156920438771 -0.015905815600503859 -0.011022141696145571 0 -0.011022141696145571 0.0011483578545259387 0 0 0 -0.00368936443649448 -0.10073066384457542 0.0020873538098988538 0 0.0020873538098988538 0.0010025165791501256 0 0 0 -0.0249320368163563 -0.17980435105013914 -0.0067011569943724288 0 -0.0067011569943724288 0.0014581370877537747 0 0 0 -0.044586553490596328 -0.017323535366682297 0.013552289141107135 0 0.013552289141107135 0.076234755644807306 0 0 0 0.014727805069531252 -0.049640552762795644 0.0076220229104634156 0 0.0076220229104634156 -0.00025079050072113196 0 0 0 -0.012472835815879206 0.014336787307752541 -0.00084649137900871807 0 -0.00084649137900871807 0.036188964100454954 0 0 0 0.012631437852051874 0.0092695560898606311 0.0030851272963368648 0 0.0030851272963368648 0.05702476188550476 0 0 0 0.016573579493841362 0.0095335331716617233 -0.0053559736577318828 0 -0.0053559736577318828 0.10798745447467961 0 0 0 0.029380246911585417 0.020037246267232689 -0.0015259709652444831 0 -0.0015259709652444831 0.082041517973871603 0 0 0 0.025519691060276128 -0.014457236862208775 0.0084023807478844637 0 0.0084023807478844637 -0.010963258286779104 0 0 0 -0.006355123787246994 -0.015154860334964548 -0.015122983169684079 0 -0.015122983169684079 -0.0029960106506574657 0 0 0 -0.0045377177464056007 -0.0085870976080743566 0.002576130927951642 0 0.002576130927951642 0.078917543248011202 0 0 0 0.017582611409984239 -0.01132698596770107 -0.0081695426342723587 0 -0.0081695426342723587 0.038390812289887277 0 0 0 0.0067659565805465449 -0.048952078276490028 0.0042981755213423456 0 0.0042981755213423456 0.035917374382842177 0 0 0 -0.0032586759734119716 -0.0040672680505300374 0.02526168770441517 0 0.02526168770441517 0.01502446799972379 0 0 0 0.0027392999872986046 -0.0068007890093402246 0.0086029508614164918 0 0.0086029508614164918 -0.0050753165057582095 0 0 0 -0.0029690263787744975 -0.0052869823082037914 -0.0067913761628026759 0 -0.0067913761628026759 -0.0041365991546311598 0 0 0 -0.0023558953657087933 -0.0057784132337989069 -0.021074848388819789 0 -0.021074848388819789 0.0024059299667680278 0 0 0 -0.00084312081675796957 -0.018357271170361039 0.0057616623850736837 0 0.0057616623850736837 -0.0014661537864545972 0 0 0 -0.0049558562392039134 -0.014111325256134455 0.025758721717471289 0 0.025758721717471289 0.028661014934119544 0 0 0 0.0036374224194961613 -0.0036742700584081883 -0.0060614210438247884 0 -0.0060614210438247884 -0.0028535173175973372 0 0 0 -0.0016319468440011836 -0.03531088842620933 -0.0028290194825201613 0 -0.0028290194825201613 0.057492700087596327 0 0 0 0.0055454529153467491 -0.0047163405433723327 0.00787148478085542 0 0.00787148478085542 -0.0042339006494840348 0 0 0 -0.0022375602982140919 -0.012745462658238726 -0.022194278347200447 0 -0.022194278347200447 0.01385069922470672 0 0 0 0.00027630914161680398 -0.0048627320956953213 -0.020312159938043528 0 -0.020312159938043528 0.015995661921572757 0 0 0 0.0027832324564693312 -0.034009466486706073 -0.0172362252483233 0 -0.0172362252483233 0.0060387731639845732 0 0 0 -0.0069926733306803698 -0.033214659323726109 -0.016112916361753021 0 -0.016112916361753021 0.0077614187282051272 0 0 0 -0.0063633101488802524 -0.017773920417038815 -0.008540697406769264 0 -0.008540697406769264 -0.0082099211761717632 0 0 0 -0.0064959603983026481 -0.017707490711096757 0.059519478399357451 0 0.059519478399357451 0.013205881090212701 0 0 0 -0.0011254024052209377 -0.062290899904480529 -0.0067581889376611137 0 -0.0067581889376611137 -0.00020399518943670092 0 0 0 -0.015623723773479287 0.017222760048401196 -0.015785057627507412 0 -0.015785057627507412 0.027028512742537536 0 0 0 0.011062818197734685 -0.011733671335082893 -0.0086666980768269064 0 -0.0086666980768269064 0.016698944976122038 0 0 0 0.0012413184102597896 -0.0028282330075892967 0.016987221756594 0 0.016987221756594 0.014012704678363241 0 0 0 0.002796117917693481 -0.021992726157506304 -0.0089530253464234488 0 -0.0089530253464234488 -0.013342013694713328 0 0 0 -0.0088336849630548941 -0.023767922721464829 -0.010164840524004039 0 -0.010164840524004039 -0.017498674166335215 0 0 0 -0.010316649221950025 -0.2058075592229881 0.0034058592971398256 0 0.0034058592971398256 0.0055421178303944885 0 0 0 -0.050066360348148431 -0.10898183690957379 -0.0015096574538017852 0 -0.0015096574538017852 0.0023941076476260426 0 0 0 -0.026646932315486954 -0.022548778782020256 -0.00404281379702243 0 -0.00404281379702243 -0.0075179330693964453 0 0 0 -0.0075166779628541751 -0.028011919752905495 0.0050605213325179213 0 0.0050605213325179213 -0.0093370520041808572 0 0 0 -0.0093372429392715867 0.0032230309759928161 0.0053790451296435032 0 0.0053790451296435032 0.0032466873891931203 0 0 0 0.0016174295912964876 -0.010347783361004101 0.01505171919484749 0 0.01505171919484749 0.016179906578456783 0 0 0 0.0014580308043631793 -0.0057731954995720383 0.010202907548182566 0 0.010202907548182566 0.0024895953037279671 0 0 0 -0.00082090004896101867 -0.091122001514721079 -0.012625959909687644 0 -0.012625959909687644 -0.0087058283275957306 0 0 0 -0.024956957460579209 -0.066400798802828107 0.0040089628856442606 0 0.0040089628856442606 -0.0042203732390412203 0 0 0 -0.017655293010467345 0.041083078136484596 0.028199833061068824 0 0.028199833061068824 0.019176889973630207 0 0 0 0.015064992027528756 -0.074991352198880049 -0.011832759518864736 0 -0.011832759518864736 -0.0050539684678634145 0 0 0 -0.020011330166685857 -0.05854897958991457 0.0039566899061115081 0 0.0039566899061115081 -0.002677164054648247 0 0 0 -0.015306535911140706 -0.02752446380134202 -0.0028724110234409975 0 -0.0028724110234409975 -0.0076787872743137031 0 0 0 -0.0088008127689139237 0.034171556848246076 0.077592557079423141 0 0.077592557079423141 0.04799446066369728 0 0 0 0.020541504377985964 0.00021983903586698592 0.0080216772647041593 0 0.0080216772647041593 -0.0027758667444807011 0 0 0 -0.00063900692715342794 -0.02309156820565085 -0.0071789783311998062 0 -0.0071789783311998062 0.0072144984519892374 0 0 0 -0.0039692674384153998 -0.044865281859190392 -0.0072986478966148129 0 -0.0072986478966148129 -0.014952006358109794 0 0 0 -0.014954322054325045 -0.041536627278978042 0.0041758001918185857 0 0.0041758001918185857 -0.013842397923867352 0 0 0 -0.013844756300711348 -0.089242177607749107 0.0033363893806454925 0 0.0033363893806454925 -0.0005069229230788147 0 0 0 -0.022437275132706977 -0.14635021114944549 -0.0084816096092752633 0 -0.0084816096092752633 -0.0010210061136776694 0 0 0 -0.036842804315780797 -0.052505022843770718 -0.0069995813095093118 0 -0.0069995813095093118 0.019195451686674359 0 0 0 -0.0083273927892741489 0.012034565371192102 -0.013070979222826962 0 -0.013070979222826962 0.020600626600787764 0 0 0 0.0081587979929949872 -0.042011130324889373 -0.0081192198836464169 0 -0.0081192198836464169 0.042264028329668094 0 0 0 6.3224501194666244e-05 -0.016304753460112502 0.012255243105210669 0 0.012255243105210669 0.024428187740987643 0 0 0 0.0020308585702187888 -0.025239918532225937 0.0079658175470934938 0 0.0079658175470934938 0.027832913321381884 0 0 0 0.0006482486972889806 0.0088007596440588566 0.016485625031458437 0 0.016485625031458437 0.022508335651932523 0 0 0 0.0078272738239978414 0.018918707305660882 0.012947395573248283 0 0.012947395573248283 0.012200679981993139 0 0 0 0.0077798468219135129 -0.015979416196637702 -0.011377147433437457 0 -0.011377147433437457 -0.024273898026552665 0 0 0 -0.010063328555797613 -0.043760665690712248 -0.013462324624973238 0 -0.013462324624973238 0.020316175024484268 0 0 0 -0.0058611226665570369 -0.047699313391886239 -0.023553491081097312 0 -0.023553491081097312 0.048775812675261238 0 0 0 0.00026912482084373579 -0.0092637975287087788 -0.04028991866908431 0 -0.04028991866908431 0.079010485900993827 0 0 0 0.01743667209307127 -0.083610914954941024 0.0030695577000376048 0 0.0030695577000376048 -0.00048689126006985772 0 0 0 -0.021024451553752717 -0.13140952222868529 -0.0072534124370073798 0 -0.0072534124370073798 -0.0011402009405719754 0 0 0 -0.033137430792314321 -0.0011271276694247686 -0.0015738005875867711 0 -0.0015738005875867711 -0.026756999780758038 0 0 0 -0.0069710318625457431 -0.0074464782112955152 -0.023985514374691291 0 -0.023985514374691291 0.059360323317315111 0 0 0 0.012978461276504843 -0.007870718632073944 0.0093032518499131696 0 0.0093032518499131696 -0.0023287344005563128 0 0 0 -0.0025498632581575616 -0.071579041708847616 -0.011658628989233508 0 -0.011658628989233508 -0.011174286020913997 0 0 0 -0.020688331932440407 -0.056027091259753754 0.0042382248555152997 0 0.0042382248555152997 -0.0063221515354120556 0 0 0 -0.015587310698791452 -0.02589161873096835 0.0032481265553231577 0 0.0032481265553231577 -0.0035924938340469639 0 0 0 -0.0073710281412538315 -0.041826534600430912 -0.0048410553952275108 0 -0.0048410553952275108 0.046079376765031752 0 0 0 0.0010632105411502316 -0.017411422670693205 -0.01173971355691894 0 -0.01173971355691894 0.01242401807006871 0 0 0 -0.0012468511501560753 -0.027586371085651915 0.0048719258482940609 0 0.0048719258482940609 -0.0019770731042868328 0 0 0 -0.0073908610474846918 -0.052359629070106606 0.01326704483481711 0 0.01326704483481711 0.00054517342037607719 0 0 0 -0.012953613912432771 -0.010973164499950339 -0.016732825733436707 0 -0.016732825733436707 0.036420182696067283 0 0 0 0.0063617545490293193 -0.0049869701214115825 -0.014686063939844285 0 -0.014686063939844285 0.030794090384299255 0 0 0 0.0064517800657218904 -0.030161377262999646 -0.019770066984864283 0 -0.019770066984864283 0.031778079556189803 0 0 0 0.00040417557329752024 -0.033895888143315095 -0.012168210609876856 0 -0.012168210609876856 0.023246226717145102 0 0 0 -0.002662415356542519 -0.02563241474002885 -0.00057761994655226943 0 -0.00057761994655226943 0.019371572061007584 0 0 0 -0.0015652106697553211 -0.040355473329998538 -0.0052576933976362537 0 -0.0052576933976362537 0.043982969838606924 0 0 0 0.00090687412715209637 0.00080398335296227863 0.022804566286442896 0 0.022804566286442896 0.085889670177485833 0 0 0 0.021673413382611972 0.00014108031071391469 8.1936943167937315e-05 0 8.1936943167937315e-05 0.00060670449634336876 0 0 0 0.00018694620176418209 -0.0021576726354688713 -0.018375079582336307 0 -0.018375079582336307 0.044849672213354785 0 0 0 0.010672999894471541 0.00032801953562366926 -0.00028998116683709441 0 -0.00028998116683709441 0.00070200922998164828 0 0 0 0.00025750719140127387 -0.025557534973653123 0.0026585266055496395 0 0.0026585266055496395 0.020967271002235048 0 0 0 -0.0011475659928545127 -0.027206161941463559 0.00027263318728970587 0 0.00027263318728970587 0.013501298779792476 0 0 0 -0.0034262157904177797 -0.025709729884645323 -0.0079922741345717779 0 -0.0079922741345717779 0.019087109861702374 0 0 0 -0.0016556550057357233 -0.116297134722878 -0.012838115335064897 0 -0.012838115335064897 0.0013614008654568299 0 0 0 -0.028733933464355266 -0.13459880175204264 -0.018934454101729864 0 -0.018934454101729864 0.0018325098460842681 0 0 0 -0.033191572976489635 -0.022137366594479395 -0.019861816964392605 0 -0.019861816964392605 -0.0017093674005880868 0 0 0 -0.0059616834987668982 -0.034667238211387626 -1.2573705594088463e-05 0 -1.2573705594088463e-05 0.0050733449926454663 0 0 0 -0.0073984733046855364 -0.011248438381596185 -0.027004087324817294 0 -0.027004087324817294 0.044103059094706187 0 0 0 0.0082136551782775041 -0.054220095629301072 0.0050063757424267117 0 0.0050063757424267117 -0.0056534344715183683 0 0 0 -0.014968382525204859 -0.045881623001461876 0.004501126210673341 0 0.004501126210673341 -0.0073583354000221375 0 0 0 -0.013309989600371002 -0.049973147706679863 -0.010874995959579505 0 -0.010874995959579505 -0.0133904234699862 0 0 0 -0.015840892794166513 -0.066597066276715577 -0.012982709174104476 0 -0.012982709174104476 -0.012940656739476067 0 0 0 -0.019884430754047902 -0.050398617452254602 -0.018645837777681556 0 -0.018645837777681556 0.00073523921890616961 0 0 0 -0.012415844558337108 -0.039140972405231622 -0.019951932257241484 0 -0.019951932257241484 0.001239460149614402 0 0 0 -0.0094753780639044161 -0.024436471855704783 -0.0036949628571692162 0 -0.0036949628571692162 -0.013876982042017927 0 0 0 -0.0095783634744306748 -0.02350049701799449 -0.0046488233664108217 0 -0.0046488233664108217 -0.014612040888808532 0 0 0 -0.0095281344767007576 -0.028224500365472124 0.0059444457803488095 0 0.0059444457803488095 -0.007776285464005106 0 0 0 -0.0090001964573693059 -0.030770197344254215 0.0041867036908806634 0 0.0041867036908806634 -0.01006769495078247 0 0 0 -0.010209473073759173 -0.02112225162824477 0.038044963177109148 0 0.038044963177109148 0.00086201922238604567 0 0 0 -0.0050650581014646257 -0.02223909101844368 -0.023423771792211445 0 -0.023423771792211445 -0.0044761342442936058 0 0 0 -0.0066788063156844046 -0.040928513907337087 0.0035044269894461471 0 0.0035044269894461471 -0.0058522300418576275 0 0 0 -0.011695185987298688 -0.033409549111453926 -0.0085586505326076499 0 -0.0085586505326076499 -0.013774075073885481 0 0 0 -0.011795906046334848 -0.025804777685399218 -0.0035074551277579531 0 -0.0035074551277579531 0.0090152192174012685 0 0 0 -0.004197389616999482 -0.04901554034339034 0.0043267561745663867 0 0.0043267561745663867 -0.0041573954475214829 0 0 0 -0.013293233947727943 -0.053388145795408487 -0.012260112726378808 0 -0.012260112726378808 -0.0088939792331501309 0 0 0 -0.015570531257139657 -0.065287889365742979 -0.012025171636450685 0 -0.012025171636450685 0.075329353404396143 0 0 0 0.002510366009663284 -0.028378514874902422 -0.0014555023303957637 0 -0.0014555023303957637 0.010499193062179703 0 0 0 -0.0044698304531806867 -0.057765668899336896 -0.0068843743672398188 0 -0.0068843743672398188 -0.019263839111290138 0 0 0 -0.019257377002656759 -0.048265626050515167 0.0028700179240578019 0 0.0028700179240578019 -0.016092827769175894 0 0 0 -0.016089613454922765 0.02183909406702704 0.0094505211943799218 0 0.0094505211943799218 0.025013342601028415 0 0 0 0.01171310916701386 -0.0056906372237997549 -0.0017636333192190268 0 -0.0017636333192190268 -0.033643057361217865 0 0 0 -0.0098334236462543356 -0.042652985539022401 0.0026152649987686155 0 0.0026152649987686155 0.0068767634614802231 0 0 0 -0.0089440555193855548 0.0068673485544052393 -0.022138110662568211 0 -0.022138110662568211 0.014107660540568445 0 0 0 0.0052437522737435183 -0.026195151848736064 0.0038379602737619008 0 0.0038379602737619008 0.021140315253592831 0 0 0 -0.0012637091487858031 -0.032529780148919774 -0.0063350658090760969 0 -0.0063350658090760969 0.022917162435178676 0 0 0 -0.0024031544284352727 -0.10734613017041023 -0.0043502103109234764 0 -0.0043502103109234764 -0.008099309258622036 0 0 0 -0.028861359857258056 -0.075270161419037793 -0.00044410809590101144 0 -0.00044410809590101144 -0.0057432615551879021 0 0 0 -0.020253355743556425 -0.0062513571659611467 -0.013080169265533043 0 -0.013080169265533043 0.026930408916803095 0 0 0 0.005169762937710487 -0.021357576358641665 0.0077328017726905514 0 0.0077328017726905514 0.013511613979957249 0 0 0 -0.0019614905946711029 -0.028677957505655428 -0.0022112246514563241 0 -0.0022112246514563241 0.0064160518915538887 0 0 0 -0.0055654764035253943 -0.0659478043618143 0.0015887618354010966 0 0.0015887618354010966 0.0038243155111153115 0 0 0 -0.015530872212674747 -0.076825096086112321 0.014660864280762853 0 0.014660864280762853 0.00073019334894475207 0 0 0 -0.019023725684292003 -0.033708166374939147 -0.0012826692362399444 0 -0.0012826692362399444 0.019436072134615429 0 0 0 -0.0035680235600809296 -0.034116331640288725 -0.014484104530635131 0 -0.014484104530635131 0.012499396105475624 0 0 0 -0.0054042338837032716 -0.032287710339836379 0.00091706596639029581 0 0.00091706596639029581 0.0070534078236918069 0 0 0 -0.0063085756290361429 -0.019979379693913071 0.007259536529976001 0 0.007259536529976001 0.017400433632123891 0 0 0 -0.00064473651544730195 -0.039063996153186717 -0.017006659012811565 0 -0.017006659012811565 0.011142200211710418 0 0 0 -0.0069804489853690366 0.0438141937996816 0.012666410891314789 0 0.012666410891314789 0.067336229092977901 0 0 0 0.027787605723164882 -0.037150453423300277 0.0046271663821661271 0 0.0046271663821661271 0.0026103810264790639 0 0 0 -0.0086350180992053119 -0.047061667836779453 0.011177935643812082 0 0.011177935643812082 -0.0021245875178559359 0 0 0 -0.012296563838658736 -0.0082722795129268611 -0.014379863452621988 0 -0.014379863452621988 0.040133986602684635 0 0 0 0.0079654267724394434 0.0034942328330435646 -0.012057434599115235 0 -0.012057434599115235 0.027624751054878049 0 0 0 0.0077797459719803341 -0.088267720757130935 -0.021337942661584064 0 -0.021337942661584064 0.023815087892857634 0 0 0 -0.016113158216068318 0.0021815635001350038 -0.010838139123283359 0 -0.010838139123283359 -0.011530755103341672 0 0 0 -0.0023372979008016749 -0.085829997009251396 0.005568324704913391 0 0.005568324704913391 0.001591873853967446 0 0 0 -0.021059530788820974 -0.14669863412027584 -0.017666104738869121 0 -0.017666104738869121 0.0043570123674988373 0 0 0 -0.035585405438194259 -0.083881684914481891 0.00078753689133020943 0 0.00078753689133020943 -2.750296409545494e-05 0 0 0 -0.020977296969644399 -0.14583715800058974 -0.0046478127704880912 0 -0.0046478127704880912 0.0013607014551463847 0 0 0 -0.036119114136360764 -0.065410538076932881 -0.00026182137427177999 0 -0.00026182137427177999 -0.0085681880766424467 0 0 0 -0.018494681538393839 -0.089461660122006958 -0.0037927313140663369 0 -0.0037927313140663369 -0.011120974029808928 0 0 0 -0.025145658537953964 -0.034519626056969899 -0.009310371438398829 0 -0.009310371438398829 0.030612434848306759 0 0 0 -0.00097679780216578319 -0.031505637437375313 -0.016186945158167897 0 -0.016186945158167897 0.039395098241961787 0 0 0 0.0019723652011466239 -0.011816570795357806 -0.0023720256017906172 0 -0.0023720256017906172 0.044463655343580766 0 0 0 0.0081617711370557955 -0.0041971807625345858 -0.0015917925987491699 0 -0.0015917925987491699 0.087746187423665911 0 0 0 0.020887251665282797 -0.013448848784186035 0.0044930833898383093 0 0.0044930833898383093 0.0265583414286715 0 0 0 0.0032773731611213663 -0.008900200369656025 0.0011246086859350024 0 0.0011246086859350024 0.07552412486654958 0 0 0 0.016655981124223396 -0.020144278407706592 -0.0074320956746598277 0 -0.0074320956746598277 0.037758396369879654 0 0 0 0.004403529490543262 -0.032330933338697361 0.001250543556695724 0 0.001250543556695724 0.0077605267565749939 0 0 0 -0.0061426016455305918 -0.019594489995617193 -0.015660895910113333 0 -0.015660895910113333 0.032434971200411028 0 0 0 0.0032101203011984519 -0.033457151758868556 -0.017233471805000962 0 -0.017233471805000962 0.028635387216703584 0 0 0 -0.0012054411355412464 -0.029446598293523266 0.00069060307414863659 0 0.00069060307414863659 0.038856208071890379 0 0 0 0.0023524024445917783 -0.10703411327316936 0.013688205773762422 0 0.013688205773762422 -0.0010519567245883543 0 0 0 -0.027021517499439263 -0.040718717440990836 -0.0047663466248595854 0 -0.0047663466248595854 0.041601283841055867 0 0 0 0.00022064160001625949 0.0086864607584778708 -0.012570456666596036 0 -0.012570456666596036 0.11190420459436512 0 0 0 0.030147666338210782 0.048679709293794227 -0.015583792746525504 0 -0.015583792746525504 0.057895996095787439 0 0 0 0.026643926347395402 0.013660062218462776 -0.011947893781384444 0 -0.011947893781384444 0.022937367170770551 0 0 0 0.0091493573473083178 -0.16211404776675672 -0.013471593750692956 0 -0.013471593750692956 0.0041105275334996638 0 0 0 -0.039500880058314314 -0.091614518471310163 0.0048582889842946619 0 0.0048582889842946619 0.0013645707236955365 0 0 0 -0.022562486936903624 -0.041830207016235937 -0.0044074831191747658 0 -0.0044074831191747658 0.044204784329802474 0 0 0 0.00059364432839164455 -0.064415335230460613 0.033321883559907839 0 0.033321883559907839 -0.0054223224610798759 0 0 0 -0.017459414422885233 -0.045806830615300331 0.033275139184118951 0 0.033275139184118951 0.00078051241063947785 0 0 0 -0.011256579551165213 -0.020563866476013271 -0.02607787233915676 0 -0.02607787233915676 0.012628950055071364 0 0 0 -0.0019837291052354211 -0.013845725375283889 -0.023022059163167241 0 -0.023022059163167241 0.01486833042198233 0 0 0 0.00025565126167470748 -0.016624961103439029 -0.016871820153768535 0 -0.016871820153768535 0.045079656389923617 0 0 0 0.0071136738216212025 -0.021188896511354249 0.0088859043321201491 0 0.0088859043321201491 0.00053921187686079008 0 0 0 -0.0051624211586234203 -0.039944313874246865 0.0046155065061483456 0 0.0046155065061483456 -0.0061102413691036615 0 0 0 -0.011513638810837628 -0.037656169640937522 -0.0068535608833235782 0 -0.0068535608833235782 -0.013111200695988614 0 0 0 -0.01269184258423154 -0.023776214925038206 -0.028922749072115006 0 -0.028922749072115006 0.0056554301985849015 0 0 0 -0.0045301961816132975 -0.023609976205377081 -0.026876192794486886 0 -0.026876192794486886 0.0059112502213714002 0 0 0 -0.0044246814960016145 -0.027445807038247422 -0.02703694643459531 0 -0.02703694643459531 0.0027566513635839673 0 0 0 -0.0061722889186658636 -0.027983551359553938 -0.028937073012334363 0 -0.028937073012334363 0.0045127001964986313 0 0 0 -0.0058677127907638127 -0.040842193307875169 0.043692109100673449 0 0.043692109100673449 -0.00485502233120233 0 0 0 -0.011424303909769534 -0.030700720193762056 0.040165701286907218 0 0.040165701286907218 -0.003912133788624754 0 0 0 -0.0086532134955967024 -0.044313985827289654 0.005588345250530524 0 0.005588345250530524 -0.011360563632226222 0 0 0 -0.013918637364878965 -0.052238642207875899 -0.011266372333411875 0 -0.011266372333411875 -0.016336024409902443 0 0 0 -0.017143666654444584 -0.078888084673464698 -0.0088640655440652971 0 -0.0088640655440652971 0.0062673385854861152 0 0 0 -0.018155186521994687 -0.13719440955878964 0.019996925114019334 0 0.019996925114019334 0.0092948592256802964 0 0 0 -0.031974887583277378 -0.062758695426660752 0.0078821376004235902 0 0.0078821376004235902 0.0014352588089540097 0 0 0 -0.015330859154426696 -0.019184516636679218 0.0071229628971142163 0 0.0071229628971142163 0.0066980427100626176 0 0 0 -0.0031216184816541467 -0.0051811533390122011 -0.010605719847643136 0 -0.010605719847643136 -0.020794294543580061 0 0 0 -0.0064938619706480516 -0.09914503254711006 -0.018131613328312039 0 -0.018131613328312039 0.0012496758771265715 0 0 0 -0.024473839167495862 -0.13014333494693076 -0.015353596127963718 0 -0.015353596127963718 -0.0030182373642478472 0 0 0 -0.033290393077794661 -0.011718603562496495 0.00060451505416753344 0 0.00060451505416753344 -0.012856287098396382 0 0 0 -0.0061437226652232202 -0.024899998145660754 0.006236022728640031 0 0.006236022728640031 0.051713525384315673 0 0 0 0.0067033818096637332 -0.092567321993871354 -0.0011101801548278473 0 -0.0011101801548278473 -9.0687960191571104e-05 0 0 0 -0.023164502488515704 -0.16834363576741143 0.0014343986829224442 0 0.0014343986829224442 -0.00047463688421944816 0 0 0 -0.042204568162907657 -0.051682506472418073 -0.0051700079840192176 0 -0.0051700079840192176 0.0070351768672082537 0 0 0 -0.011161832401302481 -0.07460899901042084 -0.016683928817663098 0 -0.016683928817663098 -0.0097771747182238238 0 0 0 -0.021096543432161177 -0.054513374999474742 -0.016055794419527741 0 -0.016055794419527741 -0.0067866112390104214 0 0 0 -0.015324996559621294 0.00071426370023675023 0.066267813983229756 0 0.066267813983229756 0.1308937526691818 0 0 0 0.032902004092354609 -0.12081629011708095 -0.0066654404402709047 0 -0.0066654404402709047 8.5905789129571419e-05 0 0 0 -0.030182596081987863 -0.077432526405195212 0.0028123083039775371 0 0.0028123083039775371 0.00034380370509907304 0 0 0 -0.019272180675024043 -0.023769643723380557 -0.010451205628541294 0 -0.010451205628541294 -0.012843038185036848 0 0 0 -0.009153170477104372 -0.026306848275361311 -0.010545532161931728 0 -0.010545532161931728 -0.0090340099635852766 0 0 0 -0.0088352145597366538 -0.02359530938495728 0.0067308265909145001 0 0.0067308265909145001 0.030486274744364408 0 0 0 0.0017227413398517876 -0.020938010275930771 -0.01000788940999282 0 -0.01000788940999282 0.001340167958985089 0 0 0 -0.0048994605792364171 -0.0092723887265914809 0.012365622276405509 0 0.012365622276405509 0.0041496015802999428 0 0 0 -0.0012806967865728845 -0.0037706031827282604 0.01667948078787751 0 0.01667948078787751 0.1212722511615929 0 0 0 0.029375411994716272 -0.062400357750186743 0.0071298109970765189 0 0.0071298109970765189 0.0023819637335880245 0 0 0 -0.015004598504149707 -0.028554823395824633 -0.00013220420418407841 0 -0.00013220420418407841 0.0054128346600312589 0 0 0 -0.0057854971839483484 0.052549935712646656 0.013276419530835094 0 0.013276419530835094 0.046266438573060231 0 0 0 0.024704093571426666 -0.059308125979218015 -0.0081747518071100256 0 -0.0081747518071100256 -0.002110625840475569 0 0 0 -0.015354687954923382 -0.20108032592009634 -0.0013414989802635613 0 -0.0013414989802635613 -0.00048563401473011858 0 0 0 -0.050391489983706572 -0.10789334905369957 -0.000182980333759696 0 -0.000182980333759696 -0.00045992885210033307 0 0 0 -0.027088319476449935 -0.039597456846087724 -0.00017634683470525367 0 -0.00017634683470525367 0.049610513292692698 0 0 0 0.0025032641116512384 -0.075384262793687193 -0.013387261431222524 0 -0.013387261431222524 -0.0051353919810376153 0 0 0 -0.020129913693681202 -0.090890879749534609 -0.018439726151600035 0 -0.018439726151600035 -0.0028994286151662052 0 0 0 -0.023447577091175197 0.023678881067273908 0.020421432738759689 0 0.020421432738759689 0.025640628973841645 0 0 0 0.012329877510278892 -0.040263766851770133 -0.0095166363569295503 0 -0.0095166363569295503 -0.00091045923844346177 0 0 0 -0.010293556522553371 -0.032397446184929228 -0.013067104604086055 0 -0.013067104604086055 0.0085559174734481103 0 0 0 -0.0059603821778702812 -0.0059741183239263584 0.019408628323504467 0 0.019408628323504467 0.08658968359971464 0 0 0 0.020153891318946737 -0.015901579564409851 -0.0056695589365086179 0 -0.0056695589365086179 0.0012178631399821782 0 0 0 -0.0036709291061066684 -0.039824052695483503 -0.024656384718161534 0 -0.024656384718161534 0.026681958452079269 0 0 0 -0.0032855235608510586 -0.022189499685653383 -0.0073502684705330154 0 -0.0073502684705330154 0.033617746057700904 0 0 0 0.0028570615930118559 -0.034537305044856297 -0.0012127324080716401 0 -0.0012127324080716401 0.011804346627465934 0 0 0 -0.0056832396043476271 -0.037724396601164445 0.009921034247217575 0 0.009921034247217575 -0.0012561574371976469 0 0 0 -0.0097451385095903564 -0.0099962631689043402 -0.016877183876760515 0 -0.016877183876760515 0.046266046801914484 0 0 0 0.0090674459082527026 -0.036141506858103495 0.0040396041788820884 0 0.0040396041788820884 -0.0018913706937945599 0 0 0 -0.0095082193879745189 0.008290303898496873 -0.0032051153644439417 0 -0.0032051153644439417 0.03761190247026136 0 0 0 0.011475551592189562 -0.073912852222199038 0.0050864388961856912 0 0.0050864388961856912 0.00013310016951620374 0 0 0 -0.018444938013170667 -0.056891402110064535 -0.015289492336707764 0 -0.015289492336707764 0.02034680215995327 0 0 0 -0.0091361499875277918 -0.059588975580090783 0.0068936071644006384 0 0.0068936071644006384 -0.0022313624543821367 0 0 0 -0.015455084508618233 -0.064605269080773353 -0.0086390778627460363 0 -0.0086390778627460363 0.0013169690487595531 0 0 0 -0.015822075008003367 -0.07977046078304291 0.0043076658797003911 0 0.0043076658797003911 -0.00067932262092178231 0 0 0 -0.020112445850991163 -0.069712127821026981 0.0054593896061068542 0 0.0054593896061068542 0.00031407998760239753 0 0 0 -0.017349511958356163 -0.069259643192508824 0.042053207680318838 0 0.042053207680318838 -0.00039054735871812962 0 0 0 -0.017412547637806697 -0.038629334042632704 -0.005680828188116699 0 -0.005680828188116699 -0.014391840301643078 0 0 0 -0.013255293586068945 -0.044318051741808889 -0.01131229784712545 0 -0.01131229784712545 -0.01527245712992871 0 0 0 -0.014897627217934398 -0.041322490348486472 0.0059994700643927088 0 0.0059994700643927088 -0.0088650179846787476 0 0 0 -0.012546877083291306 -0.039237583200931965 0.0035830287358462774 0 0.0035830287358462774 -0.010452856389027472 0 0 0 -0.012422609897489858 -0.027492201913588171 -0.0059683148843880061 0 -0.0059683148843880061 0.015660728512701297 0 0 0 -0.0029578683502217151 -0.022288628803703036 -0.02580777511896095 0 -0.02580777511896095 0.042682779793915639 0 0 0 0.005098537747553188 -0.033734817490710174 -0.017749784139927616 0 -0.017749784139927616 0.017628655512767648 0 0 0 -0.0040265404944856238 -0.037771085796441894 -0.012231389252775143 0 -0.012231389252775143 0.02862797846756282 0 0 0 -0.0022857768322197825 -0.032671957314033662 -0.014591712771374138 0 -0.014591712771374138 0.016830250734125335 0 0 0 -0.0039604266449770609 -0.023411565280925722 -0.0026951125706017112 0 -0.0026951125706017112 0.033795640164172247 0 0 0 0.0025960187208116103 -0.025569291166222918 -0.0078214143728845831 0 -0.0078214143728845831 0.017773510806920689 0 0 0 -0.0019489450898255156 -0.11091604182456812 0.0018939975750412615 0 0.0018939975750412615 0.00052381221586716986 0 0 0 -0.02759805740217533 -0.21150928810435582 -0.0048900558925755533 0 -0.0048900558925755533 0.0033353106692247669 0 0 0 -0.052043494358782749 -0.014399542615585632 -0.0072080698305278801 0 -0.0072080698305278801 0.018414624005702929 0 0 0 0.0010037703475293189 -0.019894817957287786 -0.0044927709829538365 0 -0.0044927709829538365 0.039237929784926295 0 0 0 0.0048357779569096204 -0.057011772662533863 0.0054494500822600059 0 0.0054494500822600059 0.0074811831572443033 0 0 0 -0.012382647376322387 -0.017737783431796536 0.00397074425636533 0 0.00397074425636533 -0.0076937914876188578 0 0 0 -0.0063578937298538508 -0.031481812396900191 -0.011083727356971751 0 -0.011083727356971751 -0.0076398723877173398 0 0 0 -0.0097804211961543784 -0.019527399324617861 -0.0041592608826592882 0 -0.0041592608826592882 -0.012460836865276539 0 0 0 -0.0079970590474736022 -0.017010666156080594 -0.03716858292137093 0 -0.03716858292137093 0.077101718682495157 0 0 0 0.015022763131603617 -0.073831741943283763 0.0025023841560259785 0 0.0025023841560259785 -0.0029993848657646517 0 0 0 -0.019207781702262106 -0.067780314931839572 0.0020916586992955327 0 0.0020916586992955327 -0.0014661586291893659 0 0 0 -0.017311618390257227 -0.093446820503111996 -0.0077500572780328184 0 -0.0077500572780328184 -0.0017420215823827773 0 0 0 -0.023797210521373693 -0.10906245211890953 -0.0087455789551685904 0 -0.0087455789551685904 -0.0055181335780035284 0 0 0 -0.02864514642422825 -0.097112081588236532 -0.0061523064569844162 0 -0.0061523064569844162 0.0012164721155818459 0 0 0 -0.023973902368163602 -0.015133991997706653 0.062573989116831596 0 0.062573989116831596 0.080643180277746307 0 0 0 0.016377297070009844 0.0024410393012236908 -0.012754441229415714 0 -0.012754441229415714 0.026243711033339112 0 0 0 0.0071711875836407146 -0.010127619539826656 -0.0087249410804305372 0 -0.0087249410804305372 -0.019923901244996562 0 0 0 -0.0075128801962057977 -0.041454940265470308 0.0052772391229849291 0 0.0052772391229849291 -0.0021676939989331871 0 0 0 -0.010905658566100884 -0.039993451106783165 -0.0025242794013013402 0 -0.0025242794013013402 0.036093260399304841 0 0 0 -0.00097504767686958961 -0.06308694372782056 0.0053720269470342516 0 0.0053720269470342516 -0.00063797623128908354 0 0 0 -0.015931229989777439 0.0061600973299457129 0.028538986376767994 0 0.028538986376767994 0.018540469458060427 0 0 0 0.0061751416970013961 -0.021620412954584448 0.0058874073313530308 0 0.0058874073313530308 -0.00791357185425514 0 0 0 -0.0073834962022098971 -0.025367022595176359 -0.013886277199941288 0 -0.013886277199941288 -0.0077599839046159566 0 0 0 -0.008281751624948059 0.024236503357447294 -0.050598977061282954 0 -0.050598977061282954 0.060568730689273029 0 0 0 0.021201308511680089 -0.17493743384100702 0.014629388919867981 0 0.014629388919867981 0.0018556650271701614 0 0 0 -0.043270442203459103 -0.013063444719377627 0.0027668812833569331 0 0.0027668812833569331 -0.0086175007114897683 0 0 0 -0.0054202363577168493 -0.047250847675804487 0.0031001672294402581 0 0.0031001672294402581 -0.011424307052519556 0 0 0 -0.01466878868208101 -0.054124313704261018 -0.0068428514572984062 0 -0.0068428514572984062 -0.015388252976742366 0 0 0 -0.017378141670250848 -0.015247476182392259 0.0098410950593164868 0 0.0098410950593164868 0.011061790023558171 0 0 0 -0.0010464215397085232 -0.083996795795938772 0.0041843943982510928 0 0.0041843943982510928 0.0017480664177423333 0 0 0 -0.020562182344549179 -0.14368351866563225 -0.012447999634275009 0 -0.012447999634275009 0.0061167930875830473 0 0 0 -0.034391681394512347 -0.0005073313229966292 0.024838409021467722 0 0.024838409021467722 0.044665549645170444 0 0 0 0.011039554580543509 -0.036310255273798941 -0.012628473398684614 0 -0.012628473398684614 -0.0029995851513011651 0 0 0 -0.0098274601062749989 -0.01734543500512703 0.0031645120027612716 0 0.0031645120027612716 0.045188375048361457 0 0 0 0.0069607350108085997 -0.010369646359859624 -0.019902468392948965 0 -0.019902468392948965 0.010867230051080423 0 0 0 0.00012439592280522049 -0.026681804803089064 0.0016579193290019098 0 0.0016579193290019098 0.017079016351630227 0 0 0 -0.002400697112864697 -0.01985840333258454 0.0057286481425397259 0 0.0057286481425397259 0.004615414761343254 0 0 0 -0.0038107471428103215 -0.014361890018290255 0.00036118208954240207 0 0.00036118208954240207 -0.011513943313988638 0 0 0 -0.0064689583330697232 -0.035215635151964846 0.0038053231412446126 0 0.0038053231412446126 0.0019039861518732812 0 0 0 -0.0083279122500228876 -0.028471215737614339 -0.014627228782020892 0 -0.014627228782020892 0.097987012749054747 0 0 0 0.017378949252860126 -0.029987063588999534 -0.01498072795702611 0 -0.01498072795702611 0.090340886935777701 0 0 0 0.015088455836694548 -0.031686505645614205 -0.020074080509316472 0 -0.020074080509316472 -0.00038161058523389357 0 0 0 -0.0080170290577121217 -0.027897313218233522 -0.019084211244978555 0 -0.019084211244978555 -0.00058241793519342444 0 0 0 -0.0071199327883567642 -0.012584119624538648 0.034376879288970486 0 0.034376879288970486 0.02024802322235475 0 0 0 0.0019159758994542475 -0.018739653792744893 0.035895048643963423 0 0.035895048643963423 0.017455095216938776 0 0 0 -0.0003211396439517511 -0.012006370250455811 0.038283016736247941 0 0.038283016736247941 0.0092532022299440797 0 0 0 -0.00068829200512787736 0.015542736046976424 0.036364654469833946 0 0.036364654469833946 0.015482657322565707 0 0 0 0.0077563483423854773 -0.01667445467022886 0.0039528671495391177 0 0.0039528671495391177 -0.0055587012764129664 0 0 0 -0.0055582889866604554 -0.016092842004050728 0.0019356143457167074 0 0.0019356143457167074 0.059344050290594863 0 0 0 0.010812802071636041 -0.023580528200603058 -6.3590412347061531e-05 0 -6.3590412347061531e-05 0.030179909365629837 0 0 0 0.0016498452912567171 -0.066406299266388746 -0.012881525899402946 0 -0.012881525899402946 -0.00022172767534245352 0 0 0 -0.0166570067354328 -0.075413782541317059 -0.0049649603128823494 0 -0.0049649603128823494 -0.00030970665086599292 0 0 0 -0.01893087229804577 -0.12769318910354011 0.011706601483530643 0 0.011706601483530643 -0.00092188351766053778 0 0 0 -0.032153768155300133 -0.0027948202619590412 0.020767646399654095 0 0.020767646399654095 0.024366405553163051 0 0 0 0.0053928963228010024 1.8862931959712226e-05 0.022262016549153302 0 0.022262016549153302 0.030625533344533967 0 0 0 0.0076610990691234199 -0.015674392552303407 0.005628475319392731 0 0.005628475319392731 -0.0052985128282716509 0 0 0 -0.0052432263451437696 -0.018301189565827582 0.0048480487815233952 0 0.0048480487815233952 -0.0082834129000458924 0 0 0 -0.0066461506164683694 -0.12467832243943335 -0.01250378143910727 0 -0.01250378143910727 -0.004938669747724167 0 0 0 -0.032404248046789388 -0.078480038577340025 0.0041660740720196529 0 0.0041660740720196529 -0.0010687676474930505 0 0 0 -0.019887201556208257 -0.070530061594916718 0.0064833545692273131 0 0.0064833545692273131 -0.001572857745390871 0 0 0 -0.018025729835076901 -0.0039044012392330796 0.02494460822931277 0 0.02494460822931277 0.055442909714013666 0 0 0 0.012884627118695091 -0.029301858558531846 -0.0089562637119938726 0 -0.0089562637119938726 0.0024342403683756952 0 0 0 -0.0067169045475390377 -0.017759837633398813 -0.0016269312851200221 0 -0.0016269312851200221 -0.0099085868145768648 0 0 0 -0.0069171061119939195 -0.0061480327687030607 0.00027330989620459774 0 0.00027330989620459774 -0.0082836294627833748 0 0 0 -0.003607915557871608 -0.048189343225057468 -0.02021545399266278 0 -0.02021545399266278 0.0042106345882078067 0 0 0 -0.010994677159212374 -0.043971941060348747 -0.015636879727702807 0 -0.015636879727702807 -0.0030611612121734522 0 0 0 -0.011758275568130555 -0.022857493869217073 -0.0074991549126959267 0 -0.0074991549126959267 0.021235193387938701 0 0 0 -0.00040557512031961195 0.0033168933507082762 0.015838859345374948 0 0.015838859345374948 0.012771715234693518 0 0 0 0.0040221521463504467 -0.069707780343611234 0.043403322038780945 0 0.043403322038780945 0.0024770265501269928 0 0 0 -0.01680768844837098 -0.07465895266334753 0.00022477827288844288 0 0.00022477827288844288 0.0034050620355700056 0 0 0 -0.017813472656944399 -0.12681562567719468 -0.00059942385471156712 0 -0.00059942385471156712 0.0090804380376265925 0 0 0 -0.029433796909892063 -0.0029721983920762418 -0.0033515665989936883 0 -0.0033515665989936883 -0.029338295395289427 0 0 0 -0.008077623446841431 -0.0082880074833328599 -0.0074229113764767429 0 -0.0074229113764767429 -0.034449400250802009 0 0 0 -0.010684351933533731 -0.061789799362173256 0.0070567079445367428 0 0.0070567079445367428 -0.00024072849056433476 0 0 0 -0.015507631963184405 -0.05307882360863523 0.0056463858632733108 0 0.0056463858632733108 -0.0011126717027428595 0 0 0 -0.013547873827844534 -0.027802293241793636 -0.0016138268188119337 0 -0.0016138268188119337 0.012999794581825597 0 0 0 -0.003700624664992009 -0.080010780622336408 0.0075960401570189309 0 0.0075960401570189309 0.0018574661528628078 0 0 0 -0.019538328617368372 -0.085293825180082189 -0.017763236869205175 0 -0.017763236869205175 -0.0067117451803795775 0 0 0 -0.023001392590115469 -0.00089797062300162685 0.00097904851997476783 0 0.00097904851997476783 -0.028248971686012335 0 0 0 -0.007286735577253462 -0.052133811566895005 0.051938779455863671 0 0.051938779455863671 0.0054220595291276652 0 0 0 -0.011677938009441835 -0.018869878291592829 0.0045886680580697154 0 0.0045886680580697154 -0.006290581783801397 0 0 0 -0.0062901150188485562 0.030283254330587844 0.014924916474677197 0 0.014924916474677197 0.051498768777328063 0 0 0 0.020445505776978873 0.024896402488645209 0.031308336973891904 0 0.031308336973891904 0.080099080472726625 0 0 0 0.026248870740342978 -0.11872602447814333 0.010965196404572719 0 0.010965196404572719 0.020604168743659154 0 0 0 -0.024530463933621002 0.005444414440004347 0.033383633739478093 0 0.033383633739478093 0.085716677792848694 0 0 0 0.02279027305821324 0.015960311124811763 0.028003562826063144 0 0.028003562826063144 0.055918056814634964 0 0 0 0.017969591984861699 -0.04596324454356826 0.0062922010930282109 0 0.0062922010930282109 0.00085965539399041058 0 0 0 -0.011275897287394466 -0.030510673341559411 0.0033328110158117388 0 0.0033328110158117388 -0.0018196102506933855 0 0 0 -0.0080825708980631957 -0.11022908557269451 0.034308133904260463 0 0.034308133904260463 0.01116920814617206 0 0 0 -0.024764969356630528 -0.040843961846913066 -0.012264077802102549 0 -0.012264077802102549 0.04461743692573511 0 0 0 0.00094336876970550765 -0.013610936953573299 0.022003640991431497 0 0.022003640991431497 0.092923782046304151 0 0 0 0.019828211273182718 -0.03164055533111361 -0.017475376057962261 0 -0.017475376057962261 0.0019225718481969412 0 0 0 -0.0074294958707291636 -0.0884188773758319 -0.0029163323197785584 0 -0.0029163323197785584 0.0025272770960028251 0 0 0 -0.02147290006995731 -0.1568319916507307 0.0068216560066132748 0 0.0068216560066132748 0.0089105445379070725 0 0 0 -0.036980361778205906 -0.042088434671549657 0.021083167519091672 0 0.021083167519091672 -0.0062981295853870023 0 0 0 -0.012096641064234359 -0.016506451083659612 -0.022829965603505697 0 -0.022829965603505697 0.021839894934643889 0 0 0 0.0013333609627461107 -0.031447076609444485 -0.012453250546927891 0 -0.012453250546927891 0.015588051925209012 0 0 0 -0.003964756171058903 0.0096162519774237454 0.016914854278673383 0 0.016914854278673383 0.014247868999084201 0 0 0 0.0059660302441269936 -0.076290630506851198 -0.016939966516508163 0 -0.016939966516508163 -0.011092852137183237 0 0 0 -0.021845870661008623 -0.07338464714558976 0.0050817519843737238 0 0.0050817519843737238 0.0017187849319319215 0 0 0 -0.017916465553414473 -0.10530507402016236 -0.00946242236708153 0 -0.00946242236708153 0.0057493254216035329 0 0 0 -0.024888937149639669 -0.019906176797494235 -0.018705583484793974 0 -0.018705583484793974 0.035428058273333785 0 0 0 0.0038804703689598874 -0.057344045319716749 0.0032537522274356107 0 0.0032537522274356107 0.0029627345135411903 0 0 0 -0.013595327701543876 -0.028264234688067165 0.0055462630390374235 0 0.0055462630390374235 0.075854764314086845 0 0 0 0.011897632406504932 -0.015223187456703528 -2.9737464405281639e-05 0 -2.9737464405281639e-05 -0.0050731226555589112 0 0 0 -0.0050740775280656101 -0.026222414685490775 -0.0088007219382917612 0 -0.0088007219382917612 0.0086476754006530876 0 0 0 -0.0043936848212094426 -0.088324062403467463 0.0022733346265129961 0 0.0022733346265129961 0.0019833373967088619 0 0 0 -0.021585181251689671 -0.15372010641587125 -0.0078726633908960952 0 -0.0078726633908960952 0.0044304560471580268 0 0 0 -0.037322412592178347 -0.067385331447207875 -0.01542470931374601 0 -0.01542470931374601 0.0053734528333689163 0 0 0 -0.015502969653459712 -0.031114059065284042 -0.015521171756007299 0 -0.015521171756007299 0.024417424143196309 0 0 0 -0.0016741587305219435 -0.022786102613393394 -0.011101286974718405 0 -0.011101286974718405 0.045396343476665324 0 0 0 0.0056525602158179755 -0.042696787389961008 0.0040731603411126201 0 0.0040731603411126201 0.0031898049089194858 0 0 0 -0.0098767456202603632 -0.032939524102658796 -0.016117118585723691 0 -0.016117118585723691 0.0033086052689272338 0 0 0 -0.0074077297084328697 -0.049999810057904791 -0.018785885679483805 0 -0.018785885679483805 0.0011997855260267171 0 0 0 -0.012200006132969588 -0.051718494225004255 0.0043770791028657427 0 0.0043770791028657427 0.0029316671477485554 0 0 0 -0.012196706769313902 -0.030427235045173709 -0.01790882335295918 0 -0.01790882335295918 0.0025600478398477011 0 0 0 -0.0069667968013314846 -0.015413511298066651 0.00029845558687499791 0 0.00029845558687499791 -0.012193562311274782 0 0 0 -0.0069017684023353594 -0.090572973188581443 0.00096541460973076365 0 0.00096541460973076365 0.0014825161915167362 0 0 0 -0.022272614249266146 -0.16397788427827703 -0.0023722596068900259 0 -0.0023722596068900259 0.0021612980852102615 0 0 0 -0.040454146548266678 -0.044191047810021533 -0.0080773567254819323 0 -0.0080773567254819323 -0.0026156770496978676 0 0 0 -0.011701681214929815 0.015210404571507297 0.016729686901826302 0 0.016729686901826302 0.06482872966333264 0 0 0 0.020009783558709804 0.0069329789392434948 0.023445947188296401 0 0.023445947188296401 0.047768243224056484 0 0 0 0.013675305540825078 -0.033438583176150671 -0.0067609364804279157 0 -0.0067609364804279157 -0.0022599417028890123 0 0 0 -0.0089246312197600597 0.011130103991437323 0.014357147341215284 0 0.014357147341215284 0.085028493843640085 0 0 0 0.024039649458769574 -0.010795039898358949 -0.013689080362661685 0 -0.013689080362661685 0.008626085902132985 0 0 0 -0.00054223849905651877 -0.039838678383163698 -0.015620264598211725 0 -0.015620264598211725 0.01167168182955286 0 0 0 -0.0070417491384027475 0.0048237091434895629 0.00041453816158181227 0 0.00041453816158181227 0.061510750183638274 0 0 0 0.016583614831781945 0.0020002720441590349 -0.0029431488616886159 0 -0.0029431488616886159 0.1134231247473983 0 0 0 0.028855849197889388 -0.10228673905827965 -0.014109679955376264 0 -0.014109679955376264 0.020401713667042243 0 0 0 -0.020471256347809413 -0.049784858906141136 0.0050536953139971239 0 0.0050536953139971239 -0.0014870795913509566 0 0 0 -0.012817984624373023 -0.015211121753070173 0.0075449913524050297 0 0.0075449913524050297 -0.0014366443183590856 0 0 0 -0.0041619415178573149 -0.073101692788480999 0.038124796821110252 0 0.038124796821110252 -0.0037963119288799696 0 0 0 -0.019224501179340048 -0.003670851046296747 -0.020716358062392637 0 -0.020716358062392637 0.01483248315822383 0 0 0 0.0027904080279817778 -0.013190340773458466 0.0014268802067016798 0 0.0014268802067016798 -0.0087938803575831042 0 0 0 -0.0054960552827603938 -0.044534419063469236 0.0029265070354597411 0 0.0029265070354597411 0.010842170181694699 0 0 0 -0.0084230622204436011 0.029319480729965708 0.014520006679511916 0 0.014520006679511916 0.050929386317845271 0 0 0 0.020062216761952856 -0.02894599314007968 -0.0079435759339267515 0 -0.0079435759339267515 -0.014011516086941027 0 0 0 -0.010739377306755175 -0.021813065488456483 -0.0063244179003225098 0 -0.0063244179003225098 0.00021041060786863852 0 0 0 -0.0054006637201469629 -0.016316118521273133 -0.010538549710878059 0 -0.010538549710878059 0.0018521028837908821 0 0 0 -0.003616003909370535 -0.0064314230882591694 0.0059078632834574651 0 0.0059078632834574651 0.020902504518763965 0 0 0 0.0036177703576262266 0.0025812867454206578 0.0016116216118902404 0 0.0016116216118902404 0.059336615785734903 0 0 0 0.015479475632788869 0.0053952338436086822 -0.0069145947843937128 0 -0.0069145947843937128 0.10533581206719422 0 0 0 0.027682761477700768 -0.0082101199855334449 -0.011225534087454858 0 -0.011225534087454858 0.046349062199455407 0 0 0 0.0095347355534805035 -0.0085723173178116896 0.017416566315609054 0 0.017416566315609054 0.028395819782797399 0 0 0 0.0049558756162464378 -0.0086380419198951591 -0.017919853639364137 0 -0.017919853639364137 -0.0045862644092737742 0 0 0 -0.0033060765822922333 0.0033714409198241993 -0.035551578885289585 0 -0.035551578885289585 0.030760473448060661 0 0 0 0.0085329785919712117 -0.046891173134183395 -0.015704205565025386 0 -0.015704205565025386 0.0031568021877674823 0 0 0 -0.010933592736604159 -0.062355710090529343 0.0054939835563533853 0 0.0054939835563533853 0.0011749125927482673 0 0 0 -0.015295199374445245 -0.05273022629506853 0.007104469934367948 0 0.007104469934367948 0.0020973188939138465 0 0 0 -0.012658226850288667 -0.098570784190588498 0.0053177896374523026 0 0.0053177896374523026 0.040394774929569943 0 0 0 -0.014544002315254601 -0.015322260974686475 0.0013147263072247339 0 0.0013147263072247339 0.0095637778627819525 0 0 0 -0.0014396207779761583 -0.014167027049033942 -0.0099117579938020339 0 -0.0099117579938020339 0.025310389630088137 0 0 0 0.0027858406452635487 -0.014852502152117949 0.0082854900738686052 0 0.0082854900738686052 0.0045550890073929699 0 0 0 -0.0025743532861812468 6.2005484976035419e-05 4.11173827749578e-05 0 4.11173827749578e-05 -0.03106533712052939 0 0 0 -0.0077508329088883943 -0.02209002086210737 0.0045911994644361976 0 0.0045911994644361976 -0.0052577684369369618 0 0 0 -0.0068369473247610873 -0.031646347436781852 -0.017790603025871272 0 -0.017790603025871272 0.013757833548898202 0 0 0 -0.0044721284719709264 -0.012578389809826394 0.0015405757545531135 0 0.0015405757545531135 -0.012755758860527502 0 0 0 -0.0063335371675884754 -0.02086457281257359 0.044426680474711655 0 0.044426680474711655 0.001357400063932257 0 0 0 -0.0048767931871602777 -0.023066173086520272 0.041001224217747545 0 0.041001224217747545 0.002131826091402278 0 0 0 -0.005233586748779176 -0.024032719755135566 -0.024535549069189422 0 -0.024535549069189422 0.0020086708539293618 0 0 0 -0.0055060122253015806 0.016601684299544492 -0.070701849841224795 0 -0.070701849841224795 0.12520617223182703 0 0 0 0.035451964132842892 -0.01388604856712914 0.0021467720449373892 0 0.0021467720449373892 -0.010883807764233889 0 0 0 -0.0061924640828407568 -0.045501072284655997 -0.0094581935747087842 0 -0.0094581935747087842 0.0025497483652694442 0 0 0 -0.010737830979846597 0.00098041963753670025 0.00039145719054722861 0 0.00039145719054722861 -0.00010282908102832167 0 0 0 0.00021939763912703913 -0.0069371090995604678 0.0061016494124372933 0 0.0061016494124372933 0.12032735733969879 0 0 0 0.028347562060034637 0.00975833223824836 0.0012807863835617717 0 0.0012807863835617717 0.097440683237949174 0 0 0 0.026799753869049162 0.0058010564416034471 -0.0028992291988094721 0 -0.0028992291988094721 0.049385301583428021 0 0 0 0.013796589506257839 0.001470829917842309 -0.00061880051103883752 0 -0.00061880051103883752 -7.7522049693357076e-05 0 0 0 0.00034832696703723798 -0.00033183340993905771 0.00055801849712922014 0 0.00055801849712922014 0.0010631333916173737 0 0 0 0.00018282499541974554 -0.0049349238235993909 -0.007192512157764481 0 -0.007192512157764481 0.067658928577325028 0 0 0 0.015681001188431409 -0.00035893798189912118 -0.00087646715491596083 0 -0.00087646715491596083 0.0016240208074922435 0 0 0 0.00031627070639839161 -0.016277354277050755 0.00083870745018452568 0 0.00083870745018452568 -0.010050987210371162 0 0 0 -0.0065820853718554784 -0.027874946636220314 -0.016800803862644015 0 -0.016800803862644015 -0.0031100283084328564 0 0 0 -0.0077462437361633142 -0.051576732474050979 0.0060105505104660756 0 0.0060105505104660756 0.0057977914797171515 0 0 0 -0.011444735248583457 -0.040665609534210001 -0.02224213360782179 0 -0.02224213360782179 0.0040360784679180917 0 0 0 -0.009157382766573019 -0.020978074450657917 -0.001658030124684431 0 -0.001658030124684431 -0.012859407475907523 0 0 0 -0.008459370481641356 -0.024592639107052783 0.033247070960749969 0 0.033247070960749969 -0.0077518192603416303 0 0 0 -0.0080861145918484922 -0.019566561798738613 -0.026932440291204562 0 -0.026932440291204562 0.0012495413651105736 0 0 0 -0.0045792551084069544 -0.0035907759802381589 -0.0049986614481271618 0 -0.0049986614481271618 0.048210546737425863 0 0 0 0.011154942689296954 -0.0057524229069529365 -0.00074766207691642772 0 -0.00074766207691642772 0.090451539614216148 0 0 0 0.021174779176815789 -0.039667813228679932 0.0072688131204177581 0 0.0072688131204177581 0.042953507379149297 0 0 0 0.00082142353761735509 -0.046997999506569535 0.0015343521641669258 0 0.0015343521641669258 0.0059492424674411348 0 0 0 -0.010262189259782104 -0.022223912291730596 -0.0098652157742994007 0 -0.0098652157742994007 0.033929975542496882 0 0 0 0.0029265158126915991 -0.017027993002437916 0.0048909952331666062 0 0.0048909952331666062 0.068449217240913074 0 0 0 0.012855306059618779 -0.024341552354044477 -0.025477510764350564 0 -0.025477510764350564 0.006650909446541009 0 0 0 -0.0044226607268758877 -0.012816211440766345 0.0074728109858289392 0 0.0074728109858289392 -0.0006367959358189873 0 0 0 -0.0033632518441463312 -0.02119096311271873 -0.027676911366333212 0 -0.027676911366333212 0.0092429886307217046 0 0 0 -0.0029869936204993675 -0.032695192799607753 0.031325477214064534 0 0.031325477214064534 -0.002551605812738611 0 0 0 -0.008811699653086702 -0.024234426191456576 -0.0016286439680182202 0 -0.0016286439680182202 0.014712739632197547 0 0 0 -0.0023804216398147504 -0.015092452553973068 -0.0028768245956154181 0 -0.0028768245956154181 0.017757252084737107 0 0 0 0.00066619988269100983 -0.034754387356915994 0.0042451324444516122 0 0.0042451324444516122 -0.0021371745481561892 0 0 0 -0.0092228904762680433 -0.035438614708021801 -0.0043801098791446252 0 -0.0043801098791446252 0.029949303450354209 0 0 0 -0.0013723278144168877 0.011990187832363483 -0.020994626634501024 0 -0.020994626634501024 0.016233452980403684 0 0 0 0.0070559102031917814 -0.026355813909495353 -0.017679239372108357 0 -0.017679239372108357 -0.00019124510410510956 0 0 0 -0.006636764753400087 0.037571435642520135 -0.015196422611235549 0 -0.015196422611235549 0.019994847174841457 0 0 0 0.014391570704340384 -0.017753285099143368 -0.0050456889987393061 0 -0.0050456889987393061 0.037956580723019995 0 0 0 0.0050508239059691706 -0.027675380336024069 -0.0072731265633600162 0 -0.0072731265633600162 0.007794394249701464 0 0 0 -0.0049702465215806235 -0.057252944827192329 0.0049282091497545154 0 0.0049282091497545154 -0.0016676988951058978 0 0 0 -0.014730160930574563 -0.034843738562903334 -0.006959691320535465 0 -0.006959691320535465 0.034792008223931525 0 0 0 -1.2932584742952197e-05 -0.035201216262497427 -0.0058985583424255531 0 -0.0058985583424255531 0.042682151285321823 0 0 0 0.0018702337557060938 0.025668519880995541 0.049899321426429347 0 0.049899321426429347 0.1439175537694645 0 0 0 0.042396518412615034 -0.018121758559557652 -0.012748723538655998 0 -0.012748723538655998 0.16450643361746131 0 0 0 0.036596168764475911 0.017636755617931765 0.015427287169254801 0 0.015427287169254801 0.062265601058521192 0 0 0 0.019975589169113128 -0.015362718941686851 0.019332454441961976 0 0.019332454441961976 0.03758897372091069 0 0 0 0.0055565636948059771 -0.049851094767545234 -0.007907215499542113 0 -0.007907215499542113 0.0005354669871517892 0 0 0 -0.012328906945098472 -0.035079195749952274 0.0044117500601118659 0 0.0044117500601118659 -0.0038876294049223995 0 0 0 -0.0097417062887186715 -0.072686708003865771 -0.0089628092279550684 0 -0.0089628092279550684 -0.011179067080977795 0 0 0 -0.020966443771210888 -0.057629895603558877 0.0027931528355501409 0 0.0027931528355501409 -0.0066851941253022289 0 0 0 -0.016078772432215276 -0.0059384039986177537 0.0038229398924736827 0 0.0038229398924736827 -0.0097487912488324474 0 0 0 -0.0039217988118625466 -0.0802666973037542 -0.0053755411053831477 0 -0.0053755411053831477 -0.0012341437663625462 0 0 0 -0.020375210267529194 -0.070645238180743947 -0.0059406837551429208 0 -0.0059406837551429208 -0.015539812956461781 0 0 0 -0.021546262784301433 -0.11140273769846745 0.0043540260659061646 0 0.0043540260659061646 -0.00033850869731470723 0 0 0 -0.027935311598945543 -0.098681409220898644 0.0048486070920322113 0 0.0048486070920322113 -0.020660105494107156 0 0 0 -0.029835378678751454 -0.040965841335236869 -0.014288224369194885 0 -0.014288224369194885 0.017544498624977922 0 0 0 -0.0058553356775647158 -0.011317153296411189 0.0030669801807288221 0 0.0030669801807288221 -0.0095906622971215095 0 0 0 -0.0052269538983831746 0.025208591711885386 0.025847614804651586 0 0.025847614804651586 0.018793573856660917 0 0 0 0.011000541392136354 -0.016754268887241602 0.0012422596542225606 0 0.0012422596542225606 0.057518395583449289 0 0 0 0.010191031674051887 -0.0047607989106669066 0.026798023036453976 0 0.026798023036453976 0.057574344255467529 0 0 0 0.013203386336200169 -0.0236398537874421 -0.024873498114883843 0 -0.024873498114883843 0.024515062727673786 0 0 0 0.0002188022350579355 -0.0034810579382416841 0.00076646287629777987 0 0.00076646287629777987 0.0040387823211800308 0 0 0 0.00013943109573447574 0.0012328030972348883 -0.0057889298610565021 0 -0.0057889298610565021 0.0096632115234135865 0 0 0 0.0027240036551620631 0.0016990626917862449 0.0060037186665109488 0 0.0060037186665109488 0.028077803631269868 0 0 0 0.0074442165807643611 -0.0026127941265395283 -0.0008233674519384504 0 -0.0008233674519384504 0.0020624985538560472 0 0 0 -0.00013757389317098121 -0.0097229955035577562 0.0058002311240246129 0 0.0058002311240246129 -0.0050142341683636904 0 0 0 -0.0036843074179804189 -0.010378102461512773 -0.012770592796632035 0 -0.012770592796632035 -0.0036496960347771612 0 0 0 -0.0035069496240724973 -0.07611744876616891 -0.0097305313138243525 0 -0.0097305313138243525 -0.025326716207627987 0 0 0 -0.025361041243449227 -0.105383255918436 0.010080185202078255 0 0.010080185202078255 -0.035062979626548169 0 0 0 -0.035111558886246036 -0.11963136445056946 0.010423343005506019 0 0.010423343005506019 -0.016198111266038699 0 0 0 -0.033957368929152035 -0.08687086444939511 -0.0097651234505936602 0 -0.0097651234505936602 -0.012082852969375172 0 0 0 -0.024738429354692573 -0.023058946136646885 -0.027146247419365332 0 -0.027146247419365332 0.0090731444857327093 0 0 0 -0.0034964504127284468 -0.035095237330137696 0.0044011266248405179 0 0.0044011266248405179 0.0017851126179497592 0 0 0 -0.0083275311780469895 -0.029148910299415132 -0.018244430375647727 0 -0.018244430375647727 0.0066506131693106485 0 0 0 -0.0056245742825261485 -0.027251402296153887 -0.018102118805446508 0 -0.018102118805446508 -0.00042234618276931757 0 0 0 -0.0069184371197308081 -0.029343015958039675 0.0035547054395989649 0 0.0035547054395989649 0.0020814147038545946 0 0 0 -0.0068154003135462715 -0.018734590730701071 0.0049922147000059005 0 0.0049922147000059005 -0.0040845094125512051 0 0 0 -0.0057047750358130683 -0.018612400425796968 0.0056225486022593359 0 0.0056225486022593359 -0.0036726128804920946 0 0 0 -0.0055712533265722614 -0.036080663442228822 -0.031924902150989434 0 -0.031924902150989434 0.10303831084897253 0 0 0 0.016739411851685933 0.014697166874873026 -0.0047993604897005882 0 -0.0047993604897005882 0.29606730792828917 0 0 0 0.07769111870079054 -0.051837320765977662 -0.0095312098198025996 0 -0.0095312098198025996 0.012263174459323151 0 0 0 -0.0098935365766636141 -0.01813275406285067 -0.0027110584797231697 0 -0.0027110584797231697 0.033698499461042863 0 0 0 0.0038914363495480275 -0.027080690541975788 -0.010308916225893305 0 -0.010308916225893305 0.021041657055098195 0 0 0 -0.0015097583717194329 -0.019007998117302933 0.0066270164245981686 0 0.0066270164245981686 0.0053728565687280391 0 0 0 -0.0034087853871437278 -0.013447227515833826 0.028049774649541614 0 0.028049774649541614 0.038677213159449497 0 0 0 0.00630749641090389 -0.025074181181295785 -0.012173047565347428 0 -0.012173047565347428 -0.0016883275179728763 0 0 0 -0.0066906271748171653 0.012559794966701704 -0.023526060051562443 0 -0.023526060051562443 0.046762671539357814 0 0 0 0.014830616626514873 -0.012011196887324931 -0.0040704201269761708 0 -0.0040704201269761708 0.011841885150849801 0 0 0 -4.2327934118797927e-05 -0.037825630508099728 0.024692545910116381 0 0.024692545910116381 0.0018137399522206721 0 0 0 -0.009002972638969986 -0.018886721983269017 -0.023889640850074056 0 -0.023889640850074056 0.019894219152573056 0 0 0 0.000251874292325871 -0.011244441101073921 -0.020965040526310597 0 -0.020965040526310597 0.018101005747792609 0 0 0 0.001714141161679672 -0.017578334680461438 -0.0022849778680042454 0 -0.0022849778680042454 -0.012683783976014773 0 0 0 -0.0075655296641190528 -0.014518553159947406 -0.0076129866662911216 0 -0.0076129866662911216 0.044975471346656748 0 0 0 0.0076142295466773147 -0.018949866634642258 -0.0078505585849527257 0 -0.0078505585849527257 -0.0093647385156861024 0 0 0 -0.0070786512875820884 -0.015190658190300195 -0.0066438168051274893 0 -0.0066438168051274893 -0.03478719672888711 0 0 0 -0.012494463729796852 -0.039324287262992211 0.0052639116715220346 0 0.0052639116715220346 -0.0045193058728957482 0 0 0 -0.010960898283971992 -0.034508317039003672 0.0053461781947701922 0 0.0053461781947701922 -0.005397998078780668 0 0 0 -0.0099765787794460891 -0.034758492911080477 -0.0020322313297458806 0 -0.0020322313297458806 0.025023765438345419 0 0 0 -0.0024336818681837701 -0.036678265886975869 -0.012307563066348767 0 -0.012307563066348767 0.02948583512329761 0 0 0 -0.0017981076909195648 -0.027783218641044903 0.0031991970262525904 0 0.0031991970262525904 -0.0035536818882158996 0 0 0 -0.0078342251323152111 -0.024960928341161245 0.0046842997788440156 0 0.0046842997788440156 0.0027689558576034544 0 0 0 -0.0055479931208894523 -0.02742343468756973 0.0034770310655669401 0 0.0034770310655669401 0.0020593116682158896 0 0 0 -0.0063410307548384635 -0.0095179015432491909 0.0072956956753414959 0 0.0072956956753414959 -0.026521328307376857 0 0 0 -0.0090098074626565328 -0.0035312638649411254 0.008624463197154042 0 0.008624463197154042 -0.0078401774931348145 0 0 0 -0.0028428603395189711 -0.0040386042295770322 -0.013424312310785558 0 -0.013424312310785558 -0.00013163737132812492 0 0 0 -0.0010425604002262737 -0.010707876629725777 -0.011584463213843155 0 -0.011584463213843155 -0.020130744203783468 0 0 0 -0.0077096552083773529 -0.0073137356348135091 -0.030841015685778499 0 -0.030841015685778499 0.10207005858682974 0 0 0 0.023689080738004062 -0.0022784623547744687 0.018725849194249911 0 0.018725849194249911 0.019177033622510997 0 0 0 0.0042246428169345762 -0.0010178730949017556 -0.0030800220568268921 0 -0.0030800220568268921 -0.004933261643902398 0 0 0 -0.0014877836847011494 -0.0021096955738876266 -0.01543725107904903 0 -0.01543725107904903 0.0066303558035030186 0 0 0 0.0011301650574038202 -0.0011711168935639726 0.0037801913552888422 0 0.0037801913552888422 -0.006102061512453627 0 0 0 -0.001818294601504622 -0.041585108221345202 0.033032402558913404 0 0.033032402558913404 -0.0044344760410188755 0 0 0 -0.011504896065590797 -0.021878862190620629 -0.027577403287627568 0 -0.027577403287627568 0.0092620697075593839 0 0 0 -0.0031541981207651171 -0.014457847806951585 -0.025205730264298731 0 -0.025205730264298731 0.010228343182796085 0 0 0 -0.0010573761560387362 -0.030339229241380442 -0.0044902700165131253 0 -0.0044902700165131253 0.035080558236715041 0 0 0 0.0011853322488336389 0.00046526113413136727 0.012097201741575692 0 0.012097201741575692 0.0037724772996448053 0 0 0 0.0010594346084440431 -0.00035997392888931223 -0.00089092439352511654 0 -0.00089092439352511654 -0.00014707178965611689 0 0 0 -0.00012676142963652381 -0.00075939619805653891 0.0006938925521462469 0 0.0006938925521462469 0.0007197959078428795 0 0 0 -9.9000725537479184e-06 -0.00080314921474289314 -0.009992020731793172 0 -0.009992020731793172 -0.0057899655845785603 0 0 0 -0.0016482786998300858 -0.021669276373708801 -0.0046171551030314006 0 -0.0046171551030314006 -0.023230304095219534 0 0 0 -0.01122489511723207 0.016073490303909595 -0.024130654148017405 0 -0.024130654148017405 0.0061214266786683291 0 0 0 0.0055487292456444862 0.010667272978821654 0.00093261883109729826 0 0.00093261883109729826 0.058523038014274553 0 0 0 0.017297577748274021 0.015176740054855975 -0.0046347211623248841 0 -0.0046347211623248841 0.11005480407955437 0 0 0 0.031307886033602628 -0.014894985430719265 0.0059036692342449596 0 0.0059036692342449596 -0.0056650755116099891 0 0 0 -0.0051400152355823119 -0.06622461467342533 0.032896049654331849 0 0.032896049654331849 0.0015023508467466584 0 0 0 -0.016180565956669835 -0.070848971354271928 0.030055999001153196 0 0.030055999001153196 -0.0017368762444434083 0 0 0 -0.018146461899678723 -0.02241270090278984 -0.0069428495259493128 0 -0.0069428495259493128 -0.012118780073957499 0 0 0 -0.0086328702441868972 -0.026704381543975586 -0.00088636449519388476 0 -0.00088636449519388476 0.011480560957864771 0 0 0 -0.0038059551465277021 -0.032833708421383223 -0.017884909942908644 0 -0.017884909942908644 0.0053634439472155238 0 0 0 -0.0068675661185419179 -0.027052014242634249 -0.021375209294412445 0 -0.021375209294412445 0.017007895757587009 0 0 0 -0.0025110296212618351 -0.043920330040219113 0.033791018452910854 0 0.033791018452910854 -0.0042849926736172606 0 0 0 -0.012051330678458871 -0.020424922429049253 -0.02583388487702809 0 -0.02583388487702809 0.010884928293193763 0 0 0 -0.0023849985339639002 -0.022700547550471795 -0.026998378739562678 0 -0.026998378739562678 0.008814868131595599 0 0 0 -0.0034714198547188824 -0.069245665846088253 0.001769648053001502 0 0.001769648053001502 -0.0065715848423477542 0 0 0 -0.018954312672109005 -0.096688851083224031 -0.0085033732136912191 0 -0.0085033732136912191 -0.011112675602606252 0 0 0 -0.026950381671457576 -0.08855185051689643 -0.012246724803330359 0 -0.012246724803330359 -0.00073010397084154188 0 0 0 -0.022320488621934489 -0.06544790816027754 0.0040618284137384844 0 0.0040618284137384844 -0.00083048395317776406 0 0 0 -0.016569598028363833 -0.030901156988455449 -0.0019087448301006852 0 -0.0019087448301006852 0.016913696998945474 0 0 0 -0.0034968649973774807 -0.061499735718653747 0.026748085022229251 0 0.026748085022229251 -0.0051006807140003829 0 0 0 -0.016650104108163699 -0.012961876082552282 -0.022334662925464488 0 -0.022334662925464488 0.019181443073467586 0 0 0 0.001554891747728715 -0.014179863899638878 -0.022958011627927821 0 -0.022958011627927821 0.015232046364998197 0 0 0 0.00026304561633971879 -0.04283217951828263 -0.025618137309619593 0 -0.025618137309619593 0.0072963576272206954 0 0 0 -0.0088839554727654577 -0.024471748318752651 -0.005773987992342744 0 -0.005773987992342744 -0.01623861757174011 0 0 0 -0.010177591472623204 -0.012317873078636209 -0.013808926316852255 0 -0.013808926316852255 -0.0047850099423477621 0 0 0 -0.0042757207552460014 -0.026235371180026043 -0.0056225275923435201 0 -0.0056225275923435201 0.011581077087476091 0 0 0 -0.003663573523137495 -0.057675493653301553 0.0059264952201586903 0 0.0059264952201586903 -0.0037588145804724055 0 0 0 -0.015358577058443491 -0.075377518714932618 0.047894441191549508 0 0.047894441191549508 0.013727310017533856 0 0 0 -0.015412552174349808 -0.04894828443344984 -0.021923474727697401 0 -0.021923474727697401 0.0084992080518775381 0 0 0 -0.010112269095393034 -0.015351705197452742 0.036739784463748482 0 0.036739784463748482 0.010322463215736488 0 0 0 -0.0012573104954289593 -0.030737793399320375 -0.020645254141679836 0 -0.020645254141679836 -0.0039271112033170408 0 0 0 -0.0086662261506592689 -0.010480604777199032 0.047957024235535051 0 0.047957024235535051 0.003703766836257838 0 0 0 -0.001694209485235243 -0.053554398415626897 0.0049114051599385006 0 0.0049114051599385006 0.00052499526648065731 0 0 0 -0.013257350787286567 -0.028326748594048407 0.00044213214697073379 0 0.00044213214697073379 0.0080360375050682591 0 0 0 -0.005072677772245026 -0.042086886265937484 -0.023100078885222086 0 -0.023100078885222086 0.001824389586260633 0 0 0 -0.010065624169919296 -0.0053649243258303003 0.0092685677883838635 0 0.0092685677883838635 0.021862348382879537 0 0 0 0.0041243560142622537 -0.0079825036281495065 -0.013092034009936027 0 -0.013092034009936027 0.046831367843532146 0 0 0 0.0097122160538457014 -0.026544665587878446 0.0018884290909430548 0 0.0018884290909430548 0.0010299142434522788 0 0 0 -0.0063786878361065391 0.0014974610150435552 0.00016943533492441709 0 0.00016943533492441709 0.0010421020994693109 0 0 0 0.00063489077862799448 -0.0051382845655747467 0.0018955538431508767 0 0.0018955538431508767 -0.00084717323511274145 0 0 0 -0.001496364450171761 -0.00067340963382989116 -0.014380974063607832 0 -0.014380974063607832 0.01546762684405234 0 0 0 0.0036985543025558343 -0.00087106831981964561 -0.006904673616338064 0 -0.006904673616338064 0.016693018027686524 0 0 0 0.0039554874269667195 -0.0015085017270712875 0.0080583609027540248 0 0.0080583609027540248 0.040285047781788208 0 0 0 0.0096941365136791191 0.0010541641667072277 -0.00022219708032289454 0 -0.00022219708032289454 0.00053534978914848708 0 0 0 0.00039737848896415073 0.0015645594640028015 0.016000428452031867 0 0.016000428452031867 0.039927029586076301 0 0 0 0.010372897262519665 -0.0040467687648104711 -0.0016418245321750957 0 -0.0016418245321750957 -0.00090093574703375978 0 0 0 -0.0012369261279607802 -0.023902614243180575 -0.0081589853108826049 0 -0.0081589853108826049 -0.018597958954134186 0 0 0 -0.010625143299328677 -0.02594213518348204 -0.0086808776528468114 0 -0.0086808776528468114 0.008195524636851248 0 0 0 -0.0044366526366576564 -0.031734267045360393 -0.010061534426467622 0 -0.010061534426467622 0.006191076737865675 0 0 0 -0.0063857975768736586 -0.014460373418901832 -0.0014967577031394508 0 -0.0014967577031394508 -0.020338715453518189 0 0 0 -0.0086997722181049765 -0.014779686143594345 0.00065270673869310958 0 0.00065270673869310958 -0.017008938849478739 0 0 0 -0.0079471562482682778 -0.018386801303368117 0.023727494745269487 0 0.023727494745269487 0.07997377915407522 0 0 0 0.015396744462676788 -0.037136707339056302 -0.015769272725393586 0 -0.015769272725393586 0.0082062209368321121 0 0 0 -0.0072326216005560301 -0.039025154315203849 -0.023569498904213393 0 -0.023569498904213393 0.0039380262217562079 0 0 0 -0.0087717820233619084 -0.044315431789000201 0.0029324831611931969 0 0.0029324831611931969 0.0030486377263817255 0 0 0 -0.010316698515654629 -0.088850151931767041 0.032993677360870111 0 0.032993677360870111 0.0029833539460542013 0 0 0 -0.021466699496428321 -0.071931959985755356 0.046687382994720861 0 0.046687382994720861 0.032569473425625661 0 0 0 -0.0098406216400323543 -0.012517022760785687 0.022472413267674615 0 0.022472413267674615 0.051949826523853659 0 0 0 0.0098582009407669896 -0.020763515277167854 -0.009291140659997723 0 -0.009291140659997723 0.010785785043968543 0 0 0 -0.0024944325582997862 -0.025561090812062814 -0.010048745697685497 0 -0.010048745697685497 0.0093330307454303485 0 0 0 -0.004057015016658061 0.012239860140333347 0.030000740658562119 0 0.030000740658562119 0.054626063837737882 0 0 0 0.016716480994517821 -0.049485911297289645 -0.021015662004448044 0 -0.021015662004448044 0.015223154239608849 0 0 0 -0.0085656892644202093 -0.058394669646755812 -0.014417833581077011 0 -0.014417833581077011 0.0012362011663727135 0 0 0 -0.014289617120095729 -0.0098490780597419586 0.01980377441899853 0 0.01980377441899853 0.039143461546811753 0 0 0 0.0073235958717674382 0.0011426463133486289 0.024008786414202468 0 0.024008786414202468 0.030881177449098428 0 0 0 0.0080059559406117572 -0.032540562218599994 -0.012693708280659521 0 -0.012693708280659521 0.016983324824822121 0 0 0 -0.0038893093484444752 -0.027237916638776696 -0.0029274197365411906 0 -0.0029274197365411906 0.0091408573594952899 0 0 0 -0.0045242648198203401 -0.026794320471934436 -0.0019379545388539688 0 -0.0019379545388539688 0.016512610248419338 0 0 0 -0.0025704275558787772 -0.027118647304303359 -0.00079695934483612653 0 -0.00079695934483612653 0.027977767276675336 0 0 0 0.00021477999309300368 0.0053049948039114447 0.01833883829815619 0 0.01833883829815619 0.089003543891549519 0 0 0 0.023577134673865352 -0.026445004500018687 -0.0054932633143373044 0 -0.0054932633143373044 0.00021573422693332844 0 0 0 -0.0065573175682713258 -0.053583641485163515 0.0068944142424398371 0 0.0068944142424398371 0.00050927005244154333 0 0 0 -0.013268592858180502 -0.018087115289983649 0.0048949499205135213 0 0.0048949499205135213 -0.0076773275867889883 0 0 0 -0.0064411107191931589 0.033607789991206949 0.016252897749450712 0 0.016252897749450712 0.04938008524036186 0 0 0 0.020746968807892174 -0.019592929059145558 -0.0054603940953845687 0 -0.0054603940953845687 -0.017239784466433039 0 0 0 -0.0092081783813946494 -0.044711784085636586 -0.023163931402928144 0 -0.023163931402928144 -0.0014579510105660332 0 0 0 -0.011542433774050648 -0.066425873947220326 -0.018973977777499061 0 -0.018973977777499061 0.0010921316064273212 0 0 0 -0.016333435585198258 -0.027047067622094939 -0.0090787007385678131 0 -0.0090787007385678131 0.033938041169111643 0 0 0 0.001722743386754183 
</DataArray>
<DataArray type="Float64" Name="cross_section_updated" format="ascii">
0.0010072561645514374 0.0010180421751776185 0.001024859863336473 0.0010314692888538915 0.0010385118742540199 0.0010463529243040432 0.0010551093947866977 0.0010642057246235518 0.001073538337796279 0.0010819718469895238 0.0020265264017144784 0.0020688078876809988 0.0020981596011647899 0.0021251354984997994 0.0021520108323713214 0.0021790739722406575 0.0022066068522173933 0.0022337144990547675 0.0022603097959215377 0.0022852394372186286 1 1 1 1 1 1 1 1 1 1 1 1 1 1 1 1 1 1 1 1 1 1 1 1 1 1 1 1 1 1 1 1 1 1 1 1 1 1 1 1 1 1 1 1 1 1 1 1 1 1 1 1 1 1 1 1 1 1 1 1 1 1 1 1 1 1 1 1 1 1 1 1 1 1 1 1 1 1 1 1 1 1 1 1 1 1 1 1 1 1 1 1 1 1 1 1 1 1 1 1 1 1 1 1 1 1 1 1 1 1 1 1 1 1 1 1 1 1 1 1 1 1 1 1 1 1 1 1 1 1 1 1 1 1 1 1 1 1 1 1 1 1 1 1 1 1 1 1 1 1 1 1 1 1 1 1 1 1 1 1 1 1 1 1 1 1 1 1 1 1 1 1 1 1 1 1 1 1 1 1 1 1 1 1 1 1 1 1 1 1 1 1 1 1 1 1 1 1 1 1 1 1 1 1 1 1 1 1 1 1 1 1 1 1 1 1 1 1 1 1 1 1 1 1 1 1 1 1 1 1 1 1 1 1 1 1 1 1 1 1 1 1 1 1 1 1 1 1 1 1 1 1 1 1 1 1 1 1 1 1 1 1 1 1 1 1 1 1 1 1 1 1 1 1 1 1 1 1 1 1 1 1 1 1 1 1 1 1 1 1 1 1 1 1 1 1 1 1 1 1 1 1 1 1 1 1 1 1 1 1 1 1 1 1 1 1 1 1 1 1 1 1 1 1 1 1 1 1 1 1 1 1 1 1 1 1 1 1 1 1 1 1 1 1 1 1 1 1 1 1 1 1 1 1 1 1 1 1 1 1 1 1 1 1 1 1 1 1 1 1 1 1 1 1 1 1 1 1 1 1 1 1 1 1 1 1 1 1 1 1 1 1 1 1 1 1 1 1 1 1 1 1 1 1 1 1 1 1 1 1 1 1 1 1 1 1 1 1 1 1 1 1 1 1 1 1 1 1 1 1 1 1 1 1 1 1 1 1 1 1 1 1 1 1 1 1 1 1 1 1 1 1 1 1 1 1 1 1 1 1 1 1 1 1 1 1 1 1 1 1 1 1 1 1 1 1 1 1 1 1 1 1 1 1 1 1 1 1 1 1 1 1 1 1 1 1 1 1 1 1 1 1 1 1 1 1 1 1 1 1 1 1 1 1 1 1 1 1 1 1 1 1 1 1 1 1 1 1 1 1 1 1 1 1 1 1 1 1 1 1 1 1 1 1 1 1 1 1 1 1 1 1 1 1 1 1 1 1 1 1 1 1 1 1 1 1 1 1 1 1 1 1 1 1 1 1 1 1 1 1 1 1 1 1 1 1 1 1 1 1 1 1 1 1 1 1 1 1 1 1 1 1 1 1 1 1 1 1 1 1 1 1 1 1 1 1 1 1 1 1 1 1 1 1 1 1 1 1 1 1 1 1 1 1 1 1 1 1 1 1 1 1 1 1 1 1 1 1 1 1 1 1 1 1 1 1 1 1 1 1 1 1 1 1 1 1 1 1 1 1 1 1 1 1 1 1 1 1 1 1 1 1 1 1 1 1 1 1 1 1 1 1 1 1 1 1 1 1 1 1 1 1 1 1 1 1 1 1 1 1 1 1 1 1 1 1 1 1 1 1 1 1 1 1 1 1 1 1 1 1 1 1 1 1 1 1 1 1 1 1 1 1 1 1 1 1 1 1 1 1 1 1 1 1 1 1 1 1 1 1 1 1 1 1 1 1 1 1 1 1 1 1 1 1 1 1 1 1 1 1 1 1 1 1 1 1 1 1 1 1 1 1 1 1 1 1 1 1 1 1 1 1 1 1 1 1 1 1 1 1 1 1 1 1 1 1 1 1 1 1 1 1 1 1 1 1 1 1 1 1 1 1 1 1 1 1 1 1 1 1 1 1 1 1 1 1 1 1 1 1 1 1 1 1 1 1 1 1 1 1 1 1 1 1 1 1 1 1 1 1 1 1 1 1 1 1 1 1 1 1 1 1 1 1 1 1 1 1 1 1 1 1 1 1 1 1 1 1 1 1 1 1 1 1 1 1 1 1 1 1 1 1 1 1 1 1 1 1 1 1 1 1 1 1 1 1 1 1 1 1 1 1 1 1 1 1 1 1 1 1 1 1 1 1 1 1 1 1 1 1 1 1 1 1 1 1 1 1 1 1 1 1 1 1 1 1 1 1 1 1 1 1 1 1 1 1 1 1 1 1 1 1 1 1 1 1 1 1 1 1 1 1 1 1 1 1 1 1 1 1 1 1 1 1 1 1 1 1 1 1 1 1 1 1 1 1 1 1 1 1 1 1 1 1 1 1 1 1 1 1 1 1 1 1 
</DataArray>
<DataArray type="Float64" Name="displacement_divergence" format="ascii">
0.0072363454076851399 0.018018786585815794 0.024832460124497191 0.031443787588858123 0.038488933542659566 0.046330464703162412 0.055084719380813607 0.064179416037823969 0.073521607203825237 0.08191465149410658 0.013333137283688221 0.034397407486422026 0.049068865946359001 0.062550036525414909 0.07598169790988632 0.089507078513127142 0.10326937705075363 0.11679851059034152 0.13017453529203218 0.14232039377117989 -8.5662459306927203e-06 2.2267516696930978e-06 -1.2339391070822635e-05 -1.1245400130397242e-05 -6.3971706912175526e-05 -4.5467132250723444e-05 -6.9258972783501965e-05 -4.7554014270122795e-05 -5.8072967887183069e-05 -0.00010086064871415899 -1.2666647644595698e-05 -1.318151526034984e-05 -2.4592006464086459e-05 -2.7439621610220863e-05 -2.8768151748315021e-05 -1.7429211721352336e-05 0.00017470710025402196 -7.6242859437594679e-06 -1.0430655164451845e-06 -5.9064779593257302e-06 -1.4986108254314186e-06 -8.9832116301903197e-06 -1.0496809026898672e-05 -2.2666484459996543e-05 0.00014008204528573345 -0.00011189605120109707 -6.1314881342208446e-05 -3.7841565180460855e-05 -2.2137247698073514e-05 -5.2587605095535055e-05 1.7338999548480486e-06 -1.4060651458308723e-05 -1.8218024454292507e-05 -1.213343072260808e-05 -2.3758659333178792e-05 -4.0063864065890214e-05 1.8602769063705788e-05 -5.3132293704494704e-05 0.00016696015556933222 -2.2297451935236095e-06 8.490641523198816e-06 1.9081388933902363e-05 2.696432412254042e-05 -5.9381456081007006e-06 -2.2073458788281458e-05 -2.1763522526534094e-05 -2.9931890724005481e-06 -8.5573641024320622e-06 0.00018154699082028377 -6.3164495650373494e-06 1.4323617348193065e-05 -2.6733493366571694e-05 8.5551983082997286e-06 -1.411424479378818e-05 -7.4573254328429931e-06 -5.9491195719728893e-05 -4.8624656758032656e-06 3.9463031800222176e-05 2.7275653142806338e-05 -7.7981079676676252e-07 -1.9140371008118172e-05 5.4104217941972672e-05 -1.4943543922793534e-05 -1.534918844874045e-05 -1.5932805967757129e-05 -4.9934156690204702e-05 -6.9501132852846316e-05 -7.602512727080467e-06 4.7813112931369183e-06 -5.4022027379355143e-05 -4.149650623769892e-05 -1.776369077507922e-05 -4.608182663347478e-05 -6.6134010716525527e-05 -1.8966882037299842e-05 -1.2952350349050736e-05 5.7477510261342841e-05 -4.7847415851620667e-06 -1.9870995815791709e-05 -1.9901529224503127e-05 -3.2091126656611565e-05 -6.9498499148232815e-05 -5.1257863347453215e-05 -2.3117991440044021e-05 -1.1864319236775788e-05 -7.8123192598074463e-06 -1.1986496182126456e-05 -1.4285691780797359e-05 -3.5223145087657273e-05 -2.0224206212399751e-05 -1.1738951700528795e-05 -1.3424410321420652e-05 -1.4949708094927826e-05 -1.0968990379881601e-05 -9.8148001219367214e-07 -1.7755498461448816e-05 1.8079492841167861e-05 5.9361710072414892e-05 -6.4781934628818649e-07 -6.1665463483785883e-06 6.4977858116013927e-05 4.0661796160511415e-05 -1.726848901815925e-05 -2.017127296088533e-05 2.173299120277394e-05 3.6240519906147531e-06 -5.2602456848829067e-06 -1.6246481497963062e-05 -1.8097389230943171e-05 1.42434048263018e-05 -8.5835012550326481e-06 2.9728080435942328e-05 -5.2164055722293964e-05 -8.5593660312906341e-05 -3.7526737478895788e-06 7.5918444007510243e-05 -1.4490826738365571e-05 -1.22241617501273e-05 4.7272109431738029e-07 -1.3582363098734937e-06 5.0413672927646785e-06 -2.4407914118735852e-06 1.1145357455460525e-05 -1.8366659174084206e-05 -1.7308995056427342e-05 -1.8063577313815388e-05 1.7643532060512314e-06 -8.1631989060244815e-05 -2.102496993573719e-05 -1.6206289017929869e-05 -2.4683638835103748e-05 -6.2602665485980051e-05 -4.3772323926469171e-05 -4.431993559029322e-05 -7.2648608006045169e-05 -6.8634340833510158e-05 -1.9331390768161673e-05 -4.7752227252045659e-05 2.3674861977733552e-05 3.9875874932690626e-06 3.8790572798655156e-06 -2.2281767832723915e-05 -7.815879827416535e-06 3.2456979377772388e-07 -1.6648529352550801e-05 -2.1087528931687359e-05 -2.8252566860924411e-05 -2.5627359702051379e-05 -4.9578416152622906e-06 -3.4923903160934702e-05 -3.0403076127043607e-05 -1.8477450642641594e-05 -1.5414776763120908e-05 -1.811690868856212e-05 -1.8585799770662246e-05 -2.3816881979995755e-05 -1.917966133937557e-06 -1.4161294772959406e-05 -2.3370661786029665e-05 1.4930392690773287e-05 -1.913358709432519e-05 -1.5649705039809207e-05 -6.9466202288318368e-05 -5.1236996680349901e-05 6.7543906765261415e-05 -1.3877013698167833e-05 3.8544018180017715e-06 -2.8205014494056297e-05 -4.8686742399230146e-05 -7.8317147221534933e-05 -2.4398014894107492e-05 -4.3824530611415326e-05 -5.657905703046843e-05 -4.5610184005696373e-05 -2.8352053184572481e-05 -2.8313589227769568e-05 -3.4210141876240099e-05 -2.0155606662952891e-05 -3.2692152148860315e-07 -1.8032508734657123e-05 -1.7797569019413232e-05 -2.1087351167551906e-05 -3.5200613940505911e-05 -3.0151308237450202e-05 -1.8903051177494688e-05 -1.7856957236828445e-05 -2.0840468100717744e-05 2.004859420132914e-05 5.1691981635518047e-05 -3.9277361249892302e-06 -1.3893961975104853e-05 -2.0481883375622796e-05 -2.8890899952666808e-05 7.3602789183460854e-06 -2.1281396434584977e-05 -2.0901212149841563e-05 -1.7266233522171808e-05 -4.9915135760506921e-05 -7.6571567188296326e-05 -1.4571904797954665e-05 -3.3967707449335802e-05 -4.0802614278169807e-05 -9.3591347494574801e-05 -5.3498485253156283e-05 6.341825697044588e-05 0.00018309409208434435 -5.4831690493303354e-06 -1.5808093912242425e-05 1.2497691797001905e-05 -2.1128883181026716e-05 -1.771572103946512e-05 -2.9042993380804275e-05 -1.5942496372632793e-05 -8.2698458971481209e-05 -2.0662929776784928e-05 -8.0515576280899923e-06 -6.3500510713697727e-06 -2.253730626680737e-05 -7.406862446662321e-06 -1.1562952602870116e-06 -4.221666153620089e-05 -1.9424381026153861e-05 -6.5639744783206827e-05 -1.6271026134558053e-05 -1.8158081903671994e-05 -1.9680004181987874e-05 -1.5394721871207296e-05 -1.9727747326104035e-05 5.922334684577149e-05 -1.3854196981698483e-05 -1.8588332179169861e-05 -1.1845198674933358e-05 3.9150671821959286e-05 -5.0690816488203482e-05 -1.5205708469686494e-05 -7.7259117682904613e-05 -4.930783731625387e-05 -4.8081573713322457e-05 -1.5720604241091853e-05 -6.4738392262684116e-06 2.0904216898760673e-06 1.3583246185316905e-06 -1.3550052904163483e-05 -2.1079307422997018e-05 -1.2224980834937491e-05 -1.5819421934333733e-05 1.2982397688610488e-06 -4.1605988664091681e-06 -1.2631185356845685e-05 -1.026482216599572e-05 -5.4819925065050391e-06 -4.3573362305160087e-05 -3.2325022163370084e-05 -3.7989667959440084e-05 -5.8529182945327596e-05 -4.5795053390481873e-05 -2.1961816894822937e-05 6.2457326087124671e-05 -5.2470975051966404e-05 -4.0224026612757848e-05 -8.7777686199664754e-06 -2.8975185193071832e-05 -3.4596259342530414e-05 -6.2290178889902567e-05 -6.4263783359697725e-05 2.6330474484498323e-06 -6.824348670737574e-06 -9.0598279958864107e-06 -1.46239763487569e-05 -2.4045374619096118e-05 3.2308095252812951e-05 5.9373928628427941e-05 -1.7409063999632537e-05 -3.7690310934199232e-05 -1.9393195227274812e-05 -5.911207465728361e-05 -9.0653804262456019e-06 -1.4315901364001546e-05 -1.3872084308230487e-05 -2.6378548061117225e-05 -2.8287828978810776e-05 -2.9627787454356776e-05 -3.0245281669810752e-05 -3.9704709176036795e-05 -5.8687351562839308e-05 -5.2247916828041021e-05 -4.0492356234305276e-05 -3.2207574849995667e-05 -4.1536220534760121e-05 -2.3798779766423724e-05 2.0403366600604638e-05 -1.1049317240520839e-05 -1.0300895456633735e-05 -4.0253109745542158e-06 -3.2479462175119795e-05 -4.0411788327974747e-05 -1.0565659796065163e-05 2.3648622110108465e-06 -4.657975029496433e-05 1.83143928946482e-05 -2.1140676584074794e-05 1.0869373515277458e-06 -6.558465092228111e-05 -4.4353719638339127e-05 1.08741405602895e-06 -1.4716370091963641e-05 -1.9171238944305649e-05 -6.5967540537813783e-05 -4.5165691218039653e-05 1.1199854023696718e-05 -1.4827945079318432e-05 -1.6891616391669258e-05 -3.6310339691579e-05 -2.892617063828521e-05 -3.0468336792189522e-06 -1.3665529892833133e-06 -3.0492805550753867e-05 -2.7900536480073866e-05 -2.7689240466710751e-05 -2.6988996329267142e-05 -1.7982816724200848e-05 8.7890157914756609e-06 -3.9499582677384304e-06 -9.3480689328105833e-06 -2.1703459678580226e-05 -5.7400053715505987e-06 -2.3103846421989781e-06 6.4494284110505233e-06 -2.9061502328823867e-05 -1.6615936720746965e-05 -5.3344100932623766e-05 -4.0870552847040655e-05 -4.5771405161209493e-06 3.4150280531882924e-05 6.0863658242009541e-05 -2.9144613859099868e-06 1.0172553923076512e-06 -2.0753307077175844e-05 -2.8191501813219885e-05 -2.0861943782353866e-05 -1.7326760388549397e-05 -1.181688236754643e-06 -4.1841002969325016e-06 6.8674224063314032e-06 -1.1420434661006673e-05 -1.5963138702311487e-05 -1.3519897670784196e-05 -9.5731834749830953e-06 -6.1274984123190976e-06 -1.2088431616013705e-05 -4.5416409839427993e-05 -3.6543899306000578e-05 1.2484346582834803e-05 -6.5405863994312633e-05 -4.7470861082261353e-05 -2.2747882648959175e-05 1.9667415246877153e-05 1.5504953296379044e-05 -1.6455805798251438e-06 -1.9722378693879002e-05 -1.0153299890120003e-05 -1.9220711263067672e-05 -4.2268603863498521e-05 -3.0745615460653353e-05 1.7686096385728439e-05 5.5580103830619944e-06 1.6116763408108043e-05 -4.26988195954333e-06 -4.3865114357124601e-06 3.0668187790254631e-05 1.8082293480519178e-05 1.008688416099645e-05 -1.309126653305237e-05 6.1029480683413254e-06 -1.388228027275253e-05 -2.5870522723611406e-05 5.877766934855751e-06 -2.0369694539802848e-05 -4.9229552313136767e-05 -3.0882868184320029e-05 -5.4519655542445696e-06 1.8461015400954138e-05 -8.4139545251377037e-05 -1.5757870375923591e-05 -8.980236226452379e-06 -1.8260489001444336e-05 -2.5934299786742657e-05 -2.2984472472570991e-05 -1.3947361646363164e-05 -9.5482416284924634e-06 -1.4721825611156193e-05 -3.8643075472671829e-06 -4.6021712288296256e-05 4.8721248548499541e-05 -1.5448772039590832e-05 -1.1496984829327355e-05 -9.9044549446490024e-06 -1.3041694660926965e-05 2.068694181603728e-06 -2.5059505614386817e-06 -6.6751470450695102e-06 -1.0933600709170993e-05 -3.8427809609412907e-05 -1.3472761242101577e-05 -4.047977759842489e-06 -4.3236856105237053e-05 5.4951307786854078e-05 -1.3676562276474305e-05 -1.2436331530140798e-05 -1.1496679529145972e-05 -1.4071266476656369e-05 1.5464422144350617e-05 -1.90024756497158e-05 -2.2653890848120344e-05 -1.069062356768003e-05 -3.8964728353836175e-05 -3.0037845973179432e-05 -1.1847882650871492e-05 -4.3564720501241194e-05 -6.2439503376338079e-05 2.9014065139511139e-06 1.0623579307114943e-05 2.755461472860423e-06 -2.5044859106536669e-05 6.3109270195095622e-05 -1.8255247339745948e-05 -2.635494856033271e-06 3.2113097430951391e-05 -1.2112257363177578e-05 -1.3305969075884556e-05 -1.0791247385128345e-05 -1.6868165313697991e-05 -9.6664246390047032e-07 1.3811539230109641e-05 -9.2234110912365079e-06 -6.23300920408908e-05 -0.00011146638372649075 3.6819512673828087e-05 -3.1182089539698017e-05 3.1578594630129683e-05 4.143394873460369e-05 7.3450617278963373e-05 6.3799227650690091e-05 -1.5887809468117582e-05 -1.1344294366013924e-05 4.395652852496061e-05 1.6914891451366319e-05 -8.1466899335299437e-06 6.8482499682468931e-06 -7.4225659469368682e-06 -5.8897384142718098e-06 -2.1078020418945943e-06 -1.2389640598009781e-05 9.0935560487414506e-06 -4.0798671100037397e-06 1.3863632288366852e-05 -5.5939007455353684e-06 6.9077285404185382e-07 6.9580811411733669e-06 -1.7481683326700959e-05 -1.5908275372200626e-05 -1.6239900995756639e-05 -2.813506013052045e-06 -3.9059309433697774e-05 2.7657045494336715e-05 3.103296025649415e-06 6.9902947942337076e-06 -2.2084212407637229e-05 -2.5791623054875106e-05 -0.00012516590087037081 -6.6617330788717479e-05 -1.8791694907135443e-05 -2.3343107348178971e-05 4.0435739782411994e-06 3.6450770109079146e-06 -2.052250122402543e-06 -6.2392393651448063e-05 -4.413823252616832e-05 3.7662480068821873e-05 -5.0028325416714615e-05 -3.8266339777851745e-05 -2.2002031922284935e-05 5.1353760944964667e-05 -1.5975173178835701e-06 -9.9231685960385308e-06 -3.738580513581261e-05 -3.4611890751778365e-05 -5.609318783176748e-05 -9.2107010789451924e-05 -2.0818481973185405e-05 2.0396994982487351e-05 1.580612529867331e-07 5.0771464255469523e-06 1.6206217432224664e-06 1.9568184559994603e-05 1.9449617054783771e-05 -2.5158321389494071e-05 -1.4652806666392505e-05 6.7281205210932213e-07 4.3591680232678233e-05 -5.2561128884381819e-05 -8.2843576980785747e-05 -1.7427579656364186e-05 3.2446153191262187e-05 -6.3746581453939104e-06 -5.172082983110101e-05 -3.8968276746978643e-05 -1.8427570353134552e-05 2.6580263528755437e-06 -3.1171278753902533e-06 -1.8477152618711708e-05 -3.2384034781081546e-05 1.5904386372573328e-05 1.6129450164304739e-05 1.0104389332438559e-06 -6.6560383913561328e-06 -3.9130266743883058e-06 2.2671853178802062e-06 5.418353345653e-05 4.6736550441024705e-07 2.668249973617864e-05 6.4376797850353162e-07 -2.8689149821362682e-06 -8.5655394760444337e-06 -4.139137514339314e-06 -7.1834833660888183e-05 -8.297893244122405e-05 -1.4904208746917218e-05 -1.8496183261713883e-05 2.0534137945693744e-05 -3.7420956313012148e-05 -3.3274974000927513e-05 -3.9602231985416287e-05 -4.9711076885119777e-05 -3.1039611395842874e-05 -2.3688445159761057e-05 -2.3945908686076679e-05 -2.3820336191751899e-05 -2.2500491143423269e-05 -2.5523682684397931e-05 -1.266264525366179e-05 -1.6697015789211064e-05 -2.9237964968246705e-05 -2.948976511583711e-05 -1.0493474042498705e-05 -3.3233084869319897e-05 -3.8926328142849129e-05 6.2759150241581993e-06 -1.1174576132951712e-05 -4.8143442506641894e-05 -4.0224033637306915e-05 2.9282772917534685e-05 -2.4583559115635848e-05 -2.2360138798463875e-05 1.31093806843589e-05 -3.1592728719645257e-06 -6.0078860710882046e-06 -7.2153399643145141e-05 -5.0633389358891064e-05 1.2924407344276162e-05 -4.9037264866777652e-06 -1.3913691008813487e-05 -3.8827180531686916e-05 -4.755931421072967e-05 -8.9200589002023315e-06 -1.3510584709258222e-05 -1.5771439072590401e-05 -1.6118412886182479e-06 -1.7451122463422642e-05 6.9469014307912285e-05 -2.1587545248013266e-05 -3.0741409596646459e-05 1.9913566931098838e-05 1.9449364929950892e-05 -4.0282895540170651e-05 -5.8432447520041775e-06 -5.2648826972052497e-05 -8.8963513595485865e-05 -5.2443242424110862e-05 -9.029778534090199e-05 -4.6236703845984597e-05 -6.2864146344884927e-05 -2.4419945054144815e-06 4.9309130028665622e-06 2.0404427842639534e-05 5.2218129163207074e-05 8.1934329028034018e-06 4.163995281055837e-05 1.1008823726358133e-05 -1.5356504113826471e-05 8.0253007529961754e-06 -3.0136028388531161e-06 5.8810061114794833e-06 -6.755379374859781e-05 5.5160400004064492e-07 7.5369165845526971e-05 6.6609815868488571e-05 2.2873393368270977e-05 -9.8752200145785706e-05 -5.6406217342259087e-05 1.4841108209790767e-06 -4.3648536057212806e-05 -2.8141448877912461e-05 -4.9593227630887349e-06 6.391281541867514e-07 1.7784184554052777e-05 -1.2906052896559557e-05 -2.878409702709407e-05 -3.1729606460578825e-05 -1.1325490454033402e-05 -1.1061703740004132e-05 -1.5430722296664733e-05 -1.466928197690941e-05 -2.8560759774423129e-05 -2.1633033738992382e-05 -3.4796593412197416e-05 -4.2859166636111462e-05 -4.5387966304986742e-05 -7.9937218958193242e-05 -3.8327147886066756e-05 -7.804046204135375e-06 -1.6234654926620159e-05 -6.1184597918739601e-05 -8.3225982694486701e-05 -1.5359306663058052e-05 1.6758454524159349e-05 -5.7911256221289338e-05 -0.00010551142040726893 -2.7904581003256271e-05 -5.2741358580402915e-05 -3.8312491399053185e-05 8.2255010230886496e-05 -7.5456490204969584e-05 -4.8180451687560106e-05 -2.2882926192760835e-05 -2.2088036399341409e-05 4.3068533496294923e-06 -1.224865144809105e-05 -3.2017419664322148e-06 7.3438529986790671e-05 -3.7511496260374334e-05 -1.4463742959870848e-05 6.1760233928566735e-05 -3.8386719887308234e-05 -0.00012597872495926651 -6.772079869112491e-05 6.2581602791281248e-06 -5.0324784234202983e-05 -5.8618942727937977e-05 3.0824693775697226e-05 -2.5733891306382872e-05 -1.4900955444675562e-05 5.0384728297368266e-05 -9.1773227652671742e-06 -8.2138089021276508e-06 7.1426539825296907e-06 -1.4208099010868985e-05 -2.4362846273976238e-05 2.2668614770631314e-05 -2.3770548469936292e-05 2.8688878980473876e-05 -4.611234503292669e-05 -2.2840374968819441e-05 -3.8637711271545605e-05 -3.9555187520008564e-05 -5.0281114627477935e-05 -4.3373779895890381e-05 -4.3531369094516751e-05 -3.3138233965172357e-05 -3.7244068044835999e-05 -3.1367192708228254e-05 -3.1056524743724637e-05 -7.3946708755543052e-06 1.274634436888292e-05 -1.0066351236214052e-05 -5.7144420805494475e-06 -9.9010666124426251e-06 6.4900468020291039e-06 -4.8723627245638758e-06 -6.8995143505438191e-05 -0.00013010873589695685 2.5094258688232918e-06 1.2089444892273966e-05 -3.0956618440806141e-05 -1.5894734324634622e-05 -2.4451052990385948e-05 -1.9992647618683979e-05 3.755690782900904e-05 -4.801945425565529e-05 -4.3279045975643076e-05 -5.9493026303434251e-05 -7.1612866060570622e-05 -5.9934755920409153e-05 4.0943242675024923e-05 1.7927968959101804e-05 -1.8782200490514575e-05 -2.7264146415252205e-05 -2.4376191921740021e-06 -3.982807497444359e-05 1.5437854242503863e-05 -1.8458740505524736e-05 -2.0704379062370133e-05 5.3003271279200228e-05 -0.00010817610550864802 -1.3550590894292118e-05 -3.6671971705202543e-05 -4.3445354175627121e-05 -2.6160538492713047e-06 -5.1405455861372928e-05 -8.5979203486280924e-05 2.7598886451359571e-05 -2.4568650265687636e-05 1.7401837527021482e-05 3.109898070130469e-07 -6.0017427821617046e-06 -9.5268678570257964e-06 -1.617239583267431e-05 -2.0819780625057215e-05 4.3447373132150265e-05 3.772113959173635e-05 -2.0042572644279714e-05 -1.7799831970891468e-05 4.789939748635081e-06 -8.0284910987859712e-07 -1.7207300128194852e-06 1.9390870855963502e-05 -1.389572246665114e-05 2.7032005179090062e-05 4.1246132281417446e-06 -4.1642516838582503e-05 -4.7327180745114462e-05 -8.0384420388250654e-05 1.3482240807002489e-05 1.9152747672808576e-05 -1.3108065862859417e-05 -1.661537654117092e-05 -8.1010620116973422e-05 -4.9718003890520692e-05 -4.5064324587692256e-05 3.2211567796737884e-05 -1.6792261368847421e-05 -1.7292765279984798e-05 -9.0197888946790267e-06 -2.7486692898031229e-05 -2.9395688920326343e-05 -1.0139378007990651e-06 1.0055380365876109e-05 -4.2019221120927902e-05 -4.4533681642360912e-05 -7.3584492274729896e-05 -2.019405861710343e-05 -2.6710879833834146e-05 -3.8769079907961041e-05 -3.3869684569611322e-05 -9.2515616624800175e-06 -4.884582154342099e-05 -5.7503481475288615e-05 -1.8216838943133418e-05 -2.9194845023604223e-05 -1.5725287547121391e-05 5.111376444244726e-05 6.5622176850857461e-05 -6.1326159834052815e-05 5.6975682645533108e-05 4.492397996215422e-05 -2.8189743218486168e-05 -2.0206427245158027e-05 -6.1912423391576694e-05 2.3584219242637903e-06 4.9570528182956764e-05 -1.8573739676822884e-05 -5.3682250174893448e-05 -9.2450904445514899e-05 -3.0241602660586011e-05 3.3334024068654286e-06 -9.9118904276472315e-06 1.4915075610317488e-05 -5.4614676652521526e-05 -4.4791163883536175e-05 -6.2222342874099272e-05 9.7011759223997564e-06 -3.3988319253859637e-05 2.9744081016262325e-05 -1.2685193820164025e-05 -1.0984212053023485e-05 -5.3962953129224102e-05 -9.3306031480445994e-05 -3.8757424133649502e-05 -4.1853968263047547e-06 1.4131400539545017e-05 -2.4691864050650891e-05 -1.8519324271082307e-05 -3.0500015332423973e-05 -3.0491766923284749e-05 -1.7416992003328817e-05 -1.7254421005838387e-05 -5.5681535623165474e-05 -0.00010113536637066685 -2.9254203037324544e-05 5.0024458896774388e-05 3.4188263852062478e-05 -2.2311578049399698e-05 6.0099123646923519e-05 -1.3555962476412427e-06 -1.7604372846006676e-05 4.1459037079454942e-05 7.2139622994723174e-05 -5.1178140869523434e-05 -3.2044961560932569e-05 -1.0404853794643288e-05 -4.8061252948350484e-05 6.9760200699540628e-06 -1.3740138206900982e-05 -2.1057655551109021e-05 5.0155541904881289e-05 -2.6848443266887942e-05 -1.3501659300367466e-05 -9.0400097734264121e-06 9.0444258940652845e-06 3.8698689081972406e-05 6.9206903694251851e-05 2.3836838883701159e-05 1.2389689040616088e-05 -8.2651914557305584e-06 2.1332446479928033e-05 -2.7333981841509995e-05 -3.8237998436113172e-05 -3.1645567125721614e-05 -3.6360005788136556e-05 -3.5990519449401745e-06 6.96460161315885e-06 -6.4358832154530935e-06 -1.9377082272221046e-05 -1.7092368311902717e-05 -1.1180321179927284e-05 -1.583384291897118e-05 -1.2191982967901024e-05 -1.3083966871947899e-05 -1.3765030563253887e-05 8.8629910332107176e-05 -1.5481160207101891e-05 -2.6844577449616595e-05 5.4849409781751977e-07 7.0868905150087667e-05 6.6999384672623074e-05 3.4491473765644112e-05 8.7081741759371945e-07 4.5706248854941592e-07 3.9202502971078749e-05 7.9067676599531983e-07 -1.6455213429638696e-05 -1.9365609340408326e-05 -2.8611838121458602e-05 -2.2893456916432383e-05 -2.1148426204103407e-05 -2.0215286479622219e-05 -1.1448137771017742e-05 2.7887356723242294e-05 5.2936947942039327e-05 2.053558844043404e-06 -2.5655473149455133e-05 7.316289531728937e-06 3.2138265149047002e-05 -1.1056651817189806e-05 -8.4081296103658205e-06 -7.4674840512482365e-06 -2.2029249132715558e-05 -5.9510540995369411e-06 1.6654997067275267e-06 -2.305722619067013e-05 -3.4308195360421441e-06 1.7639775507979406e-05 -1.6591911883500199e-05 3.5978926760850773e-05 1.2627059764923126e-05 -1.2425616303951602e-05 -3.6825402326436361e-05 -3.2331461857387268e-08 4.6755843892652558e-06 0.00010599129603153755 9.1490421911189775e-05 4.9938972922782942e-05 1.3891409237014942e-05 -3.082226736274632e-05 -2.4354265721796679e-05 -5.2416109428027221e-05 -4.0196931080538155e-05 -9.8044970296563709e-06 -5.0938025668822969e-05 -5.3865656960753566e-05 -6.9838278997363858e-05 -7.4588446696878622e-05 -1.4638339193911813e-05 -1.3067384745957933e-05 2.7501353480341223e-05 2.5477579185129585e-05 3.3008465840500357e-05 5.4700558764486911e-07 3.4857773933629343e-07 6.8100091379051754e-06 1.8610541451910763e-05 -3.4393473292809484e-07 -9.2107685449509887e-06 -8.7673740601812867e-06 -6.3402603108623061e-05 -8.7778897215615089e-05 -8.4893422322880119e-05 -6.1846073386731429e-05 -8.7411260318215789e-06 -2.081882794511747e-05 -1.4061435706315319e-05 -1.7296092799327066e-05 -1.7038500783865685e-05 -1.4261937589532671e-05 -1.3928133316430657e-05 4.1848529629214763e-05 0.00019422779675197624 -2.4733841441658885e-05 9.7285908738700948e-06 -3.7743959292986322e-06 -8.5219634678593018e-06 1.5768741027260592e-05 -1.6726567937042341e-05 3.7076541566287213e-05 -1.0581983529692651e-07 -2.2507431597424635e-05 6.2968573081505046e-07 4.2853529041992754e-06 -1.8913824160297584e-05 1.9035573866693352e-05 -1.7696628218955211e-05 -3.1236159324492073e-05 -2.7402245709929965e-05 -2.4941446948615221e-05 -6.0842046704594403e-06 -4.4952692272988513e-06 -1.9585562830788014e-05 -1.3869982802223622e-05 -1.5852576887096124e-05 -2.252451865664151e-05 -7.1071508487973323e-06 -2.606401000565688e-06 -1.9274138020943367e-05 5.9222701845010138e-05 1.0561607042335747e-05 -3.7194592117525092e-06 2.8254126435095592e-06 -4.5457365037602192e-06 -2.8762240163977132e-05 -7.8854953019127753e-06 -2.6434403900970922e-06 2.9633306220841438e-06 2.6485865211103854e-06 -3.1690357409162179e-07 -2.475018138440449e-08 -4.120696749575388e-06 -2.8062237793080071e-05 1.3871823114111148e-05 4.3243944370684943e-05 7.8269715084006608e-05 -1.2850038088955781e-05 -4.0451414891674777e-05 -4.5366154749196773e-05 -2.1582175610467131e-05 -9.5148878663193102e-06 -1.7168915296354716e-05 -6.2775740531545577e-06 -3.0128326696148358e-05 -5.9624963349097851e-06 -8.678549636797258e-06 -4.7385781680272513e-05 -6.7375954178643891e-05 -5.5801221554836174e-05 -4.1423995070909609e-05 -8.7421624934436904e-06 -4.1625260270408953e-05 3.8872293693216573e-06 6.5761404084946178e-07 -2.2209888681913679e-05 -2.5443978681558016e-05 -1.0689301888114989e-05 -9.1589338078437499e-06 -3.8396442646108721e-05 -3.8531380435874061e-05 -2.528067273848268e-05 -3.1432762385728895e-06 -2.1665565376648049e-05 -4.2355237130885237e-06 -3.3143376968216433e-05 -1.2681694430612583e-05 -2.5164060424798674e-05 1.0310890035655807e-05 2.4280540134614123e-05 -1.5946719590266395e-05 1.5872269465708536e-06 -3.7409111254306515e-06 9.2463857563895857e-06 9.8887185674165039e-06 2.4235341284198006e-05 9.934462224096309e-07 2.5932243156299127e-05 -3.0923153199031127e-06 -2.6562858248321743e-05 -1.1091631591644184e-05 -1.596449394218396e-05 -2.1749430545262377e-05 -1.986789062067071e-05 3.8491861156691937e-05 -1.808155400139007e-05 -2.1929455058404817e-05 -2.5791746289136558e-05 -5.3666748741070403e-05 -2.4601554100080669e-05 2.4645502351917475e-05 -6.2360813957495825e-06 -1.0142537541645187e-05 4.1791202486294557e-05 -2.141422316105071e-05 -3.5724042800239344e-05 1.8308989679418605e-05 2.0014889851529402e-05 -9.7232733711110145e-06 -1.1310662049550868e-05 -6.4260688896969212e-06 5.3694998273248968e-07 5.8942836684663154e-05 -1.6393293920678124e-05 -3.3171482145451268e-05 -1.6102776797982894e-05 5.1867422019730939e-05 -2.3020445953486602e-05 -2.8856084435126598e-05 -4.0833588962995609e-05 4.3068584668855053e-06 
</DataArray>
</CellData>
</Piece>
</UnstructuredGrid>
</VTKFile>
