<?xml version="1.0"?>
<VTKFile type="UnstructuredGrid" version="0.1" byte_order="LittleEndian">
<UnstructuredGrid>
<Piece NumberOfPoints="3142" NumberOfCells="1054">
<Points>
<DataArray type="Float64" NumberOfComponents="3" format="ascii">
0.02576622439977887 0.024532886826226379 0 0 0 0 0.049999999999899652 0 0 0.02576622439977887 0.024532886826226379 0 0 0 0 0 0.050000000000207989 0 0.02576622439977887 0.024532886826226379 0 0.049999999999899652 0 0 0.053064897599215843 0.048131547304697528 0 0.02576622439977887 0.024532886826226379 0 0.053064897599215843 0.048131547304697528 0 0 0.050000000000207989 0 0 0.050000000000207989 0 0 0.10000000000041601 0 0.044310582753132287 0.101412518374475 0 0 0.10000000000041601 0 0.044310582753132287 0.101412518374475 0 0 0.15000000000062411 0 0.053064897599215843 0.048131547304697528 0 0.044310582753132287 0.101412518374475 0 0.083411279318303222 0.089699755330707398 0 0.053064897599215843 0.048131547304697528 0 0 0.050000000000207989 0 0.044310582753132287 0.101412518374475 0 0.044310582753132287 0.101412518374475 0 0.083411279318303222 0.089699755330707398 0 0.065374659239632718 0.1448908038746782 0 0.083411279318303222 0.089699755330707398 0 0.065374659239632718 0.1448908038746782 0 0.1053400320299198 0.12877248826361379 0 0.083411279318303222 0.089699755330707398 0 0.12372429750337779 0.095814237875728972 0 0.1053400320299198 0.12877248826361379 0 0.12372429750337779 0.095814237875728972 0 0.1053400320299198 0.12877248826361379 0 0.14332333627550789 0.14578431753966009 0 0.12372429750337779 0.095814237875728972 0 0.10266856499169109 0.044518360900210059 0 0.14618258501891079 0.062070108745602003 0 0.083411279318303222 0.089699755330707398 0 0.12372429750337779 0.095814237875728972 0 0.10266856499169109 0.044518360900210059 0 0.10266856499169109 0.044518360900210059 0 0.099999999999814668 0 0 0.14999999999970359 0 0 0.049999999999899652 0 0 0.053064897599215843 0.048131547304697528 0 0.099999999999814668 0 0 0.053064897599215843 0.048131547304697528 0 0.10266856499169109 0.044518360900210059 0 0.099999999999814668 0 0 0.053064897599215843 0.048131547304697528 0 0.083411279318303222 0.089699755330707398 0 0.10266856499169109 0.044518360900210059 0 0.044081577119474857 0.2271058242433576 0 0 0.20000000000083221 0 0 0.25000000000104028 0 0.044081577119474857 0.2271058242433576 0 0 0.20000000000083221 0 0.038512288486115001 0.1844147282893184 0 0.044081577119474857 0.2271058242433576 0 0.038512288486115001 0.1844147282893184 0 0.083105206071467416 0.20007701332709979 0 0.038512288486115001 0.1844147282893184 0 0 0.15000000000062411 0 0.065374659239632718 0.1448908038746782 0 0.044310582753132287 0.101412518374475 0 0 0.15000000000062411 0 0.065374659239632718 0.1448908038746782 0 0.038512288486115001 0.1844147282893184 0 0.065374659239632718 0.1448908038746782 0 0.083105206071467416 0.20007701332709979 0 0 0.20000000000083221 0 0.038512288486115001 0.1844147282893184 0 0 0.15000000000062411 0 0.065374659239632718 0.1448908038746782 0 0.1053400320299198 0.12877248826361379 0 0.106902708054812 0.16453234188234539 0 0.1053400320299198 0.12877248826361379 0 0.106902708054812 0.16453234188234539 0 0.14332333627550789 0.14578431753966009 0 0.065374659239632718 0.1448908038746782 0 0.106902708054812 0.16453234188234539 0 0.083105206071467416 0.20007701332709979 0 0.083105206071467416 0.20007701332709979 0 0.095326043202144745 0.24554465089224409 0 0.13737030665753211 0.20313708640667491 0 0.106902708054812 0.16453234188234539 0 0.083105206071467416 0.20007701332709979 0 0.13737030665753211 0.20313708640667491 0 0.044081577119474857 0.2271058242433576 0 0.083105206071467416 0.20007701332709979 0 0.095326043202144745 0.24554465089224409 0 0.044081577119474857 0.2271058242433576 0 0.095326043202144745 0.24554465089224409 0 0.049706944316556423 0.27522722923869108 0 0.095326043202144745 0.24554465089224409 0 0.14377654328998779 0.2442024734791064 0 0.13737030665753211 0.20313708640667491 0 0.17933913398461551 0.2350063570234002 0 0.14377654328998779 0.2442024734791064 0 0.13737030665753211 0.20313708640667491 0 0.17933913398461551 0.2350063570234002 0 0.13737030665753211 0.20313708640667491 0 0.18124454140915969 0.18790916706335251 0 0.18124454140915969 0.18790916706335251 0 0.14332333627550789 0.14578431753966009 0 0.18652628422869419 0.14162325200928061 0 0.106902708054812 0.16453234188234539 0 0.13737030665753211 0.20313708640667491 0 0.14332333627550789 0.14578431753966009 0 0.13737030665753211 0.20313708640667491 0 0.18124454140915969 0.18790916706335251 0 0.14332333627550789 0.14578431753966009 0 0.14332333627550789 0.14578431753966009 0 0.18652628422869419 0.14162325200928061 0 0.16141998738593399 0.10404039647458049 0 0.18652628422869419 0.14162325200928061 0 0.22985637510995899 0.1298347970200906 0 0.2185883431182947 0.18019736283949719 0 0.22985637510995899 0.1298347970200906 0 0.2185883431182947 0.18019736283949719 0 0.25557216766470708 0.15874861286892261 0 0.2185883431182947 0.18019736283949719 0 0.25557216766470708 0.15874861286892261 0 0.26429849586623999 0.19346700179430079 0 0.18124454140915969 0.18790916706335251 0 0.18652628422869419 0.14162325200928061 0 0.2185883431182947 0.18019736283949719 0 0.17933913398461551 0.2350063570234002 0 0.18124454140915969 0.18790916706335251 0 0.224700362040408 0.22206622194729711 0 0.18124454140915969 0.18790916706335251 0 0.2185883431182947 0.18019736283949719 0 0.224700362040408 0.22206622194729711 0 0.2185883431182947 0.18019736283949719 0 0.224700362040408 0.22206622194729711 0 0.26429849586623999 0.19346700179430079 0 0.224700362040408 0.22206622194729711 0 0.25195515620380449 0.25883339815888678 0 0.21049769590865089 0.26857363548218488 0 0.17933913398461551 0.2350063570234002 0 0.224700362040408 0.22206622194729711 0 0.21049769590865089 0.26857363548218488 0 0.184418230509967 0.038773194583122873 0 0.14999999999970359 0 0 0.14618258501891079 0.062070108745602003 0 0.184418230509967 0.038773194583122873 0 0.14618258501891079 0.062070108745602003 0 0.19922788606653311 0.085920220746880993 0 0.184418230509967 0.038773194583122873 0 0.14999999999970359 0 0 0.19999999999955789 0 0 0.10266856499169109 0.044518360900210059 0 0.14999999999970359 0 0 0.14618258501891079 0.062070108745602003 0 0.12372429750337779 0.095814237875728972 0 0.14618258501891079 0.062070108745602003 0 0.16141998738593399 0.10404039647458049 0 0.12372429750337779 0.095814237875728972 0 0.14332333627550789 0.14578431753966009 0 0.16141998738593399 0.10404039647458049 0 0.18652628422869419 0.14162325200928061 0 0.16141998738593399 0.10404039647458049 0 0.19922788606653311 0.085920220746880993 0 0.14618258501891079 0.062070108745602003 0 0.16141998738593399 0.10404039647458049 0 0.19922788606653311 0.085920220746880993 0 0.18652628422869419 0.14162325200928061 0 0.22985637510995899 0.1298347970200906 0 0.19922788606653311 0.085920220746880993 0 0.22985637510995899 0.1298347970200906 0 0.19922788606653311 0.085920220746880993 0 0.24218496799700481 0.089025544070598317 0 0.22985637510995899 0.1298347970200906 0 0.24218496799700481 0.089025544070598317 0 0.27474541102162192 0.11822029332053539 0 0.19922788606653311 0.085920220746880993 0 0.24218496799700481 0.089025544070598317 0 0.22668068146512929 0.045875643423131329 0 0.24218496799700481 0.089025544070598317 0 0.22668068146512929 0.045875643423131329 0 0.27499999999933927 0.060310814194988557 0 0.184418230509967 0.038773194583122873 0 0.19922788606653311 0.085920220746880993 0 0.22668068146512929 0.045875643423131329 0 0.184418230509967 0.038773194583122873 0 0.22668068146512929 0.045875643423131329 0 0.19999999999955789 0 0 0.22668068146512929 0.045875643423131329 0 0.19999999999955789 0 0 0.24999999999941211 0 0 0.24999999999941211 0 0 0.27499999999933927 0.060310814194988557 0 0.29999999999926641 0 0 0.22668068146512929 0.045875643423131329 0 0.24999999999941211 0 0 0.27499999999933927 0.060310814194988557 0 0.27499999999933927 0.060310814194988557 0 0.29999999999926641 0 0 0.32541448401678508 0.046215317981507749 0 0.29999999999926641 0 0 0.32541448401678508 0.046215317981507749 0 0.34999999999912063 0 0 0.32541448401678508 0.046215317981507749 0 0.3615861437013822 0.03582617922508851 0 0.35312867752657662 0.084946736076730367 0 0.3615861437013822 0.03582617922508851 0 0.35312867752657662 0.084946736076730367 0 0.39591832466117061 0.056982757562006353 0 0.32541448401678508 0.046215317981507749 0 0.3615861437013822 0.03582617922508851 0 0.34999999999912063 0 0 0.3615861437013822 0.03582617922508851 0 0.34999999999912063 0 0 0.3999999999989749 0 0 0.35312867752657662 0.084946736076730367 0 0.36246644853392812 0.1399454205365751 0 0.39823268594401579 0.1116623613130045 0 0.35312867752657662 0.084946736076730367 0 0.32215584939770009 0.1218492143506909 0 0.36246644853392812 0.1399454205365751 0 0.32541448401678508 0.046215317981507749 0 0.35312867752657662 0.084946736076730367 0 0.3096713403101819 0.085471541595262421 0 0.35312867752657662 0.084946736076730367 0 0.32215584939770009 0.1218492143506909 0 0.3096713403101819 0.085471541595262421 0 0.32215584939770009 0.1218492143506909 0 0.3096713403101819 0.085471541595262421 0 0.27474541102162192 0.11822029332053539 0 0.27499999999933927 0.060310814194988557 0 0.32541448401678508 0.046215317981507749 0 0.3096713403101819 0.085471541595262421 0 0.27499999999933927 0.060310814194988557 0 0.3096713403101819 0.085471541595262421 0 0.27474541102162192 0.11822029332053539 0 0.24218496799700481 0.089025544070598317 0 0.27499999999933927 0.060310814194988557 0 0.27474541102162192 0.11822029332053539 0 0.22985637510995899 0.1298347970200906 0 0.27474541102162192 0.11822029332053539 0 0.25557216766470708 0.15874861286892261 0 0.27474541102162192 0.11822029332053539 0 0.25557216766470708 0.15874861286892261 0 0.29336099386129338 0.15892013001050981 0 0.25557216766470708 0.15874861286892261 0 0.29336099386129338 0.15892013001050981 0 0.26429849586623999 0.19346700179430079 0 0.29336099386129338 0.15892013001050981 0 0.31255190597181792 0.19850845631528771 0 0.33084213324567391 0.16272720141332131 0 0.29336099386129338 0.15892013001050981 0 0.26429849586623999 0.19346700179430079 0 0.31255190597181792 0.19850845631528771 0 0.32215584939770009 0.1218492143506909 0 0.27474541102162192 0.11822029332053539 0 0.29336099386129338 0.15892013001050981 0 0.224700362040408 0.22206622194729711 0 0.28040350263641872 0.23054717217092141 0 0.25195515620380449 0.25883339815888678 0 0.224700362040408 0.22206622194729711 0 0.28040350263641872 0.23054717217092141 0 0.26429849586623999 0.19346700179430079 0 0.28040350263641872 0.23054717217092141 0 0.26429849586623999 0.19346700179430079 0 0.31255190597181792 0.19850845631528771 0 0.28040350263641872 0.23054717217092141 0 0.33758650185219202 0.23837101504325639 0 0.29132859388405002 0.27203693976649962 0 0.28040350263641872 0.23054717217092141 0 0.33758650185219202 0.23837101504325639 0 0.31255190597181792 0.19850845631528771 0 0.33758650185219202 0.23837101504325639 0 0.31255190597181792 0.19850845631528771 0 0.3572130504031617 0.1874703368446563 0 0.33758650185219202 0.23837101504325639 0 0.3572130504031617 0.1874703368446563 0 0.38831533174504851 0.2189834941785925 0 0.33758650185219202 0.23837101504325639 0 0.38831533174504851 0.2189834941785925 0 0.3786248352540974 0.27082301512024259 0 0.32215584939770009 0.1218492143506909 0 0.29336099386129338 0.15892013001050981 0 0.33084213324567391 0.16272720141332131 0 0.32215584939770009 0.1218492143506909 0 0.33084213324567391 0.16272720141332131 0 0.36246644853392812 0.1399454205365751 0 0.31255190597181792 0.19850845631528771 0 0.33084213324567391 0.16272720141332131 0 0.3572130504031617 0.1874703368446563 0 0.3572130504031617 0.1874703368446563 0 0.36246644853392812 0.1399454205365751 0 0.39801143831225599 0.16651381068160659 0 0.33084213324567391 0.16272720141332131 0 0.3572130504031617 0.1874703368446563 0 0.36246644853392812 0.1399454205365751 0 0.36246644853392812 0.1399454205365751 0 0.39801143831225599 0.16651381068160659 0 0.39823268594401579 0.1116623613130045 0 0.39801143831225599 0.16651381068160659 0 0.42905200079338551 0.19982395548231649 0 0.44288491854585582 0.14116182884956319 0 0.39801143831225599 0.16651381068160659 0 0.44288491854585582 0.14116182884956319 0 0.39823268594401579 0.1116623613130045 0 0.38831533174504851 0.2189834941785925 0 0.42377727103934271 0.25099357235810238 0 0.3786248352540974 0.27082301512024259 0 0.3572130504031617 0.1874703368446563 0 0.39801143831225599 0.16651381068160659 0 0.38831533174504851 0.2189834941785925 0 0.39801143831225599 0.16651381068160659 0 0.38831533174504851 0.2189834941785925 0 0.42905200079338551 0.19982395548231649 0 0.38831533174504851 0.2189834941785925 0 0.42905200079338551 0.19982395548231649 0 0.42377727103934271 0.25099357235810238 0 0.42905200079338551 0.19982395548231649 0 0.46429753744194407 0.22870891180733599 0 0.42377727103934271 0.25099357235810238 0 0.42905200079338551 0.19982395548231649 0 0.46429753744194407 0.22870891180733599 0 0.47357141910802508 0.1873585799078378 0 0.47357141910802508 0.1873585799078378 0 0.51729576145820033 0.1683240575987815 0 0.50760557329222289 0.20700468884612061 0 0.46429753744194407 0.22870891180733599 0 0.47357141910802508 0.1873585799078378 0 0.50760557329222289 0.20700468884612061 0 0.46429753744194407 0.22870891180733599 0 0.49695729691142171 0.25014895411178018 0 0.50760557329222289 0.20700468884612061 0 0.44288491854585582 0.14116182884956319 0 0.47357141910802508 0.1873585799078378 0 0.48466639505193998 0.1421439844745814 0 0.42905200079338551 0.19982395548231649 0 0.44288491854585582 0.14116182884956319 0 0.47357141910802508 0.1873585799078378 0 0.47357141910802508 0.1873585799078378 0 0.48466639505193998 0.1421439844745814 0 0.51729576145820033 0.1683240575987815 0 0.44288491854585582 0.14116182884956319 0 0.48466639505193998 0.1421439844745814 0 0.47881186583059909 0.093591717165689425 0 0.48466639505193998 0.1421439844745814 0 0.47881186583059909 0.093591717165689425 0 0.51076801031701946 0.1202837388510348 0 0.44288491854585582 0.14116182884956319 0 0.47881186583059909 0.093591717165689425 0 0.43698630808430822 0.080423614171545449 0 0.47881186583059909 0.093591717165689425 0 0.47040171442036788 0.044141676406503738 0 0.43698630808430822 0.080423614171545449 0 0.47881186583059909 0.093591717165689425 0 0.47040171442036788 0.044141676406503738 0 0.52375890611712683 0.059318771819432882 0 0.47040171442036788 0.044141676406503738 0 0.49999999999869432 0 0 0.52375890611712683 0.059318771819432882 0 0.47040171442036788 0.044141676406503738 0 0.49999999999869432 0 0 0.44999999999882923 0 0 0.47040171442036788 0.044141676406503738 0 0.44999999999882923 0 0 0.4320097814748517 0.037406712692169303 0 0.47040171442036788 0.044141676406503738 0 0.4320097814748517 0.037406712692169303 0 0.43698630808430822 0.080423614171545449 0 0.4320097814748517 0.037406712692169303 0 0.3999999999989749 0 0 0.39591832466117061 0.056982757562006353 0 0.4320097814748517 0.037406712692169303 0 0.39591832466117061 0.056982757562006353 0 0.43698630808430822 0.080423614171545449 0 0.44999999999882923 0 0 0.4320097814748517 0.037406712692169303 0 0.3999999999989749 0 0 0.3615861437013822 0.03582617922508851 0 0.3999999999989749 0 0 0.39591832466117061 0.056982757562006353 0 0.35312867752657662 0.084946736076730367 0 0.39591832466117061 0.056982757562006353 0 0.39823268594401579 0.1116623613130045 0 0.44288491854585582 0.14116182884956319 0 0.39823268594401579 0.1116623613130045 0 0.43698630808430822 0.080423614171545449 0 0.39591832466117061 0.056982757562006353 0 0.39823268594401579 0.1116623613130045 0 0.43698630808430822 0.080423614171545449 0 0.42161023666869668 0.39493916313643851 0 0.38707855792647411 0.42299362914874578 0 0.43249999999999988 0.43937499999999979 0 0.42161023666869668 0.39493916313643851 0 0.38083244760691543 0.38531983672244652 0 0.38707855792647411 0.42299362914874578 0 0.42161023666869668 0.39493916313643851 0 0.38083244760691543 0.38531983672244652 0 0.40076539126862748 0.34589349467022118 0 0.38707855792647411 0.42299362914874578 0 0.3908716102680424 0.47010282357248828 0 0.43249999999999988 0.43937499999999979 0 0.3908716102680424 0.47010282357248828 0 0.43507373378304309 0.49699695397193322 0 0.38244435121258652 0.51653317813019495 0 0.3908716102680424 0.47010282357248828 0 0.43507373378304309 0.49699695397193322 0 0.43249999999999988 0.43937499999999979 0 0.43507373378304309 0.49699695397193322 0 0.43249999999999988 0.43937499999999979 0 0.46111841286828259 0.46690301029591341 0 0.43249999999999988 0.43937499999999979 0 0.46111841286828259 0.46690301029591341 0 0.48858720058566618 0.43964267759203868 0 0.43507373378304309 0.49699695397193322 0 0.46111841286828259 0.46690301029591341 0 0.49102375406324739 0.49123754822244059 0 0.46111841286828259 0.46690301029591341 0 0.49102375406324739 0.49123754822244059 0 0.48858720058566618 0.43964267759203868 0 0.48858720058566618 0.43964267759203868 0 0.46655310992796922 0.39650496622958609 0 0.52289427570932567 0.3932284363388488 0 0.43249999999999988 0.43937499999999979 0 0.48858720058566618 0.43964267759203868 0 0.46655310992796922 0.39650496622958609 0 0.42161023666869668 0.39493916313643851 0 0.43249999999999988 0.43937499999999979 0 0.46655310992796922 0.39650496622958609 0 0.42161023666869668 0.39493916313643851 0 0.46655310992796922 0.39650496622958609 0 0.4409427642593301 0.35743108089689513 0 0.46655310992796922 0.39650496622958609 0 0.49077833859261139 0.35229981449445641 0 0.52289427570932567 0.3932284363388488 0 0.49077833859261139 0.35229981449445641 0 0.46226845272279993 0.31901800744800313 0 0.5 0.29999999999999999 0 0.49077833859261139 0.35229981449445641 0 0.46226845272279993 0.31901800744800313 0 0.4409427642593301 0.35743108089689513 0 0.46226845272279993 0.31901800744800313 0 0.4409427642593301 0.35743108089689513 0 0.41914690343363781 0.30688979866601612 0 0.46655310992796922 0.39650496622958609 0 0.49077833859261139 0.35229981449445641 0 0.4409427642593301 0.35743108089689513 0 0.49695729691142171 0.25014895411178018 0 0.4604742573284204 0.27846934318264788 0 0.5 0.29999999999999999 0 0.46429753744194407 0.22870891180733599 0 0.49695729691142171 0.25014895411178018 0 0.4604742573284204 0.27846934318264788 0 0.46226845272279993 0.31901800744800313 0 0.4604742573284204 0.27846934318264788 0 0.5 0.29999999999999999 0 0.46226845272279993 0.31901800744800313 0 0.4604742573284204 0.27846934318264788 0 0.41914690343363781 0.30688979866601612 0 0.46429753744194407 0.22870891180733599 0 0.4604742573284204 0.27846934318264788 0 0.42377727103934271 0.25099357235810238 0 0.4604742573284204 0.27846934318264788 0 0.42377727103934271 0.25099357235810238 0 0.41914690343363781 0.30688979866601612 0 0.42377727103934271 0.25099357235810238 0 0.41914690343363781 0.30688979866601612 0 0.3786248352540974 0.27082301512024259 0 0.41914690343363781 0.30688979866601612 0 0.3786248352540974 0.27082301512024259 0 0.36575549820117997 0.31677992835137742 0 0.42161023666869668 0.39493916313643851 0 0.4409427642593301 0.35743108089689513 0 0.40076539126862748 0.34589349467022118 0 0.4409427642593301 0.35743108089689513 0 0.41914690343363781 0.30688979866601612 0 0.40076539126862748 0.34589349467022118 0 0.41914690343363781 0.30688979866601612 0 0.40076539126862748 0.34589349467022118 0 0.36575549820117997 0.31677992835137742 0 0.40076539126862748 0.34589349467022118 0 0.36575549820117997 0.31677992835137742 0 0.33277555741076909 0.36432196682010132 0 0.38083244760691543 0.38531983672244652 0 0.40076539126862748 0.34589349467022118 0 0.33277555741076909 0.36432196682010132 0 0.36575549820117997 0.31677992835137742 0 0.32752639306529541 0.32610012995269699 0 0.33277555741076909 0.36432196682010132 0 0.32752639306529541 0.32610012995269699 0 0.33277555741076909 0.36432196682010132 0 0.29644548887253103 0.34914008784168082 0 0.33758650185219202 0.23837101504325639 0 0.3786248352540974 0.27082301512024259 0 0.33402499257867951 0.28911035184473982 0 0.3786248352540974 0.27082301512024259 0 0.36575549820117997 0.31677992835137742 0 0.33402499257867951 0.28911035184473982 0 0.36575549820117997 0.31677992835137742 0 0.32752639306529541 0.32610012995269699 0 0.33402499257867951 0.28911035184473982 0 0.32752639306529541 0.32610012995269699 0 0.33402499257867951 0.28911035184473982 0 0.29348325746214782 0.31350119524708198 0 0.33758650185219202 0.23837101504325639 0 0.33402499257867951 0.28911035184473982 0 0.29132859388405002 0.27203693976649962 0 0.33402499257867951 0.28911035184473982 0 0.29132859388405002 0.27203693976649962 0 0.29348325746214782 0.31350119524708198 0 0.29132859388405002 0.27203693976649962 0 0.29348325746214782 0.31350119524708198 0 0.24432083401701241 0.3006253385567515 0 0.29132859388405002 0.27203693976649962 0 0.25195515620380449 0.25883339815888678 0 0.24432083401701241 0.3006253385567515 0 0.28040350263641872 0.23054717217092141 0 0.29132859388405002 0.27203693976649962 0 0.25195515620380449 0.25883339815888678 0 0.33277555741076909 0.36432196682010132 0 0.29644548887253103 0.34914008784168082 0 0.27866744612395528 0.38416094670951489 0 0.32752639306529541 0.32610012995269699 0 0.29644548887253103 0.34914008784168082 0 0.29348325746214782 0.31350119524708198 0 0.29644548887253103 0.34914008784168082 0 0.29348325746214782 0.31350119524708198 0 0.25966125648670141 0.34351016742083729 0 0.29348325746214782 0.31350119524708198 0 0.25966125648670141 0.34351016742083729 0 0.24432083401701241 0.3006253385567515 0 0.29644548887253103 0.34914008784168082 0 0.25966125648670141 0.34351016742083729 0 0.27866744612395528 0.38416094670951489 0 0.25966125648670141 0.34351016742083729 0 0.27866744612395528 0.38416094670951489 0 0.22033343844674469 0.36963382230740238 0 0.27866744612395528 0.38416094670951489 0 0.29124338931648802 0.43334555462578611 0 0.24049127783545701 0.41270748208749802 0 0.29124338931648802 0.43334555462578611 0 0.25982634974572738 0.46097799597715272 0 0.24049127783545701 0.41270748208749802 0 0.27866744612395528 0.38416094670951489 0 0.29124338931648802 0.43334555462578611 0 0.31778888742534622 0.40581751814196781 0 0.33277555741076909 0.36432196682010132 0 0.27866744612395528 0.38416094670951489 0 0.31778888742534622 0.40581751814196781 0 0.33277555741076909 0.36432196682010132 0 0.31778888742534622 0.40581751814196781 0 0.35221190152536241 0.40457127605439203 0 0.31778888742534622 0.40581751814196781 0 0.35221190152536241 0.40457127605439203 0 0.34258405725730701 0.4444034294386992 0 0.29124338931648802 0.43334555462578611 0 0.31778888742534622 0.40581751814196781 0 0.34258405725730701 0.4444034294386992 0 0.38707855792647411 0.42299362914874578 0 0.35221190152536241 0.40457127605439203 0 0.34258405725730701 0.4444034294386992 0 0.38083244760691543 0.38531983672244652 0 0.38707855792647411 0.42299362914874578 0 0.35221190152536241 0.40457127605439203 0 0.38083244760691543 0.38531983672244652 0 0.33277555741076909 0.36432196682010132 0 0.35221190152536241 0.40457127605439203 0 0.3908716102680424 0.47010282357248828 0 0.35024835142131061 0.48654922671676981 0 0.38244435121258652 0.51653317813019495 0 0.3908716102680424 0.47010282357248828 0 0.35024835142131061 0.48654922671676981 0 0.34258405725730701 0.4444034294386992 0 0.38707855792647411 0.42299362914874578 0 0.3908716102680424 0.47010282357248828 0 0.34258405725730701 0.4444034294386992 0 0.29124338931648802 0.43334555462578611 0 0.34258405725730701 0.4444034294386992 0 0.31068898841644388 0.47541502461811092 0 0.35024835142131061 0.48654922671676981 0 0.31068898841644388 0.47541502461811092 0 0.33190227185843768 0.52715113583864037 0 0.35024835142131061 0.48654922671676981 0 0.34258405725730701 0.4444034294386992 0 0.31068898841644388 0.47541502461811092 0 0.31068898841644388 0.47541502461811092 0 0.25982634974572738 0.46097799597715272 0 0.28307294598219601 0.50789252727458634 0 0.29124338931648802 0.43334555462578611 0 0.31068898841644388 0.47541502461811092 0 0.25982634974572738 0.46097799597715272 0 0.25982634974572738 0.46097799597715272 0 0.23975172658309729 0.49475499200540818 0 0.28307294598219601 0.50789252727458634 0 0.23975172658309729 0.49475499200540818 0 0.19604738184454831 0.47787523520405789 0 0.22278230690790279 0.44824268025881547 0 0.19604738184454831 0.47787523520405789 0 0.22278230690790279 0.44824268025881547 0 0.191953871957803 0.42546416763755879 0 0.25982634974572738 0.46097799597715272 0 0.22278230690790279 0.44824268025881547 0 0.24049127783545701 0.41270748208749802 0 0.25982634974572738 0.46097799597715272 0 0.23975172658309729 0.49475499200540818 0 0.22278230690790279 0.44824268025881547 0 0.27866744612395528 0.38416094670951489 0 0.24049127783545701 0.41270748208749802 0 0.22033343844674469 0.36963382230740238 0 0.191953871957803 0.42546416763755879 0 0.1650278706801647 0.38791388161335733 0 0.22033343844674469 0.36963382230740238 0 0.24049127783545701 0.41270748208749802 0 0.191953871957803 0.42546416763755879 0 0.22033343844674469 0.36963382230740238 0 0.22278230690790279 0.44824268025881547 0 0.24049127783545701 0.41270748208749802 0 0.191953871957803 0.42546416763755879 0 0.191953871957803 0.42546416763755879 0 0.13773355295499351 0.42497777642586831 0 0.15801167086041079 0.46008690540259539 0 0.191953871957803 0.42546416763755879 0 0.1650278706801647 0.38791388161335733 0 0.13773355295499351 0.42497777642586831 0 0.1650278706801647 0.38791388161335733 0 0.13773355295499351 0.42497777642586831 0 0.1117088112799664 0.38831403004970022 0 0.13773355295499351 0.42497777642586831 0 0.15801167086041079 0.46008690540259539 0 0.113541300460994 0.46208784312094731 0 0.15801167086041079 0.46008690540259539 0 0.113541300460994 0.46208784312094731 0 0.1216098864341134 0.50637075089503902 0 0.15801167086041079 0.46008690540259539 0 0.1216098864341134 0.50637075089503902 0 0.16618607197337229 0.50652878253548905 0 0.19604738184454831 0.47787523520405789 0 0.15801167086041079 0.46008690540259539 0 0.16618607197337229 0.50652878253548905 0 0.19604738184454831 0.47787523520405789 0 0.191953871957803 0.42546416763755879 0 0.15801167086041079 0.46008690540259539 0 0.25195515620380449 0.25883339815888678 0 0.21049769590865089 0.26857363548218488 0 0.24432083401701241 0.3006253385567515 0 0.21049769590865089 0.26857363548218488 0 0.24432083401701241 0.3006253385567515 0 0.19670163708476801 0.31472518408333222 0 0.21049769590865089 0.26857363548218488 0 0.19670163708476801 0.31472518408333222 0 0.168349569971391 0.28054490850913671 0 0.19670163708476801 0.31472518408333222 0 0.22615676742807109 0.33458786033114157 0 0.18434624290945251 0.35208838264196463 0 0.24432083401701241 0.3006253385567515 0 0.19670163708476801 0.31472518408333222 0 0.22615676742807109 0.33458786033114157 0 0.25966125648670141 0.34351016742083729 0 0.24432083401701241 0.3006253385567515 0 0.22615676742807109 0.33458786033114157 0 0.25966125648670141 0.34351016742083729 0 0.22615676742807109 0.33458786033114157 0 0.22033343844674469 0.36963382230740238 0 0.22615676742807109 0.33458786033114157 0 0.22033343844674469 0.36963382230740238 0 0.18434624290945251 0.35208838264196463 0 0.1650278706801647 0.38791388161335733 0 0.22033343844674469 0.36963382230740238 0 0.18434624290945251 0.35208838264196463 0 0.1650278706801647 0.38791388161335733 0 0.18434624290945251 0.35208838264196463 0 0.14223753364722069 0.3341983344262433 0 0.1650278706801647 0.38791388161335733 0 0.14223753364722069 0.3341983344262433 0 0.1117088112799664 0.38831403004970022 0 0.19670163708476801 0.31472518408333222 0 0.18434624290945251 0.35208838264196463 0 0.14223753364722069 0.3341983344262433 0 0.19670163708476801 0.31472518408333222 0 0.14223753364722069 0.3341983344262433 0 0.168349569971391 0.28054490850913671 0 0.14223753364722069 0.3341983344262433 0 0.168349569971391 0.28054490850913671 0 0.1247745017231483 0.27198077544791172 0 0.14377654328998779 0.2442024734791064 0 0.168349569971391 0.28054490850913671 0 0.1247745017231483 0.27198077544791172 0 0.17933913398461551 0.2350063570234002 0 0.21049769590865089 0.26857363548218488 0 0.168349569971391 0.28054490850913671 0 0.17933913398461551 0.2350063570234002 0 0.14377654328998779 0.2442024734791064 0 0.168349569971391 0.28054490850913671 0 0.095326043202144745 0.24554465089224409 0 0.093851963071650835 0.30582068233324772 0 0.049706944316556423 0.27522722923869108 0 0.095326043202144745 0.24554465089224409 0 0.14377654328998779 0.2442024734791064 0 0.1247745017231483 0.27198077544791172 0 0.095326043202144745 0.24554465089224409 0 0.1247745017231483 0.27198077544791172 0 0.093851963071650835 0.30582068233324772 0 0.14223753364722069 0.3341983344262433 0 0.1247745017231483 0.27198077544791172 0 0.093851963071650835 0.30582068233324772 0 0.093851963071650835 0.30582068233324772 0 0.046389130980076937 0.32668781832131749 0 0.049706944316556423 0.27522722923869108 0 0.093851963071650835 0.30582068233324772 0 0.087545339447545459 0.35122518864182262 0 0.046389130980076937 0.32668781832131749 0 0.14223753364722069 0.3341983344262433 0 0.093851963071650835 0.30582068233324772 0 0.087545339447545459 0.35122518864182262 0 0.14223753364722069 0.3341983344262433 0 0.087545339447545459 0.35122518864182262 0 0.1117088112799664 0.38831403004970022 0 0.087545339447545459 0.35122518864182262 0 0.1117088112799664 0.38831403004970022 0 0.050583896093752537 0.38543522283434112 0 0.087545339447545459 0.35122518864182262 0 0.046389130980076937 0.32668781832131749 0 0.050583896093752537 0.38543522283434112 0 0 0.35000000000145642 0 0.046389130980076937 0.32668781832131749 0 0.050583896093752537 0.38543522283434112 0 0 0.35000000000145642 0 0.046389130980076937 0.32668781832131749 0 0 0.30000000000124832 0 0.046389130980076937 0.32668781832131749 0 0 0.30000000000124832 0 0.049706944316556423 0.27522722923869108 0 0 0.30000000000124832 0 0 0.25000000000104028 0 0.049706944316556423 0.27522722923869108 0 0.044081577119474857 0.2271058242433576 0 0 0.25000000000104028 0 0.049706944316556423 0.27522722923869108 0 0.068743045408989428 0.48853989837882689 0 0.113541300460994 0.46208784312094731 0 0.078358742472063481 0.43365249433908948 0 0.068743045408989428 0.48853989837882689 0 0.113541300460994 0.46208784312094731 0 0.1216098864341134 0.50637075089503902 0 0.13773355295499351 0.42497777642586831 0 0.113541300460994 0.46208784312094731 0 0.078358742472063481 0.43365249433908948 0 0.13773355295499351 0.42497777642586831 0 0.1117088112799664 0.38831403004970022 0 0.078358742472063481 0.43365249433908948 0 0.1117088112799664 0.38831403004970022 0 0.078358742472063481 0.43365249433908948 0 0.050583896093752537 0.38543522283434112 0 0.078358742472063481 0.43365249433908948 0 0.035463093262830522 0.42673416072819947 0 0.050583896093752537 0.38543522283434112 0 0 0.35000000000145642 0 0.050583896093752537 0.38543522283434112 0 0 0.40000000000166441 0 0.035463093262830522 0.42673416072819947 0 0.050583896093752537 0.38543522283434112 0 0 0.40000000000166441 0 0.035463093262830522 0.42673416072819947 0 0 0.40000000000166441 0 0 0.45000000000187229 0 0.035463093262830522 0.42673416072819947 0 0 0.45000000000187229 0 0.033550201249889847 0.46247875832467239 0 0.068743045408989428 0.48853989837882689 0 0.033550201249889847 0.46247875832467239 0 0 0.50000000000205869 0 0.068743045408989428 0.48853989837882689 0 0.078358742472063481 0.43365249433908948 0 0.033550201249889847 0.46247875832467239 0 0.078358742472063481 0.43365249433908948 0 0.035463093262830522 0.42673416072819947 0 0.033550201249889847 0.46247875832467239 0 0 0.45000000000187229 0 0.033550201249889847 0.46247875832467239 0 0 0.50000000000205869 0 0.068743045408989428 0.48853989837882689 0 0 0.50000000000205869 0 0.044576108720083309 0.53509043209532614 0 0 0.50000000000205869 0 0 0.55000000000173355 0 0.044576108720083309 0.53509043209532614 0 0 0.55000000000173355 0 0.044576108720083309 0.53509043209532614 0 0.034381862692950467 0.57372682250960894 0 0.044576108720083309 0.53509043209532614 0 0.077693244765132896 0.56932317963405099 0 0.034381862692950467 0.57372682250960894 0 0.068743045408989428 0.48853989837882689 0 0.044576108720083309 0.53509043209532614 0 0.085622222639554768 0.53333248912060549 0 0.068743045408989428 0.48853989837882689 0 0.085622222639554768 0.53333248912060549 0 0.1216098864341134 0.50637075089503902 0 0.044576108720083309 0.53509043209532614 0 0.085622222639554768 0.53333248912060549 0 0.077693244765132896 0.56932317963405099 0 0.085622222639554768 0.53333248912060549 0 0.1154888278694548 0.56733818459978413 0 0.077693244765132896 0.56932317963405099 0 0.085622222639554768 0.53333248912060549 0 0.1216098864341134 0.50637075089503902 0 0.1154888278694548 0.56733818459978413 0 0.1024350934457823 0.60772393977513839 0 0.1154888278694548 0.56733818459978413 0 0.077693244765132896 0.56932317963405099 0 0.1024350934457823 0.60772393977513839 0 0.050069554451969707 0.61308520079857043 0 0.086179601630648681 0.64647209519980475 0 0.1024350934457823 0.60772393977513839 0 0.077693244765132896 0.56932317963405099 0 0.050069554451969707 0.61308520079857043 0 0.077693244765132896 0.56932317963405099 0 0.050069554451969707 0.61308520079857043 0 0.034381862692950467 0.57372682250960894 0 0 0.55000000000173355 0 0.034381862692950467 0.57372682250960894 0 0 0.60000000000138687 0 0.050069554451969707 0.61308520079857043 0 0 0.60000000000138687 0 0 0.65000000000104008 0 0.050069554451969707 0.61308520079857043 0 0.034381862692950467 0.57372682250960894 0 0 0.60000000000138687 0 0 0.65000000000104008 0 0.046634677244967337 0.671418230738282 0 0 0.7000000000006934 0 0.050069554451969707 0.61308520079857043 0 0.046634677244967337 0.671418230738282 0 0.086179601630648681 0.64647209519980475 0 0.050069554451969707 0.61308520079857043 0 0 0.65000000000104008 0 0.046634677244967337 0.671418230738282 0 0 0.7000000000006934 0 0.049706944316475897 0.72477277076253799 0 0 0.75000000000034661 0 0.046634677244967337 0.671418230738282 0 0 0.7000000000006934 0 0.049706944316475897 0.72477277076253799 0 0.049706944316475897 0.72477277076253799 0 0 0.75000000000034661 0 0.04408157711937423 0.7728941757575627 0 0.049706944316475897 0.72477277076253799 0 0.1020579365089687 0.69352219419301997 0 0.090953281884486245 0.7564451946902494 0 0.1020579365089687 0.69352219419301997 0 0.1215415378367805 0.72939333680004137 0 0.090953281884486245 0.7564451946902494 0 0.046634677244967337 0.671418230738282 0 0.049706944316475897 0.72477277076253799 0 0.1020579365089687 0.69352219419301997 0 0.1215415378367805 0.72939333680004137 0 0.090953281884486245 0.7564451946902494 0 0.14335651144331049 0.75565258250209677 0 0.046634677244967337 0.671418230738282 0 0.1020579365089687 0.69352219419301997 0 0.086179601630648681 0.64647209519980475 0 0.1020579365089687 0.69352219419301997 0 0.086179601630648681 0.64647209519980475 0 0.1241190223511371 0.64391885572885044 0 0.1024350934457823 0.60772393977513839 0 0.086179601630648681 0.64647209519980475 0 0.1241190223511371 0.64391885572885044 0 0.1020579365089687 0.69352219419301997 0 0.1241190223511371 0.64391885572885044 0 0.16500388252850301 0.66612077714085194 0 0.1241190223511371 0.64391885572885044 0 0.16500388252850301 0.66612077714085194 0 0.15720202157091859 0.60665697304410315 0 0.16500388252850301 0.66612077714085194 0 0.19914261668318661 0.62286739485272158 0 0.15720202157091859 0.60665697304410315 0 0.1020579365089687 0.69352219419301997 0 0.16500388252850301 0.66612077714085194 0 0.15332765547575641 0.71200081858233666 0 0.1215415378367805 0.72939333680004137 0 0.15332765547575641 0.71200081858233666 0 0.14335651144331049 0.75565258250209677 0 0.1020579365089687 0.69352219419301997 0 0.1215415378367805 0.72939333680004137 0 0.15332765547575641 0.71200081858233666 0 0.16500388252850301 0.66612077714085194 0 0.15332765547575641 0.71200081858233666 0 0.19068556247388771 0.71028988922845504 0 0.15332765547575641 0.71200081858233666 0 0.14335651144331049 0.75565258250209677 0 0.18269480424590959 0.75905448272264375 0 0.15332765547575641 0.71200081858233666 0 0.19068556247388771 0.71028988922845504 0 0.18269480424590959 0.75905448272264375 0 0.19068556247388771 0.71028988922845504 0 0.2248999640082178 0.72584299459689172 0 0.18269480424590959 0.75905448272264375 0 0.19068556247388771 0.71028988922845504 0 0.2248999640082178 0.72584299459689172 0 0.2236846579037573 0.67380363126050236 0 0.2248999640082178 0.72584299459689172 0 0.2236846579037573 0.67380363126050236 0 0.26439878998046262 0.7048065392091396 0 0.2248999640082178 0.72584299459689172 0 0.22556077506376701 0.77837424984191617 0 0.25676291524611189 0.7436741304886243 0 0.2248999640082178 0.72584299459689172 0 0.25676291524611189 0.7436741304886243 0 0.26439878998046262 0.7048065392091396 0 0.16500388252850301 0.66612077714085194 0 0.2236846579037573 0.67380363126050236 0 0.19914261668318661 0.62286739485272158 0 0.16500388252850301 0.66612077714085194 0 0.19068556247388771 0.71028988922845504 0 0.2236846579037573 0.67380363126050236 0 0.2236846579037573 0.67380363126050236 0 0.2459498854893499 0.63248470766216769 0 0.19914261668318661 0.62286739485272158 0 0.2236846579037573 0.67380363126050236 0 0.2459498854893499 0.63248470766216769 0 0.27820712747429932 0.65530134213254643 0 0.2459498854893499 0.63248470766216769 0 0.19914261668318661 0.62286739485272158 0 0.22549374774072969 0.58452645269293457 0 0.2459498854893499 0.63248470766216769 0 0.22549374774072969 0.58452645269293457 0 0.26573297623774761 0.59828298563722948 0 0.19914261668318661 0.62286739485272158 0 0.22549374774072969 0.58452645269293457 0 0.18381867841758909 0.57774125163628387 0 0.22549374774072969 0.58452645269293457 0 0.20050006573841939 0.53248514016039872 0 0.18381867841758909 0.57774125163628387 0 0.22549374774072969 0.58452645269293457 0 0.25115337790845271 0.54719303014923271 0 0.26573297623774761 0.59828298563722948 0 0.22549374774072969 0.58452645269293457 0 0.20050006573841939 0.53248514016039872 0 0.25115337790845271 0.54719303014923271 0 0.23975172658309729 0.49475499200540818 0 0.20050006573841939 0.53248514016039872 0 0.25115337790845271 0.54719303014923271 0 0.19604738184454831 0.47787523520405789 0 0.20050006573841939 0.53248514016039872 0 0.16618607197337229 0.50652878253548905 0 0.23975172658309729 0.49475499200540818 0 0.19604738184454831 0.47787523520405789 0 0.20050006573841939 0.53248514016039872 0 0.20050006573841939 0.53248514016039872 0 0.14934928745814749 0.55042914607228977 0 0.18381867841758909 0.57774125163628387 0 0.20050006573841939 0.53248514016039872 0 0.16618607197337229 0.50652878253548905 0 0.14934928745814749 0.55042914607228977 0 0.1216098864341134 0.50637075089503902 0 0.16618607197337229 0.50652878253548905 0 0.14934928745814749 0.55042914607228977 0 0.1216098864341134 0.50637075089503902 0 0.1154888278694548 0.56733818459978413 0 0.14934928745814749 0.55042914607228977 0 0.1154888278694548 0.56733818459978413 0 0.14934928745814749 0.55042914607228977 0 0.15720202157091859 0.60665697304410315 0 0.1024350934457823 0.60772393977513839 0 0.1154888278694548 0.56733818459978413 0 0.15720202157091859 0.60665697304410315 0 0.1024350934457823 0.60772393977513839 0 0.1241190223511371 0.64391885572885044 0 0.15720202157091859 0.60665697304410315 0 0.19914261668318661 0.62286739485272158 0 0.15720202157091859 0.60665697304410315 0 0.18381867841758909 0.57774125163628387 0 0.14934928745814749 0.55042914607228977 0 0.15720202157091859 0.60665697304410315 0 0.18381867841758909 0.57774125163628387 0 0.10000000000041601 1 0 0.10266856499240549 0.95548163909968886 0 0.15000000000062411 1 0 0.10266856499240549 0.95548163909968886 0 0.053064897599294662 0.95186845269532028 0 0.083411279318375747 0.91030024466934134 0 0.10000000000041601 1 0 0.050000000000207989 1 0 0.053064897599294662 0.95186845269532028 0 0.10000000000041601 1 0 0.10266856499240549 0.95548163909968886 0 0.053064897599294662 0.95186845269532028 0 0.050000000000207989 1 0 0.025766224399875661 0.97546711317377799 0 0.053064897599294662 0.95186845269532028 0 0.050000000000207989 1 0 0 1 0 0.025766224399875661 0.97546711317377799 0 0 1 0 0.025766224399875661 0.97546711317377799 0 0 0.94999999999979179 0 0.025766224399875661 0.97546711317377799 0 0 0.94999999999979179 0 0.053064897599294662 0.95186845269532028 0 0 0.94999999999979179 0 0.053064897599294662 0.95186845269532028 0 0.0443105827531413 0.89858748162559932 0 0.053064897599294662 0.95186845269532028 0 0.0443105827531413 0.89858748162559932 0 0.083411279318375747 0.91030024466934134 0 0 0.94999999999979179 0 0 0.89999999999958358 0 0.0443105827531413 0.89858748162559932 0 0 0.89999999999958358 0 0.0443105827531413 0.89858748162559932 0 0 0.84999999999965292 0 0.0443105827531413 0.89858748162559932 0 0.083411279318375747 0.91030024466934134 0 0.065374659239661639 0.8551091961254178 0 0.083411279318375747 0.91030024466934134 0 0.10562472963403439 0.87143394428979881 0 0.065374659239661639 0.8551091961254178 0 0.10266856499240549 0.95548163909968886 0 0.083411279318375747 0.91030024466934134 0 0.1241151115713819 0.9045666525468371 0 0.10266856499240549 0.95548163909968886 0 0.1241151115713819 0.9045666525468371 0 0.14617343800780541 0.93808063414349496 0 0.1241151115713819 0.9045666525468371 0 0.10562472963403439 0.87143394428979881 0 0.14474682429600511 0.85524784522713515 0 0.083411279318375747 0.91030024466934134 0 0.1241151115713819 0.9045666525468371 0 0.10562472963403439 0.87143394428979881 0 0.10562472963403439 0.87143394428979881 0 0.1074251789111534 0.83564394292147814 0 0.14474682429600511 0.85524784522713515 0 0.1074251789111534 0.83564394292147814 0 0.065374659239661639 0.8551091961254178 0 0.083105206071452636 0.79992298667296435 0 0.10562472963403439 0.87143394428979881 0 0.1074251789111534 0.83564394292147814 0 0.065374659239661639 0.8551091961254178 0 0.065374659239661639 0.8551091961254178 0 0 0.84999999999965292 0 0.038512288486097702 0.8155852717111195 0 0.0443105827531413 0.89858748162559932 0 0.065374659239661639 0.8551091961254178 0 0 0.84999999999965292 0 0 0.84999999999965292 0 0.038512288486097702 0.8155852717111195 0 0 0.79999999999999982 0 0.065374659239661639 0.8551091961254178 0 0.038512288486097702 0.8155852717111195 0 0.083105206071452636 0.79992298667296435 0 0.038512288486097702 0.8155852717111195 0 0.04408157711937423 0.7728941757575627 0 0.083105206071452636 0.79992298667296435 0 0.038512288486097702 0.8155852717111195 0 0 0.79999999999999982 0 0.04408157711937423 0.7728941757575627 0 0 0.79999999999999982 0 0 0.75000000000034661 0 0.04408157711937423 0.7728941757575627 0 0.049706944316475897 0.72477277076253799 0 0.04408157711937423 0.7728941757575627 0 0.090953281884486245 0.7564451946902494 0 0.04408157711937423 0.7728941757575627 0 0.090953281884486245 0.7564451946902494 0 0.083105206071452636 0.79992298667296435 0 0.1074251789111534 0.83564394292147814 0 0.083105206071452636 0.79992298667296435 0 0.1382744753146134 0.79650574229207483 0 0.090953281884486245 0.7564451946902494 0 0.083105206071452636 0.79992298667296435 0 0.1382744753146134 0.79650574229207483 0 0.090953281884486245 0.7564451946902494 0 0.14335651144331049 0.75565258250209677 0 0.1382744753146134 0.79650574229207483 0 0.14335651144331049 0.75565258250209677 0 0.1382744753146134 0.79650574229207483 0 0.18269480424590959 0.75905448272264375 0 0.1382744753146134 0.79650574229207483 0 0.18269480424590959 0.75905448272264375 0 0.17777405986036951 0.81832336108265358 0 0.2248999640082178 0.72584299459689172 0 0.18269480424590959 0.75905448272264375 0 0.22556077506376701 0.77837424984191617 0 0.22556077506376701 0.77837424984191617 0 0.21858834311891909 0.81980263716112767 0 0.26104540868854792 0.81401944968719064 0 0.22556077506376701 0.77837424984191617 0 0.21858834311891909 0.81980263716112767 0 0.17777405986036951 0.81832336108265358 0 0.18269480424590959 0.75905448272264375 0 0.22556077506376701 0.77837424984191617 0 0.17777405986036951 0.81832336108265358 0 0.21858834311891909 0.81980263716112767 0 0.19741632902693801 0.86755867406447229 0 0.17777405986036951 0.81832336108265358 0 0.21858834311891909 0.81980263716112767 0 0.2401283238295133 0.85648409884788523 0 0.26104540868854792 0.81401944968719064 0 0.21858834311891909 0.81980263716112767 0 0.2401283238295133 0.85648409884788523 0 0.19741632902693801 0.86755867406447229 0 0.19741632902693801 0.86755867406447229 0 0.17777405986036951 0.81832336108265358 0 0.14474682429600511 0.85524784522713515 0 0.19741632902693801 0.86755867406447229 0 0.14474682429600511 0.85524784522713515 0 0.16206583317966519 0.89685560785156404 0 0.1382744753146134 0.79650574229207483 0 0.17777405986036951 0.81832336108265358 0 0.14474682429600511 0.85524784522713515 0 0.1074251789111534 0.83564394292147814 0 0.1382744753146134 0.79650574229207483 0 0.14474682429600511 0.85524784522713515 0 0.1241151115713819 0.9045666525468371 0 0.14474682429600511 0.85524784522713515 0 0.16206583317966519 0.89685560785156404 0 0.1241151115713819 0.9045666525468371 0 0.16206583317966519 0.89685560785156404 0 0.14617343800780541 0.93808063414349496 0 0.16206583317966519 0.89685560785156404 0 0.19901705110390991 0.9175543425573498 0 0.14617343800780541 0.93808063414349496 0 0.19741632902693801 0.86755867406447229 0 0.16206583317966519 0.89685560785156404 0 0.19901705110390991 0.9175543425573498 0 0.19741632902693801 0.86755867406447229 0 0.24536017905392571 0.90704567837671446 0 0.19901705110390991 0.9175543425573498 0 0.2401283238295133 0.85648409884788523 0 0.19741632902693801 0.86755867406447229 0 0.24536017905392571 0.90704567837671446 0 0.24536017905392571 0.90704567837671446 0 0.19901705110390991 0.9175543425573498 0 0.22850979588452081 0.95594428570238643 0 0.19901705110390991 0.9175543425573498 0 0.22850979588452081 0.95594428570238643 0 0.18474005699953849 0.96231585248064622 0 0.24536017905392571 0.90704567837671446 0 0.22850979588452081 0.95594428570238643 0 0.27609987656793722 0.94991445621608572 0 0.22850979588452081 0.95594428570238643 0 0.20000000000083221 1 0 0.25000000000104028 1 0 0.22850979588452081 0.95594428570238643 0 0.20000000000083221 1 0 0.18474005699953849 0.96231585248064622 0 0.20000000000083221 1 0 0.18474005699953849 0.96231585248064622 0 0.15000000000062411 1 0 0.19901705110390991 0.9175543425573498 0 0.18474005699953849 0.96231585248064622 0 0.14617343800780541 0.93808063414349496 0 0.18474005699953849 0.96231585248064622 0 0.14617343800780541 0.93808063414349496 0 0.15000000000062411 1 0 0.10266856499240549 0.95548163909968886 0 0.14617343800780541 0.93808063414349496 0 0.15000000000062411 1 0 0.35000000000145642 1 0 0.36184234618600131 0.96443954459096326 0 0.32544832635163229 0.95485394099568932 0 0.35000000000145642 1 0 0.36184234618600131 0.96443954459096326 0 0.40000000000166441 1 0 0.36184234618600131 0.96443954459096326 0 0.32544832635163229 0.95485394099568932 0 0.35752321586431363 0.9185439911803448 0 0.36184234618600131 0.96443954459096326 0 0.35752321586431363 0.9185439911803448 0 0.39641108128798319 0.94356127926187128 0 0.35000000000145642 1 0 0.32544832635163229 0.95485394099568932 0 0.30000000000124832 1 0 0.30000000000124832 1 0 0.25000000000104028 1 0 0.27609987656793722 0.94991445621608572 0 0.22850979588452081 0.95594428570238643 0 0.25000000000104028 1 0 0.27609987656793722 0.94991445621608572 0 0.32544832635163229 0.95485394099568932 0 0.30000000000124832 1 0 0.27609987656793722 0.94991445621608572 0 0.32544832635163229 0.95485394099568932 0 0.27609987656793722 0.94991445621608572 0 0.30864387279288652 0.89906554525974958 0 0.24536017905392571 0.90704567837671446 0 0.27270076654418179 0.87751467830216623 0 0.30864387279288652 0.89906554525974958 0 0.24536017905392571 0.90704567837671446 0 0.27609987656793722 0.94991445621608572 0 0.30864387279288652 0.89906554525974958 0 0.2401283238295133 0.85648409884788523 0 0.24536017905392571 0.90704567837671446 0 0.27270076654418179 0.87751467830216623 0 0.30864387279288652 0.89906554525974958 0 0.35752321586431363 0.9185439911803448 0 0.35864759629805099 0.87963482415279515 0 0.32544832635163229 0.95485394099568932 0 0.30864387279288652 0.89906554525974958 0 0.35752321586431363 0.9185439911803448 0 0.35752321586431363 0.9185439911803448 0 0.35864759629805099 0.87963482415279515 0 0.39767323751400468 0.89584229130535065 0 0.35864759629805099 0.87963482415279515 0 0.33403534827021109 0.84402799729020661 0 0.39536230704883951 0.84069429572832477 0 0.33403534827021109 0.84402799729020661 0 0.35642984951668422 0.80994399665655703 0 0.39536230704883951 0.84069429572832477 0 0.33403534827021109 0.84402799729020661 0 0.30857225866488791 0.81101973481716805 0 0.35642984951668422 0.80994399665655703 0 0.30864387279288652 0.89906554525974958 0 0.35864759629805099 0.87963482415279515 0 0.33403534827021109 0.84402799729020661 0 0.30864387279288652 0.89906554525974958 0 0.33403534827021109 0.84402799729020661 0 0.29209212897034281 0.84715728365233667 0 0.27270076654418179 0.87751467830216623 0 0.30864387279288652 0.89906554525974958 0 0.29209212897034281 0.84715728365233667 0 0.2401283238295133 0.85648409884788523 0 0.27270076654418179 0.87751467830216623 0 0.29209212897034281 0.84715728365233667 0 0.2401283238295133 0.85648409884788523 0 0.29209212897034281 0.84715728365233667 0 0.26104540868854792 0.81401944968719064 0 0.29209212897034281 0.84715728365233667 0 0.26104540868854792 0.81401944968719064 0 0.30857225866488791 0.81101973481716805 0 0.33403534827021109 0.84402799729020661 0 0.29209212897034281 0.84715728365233667 0 0.30857225866488791 0.81101973481716805 0 0.26104540868854792 0.81401944968719064 0 0.30857225866488791 0.81101973481716805 0 0.2792923945214143 0.77665808831789485 0 0.30857225866488791 0.81101973481716805 0 0.2792923945214143 0.77665808831789485 0 0.33123028043633618 0.77629643437932982 0 0.22556077506376701 0.77837424984191617 0 0.26104540868854792 0.81401944968719064 0 0.2792923945214143 0.77665808831789485 0 0.2792923945214143 0.77665808831789485 0 0.25676291524611189 0.7436741304886243 0 0.29904318922293632 0.74132814928635593 0 0.22556077506376701 0.77837424984191617 0 0.2792923945214143 0.77665808831789485 0 0.25676291524611189 0.7436741304886243 0 0.2792923945214143 0.77665808831789485 0 0.33123028043633618 0.77629643437932982 0 0.29904318922293632 0.74132814928635593 0 0.33123028043633618 0.77629643437932982 0 0.29904318922293632 0.74132814928635593 0 0.35415581127540569 0.73730480045900215 0 0.30857225866488791 0.81101973481716805 0 0.33123028043633618 0.77629643437932982 0 0.35642984951668422 0.80994399665655703 0 0.33123028043633618 0.77629643437932982 0 0.35642984951668422 0.80994399665655703 0 0.38586766253264881 0.78219501014812498 0 0.33123028043633618 0.77629643437932982 0 0.38586766253264881 0.78219501014812498 0 0.35415581127540569 0.73730480045900215 0 0.38586766253264881 0.78219501014812498 0 0.42676259796334498 0.76772545931379299 0 0.40326160981139969 0.73346192995102844 0 0.38586766253264881 0.78219501014812498 0 0.35415581127540569 0.73730480045900215 0 0.40326160981139969 0.73346192995102844 0 0.38586766253264881 0.78219501014812498 0 0.42609163930740518 0.80361684430568059 0 0.39536230704883951 0.84069429572832477 0 0.35642984951668422 0.80994399665655703 0 0.38586766253264881 0.78219501014812498 0 0.39536230704883951 0.84069429572832477 0 0.38586766253264881 0.78219501014812498 0 0.42609163930740518 0.80361684430568059 0 0.42676259796334498 0.76772545931379299 0 0.42676259796334498 0.76772545931379299 0 0.4656888918609538 0.78493261229743638 0 0.45582236402875981 0.73896743678908217 0 0.4656888918609538 0.78493261229743638 0 0.45582236402875981 0.73896743678908217 0 0.50945740445113552 0.75476055527778108 0 0.4656888918609538 0.78493261229743638 0 0.50731287292894423 0.78963574450233831 0 0.50945740445113552 0.75476055527778108 0 0.4656888918609538 0.78493261229743638 0 0.50627822638148745 0.8263979829520941 0 0.50731287292894423 0.78963574450233831 0 0.42609163930740518 0.80361684430568059 0 0.4656888918609538 0.78493261229743638 0 0.45677673713123867 0.84253684404072415 0 0.42609163930740518 0.80361684430568059 0 0.42676259796334498 0.76772545931379299 0 0.4656888918609538 0.78493261229743638 0 0.4656888918609538 0.78493261229743638 0 0.45677673713123867 0.84253684404072415 0 0.50627822638148745 0.8263979829520941 0 0.45677673713123867 0.84253684404072415 0 0.50202631463681879 0.87892870825713787 0 0.50627822638148745 0.8263979829520941 0 0.45677673713123867 0.84253684404072415 0 0.44003836461056539 0.88093474584252718 0 0.50202631463681879 0.87892870825713787 0 0.45677673713123867 0.84253684404072415 0 0.39536230704883951 0.84069429572832477 0 0.44003836461056539 0.88093474584252718 0 0.39536230704883951 0.84069429572832477 0 0.39767323751400468 0.89584229130535065 0 0.44003836461056539 0.88093474584252718 0 0.42609163930740518 0.80361684430568059 0 0.45677673713123867 0.84253684404072415 0 0.39536230704883951 0.84069429572832477 0 0.35864759629805099 0.87963482415279515 0 0.39536230704883951 0.84069429572832477 0 0.39767323751400468 0.89584229130535065 0 0.35752321586431363 0.9185439911803448 0 0.39767323751400468 0.89584229130535065 0 0.39641108128798319 0.94356127926187128 0 0.39767323751400468 0.89584229130535065 0 0.4367309254023824 0.92065556789053882 0 0.39641108128798319 0.94356127926187128 0 0.39767323751400468 0.89584229130535065 0 0.4367309254023824 0.92065556789053882 0 0.44003836461056539 0.88093474584252718 0 0.4367309254023824 0.92065556789053882 0 0.44003836461056539 0.88093474584252718 0 0.47401147028110507 0.91529957330468115 0 0.44003836461056539 0.88093474584252718 0 0.47401147028110507 0.91529957330468115 0 0.50202631463681879 0.87892870825713787 0 0.47401147028110507 0.91529957330468115 0 0.47135117303824892 0.95556877749289892 0 0.52122150208832174 0.94089974453840242 0 0.47401147028110507 0.91529957330468115 0 0.52122150208832174 0.94089974453840242 0 0.50202631463681879 0.87892870825713787 0 0.4367309254023824 0.92065556789053882 0 0.47401147028110507 0.91529957330468115 0 0.47135117303824892 0.95556877749289892 0 0.4367309254023824 0.92065556789053882 0 0.47135117303824892 0.95556877749289892 0 0.4308986359464303 0.96395712492906194 0 0.47135117303824892 0.95556877749289892 0 0.50000000000205869 1 0 0.52122150208832174 0.94089974453840242 0 0.47135117303824892 0.95556877749289892 0 0.45000000000187229 1 0 0.50000000000205869 1 0 0.47135117303824892 0.95556877749289892 0 0.45000000000187229 1 0 0.4308986359464303 0.96395712492906194 0 0.45000000000187229 1 0 0.4308986359464303 0.96395712492906194 0 0.40000000000166441 1 0 0.4308986359464303 0.96395712492906194 0 0.39641108128798319 0.94356127926187128 0 0.40000000000166441 1 0 0.4367309254023824 0.92065556789053882 0 0.4308986359464303 0.96395712492906194 0 0.39641108128798319 0.94356127926187128 0 0.36184234618600131 0.96443954459096326 0 0.39641108128798319 0.94356127926187128 0 0.40000000000166441 1 0 0.33122374654748771 0.57588941099433744 0 0.31502927232353312 0.6134992213375432 0 0.35765792684946668 0.6000687869219653 0 0.31502927232353312 0.6134992213375432 0 0.35765792684946668 0.6000687869219653 0 0.35864735590330371 0.63903383440414463 0 0.35765792684946668 0.6000687869219653 0 0.35864735590330371 0.63903383440414463 0 0.39743091024207589 0.6239520004230239 0 0.33122374654748771 0.57588941099433744 0 0.35765792684946668 0.6000687869219653 0 0.37272913873093971 0.56192925302619479 0 0.37272913873093971 0.56192925302619479 0 0.33190227185843768 0.52715113583864037 0 0.38244435121258652 0.51653317813019495 0 0.33122374654748771 0.57588941099433744 0 0.37272913873093971 0.56192925302619479 0 0.33190227185843768 0.52715113583864037 0 0.35024835142131061 0.48654922671676981 0 0.33190227185843768 0.52715113583864037 0 0.38244435121258652 0.51653317813019495 0 0.33122374654748771 0.57588941099433744 0 0.33190227185843768 0.52715113583864037 0 0.29110487519241501 0.56588143995431495 0 0.33190227185843768 0.52715113583864037 0 0.28307294598219601 0.50789252727458634 0 0.29110487519241501 0.56588143995431495 0 0.31068898841644388 0.47541502461811092 0 0.33190227185843768 0.52715113583864037 0 0.28307294598219601 0.50789252727458634 0 0.23975172658309729 0.49475499200540818 0 0.28307294598219601 0.50789252727458634 0 0.25115337790845271 0.54719303014923271 0 0.28307294598219601 0.50789252727458634 0 0.25115337790845271 0.54719303014923271 0 0.29110487519241501 0.56588143995431495 0 0.25115337790845271 0.54719303014923271 0 0.29110487519241501 0.56588143995431495 0 0.26573297623774761 0.59828298563722948 0 0.33122374654748771 0.57588941099433744 0 0.31502927232353312 0.6134992213375432 0 0.29110487519241501 0.56588143995431495 0 0.31502927232353312 0.6134992213375432 0 0.29110487519241501 0.56588143995431495 0 0.26573297623774761 0.59828298563722948 0 0.31502927232353312 0.6134992213375432 0 0.26573297623774761 0.59828298563722948 0 0.27820712747429932 0.65530134213254643 0 0.2459498854893499 0.63248470766216769 0 0.26573297623774761 0.59828298563722948 0 0.27820712747429932 0.65530134213254643 0 0.2236846579037573 0.67380363126050236 0 0.27820712747429932 0.65530134213254643 0 0.26439878998046262 0.7048065392091396 0 0.27820712747429932 0.65530134213254643 0 0.31378396441836959 0.70157213313026345 0 0.32263089806001177 0.66003674931826484 0 0.27820712747429932 0.65530134213254643 0 0.26439878998046262 0.7048065392091396 0 0.31378396441836959 0.70157213313026345 0 0.31502927232353312 0.6134992213375432 0 0.27820712747429932 0.65530134213254643 0 0.32263089806001177 0.66003674931826484 0 0.25676291524611189 0.7436741304886243 0 0.26439878998046262 0.7048065392091396 0 0.29904318922293632 0.74132814928635593 0 0.26439878998046262 0.7048065392091396 0 0.29904318922293632 0.74132814928635593 0 0.31378396441836959 0.70157213313026345 0 0.29904318922293632 0.74132814928635593 0 0.31378396441836959 0.70157213313026345 0 0.35415581127540569 0.73730480045900215 0 0.31378396441836959 0.70157213313026345 0 0.36622285152418499 0.69092437780804039 0 0.35415581127540569 0.73730480045900215 0 0.36622285152418499 0.69092437780804039 0 0.35415581127540569 0.73730480045900215 0 0.40326160981139969 0.73346192995102844 0 0.31502927232353312 0.6134992213375432 0 0.32263089806001177 0.66003674931826484 0 0.35864735590330371 0.63903383440414463 0 0.31378396441836959 0.70157213313026345 0 0.36622285152418499 0.69092437780804039 0 0.32263089806001177 0.66003674931826484 0 0.36622285152418499 0.69092437780804039 0 0.32263089806001177 0.66003674931826484 0 0.35864735590330371 0.63903383440414463 0 0.36622285152418499 0.69092437780804039 0 0.35864735590330371 0.63903383440414463 0 0.3977710372045391 0.65868194622830212 0 0.35864735590330371 0.63903383440414463 0 0.3977710372045391 0.65868194622830212 0 0.39743091024207589 0.6239520004230239 0 0.36622285152418499 0.69092437780804039 0 0.3977710372045391 0.65868194622830212 0 0.43323420005758778 0.6913544522562407 0 0.3977710372045391 0.65868194622830212 0 0.43323420005758778 0.6913544522562407 0 0.43846182030517877 0.64845797726506715 0 0.43846182030517877 0.64845797726506715 0 0.43545892161006339 0.61093128915313821 0 0.39743091024207589 0.6239520004230239 0 0.3977710372045391 0.65868194622830212 0 0.43846182030517877 0.64845797726506715 0 0.39743091024207589 0.6239520004230239 0 0.36622285152418499 0.69092437780804039 0 0.40326160981139969 0.73346192995102844 0 0.43323420005758778 0.6913544522562407 0 0.40326160981139969 0.73346192995102844 0 0.43323420005758778 0.6913544522562407 0 0.45582236402875981 0.73896743678908217 0 0.42676259796334498 0.76772545931379299 0 0.40326160981139969 0.73346192995102844 0 0.45582236402875981 0.73896743678908217 0 0.43323420005758778 0.6913544522562407 0 0.45582236402875981 0.73896743678908217 0 0.5 0.69999999999999996 0 0.45582236402875981 0.73896743678908217 0 0.5 0.69999999999999996 0 0.50945740445113552 0.75476055527778108 0 0.43323420005758778 0.6913544522562407 0 0.47913475093885149 0.66010775372412711 0 0.5 0.69999999999999996 0 0.43846182030517877 0.64845797726506715 0 0.47913475093885149 0.66010775372412711 0 0.47095389620662098 0.61892551373708504 0 0.43846182030517877 0.64845797726506715 0 0.47095389620662098 0.61892551373708504 0 0.43545892161006339 0.61093128915313821 0 0.43323420005758778 0.6913544522562407 0 0.43846182030517877 0.64845797726506715 0 0.47913475093885149 0.66010775372412711 0 0.47913475093885149 0.66010775372412711 0 0.47095389620662098 0.61892551373708504 0 0.50715858906372158 0.63295939104129484 0 0.47095389620662098 0.61892551373708504 0 0.5166924242153631 0.59825134841919447 0 0.50715858906372158 0.63295939104129484 0 0.47095389620662098 0.61892551373708504 0 0.46666084890304671 0.57634471035397938 0 0.5166924242153631 0.59825134841919447 0 0.47095389620662098 0.61892551373708504 0 0.46666084890304671 0.57634471035397938 0 0.43545892161006339 0.61093128915313821 0 0.43545892161006339 0.61093128915313821 0 0.4089290844030305 0.58728915500154233 0 0.39743091024207589 0.6239520004230239 0 0.46666084890304671 0.57634471035397938 0 0.43545892161006339 0.61093128915313821 0 0.4089290844030305 0.58728915500154233 0 0.46666084890304671 0.57634471035397938 0 0.4089290844030305 0.58728915500154233 0 0.42644501560315817 0.54603747078095544 0 0.37272913873093971 0.56192925302619479 0 0.4089290844030305 0.58728915500154233 0 0.42644501560315817 0.54603747078095544 0 0.35765792684946668 0.6000687869219653 0 0.37272913873093971 0.56192925302619479 0 0.4089290844030305 0.58728915500154233 0 0.35765792684946668 0.6000687869219653 0 0.4089290844030305 0.58728915500154233 0 0.39743091024207589 0.6239520004230239 0 0.37272913873093971 0.56192925302619479 0 0.38244435121258652 0.51653317813019495 0 0.42644501560315817 0.54603747078095544 0 0.43507373378304309 0.49699695397193322 0 0.38244435121258652 0.51653317813019495 0 0.42644501560315817 0.54603747078095544 0 0.46666084890304671 0.57634471035397938 0 0.47793794143994173 0.52940715638744962 0 0.53245488764484505 0.55078124999999989 0 0.43507373378304309 0.49699695397193322 0 0.49102375406324739 0.49123754822244059 0 0.47793794143994173 0.52940715638744962 0 0.43507373378304309 0.49699695397193322 0 0.42644501560315817 0.54603747078095544 0 0.47793794143994173 0.52940715638744962 0 0.46666084890304671 0.57634471035397938 0 0.42644501560315817 0.54603747078095544 0 0.47793794143994173 0.52940715638744962 0 0.49102375406324739 0.49123754822244059 0 0.47793794143994173 0.52940715638744962 0 0.53330375813596242 0.50827942741749099 0 0.47793794143994173 0.52940715638744962 0 0.53245488764484505 0.55078124999999989 0 0.53330375813596242 0.50827942741749099 0 0.53245488764484505 0.55078124999999989 0 0.53330375813596242 0.50827942741749099 0 0.57435499076887508 0.54267261987897775 0 0.53245488764484505 0.55078124999999989 0 0.57435499076887508 0.54267261987897775 0 0.57412547362576272 0.58273804879550706 0 0.53330375813596242 0.50827942741749099 0 0.57611405284611883 0.50165903596042916 0 0.57435499076887508 0.54267261987897775 0 0.57611405284611883 0.50165903596042916 0 0.57435499076887508 0.54267261987897775 0 0.62042975506801734 0.54295974692364424 0 0.57435499076887508 0.54267261987897775 0 0.62042975506801734 0.54295974692364424 0 0.57412547362576272 0.58273804879550706 0 0.57611405284611883 0.50165903596042916 0 0.62042975506801734 0.54295974692364424 0 0.61547661924074692 0.48539576058873962 0 0.5991018319127801 0.62925360607495295 0 0.6405463747586706 0.63290524857395714 0 0.63065402604362242 0.59661356661633302 0 0.57412547362576272 0.58273804879550706 0 0.5991018319127801 0.62925360607495295 0 0.63065402604362242 0.59661356661633302 0 0.62042975506801734 0.54295974692364424 0 0.57412547362576272 0.58273804879550706 0 0.63065402604362242 0.59661356661633302 0 0.57412547362576272 0.58273804879550706 0 0.5498280205245758 0.6290146943450976 0 0.5991018319127801 0.62925360607495295 0 0.46666084890304671 0.57634471035397938 0 0.53245488764484505 0.55078124999999989 0 0.5166924242153631 0.59825134841919447 0 0.57412547362576272 0.58273804879550706 0 0.5166924242153631 0.59825134841919447 0 0.5498280205245758 0.6290146943450976 0 0.53245488764484505 0.55078124999999989 0 0.57412547362576272 0.58273804879550706 0 0.5166924242153631 0.59825134841919447 0 0.5166924242153631 0.59825134841919447 0 0.50715858906372158 0.63295939104129484 0 0.5498280205245758 0.6290146943450976 0 0.47913475093885149 0.66010775372412711 0 0.50715858906372158 0.63295939104129484 0 0.52584555706968406 0.66664215091846768 0 0.50715858906372158 0.63295939104129484 0 0.52584555706968406 0.66664215091846768 0 0.5498280205245758 0.6290146943450976 0 0.47913475093885149 0.66010775372412711 0 0.52584555706968406 0.66664215091846768 0 0.5 0.69999999999999996 0 0.52584555706968406 0.66664215091846768 0 0.54999999999999993 0.69999999999999996 0 0.57484956128872922 0.66573805030881994 0 0.52584555706968406 0.66664215091846768 0 0.5498280205245758 0.6290146943450976 0 0.57484956128872922 0.66573805030881994 0 0.5 0.69999999999999996 0 0.55363780716230748 0.74348740161571747 0 0.50945740445113552 0.75476055527778108 0 0.52584555706968406 0.66664215091846768 0 0.5 0.69999999999999996 0 0.54999999999999993 0.69999999999999996 0 0.5 0.69999999999999996 0 0.54999999999999993 0.69999999999999996 0 0.5 0.69999999999999996 0 0.54999999999999993 0.69999999999999996 0 0.55363780716230748 0.74348740161571747 0 0.55363780716230748 0.74348740161571747 0 0.59999999999999976 0.69999999999999996 0 0.59636844454254345 0.75937156204589151 0 0.54999999999999993 0.69999999999999996 0 0.59999999999999976 0.69999999999999996 0 0.54999999999999993 0.69999999999999996 0 0.59999999999999976 0.69999999999999996 0 0.57484956128872922 0.66573805030881994 0 0.54999999999999993 0.69999999999999996 0 0.55363780716230748 0.74348740161571747 0 0.59999999999999976 0.69999999999999996 0 0.59999999999999976 0.69999999999999996 0 0.6499999999999998 0.69999999999999996 0 0.59999999999999976 0.69999999999999996 0 0.62460753523532009 0.66851202781000296 0 0.6499999999999998 0.69999999999999996 0 0.59999999999999976 0.69999999999999996 0 0.63221990677827677 0.73442891067859706 0 0.59636844454254345 0.75937156204589151 0 0.5498280205245758 0.6290146943450976 0 0.57484956128872922 0.66573805030881994 0 0.5991018319127801 0.62925360607495295 0 0.59999999999999976 0.69999999999999996 0 0.57484956128872922 0.66573805030881994 0 0.62460753523532009 0.66851202781000296 0 0.57484956128872922 0.66573805030881994 0 0.62460753523532009 0.66851202781000296 0 0.5991018319127801 0.62925360607495295 0 0.62460753523532009 0.66851202781000296 0 0.5991018319127801 0.62925360607495295 0 0.6405463747586706 0.63290524857395714 0 0.62460753523532009 0.66851202781000296 0 0.6405463747586706 0.63290524857395714 0 0.675261390228442 0.65996937624687813 0 0.62460753523532009 0.66851202781000296 0 0.675261390228442 0.65996937624687813 0 0.6499999999999998 0.69999999999999996 0 0.675261390228442 0.65996937624687813 0 0.6499999999999998 0.69999999999999996 0 0.69999999999999984 0.69999999999999996 0 0.6405463747586706 0.63290524857395714 0 0.675261390228442 0.65996937624687813 0 0.67529834988829951 0.61613270668143583 0 0.63221990677827677 0.73442891067859706 0 0.66427993341343905 0.73232764502436276 0 0.64753070846764316 0.77332939069435502 0 0.63221990677827677 0.73442891067859706 0 0.6499999999999998 0.69999999999999996 0 0.66427993341343905 0.73232764502436276 0 0.59999999999999976 0.69999999999999996 0 0.63221990677827677 0.73442891067859706 0 0.6499999999999998 0.69999999999999996 0 0.6499999999999998 0.69999999999999996 0 0.69999999999999984 0.69999999999999996 0 0.6499999999999998 0.69999999999999996 0 0.66427993341343905 0.73232764502436276 0 0.69999999999999984 0.69999999999999996 0 0.66427993341343905 0.73232764502436276 0 0.69999999999999984 0.69999999999999996 0 0.6916490518212759 0.75387992374886192 0 0.69999999999999984 0.69999999999999996 0 0.72501250972655151 0.74067302935308721 0 0.6916490518212759 0.75387992374886192 0 0.69999999999999984 0.69999999999999996 0 0.74999999999999989 0.69999999999999996 0 0.72501250972655151 0.74067302935308721 0 0.69999999999999984 0.69999999999999996 0 0.74999999999999989 0.69999999999999996 0 0.72500000000000064 0.67022701834392062 0 0.69999999999999984 0.69999999999999996 0 0.74999999999999989 0.69999999999999996 0 0.74999999999999989 0.69999999999999996 0 0.72501250972655151 0.74067302935308721 0 0.75841349681148107 0.75422312624214749 0 0.675261390228442 0.65996937624687813 0 0.71406021706547751 0.63292083137662503 0 0.72500000000000064 0.67022701834392062 0 0.675261390228442 0.65996937624687813 0 0.71406021706547751 0.63292083137662503 0 0.67529834988829951 0.61613270668143583 0 0.675261390228442 0.65996937624687813 0 0.69999999999999984 0.69999999999999996 0 0.72500000000000064 0.67022701834392062 0 0.71406021706547751 0.63292083137662503 0 0.72500000000000064 0.67022701834392062 0 0.74994237037456724 0.62775548192980357 0 0.72500000000000064 0.67022701834392062 0 0.74994237037456724 0.62775548192980357 0 0.7750489929959945 0.66593931409600093 0 0.71406021706547751 0.63292083137662503 0 0.74994237037456724 0.62775548192980357 0 0.71809016091162536 0.58185040402320831 0 0.74994237037456724 0.62775548192980357 0 0.71809016091162536 0.58185040402320831 0 0.77293540622714185 0.59448302402785813 0 0.71406021706547751 0.63292083137662503 0 0.71809016091162536 0.58185040402320831 0 0.67529834988829951 0.61613270668143583 0 0.71809016091162536 0.58185040402320831 0 0.67569444444444449 0.53500863336860327 0 0.67323294229744413 0.57556450033612505 0 0.71809016091162536 0.58185040402320831 0 0.67529834988829951 0.61613270668143583 0 0.67323294229744413 0.57556450033612505 0 0.71809016091162536 0.58185040402320831 0 0.7152569930854884 0.5237994455134295 0 0.77151014687832564 0.54436834383023036 0 0.7152569930854884 0.5237994455134295 0 0.77151014687832564 0.54436834383023036 0 0.73947346780852752 0.49062440112282169 0 0.7152569930854884 0.5237994455134295 0 0.67569444444444449 0.53500863336860327 0 0.69385896817107129 0.48377516041410151 0 0.71809016091162536 0.58185040402320831 0 0.7152569930854884 0.5237994455134295 0 0.67569444444444449 0.53500863336860327 0 0.62042975506801734 0.54295974692364424 0 0.67569444444444449 0.53500863336860327 0 0.67323294229744413 0.57556450033612505 0 0.67569444444444449 0.53500863336860327 0 0.6541250972820879 0.49999999999999989 0 0.69385896817107129 0.48377516041410151 0 0.62042975506801734 0.54295974692364424 0 0.67569444444444449 0.53500863336860327 0 0.6541250972820879 0.49999999999999989 0 0.62042975506801734 0.54295974692364424 0 0.61547661924074692 0.48539576058873962 0 0.6541250972820879 0.49999999999999989 0 0.62042975506801734 0.54295974692364424 0 0.63065402604362242 0.59661356661633302 0 0.67323294229744413 0.57556450033612505 0 0.6405463747586706 0.63290524857395714 0 0.63065402604362242 0.59661356661633302 0 0.67529834988829951 0.61613270668143583 0 0.63065402604362242 0.59661356661633302 0 0.67529834988829951 0.61613270668143583 0 0.67323294229744413 0.57556450033612505 0 0.60000000000138687 1 0 0.62065498684670595 0.95224934003983619 0 0.57382506491224949 0.9629411906298494 0 0.60000000000138687 1 0 0.62065498684670595 0.95224934003983619 0 0.65000000000104008 1 0 0.62065498684670595 0.95224934003983619 0 0.57382506491224949 0.9629411906298494 0 0.57724883562309992 0.92155686857100794 0 0.60000000000138687 1 0 0.57382506491224949 0.9629411906298494 0 0.55000000000173355 1 0 0.55000000000173355 1 0 0.50000000000205869 1 0 0.52122150208832174 0.94089974453840242 0 0.57382506491224949 0.9629411906298494 0 0.52122150208832174 0.94089974453840242 0 0.57724883562309992 0.92155686857100794 0 0.57382506491224949 0.9629411906298494 0 0.55000000000173355 1 0 0.52122150208832174 0.94089974453840242 0 0.52122150208832174 0.94089974453840242 0 0.54783390826260769 0.89287767010860219 0 0.57724883562309992 0.92155686857100794 0 0.52122150208832174 0.94089974453840242 0 0.50202631463681879 0.87892870825713787 0 0.54783390826260769 0.89287767010860219 0 0.54783390826260769 0.89287767010860219 0 0.5832743223239254 0.88483152652961872 0 0.55899371797446828 0.85003102233514438 0 0.54783390826260769 0.89287767010860219 0 0.5832743223239254 0.88483152652961872 0 0.57724883562309992 0.92155686857100794 0 0.5832743223239254 0.88483152652961872 0 0.57724883562309992 0.92155686857100794 0 0.61885627562261258 0.90282959257498208 0 0.62065498684670595 0.95224934003983619 0 0.57724883562309992 0.92155686857100794 0 0.61885627562261258 0.90282959257498208 0 0.5832743223239254 0.88483152652961872 0 0.61885627562261258 0.90282959257498208 0 0.61343887413683884 0.856862479058357 0 0.61343887413683884 0.856862479058357 0 0.60294066490120068 0.80851322453934582 0 0.65005442820240822 0.82644988530054031 0 0.61343887413683884 0.856862479058357 0 0.55899371797446828 0.85003102233514438 0 0.60294066490120068 0.80851322453934582 0 0.55899371797446828 0.85003102233514438 0 0.54782696902220018 0.79245182748204157 0 0.60294066490120068 0.80851322453934582 0 0.5832743223239254 0.88483152652961872 0 0.61343887413683884 0.856862479058357 0 0.55899371797446828 0.85003102233514438 0 0.50202631463681879 0.87892870825713787 0 0.54783390826260769 0.89287767010860219 0 0.55899371797446828 0.85003102233514438 0 0.50202631463681879 0.87892870825713787 0 0.55899371797446828 0.85003102233514438 0 0.50627822638148745 0.8263979829520941 0 0.55899371797446828 0.85003102233514438 0 0.50627822638148745 0.8263979829520941 0 0.54782696902220018 0.79245182748204157 0 0.50627822638148745 0.8263979829520941 0 0.54782696902220018 0.79245182748204157 0 0.50731287292894423 0.78963574450233831 0 0.54782696902220018 0.79245182748204157 0 0.50731287292894423 0.78963574450233831 0 0.50945740445113552 0.75476055527778108 0 0.55363780716230748 0.74348740161571747 0 0.54782696902220018 0.79245182748204157 0 0.50945740445113552 0.75476055527778108 0 0.55363780716230748 0.74348740161571747 0 0.54782696902220018 0.79245182748204157 0 0.59636844454254345 0.75937156204589151 0 0.54782696902220018 0.79245182748204157 0 0.60294066490120068 0.80851322453934582 0 0.59636844454254345 0.75937156204589151 0 0.60294066490120068 0.80851322453934582 0 0.59636844454254345 0.75937156204589151 0 0.64753070846764316 0.77332939069435502 0 0.63221990677827677 0.73442891067859706 0 0.59636844454254345 0.75937156204589151 0 0.64753070846764316 0.77332939069435502 0 0.60294066490120068 0.80851322453934582 0 0.64753070846764316 0.77332939069435502 0 0.65005442820240822 0.82644988530054031 0 0.64753070846764316 0.77332939069435502 0 0.68024162096458085 0.79868546898116533 0 0.65005442820240822 0.82644988530054031 0 0.64753070846764316 0.77332939069435502 0 0.68024162096458085 0.79868546898116533 0 0.6916490518212759 0.75387992374886192 0 0.66427993341343905 0.73232764502436276 0 0.64753070846764316 0.77332939069435502 0 0.6916490518212759 0.75387992374886192 0 0.72501250972655151 0.74067302935308721 0 0.6916490518212759 0.75387992374886192 0 0.72500000000000064 0.7952620967744265 0 0.72501250972655151 0.74067302935308721 0 0.72500000000000064 0.7952620967744265 0 0.75841349681148107 0.75422312624214749 0 0.68024162096458085 0.79868546898116533 0 0.6916490518212759 0.75387992374886192 0 0.72500000000000064 0.7952620967744265 0 0.68024162096458085 0.79868546898116533 0 0.72500000000000064 0.7952620967744265 0 0.68697391633157634 0.84450604838764298 0 0.72500000000000064 0.7952620967744265 0 0.72863726579783861 0.85390518901155588 0 0.68697391633157634 0.84450604838764298 0 0.72500000000000064 0.7952620967744265 0 0.72863726579783861 0.85390518901155588 0 0.76901770135486491 0.84293557325473656 0 0.72863726579783861 0.85390518901155588 0 0.68697391633157634 0.84450604838764298 0 0.7250000000005199 0.89375000000045834 0 0.68697391633157634 0.84450604838764298 0 0.66412543161245952 0.88015090885499059 0 0.7250000000005199 0.89375000000045834 0 0.68697391633157634 0.84450604838764298 0 0.65005442820240822 0.82644988530054031 0 0.66412543161245952 0.88015090885499059 0 0.68024162096458085 0.79868546898116533 0 0.68697391633157634 0.84450604838764298 0 0.65005442820240822 0.82644988530054031 0 0.61343887413683884 0.856862479058357 0 0.65005442820240822 0.82644988530054031 0 0.66412543161245952 0.88015090885499059 0 0.61885627562261258 0.90282959257498208 0 0.61343887413683884 0.856862479058357 0 0.66412543161245952 0.88015090885499059 0 0.61885627562261258 0.90282959257498208 0 0.65507451745379841 0.92229208810758578 0 0.66412543161245952 0.88015090885499059 0 0.62065498684670595 0.95224934003983619 0 0.61885627562261258 0.90282959257498208 0 0.65507451745379841 0.92229208810758578 0 0.65507451745379841 0.92229208810758578 0 0.68987011941058407 0.92105047536677087 0 0.68015064798562208 0.95924320340003011 0 0.65507451745379841 0.92229208810758578 0 0.66412543161245952 0.88015090885499059 0 0.68987011941058407 0.92105047536677087 0 0.66412543161245952 0.88015090885499059 0 0.7250000000005199 0.89375000000045834 0 0.68987011941058407 0.92105047536677087 0 0.72863726579783861 0.85390518901155588 0 0.7250000000005199 0.89375000000045834 0 0.76891166905518427 0.88835469571185499 0 0.7250000000005199 0.89375000000045834 0 0.7250000000005199 0.94981617647078953 0 0.75729602384198635 0.92353652857884294 0 0.7250000000005199 0.89375000000045834 0 0.68987011941058407 0.92105047536677087 0 0.7250000000005199 0.94981617647078953 0 0.68987011941058407 0.92105047536677087 0 0.7250000000005199 0.94981617647078953 0 0.68015064798562208 0.95924320340003011 0 0.7250000000005199 0.94981617647078953 0 0.7000000000006934 1 0 0.75000000000034661 1 0 0.7250000000005199 0.94981617647078953 0 0.75000000000034661 1 0 0.770759834363826 0.95919399014344442 0 0.7250000000005199 0.94981617647078953 0 0.7000000000006934 1 0 0.68015064798562208 0.95924320340003011 0 0.7000000000006934 1 0 0.68015064798562208 0.95924320340003011 0 0.65000000000104008 1 0 0.62065498684670595 0.95224934003983619 0 0.65507451745379841 0.92229208810758578 0 0.68015064798562208 0.95924320340003011 0 0.62065498684670595 0.95224934003983619 0 0.68015064798562208 0.95924320340003011 0 0.65000000000104008 1 0 0.84999999999965292 1 0 0.85170973911348691 0.93569607295217616 0 0.89898474358632463 0.95391965591118966 0 0.84999999999965292 1 0 0.81486180804382891 0.96321394949790495 0 0.85170973911348691 0.93569607295217616 0 0.81486180804382891 0.96321394949790495 0 0.79680861578988083 0.92656778056766709 0 0.85170973911348691 0.93569607295217616 0 0.84999999999965292 1 0 0.81486180804382891 0.96321394949790495 0 0.79999999999999982 1 0 0.81486180804382891 0.96321394949790495 0 0.79999999999999982 1 0 0.770759834363826 0.95919399014344442 0 0.79999999999999982 1 0 0.75000000000034661 1 0 0.770759834363826 0.95919399014344442 0 0.7250000000005199 0.94981617647078953 0 0.770759834363826 0.95919399014344442 0 0.75729602384198635 0.92353652857884294 0 0.81486180804382891 0.96321394949790495 0 0.770759834363826 0.95919399014344442 0 0.79680861578988083 0.92656778056766709 0 0.79680861578988083 0.92656778056766709 0 0.75729602384198635 0.92353652857884294 0 0.76891166905518427 0.88835469571185499 0 0.770759834363826 0.95919399014344442 0 0.79680861578988083 0.92656778056766709 0 0.75729602384198635 0.92353652857884294 0 0.7250000000005199 0.89375000000045834 0 0.75729602384198635 0.92353652857884294 0 0.76891166905518427 0.88835469571185499 0 0.79680861578988083 0.92656778056766709 0 0.76891166905518427 0.88835469571185499 0 0.81159157511211755 0.88795995483179491 0 0.81159157511211755 0.88795995483179491 0 0.85170973911348691 0.93569607295217616 0 0.85600844944837662 0.88483418979512773 0 0.79680861578988083 0.92656778056766709 0 0.81159157511211755 0.88795995483179491 0 0.85170973911348691 0.93569607295217616 0 0.85170973911348691 0.93569607295217616 0 0.85600844944837662 0.88483418979512773 0 0.90416666666660628 0.9041666666666166 0 0.85600844944837662 0.88483418979512773 0 0.82709327591091286 0.84937141670920724 0 0.88088768115933802 0.84674609810493673 0 0.82709327591091286 0.84937141670920724 0 0.84725310900444062 0.80779732082917555 0 0.88088768115933802 0.84674609810493673 0 0.82709327591091286 0.84937141670920724 0 0.80041942726660109 0.81543261647703358 0 0.84725310900444062 0.80779732082917555 0 0.81159157511211755 0.88795995483179491 0 0.85600844944837662 0.88483418979512773 0 0.82709327591091286 0.84937141670920724 0 0.76891166905518427 0.88835469571185499 0 0.81159157511211755 0.88795995483179491 0 0.76901770135486491 0.84293557325473656 0 0.81159157511211755 0.88795995483179491 0 0.82709327591091286 0.84937141670920724 0 0.76901770135486491 0.84293557325473656 0 0.72863726579783861 0.85390518901155588 0 0.76891166905518427 0.88835469571185499 0 0.76901770135486491 0.84293557325473656 0 0.76901770135486491 0.84293557325473656 0 0.80041942726660109 0.81543261647703358 0 0.77094201086366854 0.79647480515688507 0 0.82709327591091286 0.84937141670920724 0 0.76901770135486491 0.84293557325473656 0 0.80041942726660109 0.81543261647703358 0 0.80041942726660109 0.81543261647703358 0 0.77094201086366854 0.79647480515688507 0 0.80185942888539485 0.77452061303608133 0 0.72500000000000064 0.7952620967744265 0 0.77094201086366854 0.79647480515688507 0 0.75841349681148107 0.75422312624214749 0 0.72500000000000064 0.7952620967744265 0 0.76901770135486491 0.84293557325473656 0 0.77094201086366854 0.79647480515688507 0 0.77094201086366854 0.79647480515688507 0 0.75841349681148107 0.75422312624214749 0 0.80185942888539485 0.77452061303608133 0 0.75841349681148107 0.75422312624214749 0 0.80185942888539485 0.77452061303608133 0 0.78578450296893509 0.73292684821144505 0 0.80185942888539485 0.77452061303608133 0 0.84725310900444062 0.80779732082917555 0 0.85491058998424563 0.76004753345552634 0 0.80185942888539485 0.77452061303608133 0 0.85491058998424563 0.76004753345552634 0 0.81864958914779962 0.73589050177899629 0 0.80041942726660109 0.81543261647703358 0 0.80185942888539485 0.77452061303608133 0 0.84725310900444062 0.80779732082917555 0 0.84725310900444062 0.80779732082917555 0 0.85491058998424563 0.76004753345552634 0 0.90299850604011456 0.79563452813489832 0 0.85491058998424563 0.76004753345552634 0 0.90299850604011456 0.79563452813489832 0 0.89999166460796554 0.74528934923809909 0 0.90299850604011456 0.79563452813489832 0 0.94399509803918602 0.75600490196082126 0 0.95386563387742829 0.80414874155775029 0 0.90299850604011456 0.79563452813489832 0 0.94399509803918602 0.75600490196082126 0 0.89999166460796554 0.74528934923809909 0 0.94399509803918602 0.75600490196082126 0 0.97435614836745565 0.77499999999987745 0 0.95386563387742829 0.80414874155775029 0 0.94399509803918602 0.75600490196082126 0 0.97435614836745565 0.77499999999987745 0 0.97166519676947294 0.73337114490064459 0 0.97435614836745565 0.77499999999987745 0 0.97166519676947294 0.73337114490064459 0 1 0.74999999999993494 0 0.97435614836745565 0.77499999999987745 0 1 0.7999999999998193 0 1 0.74999999999993494 0 0.97435614836745565 0.77499999999987745 0 1 0.7999999999998193 0 0.95386563387742829 0.80414874155775029 0 1 0.84999999999982645 0 0.93677536231884972 0.85000000000000286 0 0.95391631417670719 0.89584263333814784 0 0.95386563387742829 0.80414874155775029 0 1 0.84999999999982645 0 0.93677536231884972 0.85000000000000286 0 1 0.7999999999998193 0 0.95386563387742829 0.80414874155775029 0 1 0.84999999999982645 0 0.93677536231884972 0.85000000000000286 0 0.88088768115933802 0.84674609810493673 0 0.90416666666660628 0.9041666666666166 0 0.90299850604011456 0.79563452813489832 0 0.95386563387742829 0.80414874155775029 0 0.93677536231884972 0.85000000000000286 0 0.90299850604011456 0.79563452813489832 0 0.93677536231884972 0.85000000000000286 0 0.88088768115933802 0.84674609810493673 0 0.84725310900444062 0.80779732082917555 0 0.90299850604011456 0.79563452813489832 0 0.88088768115933802 0.84674609810493673 0 0.85600844944837662 0.88483418979512773 0 0.88088768115933802 0.84674609810493673 0 0.90416666666660628 0.9041666666666166 0 0.85170973911348691 0.93569607295217616 0 0.90416666666660628 0.9041666666666166 0 0.89898474358632463 0.95391965591118966 0 0.90416666666660628 0.9041666666666166 0 0.95391631417670719 0.89584263333814784 0 0.94399509803919068 0.9439950980391687 0 0.90416666666660628 0.9041666666666166 0 0.94399509803919068 0.9439950980391687 0 0.89898474358632463 0.95391965591118966 0 0.93677536231884972 0.85000000000000286 0 0.90416666666660628 0.9041666666666166 0 0.95391631417670719 0.89584263333814784 0 1 0.84999999999982645 0 0.95391631417670719 0.89584263333814784 0 1 0.8999999999998336 0 1 0.8999999999998336 0 0.97435614836744289 0.92499999999990257 0 1 0.94999999999997109 0 0.95391631417670719 0.89584263333814784 0 1 0.8999999999998336 0 0.97435614836744289 0.92499999999990257 0 0.95391631417670719 0.89584263333814784 0 0.97435614836744289 0.92499999999990257 0 0.94399509803919068 0.9439950980391687 0 0.97435614836744289 0.92499999999990257 0 0.94399509803919068 0.9439950980391687 0 0.97166519676946206 0.96662885509935492 0 0.97435614836744289 0.92499999999990257 0 0.97166519676946206 0.96662885509935492 0 1 0.94999999999997109 0 0.97166519676946206 0.96662885509935492 0 1 0.94999999999997109 0 1 1 0 0.97166519676946206 0.96662885509935492 0 1 1 0 0.94999999999979179 1 0 0.94399509803919068 0.9439950980391687 0 0.97166519676946206 0.96662885509935492 0 0.94999999999979179 1 0 0.94999999999979179 1 0 0.89898474358632463 0.95391965591118966 0 0.89999999999958358 1 0 0.94399509803919068 0.9439950980391687 0 0.94999999999979179 1 0 0.89898474358632463 0.95391965591118966 0 0.84999999999965292 1 0 0.89898474358632463 0.95391965591118966 0 0.89999999999958358 1 0 0.81723410853263523 0.59419663659258926 0 0.86956835336234861 0.571283299838105 0 0.82862096804812391 0.55037090955459045 0 0.81723410853263523 0.59419663659258926 0 0.87159648282691515 0.61285406320581504 0 0.83758014339878906 0.63222013025741819 0 0.81723410853263523 0.59419663659258926 0 0.79884539758237771 0.62875045078114233 0 0.83758014339878906 0.63222013025741819 0 0.81723410853263523 0.59419663659258926 0 0.87159648282691515 0.61285406320581504 0 0.86956835336234861 0.571283299838105 0 0.86956835336234861 0.571283299838105 0 0.86907294890112186 0.52008116128001669 0 0.82862096804812391 0.55037090955459045 0 0.86907294890112186 0.52008116128001669 0 0.81441713509985358 0.51161854125224959 0 0.82862096804812391 0.55037090955459045 0 0.86907294890112186 0.52008116128001669 0 0.81441713509985358 0.51161854125224959 0 0.84723782639812573 0.48638347960178252 0 0.81441713509985358 0.51161854125224959 0 0.82862096804812391 0.55037090955459045 0 0.77151014687832564 0.54436834383023036 0 0.81441713509985358 0.51161854125224959 0 0.77151014687832564 0.54436834383023036 0 0.77846603114747959 0.49850927265137401 0 0.77151014687832564 0.54436834383023036 0 0.77846603114747959 0.49850927265137401 0 0.73947346780852752 0.49062440112282169 0 0.71809016091162536 0.58185040402320831 0 0.77151014687832564 0.54436834383023036 0 0.77293540622714185 0.59448302402785813 0 0.81723410853263523 0.59419663659258926 0 0.77151014687832564 0.54436834383023036 0 0.77293540622714185 0.59448302402785813 0 0.81723410853263523 0.59419663659258926 0 0.82862096804812391 0.55037090955459045 0 0.77151014687832564 0.54436834383023036 0 0.81723410853263523 0.59419663659258926 0 0.77293540622714185 0.59448302402785813 0 0.79884539758237771 0.62875045078114233 0 0.74994237037456724 0.62775548192980357 0 0.77293540622714185 0.59448302402785813 0 0.79884539758237771 0.62875045078114233 0 0.74994237037456724 0.62775548192980357 0 0.7750489929959945 0.66593931409600093 0 0.79884539758237771 0.62875045078114233 0 0.74999999999999989 0.69999999999999996 0 0.72500000000000064 0.67022701834392062 0 0.7750489929959945 0.66593931409600093 0 0.7750489929959945 0.66593931409600093 0 0.79999999999999982 0.69999999999999996 0 0.82457059160610424 0.66831947184359608 0 0.7750489929959945 0.66593931409600093 0 0.79884539758237771 0.62875045078114233 0 0.82457059160610424 0.66831947184359608 0 0.74999999999999989 0.69999999999999996 0 0.75841349681148107 0.75422312624214749 0 0.78578450296893509 0.73292684821144505 0 0.74999999999999989 0.69999999999999996 0 0.79999999999999982 0.69999999999999996 0 0.78578450296893509 0.73292684821144505 0 0.74999999999999989 0.69999999999999996 0 0.7750489929959945 0.66593931409600093 0 0.79999999999999982 0.69999999999999996 0 0.74999999999999989 0.69999999999999996 0 0.79999999999999982 0.69999999999999996 0 0.80185942888539485 0.77452061303608133 0 0.78578450296893509 0.73292684821144505 0 0.81864958914779962 0.73589050177899629 0 0.79999999999999982 0.69999999999999996 0 0.78578450296893509 0.73292684821144505 0 0.81864958914779962 0.73589050177899629 0 0.85491058998424563 0.76004753345552634 0 0.81864958914779962 0.73589050177899629 0 0.84999999999999987 0.69999999999999996 0 0.79999999999999982 0.69999999999999996 0 0.84999999999999987 0.69999999999999996 0 0.79999999999999982 0.69999999999999996 0 0.84999999999999987 0.69999999999999996 0 0.82457059160610424 0.66831947184359608 0 0.79999999999999982 0.69999999999999996 0 0.81864958914779962 0.73589050177899629 0 0.84999999999999987 0.69999999999999996 0 0.84999999999999987 0.69999999999999996 0 0.89999999999999991 0.69999999999999996 0 0.85491058998424563 0.76004753345552634 0 0.84999999999999987 0.69999999999999996 0 0.89999166460796554 0.74528934923809909 0 0.79884539758237771 0.62875045078114233 0 0.83758014339878906 0.63222013025741819 0 0.82457059160610424 0.66831947184359608 0 0.84999999999999987 0.69999999999999996 0 0.82457059160610424 0.66831947184359608 0 0.87712158428786946 0.65709029563313581 0 0.87159648282691515 0.61285406320581504 0 0.83758014339878906 0.63222013025741819 0 0.87712158428786946 0.65709029563313581 0 0.83758014339878906 0.63222013025741819 0 0.82457059160610424 0.66831947184359608 0 0.87712158428786946 0.65709029563313581 0 0.87712158428786946 0.65709029563313581 0 0.92057473616084773 0.66770436535372446 0 0.91750694127105259 0.63017627779935648 0 0.87159648282691515 0.61285406320581504 0 0.87712158428786946 0.65709029563313581 0 0.91750694127105259 0.63017627779935648 0 0.84999999999999987 0.69999999999999996 0 0.87712158428786946 0.65709029563313581 0 0.89999999999999991 0.69999999999999996 0 0.87712158428786946 0.65709029563313581 0 0.92057473616084773 0.66770436535372446 0 0.89999999999999991 0.69999999999999996 0 0.92057473616084773 0.66770436535372446 0 0.91750694127105259 0.63017627779935648 0 0.9578014258160763 0.65787212321113708 0 0.84999999999999987 0.69999999999999996 0 0.89999166460796554 0.74528934923809909 0 0.89999999999999991 0.69999999999999996 0 0.89999999999999991 0.69999999999999996 0 0.94999999999999996 0.69999999999999996 0 0.92057473616084773 0.66770436535372446 0 0.89999999999999991 0.69999999999999996 0 0.94999999999999996 0.69999999999999996 0 0.89999166460796554 0.74528934923809909 0 0.89999999999999991 0.69999999999999996 0 0.94999999999999996 0.69999999999999996 0 0.94399509803918602 0.75600490196082126 0 0.89999166460796554 0.74528934923809909 0 0.94999999999999996 0.69999999999999996 0 0.94399509803918602 0.75600490196082126 0 0.94999999999999996 0.69999999999999996 0 0.97166519676947294 0.73337114490064459 0 0.94999999999999996 0.69999999999999996 0 1 0.69999999999999996 0 0.94999999999999996 0.69999999999999996 0 1 0.69999999999999996 0 0.97166519676947294 0.73337114490064459 0 1 0.69999999999999996 0 0.97166519676947294 0.73337114490064459 0 1 0.74999999999993494 0 0.91750694127105259 0.63017627779935648 0 0.9578014258160763 0.65787212321113708 0 0.95867599106212187 0.60011091146651041 0 0.92057473616084773 0.66770436535372446 0 0.94999999999999996 0.69999999999999996 0 0.9578014258160763 0.65787212321113708 0 0.94999999999999996 0.69999999999999996 0 1 0.69999999999999996 0 0.9578014258160763 0.65787212321113708 0 1 0.69999999999999996 0 0.9578014258160763 0.65787212321113708 0 1 0.64999999999986979 0 0.9578014258160763 0.65787212321113708 0 1 0.64999999999986979 0 0.95867599106212187 0.60011091146651041 0 0.95867599106212187 0.60011091146651041 0 0.93732437411268477 0.55911392101136159 0 1 0.54999999999963112 0 1 0.64999999999986979 0 1 0.59999999999973963 0 0.95867599106212187 0.60011091146651041 0 1 0.59999999999973963 0 0.95867599106212187 0.60011091146651041 0 1 0.54999999999963112 0 0.91750694127105259 0.63017627779935648 0 0.95867599106212187 0.60011091146651041 0 0.91143117093204207 0.58709913730335972 0 0.95867599106212187 0.60011091146651041 0 0.91143117093204207 0.58709913730335972 0 0.93732437411268477 0.55911392101136159 0 0.86956835336234861 0.571283299838105 0 0.91143117093204207 0.58709913730335972 0 0.90900154012161016 0.53607784105648792 0 0.87159648282691515 0.61285406320581504 0 0.86956835336234861 0.571283299838105 0 0.91143117093204207 0.58709913730335972 0 0.87159648282691515 0.61285406320581504 0 0.91750694127105259 0.63017627779935648 0 0.91143117093204207 0.58709913730335972 0 0.86907294890112186 0.52008116128001669 0 0.90900154012161016 0.53607784105648792 0 0.91696753777131557 0.497780560203536 0 0.86956835336234861 0.571283299838105 0 0.86907294890112186 0.52008116128001669 0 0.90900154012161016 0.53607784105648792 0 0.90900154012161016 0.53607784105648792 0 0.93732437411268477 0.55911392101136159 0 0.95631871884947484 0.51827533208233789 0 0.91143117093204207 0.58709913730335972 0 0.90900154012161016 0.53607784105648792 0 0.93732437411268477 0.55911392101136159 0 0.90900154012161016 0.53607784105648792 0 0.95631871884947484 0.51827533208233789 0 0.91696753777131557 0.497780560203536 0 0.93732437411268477 0.55911392101136159 0 0.95631871884947484 0.51827533208233789 0 1 0.54999999999963112 0 0.95631871884947484 0.51827533208233789 0 1 0.54999999999963112 0 1 0.49999999999950101 0 0.95631871884947484 0.51827533208233789 0 1 0.49999999999950101 0 0.96228564064454991 0.48206450662049471 0 1 0.49999999999950101 0 1 0.44999999999963131 0 0.96228564064454991 0.48206450662049471 0 1 0.44999999999963131 0 0.93814194660195893 0.44426664081746747 0 0.96228564064454991 0.48206450662049471 0 0.93814194660195893 0.44426664081746747 0 0.96228564064454991 0.48206450662049471 0 0.91696753777131557 0.497780560203536 0 0.95631871884947484 0.51827533208233789 0 0.96228564064454991 0.48206450662049471 0 0.91696753777131557 0.497780560203536 0 1 0.39999999999978308 0 0.95871855522754235 0.40006508612975411 0 1 0.34999999999993492 0 1 0.44999999999963131 0 1 0.39999999999978308 0 0.95871855522754235 0.40006508612975411 0 1 0.44999999999963131 0 0.93814194660195893 0.44426664081746747 0 0.95871855522754235 0.40006508612975411 0 0.95871855522754235 0.40006508612975411 0 0.90594285160987287 0.4141265964174129 0 0.91750694127107502 0.36982372220068471 0 0.93814194660195893 0.44426664081746747 0 0.95871855522754235 0.40006508612975411 0 0.90594285160987287 0.4141265964174129 0 0.90594285160987287 0.4141265964174129 0 0.88594198078881503 0.46167788676578442 0 0.86411095495256451 0.42388805655111889 0 0.90594285160987287 0.4141265964174129 0 0.86411095495256451 0.42388805655111889 0 0.86844634540301924 0.38530937474099819 0 0.90594285160987287 0.4141265964174129 0 0.86844634540301924 0.38530937474099819 0 0.91750694127107502 0.36982372220068471 0 0.93814194660195893 0.44426664081746747 0 0.91696753777131557 0.497780560203536 0 0.88594198078881503 0.46167788676578442 0 0.93814194660195893 0.44426664081746747 0 0.90594285160987287 0.4141265964174129 0 0.88594198078881503 0.46167788676578442 0 0.86907294890112186 0.52008116128001669 0 0.91696753777131557 0.497780560203536 0 0.88594198078881503 0.46167788676578442 0 0.86907294890112186 0.52008116128001669 0 0.88594198078881503 0.46167788676578442 0 0.84723782639812573 0.48638347960178252 0 0.81441713509985358 0.51161854125224959 0 0.84723782639812573 0.48638347960178252 0 0.81400510706333218 0.47357325943904899 0 0.84723782639812573 0.48638347960178252 0 0.81400510706333218 0.47357325943904899 0 0.84925632466077294 0.45359738909549091 0 0.81400510706333218 0.47357325943904899 0 0.84925632466077294 0.45359738909549091 0 0.81973119833356312 0.43505687159469048 0 0.88594198078881503 0.46167788676578442 0 0.84723782639812573 0.48638347960178252 0 0.84925632466077294 0.45359738909549091 0 0.84925632466077294 0.45359738909549091 0 0.86411095495256451 0.42388805655111889 0 0.81973119833356312 0.43505687159469048 0 0.88594198078881503 0.46167788676578442 0 0.84925632466077294 0.45359738909549091 0 0.86411095495256451 0.42388805655111889 0 0.86411095495256451 0.42388805655111889 0 0.86844634540301924 0.38530937474099819 0 0.81308179852519835 0.39754945808726527 0 0.86844634540301924 0.38530937474099819 0 0.81308179852519835 0.39754945808726527 0 0.83573492347052902 0.36590755630746369 0 0.86411095495256451 0.42388805655111889 0 0.81308179852519835 0.39754945808726527 0 0.81973119833356312 0.43505687159469048 0 0.81973119833356312 0.43505687159469048 0 0.77354604466818633 0.40378688774472771 0 0.77972660463949339 0.45529290596363098 0 0.81308179852519835 0.39754945808726527 0 0.81973119833356312 0.43505687159469048 0 0.77354604466818633 0.40378688774472771 0 0.81308179852519835 0.39754945808726527 0 0.77354604466818633 0.40378688774472771 0 0.78145581580700685 0.34881365920033602 0 0.77354604466818633 0.40378688774472771 0 0.77972660463949339 0.45529290596363098 0 0.73483647259922602 0.44789725365921768 0 0.77972660463949339 0.45529290596363098 0 0.73483647259922602 0.44789725365921768 0 0.73947346780852752 0.49062440112282169 0 0.77972660463949339 0.45529290596363098 0 0.77846603114747959 0.49850927265137401 0 0.73947346780852752 0.49062440112282169 0 0.81400510706333218 0.47357325943904899 0 0.77972660463949339 0.45529290596363098 0 0.77846603114747959 0.49850927265137401 0 0.81441713509985358 0.51161854125224959 0 0.81400510706333218 0.47357325943904899 0 0.77846603114747959 0.49850927265137401 0 0.81400510706333218 0.47357325943904899 0 0.81973119833356312 0.43505687159469048 0 0.77972660463949339 0.45529290596363098 0 0.79999999999999982 0.29999999999999999 0 0.77075983436335049 0.25919399014334171 0 0.81486180804364938 0.26321394949780091 0 0.79999999999999982 0.29999999999999999 0 0.74999999999999989 0.29999999999999999 0 0.79999999999999982 0.29999999999999999 0 0.77075983436335049 0.25919399014334171 0 0.74999999999999989 0.29999999999999999 0 0.79999999999999982 0.29999999999999999 0 0.78145581580700685 0.34881365920033602 0 0.74999999999999989 0.29999999999999999 0 0.78145581580700685 0.34881365920033602 0 0.73090396928863699 0.33699297293167962 0 0.74999999999999989 0.29999999999999999 0 0.77354604466818633 0.40378688774472771 0 0.78145581580700685 0.34881365920033602 0 0.74764719760526988 0.3719647154012321 0 0.78145581580700685 0.34881365920033602 0 0.74764719760526988 0.3719647154012321 0 0.73090396928863699 0.33699297293167962 0 0.81308179852519835 0.39754945808726527 0 0.78145581580700685 0.34881365920033602 0 0.83573492347052902 0.36590755630746369 0 0.79999999999999982 0.29999999999999999 0 0.78145581580700685 0.34881365920033602 0 0.82500000000000062 0.33010209762754811 0 0.78145581580700685 0.34881365920033602 0 0.82500000000000062 0.33010209762754811 0 0.83573492347052902 0.36590755630746369 0 0.82500000000000062 0.33010209762754811 0 0.83573492347052902 0.36590755630746369 0 0.87430060258887643 0.34056085888204451 0 0.86844634540301924 0.38530937474099819 0 0.83573492347052902 0.36590755630746369 0 0.87430060258887643 0.34056085888204451 0 0.82500000000000062 0.33010209762754811 0 0.87430060258887643 0.34056085888204451 0 0.84999999999999987 0.29999999999999999 0 0.87430060258887643 0.34056085888204451 0 0.84999999999999987 0.29999999999999999 0 0.89999999999999991 0.29999999999999999 0 0.84999999999999987 0.29999999999999999 0 0.81486180804364938 0.26321394949780091 0 0.8517097391133297 0.2356960729520409 0 0.84999999999999987 0.29999999999999999 0 0.89898474358614167 0.25391965591104898 0 0.8517097391133297 0.2356960729520409 0 0.84999999999999987 0.29999999999999999 0 0.89999999999999991 0.29999999999999999 0 0.79999999999999982 0.29999999999999999 0 0.82500000000000062 0.33010209762754811 0 0.84999999999999987 0.29999999999999999 0 0.79999999999999982 0.29999999999999999 0 0.84999999999999987 0.29999999999999999 0 0.81486180804364938 0.26321394949780091 0 0.79999999999999982 0.29999999999999999 0 0.84999999999999987 0.29999999999999999 0 0.84999999999999987 0.29999999999999999 0 0.89898474358614167 0.25391965591104898 0 0.89999999999999991 0.29999999999999999 0 0.89999999999999991 0.29999999999999999 0 0.94999999999999996 0.29999999999999999 0 0.89999999999999991 0.29999999999999999 0 0.92012390126144183 0.33123581297173937 0 0.94999999999999996 0.29999999999999999 0 0.89898474358614167 0.25391965591104898 0 0.89999999999999991 0.29999999999999999 0 0.94999999999999996 0.29999999999999999 0 0.89898474358614167 0.25391965591104898 0 0.94999999999999996 0.29999999999999999 0 0.94399509803921056 0.24399509803922639 0 0.86844634540301924 0.38530937474099819 0 0.87430060258887643 0.34056085888204451 0 0.91750694127107502 0.36982372220068471 0 0.87430060258887643 0.34056085888204451 0 0.92012390126144183 0.33123581297173937 0 0.91750694127107502 0.36982372220068471 0 0.87430060258887643 0.34056085888204451 0 0.89999999999999991 0.29999999999999999 0 0.92012390126144183 0.33123581297173937 0 0.92012390126144183 0.33123581297173937 0 0.91750694127107502 0.36982372220068471 0 0.95780851984364423 0.34215720972155339 0 0.95871855522754235 0.40006508612975411 0 0.91750694127107502 0.36982372220068471 0 0.95780851984364423 0.34215720972155339 0 0.92012390126144183 0.33123581297173937 0 0.95780851984364423 0.34215720972155339 0 0.94999999999999996 0.29999999999999999 0 0.95780851984364423 0.34215720972155339 0 0.94999999999999996 0.29999999999999999 0 1 0.29999999999999999 0 0.95780851984364423 0.34215720972155339 0 1 0.34999999999993492 0 1 0.29999999999999999 0 0.95871855522754235 0.40006508612975411 0 0.95780851984364423 0.34215720972155339 0 1 0.34999999999993492 0 0.94999999999999996 0.29999999999999999 0 0.97166519676951801 0.26662885509932011 0 0.94399509803921056 0.24399509803922639 0 0.94999999999999996 0.29999999999999999 0 1 0.29999999999999999 0 0.94999999999999996 0.29999999999999999 0 1 0.29999999999999999 0 0.97166519676951801 0.26662885509932011 0 1 0.29999999999999999 0 0.97166519676951801 0.26662885509932011 0 1 0.24999999999987299 0 0.97166519676951801 0.26662885509932011 0 0.97435614836740092 0.22499999999981049 0 1 0.24999999999987299 0 0.97435614836740092 0.22499999999981049 0 1 0.24999999999987299 0 1 0.19999999999974799 0 0.97435614836740092 0.22499999999981049 0 0.94399509803921056 0.24399509803922639 0 0.95391631417672862 0.19584263333809451 0 0.97166519676951801 0.26662885509932011 0 0.97435614836740092 0.22499999999981049 0 0.94399509803921056 0.24399509803922639 0 0.97435614836740092 0.22499999999981049 0 0.95391631417672862 0.19584263333809451 0 1 0.19999999999974799 0 0.95391631417672862 0.19584263333809451 0 1 0.14999999999961891 0 0.93677536231883773 0.14999999999999089 0 1 0.14999999999961891 0 0.93677536231883773 0.14999999999999089 0 0.95386563387744361 0.1041487415577465 0 0.95391631417672862 0.19584263333809451 0 1 0.19999999999974799 0 1 0.14999999999961891 0 0.95391631417672862 0.19584263333809451 0 0.93677536231883773 0.14999999999999089 0 0.90416666666668166 0.20416666666667119 0 0.93677536231883773 0.14999999999999089 0 0.88088768115941807 0.14674609810479519 0 0.90416666666668166 0.20416666666667119 0 0.93677536231883773 0.14999999999999089 0 0.88088768115941807 0.14674609810479519 0 0.90299850604006393 0.09563452813493091 0 0.88088768115941807 0.14674609810479519 0 0.90416666666668166 0.20416666666667119 0 0.85600844944842547 0.1848341897950983 0 0.89898474358614167 0.25391965591104898 0 0.90416666666668166 0.20416666666667119 0 0.8517097391133297 0.2356960729520409 0 0.89898474358614167 0.25391965591104898 0 0.94399509803921056 0.24399509803922639 0 0.90416666666668166 0.20416666666667119 0 0.94399509803921056 0.24399509803922639 0 0.95391631417672862 0.19584263333809451 0 0.90416666666668166 0.20416666666667119 0 0.94999999999986839 0 0 0.97166519676946894 0.033371144900598393 0 0.94399509803922566 0.056004901960802607 0 0.94999999999986839 0 0 1 0 0 0.97166519676946894 0.033371144900598393 0 1 0 0 1 0.049999999999896842 0 0.97166519676946894 0.033371144900598393 0 1 0.049999999999896842 0 0.97166519676946894 0.033371144900598393 0 0.97435614836748241 0.074999999999825387 0 0.97166519676946894 0.033371144900598393 0 0.94399509803922566 0.056004901960802607 0 0.97435614836748241 0.074999999999825387 0 0.94399509803922566 0.056004901960802607 0 0.97435614836748241 0.074999999999825387 0 0.95386563387744361 0.1041487415577465 0 0.97435614836748241 0.074999999999825387 0 1 0.099999999999753911 0 0.95386563387744361 0.1041487415577465 0 1 0.049999999999896842 0 0.97435614836748241 0.074999999999825387 0 1 0.099999999999753911 0 1 0.14999999999961891 0 1 0.099999999999753911 0 0.95386563387744361 0.1041487415577465 0 0.93677536231883773 0.14999999999999089 0 0.95386563387744361 0.1041487415577465 0 0.90299850604006393 0.09563452813493091 0 0.88088768115941807 0.14674609810479519 0 0.90299850604006393 0.09563452813493091 0 0.84725310900442086 0.10779732082922661 0 0.90299850604006393 0.09563452813493091 0 0.899991664607802 0.045289349238254978 0 0.85491058998398861 0.060047533455626502 0 0.94399509803922566 0.056004901960802607 0 0.95386563387744361 0.1041487415577465 0 0.90299850604006393 0.09563452813493091 0 0.94399509803922566 0.056004901960802607 0 0.90299850604006393 0.09563452813493091 0 0.899991664607802 0.045289349238254978 0 0.94999999999986839 0 0 0.94399509803922566 0.056004901960802607 0 0.899991664607802 0.045289349238254978 0 0.899991664607802 0.045289349238254978 0 0.89999999999973679 0 0 0.84999999999960507 0 0 0.94999999999986839 0 0 0.899991664607802 0.045289349238254978 0 0.89999999999973679 0 0 0.84999999999960507 0 0 0.81864958914740749 0.035890501779055867 0 0.79999999999947335 0 0 0.899991664607802 0.045289349238254978 0 0.84999999999960507 0 0 0.85491058998398861 0.060047533455626502 0 0.85491058998398861 0.060047533455626502 0 0.81864958914740749 0.035890501779055867 0 0.80185942888501827 0.074520613036224564 0 0.84999999999960507 0 0 0.85491058998398861 0.060047533455626502 0 0.81864958914740749 0.035890501779055867 0 0.85491058998398861 0.060047533455626502 0 0.84725310900442086 0.10779732082922661 0 0.80185942888501827 0.074520613036224564 0 0.90299850604006393 0.09563452813493091 0 0.85491058998398861 0.060047533455626502 0 0.84725310900442086 0.10779732082922661 0 0.84725310900442086 0.10779732082922661 0 0.80076557130237269 0.1154587552654202 0 0.80185942888501827 0.074520613036224564 0 0.84725310900442086 0.10779732082922661 0 0.80076557130237269 0.1154587552654202 0 0.82709327591102189 0.14937141670914489 0 0.80076557130237269 0.1154587552654202 0 0.76878382444651716 0.097147941686331368 0 0.80185942888501827 0.074520613036224564 0 0.76878382444651716 0.097147941686331368 0 0.77144070960558853 0.14311854477243749 0 0.72525833953073282 0.1032114801687094 0 0.80076557130237269 0.1154587552654202 0 0.76878382444651716 0.097147941686331368 0 0.77144070960558853 0.14311854477243749 0 0.76878382444651716 0.097147941686331368 0 0.80185942888501827 0.074520613036224564 0 0.7527966693318906 0.053051678021508272 0 0.81864958914740749 0.035890501779055867 0 0.80185942888501827 0.074520613036224564 0 0.78393852574753176 0.032039079577822822 0 0.80185942888501827 0.074520613036224564 0 0.78393852574753176 0.032039079577822822 0 0.7527966693318906 0.053051678021508272 0 0.78393852574753176 0.032039079577822822 0 0.7527966693318906 0.053051678021508272 0 0.74999999999934175 0 0 0.78393852574753176 0.032039079577822822 0 0.79999999999947335 0 0 0.74999999999934175 0 0 0.81864958914740749 0.035890501779055867 0 0.78393852574753176 0.032039079577822822 0 0.79999999999947335 0 0 0.81283102246527783 0.1881007222486438 0 0.8517097391133297 0.2356960729520409 0 0.79680861578956375 0.22656778056752541 0 0.81283102246527783 0.1881007222486438 0 0.8517097391133297 0.2356960729520409 0 0.85600844944842547 0.1848341897950983 0 0.81486180804364938 0.26321394949780091 0 0.8517097391133297 0.2356960729520409 0 0.79680861578956375 0.22656778056752541 0 0.90416666666668166 0.20416666666667119 0 0.8517097391133297 0.2356960729520409 0 0.85600844944842547 0.1848341897950983 0 0.88088768115941807 0.14674609810479519 0 0.85600844944842547 0.1848341897950983 0 0.82709327591102189 0.14937141670914489 0 0.88088768115941807 0.14674609810479519 0 0.84725310900442086 0.10779732082922661 0 0.82709327591102189 0.14937141670914489 0 0.81283102246527783 0.1881007222486438 0 0.85600844944842547 0.1848341897950983 0 0.82709327591102189 0.14937141670914489 0 0.81283102246527783 0.1881007222486438 0 0.77144070960558853 0.14311854477243749 0 0.76587607630038135 0.18880039518954719 0 0.81283102246527783 0.1881007222486438 0 0.82709327591102189 0.14937141670914489 0 0.77144070960558853 0.14311854477243749 0 0.80076557130237269 0.1154587552654202 0 0.82709327591102189 0.14937141670914489 0 0.77144070960558853 0.14311854477243749 0 0.77144070960558853 0.14311854477243749 0 0.76587607630038135 0.18880039518954719 0 0.72634814642510737 0.16106886917518889 0 0.76587607630038135 0.18880039518954719 0 0.79680861578956375 0.22656778056752541 0 0.75668890529066124 0.2244279804069782 0 0.81283102246527783 0.1881007222486438 0 0.76587607630038135 0.18880039518954719 0 0.79680861578956375 0.22656778056752541 0 0.77075983436335049 0.25919399014334171 0 0.81486180804364938 0.26321394949780091 0 0.79680861578956375 0.22656778056752541 0 0.77075983436335049 0.25919399014334171 0 0.79680861578956375 0.22656778056752541 0 0.75668890529066124 0.2244279804069782 0 0.77075983436335049 0.25919399014334171 0 0.75668890529066124 0.2244279804069782 0 0.72500000000000064 0.2498161764706 0 0.75668890529066124 0.2244279804069782 0 0.72500000000000064 0.2498161764706 0 0.72500000000001008 0.19776155966387679 0 0.72500000000000064 0.2498161764706 0 0.69397719155551807 0.2245125647000914 0 0.72500000000001008 0.19776155966387679 0 0.72500000000000064 0.2498161764706 0 0.69397719155551807 0.2245125647000914 0 0.67933712972090698 0.25920070958121938 0 0.69397719155551807 0.2245125647000914 0 0.72500000000001008 0.19776155966387679 0 0.6865991819015953 0.189116534044597 0 0.76587607630038135 0.18880039518954719 0 0.75668890529066124 0.2244279804069782 0 0.72500000000001008 0.19776155966387679 0 0.76587607630038135 0.18880039518954719 0 0.72500000000001008 0.19776155966387679 0 0.72634814642510737 0.16106886917518889 0 0.77144070960558853 0.14311854477243749 0 0.72634814642510737 0.16106886917518889 0 0.72525833953073282 0.1032114801687094 0 0.72634814642510737 0.16106886917518889 0 0.68391457121233579 0.14440470121196541 0 0.72525833953073282 0.1032114801687094 0 0.72500000000001008 0.19776155966387679 0 0.72634814642510737 0.16106886917518889 0 0.6865991819015953 0.189116534044597 0 0.72634814642510737 0.16106886917518889 0 0.68391457121233579 0.14440470121196541 0 0.6865991819015953 0.189116534044597 0 0.68391457121233579 0.14440470121196541 0 0.64011864159029941 0.18789607982138171 0 0.6865991819015953 0.189116534044597 0 0.68391457121233579 0.14440470121196541 0 0.65290632656860115 0.11434202593454081 0 0.6236733212988993 0.14864538214901801 0 0.68391457121233579 0.14440470121196541 0 0.64011864159029941 0.18789607982138171 0 0.6236733212988993 0.14864538214901801 0 0.64011864159029941 0.18789607982138171 0 0.65394964615507722 0.22666784374016369 0 0.59814117807200873 0.23398510860739519 0 0.65394964615507722 0.22666784374016369 0 0.59814117807200873 0.23398510860739519 0 0.62657463266645097 0.26524202571255862 0 0.69397719155551807 0.2245125647000914 0 0.65394964615507722 0.22666784374016369 0 0.67933712972090698 0.25920070958121938 0 0.64011864159029941 0.18789607982138171 0 0.65394964615507722 0.22666784374016369 0 0.6865991819015953 0.189116534044597 0 0.69397719155551807 0.2245125647000914 0 0.65394964615507722 0.22666784374016369 0 0.6865991819015953 0.189116534044597 0 0.69999999999921003 0 0 0.72683645290270404 0.027797073151180601 0 0.7010294155333181 0.056779085686491267 0 0.69999999999921003 0 0 0.7010294155333181 0.056779085686491267 0 0.66369801598854572 0.036327466368102787 0 0.7527966693318906 0.053051678021508272 0 0.74999999999934175 0 0 0.72683645290270404 0.027797073151180601 0 0.69999999999921003 0 0 0.74999999999934175 0 0 0.72683645290270404 0.027797073151180601 0 0.7527966693318906 0.053051678021508272 0 0.72683645290270404 0.027797073151180601 0 0.7010294155333181 0.056779085686491267 0 0.7010294155333181 0.056779085686491267 0 0.72525833953073282 0.1032114801687094 0 0.68330259535470161 0.10038702501083881 0 0.7527966693318906 0.053051678021508272 0 0.7010294155333181 0.056779085686491267 0 0.72525833953073282 0.1032114801687094 0 0.76878382444651716 0.097147941686331368 0 0.7527966693318906 0.053051678021508272 0 0.72525833953073282 0.1032114801687094 0 0.68391457121233579 0.14440470121196541 0 0.72525833953073282 0.1032114801687094 0 0.68330259535470161 0.10038702501083881 0 0.68330259535470161 0.10038702501083881 0 0.65290632656860115 0.11434202593454081 0 0.65408113592120842 0.073941773121567966 0 0.68391457121233579 0.14440470121196541 0 0.68330259535470161 0.10038702501083881 0 0.65290632656860115 0.11434202593454081 0 0.65290632656860115 0.11434202593454081 0 0.61956000905586006 0.1043312481793135 0 0.6236733212988993 0.14864538214901801 0 0.65290632656860115 0.11434202593454081 0 0.65408113592120842 0.073941773121567966 0 0.61956000905586006 0.1043312481793135 0 0.65408113592120842 0.073941773121567966 0 0.61940220174112337 0.047251958781050582 0 0.61956000905586006 0.1043312481793135 0 0.7010294155333181 0.056779085686491267 0 0.68330259535470161 0.10038702501083881 0 0.65408113592120842 0.073941773121567966 0 0.7010294155333181 0.056779085686491267 0 0.65408113592120842 0.073941773121567966 0 0.66369801598854572 0.036327466368102787 0 0.65408113592120842 0.073941773121567966 0 0.66369801598854572 0.036327466368102787 0 0.61940220174112337 0.047251958781050582 0 0.66369801598854572 0.036327466368102787 0 0.64999999999907843 0 0 0.61940220174112337 0.047251958781050582 0 0.69999999999921003 0 0 0.66369801598854572 0.036327466368102787 0 0.64999999999907843 0 0 0.59999999999894682 0 0 0.57396793757665954 0.037011367187645222 0 0.5499999999988151 0 0 0.64999999999907843 0 0 0.59999999999894682 0 0 0.61940220174112337 0.047251958781050582 0 0.59999999999894682 0 0 0.61940220174112337 0.047251958781050582 0 0.57396793757665954 0.037011367187645222 0 0.61940220174112337 0.047251958781050582 0 0.57396793757665954 0.037011367187645222 0 0.57667858002728545 0.078486105337742612 0 0.61940220174112337 0.047251958781050582 0 0.57667858002728545 0.078486105337742612 0 0.61956000905586006 0.1043312481793135 0 0.61956000905586006 0.1043312481793135 0 0.58516465772821369 0.11653801664834119 0 0.6236733212988993 0.14864538214901801 0 0.57667858002728545 0.078486105337742612 0 0.61956000905586006 0.1043312481793135 0 0.58516465772821369 0.11653801664834119 0 0.58516465772821369 0.11653801664834119 0 0.54979595918804436 0.1060565713905809 0 0.56202748619534593 0.15054058349222879 0 0.57667858002728545 0.078486105337742612 0 0.58516465772821369 0.11653801664834119 0 0.54979595918804436 0.1060565713905809 0 0.54979595918804436 0.1060565713905809 0 0.51076801031701946 0.1202837388510348 0 0.52375890611712683 0.059318771819432882 0 0.47881186583059909 0.093591717165689425 0 0.51076801031701946 0.1202837388510348 0 0.52375890611712683 0.059318771819432882 0 0.57667858002728545 0.078486105337742612 0 0.54979595918804436 0.1060565713905809 0 0.52375890611712683 0.059318771819432882 0 0.57396793757665954 0.037011367187645222 0 0.52375890611712683 0.059318771819432882 0 0.5499999999988151 0 0 0.57396793757665954 0.037011367187645222 0 0.57667858002728545 0.078486105337742612 0 0.52375890611712683 0.059318771819432882 0 0.49999999999869432 0 0 0.52375890611712683 0.059318771819432882 0 0.5499999999988151 0 0 0.59814117807200873 0.23398510860739519 0 0.59443395090188023 0.18455690917515069 0 0.55306006949600994 0.20198184231352201 0 0.59814117807200873 0.23398510860739519 0 0.55306006949600994 0.20198184231352201 0 0.54248833945060504 0.2520322959927106 0 0.64011864159029941 0.18789607982138171 0 0.59814117807200873 0.23398510860739519 0 0.59443395090188023 0.18455690917515069 0 0.64011864159029941 0.18789607982138171 0 0.59443395090188023 0.18455690917515069 0 0.6236733212988993 0.14864538214901801 0 0.58516465772821369 0.11653801664834119 0 0.6236733212988993 0.14864538214901801 0 0.56202748619534593 0.15054058349222879 0 0.59443395090188023 0.18455690917515069 0 0.6236733212988993 0.14864538214901801 0 0.56202748619534593 0.15054058349222879 0 0.59443395090188023 0.18455690917515069 0 0.56202748619534593 0.15054058349222879 0 0.55306006949600994 0.20198184231352201 0 0.56202748619534593 0.15054058349222879 0 0.51729576145820033 0.1683240575987815 0 0.55306006949600994 0.20198184231352201 0 0.54979595918804436 0.1060565713905809 0 0.51076801031701946 0.1202837388510348 0 0.56202748619534593 0.15054058349222879 0 0.48466639505193998 0.1421439844745814 0 0.51076801031701946 0.1202837388510348 0 0.51729576145820033 0.1683240575987815 0 0.51076801031701946 0.1202837388510348 0 0.56202748619534593 0.15054058349222879 0 0.51729576145820033 0.1683240575987815 0 0.51729576145820033 0.1683240575987815 0 0.50760557329222289 0.20700468884612061 0 0.55306006949600994 0.20198184231352201 0 0.50760557329222289 0.20700468884612061 0 0.55306006949600994 0.20198184231352201 0 0.54248833945060504 0.2520322959927106 0 0.49695729691142171 0.25014895411178018 0 0.50760557329222289 0.20700468884612061 0 0.54248833945060504 0.2520322959927106 0 0.49695729691142171 0.25014895411178018 0 0.5 0.29999999999999999 0 0.54248833945060504 0.2520322959927106 0 0.5 0.29999999999999999 0 0.54999999999999993 0.29999999999999999 0 0.52752007115234678 0.33170632466418198 0 0.5 0.29999999999999999 0 0.54999999999999993 0.29999999999999999 0 0.54248833945060504 0.2520322959927106 0 0.5 0.29999999999999999 0 0.54999999999999993 0.29999999999999999 0 0.54999999999999993 0.29999999999999999 0 0.54248833945060504 0.2520322959927106 0 0.5794309697024993 0.27124795968204829 0 0.59814117807200873 0.23398510860739519 0 0.54248833945060504 0.2520322959927106 0 0.5794309697024993 0.27124795968204829 0 0.54999999999999993 0.29999999999999999 0 0.59999999999999976 0.29999999999999999 0 0.54999999999999993 0.29999999999999999 0 0.5794309697024993 0.27124795968204829 0 0.59999999999999976 0.29999999999999999 0 0.59999999999999976 0.29999999999999999 0 0.6499999999999998 0.29999999999999999 0 0.5794309697024993 0.27124795968204829 0 0.59999999999999976 0.29999999999999999 0 0.62657463266645097 0.26524202571255862 0 0.59814117807200873 0.23398510860739519 0 0.5794309697024993 0.27124795968204829 0 0.62657463266645097 0.26524202571255862 0 0.61959173890754571 0.33832250091341232 0 0.56836770495988642 0.3523062350852913 0 0.6084546825910605 0.37989672713932537 0 0.59999999999999976 0.29999999999999999 0 0.61959173890754571 0.33832250091341232 0 0.6499999999999998 0.29999999999999999 0 0.59999999999999976 0.29999999999999999 0 0.61959173890754571 0.33832250091341232 0 0.56836770495988642 0.3523062350852913 0 0.54999999999999993 0.29999999999999999 0 0.59999999999999976 0.29999999999999999 0 0.56836770495988642 0.3523062350852913 0 0.56836770495988642 0.3523062350852913 0 0.52752007115234678 0.33170632466418198 0 0.52289427570932567 0.3932284363388488 0 0.54999999999999993 0.29999999999999999 0 0.56836770495988642 0.3523062350852913 0 0.52752007115234678 0.33170632466418198 0 0.49077833859261139 0.35229981449445641 0 0.5 0.29999999999999999 0 0.52752007115234678 0.33170632466418198 0 0.49077833859261139 0.35229981449445641 0 0.52752007115234678 0.33170632466418198 0 0.52289427570932567 0.3932284363388488 0 0.56836770495988642 0.3523062350852913 0 0.52289427570932567 0.3932284363388488 0 0.57744073070774993 0.41535148636609359 0 0.52289427570932567 0.3932284363388488 0 0.53823865529665704 0.45873898050322898 0 0.57744073070774993 0.41535148636609359 0 0.48858720058566618 0.43964267759203868 0 0.52289427570932567 0.3932284363388488 0 0.53823865529665704 0.45873898050322898 0 0.49102375406324739 0.49123754822244059 0 0.53330375813596242 0.50827942741749099 0 0.53823865529665704 0.45873898050322898 0 0.49102375406324739 0.49123754822244059 0 0.48858720058566618 0.43964267759203868 0 0.53823865529665704 0.45873898050322898 0 0.53330375813596242 0.50827942741749099 0 0.57611405284611883 0.50165903596042916 0 0.53823865529665704 0.45873898050322898 0 0.57611405284611883 0.50165903596042916 0 0.57975577671020095 0.46172033326338591 0 0.61547661924074692 0.48539576058873962 0 0.57611405284611883 0.50165903596042916 0 0.53823865529665704 0.45873898050322898 0 0.57975577671020095 0.46172033326338591 0 0.57975577671020095 0.46172033326338591 0 0.61209567303293111 0.44669033081290321 0 0.57744073070774993 0.41535148636609359 0 0.53823865529665704 0.45873898050322898 0 0.57975577671020095 0.46172033326338591 0 0.57744073070774993 0.41535148636609359 0 0.57975577671020095 0.46172033326338591 0 0.61209567303293111 0.44669033081290321 0 0.61547661924074692 0.48539576058873962 0 0.56836770495988642 0.3523062350852913 0 0.57744073070774993 0.41535148636609359 0 0.6084546825910605 0.37989672713932537 0 0.61209567303293111 0.44669033081290321 0 0.57744073070774993 0.41535148636609359 0 0.63912439215427275 0.41063340167983359 0 0.57744073070774993 0.41535148636609359 0 0.6084546825910605 0.37989672713932537 0 0.63912439215427275 0.41063340167983359 0 0.6084546825910605 0.37989672713932537 0 0.63912439215427275 0.41063340167983359 0 0.65481233915350323 0.35652751921065562 0 0.63912439215427275 0.41063340167983359 0 0.65178832218679827 0.45929119821019959 0 0.6879972333610942 0.43038561374960838 0 0.63912439215427275 0.41063340167983359 0 0.68128176404677243 0.38629093627004979 0 0.6879972333610942 0.43038561374960838 0 0.63912439215427275 0.41063340167983359 0 0.68128176404677243 0.38629093627004979 0 0.65481233915350323 0.35652751921065562 0 0.61547661924074692 0.48539576058873962 0 0.6541250972820879 0.49999999999999989 0 0.65178832218679827 0.45929119821019959 0 0.61209567303293111 0.44669033081290321 0 0.61547661924074692 0.48539576058873962 0 0.65178832218679827 0.45929119821019959 0 0.61209567303293111 0.44669033081290321 0 0.63912439215427275 0.41063340167983359 0 0.65178832218679827 0.45929119821019959 0 0.65178832218679827 0.45929119821019959 0 0.69385896817107129 0.48377516041410151 0 0.6879972333610942 0.43038561374960838 0 0.6541250972820879 0.49999999999999989 0 0.65178832218679827 0.45929119821019959 0 0.69385896817107129 0.48377516041410151 0 0.7152569930854884 0.5237994455134295 0 0.69385896817107129 0.48377516041410151 0 0.73947346780852752 0.49062440112282169 0 0.69385896817107129 0.48377516041410151 0 0.73483647259922602 0.44789725365921768 0 0.6879972333610942 0.43038561374960838 0 0.69385896817107129 0.48377516041410151 0 0.73483647259922602 0.44789725365921768 0 0.73947346780852752 0.49062440112282169 0 0.68128176404677243 0.38629093627004979 0 0.72622533758026719 0.40265885511101601 0 0.71508799138962864 0.36622814920737751 0 0.73483647259922602 0.44789725365921768 0 0.6879972333610942 0.43038561374960838 0 0.72622533758026719 0.40265885511101601 0 0.68128176404677243 0.38629093627004979 0 0.6879972333610942 0.43038561374960838 0 0.72622533758026719 0.40265885511101601 0 0.77354604466818633 0.40378688774472771 0 0.73483647259922602 0.44789725365921768 0 0.72622533758026719 0.40265885511101601 0 0.72622533758026719 0.40265885511101601 0 0.74764719760526988 0.3719647154012321 0 0.71508799138962864 0.36622814920737751 0 0.77354604466818633 0.40378688774472771 0 0.72622533758026719 0.40265885511101601 0 0.74764719760526988 0.3719647154012321 0 0.74764719760526988 0.3719647154012321 0 0.71508799138962864 0.36622814920737751 0 0.73090396928863699 0.33699297293167962 0 0.71508799138962864 0.36622814920737751 0 0.68887083591306764 0.33632058575757479 0 0.73090396928863699 0.33699297293167962 0 0.68128176404677243 0.38629093627004979 0 0.71508799138962864 0.36622814920737751 0 0.68887083591306764 0.33632058575757479 0 0.68887083591306764 0.33632058575757479 0 0.73090396928863699 0.33699297293167962 0 0.69999999999999984 0.29999999999999999 0 0.72500000000000064 0.2498161764706 0 0.74999999999999989 0.29999999999999999 0 0.69999999999999984 0.29999999999999999 0 0.74999999999999989 0.29999999999999999 0 0.69999999999999984 0.29999999999999999 0 0.73090396928863699 0.33699297293167962 0 0.74999999999999989 0.29999999999999999 0 0.69999999999999984 0.29999999999999999 0 0.77075983436335049 0.25919399014334171 0 0.72500000000000064 0.2498161764706 0 0.74999999999999989 0.29999999999999999 0 0.72500000000000064 0.2498161764706 0 0.69999999999999984 0.29999999999999999 0 0.67933712972090698 0.25920070958121938 0 0.69999999999999984 0.29999999999999999 0 0.67933712972090698 0.25920070958121938 0 0.6499999999999998 0.29999999999999999 0 0.68887083591306764 0.33632058575757479 0 0.69999999999999984 0.29999999999999999 0 0.6499999999999998 0.29999999999999999 0 0.69999999999999984 0.29999999999999999 0 0.6499999999999998 0.29999999999999999 0 0.67933712972090698 0.25920070958121938 0 0.62657463266645097 0.26524202571255862 0 0.6499999999999998 0.29999999999999999 0 0.65394964615507722 0.22666784374016369 0 0.67933712972090698 0.25920070958121938 0 0.62657463266645097 0.26524202571255862 0 0.59999999999999976 0.29999999999999999 0 0.62657463266645097 0.26524202571255862 0 0.6499999999999998 0.29999999999999999 0 0.61959173890754571 0.33832250091341232 0 0.6499999999999998 0.29999999999999999 0 0.65481233915350323 0.35652751921065562 0 0.61959173890754571 0.33832250091341232 0 0.6084546825910605 0.37989672713932537 0 0.65481233915350323 0.35652751921065562 0 0.68128176404677243 0.38629093627004979 0 0.68887083591306764 0.33632058575757479 0 0.65481233915350323 0.35652751921065562 0 0.68887083591306764 0.33632058575757479 0 0.6499999999999998 0.29999999999999999 0 0.65481233915350323 0.35652751921065562 0 
</DataArray>
</Points>
<Cells>
<DataArray type="UInt32" Name="connectivity" format="ascii">
0 1 2 3 4 5 6 7 8 9 10 11 12 13 14 15 16 17 18 19 20 21 22 23 24 25 26 27 28 29 30 31 32 33 34 35 36 37 38 39 40 41 42 43 44 45 46 47 48 49 50 51 52 53 54 55 56 57 58 59 60 61 62 63 64 65 66 67 68 69 70 71 72 73 74 75 76 77 78 79 80 81 82 83 84 85 86 87 88 89 90 91 92 93 94 95 96 97 98 99 100 101 102 103 104 105 106 107 108 109 110 111 112 113 114 115 116 117 118 119 120 121 122 123 124 125 126 127 128 129 130 131 132 133 134 135 136 137 138 139 140 141 142 143 144 145 146 147 148 149 150 151 152 153 154 155 156 157 158 159 160 161 162 163 164 165 166 167 168 169 170 171 172 173 174 175 176 177 178 179 180 181 182 183 184 185 186 187 188 189 190 191 192 193 194 195 196 197 198 199 200 201 202 203 204 205 206 207 208 209 210 211 212 213 214 215 216 217 218 219 220 221 222 223 224 225 226 227 228 229 230 231 232 233 234 235 236 237 238 239 240 241 242 243 244 245 246 247 248 249 250 251 252 253 254 255 256 257 258 259 260 261 262 263 264 265 266 267 268 269 270 271 272 273 274 275 276 277 278 279 280 281 282 283 284 285 286 287 288 289 290 291 292 293 294 295 296 297 298 299 300 301 302 303 304 305 306 307 308 309 310 311 312 313 314 315 316 317 318 319 320 321 322 323 324 325 326 327 328 329 330 331 332 333 334 335 336 337 338 339 340 341 342 343 344 345 346 347 348 349 350 351 352 353 354 355 356 357 358 359 360 361 362 363 364 365 366 367 368 369 370 371 372 373 374 375 376 377 378 379 380 381 382 383 384 385 386 387 388 389 390 391 392 393 394 395 396 397 398 399 400 401 402 403 404 405 406 407 408 409 410 411 412 413 414 415 416 417 418 419 420 421 422 423 424 425 426 427 428 429 430 431 432 433 434 435 436 437 438 439 440 441 442 443 444 445 446 447 448 449 450 451 452 453 454 455 456 457 458 459 460 461 462 463 464 465 466 467 468 469 470 471 472 473 474 475 476 477 478 479 480 481 482 483 484 485 486 487 488 489 490 491 492 493 494 495 496 497 498 499 500 501 502 503 504 505 506 507 508 509 510 511 512 513 514 515 516 517 518 519 520 521 522 523 524 525 526 527 528 529 530 531 532 533 534 535 536 537 538 539 540 541 542 543 544 545 546 547 548 549 550 551 552 553 554 555 556 557 558 559 560 561 562 563 564 565 566 567 568 569 570 571 572 573 574 575 576 577 578 579 580 581 582 583 584 585 586 587 588 589 590 591 592 593 594 595 596 597 598 599 600 601 602 603 604 605 606 607 608 609 610 611 612 613 614 615 616 617 618 619 620 621 622 623 624 625 626 627 628 629 630 631 632 633 634 635 636 637 638 639 640 641 642 643 644 645 646 647 648 649 650 651 652 653 654 655 656 657 658 659 660 661 662 663 664 665 666 667 668 669 670 671 672 673 674 675 676 677 678 679 680 681 682 683 684 685 686 687 688 689 690 691 692 693 694 695 696 697 698 699 700 701 702 703 704 705 706 707 708 709 710 711 712 713 714 715 716 717 718 719 720 721 722 723 724 725 726 727 728 729 730 731 732 733 734 735 736 737 738 739 740 741 742 743 744 745 746 747 748 749 750 751 752 753 754 755 756 757 758 759 760 761 762 763 764 765 766 767 768 769 770 771 772 773 774 775 776 777 778 779 780 781 782 783 784 785 786 787 788 789 790 791 792 793 794 795 796 797 798 799 800 801 802 803 804 805 806 807 808 809 810 811 812 813 814 815 816 817 818 819 820 821 822 823 824 825 826 827 828 829 830 831 832 833 834 835 836 837 838 839 840 841 842 843 844 845 846 847 848 849 850 851 852 853 854 855 856 857 858 859 860 861 862 863 864 865 866 867 868 869 870 871 872 873 874 875 876 877 878 879 880 881 882 883 884 885 886 887 888 889 890 891 892 893 894 895 896 897 898 899 900 901 902 903 904 905 906 907 908 909 910 911 912 913 914 915 916 917 918 919 920 921 922 923 924 925 926 927 928 929 930 931 932 933 934 935 936 937 938 939 940 941 942 943 944 945 946 947 948 949 950 951 952 953 954 955 956 957 958 959 960 961 962 963 964 965 966 967 968 969 970 971 972 973 974 975 976 977 978 979 980 981 982 983 984 985 986 987 988 989 990 991 992 993 994 995 996 997 998 999 1000 1001 1002 1003 1004 1005 1006 1007 1008 1009 1010 1011 1012 1013 1014 1015 1016 1017 1018 1019 1020 1021 1022 1023 1024 1025 1026 1027 1028 1029 1030 1031 1032 1033 1034 1035 1036 1037 1038 1039 1040 1041 1042 1043 1044 1045 1046 1047 1048 1049 1050 1051 1052 1053 1054 1055 1056 1057 1058 1059 1060 1061 1062 1063 1064 1065 1066 1067 1068 1069 1070 1071 1072 1073 1074 1075 1076 1077 1078 1079 1080 1081 1082 1083 1084 1085 1086 1087 1088 1089 1090 1091 1092 1093 1094 1095 1096 1097 1098 1099 1100 1101 1102 1103 1104 1105 1106 1107 1108 1109 1110 1111 1112 1113 1114 1115 1116 1117 1118 1119 1120 1121 1122 1123 1124 1125 1126 1127 1128 1129 1130 1131 1132 1133 1134 1135 1136 1137 1138 1139 1140 1141 1142 1143 1144 1145 1146 1147 1148 1149 1150 1151 1152 1153 1154 1155 1156 1157 1158 1159 1160 1161 1162 1163 1164 1165 1166 1167 1168 1169 1170 1171 1172 1173 1174 1175 1176 1177 1178 1179 1180 1181 1182 1183 1184 1185 1186 1187 1188 1189 1190 1191 1192 1193 1194 1195 1196 1197 1198 1199 1200 1201 1202 1203 1204 1205 1206 1207 1208 1209 1210 1211 1212 1213 1214 1215 1216 1217 1218 1219 1220 1221 1222 1223 1224 1225 1226 1227 1228 1229 1230 1231 1232 1233 1234 1235 1236 1237 1238 1239 1240 1241 1242 1243 1244 1245 1246 1247 1248 1249 1250 1251 1252 1253 1254 1255 1256 1257 1258 1259 1260 1261 1262 1263 1264 1265 1266 1267 1268 1269 1270 1271 1272 1273 1274 1275 1276 1277 1278 1279 1280 1281 1282 1283 1284 1285 1286 1287 1288 1289 1290 1291 1292 1293 1294 1295 1296 1297 1298 1299 1300 1301 1302 1303 1304 1305 1306 1307 1308 1309 1310 1311 1312 1313 1314 1315 1316 1317 1318 1319 1320 1321 1322 1323 1324 1325 1326 1327 1328 1329 1330 1331 1332 1333 1334 1335 1336 1337 1338 1339 1340 1341 1342 1343 1344 1345 1346 1347 1348 1349 1350 1351 1352 1353 1354 1355 1356 1357 1358 1359 1360 1361 1362 1363 1364 1365 1366 1367 1368 1369 1370 1371 1372 1373 1374 1375 1376 1377 1378 1379 1380 1381 1382 1383 1384 1385 1386 1387 1388 1389 1390 1391 1392 1393 1394 1395 1396 1397 1398 1399 1400 1401 1402 1403 1404 1405 1406 1407 1408 1409 1410 1411 1412 1413 1414 1415 1416 1417 1418 1419 1420 1421 1422 1423 1424 1425 1426 1427 1428 1429 1430 1431 1432 1433 1434 1435 1436 1437 1438 1439 1440 1441 1442 1443 1444 1445 1446 1447 1448 1449 1450 1451 1452 1453 1454 1455 1456 1457 1458 1459 1460 1461 1462 1463 1464 1465 1466 1467 1468 1469 1470 1471 1472 1473 1474 1475 1476 1477 1478 1479 1480 1481 1482 1483 1484 1485 1486 1487 1488 1489 1490 1491 1492 1493 1494 1495 1496 1497 1498 1499 1500 1501 1502 1503 1504 1505 1506 1507 1508 1509 1510 1511 1512 1513 1514 1515 1516 1517 1518 1519 1520 1521 1522 1523 1524 1525 1526 1527 1528 1529 1530 1531 1532 1533 1534 1535 1536 1537 1538 1539 1540 1541 1542 1543 1544 1545 1546 1547 1548 1549 1550 1551 1552 1553 1554 1555 1556 1557 1558 1559 1560 1561 1562 1563 1564 1565 1566 1567 1568 1569 1570 1571 1572 1573 1574 1575 1576 1577 1578 1579 1580 1581 1582 1583 1584 1585 1586 1587 1588 1589 1590 1591 1592 1593 1594 1595 1596 1597 1598 1599 1600 1601 1602 1603 1604 1605 1606 1607 1608 1609 1610 1611 1612 1613 1614 1615 1616 1617 1618 1619 1620 1621 1622 1623 1624 1625 1626 1627 1628 1629 1630 1631 1632 1633 1634 1635 1636 1637 1638 1639 1640 1641 1642 1643 1644 1645 1646 1647 1648 1649 1650 1651 1652 1653 1654 1655 1656 1657 1658 1659 1660 1661 1662 1663 1664 1665 1666 1667 1668 1669 1670 1671 1672 1673 1674 1675 1676 1677 1678 1679 1680 1681 1682 1683 1684 1685 1686 1687 1688 1689 1690 1691 1692 1693 1694 1695 1696 1697 1698 1699 1700 1701 1702 1703 1704 1705 1706 1707 1708 1709 1710 1711 1712 1713 1714 1715 1716 1717 1718 1719 1720 1721 1722 1723 1724 1725 1726 1727 1728 1729 1730 1731 1732 1733 1734 1735 1736 1737 1738 1739 1740 1741 1742 1743 1744 1745 1746 1747 1748 1749 1750 1751 1752 1753 1754 1755 1756 1757 1758 1759 1760 1761 1762 1763 1764 1765 1766 1767 1768 1769 1770 1771 1772 1773 1774 1775 1776 1777 1778 1779 1780 1781 1782 1783 1784 1785 1786 1787 1788 1789 1790 1791 1792 1793 1794 1795 1796 1797 1798 1799 1800 1801 1802 1803 1804 1805 1806 1807 1808 1809 1810 1811 1812 1813 1814 1815 1816 1817 1818 1819 1820 1821 1822 1823 1824 1825 1826 1827 1828 1829 1830 1831 1832 1833 1834 1835 1836 1837 1838 1839 1840 1841 1842 1843 1844 1845 1846 1847 1848 1849 1850 1851 1852 1853 1854 1855 1856 1857 1858 1859 1860 1861 1862 1863 1864 1865 1866 1867 1868 1869 1870 1871 1872 1873 1874 1875 1876 1877 1878 1879 1880 1881 1882 1883 1884 1885 1886 1887 1888 1889 1890 1891 1892 1893 1894 1895 1896 1897 1898 1899 1900 1901 1902 1903 1904 1905 1906 1907 1908 1909 1910 1911 1912 1913 1914 1915 1916 1917 1918 1919 1920 1921 1922 1923 1924 1925 1926 1927 1928 1929 1930 1931 1932 1933 1934 1935 1936 1937 1938 1939 1940 1941 1942 1943 1944 1945 1946 1947 1948 1949 1950 1951 1952 1953 1954 1955 1956 1957 1958 1959 1960 1961 1962 1963 1964 1965 1966 1967 1968 1969 1970 1971 1972 1973 1974 1975 1976 1977 1978 1979 1980 1981 1982 1983 1984 1985 1986 1987 1988 1989 1990 1991 1992 1993 1994 1995 1996 1997 1998 1999 2000 2001 2002 2003 2004 2005 2006 2007 2008 2009 2010 2011 2012 2013 2014 2015 2016 2017 2018 2019 2020 2021 2022 2023 2024 2025 2026 2027 2028 2029 2030 2031 2032 2033 2034 2035 2036 2037 2038 2039 2040 2041 2042 2043 2044 2045 2046 2047 2048 2049 2050 2051 2052 2053 2054 2055 2056 2057 2058 2059 2060 2061 2062 2063 2064 2065 2066 2067 2068 2069 2070 2071 2072 2073 2074 2075 2076 2077 2078 2079 2080 2081 2082 2083 2084 2085 2086 2087 2088 2089 2090 2091 2092 2093 2094 2095 2096 2097 2098 2099 2100 2101 2102 2103 2104 2105 2106 2107 2108 2109 2110 2111 2112 2113 2114 2115 2116 2117 2118 2119 2120 2121 2122 2123 2124 2125 2126 2127 2128 2129 2130 2131 2132 2133 2134 2135 2136 2137 2138 2139 2140 2141 2142 2143 2144 2145 2146 2147 2148 2149 2150 2151 2152 2153 2154 2155 2156 2157 2158 2159 2160 2161 2162 2163 2164 2165 2166 2167 2168 2169 2170 2171 2172 2173 2174 2175 2176 2177 2178 2179 2180 2181 2182 2183 2184 2185 2186 2187 2188 2189 2190 2191 2192 2193 2194 2195 2196 2197 2198 2199 2200 2201 2202 2203 2204 2205 2206 2207 2208 2209 2210 2211 2212 2213 2214 2215 2216 2217 2218 2219 2220 2221 2222 2223 2224 2225 2226 2227 2228 2229 2230 2231 2232 2233 2234 2235 2236 2237 2238 2239 2240 2241 2242 2243 2244 2245 2246 2247 2248 2249 2250 2251 2252 2253 2254 2255 2256 2257 2258 2259 2260 2261 2262 2263 2264 2265 2266 2267 2268 2269 2270 2271 2272 2273 2274 2275 2276 2277 2278 2279 2280 2281 2282 2283 2284 2285 2286 2287 2288 2289 2290 2291 2292 2293 2294 2295 2296 2297 2298 2299 2300 2301 2302 2303 2304 2305 2306 2307 2308 2309 2310 2311 2312 2313 2314 2315 2316 2317 2318 2319 2320 2321 2322 2323 2324 2325 2326 2327 2328 2329 2330 2331 2332 2333 2334 2335 2336 2337 2338 2339 2340 2341 2342 2343 2344 2345 2346 2347 2348 2349 2350 2351 2352 2353 2354 2355 2356 2357 2358 2359 2360 2361 2362 2363 2364 2365 2366 2367 2368 2369 2370 2371 2372 2373 2374 2375 2376 2377 2378 2379 2380 2381 2382 2383 2384 2385 2386 2387 2388 2389 2390 2391 2392 2393 2394 2395 2396 2397 2398 2399 2400 2401 2402 2403 2404 2405 2406 2407 2408 2409 2410 2411 2412 2413 2414 2415 2416 2417 2418 2419 2420 2421 2422 2423 2424 2425 2426 2427 2428 2429 2430 2431 2432 2433 2434 2435 2436 2437 2438 2439 2440 2441 2442 2443 2444 2445 2446 2447 2448 2449 2450 2451 2452 2453 2454 2455 2456 2457 2458 2459 2460 2461 2462 2463 2464 2465 2466 2467 2468 2469 2470 2471 2472 2473 2474 2475 2476 2477 2478 2479 2480 2481 2482 2483 2484 2485 2486 2487 2488 2489 2490 2491 2492 2493 2494 2495 2496 2497 2498 2499 2500 2501 2502 2503 2504 2505 2506 2507 2508 2509 2510 2511 2512 2513 2514 2515 2516 2517 2518 2519 2520 2521 2522 2523 2524 2525 2526 2527 2528 2529 2530 2531 2532 2533 2534 2535 2536 2537 2538 2539 2540 2541 2542 2543 2544 2545 2546 2547 2548 2549 2550 2551 2552 2553 2554 2555 2556 2557 2558 2559 2560 2561 2562 2563 2564 2565 2566 2567 2568 2569 2570 2571 2572 2573 2574 2575 2576 2577 2578 2579 2580 2581 2582 2583 2584 2585 2586 2587 2588 2589 2590 2591 2592 2593 2594 2595 2596 2597 2598 2599 2600 2601 2602 2603 2604 2605 2606 2607 2608 2609 2610 2611 2612 2613 2614 2615 2616 2617 2618 2619 2620 2621 2622 2623 2624 2625 2626 2627 2628 2629 2630 2631 2632 2633 2634 2635 2636 2637 2638 2639 2640 2641 2642 2643 2644 2645 2646 2647 2648 2649 2650 2651 2652 2653 2654 2655 2656 2657 2658 2659 2660 2661 2662 2663 2664 2665 2666 2667 2668 2669 2670 2671 2672 2673 2674 2675 2676 2677 2678 2679 2680 2681 2682 2683 2684 2685 2686 2687 2688 2689 2690 2691 2692 2693 2694 2695 2696 2697 2698 2699 2700 2701 2702 2703 2704 2705 2706 2707 2708 2709 2710 2711 2712 2713 2714 2715 2716 2717 2718 2719 2720 2721 2722 2723 2724 2725 2726 2727 2728 2729 2730 2731 2732 2733 2734 2735 2736 2737 2738 2739 2740 2741 2742 2743 2744 2745 2746 2747 2748 2749 2750 2751 2752 2753 2754 2755 2756 2757 2758 2759 2760 2761 2762 2763 2764 2765 2766 2767 2768 2769 2770 2771 2772 2773 2774 2775 2776 2777 2778 2779 2780 2781 2782 2783 2784 2785 2786 2787 2788 2789 2790 2791 2792 2793 2794 2795 2796 2797 2798 2799 2800 2801 2802 2803 2804 2805 2806 2807 2808 2809 2810 2811 2812 2813 2814 2815 2816 2817 2818 2819 2820 2821 2822 2823 2824 2825 2826 2827 2828 2829 2830 2831 2832 2833 2834 2835 2836 2837 2838 2839 2840 2841 2842 2843 2844 2845 2846 2847 2848 2849 2850 2851 2852 2853 2854 2855 2856 2857 2858 2859 2860 2861 2862 2863 2864 2865 2866 2867 2868 2869 2870 2871 2872 2873 2874 2875 2876 2877 2878 2879 2880 2881 2882 2883 2884 2885 2886 2887 2888 2889 2890 2891 2892 2893 2894 2895 2896 2897 2898 2899 2900 2901 2902 2903 2904 2905 2906 2907 2908 2909 2910 2911 2912 2913 2914 2915 2916 2917 2918 2919 2920 2921 2922 2923 2924 2925 2926 2927 2928 2929 2930 2931 2932 2933 2934 2935 2936 2937 2938 2939 2940 2941 2942 2943 2944 2945 2946 2947 2948 2949 2950 2951 2952 2953 2954 2955 2956 2957 2958 2959 2960 2961 2962 2963 2964 2965 2966 2967 2968 2969 2970 2971 2972 2973 2974 2975 2976 2977 2978 2979 2980 2981 2982 2983 2984 2985 2986 2987 2988 2989 2990 2991 2992 2993 2994 2995 2996 2997 2998 2999 3000 3001 3002 3003 3004 3005 3006 3007 3008 3009 3010 3011 3012 3013 3014 3015 3016 3017 3018 3019 3020 3021 3022 3023 3024 3025 3026 3027 3028 3029 3030 3031 3032 3033 3034 3035 3036 3037 3038 3039 3040 3041 3042 3043 3044 3045 3046 3047 3048 3049 3050 3051 3052 3053 3054 3055 3056 3057 3058 3059 3060 3061 3062 3063 3064 3065 3066 3067 3068 3069 3070 3071 3072 3073 3074 3075 3076 3077 3078 3079 3080 3081 3082 3083 3084 3085 3086 3087 3088 3089 3090 3091 3092 3093 3094 3095 3096 3097 3098 3099 3100 3101 3102 3103 3104 3105 3106 3107 3108 3109 3110 3111 3112 3113 3114 3115 3116 3117 3118 3119 3120 3121 3122 3123 3124 3125 3126 3127 3128 3129 3130 3131 3132 3133 3134 3135 3136 3137 3138 3139 3140 3141 
</DataArray>
<DataArray type="UInt32" Name="offsets" format="ascii">
3 6 9 12 15 18 21 24 27 30 33 36 39 42 45 48 51 54 57 60 63 66 69 72 75 78 81 84 87 90 93 96 99 102 105 108 111 114 117 120 123 126 129 132 135 138 141 144 147 150 153 156 159 162 165 168 171 174 177 180 183 186 189 192 195 198 201 204 207 210 213 216 219 222 225 228 231 234 237 240 243 246 249 252 255 258 261 264 267 270 273 276 279 282 285 288 291 294 297 300 303 306 309 312 315 318 321 324 327 330 333 336 339 342 345 348 351 354 357 360 363 366 369 372 375 378 381 384 387 390 393 396 399 402 405 408 411 414 417 420 423 426 429 432 435 438 441 444 447 450 453 456 459 462 465 468 471 474 477 480 483 486 489 492 495 498 501 504 507 510 513 516 519 522 525 528 531 534 537 540 543 546 549 552 555 558 561 564 567 570 573 576 579 582 585 588 591 594 597 600 603 606 609 612 615 618 621 624 627 630 633 636 639 642 645 648 651 654 657 660 663 666 669 672 675 678 681 684 687 690 693 696 699 702 705 708 711 714 717 720 723 726 729 732 735 738 741 744 747 750 753 756 759 762 765 768 771 774 777 780 783 786 789 792 795 798 801 804 807 810 813 816 819 822 825 828 831 834 837 840 843 846 849 852 855 858 861 864 867 870 873 876 879 882 885 888 891 894 897 900 903 906 909 912 915 918 921 924 927 930 933 936 939 942 945 948 951 954 957 960 963 966 969 972 975 978 981 984 987 990 993 996 999 1002 1005 1008 1011 1014 1017 1020 1023 1026 1029 1032 1035 1038 1041 1044 1047 1050 1053 1056 1059 1062 1065 1068 1071 1074 1077 1080 1083 1086 1089 1092 1095 1098 1101 1104 1107 1110 1113 1116 1119 1122 1125 1128 1131 1134 1137 1140 1143 1146 1149 1152 1155 1158 1161 1164 1167 1170 1173 1176 1179 1182 1185 1188 1191 1194 1197 1200 1203 1206 1209 1212 1215 1218 1221 1224 1227 1230 1233 1236 1239 1242 1245 1248 1251 1254 1257 1260 1263 1266 1269 1272 1275 1278 1281 1284 1287 1290 1293 1296 1299 1302 1305 1308 1311 1314 1317 1320 1323 1326 1329 1332 1335 1338 1341 1344 1347 1350 1353 1356 1359 1362 1365 1368 1371 1374 1377 1380 1383 1386 1389 1392 1395 1398 1401 1404 1407 1410 1413 1416 1419 1422 1425 1428 1431 1434 1437 1440 1443 1446 1449 1452 1455 1458 1461 1464 1467 1470 1473 1476 1479 1482 1485 1488 1491 1494 1497 1500 1503 1506 1509 1512 1515 1518 1521 1524 1527 1530 1533 1536 1539 1542 1545 1548 1551 1554 1557 1560 1563 1566 1569 1572 1575 1578 1581 1584 1587 1590 1593 1596 1599 1602 1605 1608 1611 1614 1616 1619 1622 1624 1627 1630 1632 1635 1638 1641 1644 1647 1650 1653 1656 1659 1662 1665 1668 1671 1673 1676 1679 1682 1685 1688 1690 1693 1696 1699 1702 1705 1708 1711 1714 1717 1720 1723 1726 1729 1732 1735 1738 1741 1744 1747 1750 1753 1756 1759 1762 1765 1768 1771 1774 1777 1780 1783 1786 1789 1792 1795 1798 1801 1804 1807 1810 1813 1816 1819 1822 1825 1828 1831 1834 1837 1840 1843 1846 1849 1852 1855 1858 1861 1864 1867 1870 1873 1876 1879 1882 1885 1888 1891 1894 1897 1900 1903 1906 1909 1912 1915 1918 1921 1924 1927 1930 1933 1936 1939 1942 1945 1948 1951 1954 1957 1960 1963 1966 1969 1972 1975 1978 1981 1984 1987 1990 1993 1996 1999 2002 2005 2008 2011 2014 2017 2020 2023 2026 2029 2032 2035 2038 2041 2044 2047 2050 2053 2056 2059 2062 2065 2068 2071 2074 2077 2080 2083 2086 2089 2092 2095 2098 2101 2104 2107 2110 2113 2116 2119 2122 2125 2128 2131 2134 2137 2140 2143 2146 2149 2152 2155 2158 2161 2164 2167 2170 2173 2176 2179 2182 2185 2188 2191 2194 2196 2199 2202 2205 2207 2210 2213 2215 2218 2221 2224 2227 2230 2233 2236 2239 2242 2245 2248 2250 2253 2256 2259 2262 2264 2267 2270 2273 2276 2279 2282 2285 2288 2291 2294 2297 2300 2303 2306 2309 2312 2315 2318 2321 2324 2327 2330 2333 2336 2339 2342 2345 2348 2351 2354 2357 2360 2363 2366 2369 2372 2375 2378 2381 2384 2387 2390 2393 2396 2399 2402 2405 2408 2411 2414 2417 2420 2423 2426 2429 2432 2435 2438 2440 2443 2446 2449 2452 2455 2458 2461 2464 2467 2470 2473 2476 2479 2482 2484 2487 2490 2492 2495 2497 2500 2503 2506 2509 2512 2515 2518 2521 2524 2527 2530 2533 2536 2538 2541 2544 2547 2550 2553 2556 2559 2562 2565 2568 2571 2574 2577 2580 2583 2586 2589 2592 2595 2598 2601 2604 2607 2610 2613 2616 2619 2622 2625 2628 2631 2634 2637 2640 2643 2646 2649 2652 2655 2658 2661 2664 2667 2670 2673 2676 2679 2682 2685 2688 2691 2694 2697 2700 2703 2706 2709 2712 2715 2718 2721 2724 2727 2730 2733 2736 2739 2742 2745 2748 2751 2754 2757 2760 2763 2766 2769 2772 2775 2778 2781 2784 2787 2790 2793 2796 2799 2802 2805 2808 2811 2814 2817 2820 2823 2826 2829 2832 2835 2838 2841 2844 2847 2850 2853 2856 2859 2862 2865 2868 2871 2874 2877 2880 2883 2886 2889 2892 2895 2898 2901 2904 2907 2910 2913 2916 2919 2922 2925 2928 2931 2934 2937 2940 2943 2946 2948 2951 2954 2956 2959 2961 2964 2967 2970 2973 2976 2979 2982 2985 2988 2991 2994 2997 3000 3003 3006 3009 3012 3015 3018 3021 3024 3027 3030 3033 3036 3039 3042 3045 3048 3051 3054 3057 3060 3063 3066 3069 3072 3075 3078 3081 3084 3087 3090 3093 3096 3099 3102 3104 3107 3110 3113 3116 3119 3121 3124 3127 3130 3133 3136 3139 3142 
</DataArray>
<DataArray type="UInt32" Name="types" format="ascii">
5 5 5 5 5 5 5 5 5 5 5 5 5 5 5 5 5 5 5 5 5 5 5 5 5 5 5 5 5 5 5 5 5 5 5 5 5 5 5 5 5 5 5 5 5 5 5 5 5 5 5 5 5 5 5 5 5 5 5 5 5 5 5 5 5 5 5 5 5 5 5 5 5 5 5 5 5 5 5 5 5 5 5 5 5 5 5 5 5 5 5 5 5 5 5 5 5 5 5 5 5 5 5 5 5 5 5 5 5 5 5 5 5 5 5 5 5 5 5 5 5 5 5 5 5 5 5 5 5 5 5 5 5 5 5 5 5 5 5 5 5 5 5 5 5 5 5 5 5 5 5 5 5 5 5 5 5 5 5 5 5 5 5 5 5 5 5 5 5 5 5 5 5 5 5 5 5 5 5 5 5 5 5 5 5 5 5 5 5 5 5 5 5 5 5 5 5 5 5 5 5 5 5 5 5 5 5 5 5 5 5 5 5 5 5 5 5 5 5 5 5 5 5 5 5 5 5 5 5 5 5 5 5 5 5 5 5 5 5 5 5 5 5 5 5 5 5 5 5 5 5 5 5 5 5 5 5 5 5 5 5 5 5 5 5 5 5 5 5 5 5 5 5 5 5 5 5 5 5 5 5 5 5 5 5 5 5 5 5 5 5 5 5 5 5 5 5 5 5 5 5 5 5 5 5 5 5 5 5 5 5 5 5 5 5 5 5 5 5 5 5 5 5 5 5 5 5 5 5 5 5 5 5 5 5 5 5 5 5 5 5 5 5 5 5 5 5 5 5 5 5 5 5 5 5 5 5 5 5 5 5 5 5 5 5 5 5 5 5 5 5 5 5 5 5 5 5 5 5 5 5 5 5 5 5 5 5 5 5 5 5 5 5 5 5 5 5 5 5 5 5 5 5 5 5 5 5 5 5 5 5 5 5 5 5 5 5 5 5 5 5 5 5 5 5 5 5 5 5 5 5 5 5 5 5 5 5 5 5 5 5 5 5 5 5 5 5 5 5 5 5 5 5 5 5 5 5 5 5 5 5 5 5 5 5 5 5 5 5 5 5 5 5 5 5 5 5 5 5 5 5 5 5 5 5 5 5 5 5 5 5 5 5 5 5 5 5 5 5 5 5 5 5 5 5 5 5 5 5 5 5 5 5 5 5 5 5 5 5 5 5 5 5 5 5 5 5 5 5 5 5 5 5 5 5 5 5 5 3 5 5 3 5 5 3 5 5 5 5 5 5 5 5 5 5 5 5 5 3 5 5 5 5 5 3 5 5 5 5 5 5 5 5 5 5 5 5 5 5 5 5 5 5 5 5 5 5 5 5 5 5 5 5 5 5 5 5 5 5 5 5 5 5 5 5 5 5 5 5 5 5 5 5 5 5 5 5 5 5 5 5 5 5 5 5 5 5 5 5 5 5 5 5 5 5 5 5 5 5 5 5 5 5 5 5 5 5 5 5 5 5 5 5 5 5 5 5 5 5 5 5 5 5 5 5 5 5 5 5 5 5 5 5 5 5 5 5 5 5 5 5 5 5 5 5 5 5 5 5 5 5 5 5 5 5 5 5 5 5 5 5 5 5 5 5 5 5 5 5 5 5 5 5 5 5 5 5 5 5 5 5 5 5 5 5 5 5 5 5 5 5 5 5 3 5 5 5 3 5 5 3 5 5 5 5 5 5 5 5 5 5 5 3 5 5 5 5 3 5 5 5 5 5 5 5 5 5 5 5 5 5 5 5 5 5 5 5 5 5 5 5 5 5 5 5 5 5 5 5 5 5 5 5 5 5 5 5 5 5 5 5 5 5 5 5 5 5 5 5 5 5 5 5 5 5 5 3 5 5 5 5 5 5 5 5 5 5 5 5 5 5 3 5 5 3 5 3 5 5 5 5 5 5 5 5 5 5 5 5 5 3 5 5 5 5 5 5 5 5 5 5 5 5 5 5 5 5 5 5 5 5 5 5 5 5 5 5 5 5 5 5 5 5 5 5 5 5 5 5 5 5 5 5 5 5 5 5 5 5 5 5 5 5 5 5 5 5 5 5 5 5 5 5 5 5 5 5 5 5 5 5 5 5 5 5 5 5 5 5 5 5 5 5 5 5 5 5 5 5 5 5 5 5 5 5 5 5 5 5 5 5 5 5 5 5 5 5 5 5 5 5 5 5 5 5 5 5 5 5 5 5 5 5 5 5 5 5 5 5 5 5 5 5 5 5 5 5 3 5 5 3 5 3 5 5 5 5 5 5 5 5 5 5 5 5 5 5 5 5 5 5 5 5 5 5 5 5 5 5 5 5 5 5 5 5 5 5 5 5 5 5 5 5 5 5 5 5 5 5 5 3 5 5 5 5 5 3 5 5 5 5 5 5 5 
</DataArray>
</Cells>
<PointData Scalars="" Vectors="displacement," Tensors="">
<DataArray type="Float64" Name="displacement" NumberOfComponents="3" format="ascii">
-8.0073744346355593e-07 2.0340747692915967e-07 0 -1.5085177845907861e-09 -6.20213389903456e-10 0 -1.7546176590991332e-06 4.2884661335537991e-08 0 -8.0073744346355593e-07 2.0340747692915967e-07 0 -1.5085177845907834e-09 -6.2021338990345549e-10 0 -1.4243999073891917e-09 4.5739980400036738e-10 0 -8.0073744346355593e-07 2.0340747692915967e-07 0 -1.7546176590991332e-06 4.2884661335537991e-08 0 -1.8119112140598342e-06 7.7167319939181535e-07 0 -8.0073744346355593e-07 2.0340747692915967e-07 0 -1.8119112140598342e-06 7.7167319939181535e-07 0 -1.4243999073891917e-09 4.5739980400036738e-10 0 -1.4243999073891917e-09 4.5739980400036738e-10 0 -1.4192810995123926e-09 2.9456959943567115e-10 0 -1.1609478856064061e-06 1.0975699092078006e-06 0 -1.4192810995123926e-09 2.9456959943567115e-10 0 -1.1609478856064061e-06 1.0975699092078006e-06 0 -7.49012635889761e-10 8.4321300846605548e-10 0 -1.8119112140598342e-06 7.7167319939181535e-07 0 -1.1609478856064061e-06 1.0975699092078006e-06 0 -2.5363723290069705e-06 1.661586280275412e-06 0 -1.8119112140598342e-06 7.7167319939181535e-07 0 -1.4243999073891917e-09 4.5739980400036738e-10 0 -1.1609478856064061e-06 1.0975699092078006e-06 0 -1.1609478856064061e-06 1.0975699092078006e-06 0 -2.5363723290069705e-06 1.661586280275412e-06 0 -1.3496310412786497e-06 1.8255327193025997e-06 0 -2.5363723290069705e-06 1.661586280275412e-06 0 -1.3496310412786497e-06 1.8255327193025997e-06 0 -2.5964953141545096e-06 2.3338555160785375e-06 0 -2.5363723290069705e-06 1.661586280275412e-06 0 -3.9183440199276569e-06 2.1530563554736794e-06 0 -2.5964953141545096e-06 2.3338555160785375e-06 0 -3.9183440199276569e-06 2.1530563554736794e-06 0 -2.5964953141545096e-06 2.3338555160785375e-06 0 -3.1506426365802837e-06 2.757284575523113e-06 0 -3.9183440199276569e-06 2.1530563554736794e-06 0 -3.8913461342543718e-06 1.2868024386302102e-06 0 -5.5820467390769668e-06 1.7575553483825846e-06 0 -2.5363723290069705e-06 1.661586280275412e-06 0 -3.9183440199276569e-06 2.1530563554736794e-06 0 -3.8913461342543718e-06 1.2868024386302102e-06 0 -3.8913461342543718e-06 1.2868024386302102e-06 0 -3.9640249869732361e-06 5.3941677404963332e-07 0 -6.6844848580289567e-06 7.4754570242589782e-07 0 -1.7546176590991332e-06 4.2884661335537991e-08 0 -1.8119112140598342e-06 7.7167319939181535e-07 0 -3.9640249869732361e-06 5.3941677404963332e-07 0 -1.8119112140598342e-06 7.7167319939181535e-07 0 -3.8913461342543718e-06 1.2868024386302102e-06 0 -3.9640249869732361e-06 5.3941677404963332e-07 0 -1.8119112140598342e-06 7.7167319939181535e-07 0 -2.5363723290069705e-06 1.661586280275412e-06 0 -3.8913461342543718e-06 1.2868024386302102e-06 0 -1.9381739059910014e-07 1.5258787469623034e-06 0 -4.7286566542074321e-10 6.0590772196497345e-10 0 -2.9002870621102989e-11 7.4489010958600817e-10 0 -1.9381739059910014e-07 1.5258787469623034e-06 0 -4.7286566542074321e-10 6.0590772196497345e-10 0 -4.7586736227832174e-07 1.2749255590395185e-06 0 -1.9381739059910014e-07 1.5258787469623034e-06 0 -4.7586736227832179e-07 1.2749255590395187e-06 0 -8.4505043489261947e-07 2.38196656050715e-06 0 -4.7586736227832174e-07 1.2749255590395185e-06 0 -7.49012635889761e-10 8.4321300846605548e-10 0 -1.3496310412786497e-06 1.8255327193025997e-06 0 -1.1609478856064061e-06 1.0975699092078006e-06 0 -7.49012635889761e-10 8.4321300846605548e-10 0 -1.3496310412786497e-06 1.8255327193025997e-06 0 -4.7586736227832174e-07 1.2749255590395185e-06 0 -1.3496310412786497e-06 1.8255327193025997e-06 0 -8.4505043489261947e-07 2.38196656050715e-06 0 -4.7286566542074321e-10 6.0590772196497345e-10 0 -4.7586736227832174e-07 1.2749255590395185e-06 0 -7.49012635889761e-10 8.4321300846605548e-10 0 -1.3496310412786497e-06 1.8255327193025997e-06 0 -2.5964953141545096e-06 2.3338555160785375e-06 0 -1.8656598342988978e-06 2.6087656540956775e-06 0 -2.5964953141545096e-06 2.3338555160785375e-06 0 -1.8656598342988978e-06 2.6087656540956775e-06 0 -3.1506426365802837e-06 2.757284575523113e-06 0 -1.3496310412786497e-06 1.8255327193025997e-06 0 -1.8656598342988978e-06 2.6087656540956775e-06 0 -8.4505043489261947e-07 2.38196656050715e-06 0 -8.4505043489261947e-07 2.38196656050715e-06 0 -7.0732406327911962e-08 2.6575583716340322e-06 0 -1.2872823585498492e-06 3.0520105344923354e-06 0 -1.8656598342988978e-06 2.6087656540956775e-06 0 -8.4505043489261947e-07 2.38196656050715e-06 0 -1.2872823585498492e-06 3.0520105344923354e-06 0 -1.9381739059910014e-07 1.5258787469623034e-06 0 -8.4505043489261947e-07 2.38196656050715e-06 0 -7.0732406327911962e-08 2.6575583716340322e-06 0 -1.9381739059910014e-07 1.5258787469623034e-06 0 -7.0732406327911962e-08 2.6575583716340322e-06 0 2.1438574915302671e-07 1.6672294108857835e-06 0 -7.0732406327911962e-08 2.6575583716340322e-06 0 -1.6390351483095311e-07 3.088060166432123e-06 0 -1.2872823585498492e-06 3.0520105344923354e-06 0 -4.871227883871013e-07 3.1020939844235361e-06 0 -1.6390351483095292e-07 3.088060166432123e-06 0 -1.2872823585498492e-06 3.0520105344923354e-06 0 -4.871227883871013e-07 3.1020939844235361e-06 0 -1.2872823585498492e-06 3.0520105344923354e-06 0 -2.3567519719308549e-06 2.9614383957953917e-06 0 -2.3567519719308549e-06 2.9614383957953917e-06 0 -3.1506426365802837e-06 2.757284575523113e-06 0 -4.3757839473096193e-06 2.5895006467565262e-06 0 -1.8656598342988978e-06 2.6087656540956775e-06 0 -1.2872823585498492e-06 3.0520105344923354e-06 0 -3.1506426365802837e-06 2.757284575523113e-06 0 -1.2872823585498492e-06 3.0520105344923354e-06 0 -2.3567519719308549e-06 2.9614383957953917e-06 0 -3.1506426365802837e-06 2.757284575523113e-06 0 -3.1506426365802837e-06 2.757284575523113e-06 0 -4.3757839473096193e-06 2.5895006467565262e-06 0 -5.0163875622618818e-06 2.3131629194206882e-06 0 -4.3757839473096193e-06 2.5895006467565262e-06 0 -6.182104566629932e-06 1.8658420311550249e-06 0 -3.2489471692571908e-06 2.4822115281699669e-06 0 -6.182104566629932e-06 1.8658420311550249e-06 0 -3.2489471692571908e-06 2.4822115281699669e-06 0 -5.1522298505223153e-06 1.4637712543812468e-06 0 -3.2489471692571908e-06 2.4822115281699669e-06 0 -5.1522298505223153e-06 1.4637712543812465e-06 0 -3.1020651386088349e-06 1.4698674768216942e-06 0 -2.3567519719308549e-06 2.9614383957953917e-06 0 -4.3757839473096193e-06 2.5895006467565262e-06 0 -3.2489471692571908e-06 2.4822115281699669e-06 0 -4.871227883871013e-07 3.1020939844235361e-06 0 -2.3567519719308549e-06 2.9614383957953917e-06 0 -1.199994324355269e-06 2.5917317621098465e-06 0 -2.3567519719308549e-06 2.9614383957953917e-06 0 -3.2489471692571908e-06 2.4822115281699669e-06 0 -1.199994324355269e-06 2.5917317621098465e-06 0 -3.2489471692571908e-06 2.4822115281699669e-06 0 -1.199994324355269e-06 2.5917317621098465e-06 0 -3.1020651386088349e-06 1.4698674768216942e-06 0 -1.199994324355269e-06 2.5917317621098465e-06 0 6.6726148924201236e-07 2.0178583842395973e-06 0 9.209267671491184e-07 2.8389977988574888e-06 0 -4.871227883871013e-07 3.1020939844235361e-06 0 -1.199994324355269e-06 2.5917317621098465e-06 0 9.209267671491184e-07 2.8389977988574888e-06 0 -7.9795815450324152e-06 1.2330266276505465e-06 0 -6.6844848580289567e-06 7.4754570242589782e-07 0 -5.5820467390769668e-06 1.7575553483825846e-06 0 -7.9795815450324152e-06 1.2330266276505465e-06 0 -5.5820467390769668e-06 1.7575553483825846e-06 0 -7.1381230162906229e-06 1.8470242470667138e-06 0 -7.9795815450324152e-06 1.2330266276505465e-06 0 -6.6844848580289567e-06 7.4754570242589782e-07 0 -9.9140429582258339e-06 2.5286672801242269e-07 0 -3.8913461342543718e-06 1.2868024386302102e-06 0 -6.6844848580289567e-06 7.4754570242589782e-07 0 -5.5820467390769668e-06 1.7575553483825846e-06 0 -3.9183440199276569e-06 2.1530563554736794e-06 0 -5.5820467390769668e-06 1.7575553483825846e-06 0 -5.0163875622618818e-06 2.3131629194206882e-06 0 -3.9183440199276569e-06 2.1530563554736794e-06 0 -3.1506426365802837e-06 2.757284575523113e-06 0 -5.0163875622618818e-06 2.3131629194206882e-06 0 -4.3757839473096193e-06 2.5895006467565262e-06 0 -5.0163875622618818e-06 2.3131629194206882e-06 0 -7.1381230162906229e-06 1.8470242470667138e-06 0 -5.5820467390769668e-06 1.7575553483825846e-06 0 -5.0163875622618818e-06 2.3131629194206882e-06 0 -7.1381230162906229e-06 1.8470242470667138e-06 0 -4.3757839473096193e-06 2.5895006467565262e-06 0 -6.182104566629932e-06 1.8658420311550249e-06 0 -7.1381230162906229e-06 1.8470242470667138e-06 0 -6.182104566629932e-06 1.8658420311550249e-06 0 -7.1381230162906229e-06 1.8470242470667138e-06 0 -8.8527725278293411e-06 1.0398006556718749e-06 0 -6.182104566629932e-06 1.8658420311550249e-06 0 -8.8527725278293411e-06 1.0398006556718749e-06 0 -8.3853945008354855e-06 4.2611430351316076e-07 0 -7.1381230162906229e-06 1.8470242470667138e-06 0 -8.8527725278293411e-06 1.0398006556718749e-06 0 -1.0098722694450987e-05 6.863432361281919e-07 0 -8.8527725278293411e-06 1.0398006556718749e-06 0 -1.0098722694450987e-05 6.863432361281919e-07 0 -1.2236132159259377e-05 -5.3083152537977566e-07 0 -7.9795815450324152e-06 1.2330266276505465e-06 0 -7.1381230162906229e-06 1.8470242470667138e-06 0 -1.0098722694450987e-05 6.863432361281919e-07 0 -7.9795815450324152e-06 1.2330266276505465e-06 0 -1.0098722694450987e-05 6.863432361281919e-07 0 -9.9140429582258339e-06 2.5286672801242269e-07 0 -1.0098722694450987e-05 6.863432361281919e-07 0 -9.9140429582258339e-06 2.5286672801242291e-07 0 -1.3591616360828537e-05 -1.0033319183483473e-06 0 -1.3591616360828537e-05 -1.0033319183483473e-06 0 -1.2236132159259377e-05 -5.3083152537977566e-07 0 -1.7509098018481814e-05 -3.1649588611165563e-06 0 -1.0098722694450987e-05 6.863432361281919e-07 0 -1.3591616360828537e-05 -1.0033319183483473e-06 0 -1.2236132159259377e-05 -5.3083152537977566e-07 0 -1.2236132159259377e-05 -5.3083152537977566e-07 0 -1.7509098018481814e-05 -3.1649588611165563e-06 0 -1.6432001497505063e-05 -3.3609395363259719e-06 0 -1.7509098018481814e-05 -3.1649588611165563e-06 0 -1.6432001497505063e-05 -3.3609395363259723e-06 0 -2.2052613699165401e-05 -6.4281708819913016e-06 0 -1.6432001497505063e-05 -3.3609395363259719e-06 0 -1.996260957376772e-05 -6.3040271373855954e-06 0 -1.4602463918363482e-05 -4.4380860117246054e-06 0 -1.996260957376772e-05 -6.3040271373855954e-06 0 -1.4602463918363482e-05 -4.4380860117246054e-06 0 -2.0225995103616743e-05 -8.9872889121411783e-06 0 -1.6432001497505063e-05 -3.3609395363259719e-06 0 -1.996260957376772e-05 -6.3040271373855954e-06 0 -2.2052613699165401e-05 -6.4281708819913016e-06 0 -1.996260957376772e-05 -6.3040271373855954e-06 0 -2.2052613699165401e-05 -6.4281708819913016e-06 0 -2.7078946253720305e-05 -1.0971934673239539e-05 0 -1.4602463918363482e-05 -4.4380860117246054e-06 0 -9.4104020151864565e-06 -4.2653988352289936e-06 0 -1.38532934309571e-05 -7.9852632713595611e-06 0 -1.4602463918363482e-05 -4.4380860117246054e-06 0 -9.7748078625178132e-06 -1.771556470670885e-06 0 -9.4104020151864565e-06 -4.2653988352289936e-06 0 -1.6432001497505063e-05 -3.3609395363259719e-06 0 -1.4602463918363482e-05 -4.4380860117246054e-06 0 -1.2293107458271952e-05 -1.6847477097297601e-06 0 -1.4602463918363482e-05 -4.4380860117246054e-06 0 -9.7748078625178132e-06 -1.771556470670885e-06 0 -1.2293107458271952e-05 -1.6847477097297601e-06 0 -9.7748078625178132e-06 -1.771556470670885e-06 0 -1.2293107458271952e-05 -1.6847477097297601e-06 0 -8.3853945008354855e-06 4.2611430351316076e-07 0 -1.2236132159259377e-05 -5.3083152537977566e-07 0 -1.6432001497505063e-05 -3.3609395363259719e-06 0 -1.2293107458271952e-05 -1.6847477097297601e-06 0 -1.2236132159259377e-05 -5.3083152537977566e-07 0 -1.229310745827195e-05 -1.6847477097297599e-06 0 -8.3853945008354855e-06 4.2611430351316076e-07 0 -8.8527725278293411e-06 1.0398006556718749e-06 0 -1.2236132159259377e-05 -5.3083152537977566e-07 0 -8.3853945008354855e-06 4.2611430351316076e-07 0 -6.182104566629932e-06 1.8658420311550249e-06 0 -8.3853945008354855e-06 4.2611430351316076e-07 0 -5.1522298505223153e-06 1.4637712543812468e-06 0 -8.3853945008354855e-06 4.2611430351316076e-07 0 -5.1522298505223153e-06 1.4637712543812468e-06 0 -5.9672848377452344e-06 1.0081978791302188e-07 0 -5.1522298505223153e-06 1.4637712543812468e-06 0 -5.9672848377452344e-06 1.0081978791302188e-07 0 -3.1020651386088349e-06 1.4698674768216942e-06 0 -5.9672848377452344e-06 1.0081978791302188e-07 0 -3.2541112085126183e-06 -4.7117182890601864e-07 0 -6.4555280759127548e-06 -1.81430202524258e-06 0 -5.9672848377452344e-06 1.0081978791302188e-07 0 -3.1020651386088349e-06 1.4698674768216942e-06 0 -3.2541112085126183e-06 -4.7117182890601864e-07 0 -9.7748078625178132e-06 -1.771556470670885e-06 0 -8.3853945008354855e-06 4.2611430351316076e-07 0 -5.9672848377452344e-06 1.0081978791302188e-07 0 -1.199994324355269e-06 2.5917317621098465e-06 0 -8.7498490373851062e-07 1.1103419470152771e-06 0 6.6726148924201236e-07 2.0178583842395973e-06 0 -1.199994324355269e-06 2.5917317621098465e-06 0 -8.7498490373851031e-07 1.1103419470152773e-06 0 -3.1020651386088349e-06 1.4698674768216942e-06 0 -8.7498490373851031e-07 1.1103419470152773e-06 0 -3.1020651386088349e-06 1.4698674768216942e-06 0 -3.2541112085126183e-06 -4.7117182890601864e-07 0 -8.7498490373851031e-07 1.1103419470152773e-06 0 -2.0402803764020342e-07 -1.5242569590860539e-06 0 1.6803330414547726e-06 8.2576539143235613e-07 0 -8.7498490373851031e-07 1.1103419470152773e-06 0 -2.0402803764020403e-07 -1.5242569590860537e-06 0 -3.2541112085126183e-06 -4.7117182890601864e-07 0 -2.0402803764020358e-07 -1.5242569590860539e-06 0 -3.2541112085126183e-06 -4.7117182890601864e-07 0 -4.5791115518154657e-06 -3.2520401538323994e-06 0 -2.0402803764020358e-07 -1.5242569590860539e-06 0 -4.5791115518154657e-06 -3.2520401538323994e-06 0 -1.6838031305645021e-06 -5.3001244530547581e-06 0 -2.0402803764020358e-07 -1.5242569590860539e-06 0 -1.6838031305645021e-06 -5.3001244530547581e-06 0 2.5753157745000747e-06 -4.005398203868934e-06 0 -9.7748078625178132e-06 -1.771556470670885e-06 0 -5.9672848377452344e-06 1.0081978791302145e-07 0 -6.4555280759127548e-06 -1.81430202524258e-06 0 -9.7748078625178132e-06 -1.771556470670885e-06 0 -6.4555280759127548e-06 -1.81430202524258e-06 0 -9.4104020151864565e-06 -4.2653988352289936e-06 0 -3.2541112085126183e-06 -4.7117182890601864e-07 0 -6.4555280759127548e-06 -1.81430202524258e-06 0 -4.5791115518154657e-06 -3.2520401538323994e-06 0 -4.5791115518154657e-06 -3.2520401538323994e-06 0 -9.4104020151864565e-06 -4.2653988352289936e-06 0 -7.3795687392617525e-06 -6.9555812168486631e-06 0 -6.4555280759127548e-06 -1.81430202524258e-06 0 -4.5791115518154657e-06 -3.2520401538323994e-06 0 -9.4104020151864565e-06 -4.2653988352289936e-06 0 -9.4104020151864565e-06 -4.2653988352289936e-06 0 -7.3795687392617525e-06 -6.9555812168486631e-06 0 -1.38532934309571e-05 -7.9852632713595611e-06 0 -7.3795687392617525e-06 -6.9555812168486631e-06 0 -3.8517386850694071e-06 -9.6281130780973414e-06 0 -1.171552803835509e-05 -1.2605239530335883e-05 0 -7.3795687392617525e-06 -6.9555812168486631e-06 0 -1.171552803835509e-05 -1.2605239530335883e-05 0 -1.38532934309571e-05 -7.9852632713595611e-06 0 -1.6838031305645021e-06 -5.3001244530547581e-06 0 1.6844119901514518e-06 -8.0289415588363422e-06 0 2.5753157745000747e-06 -4.005398203868934e-06 0 -4.5791115518154657e-06 -3.2520401538323994e-06 0 -7.3795687392617525e-06 -6.9555812168486631e-06 0 -1.6838031305645021e-06 -5.3001244530547581e-06 0 -7.3795687392617525e-06 -6.9555812168486631e-06 0 -1.6838031305645021e-06 -5.3001244530547589e-06 0 -3.8517386850694071e-06 -9.6281130780973414e-06 0 -1.6838031305645021e-06 -5.3001244530547581e-06 0 -3.8517386850694071e-06 -9.6281130780973414e-06 0 1.6844119901514514e-06 -8.0289415588363422e-06 0 -3.8517386850694071e-06 -9.6281130780973414e-06 0 -3.5282729164090566e-07 -1.3299253601679777e-05 0 1.6844119901514514e-06 -8.0289415588363422e-06 0 -3.8517386850694071e-06 -9.6281130780973414e-06 0 -3.5282729164090566e-07 -1.3299253601679777e-05 0 -5.9997136433896106e-06 -1.5961477191418557e-05 0 -5.9997136433896106e-06 -1.5961477191418557e-05 0 -9.4800675290270402e-06 -2.4364174633468686e-05 0 -3.4059585705237301e-06 -2.1335319348703882e-05 0 -3.5282729164090566e-07 -1.3299253601679777e-05 0 -5.9997136433896106e-06 -1.5961477191418557e-05 0 -3.4059585705237301e-06 -2.1335319348703882e-05 0 -3.5282729164090566e-07 -1.3299253601679777e-05 0 2.7408404864524835e-06 -1.7586255605491651e-05 0 -3.4059585705237301e-06 -2.1335319348703882e-05 0 -1.171552803835509e-05 -1.2605239530335883e-05 0 -5.9997136433896106e-06 -1.5961477191418557e-05 0 -1.2900412157061183e-05 -1.9011304004231448e-05 0 -3.8517386850694071e-06 -9.6281130780973414e-06 0 -1.171552803835509e-05 -1.2605239530335883e-05 0 -5.9997136433896106e-06 -1.5961477191418557e-05 0 -5.9997136433896106e-06 -1.5961477191418557e-05 0 -1.2900412157061183e-05 -1.9011304004231448e-05 0 -9.4800675290270402e-06 -2.4364174633468686e-05 0 -1.171552803835509e-05 -1.2605239530335883e-05 0 -1.2900412157061183e-05 -1.9011304004231448e-05 0 -2.0127427805415583e-05 -1.9096008167673563e-05 0 -1.2900412157061183e-05 -1.9011304004231448e-05 0 -2.0127427805415583e-05 -1.9096008167673563e-05 0 -1.722913377119425e-05 -2.4195659532709216e-05 0 -1.171552803835509e-05 -1.2605239530335883e-05 0 -2.0127427805415583e-05 -1.9096008167673563e-05 0 -1.9814119329072269e-05 -1.3219878646039932e-05 0 -2.0127427805415583e-05 -1.9096008167673563e-05 0 -2.7406628779784175e-05 -1.8997476029948683e-05 0 -1.9814119329072269e-05 -1.3219878646039932e-05 0 -2.0127427805415583e-05 -1.9096008167673563e-05 0 -2.7406628779784175e-05 -1.8997476029948686e-05 0 -2.8631213792241286e-05 -2.8187804043125323e-05 0 -2.7406628779784175e-05 -1.8997476029948683e-05 0 -3.7676295582316615e-05 -2.5492664075613807e-05 0 -2.8631213792241286e-05 -2.8187804043125323e-05 0 -2.7406628779784175e-05 -1.8997476029948683e-05 0 -3.7676295582316615e-05 -2.5492664075613807e-05 0 -3.2368159342384562e-05 -1.7337329658399212e-05 0 -2.7406628779784175e-05 -1.8997476029948683e-05 0 -3.2368159342384562e-05 -1.7337329658399212e-05 0 -2.5376753851906475e-05 -1.3706417277818399e-05 0 -2.7406628779784175e-05 -1.8997476029948683e-05 0 -2.5376753851906475e-05 -1.3706417277818399e-05 0 -1.9814119329072269e-05 -1.3219878646039932e-05 0 -2.5376753851906475e-05 -1.3706417277818399e-05 0 -2.7078946253720305e-05 -1.0971934673239539e-05 0 -2.0225995103616743e-05 -8.9872889121411783e-06 0 -2.5376753851906475e-05 -1.3706417277818399e-05 0 -2.022599510361674e-05 -8.9872889121411783e-06 0 -1.9814119329072269e-05 -1.3219878646039932e-05 0 -3.2368159342384562e-05 -1.7337329658399212e-05 0 -2.5376753851906472e-05 -1.3706417277818397e-05 0 -2.7078946253720305e-05 -1.0971934673239539e-05 0 -1.996260957376772e-05 -6.3040271373855954e-06 0 -2.7078946253720305e-05 -1.0971934673239539e-05 0 -2.0225995103616743e-05 -8.9872889121411783e-06 0 -1.4602463918363482e-05 -4.4380860117246054e-06 0 -2.0225995103616743e-05 -8.9872889121411783e-06 0 -1.38532934309571e-05 -7.9852632713595611e-06 0 -1.171552803835509e-05 -1.2605239530335883e-05 0 -1.38532934309571e-05 -7.9852632713595611e-06 0 -1.9814119329072269e-05 -1.3219878646039932e-05 0 -2.0225995103616743e-05 -8.9872889121411783e-06 0 -1.38532934309571e-05 -7.9852632713595611e-06 0 -1.9814119329072269e-05 -1.3219878646039932e-05 0 8.5309917814602852e-06 -3.8492985618486236e-06 0 9.4909339004877036e-06 -1.1053937762491894e-06 0 1.0218648223062363e-05 -2.4412547735591819e-06 0 8.5309917814602852e-06 -3.8492985618486236e-06 0 7.9706706089579484e-06 -2.0744347423312725e-06 0 9.4909339004877036e-06 -1.1053937762491894e-06 0 8.5309917814602852e-06 -3.8492985618486236e-06 0 7.9706706089579484e-06 -2.0744347423312725e-06 0 6.7527348424604477e-06 -4.240505362760473e-06 0 9.4909339004877036e-06 -1.1053937762491894e-06 0 1.1468845429713185e-05 4.651026574159655e-07 0 1.0218648223062363e-05 -2.4412547735591819e-06 0 1.1468845429713185e-05 4.651026574159655e-07 0 1.2907475143491799e-05 1.7810244427072421e-07 0 1.3517456804879491e-05 2.5131724846649972e-06 0 1.1468845429713185e-05 4.651026574159655e-07 0 1.2907475143491799e-05 1.781024442707241e-07 0 1.0218648223062363e-05 -2.4412547735591819e-06 0 1.2907475143491799e-05 1.781024442707241e-07 0 1.0218648223062363e-05 -2.4412547735591819e-06 0 1.1427061180428192e-05 -2.6800532597178095e-06 0 1.0218648223062363e-05 -2.4412547735591819e-06 0 1.1427061180428192e-05 -2.6800532597178095e-06 0 1.0027971255992883e-05 -5.4090082470532489e-06 0 1.2907475143491799e-05 1.781024442707241e-07 0 1.142706118042819e-05 -2.6800532597178095e-06 0 1.2701092895308581e-05 -3.365100728788776e-06 0 1.1427061180428192e-05 -2.6800532597178095e-06 0 1.2701092895308581e-05 -3.365100728788776e-06 0 1.0027971255992883e-05 -5.4090082470532489e-06 0 1.0027971255992883e-05 -5.4090082470532489e-06 0 8.3500359624969842e-06 -6.2405665304134405e-06 0 7.7045914316662277e-06 -9.1844828116779248e-06 0 1.0218648223062363e-05 -2.4412547735591819e-06 0 1.0027971255992883e-05 -5.4090082470532489e-06 0 8.3500359624969842e-06 -6.2405665304134405e-06 0 8.5309917814602852e-06 -3.8492985618486236e-06 0 1.0218648223062363e-05 -2.4412547735591819e-06 0 8.3500359624969842e-06 -6.2405665304134405e-06 0 8.5309917814602852e-06 -3.8492985618486236e-06 0 8.3500359624969842e-06 -6.2405665304134414e-06 0 7.3436892889112869e-06 -6.6982752322190383e-06 0 8.3500359624969842e-06 -6.2405665304134405e-06 0 6.5645325605955403e-06 -9.8982207795882852e-06 0 7.7045914316662277e-06 -9.1844828116779248e-06 0 6.5645325605955403e-06 -9.8982207795882852e-06 0 6.9868754733624541e-06 -1.0105561203838975e-05 0 7.9581336377644905e-06 -1.4776297059064212e-05 0 6.5645325605955403e-06 -9.8982207795882852e-06 0 6.9868754733624541e-06 -1.0105561203838975e-05 0 7.3436892889112869e-06 -6.6982752322190383e-06 0 6.9868754733624541e-06 -1.0105561203838977e-05 0 7.3436892889112869e-06 -6.6982752322190383e-06 0 5.6761716982053221e-06 -6.591545627200939e-06 0 8.3500359624969842e-06 -6.2405665304134405e-06 0 6.5645325605955403e-06 -9.8982207795882852e-06 0 7.3436892889112869e-06 -6.6982752322190383e-06 0 2.7408404864524835e-06 -1.7586255605491651e-05 0 4.9186854050676825e-06 -1.1230477999838957e-05 0 7.9581336377644905e-06 -1.4776297059064212e-05 0 -3.5282729164090566e-07 -1.3299253601679777e-05 0 2.7408404864524835e-06 -1.7586255605491651e-05 0 4.9186854050676825e-06 -1.1230477999838957e-05 0 6.9868754733624541e-06 -1.0105561203838977e-05 0 4.9186854050676825e-06 -1.1230477999838957e-05 0 7.9581336377644905e-06 -1.4776297059064212e-05 0 6.9868754733624541e-06 -1.0105561203838977e-05 0 4.9186854050676825e-06 -1.1230477999838957e-05 0 5.6761716982053221e-06 -6.591545627200939e-06 0 -3.5282729164090566e-07 -1.3299253601679777e-05 0 4.9186854050676825e-06 -1.1230477999838957e-05 0 1.6844119901514514e-06 -8.0289415588363422e-06 0 4.9186854050676825e-06 -1.1230477999838957e-05 0 1.6844119901514514e-06 -8.0289415588363422e-06 0 5.6761716982053221e-06 -6.591545627200939e-06 0 1.6844119901514514e-06 -8.0289415588363422e-06 0 5.6761716982053221e-06 -6.591545627200939e-06 0 2.5753157745000747e-06 -4.005398203868934e-06 0 5.6761716982053221e-06 -6.591545627200939e-06 0 2.5753157745000747e-06 -4.005398203868934e-06 0 5.12429081931424e-06 -2.6442351356176404e-06 0 8.5309917814602852e-06 -3.8492985618486236e-06 0 7.3436892889112869e-06 -6.6982752322190383e-06 0 6.7527348424604477e-06 -4.240505362760473e-06 0 7.3436892889112869e-06 -6.6982752322190383e-06 0 5.6761716982053221e-06 -6.5915456272009382e-06 0 6.7527348424604477e-06 -4.240505362760473e-06 0 5.6761716982053221e-06 -6.591545627200939e-06 0 6.7527348424604477e-06 -4.240505362760473e-06 0 5.12429081931424e-06 -2.6442351356176404e-06 0 6.7527348424604477e-06 -4.240505362760473e-06 0 5.12429081931424e-06 -2.6442351356176404e-06 0 6.6628998693974986e-06 -1.2421044039247751e-07 0 7.9706706089579484e-06 -2.0744347423312725e-06 0 6.7527348424604477e-06 -4.240505362760473e-06 0 6.6628998693974986e-06 -1.2421044039247751e-07 0 5.12429081931424e-06 -2.6442351356176404e-06 0 4.9552087276107544e-06 -4.2487325306807753e-07 0 6.6628998693974986e-06 -1.2421044039247751e-07 0 4.9552087276107544e-06 -4.2487325306807753e-07 0 6.6628998693974986e-06 -1.2421044039247751e-07 0 5.4525442754008656e-06 9.4710021978801694e-07 0 -2.0402803764020358e-07 -1.5242569590860539e-06 0 2.5753157745000747e-06 -4.005398203868934e-06 0 3.1301391838432021e-06 -1.0467037296584791e-06 0 2.5753157745000747e-06 -4.005398203868934e-06 0 5.12429081931424e-06 -2.6442351356176404e-06 0 3.1301391838432021e-06 -1.0467037296584791e-06 0 5.12429081931424e-06 -2.6442351356176404e-06 0 4.9552087276107535e-06 -4.2487325306807737e-07 0 3.1301391838432021e-06 -1.0467037296584791e-06 0 4.9552087276107544e-06 -4.2487325306807753e-07 0 3.1301391838432021e-06 -1.0467037296584791e-06 0 3.8501024574487374e-06 8.7584918266924258e-07 0 -2.0402803764020358e-07 -1.5242569590860539e-06 0 3.1301391838432021e-06 -1.0467037296584789e-06 0 1.6803330414547726e-06 8.2576539143235613e-07 0 3.1301391838432021e-06 -1.0467037296584791e-06 0 1.6803330414547728e-06 8.2576539143235645e-07 0 3.8501024574487374e-06 8.7584918266924258e-07 0 1.6803330414547726e-06 8.2576539143235613e-07 0 3.8501024574487374e-06 8.7584918266924258e-07 0 2.5911491953920754e-06 2.2826766318943971e-06 0 1.6803330414547726e-06 8.2576539143235613e-07 0 6.6726148924201236e-07 2.0178583842395973e-06 0 2.5911491953920754e-06 2.2826766318943971e-06 0 -8.7498490373851031e-07 1.1103419470152773e-06 0 1.6803330414547726e-06 8.2576539143235624e-07 0 6.6726148924201236e-07 2.0178583842395973e-06 0 6.6628998693974986e-06 -1.2421044039247751e-07 0 5.4525442754008665e-06 9.4710021978801694e-07 0 6.4961844714443432e-06 1.7411146948571794e-06 0 4.9552087276107544e-06 -4.2487325306807753e-07 0 5.4525442754008656e-06 9.4710021978801694e-07 0 3.8501024574487374e-06 8.7584918266924258e-07 0 5.4525442754008656e-06 9.4710021978801694e-07 0 3.8501024574487374e-06 8.7584918266924258e-07 0 4.6242329258038661e-06 1.9576391754510438e-06 0 3.8501024574487374e-06 8.7584918266924258e-07 0 4.6242329258038661e-06 1.9576391754510438e-06 0 2.5911491953920754e-06 2.2826766318943971e-06 0 5.4525442754008656e-06 9.4710021978801694e-07 0 4.6242329258038661e-06 1.9576391754510438e-06 0 6.4961844714443432e-06 1.7411146948571794e-06 0 4.6242329258038661e-06 1.9576391754510438e-06 0 6.4961844714443432e-06 1.7411146948571794e-06 0 4.7490930021375884e-06 2.5797505631451922e-06 0 6.4961844714443432e-06 1.7411146948571794e-06 0 8.4847740684550015e-06 1.8683206065318911e-06 0 6.5470943841133825e-06 2.3400925122502773e-06 0 8.4847740684550015e-06 1.8683206065318909e-06 0 8.5600847420931215e-06 2.2912369359657777e-06 0 6.5470943841133825e-06 2.3400925122502773e-06 0 6.4961844714443432e-06 1.7411146948571794e-06 0 8.4847740684550015e-06 1.8683206065318909e-06 0 8.0089354374871246e-06 9.2487502592246469e-07 0 6.6628998693974986e-06 -1.2421044039247751e-07 0 6.4961844714443432e-06 1.7411146948571794e-06 0 8.0089354374871246e-06 9.2487502592246469e-07 0 6.6628998693974986e-06 -1.2421044039247751e-07 0 8.0089354374871246e-06 9.2487502592246469e-07 0 8.4631048144100963e-06 -2.481255044917375e-07 0 8.0089354374871246e-06 9.2487502592246469e-07 0 8.4631048144100963e-06 -2.481255044917375e-07 0 9.9050262846118865e-06 1.0295723620137412e-06 0 8.4847740684550015e-06 1.8683206065318909e-06 0 8.0089354374871246e-06 9.2487502592246469e-07 0 9.9050262846118865e-06 1.0295723620137412e-06 0 9.4909339004877036e-06 -1.1053937762491894e-06 0 8.4631048144100963e-06 -2.481255044917375e-07 0 9.9050262846118865e-06 1.0295723620137412e-06 0 7.9706706089579484e-06 -2.0744347423312725e-06 0 9.4909339004877036e-06 -1.1053937762491896e-06 0 8.4631048144100963e-06 -2.481255044917375e-07 0 7.9706706089579484e-06 -2.0744347423312725e-06 0 6.6628998693974986e-06 -1.2421044039247751e-07 0 8.4631048144100963e-06 -2.481255044917375e-07 0 1.1468845429713185e-05 4.651026574159655e-07 0 1.1702146556752691e-05 1.9546110536277036e-06 0 1.3517456804879491e-05 2.5131724846649972e-06 0 1.1468845429713185e-05 4.651026574159655e-07 0 1.1702146556752691e-05 1.9546110536277036e-06 0 9.9050262846118865e-06 1.0295723620137412e-06 0 9.4909339004877036e-06 -1.1053937762491894e-06 0 1.1468845429713185e-05 4.6510265741596539e-07 0 9.9050262846118865e-06 1.0295723620137412e-06 0 8.4847740684550015e-06 1.8683206065318909e-06 0 9.9050262846118865e-06 1.0295723620137412e-06 0 1.0452892360460608e-05 2.1624453011765629e-06 0 1.1702146556752691e-05 1.9546110536277036e-06 0 1.0452892360460608e-05 2.1624453011765629e-06 0 1.2923152270119128e-05 3.0532332807052729e-06 0 1.1702146556752691e-05 1.9546110536277036e-06 0 9.9050262846118865e-06 1.0295723620137412e-06 0 1.0452892360460608e-05 2.1624453011765629e-06 0 1.0452892360460608e-05 2.1624453011765629e-06 0 8.5600847420931215e-06 2.2912369359657777e-06 0 1.0713943964225942e-05 2.4835579659798533e-06 0 8.4847740684550015e-06 1.8683206065318909e-06 0 1.0452892360460608e-05 2.1624453011765629e-06 0 8.5600847420931215e-06 2.2912369359657777e-06 0 8.5600847420931215e-06 2.2912369359657777e-06 0 8.8000896421828983e-06 2.2335382140908907e-06 0 1.0713943964225942e-05 2.4835579659798533e-06 0 8.8000896421828983e-06 2.2335382140908907e-06 0 6.8117065547262793e-06 2.0618211813037129e-06 0 7.0590521321337976e-06 2.3419478654304319e-06 0 6.8117065547262793e-06 2.0618211813037129e-06 0 7.0590521321337976e-06 2.3419478654304319e-06 0 5.5454982647044004e-06 2.4629250807448766e-06 0 8.5600847420931215e-06 2.2912369359657777e-06 0 7.0590521321337976e-06 2.3419478654304319e-06 0 6.5470943841133825e-06 2.3400925122502773e-06 0 8.5600847420931215e-06 2.2912369359657777e-06 0 8.8000896421828983e-06 2.2335382140908907e-06 0 7.0590521321337976e-06 2.3419478654304319e-06 0 6.4961844714443432e-06 1.7411146948571794e-06 0 6.5470943841133825e-06 2.3400925122502768e-06 0 4.7490930021375884e-06 2.5797505631451922e-06 0 5.5454982647044004e-06 2.4629250807448766e-06 0 3.8828503357772235e-06 2.6717463078953466e-06 0 4.7490930021375884e-06 2.5797505631451922e-06 0 6.5470943841133825e-06 2.3400925122502773e-06 0 5.5454982647044004e-06 2.4629250807448766e-06 0 4.7490930021375884e-06 2.5797505631451922e-06 0 7.0590521321337976e-06 2.3419478654304319e-06 0 6.5470943841133825e-06 2.3400925122502773e-06 0 5.5454982647044004e-06 2.4629250807448766e-06 0 5.5454982647044004e-06 2.4629250807448766e-06 0 3.8524686660393129e-06 2.2420311061884634e-06 0 5.11646431092566e-06 2.0375966997826671e-06 0 5.5454982647044004e-06 2.4629250807448766e-06 0 3.8828503357772235e-06 2.6717463078953466e-06 0 3.8524686660393129e-06 2.2420311061884634e-06 0 3.8828503357772235e-06 2.6717463078953466e-06 0 3.8524686660393129e-06 2.2420311061884634e-06 0 2.5625110666706935e-06 2.3085343889274242e-06 0 3.8524686660393129e-06 2.2420311061884634e-06 0 5.11646431092566e-06 2.0375966997826671e-06 0 3.5486861408504902e-06 1.623725893859524e-06 0 5.11646431092566e-06 2.0375966997826671e-06 0 3.5486861408504902e-06 1.623725893859524e-06 0 4.3094395055559308e-06 1.1781007777195032e-06 0 5.11646431092566e-06 2.0375966997826671e-06 0 4.3094395055559308e-06 1.178100777719503e-06 0 6.1141266623219928e-06 1.5421284943447003e-06 0 6.8117065547262793e-06 2.0618211813037129e-06 0 5.11646431092566e-06 2.0375966997826671e-06 0 6.1141266623219928e-06 1.5421284943447003e-06 0 6.8117065547262793e-06 2.0618211813037129e-06 0 5.5454982647044004e-06 2.4629250807448766e-06 0 5.11646431092566e-06 2.0375966997826671e-06 0 6.6726148924201236e-07 2.0178583842395973e-06 0 9.2092676714911862e-07 2.8389977988574888e-06 0 2.5911491953920754e-06 2.2826766318943971e-06 0 9.209267671491184e-07 2.8389977988574888e-06 0 2.5911491953920754e-06 2.2826766318943971e-06 0 2.4986250631757924e-06 2.913515144287148e-06 0 9.209267671491184e-07 2.8389977988574888e-06 0 2.4986250631757924e-06 2.913515144287148e-06 0 1.0827154694971174e-06 3.1091537514282479e-06 0 2.4986250631757924e-06 2.913515144287148e-06 0 3.6640225271244737e-06 2.5485987956740985e-06 0 3.4393670845568624e-06 2.825635274785147e-06 0 2.5911491953920754e-06 2.2826766318943971e-06 0 2.4986250631757924e-06 2.913515144287148e-06 0 3.6640225271244737e-06 2.5485987956740985e-06 0 4.6242329258038661e-06 1.9576391754510438e-06 0 2.5911491953920754e-06 2.2826766318943971e-06 0 3.6640225271244737e-06 2.5485987956740985e-06 0 4.6242329258038661e-06 1.9576391754510438e-06 0 3.6640225271244737e-06 2.5485987956740985e-06 0 4.7490930021375884e-06 2.5797505631451922e-06 0 3.6640225271244737e-06 2.5485987956740985e-06 0 4.7490930021375884e-06 2.5797505631451922e-06 0 3.4393670845568624e-06 2.825635274785147e-06 0 3.8828503357772235e-06 2.6717463078953466e-06 0 4.7490930021375884e-06 2.5797505631451922e-06 0 3.4393670845568624e-06 2.825635274785147e-06 0 3.8828503357772235e-06 2.6717463078953466e-06 0 3.4393670845568624e-06 2.825635274785147e-06 0 2.1970827087334976e-06 2.9121769626044367e-06 0 3.8828503357772235e-06 2.6717463078953466e-06 0 2.1970827087334976e-06 2.9121769626044367e-06 0 2.5625110666706935e-06 2.3085343889274242e-06 0 2.4986250631757924e-06 2.913515144287148e-06 0 3.4393670845568624e-06 2.825635274785147e-06 0 2.1970827087334976e-06 2.9121769626044367e-06 0 2.4986250631757924e-06 2.913515144287148e-06 0 2.1970827087334976e-06 2.9121769626044367e-06 0 1.0827154694971174e-06 3.1091537514282479e-06 0 2.1970827087334976e-06 2.9121769626044367e-06 0 1.0827154694971174e-06 3.1091537514282479e-06 0 5.2864591144502709e-07 2.9560272194705021e-06 0 -1.6390351483095311e-07 3.088060166432123e-06 0 1.0827154694971174e-06 3.1091537514282479e-06 0 5.2864591144502709e-07 2.9560272194705021e-06 0 -4.871227883871013e-07 3.1020939844235361e-06 0 9.209267671491184e-07 2.8389977988574888e-06 0 1.0827154694971174e-06 3.1091537514282479e-06 0 -4.871227883871013e-07 3.1020939844235361e-06 0 -1.6390351483095311e-07 3.088060166432123e-06 0 1.0827154694971174e-06 3.1091537514282479e-06 0 -7.0732406327911962e-08 2.6575583716340322e-06 0 9.4177675496951506e-07 2.5196984000671446e-06 0 2.1438574915302671e-07 1.6672294108857835e-06 0 -7.0732406327911962e-08 2.6575583716340322e-06 0 -1.6390351483095311e-07 3.088060166432123e-06 0 5.2864591144502709e-07 2.9560272194705021e-06 0 -7.0732406327911962e-08 2.6575583716340322e-06 0 5.2864591144502709e-07 2.9560272194705021e-06 0 9.4177675496951506e-07 2.5196984000671446e-06 0 2.1970827087334976e-06 2.9121769626044367e-06 0 5.2864591144502709e-07 2.9560272194705021e-06 0 9.4177675496951506e-07 2.5196984000671446e-06 0 9.4177675496951506e-07 2.5196984000671446e-06 0 5.8997809278166922e-07 1.4462073947276472e-06 0 2.1438574915302671e-07 1.6672294108857835e-06 0 9.4177675496951506e-07 2.5196984000671446e-06 0 1.4815353674979757e-06 2.2100614953823308e-06 0 5.8997809278166922e-07 1.4462073947276472e-06 0 2.1970827087334976e-06 2.9121769626044367e-06 0 9.4177675496951506e-07 2.5196984000671446e-06 0 1.4815353674979757e-06 2.2100614953823308e-06 0 2.1970827087334976e-06 2.9121769626044367e-06 0 1.4815353674979757e-06 2.2100614953823308e-06 0 2.5625110666706935e-06 2.3085343889274242e-06 0 1.4815353674979757e-06 2.2100614953823308e-06 0 2.5625110666706935e-06 2.3085343889274242e-06 0 1.025943863220115e-06 1.3610828974656226e-06 0 1.4815353674979757e-06 2.2100614953823308e-06 0 5.8997809278166922e-07 1.4462073947276472e-06 0 1.025943863220115e-06 1.3610828974656226e-06 0 6.8968964804092572e-10 6.5944770528369053e-10 0 5.8997809278166922e-07 1.4462073947276472e-06 0 1.025943863220115e-06 1.3610828974656226e-06 0 6.8968964804092572e-10 6.5944770528369053e-10 0 5.8997809278166922e-07 1.4462073947276472e-06 0 4.0502274403997184e-10 6.5521048914178064e-10 0 5.8997809278166922e-07 1.4462073947276472e-06 0 4.0502274403997184e-10 6.5521048914178064e-10 0 2.1438574915302671e-07 1.6672294108857835e-06 0 4.0502274403997184e-10 6.5521048914178064e-10 0 -2.9002870621102989e-11 7.4489010958600817e-10 0 2.1438574915302671e-07 1.6672294108857835e-06 0 -1.9381739059910014e-07 1.5258787469623034e-06 0 -2.9002870621102989e-11 7.4489010958600817e-10 0 2.1438574915302671e-07 1.6672294108857835e-06 0 2.201475949595091e-06 8.7991073598935409e-07 0 3.5486861408504902e-06 1.623725893859524e-06 0 2.1374716981495376e-06 1.5024363767946927e-06 0 2.201475949595091e-06 8.7991073598935409e-07 0 3.5486861408504902e-06 1.623725893859524e-06 0 4.3094395055559308e-06 1.1781007777195032e-06 0 3.8524686660393129e-06 2.2420311061884634e-06 0 3.5486861408504902e-06 1.623725893859524e-06 0 2.1374716981495376e-06 1.5024363767946927e-06 0 3.8524686660393129e-06 2.2420311061884634e-06 0 2.5625110666706935e-06 2.3085343889274242e-06 0 2.1374716981495376e-06 1.5024363767946927e-06 0 2.5625110666706935e-06 2.3085343889274242e-06 0 2.1374716981495372e-06 1.5024363767946927e-06 0 1.025943863220115e-06 1.3610828974656226e-06 0 2.1374716981495376e-06 1.5024363767946927e-06 0 8.8190413051888394e-07 8.3305284561900094e-07 0 1.025943863220115e-06 1.3610828974656226e-06 0 6.8968964804092572e-10 6.5944770528369053e-10 0 1.025943863220115e-06 1.3610828974656226e-06 0 1.0924424827657238e-09 4.3909362833788232e-10 0 8.8190413051888405e-07 8.3305284561900105e-07 0 1.025943863220115e-06 1.3610828974656226e-06 0 1.0924424827657238e-09 4.3909362833788232e-10 0 8.8190413051888405e-07 8.3305284561900105e-07 0 1.0924424827657238e-09 4.3909362833788232e-10 0 1.2905969276254017e-09 3.7010822355446107e-10 0 8.8190413051888405e-07 8.3305284561900105e-07 0 1.2905969276254017e-09 3.7010822355446107e-10 0 9.3309157737242943e-07 6.2259901702271627e-07 0 2.201475949595091e-06 8.7991073598935409e-07 0 9.3309157737242943e-07 6.2259901702271627e-07 0 1.3902874645580495e-09 3.0793305586869567e-10 0 2.201475949595091e-06 8.7991073598935409e-07 0 2.1374716981495376e-06 1.5024363767946927e-06 0 9.3309157737242943e-07 6.2259901702271627e-07 0 2.1374716981495376e-06 1.5024363767946927e-06 0 8.8190413051888394e-07 8.3305284561900105e-07 0 9.3309157737242943e-07 6.2259901702271627e-07 0 1.2905969276254017e-09 3.7010822355446107e-10 0 9.3309157737242943e-07 6.2259901702271627e-07 0 1.3902874645580495e-09 3.0793305586869567e-10 0 2.201475949595091e-06 8.7991073598935409e-07 0 1.3902874645580495e-09 3.0793305586869567e-10 0 1.4329867122039615e-06 2.5646869539865727e-07 0 1.3902874645580495e-09 3.0793305586869567e-10 0 1.5016248484498388e-09 -9.49457501426152e-11 0 1.4329867122039615e-06 2.5646869539865727e-07 0 1.5016248484498388e-09 -9.49457501426152e-11 0 1.4329867122039615e-06 2.5646869539865727e-07 0 1.0935072996330321e-06 -1.0468024895365642e-07 0 1.4329867122039615e-06 2.5646869539865727e-07 0 2.7182643644256961e-06 -2.6256743705297533e-08 0 1.0935072996330321e-06 -1.0468024895365642e-07 0 2.201475949595091e-06 8.7991073598935409e-07 0 1.4329867122039615e-06 2.5646869539865727e-07 0 2.9742721470186524e-06 4.957837228784492e-07 0 2.201475949595091e-06 8.7991073598935409e-07 0 2.9742721470186524e-06 4.957837228784492e-07 0 4.3094395055559308e-06 1.1781007777195032e-06 0 1.4329867122039615e-06 2.5646869539865727e-07 0 2.9742721470186524e-06 4.957837228784492e-07 0 2.7182643644256961e-06 -2.6256743705297533e-08 0 2.9742721470186524e-06 4.957837228784492e-07 0 4.3144089392025815e-06 1.7701042467846582e-07 0 2.7182643644256961e-06 -2.6256743705297533e-08 0 2.9742721470186524e-06 4.957837228784492e-07 0 4.3094395055559308e-06 1.1781007777195032e-06 0 4.3144089392025815e-06 1.7701042467846582e-07 0 3.6645105706136341e-06 -6.1785211290178884e-07 0 4.3144089392025815e-06 1.7701042467846582e-07 0 2.7182643644256961e-06 -2.6256743705297533e-08 0 3.6645105706136341e-06 -6.1785211290178884e-07 0 1.5682002349301189e-06 -5.6514786041571781e-07 0 2.6938330009437821e-06 -1.2593166815823631e-06 0 3.6645105706136341e-06 -6.1785211290178884e-07 0 2.7182643644256965e-06 -2.6256743705297537e-08 0 1.5682002349301189e-06 -5.6514786041571781e-07 0 2.7182643644256961e-06 -2.6256743705297533e-08 0 1.5682002349301189e-06 -5.6514786041571781e-07 0 1.0935072996330321e-06 -1.0468024895365642e-07 0 1.5016248484498388e-09 -9.49457501426152e-11 0 1.0935072996330321e-06 -1.0468024895365642e-07 0 1.5298786274777133e-09 1.7354197429056632e-11 0 1.5682002349301189e-06 -5.6514786041571781e-07 0 1.5298786274777133e-09 1.7354197429056632e-11 0 1.1884643281208401e-09 -4.8465953159350848e-10 0 1.5682002349301189e-06 -5.6514786041571781e-07 0 1.0935072996330321e-06 -1.0468024895365639e-07 0 1.5298786274777133e-09 1.7354197429056632e-11 0 1.1884643281208401e-09 -4.8465953159350848e-10 0 1.2133639295126417e-06 -1.0951712902743338e-06 0 8.7530264353348153e-10 -6.1449907374365887e-10 0 1.5682002349301189e-06 -5.6514786041571781e-07 0 1.2133639295126413e-06 -1.0951712902743338e-06 0 2.6938330009437821e-06 -1.2593166815823631e-06 0 1.5682002349301189e-06 -5.6514786041571781e-07 0 1.1884643281208401e-09 -4.8465953159350848e-10 0 1.2133639295126417e-06 -1.0951712902743338e-06 0 8.7530264353348153e-10 -6.1449907374365887e-10 0 7.8345321722920025e-07 -1.7253888202575439e-06 0 3.7906776271465138e-10 -9.1038413661798051e-10 0 1.2133639295126417e-06 -1.0951712902743338e-06 0 8.7530264353348153e-10 -6.1449907374365887e-10 0 7.8345321722920025e-07 -1.7253888202575439e-06 0 7.8345321722920025e-07 -1.7253888202575439e-06 0 3.7906776271465138e-10 -9.1038413661798051e-10 0 1.7581052357909634e-07 -1.8699987528512544e-06 0 7.8345321722920025e-07 -1.7253888202575439e-06 0 2.6092697821578899e-06 -2.1997330701217845e-06 0 9.8883263688103071e-07 -2.933602885198436e-06 0 2.6092697821578899e-06 -2.1997330701217845e-06 0 2.3339919361963465e-06 -2.8777550791159804e-06 0 9.8883263688103071e-07 -2.933602885198436e-06 0 1.2133639295126417e-06 -1.0951712902743338e-06 0 7.8345321722920035e-07 -1.7253888202575441e-06 0 2.6092697821578899e-06 -2.1997330701217845e-06 0 2.3339919361963465e-06 -2.87775507911598e-06 0 9.8883263688103071e-07 -2.933602885198436e-06 0 1.9073456244013204e-06 -3.3240726085743352e-06 0 1.2133639295126417e-06 -1.0951712902743338e-06 0 2.6092697821578899e-06 -2.1997330701217841e-06 0 2.6938330009437821e-06 -1.2593166815823631e-06 0 2.6092697821578899e-06 -2.1997330701217845e-06 0 2.6938330009437821e-06 -1.2593166815823631e-06 0 4.2356527517095724e-06 -1.2092800150784635e-06 0 3.6645105706136341e-06 -6.1785211290178884e-07 0 2.6938330009437821e-06 -1.2593166815823631e-06 0 4.2356527517095724e-06 -1.2092800150784635e-06 0 2.6092697821578899e-06 -2.1997330701217845e-06 0 4.2356527517095724e-06 -1.2092800150784635e-06 0 5.6697315131023745e-06 -1.5426480244331036e-06 0 4.2356527517095724e-06 -1.2092800150784635e-06 0 5.6697315131023745e-06 -1.5426480244331036e-06 0 6.1544741926596833e-06 -2.7411936634940712e-07 0 5.6697315131023745e-06 -1.5426480244331036e-06 0 8.0675349156186262e-06 -3.4003929244179083e-08 0 6.1544741926596833e-06 -2.7411936634940712e-07 0 2.6092697821578899e-06 -2.1997330701217845e-06 0 5.6697315131023745e-06 -1.5426480244331038e-06 0 3.9217710873077882e-06 -2.544039320190347e-06 0 2.3339919361963465e-06 -2.87775507911598e-06 0 3.9217710873077882e-06 -2.544039320190347e-06 0 1.9073456244013204e-06 -3.3240726085743352e-06 0 2.6092697821578899e-06 -2.1997330701217845e-06 0 2.3339919361963469e-06 -2.87775507911598e-06 0 3.9217710873077882e-06 -2.544039320190347e-06 0 5.6697315131023745e-06 -1.5426480244331036e-06 0 3.9217710873077882e-06 -2.544039320190347e-06 0 5.3845340050341459e-06 -2.1677267816257474e-06 0 3.9217710873077882e-06 -2.544039320190347e-06 0 1.9073456244013204e-06 -3.3240726085743352e-06 0 2.6781276907967688e-06 -3.3486474359684854e-06 0 3.9217710873077882e-06 -2.544039320190347e-06 0 5.3845340050341459e-06 -2.1677267816257474e-06 0 2.6781276907967688e-06 -3.3486474359684854e-06 0 5.3845340050341459e-06 -2.1677267816257474e-06 0 6.0969983065068838e-06 -1.9278574339530301e-06 0 2.6781276907967688e-06 -3.3486474359684854e-06 0 5.3845340050341459e-06 -2.1677267816257474e-06 0 6.0969983065068838e-06 -1.9278574339530301e-06 0 8.3370419214711958e-06 -7.1334860734101731e-07 0 6.0969983065068838e-06 -1.9278574339530301e-06 0 8.3370419214711958e-06 -7.1334860734101731e-07 0 9.2437709836492573e-06 -1.1834397293829714e-07 0 6.0969983065068838e-06 -1.9278574339530301e-06 0 2.3016591569719572e-06 -2.9360720814259309e-06 0 6.1411203747518654e-06 -1.2363404854791883e-06 0 6.0969983065068838e-06 -1.9278574339530301e-06 0 6.1411203747518654e-06 -1.2363404854791883e-06 0 9.2437709836492573e-06 -1.1834397293829714e-07 0 5.6697315131023745e-06 -1.5426480244331036e-06 0 8.3370419214711958e-06 -7.1334860734101742e-07 0 8.0675349156186262e-06 -3.4003929244179083e-08 0 5.6697315131023745e-06 -1.5426480244331036e-06 0 5.3845340050341459e-06 -2.1677267816257474e-06 0 8.3370419214711958e-06 -7.1334860734101731e-07 0 8.3370419214711958e-06 -7.1334860734101731e-07 0 1.0472597735496373e-05 8.9698012347833914e-07 0 8.0675349156186262e-06 -3.4003929244179083e-08 0 8.3370419214711958e-06 -7.1334860734101731e-07 0 1.0472597735496373e-05 8.9698012347833914e-07 0 1.2048067675620398e-05 1.502684742711612e-06 0 1.0472597735496373e-05 8.9698012347833914e-07 0 8.0675349156186262e-06 -3.4003929244179083e-08 0 9.5686177612135104e-06 1.2208150151844338e-06 0 1.0472597735496373e-05 8.9698012347833914e-07 0 9.5686177612135104e-06 1.2208150151844338e-06 0 1.1699982971245347e-05 1.9339649597920678e-06 0 8.0675349156186262e-06 -3.4003929244179083e-08 0 9.5686177612135104e-06 1.2208150151844338e-06 0 7.4749128538477293e-06 6.2068703706157329e-07 0 9.5686177612135104e-06 1.2208150151844338e-06 0 7.9207066648535719e-06 1.5506853921938223e-06 0 7.4749128538477293e-06 6.2068703706157329e-07 0 9.5686177612135104e-06 1.2208150151844338e-06 0 1.0396279527665097e-05 2.0908946029242352e-06 0 1.1699982971245347e-05 1.9339649597920678e-06 0 9.5686177612135104e-06 1.2208150151844338e-06 0 7.9207066648535719e-06 1.5506853921938223e-06 0 1.0396279527665097e-05 2.0908946029242352e-06 0 8.8000896421828983e-06 2.2335382140908907e-06 0 7.9207066648535719e-06 1.5506853921938223e-06 0 1.0396279527665097e-05 2.0908946029242352e-06 0 6.8117065547262793e-06 2.0618211813037129e-06 0 7.9207066648535719e-06 1.5506853921938223e-06 0 6.1141266623219928e-06 1.5421284943447003e-06 0 8.8000896421828983e-06 2.2335382140908907e-06 0 6.8117065547262793e-06 2.0618211813037129e-06 0 7.9207066648535719e-06 1.5506853921938223e-06 0 7.9207066648535719e-06 1.5506853921938223e-06 0 5.7622746856712891e-06 7.1577716281553946e-07 0 7.4749128538477293e-06 6.2068703706157329e-07 0 7.9207066648535719e-06 1.5506853921938223e-06 0 6.1141266623219928e-06 1.5421284943447005e-06 0 5.7622746856712891e-06 7.1577716281553957e-07 0 4.3094395055559308e-06 1.1781007777195032e-06 0 6.1141266623219928e-06 1.5421284943447003e-06 0 5.7622746856712891e-06 7.1577716281553957e-07 0 4.3094395055559308e-06 1.1781007777195032e-06 0 4.3144089392025815e-06 1.7701042467846582e-07 0 5.7622746856712891e-06 7.1577716281553957e-07 0 4.3144089392025815e-06 1.7701042467846582e-07 0 5.7622746856712891e-06 7.1577716281553957e-07 0 6.1544741926596833e-06 -2.7411936634940712e-07 0 3.6645105706136341e-06 -6.1785211290178884e-07 0 4.3144089392025815e-06 1.7701042467846582e-07 0 6.1544741926596833e-06 -2.7411936634940712e-07 0 3.6645105706136341e-06 -6.1785211290178884e-07 0 4.2356527517095724e-06 -1.2092800150784635e-06 0 6.1544741926596833e-06 -2.7411936634940712e-07 0 8.0675349156186262e-06 -3.4003929244179083e-08 0 6.1544741926596833e-06 -2.7411936634940712e-07 0 7.4749128538477293e-06 6.2068703706157329e-07 0 5.7622746856712891e-06 7.1577716281553957e-07 0 6.1544741926596833e-06 -2.7411936634940691e-07 0 7.4749128538477293e-06 6.2068703706157329e-07 0 -5.2604605612176395e-06 -1.3055640009021412e-06 0 -5.1453228111605029e-06 -2.3606581817606122e-06 0 -9.1822958186593576e-06 -1.741643459821353e-06 0 -5.1453228111605029e-06 -2.3606581817606122e-06 0 -2.353332235476543e-06 -1.3934060361221258e-06 0 -3.1384782575135454e-06 -2.7233889449123051e-06 0 -5.2604605612176395e-06 -1.3055640009021412e-06 0 -2.2274116052280769e-06 -3.8729855908951359e-07 0 -2.353332235476543e-06 -1.3934060361221258e-06 0 -5.2604605612176395e-06 -1.3055640009021412e-06 0 -5.1453228111605029e-06 -2.3606581817606122e-06 0 -2.353332235476543e-06 -1.3934060361221258e-06 0 -2.2274116052280769e-06 -3.8729855908951359e-07 0 -1.0223319876399785e-06 -4.3807627305039226e-07 0 -2.353332235476543e-06 -1.3934060361221258e-06 0 -2.2274116052280769e-06 -3.8729855908951359e-07 0 -1.6960896742057943e-09 6.9343159949465504e-10 0 -1.0223319876399785e-06 -4.3807627305039226e-07 0 -1.6960896742057943e-09 6.9343159949465504e-10 0 -1.0223319876399785e-06 -4.3807627305039226e-07 0 -1.9205900965228846e-09 -7.4624331408705615e-10 0 -1.0223319876399785e-06 -4.3807627305039226e-07 0 -1.9205900965228705e-09 -7.4624331408704612e-10 0 -2.353332235476543e-06 -1.3934060361221258e-06 0 -1.9205900965228846e-09 -7.4624331408705615e-10 0 -2.353332235476543e-06 -1.3934060361221258e-06 0 -1.4128568403807106e-06 -1.7464343383293355e-06 0 -2.353332235476543e-06 -1.3934060361221258e-06 0 -1.4128568403807106e-06 -1.7464343383293357e-06 0 -3.1384782575135454e-06 -2.7233889449123051e-06 0 -1.9205900965228846e-09 -7.4624331408705615e-10 0 -1.7195584948345176e-09 -4.8395485481676893e-10 0 -1.4128568403807106e-06 -1.7464343383293355e-06 0 -1.7195584948348381e-09 -4.8395485481716557e-10 0 -1.4128568403807106e-06 -1.7464343383293355e-06 0 -7.5538602896124841e-10 -1.2621338750705429e-09 0 -1.4128568403807106e-06 -1.7464343383293355e-06 0 -3.1384782575135454e-06 -2.7233889449123051e-06 0 -1.3920454157147364e-06 -2.6877879034921039e-06 0 -3.1384782575135454e-06 -2.7233889449123051e-06 0 -2.858971010911483e-06 -3.5824899934100986e-06 0 -1.3920454157147364e-06 -2.6877879034921039e-06 0 -5.1453228111605029e-06 -2.3606581817606122e-06 0 -3.1384782575135454e-06 -2.7233889449123051e-06 0 -4.8518586789141471e-06 -3.5552048675861119e-06 0 -5.1453228111605029e-06 -2.3606581817606122e-06 0 -4.8518586789141462e-06 -3.5552048675861123e-06 0 -7.3829802707829499e-06 -3.1501206900102076e-06 0 -4.8518586789141471e-06 -3.5552048675861119e-06 0 -2.858971010911483e-06 -3.5824899934100986e-06 0 -3.1378673006354153e-06 -4.1606771186232435e-06 0 -3.1384782575135454e-06 -2.7233889449123051e-06 0 -4.8518586789141471e-06 -3.5552048675861119e-06 0 -2.858971010911483e-06 -3.5824899934100986e-06 0 -2.858971010911483e-06 -3.5824899934100986e-06 0 -1.5966296675833423e-06 -3.7315231724147073e-06 0 -3.1378673006354153e-06 -4.1606771186232435e-06 0 -1.5966296675833423e-06 -3.7315231724147073e-06 0 -1.3920454157147364e-06 -2.6877879034921039e-06 0 -2.9152859721328254e-07 -3.1071591873195105e-06 0 -2.858971010911483e-06 -3.5824899934100986e-06 0 -1.5966296675833423e-06 -3.7315231724147073e-06 0 -1.3920454157147364e-06 -2.6877879034921039e-06 0 -1.3920454157147364e-06 -2.6877879034921039e-06 0 -7.5538602896124841e-10 -1.2621338750705429e-09 0 -3.296526604794953e-07 -1.7444752493012459e-06 0 -1.4128568403807106e-06 -1.7464343383293355e-06 0 -1.3920454157147364e-06 -2.6877879034921039e-06 0 -7.5538602896124841e-10 -1.2621338750705429e-09 0 -7.5538602896124841e-10 -1.2621338750705429e-09 0 -3.296526604794953e-07 -1.7444752493012459e-06 0 -2.4997686992377935e-10 -8.3491614020886612e-10 0 -1.3920454157147364e-06 -2.6877879034921039e-06 0 -3.296526604794953e-07 -1.7444752493012459e-06 0 -2.9152859721328254e-07 -3.1071591873195105e-06 0 -3.296526604794953e-07 -1.7444752493012459e-06 0 1.7581052357909634e-07 -1.8699987528512544e-06 0 -2.9152859721328254e-07 -3.1071591873195105e-06 0 -3.296526604794953e-07 -1.7444752493012459e-06 0 -2.4997686992377935e-10 -8.3491614020886612e-10 0 1.7581052357909634e-07 -1.8699987528512544e-06 0 -2.4997686992377935e-10 -8.3491614020886612e-10 0 3.7906776271465138e-10 -9.1038413661798051e-10 0 1.7581052357909634e-07 -1.8699987528512544e-06 0 7.8345321722920025e-07 -1.7253888202575439e-06 0 1.7581052357909634e-07 -1.8699987528512544e-06 0 9.8883263688103071e-07 -2.933602885198436e-06 0 1.7581052357909634e-07 -1.8699987528512544e-06 0 9.8883263688103071e-07 -2.933602885198436e-06 0 -2.9152859721328254e-07 -3.1071591873195105e-06 0 -1.5966296675833423e-06 -3.7315231724147073e-06 0 -2.9152859721328254e-07 -3.1071591873195105e-06 0 -1.6953418532019697e-08 -3.93874825451648e-06 0 9.8883263688103071e-07 -2.933602885198436e-06 0 -2.9152859721328248e-07 -3.1071591873195105e-06 0 -1.6953418532019697e-08 -3.93874825451648e-06 0 9.8883263688103071e-07 -2.933602885198436e-06 0 1.9073456244013204e-06 -3.3240726085743352e-06 0 -1.6953418532019697e-08 -3.93874825451648e-06 0 1.9073456244013204e-06 -3.3240726085743352e-06 0 -1.6953418532019697e-08 -3.93874825451648e-06 0 2.6781276907967688e-06 -3.3486474359684854e-06 0 -1.6953418532019697e-08 -3.93874825451648e-06 0 2.6781276907967688e-06 -3.3486474359684854e-06 0 -1.2102027576548103e-06 -4.1142775059633193e-06 0 6.0969983065068838e-06 -1.9278574339530301e-06 0 2.6781276907967693e-06 -3.3486474359684854e-06 0 2.3016591569719572e-06 -2.9360720814259309e-06 0 2.3016591569719572e-06 -2.9360720814259309e-06 0 -1.3959431362641507e-06 -3.4070260516733254e-06 0 -6.9674895213799675e-07 -2.0635673798442271e-06 0 2.3016591569719572e-06 -2.9360720814259309e-06 0 -1.3959431362641507e-06 -3.4070260516733254e-06 0 -1.2102027576548103e-06 -4.1142775059633193e-06 0 2.6781276907967688e-06 -3.3486474359684854e-06 0 2.3016591569719572e-06 -2.9360720814259309e-06 0 -1.2102027576548103e-06 -4.1142775059633193e-06 0 -1.3959431362641507e-06 -3.4070260516733254e-06 0 -5.2837329019919354e-06 -3.9717577333705097e-06 0 -1.2102027576548103e-06 -4.1142775059633193e-06 0 -1.3959431362641507e-06 -3.4070260516733254e-06 0 -5.3598224455418613e-06 -2.8953213740672932e-06 0 -6.9674895213799675e-07 -2.0635673798442271e-06 0 -1.3959431362641507e-06 -3.4070260516733254e-06 0 -5.3598224455418613e-06 -2.8953213740672932e-06 0 -5.2837329019919354e-06 -3.9717577333705097e-06 0 -5.2837329019919354e-06 -3.9717577333705097e-06 0 -1.2102027576548103e-06 -4.1142775059633193e-06 0 -3.1378673006354153e-06 -4.1606771186232435e-06 0 -5.2837329019919354e-06 -3.9717577333705097e-06 0 -3.1378673006354153e-06 -4.1606771186232435e-06 0 -6.0665330199083614e-06 -3.852866183468232e-06 0 -1.6953418532019697e-08 -3.93874825451648e-06 0 -1.2102027576548103e-06 -4.1142775059633193e-06 0 -3.1378673006354153e-06 -4.1606771186232435e-06 0 -1.5966296675833423e-06 -3.7315231724147073e-06 0 -1.6953418532019697e-08 -3.93874825451648e-06 0 -3.1378673006354153e-06 -4.1606771186232435e-06 0 -4.8518586789141471e-06 -3.5552048675861119e-06 0 -3.1378673006354153e-06 -4.1606771186232435e-06 0 -6.0665330199083614e-06 -3.852866183468232e-06 0 -4.8518586789141471e-06 -3.5552048675861119e-06 0 -6.0665330199083606e-06 -3.852866183468232e-06 0 -7.3829802707829499e-06 -3.1501206900102076e-06 0 -6.0665330199083614e-06 -3.852866183468232e-06 0 -9.3584668138449044e-06 -3.2703831843388941e-06 0 -7.3829802707829499e-06 -3.1501206900102076e-06 0 -5.2837329019919354e-06 -3.9717577333705097e-06 0 -6.0665330199083614e-06 -3.852866183468232e-06 0 -9.3584668138449044e-06 -3.2703831843388941e-06 0 -5.2837329019919354e-06 -3.9717577333705097e-06 0 -1.1064714760845548e-05 -2.3451502001936472e-06 0 -9.3584668138449044e-06 -3.2703831843388941e-06 0 -5.3598224455418613e-06 -2.8953213740672932e-06 0 -5.2837329019919354e-06 -3.9717577333705097e-06 0 -1.1064714760845548e-05 -2.3451502001936472e-06 0 -1.1064714760845548e-05 -2.3451502001936472e-06 0 -9.3584668138449044e-06 -3.2703831843388941e-06 0 -1.4427700175923675e-05 -1.7433751848510793e-06 0 -9.3584668138449044e-06 -3.2703831843388941e-06 0 -1.4427700175923675e-05 -1.7433751848510793e-06 0 -1.1062804524206376e-05 -2.4859542423221599e-06 0 -1.1064714760845548e-05 -2.3451502001936472e-06 0 -1.4427700175923675e-05 -1.7433751848510793e-06 0 -1.8332947163129774e-05 3.4222228933896305e-07 0 -1.4427700175923675e-05 -1.7433751848510793e-06 0 -1.3992901416792932e-05 -1.1140171973002464e-06 0 -1.9784320876017867e-05 6.9690504267996917e-07 0 -1.4427700175923675e-05 -1.7433751848510793e-06 0 -1.3992901416792932e-05 -1.1140171973002464e-06 0 -1.1062804524206376e-05 -2.4859542423221599e-06 0 -1.3992901416792932e-05 -1.1140171973002464e-06 0 -1.1062804524206376e-05 -2.4859542423221599e-06 0 -9.1822958186593576e-06 -1.741643459821353e-06 0 -9.3584668138449044e-06 -3.2703831843388941e-06 0 -1.1062804524206376e-05 -2.4859542423221599e-06 0 -7.3829802707829499e-06 -3.1501206900102076e-06 0 -1.1062804524206376e-05 -2.4859542423221599e-06 0 -7.3829802707829499e-06 -3.1501206900102076e-06 0 -9.1822958186593576e-06 -1.741643459821353e-06 0 -5.1453228111605029e-06 -2.3606581817606122e-06 0 -7.3829802707829508e-06 -3.1501206900102076e-06 0 -9.1822958186593576e-06 -1.741643459821353e-06 0 -3.4450636788696531e-05 1.0193363408902104e-05 0 -3.0373737456345056e-05 1.0030456243826077e-05 0 -2.4170439746050633e-05 4.8158559931177484e-06 0 -3.4450636788696531e-05 1.0193363408902104e-05 0 -3.0373737456345056e-05 1.0030456243826077e-05 0 -4.3721234280812026e-05 1.8704023251095188e-05 0 -3.0373737456345056e-05 1.0030456243826077e-05 0 -2.4170439746050633e-05 4.8158559931177484e-06 0 -2.1003135244325269e-05 7.4100724029924127e-06 0 -3.0373737456345056e-05 1.0030456243826077e-05 0 -2.1003135244325269e-05 7.4100724029924127e-06 0 -3.046917177620099e-05 1.5163949546547533e-05 0 -3.4450636788696531e-05 1.0193363408902104e-05 0 -2.4170439746050633e-05 4.8158559931177484e-06 0 -2.6501311547891932e-05 4.2701737912103019e-06 0 -2.6501311547891932e-05 4.2701737912103019e-06 0 -1.9784320876017867e-05 6.9690504267996917e-07 0 -1.8332947163129774e-05 3.4222228933896305e-07 0 -1.4427700175923675e-05 -1.7433751848510793e-06 0 -1.9784320876017867e-05 6.9690504267996917e-07 0 -1.8332947163129774e-05 3.4222228933896305e-07 0 -2.4170439746050633e-05 4.8158559931177484e-06 0 -2.6501311547891932e-05 4.2701737912103019e-06 0 -1.8332947163129774e-05 3.4222228933896305e-07 0 -2.4170439746050633e-05 4.8158559931177484e-06 0 -1.8332947163129774e-05 3.4222228933896305e-07 0 -1.3919626620884621e-05 1.3242868363319599e-06 0 -1.1064714760845548e-05 -2.3451502001936472e-06 0 -8.9142086296246266e-06 -1.3458119541958408e-06 0 -1.3919626620884621e-05 1.3242868363319599e-06 0 -1.1064714760845548e-05 -2.3451502001936472e-06 0 -1.8332947163129774e-05 3.4222228933896331e-07 0 -1.3919626620884621e-05 1.3242868363319599e-06 0 -5.3598224455418613e-06 -2.8953213740672932e-06 0 -1.1064714760845548e-05 -2.3451502001936472e-06 0 -8.9142086296246266e-06 -1.3458119541958411e-06 0 -1.3919626620884621e-05 1.3242868363319599e-06 0 -2.1003135244325269e-05 7.4100724029924127e-06 0 -1.3087787198440742e-05 6.479037796944039e-06 0 -2.4170439746050633e-05 4.8158559931177484e-06 0 -1.3919626620884621e-05 1.3242868363319597e-06 0 -2.1003135244325269e-05 7.4100724029924127e-06 0 -2.1003135244325269e-05 7.4100724029924127e-06 0 -1.3087787198440742e-05 6.479037796944039e-06 0 -1.9163208689646834e-05 1.3460358331970155e-05 0 -1.3087787198440742e-05 6.479037796944039e-06 0 -5.4083440282446896e-06 2.830166371854509e-06 0 -5.7526634274321422e-06 1.0737659450072337e-05 0 -5.4083440282446896e-06 2.8301663718545094e-06 0 9.1906788272213823e-07 4.888091250661305e-06 0 -5.7526634274321422e-06 1.0737659450072337e-05 0 -5.4083440282446896e-06 2.8301663718545094e-06 0 1.0741240212526681e-07 5.4076351323795831e-07 0 9.1906788272213823e-07 4.888091250661305e-06 0 -1.3919626620884621e-05 1.3242868363319599e-06 0 -1.3087787198440742e-05 6.479037796944039e-06 0 -5.4083440282446896e-06 2.8301663718545094e-06 0 -1.3919626620884621e-05 1.3242868363319599e-06 0 -5.4083440282446905e-06 2.8301663718545098e-06 0 -5.0673766001969858e-06 -4.9959968492694295e-07 0 -8.9142086296246266e-06 -1.3458119541958411e-06 0 -1.3919626620884621e-05 1.3242868363319599e-06 0 -5.0673766001969858e-06 -4.9959968492694295e-07 0 -5.3598224455418613e-06 -2.8953213740672932e-06 0 -8.9142086296246266e-06 -1.3458119541958411e-06 0 -5.0673766001969858e-06 -4.9959968492694295e-07 0 -5.3598224455418613e-06 -2.8953213740672932e-06 0 -5.0673766001969849e-06 -4.9959968492694306e-07 0 -6.9674895213799675e-07 -2.0635673798442271e-06 0 -5.0673766001969858e-06 -4.9959968492694295e-07 0 -6.9674895213799675e-07 -2.0635673798442271e-06 0 1.0741240212526681e-07 5.4076351323795831e-07 0 -5.4083440282446896e-06 2.8301663718545094e-06 0 -5.0673766001969849e-06 -4.9959968492694317e-07 0 1.0741240212526681e-07 5.4076351323795831e-07 0 -6.9674895213799675e-07 -2.0635673798442271e-06 0 1.0741240212526681e-07 5.4076351323795831e-07 0 3.8581363406844777e-06 -8.7124807509894586e-07 0 1.0741240212526681e-07 5.4076351323795831e-07 0 3.8581363406844777e-06 -8.7124807509894608e-07 0 5.7524859632393838e-06 2.4695174172293615e-06 0 2.3016591569719572e-06 -2.9360720814259309e-06 0 -6.9674895213799675e-07 -2.0635673798442271e-06 0 3.8581363406844777e-06 -8.7124807509894586e-07 0 3.8581363406844777e-06 -8.7124807509894586e-07 0 6.1411203747518662e-06 -1.2363404854791883e-06 0 8.4197174163818997e-06 7.4822238209269852e-07 0 2.3016591569719572e-06 -2.9360720814259309e-06 0 3.8581363406844777e-06 -8.7124807509894586e-07 0 6.1411203747518654e-06 -1.2363404854791883e-06 0 3.8581363406844777e-06 -8.7124807509894586e-07 0 5.7524859632393838e-06 2.4695174172293615e-06 0 8.4197174163818997e-06 7.4822238209269852e-07 0 5.7524859632393838e-06 2.4695174172293615e-06 0 8.4197174163818997e-06 7.4822238209269852e-07 0 1.2239039189638218e-05 4.6765368308186099e-06 0 1.0741240212526681e-07 5.4076351323795831e-07 0 5.7524859632393838e-06 2.4695174172293615e-06 0 9.1906788272213823e-07 4.888091250661305e-06 0 5.7524859632393838e-06 2.4695174172293615e-06 0 9.1906788272213823e-07 4.888091250661305e-06 0 7.1764945214781143e-06 8.0214715835309568e-06 0 5.7524859632393838e-06 2.4695174172293615e-06 0 7.1764945214781143e-06 8.0214715835309568e-06 0 1.2239039189638218e-05 4.6765368308186099e-06 0 7.1764945214781143e-06 8.0214715835309568e-06 0 1.2012721654871158e-05 1.3719199251583125e-05 0 1.6460143182907345e-05 9.6548087045487864e-06 0 7.1764945214781143e-06 8.0214715835309568e-06 0 1.2239039189638218e-05 4.6765368308186099e-06 0 1.6460143182907345e-05 9.6548087045487864e-06 0 7.1764945214781143e-06 8.0214715835309568e-06 0 3.1246911037352618e-06 1.5391250165013405e-05 0 -5.7526634274321422e-06 1.0737659450072337e-05 0 9.1906788272213823e-07 4.888091250661305e-06 0 7.1764945214781143e-06 8.0214715835309568e-06 0 -5.7526634274321422e-06 1.0737659450072337e-05 0 7.1764945214781143e-06 8.0214715835309568e-06 0 3.1246911037352618e-06 1.5391250165013405e-05 0 1.2012721654871158e-05 1.3719199251583125e-05 0 1.2012721654871158e-05 1.3719199251583125e-05 0 8.6247540379805355e-06 2.3802528744663013e-05 0 2.0634265782243611e-05 1.6935736886548562e-05 0 8.6247540379805355e-06 2.3802528744663013e-05 0 2.0634265782243611e-05 1.6935736886548562e-05 0 1.865984327382886e-05 3.527819857803559e-05 0 8.6247540379805355e-06 2.3802528744663013e-05 0 7.7787005616379594e-06 3.8701553913841248e-05 0 1.865984327382886e-05 3.527819857803559e-05 0 8.6247540379805355e-06 2.3802528744663013e-05 0 -4.3120846531091028e-06 4.0964939810007922e-05 0 7.7787005616379594e-06 3.8701553913841248e-05 0 3.1246911037352618e-06 1.5391250165013405e-05 0 8.6247540379805355e-06 2.3802528744663013e-05 0 -8.0041652017512249e-06 2.4946182606901999e-05 0 3.1246911037352618e-06 1.5391250165013405e-05 0 1.2012721654871158e-05 1.3719199251583125e-05 0 8.6247540379805355e-06 2.3802528744663013e-05 0 8.6247540379805355e-06 2.3802528744663013e-05 0 -8.0041652017512249e-06 2.4946182606901999e-05 0 -4.3120846531091028e-06 4.0964939810007922e-05 0 -8.0041652017512249e-06 2.4946182606901999e-05 0 -2.1303599513964066e-05 4.2098448294598325e-05 0 -4.3120846531091028e-06 4.0964939810007922e-05 0 -8.0041652017512249e-06 2.4946182606901999e-05 0 -1.8046488579127771e-05 2.2207814065824017e-05 0 -2.1303599513964066e-05 4.2098448294598331e-05 0 -8.0041652017512249e-06 2.4946182606901999e-05 0 -5.7526634274321422e-06 1.0737659450072337e-05 0 -1.8046488579127771e-05 2.2207814065824017e-05 0 -5.7526634274321422e-06 1.0737659450072337e-05 0 -1.9163208689646834e-05 1.3460358331970155e-05 0 -1.8046488579127771e-05 2.2207814065824017e-05 0 3.1246911037352618e-06 1.5391250165013405e-05 0 -8.0041652017512249e-06 2.4946182606901999e-05 0 -5.7526634274321422e-06 1.0737659450072337e-05 0 -1.3087787198440742e-05 6.479037796944039e-06 0 -5.7526634274321431e-06 1.0737659450072339e-05 0 -1.9163208689646834e-05 1.3460358331970155e-05 0 -2.1003135244325269e-05 7.4100724029924127e-06 0 -1.9163208689646834e-05 1.3460358331970155e-05 0 -3.046917177620099e-05 1.5163949546547533e-05 0 -1.9163208689646834e-05 1.3460358331970155e-05 0 -2.8935890449900132e-05 2.3263686314669728e-05 0 -3.046917177620099e-05 1.5163949546547533e-05 0 -1.9163208689646834e-05 1.3460358331970155e-05 0 -2.8935890449900132e-05 2.3263686314669728e-05 0 -1.8046488579127771e-05 2.2207814065824017e-05 0 -2.8935890449900132e-05 2.3263686314669728e-05 0 -1.8046488579127771e-05 2.2207814065824017e-05 0 -3.0977123969605433e-05 3.4268960346916571e-05 0 -1.8046488579127771e-05 2.2207814065824017e-05 0 -3.0977123969605433e-05 3.4268960346916571e-05 0 -2.1303599513964066e-05 4.2098448294598331e-05 0 -3.0977123969605433e-05 3.4268960346916571e-05 0 -4.3427495057798259e-05 3.5231820324208378e-05 0 -4.4650112679001256e-05 5.2892875208685392e-05 0 -3.0977123969605433e-05 3.4268960346916571e-05 0 -4.4650112679001256e-05 5.2892875208685392e-05 0 -2.1303599513964066e-05 4.2098448294598331e-05 0 -2.8935890449900132e-05 2.3263686314669728e-05 0 -3.0977123969605433e-05 3.4268960346916571e-05 0 -4.3427495057798259e-05 3.5231820324208378e-05 0 -2.8935890449900132e-05 2.3263686314669728e-05 0 -4.3427495057798259e-05 3.5231820324208378e-05 0 -4.0151485946060236e-05 2.3942539075587546e-05 0 -4.3427495057798259e-05 3.5231820324208378e-05 0 -6.3758723330250712e-05 4.7999632704539713e-05 0 -4.4650112679001256e-05 5.2892875208685392e-05 0 -4.3427495057798259e-05 3.5231820324208378e-05 0 -5.3791249080348863e-05 3.1311456685555338e-05 0 -6.3758723330250712e-05 4.7999632704539713e-05 0 -4.3427495057798259e-05 3.5231820324208378e-05 0 -5.3791249080348863e-05 3.1311456685555338e-05 0 -4.0151485946060236e-05 2.3942539075587546e-05 0 -5.3791249080348863e-05 3.1311456685555338e-05 0 -4.0151485946060236e-05 2.3942539075587546e-05 0 -4.3721234280812026e-05 1.8704023251095188e-05 0 -4.0151485946060236e-05 2.3942539075587546e-05 0 -3.046917177620099e-05 1.5163949546547533e-05 0 -4.3721234280812026e-05 1.8704023251095188e-05 0 -2.8935890449900132e-05 2.3263686314669728e-05 0 -4.0151485946060236e-05 2.3942539075587546e-05 0 -3.046917177620099e-05 1.5163949546547533e-05 0 -3.0373737456345056e-05 1.0030456243826077e-05 0 -3.046917177620099e-05 1.5163949546547533e-05 0 -4.3721234280812026e-05 1.8704023251095188e-05 0 1.4502014371361227e-05 3.7819787271016935e-06 0 1.451952033142013e-05 3.4924604051365348e-06 0 1.6406017700999156e-05 4.9526975735877905e-06 0 1.451952033142013e-05 3.4924604051365348e-06 0 1.6406017700999156e-05 4.9526975735877905e-06 0 1.739786022751789e-05 5.5051135574519251e-06 0 1.6406017700999156e-05 4.9526975735877905e-06 0 1.739786022751789e-05 5.5051135574519259e-06 0 1.9186565137147456e-05 7.017119152581196e-06 0 1.4502014371361227e-05 3.7819787271016935e-06 0 1.6406017700999156e-05 4.9526975735877905e-06 0 1.5489439626895248e-05 4.2277111683944464e-06 0 1.5489439626895248e-05 4.2277111683944464e-06 0 1.2923152270119128e-05 3.0532332807052729e-06 0 1.3517456804879491e-05 2.5131724846649972e-06 0 1.4502014371361227e-05 3.7819787271016935e-06 0 1.5489439626895248e-05 4.2277111683944464e-06 0 1.2923152270119128e-05 3.0532332807052729e-06 0 1.1702146556752691e-05 1.9546110536277036e-06 0 1.2923152270119128e-05 3.0532332807052729e-06 0 1.3517456804879491e-05 2.5131724846649972e-06 0 1.4502014371361227e-05 3.7819787271016935e-06 0 1.2923152270119128e-05 3.0532332807052729e-06 0 1.25341629877241e-05 2.8327949120385717e-06 0 1.2923152270119128e-05 3.0532332807052729e-06 0 1.0713943964225942e-05 2.4835579659798533e-06 0 1.25341629877241e-05 2.8327949120385717e-06 0 1.0452892360460608e-05 2.1624453011765629e-06 0 1.2923152270119128e-05 3.0532332807052729e-06 0 1.0713943964225942e-05 2.4835579659798533e-06 0 8.8000896421828983e-06 2.2335382140908907e-06 0 1.0713943964225942e-05 2.4835579659798533e-06 0 1.0396279527665097e-05 2.0908946029242352e-06 0 1.0713943964225942e-05 2.4835579659798533e-06 0 1.0396279527665095e-05 2.0908946029242348e-06 0 1.25341629877241e-05 2.8327949120385717e-06 0 1.0396279527665097e-05 2.0908946029242352e-06 0 1.25341629877241e-05 2.8327949120385717e-06 0 1.1699982971245347e-05 1.9339649597920678e-06 0 1.4502014371361227e-05 3.7819787271016935e-06 0 1.451952033142013e-05 3.4924604051365348e-06 0 1.25341629877241e-05 2.8327949120385717e-06 0 1.451952033142013e-05 3.4924604051365348e-06 0 1.25341629877241e-05 2.8327949120385717e-06 0 1.1699982971245347e-05 1.9339649597920678e-06 0 1.451952033142013e-05 3.4924604051365348e-06 0 1.1699982971245347e-05 1.9339649597920678e-06 0 1.2048067675620398e-05 1.502684742711612e-06 0 1.0472597735496373e-05 8.9698012347833914e-07 0 1.1699982971245347e-05 1.9339649597920678e-06 0 1.2048067675620398e-05 1.502684742711612e-06 0 8.3370419214711958e-06 -7.1334860734101731e-07 0 1.2048067675620398e-05 1.502684742711612e-06 0 9.2437709836492573e-06 -1.1834397293829714e-07 0 1.2048067675620398e-05 1.502684742711612e-06 0 1.2486386514008593e-05 2.3297617251332333e-06 0 1.4741302084451852e-05 3.500276435281613e-06 0 1.2048067675620398e-05 1.502684742711612e-06 0 9.2437709836492573e-06 -1.1834397293829724e-07 0 1.2486386514008593e-05 2.3297617251332333e-06 0 1.451952033142013e-05 3.4924604051365348e-06 0 1.2048067675620398e-05 1.5026847427116116e-06 0 1.4741302084451852e-05 3.500276435281613e-06 0 6.1411203747518654e-06 -1.2363404854791883e-06 0 9.2437709836492573e-06 -1.1834397293829714e-07 0 8.4197174163818997e-06 7.4822238209269852e-07 0 9.2437709836492573e-06 -1.1834397293829714e-07 0 8.4197174163818997e-06 7.4822238209269862e-07 0 1.2486386514008593e-05 2.3297617251332333e-06 0 8.4197174163818997e-06 7.4822238209269852e-07 0 1.2486386514008593e-05 2.3297617251332333e-06 0 1.2239039189638218e-05 4.6765368308186099e-06 0 1.2486386514008593e-05 2.3297617251332333e-06 0 1.7119211787433785e-05 5.9505936149233508e-06 0 1.2239039189638218e-05 4.6765368308186099e-06 0 1.7119211787433785e-05 5.9505936149233508e-06 0 1.2239039189638218e-05 4.6765368308186099e-06 0 1.6460143182907345e-05 9.6548087045487864e-06 0 1.451952033142013e-05 3.4924604051365348e-06 0 1.4741302084451852e-05 3.5002764352816126e-06 0 1.739786022751789e-05 5.5051135574519251e-06 0 1.2486386514008593e-05 2.3297617251332333e-06 0 1.7119211787433785e-05 5.9505936149233508e-06 0 1.4741302084451852e-05 3.500276435281613e-06 0 1.7119211787433785e-05 5.9505936149233508e-06 0 1.4741302084451852e-05 3.500276435281613e-06 0 1.739786022751789e-05 5.5051135574519251e-06 0 1.7119211787433785e-05 5.9505936149233508e-06 0 1.739786022751789e-05 5.5051135574519251e-06 0 2.032423390038239e-05 8.2536364839513395e-06 0 1.739786022751789e-05 5.5051135574519251e-06 0 2.032423390038239e-05 8.2536364839513395e-06 0 1.9186565137147456e-05 7.017119152581196e-06 0 1.7119211787433785e-05 5.9505936149233508e-06 0 2.032423390038239e-05 8.2536364839513395e-06 0 2.3748972125649859e-05 1.2059984575296854e-05 0 2.032423390038239e-05 8.2536364839513395e-06 0 2.3748972125649859e-05 1.2059984575296854e-05 0 2.267036078038131e-05 9.8024924900569149e-06 0 2.267036078038131e-05 9.8024924900569149e-06 0 1.979573120491032e-05 6.9824005392670642e-06 0 1.9186565137147456e-05 7.017119152581196e-06 0 2.032423390038239e-05 8.2536364839513395e-06 0 2.267036078038131e-05 9.8024924900569149e-06 0 1.9186565137147456e-05 7.017119152581196e-06 0 1.7119211787433785e-05 5.9505936149233508e-06 0 1.6460143182907345e-05 9.6548087045487864e-06 0 2.3748972125649859e-05 1.2059984575296854e-05 0 1.6460143182907345e-05 9.6548087045487864e-06 0 2.3748972125649859e-05 1.2059984575296854e-05 0 2.0634265782243611e-05 1.6935736886548562e-05 0 1.2012721654871158e-05 1.3719199251583125e-05 0 1.6460143182907345e-05 9.6548087045487864e-06 0 2.0634265782243611e-05 1.6935736886548562e-05 0 2.3748972125649859e-05 1.2059984575296854e-05 0 2.0634265782243611e-05 1.6935736886548562e-05 0 3.4121344049767646e-05 2.0440075818619541e-05 0 2.0634265782243611e-05 1.6935736886548562e-05 0 3.4121344049767646e-05 2.0440075818619541e-05 0 1.865984327382886e-05 3.527819857803559e-05 0 2.3748972125649859e-05 1.2059984575296854e-05 0 2.5719370082342784e-05 1.3145506213167577e-05 0 3.4121344049767646e-05 2.0440075818619541e-05 0 2.267036078038131e-05 9.8024924900569149e-06 0 2.5719370082342784e-05 1.3145506213167575e-05 0 2.1061520854345179e-05 7.3231415105763748e-06 0 2.267036078038131e-05 9.8024924900569149e-06 0 2.1061520854345179e-05 7.3231415105763748e-06 0 1.979573120491032e-05 6.9824005392670642e-06 0 2.3748972125649859e-05 1.2059984575296854e-05 0 2.2670360780381307e-05 9.8024924900569132e-06 0 2.5719370082342784e-05 1.3145506213167575e-05 0 2.5719370082342784e-05 1.3145506213167575e-05 0 2.1061520854345179e-05 7.3231415105763765e-06 0 2.2314559837952055e-05 3.9921252681067203e-06 0 2.1061520854345179e-05 7.3231415105763748e-06 0 1.9505368290064875e-05 -4.4098846986766083e-07 0 2.2314559837952055e-05 3.9921252681067203e-06 0 2.1061520854345179e-05 7.3231415105763748e-06 0 1.7693975083905541e-05 3.5932841211265292e-06 0 1.9505368290064875e-05 -4.4098846986766083e-07 0 2.1061520854345179e-05 7.3231415105763748e-06 0 1.7693975083905541e-05 3.5932841211265292e-06 0 1.979573120491032e-05 6.9824005392670642e-06 0 1.979573120491032e-05 6.9824005392670642e-06 0 1.7657288510018705e-05 5.6410817112181604e-06 0 1.9186565137147456e-05 7.017119152581196e-06 0 1.7693975083905541e-05 3.5932841211265292e-06 0 1.979573120491032e-05 6.9824005392670642e-06 0 1.7657288510018705e-05 5.6410817112181604e-06 0 1.7693975083905541e-05 3.5932841211265292e-06 0 1.7657288510018705e-05 5.6410817112181604e-06 0 1.557715384994349e-05 3.0681315260222919e-06 0 1.5489439626895248e-05 4.2277111683944464e-06 0 1.7657288510018705e-05 5.6410817112181604e-06 0 1.557715384994349e-05 3.0681315260222919e-06 0 1.6406017700999156e-05 4.9526975735877905e-06 0 1.5489439626895248e-05 4.2277111683944464e-06 0 1.7657288510018705e-05 5.6410817112181604e-06 0 1.6406017700999156e-05 4.9526975735877905e-06 0 1.7657288510018705e-05 5.6410817112181604e-06 0 1.9186565137147456e-05 7.017119152581196e-06 0 1.5489439626895248e-05 4.2277111683944464e-06 0 1.3517456804879491e-05 2.5131724846649972e-06 0 1.557715384994349e-05 3.0681315260222919e-06 0 1.2907475143491799e-05 1.781024442707241e-07 0 1.3517456804879491e-05 2.5131724846649976e-06 0 1.557715384994349e-05 3.0681315260222919e-06 0 1.7693975083905541e-05 3.5932841211265292e-06 0 1.477192019375251e-05 -4.1660216932895477e-07 0 1.672004769940671e-05 -4.9748261685440258e-06 0 1.2907475143491799e-05 1.781024442707241e-07 0 1.2701092895308581e-05 -3.365100728788776e-06 0 1.477192019375251e-05 -4.1660216932895477e-07 0 1.2907475143491799e-05 1.781024442707241e-07 0 1.557715384994349e-05 3.0681315260222919e-06 0 1.477192019375251e-05 -4.1660216932895477e-07 0 1.7693975083905541e-05 3.5932841211265292e-06 0 1.557715384994349e-05 3.0681315260222919e-06 0 1.477192019375251e-05 -4.1660216932895477e-07 0 1.2701092895308581e-05 -3.365100728788776e-06 0 1.477192019375251e-05 -4.1660216932895471e-07 0 1.4123291124814053e-05 -6.5807516332999911e-06 0 1.477192019375251e-05 -4.1660216932895477e-07 0 1.672004769940671e-05 -4.9748261685440258e-06 0 1.4123291124814053e-05 -6.5807516332999911e-06 0 1.672004769940671e-05 -4.9748261685440258e-06 0 1.4123291124814053e-05 -6.5807516332999911e-06 0 1.7420802582730614e-05 -1.0861646638289828e-05 0 1.672004769940671e-05 -4.9748261685440258e-06 0 1.7420802582730614e-05 -1.0861646638289828e-05 0 2.0270689626184955e-05 -1.0357973969144526e-05 0 1.4123291124814053e-05 -6.5807516332999911e-06 0 1.4606944160387407e-05 -1.1518595312157702e-05 0 1.7420802582730614e-05 -1.0861646638289828e-05 0 1.4606944160387407e-05 -1.1518595312157702e-05 0 1.7420802582730614e-05 -1.0861646638289828e-05 0 1.9206412827924212e-05 -1.7070133425522544e-05 0 1.7420802582730614e-05 -1.0861646638289828e-05 0 1.9206412827924212e-05 -1.7070133425522544e-05 0 2.0270689626184955e-05 -1.0357973969144526e-05 0 1.4606944160387407e-05 -1.1518595312157702e-05 0 1.9206412827924212e-05 -1.7070133425522544e-05 0 1.476735984956289e-05 -1.6236707659384249e-05 0 2.6657370590684969e-05 -1.4921112509145531e-05 0 2.9797139799832846e-05 -2.0947312838143294e-05 0 2.5007851458179126e-05 -1.92231148946463e-05 0 2.0270689626184955e-05 -1.0357973969144526e-05 0 2.6657370590684969e-05 -1.4921112509145531e-05 0 2.5007851458179126e-05 -1.92231148946463e-05 0 1.9206412827924212e-05 -1.7070133425522544e-05 0 2.0270689626184955e-05 -1.0357973969144526e-05 0 2.5007851458179126e-05 -1.92231148946463e-05 0 2.0270689626184955e-05 -1.0357973969144526e-05 0 2.3123541164325021e-05 -4.9127769404751359e-06 0 2.6657370590684969e-05 -1.4921112509145531e-05 0 1.7693975083905541e-05 3.5932841211265292e-06 0 1.6720047699406713e-05 -4.974826168544025e-06 0 1.9505368290064875e-05 -4.4098846986766083e-07 0 2.0270689626184955e-05 -1.0357973969144526e-05 0 1.9505368290064875e-05 -4.4098846986766083e-07 0 2.3123541164325021e-05 -4.9127769404751359e-06 0 1.672004769940671e-05 -4.9748261685440258e-06 0 2.0270689626184955e-05 -1.0357973969144526e-05 0 1.9505368290064875e-05 -4.4098846986766083e-07 0 1.9505368290064875e-05 -4.4098846986766083e-07 0 2.2314559837952055e-05 3.9921252681067203e-06 0 2.3123541164325021e-05 -4.9127769404751359e-06 0 2.5719370082342784e-05 1.3145506213167575e-05 0 2.2314559837952055e-05 3.9921252681067203e-06 0 2.624845172516613e-05 3.5738721617580533e-06 0 2.2314559837952055e-05 3.9921252681067203e-06 0 2.624845172516613e-05 3.5738721617580533e-06 0 2.3123541164325021e-05 -4.9127769404751359e-06 0 2.5719370082342784e-05 1.3145506213167575e-05 0 2.6248451725166126e-05 3.573872161758052e-06 0 3.4121344049767646e-05 2.0440075818619541e-05 0 2.624845172516613e-05 3.5738721617580533e-06 0 3.7063282101461305e-05 -4.9575244489704958e-06 0 3.0356900520347787e-05 -1.0953513976926253e-05 0 2.624845172516613e-05 3.5738721617580533e-06 0 2.3123541164325021e-05 -4.9127769404751359e-06 0 3.0356900520347787e-05 -1.0953513976926253e-05 0 3.4121344049767646e-05 2.0440075818619541e-05 0 2.7110855557071284e-05 6.184456213396935e-05 0 1.865984327382886e-05 3.527819857803559e-05 0 2.624845172516613e-05 3.5738721617580533e-06 0 3.4121344049767646e-05 2.0440075818619541e-05 0 3.7063282101461305e-05 -4.9575244489704958e-06 0 1.9155746607445178e-05 1.7475436918596397e-05 0 4.8181794975340512e-05 3.0373809853281741e-05 0 3.4121344049767646e-05 2.0440075818619541e-05 0 4.8959040824959885e-05 6.0779765815441655e-05 0 2.7110855557071281e-05 6.184456213396935e-05 0 2.7110855557071281e-05 6.184456213396935e-05 0 5.6858782877102091e-05 9.0205596757094106e-05 0 2.5534075974989439e-05 8.6836414804455074e-05 0 4.8181794975340512e-05 3.0373809853281741e-05 0 4.6438769017033916e-05 3.6692028437502367e-05 0 3.7063282101461305e-05 -4.9575244489704958e-06 0 3.7753172974234981e-05 -1.4619710447845903e-05 0 3.0356900520347787e-05 -1.0953513976926253e-05 0 4.8959040824959885e-05 6.0779765815441655e-05 0 2.7110855557071281e-05 6.184456213396935e-05 0 5.6858782877102091e-05 9.0205596757094106e-05 0 4.6438769017033916e-05 3.6692028437502367e-05 0 5.1618650017803505e-05 4.9244348105211802e-05 0 3.7753172974234981e-05 -1.4619710447845903e-05 0 3.371614708987215e-05 -1.8844040723586637e-05 0 3.8903286080038683e-05 -2.0655793435675107e-05 0 5.6858782877102091e-05 9.0205596757094106e-05 0 4.2865146606463898e-05 0.00010838681379230004 0 2.5534075974989439e-05 8.6836414804455074e-05 0 2.3123541164325021e-05 -4.9127769404751359e-06 0 3.0356900520347787e-05 -1.0953513976926253e-05 0 2.6657370590684969e-05 -1.4921112509145531e-05 0 3.7753172974234981e-05 -1.4619710447845903e-05 0 3.0356900520347787e-05 -1.0953513976926253e-05 0 3.371614708987215e-05 -1.8844040723586637e-05 0 3.0356900520347787e-05 -1.0953513976926253e-05 0 3.371614708987215e-05 -1.8844040723586637e-05 0 2.6657370590684969e-05 -1.4921112509145531e-05 0 3.371614708987215e-05 -1.8844040723586637e-05 0 2.6657370590684969e-05 -1.4921112509145531e-05 0 2.9797139799832846e-05 -2.0947312838143294e-05 0 3.371614708987215e-05 -1.8844040723586637e-05 0 2.9797139799832846e-05 -2.0947312838143294e-05 0 3.5092494150907302e-05 -2.4818442736072706e-05 0 3.371614708987215e-05 -1.8844040723586637e-05 0 3.5092494150907302e-05 -2.4818442736072706e-05 0 3.8903286080038683e-05 -2.0655793435675107e-05 0 3.5092494150907302e-05 -2.4818442736072706e-05 0 3.8903286080038683e-05 -2.0655793435675107e-05 0 4.0908064901642995e-05 -2.5401313284699862e-05 0 2.9797139799832846e-05 -2.0947312838143294e-05 0 3.5092494150907302e-05 -2.4818442736072706e-05 0 2.9803493640025343e-05 -2.5024517340956972e-05 0 4.2865146606463898e-05 0.00010838681379230004 0 4.7485041827820704e-05 0.0001270049314916679 0 2.4194584140823127e-05 0.00011678592901860583 0 4.2865146606463898e-05 0.00010838681379230004 0 6.349211865127287e-05 0.0001181615347756265 0 4.7485041827820704e-05 0.0001270049314916679 0 5.6858782877102091e-05 9.0205596757094106e-05 0 4.2865146606463898e-05 0.00010838681379230004 0 6.349211865127287e-05 0.0001181615347756265 0 5.1618650017803505e-05 4.9244348105211802e-05 0 5.4965740389660788e-05 6.0644914968330509e-05 0 6.349211865127287e-05 0.0001181615347756265 0 4.7485041827820704e-05 0.0001270049314916679 0 6.9291933500364517e-05 0.00014713369663110794 0 4.7485041827820704e-05 0.0001270049314916679 0 6.9291933500364517e-05 0.00014713369663110794 0 3.8435118874060349e-05 0.00014336403126911804 0 6.9291933500364517e-05 0.00014713369663110794 0 4.8740555927292025e-05 0.00016357862371686843 0 3.8435118874060349e-05 0.00014336403126911804 0 6.9291933500364517e-05 0.00014713369663110794 0 7.4666193240687903e-05 0.00017718018238998534 0 4.8740555927292025e-05 0.00016357862371686843 0 4.0908064901642995e-05 -2.5401313284699862e-05 0 4.3395592505617378e-05 -2.9805572225777393e-05 0 3.8767997238556107e-05 -2.9371009036195434e-05 0 5.4965740389660788e-05 6.0644914968330509e-05 0 5.8751533280044859e-05 7.3655470509371331e-05 0 7.4666193240687903e-05 0.00017718018238998534 0 4.8740555927292025e-05 0.00016357862371686843 0 4.3818827202852019e-05 0.00018460709020269632 0 3.5092494150907302e-05 -2.4818442736072706e-05 0 3.3863656210930644e-05 -2.9198273396923753e-05 0 3.8767997238556107e-05 -2.9371009036195434e-05 0 3.5092494150907302e-05 -2.4818442736072706e-05 0 3.3863656210930644e-05 -2.919827339692375e-05 0 2.9803493640025343e-05 -2.5024517340956972e-05 0 3.5092494150907302e-05 -2.4818442736072706e-05 0 4.0908064901642995e-05 -2.5401313284699862e-05 0 3.8767997238556107e-05 -2.9371009036195434e-05 0 3.3863656210930644e-05 -2.919827339692375e-05 0 3.8767997238556107e-05 -2.9371009036195434e-05 0 3.5129947619303863e-05 -3.3017156912465286e-05 0 3.8767997238556107e-05 -2.9371009036195434e-05 0 3.5129947619303863e-05 -3.3017156912465286e-05 0 4.1095216677554946e-05 -3.4375667124460013e-05 0 3.3863656210930644e-05 -2.919827339692375e-05 0 3.5129947619303863e-05 -3.3017156912465286e-05 0 2.8116937732571667e-05 -2.9608279150907212e-05 0 3.5129947619303863e-05 -3.3017156912465286e-05 0 2.8116937732571667e-05 -2.9608279150907212e-05 0 3.2218847121157417e-05 -3.5723106081324047e-05 0 3.3863656210930644e-05 -2.919827339692375e-05 0 2.8116937732571667e-05 -2.9608279150907212e-05 0 2.9803493640025343e-05 -2.5024517340956972e-05 0 2.8116937732571667e-05 -2.9608279150907212e-05 0 2.1199337761434806e-05 -2.4023641917178365e-05 0 2.5163149465822158e-05 -2.4329220753254283e-05 0 2.8116937732571667e-05 -2.9608279150907212e-05 0 2.9803493640025343e-05 -2.5024517340956972e-05 0 2.5163149465822158e-05 -2.4329220753254283e-05 0 2.8116937732571667e-05 -2.9608279150907212e-05 0 2.1829028871986447e-05 -2.8602020469144563e-05 0 2.6276790271436578e-05 -3.5313344163361254e-05 0 2.1829028871986447e-05 -2.8602020469144563e-05 0 2.6276790271436578e-05 -3.5313344163361254e-05 0 1.9538204113359679e-05 -3.1033644303070937e-05 0 2.1829028871986447e-05 -2.8602020469144563e-05 0 2.1199337761434806e-05 -2.4023641917178365e-05 0 1.73537864414103e-05 -2.5549545271474818e-05 0 2.8116937732571667e-05 -2.9608279150907212e-05 0 2.1829028871986447e-05 -2.8602020469144563e-05 0 2.1199337761434806e-05 -2.4023641917178365e-05 0 1.9206412827924212e-05 -1.7070133425522544e-05 0 2.1199337761434806e-05 -2.4023641917178365e-05 0 2.5163149465822158e-05 -2.4329220753254283e-05 0 2.1199337761434806e-05 -2.4023641917178365e-05 0 1.7240971498243367e-05 -2.0895567820588148e-05 0 1.73537864414103e-05 -2.5549545271474818e-05 0 1.9206412827924212e-05 -1.7070133425522544e-05 0 2.1199337761434806e-05 -2.4023641917178365e-05 0 1.7240971498243367e-05 -2.0895567820588148e-05 0 1.9206412827924212e-05 -1.7070133425522544e-05 0 1.476735984956289e-05 -1.6236707659384249e-05 0 1.7240971498243367e-05 -2.0895567820588148e-05 0 1.9206412827924212e-05 -1.7070133425522544e-05 0 2.5007851458179126e-05 -1.92231148946463e-05 0 2.5163149465822158e-05 -2.4329220753254283e-05 0 2.9797139799832846e-05 -2.0947312838143294e-05 0 2.5007851458179126e-05 -1.92231148946463e-05 0 2.9803493640025343e-05 -2.5024517340956972e-05 0 2.5007851458179126e-05 -1.92231148946463e-05 0 2.9803493640025343e-05 -2.5024517340956972e-05 0 2.5163149465822158e-05 -2.4329220753254283e-05 0 -8.1382969508005495e-05 9.3206343805622089e-05 0 -5.9916383069950151e-05 0.00010217317749400686 0 -5.999600435435167e-05 7.8108759335032045e-05 0 -8.1382969508005495e-05 9.3206343805622089e-05 0 -5.9916383069950151e-05 0.00010217317749400686 0 -8.8164462323838601e-05 0.00012045027005374327 0 -5.9916383069950151e-05 0.00010217317749400686 0 -5.999600435435167e-05 7.8108759335032045e-05 0 -4.2386725818595592e-05 7.811161303489719e-05 0 -8.1382969508005495e-05 9.3206343805622089e-05 0 -5.999600435435167e-05 7.8108759335032045e-05 0 -7.2681328362528727e-05 6.8675699443708317e-05 0 -7.2681328362528727e-05 6.8675699443708317e-05 0 -6.3758723330250712e-05 4.7999632704539713e-05 0 -4.4650112679001256e-05 5.2892875208685392e-05 0 -5.999600435435167e-05 7.8108759335032045e-05 0 -4.4650112679001256e-05 5.2892875208685392e-05 0 -4.2386725818595592e-05 7.811161303489719e-05 0 -5.999600435435167e-05 7.8108759335032045e-05 0 -7.2681328362528727e-05 6.8675699443708317e-05 0 -4.4650112679001256e-05 5.2892875208685392e-05 0 -4.4650112679001256e-05 5.2892875208685392e-05 0 -2.8959736601963712e-05 6.308622307185626e-05 0 -4.2386725818595592e-05 7.811161303489719e-05 0 -4.4650112679001256e-05 5.2892875208685392e-05 0 -2.1303599513964066e-05 4.2098448294598331e-05 0 -2.8959736601963712e-05 6.308622307185626e-05 0 -2.8959736601963712e-05 6.308622307185626e-05 0 -2.7492270256769272e-05 8.0263915113323972e-05 0 -1.3293993038904101e-05 6.658227543465579e-05 0 -2.8959736601963712e-05 6.308622307185626e-05 0 -2.7492270256769272e-05 8.0263915113323972e-05 0 -4.2386725818595592e-05 7.811161303489719e-05 0 -2.7492270256769272e-05 8.0263915113323972e-05 0 -4.2386725818595592e-05 7.811161303489719e-05 0 -3.6618463511104872e-05 9.9962885603866719e-05 0 -5.9916383069950151e-05 0.00010217317749400686 0 -4.2386725818595592e-05 7.811161303489719e-05 0 -3.6618463511104872e-05 9.9962885603866719e-05 0 -2.7492270256769272e-05 8.0263915113323972e-05 0 -3.6618463511104872e-05 9.9962885603866719e-05 0 -1.5952165198200611e-05 9.6358679135694785e-05 0 -1.5952165198200611e-05 9.6358679135694785e-05 0 4.3943252611600448e-06 9.017832494012925e-05 0 -1.3889377881655988e-06 0.00011763392379357921 0 -1.5952165198200611e-05 9.6358679135694785e-05 0 -1.3293993038904101e-05 6.658227543465579e-05 0 4.3943252611600448e-06 9.017832494012925e-05 0 -1.3293993038904101e-05 6.658227543465579e-05 0 7.6396464525999763e-06 5.9188839395007342e-05 0 4.3943252611600448e-06 9.017832494012925e-05 0 -2.7492270256769272e-05 8.0263915113323972e-05 0 -1.5952165198200611e-05 9.6358679135694785e-05 0 -1.3293993038904101e-05 6.658227543465579e-05 0 -2.1303599513964066e-05 4.2098448294598331e-05 0 -2.8959736601963712e-05 6.308622307185626e-05 0 -1.3293993038904101e-05 6.658227543465579e-05 0 -2.1303599513964066e-05 4.2098448294598331e-05 0 -1.3293993038904102e-05 6.658227543465579e-05 0 -4.3120846531091028e-06 4.0964939810007922e-05 0 -1.3293993038904101e-05 6.658227543465579e-05 0 -4.3120846531091011e-06 4.0964939810007922e-05 0 7.6396464525999763e-06 5.9188839395007342e-05 0 -4.3120846531091028e-06 4.0964939810007922e-05 0 7.6396464525999763e-06 5.9188839395007342e-05 0 7.7787005616379594e-06 3.8701553913841248e-05 0 7.6396464525999763e-06 5.9188839395007342e-05 0 7.7787005616379577e-06 3.8701553913841248e-05 0 1.865984327382886e-05 3.527819857803559e-05 0 2.7110855557071281e-05 6.184456213396935e-05 0 7.6396464525999763e-06 5.9188839395007349e-05 0 1.865984327382886e-05 3.527819857803559e-05 0 2.7110855557071281e-05 6.184456213396935e-05 0 7.6396464525999763e-06 5.9188839395007342e-05 0 2.5534075974989439e-05 8.6836414804455074e-05 0 7.6396464525999763e-06 5.9188839395007342e-05 0 4.3943252611600448e-06 9.017832494012925e-05 0 2.5534075974989439e-05 8.6836414804455074e-05 0 4.3943252611600448e-06 9.017832494012925e-05 0 2.5534075974989436e-05 8.6836414804455074e-05 0 2.4194584140823127e-05 0.00011678592901860583 0 4.2865146606463898e-05 0.00010838681379230004 0 2.5534075974989439e-05 8.6836414804455074e-05 0 2.4194584140823127e-05 0.00011678592901860583 0 4.3943252611600448e-06 9.017832494012925e-05 0 2.4194584140823127e-05 0.00011678592901860583 0 -1.3889377881655988e-06 0.00011763392379357921 0 2.4194584140823127e-05 0.00011678592901860583 0 1.3959627510594745e-05 0.00013612425829537034 0 -1.3889377881655988e-06 0.00011763392379357921 0 2.4194584140823127e-05 0.00011678592901860583 0 1.3959627510594745e-05 0.00013612425829537034 0 3.8435118874060349e-05 0.00014336403126911804 0 4.7485041827820704e-05 0.0001270049314916679 0 2.4194584140823127e-05 0.00011678592901860583 0 3.8435118874060349e-05 0.00014336403126911804 0 4.8740555927292025e-05 0.00016357862371686843 0 3.8435118874060349e-05 0.00014336403126911804 0 1.8461432549616298e-05 0.00016374894419635065 0 4.8740555927292025e-05 0.00016357862371686843 0 1.8461432549616298e-05 0.00016374894419635065 0 4.3818827202852019e-05 0.00018460709020269632 0 1.3959627510594745e-05 0.00013612425829537034 0 3.8435118874060349e-05 0.00014336403126911804 0 1.8461432549616298e-05 0.00016374894419635065 0 1.3959627510594745e-05 0.00013612425829537034 0 1.8461432549616298e-05 0.00016374894419635065 0 -9.1550525520892871e-06 0.00013976105295007138 0 1.8461432549616298e-05 0.00016374894419635065 0 -1.3222190245434576e-05 0.00016598771051244815 0 -9.1550525520892871e-06 0.00013976105295007138 0 1.8461432549616298e-05 0.00016374894419635065 0 -1.3222190245434576e-05 0.00016598771051244815 0 -6.1105483379056871e-06 0.00019180698600120333 0 -1.3222190245434576e-05 0.00016598771051244815 0 -9.1550525520892871e-06 0.00013976105295007138 0 -3.4692680934454214e-05 0.00016361357629069033 0 -9.1550525520892871e-06 0.00013976105295007138 0 -2.7010671561749401e-05 0.0001259203353595663 0 -3.4692680934454214e-05 0.00016361357629069033 0 -9.1550525520892871e-06 0.00013976105295007138 0 -1.3889377881655988e-06 0.00011763392379357921 0 -2.7010671561749401e-05 0.0001259203353595663 0 1.3959627510594745e-05 0.00013612425829537034 0 -9.1550525520892871e-06 0.00013976105295007138 0 -1.3889377881655988e-06 0.00011763392379357921 0 -1.5952165198200611e-05 9.6358679135694785e-05 0 -1.3889377881655988e-06 0.00011763392379357921 0 -2.7010671561749401e-05 0.0001259203353595663 0 -3.6618463511104872e-05 9.9962885603866719e-05 0 -1.5952165198200611e-05 9.6358679135694785e-05 0 -2.7010671561749401e-05 0.0001259203353595663 0 -3.6618463511104872e-05 9.9962885603866719e-05 0 -4.7667250003279244e-05 0.00012116696509842851 0 -2.7010671561749401e-05 0.0001259203353595663 0 -5.9916383069950151e-05 0.00010217317749400686 0 -3.6618463511104872e-05 9.9962885603866719e-05 0 -4.7667250003279244e-05 0.00012116696509842851 0 -4.7667250003279244e-05 0.00012116696509842851 0 -4.8568915224744251e-05 0.00014199624569091482 0 -6.8525211819437125e-05 0.00013679389181057801 0 -4.7667250003279244e-05 0.00012116696509842851 0 -2.7010671561749401e-05 0.0001259203353595663 0 -4.8568915224744251e-05 0.00014199624569091482 0 -2.7010671561749401e-05 0.0001259203353595663 0 -3.4692680934454214e-05 0.00016361357629069033 0 -4.8568915224744251e-05 0.00014199624569091482 0 -1.3222190245434576e-05 0.00016598771051244815 0 -3.4692680934454214e-05 0.00016361357629069033 0 -3.1987245280957821e-05 0.00019178579664293181 0 -3.4692680934454214e-05 0.00016361357629069033 0 -6.5964479444267416e-05 0.00016427437593687617 0 -5.2162491116088037e-05 0.00018448777797705956 0 -3.4692680934454214e-05 0.00016361357629069033 0 -4.8568915224744251e-05 0.00014199624569091482 0 -6.5964479444267416e-05 0.00016427437593687617 0 -4.8568915224744251e-05 0.00014199624569091482 0 -6.5964479444267416e-05 0.00016427437593687617 0 -6.8525211819437125e-05 0.00013679389181057801 0 -6.5964479444267416e-05 0.00016427437593687617 0 -9.3726695387270366e-05 0.00015010592098029624 0 -9.770871570898186e-05 0.0001812046199536984 0 -6.5964479444267416e-05 0.00016427437593687617 0 -9.770871570898186e-05 0.0001812046199536984 0 -7.3788427366035944e-05 0.0001937035072029435 0 -6.5964479444267416e-05 0.00016427437593687617 0 -9.3726695387270366e-05 0.00015010592098029624 0 -6.8525211819437125e-05 0.00013679389181057801 0 -9.3726695387270366e-05 0.00015010592098029624 0 -6.8525211819437125e-05 0.00013679389181057801 0 -8.8164462323838601e-05 0.00012045027005374327 0 -5.9916383069950151e-05 0.00010217317749400686 0 -4.7667250003279244e-05 0.00012116696509842851 0 -6.8525211819437125e-05 0.00013679389181057801 0 -5.9916383069950151e-05 0.00010217317749400686 0 -6.8525211819437125e-05 0.00013679389181057801 0 -8.8164462323838601e-05 0.00012045027005374327 0 -0.00010271457443432227 0.00024658092506031431 0 -6.1174312173892307e-05 0.00024713506327533376 0 -7.3453067677244942e-05 0.0002793491967047512 0 -0.00010271457443432227 0.00024658092506031431 0 -7.7907811528703393e-05 0.00022268832134655277 0 -6.1174312173892307e-05 0.00024713506327533376 0 -7.7907811528703393e-05 0.00022268832134655277 0 -5.4820406230427301e-05 0.0002103434000245749 0 -6.1174312173892307e-05 0.00024713506327533376 0 -0.00010271457443432227 0.00024658092506031431 0 -7.7907811528703393e-05 0.00022268832134655277 0 -0.0001007470272572007 0.00021345155846673371 0 -7.7907811528703393e-05 0.00022268832134655277 0 -0.0001007470272572007 0.00021345155846673371 0 -7.3788427366035944e-05 0.0001937035072029435 0 -0.0001007470272572007 0.00021345155846673371 0 -9.770871570898186e-05 0.0001812046199536984 0 -7.3788427366035944e-05 0.0001937035072029435 0 -6.5964479444267416e-05 0.00016427437593687617 0 -7.3788427366035944e-05 0.00019370350720294348 0 -5.2162491116088037e-05 0.00018448777797705956 0 -7.7907811528703393e-05 0.00022268832134655277 0 -7.3788427366035944e-05 0.0001937035072029435 0 -5.4820406230427301e-05 0.0002103434000245749 0 -5.4820406230427301e-05 0.0002103434000245749 0 -5.2162491116088037e-05 0.00018448777797705956 0 -3.1987245280957821e-05 0.00019178579664293181 0 -7.3788427366035944e-05 0.0001937035072029435 0 -5.4820406230427301e-05 0.0002103434000245749 0 -5.2162491116088037e-05 0.00018448777797705956 0 -3.4692680934454214e-05 0.00016361357629069033 0 -5.2162491116088037e-05 0.00018448777797705956 0 -3.1987245280957821e-05 0.00019178579664293181 0 -5.4820406230427301e-05 0.0002103434000245749 0 -3.1987245280957821e-05 0.00019178579664293181 0 -3.1682992966196035e-05 0.00021992028029094653 0 -3.1682992966196035e-05 0.00021992028029094653 0 -6.1174312173892307e-05 0.00024713506327533376 0 -2.9647960511343608e-05 0.00024983234695293401 0 -5.4820406230427301e-05 0.0002103434000245749 0 -3.1682992966196035e-05 0.00021992028029094653 0 -6.1174312173892307e-05 0.00024713506327533376 0 -6.1174312173892307e-05 0.00024713506327533376 0 -2.9647960511343611e-05 0.00024983234695293401 0 -4.147130485655324e-05 0.00028259830655744204 0 -2.9647960511343608e-05 0.00024983234695293401 0 -8.526347004465729e-06 0.00023019906301859628 0 -5.4704326773672159e-06 0.00026659389864956457 0 -8.526347004465729e-06 0.00023019906301859628 0 1.7478900657364987e-05 0.00024353767446749281 0 -5.4704326773672159e-06 0.00026659389864956457 0 -8.526347004465729e-06 0.00023019906301859628 0 1.0763450857938255e-05 0.00021238081293252199 0 1.7478900657364987e-05 0.00024353767446749281 0 -3.1682992966196035e-05 0.00021992028029094653 0 -2.9647960511343608e-05 0.00024983234695293401 0 -8.526347004465729e-06 0.00023019906301859628 0 -3.1987245280957821e-05 0.00019178579664293181 0 -3.1682992966196035e-05 0.00021992028029094653 0 -6.1105483379056871e-06 0.00019180698600120333 0 -3.1682992966196035e-05 0.00021992028029094653 0 -8.526347004465729e-06 0.00023019906301859628 0 -6.1105483379056871e-06 0.00019180698600120333 0 -1.3222190245434576e-05 0.00016598771051244815 0 -3.1987245280957821e-05 0.00019178579664293181 0 -6.1105483379056871e-06 0.00019180698600120333 0 -6.1105483379056871e-06 0.00019180698600120333 0 1.0763450857938255e-05 0.00021238081293252202 0 2.0291249019895978e-05 0.00019315308567096002 0 -8.526347004465729e-06 0.00023019906301859628 0 -6.1105483379056913e-06 0.00019180698600120333 0 1.0763450857938257e-05 0.00021238081293252199 0 1.0763450857938257e-05 0.00021238081293252199 0 2.0291249019895974e-05 0.00019315308567096002 0 3.5003839720388557e-05 0.0002129001543181449 0 1.8461432549616298e-05 0.00016374894419635065 0 2.0291249019895978e-05 0.00019315308567096002 0 4.3818827202852019e-05 0.00018460709020269632 0 1.8461432549616298e-05 0.00016374894419635065 0 -6.1105483379056871e-06 0.00019180698600120333 0 2.0291249019895978e-05 0.00019315308567096002 0 2.0291249019895978e-05 0.00019315308567096002 0 4.3818827202852019e-05 0.00018460709020269632 0 3.5003839720388557e-05 0.0002129001543181449 0 4.3818827202852019e-05 0.00018460709020269632 0 3.5003839720388557e-05 0.0002129001543181449 0 5.8653781257254083e-05 0.00020131716325374864 0 3.5003839720388557e-05 0.0002129001543181449 0 1.7478900657364987e-05 0.00024353767446749281 0 4.7456683232266107e-05 0.00024775967042052493 0 3.5003839720388557e-05 0.0002129001543181449 0 4.7456683232266107e-05 0.00024775967042052493 0 5.963218545326318e-05 0.000222668145930547 0 1.0763450857938257e-05 0.00021238081293252199 0 3.5003839720388557e-05 0.0002129001543181449 0 1.7478900657364987e-05 0.00024353767446749281 0 1.7478900657364987e-05 0.00024353767446749281 0 4.7456683232266107e-05 0.00024775967042052493 0 2.804813076890717e-05 0.00028124276822455208 0 4.7456683232266107e-05 0.00024775967042052493 0 2.8048130768907177e-05 0.00028124276822455208 0 6.0661114151916544e-05 0.0002776255058819065 0 2.804813076890717e-05 0.00028124276822455208 0 5.7610726657655122e-05 0.00030858698570753948 0 2.5206320540684018e-05 0.00031669884568464576 0 2.804813076890717e-05 0.00028124276822455208 0 5.7610726657655128e-05 0.00030858698570753948 0 6.0661114151916544e-05 0.0002776255058819065 0 5.7610726657655128e-05 0.00030858698570753948 0 4.6854260572142662e-05 0.00033061681714971459 0 2.5206320540684018e-05 0.00031669884568464576 0 5.7610726657655128e-05 0.00030858698570753948 0 4.6854260572142655e-05 0.00033061681714971459 0 7.6424889671452461e-05 0.00032686901874340139 0 4.6854260572142662e-05 0.00033061681714971459 0 7.6424889671452461e-05 0.00032686901874340139 0 6.7533996533364975e-05 0.00034864859370314406 0 4.6854260572142662e-05 0.00033061681714971459 0 3.054389538432469e-05 0.00034923319580042157 0 6.7533996533364975e-05 0.00034864859370314406 0 4.6854260572142662e-05 0.00033061681714971459 0 3.054389538432469e-05 0.00034923319580042157 0 2.5206320540684018e-05 0.00031669884568464576 0 -4.2652060468293363e-06 0.00034861134441853208 0 -6.0138921090047614e-06 0.00030501915636809519 0 -3.5602633944267472e-05 0.00031669140670564531 0 2.5206320540684018e-05 0.00031669884568464576 0 -4.2652060468293397e-06 0.00034861134441853208 0 -6.0138921090047614e-06 0.00030501915636809519 0 3.054389538432469e-05 0.00034923319580042157 0 2.5206320540684018e-05 0.00031669884568464576 0 -4.2652060468293363e-06 0.00034861134441853208 0 -6.0138921090047614e-06 0.00030501915636809519 0 -5.4704326773672159e-06 0.00026659389864956457 0 -4.147130485655324e-05 0.00028259830655744204 0 2.804813076890717e-05 0.00028124276822455208 0 2.5206320540684018e-05 0.00031669884568464576 0 -6.0138921090047614e-06 0.00030501915636809519 0 2.804813076890717e-05 0.00028124276822455208 0 -6.0138921090047614e-06 0.00030501915636809519 0 -5.4704326773672159e-06 0.00026659389864956457 0 1.7478900657364987e-05 0.00024353767446749281 0 2.804813076890717e-05 0.00028124276822455208 0 -5.4704326773672159e-06 0.00026659389864956457 0 -2.9647960511343608e-05 0.00024983234695293401 0 -5.4704326773672159e-06 0.00026659389864956457 0 -4.147130485655324e-05 0.00028259830655744204 0 -6.1174312173892307e-05 0.00024713506327533376 0 -4.1471304856553233e-05 0.00028259830655744204 0 -7.3453067677244942e-05 0.0002793491967047512 0 -4.147130485655324e-05 0.00028259830655744204 0 -3.5602633944267472e-05 0.00031669140670564531 0 -6.7112291572316073e-05 0.00030986444538702411 0 -4.147130485655324e-05 0.00028259830655744204 0 -6.7112291572316073e-05 0.00030986444538702411 0 -7.3453067677244942e-05 0.0002793491967047512 0 -6.0138921090047614e-06 0.00030501915636809519 0 -4.1471304856553233e-05 0.00028259830655744204 0 -3.5602633944267472e-05 0.00031669140670564531 0 -4.2652060468293363e-06 0.00034861134441853208 0 -3.5602633944267472e-05 0.00031669140670564531 0 -3.7596180338583155e-05 0.00034799882010194092 0 -3.7596180338583155e-05 0.00034799882010194092 0 -5.4498426614038122e-05 0.00033045047818556334 0 -7.090703146690977e-05 0.00034762084361506044 0 -3.5602633944267472e-05 0.00031669140670564531 0 -3.7596180338583155e-05 0.00034799882010194092 0 -5.4498426614038122e-05 0.00033045047818556334 0 -3.5602633944267472e-05 0.00031669140670564531 0 -5.4498426614038122e-05 0.00033045047818556334 0 -6.7112291572316073e-05 0.00030986444538702411 0 -5.4498426614038122e-05 0.00033045047818556334 0 -6.7112291572316059e-05 0.00030986444538702411 0 -8.2066240186490661e-05 0.00032862791278623116 0 -5.4498426614038122e-05 0.00033045047818556334 0 -8.2066240186490661e-05 0.00032862791278623116 0 -7.090703146690977e-05 0.00034762084361506044 0 -8.2066240186490661e-05 0.00032862791278623116 0 -7.090703146690977e-05 0.00034762084361506044 0 -0.00010419410511459545 0.00034767260306657789 0 -8.2066240186490661e-05 0.00032862791278623116 0 -0.00010419410511459547 0.00034767260306657789 0 -0.00010422671124481382 0.0003141527266529218 0 -6.7112291572316073e-05 0.00030986444538702411 0 -8.2066240186490661e-05 0.00032862791278623116 0 -0.00010422671124481382 0.0003141527266529218 0 -0.00010422671124481382 0.0003141527266529218 0 -7.3453067677244942e-05 0.0002793491967047512 0 -0.00010379430090384411 0.0002804150265267933 0 -6.7112291572316073e-05 0.00030986444538702411 0 -0.00010422671124481382 0.0003141527266529218 0 -7.3453067677244942e-05 0.0002793491967047512 0 -0.00010271457443432227 0.00024658092506031431 0 -7.3453067677244942e-05 0.0002793491967047512 0 -0.00010379430090384411 0.0002804150265267933 0 3.4271112914665964e-05 -4.0604522440509826e-05 0 3.3546845046936012e-05 -4.6908953110212531e-05 0 2.917106592963332e-05 -4.191447241714622e-05 0 3.4271112914665964e-05 -4.0604522440509826e-05 0 3.9749311861543637e-05 -4.6913642894169103e-05 0 4.0557513861232704e-05 -4.2354733282065095e-05 0 3.4271112914665964e-05 -4.0604522440509826e-05 0 3.7849087903209644e-05 -3.8126633511956822e-05 0 4.0557513861232704e-05 -4.2354733282065095e-05 0 3.4271112914665964e-05 -4.0604522440509826e-05 0 3.9749311861543637e-05 -4.6913642894169103e-05 0 3.3546845046936012e-05 -4.6908953110212531e-05 0 3.3546845046936012e-05 -4.6908953110212531e-05 0 2.6730827481487844e-05 -4.6476256437832768e-05 0 2.917106592963332e-05 -4.191447241714622e-05 0 2.6730827481487844e-05 -4.6476256437832768e-05 0 2.4152047140338981e-05 -3.998718545336288e-05 0 2.917106592963332e-05 -4.191447241714622e-05 0 2.6730827481487844e-05 -4.6476256437832768e-05 0 2.4152047140338981e-05 -3.998718545336288e-05 0 2.2441842284435216e-05 -4.3564377053649477e-05 0 2.4152047140338981e-05 -3.998718545336288e-05 0 2.917106592963332e-05 -4.191447241714622e-05 0 2.6276790271436578e-05 -3.5313344163361254e-05 0 2.4152047140338981e-05 -3.998718545336288e-05 0 2.6276790271436578e-05 -3.5313344163361254e-05 0 2.1632746354664851e-05 -3.5743486179094257e-05 0 2.6276790271436578e-05 -3.5313344163361254e-05 0 2.1632746354664851e-05 -3.5743486179094257e-05 0 1.9538204113359679e-05 -3.1033644303070937e-05 0 2.8116937732571667e-05 -2.9608279150907212e-05 0 2.6276790271436578e-05 -3.5313344163361254e-05 0 3.2218847121157417e-05 -3.5723106081324047e-05 0 3.4271112914665964e-05 -4.0604522440509826e-05 0 2.6276790271436578e-05 -3.5313344163361254e-05 0 3.2218847121157417e-05 -3.5723106081324047e-05 0 3.4271112914665964e-05 -4.0604522440509826e-05 0 2.917106592963332e-05 -4.191447241714622e-05 0 2.6276790271436578e-05 -3.5313344163361254e-05 0 3.4271112914665964e-05 -4.0604522440509826e-05 0 3.2218847121157417e-05 -3.5723106081324047e-05 0 3.7849087903209644e-05 -3.8126633511956822e-05 0 3.5129947619303863e-05 -3.3017156912465286e-05 0 3.2218847121157417e-05 -3.5723106081324047e-05 0 3.7849087903209644e-05 -3.8126633511956822e-05 0 3.5129947619303863e-05 -3.3017156912465286e-05 0 4.1095216677554946e-05 -3.4375667124460013e-05 0 3.7849087903209644e-05 -3.8126633511956822e-05 0 4.3395592505617378e-05 -2.9805572225777393e-05 0 3.8767997238556107e-05 -2.9371009036195434e-05 0 4.1095216677554946e-05 -3.4375667124460013e-05 0 4.1095216677554946e-05 -3.4375667124460013e-05 0 4.6691682817200965e-05 -3.4353274674602319e-05 0 4.4645392057817035e-05 -3.9316176559572221e-05 0 4.1095216677554946e-05 -3.4375667124460013e-05 0 3.7849087903209644e-05 -3.8126633511956822e-05 0 4.4645392057817035e-05 -3.9316176559572221e-05 0 7.4666193240687903e-05 0.00017718018238998534 0 4.3818827202852019e-05 0.00018460709020269632 0 5.8653781257254083e-05 0.00020131716325374864 0 7.4666193240687903e-05 0.00017718018238998534 0 7.9849215300497442e-05 0.00020817051627456171 0 5.8653781257254083e-05 0.00020131716325374864 0 4.3395592505617378e-05 -2.9805572225777393e-05 0 4.1095216677554946e-05 -3.4375667124460013e-05 0 4.6691682817200965e-05 -3.4353274674602319e-05 0 5.8751533280044859e-05 7.3655470509371331e-05 0 6.3008313023695957e-05 8.7207211813829951e-05 0 3.5003839720388557e-05 0.0002129001543181449 0 5.8653781257254083e-05 0.00020131716325374864 0 5.963218545326318e-05 0.000222668145930547 0 7.9849215300497442e-05 0.00020817051627456171 0 5.8653781257254083e-05 0.00020131716325374864 0 5.963218545326318e-05 0.000222668145930547 0 4.7456683232266107e-05 0.00024775967042052493 0 5.963218545326318e-05 0.000222668145930547 0 8.5049911502213787e-05 0.00024059569222751895 0 6.3008313023695957e-05 8.7207211813829951e-05 0 6.6595012132862635e-05 9.9885304534966062e-05 0 4.6691682817200965e-05 -3.4353274674602319e-05 0 5.0894149082052582e-05 -3.9521219822291808e-05 0 4.4645392057817035e-05 -3.9316176559572221e-05 0 7.9849215300497442e-05 0.00020817051627456171 0 5.963218545326318e-05 0.000222668145930547 0 8.5049911502213787e-05 0.00024059569222751895 0 6.6595012132862635e-05 9.9885304534966062e-05 0 7.5176886614255253e-05 0.0001151966387821059 0 4.7456683232266107e-05 0.00024775967042052493 0 8.5049911502213787e-05 0.00024059569222751895 0 6.0661114151916544e-05 0.0002776255058819065 0 3.7849087903209644e-05 -3.8126633511956822e-05 0 4.0557513861232704e-05 -4.2354733282065095e-05 0 4.4645392057817035e-05 -3.9316176559572221e-05 0 5.0894149082052582e-05 -3.9521219822291808e-05 0 4.4645392057817035e-05 -3.9316176559572221e-05 0 4.7151587829867379e-05 -4.6228545025846773e-05 0 3.9749311861543637e-05 -4.6913642894169103e-05 0 4.0557513861232704e-05 -4.2354733282065095e-05 0 4.7151587829867379e-05 -4.6228545025846773e-05 0 4.0557513861232704e-05 -4.2354733282065095e-05 0 4.4645392057817035e-05 -3.9316176559572221e-05 0 4.7151587829867379e-05 -4.6228545025846773e-05 0 4.7151587829867379e-05 -4.6228545025846773e-05 0 5.3055916348856704e-05 -5.1830019256279727e-05 0 4.5753197212779284e-05 -5.2983571132037359e-05 0 3.9749311861543637e-05 -4.6913642894169103e-05 0 4.7151587829867379e-05 -4.6228545025846773e-05 0 4.5753197212779284e-05 -5.2983571132037359e-05 0 5.0894149082052582e-05 -3.9521219822291808e-05 0 4.7151587829867379e-05 -4.6228545025846773e-05 0 5.6303391342328937e-05 -4.5686312891259881e-05 0 4.7151587829867379e-05 -4.6228545025846773e-05 0 5.3055916348856698e-05 -5.183001925627972e-05 0 5.6303391342328937e-05 -4.5686312891259881e-05 0 5.3055916348856698e-05 -5.183001925627972e-05 0 4.5753197212779284e-05 -5.2983571132037359e-05 0 5.5056455837605105e-05 -5.9159173616857735e-05 0 8.5049911502213787e-05 0.00024059569222751895 0 6.0661114151916544e-05 0.0002776255058819065 0 9.048153883527519e-05 0.00027369181436068257 0 7.5176886614255253e-05 0.0001151966387821059 0 6.8699054716115279e-05 0.00012567573904627777 0 5.3055916348856698e-05 -5.183001925627972e-05 0 5.6303391342328937e-05 -4.5686312891259881e-05 0 6.3311565032526563e-05 -5.3825684133217695e-05 0 6.0661114151916544e-05 0.0002776255058819065 0 9.048153883527519e-05 0.00027369181436068257 0 9.6769501862489522e-05 0.00030826624607204297 0 5.7610726657655128e-05 0.00030858698570753948 0 6.0661114151916544e-05 0.0002776255058819065 0 9.6769501862489522e-05 0.00030826624607204297 0 5.7610726657655128e-05 0.00030858698570753948 0 9.6769501862489522e-05 0.00030826624607204297 0 7.6424889671452461e-05 0.00032686901874340139 0 6.8699054716115279e-05 0.00012567573904627777 0 0.00012522740812342308 0.00014105046632115504 0 9.6769501862489522e-05 0.00030826624607204297 0 0.00010516311673098486 0.00034427487557655586 0 7.6424889671452461e-05 0.00032686901874340139 0 0.00010516311673098486 0.00034427487557655586 0 7.6424889671452461e-05 0.00032686901874340139 0 6.7533996533364975e-05 0.00034864859370314406 0 4.5753197212779284e-05 -5.2983571132037359e-05 0 5.5056455837605105e-05 -5.9159173616857735e-05 0 4.2843062674746079e-05 -6.017722070243482e-05 0 5.3055916348856698e-05 -5.183001925627972e-05 0 6.3311565032526563e-05 -5.3825684133217695e-05 0 5.5056455837605105e-05 -5.9159173616857735e-05 0 6.3311565032526563e-05 -5.3825684133217695e-05 0 7.1448956432360676e-05 -6.4968083016581855e-05 0 5.5056455837605105e-05 -5.9159173616857735e-05 0 7.1448956432360676e-05 -6.4968083016581855e-05 0 5.5056455837605105e-05 -5.9159173616857735e-05 0 5.7955251668120788e-05 -6.873276567370874e-05 0 5.5056455837605105e-05 -5.9159173616857735e-05 0 5.7955251668120788e-05 -6.873276567370874e-05 0 4.2843062674746079e-05 -6.017722070243482e-05 0 4.2843062674746079e-05 -6.017722070243482e-05 0 3.4610068729675226e-05 -5.5928577055895795e-05 0 3.5820107222132241e-05 -6.5563607566610407e-05 0 5.7955251668120788e-05 -6.873276567370874e-05 0 4.5968278187077904e-05 -6.8337579922763368e-05 0 4.2843062674746079e-05 -6.017722070243482e-05 0 4.5968278187077904e-05 -6.8337579922763368e-05 0 4.2843062674746079e-05 -6.017722070243482e-05 0 3.5820107222132241e-05 -6.5563607566610407e-05 0 4.5753197212779284e-05 -5.2983571132037359e-05 0 4.2843062674746079e-05 -6.017722070243482e-05 0 3.7839888998825457e-05 -5.2488289493632587e-05 0 4.2843062674746079e-05 -6.017722070243482e-05 0 3.7839888998825457e-05 -5.2488289493632587e-05 0 3.4610068729675226e-05 -5.5928577055895795e-05 0 3.3546845046936012e-05 -4.6908953110212531e-05 0 3.7839888998825457e-05 -5.2488289493632587e-05 0 3.0110025443048196e-05 -5.162943806228104e-05 0 3.9749311861543637e-05 -4.6913642894169103e-05 0 3.3546845046936012e-05 -4.6908953110212531e-05 0 3.7839888998825457e-05 -5.2488289493632587e-05 0 3.9749311861543637e-05 -4.6913642894169103e-05 0 4.5753197212779284e-05 -5.2983571132037359e-05 0 3.7839888998825457e-05 -5.2488289493632587e-05 0 2.6730827481487844e-05 -4.6476256437832768e-05 0 3.0110025443048196e-05 -5.162943806228104e-05 0 2.547197305056052e-05 -5.1833010363986555e-05 0 3.3546845046936012e-05 -4.6908953110212531e-05 0 2.6730827481487844e-05 -4.6476256437832768e-05 0 3.0110025443048196e-05 -5.162943806228104e-05 0 3.0110025443048196e-05 -5.162943806228104e-05 0 3.4610068729675226e-05 -5.5928577055895795e-05 0 2.9213065540686301e-05 -5.7349157813386629e-05 0 3.7839888998825457e-05 -5.2488289493632587e-05 0 3.0110025443048196e-05 -5.1629438062281046e-05 0 3.4610068729675226e-05 -5.5928577055895795e-05 0 3.0110025443048196e-05 -5.162943806228104e-05 0 2.9213065540686301e-05 -5.7349157813386629e-05 0 2.547197305056052e-05 -5.1833010363986555e-05 0 3.4610068729675226e-05 -5.5928577055895795e-05 0 2.9213065540686301e-05 -5.7349157813386629e-05 0 3.5820107222132241e-05 -6.5563607566610407e-05 0 2.9213065540686301e-05 -5.7349157813386629e-05 0 3.5820107222132241e-05 -6.5563607566610407e-05 0 2.8628385734211151e-05 -6.2031366096307406e-05 0 2.9213065540686301e-05 -5.7349157813386629e-05 0 2.8628385734211151e-05 -6.2031366096307406e-05 0 2.5143771797524334e-05 -5.6506277151116873e-05 0 2.8628385734211151e-05 -6.2031366096307406e-05 0 2.3532511417428159e-05 -5.8319624421733051e-05 0 2.5143771797524334e-05 -5.6506277151116873e-05 0 2.3532511417428159e-05 -5.8319624421733051e-05 0 2.0888487066566181e-05 -5.2745561599426316e-05 0 2.5143771797524334e-05 -5.6506277151116873e-05 0 2.0888487066566181e-05 -5.2745561599426316e-05 0 2.5143771797524334e-05 -5.6506277151116873e-05 0 2.547197305056052e-05 -5.1833010363986555e-05 0 2.9213065540686301e-05 -5.7349157813386629e-05 0 2.5143771797524334e-05 -5.6506277151116873e-05 0 2.547197305056052e-05 -5.1833010363986555e-05 0 2.1141656429668597e-05 -5.5274904867048132e-05 0 1.8736130741283656e-05 -5.3161143390632052e-05 0 2.0238879901295524e-05 -5.3848196800047148e-05 0 2.3532511417428159e-05 -5.8319624421733051e-05 0 2.1141656429668597e-05 -5.5274904867048132e-05 0 1.8736130741283656e-05 -5.3161143390632052e-05 0 2.3532511417428159e-05 -5.8319624421733051e-05 0 2.0888487066566181e-05 -5.2745561599426316e-05 0 1.8736130741283656e-05 -5.3161143390632052e-05 0 1.8736130741283656e-05 -5.3161143390632052e-05 0 1.7525046310107254e-05 -4.9159893897502427e-05 0 1.5328666979141449e-05 -4.9992464690738964e-05 0 2.0888487066566181e-05 -5.2745561599426316e-05 0 1.8736130741283656e-05 -5.3161143390632052e-05 0 1.7525046310107254e-05 -4.9159893897502427e-05 0 1.7525046310107254e-05 -4.9159893897502427e-05 0 2.090563055137687e-05 -4.7693756187908215e-05 0 1.7036985147437847e-05 -4.4991221458897895e-05 0 1.7525046310107254e-05 -4.9159893897502427e-05 0 1.7036985147437847e-05 -4.4991221458897895e-05 0 1.4186104291653239e-05 -4.549400348817593e-05 0 1.7525046310107254e-05 -4.9159893897502427e-05 0 1.4186104291653239e-05 -4.549400348817593e-05 0 1.5328666979141449e-05 -4.9992464690738964e-05 0 2.0888487066566181e-05 -5.2745561599426316e-05 0 2.547197305056052e-05 -5.1833010363986555e-05 0 2.090563055137687e-05 -4.7693756187908215e-05 0 2.0888487066566181e-05 -5.2745561599426316e-05 0 1.7525046310107254e-05 -4.9159893897502427e-05 0 2.090563055137687e-05 -4.7693756187908215e-05 0 2.6730827481487844e-05 -4.6476256437832768e-05 0 2.547197305056052e-05 -5.1833010363986555e-05 0 2.090563055137687e-05 -4.7693756187908215e-05 0 2.6730827481487844e-05 -4.6476256437832768e-05 0 2.090563055137687e-05 -4.7693756187908215e-05 0 2.2441842284435216e-05 -4.3564377053649477e-05 0 2.4152047140338981e-05 -3.998718545336288e-05 0 2.2441842284435213e-05 -4.3564377053649471e-05 0 2.0219554210194014e-05 -3.9636535715342954e-05 0 2.2441842284435216e-05 -4.3564377053649477e-05 0 2.0219554210194014e-05 -3.9636535715342954e-05 0 1.9247827502903393e-05 -4.3521542958911419e-05 0 2.0219554210194014e-05 -3.9636535715342954e-05 0 1.9247827502903389e-05 -4.3521542958911412e-05 0 1.6782777415537279e-05 -4.0099131420804567e-05 0 2.090563055137687e-05 -4.7693756187908215e-05 0 2.2441842284435216e-05 -4.3564377053649477e-05 0 1.9247827502903393e-05 -4.3521542958911419e-05 0 1.9247827502903393e-05 -4.3521542958911419e-05 0 1.7036985147437847e-05 -4.4991221458897895e-05 0 1.6782777415537279e-05 -4.0099131420804567e-05 0 2.090563055137687e-05 -4.7693756187908215e-05 0 1.9247827502903393e-05 -4.3521542958911419e-05 0 1.7036985147437847e-05 -4.4991221458897895e-05 0 1.7036985147437847e-05 -4.4991221458897895e-05 0 1.4186104291653239e-05 -4.549400348817593e-05 0 1.341383763518888e-05 -3.9386124281885441e-05 0 1.4186104291653239e-05 -4.549400348817593e-05 0 1.3413837635188882e-05 -3.9386124281885441e-05 0 1.1615301074364744e-05 -4.2239494324576647e-05 0 1.7036985147437847e-05 -4.4991221458897895e-05 0 1.341383763518888e-05 -3.9386124281885441e-05 0 1.6782777415537279e-05 -4.0099131420804567e-05 0 1.6782777415537279e-05 -4.0099131420804567e-05 0 1.2909653642184721e-05 -3.4729971407571995e-05 0 1.7519077692934554e-05 -3.5533656331946006e-05 0 1.341383763518888e-05 -3.9386124281885441e-05 0 1.6782777415537279e-05 -4.0099131420804567e-05 0 1.2909653642184721e-05 -3.4729971407571995e-05 0 1.341383763518888e-05 -3.9386124281885441e-05 0 1.2909653642184721e-05 -3.4729971407571995e-05 0 8.5228237640983661e-06 -3.6337299508281032e-05 0 1.2909653642184721e-05 -3.4729971407571995e-05 0 1.7519077692934554e-05 -3.5533656331946006e-05 0 1.5628599722852485e-05 -3.0151301671864741e-05 0 1.7519077692934554e-05 -3.5533656331946006e-05 0 1.5628599722852485e-05 -3.0151301671864741e-05 0 1.9538204113359679e-05 -3.1033644303070937e-05 0 1.7519077692934554e-05 -3.5533656331946006e-05 0 2.1632746354664851e-05 -3.5743486179094257e-05 0 1.9538204113359679e-05 -3.1033644303070937e-05 0 2.0219554210194014e-05 -3.9636535715342954e-05 0 1.7519077692934554e-05 -3.5533656331946006e-05 0 2.1632746354664851e-05 -3.5743486179094257e-05 0 2.4152047140338981e-05 -3.998718545336288e-05 0 2.0219554210194014e-05 -3.9636535715342954e-05 0 2.1632746354664851e-05 -3.5743486179094257e-05 0 2.0219554210194014e-05 -3.9636535715342954e-05 0 1.6782777415537279e-05 -4.0099131420804567e-05 0 1.7519077692934554e-05 -3.5533656331946006e-05 0 3.0181391236846967e-05 -0.00010413074491779401 0 1.663793133622797e-05 -9.566211923402331e-05 0 1.9642811157937124e-05 -0.00011057421598775341 0 1.7403680431596764e-05 -7.2241951252973135e-05 0 1.5278829701943789e-05 -6.0953165164771763e-05 0 3.0181391236846967e-05 -0.00010413074491779401 0 1.663793133622797e-05 -9.566211923402331e-05 0 2.7522459662597253e-05 -8.773039169560236e-05 0 4.8013106266360323e-06 -4.0293987125216564e-05 0 8.5228237640983661e-06 -3.6337299508281032e-05 0 3.2123252067069802e-06 -3.4157977950310574e-05 0 8.5228237640983661e-06 -3.6337299508281032e-05 0 6.3102669447600553e-06 -3.049706214381095e-05 0 3.2123252067069802e-06 -3.4157977950310574e-05 0 1.2909653642184721e-05 -3.4729971407571995e-05 0 8.5228237640983661e-06 -3.6337299508281032e-05 0 9.6259042787518596e-06 -3.1880573467493408e-05 0 8.5228237640983661e-06 -3.6337299508281032e-05 0 9.6259042787518596e-06 -3.1880573467493408e-05 0 6.3102669447600553e-06 -3.049706214381095e-05 0 1.341383763518888e-05 -3.9386124281885441e-05 0 8.5228237640983661e-06 -3.6337299508281032e-05 0 1.1615301074364744e-05 -4.2239494324576647e-05 0 4.8013106266360323e-06 -4.0293987125216564e-05 0 8.5228237640983661e-06 -3.6337299508281032e-05 0 8.3914317707433143e-06 -4.1926028250100533e-05 0 8.5228237640983661e-06 -3.6337299508281032e-05 0 8.3914317707433143e-06 -4.1926028250100533e-05 0 1.1615301074364744e-05 -4.2239494324576647e-05 0 8.3914317707433143e-06 -4.1926028250100533e-05 0 1.1615301074364744e-05 -4.2239494324576647e-05 0 1.1449210350091507e-05 -4.6727832939688137e-05 0 1.4186104291653239e-05 -4.549400348817593e-05 0 1.1615301074364744e-05 -4.2239494324576647e-05 0 1.1449210350091507e-05 -4.6727832939688137e-05 0 8.3914317707433143e-06 -4.1926028250100533e-05 0 1.1449210350091507e-05 -4.6727832939688137e-05 0 7.1944297300532031e-06 -4.5982938533590913e-05 0 1.1449210350091507e-05 -4.6727832939688137e-05 0 7.1944297300532031e-06 -4.5982938533590913e-05 0 1.0619353256157603e-05 -5.0806297095558544e-05 0 3.2906499693819688e-05 -0.00012144969535348539 0 1.9642811157937124e-05 -0.00011057421598775341 0 1.2607318223667931e-05 -0.00012423600504085782 0 3.2906499693819688e-05 -0.00012144969535348539 0 2.0572481887894065e-05 -0.00014095130893888297 0 1.2607318223667931e-05 -0.00012423600504085782 0 1.9744334529684162e-05 -8.3560706644494458e-05 0 2.3559666616351521e-05 -9.5336233903624019e-05 0 4.8013106266360323e-06 -4.0293987125216564e-05 0 8.3914317707433143e-06 -4.1926028250100533e-05 0 7.1944297300532031e-06 -4.5982938533590913e-05 0 3.0181391236846967e-05 -0.00010413074491779401 0 3.2906499693819688e-05 -0.00012144969535348539 0 1.9642811157937124e-05 -0.00011057421598775341 0 1.7403680431596764e-05 -7.2241951252973135e-05 0 1.9744334529684162e-05 -8.3560706644494458e-05 0 3.2906499693819688e-05 -0.00012144969535348539 0 2.0572481887894065e-05 -0.00014095130893888297 0 3.5987853413277613e-05 -0.00013917590014448736 0 2.3559666616351521e-05 -9.5336233903624019e-05 0 2.5326056783385625e-05 -0.0001053682619872425 0 1.0619353256157603e-05 -5.0806297095558544e-05 0 1.3719343004030884e-05 -5.0853982341155234e-05 0 1.529503002648605e-05 -5.4161990134840124e-05 0 2.0572481887894065e-05 -0.00014095130893888297 0 3.5987853413277613e-05 -0.00013917590014448736 0 3.9674401106011828e-05 -0.00015769081403507667 0 2.0572481887894065e-05 -0.00014095130893888297 0 3.9674401106011828e-05 -0.00015769081403507667 0 1.9815855163704392e-05 -0.00015775212707016325 0 1.4186104291653239e-05 -4.549400348817593e-05 0 1.1449210350091507e-05 -4.6727832939688137e-05 0 1.5328666979141449e-05 -4.9992464690738964e-05 0 1.1449210350091507e-05 -4.6727832939688137e-05 0 1.3719343004030884e-05 -5.0853982341155234e-05 0 1.5328666979141449e-05 -4.9992464690738964e-05 0 1.1449210350091507e-05 -4.6727832939688137e-05 0 1.0619353256157603e-05 -5.0806297095558544e-05 0 1.3719343004030884e-05 -5.0853982341155234e-05 0 1.3719343004030884e-05 -5.0853982341155234e-05 0 1.5328666979141449e-05 -4.9992464690738964e-05 0 1.6802072170682092e-05 -5.2688626070389576e-05 0 1.8736130741283656e-05 -5.3161143390632052e-05 0 1.5328666979141449e-05 -4.9992464690738964e-05 0 1.6802072170682092e-05 -5.2688626070389576e-05 0 1.3719343004030884e-05 -5.0853982341155234e-05 0 1.6802072170682092e-05 -5.2688626070389576e-05 0 1.529503002648605e-05 -5.4161990134840124e-05 0 1.6802072170682092e-05 -5.2688626070389576e-05 0 1.529503002648605e-05 -5.4161990134840124e-05 0 2.081708706334345e-05 -5.5323843223005714e-05 0 1.6802072170682092e-05 -5.2688626070389576e-05 0 2.0238879901295524e-05 -5.3848196800047148e-05 0 2.081708706334345e-05 -5.5323843223005714e-05 0 1.8736130741283656e-05 -5.3161143390632052e-05 0 1.6802072170682092e-05 -5.2688626070389576e-05 0 2.0238879901295524e-05 -5.3848196800047148e-05 0 3.9674401106011828e-05 -0.00015769081403507667 0 2.9785739962936824e-05 -0.00016744941856775802 0 1.9815855163704392e-05 -0.00015775212707016325 0 2.5326056783385625e-05 -0.0001053682619872425 0 3.9411863874973698e-05 -0.0001164939600581907 0 3.9674401106011828e-05 -0.00015769081403507667 0 4.5083637614460378e-05 -0.00017651383844513442 0 2.9785739962936824e-05 -0.00016744941856775802 0 4.5083637614460378e-05 -0.00017651383844513442 0 2.9785739962936824e-05 -0.00016744941856775802 0 2.5756734678898069e-05 -0.0001787101695179574 0 2.9785739962936824e-05 -0.00016744941856775802 0 1.4720326863790654e-05 -0.00016919392016285256 0 2.5756734678898069e-05 -0.0001787101695179574 0 1.4720326863790655e-05 -0.00016919392016285256 0 2.5756734678898069e-05 -0.0001787101695179574 0 6.5900405038146023e-06 -0.00017871360018717681 0 1.4720326863790655e-05 -0.00016919392016285256 0 1.9815855163704392e-05 -0.00015775212707016325 0 3.4981313844084668e-06 -0.00016182037848744513 0 2.9785739962936824e-05 -0.00016744941856775802 0 1.4720326863790655e-05 -0.00016919392016285256 0 1.9815855163704392e-05 -0.00015775212707016325 0 1.4720326863790655e-05 -0.00016919392016285256 0 3.4981313844084672e-06 -0.00016182037848744513 0 6.5900405038146023e-06 -0.00017871360018717681 0 3.4981313844084668e-06 -0.00016182037848744513 0 -1.123223862708977e-05 -0.00017809884960047601 0 -1.2360791689522386e-05 -0.00015552431597083965 0 -1.123223862708977e-05 -0.00017809884960047601 0 -1.2360791689522386e-05 -0.00015552431597083965 0 -2.7302151716001477e-05 -0.00016145297014051059 0 3.4981313844084668e-06 -0.00016182037848744513 0 6.5900405038146023e-06 -0.00017871360018717681 0 -1.123223862708977e-05 -0.00017809884960047601 0 3.4981313844084668e-06 -0.00016182037848744513 0 -1.2360791689522386e-05 -0.00015552431597083965 0 4.5602266081073088e-06 -0.00014355120804002207 0 -1.2360791689522386e-05 -0.00015552431597083965 0 -1.4239232940479763e-05 -0.00013533740095503761 0 4.5602266081073088e-06 -0.00014355120804002207 0 -1.2360791689522386e-05 -0.00015552431597083965 0 -1.4239232940479763e-05 -0.00013533740095503761 0 -3.0375857500915723e-05 -0.00014329276964666042 0 -1.4239232940479763e-05 -0.00013533740095503761 0 4.5602266081073088e-06 -0.00014355120804002207 0 -2.8057783641845568e-06 -0.00012629154816084541 0 2.0572481887894065e-05 -0.00014095130893888297 0 4.5602266081073088e-06 -0.00014355120804002207 0 1.2607318223667931e-05 -0.00012423600504085782 0 2.0572481887894065e-05 -0.00014095130893888297 0 1.9815855163704392e-05 -0.00015775212707016325 0 4.5602266081073088e-06 -0.00014355120804002207 0 1.9815855163704392e-05 -0.00015775212707016325 0 3.4981313844084668e-06 -0.00016182037848744513 0 4.5602266081073088e-06 -0.00014355120804002207 0 -6.2443405414077416e-05 -0.00016012145772067313 0 -5.1046247285617905e-05 -0.0001675804623482991 0 -4.3355801737903145e-05 -0.00015787270120851005 0 -6.2443405414077416e-05 -0.00016012145772067313 0 -6.2421819969712996e-05 -0.00017739510330433037 0 -5.1046247285617905e-05 -0.0001675804623482991 0 -6.2421819969712996e-05 -0.00017739510330433037 0 -4.5302810022782052e-05 -0.00017736119447936066 0 -5.1046247285617905e-05 -0.0001675804623482991 0 -4.5302810022782059e-05 -0.00017736119447936069 0 -5.1046247285617905e-05 -0.0001675804623482991 0 -3.6905691836714233e-05 -0.0001685313801015538 0 -5.1046247285617905e-05 -0.0001675804623482991 0 -4.3355801737903145e-05 -0.00015787270120851005 0 -3.6905691836714233e-05 -0.0001685313801015538 0 -4.3355801737903145e-05 -0.00015787270120851005 0 -3.6905691836714233e-05 -0.0001685313801015538 0 -2.7302151716001477e-05 -0.00016145297014051059 0 -3.6905691836714233e-05 -0.0001685313801015538 0 -2.8220775301324332e-05 -0.00017761600325189538 0 -2.7302151716001477e-05 -0.00016145297014051059 0 -4.5302810022782059e-05 -0.00017736119447936069 0 -3.6905691836714233e-05 -0.0001685313801015538 0 -2.8220775301324332e-05 -0.00017761600325189538 0 -1.123223862708977e-05 -0.00017809884960047601 0 -2.8220775301324332e-05 -0.00017761600325189538 0 -2.7302151716001477e-05 -0.00016145297014051059 0 -1.2360791689522386e-05 -0.00015552431597083965 0 -2.7302151716001477e-05 -0.00016145297014051059 0 -3.0375857500915723e-05 -0.00014329276964666042 0 -1.4239232940479763e-05 -0.00013533740095503761 0 -3.0375857500915723e-05 -0.00014329276964666042 0 -2.6516554986048906e-05 -0.0001234331857892448 0 -3.0375857500915723e-05 -0.00014329276964666042 0 -4.6797371669851104e-05 -0.0001423959996650786 0 -4.1503298529629462e-05 -0.00012637001733708682 0 -4.3355801737903145e-05 -0.00015787270120851005 0 -2.7302151716001477e-05 -0.00016145297014051059 0 -3.0375857500915723e-05 -0.00014329276964666042 0 -4.3355801737903145e-05 -0.00015787270120851005 0 -3.0375857500915723e-05 -0.00014329276964666042 0 -4.6797371669851104e-05 -0.0001423959996650786 0 -6.2443405414077416e-05 -0.00016012145772067313 0 -4.3355801737903145e-05 -0.00015787270120851005 0 -4.6797371669851104e-05 -0.0001423959996650786 0 -4.6797371669851104e-05 -0.0001423959996650786 0 -6.2153828560999568e-05 -0.00014263216913129351 0 -6.1417758115074771e-05 -0.00012502618891579816 0 -6.2443405414077416e-05 -0.00016012145772067313 0 -4.6797371669851104e-05 -0.0001423959996650786 0 -6.2153828560999568e-05 -0.00014263216913129351 0 -6.1417758115074771e-05 -0.00012502618891579816 0 -4.8773498644210486e-05 -0.0001138258179533617 0 -6.0036995254881932e-05 -0.00010786515760142969 0 -4.6797371669851104e-05 -0.0001423959996650786 0 -6.1417758115074771e-05 -0.00012502618891579816 0 -4.1503298529629462e-05 -0.00012637001733708682 0 -4.1503298529629462e-05 -0.00012637001733708682 0 -4.8773498644210486e-05 -0.0001138258179533617 0 -3.6298259439962505e-05 -0.00010770178941547454 0 -6.1417758115074771e-05 -0.00012502618891579816 0 -4.1503298529629462e-05 -0.00012637001733708682 0 -4.8773498644210486e-05 -0.0001138258179533617 0 -4.1503298529629462e-05 -0.00012637001733708682 0 -2.6516554986048906e-05 -0.0001234331857892448 0 -3.6298259439962505e-05 -0.00010770178941547454 0 -3.0375857500915723e-05 -0.00014329276964666042 0 -4.1503298529629462e-05 -0.00012637001733708682 0 -2.6516554986048906e-05 -0.0001234331857892448 0 -2.6516554986048906e-05 -0.0001234331857892448 0 -2.4062552733090171e-05 -0.00010712309060954428 0 -3.6298259439962505e-05 -0.00010770178941547454 0 -2.6516554986048906e-05 -0.0001234331857892448 0 -2.4062552733090171e-05 -0.00010712309060954428 0 -1.3947198688036254e-05 -0.00011615657482559934 0 -2.4062552733090171e-05 -0.00010712309060954428 0 -2.9093774633914909e-05 -9.6362198342350136e-05 0 -3.6298259439962505e-05 -0.00010770178941547454 0 -2.9093774633914909e-05 -9.6362198342350136e-05 0 -1.610108872412014e-05 -9.6900332550465366e-05 0 -2.6726663679704653e-05 -8.1836256137048048e-05 0 -2.4062552733090171e-05 -0.00010712309060954428 0 -2.9093774633914909e-05 -9.6362198342350136e-05 0 -1.610108872412014e-05 -9.6900332550465366e-05 0 -2.9093774633914909e-05 -9.6362198342350136e-05 0 -3.6298259439962505e-05 -0.00010770178941547454 0 -4.1564470069437162e-05 -9.1332552190425979e-05 0 -4.8773498644210486e-05 -0.0001138258179533617 0 -3.6298259439962505e-05 -0.00010770178941547454 0 -4.9073548836842336e-05 -0.00010203589571962176 0 -3.6298259439962505e-05 -0.00010770178941547454 0 -4.9073548836842336e-05 -0.00010203589571962176 0 -4.1564470069437162e-05 -9.1332552190425979e-05 0 -4.9073548836842336e-05 -0.00010203589571962176 0 -4.1564470069437162e-05 -9.1332552190425979e-05 0 -5.7899452520275492e-05 -9.1157486879817328e-05 0 -4.9073548836842336e-05 -0.00010203589571962176 0 -6.0036995254881932e-05 -0.00010786515760142969 0 -5.7899452520275492e-05 -9.1157486879817328e-05 0 -4.8773498644210486e-05 -0.0001138258179533617 0 -4.9073548836842336e-05 -0.00010203589571962176 0 -6.0036995254881932e-05 -0.00010786515760142969 0 -2.773437315033459e-06 -0.00011097388425302224 0 1.2607318223667931e-05 -0.00012423600504085782 0 8.0942527437502018e-06 -0.00010503014456023846 0 -2.773437315033459e-06 -0.00011097388425302224 0 1.2607318223667931e-05 -0.00012423600504085782 0 -2.8057783641845568e-06 -0.00012629154816084541 0 1.9642811157937124e-05 -0.00011057421598775341 0 1.2607318223667931e-05 -0.00012423600504085782 0 8.0942527437502018e-06 -0.00010503014456023846 0 4.5602266081073088e-06 -0.00014355120804002207 0 1.2607318223667931e-05 -0.00012423600504085782 0 -2.8057783641845568e-06 -0.00012629154816084541 0 -1.4239232940479763e-05 -0.00013533740095503761 0 -2.8057783641845568e-06 -0.00012629154816084541 0 -1.3947198688036254e-05 -0.00011615657482559934 0 -1.4239232940479763e-05 -0.00013533740095503761 0 -2.6516554986048906e-05 -0.0001234331857892448 0 -1.3947198688036254e-05 -0.00011615657482559934 0 -2.773437315033459e-06 -0.00011097388425302224 0 -2.8057783641845568e-06 -0.00012629154816084541 0 -1.3947198688036254e-05 -0.00011615657482559934 0 -2.773437315033459e-06 -0.00011097388425302224 0 -1.610108872412014e-05 -9.6900332550465366e-05 0 -3.3591799563080219e-06 -9.4816345399542404e-05 0 -2.773437315033459e-06 -0.00011097388425302224 0 -1.3947198688036256e-05 -0.00011615657482559934 0 -1.610108872412014e-05 -9.6900332550465366e-05 0 -2.4062552733090171e-05 -0.00010712309060954428 0 -1.3947198688036254e-05 -0.00011615657482559934 0 -1.610108872412014e-05 -9.6900332550465366e-05 0 -1.610108872412014e-05 -9.6900332550465366e-05 0 -3.3591799563080211e-06 -9.4816345399542404e-05 0 -1.129417312008655e-05 -8.1883240649052432e-05 0 -3.3591799563080219e-06 -9.4816345399542404e-05 0 8.0942527437502018e-06 -0.00010503014456023846 0 6.3303791945881434e-06 -9.1489422840839861e-05 0 -2.773437315033459e-06 -0.00011097388425302224 0 -3.3591799563080219e-06 -9.4816345399542404e-05 0 8.0942527437502018e-06 -0.00010503014456023846 0 1.663793133622797e-05 -9.566211923402331e-05 0 1.9642811157937121e-05 -0.00011057421598775341 0 8.0942527437502018e-06 -0.00010503014456023846 0 1.663793133622797e-05 -9.566211923402331e-05 0 8.0942527437502018e-06 -0.00010503014456023846 0 6.3303791945881434e-06 -9.1489422840839861e-05 0 1.663793133622797e-05 -9.566211923402331e-05 0 6.3303791945881434e-06 -9.1489422840839861e-05 0 1.2204210910789798e-05 -8.0909965498026872e-05 0 6.3303791945881434e-06 -9.1489422840839861e-05 0 1.2204210910789798e-05 -8.0909965498026872e-05 0 -1.6780640235503075e-06 -8.1321463077413427e-05 0 1.2204210910789798e-05 -8.0909965498026872e-05 0 4.4896794172097946e-06 -7.1350460156583884e-05 0 -1.6780640235503075e-06 -8.1321463077413427e-05 0 1.2204210910789798e-05 -8.0909965498026872e-05 0 4.4896794172097946e-06 -7.1350460156583884e-05 0 1.2878113343855287e-05 -6.6572804572064421e-05 0 4.4896794172097946e-06 -7.1350460156583884e-05 0 -1.6780640235503083e-06 -8.1321463077413427e-05 0 -4.5497716357164067e-06 -6.9184854122687813e-05 0 -3.3591799563080219e-06 -9.4816345399542404e-05 0 6.3303791945881434e-06 -9.1489422840839861e-05 0 -1.6780640235503075e-06 -8.1321463077413427e-05 0 -3.3591799563080219e-06 -9.4816345399542404e-05 0 -1.6780640235503075e-06 -8.1321463077413427e-05 0 -1.129417312008655e-05 -8.1883240649052432e-05 0 -1.610108872412014e-05 -9.6900332550465366e-05 0 -1.129417312008655e-05 -8.1883240649052432e-05 0 -2.6726663679704653e-05 -8.1836256137048048e-05 0 -1.129417312008655e-05 -8.1883240649052432e-05 0 -1.5574735066252062e-05 -6.8492212900402271e-05 0 -2.6726663679704653e-05 -8.1836256137048048e-05 0 -1.6780640235503075e-06 -8.1321463077413427e-05 0 -1.129417312008655e-05 -8.1883240649052432e-05 0 -4.5497716357164067e-06 -6.9184854122687813e-05 0 -1.129417312008655e-05 -8.1883240649052432e-05 0 -1.5574735066252062e-05 -6.8492212900402271e-05 0 -4.5497716357164067e-06 -6.9184854122687813e-05 0 -1.5574735066252062e-05 -6.8492212900402271e-05 0 -5.4760448382680724e-06 -5.5223049399803959e-05 0 -4.5497716357164067e-06 -6.9184854122687813e-05 0 -1.5574735066252062e-05 -6.8492212900402271e-05 0 -2.2533690120474211e-05 -5.953691182676212e-05 0 -1.4320315394561315e-05 -5.0785222526329038e-05 0 -1.5574735066252062e-05 -6.8492212900402271e-05 0 -5.4760448382680707e-06 -5.5223049399803966e-05 0 -1.4320315394561315e-05 -5.0785222526329038e-05 0 -5.4760448382680732e-06 -5.5223049399803959e-05 0 3.777913094208867e-06 -5.9182820550444456e-05 0 3.4116287864661655e-06 -4.3193788165205381e-05 0 3.7779130942088679e-06 -5.9182820550444449e-05 0 3.4116287864661655e-06 -4.3193788165205381e-05 0 1.1894740909433874e-05 -5.1158631116038086e-05 0 4.4896794172097946e-06 -7.1350460156583884e-05 0 3.7779130942088687e-06 -5.9182820550444449e-05 0 1.2878113343855287e-05 -6.6572804572064421e-05 0 -5.4760448382680732e-06 -5.5223049399803959e-05 0 3.7779130942088679e-06 -5.9182820550444442e-05 0 -4.5497716357164067e-06 -6.9184854122687813e-05 0 4.4896794172097946e-06 -7.1350460156583884e-05 0 3.7779130942088679e-06 -5.9182820550444449e-05 0 -4.5497716357164067e-06 -6.9184854122687813e-05 0 -5.4986659160488167e-05 -7.5399598784102204e-05 0 -4.8264118126531957e-05 -8.3254720934158779e-05 0 -3.8774085781105646e-05 -7.4706457432344593e-05 0 -5.4986659160488167e-05 -7.5399598784102204e-05 0 -3.8774085781105646e-05 -7.4706457432344593e-05 0 -4.2609792411410582e-05 -6.3835949736299141e-05 0 -4.1564470069437162e-05 -9.1332552190425979e-05 0 -5.7899452520275492e-05 -9.1157486879817328e-05 0 -4.8264118126531957e-05 -8.3254720934158779e-05 0 -5.4986659160488167e-05 -7.5399598784102204e-05 0 -5.7899452520275492e-05 -9.1157486879817328e-05 0 -4.8264118126531957e-05 -8.3254720934158779e-05 0 -4.1564470069437162e-05 -9.1332552190425979e-05 0 -4.8264118126531957e-05 -8.3254720934158779e-05 0 -3.8774085781105646e-05 -7.4706457432344593e-05 0 -3.8774085781105646e-05 -7.4706457432344593e-05 0 -2.6726663679704653e-05 -8.1836256137048048e-05 0 -2.6637832893370757e-05 -6.8761502314745776e-05 0 -4.1564470069437162e-05 -9.1332552190425979e-05 0 -3.8774085781105646e-05 -7.4706457432344593e-05 0 -2.6726663679704653e-05 -8.1836256137048048e-05 0 -2.9093774633914909e-05 -9.6362198342350136e-05 0 -4.1564470069437162e-05 -9.1332552190425979e-05 0 -2.6726663679704653e-05 -8.1836256137048048e-05 0 -1.5574735066252062e-05 -6.8492212900402271e-05 0 -2.6726663679704656e-05 -8.1836256137048034e-05 0 -2.6637832893370757e-05 -6.8761502314745776e-05 0 -2.6637832893370757e-05 -6.8761502314745776e-05 0 -2.2533690120474211e-05 -5.953691182676212e-05 0 -3.2441242933860193e-05 -6.0349614419379958e-05 0 -1.5574735066252062e-05 -6.8492212900402271e-05 0 -2.6637832893370757e-05 -6.8761502314745776e-05 0 -2.2533690120474211e-05 -5.953691182676212e-05 0 -2.2533690120474211e-05 -5.953691182676212e-05 0 -2.4008818742367602e-05 -5.0258022826779094e-05 0 -1.4320315394561315e-05 -5.0785222526329038e-05 0 -2.2533690120474211e-05 -5.953691182676212e-05 0 -3.2441242933860193e-05 -6.0349614419379958e-05 0 -2.4008818742367602e-05 -5.0258022826779101e-05 0 -3.2441242933860193e-05 -6.0349614419379958e-05 0 -3.7213802924107516e-05 -5.1189878681541536e-05 0 -2.4008818742367602e-05 -5.0258022826779101e-05 0 -3.8774085781105646e-05 -7.4706457432344593e-05 0 -2.6637832893370757e-05 -6.8761502314745776e-05 0 -3.2441242933860193e-05 -6.0349614419379958e-05 0 -3.8774085781105646e-05 -7.4706457432344593e-05 0 -3.2441242933860193e-05 -6.0349614419379958e-05 0 -4.2609792411410582e-05 -6.3835949736299141e-05 0 -3.2441242933860193e-05 -6.0349614419379958e-05 0 -4.2609792411410582e-05 -6.3835949736299141e-05 0 -3.7213802924107516e-05 -5.1189878681541536e-05 0 -4.2609792411410582e-05 -6.3835949736299141e-05 0 -5.1502429079297825e-05 -6.0710825445846644e-05 0 -3.7213802924107516e-05 -5.1189878681541536e-05 0 -5.4986659160488167e-05 -7.5399598784102204e-05 0 -4.2609792411410582e-05 -6.3835949736299141e-05 0 -5.1502429079297825e-05 -6.0710825445846644e-05 0 -4.7446767156057937e-05 -4.7363069334301301e-05 0 -3.6660039807127441e-05 -3.9920061255947767e-05 0 -4.2542234227045495e-05 -3.5507849155920361e-05 0 -5.1502429079297825e-05 -6.0710825445846644e-05 0 -4.7446767156057937e-05 -4.7363069334301301e-05 0 -3.7213802924107516e-05 -5.1189878681541536e-05 0 -4.7446767156057937e-05 -4.7363069334301301e-05 0 -3.7213802924107516e-05 -5.1189878681541536e-05 0 -3.6660039807127441e-05 -3.9920061255947767e-05 0 -3.7213802924107516e-05 -5.1189878681541536e-05 0 -3.6660039807127441e-05 -3.9920061255947767e-05 0 -2.7953793249735116e-05 -3.9570027913829148e-05 0 -3.7213802924107516e-05 -5.1189878681541536e-05 0 -2.7953793249735116e-05 -3.9570027913829148e-05 0 -2.4008818742367602e-05 -5.0258022826779101e-05 0 -2.4008818742367602e-05 -5.0258022826779101e-05 0 -2.0430895923828299e-05 -4.1063633554536466e-05 0 -1.4320315394561315e-05 -5.0785222526329038e-05 0 -2.7953793249735116e-05 -3.9570027913829148e-05 0 -2.4008818742367602e-05 -5.0258022826779101e-05 0 -2.0430895923828299e-05 -4.1063633554536466e-05 0 -2.0430895923828299e-05 -4.1063633554536466e-05 0 -2.1298491527195554e-05 -3.2860615559597747e-05 0 -1.3276939627938865e-05 -3.4669031118442299e-05 0 -2.7953793249735116e-05 -3.9570027913829148e-05 0 -2.0430895923828299e-05 -4.1063633554536466e-05 0 -2.1298491527195554e-05 -3.2860615559597747e-05 0 -2.1298491527195554e-05 -3.2860615559597747e-05 0 -1.722913377119425e-05 -2.4195659532709216e-05 0 -2.8631213792241286e-05 -2.8187804043125323e-05 0 -2.0127427805415583e-05 -1.9096008167673563e-05 0 -1.722913377119425e-05 -2.4195659532709216e-05 0 -2.8631213792241286e-05 -2.8187804043125323e-05 0 -2.7953793249735116e-05 -3.9570027913829148e-05 0 -2.1298491527195554e-05 -3.2860615559597747e-05 0 -2.8631213792241286e-05 -2.8187804043125323e-05 0 -3.6660039807127441e-05 -3.9920061255947767e-05 0 -2.8631213792241286e-05 -2.8187804043125323e-05 0 -4.2542234227045495e-05 -3.5507849155920361e-05 0 -3.6660039807127441e-05 -3.9920061255947767e-05 0 -2.7953793249735116e-05 -3.9570027913829148e-05 0 -2.8631213792241286e-05 -2.8187804043125323e-05 0 -3.7676295582316615e-05 -2.5492664075613807e-05 0 -2.8631213792241286e-05 -2.8187804043125323e-05 0 -4.2542234227045495e-05 -3.5507849155920361e-05 0 3.4116287864661655e-06 -4.3193788165205381e-05 0 -6.8009556157701827e-06 -4.2610075254567965e-05 0 -3.8613802852659518e-06 -3.1601576946366819e-05 0 3.4116287864661655e-06 -4.3193788165205381e-05 0 -3.8613802852659518e-06 -3.1601576946366819e-05 0 4.260069467820932e-06 -2.8099739078410661e-05 0 -5.4760448382680732e-06 -5.5223049399803959e-05 0 3.4116287864661655e-06 -4.3193788165205381e-05 0 -6.8009556157701827e-06 -4.2610075254567965e-05 0 -5.4760448382680732e-06 -5.5223049399803959e-05 0 -6.8009556157701827e-06 -4.2610075254567965e-05 0 -1.4320315394561315e-05 -5.0785222526329038e-05 0 -2.0430895923828299e-05 -4.1063633554536466e-05 0 -1.4320315394561315e-05 -5.0785222526329038e-05 0 -1.3276939627938865e-05 -3.4669031118442299e-05 0 -6.8009556157701827e-06 -4.2610075254567965e-05 0 -1.4320315394561315e-05 -5.0785222526329038e-05 0 -1.3276939627938865e-05 -3.4669031118442299e-05 0 -6.8009556157701827e-06 -4.2610075254567965e-05 0 -1.3276939627938865e-05 -3.4669031118442299e-05 0 -3.8613802852659518e-06 -3.1601576946366819e-05 0 -1.3276939627938865e-05 -3.4669031118442299e-05 0 -9.4800675290270419e-06 -2.4364174633468686e-05 0 -3.8613802852659518e-06 -3.1601576946366819e-05 0 -2.1298491527195554e-05 -3.2860615559597747e-05 0 -1.722913377119425e-05 -2.4195659532709216e-05 0 -1.3276939627938865e-05 -3.4669031118442299e-05 0 -1.2900412157061183e-05 -1.9011304004231448e-05 0 -1.722913377119425e-05 -2.4195659532709216e-05 0 -9.4800675290270402e-06 -2.4364174633468686e-05 0 -1.722913377119425e-05 -2.4195659532709216e-05 0 -1.3276939627938865e-05 -3.4669031118442299e-05 0 -9.4800675290270402e-06 -2.4364174633468686e-05 0 -9.4800675290270402e-06 -2.4364174633468686e-05 0 -3.4059585705237301e-06 -2.1335319348703885e-05 0 -3.8613802852659518e-06 -3.1601576946366819e-05 0 -3.4059585705237301e-06 -2.1335319348703882e-05 0 -3.8613802852659518e-06 -3.1601576946366819e-05 0 4.260069467820932e-06 -2.8099739078410661e-05 0 2.7408404864524835e-06 -1.7586255605491651e-05 0 -3.4059585705237301e-06 -2.1335319348703882e-05 0 4.260069467820932e-06 -2.8099739078410661e-05 0 2.7408404864524835e-06 -1.7586255605491651e-05 0 7.9581336377644905e-06 -1.4776297059064212e-05 0 4.260069467820932e-06 -2.8099739078410661e-05 0 7.9581336377644905e-06 -1.4776297059064212e-05 0 4.8693288517799054e-06 -1.2247899388039729e-05 0 5.6746376670123127e-06 -1.1317915876016668e-05 0 7.9581336377644905e-06 -1.4776297059064212e-05 0 1.4393952465508478e-05 -3.0796927247870447e-05 0 4.260069467820932e-06 -2.8099739078410661e-05 0 6.8046934631227604e-06 -1.4600846608358363e-05 0 1.0096154529987173e-05 -2.16908190550479e-05 0 1.4393952465508478e-05 -3.0796927247870447e-05 0 4.260069467820932e-06 -2.8099739078410661e-05 0 1.058755416483555e-05 -3.8185268608047224e-05 0 3.4116287864661655e-06 -4.3193788165205381e-05 0 4.260069467820932e-06 -2.8099739078410661e-05 0 1.058755416483555e-05 -3.8185268608047224e-05 0 1.0096154529987173e-05 -2.16908190550479e-05 0 1.095140814925873e-05 -2.9923681508974448e-05 0 1.4393952465508478e-05 -3.0796927247870447e-05 0 1.058755416483555e-05 -3.8185268608047224e-05 0 1.8739268657541321e-05 -4.3744924042873936e-05 0 1.095140814925873e-05 -2.9923681508974448e-05 0 1.2234734584071358e-05 -3.958938309728371e-05 0 1.058755416483555e-05 -3.8185268608047224e-05 0 1.8739268657541321e-05 -4.3744924042873936e-05 0 1.1894740909433874e-05 -5.1158631116038086e-05 0 3.4116287864661655e-06 -4.3193788165205381e-05 0 1.058755416483555e-05 -3.8185268608047217e-05 0 1.1894740909433874e-05 -5.1158631116038086e-05 0 5.4665060577002222e-06 -1.7200903747503504e-05 0 6.2115478186614889e-06 -1.2390230652458665e-05 0 7.8964635810200328e-06 -1.5617609417016298e-05 0 3.3393862826726608e-06 -1.6187852154629588e-05 0 5.4665060577002222e-06 -1.7200903747503504e-05 0 2.4283500992577803e-06 -2.1599321265191927e-05 0 3.3393862826726608e-06 -1.6187852154629588e-05 0 5.4665060577002222e-06 -1.7200903747503504e-05 0 6.2115478186614889e-06 -1.2390230652458665e-05 0 4.8693288517799054e-06 -1.2247899388039729e-05 0 3.3393862826726608e-06 -1.6187852154629588e-05 0 6.2115478186614889e-06 -1.2390230652458665e-05 0 6.2115478186614889e-06 -1.2390230652458665e-05 0 5.6746376670123127e-06 -1.1317915876016668e-05 0 7.7045914316662277e-06 -9.1844828116779248e-06 0 4.8693288517799054e-06 -1.2247899388039729e-05 0 6.211547818661488e-06 -1.2390230652458663e-05 0 5.6746376670123127e-06 -1.1317915876016668e-05 0 6.5645325605955403e-06 -9.8982207795882852e-06 0 7.9581336377644905e-06 -1.4776297059064212e-05 0 5.6746376670123127e-06 -1.1317915876016668e-05 0 6.5645325605955403e-06 -9.8982207795882852e-06 0 5.6746376670123127e-06 -1.1317915876016668e-05 0 7.7045914316662277e-06 -9.1844828116779248e-06 0 6.2115478186614889e-06 -1.2390230652458665e-05 0 7.7045914316662277e-06 -9.1844828116779248e-06 0 9.3565830375782081e-06 -1.2424415118061047e-05 0 7.7045914316662277e-06 -9.1844828116779248e-06 0 1.1234117345847777e-05 -8.4412382746364304e-06 0 9.3565830375782081e-06 -1.2424415118061047e-05 0 1.0027971255992883e-05 -5.4090082470532489e-06 0 7.7045914316662277e-06 -9.1844828116779248e-06 0 1.1234117345847777e-05 -8.4412382746364304e-06 0 1.2701092895308581e-05 -3.365100728788776e-06 0 1.4123291124814053e-05 -6.5807516332999911e-06 0 1.1234117345847777e-05 -8.4412382746364304e-06 0 1.2701092895308581e-05 -3.365100728788776e-06 0 1.0027971255992883e-05 -5.4090082470532489e-06 0 1.1234117345847777e-05 -8.4412382746364304e-06 0 1.4123291124814053e-05 -6.5807516332999911e-06 0 1.4606944160387407e-05 -1.1518595312157702e-05 0 1.1234117345847777e-05 -8.4412382746364304e-06 0 1.4606944160387407e-05 -1.1518595312157702e-05 0 1.2274673441770649e-05 -1.2311607781333672e-05 0 1.476735984956289e-05 -1.6236707659384249e-05 0 1.4606944160387407e-05 -1.1518595312157702e-05 0 1.1234117345847777e-05 -8.4412382746364304e-06 0 1.2274673441770649e-05 -1.2311607781333672e-05 0 1.2274673441770649e-05 -1.2311607781333672e-05 0 1.2074993427557644e-05 -1.5847811834846513e-05 0 9.3565830375782081e-06 -1.2424415118061047e-05 0 1.1234117345847777e-05 -8.4412382746364304e-06 0 1.2274673441770649e-05 -1.2311607781333672e-05 0 9.3565830375782081e-06 -1.2424415118061047e-05 0 1.2274673441770649e-05 -1.2311607781333672e-05 0 1.2074993427557644e-05 -1.5847811834846513e-05 0 1.476735984956289e-05 -1.6236707659384249e-05 0 6.2115478186614889e-06 -1.2390230652458665e-05 0 9.3565830375782081e-06 -1.2424415118061047e-05 0 7.8964635810200328e-06 -1.5617609417016298e-05 0 1.2074993427557644e-05 -1.5847811834846513e-05 0 9.3565830375782081e-06 -1.2424415118061047e-05 0 1.0351574359851248e-05 -1.8735907951811828e-05 0 9.3565830375782081e-06 -1.2424415118061047e-05 0 7.8964635810200328e-06 -1.5617609417016298e-05 0 1.0351574359851248e-05 -1.8735907951811828e-05 0 7.8964635810200328e-06 -1.5617609417016298e-05 0 1.0351574359851248e-05 -1.8735907951811828e-05 0 6.9412203347478386e-06 -2.0857861386349571e-05 0 1.0351574359851248e-05 -1.8735907951811828e-05 0 1.4048840154057205e-05 -2.0318048759754986e-05 0 1.2913498640900068e-05 -2.4465600053618976e-05 0 1.0351574359851248e-05 -1.8735907951811828e-05 0 9.4745011928191458e-06 -2.3702314903965975e-05 0 1.2913498640900068e-05 -2.4465600053618976e-05 0 1.0351574359851248e-05 -1.8735907951811828e-05 0 9.4745011928191458e-06 -2.3702314903965975e-05 0 6.9412203347478386e-06 -2.0857861386349571e-05 0 1.476735984956289e-05 -1.6236707659384249e-05 0 1.7240971498243367e-05 -2.0895567820588148e-05 0 1.4048840154057205e-05 -2.0318048759754986e-05 0 1.2074993427557644e-05 -1.5847811834846513e-05 0 1.476735984956289e-05 -1.6236707659384249e-05 0 1.4048840154057205e-05 -2.0318048759754986e-05 0 1.2074993427557644e-05 -1.5847811834846513e-05 0 1.0351574359851248e-05 -1.8735907951811828e-05 0 1.4048840154057205e-05 -2.0318048759754986e-05 0 1.4048840154057205e-05 -2.0318048759754986e-05 0 1.73537864414103e-05 -2.5549545271474818e-05 0 1.2913498640900068e-05 -2.4465600053618976e-05 0 1.7240971498243367e-05 -2.0895567820588148e-05 0 1.4048840154057205e-05 -2.0318048759754986e-05 0 1.73537864414103e-05 -2.5549545271474818e-05 0 2.1829028871986447e-05 -2.8602020469144563e-05 0 1.73537864414103e-05 -2.5549545271474818e-05 0 1.9538204113359679e-05 -3.1033644303070937e-05 0 1.73537864414103e-05 -2.5549545271474818e-05 0 1.5628599722852485e-05 -3.0151301671864741e-05 0 1.2913498640900068e-05 -2.4465600053618976e-05 0 1.73537864414103e-05 -2.5549545271474818e-05 0 1.5628599722852485e-05 -3.0151301671864741e-05 0 1.9538204113359679e-05 -3.1033644303070937e-05 0 9.4745011928191458e-06 -2.3702314903965975e-05 0 1.1664565786745014e-05 -2.9061984339196865e-05 0 8.4871914655300119e-06 -2.7993191499741572e-05 0 1.5628599722852485e-05 -3.0151301671864741e-05 0 1.2913498640900068e-05 -2.4465600053618976e-05 0 1.1664565786745014e-05 -2.9061984339196865e-05 0 9.4745011928191458e-06 -2.3702314903965975e-05 0 1.2913498640900068e-05 -2.4465600053618976e-05 0 1.1664565786745014e-05 -2.9061984339196865e-05 0 1.2909653642184721e-05 -3.4729971407571995e-05 0 1.5628599722852485e-05 -3.0151301671864738e-05 0 1.1664565786745014e-05 -2.9061984339196865e-05 0 1.1664565786745014e-05 -2.9061984339196865e-05 0 9.6259042787518596e-06 -3.1880573467493408e-05 0 8.4871914655300119e-06 -2.7993191499741572e-05 0 1.2909653642184721e-05 -3.4729971407571995e-05 0 1.1664565786745014e-05 -2.9061984339196865e-05 0 9.6259042787518596e-06 -3.1880573467493408e-05 0 9.6259042787518596e-06 -3.1880573467493408e-05 0 8.4871914655300119e-06 -2.7993191499741572e-05 0 6.3102669447600553e-06 -3.049706214381095e-05 0 8.4871914655300119e-06 -2.7993191499741572e-05 0 5.6695571495896944e-06 -2.5289188570605353e-05 0 6.3102669447600553e-06 -3.049706214381095e-05 0 9.4745011928191458e-06 -2.3702314903965975e-05 0 8.4871914655300119e-06 -2.7993191499741572e-05 0 5.6695571495896944e-06 -2.5289188570605353e-05 0 5.6695571495896944e-06 -2.5289188570605353e-05 0 6.3102669447600553e-06 -3.049706214381095e-05 0 2.3992538303940457e-06 -2.7865871049223176e-05 0 1.2204210910789798e-05 -8.0909965498026872e-05 0 2.7522459662597253e-05 -8.773039169560236e-05 0 2.489133550657262e-05 -7.216311257781417e-05 0 1.5278829701943789e-05 -6.0953165164771763e-05 0 1.3592863426335406e-05 -5.0026394521637444e-05 0 6.3102669447600553e-06 -3.049706214381095e-05 0 3.2123252067069797e-06 -3.4157977950310574e-05 0 2.3992538303940457e-06 -2.7865871049223176e-05 0 1.663793133622797e-05 -9.566211923402331e-05 0 1.2204210910789798e-05 -8.0909965498026872e-05 0 2.7522459662597253e-05 -8.773039169560236e-05 0 1.2204210910789798e-05 -8.0909965498026872e-05 0 2.489133550657262e-05 -7.216311257781417e-05 0 1.2878113343855287e-05 -6.6572804572064421e-05 0 2.489133550657262e-05 -7.216311257781417e-05 0 1.2878113343855287e-05 -6.6572804572064421e-05 0 2.2015689229812629e-05 -5.751331399516837e-05 0 5.6695571495896944e-06 -2.5289188570605353e-05 0 2.3992538303940461e-06 -2.7865871049223176e-05 0 2.4283500992577803e-06 -2.1599321265191927e-05 0 1.3592863426335406e-05 -5.0026394521637444e-05 0 1.2234734584071358e-05 -3.958938309728371e-05 0 1.2878113343855287e-05 -6.6572804572064421e-05 0 1.1894740909433874e-05 -5.1158631116038086e-05 0 2.2015689229812629e-05 -5.751331399516837e-05 0 3.7779130942088679e-06 -5.9182820550444449e-05 0 1.2878113343855287e-05 -6.6572804572064421e-05 0 1.1894740909433874e-05 -5.1158631116038086e-05 0 1.8739268657541321e-05 -4.3744924042873936e-05 0 1.1894740909433874e-05 -5.1158631116038086e-05 0 2.2015689229812629e-05 -5.751331399516837e-05 0 5.4665060577002222e-06 -1.7200903747503504e-05 0 2.4283500992577799e-06 -2.1599321265191927e-05 0 6.9412203347478386e-06 -2.0857861386349571e-05 0 5.4665060577002222e-06 -1.7200903747503504e-05 0 7.8964635810200328e-06 -1.5617609417016298e-05 0 6.9412203347478386e-06 -2.0857861386349571e-05 0 9.4745011928191458e-06 -2.3702314903965975e-05 0 5.6695571495896935e-06 -2.5289188570605357e-05 0 6.9412203347478386e-06 -2.0857861386349571e-05 0 5.6695571495896944e-06 -2.5289188570605353e-05 0 2.4283500992577803e-06 -2.1599321265191927e-05 0 6.9412203347478386e-06 -2.0857861386349571e-05 0 
</DataArray>
</PointData>
<CellData Scalars="region_id,cross_section_updated,displacement_divergence," Vectors="" Tensors="effective_stress,">
<DataArray type="Float64" Name="region_id" format="ascii">
1 1 1 1 1 1 1 1 1 1 1 1 1 1 1 1 1 1 1 1 1 1 1 1 1 1 1 1 1 1 1 1 1 1 1 1 1 1 1 1 1 1 1 1 1 1 1 1 1 1 1 1 1 1 1 1 1 1 1 1 1 1 1 1 1 1 1 1 1 1 1 1 1 1 1 1 1 1 1 1 1 1 1 1 1 1 1 1 1 1 1 1 1 1 1 1 1 1 1 1 1 1 1 1 1 1 1 1 1 1 1 1 1 1 1 1 1 1 1 1 1 1 1 1 1 1 1 1 1 1 1 1 1 1 1 1 1 1 1 1 1 1 1 1 1 1 1 1 1 1 1 1 1 1 1 1 1 1 1 1 1 1 1 1 1 1 1 1 1 1 1 1 1 1 1 1 1 1 1 1 1 1 1 1 1 1 1 1 1 1 1 1 1 1 1 1 1 1 1 1 1 1 1 1 1 1 1 1 1 1 1 1 1 1 1 1 1 1 1 1 1 1 1 1 1 1 1 1 1 1 1 1 1 1 1 1 1 1 1 1 1 1 1 1 1 1 1 1 1 1 1 1 1 1 1 1 1 1 1 1 1 1 1 1 1 1 1 1 1 1 1 1 1 1 1 1 1 1 1 1 1 1 1 1 1 1 1 1 1 1 1 1 1 1 1 1 1 1 1 1 1 1 1 1 1 1 1 1 1 1 1 1 1 1 1 1 1 1 1 1 1 1 1 1 1 1 1 1 1 1 1 1 1 1 1 1 1 1 1 1 1 1 1 1 1 1 1 1 1 1 1 1 1 1 1 1 1 1 1 1 1 1 1 1 1 1 1 1 1 1 1 1 1 1 1 1 1 1 1 1 1 1 1 1 1 1 1 1 1 1 1 1 1 1 1 1 1 1 1 1 1 1 1 1 1 1 1 1 1 1 1 1 1 1 1 1 1 1 1 1 1 1 1 1 1 1 1 1 1 1 1 1 1 1 1 1 1 1 1 1 1 1 1 1 1 1 1 1 1 1 1 1 1 1 1 1 1 1 1 1 1 1 1 1 1 1 1 1 1 1 1 1 1 1 1 1 1 1 1 1 1 1 1 1 1 1 1 1 1 1 1 1 1 1 1 1 1 1 1 1 1 1 1 1 1 1 1 1 1 1 1 1 1 1 1 1 1 1 1 1 1 1 1 1 1 1 1 1 1 1 1 1 1 1 1 1 1 1 3 1 1 3 1 1 3 1 1 1 1 1 1 1 1 1 1 1 1 1 3 1 1 1 1 1 3 1 1 1 1 1 1 1 1 1 1 1 1 1 1 1 1 1 1 1 1 1 1 1 1 1 1 1 1 1 1 1 1 1 1 1 1 1 1 1 1 1 1 1 1 1 1 1 1 1 1 1 1 1 1 1 1 1 1 1 1 1 1 1 1 1 1 1 1 1 1 1 1 1 1 1 1 1 1 1 1 1 1 1 1 1 1 1 1 1 1 1 1 1 1 1 1 1 1 1 1 1 1 1 1 1 1 1 1 1 1 1 1 1 1 1 1 1 1 1 1 1 1 1 1 1 1 1 1 1 1 1 1 1 1 1 1 1 1 1 1 1 1 1 1 1 1 1 1 1 1 1 1 1 1 1 1 1 1 1 1 1 1 1 1 1 1 1 1 3 1 1 1 3 1 1 3 1 1 1 1 1 1 1 1 1 1 1 3 1 1 1 1 3 1 1 1 1 1 1 1 1 1 1 1 1 1 1 1 1 1 1 1 1 1 1 1 1 1 1 1 1 1 1 1 1 1 1 1 1 1 1 1 1 1 1 1 1 1 1 1 1 1 1 1 1 1 1 1 1 1 1 2 1 1 1 1 1 1 1 1 1 1 1 1 1 1 2 1 1 2 1 2 1 1 1 1 1 1 1 1 1 1 1 1 1 2 1 1 1 1 1 1 1 1 1 1 1 1 1 1 1 1 1 1 1 1 1 1 1 1 1 1 1 1 1 1 1 1 1 1 1 1 1 1 1 1 1 1 1 1 1 1 1 1 1 1 1 1 1 1 1 1 1 1 1 1 1 1 1 1 1 1 1 1 1 1 1 1 1 1 1 1 1 1 1 1 1 1 1 1 1 1 1 1 1 1 1 1 1 1 1 1 1 1 1 1 1 1 1 1 1 1 1 1 1 1 1 1 1 1 1 1 1 1 1 1 1 1 1 1 1 1 1 1 1 1 1 1 1 1 1 1 2 1 1 2 1 2 1 1 1 1 1 1 1 1 1 1 1 1 1 1 1 1 1 1 1 1 1 1 1 1 1 1 1 1 1 1 1 1 1 1 1 1 1 1 1 1 1 1 1 1 1 1 1 2 1 1 1 1 1 2 1 1 1 1 1 1 1 
</DataArray>
<DataArray type="Float64" Name="effective_stress" NumberOfComponents="9" format="ascii">
-0.039113556320463649 0.0020468385839947575 0 0.0020468385839947575 -0.0051416839170350514 0 0 0 -0.011063810059374676 -0.037215468415337599 0.0031598311947053058 0 0.0031598311947053058 -0.012382167056976017 0 0 0 -0.012399408868078407 -0.039883584694733513 0.0037655226087906432 0 0.0037655226087906432 0.0023010777025467624 0 0 0 -0.0093956267480466843 -0.038285756823968731 0.0046122537385143592 0 0.0046122537385143592 -0.0053124997449154991 0 0 0 -0.010899564142221057 -0.031403157740004808 0.0099053942222514825 0 0.0099053942222514825 -0.010471192957698971 0 0 0 -0.010468587674425944 -0.031397974833291799 0.0099105339784981115 0 0.0099105339784981115 -0.010454287218371335 0 0 0 -0.010463065512915783 -0.036207396268157811 0.009547869384648593 0 0.009547869384648593 -0.0025481351038357386 0 0 0 -0.0096888828429983857 -0.037239442780665537 0.008593944725128257 0 0.008593944725128257 -0.0032889136569651707 0 0 0 -0.010132089109407681 -0.034816990967335884 0.011227600790773177 0 0.011227600790773177 -0.0025192741080838146 0 0 0 -0.0093340662688549299 -0.027851919299644052 0.01162118702149692 0 0.01162118702149692 -0.00052754975885465488 0 0 0 -0.0070948672646246706 -0.040127631783465553 0.011928378237916905 0 0.011928378237916905 -0.0012929847728650329 0 0 0 -0.010355154139082647 -0.027508546599622083 0.013012889156470364 0 0.013012889156470364 0.00081925794704670873 0 0 0 -0.0066723221631438453 -0.049604531187273621 0.0093137151489835202 0 0.0093137151489835202 -0.00062403059667209479 0 0 0 -0.012557140445986433 -0.038697446986996127 0.0098855344487693113 0 0.0098855344487693113 0.00061775019406112852 0 0 0 -0.0095199241982337514 -0.058675541291978307 0.0036226356854602462 0 0.0036226356854602462 -0.0019171921279821078 0 0 0 -0.015148183354990102 -0.047222080159637268 0.0046216321553105219 0 0.0046216321553105219 -0.00026417149472891084 0 0 0 -0.011871562913591547 -0.043506225314964266 0.0062738892066307294 0 0.0062738892066307294 0.0026664328608265522 0 0 0 -0.01020994811353443 -0.043960074898486051 0.0095406578643998582 0 0.0095406578643998582 -0.00064912371254605486 0 0 0 -0.011152299652758031 -0.0052687127593896528 0.013843323381125594 0 0.013843323381125594 -0.0017532726288606365 0 0 0 -0.0017554963470625723 -0.010429102166938219 0.016597608677022938 0 0.016597608677022938 -0.0018940339692590027 0 0 0 -0.0030807840340493064 -0.012223517546959967 0.012763896115748061 0 0.012763896115748061 -0.0011235861375286059 0 0 0 -0.0033367759211221427 -0.021830447600272047 0.014745835252318061 0 0.014745835252318061 -0.0016005260826554221 0 0 0 -0.0058577434207318637 -0.023007247588698175 0.013441570229102641 0 0.013441570229102641 -0.0043588269169036811 0 0 0 -0.006841518626400464 -0.014592350840574643 0.014918361592036489 0 0.014918361592036489 -0.0023310597942435493 0 0 0 -0.0042308526587045477 -0.014811979238386732 0.013236901083824094 0 0.013236901083824094 -0.0049423889255742429 0 0 0 -0.0049385920409902436 -0.024266892474708208 0.014787480755101558 0 0.014787480755101558 -0.00061339564346034325 0 0 0 -0.0062200720295421327 -0.026122202670480571 0.011741602180399959 0 0.011741602180399959 -0.00087351535362054219 0 0 0 -0.0067489295060252849 -0.021804715538814946 0.012842296152055285 0 0.012842296152055285 -0.0022077508005110616 0 0 0 -0.006003116584831495 -0.0099861527146214123 0.012682757568353695 0 0.012682757568353695 -0.00035839253416770217 0 0 0 -0.0025861363121972769 -0.010568899490155242 0.013862507335415856 0 0.013862507335415856 -0.0015842544853875498 0 0 0 -0.0030382884938856963 -0.0048941528452957003 0.016069075471466143 0 0.016069075471466143 -0.0014831481764723889 0 0 0 -0.0015943252554420223 -0.00066614460176135822 0.012204977589980018 0 0.012204977589980018 0.00017410883907060387 0 0 0 -0.00012300894067268815 -0.0015946609053868327 0.014563288814976115 0 0.014563288814976115 -0.0010713754884172644 0 0 0 -0.0006665090984510208 -0.0020101549452219772 0.011302201672675566 0 0.011302201672675566 0.00016690303224360659 0 0 0 -0.00046081297824459092 -0.011720545222543828 0.015287984925991611 0 0.015287984925991611 -0.00076623772536052459 0 0 0 -0.003121695736976085 -0.026239186015954291 0.015075792781165543 0 0.015075792781165543 -0.00055773898149315965 0 0 0 -0.0066992312493618644 -0.021175376676869102 0.01502288060563059 0 0.01502288060563059 -0.00079066137577716439 0 0 0 -0.0054915095131615639 -0.014263211642241454 0.012315085735122851 0 0.012315085735122851 0.0006947641893080489 0 0 0 -0.0033921118632333526 -0.026383012621920998 0.012331916975720118 0 0.012331916975720118 0.0011745209000598583 0 0 0 -0.0063021229304652815 -0.029399597212443004 0.015138425643527317 0 0.015138425643527317 -0.00014328875787147921 0 0 0 -0.0073857214925786181 -0.021593983648205018 0.012082611459621471 0 0.012082611459621471 0.00025121897485594 0 0 0 -0.0053356911683372739 -0.015553042198225491 0.015553081265832013 0 0.015553081265832013 0.0014227088166631832 0 0 0 -0.0035325833453905761 -0.015599054012306124 0.012175388216956897 0 0.012175388216956897 0.001978849202012958 0 0 0 -0.0034050512025732924 -0.0043064429790086343 0.011598800345214398 0 0.011598800345214398 0.0012961115970127049 0 0 0 -0.00075258284549898421 -0.01431528916036711 0.015583190552423735 0 0.015583190552423735 -0.0001234847315876586 0 0 0 -0.003609693472988687 -0.011332527535193229 0.0106772475566108 0 0.0106772475566108 0.0027373137181883819 0 0 0 -0.0021488034542512073 0.0056257338953441052 0.010849528177595678 0 0.010849528177595678 0.0010340971754703304 0 0 0 0.0016649577677036106 -0.0027330556196024473 0.01361413876017447 0 0.01361413876017447 0.0012866127459460613 0 0 0 -0.0003616107184140939 -0.05827102133326155 0.0041976984170728534 0 0.0041976984170728534 -0.0023260393762188705 0 0 0 -0.015149265177370103 -0.046385096174860398 0.010663355572564922 0 0.010663355572564922 5.6023390587633948e-05 0 0 0 -0.011582268196068191 -0.068988039035547802 0.0056163660385507453 0 0.0056163660385507453 -0.00027239869344096446 0 0 0 -0.017315109432247199 -0.04727422071932464 0.0076605703860044795 0 0.0076605703860044795 0.0018711842344554946 0 0 0 -0.01135075912121729 -0.036714735638752535 0.011039188789728094 0 0.011039188789728094 0.0013110801876277528 0 0 0 -0.0088509138627811922 -0.038065902551917705 0.012421900486652458 0 0.012421900486652458 -0.00052668838265317042 0 0 0 -0.0096481477336427118 -0.038861830582936213 0.013855466095699877 0 0.013855466095699877 -0.00035839211358522013 0 0 0 -0.0098050556741303488 -0.044723706822635337 0.0094947770878954282 0 0.0094947770878954282 0.0011868055221938636 0 0 0 -0.01088422532511037 -0.032012494368609014 0.011518589424583271 0 0.011518589424583271 0.00015654763670867183 0 0 0 -0.0079639866829750803 -0.046729096898831 0.012968586918967592 0 0.012968586918967592 -0.00037283235380460369 0 0 0 -0.011775482313158918 -0.037273226951573243 0.010318033191762718 0 0.010318033191762718 -0.0002143620094432969 0 0 0 -0.0093718972402541262 -0.045610657952217928 0.009787616925308355 0 0.009787616925308355 0.0011610949512701751 0 0 0 -0.011112390750236942 -0.063335169148265924 0.0076767507534099789 0 0.0076767507534099789 -0.00050801804557119683 0 0 0 -0.015960796798459274 -0.060108725626404479 0.0078014556359035266 0 0.0078014556359035266 -0.00079516367507869497 0 0 0 -0.015225972325370783 -0.05826500427055635 0.0047051258609560808 0 0.0047051258609560808 0.00064292676294386286 0 0 0 -0.014405519376903129 -0.078637471781858412 0.0054507802761642812 0 0.0054507802761642812 -0.00054771757831601278 0 0 0 -0.019796297340043612 -0.083717501122759816 0.0046879513847680326 0 0.0046879513847680326 -0.00043367727773919312 0 0 0 -0.021037794600124768 -0.061436833534551628 0.0060630419414211094 0 0.0060630419414211094 0.0017710813723730194 0 0 0 -0.014916438040544652 -0.070553800961981342 0.0040742251909789452 0 0.0040742251909789452 0.0011019000588141092 0 0 0 -0.017362975225791794 -0.096384709510356117 0.0032050934316482163 0 0.0032050934316482163 0.0016308750335289335 0 0 0 -0.023688458619206799 -0.073565074411832646 0.0091999860758381381 0 0.0091999860758381381 0.0023852674453626044 0 0 0 -0.01779495174161751 -0.072405132738613376 0.0022553819440030848 0 0.0022553819440030848 -0.00047932902835443741 0 0 0 -0.018221115441741983 -0.0778768228360667 0.0034895265335095349 0 0.0034895265335095349 0.0031049919790014924 0 0 0 -0.018692957714266309 -0.10749033154674711 -1.1093206318632531e-05 0 -1.1093206318632531e-05 -0.00078571114779010798 0 0 0 -0.027069010673634299 -0.045106870119603446 0.0049271661557517971 0 0.0049271661557517971 0.0045229628266544794 0 0 0 -0.010145976823237243 -0.03740067494324336 0.012814003843955989 0 0.012814003843955989 0.0032869047145726027 0 0 0 -0.0085284425571676772 -0.055594188227668664 0.0085533615051895072 0 0.0085533615051895072 1.2721829962258902e-06 0 0 0 -0.01389822901116811 -0.054795679180628977 0.0095914048306054607 0 0.0095914048306054607 0.0022974013581644193 0 0 0 -0.013124569455616141 -0.037091346995210259 0.013602362192184955 0 0.013602362192184955 0.0024488291751181509 0 0 0 -0.0086606294550230049 -0.063550445784008716 0.012550017204508004 0 0.012550017204508004 0.0030672934261456938 0 0 0 -0.015120788089465754 -0.053157549325821299 0.0084590385323411593 0 0.0084590385323411593 -0.00030430070912321541 0 0 0 -0.013365462508736114 -0.047557493839751844 0.013106172044554474 0 0.013106172044554474 0.0016167694366271829 0 0 0 -0.011485181100781158 -0.034136999731356102 0.014178110426831651 0 0.014178110426831651 0.0012981356704531433 0 0 0 -0.0082097160152257466 -0.022851724333247149 0.01332654041175494 0 0.01332654041175494 0.0014729057147415386 0 0 0 -0.0053447046546264004 -0.022533334463759162 0.011374611487394257 0 0.011374611487394257 0.0023572475960156186 0 0 0 -0.0050440217169358953 -0.020885250621974258 0.010611008584971836 0 0.010611008584971836 0.0046171416477299929 0 0 0 -0.0040670272435610732 -0.010905412559152911 0.013207221525044006 0 0.013207221525044006 0.0020406076016211607 0 0 0 -0.0022162012393829346 -0.036622902021053505 0.011222945095324142 0 0.011222945095324142 0.0023934305811252627 0 0 0 -0.0085573678599820627 -0.00071569128685260164 0.010029039256049411 0 0.010029039256049411 0.0046978573823386049 0 0 0 0.00099554152387150083 -0.0034585508657912593 0.013881517625495313 0 0.013881517625495313 0.00096571784745902445 0 0 0 -0.00062320825458305612 -0.0085910113210164018 0.0093091737571733817 0 0.0093091737571733817 0.0058243512391105059 0 0 0 -0.00069166502047647051 0.0063045185913584061 0.0055457114815827702 0 0.0055457114815827702 0.0079362760130136344 0 0 0 0.0035601986510930108 0.0027616918281787037 0.01167849223604616 0 0.01167849223604616 0.0038578235526018929 0 0 0 0.0016548788451951476 -0.0067811959678857822 0.0091244735270823198 0 0.0091244735270823198 0.0094536731107053296 0 0 0 0.00066811928570487816 0.0076384737483408613 0.0062141839810140667 0 0.0062141839810140667 0.0091067390485939578 0 0 0 0.0041863031992337013 0.0076463419170545097 0.0050915996213519565 0 0.0050915996213519565 0.015255875094187632 0 0 0 0.0057255542528105371 -0.022080752141955987 0.013482316049691644 0 0.013482316049691644 0.0033365124094421883 0 0 0 -0.0046860599331284454 -0.031012836754943797 0.0079073016879127392 0 0.0079073016879127392 0.0039304732065191215 0 0 0 -0.0067705908871061784 -0.007762717536568136 0.0097603409785864542 0 0.0097603409785864542 0.0043825054990300968 0 0 0 -0.00084505300938450892 -0.016107648302169437 0.0060416086410582798 0 0.0060416086410582798 0.0073964079560872448 0 0 0 -0.0021778100865205499 -0.020798392184788732 0.012683380169515604 0 0.012683380169515604 0.0078498047047338565 0 0 0 -0.0032371468700137171 -0.029822888154647779 0.011380892425023229 0 0.011380892425023229 0.0096978726355111955 0 0 0 -0.0050312538797841547 -0.01920321666957206 0.0064779778546176919 0 0.0064779778546176919 0.019517944197533915 0 0 0 7.8681881990463887e-05 -0.028696583260932641 0.00093685949238197369 0 0.00093685949238197369 0.0099609524951332629 0 0 0 -0.0046839076914498637 0.025000554819536936 0.00014362103274377994 0 0.00014362103274377994 0.017999647213830364 0 0 0 0.010750050508341821 -0.010549133560928146 0.0094129440067472446 0 0.0094129440067472446 0.013897312327290384 0 0 0 0.00083704469159055078 0.0023785208786349828 0.0032045584371663272 0 0.0032045584371663272 0.014714970921191346 0 0 0 0.0042733729499565797 0.0055921504391784338 0.0046922894296261772 0 0.0046922894296261772 0.024621232824389522 0 0 0 0.007553345815891982 0.019301748321574067 -0.0041848455693818815 0 -0.0041848455693818815 0.02661224726408512 0 0 0 0.011478498896414793 0.0010430758412183494 0.00064335581280312859 0 0.00064335581280312859 0.03731045382461684 0 0 0 0.0095883824164587905 -0.0015934257049336209 -0.0094257549541912344 0 -0.0094257549541912344 0.035578746771392389 0 0 0 0.0084963302666147544 0.0074764788823346723 -0.014663883477501277 0 -0.014663883477501277 0.029851477039053997 0 0 0 0.009331988980347164 0.019996206412323081 -0.0077304994014814193 0 -0.0077304994014814193 0.056692835784573625 0 0 0 0.019172260549224163 -0.026253004683664538 -0.003677396709162617 0 -0.003677396709162617 0.022884231956514733 0 0 0 -0.00084219318178743729 -0.0063969335458068793 -0.0023022641812444344 0 -0.0023022641812444344 0.01751634424996483 0 0 0 0.0027798526760394807 -0.0085876383146844745 -0.013310411289342627 0 -0.013310411289342627 0.02137524774571406 0 0 0 0.0031969023577574154 -0.030222338440361152 -0.00043895301309727387 0 -0.00043895301309727387 0.011568673698694132 0 0 0 -0.0046634161854167411 -0.035546238067891325 -0.010286481718378093 0 -0.010286481718378093 0.013045098229950897 0 0 0 -0.0056252849594850968 -0.051430603547850492 -0.0039668179218033672 0 -0.0039668179218033672 0.0090034794753571512 0 0 0 -0.010606781018123332 -0.059001130614698125 0.0036401488147802807 0 0.0036401488147802807 0.0050160252145496353 0 0 0 -0.013496276350037101 -0.070264638030706192 -0.0086455957476353484 0 -0.0086455957476353484 0.0071801382140472408 0 0 0 -0.015771124954164703 -0.07918864809944369 0.0010640628950032427 0 0.0010640628950032427 0.0019571707025115015 0 0 0 -0.019307869349233023 -0.11228474528341716 -0.00065580201189133214 0 -0.00065580201189133214 0.0028664835063164085 0 0 0 -0.027354565444275211 -0.083438585156210193 0.0024454183598411061 0 0.0024454183598411061 0.002469309858986718 0 0 0 -0.020242318824305855 -0.081419520207966667 -0.0017848753084708478 0 -0.0017848753084708478 0.0025334441109877148 0 0 0 -0.019721519024244724 -0.086141168802715995 -0.00075847441517513936 0 -0.00075847441517513936 -0.00045537534439196725 0 0 0 -0.021649136036777018 -0.071997027055942853 0.0079804666518408646 0 0.0079804666518408646 0.0025355639808026242 0 0 0 -0.017365365768785029 -0.11260555402585243 0.0034876465066874668 0 0.0034876465066874668 0.00069297559794154195 0 0 0 -0.02797814460697768 -0.082791595202592952 0.0076983993662059491 0 0.0076983993662059491 0.0022639897088692906 0 0 0 -0.020131901373430919 -0.055639452330861781 0.010808763513660433 0 0.010808763513660433 0.005145166039811383 0 0 0 -0.012623571572762581 -0.042943106639010228 0.0079224424741158178 0 0.0079224424741158178 0.0086725447060404526 0 0 0 -0.0085676404832424335 -0.060170611292831695 0.0010653086948377022 0 0.0010653086948377022 0.0047423902978098488 0 0 0 -0.013857055248755495 0.020125322758555782 -0.0029771748700127762 0 -0.0029771748700127762 0.05221841180447697 0 0 0 0.018085933640758188 0.018983683344184446 -0.0047946286639718866 0 -0.0047946286639718866 0.042891938400318727 0 0 0 0.015468905436125793 0.018689242801788082 -0.0066639860969030518 0 -0.0066639860969030518 0.037616523107785765 0 0 0 0.01407644147739346 0.01579579007494792 -0.00030397768167946329 0 -0.00030397768167946329 0.044490020778754594 0 0 0 0.01507145271342563 0.021625932690413203 0.0060150311456606403 0 0.0060150311456606403 0.048448626412950592 0 0 0 0.017518639775840953 0.023935608818405875 0.0045470055403160955 0 0.0045470055403160955 0.058139195787282986 0 0 0 0.020518701151422215 0.015819457014798147 -0.0030480063406454136 0 -0.0030480063406454136 0.056353450189142819 0 0 0 0.018043226800985225 0.014273588117821066 -0.0021868146723535431 0 -0.0021868146723535431 0.054427646662026916 0 0 0 0.017175308694962008 0.019449946687744295 -0.0033156918678219002 0 -0.0033156918678219002 0.053518926938712075 0 0 0 0.018242218406614087 0.017482561408131488 -0.0022231664351489017 0 -0.0022231664351489017 0.050971729742643732 0 0 0 0.0171135727876938 0.0071416068446747 -0.0024790890702206872 0 -0.0024790890702206872 0.049996677290657515 0 0 0 0.01428457103383305 0.014254037066576179 -0.0049607059852425396 0 -0.0049607059852425396 0.05426307497323779 0 0 0 0.017129278009953494 0.011569864422246995 -0.0061906387342506863 0 -0.0061906387342506863 0.051975592536324812 0 0 0 0.015886364239642937 0.0130240194939754 -0.010324141871547806 0 -0.010324141871547806 0.055195934246320799 0 0 0 0.017054988435074032 0.011067425439147023 -0.0055060746697809318 0 -0.0055060746697809318 0.063304153268140054 0 0 0 0.018592894676821792 0.047579016221934653 -0.043411817502914174 0 -0.043411817502914174 0.099500670611882641 0 0 0 0.036769921708454306 0.0038265220593385676 -0.023108098632291789 0 -0.023108098632291789 0.061297276635493086 0 0 0 0.016280949673707919 0.043873110192468756 -0.027773425783719517 0 -0.027773425783719517 0.054720943933709229 0 0 0 0.02464851353154451 0.005564935865242298 -0.010117818237353346 0 -0.010117818237353346 0.055613061124520205 0 0 0 0.015294499247440609 0.050274519198517428 -0.0084611356024452966 0 -0.0084611356024452966 0.084992209141450947 0 0 0 0.03381668208499207 0.040755456866368583 -0.017264811492792458 0 -0.017264811492792458 0.045560942575446239 0 0 0 0.021579099860453685 0.073390674169647577 -0.023452686773628661 0 -0.023452686773628661 0.059124955411005195 0 0 0 0.033128907395163207 0.032200064045036815 -0.01605316969669885 0 -0.01605316969669885 0.04459281166712023 0 0 0 0.01919821892803928 0.023194457199401258 -0.0021411314194612341 0 -0.0021411314194612341 0.042904408956582443 0 0 0 0.016524716538995923 0.046132853075338195 -0.010463594931821772 0 -0.010463594931821772 0.0339468466801566 0 0 0 0.020019924938873709 0.022095105976243187 -0.0033364130140742659 0 -0.0033364130140742659 0.027659251027746863 0 0 0 0.012438589250997507 0.029847076710374058 -0.004255186116028889 0 -0.004255186116028889 0.019978785740520609 0 0 0 0.012456465612723677 0.021352357706134126 -0.015243510860482153 0 -0.015243510860482153 0.048395882144614676 0 0 0 0.017437059962687199 0.018248434644131239 -0.015484145348173696 0 -0.015484145348173696 0.035628757024706394 0 0 0 0.013469297917209407 0.031459707262314937 -0.013276180296227055 0 -0.013276180296227055 0.040212453069154518 0 0 0 0.017918040082867376 0.020339263807589346 -0.0063528515532176076 0 -0.0063528515532176076 0.021240197954222502 0 0 0 0.010394865440452958 0.024758269673044113 -0.0065319430963805105 0 -0.0065319430963805105 0.038326792793105642 0 0 0 0.015771265616537432 0.023913445679021813 -0.0046698284412387591 0 -0.0046698284412387591 0.024318826349306117 0 0 0 0.012058068007081977 0.023700563395438291 0.0031094864637602974 0 0.0031094864637602974 0.021384457226376708 0 0 0 0.011271255155453757 0.019878896446414183 0.00097155680415091962 0 0.00097155680415091962 0.011849075638261208 0 0 0 0.0079319930211688445 0.018955632270723232 -0.0010002046690312238 0 -0.0010002046690312238 0.019623750030177592 0 0 0 0.0096448455752251964 0.023388610213279364 -0.0016042775854179644 0 -0.0016042775854179644 0.015164088352274441 0 0 0 0.0096381746413884521 0.019794537338608593 0.0039861795133208939 0 0.0039861795133208939 0.016712035959664796 0 0 0 0.0091266433245683412 0.011427968772629891 0.0079668183711798287 0 0.0079668183711798287 0.010380694323225829 0 0 0 0.0054521657739639287 0.017393355306797351 0.0025431332441452391 0 0.0025431332441452391 0.0095959608257058411 0 0 0 0.0067473290331257988 0.015573417479123219 0.0089480637583249263 0 0.0089480637583249263 0.0081053458793650199 0 0 0 0.0059196908396220568 0.011941703441747935 0.0069101299154229355 0 0.0069101299154229355 0.0047905018190837062 0 0 0 0.0041830513152079085 0.0071702765736113595 0.011774709919773457 0 0.011774709919773457 0.0036928340648159988 0 0 0 0.0027157776596068404 0.023195379175337347 0.0025574713615527378 0 0.0025574713615527378 0.014510474756094266 0 0 0 0.0094264634828579025 0.021724180501570847 0.0013689724730099476 0 0.0013689724730099476 0.012936610649759719 0 0 0 0.0086651977878326389 0.020740553309844978 0.0062043565969410706 0 0.0062043565969410706 0.011540563017022108 0 0 0 0.0080702790817167702 0.018639010141575797 0.0051270706277515288 0 0.0051270706277515288 0.0093400400481962326 0 0 0 0.0069947625474430127 0.023233953713140885 0.0038190696067254798 0 0.0038190696067254798 0.016381994961979299 0 0 0 0.009903987168780045 0.02573254491612938 0.0085999966312377378 0 0.0085999966312377378 0.010261874834649541 0 0 0 0.0089986049376947399 0.031328408871078087 0.0090719784893497461 0 0.0090719784893497461 0.016351058978119098 0 0 0 0.0119198669622993 0.031716115220268015 0.0083741208309839384 0 0.0083741208309839384 0.014026818381926855 0 0 0 0.011435733400548716 0.02645699691834346 0.0038432613619312998 0 0.0038432613619312998 0.018661203665902758 0 0 0 0.011279550146061548 0.026628281164409129 0.0038482046608380276 0 0.0038482046608380276 0.024651655849619966 0 0 0 0.012819984253507267 0.022728915374892564 0.0016383901681479261 0 0.0016383901681479261 0.021599513252944392 0 0 0 0.011082107156959247 0.027179259115244304 0.0026125673050215728 0 0.0026125673050215728 0.034714128882890979 0 0 0 0.015473346999533819 0.029921203284208886 0.0067046714580049072 0 0.0067046714580049072 0.026329614648058129 0 0 0 0.014062704483066761 0.020285409443248886 0.0006348475483470041 0 0.0006348475483470041 0.031481223974257871 0 0 0 0.012941658354376691 0.023792579354972747 -0.001188827425647306 0 -0.001188827425647306 0.042767383588444854 0 0 0 0.016639990735854406 0.020040027015786714 -0.0038788865215453466 0 -0.0038788865215453466 0.029011113045232878 0 0 0 0.012262785015254903 0.031867829957853172 0.010478681558744029 0 0.010478681558744029 0.053743781054857317 0 0 0 0.021402902753177626 0.023537718166842758 0.0059255262485162922 0 0.0059255262485162922 0.0362768826305781 0 0 0 0.014953650199355215 0.026912839299719656 0.0041563865229391761 0 0.0041563865229391761 0.047171744753611397 0 0 0 0.018521146013332764 0.029898213237624774 0.0071756291304354057 0 0.0071756291304354057 0.027193412466920537 0 0 0 0.014272906426136321 0.03336828068643314 0.011168548595757022 0 0.011168548595757022 0.034482109598255359 0 0 0 0.016962597571172119 0.034416493212308469 0.010736127502291644 0 0.010736127502291644 0.037220939733024774 0 0 0 0.017909358236333293 0.036260965535141292 0.011066282713379779 0 0.011066282713379779 0.018732726102638722 0 0 0 0.013748422909445016 0.036817374814286229 0.011539888820301259 0 0.011539888820301259 0.022293117101564775 0 0 0 0.014777622978962738 0.043310689112609622 0.013438430200619574 0 0.013438430200619574 0.015993034805702737 0 0 0 0.01482593097957809 0.041603586213396229 0.011948594112824772 0 0.011948594112824772 0.0091940930262330439 0 0 0 0.012699419809907311 0.03667206847484137 0.0093623148112797622 0 0.0093623148112797622 0.0039077860878128784 0 0 0 0.01014496364066355 0.036222745912290341 0.01134215412853503 0 0.01134215412853503 0.011500542363852159 0 0 0 0.011930822069035618 0.037103123364127397 0.010099021110657084 0 0.010099021110657084 0.010134134357940597 0 0 0 0.011809314430517007 0.027087983593332379 0.0066717843287582967 0 0.0066717843287582967 0.010434783611911649 0 0 0 0.0093806918013110072 0.027978913353353403 0.0095537140937165047 0 0.0095537140937165047 0.0055595138099562708 0 0 0 0.0083846067908274202 0.03221364932502277 0.010006209191957691 0 0.010006209191957691 0.0065779738406127192 0 0 0 0.0096979057914088722 0.033166987773859388 0.010206330787378249 0 0.010206330787378249 0.0095717554228313337 0 0 0 0.010684685799172686 0.033988203470948969 0.0088833876954280463 0 0.0088833876954280463 0.0025630549335749347 0 0 0 0.0091378146011309759 0.033817921486280919 0.010471935601230543 0 0.010471935601230543 0.0021661292473186336 0 0 0 0.0089960126833998812 0.027227711185105315 0.009710104943109147 0 0.009710104943109147 0.0020209925055739639 0 0 0 0.0073121759226698196 0.038762610299063326 0.0096237113768146334 0 0.0096237113768146334 0.0012787680333349802 0 0 0 0.010010344583099578 0.038216060426348633 0.0077801020901896176 0 0.0077801020901896176 0.00029789087070978409 0 0 0 0.0096284878242646026 0.043676024318729502 0.0090297165898594704 0 0.0090297165898594704 0.0016375818449608157 0 0 0 0.011328401540922579 0.040444865219848192 0.0083965283228010848 0 0.0083965283228010848 0.00095073895933677627 0 0 0 0.010348901044796252 0.038241074837822311 0.010335163996770178 0 0.010335163996770178 0.0042192279797370136 0 0 0 0.010615075704389829 0.0070252660461213555 0.01111676559770498 0 0.01111676559770498 0.0053713992161277535 0 0 0 0.0030991663155622781 0.014854735138596645 0.0096530049566118208 0 0.0096530049566118208 0.0022068034719619073 0 0 0 0.0042653846526396408 0.0075671018895331326 0.011839910792161241 0 0.011839910792161241 0.0021710227778020744 0 0 0 0.002434531166833797 0.02005269610545328 0.0089809374803621611 0 0.0089809374803621611 0.0010596916877503304 0 0 0 0.0052780969483008991 0.016460552517475434 0.010313156621049818 0 0.010313156621049818 0.0064306806077358974 0 0 0 0.005722808281302838 0.020705627863828409 0.0095215929843988703 0 0.0095215929843988703 0.0054046890373448744 0 0 0 0.006527579225293326 0.022676705970158854 0.0068368733415480245 0 0.0068368733415480245 0.0054731371471665596 0 0 0 0.0070374607793313587 0.023552338753956265 0.01100553178950452 0 0.01100553178950452 0.0076076167752417191 0 0 0 0.0077899888822994881 0.026319306956968304 0.0086358956702124751 0 0.0086358956702124751 0.002033179741414759 0 0 0 0.007088121674595764 0.021910080653561155 0.0091309971619562801 0 0.0091309971619562801 0.0026137357511339734 0 0 0 0.0061309541011737786 0.026965873302307944 0.011027005902063545 0 0.011027005902063545 0.0011562829586691213 0 0 0 0.0070305390652442654 0.018722637222441298 0.011881942261300085 0 0.011881942261300085 0.003405459216059923 0 0 0 0.0055320241096252984 0.017059908206678704 0.010739177151278971 0 0.010739177151278971 0.00096107244259699409 0 0 0 0.0045052451623189237 0.008739546695631456 0.011388166653638634 0 0.011388166653638634 0.001004013101980436 0 0 0 0.0024358899494029765 0.0074386455572758685 0.013425995360555061 0 0.013425995360555061 0.00027065467204553939 0 0 0 0.0019273250573303598 0.0070711667410394991 0.011672356083306277 0 0.011672356083306277 0.00076324155494424117 0 0 0 0.0019586020739959346 -0.00011651078371637674 0.013956589841376391 0 0.013956589841376391 0.00024587478863893897 0 0 0 3.2341001230645761e-05 0.0049926466119602463 0.014984647131764837 0 0.014984647131764837 -0.00023940701023513335 0 0 0 0.0011883099004312799 -0.00096714886804983441 0.013197928188796872 0 0.013197928188796872 0.0011183063070412946 0 0 0 3.7789359747859852e-05 0.0053945132508670772 0.011540290488392613 0 0.011540290488392613 -0.00033033245148932078 0 0 0 0.0012660451998444365 0.013247857734848963 0.013435313705917648 0 0.013435313705917648 0.0006090165654249434 0 0 0 0.0034642185750684753 0.011949142695946432 0.011734926984579851 0 0.011734926984579851 0.0008688975410866065 0 0 0 0.0032045100592582587 0.014585810042303594 0.013861095509873647 0 0.013861095509873647 0.0006836010052378421 0 0 0 0.0038173527618853582 0.018945598613931212 0.010209282651990286 0 0.010209282651990286 0.00070024009262494025 0 0 0 0.0049114596766390347 0.020206330318244925 0.011401813817621287 0 0.011401813817621287 0.0016730029342058098 0 0 0 0.0054698333131126819 0.026349724378965329 0.011613638154511517 0 0.011613638154511517 0.00059228769933380998 0 0 0 0.0067355030195747814 0.0204467561889995 0.010569133072679621 0 0.010569133072679621 0.003724830837665484 0 0 0 0.0060428967566662469 0.017617218282642254 0.014266924970833263 0 0.014266924970833263 0.0020892048476839446 0 0 0 0.0049266057825815505 0.01524725534324727 0.012466834373114379 0 0.012466834373114379 0.005082508841693454 0 0 0 0.0050824410462351807 0.0089655261335686905 0.016102880832856565 0 0.016102880832856565 0.00063741249369308334 0 0 0 0.0024007346568154422 0.0051702888204969303 0.013414312811250556 0 0.013414312811250556 0.0017215164415961778 0 0 0 0.0017229513155232769 -0.0004067744806850928 0.017015057087803025 0 0.017015057087803025 -0.001248916424109521 0 0 0 -0.00041392272619865389 0.037410299977417794 0.0072906425273487237 0 0.0072906425273487237 0.0024369426475277303 0 0 0 0.0099618106562363896 0.038845470947705157 0.0080758021169663151 0 0.0080758021169663151 0.00034362978969888769 0 0 0 0.009797275184351013 0.032947580276608324 0.0091365803033655792 0 0.0091365803033655792 0.00091305757651180541 0 0 0 0.008465159463280034 0.033131327986858514 0.0097388801314903083 0 0.0097388801314903083 0.00074568800771652663 0 0 0 0.0084692539986437644 0.027202074837459875 0.0098406549954338732 0 0.0098406549954338732 0.0024920712449222927 0 0 0 0.0074235365205955394 0.031132129382691894 0.0094031498905937701 0 0.0094031498905937701 0.0032543987708676114 0 0 0 0.0085966320383898762 0.024313534801481029 0.010762216254003932 0 0.010762216254003932 0.0080998107135188489 0 0 0 0.0081033363787499715 0.024517224458200097 0.012138715131311699 0 0.012138715131311699 0.0046703009014100478 0 0 0 0.0072968813399025374 0.029800765164431142 0.00939332815158209 0 0.00939332815158209 0.0099321166995083362 0 0 0 0.0099332204659848683 0.030131011164497744 0.0092771156602935965 0 0.0092771156602935965 0.0049240291809969014 0 0 0 0.0087637600863736623 0.036877535664985445 0.006494810133457503 0 0.006494810133457503 0.0058447299274817883 0 0 0 0.010680566398116808 0.033803192811023022 0.0082109747955929797 0 0.0082109747955929797 0.001768394548844145 0 0 0 0.0088928968399667914 0.032545234390983224 0.0077542572663135377 0 0.0077542572663135377 0.0055050865236546918 0 0 0 0.0095125802286594782 0.033326614763108414 0.00741946451281648 0 0.00741946451281648 0.011107545184125512 0 0 0 0.011108539986808481 0.035472924081006718 0.004672116958497315 0 0.004672116958497315 0.0039421841046866288 0 0 0 0.0098537770464233385 0.03853360743693459 0.0023020651490960747 0 0.0023020651490960747 0.0128359410644499 0 0 0 0.012842387125346123 0.034963362284558215 0.0010159687164160041 0 0.0010159687164160041 0.0024954974102047449 0 0 0 0.0093647149236907382 0.041509766425799857 0.0008104325473306832 0 0.0008104325473306832 0.0041148518111838884 0 0 0 0.011406154559245934 0.040976385995340411 0.0033719360539205272 0 0.0033719360539205272 0.0023503717859238863 0 0 0 0.010831689445316076 0.041911215224073005 0.0049307642531376313 0 0.0049307642531376313 0.00089385942681742374 0 0 0 0.010701268662722613 0.039781732612342205 0.0025716767868594003 0 0.0025716767868594003 -0.00097550765909986954 0 0 0 0.0097015562383105849 0.045426461909106118 0.0027546193327763753 0 0.0027546193327763753 0.00076778165537814828 0 0 0 0.011548560891121069 0.041942320957440909 0.0045261694018246482 0 0.0045261694018246482 -0.0027629778469092452 0 0 0 0.0097948357776329095 0.043219297718497536 0.00077405552982440316 0 0.00077405552982440316 -0.0050637361265369685 0 0 0 0.0095388903979901404 0.039883234275110736 -0.0045799562964970678 0 -0.0045799562964970678 -0.0056270161495421689 0 0 0 0.0085640545313921471 0.042368312909092196 -0.0014017069120743405 0 -0.0014017069120743405 -0.00064429339701992626 0 0 0 0.010431004878018072 0.039902104832907598 -0.00087277160407337514 0 -0.00087277160407337514 0.00056758073702089032 0 0 0 0.010117421392482126 0.038113746807662073 -0.0012171436574600282 0 -0.0012171436574600282 0.012706978001435569 0 0 0 0.01270518120227441 0.037545981439249199 -0.004516722635377949 0 -0.004516722635377949 0.01250461752019718 0 0 0 0.012512649739861596 0.034476701306983569 -0.0038583090990904319 0 -0.0038583090990904319 0.002918882445025796 0 0 0 0.0093488959380023419 0.031194020862201331 -0.0093914928601949357 0 -0.0093914928601949357 0.010395237043834563 0 0 0 0.010397314476508974 0.037999713244980936 -0.005716815326779881 0 -0.005716815326779881 0.0023299901537563151 0 0 0 0.010082425849684313 0.029557407338509506 -0.0092899489220054539 0 -0.0092899489220054539 -0.001019778169469545 0 0 0 0.0071344072922599911 0.018896170038024886 -0.013882334337313737 0 -0.013882334337313737 0.0062924111313335989 0 0 0 0.0062971452923396209 0.020370521627026045 -0.015556959591457586 0 -0.015556959591457586 -0.0039872158982619879 0 0 0 0.0040958264321910125 0.0089191606892738556 -0.01998731347228979 0 -0.01998731347228979 -0.0050333583738505147 0 0 0 0.00097145057885583697 0.020230713085935131 -0.015926063450764312 0 -0.015926063450764312 -0.0090683713090454476 0 0 0 0.0027905854442224209 0.024771049634471499 -0.012551165034252226 0 -0.012551165034252226 -0.0060770072809942788 0 0 0 0.0046735105883693052 0.030514852255854649 -0.010123135331053398 0 -0.010123135331053398 -0.0014710031042224343 0 0 0 0.0072609622879080543 0.016212172700542045 -0.015215644117967003 0 -0.015215644117967003 -0.0059797568932563883 0 0 0 0.0025581039518214055 0.029788284346744409 -0.010286586952939988 0 -0.010286586952939988 -0.0064165190877087455 0 0 0 0.0058429413147589142 0.03955034139694695 -0.0060772937413622894 0 -0.0060772937413622894 -0.0081273667808301805 0 0 0 0.0078557436540291903 0.041515249807344709 -0.0032095936564667145 0 -0.0032095936564667145 -0.0037256538254420435 0 0 0 0.0094473989954756699 0.043511025812075492 -0.0046712256859920602 0 -0.0046712256859920602 -0.005767371033446711 0 0 0 0.0094359136946571987 0.042312885157993592 -0.0040154380673043293 0 -0.0040154380673043293 -0.0091676275273654476 0 0 0 0.0082863144076570309 0.05233777684181784 -6.9993242824533883e-05 0 -6.9993242824533883e-05 -0.0073686632053184186 0 0 0 0.01124227840912486 0.034609002748934151 -0.0111502089821011 0 -0.0111502089821011 -0.011458835920437255 0 0 0 0.005787541707124224 0.026802998049207549 -0.015550078652448823 0 -0.015550078652448823 -0.0099256259748439768 0 0 0 0.0042193430185908931 0.034737795466489516 -0.01068436997082383 0 -0.01068436997082383 -0.0086522662829866467 0 0 0 0.0065213822958757241 0.0376260933711988 -0.0077139473907514404 0 -0.0077139473907514404 -0.0082471841033284442 0 0 0 0.0073447273169675786 0.020687807599883402 -0.015984775464591768 0 -0.015984775464591768 -0.011944852855989271 0 0 0 0.0021857386859735328 0.035173830998832256 -0.016169013972640429 0 -0.016169013972640429 -0.012527941406909771 0 0 0 0.0056614723979806179 0.042844185563099851 -0.012682500747555543 0 -0.012682500747555543 -0.0086186226029754121 0 0 0 0.0085563907400311098 0.03948748070030296 -0.010475872405031665 0 -0.010475872405031665 -0.012175291784543012 0 0 0 0.0068280472289399879 0.05761096660749046 -0.0045527612023639943 0 -0.0045527612023639943 -0.006511853734269807 0 0 0 0.012774778218305161 0.042694447613831558 -0.016042185922221737 0 -0.016042185922221737 -0.00667910358438587 0 0 0 0.0090038360073614199 0.040964512562216407 -0.015047353787573976 0 -0.015047353787573976 -0.0098904342662978848 0 0 0 0.0077685195739796214 0.048729653223116808 -0.00031219043623406347 0 -0.00031219043623406347 -0.0066931768637708954 0 0 0 0.010509119089836476 0.050453115059511555 -0.0073173606904165661 0 -0.0073173606904165661 -0.0090086956864572111 0 0 0 0.010361104843263583 0.056810026316471293 0.0014047442334705524 0 0.0014047442334705524 -0.008198027599006362 0 0 0 0.012152999679366236 0.065841280136703581 0.0060755345591087008 0 0.0060755345591087008 -0.00033743472999021515 0 0 0 0.016375961351678344 0.055807710596832261 0.007983612255645138 0 0.007983612255645138 0.00078948068620230544 0 0 0 0.014149297820758645 0.05865662774845503 0.0076273413027065466 0 0.0076273413027065466 0.0016800428646516451 0 0 0 0.015084167653276645 0.052885481876031065 0.0054343415858776195 0 0.0054343415858776195 -0.0042736568522132659 0 0 0 0.01215295625595446 0.05293745546072233 0.0099672165658139505 0 0.0099672165658139505 0.0023083607717312524 0 0 0 0.01381145405811339 0.055228738532620766 0.012931733316992579 0 0.012931733316992579 0.0088010321195618746 0 0 0 0.016007442663045671 0.05000280152534143 0.0096212153201197387 0 0.0096212153201197387 0.0024619749923520083 0 0 0 0.013116194129423353 0.049127155183336685 0.013349940233308929 0 0.013349940233308929 0.010638465865347384 0 0 0 0.014941405262171026 0.043686865362528284 0.009951520641849728 0 0.009951520641849728 0.003899184838934644 0 0 0 0.011896512550365721 0.042654663019489912 0.0099708475592510653 0 0.0099708475592510653 0.003557019123179031 0 0 0 0.011552920535667236 0.046717869986430106 0.0068070091667508945 0 0.0068070091667508945 -0.0022316886694571693 0 0 0 0.011121545329243233 0.048803819069969216 0.0082675502657750082 0 0.0082675502657750082 0.00078383187623467555 0 0 0 0.012396912736550967 0.042282620353458464 0.0062896298738391657 0 0.0062896298738391657 -0.0026204864059934455 0 0 0 0.0099155334868662529 0.047829548697037955 0.00508964058555866 0 0.00508964058555866 -0.00070212875650284019 0 0 0 0.011781854985133785 0.044459962421121789 0.0030374566725207023 0 0.0030374566725207023 -0.0049502800735124163 0 0 0 0.009877420586902344 0.047418827654054044 0.0018097839816562647 0 0.0018097839816562647 -0.0031430181343283176 0 0 0 0.011068952379931432 0.046345609402167816 -0.0021745360617502047 0 -0.0021745360617502047 -0.0057442487244746231 0 0 0 0.010150340169423303 0.048419502915564662 0.0041327080927503002 0 0.0041327080927503002 -0.004060438046751982 0 0 0 0.011089766217203168 0.051839323592845397 0.0050495758367325727 0 0.0050495758367325727 -0.0033735365267445251 0 0 0 0.012116446766525225 -0.084853084422783262 -0.0064038480820564712 0 -0.0064038480820564712 -0.0035617967931244878 0 0 0 -0.022103720303976938 -0.058955221021628437 -0.016723858455363439 0 -0.016723858455363439 -0.0016645266045721419 0 0 0 -0.015154936906550145 -0.064899643658764383 -0.0078447491750172106 0 -0.0078447491750172106 -0.00058379779376884627 0 0 0 -0.016370860363133316 -0.058051094029670541 -0.01082720811700503 0 -0.01082720811700503 0.0045785804325106112 0 0 0 -0.013368128399289983 -0.051139571746694257 -0.0073713357126314102 0 -0.0073713357126314102 0.0040337280144256832 0 0 0 -0.011776460933067145 -0.049523167849371545 -0.005163698584581702 0 -0.005163698584581702 -0.0061237105532594392 0 0 0 -0.013911719600657745 -0.047517017441906347 -0.0067987861885172298 0 -0.0067987861885172298 -0.015808292749145827 0 0 0 -0.015831327547763039 -0.049492404478079385 -0.0086585250838226088 0 -0.0086585250838226088 -0.0061221361226027754 0 0 0 -0.013903635150170537 -0.048333052943516433 -0.014825101769494954 0 -0.014825101769494954 -0.0043760608786056199 0 0 0 -0.013177278455530511 -0.044512724162409333 -0.015721969372755194 0 -0.015721969372755194 -0.0027985977409522578 0 0 0 -0.011827830475840396 -0.038218060457324524 -0.015762699032835819 0 -0.015762699032835819 -0.012744948972905911 0 0 0 -0.01274075235755761 -0.038210320569250486 -0.015768538818272674 0 -0.015768538818272674 -0.0127201723706514 0 0 0 -0.012732623234975473 -0.042762757102993217 -0.018628901559942769 0 -0.018628901559942769 -0.005362065713318237 0 0 0 -0.012031205704077869 -0.029610539932591138 -0.019228649462994934 0 -0.019228649462994934 -0.0017307135034728555 0 0 0 -0.0078353133590159975 -0.048418301881967961 -0.01727527793463534 0 -0.01727527793463534 0.000703740689330698 0 0 0 -0.011928640298159314 -0.069945273803899338 -0.017409872097941866 0 -0.017409872097941866 -0.0030240754230304173 0 0 0 -0.018242337306732422 -0.028263008533765521 -0.022945494672273289 0 -0.022945494672273289 -0.0015600323059407062 0 0 0 -0.007455760209926561 -0.051722551257644522 -0.021129830434436343 0 -0.021129830434436343 -0.0051481248341213454 0 0 0 -0.01421766902294147 -0.025222575996461036 -0.019888186813184501 0 -0.019888186813184501 -0.0046813013231046859 0 0 0 -0.0074759693298914343 -0.020047271612357937 -0.02011488039727111 0 -0.02011488039727111 -0.0071528402405591496 0 0 0 -0.0068000279632292639 -0.024842848532373077 -0.023920610161714994 0 -0.023920610161714994 -0.0050969832697499709 0 0 0 -0.0074849579505307517 -0.022592182487708071 -0.021816677469479021 0 -0.021816677469479021 -0.0029539789915191961 0 0 0 -0.0063865403698068132 -0.023891840810512571 -0.020648399488785399 0 -0.020648399488785399 -0.0061735788979907277 0 0 0 -0.0075163549271258217 -0.010262329619744957 -0.018112623527607105 0 -0.018112623527607105 -0.0034298905182587602 0 0 0 -0.003423055034500929 -0.0093180452907790905 -0.021442219809704698 0 -0.021442219809704698 -0.0057737122953235159 0 0 0 -0.0037729393965256468 -0.0045932850165171912 -0.017294038877989998 0 -0.017294038877989998 -0.0027006577946375732 0 0 0 -0.0018234857027886893 -0.0054146548353925482 -0.022576367363333349 0 -0.022576367363333349 -0.0048100591146582536 0 0 0 -0.0025561784875126996 0.0047840846391698812 -0.01696561359220591 0 -0.01696561359220591 0.001596304863646696 0 0 0 0.0015950973757041446 0.013800219442895436 -0.014326118565613426 0 -0.014326118565613426 -0.0016930498905144732 0 0 0 0.0030267923880952416 0.0055283701416432018 -0.021527834242690058 0 -0.021527834242690058 -0.0073677446651362194 0 0 0 -0.00045984363087325092 0.00035509378390347762 -0.021524501487345315 0 -0.021524501487345315 -0.0072677164112025378 0 0 0 -0.0017281556568247633 0.0011107924838074726 -0.017746790609777241 0 -0.017746790609777241 -0.00687091657228181 0 0 0 -0.0014400310221185861 0.013815258164020891 -0.021080155917070544 0 -0.021080155917070544 -0.012464785085295027 0 0 0 0.00033761826968146252 0.02211309415045512 -0.017408315250007703 0 -0.017408315250007703 -0.0085892069225624312 0 0 0 0.0033809718069731706 0.0018344434057662694 -0.025021216942495657 0 -0.025021216942495657 -0.01293972751888299 0 0 0 -0.0027763210282791793 0.020929605312275841 -0.021668346561016658 0 -0.021668346561016658 -0.013742249729841963 0 0 0 0.0017968388956084679 0.0028207836140279148 -0.023083967570504058 0 -0.023083967570504058 -0.0056561897251047599 0 0 0 -0.00070885152776921454 -0.0049297040692324245 -0.028736006255931076 0 -0.028736006255931076 -0.010603510439053245 0 0 0 -0.0038833036270714228 0.019370597529998521 -0.01962068458515101 0 -0.01962068458515101 -0.0060036179487270858 0 0 0 0.0033417448953178691 -0.0035209233238507782 -0.025852524535266264 0 -0.025852524535266264 -0.0055229236431759351 0 0 0 -0.0022609617417566792 0.00022788399714962493 -0.031181772991837782 0 -0.031181772991837782 -0.0044981357560887961 0 0 0 -0.001067562939734791 -0.031329921386002317 -0.027145649696898422 0 -0.027145649696898422 -0.011229438205575808 0 0 0 -0.010639839897894536 -0.02767997958168357 -0.028043734425679673 0 -0.028043734425679673 -0.0075048321795994841 0 0 0 -0.0087962029403207635 -0.029672856594342576 -0.022851725594260831 0 -0.022851725594260831 -0.002913547474845804 0 0 0 -0.0081466010172970907 -0.0025036668614233371 -0.022215029640288188 0 -0.022215029640288188 -0.0045694751391113786 0 0 0 -0.0017682855001336824 -0.018119948386665686 -0.024664803820840971 0 -0.024664803820840971 -0.0088829811851302148 0 0 0 -0.0067507323929489743 -0.047304199476872463 -0.023384316530611772 0 -0.023384316530611772 -0.0052814475658190668 0 0 0 -0.013146411760672872 -0.044033945293163956 -0.021114521954099852 0 -0.021114521954099852 0.001551007841189736 0 0 0 -0.010620734362993552 -0.062660378784777482 -0.019758293531600375 0 -0.019758293531600375 -0.00060211806828290582 0 0 0 -0.015815624213265104 -0.047564646977583842 -0.028814453918764429 0 -0.028814453918764429 -0.0011658351295269903 0 0 0 -0.012182620526777696 -0.060563144538487823 -0.022705944695086463 0 -0.022705944695086463 -0.0060085374960575505 0 0 0 -0.016642920508636333 -0.033048038135924558 -0.032964658076081427 0 -0.032964658076081427 -0.0024216205203450858 0 0 0 -0.0088674146640674092 -0.059901643154134314 -0.025473093382006352 0 -0.025473093382006352 0.0022330584652370949 0 0 0 -0.014417146172224322 -0.094098614006928788 -0.018070983786940501 0 -0.018070983786940501 -0.0057099889369387827 0 0 0 -0.024952150735966905 -0.10243821722104625 -0.021611165434130799 0 -0.021611165434130799 -0.0035757535225365896 0 0 0 -0.026503492685895691 -0.12390464234568395 -0.011547337619467879 0 -0.011547337619467879 -0.001063081648198223 0 0 0 -0.03124193099847054 -0.088786846807583697 -0.0092008122530639787 0 -0.0092008122530639787 0.00015579590650748043 0 0 0 -0.022157762725269061 -0.10292527414447106 -0.010496449035764891 0 -0.010496449035764891 -0.00089706415414590734 0 0 0 -0.025955584574654245 -0.063792389835629543 -0.020759304311369194 0 -0.020759304311369194 -0.00081151628985861451 0 0 0 -0.016150976531372041 -0.087302175980964514 -0.0084211714096018835 0 -0.0084211714096018835 -0.0050380518517571908 0 0 0 -0.02308505695818043 -0.064526784114115845 -0.013634434701863504 0 -0.013634434701863504 0.0033365579676184337 0 0 0 -0.015297556536624356 -0.13549886032911818 -0.010787597150477293 0 -0.010787597150477293 0.0061186993572391879 0 0 0 -0.032345040242969789 -0.19798812084036618 -0.0024718809725934321 0 -0.0024718809725934321 -0.00064612302817476652 0 0 0 -0.049658560967135251 -0.12567793424018894 -0.024563979141474412 0 -0.024563979141474412 0.0058076160984112113 0 0 0 -0.029967579535444461 -0.12683152503172665 -0.0079211663416609013 0 -0.0079211663416609013 0.0012432445085192659 0 0 0 -0.031397070130801813 -0.16890793797469511 -0.0091138754958400188 0 -0.0091138754958400188 0.0020330014852919659 0 0 0 -0.041718734122350762 -0.14347874653883941 -0.01100712094051455 0 -0.01100712094051455 -0.00054883661836699002 0 0 0 -0.0360068957893016 -0.097337402409714446 -0.011571390787813331 0 -0.011571390787813331 0.0017234227457232926 0 0 0 -0.023903494915997803 -0.11372611494856885 -0.010013131454556999 0 -0.010013131454556999 0.001483228887842131 0 0 0 -0.028060721515181672 -0.10905579305914324 -0.026281837477326344 0 -0.026281837477326344 0.0024492365792201133 0 0 0 -0.026651639119980794 -0.064780918401910345 -0.027567248854839535 0 -0.027567248854839535 0.0023696176610544135 0 0 0 -0.01560282518521398 -0.065430926512710499 -0.026158001200413155 0 -0.026158001200413155 -0.0011601137100972232 0 0 0 -0.01664776005570192 -0.044089423229644362 -0.026144052568511045 0 -0.026144052568511045 -0.0078853926687072508 0 0 0 -0.012993703974587897 -0.064863355495594688 -0.036637465062173462 0 -0.036637465062173462 0.0074060449476802126 0 0 0 -0.014364327636978619 -0.086369562439912992 -0.018422032979677122 0 -0.018422032979677122 0.0016143262147343199 0 0 0 -0.021188809056294652 -0.072916136005384782 -0.015405945234742424 0 -0.015405945234742424 0.006364324402983958 0 0 0 -0.016637952900600196 -0.014905762136712027 -0.029793320789294697 0 -0.029793320789294697 0.0087562775663466708 0 0 0 -0.0015373711425913164 -0.0094483221512192128 -0.026412490254865487 0 -0.026412490254865487 0.023775371690058736 0 0 0 0.0035817623847098912 0.01529285506773027 -0.034516486366464885 0 -0.034516486366464885 0.0043468836143212841 0 0 0 0.0049099346705128895 -0.053695611220042169 -0.026569115835617631 0 -0.026569115835617631 0.0083522964624588303 0 0 0 -0.011335828689395842 -0.020603820223200738 -0.033575391403990171 0 -0.033575391403990171 0.0033662638366989926 0 0 0 -0.0043093890966254406 -0.049245965440878829 -0.036058723428492742 0 -0.036058723428492742 -0.0013160200867573975 0 0 0 -0.012640496381909064 -0.022488050350080016 -0.037057793644326896 0 -0.037057793644326896 -0.0055989511984971246 0 0 0 -0.007021750387144283 -0.017166717637452627 -0.028280505134840889 0 -0.028280505134840889 -0.002068426447414104 0 0 0 -0.0048087860212166871 0.0081740331466896281 -0.033978322390001106 0 -0.033978322390001106 -0.0014481172110212739 0 0 0 0.0016814789839170886 -0.02030020664645614 -0.02884737581812441 0 -0.02884737581812441 0.001420959825850665 0 0 0 -0.004719811705151367 0.0092967355327045215 -0.025121526142159425 0 -0.025121526142159425 -0.00256994912551229 0 0 0 0.0016816966017980557 0.037148762597770377 -0.030071649799204236 0 -0.030071649799204236 -0.0021622001158396603 0 0 0 0.0087466406204826826 0.025223948229160485 -0.02858899850397462 0 -0.02858899850397462 -0.0058355477909712017 0 0 0 0.0048471001095473261 0.049779168823202005 -0.02253535349542039 0 -0.02253535349542039 -0.0049808667360385188 0 0 0 0.011199575521790886 0.025480614325301645 -0.01965877265339638 0 -0.01965877265339638 -0.0073522693111831502 0 0 0 0.0045320862535296168 0.038888641015622102 -0.017958144916063058 0 -0.017958144916063058 0.0023832217944971812 0 0 0 0.010317965702529826 0.06552183148755511 -0.024435176267732478 0 -0.024435176267732478 0.0054643296203718134 0 0 0 0.017746540276981727 0.017717983578257514 -0.025135072088712934 0 -0.025135072088712934 0.0099425295702778999 0 0 0 0.006915128287133851 0.052435864181546277 -0.030164079723940224 0 -0.030164079723940224 0.012578675381250543 0 0 0 0.016253634890699198 0.050856216877380497 -0.016289358630247972 0 -0.016289358630247972 0.02010444912961995 0 0 0 0.017740166501750101 0.077271414368454375 -0.009533124586665824 0 -0.009533124586665824 0.045550239975966134 0 0 0 0.030705413586105137 0.088809649435073412 -0.025127221573741018 0 -0.025127221573741018 0.032531199152406182 0 0 0 0.030335212146869933 0.029604104261366039 -0.020217074020522197 0 -0.020217074020522197 0.0293598923243438 0 0 0 0.014740999146427472 0.014516862462095589 -0.036533049790232891 0 -0.036533049790232891 0.03181148459351224 0 0 0 0.011582086763901947 0.056820581509899631 -0.036085400142795113 0 -0.036085400142795113 0.071759958791234146 0 0 0 0.032145135075283437 0.079179595612858644 -0.021916735163866996 0 -0.021916735163866996 0.13692178140968053 0 0 0 0.054025344255634794 0.083837849640172699 0.019054422037805163 0 0.019054422037805163 0.11446282954927189 0 0 0 0.049575169797361165 0.065525808959440046 0.013347185866151981 0 0.013347185866151981 0.14913955705437787 0 0 0 0.053666341503454507 0.048704798962959872 0.0085819708361565272 0 0.0085819708361565272 0.092411124427173696 0 0 0 0.035278980847533448 0.026225816512792377 -0.019588723990168574 0 -0.019588723990168574 0.069402894181693431 0 0 0 0.023907177673621438 0.047099609155697567 -0.0042928198133339035 0 -0.0042928198133339035 0.070107732785246249 0 0 0 0.029301835485235975 0.004771221087075346 0.0223002029761597 0 0.0223002029761597 0.08013260674925704 0 0 0 0.021225956959083088 -0.018423366370380612 0.0054292687231705383 0 0.0054292687231705383 0.046195492874928079 0 0 0 0.0069430316261367975 -0.046439973388795144 0.013848556294764391 0 0.013848556294764391 0.058698910595349263 0 0 0 0.0030647343016384915 -0.022468770940855531 -0.017380634064887365 0 -0.017380634064887365 0.023609139843638993 0 0 0 0.0002850922256958377 -0.053967825386047712 -0.00805241545015567 0 -0.00805241545015567 0.024812653333842381 0 0 0 -0.0072887930130513187 -0.0086639991860678264 -0.013539727629778786 0 -0.013539727629778786 0.066047502478487397 0 0 0 0.014345875823104877 -0.049740084029031267 -0.031859830009417348 0 -0.031859830009417348 0.02887720170381608 0 0 0 -0.0052157205813038038 -0.091255810424286071 -0.026328985032465391 0 -0.026328985032465391 0.012556102775491795 0 0 0 -0.019674926912198548 -0.10099707575699221 -0.0059914612211751095 0 -0.0059914612211751095 0.010749868856390787 0 0 0 -0.022561801725150404 -0.068631190375105122 -0.023126401072778496 0 -0.023126401072778496 0.025225854017709048 0 0 0 -0.010851334089349018 -0.093622187848116808 0.0082235531988681942 0 0.0082235531988681942 0.024027146801729779 0 0 0 -0.017398760261596688 -0.062175369271253611 0.0030648203714331856 0 0.0030648203714331856 0.014161114661947916 0 0 0 -0.01200356365232641 -0.12199878382262724 0.020549152378595947 0 0.020549152378595947 0.01079347258005918 0 0 0 -0.027801327810642099 -0.098074861243346939 0.0062557268826231582 0 0.0062557268826231582 0.033964001372958741 0 0 0 -0.01602771496759714 -0.10261553967163406 -0.0057178406397339829 0 -0.0057178406397339829 0.012545116859673522 0 0 0 -0.022517605702990107 -0.14435747275133284 0.005105195576734306 0 0.005105195576734306 0.010330303039968736 0 0 0 -0.033506792427841076 -0.14065271355416978 -0.001047743814316604 0 -0.001047743814316604 0.0060298766101229972 0 0 0 -0.033655709236011661 -0.21035788454266002 0.0018853576870555 0 0.0018853576870555 0.0068446983633605463 0 0 0 -0.050878296544824841 -0.15202177178168585 -0.0050611532589213692 0 -0.0050611532589213692 0.0036731837455439287 0 0 0 -0.037087147009035509 -0.21335260288469576 -0.0078193517414417713 0 -0.0078193517414417713 0.0044231385135912737 0 0 0 -0.052232366092776081 -0.1575730954264711 0.00020656774381642984 0 0.00020656774381642984 -0.00094422361983409475 0 0 0 -0.039629329761576321 -0.12327878961681674 -0.019099865123624521 0 -0.019099865123624521 0.0082678452689154969 0 0 0 -0.028752736086975348 -0.14654818572340203 -0.018584139672795555 0 -0.018584139672795555 0.0058817516208485299 0 0 0 -0.035166608525638354 0.064907135626983803 0.023764047310775728 0 0.023764047310775728 0.030338342723211301 0 0 0 0.023811369587548779 0.067511498226392047 0.025020785499736031 0 0.025020785499736031 0.036585729777867948 0 0 0 0.026024307001064995 0.071788584046810613 0.027243946030710495 0 0.027243946030710495 0.037858401768661419 0 0 0 0.027411746453867996 0.054837575359102081 0.02332670577063185 0 0.02332670577063185 0.046883652921418495 0 0 0 0.025430307070130137 0.041101922123954776 0.018095585768507221 0 0.018095585768507221 0.053329436130968064 0 0 0 0.02360783956373071 0.04788825872715511 0.019488925675301708 0 0.019488925675301708 0.032147047596843642 0 0 0 0.020008826580999672 0.033791313836871839 0.013428679348640419 0 0.013428679348640419 0.037462938458168588 0 0 0 0.017813563073760127 0.055084617018950746 0.021129384929904422 0 0.021129384929904422 0.034605499540479007 0 0 0 0.022422529139857452 0.043579388429427025 0.014560989343312509 0 0.014560989343312509 0.019498393408460594 0 0 0 0.015769445459471912 0.043741418503151427 0.016258009610120173 0 0.016258009610120173 0.030402355629618769 0 0 0 0.018535943533192555 0.04319472634408663 0.011746569078979148 0 0.011746569078979148 0.0098588261363727614 0 0 0 0.013263388120114857 0.051298466808930659 0.016993032523432126 0 0.016993032523432126 0.021034872016285702 0 0 0 0.018083334706304105 0.053712018045098855 0.013965864798543417 0 0.013965864798543417 0.0075993927478767362 0 0 0 0.015327852698243894 0.053924796170135146 0.017036370207335318 0 0.017036370207335318 0.020372874178158432 0 0 0 0.0185744175870734 0.061993242497974763 0.019076800700754674 0 0.019076800700754674 0.018100660158905133 0 0 0 0.020023475664219973 0.06496874325058058 0.011814380682714582 0 0.011814380682714582 0.0050919150878588199 0 0 0 0.01751516458460986 0.057685035653873083 0.0092503272323015973 0 0.0092503272323015973 0.0044990319205179471 0 0 0 0.015546016893597782 0.055278515290828632 -0.0035916062808001069 0 -0.0035916062808001069 -0.0067962168932843136 0 0 0 0.012120574599386084 0.070650147336080368 0.0025793914038756763 0 0.0025793914038756763 0.0041470227278807281 0 0 0 0.018699292515990281 0.068015060623915838 0.0037056410806574902 0 0.0037056410806574902 0.0021172809511640044 0 0 0 0.017533085393769951 0.070498236645497009 0.016206827716884014 0 0.016206827716884014 0.015708185368096386 0 0 0 0.021551605503398366 0.052106972422215153 -0.0096638372508139649 0 -0.0096638372508139649 -0.003706406690123727 0 0 0 0.01210014143302285 0.063739874218001327 -0.012700013055920417 0 -0.012700013055920417 -0.0021491365666491749 0 0 0 0.015397684412838043 0.070774079580444252 -0.0033801292928437171 0 -0.0033801292928437171 0.0089523119428019313 0 0 0 0.019931597880811537 0.080847518139573846 -0.0079241977620532165 0 -0.0079241977620532165 0.016245052608343885 0 0 0 0.02427314268697945 0.094762164818597894 0.0066852250288503418 0 0.0066852250288503418 0.03039671256542853 0 0 0 0.031289719346006592 0.080599197810767118 0.017705445293409568 0 0.017705445293409568 0.018174829955818355 0 0 0 0.024693506941646362 0.091349668894813635 0.011645705849701418 0 0.011645705849701418 0.015427972964910691 0 0 0 0.026694410464931095 0.078273433221435068 0.016415567818187628 0 0.016415567818187628 0.026541884694594925 0 0 0 0.026203829479007477 0.099629890804722676 0.021431724894635698 0 0.021431724894635698 0.03128641724983424 0 0 0 0.032729077013639238 0.084397796046181986 0.033925576123545402 0 0.033925576123545402 0.065560164265847987 0 0 0 0.037489490078007504 0.12580837782175502 0.035389237595625241 0 0.035389237595625241 0.060780439717151163 0 0 0 0.046647204384726554 0.10282491557131933 0.034437681578116705 0 0.034437681578116705 0.097287324717027529 0 0 0 0.050028060072086697 0.078631211726414629 0.03898712389408221 0 0.03898712389408221 0.10430746623337689 0 0 0 0.045734669489947886 0.092929474421001731 0.031603339343329387 0 0.031603339343329387 0.068463979002323511 0 0 0 0.040348363355831321 0.12260513293148652 -0.0044363308751158431 0 -0.0044363308751158431 0.049124613550138557 0 0 0 0.042932436620406272 0.12437593873668883 0.010398748757993098 0 0.010398748757993098 0.082637055378701751 0 0 0 0.051753248528847648 0.13042761741413847 -0.025069711632980163 0 -0.025069711632980163 0.070608457903073019 0 0 0 0.050259018829302865 0.22772331654407837 -0.01144927986696137 0 -0.01144927986696137 0.12461534490108975 0 0 0 0.088084665361292031 0.1478720623962923 -0.0058115035017865524 0 -0.0058115035017865524 0.28742866796525945 0 0 0 0.10882518259038791 0.21515309927605053 0.099197106625079717 0 0.099197106625079717 0.20582183065244436 0 0 0 0.10524373248212365 0.10720289966823478 0.05934008452643548 0 0.05934008452643548 0.17717164565360144 0 0 0 0.071093636330459051 0.052794147763796068 0.027056909742916635 0 0.027056909742916635 0.098393690194295086 0 0 0 0.037796959489522788 0.10278393119571531 0.039191632734407331 0 0.039191632734407331 0.098826812635164324 0 0 0 0.050402685957719948 0.057188190908057587 -0.017586053259057405 0 -0.017586053259057405 0.2035713626386447 0 0 0 0.065189888386675596 0.040547510802571581 -0.018462334053719887 0 -0.018462334053719887 0.11228301996312212 0 0 0 0.038207632691423389 0.042037585653851864 -0.018225650318269324 0 -0.018225650318269324 0.12083430770188958 0 0 0 0.040717973338935357 0.057372636603010146 0.026752303824803592 0 0.026752303824803592 0.11367323227099969 0 0 0 0.042761467218502436 0.057426037499547361 0.026292873854653342 0 0.026292873854653342 0.063650372148723086 0 0 0 0.030269102412067567 0.049437339691331197 0.021446456888294635 0 0.021446456888294635 0.10138966280362846 0 0 0 0.037706750623739918 0.03388568887328184 0.011766546996338813 0 0.011766546996338813 0.066177713568789667 0 0 0 0.025015850610517879 0.047054881139797472 0.021951215345414297 0 0.021951215345414297 0.080591413539889287 0 0 0 0.031911573669921672 0.051247575941252593 0.023001774170764436 0 0.023001774170764436 0.045851442740630612 0 0 0 0.024274754670470796 0.063416843630220446 0.031306132427499904 0 0.031306132427499904 0.069440584031651875 0 0 0 0.03321435691546807 0.032711906614154462 0.014252569276486989 0 0.014252569276486989 0.048652443176882033 0 0 0 0.020341087447759133 0.032942579880714584 0.012798443208584828 0 0.012798443208584828 0.069324665673258221 0 0 0 0.025566811388493191 0.036308830691310516 -0.016913116777912636 0 -0.016913116777912636 0.075801014910094125 0 0 0 0.028027461400351152 0.025385683584647309 -0.00098997539544037677 0 -0.00098997539544037677 0.069867706829759457 0 0 0 0.023813347603601695 0.022416007538724733 0.001291556544088769 0 0.001291556544088769 0.06065315508796032 0 0 0 0.020767290656671281 0.035808587550943773 0.0079851166536376132 0 0.0079851166536376132 0.091925351101984423 0 0 0 0.031933484663232044 0.030392778246581608 -0.014551879207341897 0 -0.014551879207341897 0.058088135972808951 0 0 0 0.022120228554847628 0.028360194220250448 -0.014531790889328738 0 -0.014531790889328738 0.047676684446295609 0 0 0 0.019009219666636518 0.048436558702727561 -0.028812469358633935 0 -0.028812469358633935 0.053600993672756336 0 0 0 0.025509388093870957 0.041340231063756783 -0.026764513160702212 0 -0.026764513160702212 0.026344844705513237 0 0 0 0.016921268942317519 0.030922373698257385 -0.017626047072220329 0 -0.017626047072220329 0.022195184280121294 0 0 0 0.013279389494594659 0.050074516746194085 -0.025824208758966044 0 -0.025824208758966044 0.027609675597036427 0 0 0 0.019421048085807656 0.050691553145149948 -0.025388535139661314 0 -0.025388535139661314 0.029482699167745929 0 0 0 0.020043563078223983 0.040034904605875402 -0.018958176181537986 0 -0.018958176181537986 0.0090552791348623707 0 0 0 0.012272545935184453 0.075623100656936948 -0.012254924179525683 0 -0.012254924179525683 0.016600563547949476 0 0 0 0.02305591605122162 0.062844874270007747 -0.018632162894933829 0 -0.018632162894933829 0.0038805385515761071 0 0 0 0.01668135320539596 0.06778600470825577 -0.02300324588827235 0 -0.02300324588827235 0.01113385695122765 0 0 0 0.019729965414870876 0.08988241668986674 -0.041647576598064798 0 -0.041647576598064798 0.041685832963262337 0 0 0 0.032892062413282214 0.035018846473325177 -0.018074796727535862 0 -0.018074796727535862 0.075683373126507622 0 0 0 0.027675554899958182 0.054504992568581309 -0.03367278090503692 0 -0.03367278090503692 0.051735225955507613 0 0 0 0.02656005463102222 0.055232616668848218 -0.036810446965901251 0 -0.036810446965901251 0.063141833265304856 0 0 0 0.029593612483538277 0.061450671919383679 -0.045450792679399984 0 -0.045450792679399984 0.097533594863967732 0 0 0 0.039746066695837842 0.037395264361867395 -0.040185664676876703 0 -0.040185664676876703 0.12957159360771947 0 0 0 0.041741714492396734 0.073294625284168788 -0.039406509022357046 0 -0.039406509022357046 0.12930868905854737 0 0 0 0.050650828585679049 0.10169044226550242 -0.011134788667076744 0 -0.011134788667076744 0.36768990043164657 0 0 0 0.11734508567428725 0.090143567800715474 -0.014870549334736596 0 -0.014870549334736596 -0.013205701950500304 0 0 0 0.019234466462553793 0.11847666004510336 -0.063064389777973268 0 -0.063064389777973268 0.078991305834743786 0 0 0 0.049366991469961735 0.20107255432876175 0.13603412757873112 0 0.13603412757873112 0.23775507575821353 0 0 0 0.10970690752174381 0.11542836137294171 -0.090540291562806463 0 -0.090540291562806463 0.15800104881043076 0 0 0 0.068357352545843131 0.007270354187270703 0.0012927628558273407 0 0.0012927628558273407 0.019953395466266809 0 0 0 0.0068059374133843768 0.33890283078396782 0.11182684352063402 0 0.11182684352063402 0.067095898739599313 0 0 0 0.10149968238089174 0.17861923219368875 0.029764276143171231 0 0.029764276143171231 0.037665973223019789 0 0 0 0.054071301354177148 0.017014427123935864 0.003150682611310335 0 0.003150682611310335 0.051154835033139202 0 0 0 0.017042315539268767 0.030496667828656829 0.0050008208345293237 0 0.0050008208345293237 0.047336987628455396 0 0 0 0.019458413864278032 0.17969564460953 0.029158960164953784 0 0.029158960164953784 0.033503442491487179 0 0 0 0.053299771775254322 0.024488580685642632 0.0044698628047518058 0 0.0044698628047518058 0.073134229672878637 0 0 0 0.024405702589630318 0.043528386374231398 0.01018515374559828 0 0.01018515374559828 0.056977920351257705 0 0 0 0.025126576681372248 0.13747475083381389 0.02656491957838536 0 0.02656491957838536 0.023565647406927681 0 0 0 0.040260099560185392 0.074723059782042522 -0.021758126907558406 0 -0.021758126907558406 -0.0030235379559654108 0 0 0 0.017924880456519299 0.073333916228167234 0.0057153697415769922 0 0.0057153697415769922 0.034900793006141684 0 0 0 0.027058677308577223 0.072864700476872685 -0.0070829384993670638 0 -0.0070829384993670638 0.027719662614932972 0 0 0 0.025146090772951379 0.073948887731187601 -0.0025524944302607322 0 -0.0025524944302607322 0.018473523582498708 0 0 0 0.023105602828421529 0.062075659840718472 0.006162306439443016 0 0.006162306439443016 0.027929274362077317 0 0 0 0.022501233550698968 0.07128038707446635 0.0053426090186034364 0 0.0053426090186034364 0.059042329177499298 0 0 0 0.032580679062991419 0.065751995962600368 0.0102355591194217 0 0.0102355591194217 0.068950143305125222 0 0 0 0.033675534816931391 0.071966897411535641 0.0022403015968097406 0 0.0022403015968097406 0.028899813645270833 0 0 0 0.025216677764201639 0.12683918066106115 0.022696218998226353 0 0.022696218998226353 0.029120720019462976 0 0 0 0.03898997517013103 0.13683010229720671 0.015492091545474151 0 0.015492091545474151 0.063267987075352305 0 0 0 0.050024522343139699 0.16113404597379621 0.011405581693819888 0 0.011405581693819888 0.058868648374459376 0 0 0 0.055000673587063842 0.031215563981635518 0.0053884746519005187 0 0.0053884746519005187 0.093432478161107682 0 0 0 0.031162010535685798 0.14623579544070353 0.013221365919901862 0 0.013221365919901862 0.067519235980244785 0 0 0 0.053438757855237218 0.13676019437629594 0.010291782082974876 0 0.010291782082974876 0.06714506107902718 0 0 0 0.050976313863831058 0.11526902650684712 0.022744865588690377 0 0.022744865588690377 0.065632500874758914 0 0 0 0.045225381845401702 0.14288989456805812 0.011818936627477345 0 0.011818936627477345 0.084717060323478144 0 0 0 0.056901738722884065 0.083447914972475223 0.01022770323297046 0 0.01022770323297046 0.091141978263066026 0 0 0 0.043647473308885354 0.038042935482526269 0.0060695313777075263 0 0.0060695313777075263 0.11388651570259425 0 0 0 0.037982362796280124 0.12361847035669782 0.01194279178314761 0 0.01194279178314761 0.085921194409434243 0 0 0 0.052384916191533071 0.069211579756845221 0.0081817290404651022 0 0.0081817290404651022 0.04828644310338237 0 0 0 0.029374505715056898 0.064809154862569496 0.0044095300400631976 0 0.0044095300400631976 0.02651878111738315 0 0 0 0.022831983994988092 0.079679354499810062 0.0050810516760504965 0 0.0050810516760504965 0.077908500754346355 0 0 0 0.039396963813539077 0.072623568960583793 0.0053801683505158016 0 0.0053801683505158016 0.051410692780079703 0 0 0 0.031008565435165822 0.079451921361944622 0.0085609382642130583 0 0.0085609382642130583 0.05694986315417272 0 0 0 0.034100446129029294 0.062346620396224239 0.0040610516293486179 0 0.0040610516293486179 0.020383025778869746 0 0 0 0.020682411543773538 0.058039537917718903 0.0030892703116169318 0 0.0030892703116169318 0.02328481209653499 0 0 0 0.020331087503563466 0.064810255289445479 0.0037273654994225969 0 0.0037273654994225969 0.021120211088751777 0 0 0 0.021482616594549277 0.056233853236088926 -0.005908253862610735 0 -0.005908253862610735 0.0032205473672710649 0 0 0 0.014863600150840067 0.055722511720206036 -0.0017133567779526182 0 -0.0017133567779526182 0.0065982386410965432 0 0 0 0.015580187590325645 0.043525237531447443 -0.0034655833027849581 0 -0.0034655833027849581 0.0020065262448660734 0 0 0 0.011382940944078357 0.046621140243189724 -0.0061056478147973187 0 -0.0061056478147973187 0.0039285365641140713 0 0 0 0.012637419201825983 0.044601096936277645 -0.01182114574329933 0 -0.01182114574329933 0.001531373504428335 0 0 0 0.011533117610176502 0.050553264876778872 -0.0051669659126076517 0 -0.0051669659126076517 0.0045559145761859751 0 0 0 0.013777294863241214 0.054555679116697842 -0.010887135779613241 0 -0.010887135779613241 0.0018598303672021643 0 0 0 0.014103877370975015 0.041496634413501474 -0.01351738919606113 0 -0.01351738919606113 -0.00081525130236220766 0 0 0 0.01017034577778482 0.053334734692603358 -0.017573047754419667 0 -0.017573047754419667 0.0061863338768504139 0 0 0 0.014880267142363429 0.041544087413019223 -0.017970533782614817 0 -0.017970533782614817 0.0093212027753715454 0 0 0 0.012716322547097689 0.056306206402743697 -0.011817130290947137 0 -0.011817130290947137 0.0019283619546681813 0 0 0 0.01455864208935298 0.062248465749592641 -0.0029467350815760573 0 -0.0029467350815760573 0.0061103623869242507 0 0 0 0.017089707034129209 0.066153664867568018 -0.0055388478280448405 0 -0.0055388478280448405 0.010571053218807913 0 0 0 0.019181179521593955 -0.11909030522287345 0.0098417761567732853 0 0.0098417761567732853 0.0011287123967007595 0 0 0 -0.029490398206543089 -0.14359274100600611 0.014661911107314518 0 0.014661911107314518 0.003237317198310663 0 0 0 -0.035088855951923736 -0.099438348374270236 0.036076354464734728 0 0.036076354464734728 0.01299904139727559 0 0 0 -0.021609826744248717 -0.18449080175595256 0.014569946257690147 0 0.014569946257690147 0.0034326280465164505 0 0 0 -0.045264543427358861 -0.187866482986322 0.010447225550543782 0 0.010447225550543782 0.0074472731105406087 0 0 0 -0.045104802468945271 -0.11625728192006568 0.011499337680277111 0 0.011499337680277111 0.0020608009209022171 0 0 0 -0.028549120249790949 -0.12329204816933254 0.017696662113663275 0 0.017696662113663275 0.0039724105891970618 0 0 0 -0.029829909395033993 -0.089050612591779432 0.035854899555812669 0 0.035854899555812669 0.019353190655328811 0 0 0 -0.017424355484112697 -0.055199713688588531 0.035406812737064586 0 0.035406812737064586 0.019604614453739178 0 0 0 -0.0088987748087124008 -0.034078360466026636 0.047330261913515387 0 0.047330261913515387 0.039258333316784633 0 0 0 0.0012949932126895547 -0.054465406044072462 0.030170605620999963 0 0.030170605620999963 0.0050201798290294697 0 0 0 -0.012361306553760665 -0.044985872390167242 0.050091664831981908 0 0.050091664831981908 0.016745865308190999 0 0 0 -0.0070600017704941231 -0.076761249478320193 0.027089130112975424 0 0.027089130112975424 0.0012901718055307043 0 0 0 -0.018867769418197344 -0.031500382304571861 0.040239091418058481 0 0.040239091418058481 0.0044291261292577211 0 0 0 -0.006767814043828313 0.04956709267259421 0.061009778228517497 0 0.061009778228517497 0.018025736145941162 0 0 0 0.016898207204633781 0.0086411960640866425 0.049609666147995266 0 0.049609666147995266 0.012832578553119145 0 0 0 0.0053684436543013359 0.068069611947886549 0.07322662068877539 0 0.07322662068877539 0.044574273093153094 0 0 0 0.028160971260259987 0.0081852209798657372 0.054205592592204199 0 0.054205592592204199 0.016246430233983533 0 0 0 0.0061079128034623453 -0.04805262004386146 0.027374079987548122 0 0.027374079987548122 0.021280994849319113 0 0 0 -0.0066929062986355037 -0.005870916167636242 0.053665099690080986 0 0.053665099690080986 0.060740574497947897 0 0 0 0.013717414582577969 0.0052463781708150803 0.042876033465826635 0 0.042876033465826635 0.041655779889708588 0 0 0 0.011725539515130945 0.053529702923068689 0.068831482531118315 0 0.068831482531118315 0.098539032109346225 0 0 0 0.038017183758103645 0.073294481002020462 0.074340833892878974 0 0.074340833892878974 0.16171718586584438 0 0 0 0.058752916716966197 0.11820848288171025 0.087661053053479265 0 0.087661053053479265 0.058237857023858933 0 0 0 0.044111584976392268 0.13329345168199436 0.07776612116656989 0 0.07776612116656989 0.059930265186131038 0 0 0 0.048305929217031376 0.080017169778127006 0.050013188462941532 0 0.050013188462941532 0.018687322686069763 0 0 0 0.024676123116049165 0.10928792429060391 0.058183556403378245 0 0.058183556403378245 0.025044707802999666 0 0 0 0.033583158023401005 0.13433991517862942 0.025464799062280608 0 0.025464799062280608 0.027467837550636975 0 0 0 0.040451938182316849 0.069288623903123292 0.041100365611146383 0 0.041100365611146383 0.010361863349038103 0 0 0 0.01991262181304021 0.070259245424467487 0.046540708901091965 0 0.046540708901091965 0.0099936903471853356 0 0 0 0.020063233942913206 0.10709350006633978 0.030239463393087362 0 0.030239463393087362 0.025839491020937189 0 0 0 0.03323324777181913 0.10437581440517452 0.027502242171832503 0 0.027502242171832503 0.030704934589001587 0 0 0 0.033770187248544081 0.10849363006552304 0.021010825363852514 0 0.021010825363852514 0.039641012630771133 0 0 0 0.037033660674073543 0.094497344734400107 0.029438435238178684 0 0.029438435238178684 0.034980734936176552 0 0 0 0.03236951991764405 0.070146967568906982 0.034342517588346499 0 0.034342517588346499 0.018546989272240744 0 0 0 0.02217348921028689 0.069093905553829327 0.041148737311336545 0 0.041148737311336545 0.011098620429039752 0 0 0 0.020048131495717048 0.029181103169137759 0.035153201964151615 0 0.035153201964151615 0.0087888856185988073 0 0 0 0.0094924971969340827 0.034048339964463686 0.038774357659529857 0 0.038774357659529857 0.0097949366542168792 0 0 0 0.010960819154670315 0.027322544789977865 0.037299031041288622 0 0.037299031041288622 0.0068907320375144465 0 0 0 0.0085533192068729669 -0.011985266677391415 0.043427855055480968 0 0.043427855055480968 0.0040398916888733094 0 0 0 -0.001986343747129693 0.030389666492220302 0.04673625588133401 0 0.04673625588133401 0.0067847504508375955 0 0 0 0.0092936042357643078 0.043269726786176438 0.037478309252076736 0 0.037478309252076736 0.0044382129387658953 0 0 0 0.011926984931235646 0.0020980492919403515 0.042007768011969593 0 0.042007768011969593 0.0025025797883224676 0 0 0 0.0011501572700657325 -0.010634315056378074 0.052153337386135701 0 0.052153337386135701 0.0073638766152758772 0 0 0 -0.0008176096102753827 -0.040173894655454845 0.032407926124300657 0 0.032407926124300657 -0.0010120945499507705 0 0 0 -0.010296497301351293 -0.053761778493263315 0.041243942813649292 0 0.041243942813649292 0.0075551283678542414 0 0 0 -0.011551662531352383 -0.047450224200004776 0.026096001333422193 0 0.026096001333422193 0.0015420312986709206 0 0 0 -0.011477048225333464 -0.046129510231977144 0.039846230654575931 0 0.039846230654575931 0.0015774272746738038 0 0 0 -0.011138020739325849 -0.01025249823771901 0.038967618261691539 0 0.038967618261691539 0.00067708917932485235 0 0 0 -0.0023938522645989835 -0.0059904504335011599 0.040864754958223504 0 0.040864754958223504 -0.0030957386583367885 0 0 0 -0.0022715472729595843 -0.027087697283571591 0.031081430462406523 0 0.031081430462406523 0.003542571114062097 0 0 0 -0.0058862815423772075 -0.041435637489813715 0.026699187054886386 0 0.026699187054886386 -0.0012400756213528652 0 0 0 -0.010668928277791423 -0.058523150260075596 0.032165411094177587 0 0.032165411094177587 0.0027122910729993066 0 0 0 -0.013952714796769072 -0.084561797254501525 0.011635672366758776 0 0.011635672366758776 0.0011639088277970444 0 0 0 -0.020849472106676203 -0.047689695586416669 0.011849971251660429 0 0.011849971251660429 0.0042768185892434474 0 0 0 -0.010853219249293389 -0.069092029530176569 0.012785928175942374 0 0.012785928175942374 0.0042660119367066152 0 0 0 -0.016206504398367572 -0.11838818575340232 0.01158125887385042 0 0.01158125887385042 0.00081835880189395915 0 0 0 -0.029392456737877104 -0.089983545734024117 0.028649644395006835 0 0.028649644395006835 0.002474334073685025 0 0 0 -0.021877302915084718 -0.086364152111442216 0.014769768291773705 0 0.014769768291773705 0.00013250528138630813 0 0 0 -0.021557911707513977 -0.0089606835338696608 0.012605684899870351 0 0.012605684899870351 0.007044041717955335 0 0 0 -0.00047916045397852075 -0.03097315546988888 0.0094229365934954679 0 0.0094229365934954679 -0.00050533091691029597 0 0 0 -0.0078696215966993499 -0.011423202979467195 0.017923948561022973 0 0.017923948561022973 0.0040130579199537664 0 0 0 -0.0018525362648782462 -0.040582932711305642 0.010329232322671356 0 0.010329232322671356 0.0041742212027378045 0 0 0 -0.0091021778771420703 -0.037040348679441282 0.0082974017266008726 0 0.0082974017266008726 0.0024965872512181519 0 0 0 -0.0086359403570557269 -0.064195911200935152 0.011131620931716575 0 0.011131620931716575 0.0018642054845496858 0 0 0 -0.015582926429096311 -0.053952406953749588 0.020907308046242523 0 0.020907308046242523 7.1173705404881105e-05 0 0 0 -0.013470308312086399 -0.039720431936880463 0.017808866864788442 0 0.017808866864788442 0.0013868148450173479 0 0 0 -0.0095834042729658897 -0.023881008683237059 0.029107718900389656 0 0.029107718900389656 0.00099463622212425662 0 0 0 -0.0057215931152780897 -0.02094584820185097 0.022015689961154994 0 0.022015689961154994 0.0055099840756849261 0 0 0 -0.0038589660315413443 -0.0092396025890300049 0.026250294319843492 0 0.026250294319843492 0.0017923355794993157 0 0 0 -0.0018618167523827278 0.0036567140832566292 0.024221543522703115 0 0.024221543522703115 0.005877176028287856 0 0 0 0.0023834725278863989 0.0042148746819505867 0.021623470271970646 0 0.021623470271970646 0.0055745587940094765 0 0 0 0.0024473583689903489 -0.014940072820834205 0.025489216171131313 0 0.025489216171131313 0.0035872443752589245 0 0 0 -0.0028382071113937091 0.0055801621470678853 0.023629494937264184 0 0.023629494937264184 0.0064741610359665414 0 0 0 0.0030135807957582805 0.032780337173007545 0.02371806432437551 0 0.02371806432437551 0.012969031881207016 0 0 0 0.011437342263553862 0.035263226477294296 0.025781063880961685 0 0.025781063880961685 0.01965411057181754 0 0 0 0.013729334262278181 0.054722690341040714 0.02474650209789675 0 0.02474650209789675 0.020275817492825254 0 0 0 0.018749626958466603 0.0061425789096221095 0.030052818692757416 0 0.030052818692757416 0.0066180144596348356 0 0 0 0.0031901483423140142 0.0026602091931609007 0.035792137720786814 0 0.035792137720786814 0.0020306401609557767 0 0 0 0.0011727123385294469 0.028302499984697693 0.028257174030302368 0 0.028257174030302368 0.0086122446863861057 0 0 0 0.0092286861677708387 0.026040619157147615 0.027999238247959024 0 0.027999238247959024 0.0097754827765630381 0 0 0 0.0089540254834279409 0.048612245896394457 0.034782582584940824 0 0.034782582584940824 0.014171348993949451 0 0 0 0.015695898722585921 0.030502426166737262 0.029450272137320488 0 0.029450272137320488 0.016534622085712769 0 0 0 0.011759262063112175 0.071876439498149036 0.022128428193193272 0 0.022128428193193272 0.03466554359430063 0 0 0 0.026635495773112083 0.070981623565343099 0.026622186004704881 0 0.026622186004704881 0.037080189029974342 0 0 0 0.02701545314882936 0.064738225384744164 0.029640270037778249 0 0.029640270037778249 0.018953789540737453 0 0 0 0.020923003731370127 0.084010077477106537 0.027881804899897222 0 0.027881804899897222 0.03934793754846222 0 0 0 0.030839503756391884 0.1049656132659913 0.015104265532847272 0 0.015104265532847272 0.069870552364017513 0 0 0 0.043709041407501648 0.086726153723085675 0.017904967347027068 0 0.017904967347027068 0.047823338728265163 0 0 0 0.033637373112837876 0.097635475027615826 0.023866018555517177 0 0.023866018555517177 0.072164168500933101 0 0 0 0.042449910882136788 0.060790195539218148 0.030472012143460958 0 0.030472012143460958 0.03176579538816765 0 0 0 0.023138997731846453 0.073743919984363249 0.024739296140134037 0 0.024739296140134037 0.046743204103383285 0 0 0 0.030121781021936744 0.10781053083162817 0.0081336703832715074 0 0.0081336703832715074 0.069710879768220657 0 0 0 0.044380352649961985 0.081171104131628979 0.0029864649902946461 0 0.0029864649902946461 0.055317707872029054 0 0 0 0.03412220300091473 0.11978287989528669 0.017239211563972123 0 0.017239211563972123 0.07221173330224584 0 0 0 0.047998653299383243 0.10103242125090572 0.0090583094520433338 0 0.0090583094520433338 0.057818712343092216 0 0 0 0.039712783398499596 0.13069427008866485 -0.0075737889274631875 0 -0.0075737889274631875 0.091503846782998721 0 0 0 0.055549529217916227 0.14536838130043861 0.010709987275476784 0 0.010709987275476784 0.093184533459817254 0 0 0 0.059638228690064188 0.10690882551108594 -0.010096700324534247 0 -0.010096700324534247 0.048107786578979628 0 0 0 0.038754153022515503 0.070447191764237527 0.00039657431952688782 0 0.00039657431952688782 0.044268577213681048 0 0 0 0.028678942244479533 0.031915071707068421 0.01347910719369385 0 0.01347910719369385 0.0072386517967721886 0 0 0 0.0097884308759597083 0.034094875563558613 0.0075552817071702361 0 0.0075552817071702361 0.01377806336637466 0 0 0 0.011968234732482763 0.058733762022934677 0.0031632428193878459 0 0.0031632428193878459 0.0063117578606703972 0 0 0 0.016261379970901491 0.032905420234125238 0.019783177562772883 0 0.019783177562772883 0.010950849280556341 0 0 0 0.010964067378670617 0.067540764722259006 0.014286566719396987 0 0.014286566719396987 0.027611267144454388 0 0 0 0.023788007966678126 0.037533796143364606 0.017258270461052883 0 0.017258270461052883 0.023774654344012713 0 0 0 0.015327112621844163 0.064283165059301872 0.017700872694261016 0 0.017700872694261016 0.02848990369110993 0 0 0 0.023193267187603173 0.010233805026452991 0.019614938803060422 0 0.019614938803060422 0.0070903027361879367 0 0 0 0.004331026940660232 -0.011594979800131355 0.01412533797135973 0 0.01412533797135973 0.0019466052571130987 0 0 0 -0.0024120936357547862 0.010292624978593956 0.013051357545588116 0 0.013051357545588116 0.002788055601298467 0 0 0 0.0032701701449733278 0.0011128506568907071 0.014502162999627366 0 0.014502162999627366 0.0061646081068635894 0 0 0 0.0018193646909390182 0.010648973112037385 0.014435238485455137 0 0.014435238485455137 0.0019219963057413025 0 0 0 0.0031427423544441169 0.015354311196887682 0.0055382741155152182 0 0.0055382741155152182 -0.0079490816883165394 0 0 0 0.0018513073771435629 0.0085261244325391949 0.0042892650471446636 0 0.0042892650471446636 -0.0052214569092488006 0 0 0 0.00082616688082293166 0.017618425553271422 0.0081354253494175799 0 0.0081354253494175799 0.00091565392117942679 0 0 0 0.0046335198686140444 0.007394935977553585 0.009444171556863612 0 0.009444171556863612 -7.7284288961365633e-05 0 0 0 0.0018294129221481104 0.0014523062805222864 0.0063684027824195688 0 0.0063684027824195688 0.00053776876181643729 0 0 0 0.00049751876058490296 0.0062879005914418529 0.0032594724809333897 0 0.0032594724809333897 0.0015949913240732583 0 0 0 0.0019707229788786251 0.0041701729374543639 0.0020680037547102792 0 0.0020680037547102792 0.002494259278188693 0 0 0 0.0016661080539108752 0.001371178180170407 0.0027040170642451677 0 0.0027040170642451677 0.0020267422065449736 0 0 0 0.00084948009667895619 0.0038528461003259906 0.0047034063452735531 0 0.0047034063452735531 0.0057994744366336448 0 0 0 0.0024130801342399089 -0.0070724779552828743 0.0066010230373665379 0 0.0066010230373665379 0.0064568279560965891 0 0 0 -0.00015391249979623822 -0.0046369621847539566 0.0066584934468183476 0 0.0066584934468183476 0.0024954750435999262 0 0 0 -0.00053537178528872964 -0.022625056594154813 0.0074863287171500481 0 0.0074863287171500481 0.001227324267028429 0 0 0 -0.005349433081781374 0.049613462757334637 0.0024360089155017195 0 0.0024360089155017195 0.01484157443321088 0 0 0 0.01611375929763631 0.072596611687482993 0.0054623917248631526 0 0.0054623917248631526 0.045197883744049649 0 0 0 0.029448623857883272 0.07466564241520976 0.0096137757632070997 0 0.0096137757632070997 0.038756753328811233 0 0 0 0.028355598936005172 0.062748176606062467 0.011499830283119128 0 0.011499830283119128 0.026936104355886448 0 0 0 0.022421070240487229 0.043961822408682169 0.0058001071802025184 0 0.0058001071802025184 0.0068601140382532136 0 0 0 0.012705484111733872 0.031876744096648479 0.00050715152838719246 0 0.00050715152838719246 0.0035951867661521142 0 0 0 0.0088679827157000513 0.032431570951704125 -0.0038417878187076426 0 -0.0038417878187076426 -0.00043007227169988838 0 0 0 0.0080003746700010314 0.043195515924519062 0.00024245081660362322 0 0.00024245081660362322 0.0062239538295793539 0 0 0 0.01235486743852468 0.034463185423693143 -0.0036252080494642569 0 -0.0036252080494642569 0.0028712414536073982 0 0 0 0.0093336067193250938 0.035229223895286918 -0.0051498432131534821 0 -0.0051498432131534821 0.0024893522409211166 0 0 0 0.0094296440340519289 0.055336618020753514 0.002751250976671199 0 0.002751250976671199 0.013070976540666801 0 0 0 0.017101898640355051 0.054486270648604007 0.0028017044881530895 0 0.0028017044881530895 0.012784311527675674 0 0 0 0.016817645544069837 0.044855171914037928 0.0042099410155194694 0 0.0042099410155194694 0.01480495314334318 0 0 0 0.014915031264345346 0.061837071908657226 0.0074146664503799403 0 0.0074146664503799403 0.034600564189727123 0 0 0 0.024109409024596073 0.067290810353722502 0.00780259683958473 0 0.00780259683958473 0.032028146981578853 0 0 0 0.024829739333825346 0.077189924572975799 0.0064491487080921006 0 0.0064491487080921006 0.061537743004989487 0 0 0 0.034681916894491349 0.0928459235115979 0.0056493132680607294 0 0.0056493132680607294 0.099976444989342772 0 0 0 0.048205592125235092 0.10991655806751177 0.0049737384084263536 0 0.0049737384084263536 0.11816488109732282 0 0 0 0.057020359791208619 0.092944552513141265 0.011078400458658599 0 0.011078400458658599 0.069296674180572504 0 0 0 0.040560306673428442 0.12146382012380091 0.022870101231919016 0 0.022870101231919016 0.080691472074610582 0 0 0 0.050538823049602832 0.14817260037540425 0.0083388612624069845 0 0.0083388612624069845 0.11280438929840297 0 0 0 0.065244247418451806 0.10602033555286466 0.010025557314536637 0 0.010025557314536637 0.10711122671724316 0 0 0 0.053282890567526942 0.045053117270340302 0.0065512272522723677 0 0.0065512272522723677 0.13488691790742724 0 0 0 0.04498500879444188 0.1121218712183798 0.018419676066773416 0 0.018419676066773416 0.067660189975207174 0 0 0 0.044945515298397076 0.12928308268715982 0.014462767272841681 0 0.014462767272841681 0.11736221341595909 0 0 0 0.061661324025779951 0.12971985900907224 0.005876265207398923 0 0.005876265207398923 0.1139926715465176 0 0 0 0.060928132638897292 0.052350151078517489 0.0068327542321148637 0 0.0068327542321148637 0.15682090449256578 0 0 0 0.052292763892770822 0.13145606020246742 0.010567598704811332 0 0.010567598704811332 0.12541033965689952 0 0 0 0.064216599964841692 0.15160157219505344 0.01246312927290516 0 0.01246312927290516 0.12196015967531615 0 0 0 0.068390432967592396 0.060155468917728744 0.0069558816652878653 0 0.0069558816652878653 0.17991716678637709 0 0 0 0.060018158926026466 0.12816189047126886 0.020077489684840355 0 0.020077489684840355 0.11037877002909136 0 0 0 0.059635165125089873 0.086864384619160406 0.008425411885411252 0 0.008425411885411252 0.075282741153103627 0 0 0 0.04053678144306605 0.12586175946287134 0.0088920180713606412 0 0.0088920180713606412 0.13219328435929167 0 0 0 0.064513760955540816 0.092147164246739632 0.016841872463791707 0 0.016841872463791707 0.062808595336380613 0 0 0 0.038738939895780089 0.10939742153172949 0.0073136798600861308 0 0.0073136798600861308 0.078957984060754216 0 0 0 0.047088851398120912 0.12502175839109553 0.019211290115606183 0 0.019211290115606183 0.086598903231591251 0 0 0 0.052905165405671584 0.098612403465264301 0.0054344060138941108 0 0.0054344060138941108 0.068692859670596768 0 0 0 0.041826315783965354 0.16117307547695212 0.012918842027676791 0 0.012918842027676791 0.13732772177317076 0 0 0 0.074625199312530838 0.15301199138306276 0.0040648307263616984 0 0.0040648307263616984 0.15079186217691154 0 0 0 0.07595096338999352 0.14183278228122273 0.00056380469411887457 0 0.00056380469411887457 0.096176556759558884 0 0 0 0.059502334760195487 0.16515053761596565 0.0014000420715665207 0 0.0014000420715665207 0.14782746353196607 0 0 0 0.078244500286983154 0.067991537780164979 0.0068474412344043216 0 0.0068474412344043216 0.20438919458197582 0 0 0 0.068095183090535194 0.20280639473625572 0.010824723506263012 0 0.010824723506263012 0.15989606803611967 0 0 0 0.090675615693093792 0.18570477090923113 0.013227779548770968 0 0.013227779548770968 0.15468467898597899 0 0 0 0.085097362473801966 0.14969398637261966 -0.0017210210051391561 0 -0.0017210210051391561 0.1342754917039839 0 0 0 0.070992369519151222 0.1756415732500185 0.017143947310730212 0 0.017143947310730212 0.14807318164747785 0 0 0 0.080928688724374087 0.078490169361615209 0.0068402075310577334 0 0.0068402075310577334 0.23185269346677795 0 0 0 0.077585715707098296 0.23740706696215419 0.00061592506733498809 0 0.00061592506733498809 0.17502984930276 0 0 0 0.10310922906622899 0.18845573853515196 -0.014107002788740886 0 -0.014107002788740886 0.15612456621238735 0 0 0 0.086145076186884495 0.10765791627505894 0.019622181149529183 0 0.019622181149529183 0.052042689137454134 0 0 0 0.039925151353128241 0.17101495136279016 0.017859204414848562 0 0.017859204414848562 0.15810275021136699 0 0 0 0.082279425393539218 0.2294311576651013 0.0012975935781002622 0 0.0012975935781002622 0.16750042340592164 0 0 0 0.099232895267755694 0.17296431494144127 0.02282002114464099 0 0.02282002114464099 0.13796800166564505 0 0 0 0.077733079151771634 0.1358269070269606 -0.0044508534362857344 0 -0.0044508534362857344 0.060454561865626699 0 0 0 0.049070367223146782 0.045347771980289692 0.0081679432811886388 0 0.0081679432811886388 -0.0082552408923486365 0 0 0 0.009273132771985243 0.088363187891969064 0.01689826517092119 0 0.01689826517092119 0.021023766610510419 0 0 0 0.027346738625619871 0.069214449068322692 0.0021367687370281167 0 0.0021367687370281167 -0.036106593908360463 0 0 0 0.0082769637899906545 0.073816796825887265 0.0038222721920419533 0 0.0038222721920419533 0.037320153843162895 0 0 0 0.027784237667262457 0.062061722954085297 0.0053523436669710989 0 0.0053523436669710989 -0.0028152268589900498 0 0 0 0.014811624023773895 0.051099500689484156 0.0080252618354275662 0 0.0080252618354275662 0.0056425659806313977 0 0 0 0.014185516667528875 0.059061956674141387 0.0044685328384724832 0 0.0044685328384724832 0.026630665946000914 0 0 0 0.021423155655035615 0.08092165204198859 0.015793165428405281 0 0.015793165428405281 0.035029450185441124 0 0 0 0.028987775556857498 0.032051481086077527 0.0027768570492393285 0 0.0027768570492393285 -0.010514390045178734 0 0 0 0.0053842727602247398 0.03481288297408193 0.0026609713609219154 0 0.0026609713609219154 0.0038922250122480594 0 0 0 0.0096762769965824842 0.034355214040951876 0.0075368318758100017 0 0.0075368318758100017 -0.016264694171847172 0 0 0 0.0045226299672762593 0.040520401056839392 0.0024289492162831161 0 0.0024289492162831161 0.0028487335144636583 0 0 0 0.010842283642825787 0.026036623270711878 -0.00074507190241029919 0 -0.00074507190241029919 -0.014266758168064664 0 0 0 0.0029424662756617481 0.033830213601198866 -0.0032331500613685948 0 -0.0032331500613685948 -0.030726838243964605 0 0 0 0.00077584383930845435 0.02789267852552757 0.0028351381368263429 0 0.0028351381368263429 -0.066056925191092297 0 0 0 -0.0095410616663911263 0.025757364812014294 -0.0029028082487772 0 -0.0029028082487772 -0.038317280899472728 0 0 0 -0.0031399790218645807 0.02301830343673289 -0.0037110308361213429 0 -0.0037110308361213429 -0.071511054578881517 0 0 0 -0.012123187785537115 0.023380173532663417 0.0018659040038458974 0 0.0018659040038458974 -0.039753970024779983 0 0 0 -0.0040934491230292247 0.020228601699151832 -0.0066867096697190154 0 -0.0066867096697190154 -0.02262021932113889 0 0 0 -0.00059790440549681301 0.023299357600875439 -3.9514122814887642e-06 0 -3.9514122814887642e-06 -0.037791294557782129 0 0 0 -0.0036229842392267869 0.058546121016808172 -0.013277251066595984 0 -0.013277251066595984 -0.010921065090510718 0 0 0 0.01190626398157435 0.045658337184096141 -0.001393031612461626 0 -0.001393031612461626 -0.049734571438776902 0 0 0 -0.0010190585636702188 0.031498690576526489 -0.0085855687853029009 0 -0.0085855687853029009 -0.022780338383430188 0 0 0 0.0021795880482740615 0.04620265910155047 -0.0065527897750218833 0 -0.0065527897750218833 0.014257833917756813 0 0 0 0.015115123254826834 0.037386564105029191 -0.0063629508239441135 0 -0.0063629508239441135 -0.019066251735040285 0 0 0 0.0045800780924971918 0.032682868660966785 -0.007299356889202524 0 -0.007299356889202524 -0.0022141189392133054 0 0 0 0.0076171874304383491 0.036381057535823325 -0.0087916814817875916 0 -0.0087916814817875916 0.014135803172192096 0 0 0 0.012629215177003883 0.048679003560963274 -0.01312312678070493 0 -0.01312312678070493 0.010250176792313104 0 0 0 0.014732295088319192 0.029252726209384128 -0.0025666040121531397 0 -0.0025666040121531397 -0.016350499504147908 0 0 0 0.0032255566763090271 0.028047105816606854 -0.0072296621431816588 0 -0.0072296621431816588 -0.0029015905040563617 0 0 0 0.0062863788281376509 0.022651842214401918 -0.0046164572028604689 0 -0.0046164572028604689 -0.0065709130556210749 0 0 0 0.0040202322896952247 0.030384526686283803 -0.0025048232444415675 0 -0.0025048232444415675 -0.0029102164846070422 0 0 0 0.0068685775504191138 0.029380340640158653 -0.0048201105310053394 0 -0.0048201105310053394 0.001292218891840724 0 0 0 0.0076681398829998582 0.031012473975930155 -0.0063108907027774885 0 -0.0063108907027774885 0.0013944785527326697 0 0 0 0.0081017381321657478 0.028225567289730857 -0.0079813425438174379 0 -0.0079813425438174379 0.004313668957400818 0 0 0 0.0081348090617829327 0.024817846482363626 -0.0052247637081109799 0 -0.0052247637081109799 -0.0004709593625711328 0 0 0 0.0060867217799480677 0.030987157189668602 -0.0093818228191855368 0 -0.0093818228191855368 0.0034379045251080598 0 0 0 0.0086062654286942486 0.028464896206555901 -0.0099499714017788343 0 -0.0099499714017788343 0.0023822092680159113 0 0 0 0.007711776368642953 0.037529862438173092 -0.013115649632085113 0 -0.013115649632085113 0.013204527508998684 0 0 0 0.012683597486792944 0.043121552084152914 -0.011195181304199275 0 -0.011195181304199275 0.028561454302983513 0 0 0 0.017920751596784079 0.032751016228708796 -0.010036759117703936 0 -0.010036759117703936 0.011460743478746149 0 0 0 0.011052939926863792 0.02967198259734144 -0.011432185051405475 0 -0.011432185051405475 0.0079707042864108901 0 0 0 0.0094106717209380131 0.032156160578699473 -0.012922554093550642 0 -0.012922554093550642 0.012657963974532477 0 0 0 0.011203531138308027 0.036148562481030683 -0.012902307171373063 0 -0.012902307171373063 0.02546668418222664 0 0 0 0.015403811665814338 0.033009549456421518 -0.013421523295266857 0 -0.013421523295266857 0.0096799435812671974 0 0 0 0.010672373259422142 0.029925980594123158 -0.012042178215444926 0 -0.012042178215444926 0.0016794482151426537 0 0 0 0.0079013572023164946 0.0377873837832279 -0.0091666477780070199 0 -0.0091666477780070199 0.0037110365378539914 0 0 0 0.010374605080270459 0.029818951479179234 -0.0077268091650307402 0 -0.0077268091650307402 0.0011729483376956562 0 0 0 0.0077479749542188059 0.035828334299601514 -0.0048493586604974603 0 -0.0048493586604974603 0.003441722560060553 0 0 0 0.0098175142149155448 0.032541270203823164 -0.0093234313054702533 0 -0.0093234313054702533 0.0051308097987446677 0 0 0 0.0094180200006419856 0.063508955175592519 -0.015464058220714394 0 -0.015464058220714394 0.060834209185943067 0 0 0 0.031085791090383674 0.023532830725085524 -0.01002835330192586 0 -0.01002835330192586 0.070462501728558766 0 0 0 0.023498833113411076 0.074816219659698535 -0.013685744839895153 0 -0.013685744839895153 0.054277038227113605 0 0 0 0.032273314471703118 0.051910007153637652 -0.013763191190248991 0 -0.013763191190248991 0.054034954585453376 0 0 0 0.026486240434772781 0.039933074555356163 -0.011540185769932709 0 -0.011540185769932709 0.050740045660967348 0 0 0 0.022668280054080892 0.033865399381028227 -0.016282613236674237 0 -0.016282613236674237 0.023441932320576897 0 0 0 0.014326832925401267 0.03628017801117861 -0.014604862200024105 0 -0.014604862200024105 0.031012059526410285 0 0 0 0.01682305938439721 0.042285596799919556 -0.012895683385877987 0 -0.012895683385877987 0.024826725055408505 0 0 0 0.016778080463831946 0.058095777926001319 -0.0088064035800435314 0 -0.0088064035800435314 0.060538527105758577 0 0 0 0.029658576257940023 0.048455409289460294 -0.014586745489526126 0 -0.014586745489526126 0.044239864845151633 0 0 0 0.023173818533652912 0.063739212811640064 -0.010293959327363766 0 -0.010293959327363766 0.04453747763289212 0 0 0 0.027069172611133049 0.052523936004502392 -0.016481895938672386 0 -0.016481895938672386 0.031916821115263394 0 0 0 0.021110189279941516 0.072996487040682012 -0.011805592837991458 0 -0.011805592837991458 0.073196594050709329 0 0 0 0.036548270272847905 0.097970177637515699 -0.013042769269757337 0 -0.013042769269757337 0.074715427241865862 0 0 0 0.043171401219845362 0.068523967661358709 -0.011346686169718123 0 -0.011346686169718123 0.059268479689796649 0 0 0 0.031948111837789006 0.069023081320411239 -0.019846008396795956 0 -0.019846008396795956 0.058831772606755983 0 0 0 0.031963713481791833 0.03285883994384467 -0.010310318242250333 0 -0.010310318242250333 0.098332338577987316 0 0 0 0.032797794630457996 0.073545823163672419 -0.01370570030339241 0 -0.01370570030339241 0.067477846872318503 0 0 0 0.035255917508997703 0.079491125267693308 -0.015150687108878647 0 -0.015150687108878647 0.064066434556824703 0 0 0 0.035889389956129669 0.027916878620848493 -0.010308980157927659 0 -0.010308980157927659 0.083600834000267882 0 0 0 0.027879428155279086 0.092488302735936889 -0.0085397633183463828 0 -0.0085397633183463828 0.080258270162503642 0 0 0 0.043186643224609966 0.038422078753841883 -0.010029830471998093 0 -0.010029830471998093 0.11515318729083551 0 0 0 0.03839381651116934 0.1289010326459788 -0.011246365309752371 0 -0.011246365309752371 0.087459784636916282 0 0 0 0.054090204320723645 0.10715197475997823 -0.014956106683617465 0 -0.014956106683617465 0.085516871944944436 0 0 0 0.048167211676230559 0.088015068883090519 -0.0065007074207561466 0 -0.0065007074207561466 0.072183239610817296 0 0 0 0.040049577123476787 0.059813600923130747 -0.0078357354019404357 0 -0.0078357354019404357 0.03726885210145256 0 0 0 0.024270613256145865 0.077186705412778056 -0.01640084978861267 0 -0.01640084978861267 0.043271739650674323 0 0 0 0.030114611265863123 0.093960166839340553 -0.0081434928258022898 0 -0.0081434928258022898 0.084587446948046541 0 0 0 0.044636903446846732 0.08951056136332014 -0.0030996165425172251 0 -0.0030996165425172251 0.049738430790379748 0 0 0 0.034812248038424858 0.067809932064689882 -0.015701371368691486 0 -0.015701371368691486 0.01510187280373243 0 0 0 0.020727951217105633 0.10917924942098184 -0.016153774384070785 0 -0.016153774384070785 0.085951213894500667 0 0 0 0.048782615828870723 0.14823070332551708 -0.00317809820038506 0 -0.00317809820038506 0.091280459617678306 0 0 0 0.059877790735798811 0.11213356567738819 -0.017813480363122788 0 -0.017813480363122788 0.068858312248953224 0 0 0 0.045247969481585326 0.087463156536480402 0.0024680210485017451 0 0.0024680210485017451 0.020887140525270406 0 0 0 0.027087574265437731 0.1093814910223454 -0.01552295614118826 0 -0.01552295614118826 0.081675786680679874 0 0 0 0.047764319425756208 0.045281823194671153 -0.0098181899106961172 0 -0.0098181899106961172 0.13494397793015189 0 0 0 0.045056450281205765 0.14903005499377109 -0.0039604621595312594 0 -0.0039604621595312594 0.10089902844060639 0 0 0 0.062482270858594369 0.11915653496393563 0.0059598551536816924 0 0.0059598551536816924 0.086573907874750056 0 0 0 0.051432610709671422 0.094297333157300295 -0.0083642898128077903 0 -0.0083642898128077903 0.049412007608461095 0 0 0 0.035927335191440229 0.068023193342806154 0.0048696669907244416 0 0.0048696669907244416 0.022747585390948899 0 0 0 0.022692694683438708 0.064007112311665226 -0.0090472545445826613 0 -0.0090472545445826613 0.029711441340303679 0 0 0 0.023429638412992393 0.080581599856904274 0.00017090552879794885 0 0.00017090552879794885 0.04636443743091101 0 0 0 0.031736509321953821 0.043214676638339888 -0.0025249233924882208 0 -0.0025249233924882208 0.019061259784666884 0 0 0 0.015568984105751582 0.019885599877317639 -0.007113740400434887 0 -0.007113740400434887 0.0025371397550526531 0 0 0 0.0056056849080926563 0.019906500106984026 -0.0098134750121486435 0 -0.0098134750121486435 0.0025998404441782696 0 0 0 0.0056265851377907961 0.037006614193383358 -0.0036089178024188706 0 -0.0036089178024188706 -0.00077914111845522882 0 0 0 0.0090568682687319768 0.041246759765644014 -0.013656271600443803 0 -0.013656271600443803 0.01371550273393729 0 0 0 0.013740565624895285 0.01926994911788249 -0.016019534972573052 0 -0.016019534972573052 0.010127212800117302 0 0 0 0.0073492904795000591 0.017588399770152252 -0.01561212994299023 0 -0.01561212994299023 0.0052282046587235342 0 0 0 0.0057041511072188911 0.031925148759805011 -0.01699888813196071 0 -0.01699888813196071 0.013509710260640073 0 0 0 0.011358714755111188 0.057185707680669287 -0.01320438319744377 0 -0.01320438319744377 0.034885425643323975 0 0 0 0.023017783330998423 0.071988541383252169 -0.017055354756485674 0 -0.017055354756485674 0.038602993224974735 0 0 0 0.027647883652056393 0.047592556276322973 -0.0077091068973647037 0 -0.0077091068973647037 0.02561398689540384 0 0 0 0.01830163579293187 0.0022334303504152331 -0.0030582248326738171 0 -0.0030582248326738171 0.0037090120677389926 0 0 0 0.0014856106045384454 0.00082650855429555747 -0.0016903408570081596 0 -0.0016903408570081596 0.0010980572235679276 0 0 0 0.00048114144446564922 0.002390779052919964 -0.0012808822011249887 0 -0.0012808822011249887 0.0015203146169952238 0 0 0 0.00097777341747885241 0.0039583501552786782 -0.0021619575379620004 0 -0.0021619575379620004 0.00073235872588472972 0 0 0 0.0011726772202909075 -0.00015188651353348348 -0.0045121559575733716 0 -0.0045121559575733716 -0.00021674646584202151 0 0 0 -9.2158244843876247e-05 0.0041699225130307216 -0.0067187053255204354 0 -0.0067187053255204354 -0.0015348099984509034 0 0 0 0.00065877812864489904 0.010975757801786612 -0.0055679082531747692 0 -0.0055679082531747692 -0.00026254053889518403 0 0 0 0.0026783043157225794 0.0046952690437531697 -0.0030609362008446883 0 -0.0030609362008446883 -0.0038708307995038993 0 0 0 0.00020610956106215106 0.0089085513682158959 -0.0045778436654124732 0 -0.0045778436654124732 -0.0073312049803437637 0 0 0 0.00039433659696808858 0.0052253585646214185 -0.011395661170173321 0 -0.011395661170173321 -0.002041800232874813 0 0 0 0.00079588958293658196 0.00021666145221704847 -0.016135272912194187 0 -0.016135272912194187 0.0018759988787628856 0 0 0 0.00052316508274513618 -0.011197583929281704 -0.01103681378579946 0 -0.01103681378579946 -0.00015533833814090903 0 0 0 -0.0028382305668557123 0.0052467863945504511 -0.009734819312315901 0 -0.009734819312315901 0.00045575440203882156 0 0 0 0.0014256351991472904 -0.00018732857298808803 -0.01050104921261763 0 -0.01050104921261763 0.0033943648761924905 0 0 0 0.00080175907580115613 -0.0046428210551774651 -0.0047899378097482348 0 -0.0047899378097482348 0.00099042606303639813 0 0 0 -0.00091309874803549573 -0.015605741374300345 -0.0052191834123427316 0 -0.0052191834123427316 0.00029128441616263793 0 0 0 -0.0038286142395345937 -0.0048897233315763344 -0.0042849929951491728 0 -0.0042849929951491728 0.0038637486022046197 0 0 0 -0.00025649368234303971 -0.028231569606814833 -0.0060166412821961446 0 -0.0060166412821961446 0.0036741142316656372 0 0 0 -0.0061393638437873266 -0.0077523188850300295 -0.0084031463309333088 0 -0.0084031463309333088 0.0043681033774443101 0 0 0 -0.00084605387689629108 -0.011094986577854793 -0.01286331895380477 0 -0.01286331895380477 0.0030595662902852538 0 0 0 -0.0020088550718925235 -0.023446963742678906 -0.0066774348829399255 0 -0.0066774348829399255 -0.0011471141878068303 0 0 0 -0.0061485194826214618 -0.013549596630287958 -0.015471272348340226 0 -0.015471272348340226 0.0011421932900267939 0 0 0 -0.003101850835065284 0.00087823541033582586 -0.016612547680471379 0 -0.016612547680471379 0.0051265178319575 0 0 0 0.0015011883105734425 -0.0023425622255104361 -0.020509019456870031 0 -0.020509019456870031 0.0043203672960419048 0 0 0 0.00049445126763258962 -0.0017338528514072582 -0.019678517130045009 0 -0.019678517130045009 0.0050983819114942541 0 0 0 0.00084113226502169347 -0.01429130755578889 -0.016340798345201857 0 -0.016340798345201857 0.0006421046312747869 0 0 0 -0.0034123007311286369 -0.014860939044627638 -0.019678151913066211 0 -0.019678151913066211 0.0030694564625096399 0 0 0 -0.0029478706455295239 -0.0023847008411096438 -0.02326149040815495 0 -0.02326149040815495 0.0077440000414616961 0 0 0 0.0013398248000879853 -0.020130737171865309 -0.018939312418003895 0 -0.018939312418003895 0.0020382409938850543 0 0 0 -0.0045231240444951748 -0.026965076562275869 -0.011658148692293091 0 -0.011658148692293091 0.0021042561053781217 0 0 0 -0.0062152051142245757 -0.032079280141379396 -0.0097283772131138146 0 -0.0097283772131138146 -0.0010482382105392318 0 0 0 -0.0082818795879793239 -0.032942925198315764 -0.0097742693863880348 0 -0.0097742693863880348 0.0042823856354035073 0 0 0 -0.0071651348907281198 -0.045529755970848962 -0.0053579962429330941 0 -0.0053579962429330941 0.00021346710190583984 0 0 0 -0.011329072217235892 -0.028913255869560617 -0.0050485353570780545 0 -0.0050485353570780545 0.0021525285773211777 0 0 0 -0.0066901818230598042 0.042831068819071727 -0.021981007466126634 0 -0.021981007466126634 0.02306011597281854 0 0 0 0.016472796197972595 0.030982743211262598 -0.019616824743602379 0 -0.019616824743602379 0.021525336053030752 0 0 0 0.013127019816073338 0.048130071878382363 -0.021798184410612098 0 -0.021798184410612098 0.040500209220410532 0 0 0 0.022157570274698113 0.040248200461081796 -0.022691364532199221 0 -0.022691364532199221 0.023860258231184872 0 0 0 0.016027114673066611 0.013327689060618209 -0.019968139138706764 0 -0.019968139138706764 0.0095038008139958219 0 0 0 0.0057078724686534521 0.012334392286805995 -0.019793363556696808 0 -0.019793363556696808 0.0064361208953718219 0 0 0 0.0046926282955446208 0.027324945999565253 -0.023208050353200643 0 -0.023208050353200643 0.012593024210047155 0 0 0 0.0099794925524030464 0.021477166305221562 -0.02523812439570805 0 -0.02523812439570805 0.011116020955657557 0 0 0 0.0081482968152198909 0.0097024261096991526 -0.022386476419031021 0 -0.022386476419031021 0.0097886990649916905 0 0 0 0.0048727812936728288 0.0078059821269669261 -0.020968624431278893 0 -0.020968624431278893 0.0052248981634839264 0 0 0 0.0032577200726129352 0.0077153110178142664 -0.020567841683121313 0 -0.020567841683121313 0.0082357600478405457 0 0 0 0.0039877677664136996 0.037377008995662542 -0.02335217874084683 0 -0.02335217874084683 0.019138790678044248 0 0 0 0.014128949918426614 0.024648844149794513 -0.021770932665983768 0 -0.021770932665983768 0.020223101222237805 0 0 0 0.011217986343007968 0.055917313256014012 -0.017910842252124318 0 -0.017910842252124318 0.035711944013664176 0 0 0 0.022907314317419436 0.041305514294593948 -0.021429418634217212 0 -0.021429418634217212 0.031841949108553536 0 0 0 0.018286865850787093 0.051839555770797074 -0.017672496043722452 0 -0.017672496043722452 0.029441888052991305 0 0 0 0.020320360955947192 0.0371245804263719 -0.024333445767167894 0 -0.024333445767167894 0.020806979678650306 0 0 0 0.014482890026255579 0.040543353160551465 -0.019162188373115341 0 -0.019162188373115341 0.0219465705900459 0 0 0 0.015622480937649397 0.048196731012366656 -0.021933109386438221 0 -0.021933109386438221 0.022159657243612463 0 0 0 0.017589097063994807 0.023740032878273531 -0.026224403115103212 0 -0.026224403115103212 0.013169037799724226 0 0 0 0.0092272676694994393 0.027021672795549123 -0.020480674604996252 0 -0.020480674604996252 0.01833229161304184 0 0 0 0.011338491102147907 0.021033001835499054 -0.026704877717528552 0 -0.026704877717528552 0.010431011891221864 0 0 0 0.0078660034316802019 0.0016671035673000434 -0.025651729411788032 0 -0.025651729411788032 0.0063372805554278155 0 0 0 0.0020010960306821035 -0.0026135316369554351 -0.020319979585947556 0 -0.020319979585947556 0.0046439091511629726 0 0 0 0.00050759437855185663 0.020251736461299966 -0.021691938196315319 0 -0.021691938196315319 0.010662904261911535 0 0 0 0.0077286601808029855 0.0063843454933032451 -0.028254763674394917 0 -0.028254763674394917 0.0059043682649129181 0 0 0 0.0030721784395539853 0.017189279936061341 -0.021870939572210979 0 -0.021870939572210979 0.008447981305345964 0 0 0 0.0064093153103517153 -0.0030923611972394904 -0.023100549188930952 0 -0.023100549188930952 0.0042320468618015639 0 0 0 0.00028492141614044897 -0.0018628260538781083 -0.026359142776617883 0 -0.026359142776617883 0.009832932914820347 0 0 0 0.0019925267152355319 0.043426277944387179 -0.024285152566387525 0 -0.024285152566387525 0.014548711951021753 0 0 0 0.014493747473852278 0.047260283146337234 -0.019469626395595269 0 -0.019469626395595269 0.021280958235947001 0 0 0 0.017135310345571031 0.041685527905261699 -0.019333950738349016 0 -0.019333950738349016 0.024195171882681166 0 0 0 0.016470174946985772 0.018576896499705675 -0.026701748052462282 0 -0.026701748052462282 0.011601644647633136 0 0 0 0.0075446352868347444 0.038281868378555184 -0.021994004970512321 0 -0.021994004970512321 0.015060452062935603 0 0 0 0.013335580110372613 -0.04820955491936435 -0.0099272086161236173 0 -0.0099272086161236173 0.002969783673691051 0 0 0 -0.011309942811418283 -0.057998990562985006 -0.005737917250186797 0 -0.005737917250186797 -0.00049306351426305767 0 0 0 -0.014623013519311988 -0.046922111586433654 -0.0057548620205543077 0 -0.0057548620205543077 -0.00090833531536288481 0 0 0 -0.011957611725449277 -0.061235706333757411 -0.0068286540699776729 0 -0.0068286540699776729 0.0027116560246249755 0 0 0 -0.014631012577283053 -0.035051935517057764 -0.0087551874137722363 0 -0.0087551874137722363 -0.0014665638692499261 0 0 0 -0.009129624846576756 -0.020600375953160388 -0.016884539414852906 0 -0.016884539414852906 0.0031498235151021792 0 0 0 -0.0043626381095145939 -0.035322282083225187 -0.017208593385463704 0 -0.017208593385463704 0.0026573162104930326 0 0 0 -0.0081662414681831219 -0.014478743834463237 -0.017934441636778597 0 -0.017934441636778597 0.0022155791174689465 0 0 0 -0.0030657911792485448 -0.018681690614778979 -0.024295286953834871 0 -0.024295286953834871 0.0049302664633719129 0 0 0 -0.0034378560378517387 -0.022706577605871581 -0.021459974719848285 0 -0.021459974719848285 0.0046382357937899688 0 0 0 -0.0045170854530204307 -0.019302369922039007 -0.018863110969706609 0 -0.018863110969706609 0.0045220715427337493 0 0 0 -0.0036950745948263978 -0.020681537875435863 -0.024753998192666077 0 -0.024753998192666077 0.0083924097303862411 0 0 0 -0.0030722820362623082 -0.030187930731216093 -0.014979641547302025 0 -0.014979641547302025 0.0026527334303644429 0 0 0 -0.0068837993252129116 -0.041779590254503729 -0.018331092629292389 0 -0.018331092629292389 0.0043052007139452453 0 0 0 -0.0093685973851395654 -0.04107912767199251 -0.015266307164358062 0 -0.015266307164358062 0.0013633838449056412 0 0 0 -0.0099289359567715785 -0.041339420869455523 -0.015914816715698221 0 -0.015914816715698221 0.0032837948086452684 0 0 0 -0.0095139065152024527 -0.062219375973807028 -0.010007107000659377 0 -0.010007107000659377 0.0016815809481651178 0 0 0 -0.015134448756410374 -0.059547261376644678 -0.0058492622460492583 0 -0.0058492622460492583 0.001253899245572454 0 0 0 -0.014573340532768042 -0.073722491374743127 -0.0090833852837281515 0 -0.0090833852837281515 0.0018232510713649397 0 0 0 -0.017974810075844616 -0.10397580456048716 -0.005861258112872525 0 -0.005861258112872525 0.0019626937745079731 0 0 0 -0.025503277696494769 -0.085884866345640465 -0.006834957146658438 0 -0.006834957146658438 0.0019077640497482395 0 0 0 -0.020994275573973098 -0.07146878548715549 -0.0036261212465963921 0 -0.0036261212465963921 0.00070117445972439629 0 0 0 -0.017691902756857641 -0.062462241439869282 -0.015928836183556144 0 -0.015928836183556144 0.0058669253011014444 0 0 0 -0.014148829034691945 -0.050201960813121393 -0.01121658132293063 0 -0.01121658132293063 0.0014453489123353869 0 0 0 -0.012189152975196571 -0.025704993584628189 -0.016747910213851386 0 -0.016747910213851386 0.0047690972089446948 0 0 0 -0.0052339740939208457 -0.030104407900071573 -0.022367928254168445 0 -0.022367928254168445 0.010092661254988977 0 0 0 -0.0050029366612706072 -0.027700018214053657 -0.020163758675739635 0 -0.020163758675739635 0.017614675137028302 0 0 0 -0.0025213357692563942 -0.038420531453844817 -0.012020926677205113 0 -0.012020926677205113 0.0014373506201468267 0 0 0 -0.0092457952084244316 -0.039073291134417182 -0.014459084380645498 0 -0.014459084380645498 0.0079926679052857441 0 0 0 -0.0077701558072828802 -0.056057830076570198 -0.0026912089845920473 0 -0.0026912089845920473 0.0098168839679963482 0 0 0 -0.011560236527143469 -0.056240391501995196 -0.014589060184476643 0 -0.014589060184476643 0.0077678887067323399 0 0 0 -0.012118125698815652 -0.073241098240534153 -0.0075016810013337487 0 -0.0075016810013337487 0.0021820607486627841 0 0 0 -0.017764759372967898 -0.068499093276790796 -0.0037124867011306961 0 -0.0037124867011306961 0.0017454460666411417 0 0 0 -0.016688411802537467 -0.10286547011811949 -0.0035368243489374285 0 -0.0035368243489374285 0.0028236629075373276 0 0 0 -0.025010451802645564 0.021734112026384034 -0.022917613530953618 0 -0.022917613530953618 0.015668550132487857 0 0 0 0.0093506655397179728 0.053591681689671017 -0.038425604942330299 0 -0.038425604942330299 0.03238274223540849 0 0 0 0.02149360598126987 0.02034998747662381 -0.028470076282928247 0 -0.028470076282928247 0.016326721765536401 0 0 0 0.009169177310540122 0.016590802060512111 -0.022549259969911313 0 -0.022549259969911313 0.0084043748246607208 0 0 0 0.0062487942212930969 -0.0086616950092254785 -0.023194246883084274 0 -0.023194246883084274 0.0081925596459666572 0 0 0 -0.00011728384081471921 -0.0068419891129231913 -0.024135478537445743 0 -0.024135478537445743 0.013897627096765675 0 0 0 0.0017639094959605861 0.01353803349303806 -0.030352502108965729 0 -0.030352502108965729 0.019762832110681194 0 0 0 0.0083252164009298135 -0.0072505197698903845 -0.016514637093709747 0 -0.016514637093709747 0.019899135554278025 0 0 0 0.0031621539460969794 -0.034612190084677003 -0.0101231260176112 0 -0.0101231260176112 0.008234640198823584 0 0 0 -0.0065943874714633477 -0.024695580446633641 -0.0063644457527661236 0 -0.0063644457527661236 0.014255569485104869 0 0 0 -0.0026100027403822279 -0.013079542202800387 -0.022363010354543966 0 -0.022363010354543966 0.023768713187907076 0 0 0 0.0026722927462766444 0.017986883876286414 -0.025786971609417231 0 -0.025786971609417231 0.02982626079912587 0 0 0 0.011953286168853022 0.018837485458798625 -0.023745222973869926 0 -0.023745222973869926 0.03059073294630188 0 0 0 0.012357054601275119 0.044476993952500148 -0.033179834941581027 0 -0.033179834941581027 0.04640348859249302 0 0 0 0.022720120636248307 0.063189241955634204 -0.052379652834142865 0 -0.052379652834142865 0.096411467249980565 0 0 0 0.03990017730140373 -0.048057684081417487 0.012866966304339617 0 0.012866966304339617 0.053510454058761203 0 0 0 0.0013631924943359464 0.15203837730077233 -0.05172186408869036 0 -0.05172186408869036 0.044222726926701261 0 0 0 0.04906527605686839 0.0037888006375708912 -0.0019616445023192316 0 -0.0019616445023192316 0.011155748404433345 0 0 0 0.0037361372605010587 0.07433128169069976 -0.025829897230808085 0 -0.025829897230808085 0.009126720566805524 0 0 0 0.020864500564376345 0.066814716743901603 -0.020406806065116884 0 -0.020406806065116884 0.020013983492914722 0 0 0 0.021707175059204054 0.0092417460364775314 -0.0050507640973508593 0 -0.0050507640973508593 0.027670501877799212 0 0 0 0.0092280619785691867 0.10104467902906267 -0.015045761221680942 0 -0.015045761221680942 0.025033800797085171 0 0 0 0.031519619956536959 0.012725012758079666 -0.0070747699137911763 0 -0.0070747699137911763 0.038092905382410974 0 0 0 0.012704479535122659 0.071500614679487318 -0.013248688739769976 0 -0.013248688739769976 0.027257057609962443 0 0 0 0.024689418072362412 0.065390217075777329 -0.022036018835111526 0 -0.022036018835111526 0.017506059239230765 0 0 0 0.020724069078752044 0.007405182827590312 -0.012500365630553394 0 -0.012500365630553394 0.017343320653086136 0 0 0 0.0061871258701690912 -0.010306643556080505 -0.017363430080555631 0 -0.017363430080555631 0.027386385070310826 0 0 0 0.0042699353785575489 0.0082139525004952252 -0.013404915637502221 0 -0.013404915637502221 0.02293497924096527 0 0 0 0.0077872329353651237 -0.026738728952434496 -0.01695730742530303 0 -0.01695730742530303 0.017700137565560492 0 0 0 -0.0022596478467185183 0.0085618708135787591 -0.0037598332223976842 0 -0.0037598332223976842 0.03646343979075134 0 0 0 0.011256327651082546 0.0034545397323260119 -0.0018637278975497662 0 -0.0018637278975497662 0.0095734384155843899 0 0 0 0.0032569945369776143 -0.013763357973931425 -0.007669502665607647 0 -0.007669502665607647 0.097748020052436338 0 0 0 0.020996165519626214 0.0060938772552351222 0.0049991025462885891 0 0.0049991025462885891 0.037412721962516687 0 0 0 0.010876649804437949 0.016212691943435567 -0.0057988423930745436 0 -0.0057988423930745436 0.014473165645547376 0 0 0 0.0076714643972457391 0.022347368060419905 -0.0076091602472021236 0 -0.0076091602472021236 0.037219083477840892 0 0 0 0.014891612884565204 0.01598474388976346 -0.007581612061308321 0 -0.007581612061308321 0.035396745913741479 0 0 0 0.01284537245087624 0.023216112526788665 -0.011353400774955013 0 -0.011353400774955013 0.038481604485968463 0 0 0 0.015424429253189265 0.022649815076100963 -0.010447239048864354 0 -0.010447239048864354 0.053720345857192014 0 0 0 0.019092540233323241 0.035350332864795414 -0.020349428371586452 0 -0.020349428371586452 0.040021362779654762 0 0 0 0.018842923911112544 0.038878434727225145 -0.02198478757370137 0 -0.02198478757370137 0.022853611737752959 0 0 0 0.015433011616244514 0.029393504558294828 -0.013498692823057643 0 -0.013498692823057643 0.021831425708308594 0 0 0 0.01280623256665088 0.030145379488255269 -0.017581597767501934 0 -0.017581597767501934 0.018275759126344659 0 0 0 0.012105284653649975 0.027586731564607683 -0.012732591083319925 0 -0.012732591083319925 0.016782426476130874 0 0 0 0.011092289510184608 0.029969503801605457 -0.016880625364929444 0 -0.016880625364929444 0.0094811812728482492 0 0 0 0.0098626712686133988 0.015155326360130835 -0.016116206170973701 0 -0.016116206170973701 0.018127308025561367 0 0 0 0.008320658596423041 0.026629687539386396 -0.015405254789927769 0 -0.015405254789927769 0.012721150217921806 0 0 0 0.0098377094393270609 0.025035519800762351 -0.017206761593150044 0 -0.017206761593150044 0.0089847494882495105 0 0 0 0.0085050673222529793 0.01871472644603854 -0.016964806327923868 0 -0.016964806327923868 0.014287023329245807 0 0 0 0.0082504374438211042 0.028219681182425842 -0.01866466745665335 0 -0.01866466745665335 0.0070188354874987646 0 0 0 0.0088096291674811741 0.026956645841808818 -0.017148708248272332 0 -0.017148708248272332 0.0096045703639988655 0 0 0 0.0091403040514519418 0.024902198098831485 -0.018334401053563529 0 -0.018334401053563529 0.014784298858035116 0 0 0 0.0099216242392166087 0.039190019622492273 -0.016536221210625299 0 -0.016536221210625299 0.0051399325728922474 0 0 0 0.011082488048846151 0.034034432122458436 -0.018190400560816 0 -0.018190400560816 0.011114387990112863 0 0 0 0.011287205028142819 0.032097485983127561 -0.017116775302713105 0 -0.017116775302713105 0.006973437637592117 0 0 0 0.0097677309051799333 0.035815339520750611 -0.016234056635799313 0 -0.016234056635799313 0.0043610195626588855 0 0 0 0.01004408977085236 0.037955376992896077 -0.017459100674334704 0 -0.017459100674334704 0.0048734279981140632 0 0 0 0.010707201247752563 0.035362409757927732 -0.0098137359895468235 0 -0.0098137359895468235 -0.0021170471304910454 0 0 0 0.0083113406568591508 0.030718075860206556 -0.015430841848173837 0 -0.015430841848173837 0.0024806561272318617 0 0 0 0.0082996829968595975 0.038566403911588498 -0.012532957878185064 0 -0.012532957878185064 0.0046113669867142715 0 0 0 0.010794442724575692 0.026114333299036729 -0.016316238047248549 0 -0.016316238047248549 0.01725048339772739 0 0 0 0.010841204174190988 0.032145691665729809 -0.015414387946710129 0 -0.015414387946710129 0.0095974488786014778 0 0 0 0.010435785136082787 0.026183838640405882 -0.017947121330902427 0 -0.017947121330902427 0.0096898065670004141 0 0 0 0.0089684113018515532 0.028685733267192093 -0.014701572340119706 0 -0.014701572340119706 0.0081906786490160144 0 0 0 0.0092191029790520407 0.027896003429695393 -0.015938599762970129 0 -0.015938599762970129 0.017373836497732387 0 0 0 0.011317459981856848 0.03242795751725408 -0.014630703067028808 0 -0.014630703067028808 0.019447930810420955 0 0 0 0.012968972081918773 0.031631769904271856 -0.015009780533489378 0 -0.015009780533489378 0.031047766622684048 0 0 0 0.01566988413173892 0.024100579869069993 -0.016878122963196518 0 -0.016878122963196518 0.02772170185745626 0 0 0 0.012955570431631591 0.026567014785217752 -0.015989438547899054 0 -0.015989438547899054 0.023486243864697443 0 0 0 0.012513314662478819 0.029609310711939285 -0.012070228534714567 0 -0.012070228534714567 0.04487493250039587 0 0 0 0.018621060803083789 0.070824460602573747 -0.01292707469254184 0 -0.01292707469254184 0.044081435822145076 0 0 0 0.028726474106179678 0.019614394245391159 -0.0094478573915588431 0 -0.0094478573915588431 0.058735280894534524 0 0 0 0.019587418784981429 0.033114463383484297 -0.013481526346106415 0 -0.013481526346106415 0.047306822066425225 0 0 0 0.020105321362477349 0.056887742048325807 -0.016729976867971147 0 -0.016729976867971147 0.048295097844193169 0 0 0 0.026295709973129799 0.057699476195928801 -0.01457038872985239 0 -0.01457038872985239 0.040482952530801475 0 0 0 0.024545607181682638 0.07356294020829629 -0.011070660145284961 0 -0.011070660145284961 0.036647458912249076 0 0 0 0.027552599780136355 0.012317484726323373 -0.014187746961058734 0 -0.014187746961058734 0.038814615386249141 0 0 0 0.012783025028143095 0.016074841943927824 -0.0084993802527415143 0 -0.0084993802527415143 0.048137605585878582 0 0 0 0.016053111882451603 0.063128370246612997 -0.012794218050058911 0 -0.012794218050058911 0.034970499930323529 0 0 0 0.02452471754423402 0.0561146438006071 -0.019451106860944034 0 -0.019451106860944034 0.019510955542942687 0 0 0 0.018906399835887322 0.079737828544340694 -0.011339045931645197 0 -0.011339045931645197 0.029522569007658372 0 0 0 0.027315099387999808 0.0099464589020455685 -0.014368093915589464 0 -0.014368093915589464 0.027813356307042958 0 0 0 0.0094399538022721108 0.015897806656221966 -0.018920125926849052 0 -0.018920125926849052 0.014920805360699924 0 0 0 0.0077046530042304689 0.015611700193301839 -0.017933835233128859 0 -0.017933835233128859 0.019267256732574845 0 0 0 0.0087197392314691674 0.020667638304968233 -0.014969318094633921 0 -0.014969318094633921 0.031454667333263242 0 0 0 0.013030576409557848 
</DataArray>
<DataArray type="Float64" Name="cross_section_updated" format="ascii">
1 1 1 1 1 1 1 1 1 1 1 1 1 1 1 1 1 1 1 1 1 1 1 1 1 1 1 1 1 1 1 1 1 1 1 1 1 1 1 1 1 1 1 1 1 1 1 1 1 1 1 1 1 1 1 1 1 1 1 1 1 1 1 1 1 1 1 1 1 1 1 1 1 1 1 1 1 1 1 1 1 1 1 1 1 1 1 1 1 1 1 1 1 1 1 1 1 1 1 1 1 1 1 1 1 1 1 1 1 1 1 1 1 1 1 1 1 1 1 1 1 1 1 1 1 1 1 1 1 1 1 1 1 1 1 1 1 1 1 1 1 1 1 1 1 1 1 1 1 1 1 1 1 1 1 1 1 1 1 1 1 1 1 1 1 1 1 1 1 1 1 1 1 1 1 1 1 1 1 1 1 1 1 1 1 1 1 1 1 1 1 1 1 1 1 1 1 1 1 1 1 1 1 1 1 1 1 1 1 1 1 1 1 1 1 1 1 1 1 1 1 1 1 1 1 1 1 1 1 1 1 1 1 1 1 1 1 1 1 1 1 1 1 1 1 1 1 1 1 1 1 1 1 1 1 1 1 1 1 1 1 1 1 1 1 1 1 1 1 1 1 1 1 1 1 1 1 1 1 1 1 1 1 1 1 1 1 1 1 1 1 1 1 1 1 1 1 1 1 1 1 1 1 1 1 1 1 1 1 1 1 1 1 1 1 1 1 1 1 1 1 1 1 1 1 1 1 1 1 1 1 1 1 1 1 1 1 1 1 1 1 1 1 1 1 1 1 1 1 1 1 1 1 1 1 1 1 1 1 1 1 1 1 1 1 1 1 1 1 1 1 1 1 1 1 1 1 1 1 1 1 1 1 1 1 1 1 1 1 1 1 1 1 1 1 1 1 1 1 1 1 1 1 1 1 1 1 1 1 1 1 1 1 1 1 1 1 1 1 1 1 1 1 1 1 1 1 1 1 1 1 1 1 1 1 1 1 1 1 1 1 1 1 1 1 1 1 1 1 1 1 1 1 1 1 1 1 1 1 1 1 1 1 1 1 1 1 1 1 1 1 1 1 1 1 1 1 1 1 1 1 1 1 1 1 1 1 1 1 1 1 1 1 1 1 1 1 1 1 1 1 1 1 1 1 1 1 1 1 1 1 1 1 1 1 1 1 1 1 1 1 1 1 1 1 1 1 1 1 1 1 1 1 1 1 1 1 1 0.0020328686451322061 1 1 0.0020852812987346759 1 1 0.002121821317708121 1 1 1 1 1 1 1 1 1 1 1 1 1 0.0021556761690635549 1 1 1 1 1 0.0021897603822657852 1 1 1 1 1 1 1 1 1 1 1 1 1 1 1 1 1 1 1 1 1 1 1 1 1 1 1 1 1 1 1 1 1 1 1 1 1 1 1 1 1 1 1 1 1 1 1 1 1 1 1 1 1 1 1 1 1 1 1 1 1 1 1 1 1 1 1 1 1 1 1 1 1 1 1 1 1 1 1 1 1 1 1 1 1 1 1 1 1 1 1 1 1 1 1 1 1 1 1 1 1 1 1 1 1 1 1 1 1 1 1 1 1 1 1 1 1 1 1 1 1 1 1 1 1 1 1 1 1 1 1 1 1 1 1 1 1 1 1 1 1 1 1 1 1 1 1 1 1 1 1 1 1 1 1 1 1 1 1 1 1 1 1 1 1 1 1 1 0.0022247547727824632 1 1 1 0.0022613203514994873 1 1 0.0022997475196508766 1 1 1 1 1 1 1 1 1 1 1 0.002340735028728602 1 1 1 1 0.002385667444399199 1 1 1 1 1 1 1 1 1 1 1 1 1 1 1 1 1 1 1 1 1 1 1 1 1 1 1 1 1 1 1 1 1 1 1 1 1 1 1 1 1 1 1 1 1 1 1 1 1 1 1 1 1 1 1 1 1 1 0.0010587045857689348 1 1 1 1 1 1 1 1 1 1 1 1 1 1 0.0010819181799344118 1 1 0.001069651757306236 1 0.0010959492134745828 1 1 1 1 1 1 1 1 1 1 1 1 1 0.0011123594095611825 1 1 1 1 1 1 1 1 1 1 1 1 1 1 1 1 1 1 1 1 1 1 1 1 1 1 1 1 1 1 1 1 1 1 1 1 1 1 1 1 1 1 1 1 1 1 1 1 1 1 1 1 1 1 1 1 1 1 1 1 1 1 1 1 1 1 1 1 1 1 1 1 1 1 1 1 1 1 1 1 1 1 1 1 1 1 1 1 1 1 1 1 1 1 1 1 1 1 1 1 1 1 1 1 1 1 1 1 1 1 1 1 1 1 1 1 1 1 1 1 1 1 1 1 1 1 1 1 1 1 1 1 1 1 1 1 0.0010092745139299154 1 1 0.0010230530498740375 1 0.0010317355323091104 1 1 1 1 1 1 1 1 1 1 1 1 1 1 1 1 1 1 1 1 1 1 1 1 1 1 1 1 1 1 1 1 1 1 1 1 1 1 1 1 1 1 1 1 1 1 1 0.0010489348276369412 1 1 1 1 1 0.0010401056171292838 1 1 1 1 1 1 1 
</DataArray>
<DataArray type="Float64" Name="displacement_divergence" format="ascii">
-2.7659525148436686e-05 -3.0998522170196016e-05 -2.3489066870116708e-05 -2.7248910355552647e-05 -2.6171469186064861e-05 -2.615766378228946e-05 -2.4222207107495954e-05 -2.5330222773519195e-05 -2.3335165672137331e-05 -1.7737168161561675e-05 -2.5887885347706624e-05 -1.6680805407859596e-05 -3.1392851114966096e-05 -2.3799810495584371e-05 -3.787045838747525e-05 -2.9678907283978872e-05 -2.5524870283836077e-05 -2.7880749131895071e-05 -4.3887408676564312e-06 -7.7019600851232662e-06 -8.341939802805358e-06 -1.4644358551829668e-05 -1.7103796566001147e-05 -1.0577131646761371e-05 -1.2346480102475611e-05 -1.5550180073855348e-05 -1.6872323765063198e-05 -1.500779146207873e-05 -6.4653407804931865e-06 -7.5957212347142357e-06 -3.9858131386050568e-06 -3.0752235168172038e-07 -1.6662727461275433e-06 -1.1520324456114833e-06 -7.8042393424402169e-06 -1.674807812340464e-05 -1.3728773782903902e-05 -8.4802796580833731e-06 -1.575530732616321e-05 -1.846430373144656e-05 -1.3339227920843193e-05 -8.8314583634764509e-06 -8.5126280064332359e-06 -1.8814571137474666e-06 -9.0242336824717295e-06 -5.3720086356279916e-06 4.1623944192590247e-06 -9.0402679603524287e-07 -3.787316294342524e-05 -2.8955670490170468e-05 -4.3287773580617973e-05 -2.8376897803043204e-05 -2.2127284656952971e-05 -2.4120369334106778e-05 -2.4512639185325879e-05 -2.721056331277593e-05 -1.9909966707437707e-05 -2.9438705782897317e-05 -2.3429743100635312e-05 -2.7780976875592376e-05 -3.9901991996148172e-05 -3.806493081342698e-05 -3.6013798442257842e-05 -4.9490743350108981e-05 -5.2594486500311843e-05 -3.7291095101361606e-05 -4.3407438064479554e-05 -5.9221146548016961e-05 -4.4487379354043712e-05 -4.5552788604354988e-05 -4.6732394285665789e-05 -6.7672526684085734e-05 -2.5364942058093097e-05 -2.132110639291927e-05 -3.4745572527920208e-05 -3.281142363904034e-05 -2.1651573637557506e-05 -3.7801970223664342e-05 -3.3413656271840311e-05 -2.8712952751952913e-05 -2.0524290038064389e-05 -1.3361761636565997e-05 -1.2610054292339717e-05 -1.0167568108902704e-05 -5.5405030984573281e-06 -2.1393419649955143e-05 2.4888538096787542e-06 -1.5580206364576384e-06 -1.7291625511911835e-06 8.9004966277325288e-06 4.1371971129878696e-06 1.670298214262213e-06 1.0465757998084244e-05 1.4313885632026357e-05 -1.1715149832821072e-05 -1.6926477217765434e-05 -2.1126325234612978e-06 -5.4445252163013694e-06 -8.0928671750342982e-06 -1.2578134699460367e-05 1.9670470497617273e-07 -1.1709769228624638e-05 2.6875126270854574e-05 2.0926117289763726e-06 1.0683432374891437e-05 1.8883364539729974e-05 2.8696247241036954e-05 2.3970956041146913e-05 2.124082566653683e-05 2.3329972450867871e-05 4.7930651373060372e-05 -2.1054829544685932e-06 6.9496316900987114e-06 7.9922558943934985e-06 -1.1658540463541816e-05 -1.4063212398712758e-05 -2.6516952545308338e-05 -3.3740690875092851e-05 -3.9427812385411831e-05 -4.8269673373082589e-05 -6.8386413610687941e-05 -5.0605797060764674e-05 -4.9303797560611791e-05 -5.412284009194243e-05 -4.341341442196258e-05 -6.9945361517444367e-05 -5.0329753433577326e-05 -3.1558928931906438e-05 -2.1419101208106084e-05 -3.4642638121888641e-05 4.5214834101895488e-05 3.8672263590314491e-05 3.5191103693483632e-05 3.767863178356405e-05 4.3796599439602406e-05 5.1296752878555545e-05 4.5108067002463042e-05 4.2938271737405026e-05 4.5605546016535237e-05 4.2783931969234506e-05 3.5711427584582647e-05 4.2823195024883714e-05 3.971591059910737e-05 4.2637471087685129e-05 4.6482236692054404e-05 9.1924804271135811e-05 4.0702374184269769e-05 6.1621283828861318e-05 3.8236248118601502e-05 8.4541705212480252e-05 5.3947749651134317e-05 8.2822268487908041e-05 4.7995547320098196e-05 4.13117913474898e-05 5.0049812347184252e-05 3.1096473127493782e-05 3.1141164031809151e-05 4.3592649906718e-05 3.3673244793023486e-05 4.4795100207168444e-05 2.5987163601132415e-05 3.9428164041343588e-05 3.0145170017704939e-05 2.817813788863441e-05 1.9829982552922134e-05 2.4112113938063041e-05 2.4095436603471135e-05 2.2816608311420861e-05 1.363041443490983e-05 1.6868322582814493e-05 1.4799227099055137e-05 1.0457628288019774e-05 6.7894441490170954e-06 2.3566158707144755e-05 2.1662994469581614e-05 2.0175697704291903e-05 1.7486906368607542e-05 2.4759967921950101e-05 2.2496512344236829e-05 2.9799667405748248e-05 2.8589333501371769e-05 2.8198875365153908e-05 3.2049960633768154e-05 2.7705267892398084e-05 3.8683367498834555e-05 3.5156761207666941e-05 3.2354145885941764e-05 4.1599976839636021e-05 3.0656962538137234e-05 5.3507256882944076e-05 3.7384125498388069e-05 4.6302865033331964e-05 3.5682266065340842e-05 4.2406493927930356e-05 4.4773395590833257e-05 3.4371057273612543e-05 3.6944057447406868e-05 3.7064827448945268e-05 3.1748549524768288e-05 2.5362409101658873e-05 2.9827055172589056e-05 2.9523286076292492e-05 2.3451729503277518e-05 2.0961516977068513e-05 2.4244764478522167e-05 2.6711714497931698e-05 2.2844536502827441e-05 2.2490031708499694e-05 1.828043980667454e-05 2.5025861457748955e-05 2.4071219560661499e-05 2.832100385230647e-05 2.5872252611990623e-05 2.6537689260974556e-05 7.7479157889056926e-06 1.0663461631599106e-05 6.0863279170844831e-06 1.319524237075225e-05 1.4307020703257085e-05 1.6318948063233292e-05 1.7593651948328371e-05 1.947497220574873e-05 1.7720304186489406e-05 1.5327385252934457e-05 1.7576347663110675e-05 1.3830060274063235e-05 1.1263112905797305e-05 6.0897248735074323e-06 4.8183126433258878e-06 4.8965051849898306e-06 8.0852503076607896e-08 2.9707747510781947e-06 9.4473399369648004e-08 3.1651129996110934e-06 8.6605464376711924e-06 8.0112751481456498e-06 9.5433819047133961e-06 1.2278649191597601e-05 1.3674583282781698e-05 1.6838757548936955e-05 1.5107241891665611e-05 1.2316514456453876e-05 1.2706102615587954e-05 6.0018366420386065e-06 4.3073782888081919e-06 -1.0348068154966388e-06 2.4904526640590977e-05 2.4493187960877539e-05 2.1162898658200086e-05 2.1173134996609413e-05 1.8558841301488863e-05 2.1491580095974689e-05 2.0258340946874928e-05 1.8242203349756327e-05 2.4833051164962174e-05 2.1909400215934157e-05 2.6701415995292013e-05 2.2232242099916991e-05 2.3781450571648685e-05 2.7771349967021206e-05 2.4634442616058342e-05 3.2105967813365309e-05 2.3411787309226839e-05 2.851538639811484e-05 2.707922361329018e-05 2.6753171656806536e-05 2.4253890595776474e-05 2.8871402227802672e-05 2.4487089444082276e-05 2.3847225994975355e-05 2.1410136328480365e-05 2.6077512195045167e-05 2.5293553481205309e-05 3.1762953005686029e-05 3.1281624349653996e-05 2.3372239845005851e-05 2.5993286191272432e-05 2.5206064624210777e-05 1.7836018230649978e-05 1.5742863230849052e-05 1.0239566080477545e-05 2.4286264471395824e-06 6.9764636105560483e-06 1.1683776470923287e-05 1.8152405719770143e-05 6.3952598795535414e-06 1.4607353286897286e-05 1.9639359135072978e-05 2.3618497488689143e-05 2.3589784236643e-05 2.071578601914261e-05 2.8105696022812139e-05 1.4468854267810568e-05 1.0548357546477215e-05 1.6303455739689269e-05 1.8361818292418965e-05 5.4643467149338193e-06 1.4153680994951536e-05 2.1390976850077794e-05 1.707011807234998e-05 3.1936945545762903e-05 2.2509590018403527e-05 1.942129893494909e-05 2.6272797724591189e-05 2.5902762108158967e-05 3.038249919841556e-05 4.0939903379195867e-05 3.5373244551896618e-05 3.771041913319161e-05 3.0382390639886109e-05 3.4528635145283527e-05 4.0018606657614195e-05 3.2790485323558403e-05 3.7353513155427567e-05 2.9741281375914307e-05 2.8882301339168064e-05 2.7803863323108072e-05 3.099228184137743e-05 2.4788833717165648e-05 2.9454637462834447e-05 2.4693551467255872e-05 2.7672380949828576e-05 2.5375850423558255e-05 2.7724415543007916e-05 3.0291116916313052e-05 -5.5259300759942356e-05 -3.7887342266375355e-05 -4.0927150907833284e-05 -3.3420320998224971e-05 -2.9441152332667867e-05 -3.4779299001644367e-05 -3.9578318869407603e-05 -3.475908787542634e-05 -3.2943196138826283e-05 -2.9569576189601e-05 -3.185188089389402e-05 -3.183155808743869e-05 -3.0078014260194688e-05 -1.9588283397539969e-05 -2.9821600745398276e-05 -4.5605843266831066e-05 -1.863940052481642e-05 -3.5544172557353643e-05 -1.8689923324728568e-05 -1.7000069908073179e-05 -1.8712394876326844e-05 -1.5966350924517055e-05 -1.8790887317814569e-05 -8.5576375862523233e-06 -9.4323484913141215e-06 -4.5587142569717316e-06 -6.3904462187817508e-06 3.9877434392603606e-06 7.5669809702380933e-06 -1.1496090771831512e-06 -4.3203891420619028e-06 -3.6000775552964688e-06 8.4404567420365739e-07 8.4524295174329219e-06 -6.9408025706979402e-06 4.4920972390211669e-06 -1.7721288194230455e-06 -9.7082590676785468e-06 8.3543622382946527e-06 -5.6524043543916848e-06 -2.6689073493369839e-06 -2.6599599744736323e-05 -2.1990507350801905e-05 -2.0366502543242725e-05 -4.4207137503342146e-06 -1.6876830982372437e-05 -3.2866029401682179e-05 -2.6551835907483915e-05 -3.9539060533162727e-05 -3.045655131694426e-05 -4.1607301271590876e-05 -2.2168536660168546e-05 -3.604286543056077e-05 -6.2380376839917245e-05 -6.625873171473927e-05 -7.8104827496176381e-05 -5.5394406813172665e-05 -6.4888961436635606e-05 -4.0377441328430123e-05 -5.7712642395451076e-05 -3.8243891341560896e-05 -8.086260060742439e-05 -0.00012414640241783815 -7.49189488386112e-05 -7.8492675327004733e-05 -0.00010429683530587696 -9.0017239473254068e-05 -5.9758737289994478e-05 -7.0151803787954178e-05 -6.6629097799952004e-05 -3.900706296303496e-05 -4.1619400139254829e-05 -3.2484259936469704e-05 -3.5910819092446565e-05 -5.2972022640736603e-05 -4.1594882251500502e-05 -3.8434278564783523e-06 8.9544059617746905e-06 1.2274836676282223e-05 -2.8339571723489576e-05 -1.077347274156357e-05 -3.1601240954772693e-05 -1.7554375967860697e-05 -1.2021965053041717e-05 4.2036974597927232e-06 -1.179952926287841e-05 4.2042415044951358e-06 2.1866601551206719e-05 1.2117750273868308e-05 2.7998938804477207e-05 1.1330215633824058e-05 2.5794914256324568e-05 4.4366350692454272e-05 1.7287820717834628e-05 4.0634087226747978e-05 4.4350416254375241e-05 7.6763533965262858e-05 7.5838030367174813e-05 3.685249786606869e-05 2.8955216909754884e-05 8.0362837688208622e-05 0.00013506336063908694 0.00012393792449340299 0.00013416585375863638 8.8197452118833619e-05 5.9767944184053708e-05 7.3254588713089902e-05 5.3064892397707778e-05 1.735757906534208e-05 7.6618357540961983e-06 7.1273056423957256e-07 -1.8221982532628263e-05 3.586468955776227e-05 -1.3039301453259526e-05 -4.9187317280496379e-05 -5.6404504312875989e-05 -2.7128335223372568e-05 -4.3496900653991916e-05 -3.000890913081619e-05 -6.9503319526605521e-05 -4.0069287418992793e-05 -5.6294014257475327e-05 -8.376698106960244e-05 -8.4139273090029108e-05 -0.000127195741362062 -9.2717867522588949e-05 -0.00013058091523194024 -9.9073324403940754e-05 -7.1881840217438551e-05 -8.791652131409579e-05 5.9528423968872003e-05 6.5060767502662448e-05 6.8529366134670021e-05 6.3575767675325395e-05 5.9019598909326814e-05 5.0022066452499187e-05 4.4533907684400287e-05 5.6056322849643673e-05 3.9423613648679775e-05 4.6339858832981347e-05 3.3158470300287128e-05 4.5208336765760276e-05 3.8319631745609733e-05 4.6436043967683526e-05 5.0058689160549917e-05 4.3787911461524615e-05 3.8865042233994434e-05 3.0301436498465177e-05 4.6748231289975691e-05 4.3832713484424912e-05 5.3879013758495852e-05 3.0250353582557161e-05 3.849421103209512e-05 4.9828994702028886e-05 6.0682856717448623e-05 7.8224298365016506e-05 6.173376735411581e-05 6.6736026162327695e-05 6.5509573697518798e-05 8.1822692534098133e-05 9.3723725195018711e-05 0.00011661801096181636 0.00012507015018021678 0.00011433667372486985 0.00010087090838957838 0.00010733109155101577 0.00012938312132211908 0.00012564754707325703 0.00022021166340323019 0.00027206295647596982 0.0002631093312053092 0.00017773409082614771 9.4492398723806931e-05 0.00012600671489429972 0.00016297472096668883 9.551908172855851e-05 0.00010179493334733836 0.00010690366804625615 7.5672756030168947e-05 9.4266876559349772e-05 6.2539626526294717e-05 7.9778934174804198e-05 6.0686886676177008e-05 8.3035892288670299e-05 5.0852718619397828e-05 6.3917028471232985e-05 7.0068653500877931e-05 5.9533369009004248e-05 5.1918226641678183e-05 7.9833711658080101e-05 5.5300571387119073e-05 4.7523049166591234e-05 6.3773470234677396e-05 4.2303172355793854e-05 3.3198473736486796e-05 4.8552620214519057e-05 5.0108907695560088e-05 3.0681364837961179e-05 5.7639790128054084e-05 4.1703383013489879e-05 4.932491353717717e-05 8.2230156033205566e-05 6.9188887249895491e-05 6.6400136577555595e-05 7.3984031208845704e-05 9.9365166739594674e-05 0.00010435428623099179 0.00012662707146419771 0.00029336271418571808 4.8086166156384631e-05 0.00012341747867490444 0.00027426726880435954 0.00017089338136460773 0.017014843533460944 0.00025374920595222939 0.00013517825338544274 0.042605788848171906 4.8646034660695112e-05 0.00013324942943813579 0.061014256474075795 6.2816441703431036e-05 0.00010065024890046348 4.4812201141298337e-05 6.7646693271443219e-05 6.2865226932378652e-05 5.7764007071054e-05 5.6253083876747404e-05 8.1451697657478517e-05 8.4188837042328477e-05 6.3041694410504042e-05 9.747493792532742e-05 0.00012506130585784913 0.0001375016839676598 0.077905026339214492 0.00013359689463809314 0.00012744078465957726 0.00011306345461350445 0.0001422543468072102 0.00010911868327221339 0.094955906990700306 0.00013096229047883249 7.3436264287642192e-05 5.7079959987470187e-05 9.8492409533847852e-05 7.7521413587914667e-05 8.5251115322573377e-05 5.1706028859433936e-05 5.0827718758908599e-05 5.3706541486373085e-05 3.7159000377100086e-05 3.8950468975814073e-05 2.8457352360195779e-05 3.1593548004564802e-05 2.883279402544122e-05 3.4443237158102823e-05 3.5259693427437482e-05 2.5425864444462065e-05 3.7200667855908634e-05 3.1790806367744162e-05 3.6396605223382527e-05 4.2724267585322965e-05 4.7952948803984792e-05 -7.3725995516357571e-05 -8.7722139879809705e-05 -5.4024566860621766e-05 -0.00011316135856839717 -0.00011276200617236338 -7.1372800624477407e-05 -7.4574773487585066e-05 -4.3560888710281903e-05 -2.2246937021781201e-05 3.2374830317238954e-06 -3.090326638440161e-05 -1.7650004426235442e-05 -4.7169423545493066e-05 -1.6919535109570592e-05 4.224551801158469e-05 1.3421109135753392e-05 7.0402428150649816e-05 1.5269782008655794e-05 -1.6732265746588568e-05 3.4293536456444932e-05 2.9313848787827345e-05 9.5042959395259027e-05 0.00014688229179241541 0.00011027896244098087 0.00012076482304257868 6.1690307790122911e-05 8.3957895058502368e-05 0.0001011298454557919 4.9781554532600872e-05 5.0158084857282893e-05 8.3083119429548137e-05 8.4425468121359986e-05 9.25841516851841e-05 8.0923799794110318e-05 5.5433723025717012e-05 5.0120328739293018e-05 2.3731242992335624e-05 2.7402047886675141e-05 2.1383298017182799e-05 -4.9658593678236513e-06 2.3234010589410874e-05 2.9817462328088806e-05 2.8753931751645742e-06 -2.0440240256888102e-06 -2.574124325337851e-05 -2.8879156328380707e-05 -2.8692620563334093e-05 -2.7845051848314462e-05 -5.9846306614975281e-06 -5.6788681823982689e-06 -1.4715703855943573e-05 -2.6672320694478505e-05 -3.4881786991922212e-05 -5.2123680266691341e-05 -2.7133048123232761e-05 -4.051626099591866e-05 -7.3481141844692482e-05 -5.4693257287711725e-05 -5.3894779268785428e-05 -1.1979011349467009e-06 -1.9674053991749346e-05 -4.6313406621943665e-06 -2.2755444692854759e-05 -2.1589850892640228e-05 -3.8957316072740951e-05 -3.3675770780214331e-05 -2.395851068241403e-05 -1.4303982788195675e-05 -9.6474150788530139e-06 -4.6545418809556746e-06 5.9586813197149736e-06 6.1183959224756293e-06 -7.0955177784855997e-06 7.5339519893963822e-06 2.8593355658882921e-05 3.4323335655694811e-05 4.687406739616734e-05 7.9753708557856601e-06 2.9317808463236519e-06 2.3071715419428068e-05 2.2385063708569436e-05 3.9239746806465567e-05 2.939815515778238e-05 6.6588739432781735e-05 6.7538632872073123e-05 5.2307509328424623e-05 7.7098759390980057e-05 0.0001092726035187546 8.4093432782094378e-05 0.00010612477720534259 5.784749432961525e-05 7.5304452554843205e-05 0.00011095088162490618 8.5305507502285785e-05 0.00011999663324845783 9.9281958496249059e-05 0.00013887382304478973 0.0001490955717251604 9.6885382556291012e-05 7.1697355611200116e-05 2.4471077189898438e-05 2.9920586831207879e-05 4.065344992725331e-05 2.741016844667616e-05 5.9470019916695732e-05 3.8317781554609177e-05 5.7983167969007793e-05 1.0827567351651048e-05 -6.0302340893882492e-06 8.1754253624336665e-06 4.5484117273475802e-06 7.8568558861116453e-06 4.6282684428577969e-06 2.06541720205837e-06 1.1583799671532891e-05 4.5735323053698249e-06 1.2437969014629513e-06 4.9268074471974692e-06 4.1652701347778126e-06 2.123700241697668e-06 6.0327003355989742e-06 -3.8478124949128945e-07 -1.3384294632212039e-06 -1.3373582704453817e-05 4.0284398244090722e-05 7.3621559644707806e-05 7.0888997340012839e-05 5.6052675601217777e-05 3.1763710279334732e-05 2.216995678925031e-05 2.0000936675002804e-05 3.0887168596311422e-05 2.3334016798312704e-05 2.3574110085129775e-05 4.275474660088755e-05 4.2044113860174414e-05 3.7287578160863339e-05 6.0273522561490184e-05 6.2074348334563304e-05 8.6704792236228228e-05 0.00012051398031308786 0.00014255089947802166 0.00010140076668357131 0.00012634705762400666 0.00016311061854612941 0.00013320722641881717 0.11246252198610471 0.00011236378824599179 0.00015415331006444957 0.00015232033159724365 0.13073190973192705 0.00016054149991210449 0.00017097608241898113 0.15004539731506614 0.00014908791281272526 0.00010134195360766529 0.00016128440238885209 9.6847349739450131e-05 0.00011772212849530257 0.00013226291351417898 0.00010456578945991371 0.00018656299828132678 0.00018987740847498363 0.00014875583690048889 0.00019561125071745726 0.17023795772633801 0.00022668903923273465 0.00021274340618450529 0.00017748092379787743 0.00020232172181093534 0.19396428926774573 0.00025777307266557428 0.00021536269046721224 9.9812878382820485e-05 0.00020569856348384816 0.00024808223816938911 0.00019433269787942848 0.00012267591805786696 2.3182831929963242e-05 6.836684656404959e-05 2.0692409474976602e-05 6.9460594168155787e-05 3.7029060059434477e-05 3.5463791668822195e-05 5.3557889137589065e-05 7.2469438892143684e-05 1.3460681900561485e-05 2.4190692491456515e-05 1.1306574918190518e-05 2.7105709107064373e-05 7.3561656891542662e-06 1.939609598271665e-06 -2.3852654165977668e-05 -7.8499475546613476e-06 -3.0307969463843005e-05 -1.0233622807573426e-05 -1.4947610137419284e-06 -9.0574605980668263e-06 2.9765659953935857e-05 -2.5476464091754426e-06 5.4489701206850844e-06 3.7787808137067095e-05 1.1450195231242828e-05 1.9042968576095886e-05 3.1573037942509612e-05 3.683073772079771e-05 8.0638916907725374e-06 1.5715947070344045e-05 1.0050580724237958e-05 1.717144387604775e-05 1.9170349707499932e-05 2.0254345330414369e-05 2.0337022654457566e-05 1.5216804449870404e-05 2.15156635717357e-05 1.9279440921607469e-05 3.170899371698236e-05 4.480187899196051e-05 2.7632349817159488e-05 2.3526679302345228e-05 2.8008827845769956e-05 3.8509529164535913e-05 2.6680933148555343e-05 1.9753393005791172e-05 2.5936512700676378e-05 1.9369937385546772e-05 2.4543785537288705e-05 2.3545050001604642e-05 7.7714477725959481e-05 0.058747082783527672 8.0683286179257605e-05 6.6215601086931967e-05 5.6670700135202294e-05 3.5817082313503208e-05 4.2057648460993094e-05 4.1945201159580034e-05 7.4146440644850013e-05 5.7934546334132168e-05 6.7672931527832639e-05 5.2775473199853673e-05 9.1370675682119753e-05 0.00010792850304961333 7.9870279594472255e-05 7.9909283704479583e-05 0.081994486576144998 8.8139793772494123e-05 8.9723474890324e-05 0.069698570388197711 0.00010796660806152531 0.095984541277923358 0.00013522551080180905 0.00012041802919057647 0.00010012394280869237 6.067653314036485e-05 7.5286528164657772e-05 0.00011159225861711686 8.7030620096062482e-05 5.1819878042764079e-05 0.00012195653957217676 0.00014969447683949692 0.00011311992370396321 6.7718935663594473e-05 0.00011941079856439118 0.11264112570301438 0.00015620567714648599 0.00012858152677417897 8.9818337978601133e-05 5.6731736708596874e-05 5.8574096032480184e-05 7.9341273304883741e-05 3.8922460264378522e-05 1.4014212270231467e-05 1.4066462844476366e-05 2.2642170671830202e-05 3.4351414062238229e-05 1.8373226198750616e-05 1.4260377768047193e-05 2.839678688777757e-05 5.7544458327495778e-05 6.9119709130141191e-05 4.5754089482329379e-05 3.7140265113457839e-06 1.2028536111648863e-06 2.4444335436972179e-06 2.9316930507264707e-06 -2.3039561210941306e-07 1.6469453216123343e-06 6.6957607893079925e-06 5.1527390265530826e-07 9.8584149242081137e-07 1.9897239573413248e-06 1.3079127068633001e-06 -7.0955764171390758e-06 3.5640879978676276e-06 2.0043976895023179e-06 -2.282746870088117e-06 -9.5715355988368477e-06 -6.4123420585784213e-07 -1.5348409609468186e-05 -2.1151346922413175e-06 -5.0221376797308231e-06 -1.5371298706553062e-05 -7.754627087663325e-06 3.7529707764337276e-06 1.2361281690824975e-06 2.1028306625542857e-06 -8.5307518278218697e-06 -7.3696766138234716e-06 3.3495620002203796e-06 -1.1307810111237972e-05 -1.5538012785560858e-05 -2.0704698969948839e-05 -1.7912837226820126e-05 -2.8322680543089659e-05 -1.6725454557649753e-05 4.1181990494931894e-05 3.2817549540183413e-05 5.5393925686745074e-05 4.0067786682666893e-05 1.4269681171633986e-05 1.1731570738860971e-05 2.4948731381007738e-05 2.0370742038049085e-05 1.2181953234182341e-05 8.1443001815320517e-06 9.9694194160344267e-06 3.5322374796066753e-05 2.804496585751947e-05 5.7268285793548191e-05 4.571716462696768e-05 5.0800902389867733e-05 3.6207225065638992e-05 3.9056202344123648e-05 4.3972742659987088e-05 2.3068169173749015e-05 2.8346227755369525e-05 1.9665008579200591e-05 5.0027400767052588e-06 1.2689859463796763e-06 1.9321650452007143e-05 7.6804460988851887e-06 1.6023288275879505e-05 7.12303540351426e-07 4.981316788088639e-06 3.6234368684630357e-05 4.2838275863927742e-05 4.1175437367464793e-05 1.8861588217086809e-05 3.3338950275931889e-05 -2.8274857028546012e-05 -3.6557533798279954e-05 -2.9894029313623423e-05 -3.657753144320746e-05 -2.282406211644248e-05 -1.0906595273786515e-05 -2.0415603670457779e-05 -7.6644779481211843e-06 -8.5946400946292165e-06 -1.1292713632550825e-05 -9.2376864870653167e-06 -7.6807050906557098e-06 -1.7209498313032416e-05 -2.3421493462848957e-05 -2.4822339891929137e-05 -2.3784766288006357e-05 -3.7836121891025724e-05 -3.6433351331920149e-05 -4.4937025189611783e-05 -6.3758194241236941e-05 -5.2485688934932441e-05 -4.4229756892144351e-05 -3.537207258672969e-05 -3.0472882437991306e-05 -1.3084935234801941e-05 -1.2507341653176813e-05 -6.3033394231408902e-06 -2.3114488021061058e-05 -1.9425389518207075e-05 -2.8900591317858717e-05 -3.0295314247039368e-05 -4.4411898432419558e-05 -4.1721029506343592e-05 -6.2526129506613852e-05 2.3376663849294933e-05 5.3734014953174709e-05 2.292294327635024e-05 1.5621985553232942e-05 -2.9320960203674164e-07 4.4097737399014457e-06 2.0813041002324534e-05 7.9053848652422144e-06 -1.6485968678658339e-05 -6.5250068509555221e-06 6.6807318656917584e-06 2.9883215422132523e-05 3.0892636503187859e-05 5.6800301590620802e-05 9.9750443253509213e-05 3.4079812358398442e-06 0.00012266319014217107 0.0093403431512526485 5.2161251410940898e-05 5.4267937648010221e-05 0.023070154946422963 7.8799049891342416e-05 0.031761198837806648 6.1723545180906135e-05 5.1810172696880132e-05 1.5467814675422791e-05 1.0674838446393843e-05 1.9468082338412832e-05 -5.6491196167962718e-06 2.814081912770635e-05 8.1424863424439691e-06 5.2490413799065563e-05 2.719162451109486e-05 1.9178660993114367e-05 3.7229032211412979e-05 3.2113431127190584e-05 3.8561073132973201e-05 4.7731350583308133e-05 4.7107309777781424e-05 3.8582529040611338e-05 3.2015581416627121e-05 3.0263211634125011e-05 2.7730723775461501e-05 2.4656678171533486e-05 2.080164649105762e-05 2.4594273598317628e-05 2.1262668305632487e-05 2.0626093609552769e-05 2.2024072918702832e-05 2.2850760128629677e-05 2.4804060598041628e-05 2.7706220122115368e-05 2.8218012570357048e-05 2.4419327262949892e-05 2.5110224427130914e-05 2.6768003119381427e-05 2.0778351642147959e-05 2.0749207492149087e-05 2.6986106811439144e-05 2.710301043547757e-05 2.6089462840206781e-05 2.2421028254628923e-05 2.3047757447630006e-05 2.829364995464228e-05 3.2422430204796749e-05 3.9174710329347427e-05 3.2388926079078822e-05 3.1283286656197049e-05 4.6552652007709485e-05 7.1816185265449186e-05 0.048968546962453549 5.0263303406193496e-05 6.5739274932823891e-05 6.1364017954206539e-05 6.8881499450340914e-05 3.1957562570357777e-05 0.040132779706128996 6.1311793860585433e-05 4.7265999589718075e-05 6.8287748469999512e-05 2.3599884505680303e-05 1.9261632510576186e-05 2.1799348078672885e-05 3.2576441023894631e-05 
</DataArray>
</CellData>
</Piece>
</UnstructuredGrid>
</VTKFile>
