<?xml version="1.0"?>
<VTKFile type="UnstructuredGrid" version="0.1" byte_order="LittleEndian">
<UnstructuredGrid>
<Piece NumberOfPoints="3142" NumberOfCells="1054">
<Points>
<DataArray type="Float64" NumberOfComponents="3" format="ascii">
0.5 0.29999999999999999 0 0.54999999999999993 0.29999999999999999 0 0.54999999999999993 0.29999999999999999 0 0.59999999999999976 0.29999999999999999 0 0.59999999999999976 0.29999999999999999 0 0.6499999999999998 0.29999999999999999 0 0.6499999999999998 0.29999999999999999 0 0.69999999999999984 0.29999999999999999 0 0.69999999999999984 0.29999999999999999 0 0.74999999999999989 0.29999999999999999 0 0.74999999999999989 0.29999999999999999 0 0.79999999999999982 0.29999999999999999 0 0.79999999999999982 0.29999999999999999 0 0.84999999999999987 0.29999999999999999 0 0.84999999999999987 0.29999999999999999 0 0.89999999999999991 0.29999999999999999 0 0.89999999999999991 0.29999999999999999 0 0.94999999999999996 0.29999999999999999 0 0.94999999999999996 0.29999999999999999 0 1 0.29999999999999999 0 0.5 0.69999999999999996 0 0.54999999999999993 0.69999999999999996 0 0.54999999999999993 0.69999999999999996 0 0.59999999999999976 0.69999999999999996 0 0.59999999999999976 0.69999999999999996 0 0.6499999999999998 0.69999999999999996 0 0.6499999999999998 0.69999999999999996 0 0.69999999999999984 0.69999999999999996 0 0.69999999999999984 0.69999999999999996 0 0.74999999999999989 0.69999999999999996 0 0.74999999999999989 0.69999999999999996 0 0.79999999999999982 0.69999999999999996 0 0.79999999999999982 0.69999999999999996 0 0.84999999999999987 0.69999999999999996 0 0.84999999999999987 0.69999999999999996 0 0.89999999999999991 0.69999999999999996 0 0.89999999999999991 0.69999999999999996 0 0.94999999999999996 0.69999999999999996 0 0.94999999999999996 0.69999999999999996 0 1 0.69999999999999996 0 0.40076539126862748 0.34589349467022118 0 0.33277555741076909 0.36432196682010132 0 0.36575549820117997 0.31677992835137742 0 0.38083244760691543 0.38531983672244652 0 0.33277555741076909 0.36432196682010132 0 0.40076539126862748 0.34589349467022118 0 0.56836770495988642 0.3523062350852913 0 0.52289427570932567 0.3932284363388488 0 0.52752007115234678 0.33170632466418198 0 0.52752007115234678 0.33170632466418198 0 0.52289427570932567 0.3932284363388488 0 0.49077833859261139 0.35229981449445641 0 0.10000000000041601 1 0 0.053064897599294662 0.95186845269532028 0 0.10266856499240549 0.95548163909968886 0 0.099999999999814668 0 0 0.10266856499169109 0.044518360900210059 0 0.053064897599215843 0.048131547304697528 0 0.050000000000207989 1 0 0.053064897599294662 0.95186845269532028 0 0.10000000000041601 1 0 0.049999999999899652 0 0 0.099999999999814668 0 0 0.053064897599215843 0.048131547304697528 0 0.24999999999941211 0 0 0.29999999999926641 0 0 0.27499999999933927 0.060310814194988557 0 0.30000000000124832 1 0 0.25000000000104028 1 0 0.27609987656793722 0.94991445621608572 0 0.15720202157091859 0.60665697304410315 0 0.19914261668318661 0.62286739485272158 0 0.16500388252850301 0.66612077714085194 0 0.2236846579037573 0.67380363126050236 0 0.16500388252850301 0.66612077714085194 0 0.19914261668318661 0.62286739485272158 0 0.1247745017231483 0.27198077544791172 0 0.168349569971391 0.28054490850913671 0 0.14223753364722069 0.3341983344262433 0 0 0.75000000000034661 0 0 0.7000000000006934 0 0.049706944316475897 0.72477277076253799 0 0 0.30000000000124832 0 0 0.25000000000104028 0 0.049706944316556423 0.27522722923869108 0 0.59999999999999976 0.29999999999999999 0 0.61959173890754571 0.33832250091341232 0 0.56836770495988642 0.3523062350852913 0 0.5 0.69999999999999996 0 0.43323420005758778 0.6913544522562407 0 0.47913475093885149 0.66010775372412711 0 1 0.14999999999961891 0 0.95391631417672862 0.19584263333809451 0 0.93677536231883773 0.14999999999999089 0 1 0.84999999999982645 0 0.95391631417670719 0.89584263333814784 0 0.93677536231884972 0.85000000000000286 0 1 0.84999999999982645 0 0.93677536231884972 0.85000000000000286 0 0.95386563387742829 0.80414874155775029 0 1 0.14999999999961891 0 0.93677536231883773 0.14999999999999089 0 0.95386563387744361 0.1041487415577465 0 0.90416666666660628 0.9041666666666166 0 0.88088768115933802 0.84674609810493673 0 0.93677536231884972 0.85000000000000286 0 0.90416666666668166 0.20416666666667119 0 0.88088768115941807 0.14674609810479519 0 0.93677536231883773 0.14999999999999089 0 0.1247745017231483 0.27198077544791172 0 0.14223753364722069 0.3341983344262433 0 0.093851963071650835 0.30582068233324772 0 0.5 0.69999999999999996 0 0.45582236402875981 0.73896743678908217 0 0.43323420005758778 0.6913544522562407 0 0.55000000000173355 1 0 0.50000000000205869 1 0 0.52122150208832174 0.94089974453840242 0 0.49999999999869432 0 0 0.5499999999988151 0 0 0.52375890611712683 0.059318771819432882 0 0.54999999999999993 0.29999999999999999 0 0.59999999999999976 0.29999999999999999 0 0.56836770495988642 0.3523062350852913 0 0.50202631463681879 0.87892870825713787 0 0.44003836461056539 0.88093474584252718 0 0.45677673713123867 0.84253684404072415 0 0.33403534827021109 0.84402799729020661 0 0.35864759629805099 0.87963482415279515 0 0.30864387279288652 0.89906554525974958 0 0.53245488764484505 0.55078124999999989 0 0.47793794143994173 0.52940715638744962 0 0.53330375813596242 0.50827942741749099 0 0.82709327591102189 0.14937141670914489 0 0.81283102246527783 0.1881007222486438 0 0.77144070960558853 0.14311854477243749 0 0.82709327591091286 0.84937141670920724 0 0.81159157511211755 0.88795995483179491 0 0.76901770135486491 0.84293557325473656 0 0.77144070960558853 0.14311854477243749 0 0.81283102246527783 0.1881007222486438 0 0.76587607630038135 0.18880039518954719 0 0.76901770135486491 0.84293557325473656 0 0.81159157511211755 0.88795995483179491 0 0.76891166905518427 0.88835469571185499 0 0.33403534827021109 0.84402799729020661 0 0.30864387279288652 0.89906554525974958 0 0.29209212897034281 0.84715728365233667 0 0.57412547362576272 0.58273804879550706 0 0.5166924242153631 0.59825134841919447 0 0.53245488764484505 0.55078124999999989 0 0.50202631463681879 0.87892870825713787 0 0.47401147028110507 0.91529957330468115 0 0.44003836461056539 0.88093474584252718 0 0.5 0.69999999999999996 0 0.54999999999999993 0.69999999999999996 0 0.55363780716230748 0.74348740161571747 0 1 0.34999999999993492 0 0.95871855522754235 0.40006508612975411 0 0.95780851984364423 0.34215720972155339 0 1 0.64999999999986979 0 0.9578014258160763 0.65787212321113708 0 0.95867599106212187 0.60011091146651041 0 0.46666084890304671 0.57634471035397938 0 0.47793794143994173 0.52940715638744962 0 0.53245488764484505 0.55078124999999989 0 0.94999999999999996 0.29999999999999999 0 0.89898474358614167 0.25391965591104898 0 0.94399509803921056 0.24399509803922639 0 0.94999999999979179 1 0 0.89898474358632463 0.95391965591118966 0 0.94399509803919068 0.9439950980391687 0 0 0.65000000000104008 0 0.050069554451969707 0.61308520079857043 0 0.046634677244967337 0.671418230738282 0 0 0.35000000000145642 0 0.046389130980076937 0.32668781832131749 0 0.050583896093752537 0.38543522283434112 0 0.50202631463681879 0.87892870825713787 0 0.50627822638148745 0.8263979829520941 0 0.55899371797446828 0.85003102233514438 0 0.54782696902220018 0.79245182748204157 0 0.55899371797446828 0.85003102233514438 0 0.50627822638148745 0.8263979829520941 0 0.50945740445113552 0.75476055527778108 0 0.5 0.69999999999999996 0 0.55363780716230748 0.74348740161571747 0 0.84999999999965292 1 0 0.85170973911348691 0.93569607295217616 0 0.89898474358632463 0.95391965591118966 0 0.84999999999999987 0.29999999999999999 0 0.8517097391133297 0.2356960729520409 0 0.89898474358614167 0.25391965591104898 0 0.86956835336234861 0.571283299838105 0 0.82862096804812391 0.55037090955459045 0 0.86907294890112186 0.52008116128001669 0 0.49102375406324739 0.49123754822244059 0 0.53330375813596242 0.50827942741749099 0 0.47793794143994173 0.52940715638744962 0 0.57611405284611883 0.50165903596042916 0 0.61547661924074692 0.48539576058873962 0 0.62042975506801734 0.54295974692364424 0 0.71406021706547751 0.63292083137662503 0 0.67529834988829951 0.61613270668143583 0 0.71809016091162536 0.58185040402320831 0 0.65000000000104008 1 0 0.62065498684670595 0.95224934003983619 0 0.68015064798562208 0.95924320340003011 0 0.84999999999960507 0 0 0.899991664607802 0.045289349238254978 0 0.85491058998398861 0.060047533455626502 0 0.84999999999999987 0.69999999999999996 0 0.89999166460796554 0.74528934923809909 0 0.85491058998424563 0.76004753345552634 0 0.89999999999999991 0.29999999999999999 0 0.89898474358614167 0.25391965591104898 0 0.94999999999999996 0.29999999999999999 0 0.94999999999979179 1 0 0.89999999999958358 1 0 0.89898474358632463 0.95391965591118966 0 0.86411095495256451 0.42388805655111889 0 0.81308179852519835 0.39754945808726527 0 0.86844634540301924 0.38530937474099819 0 0.5 0.29999999999999999 0 0.49695729691142171 0.25014895411178018 0 0.54248833945060504 0.2520322959927106 0 0.86411095495256451 0.42388805655111889 0 0.81973119833356312 0.43505687159469048 0 0.81308179852519835 0.39754945808726527 0 0.67323294229744413 0.57556450033612505 0 0.71809016091162536 0.58185040402320831 0 0.67529834988829951 0.61613270668143583 0 0.6236733212988993 0.14864538214901801 0 0.68391457121233579 0.14440470121196541 0 0.64011864159029941 0.18789607982138171 0 0 0.050000000000207989 0 0.053064897599215843 0.048131547304697528 0 0.044310582753132287 0.101412518374475 0 0 0.94999999999979179 0 0.0443105827531413 0.89858748162559932 0 0.053064897599294662 0.95186845269532028 0 1 0.34999999999993492 0 1 0.39999999999978308 0 0.95871855522754235 0.40006508612975411 0 1 0.59999999999973963 0 1 0.64999999999986979 0 0.95867599106212187 0.60011091146651041 0 0 0.84999999999965292 0 0.065374659239661639 0.8551091961254178 0 0.0443105827531413 0.89858748162559932 0 0 0.15000000000062411 0 0.044310582753132287 0.101412518374475 0 0.065374659239632718 0.1448908038746782 0 0.16500388252850301 0.66612077714085194 0 0.1020579365089687 0.69352219419301997 0 0.1241190223511371 0.64391885572885044 0 0.14999999999970359 0 0 0.14618258501891079 0.062070108745602003 0 0.10266856499169109 0.044518360900210059 0 0.15000000000062411 1 0 0.10266856499240549 0.95548163909968886 0 0.14617343800780541 0.93808063414349496 0 0.7152569930854884 0.5237994455134295 0 0.67569444444444449 0.53500863336860327 0 0.69385896817107129 0.48377516041410151 0 0.6541250972820879 0.49999999999999989 0 0.62042975506801734 0.54295974692364424 0 0.61547661924074692 0.48539576058873962 0 0.94999999999999996 0.69999999999999996 0 0.94399509803918602 0.75600490196082126 0 0.89999166460796554 0.74528934923809909 0 0.94999999999986839 0 0 0.94399509803922566 0.056004901960802607 0 0.899991664607802 0.045289349238254978 0 0.6541250972820879 0.49999999999999989 0 0.69385896817107129 0.48377516041410151 0 0.67569444444444449 0.53500863336860327 0 0.82862096804812391 0.55037090955459045 0 0.81723410853263523 0.59419663659258926 0 0.77151014687832564 0.54436834383023036 0 0.7250000000005199 0.89375000000045834 0 0.66412543161245952 0.88015090885499059 0 0.68697391633157634 0.84450604838764298 0 0 0.94999999999979179 0 0 0.89999999999958358 0 0.0443105827531413 0.89858748162559932 0 0 0.10000000000041601 0 0 0.050000000000207989 0 0.044310582753132287 0.101412518374475 0 0.16500388252850301 0.66612077714085194 0 0.15332765547575641 0.71200081858233666 0 0.1020579365089687 0.69352219419301997 0 0.90299850604011456 0.79563452813489832 0 0.93677536231884972 0.85000000000000286 0 0.88088768115933802 0.84674609810493673 0 0.90299850604006393 0.09563452813493091 0 0.93677536231883773 0.14999999999999089 0 0.88088768115941807 0.14674609810479519 0 0.68391457121233579 0.14440470121196541 0 0.6865991819015953 0.189116534044597 0 0.64011864159029941 0.18789607982138171 0 0.085622222639554768 0.53333248912060549 0 0.1216098864341134 0.50637075089503902 0 0.1154888278694548 0.56733818459978413 0 0.21858834311891909 0.81980263716112767 0 0.22556077506376701 0.77837424984191617 0 0.26104540868854792 0.81401944968719064 0 0.81723410853263523 0.59419663659258926 0 0.77293540622714185 0.59448302402785813 0 0.77151014687832564 0.54436834383023036 0 0.1154888278694548 0.56733818459978413 0 0.1216098864341134 0.50637075089503902 0 0.14934928745814749 0.55042914607228977 0 0.1216098864341134 0.50637075089503902 0 0.068743045408989428 0.48853989837882689 0 0.113541300460994 0.46208784312094731 0 0.078358742472063481 0.43365249433908948 0 0.113541300460994 0.46208784312094731 0 0.068743045408989428 0.48853989837882689 0 0.83573492347052902 0.36590755630746369 0 0.81308179852519835 0.39754945808726527 0 0.78145581580700685 0.34881365920033602 0 0.57611405284611883 0.50165903596042916 0 0.62042975506801734 0.54295974692364424 0 0.57435499076887508 0.54267261987897775 0 0.86956835336234861 0.571283299838105 0 0.81723410853263523 0.59419663659258926 0 0.82862096804812391 0.55037090955459045 0 0.46666084890304671 0.57634471035397938 0 0.53245488764484505 0.55078124999999989 0 0.5166924242153631 0.59825134841919447 0 0.89999999999999991 0.69999999999999996 0 0.94999999999999996 0.69999999999999996 0 0.89999166460796554 0.74528934923809909 0 0.89999999999973679 0 0 0.94999999999986839 0 0 0.899991664607802 0.045289349238254978 0 0.84999999999960507 0 0 0.89999999999973679 0 0 0.899991664607802 0.045289349238254978 0 0.84999999999999987 0.69999999999999996 0 0.89999999999999991 0.69999999999999996 0 0.89999166460796554 0.74528934923809909 0 0.43545892161006339 0.61093128915313821 0 0.4089290844030305 0.58728915500154233 0 0.46666084890304671 0.57634471035397938 0 0.1650278706801647 0.38791388161335733 0 0.1117088112799664 0.38831403004970022 0 0.14223753364722069 0.3341983344262433 0 0.087545339447545459 0.35122518864182262 0 0.14223753364722069 0.3341983344262433 0 0.1117088112799664 0.38831403004970022 0 0.6916490518212759 0.75387992374886192 0 0.72501250972655151 0.74067302935308721 0 0.72500000000000064 0.7952620967744265 0 0.72501250972655151 0.74067302935308721 0 0.75841349681148107 0.75422312624214749 0 0.72500000000000064 0.7952620967744265 0 0.57412547362576272 0.58273804879550706 0 0.53245488764484505 0.55078124999999989 0 0.57435499076887508 0.54267261987897775 0 1 0.54999999999963112 0 0.95867599106212187 0.60011091146651041 0 0.93732437411268477 0.55911392101136159 0 1 0.44999999999963131 0 0.93814194660195893 0.44426664081746747 0 0.95871855522754235 0.40006508612975411 0 0.4089290844030305 0.58728915500154233 0 0.42644501560315817 0.54603747078095544 0 0.46666084890304671 0.57634471035397938 0 0.89999999999958358 1 0 0.84999999999965292 1 0 0.89898474358632463 0.95391965591118966 0 0.84999999999999987 0.29999999999999999 0 0.89898474358614167 0.25391965591104898 0 0.89999999999999991 0.29999999999999999 0 0.29999999999926641 0 0 0.32541448401678508 0.046215317981507749 0 0.27499999999933927 0.060310814194988557 0 0.30000000000124832 1 0 0.27609987656793722 0.94991445621608572 0 0.32544832635163229 0.95485394099568932 0 0.57412547362576272 0.58273804879550706 0 0.62042975506801734 0.54295974692364424 0 0.63065402604362242 0.59661356661633302 0 0.5 0.29999999999999999 0 0.54248833945060504 0.2520322959927106 0 0.54999999999999993 0.29999999999999999 0 0.67323294229744413 0.57556450033612505 0 0.62042975506801734 0.54295974692364424 0 0.67569444444444449 0.53500863336860327 0 0.6541250972820879 0.49999999999999989 0 0.67569444444444449 0.53500863336860327 0 0.62042975506801734 0.54295974692364424 0 1 0.14999999999961891 0 1 0.19999999999974799 0 0.95391631417672862 0.19584263333809451 0 1 0.84999999999982645 0 1 0.8999999999998336 0 0.95391631417670719 0.89584263333814784 0 1 0.7999999999998193 0 1 0.84999999999982645 0 0.95386563387742829 0.80414874155775029 0 1 0.099999999999753911 0 1 0.14999999999961891 0 0.95386563387744361 0.1041487415577465 0 0.4656888918609538 0.78493261229743638 0 0.50627822638148745 0.8263979829520941 0 0.45677673713123867 0.84253684404072415 0 0.6879972333610942 0.43038561374960838 0 0.72622533758026719 0.40265885511101601 0 0.73483647259922602 0.44789725365921768 0 0.67323294229744413 0.57556450033612505 0 0.67569444444444449 0.53500863336860327 0 0.71809016091162536 0.58185040402320831 0 0.7152569930854884 0.5237994455134295 0 0.71809016091162536 0.58185040402320831 0 0.67569444444444449 0.53500863336860327 0 0.65394964615507722 0.22666784374016369 0 0.59814117807200873 0.23398510860739519 0 0.64011864159029941 0.18789607982138171 0 0.55000000000173355 1 0 0.52122150208832174 0.94089974453840242 0 0.57382506491224949 0.9629411906298494 0 0.39801143831225599 0.16651381068160659 0 0.44288491854585582 0.14116182884956319 0 0.42905200079338551 0.19982395548231649 0 0.47357141910802508 0.1873585799078378 0 0.42905200079338551 0.19982395548231649 0 0.44288491854585582 0.14116182884956319 0 0.90594285160987287 0.4141265964174129 0 0.88594198078881503 0.46167788676578442 0 0.86411095495256451 0.42388805655111889 0 0.65507451745379841 0.92229208810758578 0 0.68015064798562208 0.95924320340003011 0 0.62065498684670595 0.95224934003983619 0 0.35312867752657662 0.084946736076730367 0 0.39591832466117061 0.056982757562006353 0 0.39823268594401579 0.1116623613130045 0 0.43698630808430822 0.080423614171545449 0 0.39823268594401579 0.1116623613130045 0 0.39591832466117061 0.056982757562006353 0 0.4367309254023824 0.92065556789053882 0 0.39641108128798319 0.94356127926187128 0 0.39767323751400468 0.89584229130535065 0 0.35752321586431363 0.9185439911803448 0 0.39767323751400468 0.89584229130535065 0 0.39641108128798319 0.94356127926187128 0 0.77354604466818633 0.40378688774472771 0 0.77972660463949339 0.45529290596363098 0 0.73483647259922602 0.44789725365921768 0 0.5499999999988151 0 0 0.57396793757665954 0.037011367187645222 0 0.52375890611712683 0.059318771819432882 0 0.64753070846764316 0.77332939069435502 0 0.60294066490120068 0.80851322453934582 0 0.59636844454254345 0.75937156204589151 0 0.49102375406324739 0.49123754822244059 0 0.48858720058566618 0.43964267759203868 0 0.53823865529665704 0.45873898050322898 0 0.28307294598219601 0.50789252727458634 0 0.29110487519241501 0.56588143995431495 0 0.25115337790845271 0.54719303014923271 0 0.79680861578988083 0.92656778056766709 0 0.81159157511211755 0.88795995483179491 0 0.85170973911348691 0.93569607295217616 0 0.79680861578956375 0.22656778056752541 0 0.81283102246527783 0.1881007222486438 0 0.8517097391133297 0.2356960729520409 0 0.57412547362576272 0.58273804879550706 0 0.57435499076887508 0.54267261987897775 0 0.62042975506801734 0.54295974692364424 0 0.93814194660195893 0.44426664081746747 0 0.88594198078881503 0.46167788676578442 0 0.90594285160987287 0.4141265964174129 0 0.7152569930854884 0.5237994455134295 0 0.73947346780852752 0.49062440112282169 0 0.77151014687832564 0.54436834383023036 0 0 0.7000000000006934 0 0.046634677244967337 0.671418230738282 0 0.049706944316475897 0.72477277076253799 0 0 0.30000000000124832 0 0.049706944316556423 0.27522722923869108 0 0.046389130980076937 0.32668781832131749 0 0.59814117807200873 0.23398510860739519 0 0.59443395090188023 0.18455690917515069 0 0.64011864159029941 0.18789607982138171 0 0.21858834311891909 0.81980263716112767 0 0.26104540868854792 0.81401944968719064 0 0.2401283238295133 0.85648409884788523 0 0.39536230704883951 0.84069429572832477 0 0.45677673713123867 0.84253684404072415 0 0.44003836461056539 0.88093474584252718 0 0.086179601630648681 0.64647209519980475 0 0.050069554451969707 0.61308520079857043 0 0.1024350934457823 0.60772393977513839 0 0.077693244765132896 0.56932317963405099 0 0.1024350934457823 0.60772393977513839 0 0.050069554451969707 0.61308520079857043 0 0.078358742472063481 0.43365249433908948 0 0.050583896093752537 0.38543522283434112 0 0.1117088112799664 0.38831403004970022 0 0.087545339447545459 0.35122518864182262 0 0.1117088112799664 0.38831403004970022 0 0.050583896093752537 0.38543522283434112 0 0.33403534827021109 0.84402799729020661 0 0.35642984951668422 0.80994399665655703 0 0.39536230704883951 0.84069429572832477 0 0.28307294598219601 0.50789252727458634 0 0.33190227185843768 0.52715113583864037 0 0.29110487519241501 0.56588143995431495 0 0.2236846579037573 0.67380363126050236 0 0.19068556247388771 0.71028988922845504 0 0.16500388252850301 0.66612077714085194 0 0.26104540868854792 0.81401944968719064 0 0.22556077506376701 0.77837424984191617 0 0.2792923945214143 0.77665808831789485 0 0.38244435121258652 0.51653317813019495 0 0.37272913873093971 0.56192925302619479 0 0.33190227185843768 0.52715113583864037 0 0.25195515620380449 0.25883339815888678 0 0.29132859388405002 0.27203693976649962 0 0.24432083401701241 0.3006253385567515 0 0.29348325746214782 0.31350119524708198 0 0.24432083401701241 0.3006253385567515 0 0.29132859388405002 0.27203693976649962 0 0 0.89999999999958358 0 0 0.84999999999965292 0 0.0443105827531413 0.89858748162559932 0 0 0.15000000000062411 0 0 0.10000000000041601 0 0.044310582753132287 0.101412518374475 0 0.59999999999999976 0.69999999999999996 0 0.59636844454254345 0.75937156204589151 0 0.55363780716230748 0.74348740161571747 0 0.1650278706801647 0.38791388161335733 0 0.22033343844674469 0.36963382230740238 0 0.191953871957803 0.42546416763755879 0 0.52289427570932567 0.3932284363388488 0 0.46655310992796922 0.39650496622958609 0 0.49077833859261139 0.35229981449445641 0 0.91696753777131557 0.497780560203536 0 0.88594198078881503 0.46167788676578442 0 0.93814194660195893 0.44426664081746747 0 0.24999999999941211 0 0 0.27499999999933927 0.060310814194988557 0 0.22668068146512929 0.045875643423131329 0 0.25000000000104028 1 0 0.22850979588452081 0.95594428570238643 0 0.27609987656793722 0.94991445621608572 0 0.77846603114747959 0.49850927265137401 0 0.77151014687832564 0.54436834383023036 0 0.73947346780852752 0.49062440112282169 0 0.27499999999933927 0.060310814194988557 0 0.27474541102162192 0.11822029332053539 0 0.24218496799700481 0.089025544070598317 0 0.27270076654418179 0.87751467830216623 0 0.29209212897034281 0.84715728365233667 0 0.30864387279288652 0.89906554525974958 0 0.3096713403101819 0.085471541595262421 0 0.27474541102162192 0.11822029332053539 0 0.27499999999933927 0.060310814194988557 0 0.17933913398461551 0.2350063570234002 0 0.18124454140915969 0.18790916706335251 0 0.224700362040408 0.22206622194729711 0 0.18269480424590959 0.75905448272264375 0 0.22556077506376701 0.77837424984191617 0 0.17777405986036951 0.81832336108265358 0 0.35864759629805099 0.87963482415279515 0 0.33403534827021109 0.84402799729020661 0 0.39536230704883951 0.84069429572832477 0 0.77354604466818633 0.40378688774472771 0 0.73483647259922602 0.44789725365921768 0 0.72622533758026719 0.40265885511101601 0 0.80185942888539485 0.77452061303608133 0 0.85491058998424563 0.76004753345552634 0 0.84725310900444062 0.80779732082917555 0 0.80185942888501827 0.074520613036224564 0 0.85491058998398861 0.060047533455626502 0 0.84725310900442086 0.10779732082922661 0 0.086179601630648681 0.64647209519980475 0 0.046634677244967337 0.671418230738282 0 0.050069554451969707 0.61308520079857043 0 0.087545339447545459 0.35122518864182262 0 0.050583896093752537 0.38543522283434112 0 0.046389130980076937 0.32668781832131749 0 0 0.75000000000034661 0 0.049706944316475897 0.72477277076253799 0 0.04408157711937423 0.7728941757575627 0 0 0.25000000000104028 0 0.044081577119474857 0.2271058242433576 0 0.049706944316556423 0.27522722923869108 0 0.52289427570932567 0.3932284363388488 0 0.56836770495988642 0.3523062350852913 0 0.57744073070774993 0.41535148636609359 0 0.6084546825910605 0.37989672713932537 0 0.57744073070774993 0.41535148636609359 0 0.56836770495988642 0.3523062350852913 0 0.61343887413683884 0.856862479058357 0 0.55899371797446828 0.85003102233514438 0 0.60294066490120068 0.80851322453934582 0 0.54782696902220018 0.79245182748204157 0 0.60294066490120068 0.80851322453934582 0 0.55899371797446828 0.85003102233514438 0 0.40326160981139969 0.73346192995102844 0 0.36622285152418499 0.69092437780804039 0 0.43323420005758778 0.6913544522562407 0 0.52289427570932567 0.3932284363388488 0 0.48858720058566618 0.43964267759203868 0 0.46655310992796922 0.39650496622958609 0 0.15720202157091859 0.60665697304410315 0 0.1154888278694548 0.56733818459978413 0 0.14934928745814749 0.55042914607228977 0 0.6879972333610942 0.43038561374960838 0 0.73483647259922602 0.44789725365921768 0 0.69385896817107129 0.48377516041410151 0 0.7250000000005199 0.89375000000045834 0 0.68987011941058407 0.92105047536677087 0 0.66412543161245952 0.88015090885499059 0 0.83573492347052902 0.36590755630746369 0 0.78145581580700685 0.34881365920033602 0 0.82500000000000062 0.33010209762754811 0 0.82862096804812391 0.55037090955459045 0 0.81441713509985358 0.51161854125224959 0 0.86907294890112186 0.52008116128001669 0 0.19670163708476801 0.31472518408333222 0 0.14223753364722069 0.3341983344262433 0 0.168349569971391 0.28054490850913671 0 0.50202631463681879 0.87892870825713787 0 0.45677673713123867 0.84253684404072415 0 0.50627822638148745 0.8263979829520941 0 0.099999999999814668 0 0 0.14999999999970359 0 0 0.10266856499169109 0.044518360900210059 0 0.15000000000062411 1 0 0.10000000000041601 1 0 0.10266856499240549 0.95548163909968886 0 0.67323294229744413 0.57556450033612505 0 0.63065402604362242 0.59661356661633302 0 0.62042975506801734 0.54295974692364424 0 0.083105206071467416 0.20007701332709979 0 0.13737030665753211 0.20313708640667491 0 0.095326043202144745 0.24554465089224409 0 0.083105206071452636 0.79992298667296435 0 0.090953281884486245 0.7564451946902494 0 0.1382744753146134 0.79650574229207483 0 0.50000000000205869 1 0 0.47135117303824892 0.95556877749289892 0 0.52122150208832174 0.94089974453840242 0 0.49999999999869432 0 0 0.52375890611712683 0.059318771819432882 0 0.47040171442036788 0.044141676406503738 0 0.4656888918609538 0.78493261229743638 0 0.45582236402875981 0.73896743678908217 0 0.50945740445113552 0.75476055527778108 0 0.5 0.69999999999999996 0 0.50945740445113552 0.75476055527778108 0 0.45582236402875981 0.73896743678908217 0 0.55306006949600994 0.20198184231352201 0 0.56202748619534593 0.15054058349222879 0 0.59443395090188023 0.18455690917515069 0 0.6236733212988993 0.14864538214901801 0 0.59443395090188023 0.18455690917515069 0 0.56202748619534593 0.15054058349222879 0 0.57412547362576272 0.58273804879550706 0 0.5498280205245758 0.6290146943450976 0 0.5166924242153631 0.59825134841919447 0 0.91696753777131557 0.497780560203536 0 0.93814194660195893 0.44426664081746747 0 0.96228564064454991 0.48206450662049471 0 0.15720202157091859 0.60665697304410315 0 0.16500388252850301 0.66612077714085194 0 0.1241190223511371 0.64391885572885044 0 0.44288491854585582 0.14116182884956319 0 0.47881186583059909 0.093591717165689425 0 0.48466639505193998 0.1421439844745814 0 1 0.54999999999963112 0 0.93732437411268477 0.55911392101136159 0 0.95631871884947484 0.51827533208233789 0 0.57724883562309992 0.92155686857100794 0 0.57382506491224949 0.9629411906298494 0 0.52122150208832174 0.94089974453840242 0 0.85170973911348691 0.93569607295217616 0 0.81159157511211755 0.88795995483179491 0 0.85600844944837662 0.88483418979512773 0 0.8517097391133297 0.2356960729520409 0 0.81283102246527783 0.1881007222486438 0 0.85600844944842547 0.1848341897950983 0 0.27866744612395528 0.38416094670951489 0 0.29124338931648802 0.43334555462578611 0 0.24049127783545701 0.41270748208749802 0 0.6084546825910605 0.37989672713932537 0 0.56836770495988642 0.3523062350852913 0 0.61959173890754571 0.33832250091341232 0 0.20050006573841939 0.53248514016039872 0 0.25115337790845271 0.54719303014923271 0 0.22549374774072969 0.58452645269293457 0 0.26573297623774761 0.59828298563722948 0 0.22549374774072969 0.58452645269293457 0 0.25115337790845271 0.54719303014923271 0 0.26104540868854792 0.81401944968719064 0 0.29209212897034281 0.84715728365233667 0 0.2401283238295133 0.85648409884788523 0 0.6236733212988993 0.14864538214901801 0 0.65290632656860115 0.11434202593454081 0 0.68391457121233579 0.14440470121196541 0 0.19901705110390991 0.9175543425573498 0 0.19741632902693801 0.86755867406447229 0 0.24536017905392571 0.90704567837671446 0 0.72500000000000064 0.7952620967744265 0 0.76901770135486491 0.84293557325473656 0 0.72863726579783861 0.85390518901155588 0 0.72500000000000064 0.7952620967744265 0 0.72863726579783861 0.85390518901155588 0 0.68697391633157634 0.84450604838764298 0 0.7250000000005199 0.89375000000045834 0 0.68697391633157634 0.84450604838764298 0 0.72863726579783861 0.85390518901155588 0 0.72525833953073282 0.1032114801687094 0 0.77144070960558853 0.14311854477243749 0 0.72634814642510737 0.16106886917518889 0 0.72525833953073282 0.1032114801687094 0 0.72634814642510737 0.16106886917518889 0 0.68391457121233579 0.14440470121196541 0 0.36622285152418499 0.69092437780804039 0 0.3977710372045391 0.65868194622830212 0 0.43323420005758778 0.6913544522562407 0 0 0.65000000000104008 0 0 0.60000000000138687 0 0.050069554451969707 0.61308520079857043 0 0 0.40000000000166441 0 0 0.35000000000145642 0 0.050583896093752537 0.38543522283434112 0 0.22033343844674469 0.36963382230740238 0 0.24049127783545701 0.41270748208749802 0 0.191953871957803 0.42546416763755879 0 0.5 0.29999999999999999 0 0.4604742573284204 0.27846934318264788 0 0.49695729691142171 0.25014895411178018 0 0.19741632902693801 0.86755867406447229 0 0.2401283238295133 0.85648409884788523 0 0.24536017905392571 0.90704567837671446 0 0 0.50000000000205869 0 0.068743045408989428 0.48853989837882689 0 0.044576108720083309 0.53509043209532614 0 0.15000000000062411 1 0 0.14617343800780541 0.93808063414349496 0 0.18474005699953849 0.96231585248064622 0 0.14999999999970359 0 0 0.184418230509967 0.038773194583122873 0 0.14618258501891079 0.062070108745602003 0 0.57667858002728545 0.078486105337742612 0 0.52375890611712683 0.059318771819432882 0 0.57396793757665954 0.037011367187645222 0 0.113541300460994 0.46208784312094731 0 0.078358742472063481 0.43365249433908948 0 0.13773355295499351 0.42497777642586831 0 0.77354604466818633 0.40378688774472771 0 0.78145581580700685 0.34881365920033602 0 0.81308179852519835 0.39754945808726527 0 0.38244435121258652 0.51653317813019495 0 0.33190227185843768 0.52715113583864037 0 0.35024835142131061 0.48654922671676981 0 0.64753070846764316 0.77332939069435502 0 0.65005442820240822 0.82644988530054031 0 0.60294066490120068 0.80851322453934582 0 0.15720202157091859 0.60665697304410315 0 0.1024350934457823 0.60772393977513839 0 0.1154888278694548 0.56733818459978413 0 0.90416666666660628 0.9041666666666166 0 0.85600844944837662 0.88483418979512773 0 0.88088768115933802 0.84674609810493673 0 0.90416666666668166 0.20416666666667119 0 0.85600844944842547 0.1848341897950983 0 0.88088768115941807 0.14674609810479519 0 0.078358742472063481 0.43365249433908948 0 0.1117088112799664 0.38831403004970022 0 0.13773355295499351 0.42497777642586831 0 0.38244435121258652 0.51653317813019495 0 0.3908716102680424 0.47010282357248828 0 0.43507373378304309 0.49699695397193322 0 0.90299850604011456 0.79563452813489832 0 0.95386563387742829 0.80414874155775029 0 0.93677536231884972 0.85000000000000286 0 0.90416666666660628 0.9041666666666166 0 0.93677536231884972 0.85000000000000286 0 0.95391631417670719 0.89584263333814784 0 0.90299850604006393 0.09563452813493091 0 0.95386563387744361 0.1041487415577465 0 0.93677536231883773 0.14999999999999089 0 0.90416666666668166 0.20416666666667119 0 0.93677536231883773 0.14999999999999089 0 0.95391631417672862 0.19584263333809451 0 0.39536230704883951 0.84069429572832477 0 0.44003836461056539 0.88093474584252718 0 0.39767323751400468 0.89584229130535065 0 0.51076801031701946 0.1202837388510348 0 0.52375890611712683 0.059318771819432882 0 0.54979595918804436 0.1060565713905809 0 0.57667858002728545 0.078486105337742612 0 0.54979595918804436 0.1060565713905809 0 0.52375890611712683 0.059318771819432882 0 0.57724883562309992 0.92155686857100794 0 0.52122150208832174 0.94089974453840242 0 0.54783390826260769 0.89287767010860219 0 0.50202631463681879 0.87892870825713787 0 0.54783390826260769 0.89287767010860219 0 0.52122150208832174 0.94089974453840242 0 0.087545339447545459 0.35122518864182262 0 0.093851963071650835 0.30582068233324772 0 0.14223753364722069 0.3341983344262433 0 0.54999999999999993 0.69999999999999996 0 0.59999999999999976 0.69999999999999996 0 0.55363780716230748 0.74348740161571747 0 0.083105206071452636 0.79992298667296435 0 0.1074251789111534 0.83564394292147814 0 0.065374659239661639 0.8551091961254178 0 0.083105206071467416 0.20007701332709979 0 0.065374659239632718 0.1448908038746782 0 0.106902708054812 0.16453234188234539 0 0.52289427570932567 0.3932284363388488 0 0.53823865529665704 0.45873898050322898 0 0.48858720058566618 0.43964267759203868 0 0.13737030665753211 0.20313708640667491 0 0.14377654328998779 0.2442024734791064 0 0.095326043202144745 0.24554465089224409 0 0.1382744753146134 0.79650574229207483 0 0.090953281884486245 0.7564451946902494 0 0.14335651144331049 0.75565258250209677 0 0.27270076654418179 0.87751467830216623 0 0.30864387279288652 0.89906554525974958 0 0.24536017905392571 0.90704567837671446 0 0.27609987656793722 0.94991445621608572 0 0.24536017905392571 0.90704567837671446 0 0.30864387279288652 0.89906554525974958 0 0.90299850604011456 0.79563452813489832 0 0.84725310900444062 0.80779732082917555 0 0.85491058998424563 0.76004753345552634 0 0.90299850604006393 0.09563452813493091 0 0.84725310900442086 0.10779732082922661 0 0.85491058998398861 0.060047533455626502 0 1 0.54999999999963112 0 1 0.59999999999973963 0 0.95867599106212187 0.60011091146651041 0 1 0.39999999999978308 0 1 0.44999999999963131 0 0.95871855522754235 0.40006508612975411 0 0.28040350263641872 0.23054717217092141 0 0.25195515620380449 0.25883339815888678 0 0.224700362040408 0.22206622194729711 0 0.84999999999999987 0.29999999999999999 0 0.87430060258887643 0.34056085888204451 0 0.82500000000000062 0.33010209762754811 0 0.84999999999999987 0.69999999999999996 0 0.82457059160610424 0.66831947184359608 0 0.87712158428786946 0.65709029563313581 0 0.86956835336234861 0.571283299838105 0 0.87159648282691515 0.61285406320581504 0 0.81723410853263523 0.59419663659258926 0 0.43698630808430822 0.080423614171545449 0 0.47881186583059909 0.093591717165689425 0 0.44288491854585582 0.14116182884956319 0 1 0.44999999999963131 0 0.96228564064454991 0.48206450662049471 0 0.93814194660195893 0.44426664081746747 0 0.35752321586431363 0.9185439911803448 0 0.30864387279288652 0.89906554525974958 0 0.35864759629805099 0.87963482415279515 0 0.29124338931648802 0.43334555462578611 0 0.25982634974572738 0.46097799597715272 0 0.24049127783545701 0.41270748208749802 0 0.51076801031701946 0.1202837388510348 0 0.56202748619534593 0.15054058349222879 0 0.51729576145820033 0.1683240575987815 0 0.55306006949600994 0.20198184231352201 0 0.51729576145820033 0.1683240575987815 0 0.56202748619534593 0.15054058349222879 0 0.26429849586623999 0.19346700179430079 0 0.28040350263641872 0.23054717217092141 0 0.224700362040408 0.22206622194729711 0 0.51076801031701946 0.1202837388510348 0 0.48466639505193998 0.1421439844745814 0 0.47881186583059909 0.093591717165689425 0 0.2185883431182947 0.18019736283949719 0 0.26429849586623999 0.19346700179430079 0 0.224700362040408 0.22206622194729711 0 0.18269480424590959 0.75905448272264375 0 0.2248999640082178 0.72584299459689172 0 0.22556077506376701 0.77837424984191617 0 0.51076801031701946 0.1202837388510348 0 0.47881186583059909 0.093591717165689425 0 0.52375890611712683 0.059318771819432882 0 0.50202631463681879 0.87892870825713787 0 0.52122150208832174 0.94089974453840242 0 0.47401147028110507 0.91529957330468115 0 0 0.84999999999965292 0 0.038512288486097702 0.8155852717111195 0 0.065374659239661639 0.8551091961254178 0 0 0.15000000000062411 0 0.065374659239632718 0.1448908038746782 0 0.038512288486115001 0.1844147282893184 0 0.2185883431182947 0.18019736283949719 0 0.224700362040408 0.22206622194729711 0 0.18124454140915969 0.18790916706335251 0 0.21858834311891909 0.81980263716112767 0 0.17777405986036951 0.81832336108265358 0 0.22556077506376701 0.77837424984191617 0 0.1215415378367805 0.72939333680004137 0 0.1020579365089687 0.69352219419301997 0 0.15332765547575641 0.71200081858233666 0 0.49695729691142171 0.25014895411178018 0 0.50760557329222289 0.20700468884612061 0 0.54248833945060504 0.2520322959927106 0 0.15720202157091859 0.60665697304410315 0 0.14934928745814749 0.55042914607228977 0 0.18381867841758909 0.57774125163628387 0 0.90416666666660628 0.9041666666666166 0 0.85170973911348691 0.93569607295217616 0 0.85600844944837662 0.88483418979512773 0 0.90416666666668166 0.20416666666667119 0 0.8517097391133297 0.2356960729520409 0 0.85600844944842547 0.1848341897950983 0 0.17933913398461551 0.2350063570234002 0 0.13737030665753211 0.20313708640667491 0 0.18124454140915969 0.18790916706335251 0 0.18269480424590959 0.75905448272264375 0 0.17777405986036951 0.81832336108265358 0 0.1382744753146134 0.79650574229207483 0 0.1216098864341134 0.50637075089503902 0 0.15801167086041079 0.46008690540259539 0 0.16618607197337229 0.50652878253548905 0 0.50760557329222289 0.20700468884612061 0 0.55306006949600994 0.20198184231352201 0 0.54248833945060504 0.2520322959927106 0 0.75000000000034661 1 0 0.7000000000006934 1 0 0.7250000000005199 0.94981617647078953 0 0.69999999999999984 0.29999999999999999 0 0.72500000000000064 0.2498161764706 0 0.74999999999999989 0.29999999999999999 0 0.72525833953073282 0.1032114801687094 0 0.68391457121233579 0.14440470121196541 0 0.68330259535470161 0.10038702501083881 0 0.43249999999999988 0.43937499999999979 0 0.46655310992796922 0.39650496622958609 0 0.48858720058566618 0.43964267759203868 0 0.19901705110390991 0.9175543425573498 0 0.14617343800780541 0.93808063414349496 0 0.16206583317966519 0.89685560785156404 0 0.19922788606653311 0.085920220746880993 0 0.16141998738593399 0.10404039647458049 0 0.14618258501891079 0.062070108745602003 0 0.31378396441836959 0.70157213313026345 0 0.26439878998046262 0.7048065392091396 0 0.27820712747429932 0.65530134213254643 0 0.1216098864341134 0.50637075089503902 0 0.113541300460994 0.46208784312094731 0 0.15801167086041079 0.46008690540259539 0 0.6084546825910605 0.37989672713932537 0 0.65481233915350323 0.35652751921065562 0 0.63912439215427275 0.41063340167983359 0 0.19901705110390991 0.9175543425573498 0 0.18474005699953849 0.96231585248064622 0 0.14617343800780541 0.93808063414349496 0 0.19922788606653311 0.085920220746880993 0 0.14618258501891079 0.062070108745602003 0 0.184418230509967 0.038773194583122873 0 0.38244435121258652 0.51653317813019495 0 0.35024835142131061 0.48654922671676981 0 0.3908716102680424 0.47010282357248828 0 0.82709327591102189 0.14937141670914489 0 0.77144070960558853 0.14311854477243749 0 0.80076557130237269 0.1154587552654202 0 0.82709327591091286 0.84937141670920724 0 0.76901770135486491 0.84293557325473656 0 0.80041942726660109 0.81543261647703358 0 0.43698630808430822 0.080423614171545449 0 0.44288491854585582 0.14116182884956319 0 0.39823268594401579 0.1116623613130045 0 0.39801143831225599 0.16651381068160659 0 0.39823268594401579 0.1116623613130045 0 0.44288491854585582 0.14116182884956319 0 0.36575549820117997 0.31677992835137742 0 0.3786248352540974 0.27082301512024259 0 0.41914690343363781 0.30688979866601612 0 0.42377727103934271 0.25099357235810238 0 0.41914690343363781 0.30688979866601612 0 0.3786248352540974 0.27082301512024259 0 0.049706944316475897 0.72477277076253799 0 0.1020579365089687 0.69352219419301997 0 0.090953281884486245 0.7564451946902494 0 0.1215415378367805 0.72939333680004137 0 0.090953281884486245 0.7564451946902494 0 0.1020579365089687 0.69352219419301997 0 0.1247745017231483 0.27198077544791172 0 0.093851963071650835 0.30582068233324772 0 0.095326043202144745 0.24554465089224409 0 0.049706944316556423 0.27522722923869108 0 0.095326043202144745 0.24554465089224409 0 0.093851963071650835 0.30582068233324772 0 0.77354604466818633 0.40378688774472771 0 0.81973119833356312 0.43505687159469048 0 0.77972660463949339 0.45529290596363098 0 0.43249999999999988 0.43937499999999979 0 0.43507373378304309 0.49699695397193322 0 0.3908716102680424 0.47010282357248828 0 0.26573297623774761 0.59828298563722948 0 0.2459498854893499 0.63248470766216769 0 0.22549374774072969 0.58452645269293457 0 0.72500000000000064 0.7952620967744265 0 0.77094201086366854 0.79647480515688507 0 0.76901770135486491 0.84293557325473656 0 0.72525833953073282 0.1032114801687094 0 0.76878382444651716 0.097147941686331368 0 0.77144070960558853 0.14311854477243749 0 0.72500000000000064 0.7952620967744265 0 0.68697391633157634 0.84450604838764298 0 0.68024162096458085 0.79868546898116533 0 0.31378396441836959 0.70157213313026345 0 0.29904318922293632 0.74132814928635593 0 0.26439878998046262 0.7048065392091396 0 0.31378396441836959 0.70157213313026345 0 0.35415581127540569 0.73730480045900215 0 0.29904318922293632 0.74132814928635593 0 0.61343887413683884 0.856862479058357 0 0.65005442820240822 0.82644988530054031 0 0.66412543161245952 0.88015090885499059 0 0.68697391633157634 0.84450604838764298 0 0.66412543161245952 0.88015090885499059 0 0.65005442820240822 0.82644988530054031 0 0.083411279318375747 0.91030024466934134 0 0.065374659239661639 0.8551091961254178 0 0.10562472963403439 0.87143394428979881 0 0.083411279318303222 0.089699755330707398 0 0.1053400320299198 0.12877248826361379 0 0.065374659239632718 0.1448908038746782 0 0.55306006949600994 0.20198184231352201 0 0.59443395090188023 0.18455690917515069 0 0.59814117807200873 0.23398510860739519 0 0.84999999999999987 0.29999999999999999 0 0.89999999999999991 0.29999999999999999 0 0.87430060258887643 0.34056085888204451 0 0.84999999999999987 0.69999999999999996 0 0.87712158428786946 0.65709029563313581 0 0.89999999999999991 0.69999999999999996 0 0.34258405725730701 0.4444034294386992 0 0.3908716102680424 0.47010282357248828 0 0.35024835142131061 0.48654922671676981 0 0.26573297623774761 0.59828298563722948 0 0.31502927232353312 0.6134992213375432 0 0.27820712747429932 0.65530134213254643 0 0.91696753777131557 0.497780560203536 0 0.86907294890112186 0.52008116128001669 0 0.88594198078881503 0.46167788676578442 0 0.84723782639812573 0.48638347960178252 0 0.88594198078881503 0.46167788676578442 0 0.86907294890112186 0.52008116128001669 0 0.7152569930854884 0.5237994455134295 0 0.77151014687832564 0.54436834383023036 0 0.71809016091162536 0.58185040402320831 0 0.90416666666660628 0.9041666666666166 0 0.89898474358632463 0.95391965591118966 0 0.85170973911348691 0.93569607295217616 0 0.90416666666668166 0.20416666666667119 0 0.89898474358614167 0.25391965591104898 0 0.8517097391133297 0.2356960729520409 0 0.91750694127107502 0.36982372220068471 0 0.95780851984364423 0.34215720972155339 0 0.95871855522754235 0.40006508612975411 0 0.91750694127105259 0.63017627779935648 0 0.95867599106212187 0.60011091146651041 0 0.9578014258160763 0.65787212321113708 0 0.90299850604011456 0.79563452813489832 0 0.88088768115933802 0.84674609810493673 0 0.84725310900444062 0.80779732082917555 0 0.90299850604006393 0.09563452813493091 0 0.88088768115941807 0.14674609810479519 0 0.84725310900442086 0.10779732082922661 0 0.1216098864341134 0.50637075089503902 0 0.16618607197337229 0.50652878253548905 0 0.14934928745814749 0.55042914607228977 0 0.20050006573841939 0.53248514016039872 0 0.14934928745814749 0.55042914607228977 0 0.16618607197337229 0.50652878253548905 0 0.80185942888539485 0.77452061303608133 0 0.84725310900444062 0.80779732082917555 0 0.80041942726660109 0.81543261647703358 0 0.80185942888501827 0.074520613036224564 0 0.84725310900442086 0.10779732082922661 0 0.80076557130237269 0.1154587552654202 0 0.083105206071452636 0.79992298667296435 0 0.065374659239661639 0.8551091961254178 0 0.038512288486097702 0.8155852717111195 0 0.083105206071467416 0.20007701332709979 0 0.038512288486115001 0.1844147282893184 0 0.065374659239632718 0.1448908038746782 0 0.54782696902220018 0.79245182748204157 0 0.59636844454254345 0.75937156204589151 0 0.60294066490120068 0.80851322453934582 0 0.083411279318375747 0.91030024466934134 0 0.0443105827531413 0.89858748162559932 0 0.065374659239661639 0.8551091961254178 0 0.083411279318303222 0.089699755330707398 0 0.065374659239632718 0.1448908038746782 0 0.044310582753132287 0.101412518374475 0 0.84999999999965292 1 0 0.81486180804382891 0.96321394949790495 0 0.85170973911348691 0.93569607295217616 0 0.84999999999999987 0.29999999999999999 0 0.81486180804364938 0.26321394949780091 0 0.8517097391133297 0.2356960729520409 0 0.4656888918609538 0.78493261229743638 0 0.45677673713123867 0.84253684404072415 0 0.42609163930740518 0.80361684430568059 0 0.39536230704883951 0.84069429572832477 0 0.42609163930740518 0.80361684430568059 0 0.45677673713123867 0.84253684404072415 0 0.6236733212988993 0.14864538214901801 0 0.56202748619534593 0.15054058349222879 0 0.58516465772821369 0.11653801664834119 0 0.57412547362576272 0.58273804879550706 0 0.63065402604362242 0.59661356661633302 0 0.5991018319127801 0.62925360607495295 0 0.61343887413683884 0.856862479058357 0 0.5832743223239254 0.88483152652961872 0 0.55899371797446828 0.85003102233514438 0 0.50202631463681879 0.87892870825713787 0 0.55899371797446828 0.85003102233514438 0 0.54783390826260769 0.89287767010860219 0 0.51076801031701946 0.1202837388510348 0 0.54979595918804436 0.1060565713905809 0 0.56202748619534593 0.15054058349222879 0 0.55306006949600994 0.20198184231352201 0 0.59814117807200873 0.23398510860739519 0 0.54248833945060504 0.2520322959927106 0 0.83573492347052902 0.36590755630746369 0 0.82500000000000062 0.33010209762754811 0 0.87430060258887643 0.34056085888204451 0 0.83758014339878906 0.63222013025741819 0 0.87712158428786946 0.65709029563313581 0 0.82457059160610424 0.66831947184359608 0 0.49102375406324739 0.49123754822244059 0 0.53823865529665704 0.45873898050322898 0 0.53330375813596242 0.50827942741749099 0 0.52289427570932567 0.3932284363388488 0 0.57744073070774993 0.41535148636609359 0 0.53823865529665704 0.45873898050322898 0 0.4089290844030305 0.58728915500154233 0 0.37272913873093971 0.56192925302619479 0 0.42644501560315817 0.54603747078095544 0 0.49695729691142171 0.25014895411178018 0 0.4604742573284204 0.27846934318264788 0 0.46429753744194407 0.22870891180733599 0 0.90299850604011456 0.79563452813489832 0 0.85491058998424563 0.76004753345552634 0 0.89999166460796554 0.74528934923809909 0 0.90299850604006393 0.09563452813493091 0 0.85491058998398861 0.060047533455626502 0 0.899991664607802 0.045289349238254978 0 0.38244435121258652 0.51653317813019495 0 0.42644501560315817 0.54603747078095544 0 0.37272913873093971 0.56192925302619479 0 0.71406021706547751 0.63292083137662503 0 0.71809016091162536 0.58185040402320831 0 0.74994237037456724 0.62775548192980357 0 0.84723782639812573 0.48638347960178252 0 0.86907294890112186 0.52008116128001669 0 0.81441713509985358 0.51161854125224959 0 0.33122374654748771 0.57588941099433744 0 0.33190227185843768 0.52715113583864037 0 0.37272913873093971 0.56192925302619479 0 0.086179601630648681 0.64647209519980475 0 0.1241190223511371 0.64391885572885044 0 0.1020579365089687 0.69352219419301997 0 0.59999999999894682 0 0 0.64999999999907843 0 0 0.61940220174112337 0.047251958781050582 0 0.18269480424590959 0.75905448272264375 0 0.14335651144331049 0.75565258250209677 0 0.15332765547575641 0.71200081858233666 0 0.22549374774072969 0.58452645269293457 0 0.2459498854893499 0.63248470766216769 0 0.19914261668318661 0.62286739485272158 0 0.38244435121258652 0.51653317813019495 0 0.43507373378304309 0.49699695397193322 0 0.42644501560315817 0.54603747078095544 0 0.65000000000104008 1 0 0.60000000000138687 1 0 0.62065498684670595 0.95224934003983619 0 0.078358742472063481 0.43365249433908948 0 0.068743045408989428 0.48853989837882689 0 0.033550201249889847 0.46247875832467239 0 0.2236846579037573 0.67380363126050236 0 0.27820712747429932 0.65530134213254643 0 0.26439878998046262 0.7048065392091396 0 0.6879972333610942 0.43038561374960838 0 0.68128176404677243 0.38629093627004979 0 0.72622533758026719 0.40265885511101601 0 0.72525833953073282 0.1032114801687094 0 0.7010294155333181 0.056779085686491267 0 0.7527966693318906 0.053051678021508272 0 0.18269480424590959 0.75905448272264375 0 0.15332765547575641 0.71200081858233666 0 0.19068556247388771 0.71028988922845504 0 0.1216098864341134 0.50637075089503902 0 0.085622222639554768 0.53333248912060549 0 0.068743045408989428 0.48853989837882689 0 0.25676291524611189 0.7436741304886243 0 0.26439878998046262 0.7048065392091396 0 0.29904318922293632 0.74132814928635593 0 0.65481233915350323 0.35652751921065562 0 0.68128176404677243 0.38629093627004979 0 0.63912439215427275 0.41063340167983359 0 0.83573492347052902 0.36590755630746369 0 0.86844634540301924 0.38530937474099819 0 0.81308179852519835 0.39754945808726527 0 0.27270076654418179 0.87751467830216623 0 0.2401283238295133 0.85648409884788523 0 0.29209212897034281 0.84715728365233667 0 0.84999999999999987 0.69999999999999996 0 0.85491058998424563 0.76004753345552634 0 0.81864958914779962 0.73589050177899629 0 0.84999999999960507 0 0 0.85491058998398861 0.060047533455626502 0 0.81864958914740749 0.035890501779055867 0 0.18381867841758909 0.57774125163628387 0 0.19914261668318661 0.62286739485272158 0 0.15720202157091859 0.60665697304410315 0 0.22549374774072969 0.58452645269293457 0 0.19914261668318661 0.62286739485272158 0 0.18381867841758909 0.57774125163628387 0 0.79680861578988083 0.92656778056766709 0 0.85170973911348691 0.93569607295217616 0 0.81486180804382891 0.96321394949790495 0 0.79680861578956375 0.22656778056752541 0 0.8517097391133297 0.2356960729520409 0 0.81486180804364938 0.26321394949780091 0 0.20050006573841939 0.53248514016039872 0 0.23975172658309729 0.49475499200540818 0 0.25115337790845271 0.54719303014923271 0 0.28307294598219601 0.50789252727458634 0 0.25115337790845271 0.54719303014923271 0 0.23975172658309729 0.49475499200540818 0 0.20050006573841939 0.53248514016039872 0 0.18381867841758909 0.57774125163628387 0 0.14934928745814749 0.55042914607228977 0 0.19922788606653311 0.085920220746880993 0 0.22985637510995899 0.1298347970200906 0 0.18652628422869419 0.14162325200928061 0 0.33758650185219202 0.23837101504325639 0 0.38831533174504851 0.2189834941785925 0 0.3786248352540974 0.27082301512024259 0 0.42377727103934271 0.25099357235810238 0 0.3786248352540974 0.27082301512024259 0 0.38831533174504851 0.2189834941785925 0 0.19922788606653311 0.085920220746880993 0 0.18652628422869419 0.14162325200928061 0 0.16141998738593399 0.10404039647458049 0 0.54782696902220018 0.79245182748204157 0 0.55363780716230748 0.74348740161571747 0 0.59636844454254345 0.75937156204589151 0 0.82709327591091286 0.84937141670920724 0 0.88088768115933802 0.84674609810493673 0 0.85600844944837662 0.88483418979512773 0 0.82709327591102189 0.14937141670914489 0 0.88088768115941807 0.14674609810479519 0 0.85600844944842547 0.1848341897950983 0 0.27866744612395528 0.38416094670951489 0 0.22033343844674469 0.36963382230740238 0 0.25966125648670141 0.34351016742083729 0 0 0.50000000000205869 0 0.033550201249889847 0.46247875832467239 0 0.068743045408989428 0.48853989837882689 0 0.31378396441836959 0.70157213313026345 0 0.36622285152418499 0.69092437780804039 0 0.35415581127540569 0.73730480045900215 0 0.77293540622714185 0.59448302402785813 0 0.71809016091162536 0.58185040402320831 0 0.77151014687832564 0.54436834383023036 0 0.7152569930854884 0.5237994455134295 0 0.69385896817107129 0.48377516041410151 0 0.73947346780852752 0.49062440112282169 0 0.15801167086041079 0.46008690540259539 0 0.191953871957803 0.42546416763755879 0 0.19604738184454831 0.47787523520405789 0 0.57667858002728545 0.078486105337742612 0 0.61940220174112337 0.047251958781050582 0 0.61956000905586006 0.1043312481793135 0 0.65408113592120842 0.073941773121567966 0 0.61956000905586006 0.1043312481793135 0 0.61940220174112337 0.047251958781050582 0 0 0.55000000000173355 0 0 0.50000000000205869 0 0.044576108720083309 0.53509043209532614 0 0.65507451745379841 0.92229208810758578 0 0.62065498684670595 0.95224934003983619 0 0.61885627562261258 0.90282959257498208 0 0.57724883562309992 0.92155686857100794 0 0.61885627562261258 0.90282959257498208 0 0.62065498684670595 0.95224934003983619 0 0.91750694127107502 0.36982372220068471 0 0.86844634540301924 0.38530937474099819 0 0.87430060258887643 0.34056085888204451 0 0.91750694127105259 0.63017627779935648 0 0.87712158428786946 0.65709029563313581 0 0.87159648282691515 0.61285406320581504 0 0.33123028043633618 0.77629643437932982 0 0.29904318922293632 0.74132814928635593 0 0.35415581127540569 0.73730480045900215 0 0.86411095495256451 0.42388805655111889 0 0.84925632466077294 0.45359738909549091 0 0.81973119833356312 0.43505687159469048 0 0.43846182030517877 0.64845797726506715 0 0.47913475093885149 0.66010775372412711 0 0.43323420005758778 0.6913544522562407 0 0.18269480424590959 0.75905448272264375 0 0.19068556247388771 0.71028988922845504 0 0.2248999640082178 0.72584299459689172 0 0.39536230704883951 0.84069429572832477 0 0.38586766253264881 0.78219501014812498 0 0.42609163930740518 0.80361684430568059 0 0.59999999999999976 0.69999999999999996 0 0.63221990677827677 0.73442891067859706 0 0.59636844454254345 0.75937156204589151 0 0.27866744612395528 0.38416094670951489 0 0.24049127783545701 0.41270748208749802 0 0.22033343844674469 0.36963382230740238 0 0.82709327591091286 0.84937141670920724 0 0.84725310900444062 0.80779732082917555 0 0.88088768115933802 0.84674609810493673 0 0.82709327591102189 0.14937141670914489 0 0.84725310900442086 0.10779732082922661 0 0.88088768115941807 0.14674609810479519 0 0.1650278706801647 0.38791388161335733 0 0.18434624290945251 0.35208838264196463 0 0.22033343844674469 0.36963382230740238 0 0.4409427642593301 0.35743108089689513 0 0.49077833859261139 0.35229981449445641 0 0.46655310992796922 0.39650496622958609 0 0.80185942888539485 0.77452061303608133 0 0.81864958914779962 0.73589050177899629 0 0.85491058998424563 0.76004753345552634 0 0.80185942888501827 0.074520613036224564 0 0.81864958914740749 0.035890501779055867 0 0.85491058998398861 0.060047533455626502 0 0.29999999999926641 0 0 0.34999999999912063 0 0 0.32541448401678508 0.046215317981507749 0 0.35000000000145642 1 0 0.30000000000124832 1 0 0.32544832635163229 0.95485394099568932 0 0.4656888918609538 0.78493261229743638 0 0.50731287292894423 0.78963574450233831 0 0.50627822638148745 0.8263979829520941 0 0.2185883431182947 0.18019736283949719 0 0.25557216766470708 0.15874861286892261 0 0.26429849586623999 0.19346700179430079 0 1 0.29999999999999999 0 1 0.34999999999993492 0 0.95780851984364423 0.34215720972155339 0 1 0.29999999999999999 0 0.95780851984364423 0.34215720972155339 0 0.94999999999999996 0.29999999999999999 0 1 0.69999999999999996 0 0.94999999999999996 0.69999999999999996 0 0.9578014258160763 0.65787212321113708 0 1 0.69999999999999996 0 0.9578014258160763 0.65787212321113708 0 1 0.64999999999986979 0 0.91750694127107502 0.36982372220068471 0 0.90594285160987287 0.4141265964174129 0 0.86844634540301924 0.38530937474099819 0 0.91750694127105259 0.63017627779935648 0 0.87159648282691515 0.61285406320581504 0 0.91143117093204207 0.58709913730335972 0 0.74999999999999989 0.69999999999999996 0 0.7750489929959945 0.66593931409600093 0 0.79999999999999982 0.69999999999999996 0 0.74999999999999989 0.29999999999999999 0 0.79999999999999982 0.29999999999999999 0 0.78145581580700685 0.34881365920033602 0 0.54999999999999993 0.69999999999999996 0 0.57484956128872922 0.66573805030881994 0 0.59999999999999976 0.69999999999999996 0 0.90299850604011456 0.79563452813489832 0 0.94399509803918602 0.75600490196082126 0 0.95386563387742829 0.80414874155775029 0 0.90416666666660628 0.9041666666666166 0 0.95391631417670719 0.89584263333814784 0 0.94399509803919068 0.9439950980391687 0 0.90299850604006393 0.09563452813493091 0 0.94399509803922566 0.056004901960802607 0 0.95386563387744361 0.1041487415577465 0 0.90416666666668166 0.20416666666667119 0 0.95391631417672862 0.19584263333809451 0 0.94399509803921056 0.24399509803922639 0 0.22278230690790279 0.44824268025881547 0 0.19604738184454831 0.47787523520405789 0 0.191953871957803 0.42546416763755879 0 0.90299850604011456 0.79563452813489832 0 0.89999166460796554 0.74528934923809909 0 0.94399509803918602 0.75600490196082126 0 0.90299850604006393 0.09563452813493091 0 0.899991664607802 0.045289349238254978 0 0.94399509803922566 0.056004901960802607 0 0.49102375406324739 0.49123754822244059 0 0.47793794143994173 0.52940715638744962 0 0.43507373378304309 0.49699695397193322 0 0.90416666666660628 0.9041666666666166 0 0.94399509803919068 0.9439950980391687 0 0.89898474358632463 0.95391965591118966 0 0.90416666666668166 0.20416666666667119 0 0.94399509803921056 0.24399509803922639 0 0.89898474358614167 0.25391965591104898 0 0.65394964615507722 0.22666784374016369 0 0.62657463266645097 0.26524202571255862 0 0.59814117807200873 0.23398510860739519 0 0.6084546825910605 0.37989672713932537 0 0.63912439215427275 0.41063340167983359 0 0.57744073070774993 0.41535148636609359 0 0.61209567303293111 0.44669033081290321 0 0.57744073070774993 0.41535148636609359 0 0.63912439215427275 0.41063340167983359 0 0.25676291524611189 0.7436741304886243 0 0.22556077506376701 0.77837424984191617 0 0.2248999640082178 0.72584299459689172 0 0.61343887413683884 0.856862479058357 0 0.60294066490120068 0.80851322453934582 0 0.65005442820240822 0.82644988530054031 0 0.64999999999907843 0 0 0.66369801598854572 0.036327466368102787 0 0.61940220174112337 0.047251958781050582 0 0.40326160981139969 0.73346192995102844 0 0.38586766253264881 0.78219501014812498 0 0.35415581127540569 0.73730480045900215 0 0.33123028043633618 0.77629643437932982 0 0.35415581127540569 0.73730480045900215 0 0.38586766253264881 0.78219501014812498 0 0.26573297623774761 0.59828298563722948 0 0.29110487519241501 0.56588143995431495 0 0.31502927232353312 0.6134992213375432 0 0.77846603114747959 0.49850927265137401 0 0.81441713509985358 0.51161854125224959 0 0.77151014687832564 0.54436834383023036 0 0.82862096804812391 0.55037090955459045 0 0.77151014687832564 0.54436834383023036 0 0.81441713509985358 0.51161854125224959 0 0.50000000000205869 1 0 0.45000000000187229 1 0 0.47135117303824892 0.95556877749289892 0 0.44999999999882923 0 0 0.49999999999869432 0 0 0.47040171442036788 0.044141676406503738 0 0 0.7000000000006934 0 0 0.65000000000104008 0 0.046634677244967337 0.671418230738282 0 0 0.35000000000145642 0 0 0.30000000000124832 0 0.046389130980076937 0.32668781832131749 0 0.31378396441836959 0.70157213313026345 0 0.27820712747429932 0.65530134213254643 0 0.32263089806001177 0.66003674931826484 0 0.33122374654748771 0.57588941099433744 0 0.31502927232353312 0.6134992213375432 0 0.29110487519241501 0.56588143995431495 0 0.26573297623774761 0.59828298563722948 0 0.27820712747429932 0.65530134213254643 0 0.2459498854893499 0.63248470766216769 0 0.14474682429600511 0.85524784522713515 0 0.16206583317966519 0.89685560785156404 0 0.1241151115713819 0.9045666525468371 0 0.14332333627550789 0.14578431753966009 0 0.12372429750337779 0.095814237875728972 0 0.16141998738593399 0.10404039647458049 0 0.64753070846764316 0.77332939069435502 0 0.59636844454254345 0.75937156204589151 0 0.63221990677827677 0.73442891067859706 0 0.14474682429600511 0.85524784522713515 0 0.1241151115713819 0.9045666525468371 0 0.10562472963403439 0.87143394428979881 0 0.14332333627550789 0.14578431753966009 0 0.1053400320299198 0.12877248826361379 0 0.12372429750337779 0.095814237875728972 0 0.77354604466818633 0.40378688774472771 0 0.81308179852519835 0.39754945808726527 0 0.81973119833356312 0.43505687159469048 0 0.54782696902220018 0.79245182748204157 0 0.50945740445113552 0.75476055527778108 0 0.55363780716230748 0.74348740161571747 0 0.2236846579037573 0.67380363126050236 0 0.2459498854893499 0.63248470766216769 0 0.27820712747429932 0.65530134213254643 0 0.77293540622714185 0.59448302402785813 0 0.74994237037456724 0.62775548192980357 0 0.71809016091162536 0.58185040402320831 0 0 0.79999999999999982 0 0 0.75000000000034661 0 0.04408157711937423 0.7728941757575627 0 0 0.25000000000104028 0 0 0.20000000000083221 0 0.044081577119474857 0.2271058242433576 0 0.19999999999955789 0 0 0.24999999999941211 0 0 0.22668068146512929 0.045875643423131329 0 0.25000000000104028 1 0 0.20000000000083221 1 0 0.22850979588452081 0.95594428570238643 0 0.47357141910802508 0.1873585799078378 0 0.44288491854585582 0.14116182884956319 0 0.48466639505193998 0.1421439844745814 0 0.59999999999999976 0.29999999999999999 0 0.5794309697024993 0.27124795968204829 0 0.62657463266645097 0.26524202571255862 0 0.43249999999999988 0.43937499999999979 0 0.42161023666869668 0.39493916313643851 0 0.46655310992796922 0.39650496622958609 0 0.31068898841644388 0.47541502461811092 0 0.33190227185843768 0.52715113583864037 0 0.28307294598219601 0.50789252727458634 0 0.35024835142131061 0.48654922671676981 0 0.33190227185843768 0.52715113583864037 0 0.31068898841644388 0.47541502461811092 0 0.35864735590330371 0.63903383440414463 0 0.36622285152418499 0.69092437780804039 0 0.32263089806001177 0.66003674931826484 0 0.31378396441836959 0.70157213313026345 0 0.32263089806001177 0.66003674931826484 0 0.36622285152418499 0.69092437780804039 0 0.86956835336234861 0.571283299838105 0 0.90900154012161016 0.53607784105648792 0 0.91143117093204207 0.58709913730335972 0 0.6499999999999998 0.29999999999999999 0 0.65481233915350323 0.35652751921065562 0 0.61959173890754571 0.33832250091341232 0 0.4409427642593301 0.35743108089689513 0 0.46226845272279993 0.31901800744800313 0 0.49077833859261139 0.35229981449445641 0 0.5 0.29999999999999999 0 0.49077833859261139 0.35229981449445641 0 0.46226845272279993 0.31901800744800313 0 0.14999999999970359 0 0 0.19999999999955789 0 0 0.184418230509967 0.038773194583122873 0 0.20000000000083221 1 0 0.15000000000062411 1 0 0.18474005699953849 0.96231585248064622 0 1 0.49999999999950101 0 1 0.54999999999963112 0 0.95631871884947484 0.51827533208233789 0 0.38586766253264881 0.78219501014812498 0 0.42676259796334498 0.76772545931379299 0 0.42609163930740518 0.80361684430568059 0 0.20050006573841939 0.53248514016039872 0 0.22549374774072969 0.58452645269293457 0 0.18381867841758909 0.57774125163628387 0 0.065374659239661639 0.8551091961254178 0 0.1074251789111534 0.83564394292147814 0 0.10562472963403439 0.87143394428979881 0 0.065374659239632718 0.1448908038746782 0 0.1053400320299198 0.12877248826361379 0 0.106902708054812 0.16453234188234539 0 0.1650278706801647 0.38791388161335733 0 0.14223753364722069 0.3341983344262433 0 0.18434624290945251 0.35208838264196463 0 0.43249999999999988 0.43937499999999979 0 0.46111841286828259 0.46690301029591341 0 0.43507373378304309 0.49699695397193322 0 0.83758014339878906 0.63222013025741819 0 0.81723410853263523 0.59419663659258926 0 0.87159648282691515 0.61285406320581504 0 0.19670163708476801 0.31472518408333222 0 0.18434624290945251 0.35208838264196463 0 0.14223753364722069 0.3341983344262433 0 0.75000000000034661 1 0 0.7250000000005199 0.94981617647078953 0 0.770759834363826 0.95919399014344442 0 0.74999999999999989 0.29999999999999999 0 0.72500000000000064 0.2498161764706 0 0.77075983436335049 0.25919399014334171 0 0.69999999999999984 0.29999999999999999 0 0.67933712972090698 0.25920070958121938 0 0.72500000000000064 0.2498161764706 0 0.57611405284611883 0.50165903596042916 0 0.53330375813596242 0.50827942741749099 0 0.53823865529665704 0.45873898050322898 0 0.6499999999999998 0.29999999999999999 0 0.68887083591306764 0.33632058575757479 0 0.65481233915350323 0.35652751921065562 0 0.27866744612395528 0.38416094670951489 0 0.33277555741076909 0.36432196682010132 0 0.31778888742534622 0.40581751814196781 0 0.49102375406324739 0.49123754822244059 0 0.43507373378304309 0.49699695397193322 0 0.46111841286828259 0.46690301029591341 0 0.94999999999999996 0.69999999999999996 0 0.97166519676947294 0.73337114490064459 0 0.94399509803918602 0.75600490196082126 0 0.94999999999986839 0 0 0.97166519676946894 0.033371144900598393 0 0.94399509803922566 0.056004901960802607 0 0.94999999999999996 0.29999999999999999 0 0.94399509803921056 0.24399509803922639 0 0.97166519676951801 0.26662885509932011 0 0.94999999999979179 1 0 0.94399509803919068 0.9439950980391687 0 0.97166519676946206 0.96662885509935492 0 0.34258405725730701 0.4444034294386992 0 0.29124338931648802 0.43334555462578611 0 0.31778888742534622 0.40581751814196781 0 0.27866744612395528 0.38416094670951489 0 0.31778888742534622 0.40581751814196781 0 0.29124338931648802 0.43334555462578611 0 0.36575549820117997 0.31677992835137742 0 0.33277555741076909 0.36432196682010132 0 0.32752639306529541 0.32610012995269699 0 0.35752321586431363 0.9185439911803448 0 0.32544832635163229 0.95485394099568932 0 0.30864387279288652 0.89906554525974958 0 0.27609987656793722 0.94991445621608572 0 0.30864387279288652 0.89906554525974958 0 0.32544832635163229 0.95485394099568932 0 0.33123028043633618 0.77629643437932982 0 0.30857225866488791 0.81101973481716805 0 0.2792923945214143 0.77665808831789485 0 0.33758650185219202 0.23837101504325639 0 0.29132859388405002 0.27203693976649962 0 0.28040350263641872 0.23054717217092141 0 0.4409427642593301 0.35743108089689513 0 0.41914690343363781 0.30688979866601612 0 0.46226845272279993 0.31901800744800313 0 0.14332333627550789 0.14578431753966009 0 0.13737030665753211 0.20313708640667491 0 0.106902708054812 0.16453234188234539 0 0.083105206071467416 0.20007701332709979 0 0.106902708054812 0.16453234188234539 0 0.13737030665753211 0.20313708640667491 0 0.083105206071452636 0.79992298667296435 0 0.1382744753146134 0.79650574229207483 0 0.1074251789111534 0.83564394292147814 0 0.14474682429600511 0.85524784522713515 0 0.1074251789111534 0.83564394292147814 0 0.1382744753146134 0.79650574229207483 0 0.65408113592120842 0.073941773121567966 0 0.7010294155333181 0.056779085686491267 0 0.68330259535470161 0.10038702501083881 0 0.72525833953073282 0.1032114801687094 0 0.68330259535470161 0.10038702501083881 0 0.7010294155333181 0.056779085686491267 0 0.049706944316475897 0.72477277076253799 0 0.046634677244967337 0.671418230738282 0 0.1020579365089687 0.69352219419301997 0 0.086179601630648681 0.64647209519980475 0 0.1020579365089687 0.69352219419301997 0 0.046634677244967337 0.671418230738282 0 0.087545339447545459 0.35122518864182262 0 0.046389130980076937 0.32668781832131749 0 0.093851963071650835 0.30582068233324772 0 0.049706944316556423 0.27522722923869108 0 0.093851963071650835 0.30582068233324772 0 0.046389130980076937 0.32668781832131749 0 0.82709327591091286 0.84937141670920724 0 0.80041942726660109 0.81543261647703358 0 0.84725310900444062 0.80779732082917555 0 0.82709327591102189 0.14937141670914489 0 0.80076557130237269 0.1154587552654202 0 0.84725310900442086 0.10779732082922661 0 0.17933913398461551 0.2350063570234002 0 0.14377654328998779 0.2442024734791064 0 0.13737030665753211 0.20313708640667491 0 0.18269480424590959 0.75905448272264375 0 0.1382744753146134 0.79650574229207483 0 0.14335651144331049 0.75565258250209677 0 0.33758650185219202 0.23837101504325639 0 0.3786248352540974 0.27082301512024259 0 0.33402499257867951 0.28911035184473982 0 0.14332333627550789 0.14578431753966009 0 0.18124454140915969 0.18790916706335251 0 0.13737030665753211 0.20313708640667491 0 0.14474682429600511 0.85524784522713515 0 0.1382744753146134 0.79650574229207483 0 0.17777405986036951 0.81832336108265358 0 0.5 0.29999999999999999 0 0.52752007115234678 0.33170632466418198 0 0.49077833859261139 0.35229981449445641 0 0.27866744612395528 0.38416094670951489 0 0.29644548887253103 0.34914008784168082 0 0.33277555741076909 0.36432196682010132 0 0 0.84999999999965292 0 0 0.79999999999999982 0 0.038512288486097702 0.8155852717111195 0 0 0.20000000000083221 0 0 0.15000000000062411 0 0.038512288486115001 0.1844147282893184 0 0.40326160981139969 0.73346192995102844 0 0.35415581127540569 0.73730480045900215 0 0.36622285152418499 0.69092437780804039 0 0.91696753777131557 0.497780560203536 0 0.96228564064454991 0.48206450662049471 0 0.95631871884947484 0.51827533208233789 0 0.33758650185219202 0.23837101504325639 0 0.31255190597181792 0.19850845631528771 0 0.3572130504031617 0.1874703368446563 0 0.59814117807200873 0.23398510860739519 0 0.62657463266645097 0.26524202571255862 0 0.5794309697024993 0.27124795968204829 0 0.34258405725730701 0.4444034294386992 0 0.31068898841644388 0.47541502461811092 0 0.29124338931648802 0.43334555462578611 0 0.38083244760691543 0.38531983672244652 0 0.35221190152536241 0.40457127605439203 0 0.33277555741076909 0.36432196682010132 0 0.083411279318375747 0.91030024466934134 0 0.10266856499240549 0.95548163909968886 0 0.053064897599294662 0.95186845269532028 0 0.083411279318303222 0.089699755330707398 0 0.053064897599215843 0.048131547304697528 0 0.10266856499169109 0.044518360900210059 0 0.42377727103934271 0.25099357235810238 0 0.4604742573284204 0.27846934318264788 0 0.41914690343363781 0.30688979866601612 0 0.28307294598219601 0.50789252727458634 0 0.25982634974572738 0.46097799597715272 0 0.31068898841644388 0.47541502461811092 0 0.29348325746214782 0.31350119524708198 0 0.29132859388405002 0.27203693976649962 0 0.33402499257867951 0.28911035184473982 0 0.35312867752657662 0.084946736076730367 0 0.39823268594401579 0.1116623613130045 0 0.36246644853392812 0.1399454205365751 0 0.7000000000006934 1 0 0.68015064798562208 0.95924320340003011 0 0.7250000000005199 0.94981617647078953 0 0.42377727103934271 0.25099357235810238 0 0.38831533174504851 0.2189834941785925 0 0.42905200079338551 0.19982395548231649 0 0.53823865529665704 0.45873898050322898 0 0.57744073070774993 0.41535148636609359 0 0.57975577671020095 0.46172033326338591 0 0.33758650185219202 0.23837101504325639 0 0.3572130504031617 0.1874703368446563 0 0.38831533174504851 0.2189834941785925 0 0.29124338931648802 0.43334555462578611 0 0.31068898841644388 0.47541502461811092 0 0.25982634974572738 0.46097799597715272 0 0.6084546825910605 0.37989672713932537 0 0.61959173890754571 0.33832250091341232 0 0.65481233915350323 0.35652751921065562 0 0.40326160981139969 0.73346192995102844 0 0.43323420005758778 0.6913544522562407 0 0.45582236402875981 0.73896743678908217 0 0.33758650185219202 0.23837101504325639 0 0.28040350263641872 0.23054717217092141 0 0.31255190597181792 0.19850845631528771 0 0.79999999999999982 1 0 0.75000000000034661 1 0 0.770759834363826 0.95919399014344442 0 0.74999999999999989 0.29999999999999999 0 0.77075983436335049 0.25919399014334171 0 0.79999999999999982 0.29999999999999999 0 0.6499999999999998 0.29999999999999999 0 0.67933712972090698 0.25920070958121938 0 0.69999999999999984 0.29999999999999999 0 0.39536230704883951 0.84069429572832477 0 0.39767323751400468 0.89584229130535065 0 0.35864759629805099 0.87963482415279515 0 0.54999999999999993 0.69999999999999996 0 0.52584555706968406 0.66664215091846768 0 0.57484956128872922 0.66573805030881994 0 0.35312867752657662 0.084946736076730367 0 0.32541448401678508 0.046215317981507749 0 0.3615861437013822 0.03582617922508851 0 0.35752321586431363 0.9185439911803448 0 0.36184234618600131 0.96443954459096326 0 0.32544832635163229 0.95485394099568932 0 0.35312867752657662 0.084946736076730367 0 0.3615861437013822 0.03582617922508851 0 0.39591832466117061 0.056982757562006353 0 0.35752321586431363 0.9185439911803448 0 0.39641108128798319 0.94356127926187128 0 0.36184234618600131 0.96443954459096326 0 0.083411279318303222 0.089699755330707398 0 0.044310582753132287 0.101412518374475 0 0.053064897599215843 0.048131547304697528 0 0.083411279318375747 0.91030024466934134 0 0.053064897599294662 0.95186845269532028 0 0.0443105827531413 0.89858748162559932 0 0.38083244760691543 0.38531983672244652 0 0.40076539126862748 0.34589349467022118 0 0.42161023666869668 0.39493916313643851 0 0.4409427642593301 0.35743108089689513 0 0.42161023666869668 0.39493916313643851 0 0.40076539126862748 0.34589349467022118 0 0.79999999999999982 0.29999999999999999 0 0.82500000000000062 0.33010209762754811 0 0.78145581580700685 0.34881365920033602 0 0.79999999999999982 0.69999999999999996 0 0.7750489929959945 0.66593931409600093 0 0.82457059160610424 0.66831947184359608 0 0.59999999999999976 0.69999999999999996 0 0.57484956128872922 0.66573805030881994 0 0.62460753523532009 0.66851202781000296 0 0.74999999999999989 0.69999999999999996 0 0.72500000000000064 0.67022701834392062 0 0.7750489929959945 0.66593931409600093 0 0.74999999999999989 0.29999999999999999 0 0.78145581580700685 0.34881365920033602 0 0.73090396928863699 0.33699297293167962 0 0.33758650185219202 0.23837101504325639 0 0.33402499257867951 0.28911035184473982 0 0.29132859388405002 0.27203693976649962 0 0.36575549820117997 0.31677992835137742 0 0.41914690343363781 0.30688979866601612 0 0.40076539126862748 0.34589349467022118 0 0.4409427642593301 0.35743108089689513 0 0.40076539126862748 0.34589349467022118 0 0.41914690343363781 0.30688979866601612 0 0.34258405725730701 0.4444034294386992 0 0.38707855792647411 0.42299362914874578 0 0.3908716102680424 0.47010282357248828 0 0.7000000000006934 1 0 0.65000000000104008 1 0 0.68015064798562208 0.95924320340003011 0 0.49102375406324739 0.49123754822244059 0 0.46111841286828259 0.46690301029591341 0 0.48858720058566618 0.43964267759203868 0 0.4656888918609538 0.78493261229743638 0 0.42676259796334498 0.76772545931379299 0 0.45582236402875981 0.73896743678908217 0 0.40326160981139969 0.73346192995102844 0 0.45582236402875981 0.73896743678908217 0 0.42676259796334498 0.76772545931379299 0 0.59999999999999976 0.29999999999999999 0 0.62657463266645097 0.26524202571255862 0 0.6499999999999998 0.29999999999999999 0 0.40000000000166441 1 0 0.36184234618600131 0.96443954459096326 0 0.39641108128798319 0.94356127926187128 0 0.3999999999989749 0 0 0.39591832466117061 0.056982757562006353 0 0.3615861437013822 0.03582617922508851 0 0.43249999999999988 0.43937499999999979 0 0.48858720058566618 0.43964267759203868 0 0.46111841286828259 0.46690301029591341 0 0.7250000000005199 0.89375000000045834 0 0.7250000000005199 0.94981617647078953 0 0.68987011941058407 0.92105047536677087 0 0.7250000000005199 0.89375000000045834 0 0.75729602384198635 0.92353652857884294 0 0.7250000000005199 0.94981617647078953 0 0.72500000000001008 0.19776155966387679 0 0.75668890529066124 0.2244279804069782 0 0.72500000000000064 0.2498161764706 0 0.72500000000001008 0.19776155966387679 0 0.72500000000000064 0.2498161764706 0 0.69397719155551807 0.2245125647000914 0 0.79999999999999982 0.29999999999999999 0 0.81486180804364938 0.26321394949780091 0 0.84999999999999987 0.29999999999999999 0 0.84999999999965292 1 0 0.79999999999999982 1 0 0.81486180804382891 0.96321394949790495 0 0.1247745017231483 0.27198077544791172 0 0.095326043202144745 0.24554465089224409 0 0.14377654328998779 0.2442024734791064 0 0.1215415378367805 0.72939333680004137 0 0.14335651144331049 0.75565258250209677 0 0.090953281884486245 0.7564451946902494 0 0.72500000000001008 0.19776155966387679 0 0.72634814642510737 0.16106886917518889 0 0.76587607630038135 0.18880039518954719 0 0.72500000000001008 0.19776155966387679 0 0.6865991819015953 0.189116534044597 0 0.72634814642510737 0.16106886917518889 0 0.77144070960558853 0.14311854477243749 0 0.76587607630038135 0.18880039518954719 0 0.72634814642510737 0.16106886917518889 0 0.68391457121233579 0.14440470121196541 0 0.72634814642510737 0.16106886917518889 0 0.6865991819015953 0.189116534044597 0 0.7250000000005199 0.89375000000045834 0 0.72863726579783861 0.85390518901155588 0 0.76891166905518427 0.88835469571185499 0 0.76901770135486491 0.84293557325473656 0 0.76891166905518427 0.88835469571185499 0 0.72863726579783861 0.85390518901155588 0 0 0.20000000000083221 0 0.038512288486115001 0.1844147282893184 0 0.044081577119474857 0.2271058242433576 0 0 0.79999999999999982 0 0.04408157711937423 0.7728941757575627 0 0.038512288486097702 0.8155852717111195 0 0.52375890611712683 0.059318771819432882 0 0.47881186583059909 0.093591717165689425 0 0.47040171442036788 0.044141676406503738 0 0.52122150208832174 0.94089974453840242 0 0.47135117303824892 0.95556877749289892 0 0.47401147028110507 0.91529957330468115 0 0.27474541102162192 0.11822029332053539 0 0.3096713403101819 0.085471541595262421 0 0.32215584939770009 0.1218492143506909 0 0.22278230690790279 0.44824268025881547 0 0.24049127783545701 0.41270748208749802 0 0.25982634974572738 0.46097799597715272 0 0.93732437411268477 0.55911392101136159 0 0.91143117093204207 0.58709913730335972 0 0.90900154012161016 0.53607784105648792 0 0.19901705110390991 0.9175543425573498 0 0.24536017905392571 0.90704567837671446 0 0.22850979588452081 0.95594428570238643 0 0.27609987656793722 0.94991445621608572 0 0.22850979588452081 0.95594428570238643 0 0.24536017905392571 0.90704567837671446 0 0.15720202157091859 0.60665697304410315 0 0.1241190223511371 0.64391885572885044 0 0.1024350934457823 0.60772393977513839 0 0.6499999999999998 0.69999999999999996 0 0.675261390228442 0.65996937624687813 0 0.69999999999999984 0.69999999999999996 0 0.3999999999989749 0 0 0.4320097814748517 0.037406712692169303 0 0.39591832466117061 0.056982757562006353 0 0.40000000000166441 1 0 0.39641108128798319 0.94356127926187128 0 0.4308986359464303 0.96395712492906194 0 0.54999999999999993 0.29999999999999999 0 0.56836770495988642 0.3523062350852913 0 0.52752007115234678 0.33170632466418198 0 0.14474682429600511 0.85524784522713515 0 0.17777405986036951 0.81832336108265358 0 0.19741632902693801 0.86755867406447229 0 0.21858834311891909 0.81980263716112767 0 0.19741632902693801 0.86755867406447229 0 0.17777405986036951 0.81832336108265358 0 0.54782696902220018 0.79245182748204157 0 0.50731287292894423 0.78963574450233831 0 0.50945740445113552 0.75476055527778108 0 0.20000000000083221 1 0 0.18474005699953849 0.96231585248064622 0 0.22850979588452081 0.95594428570238643 0 0.19999999999955789 0 0 0.22668068146512929 0.045875643423131329 0 0.184418230509967 0.038773194583122873 0 0.77846603114747959 0.49850927265137401 0 0.73947346780852752 0.49062440112282169 0 0.77972660463949339 0.45529290596363098 0 0.73483647259922602 0.44789725365921768 0 0.77972660463949339 0.45529290596363098 0 0.73947346780852752 0.49062440112282169 0 0.34258405725730701 0.4444034294386992 0 0.35024835142131061 0.48654922671676981 0 0.31068898841644388 0.47541502461811092 0 0.33123028043633618 0.77629643437932982 0 0.2792923945214143 0.77665808831789485 0 0.29904318922293632 0.74132814928635593 0 0.26573297623774761 0.59828298563722948 0 0.25115337790845271 0.54719303014923271 0 0.29110487519241501 0.56588143995431495 0 0.4656888918609538 0.78493261229743638 0 0.50945740445113552 0.75476055527778108 0 0.50731287292894423 0.78963574450233831 0 0.35312867752657662 0.084946736076730367 0 0.36246644853392812 0.1399454205365751 0 0.32215584939770009 0.1218492143506909 0 0.29348325746214782 0.31350119524708198 0 0.25966125648670141 0.34351016742083729 0 0.24432083401701241 0.3006253385567515 0 0.59999999999999976 0.69999999999999996 0 0.6499999999999998 0.69999999999999996 0 0.63221990677827677 0.73442891067859706 0 0.69999999999921003 0 0 0.7010294155333181 0.056779085686491267 0 0.66369801598854572 0.036327466368102787 0 0.40000000000166441 1 0 0.35000000000145642 1 0 0.36184234618600131 0.96443954459096326 0 0.34999999999912063 0 0 0.3999999999989749 0 0 0.3615861437013822 0.03582617922508851 0 0.43507373378304309 0.49699695397193322 0 0.47793794143994173 0.52940715638744962 0 0.42644501560315817 0.54603747078095544 0 0.14474682429600511 0.85524784522713515 0 0.19741632902693801 0.86755867406447229 0 0.16206583317966519 0.89685560785156404 0 0.19901705110390991 0.9175543425573498 0 0.16206583317966519 0.89685560785156404 0 0.19741632902693801 0.86755867406447229 0 0.35864735590330371 0.63903383440414463 0 0.3977710372045391 0.65868194622830212 0 0.36622285152418499 0.69092437780804039 0 0.7527966693318906 0.053051678021508272 0 0.7010294155333181 0.056779085686491267 0 0.72683645290270404 0.027797073151180601 0 0.71508799138962864 0.36622814920737751 0 0.72622533758026719 0.40265885511101601 0 0.68128176404677243 0.38629093627004979 0 0.79999999999999982 0.69999999999999996 0 0.84999999999999987 0.69999999999999996 0 0.81864958914779962 0.73589050177899629 0 0.79999999999947335 0 0 0.84999999999960507 0 0 0.81864958914740749 0.035890501779055867 0 0.39536230704883951 0.84069429572832477 0 0.35642984951668422 0.80994399665655703 0 0.38586766253264881 0.78219501014812498 0 0.42377727103934271 0.25099357235810238 0 0.46429753744194407 0.22870891180733599 0 0.4604742573284204 0.27846934318264788 0 0.39801143831225599 0.16651381068160659 0 0.42905200079338551 0.19982395548231649 0 0.38831533174504851 0.2189834941785925 0 0.79999999999999982 1 0 0.770759834363826 0.95919399014344442 0 0.81486180804382891 0.96321394949790495 0 0.79999999999999982 0.29999999999999999 0 0.77075983436335049 0.25919399014334171 0 0.81486180804364938 0.26321394949780091 0 0.25195515620380449 0.25883339815888678 0 0.21049769590865089 0.26857363548218488 0 0.224700362040408 0.22206622194729711 0 0.40326160981139969 0.73346192995102844 0 0.42676259796334498 0.76772545931379299 0 0.38586766253264881 0.78219501014812498 0 0.35312867752657662 0.084946736076730367 0 0.3096713403101819 0.085471541595262421 0 0.32541448401678508 0.046215317981507749 0 0.59999999999999976 0.29999999999999999 0 0.6499999999999998 0.29999999999999999 0 0.61959173890754571 0.33832250091341232 0 0.2185883431182947 0.18019736283949719 0 0.18652628422869419 0.14162325200928061 0 0.22985637510995899 0.1298347970200906 0 0.64999999999907843 0 0 0.69999999999921003 0 0 0.66369801598854572 0.036327466368102787 0 0.27499999999933927 0.060310814194988557 0 0.24218496799700481 0.089025544070598317 0 0.22668068146512929 0.045875643423131329 0 0.19922788606653311 0.085920220746880993 0 0.22668068146512929 0.045875643423131329 0 0.24218496799700481 0.089025544070598317 0 0.65507451745379841 0.92229208810758578 0 0.66412543161245952 0.88015090885499059 0 0.68987011941058407 0.92105047536677087 0 0.049706944316475897 0.72477277076253799 0 0.090953281884486245 0.7564451946902494 0 0.04408157711937423 0.7728941757575627 0 0.083105206071452636 0.79992298667296435 0 0.04408157711937423 0.7728941757575627 0 0.090953281884486245 0.7564451946902494 0 0.083105206071467416 0.20007701332709979 0 0.095326043202144745 0.24554465089224409 0 0.044081577119474857 0.2271058242433576 0 0.049706944316556423 0.27522722923869108 0 0.044081577119474857 0.2271058242433576 0 0.095326043202144745 0.24554465089224409 0 0.36575549820117997 0.31677992835137742 0 0.33402499257867951 0.28911035184473982 0 0.3786248352540974 0.27082301512024259 0 0.53245488764484505 0.55078124999999989 0 0.53330375813596242 0.50827942741749099 0 0.57435499076887508 0.54267261987897775 0 0.57611405284611883 0.50165903596042916 0 0.57435499076887508 0.54267261987897775 0 0.53330375813596242 0.50827942741749099 0 0.6499999999999998 0.29999999999999999 0 0.69999999999999984 0.29999999999999999 0 0.68887083591306764 0.33632058575757479 0 0.57611405284611883 0.50165903596042916 0 0.53823865529665704 0.45873898050322898 0 0.57975577671020095 0.46172033326338591 0 0.7750489929959945 0.66593931409600093 0 0.72500000000000064 0.67022701834392062 0 0.74994237037456724 0.62775548192980357 0 0.78145581580700685 0.34881365920033602 0 0.74764719760526988 0.3719647154012321 0 0.73090396928863699 0.33699297293167962 0 0.3999999999989749 0 0 0.44999999999882923 0 0 0.4320097814748517 0.037406712692169303 0 0.45000000000187229 1 0 0.40000000000166441 1 0 0.4308986359464303 0.96395712492906194 0 0.57484956128872922 0.66573805030881994 0 0.5991018319127801 0.62925360607495295 0 0.62460753523532009 0.66851202781000296 0 0.7750489929959945 0.66593931409600093 0 0.79884539758237771 0.62875045078114233 0 0.82457059160610424 0.66831947184359608 0 0.39801143831225599 0.16651381068160659 0 0.36246644853392812 0.1399454205365751 0 0.39823268594401579 0.1116623613130045 0 0.078358742472063481 0.43365249433908948 0 0.033550201249889847 0.46247875832467239 0 0.035463093262830522 0.42673416072819947 0 0.25676291524611189 0.7436741304886243 0 0.2792923945214143 0.77665808831789485 0 0.22556077506376701 0.77837424984191617 0 0.2236846579037573 0.67380363126050236 0 0.2248999640082178 0.72584299459689172 0 0.19068556247388771 0.71028988922845504 0 0.50715858906372158 0.63295939104129484 0 0.5166924242153631 0.59825134841919447 0 0.5498280205245758 0.6290146943450976 0 0.14618258501891079 0.062070108745602003 0 0.12372429750337779 0.095814237875728972 0 0.10266856499169109 0.044518360900210059 0 0.083411279318303222 0.089699755330707398 0 0.10266856499169109 0.044518360900210059 0 0.12372429750337779 0.095814237875728972 0 0.083411279318375747 0.91030024466934134 0 0.1241151115713819 0.9045666525468371 0 0.10266856499240549 0.95548163909968886 0 0.14617343800780541 0.93808063414349496 0 0.10266856499240549 0.95548163909968886 0 0.1241151115713819 0.9045666525468371 0 0.5499999999988151 0 0 0.59999999999894682 0 0 0.57396793757665954 0.037011367187645222 0 0.54782696902220018 0.79245182748204157 0 0.50627822638148745 0.8263979829520941 0 0.50731287292894423 0.78963574450233831 0 0.6499999999999998 0.29999999999999999 0 0.62657463266645097 0.26524202571255862 0 0.67933712972090698 0.25920070958121938 0 0.86956835336234861 0.571283299838105 0 0.86907294890112186 0.52008116128001669 0 0.90900154012161016 0.53607784105648792 0 0.17933913398461551 0.2350063570234002 0 0.224700362040408 0.22206622194729711 0 0.21049769590865089 0.26857363548218488 0 0.43249999999999988 0.43937499999999979 0 0.3908716102680424 0.47010282357248828 0 0.38707855792647411 0.42299362914874578 0 0.27474541102162192 0.11822029332053539 0 0.22985637510995899 0.1298347970200906 0 0.24218496799700481 0.089025544070598317 0 0.64753070846764316 0.77332939069435502 0 0.66427993341343905 0.73232764502436276 0 0.6916490518212759 0.75387992374886192 0 0 0.40000000000166441 0 0.050583896093752537 0.38543522283434112 0 0.035463093262830522 0.42673416072819947 0 0.73483647259922602 0.44789725365921768 0 0.73947346780852752 0.49062440112282169 0 0.69385896817107129 0.48377516041410151 0 0.57484956128872922 0.66573805030881994 0 0.52584555706968406 0.66664215091846768 0 0.5498280205245758 0.6290146943450976 0 0.60000000000138687 1 0 0.55000000000173355 1 0 0.57382506491224949 0.9629411906298494 0 0.068743045408989428 0.48853989837882689 0 0.085622222639554768 0.53333248912060549 0 0.044576108720083309 0.53509043209532614 0 0.083105206071467416 0.20007701332709979 0 0.044081577119474857 0.2271058242433576 0 0.038512288486115001 0.1844147282893184 0 0.083105206071452636 0.79992298667296435 0 0.038512288486097702 0.8155852717111195 0 0.04408157711937423 0.7728941757575627 0 0.28307294598219601 0.50789252727458634 0 0.23975172658309729 0.49475499200540818 0 0.25982634974572738 0.46097799597715272 0 0.43698630808430822 0.080423614171545449 0 0.39591832466117061 0.056982757562006353 0 0.4320097814748517 0.037406712692169303 0 0.4367309254023824 0.92065556789053882 0 0.4308986359464303 0.96395712492906194 0 0.39641108128798319 0.94356127926187128 0 0.80185942888539485 0.77452061303608133 0 0.75841349681148107 0.75422312624214749 0 0.78578450296893509 0.73292684821144505 0 0.80185942888501827 0.074520613036224564 0 0.7527966693318906 0.053051678021508272 0 0.78393852574753176 0.032039079577822822 0 0.6499999999999998 0.69999999999999996 0 0.62460753523532009 0.66851202781000296 0 0.675261390228442 0.65996937624687813 0 0.33123028043633618 0.77629643437932982 0 0.38586766253264881 0.78219501014812498 0 0.35642984951668422 0.80994399665655703 0 0.6405463747586706 0.63290524857395714 0 0.675261390228442 0.65996937624687813 0 0.62460753523532009 0.66851202781000296 0 0.22278230690790279 0.44824268025881547 0 0.191953871957803 0.42546416763755879 0 0.24049127783545701 0.41270748208749802 0 0.077693244765132896 0.56932317963405099 0 0.050069554451969707 0.61308520079857043 0 0.034381862692950467 0.57372682250960894 0 0.25195515620380449 0.25883339815888678 0 0.24432083401701241 0.3006253385567515 0 0.21049769590865089 0.26857363548218488 0 0.46666084890304671 0.57634471035397938 0 0.5166924242153631 0.59825134841919447 0 0.47095389620662098 0.61892551373708504 0 0.50715858906372158 0.63295939104129484 0 0.47095389620662098 0.61892551373708504 0 0.5166924242153631 0.59825134841919447 0 0.72525833953073282 0.1032114801687094 0 0.7527966693318906 0.053051678021508272 0 0.76878382444651716 0.097147941686331368 0 0.80185942888501827 0.074520613036224564 0 0.76878382444651716 0.097147941686331368 0 0.7527966693318906 0.053051678021508272 0 0.72500000000000064 0.7952620967744265 0 0.75841349681148107 0.75422312624214749 0 0.77094201086366854 0.79647480515688507 0 0.80185942888539485 0.77452061303608133 0 0.77094201086366854 0.79647480515688507 0 0.75841349681148107 0.75422312624214749 0 0.72500000000000064 0.7952620967744265 0 0.68024162096458085 0.79868546898116533 0 0.6916490518212759 0.75387992374886192 0 0.64753070846764316 0.77332939069435502 0 0.6916490518212759 0.75387992374886192 0 0.68024162096458085 0.79868546898116533 0 0 0.50000000000205869 0 0 0.45000000000187229 0 0.033550201249889847 0.46247875832467239 0 0.69999999999999984 0.69999999999999996 0 0.675261390228442 0.65996937624687813 0 0.72500000000000064 0.67022701834392062 0 0.71406021706547751 0.63292083137662503 0 0.72500000000000064 0.67022701834392062 0 0.675261390228442 0.65996937624687813 0 0.65408113592120842 0.073941773121567966 0 0.61940220174112337 0.047251958781050582 0 0.66369801598854572 0.036327466368102787 0 0.59999999999894682 0 0 0.61940220174112337 0.047251958781050582 0 0.57396793757665954 0.037011367187645222 0 0.60000000000138687 1 0 0.57382506491224949 0.9629411906298494 0 0.62065498684670595 0.95224934003983619 0 0.33122374654748771 0.57588941099433744 0 0.35765792684946668 0.6000687869219653 0 0.31502927232353312 0.6134992213375432 0 0.35864735590330371 0.63903383440414463 0 0.31502927232353312 0.6134992213375432 0 0.35765792684946668 0.6000687869219653 0 0.15801167086041079 0.46008690540259539 0 0.19604738184454831 0.47787523520405789 0 0.16618607197337229 0.50652878253548905 0 0.078358742472063481 0.43365249433908948 0 0.035463093262830522 0.42673416072819947 0 0.050583896093752537 0.38543522283434112 0 0.19901705110390991 0.9175543425573498 0 0.22850979588452081 0.95594428570238643 0 0.18474005699953849 0.96231585248064622 0 0.19922788606653311 0.085920220746880993 0 0.184418230509967 0.038773194583122873 0 0.22668068146512929 0.045875643423131329 0 0.19922788606653311 0.085920220746880993 0 0.24218496799700481 0.089025544070598317 0 0.22985637510995899 0.1298347970200906 0 0.74999999999999989 0.69999999999999996 0 0.78578450296893509 0.73292684821144505 0 0.75841349681148107 0.75422312624214749 0 0.74999999999934175 0 0 0.78393852574753176 0.032039079577822822 0 0.7527966693318906 0.053051678021508272 0 0 0.60000000000138687 0 0.034381862692950467 0.57372682250960894 0 0.050069554451969707 0.61308520079857043 0 0.2236846579037573 0.67380363126050236 0 0.26439878998046262 0.7048065392091396 0 0.2248999640082178 0.72584299459689172 0 0.6236733212988993 0.14864538214901801 0 0.58516465772821369 0.11653801664834119 0 0.61956000905586006 0.1043312481793135 0 0.26104540868854792 0.81401944968719064 0 0.2792923945214143 0.77665808831789485 0 0.30857225866488791 0.81101973481716805 0 0.42377727103934271 0.25099357235810238 0 0.42905200079338551 0.19982395548231649 0 0.46429753744194407 0.22870891180733599 0 0.27820712747429932 0.65530134213254643 0 0.31502927232353312 0.6134992213375432 0 0.32263089806001177 0.66003674931826484 0 0.61343887413683884 0.856862479058357 0 0.61885627562261258 0.90282959257498208 0 0.5832743223239254 0.88483152652961872 0 0.43698630808430822 0.080423614171545449 0 0.47040171442036788 0.044141676406503738 0 0.47881186583059909 0.093591717165689425 0 0.4367309254023824 0.92065556789053882 0 0.47401147028110507 0.91529957330468115 0 0.47135117303824892 0.95556877749289892 0 0.91696753777131557 0.497780560203536 0 0.95631871884947484 0.51827533208233789 0 0.90900154012161016 0.53607784105648792 0 0.93732437411268477 0.55911392101136159 0 0.90900154012161016 0.53607784105648792 0 0.95631871884947484 0.51827533208233789 0 0.27474541102162192 0.11822029332053539 0 0.25557216766470708 0.15874861286892261 0 0.22985637510995899 0.1298347970200906 0 0.2185883431182947 0.18019736283949719 0 0.22985637510995899 0.1298347970200906 0 0.25557216766470708 0.15874861286892261 0 0.29348325746214782 0.31350119524708198 0 0.33402499257867951 0.28911035184473982 0 0.32752639306529541 0.32610012995269699 0 0.27499999999933927 0.060310814194988557 0 0.32541448401678508 0.046215317981507749 0 0.3096713403101819 0.085471541595262421 0 0.27270076654418179 0.87751467830216623 0 0.24536017905392571 0.90704567837671446 0 0.2401283238295133 0.85648409884788523 0 1 0.44999999999963131 0 1 0.49999999999950101 0 0.96228564064454991 0.48206450662049471 0 0.61343887413683884 0.856862479058357 0 0.66412543161245952 0.88015090885499059 0 0.61885627562261258 0.90282959257498208 0 0 0.45000000000187229 0 0 0.40000000000166441 0 0.035463093262830522 0.42673416072819947 0 0.69999999999999984 0.69999999999999996 0 0.6916490518212759 0.75387992374886192 0 0.66427993341343905 0.73232764502436276 0 0.43846182030517877 0.64845797726506715 0 0.43323420005758778 0.6913544522562407 0 0.3977710372045391 0.65868194622830212 0 0.4367309254023824 0.92065556789053882 0 0.44003836461056539 0.88093474584252718 0 0.47401147028110507 0.91529957330468115 0 0.43846182030517877 0.64845797726506715 0 0.39743091024207589 0.6239520004230239 0 0.43545892161006339 0.61093128915313821 0 0.43846182030517877 0.64845797726506715 0 0.3977710372045391 0.65868194622830212 0 0.39743091024207589 0.6239520004230239 0 0.26429849586623999 0.19346700179430079 0 0.29336099386129338 0.15892013001050981 0 0.31255190597181792 0.19850845631528771 0 0.19670163708476801 0.31472518408333222 0 0.21049769590865089 0.26857363548218488 0 0.24432083401701241 0.3006253385567515 0 0.57724883562309992 0.92155686857100794 0 0.62065498684670595 0.95224934003983619 0 0.57382506491224949 0.9629411906298494 0 0.4409427642593301 0.35743108089689513 0 0.46655310992796922 0.39650496622958609 0 0.42161023666869668 0.39493916313643851 0 0.46666084890304671 0.57634471035397938 0 0.47095389620662098 0.61892551373708504 0 0.43545892161006339 0.61093128915313821 0 0.6879972333610942 0.43038561374960838 0 0.65178832218679827 0.45929119821019959 0 0.63912439215427275 0.41063340167983359 0 0.43698630808430822 0.080423614171545449 0 0.4320097814748517 0.037406712692169303 0 0.47040171442036788 0.044141676406503738 0 0.4367309254023824 0.92065556789053882 0 0.47135117303824892 0.95556877749289892 0 0.4308986359464303 0.96395712492906194 0 0.79680861578988083 0.92656778056766709 0 0.81486180804382891 0.96321394949790495 0 0.770759834363826 0.95919399014344442 0 0.79680861578956375 0.22656778056752541 0 0.81486180804364938 0.26321394949780091 0 0.77075983436335049 0.25919399014334171 0 0.71508799138962864 0.36622814920737751 0 0.68128176404677243 0.38629093627004979 0 0.68887083591306764 0.33632058575757479 0 0.35864735590330371 0.63903383440414463 0 0.32263089806001177 0.66003674931826484 0 0.31502927232353312 0.6134992213375432 0 0.21858834311891909 0.81980263716112767 0 0.2401283238295133 0.85648409884788523 0 0.19741632902693801 0.86755867406447229 0 0.35312867752657662 0.084946736076730367 0 0.32215584939770009 0.1218492143506909 0 0.3096713403101819 0.085471541595262421 0 0.35752321586431363 0.9185439911803448 0 0.35864759629805099 0.87963482415279515 0 0.39767323751400468 0.89584229130535065 0 0.41914690343363781 0.30688979866601612 0 0.4604742573284204 0.27846934318264788 0 0.46226845272279993 0.31901800744800313 0 0.33084213324567391 0.16272720141332131 0 0.32215584939770009 0.1218492143506909 0 0.36246644853392812 0.1399454205365751 0 0.46666084890304671 0.57634471035397938 0 0.42644501560315817 0.54603747078095544 0 0.47793794143994173 0.52940715638744962 0 0 0.60000000000138687 0 0 0.55000000000173355 0 0.034381862692950467 0.57372682250960894 0 0.77354604466818633 0.40378688774472771 0 0.74764719760526988 0.3719647154012321 0 0.78145581580700685 0.34881365920033602 0 0.34999999999912063 0 0 0.3615861437013822 0.03582617922508851 0 0.32541448401678508 0.046215317981507749 0 0.35000000000145642 1 0 0.32544832635163229 0.95485394099568932 0 0.36184234618600131 0.96443954459096326 0 0.57667858002728545 0.078486105337742612 0 0.57396793757665954 0.037011367187645222 0 0.61940220174112337 0.047251958781050582 0 0.47357141910802508 0.1873585799078378 0 0.50760557329222289 0.20700468884612061 0 0.46429753744194407 0.22870891180733599 0 0.49695729691142171 0.25014895411178018 0 0.46429753744194407 0.22870891180733599 0 0.50760557329222289 0.20700468884612061 0 0.33084213324567391 0.16272720141332131 0 0.3572130504031617 0.1874703368446563 0 0.31255190597181792 0.19850845631528771 0 0.6879972333610942 0.43038561374960838 0 0.63912439215427275 0.41063340167983359 0 0.68128176404677243 0.38629093627004979 0 0.65408113592120842 0.073941773121567966 0 0.65290632656860115 0.11434202593454081 0 0.61956000905586006 0.1043312481793135 0 0.33084213324567391 0.16272720141332131 0 0.31255190597181792 0.19850845631528771 0 0.29336099386129338 0.15892013001050981 0 0.61209567303293111 0.44669033081290321 0 0.63912439215427275 0.41063340167983359 0 0.65178832218679827 0.45929119821019959 0 0.086179601630648681 0.64647209519980475 0 0.1024350934457823 0.60772393977513839 0 0.1241190223511371 0.64391885572885044 0 0.44999999999882923 0 0 0.47040171442036788 0.044141676406503738 0 0.4320097814748517 0.037406712692169303 0 0.45000000000187229 1 0 0.4308986359464303 0.96395712492906194 0 0.47135117303824892 0.95556877749289892 0 0.74999999999934175 0 0 0.7527966693318906 0.053051678021508272 0 0.72683645290270404 0.027797073151180601 0 0.74999999999999989 0.69999999999999996 0 0.75841349681148107 0.75422312624214749 0 0.72501250972655151 0.74067302935308721 0 0.69999999999999984 0.69999999999999996 0 0.72501250972655151 0.74067302935308721 0 0.6916490518212759 0.75387992374886192 0 0.74999999999934175 0 0 0.79999999999947335 0 0 0.78393852574753176 0.032039079577822822 0 0.74999999999999989 0.69999999999999996 0 0.79999999999999982 0.69999999999999996 0 0.78578450296893509 0.73292684821144505 0 0.6405463747586706 0.63290524857395714 0 0.5991018319127801 0.62925360607495295 0 0.63065402604362242 0.59661356661633302 0 0.65481233915350323 0.35652751921065562 0 0.68887083591306764 0.33632058575757479 0 0.68128176404677243 0.38629093627004979 0 0.89999999999999991 0.29999999999999999 0 0.94999999999999996 0.29999999999999999 0 0.92012390126144183 0.33123581297173937 0 0.89999999999999991 0.69999999999999996 0 0.92057473616084773 0.66770436535372446 0 0.94999999999999996 0.69999999999999996 0 0.4367309254023824 0.92065556789053882 0 0.39767323751400468 0.89584229130535065 0 0.44003836461056539 0.88093474584252718 0 0.2185883431182947 0.18019736283949719 0 0.18124454140915969 0.18790916706335251 0 0.18652628422869419 0.14162325200928061 0 0.20050006573841939 0.53248514016039872 0 0.19604738184454831 0.47787523520405789 0 0.23975172658309729 0.49475499200540818 0 0.65507451745379841 0.92229208810758578 0 0.61885627562261258 0.90282959257498208 0 0.66412543161245952 0.88015090885499059 0 0.65394964615507722 0.22666784374016369 0 0.67933712972090698 0.25920070958121938 0 0.62657463266645097 0.26524202571255862 0 0.077693244765132896 0.56932317963405099 0 0.034381862692950467 0.57372682250960894 0 0.044576108720083309 0.53509043209532614 0 0.39801143831225599 0.16651381068160659 0 0.38831533174504851 0.2189834941785925 0 0.3572130504031617 0.1874703368446563 0 0.6499999999999998 0.69999999999999996 0 0.69999999999999984 0.69999999999999996 0 0.66427993341343905 0.73232764502436276 0 0.1215415378367805 0.72939333680004137 0 0.15332765547575641 0.71200081858233666 0 0.14335651144331049 0.75565258250209677 0 0.6405463747586706 0.63290524857395714 0 0.63065402604362242 0.59661356661633302 0 0.67529834988829951 0.61613270668143583 0 0.67323294229744413 0.57556450033612505 0 0.67529834988829951 0.61613270668143583 0 0.63065402604362242 0.59661356661633302 0 0.91750694127107502 0.36982372220068471 0 0.87430060258887643 0.34056085888204451 0 0.92012390126144183 0.33123581297173937 0 0.89999999999999991 0.29999999999999999 0 0.92012390126144183 0.33123581297173937 0 0.87430060258887643 0.34056085888204451 0 0.89999999999999991 0.69999999999999996 0 0.87712158428786946 0.65709029563313581 0 0.92057473616084773 0.66770436535372446 0 0.91750694127105259 0.63017627779935648 0 0.92057473616084773 0.66770436535372446 0 0.87712158428786946 0.65709029563313581 0 0.33122374654748771 0.57588941099433744 0 0.29110487519241501 0.56588143995431495 0 0.33190227185843768 0.52715113583864037 0 0.57484956128872922 0.66573805030881994 0 0.5498280205245758 0.6290146943450976 0 0.5991018319127801 0.62925360607495295 0 0.57412547362576272 0.58273804879550706 0 0.5991018319127801 0.62925360607495295 0 0.5498280205245758 0.6290146943450976 0 0.65408113592120842 0.073941773121567966 0 0.66369801598854572 0.036327466368102787 0 0.7010294155333181 0.056779085686491267 0 0.27474541102162192 0.11822029332053539 0 0.32215584939770009 0.1218492143506909 0 0.29336099386129338 0.15892013001050981 0 0.33084213324567391 0.16272720141332131 0 0.29336099386129338 0.15892013001050981 0 0.32215584939770009 0.1218492143506909 0 0.5 0.29999999999999999 0 0.54999999999999993 0.29999999999999999 0 0.52752007115234678 0.33170632466418198 0 0.83573492347052902 0.36590755630746369 0 0.87430060258887643 0.34056085888204451 0 0.86844634540301924 0.38530937474099819 0 0.83758014339878906 0.63222013025741819 0 0.87159648282691515 0.61285406320581504 0 0.87712158428786946 0.65709029563313581 0 0.22278230690790279 0.44824268025881547 0 0.23975172658309729 0.49475499200540818 0 0.19604738184454831 0.47787523520405789 0 1 0.49999999999950101 0 0.95631871884947484 0.51827533208233789 0 0.96228564064454991 0.48206450662049471 0 0.1650278706801647 0.38791388161335733 0 0.13773355295499351 0.42497777642586831 0 0.1117088112799664 0.38831403004970022 0 0.61209567303293111 0.44669033081290321 0 0.57975577671020095 0.46172033326338591 0 0.57744073070774993 0.41535148636609359 0 0.077693244765132896 0.56932317963405099 0 0.1154888278694548 0.56733818459978413 0 0.1024350934457823 0.60772393977513839 0 0.68697391633157634 0.84450604838764298 0 0.65005442820240822 0.82644988530054031 0 0.68024162096458085 0.79868546898116533 0 0.76901770135486491 0.84293557325473656 0 0.77094201086366854 0.79647480515688507 0 0.80041942726660109 0.81543261647703358 0 0.77144070960558853 0.14311854477243749 0 0.76878382444651716 0.097147941686331368 0 0.80076557130237269 0.1154587552654202 0 0.5 0.69999999999999996 0 0.52584555706968406 0.66664215091846768 0 0.54999999999999993 0.69999999999999996 0 0.077693244765132896 0.56932317963405099 0 0.044576108720083309 0.53509043209532614 0 0.085622222639554768 0.53333248912060549 0 0.69999999999921003 0 0 0.72683645290270404 0.027797073151180601 0 0.7010294155333181 0.056779085686491267 0 1 0 0 0.97166519676946894 0.033371144900598393 0 0.94999999999986839 0 0 1 0.69999999999999996 0 0.97166519676947294 0.73337114490064459 0 0.94999999999999996 0.69999999999999996 0 1 0.69999999999999996 0 1 0.74999999999993494 0 0.97166519676947294 0.73337114490064459 0 1 0.29999999999999999 0 0.97166519676951801 0.26662885509932011 0 1 0.24999999999987299 0 1 1 0 0.94999999999979179 1 0 0.97166519676946206 0.96662885509935492 0 1 0 0 1 0.049999999999896842 0 0.97166519676946894 0.033371144900598393 0 1 0.29999999999999999 0 0.94999999999999996 0.29999999999999999 0 0.97166519676951801 0.26662885509932011 0 1 1 0 0.97166519676946206 0.96662885509935492 0 1 0.94999999999997109 0 0 0.55000000000173355 0 0.044576108720083309 0.53509043209532614 0 0.034381862692950467 0.57372682250960894 0 0.6879972333610942 0.43038561374960838 0 0.69385896817107129 0.48377516041410151 0 0.65178832218679827 0.45929119821019959 0 0.33084213324567391 0.16272720141332131 0 0.36246644853392812 0.1399454205365751 0 0.3572130504031617 0.1874703368446563 0 0.65408113592120842 0.073941773121567966 0 0.68330259535470161 0.10038702501083881 0 0.65290632656860115 0.11434202593454081 0 0.16500388252850301 0.66612077714085194 0 0.19068556247388771 0.71028988922845504 0 0.15332765547575641 0.71200081858233666 0 0.82709327591091286 0.84937141670920724 0 0.85600844944837662 0.88483418979512773 0 0.81159157511211755 0.88795995483179491 0 0.82709327591102189 0.14937141670914489 0 0.85600844944842547 0.1848341897950983 0 0.81283102246527783 0.1881007222486438 0 0.79999999999999982 0.29999999999999999 0 0.84999999999999987 0.29999999999999999 0 0.82500000000000062 0.33010209762754811 0 0.79999999999999982 0.69999999999999996 0 0.82457059160610424 0.66831947184359608 0 0.84999999999999987 0.69999999999999996 0 0.59999999999999976 0.69999999999999996 0 0.62460753523532009 0.66851202781000296 0 0.6499999999999998 0.69999999999999996 0 0.39801143831225599 0.16651381068160659 0 0.3572130504031617 0.1874703368446563 0 0.36246644853392812 0.1399454205365751 0 0.69999999999999984 0.29999999999999999 0 0.74999999999999989 0.29999999999999999 0 0.73090396928863699 0.33699297293167962 0 0.69999999999999984 0.69999999999999996 0 0.72500000000000064 0.67022701834392062 0 0.74999999999999989 0.69999999999999996 0 0.6236733212988993 0.14864538214901801 0 0.64011864159029941 0.18789607982138171 0 0.59443395090188023 0.18455690917515069 0 0.20050006573841939 0.53248514016039872 0 0.16618607197337229 0.50652878253548905 0 0.19604738184454831 0.47787523520405789 0 0.79680861578956375 0.22656778056752541 0 0.76587607630038135 0.18880039518954719 0 0.81283102246527783 0.1881007222486438 0 0.79680861578988083 0.92656778056766709 0 0.76891166905518427 0.88835469571185499 0 0.81159157511211755 0.88795995483179491 0 0.71406021706547751 0.63292083137662503 0 0.675261390228442 0.65996937624687813 0 0.67529834988829951 0.61613270668143583 0 0.6405463747586706 0.63290524857395714 0 0.67529834988829951 0.61613270668143583 0 0.675261390228442 0.65996937624687813 0 0.19670163708476801 0.31472518408333222 0 0.168349569971391 0.28054490850913671 0 0.21049769590865089 0.26857363548218488 0 0.47357141910802508 0.1873585799078378 0 0.46429753744194407 0.22870891180733599 0 0.42905200079338551 0.19982395548231649 0 0.59814117807200873 0.23398510860739519 0 0.5794309697024993 0.27124795968204829 0 0.54248833945060504 0.2520322959927106 0 0.6541250972820879 0.49999999999999989 0 0.65178832218679827 0.45929119821019959 0 0.69385896817107129 0.48377516041410151 0 0.54999999999999993 0.29999999999999999 0 0.5794309697024993 0.27124795968204829 0 0.59999999999999976 0.29999999999999999 0 0.7750489929959945 0.66593931409600093 0 0.74994237037456724 0.62775548192980357 0 0.79884539758237771 0.62875045078114233 0 0.77293540622714185 0.59448302402785813 0 0.79884539758237771 0.62875045078114233 0 0.74994237037456724 0.62775548192980357 0 0.14332333627550789 0.14578431753966009 0 0.16141998738593399 0.10404039647458049 0 0.18652628422869419 0.14162325200928061 0 0.38083244760691543 0.38531983672244652 0 0.42161023666869668 0.39493916313643851 0 0.38707855792647411 0.42299362914874578 0 0.43249999999999988 0.43937499999999979 0 0.38707855792647411 0.42299362914874578 0 0.42161023666869668 0.39493916313643851 0 0.43846182030517877 0.64845797726506715 0 0.47095389620662098 0.61892551373708504 0 0.47913475093885149 0.66010775372412711 0 0.50715858906372158 0.63295939104129484 0 0.47913475093885149 0.66010775372412711 0 0.47095389620662098 0.61892551373708504 0 0.69999999999999984 0.69999999999999996 0 0.74999999999999989 0.69999999999999996 0 0.72501250972655151 0.74067302935308721 0 0.4089290844030305 0.58728915500154233 0 0.35765792684946668 0.6000687869219653 0 0.37272913873093971 0.56192925302619479 0 0.69999999999921003 0 0 0.74999999999934175 0 0 0.72683645290270404 0.027797073151180601 0 0.17933913398461551 0.2350063570234002 0 0.21049769590865089 0.26857363548218488 0 0.168349569971391 0.28054490850913671 0 0.14474682429600511 0.85524784522713515 0 0.10562472963403439 0.87143394428979881 0 0.1074251789111534 0.83564394292147814 0 0.14332333627550789 0.14578431753966009 0 0.106902708054812 0.16453234188234539 0 0.1053400320299198 0.12877248826361379 0 0.2236846579037573 0.67380363126050236 0 0.19914261668318661 0.62286739485272158 0 0.2459498854893499 0.63248470766216769 0 0.049999999999899652 0 0 0.053064897599215843 0.048131547304697528 0 0.02576622439977887 0.024532886826226379 0 0 0.050000000000207989 0 0.02576622439977887 0.024532886826226379 0 0.053064897599215843 0.048131547304697528 0 0.050000000000207989 1 0 0.025766224399875661 0.97546711317377799 0 0.053064897599294662 0.95186845269532028 0 0 0.94999999999979179 0 0.053064897599294662 0.95186845269532028 0 0.025766224399875661 0.97546711317377799 0 0.47357141910802508 0.1873585799078378 0 0.48466639505193998 0.1421439844745814 0 0.51729576145820033 0.1683240575987815 0 0.077693244765132896 0.56932317963405099 0 0.085622222639554768 0.53333248912060549 0 0.1154888278694548 0.56733818459978413 0 0.64753070846764316 0.77332939069435502 0 0.63221990677827677 0.73442891067859706 0 0.66427993341343905 0.73232764502436276 0 0.4656888918609538 0.78493261229743638 0 0.42609163930740518 0.80361684430568059 0 0.42676259796334498 0.76772545931379299 0 0.4089290844030305 0.58728915500154233 0 0.39743091024207589 0.6239520004230239 0 0.35765792684946668 0.6000687869219653 0 0.55306006949600994 0.20198184231352201 0 0.50760557329222289 0.20700468884612061 0 0.51729576145820033 0.1683240575987815 0 1 0.8999999999998336 0 1 0.94999999999997109 0 0.97435614836744289 0.92499999999990257 0 1 0.19999999999974799 0 1 0.24999999999987299 0 0.97435614836740092 0.22499999999981049 0 1 0.74999999999993494 0 1 0.7999999999998193 0 0.97435614836745565 0.77499999999987745 0 1 0.049999999999896842 0 1 0.099999999999753911 0 0.97435614836748241 0.074999999999825387 0 0.86411095495256451 0.42388805655111889 0 0.86844634540301924 0.38530937474099819 0 0.90594285160987287 0.4141265964174129 0 0.86956835336234861 0.571283299838105 0 0.91143117093204207 0.58709913730335972 0 0.87159648282691515 0.61285406320581504 0 0 0 0 0.02576622439977887 0.024532886826226379 0 0 0.050000000000207989 0 0 1 0 0 0.94999999999979179 0 0.025766224399875661 0.97546711317377799 0 0 1 0 0.025766224399875661 0.97546711317377799 0 0.050000000000207989 1 0 0 0 0 0.049999999999899652 0 0 0.02576622439977887 0.024532886826226379 0 0.65394964615507722 0.22666784374016369 0 0.64011864159029941 0.18789607982138171 0 0.6865991819015953 0.189116534044597 0 0.25195515620380449 0.25883339815888678 0 0.28040350263641872 0.23054717217092141 0 0.29132859388405002 0.27203693976649962 0 0.61209567303293111 0.44669033081290321 0 0.65178832218679827 0.45929119821019959 0 0.61547661924074692 0.48539576058873962 0 0.6541250972820879 0.49999999999999989 0 0.61547661924074692 0.48539576058873962 0 0.65178832218679827 0.45929119821019959 0 0.19670163708476801 0.31472518408333222 0 0.24432083401701241 0.3006253385567515 0 0.22615676742807109 0.33458786033114157 0 0.15801167086041079 0.46008690540259539 0 0.13773355295499351 0.42497777642586831 0 0.191953871957803 0.42546416763755879 0 0.1650278706801647 0.38791388161335733 0 0.191953871957803 0.42546416763755879 0 0.13773355295499351 0.42497777642586831 0 0.50715858906372158 0.63295939104129484 0 0.52584555706968406 0.66664215091846768 0 0.47913475093885149 0.66010775372412711 0 0.5 0.69999999999999996 0 0.47913475093885149 0.66010775372412711 0 0.52584555706968406 0.66664215091846768 0 0.51076801031701946 0.1202837388510348 0 0.51729576145820033 0.1683240575987815 0 0.48466639505193998 0.1421439844745814 0 0.71406021706547751 0.63292083137662503 0 0.74994237037456724 0.62775548192980357 0 0.72500000000000064 0.67022701834392062 0 0.71508799138962864 0.36622814920737751 0 0.73090396928863699 0.33699297293167962 0 0.74764719760526988 0.3719647154012321 0 0.22278230690790279 0.44824268025881547 0 0.25982634974572738 0.46097799597715272 0 0.23975172658309729 0.49475499200540818 0 0.80185942888539485 0.77452061303608133 0 0.78578450296893509 0.73292684821144505 0 0.81864958914779962 0.73589050177899629 0 0.80185942888501827 0.074520613036224564 0 0.78393852574753176 0.032039079577822822 0 0.81864958914740749 0.035890501779055867 0 0.5 0.29999999999999999 0 0.46226845272279993 0.31901800744800313 0 0.4604742573284204 0.27846934318264788 0 0.6405463747586706 0.63290524857395714 0 0.62460753523532009 0.66851202781000296 0 0.5991018319127801 0.62925360607495295 0 0.79680861578988083 0.92656778056766709 0 0.770759834363826 0.95919399014344442 0 0.75729602384198635 0.92353652857884294 0 0.79680861578956375 0.22656778056752541 0 0.77075983436335049 0.25919399014334171 0 0.75668890529066124 0.2244279804069782 0 0.65394964615507722 0.22666784374016369 0 0.69397719155551807 0.2245125647000914 0 0.67933712972090698 0.25920070958121938 0 0.81973119833356312 0.43505687159469048 0 0.84925632466077294 0.45359738909549091 0 0.81400510706333218 0.47357325943904899 0 0.83758014339878906 0.63222013025741819 0 0.82457059160610424 0.66831947184359608 0 0.79884539758237771 0.62875045078114233 0 0.25676291524611189 0.7436741304886243 0 0.2248999640082178 0.72584299459689172 0 0.26439878998046262 0.7048065392091396 0 0.91696753777131557 0.497780560203536 0 0.90900154012161016 0.53607784105648792 0 0.86907294890112186 0.52008116128001669 0 0.17933913398461551 0.2350063570234002 0 0.168349569971391 0.28054490850913671 0 0.14377654328998779 0.2442024734791064 0 0.1247745017231483 0.27198077544791172 0 0.14377654328998779 0.2442024734791064 0 0.168349569971391 0.28054490850913671 0 0.34258405725730701 0.4444034294386992 0 0.35221190152536241 0.40457127605439203 0 0.38707855792647411 0.42299362914874578 0 0.47357141910802508 0.1873585799078378 0 0.51729576145820033 0.1683240575987815 0 0.50760557329222289 0.20700468884612061 0 0.19670163708476801 0.31472518408333222 0 0.22615676742807109 0.33458786033114157 0 0.18434624290945251 0.35208838264196463 0 0.22033343844674469 0.36963382230740238 0 0.18434624290945251 0.35208838264196463 0 0.22615676742807109 0.33458786033114157 0 0.24432083401701241 0.3006253385567515 0 0.25966125648670141 0.34351016742083729 0 0.22615676742807109 0.33458786033114157 0 0.93814194660195893 0.44426664081746747 0 0.90594285160987287 0.4141265964174129 0 0.95871855522754235 0.40006508612975411 0 0.91750694127107502 0.36982372220068471 0 0.95871855522754235 0.40006508612975411 0 0.90594285160987287 0.4141265964174129 0 0.91750694127105259 0.63017627779935648 0 0.91143117093204207 0.58709913730335972 0 0.95867599106212187 0.60011091146651041 0 0.93732437411268477 0.55911392101136159 0 0.95867599106212187 0.60011091146651041 0 0.91143117093204207 0.58709913730335972 0 0.50715858906372158 0.63295939104129484 0 0.5498280205245758 0.6290146943450976 0 0.52584555706968406 0.66664215091846768 0 0.94399509803918602 0.75600490196082126 0 0.97435614836745565 0.77499999999987745 0 0.95386563387742829 0.80414874155775029 0 0.94399509803922566 0.056004901960802607 0 0.97435614836748241 0.074999999999825387 0 0.95386563387744361 0.1041487415577465 0 0.94399509803921056 0.24399509803922639 0 0.95391631417672862 0.19584263333809451 0 0.97435614836740092 0.22499999999981049 0 0.94399509803919068 0.9439950980391687 0 0.95391631417670719 0.89584263333814784 0 0.97435614836744289 0.92499999999990257 0 0.79680861578988083 0.92656778056766709 0 0.75729602384198635 0.92353652857884294 0 0.76891166905518427 0.88835469571185499 0 0.79680861578956375 0.22656778056752541 0 0.75668890529066124 0.2244279804069782 0 0.76587607630038135 0.18880039518954719 0 0.65394964615507722 0.22666784374016369 0 0.6865991819015953 0.189116534044597 0 0.69397719155551807 0.2245125647000914 0 0.38083244760691543 0.38531983672244652 0 0.38707855792647411 0.42299362914874578 0 0.35221190152536241 0.40457127605439203 0 1 0.7999999999998193 0 0.95386563387742829 0.80414874155775029 0 0.97435614836745565 0.77499999999987745 0 1 0.099999999999753911 0 0.95386563387744361 0.1041487415577465 0 0.97435614836748241 0.074999999999825387 0 1 0.8999999999998336 0 0.97435614836744289 0.92499999999990257 0 0.95391631417670719 0.89584263333814784 0 1 0.19999999999974799 0 0.97435614836740092 0.22499999999981049 0 0.95391631417672862 0.19584263333809451 0 0.84723782639812573 0.48638347960178252 0 0.81400510706333218 0.47357325943904899 0 0.84925632466077294 0.45359738909549091 0 0.54999999999999993 0.29999999999999999 0 0.54248833945060504 0.2520322959927106 0 0.5794309697024993 0.27124795968204829 0 0.94999999999999996 0.29999999999999999 0 0.95780851984364423 0.34215720972155339 0 0.92012390126144183 0.33123581297173937 0 0.94999999999999996 0.69999999999999996 0 0.92057473616084773 0.66770436535372446 0 0.9578014258160763 0.65787212321113708 0 0.15801167086041079 0.46008690540259539 0 0.113541300460994 0.46208784312094731 0 0.13773355295499351 0.42497777642586831 0 0.7250000000005199 0.94981617647078953 0 0.68015064798562208 0.95924320340003011 0 0.68987011941058407 0.92105047536677087 0 0.65507451745379841 0.92229208810758578 0 0.68987011941058407 0.92105047536677087 0 0.68015064798562208 0.95924320340003011 0 0.77846603114747959 0.49850927265137401 0 0.77972660463949339 0.45529290596363098 0 0.81400510706333218 0.47357325943904899 0 0.27866744612395528 0.38416094670951489 0 0.25966125648670141 0.34351016742083729 0 0.29644548887253103 0.34914008784168082 0 0.61209567303293111 0.44669033081290321 0 0.61547661924074692 0.48539576058873962 0 0.57975577671020095 0.46172033326338591 0 0.57611405284611883 0.50165903596042916 0 0.57975577671020095 0.46172033326338591 0 0.61547661924074692 0.48539576058873962 0 0.7250000000005199 0.89375000000045834 0 0.76891166905518427 0.88835469571185499 0 0.75729602384198635 0.92353652857884294 0 0.72500000000001008 0.19776155966387679 0 0.76587607630038135 0.18880039518954719 0 0.75668890529066124 0.2244279804069782 0 0.72500000000001008 0.19776155966387679 0 0.69397719155551807 0.2245125647000914 0 0.6865991819015953 0.189116534044597 0 0.083411279318303222 0.089699755330707398 0 0.12372429750337779 0.095814237875728972 0 0.1053400320299198 0.12877248826361379 0 0.083411279318375747 0.91030024466934134 0 0.10562472963403439 0.87143394428979881 0 0.1241151115713819 0.9045666525468371 0 0.14617343800780541 0.93808063414349496 0 0.1241151115713819 0.9045666525468371 0 0.16206583317966519 0.89685560785156404 0 0.14618258501891079 0.062070108745602003 0 0.16141998738593399 0.10404039647458049 0 0.12372429750337779 0.095814237875728972 0 0.33277555741076909 0.36432196682010132 0 0.35221190152536241 0.40457127605439203 0 0.31778888742534622 0.40581751814196781 0 0.7250000000005199 0.94981617647078953 0 0.75729602384198635 0.92353652857884294 0 0.770759834363826 0.95919399014344442 0 0.72500000000000064 0.2498161764706 0 0.75668890529066124 0.2244279804069782 0 0.77075983436335049 0.25919399014334171 0 0.72500000000000064 0.2498161764706 0 0.67933712972090698 0.25920070958121938 0 0.69397719155551807 0.2245125647000914 0 0.6236733212988993 0.14864538214901801 0 0.61956000905586006 0.1043312481793135 0 0.65290632656860115 0.11434202593454081 0 0.81973119833356312 0.43505687159469048 0 0.81400510706333218 0.47357325943904899 0 0.77972660463949339 0.45529290596363098 0 0.25676291524611189 0.7436741304886243 0 0.29904318922293632 0.74132814928635593 0 0.2792923945214143 0.77665808831789485 0 0.36575549820117997 0.31677992835137742 0 0.32752639306529541 0.32610012995269699 0 0.33402499257867951 0.28911035184473982 0 0.14332333627550789 0.14578431753966009 0 0.18652628422869419 0.14162325200928061 0 0.18124454140915969 0.18790916706335251 0 0.57724883562309992 0.92155686857100794 0 0.5832743223239254 0.88483152652961872 0 0.61885627562261258 0.90282959257498208 0 0.57667858002728545 0.078486105337742612 0 0.61956000905586006 0.1043312481793135 0 0.58516465772821369 0.11653801664834119 0 0.80185942888539485 0.77452061303608133 0 0.80041942726660109 0.81543261647703358 0 0.77094201086366854 0.79647480515688507 0 0.80185942888501827 0.074520613036224564 0 0.80076557130237269 0.1154587552654202 0 0.76878382444651716 0.097147941686331368 0 0.64753070846764316 0.77332939069435502 0 0.68024162096458085 0.79868546898116533 0 0.65005442820240822 0.82644988530054031 0 0.26429849586623999 0.19346700179430079 0 0.25557216766470708 0.15874861286892261 0 0.29336099386129338 0.15892013001050981 0 0.29348325746214782 0.31350119524708198 0 0.29644548887253103 0.34914008784168082 0 0.25966125648670141 0.34351016742083729 0 0.68391457121233579 0.14440470121196541 0 0.65290632656860115 0.11434202593454081 0 0.68330259535470161 0.10038702501083881 0 0.91750694127107502 0.36982372220068471 0 0.92012390126144183 0.33123581297173937 0 0.95780851984364423 0.34215720972155339 0 0.91750694127105259 0.63017627779935648 0 0.9578014258160763 0.65787212321113708 0 0.92057473616084773 0.66770436535372446 0 0.22033343844674469 0.36963382230740238 0 0.22615676742807109 0.33458786033114157 0 0.25966125648670141 0.34351016742083729 0 1 0.94999999999997109 0 0.97166519676946206 0.96662885509935492 0 0.97435614836744289 0.92499999999990257 0 0.94399509803919068 0.9439950980391687 0 0.97435614836744289 0.92499999999990257 0 0.97166519676946206 0.96662885509935492 0 0.94399509803921056 0.24399509803922639 0 0.97435614836740092 0.22499999999981049 0 0.97166519676951801 0.26662885509932011 0 1 0.24999999999987299 0 0.97166519676951801 0.26662885509932011 0 0.97435614836740092 0.22499999999981049 0 1 0.74999999999993494 0 0.97435614836745565 0.77499999999987745 0 0.97166519676947294 0.73337114490064459 0 1 0.049999999999896842 0 0.97435614836748241 0.074999999999825387 0 0.97166519676946894 0.033371144900598393 0 0.94399509803918602 0.75600490196082126 0 0.97166519676947294 0.73337114490064459 0 0.97435614836745565 0.77499999999987745 0 0.94399509803922566 0.056004901960802607 0 0.97166519676946894 0.033371144900598393 0 0.97435614836748241 0.074999999999825387 0 0.77846603114747959 0.49850927265137401 0 0.81400510706333218 0.47357325943904899 0 0.81441713509985358 0.51161854125224959 0 0.77354604466818633 0.40378688774472771 0 0.72622533758026719 0.40265885511101601 0 0.74764719760526988 0.3719647154012321 0 0.71508799138962864 0.36622814920737751 0 0.74764719760526988 0.3719647154012321 0 0.72622533758026719 0.40265885511101601 0 0.84723782639812573 0.48638347960178252 0 0.84925632466077294 0.45359738909549091 0 0.88594198078881503 0.46167788676578442 0 0.86411095495256451 0.42388805655111889 0 0.88594198078881503 0.46167788676578442 0 0.84925632466077294 0.45359738909549091 0 0.43846182030517877 0.64845797726506715 0 0.43545892161006339 0.61093128915313821 0 0.47095389620662098 0.61892551373708504 0 0.33123028043633618 0.77629643437932982 0 0.35642984951668422 0.80994399665655703 0 0.30857225866488791 0.81101973481716805 0 0.33403534827021109 0.84402799729020661 0 0.30857225866488791 0.81101973481716805 0 0.35642984951668422 0.80994399665655703 0 0.26429849586623999 0.19346700179430079 0 0.31255190597181792 0.19850845631528771 0 0.28040350263641872 0.23054717217092141 0 0.57724883562309992 0.92155686857100794 0 0.54783390826260769 0.89287767010860219 0 0.5832743223239254 0.88483152652961872 0 0.55899371797446828 0.85003102233514438 0 0.5832743223239254 0.88483152652961872 0 0.54783390826260769 0.89287767010860219 0 0.4089290844030305 0.58728915500154233 0 0.43545892161006339 0.61093128915313821 0 0.39743091024207589 0.6239520004230239 0 0.77293540622714185 0.59448302402785813 0 0.81723410853263523 0.59419663659258926 0 0.79884539758237771 0.62875045078114233 0 0.83758014339878906 0.63222013025741819 0 0.79884539758237771 0.62875045078114233 0 0.81723410853263523 0.59419663659258926 0 0.35864735590330371 0.63903383440414463 0 0.39743091024207589 0.6239520004230239 0 0.3977710372045391 0.65868194622830212 0 0.56202748619534593 0.15054058349222879 0 0.54979595918804436 0.1060565713905809 0 0.58516465772821369 0.11653801664834119 0 0.57667858002728545 0.078486105337742612 0 0.58516465772821369 0.11653801664834119 0 0.54979595918804436 0.1060565713905809 0 0.33122374654748771 0.57588941099433744 0 0.37272913873093971 0.56192925302619479 0 0.35765792684946668 0.6000687869219653 0 0.35864735590330371 0.63903383440414463 0 0.35765792684946668 0.6000687869219653 0 0.39743091024207589 0.6239520004230239 0 0.71508799138962864 0.36622814920737751 0 0.68887083591306764 0.33632058575757479 0 0.73090396928863699 0.33699297293167962 0 0.29348325746214782 0.31350119524708198 0 0.32752639306529541 0.32610012995269699 0 0.29644548887253103 0.34914008784168082 0 0.33277555741076909 0.36432196682010132 0 0.29644548887253103 0.34914008784168082 0 0.32752639306529541 0.32610012995269699 0 0.34258405725730701 0.4444034294386992 0 0.31778888742534622 0.40581751814196781 0 0.35221190152536241 0.40457127605439203 0 0.79999999999999982 0.69999999999999996 0 0.81864958914779962 0.73589050177899629 0 0.78578450296893509 0.73292684821144505 0 0.79999999999947335 0 0 0.81864958914740749 0.035890501779055867 0 0.78393852574753176 0.032039079577822822 0 0.27474541102162192 0.11822029332053539 0 0.29336099386129338 0.15892013001050981 0 0.25557216766470708 0.15874861286892261 0 0 0.45000000000187229 0 0.035463093262830522 0.42673416072819947 0 0.033550201249889847 0.46247875832467239 0 0.6499999999999998 0.69999999999999996 0 0.66427993341343905 0.73232764502436276 0 0.63221990677827677 0.73442891067859706 0 0.84723782639812573 0.48638347960178252 0 0.81441713509985358 0.51161854125224959 0 0.81400510706333218 0.47357325943904899 0 0.26104540868854792 0.81401944968719064 0 0.30857225866488791 0.81101973481716805 0 0.29209212897034281 0.84715728365233667 0 0.33403534827021109 0.84402799729020661 0 0.29209212897034281 0.84715728365233667 0 0.30857225866488791 0.81101973481716805 0 0.69999999999999984 0.29999999999999999 0 0.73090396928863699 0.33699297293167962 0 0.68887083591306764 0.33632058575757479 0 
</DataArray>
</Points>
<Cells>
<DataArray type="UInt32" Name="connectivity" format="ascii">
0 1 2 3 4 5 6 7 8 9 10 11 12 13 14 15 16 17 18 19 20 21 22 23 24 25 26 27 28 29 30 31 32 33 34 35 36 37 38 39 40 41 42 43 44 45 46 47 48 49 50 51 52 53 54 55 56 57 58 59 60 61 62 63 64 65 66 67 68 69 70 71 72 73 74 75 76 77 78 79 80 81 82 83 84 85 86 87 88 89 90 91 92 93 94 95 96 97 98 99 100 101 102 103 104 105 106 107 108 109 110 111 112 113 114 115 116 117 118 119 120 121 122 123 124 125 126 127 128 129 130 131 132 133 134 135 136 137 138 139 140 141 142 143 144 145 146 147 148 149 150 151 152 153 154 155 156 157 158 159 160 161 162 163 164 165 166 167 168 169 170 171 172 173 174 175 176 177 178 179 180 181 182 183 184 185 186 187 188 189 190 191 192 193 194 195 196 197 198 199 200 201 202 203 204 205 206 207 208 209 210 211 212 213 214 215 216 217 218 219 220 221 222 223 224 225 226 227 228 229 230 231 232 233 234 235 236 237 238 239 240 241 242 243 244 245 246 247 248 249 250 251 252 253 254 255 256 257 258 259 260 261 262 263 264 265 266 267 268 269 270 271 272 273 274 275 276 277 278 279 280 281 282 283 284 285 286 287 288 289 290 291 292 293 294 295 296 297 298 299 300 301 302 303 304 305 306 307 308 309 310 311 312 313 314 315 316 317 318 319 320 321 322 323 324 325 326 327 328 329 330 331 332 333 334 335 336 337 338 339 340 341 342 343 344 345 346 347 348 349 350 351 352 353 354 355 356 357 358 359 360 361 362 363 364 365 366 367 368 369 370 371 372 373 374 375 376 377 378 379 380 381 382 383 384 385 386 387 388 389 390 391 392 393 394 395 396 397 398 399 400 401 402 403 404 405 406 407 408 409 410 411 412 413 414 415 416 417 418 419 420 421 422 423 424 425 426 427 428 429 430 431 432 433 434 435 436 437 438 439 440 441 442 443 444 445 446 447 448 449 450 451 452 453 454 455 456 457 458 459 460 461 462 463 464 465 466 467 468 469 470 471 472 473 474 475 476 477 478 479 480 481 482 483 484 485 486 487 488 489 490 491 492 493 494 495 496 497 498 499 500 501 502 503 504 505 506 507 508 509 510 511 512 513 514 515 516 517 518 519 520 521 522 523 524 525 526 527 528 529 530 531 532 533 534 535 536 537 538 539 540 541 542 543 544 545 546 547 548 549 550 551 552 553 554 555 556 557 558 559 560 561 562 563 564 565 566 567 568 569 570 571 572 573 574 575 576 577 578 579 580 581 582 583 584 585 586 587 588 589 590 591 592 593 594 595 596 597 598 599 600 601 602 603 604 605 606 607 608 609 610 611 612 613 614 615 616 617 618 619 620 621 622 623 624 625 626 627 628 629 630 631 632 633 634 635 636 637 638 639 640 641 642 643 644 645 646 647 648 649 650 651 652 653 654 655 656 657 658 659 660 661 662 663 664 665 666 667 668 669 670 671 672 673 674 675 676 677 678 679 680 681 682 683 684 685 686 687 688 689 690 691 692 693 694 695 696 697 698 699 700 701 702 703 704 705 706 707 708 709 710 711 712 713 714 715 716 717 718 719 720 721 722 723 724 725 726 727 728 729 730 731 732 733 734 735 736 737 738 739 740 741 742 743 744 745 746 747 748 749 750 751 752 753 754 755 756 757 758 759 760 761 762 763 764 765 766 767 768 769 770 771 772 773 774 775 776 777 778 779 780 781 782 783 784 785 786 787 788 789 790 791 792 793 794 795 796 797 798 799 800 801 802 803 804 805 806 807 808 809 810 811 812 813 814 815 816 817 818 819 820 821 822 823 824 825 826 827 828 829 830 831 832 833 834 835 836 837 838 839 840 841 842 843 844 845 846 847 848 849 850 851 852 853 854 855 856 857 858 859 860 861 862 863 864 865 866 867 868 869 870 871 872 873 874 875 876 877 878 879 880 881 882 883 884 885 886 887 888 889 890 891 892 893 894 895 896 897 898 899 900 901 902 903 904 905 906 907 908 909 910 911 912 913 914 915 916 917 918 919 920 921 922 923 924 925 926 927 928 929 930 931 932 933 934 935 936 937 938 939 940 941 942 943 944 945 946 947 948 949 950 951 952 953 954 955 956 957 958 959 960 961 962 963 964 965 966 967 968 969 970 971 972 973 974 975 976 977 978 979 980 981 982 983 984 985 986 987 988 989 990 991 992 993 994 995 996 997 998 999 1000 1001 1002 1003 1004 1005 1006 1007 1008 1009 1010 1011 1012 1013 1014 1015 1016 1017 1018 1019 1020 1021 1022 1023 1024 1025 1026 1027 1028 1029 1030 1031 1032 1033 1034 1035 1036 1037 1038 1039 1040 1041 1042 1043 1044 1045 1046 1047 1048 1049 1050 1051 1052 1053 1054 1055 1056 1057 1058 1059 1060 1061 1062 1063 1064 1065 1066 1067 1068 1069 1070 1071 1072 1073 1074 1075 1076 1077 1078 1079 1080 1081 1082 1083 1084 1085 1086 1087 1088 1089 1090 1091 1092 1093 1094 1095 1096 1097 1098 1099 1100 1101 1102 1103 1104 1105 1106 1107 1108 1109 1110 1111 1112 1113 1114 1115 1116 1117 1118 1119 1120 1121 1122 1123 1124 1125 1126 1127 1128 1129 1130 1131 1132 1133 1134 1135 1136 1137 1138 1139 1140 1141 1142 1143 1144 1145 1146 1147 1148 1149 1150 1151 1152 1153 1154 1155 1156 1157 1158 1159 1160 1161 1162 1163 1164 1165 1166 1167 1168 1169 1170 1171 1172 1173 1174 1175 1176 1177 1178 1179 1180 1181 1182 1183 1184 1185 1186 1187 1188 1189 1190 1191 1192 1193 1194 1195 1196 1197 1198 1199 1200 1201 1202 1203 1204 1205 1206 1207 1208 1209 1210 1211 1212 1213 1214 1215 1216 1217 1218 1219 1220 1221 1222 1223 1224 1225 1226 1227 1228 1229 1230 1231 1232 1233 1234 1235 1236 1237 1238 1239 1240 1241 1242 1243 1244 1245 1246 1247 1248 1249 1250 1251 1252 1253 1254 1255 1256 1257 1258 1259 1260 1261 1262 1263 1264 1265 1266 1267 1268 1269 1270 1271 1272 1273 1274 1275 1276 1277 1278 1279 1280 1281 1282 1283 1284 1285 1286 1287 1288 1289 1290 1291 1292 1293 1294 1295 1296 1297 1298 1299 1300 1301 1302 1303 1304 1305 1306 1307 1308 1309 1310 1311 1312 1313 1314 1315 1316 1317 1318 1319 1320 1321 1322 1323 1324 1325 1326 1327 1328 1329 1330 1331 1332 1333 1334 1335 1336 1337 1338 1339 1340 1341 1342 1343 1344 1345 1346 1347 1348 1349 1350 1351 1352 1353 1354 1355 1356 1357 1358 1359 1360 1361 1362 1363 1364 1365 1366 1367 1368 1369 1370 1371 1372 1373 1374 1375 1376 1377 1378 1379 1380 1381 1382 1383 1384 1385 1386 1387 1388 1389 1390 1391 1392 1393 1394 1395 1396 1397 1398 1399 1400 1401 1402 1403 1404 1405 1406 1407 1408 1409 1410 1411 1412 1413 1414 1415 1416 1417 1418 1419 1420 1421 1422 1423 1424 1425 1426 1427 1428 1429 1430 1431 1432 1433 1434 1435 1436 1437 1438 1439 1440 1441 1442 1443 1444 1445 1446 1447 1448 1449 1450 1451 1452 1453 1454 1455 1456 1457 1458 1459 1460 1461 1462 1463 1464 1465 1466 1467 1468 1469 1470 1471 1472 1473 1474 1475 1476 1477 1478 1479 1480 1481 1482 1483 1484 1485 1486 1487 1488 1489 1490 1491 1492 1493 1494 1495 1496 1497 1498 1499 1500 1501 1502 1503 1504 1505 1506 1507 1508 1509 1510 1511 1512 1513 1514 1515 1516 1517 1518 1519 1520 1521 1522 1523 1524 1525 1526 1527 1528 1529 1530 1531 1532 1533 1534 1535 1536 1537 1538 1539 1540 1541 1542 1543 1544 1545 1546 1547 1548 1549 1550 1551 1552 1553 1554 1555 1556 1557 1558 1559 1560 1561 1562 1563 1564 1565 1566 1567 1568 1569 1570 1571 1572 1573 1574 1575 1576 1577 1578 1579 1580 1581 1582 1583 1584 1585 1586 1587 1588 1589 1590 1591 1592 1593 1594 1595 1596 1597 1598 1599 1600 1601 1602 1603 1604 1605 1606 1607 1608 1609 1610 1611 1612 1613 1614 1615 1616 1617 1618 1619 1620 1621 1622 1623 1624 1625 1626 1627 1628 1629 1630 1631 1632 1633 1634 1635 1636 1637 1638 1639 1640 1641 1642 1643 1644 1645 1646 1647 1648 1649 1650 1651 1652 1653 1654 1655 1656 1657 1658 1659 1660 1661 1662 1663 1664 1665 1666 1667 1668 1669 1670 1671 1672 1673 1674 1675 1676 1677 1678 1679 1680 1681 1682 1683 1684 1685 1686 1687 1688 1689 1690 1691 1692 1693 1694 1695 1696 1697 1698 1699 1700 1701 1702 1703 1704 1705 1706 1707 1708 1709 1710 1711 1712 1713 1714 1715 1716 1717 1718 1719 1720 1721 1722 1723 1724 1725 1726 1727 1728 1729 1730 1731 1732 1733 1734 1735 1736 1737 1738 1739 1740 1741 1742 1743 1744 1745 1746 1747 1748 1749 1750 1751 1752 1753 1754 1755 1756 1757 1758 1759 1760 1761 1762 1763 1764 1765 1766 1767 1768 1769 1770 1771 1772 1773 1774 1775 1776 1777 1778 1779 1780 1781 1782 1783 1784 1785 1786 1787 1788 1789 1790 1791 1792 1793 1794 1795 1796 1797 1798 1799 1800 1801 1802 1803 1804 1805 1806 1807 1808 1809 1810 1811 1812 1813 1814 1815 1816 1817 1818 1819 1820 1821 1822 1823 1824 1825 1826 1827 1828 1829 1830 1831 1832 1833 1834 1835 1836 1837 1838 1839 1840 1841 1842 1843 1844 1845 1846 1847 1848 1849 1850 1851 1852 1853 1854 1855 1856 1857 1858 1859 1860 1861 1862 1863 1864 1865 1866 1867 1868 1869 1870 1871 1872 1873 1874 1875 1876 1877 1878 1879 1880 1881 1882 1883 1884 1885 1886 1887 1888 1889 1890 1891 1892 1893 1894 1895 1896 1897 1898 1899 1900 1901 1902 1903 1904 1905 1906 1907 1908 1909 1910 1911 1912 1913 1914 1915 1916 1917 1918 1919 1920 1921 1922 1923 1924 1925 1926 1927 1928 1929 1930 1931 1932 1933 1934 1935 1936 1937 1938 1939 1940 1941 1942 1943 1944 1945 1946 1947 1948 1949 1950 1951 1952 1953 1954 1955 1956 1957 1958 1959 1960 1961 1962 1963 1964 1965 1966 1967 1968 1969 1970 1971 1972 1973 1974 1975 1976 1977 1978 1979 1980 1981 1982 1983 1984 1985 1986 1987 1988 1989 1990 1991 1992 1993 1994 1995 1996 1997 1998 1999 2000 2001 2002 2003 2004 2005 2006 2007 2008 2009 2010 2011 2012 2013 2014 2015 2016 2017 2018 2019 2020 2021 2022 2023 2024 2025 2026 2027 2028 2029 2030 2031 2032 2033 2034 2035 2036 2037 2038 2039 2040 2041 2042 2043 2044 2045 2046 2047 2048 2049 2050 2051 2052 2053 2054 2055 2056 2057 2058 2059 2060 2061 2062 2063 2064 2065 2066 2067 2068 2069 2070 2071 2072 2073 2074 2075 2076 2077 2078 2079 2080 2081 2082 2083 2084 2085 2086 2087 2088 2089 2090 2091 2092 2093 2094 2095 2096 2097 2098 2099 2100 2101 2102 2103 2104 2105 2106 2107 2108 2109 2110 2111 2112 2113 2114 2115 2116 2117 2118 2119 2120 2121 2122 2123 2124 2125 2126 2127 2128 2129 2130 2131 2132 2133 2134 2135 2136 2137 2138 2139 2140 2141 2142 2143 2144 2145 2146 2147 2148 2149 2150 2151 2152 2153 2154 2155 2156 2157 2158 2159 2160 2161 2162 2163 2164 2165 2166 2167 2168 2169 2170 2171 2172 2173 2174 2175 2176 2177 2178 2179 2180 2181 2182 2183 2184 2185 2186 2187 2188 2189 2190 2191 2192 2193 2194 2195 2196 2197 2198 2199 2200 2201 2202 2203 2204 2205 2206 2207 2208 2209 2210 2211 2212 2213 2214 2215 2216 2217 2218 2219 2220 2221 2222 2223 2224 2225 2226 2227 2228 2229 2230 2231 2232 2233 2234 2235 2236 2237 2238 2239 2240 2241 2242 2243 2244 2245 2246 2247 2248 2249 2250 2251 2252 2253 2254 2255 2256 2257 2258 2259 2260 2261 2262 2263 2264 2265 2266 2267 2268 2269 2270 2271 2272 2273 2274 2275 2276 2277 2278 2279 2280 2281 2282 2283 2284 2285 2286 2287 2288 2289 2290 2291 2292 2293 2294 2295 2296 2297 2298 2299 2300 2301 2302 2303 2304 2305 2306 2307 2308 2309 2310 2311 2312 2313 2314 2315 2316 2317 2318 2319 2320 2321 2322 2323 2324 2325 2326 2327 2328 2329 2330 2331 2332 2333 2334 2335 2336 2337 2338 2339 2340 2341 2342 2343 2344 2345 2346 2347 2348 2349 2350 2351 2352 2353 2354 2355 2356 2357 2358 2359 2360 2361 2362 2363 2364 2365 2366 2367 2368 2369 2370 2371 2372 2373 2374 2375 2376 2377 2378 2379 2380 2381 2382 2383 2384 2385 2386 2387 2388 2389 2390 2391 2392 2393 2394 2395 2396 2397 2398 2399 2400 2401 2402 2403 2404 2405 2406 2407 2408 2409 2410 2411 2412 2413 2414 2415 2416 2417 2418 2419 2420 2421 2422 2423 2424 2425 2426 2427 2428 2429 2430 2431 2432 2433 2434 2435 2436 2437 2438 2439 2440 2441 2442 2443 2444 2445 2446 2447 2448 2449 2450 2451 2452 2453 2454 2455 2456 2457 2458 2459 2460 2461 2462 2463 2464 2465 2466 2467 2468 2469 2470 2471 2472 2473 2474 2475 2476 2477 2478 2479 2480 2481 2482 2483 2484 2485 2486 2487 2488 2489 2490 2491 2492 2493 2494 2495 2496 2497 2498 2499 2500 2501 2502 2503 2504 2505 2506 2507 2508 2509 2510 2511 2512 2513 2514 2515 2516 2517 2518 2519 2520 2521 2522 2523 2524 2525 2526 2527 2528 2529 2530 2531 2532 2533 2534 2535 2536 2537 2538 2539 2540 2541 2542 2543 2544 2545 2546 2547 2548 2549 2550 2551 2552 2553 2554 2555 2556 2557 2558 2559 2560 2561 2562 2563 2564 2565 2566 2567 2568 2569 2570 2571 2572 2573 2574 2575 2576 2577 2578 2579 2580 2581 2582 2583 2584 2585 2586 2587 2588 2589 2590 2591 2592 2593 2594 2595 2596 2597 2598 2599 2600 2601 2602 2603 2604 2605 2606 2607 2608 2609 2610 2611 2612 2613 2614 2615 2616 2617 2618 2619 2620 2621 2622 2623 2624 2625 2626 2627 2628 2629 2630 2631 2632 2633 2634 2635 2636 2637 2638 2639 2640 2641 2642 2643 2644 2645 2646 2647 2648 2649 2650 2651 2652 2653 2654 2655 2656 2657 2658 2659 2660 2661 2662 2663 2664 2665 2666 2667 2668 2669 2670 2671 2672 2673 2674 2675 2676 2677 2678 2679 2680 2681 2682 2683 2684 2685 2686 2687 2688 2689 2690 2691 2692 2693 2694 2695 2696 2697 2698 2699 2700 2701 2702 2703 2704 2705 2706 2707 2708 2709 2710 2711 2712 2713 2714 2715 2716 2717 2718 2719 2720 2721 2722 2723 2724 2725 2726 2727 2728 2729 2730 2731 2732 2733 2734 2735 2736 2737 2738 2739 2740 2741 2742 2743 2744 2745 2746 2747 2748 2749 2750 2751 2752 2753 2754 2755 2756 2757 2758 2759 2760 2761 2762 2763 2764 2765 2766 2767 2768 2769 2770 2771 2772 2773 2774 2775 2776 2777 2778 2779 2780 2781 2782 2783 2784 2785 2786 2787 2788 2789 2790 2791 2792 2793 2794 2795 2796 2797 2798 2799 2800 2801 2802 2803 2804 2805 2806 2807 2808 2809 2810 2811 2812 2813 2814 2815 2816 2817 2818 2819 2820 2821 2822 2823 2824 2825 2826 2827 2828 2829 2830 2831 2832 2833 2834 2835 2836 2837 2838 2839 2840 2841 2842 2843 2844 2845 2846 2847 2848 2849 2850 2851 2852 2853 2854 2855 2856 2857 2858 2859 2860 2861 2862 2863 2864 2865 2866 2867 2868 2869 2870 2871 2872 2873 2874 2875 2876 2877 2878 2879 2880 2881 2882 2883 2884 2885 2886 2887 2888 2889 2890 2891 2892 2893 2894 2895 2896 2897 2898 2899 2900 2901 2902 2903 2904 2905 2906 2907 2908 2909 2910 2911 2912 2913 2914 2915 2916 2917 2918 2919 2920 2921 2922 2923 2924 2925 2926 2927 2928 2929 2930 2931 2932 2933 2934 2935 2936 2937 2938 2939 2940 2941 2942 2943 2944 2945 2946 2947 2948 2949 2950 2951 2952 2953 2954 2955 2956 2957 2958 2959 2960 2961 2962 2963 2964 2965 2966 2967 2968 2969 2970 2971 2972 2973 2974 2975 2976 2977 2978 2979 2980 2981 2982 2983 2984 2985 2986 2987 2988 2989 2990 2991 2992 2993 2994 2995 2996 2997 2998 2999 3000 3001 3002 3003 3004 3005 3006 3007 3008 3009 3010 3011 3012 3013 3014 3015 3016 3017 3018 3019 3020 3021 3022 3023 3024 3025 3026 3027 3028 3029 3030 3031 3032 3033 3034 3035 3036 3037 3038 3039 3040 3041 3042 3043 3044 3045 3046 3047 3048 3049 3050 3051 3052 3053 3054 3055 3056 3057 3058 3059 3060 3061 3062 3063 3064 3065 3066 3067 3068 3069 3070 3071 3072 3073 3074 3075 3076 3077 3078 3079 3080 3081 3082 3083 3084 3085 3086 3087 3088 3089 3090 3091 3092 3093 3094 3095 3096 3097 3098 3099 3100 3101 3102 3103 3104 3105 3106 3107 3108 3109 3110 3111 3112 3113 3114 3115 3116 3117 3118 3119 3120 3121 3122 3123 3124 3125 3126 3127 3128 3129 3130 3131 3132 3133 3134 3135 3136 3137 3138 3139 3140 3141 
</DataArray>
<DataArray type="UInt32" Name="offsets" format="ascii">
2 4 6 8 10 12 14 16 18 20 22 24 26 28 30 32 34 36 38 40 43 46 49 52 55 58 61 64 67 70 73 76 79 82 85 88 91 94 97 100 103 106 109 112 115 118 121 124 127 130 133 136 139 142 145 148 151 154 157 160 163 166 169 172 175 178 181 184 187 190 193 196 199 202 205 208 211 214 217 220 223 226 229 232 235 238 241 244 247 250 253 256 259 262 265 268 271 274 277 280 283 286 289 292 295 298 301 304 307 310 313 316 319 322 325 328 331 334 337 340 343 346 349 352 355 358 361 364 367 370 373 376 379 382 385 388 391 394 397 400 403 406 409 412 415 418 421 424 427 430 433 436 439 442 445 448 451 454 457 460 463 466 469 472 475 478 481 484 487 490 493 496 499 502 505 508 511 514 517 520 523 526 529 532 535 538 541 544 547 550 553 556 559 562 565 568 571 574 577 580 583 586 589 592 595 598 601 604 607 610 613 616 619 622 625 628 631 634 637 640 643 646 649 652 655 658 661 664 667 670 673 676 679 682 685 688 691 694 697 700 703 706 709 712 715 718 721 724 727 730 733 736 739 742 745 748 751 754 757 760 763 766 769 772 775 778 781 784 787 790 793 796 799 802 805 808 811 814 817 820 823 826 829 832 835 838 841 844 847 850 853 856 859 862 865 868 871 874 877 880 883 886 889 892 895 898 901 904 907 910 913 916 919 922 925 928 931 934 937 940 943 946 949 952 955 958 961 964 967 970 973 976 979 982 985 988 991 994 997 1000 1003 1006 1009 1012 1015 1018 1021 1024 1027 1030 1033 1036 1039 1042 1045 1048 1051 1054 1057 1060 1063 1066 1069 1072 1075 1078 1081 1084 1087 1090 1093 1096 1099 1102 1105 1108 1111 1114 1117 1120 1123 1126 1129 1132 1135 1138 1141 1144 1147 1150 1153 1156 1159 1162 1165 1168 1171 1174 1177 1180 1183 1186 1189 1192 1195 1198 1201 1204 1207 1210 1213 1216 1219 1222 1225 1228 1231 1234 1237 1240 1243 1246 1249 1252 1255 1258 1261 1264 1267 1270 1273 1276 1279 1282 1285 1288 1291 1294 1297 1300 1303 1306 1309 1312 1315 1318 1321 1324 1327 1330 1333 1336 1339 1342 1345 1348 1351 1354 1357 1360 1363 1366 1369 1372 1375 1378 1381 1384 1387 1390 1393 1396 1399 1402 1405 1408 1411 1414 1417 1420 1423 1426 1429 1432 1435 1438 1441 1444 1447 1450 1453 1456 1459 1462 1465 1468 1471 1474 1477 1480 1483 1486 1489 1492 1495 1498 1501 1504 1507 1510 1513 1516 1519 1522 1525 1528 1531 1534 1537 1540 1543 1546 1549 1552 1555 1558 1561 1564 1567 1570 1573 1576 1579 1582 1585 1588 1591 1594 1597 1600 1603 1606 1609 1612 1615 1618 1621 1624 1627 1630 1633 1636 1639 1642 1645 1648 1651 1654 1657 1660 1663 1666 1669 1672 1675 1678 1681 1684 1687 1690 1693 1696 1699 1702 1705 1708 1711 1714 1717 1720 1723 1726 1729 1732 1735 1738 1741 1744 1747 1750 1753 1756 1759 1762 1765 1768 1771 1774 1777 1780 1783 1786 1789 1792 1795 1798 1801 1804 1807 1810 1813 1816 1819 1822 1825 1828 1831 1834 1837 1840 1843 1846 1849 1852 1855 1858 1861 1864 1867 1870 1873 1876 1879 1882 1885 1888 1891 1894 1897 1900 1903 1906 1909 1912 1915 1918 1921 1924 1927 1930 1933 1936 1939 1942 1945 1948 1951 1954 1957 1960 1963 1966 1969 1972 1975 1978 1981 1984 1987 1990 1993 1996 1999 2002 2005 2008 2011 2014 2017 2020 2023 2026 2029 2032 2035 2038 2041 2044 2047 2050 2053 2056 2059 2062 2065 2068 2071 2074 2077 2080 2083 2086 2089 2092 2095 2098 2101 2104 2107 2110 2113 2116 2119 2122 2125 2128 2131 2134 2137 2140 2143 2146 2149 2152 2155 2158 2161 2164 2167 2170 2173 2176 2179 2182 2185 2188 2191 2194 2197 2200 2203 2206 2209 2212 2215 2218 2221 2224 2227 2230 2233 2236 2239 2242 2245 2248 2251 2254 2257 2260 2263 2266 2269 2272 2275 2278 2281 2284 2287 2290 2293 2296 2299 2302 2305 2308 2311 2314 2317 2320 2323 2326 2329 2332 2335 2338 2341 2344 2347 2350 2353 2356 2359 2362 2365 2368 2371 2374 2377 2380 2383 2386 2389 2392 2395 2398 2401 2404 2407 2410 2413 2416 2419 2422 2425 2428 2431 2434 2437 2440 2443 2446 2449 2452 2455 2458 2461 2464 2467 2470 2473 2476 2479 2482 2485 2488 2491 2494 2497 2500 2503 2506 2509 2512 2515 2518 2521 2524 2527 2530 2533 2536 2539 2542 2545 2548 2551 2554 2557 2560 2563 2566 2569 2572 2575 2578 2581 2584 2587 2590 2593 2596 2599 2602 2605 2608 2611 2614 2617 2620 2623 2626 2629 2632 2635 2638 2641 2644 2647 2650 2653 2656 2659 2662 2665 2668 2671 2674 2677 2680 2683 2686 2689 2692 2695 2698 2701 2704 2707 2710 2713 2716 2719 2722 2725 2728 2731 2734 2737 2740 2743 2746 2749 2752 2755 2758 2761 2764 2767 2770 2773 2776 2779 2782 2785 2788 2791 2794 2797 2800 2803 2806 2809 2812 2815 2818 2821 2824 2827 2830 2833 2836 2839 2842 2845 2848 2851 2854 2857 2860 2863 2866 2869 2872 2875 2878 2881 2884 2887 2890 2893 2896 2899 2902 2905 2908 2911 2914 2917 2920 2923 2926 2929 2932 2935 2938 2941 2944 2947 2950 2953 2956 2959 2962 2965 2968 2971 2974 2977 2980 2983 2986 2989 2992 2995 2998 3001 3004 3007 3010 3013 3016 3019 3022 3025 3028 3031 3034 3037 3040 3043 3046 3049 3052 3055 3058 3061 3064 3067 3070 3073 3076 3079 3082 3085 3088 3091 3094 3097 3100 3103 3106 3109 3112 3115 3118 3121 3124 3127 3130 3133 3136 3139 3142 
</DataArray>
<DataArray type="UInt32" Name="types" format="ascii">
3 3 3 3 3 3 3 3 3 3 3 3 3 3 3 3 3 3 3 3 5 5 5 5 5 5 5 5 5 5 5 5 5 5 5 5 5 5 5 5 5 5 5 5 5 5 5 5 5 5 5 5 5 5 5 5 5 5 5 5 5 5 5 5 5 5 5 5 5 5 5 5 5 5 5 5 5 5 5 5 5 5 5 5 5 5 5 5 5 5 5 5 5 5 5 5 5 5 5 5 5 5 5 5 5 5 5 5 5 5 5 5 5 5 5 5 5 5 5 5 5 5 5 5 5 5 5 5 5 5 5 5 5 5 5 5 5 5 5 5 5 5 5 5 5 5 5 5 5 5 5 5 5 5 5 5 5 5 5 5 5 5 5 5 5 5 5 5 5 5 5 5 5 5 5 5 5 5 5 5 5 5 5 5 5 5 5 5 5 5 5 5 5 5 5 5 5 5 5 5 5 5 5 5 5 5 5 5 5 5 5 5 5 5 5 5 5 5 5 5 5 5 5 5 5 5 5 5 5 5 5 5 5 5 5 5 5 5 5 5 5 5 5 5 5 5 5 5 5 5 5 5 5 5 5 5 5 5 5 5 5 5 5 5 5 5 5 5 5 5 5 5 5 5 5 5 5 5 5 5 5 5 5 5 5 5 5 5 5 5 5 5 5 5 5 5 5 5 5 5 5 5 5 5 5 5 5 5 5 5 5 5 5 5 5 5 5 5 5 5 5 5 5 5 5 5 5 5 5 5 5 5 5 5 5 5 5 5 5 5 5 5 5 5 5 5 5 5 5 5 5 5 5 5 5 5 5 5 5 5 5 5 5 5 5 5 5 5 5 5 5 5 5 5 5 5 5 5 5 5 5 5 5 5 5 5 5 5 5 5 5 5 5 5 5 5 5 5 5 5 5 5 5 5 5 5 5 5 5 5 5 5 5 5 5 5 5 5 5 5 5 5 5 5 5 5 5 5 5 5 5 5 5 5 5 5 5 5 5 5 5 5 5 5 5 5 5 5 5 5 5 5 5 5 5 5 5 5 5 5 5 5 5 5 5 5 5 5 5 5 5 5 5 5 5 5 5 5 5 5 5 5 5 5 5 5 5 5 5 5 5 5 5 5 5 5 5 5 5 5 5 5 5 5 5 5 5 5 5 5 5 5 5 5 5 5 5 5 5 5 5 5 5 5 5 5 5 5 5 5 5 5 5 5 5 5 5 5 5 5 5 5 5 5 5 5 5 5 5 5 5 5 5 5 5 5 5 5 5 5 5 5 5 5 5 5 5 5 5 5 5 5 5 5 5 5 5 5 5 5 5 5 5 5 5 5 5 5 5 5 5 5 5 5 5 5 5 5 5 5 5 5 5 5 5 5 5 5 5 5 5 5 5 5 5 5 5 5 5 5 5 5 5 5 5 5 5 5 5 5 5 5 5 5 5 5 5 5 5 5 5 5 5 5 5 5 5 5 5 5 5 5 5 5 5 5 5 5 5 5 5 5 5 5 5 5 5 5 5 5 5 5 5 5 5 5 5 5 5 5 5 5 5 5 5 5 5 5 5 5 5 5 5 5 5 5 5 5 5 5 5 5 5 5 5 5 5 5 5 5 5 5 5 5 5 5 5 5 5 5 5 5 5 5 5 5 5 5 5 5 5 5 5 5 5 5 5 5 5 5 5 5 5 5 5 5 5 5 5 5 5 5 5 5 5 5 5 5 5 5 5 5 5 5 5 5 5 5 5 5 5 5 5 5 5 5 5 5 5 5 5 5 5 5 5 5 5 5 5 5 5 5 5 5 5 5 5 5 5 5 5 5 5 5 5 5 5 5 5 5 5 5 5 5 5 5 5 5 5 5 5 5 5 5 5 5 5 5 5 5 5 5 5 5 5 5 5 5 5 5 5 5 5 5 5 5 5 5 5 5 5 5 5 5 5 5 5 5 5 5 5 5 5 5 5 5 5 5 5 5 5 5 5 5 5 5 5 5 5 5 5 5 5 5 5 5 5 5 5 5 5 5 5 5 5 5 5 5 5 5 5 5 5 5 5 5 5 5 5 5 5 5 5 5 5 5 5 5 5 5 5 5 5 5 5 5 5 5 5 5 5 5 5 5 5 5 5 5 5 5 5 5 5 5 5 5 5 5 5 5 5 5 5 5 5 5 5 5 5 5 5 5 5 5 5 5 5 5 5 5 5 5 5 5 5 5 5 5 5 5 5 5 5 5 5 5 5 5 5 5 5 5 5 5 5 5 5 5 5 5 5 5 5 5 5 5 5 5 5 5 5 5 5 5 5 5 5 5 5 5 5 5 5 5 5 5 5 5 5 5 5 5 5 5 5 5 5 5 5 5 5 5 5 5 5 5 5 5 5 5 5 5 5 5 
</DataArray>
</Cells>
<PointData Scalars="" Vectors="displacement," Tensors="">
<DataArray type="Float64" Name="displacement" NumberOfComponents="3" format="ascii">
-2.4541288696951938e-05 -2.2546881285758027e-05 0 -2.6454091247841641e-05 -2.9991385006996476e-05 0 -2.6454091247841641e-05 -2.9991385006996476e-05 0 -2.8689305779252643e-05 -3.8396682464398839e-05 0 -2.8689305779252643e-05 -3.8396682464398839e-05 0 -3.1183660972730748e-05 -4.8017539261047977e-05 0 -3.1183660972730748e-05 -4.8017539261047977e-05 0 -3.3484936644656014e-05 -5.7898367717228832e-05 0 -3.3484936644656014e-05 -5.7898367717228832e-05 0 -3.5525892331334457e-05 -6.7692702696646898e-05 0 -3.5525892331334457e-05 -6.7692702696646898e-05 0 -3.7474047031604333e-05 -7.7265947994628557e-05 0 -3.7474047031604333e-05 -7.7265947994628557e-05 0 -3.9457862462690002e-05 -8.6312955130120485e-05 0 -3.9457862462690002e-05 -8.6312955130120485e-05 0 -4.148120837599138e-05 -9.4955097794171281e-05 0 -4.148120837599138e-05 -9.4955097794171281e-05 0 -4.2792386006701286e-05 -0.00010225978291055511 0 -4.2792386006701286e-05 -0.00010225978291055511 0 -4.6770754792805075e-05 -0.00010980195347590721 0 -1.8306391765496063e-06 2.787698046352704e-05 0 2.4040621220156981e-06 4.2628894843042973e-05 0 2.4040621220156981e-06 4.2628894843042973e-05 0 9.0699753802918783e-07 5.0028431836536713e-05 0 9.0699753802918783e-07 5.0028431836536713e-05 0 -8.7983994968797138e-07 6.37671857437579e-05 0 -8.7983994968797138e-07 6.37671857437579e-05 0 -3.0511146216171045e-06 7.6042875527440818e-05 0 -3.0511146216171045e-06 7.6042875527440818e-05 0 -5.5395355793874054e-06 8.9456811987909818e-05 0 -5.5395355793874054e-06 8.9456811987909818e-05 0 -8.3348650172533866e-06 0.00010282390470329401 0 -8.3348650172533866e-06 0.00010282390470329401 0 -1.1207995892620321e-05 0.00011529979260361736 0 -1.1207995892620321e-05 0.00011529979260361736 0 -1.559825280545757e-05 0.00012913337390720527 0 -1.559825280545757e-05 0.00012913337390720527 0 -1.4651203654627231e-05 0.00013950150748658869 0 -1.4651203654627231e-05 0.00013950150748658869 0 -3.4698212259175411e-05 0.00015304000092199467 0 -2.0258755613962179e-05 -1.0111221103845936e-05 0 -1.5500514744910437e-05 -4.8166802963709662e-06 0 -1.8717846280092093e-05 -9.0634428886293447e-06 0 -1.8255711719513162e-05 -6.5122798095872058e-06 0 -1.5500514744910437e-05 -4.8166802963709662e-06 0 -2.0258755613962179e-05 -1.0111221103845936e-05 0 -3.433817366755812e-05 -1.7315375567593473e-05 0 -3.0397638499287653e-05 -1.3324576256009961e-05 0 -3.1076141195214393e-05 -1.7218615526796952e-05 0 -3.1076141195214393e-05 -1.7218615526796952e-05 0 -3.0397638499287656e-05 -1.3324576256009961e-05 0 -2.7851047735317633e-05 -1.5713761424783681e-05 0 -1.6605426149774863e-05 5.7273525708702036e-06 0 -7.2214330825884858e-06 1.6429290352759292e-06 0 -1.5003854687680754e-05 3.4668399977836221e-06 0 -1.2503842681096789e-05 -5.6862106455424529e-06 0 -1.1129710773686362e-05 -4.1342381506490363e-06 0 -5.4136338683815136e-06 -2.0640418081990109e-06 0 -8.5953525950395624e-06 4.0505647279882116e-06 0 -7.2214330825884858e-06 1.6429290352759292e-06 0 -1.6605426149774863e-05 5.7273525708702036e-06 0 -6.6899246713895821e-06 -3.775316505981439e-06 0 -1.2503842681096789e-05 -5.6862106455424529e-06 0 -5.4136338683815136e-06 -2.0640418081990109e-06 0 -3.0858400236255537e-05 -1.1981570265120052e-05 0 -3.7429490192379333e-05 -1.5199920533787164e-05 0 -2.9740303041680742e-05 -1.0971674922900932e-05 0 -5.5726697879222295e-05 1.8851847385045968e-05 0 -4.4602200472903649e-05 1.3480241087771193e-05 0 -4.3680309547282082e-05 1.2591419066588782e-05 0 -4.4016329652755156e-06 8.3171569201962202e-07 0 -5.6375408286046859e-06 1.8767654732442587e-06 0 -5.6884976624004679e-06 6.5149020414215846e-07 0 -7.5052451303057939e-06 2.6919826779707857e-06 0 -5.6884976624004679e-06 6.5149020414215846e-07 0 -5.6375408286046859e-06 1.8767654732442587e-06 0 -6.7716906083253332e-06 -2.0291464938073333e-07 0 -8.9883388225854086e-06 -9.2376597034977078e-07 0 -6.3665602557028718e-06 1.133464078498778e-07 0 -2.9388611836711754e-09 -6.2493848603394856e-10 0 -2.3449440608613765e-09 -4.3469308586710993e-10 0 -2.5554382798615703e-06 -9.1851394926188646e-07 0 -2.3815836294291666e-09 2.5912505212774318e-10 0 -2.7572754961429958e-09 2.5706536479788002e-10 0 -2.5954438365654016e-06 3.7526895642721221e-07 0 -3.8568348957998511e-05 -2.2426487227929807e-05 0 -3.8684604401552791e-05 -2.2244529937182345e-05 0 -3.433817366755812e-05 -1.7315375567593473e-05 0 -3.4943253427791885e-06 3.1258489293792669e-05 0 -8.9534094711853307e-06 2.075255976839535e-05 0 -1.132340359019322e-05 2.093038626590679e-05 0 -6.019656640149447e-05 -0.00017015515892896676 0 -5.1114318132903951e-05 -0.00015955636338961361 0 -6.0060465641582202e-05 -0.00015584932482813637 0 -7.442688219164479e-05 0.00035872793099188751 0 -9.7705475890924717e-05 0.00033493567402929713 0 -7.4101253690435345e-05 0.00032536845246687682 0 -7.442688219164479e-05 0.00035872793099188751 0 -7.4101253690435345e-05 0.00032536845246687682 0 -5.1688254363583741e-05 0.00033360083848899734 0 -6.019656640149447e-05 -0.00017015515892896676 0 -6.0060465641582202e-05 -0.00015584932482813637 0 -6.9834710941684859e-05 -0.00015992894255979941 0 -0.00010171336728640308 0.00030711651536692618 0 -7.161812512005603e-05 0.00029320771420354431 0 -7.4101253690435345e-05 0.00032536845246687682 0 -4.8858896668387034e-05 -0.00014693822986082186 0 -6.0097021195259839e-05 -0.00014116460269403776 0 -6.0060465641582202e-05 -0.00015584932482813637 0 -6.7716906083253332e-06 -2.0291464938073333e-07 0 -6.3665602557028718e-06 1.133464078498778e-07 0 -4.5261326647105603e-06 3.585485453195903e-07 0 -3.4943253427791885e-06 3.1258489293792669e-05 0 -1.4347821147209792e-05 2.8622717923253637e-05 0 -8.9534094711853307e-06 2.075255976839535e-05 0 -0.00012119903669840038 9.5527897396537935e-05 0 -0.00010923159246102026 7.2051129092794511e-05 0 -8.9066313147372186e-05 7.6913118280243185e-05 0 -6.6722811146181394e-05 -4.0632883111470473e-05 0 -7.3351173197578102e-05 -5.1097412864030983e-05 0 -5.84662026196871e-05 -4.2831333903493116e-05 0 -3.2909475732632019e-05 -1.8801193296113594e-05 0 -3.8568348957998511e-05 -2.2426487227929807e-05 0 -3.433817366755812e-05 -1.7315375567593473e-05 0 -6.3015353106577403e-05 6.3133706504243719e-05 0 -5.4901300611950224e-05 3.9554821211604321e-05 0 -4.5398425351956071e-05 4.1832981525493235e-05 0 -3.2567236356666696e-05 1.4087667801805734e-05 0 -4.3227286788762265e-05 1.9866585460477667e-05 0 -4.0418876463590776e-05 1.3289195563268204e-05 0 -2.5325553532414138e-05 -4.0879225888245523e-06 0 -2.2074044175930745e-05 2.4651396694198226e-07 0 -2.7262825582749338e-05 -7.1912191381356003e-06 0 -5.8349065818066986e-05 -0.00012582337146962067 0 -4.9781656251689251e-05 -0.0001209839188305605 0 -5.7918602966645712e-05 -0.0001093331090860631 0 -7.1569278854711666e-05 0.00026054424751829186 0 -9.1012002063023203e-05 0.00025134290518307383 0 -6.6228179923451643e-05 0.00022384245107888142 0 -5.7918602966645712e-05 -0.0001093331090860631 0 -4.9781656251689251e-05 -0.0001209839188305605 0 -4.8008371523114592e-05 -0.00010674806882638593 0 -6.6228179923451643e-05 0.00022384245107888142 0 -9.1012002063023203e-05 0.00025134290518307383 0 -8.9450920769480917e-05 0.00022438955025651269 0 -3.2567236356666696e-05 1.4087667801805734e-05 0 -4.0418876463590776e-05 1.3289195563268204e-05 0 -2.8812616037359919e-05 9.3274963698796868e-06 0 -2.5910107215278726e-05 -9.1056521305097407e-06 0 -2.1640524362579544e-05 2.6875631676477136e-06 0 -2.5325553532414138e-05 -4.0879225888245523e-06 0 -6.3015353106577403e-05 6.3133706504243719e-05 0 -7.1364956543728994e-05 5.4733680765263639e-05 0 -5.4901300611950231e-05 3.9554821211604321e-05 0 -3.4943253427791885e-06 3.1258489293792669e-05 0 8.3814751961282335e-06 7.8544279106509618e-05 0 -1.6585687224226999e-05 8.1593367517387931e-05 0 -5.2390892534492357e-05 -5.1800732080217335e-05 0 -4.773982041812406e-05 -4.8014734478659307e-05 0 -5.2643753422988376e-05 -4.9258167084220471e-05 0 -3.6076006353627217e-05 -4.8843920177329156e-05 0 -3.482166708037523e-05 -4.6490334356506576e-05 0 -3.6137262083174048e-05 -5.0103432611712178e-05 0 -1.8556115818513251e-05 6.4412021200937279e-06 0 -2.2074044175930745e-05 2.4651396694198226e-07 0 -2.5325553532414138e-05 -4.0879225888245523e-06 0 -3.0981025244426003e-05 -0.00015334896633874869 0 -3.8707411609647313e-05 -0.00014360633656428724 0 -4.1925292820355307e-05 -0.00015583573021590275 0 -0.00015443922870675588 0.00033286395158902462 0 -0.00012865553990028768 0.00030419400320345414 0 -0.00012346907872195814 0.00032949445625938439 0 -1.9625476285091819e-09 -3.361678140926287e-10 0 -1.6257141552870236e-06 -2.9651213871166461e-07 0 -1.8383418649341495e-06 -6.01853344148088e-07 0 -2.1109181127143428e-09 2.7969682812614104e-10 0 -2.0784717925635313e-06 4.391177373949339e-07 0 -1.9412054137019588e-06 5.0350360364472174e-07 0 -6.3015353106577403e-05 6.3133706504243719e-05 0 -4.5593727440268133e-05 6.032426759145152e-05 0 -5.898116507540942e-05 9.0698762803362269e-05 0 -3.6740728901783831e-05 8.0414298825505322e-05 0 -5.898116507540942e-05 9.0698762803362269e-05 0 -4.5593727440268133e-05 6.032426759145152e-05 0 -2.1627520221781527e-05 5.1008844769883403e-05 0 -3.4943253427791885e-06 3.1258489293792669e-05 0 -1.6585687224226999e-05 8.1593367517387931e-05 0 -0.00015423096259731652 0.00027561793530339715 0 -0.00011772506068732916 0.00027631077018031545 0 -0.00012865553990028768 0.00030419400320345414 0 -2.6143916816310326e-05 -0.00012637268777904653 0 -4.1019487970584073e-05 -0.00013107107408168365 0 -3.8707411609647307e-05 -0.00014360633656428722 0 -3.5795967673656955e-05 -4.3916716817523664e-05 0 -3.6013425842183919e-05 -4.0463163822459045e-05 0 -3.8491368310274079e-05 -4.3710137262400197e-05 0 -2.4741472429965901e-05 -4.2645767310363565e-06 0 -2.7262825582749338e-05 -7.1912191381356003e-06 0 -2.2074044175930745e-05 2.4651396694198226e-07 0 -3.0220033841529692e-05 -1.2659412804703166e-05 0 -3.2783337669816087e-05 -1.7946794226304733e-05 0 -3.0149584883874323e-05 -1.7536722077582642e-05 0 -2.5651288507164694e-05 -2.7394607460856863e-05 0 -2.5669759683654296e-05 -2.384809077091678e-05 0 -3.026954288138199e-05 -2.9400702298963037e-05 0 -0.00014044415716353364 0.00015217721220399898 0 -0.00011009941117825558 0.00013224431465853567 0 -0.00012091746974556166 0.00016924926156849533 0 -9.4184353023236123e-05 -0.00013323817138264282 0 -8.3182187261376101e-05 -0.0001464774771654873 0 -7.8997582252641368e-05 -0.00013433873716738883 0 5.8090930506203517e-06 0.00026428380826542088 0 -2.1210951402796161e-05 0.00029969517885178467 0 -2.6876227508920931e-05 0.00027422846990497279 0 -2.8541853948222132e-05 -0.00013977328052330567 0 -3.8707411609647307e-05 -0.00014360633656428722 0 -3.0981025244426003e-05 -0.00015334896633874869 0 -0.00015443922870675588 0.00033286395158902462 0 -0.00015453578896375787 0.00030468751527303441 0 -0.00012865553990028768 0.00030419400320345414 0 -4.4840979033016757e-05 -4.2441430982141084e-05 0 -4.5377896440517367e-05 -3.9102667227488517e-05 0 -4.7743701670209742e-05 -4.3133132602877052e-05 0 -2.4777060615625421e-05 -2.2765902789397316e-05 0 -2.8484552514817047e-05 -2.7396730714391633e-05 0 -2.9764997138004156e-05 -3.8852002181626895e-05 0 -4.4840979033016757e-05 -4.2441430982141084e-05 0 -4.3002015558331979e-05 -3.9239178291466634e-05 0 -4.5377896440517367e-05 -3.9102667227488517e-05 0 -2.925336900234091e-05 -2.4230784751992674e-05 0 -3.026954288138199e-05 -2.9400702298963037e-05 0 -2.5669759683654296e-05 -2.384809077091678e-05 0 -5.0135248276261556e-05 -6.5087615357017399e-05 0 -5.3964553527433741e-05 -8.2817581172343205e-05 0 -4.3432273230046444e-05 -6.888988779900495e-05 0 -4.0522013886681419e-09 2.9591577361412888e-10 0 -5.4136338683815136e-06 -2.0640418081990109e-06 0 -3.7688488961988695e-06 -7.8296444068897906e-07 0 -5.5011491000429384e-09 -6.9721463217950042e-10 0 -4.9117288545596717e-06 5.6543050386952121e-08 0 -7.2214330825884858e-06 1.6429290352759292e-06 0 -5.2390892534492357e-05 -5.1800732080217335e-05 0 -4.7773266426600296e-05 -5.13623841579756e-05 0 -4.773982041812406e-05 -4.8014734478659307e-05 0 -3.6604128929867281e-05 -5.1140382225306461e-05 0 -3.6076006353627217e-05 -4.8843920177329156e-05 0 -3.6137262083174048e-05 -5.0103432611712178e-05 0 -4.1845800142305035e-09 -9.7302536463540322e-10 0 -6.3818416743897112e-06 -5.1241072555232573e-07 0 -4.9117288545596709e-06 5.6543050386951717e-08 0 -3.3945552584948029e-09 3.5195574407378018e-10 0 -3.7688488961988695e-06 -7.8296444068897906e-07 0 -5.1209801265649556e-06 -6.2375442945985878e-07 0 -5.6884976624004679e-06 6.5149020414215846e-07 0 -4.2998096786917452e-06 -7.0860575618295848e-07 0 -4.0705250723700574e-06 3.7703229764419528e-08 0 -1.8328978143850193e-05 -7.4513124776533525e-06 0 -1.5291079035451526e-05 -5.007768244166559e-06 0 -1.1129710773686362e-05 -4.1342381506490363e-06 0 -2.5094515170828337e-05 7.4509413444855288e-06 0 -1.5003854687680755e-05 3.4668399977836221e-06 0 -2.077865354703053e-05 4.0142270741743907e-06 0 -3.4318422509118674e-05 -2.9364878226305506e-05 0 -3.2321693598049693e-05 -2.4808649863834309e-05 0 -3.5985408084108418e-05 -2.707353952564774e-05 0 -3.365244921678883e-05 -2.2343046897209694e-05 0 -3.0149584883874323e-05 -1.7536722077582642e-05 0 -3.2783337669816087e-05 -1.7946794226304733e-05 0 -9.1673262263344397e-07 0.00032137903850363317 0 -2.8314002714407872e-05 0.00032548311014827879 0 -2.1210951402796161e-05 0.00029969517885178467 0 -9.4427250839222775e-05 -0.00015898894719071764 0 -8.0842550885850252e-05 -0.00015748702497073362 0 -8.3182187261376101e-05 -0.0001464774771654873 0 -3.365244921678883e-05 -2.2343046897209694e-05 0 -3.5985408084108418e-05 -2.707353952564774e-05 0 -3.2321693598049693e-05 -2.4808649863834309e-05 0 -3.6013425842183919e-05 -4.0463163822459045e-05 0 -3.3028337505334528e-05 -3.8965830938880742e-05 0 -3.4723480795029033e-05 -3.5271011971426476e-05 0 -8.9921963951256241e-05 0.00019635526948804963 0 -7.9453306425677055e-05 0.00015690421277174041 0 -6.3757164751229552e-05 0.00017086646897240175 0 -5.5011491000429384e-09 -6.9721463217950042e-10 0 -5.8818639775125018e-09 4.4721383729838469e-10 0 -4.9117288545596709e-06 5.6543050386951717e-08 0 -4.5095440437057244e-09 -6.0200563134183062e-10 0 -4.0522013886681419e-09 2.9591577361412888e-10 0 -3.7688488961988695e-06 -7.8296444068897906e-07 0 -5.6884976624004679e-06 6.5149020414215846e-07 0 -6.8271917052678516e-06 1.5656778305109423e-07 0 -4.2998096786917452e-06 -7.0860575618295848e-07 0 -4.6515807698219476e-05 0.00030505597302423425 0 -7.4101253690435345e-05 0.00032536845246687682 0 -7.161812512005603e-05 0.00029320771420354431 0 -7.1451267928240023e-05 -0.00014724462569461557 0 -6.0060465641582202e-05 -0.00015584932482813637 0 -6.0097021195259839e-05 -0.00014116460269403776 0 -5.3964553527433741e-05 -8.2817581172343205e-05 0 -4.4978815588690458e-05 -8.2719185592965792e-05 0 -4.3432273230046444e-05 -6.888988779900495e-05 0 -2.4317465112978678e-06 3.5488723751795806e-07 0 -3.4522001249479283e-06 7.1629833317679358e-07 0 -3.1822754738597468e-06 4.3141425427144462e-07 0 -1.8490123620435175e-05 3.2692139063298539e-06 0 -1.4700713051126801e-05 2.9356199740842037e-06 0 -2.1168861656074424e-05 5.7960590107395483e-06 0 -3.3028337505334528e-05 -3.8965830938880742e-05 0 -3.137248323163551e-05 -3.4673761837627473e-05 0 -3.4723480795029033e-05 -3.5271011971426476e-05 0 -3.1822754738597468e-06 4.3141425427144462e-07 0 -3.4522001249479283e-06 7.1629833317679358e-07 0 -4.0518835958029457e-06 9.1299909322619631e-07 0 -3.4522001249479283e-06 7.1629833317679358e-07 0 -2.0447145590765896e-06 4.2959365607813482e-07 0 -3.5611754434286028e-06 6.9250790659802943e-07 0 -2.6254547165877788e-06 5.905903899964218e-07 0 -3.5611754434286028e-06 6.9250790659802943e-07 0 -2.0447145590765896e-06 4.2959365607813482e-07 0 -4.8139252217367604e-05 -4.1550508087778339e-05 0 -4.5377896440517367e-05 -3.9102667227488517e-05 0 -4.729553773536941e-05 -3.8142560772082261e-05 0 -3.0220033841529692e-05 -1.2659412804703166e-05 0 -3.0149584883874323e-05 -1.7536722077582642e-05 0 -2.8081112125753521e-05 -1.0821071117507166e-05 0 -3.5795967673656955e-05 -4.3916716817523664e-05 0 -3.3028337505334528e-05 -3.8965830938880742e-05 0 -3.6013425842183919e-05 -4.0463163822459045e-05 0 -1.8556115818513251e-05 6.4412021200937279e-06 0 -2.5325553532414138e-05 -4.0879225888245515e-06 0 -2.1640524362579544e-05 2.6875631676477136e-06 0 2.5402284940232782e-06 0.00029260552765345959 0 -9.1673262263344397e-07 0.00032137903850363317 0 -2.1210951402796161e-05 0.00029969517885178467 0 -9.4467360280998505e-05 -0.00014643384579016052 0 -9.4427250839222775e-05 -0.00015898894719071764 0 -8.3182187261376101e-05 -0.0001464774771654873 0 -9.4184353023236123e-05 -0.00013323817138264282 0 -9.4467360280998505e-05 -0.00014643384579016052 0 -8.3182187261376101e-05 -0.0001464774771654873 0 5.8090930506203517e-06 0.00026428380826542088 0 2.5402284940232782e-06 0.00029260552765345959 0 -2.1210951402796161e-05 0.00029969517885178467 0 -1.3555326934923754e-05 1.1557801811053667e-05 0 -1.3234931651799811e-05 8.9985620398596764e-06 0 -1.8556115818513251e-05 6.4412021200937279e-06 0 -6.4020701894044856e-06 2.9051304502817333e-07 0 -4.2214910867946874e-06 5.9726733485725946e-07 0 -6.3665602557028718e-06 1.133464078498778e-07 0 -3.6857906822336805e-06 5.4274907933026043e-07 0 -6.3665602557028718e-06 1.133464078498778e-07 0 -4.2214910867946874e-06 5.9726733485725946e-07 0 -1.8062911728126865e-05 0.00017186038134210581 0 -1.1467192175241593e-05 0.00019215253482344593 0 -4.0504902577438059e-05 0.00019457815710204141 0 -1.1467192175241593e-05 0.00019215253482344593 0 -1.9854564829859398e-05 0.00021395182784444337 0 -4.0504902577438059e-05 0.00019457815710204141 0 -2.5910107215278726e-05 -9.1056521305097407e-06 0 -2.5325553532414138e-05 -4.0879225888245532e-06 0 -2.8081112125753521e-05 -1.0821071117507166e-05 0 -3.7454508634726206e-05 -5.225325981583433e-05 0 -3.6137262083174048e-05 -5.0103432611712178e-05 0 -3.7238281941220253e-05 -4.9077267217885702e-05 0 -4.3237381324503996e-05 -5.1476285686400521e-05 0 -4.3969039042403295e-05 -4.7136030568321729e-05 0 -4.773982041812406e-05 -4.8014734478659307e-05 0 -1.3234931651799811e-05 8.9985620398596764e-06 0 -1.6713203913360515e-05 4.6098052922040261e-06 0 -1.8556115818513251e-05 6.4412021200937279e-06 0 -0.00015453578896375787 0.00030468751527303441 0 -0.00015423096259731652 0.00027561793530339715 0 -0.00012865553990028768 0.00030419400320345414 0 -2.6143916816310326e-05 -0.00012637268777904653 0 -3.8707411609647307e-05 -0.00014360633656428722 0 -2.8541853948222132e-05 -0.00013977328052330567 0 -3.7429490192379333e-05 -1.5199920533787164e-05 0 -3.6909744615896796e-05 -1.5094493224268881e-05 0 -2.9740303041680742e-05 -1.0971674922900932e-05 0 -5.5726697879222295e-05 1.8851847385045968e-05 0 -4.3680309547282082e-05 1.2591419066588782e-05 0 -5.3934164390268693e-05 1.906653037303169e-05 0 -2.5910107215278726e-05 -9.1056521305097407e-06 0 -3.0149584883874323e-05 -1.7536722077582642e-05 0 -2.6177646247625949e-05 -1.8386044882658825e-05 0 -2.4777060615625421e-05 -2.2765902789397316e-05 0 -2.9764997138004156e-05 -3.8852002181626895e-05 0 -2.0239606969804584e-05 -4.075537872311078e-05 0 -2.925336900234091e-05 -2.4230784751992674e-05 0 -3.0149584883874323e-05 -1.7536722077582642e-05 0 -3.2321693598049693e-05 -2.4808649863834309e-05 0 -3.365244921678883e-05 -2.2343046897209694e-05 0 -3.2321693598049693e-05 -2.4808649863834309e-05 0 -3.0149584883874323e-05 -1.7536722077582642e-05 0 -6.019656640149447e-05 -0.00017015515892896676 0 -5.0590284658941779e-05 -0.00016927082028177782 0 -5.1114318132903951e-05 -0.00015955636338961361 0 -7.442688219164479e-05 0.00035872793099188751 0 -0.00010014366313312792 0.00035946531667006512 0 -9.7705475890924704e-05 0.00033493567402929713 0 -5.0274253587693054e-05 0.00035683278945655835 0 -7.442688219164479e-05 0.00035872793099188751 0 -5.1688254363583741e-05 0.00033360083848899734 0 -7.0895290138020236e-05 -0.00017047784915917816 0 -6.019656640149447e-05 -0.00017015515892896676 0 -6.9834710941684859e-05 -0.00015992894255979941 0 -2.8359017020409469e-05 3.8610670760898218e-05 0 -4.5593727440268133e-05 6.032426759145152e-05 0 -4.5398425351956071e-05 4.1832981525493235e-05 0 -3.8475784201733952e-05 -2.686024889262546e-05 0 -4.1643389724899001e-05 -3.1322965112779885e-05 0 -3.9431911411302741e-05 -3.1573441876734514e-05 0 -2.925336900234091e-05 -2.4230784751992674e-05 0 -3.2321693598049693e-05 -2.4808649863834309e-05 0 -3.026954288138199e-05 -2.9400702298963037e-05 0 -3.4318422509118674e-05 -2.9364878226305506e-05 0 -3.026954288138199e-05 -2.9400702298963037e-05 0 -3.2321693598049693e-05 -2.4808649863834309e-05 0 -3.6157093396235217e-05 -7.2060189569722588e-05 0 -3.3444296028933626e-05 -5.5522651382076216e-05 0 -4.3432273230046444e-05 -6.888988779900495e-05 0 -0.00012119903669840038 9.5527897396537935e-05 0 -8.9066313147372186e-05 7.6913118280243185e-05 0 -0.00010822607364980241 0.00010577667580616569 0 -3.1452250278612962e-05 -1.7610377965456577e-05 0 -3.8179124774454544e-05 -2.4555313312891508e-05 0 -3.007191541143756e-05 -1.99610670415206e-05 0 -3.4712120747844932e-05 -2.7291674928167123e-05 0 -3.007191541143756e-05 -1.99610670415206e-05 0 -3.8179124774454544e-05 -2.4555313312891508e-05 0 -4.6190482687892731e-05 -4.4931573324332264e-05 0 -4.2426170735615035e-05 -4.4094638326021532e-05 0 -4.4840979033016757e-05 -4.2441430982141084e-05 0 -9.9208584700910901e-05 0.00015234145996904485 0 -0.00012091746974556166 0.00016924926156849533 0 -0.00011009941117825558 0.00013224431465853567 0 -3.6184879302588692e-05 -1.598241824585627e-05 0 -4.4214633363142979e-05 -2.1759097066901015e-05 0 -3.779648092399277e-05 -1.9794703967357755e-05 0 -4.5775130251504584e-05 -2.6249747848585077e-05 0 -3.779648092399277e-05 -1.9794703967357755e-05 0 -4.4214633363142979e-05 -2.1759097066901015e-05 0 -6.6630507440024086e-05 4.168488675214898e-05 0 -6.571801939589549e-05 3.2174907698966128e-05 0 -5.2974832013380851e-05 2.9105580212820236e-05 0 -5.221966260524103e-05 2.193317947818103e-05 0 -5.2974832013380851e-05 2.9105580212820236e-05 0 -6.571801939589549e-05 3.2174907698966128e-05 0 -4.3510464657955682e-05 -3.5734802713176908e-05 0 -4.0536671245345433e-05 -3.5858105606899827e-05 0 -3.9431911411302741e-05 -3.1573441876734514e-05 0 -7.3351173197578102e-05 -5.1097412864030983e-05 0 -6.8217887768731264e-05 -5.5357183854404871e-05 0 -5.84662026196871e-05 -4.2831333903493116e-05 0 -2.8178037868175288e-05 0.00014427387977656501 0 -4.4451961290588151e-05 0.00011610647803914955 0 -2.2271677350718856e-05 0.00011064886694378335 0 -2.4741472429965901e-05 -4.2645767310363565e-06 0 -2.6255284751157842e-05 -8.1166041391675984e-06 0 -2.9577669075822349e-05 -1.0629367935497646e-05 0 -8.9738613067315372e-06 2.2254018931765902e-06 0 -8.1139741386789051e-06 4.3660816722630935e-06 0 -6.9767202408147417e-06 2.7655349913745753e-06 0 -0.00011103004460099928 0.00024254567796607701 0 -9.1012002063023203e-05 0.00025134290518307383 0 -0.00011772506068732916 0.00027631077018031545 0 -4.1006027430126448e-05 -0.00011503978540548262 0 -4.9781656251689251e-05 -0.0001209839188305605 0 -4.1019487970584073e-05 -0.00013107107408168365 0 -2.5910107215278726e-05 -9.1056521305097407e-06 0 -2.8081112125753521e-05 -1.0821071117507164e-05 0 -3.0149584883874323e-05 -1.7536722077582642e-05 0 -4.3969039042403295e-05 -4.7136030568321722e-05 0 -4.2426170735615035e-05 -4.4094638326021532e-05 0 -4.6190482687892731e-05 -4.4931573324332264e-05 0 -3.4318422509118674e-05 -2.9364878226305506e-05 0 -3.7131811911734703e-05 -3.1942888996717075e-05 0 -3.4723480795029033e-05 -3.5271011971426476e-05 0 -2.3449440608613765e-09 -4.3469308586710993e-10 0 -1.8383418649341495e-06 -6.01853344148088e-07 0 -2.5554382798615703e-06 -9.1851394926188646e-07 0 -2.3815836294291666e-09 2.5912505212774318e-10 0 -2.5954438365654016e-06 3.7526895642721221e-07 0 -2.0784717925635313e-06 4.391177373949339e-07 0 -3.3444296028933626e-05 -5.5522651382076216e-05 0 -4.2222137202553684e-05 -5.5945568393057502e-05 0 -4.3432273230046444e-05 -6.888988779900495e-05 0 -1.8490123620435175e-05 3.2692139063298539e-06 0 -2.1168861656074424e-05 5.7960590107395483e-06 0 -2.4962216490951172e-05 5.4351356671392977e-06 0 -3.7943919482413798e-05 2.4384478169605303e-05 0 -4.5398425351956065e-05 4.1832981525493229e-05 0 -5.4901300611950231e-05 3.9554821211604321e-05 0 -2.9738509258820685e-06 -4.2902331609825172e-07 0 -1.6257141552870236e-06 -2.9651213871166461e-07 0 -3.0480475985228802e-06 2.0381931542558671e-09 0 -2.2289581159906385e-06 1.0404256241143792e-07 0 -3.0480475985228802e-06 2.0381931542558671e-09 0 -1.6257141552870236e-06 -2.9651213871166461e-07 0 -2.6254547165877788e-06 5.905903899964218e-07 0 -1.9412054137019588e-06 5.0350360364472174e-07 0 -4.2214910867946874e-06 5.9726733485725946e-07 0 -3.6857906822336805e-06 5.4274907933026043e-07 0 -4.2214910867946874e-06 5.9726733485725946e-07 0 -1.9412054137019588e-06 5.0350360364472174e-07 0 -3.2567236356666696e-05 1.4087667801805734e-05 0 -2.7311294690630666e-05 1.5872009731088039e-05 0 -3.7943919482413798e-05 2.4384478169605303e-05 0 -8.9738613067315372e-06 2.2254018931765902e-06 0 -1.0888431033130935e-05 3.5892153828032744e-06 0 -8.1139741386789051e-06 4.3660816722630935e-06 0 -7.5052451303057939e-06 2.6919826779707857e-06 0 -8.1817387120221641e-06 1.3373893856851802e-06 0 -5.6884976624004679e-06 6.5149020414215846e-07 0 -2.1168861656074424e-05 5.7960590107395483e-06 0 -1.4700713051126801e-05 2.9356199740842037e-06 0 -1.7462175749609988e-05 6.5240765954812713e-06 0 -1.4593557443535726e-05 2.7989544740592864e-06 0 -1.2048045213333595e-05 6.2746695573695916e-06 0 -1.0888431033130935e-05 3.5892153828032739e-06 0 -1.4763501798643879e-05 -4.0621798765531075e-06 0 -1.6452077229726016e-05 -5.6718298436526664e-06 0 -1.2574028742493896e-05 -2.8198884971684596e-06 0 -1.4816069077427968e-05 -4.6954954368949015e-06 0 -1.2574028742493896e-05 -2.8198884971684596e-06 0 -1.6452077229726016e-05 -5.6718298436526664e-06 0 -5.88186397751241e-09 4.4721383729838375e-10 0 -4.1845800142305035e-09 -9.7302536463540322e-10 0 -4.9117288545596709e-06 5.6543050386951717e-08 0 -3.3945552584948029e-09 3.5195574407378018e-10 0 -4.5095440437057244e-09 -6.0200563134183062e-10 0 -3.7688488961988695e-06 -7.8296444068897906e-07 0 1.1472711316466881e-05 0.00011216539427896808 0 -2.2271677350718856e-05 0.00011064886694378335 0 -1.6585687224226999e-05 8.1593367517387931e-05 0 -6.4020701894044856e-06 2.9051304502817333e-07 0 -9.2538031284551766e-06 -7.9140183807107777e-07 0 -6.7964760615406259e-06 4.560171736028191e-07 0 -3.0397638499287653e-05 -1.3324576256009961e-05 0 -2.5150182603882683e-05 -1.0516995863507805e-05 0 -2.7851047735317633e-05 -1.5713761424783681e-05 0 -4.0227611903787093e-05 -4.680910284700565e-05 0 -4.2426170735615035e-05 -4.4094638326021532e-05 0 -4.3969039042403295e-05 -4.7136030568321722e-05 0 -3.0858400236255537e-05 -1.1981570265120052e-05 0 -2.9740303041680742e-05 -1.0971674922900932e-05 0 -2.5110583745560707e-05 -8.8717215939381415e-06 0 -4.4602200472903649e-05 1.3480241087771193e-05 0 -3.5814875639837941e-05 8.9911507773432991e-06 0 -4.3680309547282082e-05 1.2591419066588782e-05 0 -3.7793100624787415e-05 -3.5809531001947805e-05 0 -3.4723480795029033e-05 -3.5271011971426476e-05 0 -3.7131811911734703e-05 -3.1942888996717075e-05 0 -2.9740303041680742e-05 -1.0971674922900932e-05 0 -2.526178309931343e-05 -8.9054412434300099e-06 0 -2.408452224050767e-05 -8.0896078609662314e-06 0 -3.1795544816304433e-05 8.6949823802060033e-06 0 -2.8812616037359919e-05 9.3274963698796868e-06 0 -4.0418876463590776e-05 1.3289195563268204e-05 0 -3.148072950201962e-05 -1.2375517513352073e-05 0 -2.526178309931343e-05 -8.9054412434300099e-06 0 -2.9740303041680742e-05 -1.0971674922900932e-05 0 -1.1149246648967954e-05 -1.8533478864260446e-06 0 -1.3139941614661508e-05 -2.7738593900860324e-06 0 -1.4729653366252873e-05 -3.6347467413637839e-06 0 -1.0689461081673717e-05 9.1242563412830163e-07 0 -1.4700713051126801e-05 2.9356199740842037e-06 0 -1.4909686185022201e-05 1.2345967147988443e-06 0 -4.3227286788762265e-05 1.9866585460477667e-05 0 -3.2567236356666696e-05 1.4087667801805734e-05 0 -3.7943919482413798e-05 2.4384478169605303e-05 0 -4.3510464657955682e-05 -3.5734802713176908e-05 0 -3.9431911411302741e-05 -3.1573441876734514e-05 0 -4.1643389724899001e-05 -3.1322965112779885e-05 0 -3.2297069262183756e-05 0.00024244403259490551 0 -2.6876227508920931e-05 0.00027422846990497279 0 -5.1031427631461959e-05 0.00027201415922868834 0 -7.4282006781856819e-05 -0.00011917764012918395 0 -7.8997582252641368e-05 -0.00013433873716738886 0 -6.7862384507186218e-05 -0.00013197648524293916 0 -2.9738509258820685e-06 -4.2902331609825172e-07 0 -1.8383418649341497e-06 -6.01853344148088e-07 0 -1.6257141552870236e-06 -2.9651213871166461e-07 0 -3.6857906822336805e-06 5.4274907933026043e-07 0 -1.9412054137019588e-06 5.0350360364472174e-07 0 -2.0784717925635313e-06 4.391177373949339e-07 0 -2.9388611836711754e-09 -6.2493848603394856e-10 0 -2.5554382798615703e-06 -9.1851394926188646e-07 0 -2.8785543177922715e-06 -9.3366760418186587e-07 0 -2.7572754961429958e-09 2.5706536479788002e-10 0 -2.6610965883841148e-06 2.0174086331797896e-07 0 -2.5954438365654016e-06 3.7526895642721221e-07 0 -3.0397638499287653e-05 -1.3324576256009961e-05 0 -3.433817366755812e-05 -1.7315375567593473e-05 0 -3.3537622446642014e-05 -1.5738691299232401e-05 0 -3.641802416389427e-05 -1.9656065641141326e-05 0 -3.3537622446642014e-05 -1.5738691299232401e-05 0 -3.433817366755812e-05 -1.7315375567593473e-05 0 -6.5477792518108495e-05 0.00012426776664929343 0 -5.898116507540942e-05 9.0698762803362269e-05 0 -4.4451961290588151e-05 0.00011610647803914955 0 -3.6740728901783831e-05 8.0414298825505322e-05 0 -4.4451961290588158e-05 0.00011610647803914957 0 -5.898116507540942e-05 9.0698762803362269e-05 0 -1.4220142472076752e-05 1.9371592029869713e-05 0 -1.0194702825963177e-05 1.298093558262687e-05 0 -8.9534094711853307e-06 2.075255976839535e-05 0 -3.0397638499287653e-05 -1.3324576256009961e-05 0 -2.6255284751157842e-05 -8.1166041391675984e-06 0 -2.5150182603882683e-05 -1.0516995863507805e-05 0 -4.4016329652755156e-06 8.3171569201962202e-07 0 -3.1822754738597468e-06 4.3141425427144462e-07 0 -4.0518835958029457e-06 9.1299909322619631e-07 0 -3.8475784201733952e-05 -2.686024889262546e-05 0 -3.9431911411302741e-05 -3.1573441876734514e-05 0 -3.5985408084108418e-05 -2.707353952564774e-05 0 -8.9921963951256241e-05 0.00019635526948804963 0 -0.00010161631219485017 0.00017433654841523267 0 -7.9453306425677055e-05 0.00015690421277174041 0 -4.8139252217367604e-05 -4.1550508087778339e-05 0 -4.729553773536941e-05 -3.8142560772082261e-05 0 -5.0072482176267329e-05 -4.2552214426586142e-05 0 -3.6013425842183919e-05 -4.0463163822459045e-05 0 -3.7939314721084131e-05 -3.9118467596805481e-05 0 -3.8491368310274079e-05 -4.3710137262400197e-05 0 -9.5606436476104804e-06 -1.1247371746530874e-06 0 -6.3665602557028718e-06 1.1334640784987781e-07 0 -8.9883388225854086e-06 -9.2376597034977078e-07 0 -6.3015353106577403e-05 6.3133706504243719e-05 0 -4.5398425351956071e-05 4.1832981525493235e-05 0 -4.5593727440268133e-05 6.032426759145152e-05 0 -1.2503842681096789e-05 -5.6862106455424529e-06 0 -1.8328978143850193e-05 -7.4513124776533525e-06 0 -1.1129710773686362e-05 -4.1342381506490363e-06 0 -2.5094515170828337e-05 7.4509413444855288e-06 0 -1.6605426149774863e-05 5.7273525708702036e-06 0 -1.5003854687680754e-05 3.4668399977836221e-06 0 -2.925336900234091e-05 -2.4230784751992674e-05 0 -2.6177646247625949e-05 -1.8386044882658825e-05 0 -3.0149584883874323e-05 -1.7536722077582642e-05 0 -5.5944085533046305e-06 -2.8600864138133291e-07 0 -9.3063531410519863e-06 -1.232258375392062e-06 0 -5.544572144694977e-06 -6.4243662926294968e-09 0 -6.3335264978978832e-06 -9.4407714328168905e-07 0 -5.3841313138099484e-06 -1.041270678111802e-06 0 -1.0263511643746303e-05 -2.222381791433905e-07 0 -0.00010923159246102026 7.2051129092794511e-05 0 -8.4952809253226749e-05 5.6570250220066328e-05 0 -8.9066313147372186e-05 7.6913118280243185e-05 0 -6.6722811146181394e-05 -4.0632883111470473e-05 0 -5.84662026196871e-05 -4.2831333903493116e-05 0 -5.4996217744000415e-05 -3.3131976053259773e-05 0 -2.8359017020409469e-05 3.8610670760898218e-05 0 -1.4347821147209792e-05 2.862271792325364e-05 0 -2.1627520221781527e-05 5.1008844769883403e-05 0 -3.4943253427791885e-06 3.1258489293792669e-05 0 -2.1627520221781527e-05 5.1008844769883403e-05 0 -1.4347821147209792e-05 2.862271792325364e-05 0 -3.7451900462483939e-05 -4.3894877900771403e-05 0 -4.618000046643163e-05 -4.8283432944765784e-05 0 -4.2222137202553684e-05 -5.5945568393057502e-05 0 -5.0135248276261556e-05 -6.5087615357017399e-05 0 -4.2222137202553684e-05 -5.5945568393057502e-05 0 -4.618000046643163e-05 -4.8283432944765784e-05 0 -2.5910107215278726e-05 -9.1056521305097407e-06 0 -2.122828694311842e-05 -1.3357948555484827e-06 0 -2.1640524362579544e-05 2.6875631676477136e-06 0 -4.0227611903787093e-05 -4.680910284700565e-05 0 -4.3969039042403295e-05 -4.7136030568321729e-05 0 -4.1183957152824117e-05 -4.9448168792695341e-05 0 -4.4016329652755156e-06 8.3171569201962202e-07 0 -5.6884976624004679e-06 6.5149020414215846e-07 0 -4.0705250723700574e-06 3.7703229764419528e-08 0 -3.8179124774454544e-05 -2.4555313312891508e-05 0 -4.8174942396770284e-05 -3.2563557085767063e-05 0 -4.1646213259213464e-05 -3.1577624168251426e-05 0 -3.7454508634726206e-05 -5.225325981583433e-05 0 -3.7238281941220253e-05 -4.9077267217885702e-05 0 -3.9029420843984656e-05 -4.9728208381051864e-05 0 -8.9895138540220209e-05 0.00010521944589313875 0 -0.00010822607364980241 0.00010577667580616569 0 -8.9066313147372186e-05 7.6913118280243185e-05 0 -0.00011772506068732916 0.00027631077018031545 0 -9.1012002063023203e-05 0.00025134290518307383 0 -9.0699577742843699e-05 0.00027862339984707118 0 -4.1019487970584073e-05 -0.00013107107408168365 0 -4.9781656251689251e-05 -0.0001209839188305605 0 -5.1733991113811377e-05 -0.00013365238289769342 0 -1.1830518261406206e-05 -1.8936144124515519e-06 0 -1.1276501190503911e-05 -5.406524168467901e-07 0 -9.2019666496078984e-06 -2.8445931867951197e-07 0 -3.641802416389427e-05 -1.9656065641141326e-05 0 -3.433817366755812e-05 -1.7315375567593473e-05 0 -3.8684604401552791e-05 -2.2244529937182345e-05 0 -5.5348279886050748e-06 1.6310047103224003e-06 0 -6.9767202408147417e-06 2.7655349913745753e-06 0 -5.9757274902692589e-06 2.6092441971493739e-06 0 -7.0561076139198003e-06 4.1159116224562152e-06 0 -5.9757274902692589e-06 2.6092441971493739e-06 0 -6.9767202408147417e-06 2.7655349913745753e-06 0 -2.1168861656074424e-05 5.7960590107395483e-06 0 -2.8812616037359919e-05 9.3274963698796868e-06 0 -2.4962216490951172e-05 5.4351356671392977e-06 0 -5.0135248276261556e-05 -6.5087615357017399e-05 0 -5.8441907490860254e-05 -7.4368431505750636e-05 0 -5.3964553527433741e-05 -8.2817581172343205e-05 0 -2.6941327936155074e-05 5.3147479772647833e-06 0 -2.1500013628449241e-05 3.1973670169198815e-06 0 -3.2400103953399255e-05 7.5618006263852701e-06 0 -4.0504902577438059e-05 0.00019457815710204141 0 -6.6228179923451643e-05 0.00022384245107888142 0 -7.0198887268485782e-05 0.0001980951472615992 0 -4.0504902577438059e-05 0.00019457815710204141 0 -7.0198887268485782e-05 0.0001980951472615992 0 -6.3757164751229552e-05 0.00017086646897240175 0 -8.9921963951256241e-05 0.00019635526948804963 0 -6.3757164751229538e-05 0.00017086646897240175 0 -7.0198887268485782e-05 0.0001980951472615992 0 -6.4644090131625335e-05 -9.6003536171327357e-05 0 -5.7918602966645712e-05 -0.0001093331090860631 0 -5.2330495823481565e-05 -9.5328099194624824e-05 0 -6.4644090131625335e-05 -9.6003536171327357e-05 0 -5.2330495823481565e-05 -9.5328099194624824e-05 0 -5.3964553527433741e-05 -8.2817581172343205e-05 0 -1.0194702825963177e-05 1.298093558262687e-05 0 -9.4995914225648847e-06 1.469587462892272e-05 0 -8.9534094711853307e-06 2.075255976839535e-05 0 -1.9625476285091819e-09 -3.361678140926287e-10 0 -1.5810964209232459e-09 4.4252357058819213e-13 0 -1.6257141552870236e-06 -2.9651213871166461e-07 0 -1.8241765432036774e-09 2.0922107921533836e-10 0 -2.1109181127143428e-09 2.7969682812614104e-10 0 -1.9412054137019588e-06 5.0350360364472174e-07 0 -9.2538031284551766e-06 -7.9140183807107777e-07 0 -9.2019666496078984e-06 -2.8445931867951207e-07 0 -6.7964760615406259e-06 4.560171736028191e-07 0 -2.4777060615625421e-05 -2.2765902789397316e-05 0 -2.4625482571971575e-05 -1.9740343333391998e-05 0 -2.8484552514817047e-05 -2.7396730714391633e-05 0 -2.1500013628449241e-05 3.1973670169198815e-06 0 -2.4962216490951172e-05 5.4351356671392969e-06 0 -3.2400103953399255e-05 7.5618006263852701e-06 0 -1.5674451855184968e-09 1.6130995476803034e-10 0 -2.0447145590765896e-06 4.2959365607813482e-07 0 -1.3126732816594392e-06 1.3821079858447108e-07 0 -2.5094515170828337e-05 7.4509413444855288e-06 0 -2.077865354703053e-05 4.0142270741743907e-06 0 -2.87774478534995e-05 6.880674796900488e-06 0 -1.8328978143850193e-05 -7.4513124776533525e-06 0 -2.0644684846629362e-05 -7.2852802428189907e-06 0 -1.5291079035451526e-05 -5.007768244166559e-06 0 -6.0094262604422187e-05 -5.4543923776925515e-05 0 -5.84662026196871e-05 -4.2831333903493116e-05 0 -6.8217887768731264e-05 -5.5357183854404871e-05 0 -3.5611754434286028e-06 6.9250790659802943e-07 0 -2.6254547165877788e-06 5.905903899964218e-07 0 -4.7583161818611225e-06 6.7485514392265235e-07 0 -4.3510464657955682e-05 -3.5734802713176908e-05 0 -4.729553773536941e-05 -3.8142560772082261e-05 0 -4.5377896440517367e-05 -3.9102667227488517e-05 0 -1.4593557443535726e-05 2.7989544740592864e-06 0 -1.0888431033130935e-05 3.5892153828032739e-06 0 -1.3360057722237467e-05 1.0993167868379472e-06 0 -2.8178037868175288e-05 0.00014427387977656501 0 -5.373146731882958e-05 0.00014677737144106864 0 -4.4451961290588151e-05 0.00011610647803914955 0 -4.4016329652755156e-06 8.3171569201962202e-07 0 -3.0480475985228802e-06 2.0381931542558671e-09 0 -3.1822754738597468e-06 4.3141425427144462e-07 0 -0.00010171336728640308 0.00030711651536692618 0 -9.0699577742843699e-05 0.00027862339984707118 0 -7.161812512005603e-05 0.00029320771420354431 0 -4.8858896668387034e-05 -0.00014693822986082186 0 -5.1733991113811377e-05 -0.00013365238289769342 0 -6.0097021195259839e-05 -0.00014116460269403776 0 -2.6254547165877788e-06 5.905903899964218e-07 0 -4.2214910867946874e-06 5.9726733485725946e-07 0 -4.7583161818611225e-06 6.7485514392265235e-07 0 -1.4593557443535726e-05 2.7989544740592864e-06 0 -1.6885913890856727e-05 -1.0260353713271037e-06 0 -1.9671680975924957e-05 -3.1747159408288361e-07 0 -4.6515807698219476e-05 0.00030505597302423425 0 -5.1688254363583741e-05 0.00033360083848899734 0 -7.4101253690435345e-05 0.00032536845246687682 0 -0.00010171336728640308 0.00030711651536692618 0 -7.4101253690435345e-05 0.00032536845246687677 0 -9.7705475890924704e-05 0.00033493567402929713 0 -7.1451267928240023e-05 -0.00014724462569461557 0 -6.9834710941684859e-05 -0.00015992894255979941 0 -6.0060465641582202e-05 -0.00015584932482813637 0 -4.8858896668387034e-05 -0.00014693822986082186 0 -6.0060465641582202e-05 -0.00015584932482813637 0 -5.1114318132903951e-05 -0.00015955636338961361 0 -3.7943919482413798e-05 2.4384478169605303e-05 0 -5.4901300611950231e-05 3.9554821211604321e-05 0 -5.2974832013380851e-05 2.9105580212820236e-05 0 -4.7055078216634778e-05 -3.7627079509036579e-05 0 -5.84662026196871e-05 -4.2831333903493116e-05 0 -5.2740384728237393e-05 -4.7122395124060614e-05 0 -6.0094262604422187e-05 -5.4543923776925515e-05 0 -5.2740384728237393e-05 -4.7122395124060614e-05 0 -5.84662026196871e-05 -4.2831333903493116e-05 0 -8.9895138540220209e-05 0.00010521944589313875 0 -8.9066313147372186e-05 7.6913118280243185e-05 0 -7.4180324483457015e-05 8.7678089456880973e-05 0 -6.3015353106577403e-05 6.3133706504243719e-05 0 -7.4180324483457015e-05 8.7678089456880973e-05 0 -8.9066313147372186e-05 7.6913118280243185e-05 0 -3.6857906822336805e-06 5.4274907933026043e-07 0 -4.5261326647105603e-06 3.585485453195903e-07 0 -6.3665602557028718e-06 1.133464078498778e-07 0 8.3814751961282335e-06 7.8544279106509618e-05 0 1.1472711316466881e-05 0.00011216539427896808 0 -1.6585687224226999e-05 8.1593367517387931e-05 0 -6.3335264978978832e-06 -9.4407714328168905e-07 0 -9.7983129040241566e-06 -3.4500820082713257e-07 0 -6.3818416743897103e-06 -5.1241072555232562e-07 0 -5.5944085533046305e-06 -2.8600864138133291e-07 0 -5.1209801265649556e-06 -6.2375442945985878e-07 0 -8.0998997710354562e-06 -1.1644019923053798e-06 0 -3.0397638499287653e-05 -1.3324576256009961e-05 0 -2.9577669075822349e-05 -1.0629367935497646e-05 0 -2.6255284751157842e-05 -8.1166041391675984e-06 0 -9.3063531410519863e-06 -1.232258375392062e-06 0 -8.6154230423728436e-06 -8.6106301673965478e-07 0 -5.544572144694977e-06 -6.4243662926294968e-09 0 -1.0263511643746303e-05 -2.222381791433905e-07 0 -5.3841313138099484e-06 -1.041270678111802e-06 0 -8.4208034954555466e-06 -1.1750917561072376e-07 0 -3.1795544816304433e-05 8.6949823802060033e-06 0 -4.0418876463590776e-05 1.3289195563268204e-05 0 -3.2400103953399255e-05 7.5618006263852701e-06 0 -4.3680309547282082e-05 1.2591419066588782e-05 0 -3.2400103953399255e-05 7.5618006263852701e-06 0 -4.0418876463590776e-05 1.3289195563268204e-05 0 -4.6515807698219476e-05 0.00030505597302423425 0 -5.1031427631461959e-05 0.00027201415922868834 0 -2.6876227508920931e-05 0.00027422846990497279 0 -7.1451267928240023e-05 -0.00014724462569461557 0 -6.7862384507186218e-05 -0.00013197648524293916 0 -7.8997582252641368e-05 -0.00013433873716738883 0 -3.7454508634726206e-05 -5.225325981583433e-05 0 -3.6604128929867281e-05 -5.1140382225306461e-05 0 -3.6137262083174048e-05 -5.0103432611712178e-05 0 -4.7773266426600296e-05 -5.13623841579756e-05 0 -4.3237381324503996e-05 -5.1476285686400521e-05 0 -4.773982041812406e-05 -4.8014734478659307e-05 0 -1.8016051971562513e-05 -6.0955162060543965e-06 0 -1.4763501798643879e-05 -4.0621798765531075e-06 0 -1.4729653366252873e-05 -3.6347467413637839e-06 0 -5.2432303881588264e-05 -4.6480069624000422e-05 0 -5.093638132584069e-05 -4.5051967782861492e-05 0 -5.0072482176267329e-05 -4.2552214426586142e-05 0 -2.7084513546810017e-05 -3.2673386834083853e-05 0 -2.8205616274617636e-05 -3.4850676018036106e-05 0 -3.1584192814962328e-05 -4.0583736426667112e-05 0 -3.5795967673656955e-05 -4.3916716817523664e-05 0 -3.3806748481692805e-05 -4.3091712511182573e-05 0 -3.3028337505334528e-05 -3.8965830938880742e-05 0 -4.5775130251504584e-05 -2.6249747848585077e-05 0 -4.8174942396770284e-05 -3.2563557085767063e-05 0 -3.8179124774454544e-05 -2.4555313312891508e-05 0 -4.3237381324503996e-05 -5.1476285686400521e-05 0 -4.1183957152824117e-05 -4.9448168792695341e-05 0 -4.3969039042403295e-05 -4.7136030568321722e-05 0 -5.221966260524103e-05 2.193317947818103e-05 0 -4.0418876463590776e-05 1.3289195563268204e-05 0 -4.3227286788762265e-05 1.9866585460477667e-05 0 -1.1276501190503911e-05 -5.4065241684679021e-07 0 -8.9958792338929549e-06 7.5015245106953646e-07 0 -9.2019666496078984e-06 -2.8445931867951197e-07 0 -4.7055078216634778e-05 -3.7627079509036579e-05 0 -4.618000046643163e-05 -4.8283432944765784e-05 0 -4.03759291717753e-05 -3.6873152127026915e-05 0 -3.7451900462483939e-05 -4.3894877900771403e-05 0 -4.03759291717753e-05 -3.6873152127026915e-05 0 -4.618000046643163e-05 -4.8283432944765784e-05 0 -1.9116885239304059e-05 -6.1559107501043147e-06 0 -1.8016051971562513e-05 -6.0955162060543965e-06 0 -1.4729653366252873e-05 -3.6347467413637839e-06 0 -4.7055078216634778e-05 -3.7627079509036579e-05 0 -4.1646213259213464e-05 -3.1577624168251426e-05 0 -4.8174942396770284e-05 -3.2563557085767063e-05 0 -1.6397224024129473e-05 -4.3425323166971143e-06 0 -1.9116885239304059e-05 -6.1559107501043147e-06 0 -1.4729653366252873e-05 -3.6347467413637839e-06 0 -1.0689461081673717e-05 9.1242563412830163e-07 0 -1.0247864341821893e-05 2.703718188676407e-06 0 -1.4700713051126801e-05 2.9356199740842037e-06 0 -4.7055078216634778e-05 -3.7627079509036579e-05 0 -4.8174942396770284e-05 -3.2563557085767063e-05 0 -5.84662026196871e-05 -4.2831333903493116e-05 0 -6.3015353106577403e-05 6.3133706504243719e-05 0 -8.9066313147372186e-05 7.6913118280243185e-05 0 -7.1364956543728994e-05 5.4733680765263639e-05 0 -4.1845800142305035e-09 -9.7302536463540322e-10 0 -3.0961582888320366e-06 -7.113085223499908e-07 0 -6.3818416743897103e-06 -5.1241072555232562e-07 0 -3.3945552584948029e-09 3.5195574407378018e-10 0 -5.1209801265649556e-06 -6.2375442945985878e-07 0 -2.6342502947250418e-06 -2.6221169578608327e-08 0 -1.6397224024129473e-05 -4.3425323166971143e-06 0 -1.4729653366252873e-05 -3.6347467413637839e-06 0 -1.3139941614661508e-05 -2.7738593900860324e-06 0 -1.8490123620435175e-05 3.2692139063298539e-06 0 -1.4909686185022201e-05 1.2345967147988443e-06 0 -1.4700713051126801e-05 2.9356199740842037e-06 0 -6.1487979045609047e-06 -5.7500663650755658e-07 0 -4.2998096786917452e-06 -7.0860575618295848e-07 0 -6.8271917052678516e-06 1.5656778305109423e-07 0 -2.8484552514817047e-05 -2.7396730714391633e-05 0 -3.4469094716152136e-05 -3.2668499062210509e-05 0 -2.9764997138004156e-05 -3.8852002181626895e-05 0 -4.4016329652755156e-06 8.3171569201962202e-07 0 -4.0518835958029449e-06 9.1299909322619642e-07 0 -4.9187517653878526e-06 1.4801376288220467e-06 0 -0.00010171336728640308 0.00030711651536692618 0 -0.00011772506068732916 0.00027631077018031545 0 -9.0699577742843699e-05 0.00027862339984707118 0 -4.8858896668387034e-05 -0.00014693822986082186 0 -4.1019487970584073e-05 -0.00013107107408168365 0 -5.1733991113811377e-05 -0.00013365238289769342 0 -1.1149246648967954e-05 -1.8533478864260446e-06 0 -9.3063531410519863e-06 -1.232258375392062e-06 0 -1.3139941614661508e-05 -2.7738593900860324e-06 0 -1.0689461081673717e-05 9.1242563412830163e-07 0 -1.4909686185022201e-05 1.2345967147988443e-06 0 -1.0263511643746303e-05 -2.222381791433905e-07 0 -3.4522001249479283e-06 7.1629833317679358e-07 0 -4.9977141195487779e-06 8.3455338184952503e-07 0 -4.7566242169331204e-06 1.062744440315253e-06 0 -3.4469094716152136e-05 -3.2668499062210509e-05 0 -3.7451900462483939e-05 -4.3894877900771403e-05 0 -2.9764997138004156e-05 -3.8852002181626895e-05 0 -0.00015077984194672794 0.00021438594497148489 0 -0.00014667165409381635 0.00018316983402858568 0 -0.00011955956759957492 0.0001974857066227701 0 -2.0191696034284435e-05 -8.2685954005786517e-05 0 -3.321992535355586e-05 -9.2500431955463638e-05 0 -2.1731968205768176e-05 -9.7147937901097685e-05 0 -6.4644090131625335e-05 -9.6003536171327357e-05 0 -5.3964553527433741e-05 -8.2817581172343191e-05 0 -6.3098999345428104e-05 -8.3561360186812337e-05 0 -2.1266856470148037e-05 -5.1397748576053567e-06 0 -2.5150182603882683e-05 -1.0516995863507803e-05 0 -2.6255284751157842e-05 -8.1166041391675984e-06 0 -2.6941327936155074e-05 5.3147479772647833e-06 0 -2.0778653547030526e-05 4.0142270741743899e-06 0 -1.9863478526211301e-05 2.8072883514373104e-06 0 -1.9790290293941112e-05 -6.1874610314646453e-06 0 -1.5086371692524885e-05 -4.2038314904174458e-06 0 -1.5291079035451526e-05 -5.007768244166559e-06 0 -1.0675585711080099e-05 8.4579709347739755e-06 0 -1.001474326295416e-05 4.9219281205122082e-06 0 -7.9524386888896218e-06 5.4966463878823896e-06 0 -3.4522001249479283e-06 7.1629833317679358e-07 0 -3.5611754434286028e-06 6.9250790659802943e-07 0 -4.9977141195487779e-06 8.3455338184952492e-07 0 -3.641802416389427e-05 -1.9656065641141326e-05 0 -4.0199597264353229e-05 -2.517586386270245e-05 0 -3.7007545612016965e-05 -2.1940362578911631e-05 0 -2.6941327936155074e-05 5.3147479772647833e-06 0 -2.87774478534995e-05 6.880674796900488e-06 0 -2.077865354703053e-05 4.0142270741743907e-06 0 -1.9790290293941112e-05 -6.1874610314646453e-06 0 -1.5291079035451526e-05 -5.007768244166559e-06 0 -2.0644684846629365e-05 -7.2852802428189916e-06 0 -1.4593557443535726e-05 2.7989544740592864e-06 0 -1.3360057722237467e-05 1.0993167868379472e-06 0 -1.6885913890856727e-05 -1.0260353713271037e-06 0 -5.8349065818066986e-05 -0.00012582337146962067 0 -5.7918602966645712e-05 -0.0001093331090860631 0 -6.4923201158824422e-05 -0.00011844742866497892 0 -7.1569278854711666e-05 0.00026054424751829186 0 -6.6228179923451643e-05 0.00022384245107888142 0 -5.3354333359041209e-05 0.00024306873887389182 0 -4.5775130251504584e-05 -2.6249747848585077e-05 0 -3.8179124774454544e-05 -2.4555313312891508e-05 0 -3.779648092399277e-05 -1.9794703967357755e-05 0 -3.1452250278612962e-05 -1.7610377965456577e-05 0 -3.779648092399277e-05 -1.9794703967357755e-05 0 -3.8179124774454544e-05 -2.4555313312891508e-05 0 -1.8717846280092093e-05 -9.0634428886293447e-06 0 -2.1397615107028319e-05 -1.1842381734159531e-05 0 -2.1741962393974843e-05 -1.3861519095358444e-05 0 -2.4927476905861489e-05 -1.6946882213324163e-05 0 -2.1741962393974843e-05 -1.3861519095358444e-05 0 -2.1397615107028319e-05 -1.1842381734159531e-05 0 -2.5554382798615703e-06 -9.1851394926188646e-07 0 -4.2998096786917452e-06 -7.0860575618295848e-07 0 -5.3841313138099484e-06 -1.041270678111802e-06 0 -6.1487979045609047e-06 -5.7500663650755658e-07 0 -5.3841313138099484e-06 -1.041270678111802e-06 0 -4.2998096786917452e-06 -7.0860575618295848e-07 0 -6.7716906083253332e-06 -2.0291464938073333e-07 0 -4.5261326647105603e-06 3.585485453195903e-07 0 -5.544572144694977e-06 -6.4243662926294968e-09 0 -2.5954438365654016e-06 3.7526895642721221e-07 0 -5.544572144694977e-06 -6.4243662926294968e-09 0 -4.5261326647105603e-06 3.585485453195903e-07 0 -4.3510464657955682e-05 -3.5734802713176908e-05 0 -4.3002015558331973e-05 -3.9239178291466634e-05 0 -4.0536671245345433e-05 -3.5858105606899827e-05 0 -2.1266856470148037e-05 -5.1397748576053567e-06 0 -1.9671680975924957e-05 -3.1747159408288361e-07 0 -1.6885913890856727e-05 -1.0260353713271037e-06 0 -7.0561076139198003e-06 4.1159116224562152e-06 0 -6.8696971168537065e-06 3.7056781521378367e-06 0 -5.9757274902692589e-06 2.6092441971493739e-06 0 -4.0504902577438059e-05 0.00019457815710204141 0 -4.2638863690358837e-05 0.0002238981673970534 0 -6.6228179923451643e-05 0.00022384245107888142 0 -6.4644090131625335e-05 -9.6003536171327357e-05 0 -6.7869084009858176e-05 -0.00010920094877649681 0 -5.7918602966645712e-05 -0.0001093331090860631 0 -4.0504902577438059e-05 0.00019457815710204141 0 -6.3757164751229552e-05 0.00017086646897240175 0 -4.1096054965542318e-05 0.000165734863486162 0 -1.0675585711080099e-05 8.4579709347739755e-06 0 -1.3982887531418302e-05 7.6962055051517977e-06 0 -1.0014743262954159e-05 4.9219281205122082e-06 0 -1.0675585711080099e-05 8.4579709347739755e-06 0 -1.4538708128311645e-05 1.3055765677501262e-05 0 -1.3982887531418302e-05 7.6962055051517977e-06 0 -6.5477792518108495e-05 0.00012426776664929343 0 -5.3731467318829573e-05 0.00014677737144106867 0 -7.9453306425677055e-05 0.00015690421277174041 0 -6.3757164751229552e-05 0.00017086646897240175 0 -7.9453306425677055e-05 0.00015690421277174041 0 -5.3731467318829573e-05 0.00014677737144106867 0 -1.0144869363287331e-05 9.9996116241527558e-07 0 -6.3818416743897112e-06 -5.1241072555232552e-07 0 -1.1327988528560207e-05 3.4429143573268216e-07 0 -7.7036839390643075e-06 -2.0579147843000742e-06 0 -8.9019438950558711e-06 -1.7939819844591947e-06 0 -5.1209801265649556e-06 -6.2375442945985878e-07 0 -3.7451900462483939e-05 -4.3894877900771403e-05 0 -4.2222137202553684e-05 -5.5945568393057502e-05 0 -3.3444296028933626e-05 -5.5522651382076216e-05 0 -5.2432303881588264e-05 -4.6480069624000422e-05 0 -5.3604703433278955e-05 -4.9585587588929404e-05 0 -5.093638132584069e-05 -4.5051967782861499e-05 0 -2.7084513546810017e-05 -3.2673386834083853e-05 0 -3.1584192814962328e-05 -4.0583736426667112e-05 0 -2.9669150139847085e-05 -3.627164982563733e-05 0 -1.4067360154887099e-05 -1.2573871855757014e-06 0 -1.6885913890856727e-05 -1.0260353713271037e-06 0 -1.3360057722237467e-05 1.0993167868379472e-06 0 -7.0561076139198003e-06 4.1159116224562152e-06 0 -8.2801745020837749e-06 6.8193295176292924e-06 0 -7.9524386888896218e-06 5.4966463878823896e-06 0 -4.0227611903787093e-05 -4.680910284700565e-05 0 -3.8491368310274079e-05 -4.3710137262400197e-05 0 -4.2426170735615035e-05 -4.4094638326021532e-05 0 -4.0262560385005023e-05 -4.1614805758805766e-05 0 -4.2426170735615035e-05 -4.4094638326021532e-05 0 -3.8491368310274079e-05 -4.3710137262400197e-05 0 -3.4318422509118674e-05 -2.9364878226305506e-05 0 -3.4723480795029033e-05 -3.5271011971426476e-05 0 -3.026954288138199e-05 -2.9400702298963037e-05 0 -0.00010171336728640308 0.00030711651536692618 0 -0.00012865553990028768 0.00030419400320345414 0 -0.00011772506068732916 0.00027631077018031545 0 -4.8858896668387034e-05 -0.00014693822986082186 0 -3.8707411609647307e-05 -0.00014360633656428722 0 -4.1019487970584073e-05 -0.00013107107408168365 0 -4.9869264823018366e-05 -4.6092063688500503e-05 0 -5.2643753422988376e-05 -4.9258167084220471e-05 0 -4.773982041812406e-05 -4.8014734478659307e-05 0 -3.4420115806509665e-05 -4.6023639000708395e-05 0 -3.6137262083174048e-05 -5.0103432611712178e-05 0 -3.482166708037523e-05 -4.6490334356506576e-05 0 -4.6515807698219476e-05 0.00030505597302423425 0 -7.161812512005603e-05 0.00029320771420354431 0 -5.1031427631461959e-05 0.00027201415922868834 0 -7.1451267928240023e-05 -0.00014724462569461557 0 -6.0097021195259839e-05 -0.00014116460269403776 0 -6.7862384507186218e-05 -0.00013197648524293916 0 -3.4522001249479283e-06 7.1629833317679358e-07 0 -4.7566242169331204e-06 1.062744440315253e-06 0 -4.0518835958029457e-06 9.1299909322619631e-07 0 -5.5348279886050748e-06 1.6310047103224003e-06 0 -4.0518835958029457e-06 9.1299909322619631e-07 0 -4.7566242169331204e-06 1.062744440315253e-06 0 -3.2297069262183756e-05 0.00024244403259490551 0 -5.1031427631461959e-05 0.00027201415922868834 0 -5.3354333359041209e-05 0.00024306873887389182 0 -7.4282006781856819e-05 -0.00011917764012918395 0 -6.7862384507186218e-05 -0.00013197648524293916 0 -6.4923201158824422e-05 -0.00011844742866497892 0 -6.3335264978978832e-06 -9.4407714328168905e-07 0 -6.3818416743897103e-06 -5.1241072555232552e-07 0 -3.0961582888320366e-06 -7.113085223499908e-07 0 -5.5944085533046305e-06 -2.8600864138133291e-07 0 -2.6342502947250418e-06 -2.6221169578608327e-08 0 -5.1209801265649556e-06 -6.2375442945985878e-07 0 -3.6740728901783831e-05 8.0414298825505322e-05 0 -2.2271677350718856e-05 0.00011064886694378335 0 -4.4451961290588151e-05 0.00011610647803914955 0 -1.0144869363287331e-05 9.9996116241527558e-07 0 -4.9117288545596709e-06 5.6543050386951717e-08 0 -6.3818416743897103e-06 -5.1241072555232562e-07 0 -7.7036839390643075e-06 -2.0579147843000742e-06 0 -5.1209801265649556e-06 -6.2375442945985878e-07 0 -3.7688488961988695e-06 -7.8296444068897906e-07 0 -0.00015423096259731652 0.00027561793530339715 0 -0.00013218455458043765 0.00025407337630711048 0 -0.00011772506068732916 0.00027631077018031545 0 -2.6143916816310326e-05 -0.00012637268777904653 0 -3.3351267752110596e-05 -0.00011875439855202398 0 -4.1019487970584073e-05 -0.00013107107408168365 0 -2.8359017020409469e-05 3.8610670760898218e-05 0 -4.5398425351956071e-05 4.1832981525493235e-05 0 -3.0823702408050716e-05 2.9038776593111834e-05 0 -3.7943919482413798e-05 2.4384478169605303e-05 0 -3.0823702408050716e-05 2.9038776593111834e-05 0 -4.5398425351956071e-05 4.1832981525493235e-05 0 -5.0135248276261556e-05 -6.5087615357017399e-05 0 -4.618000046643163e-05 -4.8283432944765784e-05 0 -5.3638407258095185e-05 -5.5551451621386912e-05 0 -2.5910107215278726e-05 -9.1056521305097407e-06 0 -2.6177646247625949e-05 -1.8386044882658825e-05 0 -2.2011718518106578e-05 -1.2672354763945458e-05 0 -6.5477792518108495e-05 0.00012426776664929343 0 -7.5030517527486094e-05 0.00010693739793776676 0 -5.898116507540942e-05 9.0698762803362269e-05 0 -6.3015353106577403e-05 6.3133706504243719e-05 0 -5.898116507540942e-05 9.0698762803362269e-05 0 -7.4180324483457015e-05 8.7678089456880973e-05 0 -4.7055078216634778e-05 -3.7627079509036579e-05 0 -5.2740384728237393e-05 -4.7122395124060614e-05 0 -4.618000046643163e-05 -4.8283432944765784e-05 0 -3.7451900462483939e-05 -4.3894877900771403e-05 0 -3.3444296028933626e-05 -5.5522651382076216e-05 0 -2.9764997138004156e-05 -3.8852002181626895e-05 0 -4.8139252217367604e-05 -4.1550508087778339e-05 0 -5.0072482176267329e-05 -4.2552214426586142e-05 0 -5.093638132584069e-05 -4.5051967782861499e-05 0 -3.1441828423643675e-05 -3.9101627001773205e-05 0 -3.1584192814962328e-05 -4.0583736426667112e-05 0 -2.8205616274617636e-05 -3.4850676018036106e-05 0 -2.4741472429965901e-05 -4.2645767310363565e-06 0 -2.9577669075822349e-05 -1.0629367935497646e-05 0 -2.7262825582749338e-05 -7.1912191381356003e-06 0 -3.0397638499287653e-05 -1.3324576256009961e-05 0 -3.3537622446642014e-05 -1.5738691299232401e-05 0 -2.9577669075822349e-05 -1.0629367935497646e-05 0 -1.3234931651799811e-05 8.9985620398596764e-06 0 -1.2048045213333595e-05 6.2746695573695916e-06 0 -1.6713203913360515e-05 4.6098052922040261e-06 0 -2.8484552514817047e-05 -2.7396730714391633e-05 0 -2.4625482571971575e-05 -1.9740343333391998e-05 0 -2.9137208236576798e-05 -2.3349531457952532e-05 0 -4.6515807698219476e-05 0.00030505597302423425 0 -2.6876227508920931e-05 0.00027422846990497279 0 -2.1210951402796161e-05 0.00029969517885178467 0 -7.1451267928240023e-05 -0.00014724462569461557 0 -7.8997582252641368e-05 -0.00013433873716738883 0 -8.3182187261376101e-05 -0.0001464774771654873 0 -1.4593557443535726e-05 2.7989544740592864e-06 0 -1.6713203913360515e-05 4.6098052922040261e-06 0 -1.2048045213333595e-05 6.2746695573695916e-06 0 -2.5651288507164694e-05 -2.7394607460856863e-05 0 -3.026954288138199e-05 -2.9400702298963037e-05 0 -2.7753765178903607e-05 -3.1261762189071715e-05 0 -4.0262560385005023e-05 -4.1614805758805766e-05 0 -3.8491368310274079e-05 -4.3710137262400197e-05 0 -3.7939314721084131e-05 -3.9118467596805481e-05 0 -9.5314487400344964e-06 6.0167768224999169e-06 0 -1.0888431033130935e-05 3.5892153828032739e-06 0 -1.2048045213333595e-05 6.2746695573695916e-06 0 -2.9738509258820685e-06 -4.2902331609825172e-07 0 -4.0705250723700574e-06 3.7703229764419535e-08 0 -4.2998096786917452e-06 -7.0860575618295848e-07 0 -7.9579096987023317e-05 -6.327502989102571e-05 0 -8.4604912184622018e-05 -7.6498145912571059e-05 0 -7.0236719863968561e-05 -6.6766974944390808e-05 0 -1.0689461081673717e-05 9.1242563412830163e-07 0 -8.4208034954555466e-06 -1.1750917561072376e-07 0 -6.8271917052678516e-06 1.5656778305109423e-07 0 -5.9757274902692589e-06 2.6092441971493739e-06 0 -6.8696971168537065e-06 3.7056781521378367e-06 0 -5.6375408286046859e-06 1.8767654732442587e-06 0 -1.4593557443535726e-05 2.7989544740592864e-06 0 -1.9671680975924957e-05 -3.1747159408288361e-07 0 -1.6713203913360515e-05 4.6098052922040261e-06 0 -0.00014044415716353364 0.00015217721220399898 0 -0.00013214247135847409 0.00012283270436696031 0 -0.00011009941117825558 0.00013224431465853567 0 -2.6254547165877788e-06 5.905903899964218e-07 0 -2.0447145590765896e-06 4.2959365607813482e-07 0 -1.0733810050602537e-06 2.9147197617607165e-07 0 -7.5052451303057939e-06 2.6919826779707857e-06 0 -7.9524386888896218e-06 5.4966463878823896e-06 0 -1.0014743262954159e-05 4.9219281205122082e-06 0 -3.8475784201733952e-05 -2.686024889262546e-05 0 -4.0302554361763852e-05 -2.703416464272355e-05 0 -4.1643389724899001e-05 -3.1322965112779885e-05 0 -6.4644090131625335e-05 -9.6003536171327357e-05 0 -7.3974488694433668e-05 -8.9674539741966774e-05 0 -7.755737248704795e-05 -0.00010500189137383484 0 -1.0689461081673717e-05 9.1242563412830163e-07 0 -6.8271917052678516e-06 1.5656778305109423e-07 0 -8.1817387120221641e-06 1.33738938568518e-06 0 -3.4522001249479283e-06 7.1629833317679358e-07 0 -2.4317465112978678e-06 3.5488723751795806e-07 0 -2.0447145590765896e-06 4.2959365607813482e-07 0 -1.2918821781922893e-05 4.6368084291183214e-06 0 -1.0014743262954159e-05 4.9219281205122082e-06 0 -1.3982887531418302e-05 7.6962055051517977e-06 0 -4.0199597264353229e-05 -2.517586386270245e-05 0 -4.0302554361763852e-05 -2.703416464272355e-05 0 -3.7007545612016965e-05 -2.1940362578911631e-05 0 -4.8139252217367604e-05 -4.1550508087778339e-05 0 -4.7743701670209742e-05 -4.3133132602877052e-05 0 -4.5377896440517367e-05 -3.9102667227488517e-05 0 -3.1795544816304433e-05 8.6949823802060033e-06 0 -2.4962216490951172e-05 5.4351356671392977e-06 0 -2.8812616037359919e-05 9.3274963698796868e-06 0 5.8090930506203517e-06 0.00026428380826542088 0 -2.6876227508920931e-05 0.00027422846990497279 0 -1.219933666323332e-05 0.00024988425665849765 0 -9.4184353023236123e-05 -0.00013323817138264282 0 -7.8997582252641368e-05 -0.00013433873716738883 0 -8.429215923357767e-05 -0.00012427456627055417 0 -4.9187517653878526e-06 1.4801376288220467e-06 0 -5.6375408286046859e-06 1.8767654732442587e-06 0 -4.4016329652755156e-06 8.3171569201962202e-07 0 -5.9757274902692589e-06 2.6092441971493739e-06 0 -5.6375408286046859e-06 1.8767654732442587e-06 0 -4.9187517653878526e-06 1.4801376288220467e-06 0 -0.00011103004460099928 0.00024254567796607701 0 -0.00011772506068732916 0.00027631077018031545 0 -0.00013218455458043765 0.00025407337630711048 0 -4.1006027430126448e-05 -0.00011503978540548262 0 -4.1019487970584073e-05 -0.00013107107408168365 0 -3.3351267752110596e-05 -0.00011875439855202398 0 -5.5348279886050748e-06 1.6310047103224003e-06 0 -7.436540666557677e-06 1.5551923853965797e-06 0 -6.9767202408147417e-06 2.7655349913745753e-06 0 -8.9738613067315372e-06 2.2254018931765902e-06 0 -6.9767202408147417e-06 2.7655349913745753e-06 0 -7.436540666557677e-06 1.5551923853965797e-06 0 -5.5348279886050748e-06 1.6310047103224003e-06 0 -4.9187517653878526e-06 1.4801376288220467e-06 0 -4.0518835958029457e-06 9.1299909322619631e-07 0 -1.9790290293941112e-05 -6.1874610314646453e-06 0 -2.0263627956503767e-05 -6.1786909109098524e-06 0 -1.5677148908804056e-05 -4.0547857221207371e-06 0 -2.1095944156720587e-05 -9.5637880083430377e-06 0 -2.5614386156198711e-05 -1.4573495997153991e-05 0 -2.1397615107028319e-05 -1.1842381734159531e-05 0 -2.4927476905861489e-05 -1.6946882213324163e-05 0 -2.1397615107028319e-05 -1.1842381734159532e-05 0 -2.5614386156198711e-05 -1.4573495997153991e-05 0 -1.9790290293941112e-05 -6.1874610314646453e-06 0 -1.5677148908804056e-05 -4.0547857221207371e-06 0 -1.5086371692524885e-05 -4.2038314904174458e-06 0 -3.6740728901783831e-05 8.0414298825505322e-05 0 -1.6585687224226999e-05 8.1593367517387931e-05 0 -2.2271677350718856e-05 0.00011064886694378335 0 -7.1569278854711666e-05 0.00026054424751829186 0 -7.161812512005603e-05 0.00029320771420354431 0 -9.0699577742843699e-05 0.00027862339984707118 0 -5.8349065818066986e-05 -0.00012582337146962067 0 -6.0097021195259839e-05 -0.00014116460269403776 0 -5.1733991113811377e-05 -0.00013365238289769342 0 -1.1830518261406206e-05 -1.8936144124515519e-06 0 -9.2538031284551766e-06 -7.9140183807107798e-07 0 -1.1944421971262178e-05 -2.4336371805513338e-06 0 -1.5674451855184968e-09 1.6130995476803034e-10 0 -1.0733810050602537e-06 2.9147197617607165e-07 0 -2.0447145590765896e-06 4.2959365607813482e-07 0 -1.0675585711080099e-05 8.4579709347739755e-06 0 -1.0194702825963177e-05 1.298093558262687e-05 0 -1.4538708128311645e-05 1.3055765677501262e-05 0 -3.137248323163551e-05 -3.4673761837627473e-05 0 -3.026954288138199e-05 -2.9400702298963037e-05 0 -3.4723480795029033e-05 -3.5271011971426476e-05 0 -3.4318422509118674e-05 -2.9364878226305506e-05 0 -3.5985408084108418e-05 -2.707353952564774e-05 0 -3.7131811911734703e-05 -3.1942888996717075e-05 0 -4.9977141195487779e-06 8.3455338184952492e-07 0 -6.7964760615406259e-06 4.560171736028191e-07 0 -6.0914939580726377e-06 1.0265248369142106e-06 0 -6.0094262604422187e-05 -5.4543923776925515e-05 0 -7.0236719863968561e-05 -6.6766974944390808e-05 0 -5.8303496346410073e-05 -6.5179743884311728e-05 0 -6.7087208312543786e-05 -7.5661974458646308e-05 0 -5.8303496346410073e-05 -6.5179743884311728e-05 0 -7.0236719863968561e-05 -6.6766974944390808e-05 0 -1.5510998092877135e-09 -7.0698455336086073e-11 0 -1.5674451855185684e-09 1.6130995476803789e-10 0 -1.3126732816594392e-06 1.3821079858447108e-07 0 -9.9208584700910901e-05 0.00015234145996904485 0 -0.00011009941117825558 0.00013224431465853567 0 -8.6322229760436945e-05 0.00012909524506855141 0 -8.9895138540220209e-05 0.00010521944589313875 0 -8.6322229760436945e-05 0.00012909524506855141 0 -0.00011009941117825558 0.00013224431465853567 0 -4.9869264823018366e-05 -4.6092063688500503e-05 0 -4.7743701670209742e-05 -4.3133132602877052e-05 0 -5.093638132584069e-05 -4.5051967782861499e-05 0 -3.4420115806509665e-05 -4.6023639000708395e-05 0 -3.1584192814962328e-05 -4.0583736426667112e-05 0 -3.3806748481692805e-05 -4.3091712511182573e-05 0 -1.976858699803508e-05 1.1455659820968853e-05 0 -1.3982887531418302e-05 7.6962055051517977e-06 0 -1.4538708128311645e-05 1.3055765677501262e-05 0 -4.4840979033016757e-05 -4.2441430982141084e-05 0 -4.2407783042217834e-05 -4.1460601336878261e-05 0 -4.3002015558331979e-05 -3.9239178291466634e-05 0 -1.0759109193435299e-05 1.6347507965470831e-05 0 -1.132340359019322e-05 2.093038626590679e-05 0 -8.9534094711853307e-06 2.075255976839535e-05 0 -1.0689461081673717e-05 9.1242563412830163e-07 0 -8.1817387120221641e-06 1.33738938568518e-06 0 -1.0247864341821893e-05 2.703718188676407e-06 0 -3.7943919482413798e-05 2.4384478169605303e-05 0 -2.2908444073753398e-05 1.907157943627663e-05 0 -3.0823702408050716e-05 2.9038776593111834e-05 0 1.1472711316466881e-05 0.00011216539427896808 0 -7.2909499579647839e-06 0.00013362903116591413 0 -2.2271677350718856e-05 0.00011064886694378335 0 -1.1830518261406206e-05 -1.8936144124515519e-06 0 -9.2019666496078984e-06 -2.8445931867951213e-07 0 -9.2538031284551766e-06 -7.9140183807107777e-07 0 -7.1569278854711666e-05 0.00026054424751829186 0 -5.1031427631461959e-05 0.00027201415922868834 0 -7.161812512005603e-05 0.00029320771420354431 0 -5.8349065818066986e-05 -0.00012582337146962067 0 -6.7862384507186218e-05 -0.00013197648524293916 0 -6.0097021195259839e-05 -0.00014116460269403776 0 -6.4020701894044856e-06 2.9051304502817333e-07 0 -7.9889244602812455e-06 -4.0104997284219847e-07 0 -9.2538031284551766e-06 -7.9140183807107777e-07 0 -2.3083932505585745e-05 -1.2425234504960913e-05 0 -2.7851047735317633e-05 -1.5713761424783681e-05 0 -2.5150182603882683e-05 -1.0516995863507805e-05 0 -3.2297069262183756e-05 0.00024244403259490551 0 -1.219933666323332e-05 0.00024988425665849765 0 -2.6876227508920931e-05 0.00027422846990497279 0 -7.4282006781856819e-05 -0.00011917764012918395 0 -8.4292159233577657e-05 -0.00012427456627055417 0 -7.8997582252641368e-05 -0.00013433873716738883 0 -3.7429490192379333e-05 -1.5199920533787164e-05 0 -4.4487004769606445e-05 -1.936962800826353e-05 0 -3.6909744615896796e-05 -1.5094493224268881e-05 0 -6.8045115064994659e-05 2.6723020293136554e-05 0 -5.5726697879222295e-05 1.8851847385045968e-05 0 -5.3934164390268693e-05 1.906653037303169e-05 0 -2.8359017020409469e-05 3.8610670760898218e-05 0 -3.2963285044617056e-05 5.6311286189665496e-05 0 -4.5593727440268133e-05 6.032426759145152e-05 0 -1.6397224024129473e-05 -4.3425323166971143e-06 0 -2.0676878320473975e-05 -6.6410441012728279e-06 0 -1.9116885239304059e-05 -6.1559107501043147e-06 0 -5.5795041519601441e-05 -5.4707141327618428e-05 0 -5.2390892534492357e-05 -5.1800732080217335e-05 0 -5.2643753422988376e-05 -4.9258167084220471e-05 0 -5.5795041519601441e-05 -5.4707141327618428e-05 0 -5.2643753422988376e-05 -4.9258167084220471e-05 0 -5.4807554925018201e-05 -5.219495752454971e-05 0 -3.47184604074038e-05 -4.2568601863786297e-05 0 -3.241693579412294e-05 -3.9608332981053e-05 0 -3.482166708037523e-05 -4.6490334356506576e-05 0 -3.47184604074038e-05 -4.2568601863786297e-05 0 -3.482166708037523e-05 -4.6490334356506576e-05 0 -3.6076006353627217e-05 -4.8843920177329156e-05 0 -4.9869264823018366e-05 -4.6092063688500503e-05 0 -4.6190482687892731e-05 -4.4931573324332264e-05 0 -4.7743701670209742e-05 -4.3133132602877052e-05 0 -3.4420115806509665e-05 -4.6023639000708395e-05 0 -3.3806748481692805e-05 -4.3091712511182573e-05 0 -3.5860463192086458e-05 -4.7066685504944428e-05 0 -2.1318522682234203e-05 -2.4902777592225727e-05 0 -2.5805625322879477e-05 -3.0848106613328375e-05 0 -2.421556692110238e-05 -2.8760454413282077e-05 0 -4.9130610200098917e-05 -3.8223159830645284e-05 0 -5.0952827829107072e-05 -4.2775227742109699e-05 0 -4.729553773536941e-05 -3.8142560772082261e-05 0 -5.5460082351529532e-06 1.1706231029588002e-06 0 -1.5827697755556692e-05 -6.9556714746710108e-06 0 -1.0281950471568142e-05 -9.7239656006739766e-06 0 -4.6515807698219476e-05 0.00030505597302423425 0 -2.8314002714407875e-05 0.00032548311014827884 0 -5.1688254363583741e-05 0.00033360083848899734 0 -0.00010171336728640308 0.00030711651536692618 0 -9.7705475890924704e-05 0.00033493567402929713 0 -0.00012346907872195814 0.00032949445625938439 0 -7.1451267928240023e-05 -0.00014724462569461557 0 -8.0842550885850252e-05 -0.00015748702497073362 0 -6.9834710941684859e-05 -0.00015992894255979941 0 -4.8858896668387034e-05 -0.00014693822986082186 0 -5.1114318132903951e-05 -0.00015955636338961361 0 -4.1925292820355307e-05 -0.00015583573021590275 0 -7.6313617552093219e-06 6.1373967581559466e-07 0 -6.0914939580726377e-06 1.0265248369142106e-06 0 -6.7964760615406259e-06 4.560171736028191e-07 0 -4.6515807698219476e-05 0.00030505597302423425 0 -2.1210951402796157e-05 0.00029969517885178467 0 -2.8314002714407872e-05 0.00032548311014827884 0 -7.1451267928240023e-05 -0.00014724462569461557 0 -8.3182187261376101e-05 -0.0001464774771654873 0 -8.0842550885850252e-05 -0.00015748702497073362 0 -2.4741472429965901e-05 -4.2645767310363565e-06 0 -2.2074044175930745e-05 2.4651396694198226e-07 0 -1.9671680975924957e-05 -3.1747159408288361e-07 0 -0.00010171336728640308 0.00030711651536692618 0 -0.00012346907872195814 0.00032949445625938439 0 -0.00012865553990028768 0.00030419400320345414 0 -4.8858896668387034e-05 -0.00014693822986082186 0 -4.1925292820355307e-05 -0.00015583573021590275 0 -3.8707411609647307e-05 -0.00014360633656428722 0 -3.6157093396235217e-05 -7.2060189569722588e-05 0 -2.7202582471023475e-05 -6.3020279033415422e-05 0 -3.3444296028933626e-05 -5.5522651382076216e-05 0 -3.641802416389427e-05 -1.9656065641141326e-05 0 -3.7007545612016965e-05 -2.1940362578911631e-05 0 -3.3537622446642014e-05 -1.5738691299232401e-05 0 -3.4229599548818788e-05 -1.8379350749244158e-05 0 -3.3537622446642014e-05 -1.5738691299232401e-05 0 -3.7007545612016965e-05 -2.1940362578911631e-05 0 -1.2918821781922893e-05 4.6368084291183214e-06 0 -1.4700713051126801e-05 2.9356199740842037e-06 0 -1.0247864341821893e-05 2.703718188676407e-06 0 -6.5477792518108495e-05 0.00012426776664929343 0 -4.4451961290588151e-05 0.00011610647803914955 0 -5.3731467318829573e-05 0.00014677737144106867 0 -8.4604912184622018e-05 -7.6498145912571059e-05 0 -7.6504402997566509e-05 -7.9360693348224753e-05 0 -7.0236719863968561e-05 -6.6766974944390808e-05 0 -1.4220142472076752e-05 1.9371592029869713e-05 0 -2.2908444073753401e-05 1.907157943627663e-05 0 -1.4538708128311645e-05 1.3055765677501262e-05 0 -1.976858699803508e-05 1.1455659820968853e-05 0 -1.4538708128311645e-05 1.3055765677501262e-05 0 -2.2908444073753401e-05 1.907157943627663e-05 0 -7.0561076139198003e-06 4.1159116224562152e-06 0 -8.1139741386789051e-06 4.3660816722630935e-06 0 -8.2801745020837749e-06 6.8193295176292924e-06 0 -3.7793100624787415e-05 -3.5809531001947805e-05 0 -3.7939314721084131e-05 -3.9118467596805481e-05 0 -3.4723480795029033e-05 -3.5271011971426476e-05 0 -3.6013425842183919e-05 -4.0463163822459045e-05 0 -3.4723480795029033e-05 -3.5271011971426476e-05 0 -3.7939314721084131e-05 -3.9118467596805481e-05 0 -0.00010923159246102026 7.2051129092794511e-05 0 -9.5680027057071297e-05 5.2577531183734342e-05 0 -8.4952809253226749e-05 5.6570250220066328e-05 0 -5.9413101744719937e-05 -3.1824993561174319e-05 0 -6.6722811146181394e-05 -4.0632883111470473e-05 0 -5.4996217744000415e-05 -3.3131976053259773e-05 0 -2.3449440608613765e-09 -4.3469308586710993e-10 0 -1.9625476285091819e-09 -3.361678140926287e-10 0 -1.8383418649341495e-06 -6.01853344148088e-07 0 -2.1109181127143428e-09 2.7969682812614104e-10 0 -2.3815836294291666e-09 2.5912505212774318e-10 0 -2.0784717925635313e-06 4.391177373949339e-07 0 -1.0675585711080099e-05 8.4579709347739755e-06 0 -7.9524386888896201e-06 5.4966463878823896e-06 0 -8.8838401886203314e-06 8.4909730149264315e-06 0 -9.5314487400344964e-06 6.0167768224999169e-06 0 -8.2801745020837749e-06 6.8193295176292924e-06 0 -8.1139741386789051e-06 4.3660816722630935e-06 0 -7.0561076139198003e-06 4.1159116224562152e-06 0 -7.9524386888896201e-06 5.4966463878823888e-06 0 -6.8696971168537065e-06 3.7056781521378367e-06 0 -1.4662707723466187e-05 8.9246675265477862e-07 0 -1.9863478526211301e-05 2.8072883514373104e-06 0 -1.5452060991344384e-05 1.8425008756905735e-06 0 -1.1714589995542102e-05 -2.4872407056193757e-06 0 -1.1667489803335369e-05 -3.1804859318898091e-06 0 -1.5086371692524885e-05 -4.2038314904174458e-06 0 -2.8178037868175288e-05 0.00014427387977656501 0 -2.2271677350718856e-05 0.00011064886694378335 0 -7.2909499579647839e-06 0.00013362903116591413 0 -1.4662707723466187e-05 8.9246675265477862e-07 0 -1.5452060991344381e-05 1.8425008756905731e-06 0 -1.1327988528560207e-05 3.4429143573268216e-07 0 -1.1714589995542102e-05 -2.4872407056193757e-06 0 -8.9019438950558711e-06 -1.7939819844591947e-06 0 -1.1667489803335369e-05 -3.1804859318898091e-06 0 -4.3510464657955682e-05 -3.5734802713176908e-05 0 -4.5377896440517367e-05 -3.9102667227488517e-05 0 -4.3002015558331979e-05 -3.9239178291466634e-05 0 -3.6740728901783831e-05 8.0414298825505322e-05 0 -2.1627520221781527e-05 5.1008844769883403e-05 0 -1.6585687224226999e-05 8.1593367517387931e-05 0 -7.5052451303057939e-06 2.6919826779707857e-06 0 -6.8696971168537065e-06 3.7056781521378367e-06 0 -7.9524386888896218e-06 5.4966463878823896e-06 0 -3.137248323163551e-05 -3.4673761837627473e-05 0 -2.7753765178903607e-05 -3.1261762189071715e-05 0 -3.026954288138199e-05 -2.9400702298963037e-05 0 -3.7549101831163907e-09 -3.9406779423029956e-10 0 -2.9388611836711754e-09 -6.2493848603394856e-10 0 -2.8785543177922715e-06 -9.3366760418186587e-07 0 -2.7572754961429958e-09 2.5706536479788002e-10 0 -3.2470526164754136e-09 2.9771063390133769e-11 0 -2.6610965883841148e-06 2.0174086331797896e-07 0 -2.4447519772099359e-05 -9.466352676386593e-06 0 -3.0858400236255537e-05 -1.1981570265120052e-05 0 -2.5110583745560707e-05 -8.8717215939381415e-06 0 -4.4602200472903649e-05 1.3480241087771193e-05 0 -3.438032180268728e-05 9.9131136508404288e-06 0 -3.5814875639837941e-05 8.9911507773432991e-06 0 -3.4712120747844932e-05 -2.7291674928167123e-05 0 -3.8179124774454544e-05 -2.4555313312891508e-05 0 -4.1646213259213464e-05 -3.1577624168251426e-05 0 -1.8818600750346867e-05 -5.4469618352421353e-05 0 -2.5634578160687303e-05 -4.9314839642855517e-05 0 -2.7202582471023475e-05 -6.3020279033415409e-05 0 -2.1266856470148037e-05 -5.1397748576053567e-06 0 -2.117704359890594e-05 -8.1449178519119235e-06 0 -2.5150182603882683e-05 -1.0516995863507805e-05 0 -1.1225134851576481e-05 9.5172307897150581e-07 0 -1.0888431033130935e-05 3.5892153828032739e-06 0 -8.9738613067315372e-06 2.2254018931765902e-06 0 -1.3360057722237467e-05 1.0993167868379472e-06 0 -1.0888431033130935e-05 3.5892153828032739e-06 0 -1.1225134851576481e-05 9.5172307897150581e-07 0 -9.1195226343001701e-06 1.0437344561347677e-05 0 -1.0194702825963177e-05 1.298093558262687e-05 0 -8.8838401886203314e-06 8.4909730149264315e-06 0 -1.0675585711080099e-05 8.4579709347739755e-06 0 -8.8838401886203314e-06 8.4909730149264315e-06 0 -1.0194702825963177e-05 1.298093558262687e-05 0 -3.5795967673656955e-05 -4.3916716817523664e-05 0 -3.8082434608664899e-05 -4.6919605094209577e-05 0 -3.5860463192086458e-05 -4.7066685504944428e-05 0 -4.3201967017214786e-05 -2.7501715588811208e-05 0 -4.0199597264353229e-05 -2.517586386270245e-05 0 -3.8684604401552791e-05 -2.2244529937182345e-05 0 -2.3083932505585745e-05 -1.2425234504960913e-05 0 -2.3854039366017711e-05 -1.7292592810090404e-05 0 -2.7851047735317633e-05 -1.5713761424783681e-05 0 -2.4777060615625421e-05 -2.2765902789397316e-05 0 -2.7851047735317636e-05 -1.5713761424783681e-05 0 -2.3854039366017711e-05 -1.7292592810090404e-05 0 -1.8328978143850193e-05 -7.4513124776533525e-06 0 -2.4447519772099362e-05 -9.466352676386593e-06 0 -2.0644684846629365e-05 -7.2852802428189916e-06 0 -3.438032180268728e-05 9.9131136508404288e-06 0 -2.5094515170828337e-05 7.4509413444855288e-06 0 -2.87774478534995e-05 6.880674796900488e-06 0 -3.9890157851679155e-05 -5.1985996921832742e-05 0 -3.7454508634726206e-05 -5.225325981583433e-05 0 -3.9029420843984656e-05 -4.9728208381051864e-05 0 -2.2908444073753401e-05 1.907157943627663e-05 0 -2.116690320913128e-05 2.5749713781894922e-05 0 -3.0823702408050716e-05 2.9038776593111834e-05 0 -5.5348279886050748e-06 1.6310047103224003e-06 0 -5.9757274902692589e-06 2.6092441971493739e-06 0 -4.9187517653878526e-06 1.4801376288220467e-06 0 -6.3818416743897103e-06 -5.1241072555232562e-07 0 -9.7983129040241566e-06 -3.4500820082713267e-07 0 -1.1327988528560207e-05 3.4429143573268216e-07 0 -5.1209801265649556e-06 -6.2375442945985878e-07 0 -8.9019438950558711e-06 -1.793981984459195e-06 0 -8.0998997710354562e-06 -1.1644019923053798e-06 0 -6.4020701894044856e-06 2.9051304502817333e-07 0 -6.3665602557028718e-06 1.133464078498778e-07 0 -7.9889244602812455e-06 -4.0104997284219847e-07 0 -2.1266856470148037e-05 -5.1397748576053567e-06 0 -2.2992290890013509e-05 -4.3969207425010524e-06 0 -1.9671680975924957e-05 -3.1747159408288361e-07 0 -3.1441828423643675e-05 -3.9101627001773205e-05 0 -3.3028337505334528e-05 -3.8965830938880742e-05 0 -3.3806748481692805e-05 -4.3091712511182573e-05 0 -9.5606436476104804e-06 -1.1247371746530874e-06 0 -7.9889244602812438e-06 -4.0104997284219841e-07 0 -6.3665602557028718e-06 1.133464078498778e-07 0 -0.00015077984194672794 0.00021438594497148489 0 -0.00011955956759957492 0.0001974857066227701 0 -0.00012793023832329724 0.00022667710200017125 0 -2.1731968205768176e-05 -9.7147937901097685e-05 0 -3.321992535355586e-05 -9.2500431955463638e-05 0 -3.260708460455739e-05 -0.00010578334898282408 0 -2.0191696034284435e-05 -8.2685954005786517e-05 0 -2.9615217491163605e-05 -7.8544939073614171e-05 0 -3.321992535355586e-05 -9.2500431955463638e-05 0 -3.0220033841529692e-05 -1.2659412804703166e-05 0 -2.7262825582749338e-05 -7.1912191381356003e-06 0 -2.9577669075822349e-05 -1.0629367935497646e-05 0 -4.3201967017214786e-05 -2.7501715588811208e-05 0 -4.3440322664627484e-05 -2.9715177226731913e-05 0 -4.0199597264353229e-05 -2.517586386270245e-05 0 -1.1830518261406206e-05 -1.8936144124515519e-06 0 -1.5500514744910437e-05 -4.8166802963709662e-06 0 -1.3532779092758698e-05 -2.4398875092487219e-06 0 -2.4741472429965901e-05 -4.2645767310363565e-06 0 -1.9671680975924957e-05 -3.1747159408288361e-07 0 -2.2992290890013506e-05 -4.3969207425010516e-06 0 -9.1673262263344397e-07 0.00032137903850363317 0 -1.8366470120622244e-05 0.00033775049424074371 0 -2.8314002714407872e-05 0.00032548311014827884 0 -9.4427250839222775e-05 -0.00015898894719071764 0 -8.6335558192535779e-05 -0.00016418354941369169 0 -8.0842550885850252e-05 -0.00015748702497073362 0 -3.0981025244426003e-05 -0.00015334896633874869 0 -4.1925292820355307e-05 -0.00015583573021590275 0 -3.8177151395036384e-05 -0.00016106313149768698 0 -0.00015443922870675588 0.00033286395158902462 0 -0.00012346907872195814 0.00032949445625938439 0 -0.00013598335528791465 0.00034474555127371925 0 -1.4067360154887099e-05 -1.2573871855757014e-06 0 -1.1276501190503911e-05 -5.4065241684679021e-07 0 -1.3532779092758698e-05 -2.4398875092487219e-06 0 -1.1830518261406206e-05 -1.8936144124515519e-06 0 -1.3532779092758698e-05 -2.4398875092487219e-06 0 -1.1276501190503911e-05 -5.4065241684679021e-07 0 -1.8717846280092093e-05 -9.0634428886293447e-06 0 -1.5500514744910437e-05 -4.8166802963709654e-06 0 -1.6272892637222045e-05 -6.1143610742230783e-06 0 -5.221966260524103e-05 2.193317947818103e-05 0 -5.3934164390268693e-05 1.906653037303169e-05 0 -4.0418876463590776e-05 1.3289195563268204e-05 0 -4.3680309547282082e-05 1.2591419066588782e-05 0 -4.0418876463590776e-05 1.3289195563268204e-05 0 -5.3934164390268693e-05 1.906653037303169e-05 0 -1.976858699803508e-05 1.1455659820968853e-05 0 -2.420965463260139e-05 9.8627887085950109e-06 0 -1.7462175749609988e-05 6.5240765954812713e-06 0 -2.1095944156720587e-05 -9.5637880083430377e-06 0 -1.6452077229726016e-05 -5.6718298436526664e-06 0 -1.8016051971562513e-05 -6.0955162060543965e-06 0 -2.3083932505585745e-05 -1.2425234504960913e-05 0 -2.1741962393974843e-05 -1.3861519095358444e-05 0 -2.3854039366017711e-05 -1.7292592810090404e-05 0 -1.1714589995542102e-05 -2.4872407056193757e-06 0 -9.3063531410519847e-06 -1.2322583753920618e-06 0 -8.0998997710354562e-06 -1.1644019923053798e-06 0 -5.5944085533046305e-06 -2.8600864138133291e-07 0 -8.0998997710354562e-06 -1.1644019923053798e-06 0 -9.3063531410519863e-06 -1.232258375392062e-06 0 -6.3335264978978832e-06 -9.4407714328168905e-07 0 -1.0263511643746303e-05 -2.222381791433905e-07 0 -9.7983129040241566e-06 -3.4500820082713257e-07 0 -1.4662707723466187e-05 8.9246675265477862e-07 0 -9.7983129040241549e-06 -3.4500820082713273e-07 0 -1.0263511643746303e-05 -2.222381791433905e-07 0 -6.7087208312543786e-05 -7.5661974458646308e-05 0 -7.3974488694433682e-05 -8.9674539741966774e-05 0 -6.3098999345428104e-05 -8.3561360186812337e-05 0 -6.4644090131625335e-05 -9.6003536171327357e-05 0 -6.3098999345428104e-05 -8.3561360186812337e-05 0 -7.3974488694433682e-05 -8.9674539741966774e-05 0 -2.5554382798615703e-06 -9.1851394926188646e-07 0 -1.8383418649341495e-06 -6.01853344148088e-07 0 -4.2998096786917452e-06 -7.0860575618295848e-07 0 -2.9738509258820685e-06 -4.2902331609825172e-07 0 -4.2998096786917452e-06 -7.0860575618295848e-07 0 -1.8383418649341495e-06 -6.01853344148088e-07 0 -3.6857906822336805e-06 5.4274907933026043e-07 0 -2.0784717925635313e-06 4.391177373949339e-07 0 -4.5261326647105603e-06 3.585485453195903e-07 0 -2.5954438365654016e-06 3.7526895642721221e-07 0 -4.5261326647105603e-06 3.585485453195903e-07 0 -2.0784717925635313e-06 4.391177373949339e-07 0 -7.1569278854711666e-05 0.00026054424751829186 0 -5.3354333359041215e-05 0.00024306873887389182 0 -5.1031427631461959e-05 0.00027201415922868834 0 -5.8349065818066986e-05 -0.00012582337146962067 0 -6.4923201158824422e-05 -0.00011844742866497892 0 -6.7862384507186218e-05 -0.00013197648524293916 0 -1.1149246648967954e-05 -1.8533478864260446e-06 0 -8.615423042372842e-06 -8.6106301673965468e-07 0 -9.3063531410519863e-06 -1.232258375392062e-06 0 -1.0689461081673717e-05 9.1242563412830163e-07 0 -1.0263511643746303e-05 -2.222381791433905e-07 0 -8.4208034954555466e-06 -1.1750917561072376e-07 0 -2.1095944156720587e-05 -9.5637880083430377e-06 0 -2.1397615107028319e-05 -1.1842381734159531e-05 0 -1.8070155881929138e-05 -7.7941488924297019e-06 0 -1.1714589995542102e-05 -2.4872407056193757e-06 0 -1.3139941614661508e-05 -2.7738593900860324e-06 0 -9.3063531410519863e-06 -1.232258375392062e-06 0 -1.4662707723466187e-05 8.9246675265477862e-07 0 -1.0263511643746303e-05 -2.222381791433905e-07 0 -1.4909686185022201e-05 1.2345967147988443e-06 0 -2.4777060615625421e-05 -2.2765902789397316e-05 0 -3.1076141195214393e-05 -1.7218615526796952e-05 0 -2.7851047735317633e-05 -1.5713761424783681e-05 0 -1.1830518261406206e-05 -1.8936144124515519e-06 0 -1.3822557774542292e-05 -3.7830593601052928e-06 0 -1.5500514744910437e-05 -4.8166802963709662e-06 0 -4.1845800142305035e-09 -9.7302536463540322e-10 0 -3.7549101831163907e-09 -3.9406779423029956e-10 0 -3.0961582888320366e-06 -7.113085223499908e-07 0 -3.2470526164754136e-09 2.9771063390133769e-11 0 -3.3945552584948029e-09 3.5195574407378018e-10 0 -2.6342502947250418e-06 -2.6221169578608327e-08 0 -1.4220142472076752e-05 1.9371592029869713e-05 0 -1.4538708128311645e-05 1.3055765677501262e-05 0 -1.0194702825963177e-05 1.298093558262687e-05 0 -4.0227611903787093e-05 -4.680910284700565e-05 0 -4.1183957152824117e-05 -4.9448168792695341e-05 0 -3.9029420843984656e-05 -4.9728208381051864e-05 0 -2.1095944156720587e-05 -9.5637880083430377e-06 0 -2.2300480559836557e-05 -8.962684519225282e-06 0 -2.6336607933649849e-05 -1.2769132987628216e-05 0 -3.3444296028933626e-05 -5.5522651382076216e-05 0 -2.7202582471023475e-05 -6.3020279033415409e-05 0 -2.5634578160687303e-05 -4.9314839642855517e-05 0 -1.4067360154887099e-05 -1.2573871855757014e-06 0 -1.1225134851576481e-05 9.5172307897150581e-07 0 -1.1276501190503911e-05 -5.4065241684679021e-07 0 -1.8255711719513162e-05 -6.5122798095872058e-06 0 -1.5781483539521947e-05 -3.8660402721165817e-06 0 -1.5500514744910437e-05 -4.8166802963709662e-06 0 -1.0144869363287331e-05 9.9996116241527558e-07 0 -1.5003854687680754e-05 3.4668399977836221e-06 0 -7.2214330825884858e-06 1.6429290352759292e-06 0 -7.7036839390643075e-06 -2.0579147843000742e-06 0 -5.4136338683815136e-06 -2.0640418081990109e-06 0 -1.1129710773686362e-05 -4.1342381506490363e-06 0 -2.4927476905861489e-05 -1.6946882213324163e-05 0 -2.4625482571971575e-05 -1.9740343333391998e-05 0 -2.1741962393974843e-05 -1.3861519095358444e-05 0 -8.9738613067315372e-06 2.2254018931765902e-06 0 -8.9958792338929549e-06 7.5015245106953646e-07 0 -1.1225134851576481e-05 9.5172307897150581e-07 0 -1.4816069077427968e-05 -4.6954954368949015e-06 0 -1.6452077229726016e-05 -5.6718298436526673e-06 0 -1.8070155881929138e-05 -7.7941488924297019e-06 0 -3.6184879302588692e-05 -1.598241824585627e-05 0 -3.779648092399277e-05 -1.9794703967357755e-05 0 -3.1345989729123472e-05 -1.489167621713994e-05 0 -0.00014667165409381635 0.00018316983402858568 0 -0.00012091746974556166 0.00016924926156849533 0 -0.00011955956759957492 0.0001974857066227701 0 -2.4927476905861489e-05 -1.6946882213324163e-05 0 -2.5614386156198711e-05 -1.4573495997153991e-05 0 -3.007191541143756e-05 -1.99610670415206e-05 0 -2.9577669075822349e-05 -1.0629367935497646e-05 0 -3.3537622446642014e-05 -1.5738691299232401e-05 0 -3.1899414438106792e-05 -1.4476272153054988e-05 0 -2.1095944156720587e-05 -9.5637880083430377e-06 0 -2.6336607933649849e-05 -1.2769132987628216e-05 0 -2.5614386156198711e-05 -1.4573495997153991e-05 0 -1.1276501190503911e-05 -5.4065241684679021e-07 0 -1.1225134851576481e-05 9.5172307897150581e-07 0 -8.9958792338929549e-06 7.5015245106953646e-07 0 -3.641802416389427e-05 -1.9656065641141326e-05 0 -3.8684604401552791e-05 -2.2244529937182345e-05 0 -4.0199597264353229e-05 -2.517586386270245e-05 0 -1.4220142472076752e-05 1.9371592029869713e-05 0 -8.9534094711853307e-06 2.075255976839535e-05 0 -1.4347821147209792e-05 2.862271792325364e-05 0 -2.1095944156720587e-05 -9.5637880083430377e-06 0 -1.8016051971562513e-05 -6.0955162060543965e-06 0 -2.2300480559836557e-05 -8.962684519225282e-06 0 -0.0001532307112352349 0.00024533928021455524 0 -0.00015077984194672794 0.00021438594497148489 0 -0.00012793023832329724 0.00022667710200017125 0 -2.1731968205768176e-05 -9.7147937901097685e-05 0 -3.260708460455739e-05 -0.00010578334898282408 0 -2.3696759423468793e-05 -0.00011172952798918585 0 -1.9125389328479524e-05 -6.8469968386008126e-05 0 -2.9615217491163605e-05 -7.8544939073614171e-05 0 -2.0191696034284435e-05 -8.2685954005786517e-05 0 -3.7943919482413798e-05 2.4384478169605303e-05 0 -5.2974832013380851e-05 2.9105580212820236e-05 0 -4.3227286788762265e-05 1.9866585460477667e-05 0 -5.5460082351529532e-06 1.1706231029588002e-06 0 -1.5579995543135831e-05 9.9436792491367914e-06 0 -1.5827697755556692e-05 -6.9556714746710108e-06 0 -3.6184879302588692e-05 -1.598241824585627e-05 0 -3.6909744615896796e-05 -1.5094493224268881e-05 0 -4.244696594340059e-05 -1.8856861732416076e-05 0 -5.221966260524103e-05 2.193317947818103e-05 0 -6.3571407189419029e-05 2.6060235821766152e-05 0 -5.3934164390268693e-05 1.906653037303169e-05 0 -3.6184879302588692e-05 -1.598241824585627e-05 0 -4.244696594340059e-05 -1.8856861732416076e-05 0 -4.4214633363142979e-05 -2.1759097066901015e-05 0 -5.221966260524103e-05 2.193317947818103e-05 0 -6.571801939589549e-05 3.2174907698966128e-05 0 -6.3571407189419029e-05 2.6060235821766152e-05 0 -7.7036839390643075e-06 -2.0579147843000742e-06 0 -3.7688488961988695e-06 -7.8296444068897906e-07 0 -5.4136338683815136e-06 -2.0640418081990109e-06 0 -1.0144869363287331e-05 9.9996116241527558e-07 0 -7.2214330825884858e-06 1.6429290352759292e-06 0 -4.9117288545596709e-06 5.6543050386951717e-08 0 -1.8255711719513162e-05 -6.5122798095872058e-06 0 -2.0258755613962179e-05 -1.0111221103845936e-05 0 -2.117704359890594e-05 -8.1449178519119235e-06 0 -2.3083932505585745e-05 -1.2425234504960913e-05 0 -2.117704359890594e-05 -8.1449178519119235e-06 0 -2.0258755613962179e-05 -1.0111221103845936e-05 0 -5.0952827829107072e-05 -4.2775227742109699e-05 0 -5.0072482176267329e-05 -4.2552214426586142e-05 0 -4.729553773536941e-05 -3.8142560772082261e-05 0 -2.421556692110238e-05 -2.8760454413282077e-05 0 -2.5805625322879477e-05 -3.0848106613328375e-05 0 -2.8205616274617636e-05 -3.4850676018036106e-05 0 -1.0281950471568142e-05 -9.7239656006739766e-06 0 -1.5827697755556692e-05 -6.95567147467101e-06 0 -1.7240253634527502e-05 -1.5532112036551192e-05 0 -2.1318522682234203e-05 -2.4902777592225727e-05 0 -2.2696452157467596e-05 -2.6050556034747776e-05 0 -2.5805625322879477e-05 -3.0848106613328375e-05 0 -4.9130610200098917e-05 -3.8223159830645284e-05 0 -4.729553773536941e-05 -3.8142560772082261e-05 0 -4.5724288065133133e-05 -3.4085025626860283e-05 0 -2.1095944156720587e-05 -9.5637880083430377e-06 0 -1.8070155881929138e-05 -7.7941488924297002e-06 0 -1.6452077229726016e-05 -5.6718298436526664e-06 0 -1.8717846280092093e-05 -9.0634428886293447e-06 0 -2.1741962393974843e-05 -1.3861519095358444e-05 0 -2.0258755613962179e-05 -1.0111221103845936e-05 0 -2.3083932505585745e-05 -1.2425234504960913e-05 0 -2.0258755613962179e-05 -1.0111221103845936e-05 0 -2.1741962393974843e-05 -1.3861519095358444e-05 0 -1.4067360154887099e-05 -1.2573871855757014e-06 0 -1.7872300773192191e-05 -4.2776390972214392e-06 0 -1.6885913890856727e-05 -1.0260353713271037e-06 0 -0.00014667165409381635 0.00018316983402858568 0 -0.00014044415716353364 0.00015217721220399898 0 -0.00012091746974556166 0.00016924926156849533 0 -2.4741472429965901e-05 -4.2645767310363565e-06 0 -2.2992290890013506e-05 -4.3969207425010516e-06 0 -2.6255284751157842e-05 -8.1166041391675984e-06 0 -2.8359017020409469e-05 3.8610670760898218e-05 0 -2.116690320913128e-05 2.5749713781894922e-05 0 -1.4347821147209792e-05 2.862271792325364e-05 0 -1.4220142472076752e-05 1.9371592029869713e-05 0 -1.4347821147209792e-05 2.862271792325364e-05 0 -2.116690320913128e-05 2.5749713781894922e-05 0 -1.8818600750346867e-05 -5.4469618352421353e-05 0 -2.7202582471023475e-05 -6.3020279033415409e-05 0 -1.9125389328479524e-05 -6.8469968386008126e-05 0 -8.1565047121333646e-05 3.7435219601833899e-05 0 -6.3571407189419029e-05 2.6060235821766152e-05 0 -6.571801939589549e-05 3.2174907698966128e-05 0 -5.1887082243592321e-05 -2.4736862558452505e-05 0 -4.4214633363142973e-05 -2.1759097066901012e-05 0 -4.244696594340059e-05 -1.8856861732416076e-05 0 -2.1266856470148037e-05 -5.1397748576053567e-06 0 -2.6255284751157842e-05 -8.1166041391675967e-06 0 -2.2992290890013506e-05 -4.3969207425010516e-06 0 -8.9921963951256241e-05 0.00019635526948804963 0 -0.00011955956759957492 0.0001974857066227701 0 -0.00010161631219485017 0.00017433654841523267 0 -8.9921963951256241e-05 0.00019635526948804963 0 -0.00010749036925813838 0.00021749463662522296 0 -0.00011955956759957492 0.0001974857066227701 0 -4.4618320906199717e-05 -9.4123425799618824e-05 0 -3.9975281931567904e-05 -0.00010294086939375892 0 -3.321992535355586e-05 -9.2500431955463638e-05 0 -4.4618320906199717e-05 -9.4123425799618824e-05 0 -3.3219925353555854e-05 -9.2500431955463625e-05 0 -3.7803073472512664e-05 -8.4055005866241636e-05 0 -2.3696759423468793e-05 -0.00011172952798918585 0 -3.3351267752110596e-05 -0.00011875439855202398 0 -2.6143916816310326e-05 -0.00012637268777904653 0 -0.00015423096259731652 0.00027561793530339715 0 -0.0001532307112352349 0.00024533928021455524 0 -0.00013218455458043765 0.00025407337630711048 0 -6.7716906083253332e-06 -2.0291464938073333e-07 0 -5.544572144694977e-06 -6.4243662926295125e-09 0 -8.6154230423728436e-06 -8.6106301673965478e-07 0 -6.1487979045609047e-06 -5.7500663650755658e-07 0 -8.4208034954555466e-06 -1.1750917561072376e-07 0 -5.3841313138099484e-06 -1.041270678111802e-06 0 -4.4618320906199717e-05 -9.4123425799618824e-05 0 -5.2330495823481565e-05 -9.5328099194624824e-05 0 -4.8008371523114592e-05 -0.00010674806882638593 0 -4.4618320906199717e-05 -9.4123425799618824e-05 0 -4.4978815588690458e-05 -8.2719185592965792e-05 0 -5.2330495823481565e-05 -9.5328099194624824e-05 0 -5.7918602966645712e-05 -0.0001093331090860631 0 -4.8008371523114592e-05 -0.00010674806882638593 0 -5.2330495823481565e-05 -9.5328099194624824e-05 0 -5.3964553527433741e-05 -8.2817581172343205e-05 0 -5.2330495823481565e-05 -9.5328099194624824e-05 0 -4.4978815588690458e-05 -8.2719185592965792e-05 0 -8.9921963951256241e-05 0.00019635526948804963 0 -7.0198887268485782e-05 0.0001980951472615992 0 -8.9450920769480917e-05 0.00022438955025651269 0 -6.6228179923451643e-05 0.00022384245107888142 0 -8.9450920769480917e-05 0.00022438955025651269 0 -7.0198887268485782e-05 0.0001980951472615992 0 -3.2470526164754136e-09 2.9771063390133769e-11 0 -2.6342502947250418e-06 -2.6221169578608327e-08 0 -2.6610965883841148e-06 2.0174086331797896e-07 0 -3.7549101831163907e-09 -3.9406779423029956e-10 0 -2.8785543177922715e-06 -9.3366760418186587e-07 0 -3.0961582888320366e-06 -7.113085223499908e-07 0 -5.84662026196871e-05 -4.2831333903493116e-05 0 -4.8174942396770284e-05 -3.2563557085767063e-05 0 -5.4996217744000415e-05 -3.3131976053259773e-05 0 -8.9066313147372186e-05 7.6913118280243185e-05 0 -8.4952809253226749e-05 5.6570250220066328e-05 0 -7.1364956543728994e-05 5.4733680765263639e-05 0 -2.526178309931343e-05 -8.9054412434300099e-06 0 -3.148072950201962e-05 -1.2375517513352075e-05 0 -2.943282660042883e-05 -1.2012136001544797e-05 0 -7.6313617552093219e-06 6.1373967581559466e-07 0 -9.2019666496078984e-06 -2.8445931867951197e-07 0 -8.9958792338929549e-06 7.5015245106953646e-07 0 -3.7238281941220253e-05 -4.9077267217885702e-05 0 -3.5860463192086458e-05 -4.7066685504944428e-05 0 -3.8082434608664899e-05 -4.6919605094209577e-05 0 -2.6941327936155074e-05 5.3147479772647833e-06 0 -3.2400103953399255e-05 7.5618006263852692e-06 0 -3.5814875639837941e-05 8.9911507773432991e-06 0 -4.3680309547282082e-05 1.2591419066588782e-05 0 -3.5814875639837941e-05 8.9911507773432991e-06 0 -3.2400103953399255e-05 7.5618006263852701e-06 0 -4.4016329652755156e-06 8.3171569201962202e-07 0 -4.0705250723700574e-06 3.7703229764419528e-08 0 -3.0480475985228802e-06 2.0381931542558671e-09 0 -1.4575661536445151e-05 -1.6125537938945002e-05 0 -2.0989656968777467e-05 -2.2068565714117057e-05 0 -1.8042644259169794e-05 -2.0791551109612577e-05 0 -5.1887082243592321e-05 -2.4736862558452505e-05 0 -5.1264913352745976e-05 -2.7373001470223164e-05 0 -4.4214633363142979e-05 -2.1759097066901015e-05 0 -8.1565047121333646e-05 3.7435219601833899e-05 0 -6.5718019395895477e-05 3.2174907698966128e-05 0 -7.8943418707383265e-05 4.3254278604337682e-05 0 -3.2909475732632019e-05 -1.8801193296113594e-05 0 -3.4338173667558113e-05 -1.731537556759347e-05 0 -3.1076141195214393e-05 -1.7218615526796952e-05 0 -1.4662707723466187e-05 8.9246675265477862e-07 0 -1.4909686185022201e-05 1.2345967147988443e-06 0 -2.1500013628449241e-05 3.1973670169198815e-06 0 -1.8490123620435175e-05 3.2692139063298539e-06 0 -2.1500013628449241e-05 3.1973670169198819e-06 0 -1.4909686185022201e-05 1.2345967147988443e-06 0 -3.6740728901783831e-05 8.0414298825505322e-05 0 -3.2963285044617056e-05 5.6311286189665496e-05 0 -2.1627520221781527e-05 5.1008844769883403e-05 0 -3.438032180268728e-05 9.9131136508404288e-06 0 -2.87774478534995e-05 6.880674796900488e-06 0 -3.5814875639837941e-05 8.9911507773432991e-06 0 -2.4447519772099359e-05 -9.466352676386593e-06 0 -2.5110583745560707e-05 -8.8717215939381415e-06 0 -2.0644684846629365e-05 -7.2852802428189916e-06 0 -3.7793100624787415e-05 -3.5809531001947805e-05 0 -3.7131811911734703e-05 -3.1942888996717075e-05 0 -4.0536671245345433e-05 -3.5858105606899827e-05 0 -3.9431911411302741e-05 -3.1573441876734514e-05 0 -4.0536671245345433e-05 -3.5858105606899827e-05 0 -3.7131811911734703e-05 -3.1942888996717075e-05 0 -1.4067360154887099e-05 -1.2573871855757014e-06 0 -1.3360057722237467e-05 1.0993167868379472e-06 0 -1.1225134851576481e-05 9.5172307897150581e-07 0 -1.976858699803508e-05 1.1455659820968853e-05 0 -1.7462175749609988e-05 6.5240765954812704e-06 0 -1.3982887531418302e-05 7.6962055051517977e-06 0 -7.0561076139198003e-06 4.1159116224562152e-06 0 -6.9767202408147417e-06 2.7655349913745753e-06 0 -8.1139741386789051e-06 4.3660816722630935e-06 0 -2.8359017020409469e-05 3.8610670760898218e-05 0 -2.1627520221781527e-05 5.1008844769883403e-05 0 -3.2963285044617056e-05 5.6311286189665496e-05 0 -3.6184879302588692e-05 -1.598241824585627e-05 0 -3.1345989729123472e-05 -1.489167621713994e-05 0 -2.943282660042883e-05 -1.2012136001544797e-05 0 -1.4816069077427968e-05 -4.6954954368949015e-06 0 -1.1944421971262178e-05 -2.4336371805513338e-06 0 -1.2574028742493896e-05 -2.8198884971684596e-06 0 1.1472711316466881e-05 0.00011216539427896808 0 1.2570843995356881e-05 0.00014269764529457164 0 -7.2909499579647839e-06 0.00013362903116591413 0 -8.854204546676331e-05 -9.0613679031855085e-05 0 -7.3974488694433682e-05 -8.9674539741966774e-05 0 -7.6504402997566509e-05 -7.9360693348224753e-05 0 -8.1565047121333646e-05 3.7435219601833899e-05 0 -6.8045115064994659e-05 2.6723020293136554e-05 0 -6.3571407189419029e-05 2.6060235821766152e-05 0 -4.4487004769606445e-05 -1.936962800826353e-05 0 -5.1887082243592321e-05 -2.4736862558452505e-05 0 -4.244696594340059e-05 -1.8856861732416076e-05 0 -1.9671680975924957e-05 -3.1747159408288361e-07 0 -2.2074044175930745e-05 2.4651396694198226e-07 0 -1.6713203913360515e-05 4.6098052922040261e-06 0 -1.4662707723466187e-05 8.9246675265477862e-07 0 -2.1500013628449241e-05 3.1973670169198815e-06 0 -1.9863478526211301e-05 2.8072883514373104e-06 0 -2.6941327936155074e-05 5.3147479772647833e-06 0 -1.9863478526211301e-05 2.8072883514373104e-06 0 -2.1500013628449241e-05 3.1973670169198815e-06 0 -9.1195226343001701e-06 1.0437344561347677e-05 0 -9.499591422564883e-06 1.469587462892272e-05 0 -1.0194702825963177e-05 1.298093558262687e-05 0 -7.755737248704795e-05 -0.00010500189137383484 0 -7.3974488694433682e-05 -8.9674539741966774e-05 0 -8.2895559109257493e-05 -9.7757284343622642e-05 0 -4.3182131739379626e-05 -3.1212650376940148e-05 0 -4.1643389724899001e-05 -3.1322965112779885e-05 0 -4.0302554361763852e-05 -2.703416464272355e-05 0 8.7490954221252325e-06 0.00023397798751632803 0 5.8090930506203517e-06 0.00026428380826542088 0 -1.219933666323332e-05 0.00024988425665849765 0 -9.3323699045267514e-05 -0.00011933955538663297 0 -9.4184353023236123e-05 -0.00013323817138264282 0 -8.429215923357767e-05 -0.00012427456627055417 0 -3.7943919482413798e-05 2.4384478169605303e-05 0 -2.7311294690630666e-05 1.5872009731088039e-05 0 -2.2908444073753401e-05 1.907157943627663e-05 0 -2.4927476905861489e-05 -1.6946882213324163e-05 0 -2.9137208236576798e-05 -2.3349531457952532e-05 0 -2.4625482571971575e-05 -1.9740343333391998e-05 0 -3.1452250278612962e-05 -1.7610377965456577e-05 0 -3.007191541143756e-05 -1.99610670415206e-05 0 -2.5614386156198711e-05 -1.4573495997153991e-05 0 -0.0001532307112352349 0.00024533928021455524 0 -0.00012793023832329724 0.00022667710200017125 0 -0.00013218455458043765 0.00025407337630711048 0 -2.3696759423468793e-05 -0.00011172952798918585 0 -3.260708460455739e-05 -0.00010578334898282408 0 -3.3351267752110596e-05 -0.00011875439855202398 0 -1.4763501798643879e-05 -4.0621798765531075e-06 0 -1.1831643477922258e-05 -2.2551494724003426e-06 0 -1.4729653366252873e-05 -3.6347467413637839e-06 0 -1.4220142472076752e-05 1.9371592029869713e-05 0 -2.116690320913128e-05 2.5749713781894922e-05 0 -2.2908444073753401e-05 1.907157943627663e-05 0 -3.6184879302588692e-05 -1.598241824585627e-05 0 -3.148072950201962e-05 -1.2375517513352073e-05 0 -3.6909744615896796e-05 -1.5094493224268881e-05 0 -3.8568348957998511e-05 -2.2426487227929807e-05 0 -4.3201967017214786e-05 -2.7501715588811208e-05 0 -3.8684604401552791e-05 -2.2244529937182345e-05 0 -1.6397224024129473e-05 -4.3425323166971143e-06 0 -1.5677148908804056e-05 -4.0547857221207371e-06 0 -2.0263627956503767e-05 -6.1786909109098524e-06 0 -8.4604912184622018e-05 -7.6498145912571059e-05 0 -8.8542045466763296e-05 -9.0613679031855085e-05 0 -7.6504402997566509e-05 -7.9360693348224753e-05 0 -2.9740303041680742e-05 -1.0971674922900932e-05 0 -2.408452224050767e-05 -8.0896078609662314e-06 0 -2.5110583745560707e-05 -8.8717215939381415e-06 0 -1.9790290293941112e-05 -6.1874610314646453e-06 0 -2.5110583745560707e-05 -8.8717215939381415e-06 0 -2.408452224050767e-05 -8.0896078609662314e-06 0 -9.9208584700910901e-05 0.00015234145996904485 0 -7.9453306425677055e-05 0.00015690421277174041 0 -0.00010161631219485017 0.00017433654841523267 0 -2.5554382798615703e-06 -9.1851394926188646e-07 0 -5.3841313138099484e-06 -1.041270678111802e-06 0 -2.8785543177922715e-06 -9.3366760418186587e-07 0 -6.3335264978978832e-06 -9.4407714328168905e-07 0 -2.8785543177922715e-06 -9.3366760418186587e-07 0 -5.3841313138099484e-06 -1.041270678111802e-06 0 -5.5944085533046305e-06 -2.8600864138133291e-07 0 -5.544572144694977e-06 -6.4243662926294968e-09 0 -2.6610965883841148e-06 2.0174086331797896e-07 0 -2.5954438365654016e-06 3.7526895642721221e-07 0 -2.6610965883841148e-06 2.0174086331797896e-07 0 -5.544572144694977e-06 -6.4243662926294968e-09 0 -1.8717846280092093e-05 -9.0634428886293447e-06 0 -1.8070155881929138e-05 -7.7941488924297019e-06 0 -2.1397615107028319e-05 -1.1842381734159531e-05 0 -2.5325553532414138e-05 -4.0879225888245523e-06 0 -2.7262825582749338e-05 -7.1912191381356003e-06 0 -2.8081112125753521e-05 -1.0821071117507166e-05 0 -3.0220033841529692e-05 -1.2659412804703166e-05 0 -2.8081112125753521e-05 -1.0821071117507166e-05 0 -2.7262825582749338e-05 -7.1912191381356003e-06 0 -4.3201967017214786e-05 -2.7501715588811208e-05 0 -4.6655723840619536e-05 -3.3095380954359347e-05 0 -4.3440322664627484e-05 -2.9715177226731913e-05 0 -3.0220033841529692e-05 -1.2659412804703166e-05 0 -2.9577669075822349e-05 -1.0629367935497646e-05 0 -3.1899414438106792e-05 -1.4476272153054988e-05 0 -2.5805625322879477e-05 -3.0848106613328375e-05 0 -2.2696452157467596e-05 -2.6050556034747776e-05 0 -2.7753765178903607e-05 -3.1261762189071715e-05 0 -4.729553773536941e-05 -3.8142560772082261e-05 0 -4.4419914331361609e-05 -3.417127476936779e-05 0 -4.5724288065133133e-05 -3.4085025626860283e-05 0 -5.1887082243592321e-05 -2.4736862558452505e-05 0 -5.9413101744719937e-05 -3.1824993561174319e-05 0 -5.1264913352745976e-05 -2.7373001470223164e-05 0 -9.5680027057071297e-05 5.2577531183734342e-05 0 -8.1565047121333646e-05 3.7435219601833899e-05 0 -7.8943418707383265e-05 4.3254278604337682e-05 0 -1.5827697755556692e-05 -6.9556714746710108e-06 0 -2.2011718518106578e-05 -1.2672354763945458e-05 0 -1.7240253634527502e-05 -1.5532112036551192e-05 0 -2.5805625322879477e-05 -3.0848106613328375e-05 0 -2.9942742704396633e-05 -3.5799823728860405e-05 0 -2.8205616274617636e-05 -3.4850676018036106e-05 0 -3.1452250278612962e-05 -1.7610377965456577e-05 0 -3.1345989729123472e-05 -1.489167621713994e-05 0 -3.779648092399277e-05 -1.9794703967357755e-05 0 -2.6254547165877788e-06 5.905903899964218e-07 0 -1.0733810050602537e-06 2.9147197617607165e-07 0 -1.2248535682508283e-06 3.5075904885151787e-07 0 -1.2918821781922893e-05 4.6368084291183214e-06 0 -1.7462175749609988e-05 6.5240765954812713e-06 0 -1.4700713051126801e-05 2.9356199740842037e-06 0 -7.5052451303057939e-06 2.6919826779707857e-06 0 -1.0247864341821893e-05 2.703718188676407e-06 0 -8.1817387120221641e-06 1.33738938568518e-06 0 -1.7956079613993338e-05 9.1217030530593171e-06 0 -2.1640524362579544e-05 2.6875631676477136e-06 0 -2.1228286943118423e-05 -1.3357948555484846e-06 0 -1.5291079035451526e-05 -5.007768244166559e-06 0 -1.1667489803335369e-05 -3.1804859318898091e-06 0 -1.1129710773686362e-05 -4.1342381506490363e-06 0 -7.7036839390643075e-06 -2.0579147843000742e-06 0 -1.1129710773686362e-05 -4.1342381506490363e-06 0 -1.1667489803335369e-05 -3.1804859318898091e-06 0 -1.0144869363287331e-05 9.9996116241527558e-07 0 -1.5452060991344384e-05 1.8425008756905735e-06 0 -1.5003854687680754e-05 3.4668399977836221e-06 0 -2.077865354703053e-05 4.0142270741743907e-06 0 -1.5003854687680754e-05 3.4668399977836221e-06 0 -1.5452060991344384e-05 1.8425008756905735e-06 0 -7.3351173197578102e-05 -5.1097412864030983e-05 0 -7.9579096987023317e-05 -6.327502989102571e-05 0 -6.8217887768731264e-05 -5.5357183854404871e-05 0 -3.6740728901783831e-05 8.0414298825505322e-05 0 -4.5593727440268133e-05 6.0324267591451527e-05 0 -3.2963285044617056e-05 5.6311286189665496e-05 0 -1.9125389328479524e-05 -6.8469968386008126e-05 0 -2.7202582471023475e-05 -6.3020279033415409e-05 0 -2.9615217491163605e-05 -7.8544939073614171e-05 0 -3.5795967673656955e-05 -4.3916716817523664e-05 0 -3.8491368310274079e-05 -4.3710137262400197e-05 0 -3.8082434608664899e-05 -4.6919605094209577e-05 0 -1.1149246648967954e-05 -1.8533478864260446e-06 0 -1.4729653366252873e-05 -3.6347467413637839e-06 0 -1.1831643477922258e-05 -2.2551494724003426e-06 0 -2.1266856470148037e-05 -5.1397748576053567e-06 0 -1.6885913890856727e-05 -1.0260353713271037e-06 0 -1.7872300773192191e-05 -4.2776390972214392e-06 0 -2.526178309931343e-05 -8.9054412434300099e-06 0 -2.0263627956503767e-05 -6.1786909109098524e-06 0 -2.408452224050767e-05 -8.0896078609662314e-06 0 -2.8178037868175288e-05 0.00014427387977656501 0 -5.914950628250428e-06 0.00015363063369457373 0 -1.8062911728126865e-05 0.00017186038134210581 0 -1.8241765432036774e-09 2.0922107921533836e-10 0 -1.9412054137019588e-06 5.0350360364472174e-07 0 -1.2248535682508283e-06 3.5075904885151787e-07 0 -3.9431911411302741e-05 -3.1573441876734514e-05 0 -3.7131811911734703e-05 -3.1942888996717075e-05 0 -3.5985408084108418e-05 -2.707353952564774e-05 0 -1.5827697755556692e-05 -6.9556714746710108e-06 0 -1.5579995543135831e-05 9.9436792491367914e-06 0 -2.1228286943118423e-05 -1.3357948555484846e-06 0 -0.00013214247135847409 0.00012283270436696031 0 -0.00012119903669840038 9.5527897396537935e-05 0 -0.00010822607364980241 0.00010577667580616569 0 -2.0447145590765896e-06 4.2959365607813482e-07 0 -2.4317465112978682e-06 3.5488723751795806e-07 0 -1.3126732816594392e-06 1.3821079858447108e-07 0 -5.5944085533046305e-06 -2.8600864138133291e-07 0 -2.6610965883841148e-06 2.0174086331797896e-07 0 -2.6342502947250418e-06 -2.6221169578608327e-08 0 -6.3335264978978832e-06 -9.4407714328168905e-07 0 -3.0961582888320366e-06 -7.113085223499908e-07 0 -2.8785543177922715e-06 -9.3366760418186587e-07 0 -8.9738613067315372e-06 2.2254018931765902e-06 0 -7.436540666557677e-06 1.5551923853965797e-06 0 -8.9958792338929549e-06 7.5015245106953646e-07 0 -4.5775130251504584e-05 -2.6249747848585077e-05 0 -4.4214633363142979e-05 -2.1759097066901015e-05 0 -5.1264913352745976e-05 -2.7373001470223164e-05 0 -6.6630507440024086e-05 4.168488675214898e-05 0 -7.8943418707383265e-05 4.3254278604337682e-05 0 -6.571801939589549e-05 3.2174907698966128e-05 0 -3.2297069262183756e-05 0.00024244403259490551 0 -1.9854564829859398e-05 0.00021395182784444337 0 -9.1098579956033018e-06 0.00022931283858470576 0 -7.4282006781856819e-05 -0.00011917764012918395 0 -7.755737248704795e-05 -0.00010500189137383484 0 -8.4227067652181036e-05 -0.00011440863237036928 0 -1.4575661536445151e-05 -1.6125537938945002e-05 0 -1.7240253634527502e-05 -1.5532112036551192e-05 0 -2.0989656968777467e-05 -2.2068565714117057e-05 0 -1.976858699803508e-05 1.1455659820968853e-05 0 -2.2908444073753401e-05 1.907157943627663e-05 0 -2.7311294690630666e-05 1.5872009731088039e-05 0 -2.2663513913380286e-05 -1.906416521656131e-05 0 -2.0989656968777467e-05 -2.2068565714117057e-05 0 -1.7240253634527502e-05 -1.5532112036551192e-05 0 -7.6313617552093219e-06 6.1373967581559466e-07 0 -6.7964760615406259e-06 4.560171736028191e-07 0 -9.2019666496078984e-06 -2.8445931867951197e-07 0 -2.2289581159906385e-06 1.0404256241143792e-07 0 -1.6257141552870236e-06 -2.9651213871166461e-07 0 -1.0552396817975909e-06 -6.2918058818331984e-08 0 -1.4763501798643879e-05 -4.0621798765531075e-06 0 -1.2574028742493898e-05 -2.81988849716846e-06 0 -1.1831643477922258e-05 -2.2551494724003426e-06 0 -1.8556115818513251e-05 6.4412021200937279e-06 0 -2.1640524362579544e-05 2.6875631676477136e-06 0 -1.5651128016385995e-05 1.2405281353182904e-05 0 -1.7956079613993338e-05 9.1217030530593171e-06 0 -1.5651128016385995e-05 1.2405281353182904e-05 0 -2.1640524362579544e-05 2.6875631676477136e-06 0 -6.4644090131625335e-05 -9.6003536171327357e-05 0 -7.755737248704795e-05 -0.00010500189137383484 0 -6.7869084009858176e-05 -0.00010920094877649681 0 -7.4282006781856819e-05 -0.00011917764012918395 0 -6.7869084009858176e-05 -0.00010920094877649681 0 -7.755737248704795e-05 -0.00010500189137383484 0 -4.0504902577438059e-05 0.00019457815710204141 0 -1.9854564829859398e-05 0.00021395182784444337 0 -4.2638863690358837e-05 0.0002238981673970534 0 -3.2297069262183756e-05 0.00024244403259490551 0 -4.2638863690358837e-05 0.0002238981673970534 0 -1.9854564829859398e-05 0.00021395182784444337 0 -4.0504902577438059e-05 0.00019457815710204141 0 -4.1096054965542318e-05 0.000165734863486162 0 -1.8062911728126865e-05 0.00017186038134210581 0 -2.8178037868175288e-05 0.00014427387977656501 0 -1.8062911728126865e-05 0.00017186038134210581 0 -4.1096054965542318e-05 0.000165734863486162 0 -1.5674451855184968e-09 1.6130995476803034e-10 0 -1.6435897769639762e-09 1.789944161160847e-10 0 -1.0733810050602537e-06 2.9147197617607165e-07 0 -1.8042644259169794e-05 -2.0791551109612577e-05 0 -2.098965696877747e-05 -2.2068565714117061e-05 0 -2.2696452157467596e-05 -2.6050556034747776e-05 0 -2.5651288507164694e-05 -2.7394607460856863e-05 0 -2.2696452157467596e-05 -2.6050556034747776e-05 0 -2.0989656968777467e-05 -2.2068565714117057e-05 0 -6.7087208312543786e-05 -7.5661974458646308e-05 0 -7.0236719863968561e-05 -6.6766974944390808e-05 0 -7.6504402997566509e-05 -7.9360693348224753e-05 0 -7.9579096987023317e-05 -6.327502989102571e-05 0 -7.0236719863968561e-05 -6.6766974944390808e-05 0 -6.8217887768731264e-05 -5.5357183854404871e-05 0 -0.00013214247135847409 0.00012283270436696031 0 -0.00010822607364980241 0.00010577667580616569 0 -0.00011009941117825558 0.00013224431465853567 0 -9.5314487400344964e-06 6.0167768224999169e-06 0 -9.9620408690018766e-06 8.3794518616624371e-06 0 -8.2801745020837749e-06 6.8193295176292924e-06 0 -9.1195226343001701e-06 1.0437344561347677e-05 0 -8.2801745020837749e-06 6.8193295176292924e-06 0 -9.9620408690018766e-06 8.3794518616624371e-06 0 -4.9977141195487779e-06 8.3455338184952492e-07 0 -6.0914939580726377e-06 1.0265248369142106e-06 0 -4.7566242169331204e-06 1.062744440315253e-06 0 -2.6254547165877788e-06 5.905903899964218e-07 0 -1.2248535682508281e-06 3.5075904885151781e-07 0 -1.9412054137019588e-06 5.0350360364472174e-07 0 -2.6941327936155074e-05 5.3147479772647833e-06 0 -3.5814875639837941e-05 8.9911507773432991e-06 0 -2.87774478534995e-05 6.880674796900488e-06 0 -1.9790290293941112e-05 -6.1874610314646453e-06 0 -2.0644684846629365e-05 -7.2852802428189916e-06 0 -2.5110583745560707e-05 -8.8717215939381415e-06 0 -1.9790290293941112e-05 -6.1874610314646453e-06 0 -2.408452224050767e-05 -8.0896078609662297e-06 0 -2.0263627956503767e-05 -6.1786909109098524e-06 0 1.0834689336872108e-05 0.00020382802082302657 0 -9.1098579956033018e-06 0.00022931283858470576 0 -1.9854564829859398e-05 0.00021395182784444337 0 -9.1477661555437295e-05 -0.00010495059626996059 0 -8.4227067652181036e-05 -0.00011440863237036929 0 -7.755737248704795e-05 -0.00010500189137383484 0 -1.5810964209232459e-09 4.4252357058819213e-13 0 -1.0552396817975909e-06 -6.291805881833201e-08 0 -1.6257141552870236e-06 -2.9651213871166461e-07 0 -7.5052451303057939e-06 2.6919826779707857e-06 0 -1.0014743262954159e-05 4.9219281205122091e-06 0 -1.0247864341821893e-05 2.703718188676407e-06 0 -5.0135248276261556e-05 -6.5087615357017399e-05 0 -5.3638407258095185e-05 -5.5551451621386912e-05 0 -5.8303496346410073e-05 -6.5179743884311728e-05 0 -2.1168861656074424e-05 5.7960590107395483e-06 0 -1.7462175749609984e-05 6.5240765954812713e-06 0 -2.420965463260139e-05 9.8627887085950109e-06 0 -2.4927476905861489e-05 -1.6946882213324163e-05 0 -3.007191541143756e-05 -1.99610670415206e-05 0 -2.9137208236576798e-05 -2.3349531457952532e-05 0 -7.9524386888896218e-06 5.4966463878823896e-06 0 -8.2801745020837749e-06 6.8193295176292924e-06 0 -8.8838401886203314e-06 8.4909730149264315e-06 0 -6.5477792518108495e-05 0.00012426776664929343 0 -8.6322229760436945e-05 0.00012909524506855141 0 -7.5030517527486094e-05 0.00010693739793776676 0 -4.5775130251504584e-05 -2.6249747848585077e-05 0 -5.4996217744000415e-05 -3.3131976053259773e-05 0 -4.8174942396770284e-05 -3.2563557085767063e-05 0 -6.6630507440024086e-05 4.168488675214898e-05 0 -7.1364956543728994e-05 5.4733680765263639e-05 0 -8.4952809253226749e-05 5.6570250220066328e-05 0 -4.0227611903787093e-05 -4.680910284700565e-05 0 -3.9029420843984656e-05 -4.9728208381051864e-05 0 -3.8082434608664899e-05 -4.6919605094209577e-05 0 -3.7238281941220253e-05 -4.9077267217885702e-05 0 -3.8082434608664899e-05 -4.6919605094209577e-05 0 -3.9029420843984656e-05 -4.9728208381051864e-05 0 -2.526178309931343e-05 -8.9054412434300099e-06 0 -2.0676878320473975e-05 -6.6410441012728279e-06 0 -2.0263627956503767e-05 -6.1786909109098524e-06 0 -1.6397224024129473e-05 -4.3425323166971143e-06 0 -2.0263627956503767e-05 -6.1786909109098524e-06 0 -2.0676878320473975e-05 -6.6410441012728279e-06 0 -1.4816069077427968e-05 -4.6954954368949015e-06 0 -1.8070155881929138e-05 -7.7941488924297019e-06 0 -1.6272892637222045e-05 -6.1143610742230783e-06 0 -2.9740303041680742e-05 -1.0971674922900932e-05 0 -3.6909744615896796e-05 -1.5094493224268881e-05 0 -3.148072950201962e-05 -1.2375517513352073e-05 0 -3.1795544816304433e-05 8.6949823802060033e-06 0 -3.2400103953399255e-05 7.5618006263852701e-06 0 -2.4962216490951172e-05 5.4351356671392977e-06 0 -4.3237381324503996e-05 -5.1476285686400521e-05 0 -3.9890157851679155e-05 -5.1985996921832742e-05 0 -4.1183957152824117e-05 -4.9448168792695341e-05 0 -6.5477792518108495e-05 0.00012426776664929343 0 -7.9453306425677055e-05 0.00015690421277174041 0 -8.6322229760436945e-05 0.00012909524506855141 0 -1.6435897769639762e-09 1.789944161160847e-10 0 -1.8241765432036774e-09 2.0922107921533836e-10 0 -1.2248535682508283e-06 3.5075904885151787e-07 0 1.2145066609894436e-05 0.00017330066912801253 0 -1.8062911728126865e-05 0.00017186038134210581 0 -5.914950628250428e-06 0.00015363063369457373 0 -1.0759109193435299e-05 1.6347507965470831e-05 0 -8.9534094711853307e-06 2.075255976839535e-05 0 -9.4995914225648847e-06 1.469587462892272e-05 0 -6.6630507440024086e-05 4.168488675214898e-05 0 -5.4901300611950231e-05 3.9554821211604321e-05 0 -7.1364956543728994e-05 5.4733680765263639e-05 0 -1.0759109193435299e-05 1.6347507965470831e-05 0 -1.0673068960909858e-05 1.1899766408103528e-05 0 -1.3555326934923754e-05 1.1557801811053667e-05 0 -1.0759109193435299e-05 1.6347507965470831e-05 0 -9.499591422564883e-06 1.4695874628922719e-05 0 -1.0673068960909858e-05 1.1899766408103528e-05 0 -1.9116885239304059e-05 -6.1559107501043147e-06 0 -2.3800665739267715e-05 -8.8248930935028134e-06 0 -2.2300480559836557e-05 -8.962684519225282e-06 0 -9.5606436476104804e-06 -1.1247371746530874e-06 0 -1.1831643477922258e-05 -2.2551494724003426e-06 0 -1.2574028742493896e-05 -2.8198884971684596e-06 0 -8.9895138540220209e-05 0.00010521944589313875 0 -0.00011009941117825558 0.00013224431465853567 0 -0.00010822607364980241 0.00010577667580616569 0 -2.3083932505585745e-05 -1.2425234504960913e-05 0 -2.5150182603882683e-05 -1.0516995863507803e-05 0 -2.117704359890594e-05 -8.1449178519119235e-06 0 -1.8556115818513251e-05 6.4412021200937279e-06 0 -1.5651128016385995e-05 1.2405281353182904e-05 0 -1.3555326934923754e-05 1.1557801811053667e-05 0 -3.8475784201733952e-05 -2.686024889262546e-05 0 -3.5557895860730812e-05 -2.250842087569803e-05 0 -3.7007545612016965e-05 -2.1940362578911631e-05 0 -4.5775130251504584e-05 -2.6249747848585077e-05 0 -5.1264913352745976e-05 -2.7373001470223168e-05 0 -5.4996217744000415e-05 -3.3131976053259773e-05 0 -6.6630507440024086e-05 4.168488675214898e-05 0 -8.4952809253226749e-05 5.6570250220066328e-05 0 -7.8943418707383265e-05 4.3254278604337682e-05 0 -0.00011103004460099928 0.00024254567796607701 0 -0.00013218455458043765 0.00025407337630711048 0 -0.00012793023832329724 0.00022667710200017125 0 -4.1006027430126448e-05 -0.00011503978540548262 0 -3.3351267752110596e-05 -0.00011875439855202398 0 -3.260708460455739e-05 -0.00010578334898282408 0 -4.3182131739379626e-05 -3.1212650376940148e-05 0 -4.0302554361763852e-05 -2.703416464272355e-05 0 -4.3440322664627484e-05 -2.9715177226731913e-05 0 -9.1195226343001701e-06 1.0437344561347677e-05 0 -8.8838401886203314e-06 8.4909730149264315e-06 0 -8.2801745020837749e-06 6.8193295176292924e-06 0 -1.8490123620435175e-05 3.2692139063298539e-06 0 -2.4962216490951172e-05 5.4351356671392977e-06 0 -2.1500013628449241e-05 3.1973670169198815e-06 0 -3.6184879302588692e-05 -1.598241824585627e-05 0 -2.943282660042883e-05 -1.2012136001544797e-05 0 -3.148072950201962e-05 -1.2375517513352073e-05 0 -5.221966260524103e-05 2.193317947818103e-05 0 -4.3227286788762265e-05 1.9866585460477664e-05 0 -5.2974832013380851e-05 2.9105580212820236e-05 0 -2.1741962393974843e-05 -1.3861519095358444e-05 0 -2.4625482571971575e-05 -1.9740343333391998e-05 0 -2.3854039366017711e-05 -1.7292592810090404e-05 0 -2.6551120991753766e-05 -1.1395028641560784e-05 0 -2.943282660042883e-05 -1.2012136001544797e-05 0 -3.1345989729123472e-05 -1.489167621713994e-05 0 -1.8556115818513251e-05 6.4412021200937279e-06 0 -1.6713203913360515e-05 4.6098052922040261e-06 0 -2.2074044175930745e-05 2.4651396694198226e-07 0 -1.5810964209232459e-09 4.4252357058819213e-13 0 -1.5510998092875203e-09 -7.0698455336074544e-11 0 -1.0552396817975909e-06 -6.2918058818331984e-08 0 -4.3510464657955682e-05 -3.5734802713176908e-05 0 -4.4419914331361609e-05 -3.417127476936779e-05 0 -4.729553773536941e-05 -3.8142560772082261e-05 0 -4.4487004769606445e-05 -1.936962800826353e-05 0 -4.244696594340059e-05 -1.8856861732416076e-05 0 -3.6909744615896796e-05 -1.5094493224268881e-05 0 -6.8045115064994659e-05 2.6723020293136554e-05 0 -5.3934164390268693e-05 1.906653037303169e-05 0 -6.3571407189419029e-05 2.6060235821766152e-05 0 -6.0094262604422187e-05 -5.4543923776925515e-05 0 -6.8217887768731264e-05 -5.5357183854404871e-05 0 -7.0236719863968561e-05 -6.6766974944390808e-05 0 -3.4712120747844932e-05 -2.7291674928167123e-05 0 -3.4469094716152136e-05 -3.2668499062210509e-05 0 -2.9137208236576798e-05 -2.3349531457952532e-05 0 -2.8484552514817047e-05 -2.7396730714391633e-05 0 -2.9137208236576798e-05 -2.3349531457952532e-05 0 -3.4469094716152136e-05 -3.2668499062210509e-05 0 -2.6551120991753766e-05 -1.1395028641560784e-05 0 -2.6336607933649849e-05 -1.2769132987628216e-05 0 -2.2300480559836557e-05 -8.962684519225282e-06 0 -3.8475784201733952e-05 -2.686024889262546e-05 0 -3.7007545612016965e-05 -2.1940362578911631e-05 0 -4.0302554361763852e-05 -2.703416464272355e-05 0 -6.7087208312543786e-05 -7.5661974458646308e-05 0 -5.8441907490860254e-05 -7.4368431505750636e-05 0 -5.8303496346410073e-05 -6.5179743884311728e-05 0 -2.6551120991753766e-05 -1.1395028641560784e-05 0 -2.2300480559836557e-05 -8.962684519225282e-06 0 -2.3800665739267715e-05 -8.8248930935028134e-06 0 -3.4229599548818788e-05 -1.8379350749244158e-05 0 -3.7007545612016965e-05 -2.1940362578911631e-05 0 -3.5557895860730812e-05 -2.250842087569803e-05 0 -2.9738509258820685e-06 -4.2902331609825172e-07 0 -3.0480475985228802e-06 2.038193154255911e-09 0 -4.0705250723700574e-06 3.7703229764419528e-08 0 -5.9413101744719937e-05 -3.1824993561174319e-05 0 -5.4996217744000415e-05 -3.3131976053259773e-05 0 -5.1264913352745976e-05 -2.7373001470223164e-05 0 -9.5680027057071297e-05 5.2577531183734342e-05 0 -7.8943418707383265e-05 4.3254278604337682e-05 0 -8.4952809253226749e-05 5.6570250220066328e-05 0 -9.1477661555437295e-05 -0.00010495059626996059 0 -7.755737248704795e-05 -0.00010500189137383484 0 -8.2895559109257493e-05 -9.7757284343622642e-05 0 1.0834689336872108e-05 0.00020382802082302657 0 -1.9854564829859398e-05 0.00021395182784444337 0 -1.1467192175241593e-05 0.00019215253482344593 0 1.2145066609894436e-05 0.00017330066912801253 0 -1.1467192175241593e-05 0.00019215253482344593 0 -1.8062911728126865e-05 0.00017186038134210581 0 -9.1477661555437295e-05 -0.00010495059626996059 0 -9.33236990452675e-05 -0.00011933955538663297 0 -8.4227067652181036e-05 -0.00011440863237036928 0 1.0834689336872108e-05 0.00020382802082302657 0 8.7490954221252325e-06 0.00023397798751632803 0 -9.1098579956033018e-06 0.00022931283858470576 0 -2.2663513913380286e-05 -1.906416521656131e-05 0 -2.2011718518106578e-05 -1.2672354763945458e-05 0 -2.6177646247625949e-05 -1.8386044882658825e-05 0 -4.0199597264353229e-05 -2.517586386270245e-05 0 -4.3440322664627484e-05 -2.9715177226731913e-05 0 -4.0302554361763852e-05 -2.703416464272355e-05 0 -5.3604703433278955e-05 -4.9585587588929404e-05 0 -5.4807554925018201e-05 -5.219495752454971e-05 0 -5.2587304218587906e-05 -4.8052351484915141e-05 0 -2.9669150139847085e-05 -3.627164982563733e-05 0 -3.2879802095895075e-05 -4.2722990078757052e-05 0 -3.241693579412294e-05 -3.9608332981053e-05 0 -6.6630507440024086e-05 4.168488675214898e-05 0 -5.2974832013380851e-05 2.9105580212820236e-05 0 -5.4901300611950231e-05 3.9554821211604321e-05 0 -1.6397224024129473e-05 -4.3425323166971143e-06 0 -1.3139941614661508e-05 -2.7738593900860324e-06 0 -1.5677148908804056e-05 -4.0547857221207371e-06 0 -5.5348279886050748e-06 1.6310047103224003e-06 0 -6.0914939580726377e-06 1.0265248369142106e-06 0 -7.436540666557677e-06 1.5551923853965797e-06 0 -9.9208584700910901e-05 0.00015234145996904485 0 -8.6322229760436945e-05 0.00012909524506855141 0 -7.9453306425677055e-05 0.00015690421277174041 0 -3.6157093396235217e-05 -7.2060189569722588e-05 0 -2.9615217491163605e-05 -7.8544939073614171e-05 0 -2.7202582471023475e-05 -6.3020279033415409e-05 0 -2.2289581159906385e-06 1.0404256241143792e-07 0 -1.0552396817975909e-06 -6.2918058818331984e-08 0 -1.3126732816594392e-06 1.3821079858447108e-07 0 -3.1452250278612962e-05 -1.7610377965456577e-05 0 -2.5614386156198711e-05 -1.4573495997153989e-05 0 -2.6336607933649849e-05 -1.2769132987628216e-05 0 1.2570843995356881e-05 0.00014269764529457164 0 1.2145066609894437e-05 0.00017330066912801253 0 -5.914950628250428e-06 0.00015363063369457373 0 -6.1487979045609047e-06 -5.7500663650755658e-07 0 -6.8271917052678516e-06 1.5656778305109423e-07 0 -8.4208034954555466e-06 -1.1750917561072376e-07 0 -2.2663513913380286e-05 -1.906416521656131e-05 0 -2.6177646247625949e-05 -1.8386044882658825e-05 0 -2.5669759683654296e-05 -2.384809077091678e-05 0 -2.925336900234091e-05 -2.4230784751992674e-05 0 -2.5669759683654296e-05 -2.384809077091678e-05 0 -2.6177646247625949e-05 -1.8386044882658825e-05 0 -4.9869264823018366e-05 -4.6092063688500503e-05 0 -5.093638132584069e-05 -4.5051967782861499e-05 0 -5.2587304218587906e-05 -4.8052351484915141e-05 0 -5.3604703433278955e-05 -4.9585587588929404e-05 0 -5.2587304218587906e-05 -4.8052351484915141e-05 0 -5.093638132584069e-05 -4.5051967782861499e-05 0 -2.9669150139847085e-05 -3.627164982563733e-05 0 -3.1584192814962328e-05 -4.0583736426667112e-05 0 -3.2879802095895075e-05 -4.2722990078757052e-05 0 -3.4420115806509665e-05 -4.6023639000708395e-05 0 -3.2879802095895075e-05 -4.2722990078757052e-05 0 -3.1584192814962328e-05 -4.0583736426667112e-05 0 -9.5314487400344964e-06 6.0167768224999169e-06 0 -8.1139741386789051e-06 4.3660816722630935e-06 0 -1.0888431033130935e-05 3.5892153828032739e-06 0 -1.5827697755556692e-05 -6.9556714746710108e-06 0 -2.1228286943118423e-05 -1.3357948555484846e-06 0 -2.2011718518106578e-05 -1.2672354763945458e-05 0 -2.5910107215278726e-05 -9.1056521305097407e-06 0 -2.2011718518106578e-05 -1.2672354763945459e-05 0 -2.1228286943118423e-05 -1.3357948555484846e-06 0 -6.7087208312543786e-05 -7.5661974458646308e-05 0 -7.6504402997566509e-05 -7.9360693348224753e-05 0 -7.3974488694433682e-05 -8.9674539741966774e-05 0 -2.526178309931343e-05 -8.9054412434300099e-06 0 -2.943282660042883e-05 -1.2012136001544797e-05 0 -2.3800665739267715e-05 -8.8248930935028134e-06 0 -2.6551120991753766e-05 -1.1395028641560784e-05 0 -2.3800665739267715e-05 -8.8248930935028134e-06 0 -2.943282660042883e-05 -1.2012136001544797e-05 0 -2.4777060615625421e-05 -2.2765902789397316e-05 0 -3.2909475732632019e-05 -1.8801193296113594e-05 0 -3.1076141195214393e-05 -1.7218615526796952e-05 0 -4.8139252217367604e-05 -4.1550508087778339e-05 0 -5.093638132584069e-05 -4.5051967782861499e-05 0 -4.7743701670209742e-05 -4.3133132602877052e-05 0 -3.1441828423643675e-05 -3.9101627001773205e-05 0 -3.3806748481692805e-05 -4.3091712511182573e-05 0 -3.1584192814962328e-05 -4.0583736426667112e-05 0 -7.6313617552093219e-06 6.1373967581559466e-07 0 -7.436540666557677e-06 1.5551923853965797e-06 0 -6.0914939580726377e-06 1.0265248369142106e-06 0 -3.9890157851679155e-05 -5.1985996921832742e-05 0 -3.9029420843984656e-05 -4.9728208381051864e-05 0 -4.1183957152824117e-05 -4.9448168792695341e-05 0 -6.4020701894044856e-06 2.9051304502817333e-07 0 -4.7583161818611225e-06 6.7485514392265235e-07 0 -4.2214910867946874e-06 5.9726733485725946e-07 0 -3.4229599548818788e-05 -1.8379350749244158e-05 0 -3.1899414438106792e-05 -1.4476272153054988e-05 0 -3.3537622446642014e-05 -1.5738691299232401e-05 0 -2.2289581159906385e-06 1.0404256241143792e-07 0 -3.1822754738597468e-06 4.3141425427144462e-07 0 -3.0480475985228802e-06 2.0381931542558671e-09 0 -6.3757164751229552e-05 0.00017086646897240175 0 -5.3731467318829573e-05 0.00014677737144106867 0 -4.1096054965542318e-05 0.000165734863486162 0 -6.6228179923451643e-05 0.00022384245107888142 0 -4.263886369035883e-05 0.0002238981673970534 0 -5.3354333359041209e-05 0.00024306873887389182 0 -5.7918602966645712e-05 -0.0001093331090860631 0 -6.7869084009858176e-05 -0.00010920094877649681 0 -6.4923201158824422e-05 -0.00011844742866497892 0 -3.4943253427791885e-06 3.1258489293792669e-05 0 -1.5579995543135831e-05 9.9436792491367914e-06 0 -5.5460082351529532e-06 1.1706231029588002e-06 0 -2.2289581159906385e-06 1.0404256241143792e-07 0 -1.3126732816594392e-06 1.3821079858447108e-07 0 -2.4317465112978678e-06 3.5488723751795806e-07 0 -8.854204546676331e-05 -9.0613679031855085e-05 0 -8.2895559109257493e-05 -9.7757284343622628e-05 0 -7.3974488694433682e-05 -8.9674539741966774e-05 0 -9.434152007738968e-05 -0.00017095051927637692 0 -8.6335558192535779e-05 -0.00016418354941369166 0 -9.4427250839222775e-05 -0.00015898894719071764 0 -4.2842503485269753e-06 0.00034602025415453037 0 -1.8366470120622241e-05 0.00033775049424074371 0 -9.1673262263344397e-07 0.00032137903850363317 0 -4.2842503485269753e-06 0.00034602025415453037 0 -2.7126923027172789e-05 0.00035322805823630605 0 -1.8366470120622244e-05 0.00033775049424074371 0 -3.2958488359548844e-05 -0.00016379405366695904 0 -3.8177151395036384e-05 -0.00016106313149768698 0 -4.1681593087294529e-05 -0.00016753590292902263 0 -0.00015430839924895746 0.00036025727220043282 0 -0.00015443922870675588 0.00033286395158902462 0 -0.00013598335528791465 0.00034474555127371925 0 -9.434152007738968e-05 -0.00017095051927637692 0 -8.2390200751131229e-05 -0.00017084815667915216 0 -8.6335558192535779e-05 -0.00016418354941369166 0 -3.2958488359548844e-05 -0.00016379405366695904 0 -3.0981025244426003e-05 -0.00015334896633874869 0 -3.8177151395036384e-05 -0.00016106313149768698 0 -0.00015430839924895746 0.00036025727220043282 0 -0.00013598335528791465 0.00034474555127371925 0 -0.00012691185217130737 0.00036010061074649605 0 -1.5510998092877135e-09 -7.0698455336086073e-11 0 -1.3126732816594392e-06 1.3821079858447108e-07 0 -1.0552396817975909e-06 -6.2918058818331984e-08 0 -3.8475784201733952e-05 -2.686024889262546e-05 0 -3.5985408084108418e-05 -2.707353952564774e-05 0 -3.5557895860730812e-05 -2.250842087569803e-05 0 -2.6551120991753766e-05 -1.1395028641560784e-05 0 -3.1345989729123472e-05 -1.489167621713994e-05 0 -2.6336607933649849e-05 -1.2769132987628216e-05 0 -6.7087208312543786e-05 -7.5661974458646308e-05 0 -6.3098999345428104e-05 -8.3561360186812337e-05 0 -5.8441907490860254e-05 -7.4368431505750636e-05 0 -5.6884976624004679e-06 6.5149020414215846e-07 0 -8.1817387120221641e-06 1.33738938568518e-06 0 -6.8271917052678516e-06 1.5656778305109423e-07 0 -7.1569278854711666e-05 0.00026054424751829186 0 -9.0699577742843699e-05 0.00027862339984707118 0 -9.1012002063023203e-05 0.00025134290518307383 0 -5.8349065818066986e-05 -0.00012582337146962067 0 -5.1733991113811377e-05 -0.00013365238289769342 0 -4.9781656251689251e-05 -0.0001209839188305605 0 -5.0952827829107072e-05 -4.2775227742109699e-05 0 -5.2432303881588264e-05 -4.6480069624000422e-05 0 -5.0072482176267329e-05 -4.2552214426586142e-05 0 -2.421556692110238e-05 -2.8760454413282077e-05 0 -2.8205616274617636e-05 -3.4850676018036106e-05 0 -2.7084513546810017e-05 -3.2673386834083853e-05 0 -1.0281950471568142e-05 -9.7239656006739766e-06 0 -1.7240253634527502e-05 -1.5532112036551192e-05 0 -1.4575661536445151e-05 -1.6125537938945002e-05 0 -3.1452250278612962e-05 -1.7610377965456577e-05 0 -2.6336607933649849e-05 -1.2769132987628216e-05 0 -3.1345989729123472e-05 -1.489167621713994e-05 0 -4.6655723840619536e-05 -3.3095380954359347e-05 0 -4.9130610200098924e-05 -3.8223159830645284e-05 0 -4.5724288065133133e-05 -3.4085025626860283e-05 0 -1.8042644259169794e-05 -2.0791551109612577e-05 0 -2.2696452157467596e-05 -2.6050556034747776e-05 0 -2.1318522682234203e-05 -2.4902777592225727e-05 0 -5.0135248276261556e-05 -6.5087615357017399e-05 0 -4.3432273230046444e-05 -6.888988779900495e-05 0 -4.2222137202553684e-05 -5.5945568393057502e-05 0 -5.5348279886050748e-06 1.6310047103224003e-06 0 -4.7566242169331195e-06 1.0627444403152528e-06 0 -6.0914939580726377e-06 1.0265248369142106e-06 0 -4.1006027430126448e-05 -0.00011503978540548262 0 -4.8008371523114592e-05 -0.00010674806882638593 0 -4.9781656251689251e-05 -0.0001209839188305605 0 -0.00011103004460099928 0.00024254567796607701 0 -8.9450920769480917e-05 0.00022438955025651269 0 -9.1012002063023203e-05 0.00025134290518307383 0 -2.5651288507164694e-05 -2.7394607460856863e-05 0 -2.0989656968777467e-05 -2.2068565714117057e-05 0 -2.5669759683654296e-05 -2.384809077091678e-05 0 -2.2663513913380286e-05 -1.906416521656131e-05 0 -2.5669759683654296e-05 -2.384809077091678e-05 0 -2.0989656968777467e-05 -2.2068565714117057e-05 0 -9.5606436476104804e-06 -1.1247371746530874e-06 0 -8.9883388225854086e-06 -9.2376597034977078e-07 0 -1.1831643477922258e-05 -2.2551494724003426e-06 0 -3.4712120747844932e-05 -2.7291674928167123e-05 0 -2.9137208236576798e-05 -2.3349531457952529e-05 0 -3.007191541143756e-05 -1.99610670415206e-05 0 -3.3444296028933626e-05 -5.5522651382076216e-05 0 -2.5634578160687303e-05 -4.9314839642855517e-05 0 -2.9764997138004156e-05 -3.8852002181626895e-05 0 -3.365244921678883e-05 -2.2343046897209694e-05 0 -3.5557895860730812e-05 -2.250842087569803e-05 0 -3.5985408084108418e-05 -2.707353952564774e-05 0 -2.0239606969804584e-05 -4.075537872311078e-05 0 -2.5634578160687303e-05 -4.9314839642855517e-05 0 -1.8818600750346867e-05 -5.4469618352421353e-05 0 -2.5805625322879477e-05 -3.0848106613328375e-05 0 -2.7753765178903607e-05 -3.1261762189071715e-05 0 -2.9942742704396633e-05 -3.5799823728860405e-05 0 -3.137248323163551e-05 -3.4673761837627473e-05 0 -2.9942742704396633e-05 -3.5799823728860405e-05 0 -2.7753765178903607e-05 -3.1261762189071715e-05 0 -1.1714589995542102e-05 -2.4872407056193757e-06 0 -1.5086371692524885e-05 -4.2038314904174458e-06 0 -1.5677148908804056e-05 -4.0547857221207371e-06 0 -1.8255711719513162e-05 -6.5122798095872058e-06 0 -2.117704359890594e-05 -8.1449178519119235e-06 0 -1.7872300773192191e-05 -4.2776390972214392e-06 0 -2.1266856470148037e-05 -5.1397748576053567e-06 0 -1.7872300773192191e-05 -4.2776390972214392e-06 0 -2.117704359890594e-05 -8.1449178519119235e-06 0 -1.0759109193435299e-05 1.6347507965470831e-05 0 -1.5651128016385995e-05 1.2405281353182904e-05 0 -1.132340359019322e-05 2.093038626590679e-05 0 -1.7956079613993338e-05 9.1217030530593171e-06 0 -1.132340359019322e-05 2.093038626590679e-05 0 -1.5651128016385995e-05 1.2405281353182904e-05 0 1.2145066609894436e-05 0.00017330066912801253 0 1.0834689336872108e-05 0.00020382802082302657 0 -1.1467192175241593e-05 0.00019215253482344593 0 -1.3234931651799811e-05 8.9985620398596764e-06 0 -9.9620408690018766e-06 8.3794518616624371e-06 0 -1.2048045213333595e-05 6.2746695573695916e-06 0 -8.854204546676331e-05 -9.0613679031855085e-05 0 -9.1477661555437295e-05 -0.00010495059626996059 0 -8.2895559109257493e-05 -9.7757284343622642e-05 0 -1.1149246648967954e-05 -1.8533478864260446e-06 0 -1.1831643477922258e-05 -2.2551494724003426e-06 0 -8.9883388225854086e-06 -9.2376597034977078e-07 0 -1.4662707723466187e-05 8.9246675265477862e-07 0 -1.1327988528560207e-05 3.4429143573268216e-07 0 -9.7983129040241566e-06 -3.4500820082713257e-07 0 -1.1714589995542102e-05 -2.4872407056193757e-06 0 -8.0998997710354562e-06 -1.1644019923053798e-06 0 -8.9019438950558711e-06 -1.7939819844591947e-06 0 -7.5052451303057939e-06 2.6919826779707857e-06 0 -5.6375408286046859e-06 1.8767654732442587e-06 0 -6.8696971168537065e-06 3.7056781521378367e-06 0 -6.6899246713895821e-06 -3.775316505981439e-06 0 -5.4136338683815136e-06 -2.0640418081990109e-06 0 -2.7783369075161691e-06 -1.2750421112819447e-06 0 -4.0522013886681419e-09 2.9591577361412888e-10 0 -2.7783369075161691e-06 -1.2750421112819447e-06 0 -5.4136338683815136e-06 -2.0640418081990109e-06 0 -8.5953525950395624e-06 4.0505647279882116e-06 0 -3.6168533645201073e-06 1.2190459245198174e-06 0 -7.2214330825884858e-06 1.6429290352759292e-06 0 -5.5011491000429384e-09 -6.9721463217950042e-10 0 -7.2214330825884858e-06 1.6429290352759292e-06 0 -3.6168533645201073e-06 1.2190459245198174e-06 0 -3.4712120747844932e-05 -2.7291674928167123e-05 0 -4.1646213259213464e-05 -3.1577624168251426e-05 0 -4.03759291717753e-05 -3.6873152127026915e-05 0 -2.2289581159906385e-06 1.0404256241143792e-07 0 -2.4317465112978678e-06 3.5488723751795806e-07 0 -3.1822754738597468e-06 4.3141425427144462e-07 0 -2.8178037868175288e-05 0.00014427387977656501 0 -7.2909499579647839e-06 0.00013362903116591413 0 -5.914950628250428e-06 0.00015363063369457373 0 -2.8359017020409469e-05 3.8610670760898218e-05 0 -3.0823702408050716e-05 2.9038776593111834e-05 0 -2.116690320913128e-05 2.5749713781894922e-05 0 -1.3234931651799811e-05 8.9985620398596764e-06 0 -1.0673068960909858e-05 1.1899766408103528e-05 0 -9.9620408690018766e-06 8.3794518616624371e-06 0 -3.7451900462483939e-05 -4.3894877900771403e-05 0 -3.4469094716152136e-05 -3.2668499062210509e-05 0 -4.03759291717753e-05 -3.6873152127026915e-05 0 -0.00010014366313312792 0.00035946531667006512 0 -0.00012691185217130737 0.00036010061074649605 0 -0.00011332542552445144 0.00034605638302595126 0 -5.0590284658941779e-05 -0.00016927082028177782 0 -4.1681593087294529e-05 -0.00016753590292902263 0 -4.586887534308363e-05 -0.0001634371387968376 0 -2.7126923027172789e-05 0.00035322805823630605 0 -5.0274253587693054e-05 0.00035683278945655835 0 -3.812565124273625e-05 0.00034277929068812622 0 -8.2390200751131243e-05 -0.00017084815667915218 0 -7.0895290138020236e-05 -0.00017047784915917816 0 -7.6507244036878736e-05 -0.00016473650220487777 0 -4.4840979033016757e-05 -4.2441430982141084e-05 0 -4.7743701670209742e-05 -4.3133132602877052e-05 0 -4.6190482687892731e-05 -4.4931573324332264e-05 0 -3.5795967673656955e-05 -4.3916716817523664e-05 0 -3.5860463192086458e-05 -4.7066685504944428e-05 0 -3.3806748481692805e-05 -4.3091712511182573e-05 0 -7.8825213315043662e-09 -3.3719879573966699e-09 0 -2.7783369075161695e-06 -1.2750421112819449e-06 0 -4.0522013886681419e-09 2.9591577361412888e-10 0 -9.6676515187488334e-09 4.1252001581348927e-09 0 -5.5011491000429384e-09 -6.9721463217950042e-10 0 -3.6168533645201073e-06 1.2190459245198174e-06 0 -9.6676515187488334e-09 4.1252001581348927e-09 0 -3.6168533645201073e-06 1.2190459245198174e-06 0 -8.5953525950395624e-06 4.0505647279882116e-06 0 -7.8825213315043662e-09 -3.3719879573966699e-09 0 -6.6899246713895821e-06 -3.775316505981439e-06 0 -2.7783369075161691e-06 -1.2750421112819447e-06 0 -3.6157093396235217e-05 -7.2060189569722588e-05 0 -4.3432273230046437e-05 -6.8889887799004936e-05 0 -4.4978815588690458e-05 -8.2719185592965792e-05 0 -1.4763501798643879e-05 -4.0621798765531075e-06 0 -1.8016051971562513e-05 -6.0955162060543965e-06 0 -1.6452077229726016e-05 -5.6718298436526664e-06 0 -3.4229599548818788e-05 -1.8379350749244158e-05 0 -3.5557895860730812e-05 -2.250842087569803e-05 0 -3.2783337669816087e-05 -1.7946794226304733e-05 0 -3.365244921678883e-05 -2.2343046897209694e-05 0 -3.2783337669816087e-05 -1.7946794226304733e-05 0 -3.5557895860730812e-05 -2.250842087569803e-05 0 -9.5606436476104804e-06 -1.1247371746530874e-06 0 -1.2574028742493896e-05 -2.8198884971684596e-06 0 -1.0506228406162386e-05 -1.5910291871212852e-06 0 -4.9977141195487779e-06 8.3455338184952492e-07 0 -4.7583161818611225e-06 6.7485514392265235e-07 0 -6.7964760615406259e-06 4.560171736028191e-07 0 -6.4020701894044856e-06 2.9051304502817333e-07 0 -6.7964760615406259e-06 4.560171736028191e-07 0 -4.7583161818611225e-06 6.7485514392265235e-07 0 -1.7956079613993338e-05 9.1217030530593171e-06 0 -1.5579995543135831e-05 9.9436792491367914e-06 0 -1.132340359019322e-05 2.093038626590679e-05 0 -3.4943253427791885e-06 3.1258489293792669e-05 0 -1.1323403590193219e-05 2.0930386265906794e-05 0 -1.5579995543135831e-05 9.9436792491367914e-06 0 -4.7055078216634778e-05 -3.7627079509036579e-05 0 -4.03759291717753e-05 -3.6873152127026915e-05 0 -4.1646213259213464e-05 -3.1577624168251426e-05 0 -2.5651288507164694e-05 -2.7394607460856863e-05 0 -2.7753765178903607e-05 -3.1261762189071715e-05 0 -2.2696452157467596e-05 -2.6050556034747776e-05 0 -4.3182131739379626e-05 -3.1212650376940148e-05 0 -4.5724288065133133e-05 -3.4085025626860283e-05 0 -4.4419914331361609e-05 -3.417127476936779e-05 0 -7.6313617552093219e-06 6.1373967581559466e-07 0 -8.9958792338929549e-06 7.5015245106953646e-07 0 -7.436540666557677e-06 1.5551923853965797e-06 0 -3.2297069262183756e-05 0.00024244403259490551 0 -9.1098579956033018e-06 0.00022931283858470576 0 -1.219933666323332e-05 0.00024988425665849765 0 -7.4282006781856819e-05 -0.00011917764012918395 0 -8.4227067652181036e-05 -0.00011440863237036928 0 -8.429215923357767e-05 -0.00012427456627055417 0 -2.4777060615625421e-05 -2.2765902789397316e-05 0 -2.3854039366017711e-05 -1.7292592810090404e-05 0 -2.4625482571971575e-05 -1.9740343333391998e-05 0 -2.2663513913380286e-05 -1.906416521656131e-05 0 -1.7240253634527502e-05 -1.5532112036551192e-05 0 -2.2011718518106578e-05 -1.2672354763945458e-05 0 -0.00011103004460099928 0.00024254567796607701 0 -0.00012793023832329724 0.00022667710200017125 0 -0.00010749036925813838 0.00021749463662522296 0 -4.1006027430126448e-05 -0.00011503978540548262 0 -3.260708460455739e-05 -0.00010578334898282408 0 -3.9975281931567904e-05 -0.00010294086939375892 0 -3.6157093396235217e-05 -7.2060189569722588e-05 0 -3.7803073472512657e-05 -8.4055005866241636e-05 0 -2.9615217491163605e-05 -7.8544939073614171e-05 0 -4.3002015558331979e-05 -3.9239178291466634e-05 0 -4.2407783042217834e-05 -4.1460601336878261e-05 0 -4.0332080043452558e-05 -3.8854724059788889e-05 0 -3.1441828423643675e-05 -3.9101627001773205e-05 0 -2.8205616274617636e-05 -3.4850676018036106e-05 0 -2.9942742704396633e-05 -3.5799823728860405e-05 0 -1.2918821781922893e-05 4.6368084291183214e-06 0 -1.0247864341821893e-05 2.703718188676407e-06 0 -1.0014743262954159e-05 4.9219281205122082e-06 0 -4.0227611903787093e-05 -4.680910284700565e-05 0 -3.8082434608664899e-05 -4.6919605094209577e-05 0 -3.8491368310274079e-05 -4.3710137262400197e-05 0 -1.1149246648967954e-05 -1.8533478864260446e-06 0 -8.9883388225854086e-06 -9.2376597034977078e-07 0 -8.6154230423728436e-06 -8.6106301673965478e-07 0 -6.7716906083253332e-06 -2.0291464938073333e-07 0 -8.6154230423728436e-06 -8.6106301673965478e-07 0 -8.9883388225854086e-06 -9.2376597034977078e-07 0 -1.4067360154887099e-05 -1.2573871855757014e-06 0 -1.5781483539521947e-05 -3.8660402721165817e-06 0 -1.7872300773192191e-05 -4.2776390972214392e-06 0 -3.4712120747844932e-05 -2.7291674928167123e-05 0 -4.03759291717753e-05 -3.6873152127026915e-05 0 -3.4469094716152136e-05 -3.2668499062210509e-05 0 -9.5606436476104804e-06 -1.1247371746530874e-06 0 -1.0506228406162386e-05 -1.5910291871212852e-06 0 -7.9889244602812455e-06 -4.0104997284219847e-07 0 -9.2538031284551766e-06 -7.9140183807107777e-07 0 -7.9889244602812455e-06 -4.0104997284219847e-07 0 -1.0506228406162386e-05 -1.5910291871212852e-06 0 -1.2574028742493896e-05 -2.8198884971684596e-06 0 -1.1944421971262178e-05 -2.4336371805513338e-06 0 -1.0506228406162386e-05 -1.5910291871212852e-06 0 -4.3969039042403295e-05 -4.7136030568321722e-05 0 -4.6190482687892731e-05 -4.4931573324332264e-05 0 -4.773982041812406e-05 -4.8014734478659307e-05 0 -4.9869264823018366e-05 -4.6092063688500503e-05 0 -4.773982041812406e-05 -4.8014734478659307e-05 0 -4.6190482687892731e-05 -4.4931573324332264e-05 0 -3.4420115806509665e-05 -4.6023639000708395e-05 0 -3.5860463192086458e-05 -4.7066685504944428e-05 0 -3.6137262083174048e-05 -5.0103432611712178e-05 0 -3.7238281941220253e-05 -4.9077267217885702e-05 0 -3.6137262083174048e-05 -5.0103432611712178e-05 0 -3.5860463192086458e-05 -4.7066685504944428e-05 0 -1.7956079613993338e-05 9.1217030530593171e-06 0 -2.1228286943118423e-05 -1.3357948555484846e-06 0 -1.5579995543135831e-05 9.9436792491367914e-06 0 -2.8314002714407872e-05 0.00032548311014827884 0 -3.812565124273625e-05 0.00034277929068812622 0 -5.1688254363583741e-05 0.00033360083848899734 0 -8.0842550885850252e-05 -0.00015748702497073362 0 -7.6507244036878736e-05 -0.00016473650220487777 0 -6.9834710941684859e-05 -0.00015992894255979941 0 -4.1925292820355307e-05 -0.00015583573021590275 0 -5.1114318132903951e-05 -0.00015955636338961361 0 -4.586887534308363e-05 -0.0001634371387968376 0 -0.00012346907872195814 0.00032949445625938439 0 -9.7705475890924704e-05 0.00033493567402929713 0 -0.00011332542552445144 0.00034605638302595126 0 -0.00011103004460099928 0.00024254567796607701 0 -0.00010749036925813838 0.00021749463662522293 0 -8.9450920769480917e-05 0.00022438955025651269 0 -4.1006027430126448e-05 -0.00011503978540548262 0 -3.9975281931567904e-05 -0.00010294086939375892 0 -4.8008371523114592e-05 -0.00010674806882638593 0 -3.6157093396235217e-05 -7.2060189569722588e-05 0 -4.4978815588690458e-05 -8.2719185592965792e-05 0 -3.7803073472512664e-05 -8.4055005866241636e-05 0 -1.8255711719513162e-05 -6.5122798095872058e-06 0 -1.7872300773192191e-05 -4.2776390972214392e-06 0 -1.5781483539521947e-05 -3.8660402721165817e-06 0 -5.0274253587693054e-05 0.00035683278945655835 0 -5.1688254363583741e-05 0.00033360083848899734 0 -3.812565124273625e-05 0.00034277929068812622 0 -7.0895290138020236e-05 -0.00017047784915917816 0 -6.9834710941684859e-05 -0.00015992894255979941 0 -7.6507244036878736e-05 -0.00016473650220487777 0 -0.00010014366313312792 0.00035946531667006512 0 -0.00011332542552445144 0.00034605638302595126 0 -9.7705475890924704e-05 0.00033493567402929713 0 -5.0590284658941779e-05 -0.00016927082028177782 0 -4.5868875343083637e-05 -0.0001634371387968376 0 -5.1114318132903951e-05 -0.00015955636338961361 0 -4.0262560385005023e-05 -4.1614805758805766e-05 0 -4.0332080043452558e-05 -3.8854724059788889e-05 0 -4.2407783042217834e-05 -4.1460601336878261e-05 0 -2.0239606969804584e-05 -4.075537872311078e-05 0 -2.9764997138004156e-05 -3.8852002181626895e-05 0 -2.5634578160687303e-05 -4.9314839642855517e-05 0 -5.4807554925018201e-05 -5.219495752454971e-05 0 -5.2643753422988376e-05 -4.9258167084220471e-05 0 -5.2587304218587906e-05 -4.8052351484915141e-05 0 -3.241693579412294e-05 -3.9608332981053e-05 0 -3.2879802095895075e-05 -4.2722990078757052e-05 0 -3.482166708037523e-05 -4.6490334356506576e-05 0 -4.9977141195487779e-06 8.3455338184952492e-07 0 -3.5611754434286028e-06 6.9250790659802943e-07 0 -4.7583161818611225e-06 6.7485514392265235e-07 0 -0.00011955956759957492 0.0001974857066227701 0 -0.00012091746974556166 0.00016924926156849533 0 -0.00010161631219485017 0.00017433654841523267 0 -9.9208584700910901e-05 0.00015234145996904485 0 -0.00010161631219485017 0.00017433654841523267 0 -0.00012091746974556166 0.00016924926156849533 0 -3.7793100624787415e-05 -3.5809531001947805e-05 0 -4.0536671245345433e-05 -3.5858105606899827e-05 0 -4.0332080043452558e-05 -3.8854724059788889e-05 0 -1.1830518261406206e-05 -1.8936144124515519e-06 0 -1.1944421971262178e-05 -2.4336371805513338e-06 0 -1.3822557774542293e-05 -3.7830593601052928e-06 0 -3.4229599548818788e-05 -1.8379350749244158e-05 0 -3.2783337669816087e-05 -1.7946794226304733e-05 0 -3.1899414438106792e-05 -1.4476272153054988e-05 0 -3.0220033841529692e-05 -1.2659412804703166e-05 0 -3.1899414438106792e-05 -1.4476272153054988e-05 0 -3.2783337669816087e-05 -1.7946794226304733e-05 0 -8.9921963951256241e-05 0.00019635526948804963 0 -8.9450920769480917e-05 0.00022438955025651269 0 -0.00010749036925813838 0.00021749463662522296 0 -4.4618320906199717e-05 -9.4123425799618824e-05 0 -4.8008371523114592e-05 -0.00010674806882638593 0 -3.9975281931567904e-05 -0.00010294086939375892 0 -4.4618320906199717e-05 -9.4123425799618824e-05 0 -3.7803073472512664e-05 -8.4055005866241636e-05 0 -4.4978815588690458e-05 -8.2719185592965792e-05 0 -7.7036839390643075e-06 -2.0579147843000742e-06 0 -1.1667489803335371e-05 -3.1804859318898096e-06 0 -8.9019438950558711e-06 -1.7939819844591947e-06 0 -1.0144869363287331e-05 9.9996116241527558e-07 0 -1.1327988528560207e-05 3.4429143573268216e-07 0 -1.5452060991344384e-05 1.8425008756905735e-06 0 -2.077865354703053e-05 4.0142270741743907e-06 0 -1.5452060991344384e-05 1.8425008756905735e-06 0 -1.9863478526211301e-05 2.8072883514373104e-06 0 -1.5291079035451526e-05 -5.007768244166559e-06 0 -1.5086371692524885e-05 -4.2038314904174458e-06 0 -1.1667489803335369e-05 -3.1804859318898091e-06 0 -1.5500514744910437e-05 -4.8166802963709662e-06 0 -1.5781483539521947e-05 -3.8660402721165817e-06 0 -1.3532779092758698e-05 -2.4398875092487219e-06 0 -0.00011955956759957492 0.0001974857066227701 0 -0.00010749036925813838 0.00021749463662522296 0 -0.00012793023832329724 0.00022667710200017125 0 -3.321992535355586e-05 -9.2500431955463638e-05 0 -3.9975281931567904e-05 -0.00010294086939375892 0 -3.260708460455739e-05 -0.00010578334898282408 0 -3.321992535355586e-05 -9.2500431955463638e-05 0 -2.9615217491163605e-05 -7.8544939073614171e-05 0 -3.7803073472512664e-05 -8.4055005866241636e-05 0 -5.0135248276261556e-05 -6.5087615357017399e-05 0 -5.8303496346410073e-05 -6.5179743884311728e-05 0 -5.8441907490860254e-05 -7.4368431505750636e-05 0 -4.3002015558331979e-05 -3.9239178291466634e-05 0 -4.0332080043452558e-05 -3.8854724059788889e-05 0 -4.0536671245345433e-05 -3.5858105606899827e-05 0 -1.2918821781922893e-05 4.6368084291183214e-06 0 -1.3982887531418302e-05 7.6962055051517977e-06 0 -1.7462175749609988e-05 6.5240765954812713e-06 0 -1.8717846280092093e-05 -9.0634428886293447e-06 0 -1.6272892637222042e-05 -6.1143610742230783e-06 0 -1.8070155881929138e-05 -7.7941488924297019e-06 0 -1.1714589995542102e-05 -2.4872407056193757e-06 0 -1.5677148908804059e-05 -4.054785722120738e-06 0 -1.3139941614661508e-05 -2.7738593900860324e-06 0 -8.9895138540220209e-05 0.00010521944589313875 0 -7.5030517527486094e-05 0.00010693739793776676 0 -8.6322229760436945e-05 0.00012909524506855141 0 -6.0094262604422187e-05 -5.4543923776925515e-05 0 -5.8303496346410073e-05 -6.5179743884311728e-05 0 -5.3638407258095185e-05 -5.5551451621386912e-05 0 -3.2297069262183756e-05 0.00024244403259490551 0 -5.3354333359041209e-05 0.00024306873887389182 0 -4.2638863690358837e-05 0.0002238981673970534 0 -7.4282006781856819e-05 -0.00011917764012918395 0 -6.4923201158824422e-05 -0.00011844742866497892 0 -6.7869084009858176e-05 -0.00010920094877649681 0 -2.8178037868175288e-05 0.00014427387977656501 0 -4.1096054965542318e-05 0.000165734863486162 0 -5.3731467318829573e-05 0.00014677737144106867 0 -1.9116885239304059e-05 -6.1559107501043147e-06 0 -2.0676878320473972e-05 -6.6410441012728279e-06 0 -2.3800665739267715e-05 -8.8248930935028134e-06 0 -1.4816069077427968e-05 -4.6954954368949015e-06 0 -1.3822557774542293e-05 -3.7830593601052928e-06 0 -1.1944421971262178e-05 -2.4336371805513338e-06 0 -5.3964553527433741e-05 -8.2817581172343205e-05 0 -5.8441907490860254e-05 -7.4368431505750636e-05 0 -6.3098999345428104e-05 -8.3561360186812337e-05 0 -4.9869264823018366e-05 -4.6092063688500503e-05 0 -5.2587304218587906e-05 -4.8052351484915141e-05 0 -5.2643753422988376e-05 -4.9258167084220471e-05 0 -3.4420115806509665e-05 -4.6023639000708395e-05 0 -3.482166708037523e-05 -4.6490334356506576e-05 0 -3.2879802095895075e-05 -4.2722990078757052e-05 0 -9.2538031284551766e-06 -7.9140183807107777e-07 0 -1.0506228406162386e-05 -1.5910291871212852e-06 0 -1.1944421971262178e-05 -2.4336371805513338e-06 0 -0.00012691185217130737 0.00036010061074649605 0 -0.00013598335528791465 0.00034474555127371925 0 -0.00011332542552445144 0.00034605638302595126 0 -0.00012346907872195814 0.00032949445625938439 0 -0.00011332542552445144 0.00034605638302595126 0 -0.00013598335528791465 0.00034474555127371925 0 -4.1925292820355307e-05 -0.00015583573021590275 0 -4.586887534308363e-05 -0.0001634371387968376 0 -3.8177151395036384e-05 -0.00016106313149768698 0 -4.1681593087294529e-05 -0.00016753590292902263 0 -3.8177151395036384e-05 -0.00016106313149768698 0 -4.586887534308363e-05 -0.0001634371387968376 0 -2.7126923027172789e-05 0.00035322805823630605 0 -3.812565124273625e-05 0.00034277929068812622 0 -1.8366470120622244e-05 0.00033775049424074371 0 -8.2390200751131243e-05 -0.00017084815667915218 0 -7.6507244036878736e-05 -0.00016473650220487777 0 -8.6335558192535779e-05 -0.00016418354941369166 0 -2.8314002714407872e-05 0.00032548311014827884 0 -1.8366470120622244e-05 0.00033775049424074371 0 -3.812565124273625e-05 0.00034277929068812622 0 -8.0842550885850252e-05 -0.00015748702497073362 0 -8.6335558192535779e-05 -0.00016418354941369166 0 -7.6507244036878736e-05 -0.00016473650220487777 0 -3.7793100624787415e-05 -3.5809531001947805e-05 0 -4.0332080043452558e-05 -3.8854724059788889e-05 0 -3.7939314721084131e-05 -3.9118467596805481e-05 0 -4.3510464657955682e-05 -3.5734802713176908e-05 0 -4.1643389724899001e-05 -3.1322965112779885e-05 0 -4.4419914331361609e-05 -3.417127476936779e-05 0 -4.3182131739379626e-05 -3.1212650376940148e-05 0 -4.4419914331361609e-05 -3.417127476936779e-05 0 -4.1643389724899001e-05 -3.1322965112779885e-05 0 -4.0262560385005023e-05 -4.1614805758805766e-05 0 -4.2407783042217834e-05 -4.1460601336878261e-05 0 -4.2426170735615035e-05 -4.4094638326021532e-05 0 -4.4840979033016757e-05 -4.2441430982141084e-05 0 -4.2426170735615035e-05 -4.4094638326021532e-05 0 -4.2407783042217834e-05 -4.1460601336878261e-05 0 -1.0759109193435299e-05 1.6347507965470831e-05 0 -1.3555326934923754e-05 1.1557801811053667e-05 0 -1.5651128016385995e-05 1.2405281353182904e-05 0 -1.976858699803508e-05 1.1455659820968853e-05 0 -2.7311294690630666e-05 1.5872009731088039e-05 0 -2.420965463260139e-05 9.8627887085950109e-06 0 -3.2567236356666696e-05 1.4087667801805734e-05 0 -2.420965463260139e-05 9.8627887085950109e-06 0 -2.7311294690630666e-05 1.5872009731088039e-05 0 -1.9116885239304059e-05 -6.1559107501043147e-06 0 -2.2300480559836557e-05 -8.962684519225282e-06 0 -1.8016051971562513e-05 -6.0955162060543965e-06 0 -8.9895138540220209e-05 0.00010521944589313875 0 -7.4180324483457015e-05 8.7678089456880973e-05 0 -7.5030517527486094e-05 0.00010693739793776676 0 -5.898116507540942e-05 9.0698762803362269e-05 0 -7.5030517527486094e-05 0.00010693739793776676 0 -7.4180324483457015e-05 8.7678089456880973e-05 0 -1.3234931651799811e-05 8.9985620398596764e-06 0 -1.3555326934923754e-05 1.1557801811053667e-05 0 -1.0673068960909858e-05 1.1899766408103528e-05 0 -3.137248323163551e-05 -3.4673761837627473e-05 0 -3.3028337505334528e-05 -3.8965830938880742e-05 0 -2.9942742704396633e-05 -3.5799823728860405e-05 0 -3.1441828423643675e-05 -3.9101627001773205e-05 0 -2.9942742704396633e-05 -3.5799823728860405e-05 0 -3.3028337505334528e-05 -3.8965830938880742e-05 0 -9.1195226343001701e-06 1.0437344561347677e-05 0 -1.0673068960909858e-05 1.1899766408103528e-05 0 -9.4995914225648847e-06 1.469587462892272e-05 0 -4.618000046643163e-05 -4.8283432944765784e-05 0 -5.2740384728237393e-05 -4.7122395124060614e-05 0 -5.3638407258095185e-05 -5.5551451621386912e-05 0 -6.0094262604422187e-05 -5.4543923776925515e-05 0 -5.3638407258095185e-05 -5.5551451621386912e-05 0 -5.2740384728237393e-05 -4.7122395124060614e-05 0 -9.5314487400344964e-06 6.0167768224999169e-06 0 -1.2048045213333595e-05 6.2746695573695916e-06 0 -9.9620408690018766e-06 8.3794518616624371e-06 0 -9.1195226343001701e-06 1.0437344561347677e-05 0 -9.9620408690018766e-06 8.3794518616624371e-06 0 -1.0673068960909858e-05 1.1899766408103528e-05 0 -4.3182131739379626e-05 -3.1212650376940148e-05 0 -4.3440322664627484e-05 -2.9715177226731913e-05 0 -4.5724288065133133e-05 -3.4085025626860283e-05 0 -1.4816069077427968e-05 -4.6954954368949015e-06 0 -1.6272892637222045e-05 -6.1143610742230783e-06 0 -1.3822557774542293e-05 -3.7830593601052928e-06 0 -1.5500514744910437e-05 -4.8166802963709662e-06 0 -1.3822557774542293e-05 -3.7830593601052928e-06 0 -1.6272892637222045e-05 -6.1143610742230783e-06 0 -1.4067360154887099e-05 -1.2573871855757014e-06 0 -1.3532779092758698e-05 -2.4398875092487219e-06 0 -1.5781483539521947e-05 -3.8660402721165817e-06 0 8.7490954221252325e-06 0.00023397798751632803 0 -1.219933666323332e-05 0.00024988425665849765 0 -9.1098579956033018e-06 0.00022931283858470576 0 -9.3323699045267514e-05 -0.00011933955538663297 0 -8.4292159233577657e-05 -0.00012427456627055417 0 -8.4227067652181036e-05 -0.00011440863237036928 0 -2.526178309931343e-05 -8.9054412434300099e-06 0 -2.3800665739267715e-05 -8.8248930935028134e-06 0 -2.0676878320473975e-05 -6.6410441012728279e-06 0 -1.6435897769639762e-09 1.789944161160847e-10 0 -1.2248535682508283e-06 3.5075904885151787e-07 0 -1.0733810050602537e-06 2.9147197617607165e-07 0 1.2570843995356881e-05 0.00014269764529457164 0 -5.914950628250428e-06 0.00015363063369457373 0 -7.2909499579647839e-06 0.00013362903116591413 0 -4.0262560385005023e-05 -4.1614805758805766e-05 0 -3.7939314721084131e-05 -3.9118467596805481e-05 0 -4.0332080043452558e-05 -3.8854724059788889e-05 0 -2.1168861656074424e-05 5.7960590107395483e-06 0 -2.420965463260139e-05 9.8627887085950109e-06 0 -2.8812616037359919e-05 9.3274963698796868e-06 0 -3.2567236356666696e-05 1.4087667801805734e-05 0 -2.8812616037359919e-05 9.3274963698796868e-06 0 -2.420965463260139e-05 9.8627887085950109e-06 0 -4.6655723840619536e-05 -3.3095380954359347e-05 0 -4.5724288065133133e-05 -3.4085025626860283e-05 0 -4.3440322664627484e-05 -2.9715177226731913e-05 0 
</DataArray>
</PointData>
<CellData Scalars="region_id,cross_section_updated,displacement_divergence," Vectors="" Tensors="stress,">
<DataArray type="Float64" Name="region_id" format="ascii">
2 2 2 2 2 2 2 2 2 2 3 3 3 3 3 3 3 3 3 3 1 1 1 1 1 1 1 1 1 1 1 1 1 1 1 1 1 1 1 1 1 1 1 1 1 1 1 1 1 1 1 1 1 1 1 1 1 1 1 1 1 1 1 1 1 1 1 1 1 1 1 1 1 1 1 1 1 1 1 1 1 1 1 1 1 1 1 1 1 1 1 1 1 1 1 1 1 1 1 1 1 1 1 1 1 1 1 1 1 1 1 1 1 1 1 1 1 1 1 1 1 1 1 1 1 1 1 1 1 1 1 1 1 1 1 1 1 1 1 1 1 1 1 1 1 1 1 1 1 1 1 1 1 1 1 1 1 1 1 1 1 1 1 1 1 1 1 1 1 1 1 1 1 1 1 1 1 1 1 1 1 1 1 1 1 1 1 1 1 1 1 1 1 1 1 1 1 1 1 1 1 1 1 1 1 1 1 1 1 1 1 1 1 1 1 1 1 1 1 1 1 1 1 1 1 1 1 1 1 1 1 1 1 1 1 1 1 1 1 1 1 1 1 1 1 1 1 1 1 1 1 1 1 1 1 1 1 1 1 1 1 1 1 1 1 1 1 1 1 1 1 1 1 1 1 1 1 1 1 1 1 1 1 1 1 1 1 1 1 1 1 1 1 1 1 1 1 1 1 1 1 1 1 1 1 1 1 1 1 1 1 1 1 1 1 1 1 1 1 1 1 1 1 1 1 1 1 1 1 1 1 1 1 1 1 1 1 1 1 1 1 1 1 1 1 1 1 1 1 1 1 1 1 1 1 1 1 1 1 1 1 1 1 1 1 1 1 1 1 1 1 1 1 1 1 1 1 1 1 1 1 1 1 1 1 1 1 1 1 1 1 1 1 1 1 1 1 1 1 1 1 1 1 1 1 1 1 1 1 1 1 1 1 1 1 1 1 1 1 1 1 1 1 1 1 1 1 1 1 1 1 1 1 1 1 1 1 1 1 1 1 1 1 1 1 1 1 1 1 1 1 1 1 1 1 1 1 1 1 1 1 1 1 1 1 1 1 1 1 1 1 1 1 1 1 1 1 1 1 1 1 1 1 1 1 1 1 1 1 1 1 1 1 1 1 1 1 1 1 1 1 1 1 1 1 1 1 1 1 1 1 1 1 1 1 1 1 1 1 1 1 1 1 1 1 1 1 1 1 1 1 1 1 1 1 1 1 1 1 1 1 1 1 1 1 1 1 1 1 1 1 1 1 1 1 1 1 1 1 1 1 1 1 1 1 1 1 1 1 1 1 1 1 1 1 1 1 1 1 1 1 1 1 1 1 1 1 1 1 1 1 1 1 1 1 1 1 1 1 1 1 1 1 1 1 1 1 1 1 1 1 1 1 1 1 1 1 1 1 1 1 1 1 1 1 1 1 1 1 1 1 1 1 1 1 1 1 1 1 1 1 1 1 1 1 1 1 1 1 1 1 1 1 1 1 1 1 1 1 1 1 1 1 1 1 1 1 1 1 1 1 1 1 1 1 1 1 1 1 1 1 1 1 1 1 1 1 1 1 1 1 1 1 1 1 1 1 1 1 1 1 1 1 1 1 1 1 1 1 1 1 1 1 1 1 1 1 1 1 1 1 1 1 1 1 1 1 1 1 1 1 1 1 1 1 1 1 1 1 1 1 1 1 1 1 1 1 1 1 1 1 1 1 1 1 1 1 1 1 1 1 1 1 1 1 1 1 1 1 1 1 1 1 1 1 1 1 1 1 1 1 1 1 1 1 1 1 1 1 1 1 1 1 1 1 1 1 1 1 1 1 1 1 1 1 1 1 1 1 1 1 1 1 1 1 1 1 1 1 1 1 1 1 1 1 1 1 1 1 1 1 1 1 1 1 1 1 1 1 1 1 1 1 1 1 1 1 1 1 1 1 1 1 1 1 1 1 1 1 1 1 1 1 1 1 1 1 1 1 1 1 1 1 1 1 1 1 1 1 1 1 1 1 1 1 1 1 1 1 1 1 1 1 1 1 1 1 1 1 1 1 1 1 1 1 1 1 1 1 1 1 1 1 1 1 1 1 1 1 1 1 1 1 1 1 1 1 1 1 1 1 1 1 1 1 1 1 1 1 1 1 1 1 1 1 1 1 1 1 1 1 1 1 1 1 1 1 1 1 1 1 1 1 1 1 1 1 1 1 1 1 1 1 1 1 1 1 1 1 1 1 1 1 1 1 1 1 1 1 1 1 1 1 1 1 1 1 1 1 1 1 1 1 1 1 1 1 1 1 1 1 1 1 1 1 1 1 1 1 1 1 1 1 1 1 1 1 1 1 1 1 1 1 1 1 1 1 1 1 1 1 1 1 1 1 1 1 1 1 1 1 1 1 1 
</DataArray>
<DataArray type="Float64" Name="stress" NumberOfComponents="9" format="ascii">
0.0043449298241780843 -0.0025935297823353942 0 -0.0025935297823353942 0.013157208835791195 0 0 0 0.0043755346649923194 0.01074581816154388 -0.0065511657737550334 0 -0.0065511657737550334 0.032380508214641959 0 0 0 0.010781581594046458 0.014542412259694222 -0.0088422320336505756 0 -0.0088422320336505756 0.043786875511465248 0 0 0 0.014582321942789864 0.018056534553598614 -0.010187167726663521 0 -0.010187167726663521 0.054316885303799044 0 0 0 0.018093354964349419 0.02165408728789563 -0.010850888639968519 0 -0.010850888639968519 0.065092883027634316 0 0 0 0.021686742578882486 0.025529059950699224 -0.01100752804237767 0 -0.01100752804237767 0.076711861752914959 0 0 0 0.025560230425903548 0.029721772110078388 -0.010781267151267187 0 -0.010781267151267187 0.089292280517824674 0 0 0 0.029753513156975771 0.033967501915965266 -0.010339384451379351 0 -0.010339384451379351 0.10203199988634704 0 0 0 0.033999875450578067 0.038236872086578028 -0.0098363133140608756 0 -0.0098363133140608756 0.11479453162809948 0 0 0 0.038257850928669374 0.04195270337984143 -0.009392953932651783 0 -0.009392953932651783 0.12611272574183494 0 0 0 0.042016357280419088 0.0078389984315206506 0.001510763658164248 0 0.001510763658164248 0.023245974411453763 0 0 0 0.0077712432107436037 0.019890372038303614 0.0036274108178795707 0 0.0036274108178795707 0.059766928248285972 0 0 0 0.019914325071647396 0.02802837021161066 0.0050000267632414764 0 0.0050000267632414764 0.084199468234045866 0 0 0 0.028056959611414134 0.035239429754987867 0.0058316271583560859 0 0.0058316271583560859 0.10585725084396708 0 0 0 0.035274170149738743 0.042222579762301253 0.0063414037805008027 0 0.0063414037805008027 0.12682699822820104 0 0 0 0.042262394497625574 0.049079836127977457 0.006618724177956465 0 0.006618724177956465 0.14741840946795581 0 0 0 0.049124561398983316 0.055900608561902689 0.0066856339972683919 0 0.0066856339972683919 0.1678857060617315 0 0 0 0.05594657865590856 0.062478071091952074 0.0066209671735587769 0 0.0066209671735587769 0.1877151897182778 0 0 0 0.062548315202557478 0.069009184075998237 0.0064539032491710531 0 0.0064539032491710531 0.20696694108234157 0 0 0 0.068994031289584951 0.074476494543791127 0.0063017492705198883 0 0.0063017492705198883 0.22471249218206446 0 0 0 0.074797246681463897 -0.058927694087673926 -0.017013236835364716 0 -0.017013236835364716 0.02673821488695477 0 0 0 -0.0080473698001797822 -0.054106461549471241 -0.017478477149257085 0 -0.017478477149257085 0.046130619578724275 0 0 0 -0.0019939604926867416 -0.074435235436359881 -0.011278356070376194 0 -0.011278356070376194 0.040053292032224685 0 0 0 -0.0085954858510338128 -0.077077237434835549 -0.00043954138597895875 0 -0.00043954138597895875 0.041363259720803743 0 0 0 -0.0089284944285079847 -0.16322073474685647 -0.0049022312663084787 0 -0.0049022312663084787 0.0018606545704163979 0 0 0 -0.040340020044110012 -0.12011422647237727 -0.00056602273385069832 0 -0.00056602273385069832 -0.00035735115538791358 0 0 0 -0.030117894406941292 -0.17137878048090696 -0.0020842276056889167 0 -0.0020842276056889167 -0.0014916339417945599 0 0 0 -0.043217603605675378 -0.12433893714577723 -0.0017187377095921037 0 -0.0017187377095921037 -0.00092605881543796065 0 0 0 -0.031316248990303795 -0.1403356723339681 0.0034595166935037086 0 0.0034595166935037086 -0.00045725980875616079 0 0 0 -0.035198233035681058 -0.23749609664285531 -0.010766017971710781 0 -0.010766017971710781 -0.00052045592713567679 0 0 0 -0.059504138142497782 -0.029331760416034993 0.0035032545750142792 0 0.0035032545750142792 -0.016856341642369183 0 0 0 -0.011547025514601041 -0.033824468156798175 0.0046650301584816502 0 0.0046650301584816502 -0.012128130452600021 0 0 0 -0.011488149652349547 -0.062115250222503887 0.0013749130744745235 0 0.0013749130744745235 -0.0097246267896459425 0 0 0 -0.017959969253037444 -0.061629910787734804 -0.0073919284059861742 0 -0.0073919284059861742 -0.02054736216444852 0 0 0 -0.020544318238045832 -0.062595892002093992 0.0030207798681945479 0 0.0030207798681945479 -0.020865253394034965 0 0 0 -0.020865286349032244 -0.071289096593210352 -0.019160317688616493 0 -0.019160317688616493 0.026729043851937528 0 0 0 -0.011140013185318196 0.1483050279848685 0.11898651488463419 0 0.11898651488463419 0.25149014380300161 0 0 0 0.099948792946967513 -0.0010872552869296559 -0.012126382062799035 0 -0.012126382062799035 0.0036267264652920517 0 0 0 0.0006348677945908765 -0.0016163631791998867 0.0058652725353489643 0 0.0058652725353489643 0.011632004579772648 0 0 0 0.0025039103501431903 0.00066803892059486003 0.014757894737720002 0 0.014757894737720002 0.018485210878958824 0 0 0 0.0047883124498886431 -0.00072846346565724751 -0.0055597601758573742 0 -0.0055597601758573742 0.004703101928801523 0 0 0 0.00099365961578623541 -0.013443198772789433 0.02263151458315571 0 0.02263151458315571 0.0052758997297885912 0 0 0 -0.0020418247607500994 -0.010753373995265325 -0.025173852346923153 0 -0.025173852346923153 0.0029417267166533811 0 0 0 -0.0019529118196529582 -0.057009056772936315 0.0043757744561306357 0 0.0043757744561306357 -0.010696404495424004 0 0 0 -0.016926365317090079 0.16192755164930642 -0.0068769965112518705 0 -0.0068769965112518705 0.1569904317686453 0 0 0 0.079729495854487936 -0.25268577162264483 0.016954498035227972 0 0.016954498035227972 0.0078591163293733057 0 0 0 -0.061206663823317853 -0.14037453789404822 -0.0068012189759240668 0 -0.0068012189759240668 0.0030915576062200412 0 0 0 -0.034320745071956982 -0.11426612414446319 -0.024030765637332405 0 -0.024030765637332405 0.019369513990067533 0 0 0 -0.023724152538598942 -0.12586963502443915 0.029988519840021575 0 0.029988519840021575 0.073251501161209376 0 0 0 -0.013154533465807527 -0.14066629495411784 -0.020796388082037709 0 -0.020796388082037709 0.013125753656179545 0 0 0 -0.031885135324484594 -0.063943560117984646 -0.025299196695352036 0 -0.025299196695352036 0.054283024853124362 0 0 0 -0.0024151338162150676 -0.031469375372576547 -0.035331194007043321 0 -0.035331194007043321 0.005734122352289428 0 0 0 -0.0064338132550717519 -0.035604237892227331 0.045034449720428027 0 0.045034449720428027 0.0038834622585111056 0 0 0 -0.007930193908429195 -0.033638086250354693 -0.036064639201854987 0 -0.036064639201854987 0.0097924485698488439 0 0 0 -0.0059614094201266843 -0.044159516226864648 0.048101261690941755 0 0.048101261690941755 -0.00029832297100451655 0 0 0 -0.011114459799467236 -0.1087966850973535 -0.029640069392981166 0 -0.029640069392981166 0.0055480998760705502 0 0 0 -0.025812146305320791 -0.037598946829299346 -0.050023135425636675 0 -0.050023135425636675 0.074820674547054156 0 0 0 0.0093054319294387164 -0.14478738849512729 0.01743938579094928 0 0.01743938579094928 0.019598377099460995 0 0 0 -0.031297252848916601 0.28142053127695854 0.14068923147604812 0 0.14068923147604812 0.084210359340799901 0 0 0 0.091407722654439527 -0.0027384231224799049 0.0081586027157981023 0 0.0081586027157981023 0.023071536847563578 0 0 0 0.0050832784312708768 -0.0059044365880317473 -0.0087361049060793311 0 -0.0087361049060793311 0.064040004974343367 0 0 0 0.014533892096577905 -0.056372220205137574 -0.02581987008992925 0 -0.02581987008992925 0.091244645439399627 0 0 0 0.0087181063085655097 -0.0045626912162237687 -0.022988333352991885 0 -0.022988333352991885 0.075104612542663318 0 0 0 0.017635480331609887 -0.0078992432944131608 0.0039169988536538192 0 0.0039169988536538192 -0.0027424435352223497 0 0 0 -0.0026604217074082115 -0.046387734661340455 -0.0064099411717738718 0 -0.0064099411717738718 -0.021687782905821518 0 0 0 -0.017018879391790493 -0.05032840560272725 0.0060019316190736893 0 0.0060019316190736893 -0.016343132151581369 0 0 0 -0.016667884438577148 -0.083260750434598185 0.077205697966059139 0 0.077205697966059139 0.075301522187105563 0 0 0 -0.0019898070618730723 -0.076887917466195124 0.069706644763324555 0 0.069706644763324555 0.052488759545397445 0 0 0 -0.0060997894801993607 0.12642399499770346 0.16606129934068503 0 0.16606129934068503 0.28847043999602923 0 0 0 0.10372360874843319 -0.012750233666119451 0.0079609070919555158 0 0.0079609070919555158 0.00093170266014053205 0 0 0 -0.0029546327514945042 -0.021692062197592253 -0.02402927080725159 0 -0.02402927080725159 0.062471158474422694 0 0 0 0.010194774069207525 -0.027311769336363478 -0.01193487591097353 0 -0.01193487591097353 -0.012554089416101366 0 0 0 -0.0099664646881161834 -0.059376533328958869 -0.023693437788080383 0 -0.023693437788080383 0.068726952864353763 0 0 0 0.0023376048838487117 -0.04633969314587949 -0.030911079896884672 0 -0.030911079896884672 0.0037966412900484192 0 0 0 -0.010635762963957754 -0.032492087615398735 -0.0069779971486140652 0 -0.0069779971486140652 0.022237673812668945 0 0 0 -0.0025636034506824057 -0.1233843327441112 0.02119768588700599 0 0.02119768588700599 -0.00065433861962249651 0 0 0 -0.031009667840933175 -0.01028170615864199 -0.0057505635836515578 0 -0.0057505635836515578 0.00040799186860951409 0 0 0 -0.0024684285725082855 -0.014867666785507438 0.025136941084005215 0 0.025136941084005215 0.11909978210747507 0 0 0 0.026058028830491908 -0.022874473934106437 -0.019933532791897468 0 -0.019933532791897468 0.08748354115472752 0 0 0 0.016152266805155274 0.001635037341249479 0.00074120870798188268 0 0.00074120870798188268 -0.001274744424352825 0 0 0 9.0073229224163498e-05 -0.028115292606177122 0.00065827464088430432 0 0.00065827464088430432 0.0012917522499775735 0 0 0 -0.0067058850890499566 0.0058761299430771206 -0.071920421220204811 0 -0.071920421220204811 0.11771706624087643 0 0 0 0.030898299045988366 -0.025783282675726327 -0.00091184319238631073 0 -0.00091184319238631073 0.00075112384212072669 0 0 0 -0.0062580397084013861 -0.036176156026820228 -0.010912212657259231 0 -0.010912212657259231 0.0043797244151999593 0 0 0 -0.0079491079029050393 -0.049807833240728572 -0.040302838444859782 0 -0.040302838444859782 0.010793670383094423 0 0 0 -0.0097535407144085928 -0.11462931739222126 -0.0096297840807452271 0 -0.0096297840807452271 -0.019271405751541307 0 0 0 -0.033475180785940639 -0.15235563514544326 0.0035882329031180667 0 0.0035882329031180667 -0.024301528825638057 0 0 0 -0.044164290992770333 0.0027092781442845872 0.0045092072112616899 0 0.0045092072112616899 0.010254515055946664 0 0 0 0.0032409483000578544 0.004848458101579578 -0.0057629712914947229 0 -0.0057629712914947229 0.050607343057248011 0 0 0 0.013863950289706994 -0.11226851112015601 -0.0085931787275637384 0 -0.0085931787275637384 -0.027869043970625704 0 0 0 -0.035034388772695428 -0.090126405672511928 -0.00093824383040283076 0 -0.00093824383040283076 -0.0215252408264772 0 0 0 -0.027912911624747284 -0.038520687075550029 0.00030929488017199345 0 0.00030929488017199345 -0.020030323778495764 0 0 0 -0.014637752713511453 -0.12021396194761329 0.0027742040654846964 0 0.0027742040654846964 -0.00038087805600296558 0 0 0 -0.030148710000904078 -0.16673028482093924 -0.010428598795121168 0 -0.010428598795121168 0.0013889984115551257 0 0 0 -0.041335321602346001 -0.038798117698756296 -0.02179929540006853 0 -0.02179929540006853 -0.0089294007491387273 0 0 0 -0.011931879611973784 -0.042344180726150038 -0.028425492183152906 0 -0.028425492183152906 0.0045303760423280881 0 0 0 -0.0094534511709554736 0.003600325479400146 0.02405075407278634 0 0.02405075407278634 0.1426968368286804 0 0 0 0.036574290577019886 -0.0069015668754903725 -0.0032996244871412728 0 -0.0032996244871412728 -0.0023096000808382477 0 0 0 -0.0023027917390820996 -0.040478522897642227 -0.023530464252016936 0 -0.023530464252016936 -0.011001879296926198 0 0 0 -0.012870100548642099 -0.030640270424736139 -0.012561128407595268 0 -0.012561128407595268 0.00073486570703118481 0 0 0 -0.007476351179426223 -0.068959754452323718 0.064728721221503971 0 0.064728721221503971 -0.0008625284146397405 0 0 0 -0.017455570716740976 -0.13286688639223995 0.00050914157731320707 0 0.00050914157731320707 -0.044313376604762082 0 0 0 -0.04429506574925051 -0.10195104052236671 -0.0070659632277925528 0 -0.0070659632277925528 -0.034002835830761226 0 0 0 -0.033988469088281986 -0.046731341201654564 -0.0060826886796749172 0 -0.0060826886796749172 -0.021920817578946605 0 0 0 -0.017163039695150289 -0.011853303650974922 0.030668003605214711 0 0.030668003605214711 0.013870815743930898 0 0 0 0.00050437802323877179 -0.012310184854441575 -0.018435970086108533 0 -0.018435970086108533 0.001399238007898651 0 0 0 -0.0027277367116356199 -0.038294158548553288 -0.037907259222153988 0 -0.037907259222153988 0.0086717801596765537 0 0 0 -0.0074055945972192963 -0.034075306283352536 0.003513194103593931 0 0.003513194103593931 -0.015585111820066956 0 0 0 -0.01241510452585487 -0.085392596287305902 -0.016979404343606772 0 -0.016979404343606772 -0.0087386331070260538 0 0 0 -0.023532807348582988 -0.038460060651356709 -0.011550906553732589 0 -0.011550906553732589 0.0028285106628300749 0 0 0 -0.0089078874971316724 -0.031018523461466052 0.0057852937310593827 0 0.0057852937310593827 -0.013983304645229179 0 0 0 -0.011250457026673804 -0.035293130067806502 0.0053502898403487691 0 0.0053502898403487691 -0.012276817171770881 0 0 0 -0.011892486809894348 -0.03779583405773082 0.0039203909557615144 0 0.0039203909557615144 -0.014865130873100671 0 0 0 -0.01316524123270788 -0.031554008151592178 -0.003593043589141226 0 -0.003593043589141226 0.01769330413455622 0 0 0 -0.003465176004258913 -0.038823683713019516 -0.038313271741031066 0 -0.038313271741031066 0.028190535908155179 0 0 0 -0.0026582869512160462 -0.026900205994980275 -0.011405569839764762 0 -0.011405569839764762 0.0025710275927304238 0 0 0 -0.0060822946005624767 -0.059053598559015222 -0.028065042693910275 0 -0.028065042693910275 0.090037080144776752 0 0 0 0.0077458703964403894 -0.02030820251897536 0.020410233077125639 0 0.020410233077125639 0.16032090390910447 0 0 0 0.035003175347532167 0.00055878411059473443 -0.00076899082265002839 0 -0.00076899082265002839 -0.000890651941855225 0 0 0 -8.2966957815289177e-05 -0.0071969598452321648 -0.0058940506289114555 0 -0.0058940506289114555 -0.0034784150389519652 0 0 0 -0.0026688437210460325 -0.01579455028629928 0.016796178329677502 0 0.016796178329677502 0.16182368076331599 0 0 0 0.036507282619254067 -0.041645830609431542 0.021802343933900174 0 0.021802343933900174 0.12505049840453061 0 0 0 0.020851166948774771 -0.04663794194723174 0.0043709302332437458 0 0.0043709302332437458 -0.0094436110696839923 0 0 0 -0.014020388254228926 -0.051196599964794878 0.0033575659441858387 0 0.0033575659441858387 -0.011225909002357579 0 0 0 -0.015605627241788111 0.0023830698892908231 0.03757011917535702 0 0.03757011917535702 0.048343836024594466 0 0 0 0.012681726478471544 -0.024544976582578704 0.041051324581174442 0 0.041051324581174442 0.039369949148729155 0 0 0 0.0037062431415377795 -0.049631425369706189 -0.039483673603269355 0 -0.039483673603269355 0.02819366863095718 0 0 0 -0.0053594391846872452 0.0010139849164971237 -0.0095415384322020125 0 -0.0095415384322020125 0.0016874908444218795 0 0 0 0.00067536894022973692 -0.00039118271532539994 0.0072118879914538914 0 0.0072118879914538914 -0.013202081999779347 0 0 0 -0.0033983161787761729 -0.061327858936303034 0.0091584081083947028 0 0.0091584081083947028 0.081154841090801871 0 0 0 0.0049567455386247301 -0.0081556657622767759 0.0079571057336806379 0 0.0079571057336806379 -0.0049581098345576891 0 0 0 -0.0032784438992083942 -0.021915715629316823 -0.01854005609346232 0 -0.01854005609346232 0.087720829554404744 0 0 0 0.016451278481272036 -0.12825788911246858 0.0028806497224102279 0 0.0028806497224102279 0.00093315278991341899 0 0 0 -0.031831184080638814 -0.20530585872708501 -0.0095200984408503886 0 -0.0095200984408503886 0.001443323006412367 0 0 0 -0.05096563393016814 -0.022348173182217407 -0.035817492565815082 0 -0.035817492565815082 0.009844757762271561 0 0 0 -0.0031258538549864545 0.11556370674479854 -0.070168571738473129 0 -0.070168571738473129 0.056294086901861773 0 0 0 0.042964448411665079 -0.031875941620417819 -0.022703206134935677 0 -0.022703206134935677 -0.0038867169574050564 0 0 0 -0.0089406646444557258 -0.033385487160739122 -0.029206484526663648 0 -0.029206484526663648 -0.00070109904908061127 0 0 0 -0.0085216465524549229 -7.8448743113031347e-05 -0.0081081179216904165 0 -0.0081081179216904165 0.018839741558944613 0 0 0 0.0046903232039577844 -0.0019103286578250334 0.0066474710823065664 0 0.0066474710823065664 0.0150941182485127 0 0 0 0.0032959473976719167 -0.00018689273605643208 0.0095709631887239688 0 0.0095709631887239688 0.040367388508329327 0 0 0 0.010045123943068557 -0.0019145902377785103 -0.0056405211867947003 0 -0.0056405211867947003 0.0062458614986024086 0 0 0 0.0010828178152059191 -0.078951358816255146 0.040176946625850862 0 0.040176946625850862 0.10144131278484902 0 0 0 0.0056224884921484697 -0.044120306350655947 -0.019716866798665966 0 -0.019716866798665966 0.00093105803406412502 0 0 0 -0.010797312079147997 -0.036693020272405369 -0.017042102467481307 0 -0.017042102467481307 -0.0045592355868352835 0 0 0 -0.010313063964810239 -0.034373945692904959 -0.017016639470427669 0 -0.017016639470427669 -0.0061937037429330849 0 0 0 -0.010141912358959601 -0.018372729460686577 -0.039002263531692991 0 -0.039002263531692991 0.01827069647830637 0 0 0 -2.5508245595107226e-05 -0.1816451115228625 0.025320070951218021 0 0.025320070951218021 0.0034861202382832079 0 0 0 -0.044539747821144837 -0.080141884326656365 -0.0035386232115302702 0 -0.0035386232115302702 0.024752680959989115 0 0 0 -0.013847300841666771 -0.067286007332571673 -0.012466427190689772 0 -0.012466427190689772 0.022670572880801987 0 0 0 -0.011153858612942408 -0.021644366293031209 0.0045124092488550427 0 0.0045124092488550427 -0.01601156158981154 0 0 0 -0.009413981970710722 -0.13162906425667531 0.045241305821085542 0 0.045241305821085542 -0.002750396341568484 0 0 0 -0.03359486514956056 -0.11334616890235466 0.0053700606500120263 0 0.0053700606500120263 0.0054379961842896951 0 0 0 -0.026977043179516227 -0.11248990332867911 -0.0044542676336560283 0 -0.0044542676336560283 0.0068315779817071376 0 0 0 -0.026414581336743043 -0.18374568829350585 0.001932693421359627 0 0.001932693421359627 0.015162986323353889 0 0 0 -0.042145675492537976 -0.17881906633709976 -0.021333245509997101 0 -0.021333245509997101 0.015160736583494927 0 0 0 -0.040914582438401181 -0.038075886530452789 -0.01402258300230308 0 -0.01402258300230308 -0.0028336197198938207 0 0 0 -0.010227376562586592 -0.10913629075762032 -0.011225927607658504 0 -0.011225927607658504 0.0021072610853818396 0 0 0 -0.026757257418059677 0.019195891518955177 0.079297250847349399 0 0.079297250847349399 0.032039840600877501 0 0 0 0.012808933029958114 -0.064184536724014918 -0.019075312568318875 0 -0.019075312568318875 0.062311175571261382 0 0 0 -0.00046834028818839354 -0.032010162337524434 0.017777976539665927 0 0.017777976539665927 0.02510534644670389 0 0 0 -0.0017262039727051395 -0.037449158483514156 0.032984813193860374 0 0.032984813193860374 -0.0048326112749252914 0 0 0 -0.010570442439609806 -0.030537160121505036 -0.033542638263624136 0 -0.033542638263624136 0.022640744051033446 0 0 0 -0.0019741040176178282 -0.037484285298158573 -0.036835892242670892 0 -0.036835892242670892 0.032282809345888147 0 0 0 -0.0013003689880675953 -0.0076130820267942267 0.0066709042609682523 0 0.0066709042609682523 -0.011106532247307399 0 0 0 -0.0046799035685254342 -0.03585370875959365 -0.017004584286036045 0 -0.017004584286036045 -0.011050959380470737 0 0 0 -0.011726167035016083 -0.057187283075658998 -0.010705044870671516 0 -0.010705044870671516 -0.024412213926178601 0 0 0 -0.020399874250459398 -0.05775737652763753 0.0061352934001081749 0 0.0061352934001081749 -0.017349012992336026 0 0 0 -0.01877659737999339 -0.035635278734419885 -0.041986717312849975 0 -0.041986717312849975 0.020091354567087272 0 0 0 -0.0038859810418331656 -0.087882764699213009 -0.026605152029206273 0 -0.026605152029206273 -0.0054930991020190334 0 0 0 -0.023343965950307979 -0.10950669600604657 -0.0057272575798231733 0 -0.0057272575798231733 0.03142954112009666 0 0 0 -0.01951928872148756 -0.037460841159975673 -0.0020553162258648643 0 -0.0020553162258648643 -0.022220106290478346 0 0 0 -0.01492023686261351 -0.035410532118916857 0.00060027957822623448 0 0.00060027957822623448 -0.018137355144126666 0 0 0 -0.01338697181576088 -0.044811084474503882 0.0035964238433348651 0 0.0035964238433348651 -0.013925574618477814 0 0 0 -0.014684164773245422 -0.045147167949253754 0.004673625608162698 0 0.004673625608162698 -0.014531245175327263 0 0 0 -0.014919603281145256 -0.095490259512424902 -0.019394814200299093 0 -0.019394814200299093 0.032290030603751685 0 0 0 -0.015800057227168318 -0.04321130643653575 0.014229266676769547 0 0.014229266676769547 0.022883041208212454 0 0 0 -0.0050820663070808361 -0.032644022851026522 -0.0024707766027635236 0 -0.0024707766027635236 -0.016295449564229948 0 0 0 -0.012234868103814123 -0.061176644285337201 -0.023628388136172872 0 -0.023628388136172872 -0.0061635166519752593 0 0 0 -0.016835040234328125 -0.046643169769625951 0.017102452680753059 0 0.017102452680753059 0.066228106527100331 0 0 0 0.0048962341893685939 -0.059968931582211837 -0.0023723607905720926 0 -0.0023723607905720926 0.0023813754387139868 0 0 0 -0.014396889035874461 -0.057699818112657376 -0.0010107360812835631 0 -0.0010107360812835631 0.008373287375802313 0 0 0 -0.012331632684213757 -0.13284795885340955 0.00049317163173558435 0 0.00049317163173558435 -0.044252354514828549 0 0 0 -0.044275078342059515 -0.1019374283946346 -0.0070538568460159065 0 -0.0070538568460159065 -0.033958791622202743 0 0 0 -0.03397405500420933 0.098041022687818002 0.044181502533990891 0 0.044181502533990891 0.049418035802916843 0 0 0 0.036864764622683739 -0.04742710493989815 0.0027049408100376137 0 0.0027049408100376137 8.7455804914279497e-05 0 0 0 -0.011834912283745965 -0.073750615016820592 -0.01360870193094323 0 -0.01360870193094323 0.074853758777264412 0 0 0 0.00027578594011093416 -0.016430568786129029 0.00091860021867501418 0 0.00091860021867501418 -0.026299469440025147 0 0 0 -0.010682509556538489 -0.12294528119802964 0.0044712004943497363 0 0.0044712004943497363 0.0013358094650521013 0 0 0 -0.030402367933244412 -0.19086259526455737 -0.011405795597510759 0 -0.011405795597510759 0.0016698663116847812 0 0 0 -0.047298182238218155 -0.036784760174624773 -0.014427334156125793 0 -0.014427334156125793 -0.015674947907855008 0 0 0 -0.013114927020619879 -0.11192905191577532 0.0080201577811330471 0 0.0080201577811330471 0.00048294273405171165 0 0 0 -0.027861527295430857 -0.139462996330351 -0.0321619915292298 0 -0.0321619915292298 0.00041441594814584093 0 0 0 -0.034762145095551283 -0.1130229280779074 0.0042794970970117391 0 0.0042794970970117391 7.4482082048937803e-05 0 0 0 -0.02823711149896467 -0.073918622585696939 0.0021765844928186978 0 0.0021765844928186978 -0.0052627005751425624 0 0 0 -0.019795330790209887 -0.067513380279817375 -0.013196445166331915 0 -0.013196445166331915 -0.012886399256729304 0 0 0 -0.020099944884136689 -0.10239206224824592 -0.023924400923836381 0 -0.023924400923836381 0.01340743314924786 0 0 0 -0.022246157274749503 -0.04406122518140454 -0.014749055519513554 0 -0.014749055519513554 -0.0016036653502190523 0 0 0 -0.011416222632905898 -0.024166787501648912 0.040572232581212897 0 0.040572232581212897 0.047391055723691622 0 0 0 0.0058060670555106775 -0.030185009905556281 -0.022312897519122521 0 -0.022312897519122521 -0.0059997725178142503 0 0 0 -0.0090461956058425219 -0.040720004051156146 -0.0017728362415368466 0 -0.0017728362415368466 -0.019087049605106494 0 0 0 -0.014951763414065664 -0.050311936401039772 0.0029202056941362502 0 0.0029202056941362502 -0.015749929594084021 0 0 0 -0.016515466498780947 -0.070906737009330104 -0.013328070992863879 0 -0.013328070992863879 -0.026440465988798033 0 0 0 -0.024336800749532039 -0.066263945537197666 0.0056028265480963617 0 0.0056028265480963617 -0.018999004900932898 0 0 0 -0.021315737609532641 -0.066594273114455427 -0.014196055004147182 0 -0.014196055004147182 0.013346528347173203 0 0 0 -0.013311936191820556 -0.065911484700152748 -0.024613239761655872 0 -0.024613239761655872 0.017587038002570055 0 0 0 -0.012081111674395642 -0.065527035127445288 0.076656833675959657 0 0.076656833675959657 0.016451132296766868 0 0 0 -0.012268975707669716 -0.012308819832777984 0.10023896493245399 0 0.10023896493245399 0.05583791296639995 0 0 0 0.010882273283405519 0.042898038088530654 0.0017090860749353481 0 0.0017090860749353481 0.06713096180517264 0 0 0 0.027507249973425796 -0.078773160526855401 -0.0095719459981350591 0 -0.0095719459981350591 0.057751522406797734 0 0 0 -0.0052554095300144446 -0.03357703010025382 0.0040635051131097553 0 0.0040635051131097553 -0.014614406100135865 0 0 0 -0.01204785905009742 -0.044424957182016056 -0.020958171520968391 0 -0.020958171520968391 -0.0069633153765985556 0 0 0 -0.012847068139653695 -0.062584327884122715 0.055489003865956787 0 0.055489003865956787 0.0018368500035288449 0 0 0 -0.015186869470148467 -0.022457505151989854 -0.0057170829410710111 0 -0.0057170829410710111 0.047639297531989921 0 0 0 0.0062954480950000447 -0.024296334347278972 -0.01070277984444723 0 -0.01070277984444723 -0.012517499786356356 0 0 0 -0.0092034585334088287 -0.055814869415756176 0.0021804209944032075 0 0.0021804209944032075 -0.0079296762858821306 0 0 0 -0.015936136425409576 -0.1037360905819889 0.024248257790465744 0 0.024248257790465744 0.057140357165328837 0 0 0 -0.011648933354165059 -0.12501224586063334 0.0010192482269330159 0 0.0010192482269330159 -0.0022280679648540025 0 0 0 -0.031810078456371842 -0.1826007657769621 -0.0046723933742462464 0 -0.0046723933742462464 -0.0045005999857253426 0 0 0 -0.046775341440671872 -0.035309543354928585 -0.02094659123612138 0 -0.02094659123612138 -0.0017015891326582211 0 0 0 -0.0092527831218967016 -0.079022198185124085 0.00068943474637781193 0 0.00068943474637781193 -0.01460448868602667 0 0 0 -0.023406671717787691 -0.086230354955555019 -0.0086860180735915792 0 -0.0086860180735915792 -0.023784268425218216 0 0 0 -0.02750365584519331 -0.21661280611890527 0.0057668358934132025 0 0.0057668358934132025 0.0043697757371516932 0 0 0 -0.053060757595438435 -0.12555525783098698 -0.0027092834769276153 0 -0.0027092834769276153 0.0011812963691015255 0 0 0 -0.031093490365471335 -0.004358583203630001 0.033180151149092341 0 0.033180151149092341 0.14395376938628801 0 0 0 0.034898796545664496 0.073294873443099373 0.0014677859558468176 0 0.0014677859558468176 0.34874755931034573 0 0 0 0.10551060818836128 -0.041863320838026852 -0.045656386556304773 0 -0.045656386556304773 0.025805106240321896 0 0 0 -0.0040145536494262113 -0.057246734632505014 -0.039654980107660831 0 -0.039654980107660831 0.016611366333350919 0 0 0 -0.01015884207478851 -0.037731652088640599 -0.045607597358615415 0 -0.045607597358615415 0.062108266474176728 0 0 0 0.0060941535963840478 -0.0034787053137125823 0.0025264324494437274 0 0.0025264324494437274 -0.022093989221932731 0 0 0 -0.0063931736339113421 -0.03810123277110157 9.0236508646696859e-05 0 9.0236508646696859e-05 -0.018443512190103657 0 0 0 -0.014136186240301312 -0.087389346077399011 -0.009657600504779873 0 -0.009657600504779873 0.014271242828860609 0 0 0 -0.0182795258121346 0.00049511812467140093 -0.00261754889262375 0 -0.00261754889262375 -0.0085631631763247729 0 0 0 -0.0020170112629133152 -0.18442069208397829 0.027054451105667288 0 0.027054451105667288 -0.00079379888216313255 0 0 0 -0.046303622741535357 -0.034056948842301038 0.032286594933476742 0 0.032286594933476742 -0.004440744907260985 0 0 0 -0.0096244234373912274 -0.024913207976402729 -0.033304169405375506 0 -0.033304169405375506 0.01955753815400163 0 0 0 -0.0013389174556002192 -0.048021094209973005 0.0024471060670411796 0 0.0024471060670411796 0.018275954551887755 0 0 0 -0.0074362849145213211 -0.074841587754202105 -0.020474064772186065 0 -0.020474064772186065 0.017039023587722801 0 0 0 -0.014450641041619888 -0.032526871665908327 0.010290641057700129 0 0.010290641057700129 -0.00087606917659431571 0 0 0 -0.0083507352106256608 -0.028015960612029631 0.015298396636744595 0 0.015298396636744595 0.0092731254547077924 0 0 0 -0.0046857087893304623 -0.10618666350517872 -0.023014229622144895 0 -0.023014229622144895 -0.0021675226287601462 0 0 0 -0.027088546533484727 -0.050987374553893072 -0.037143488269908875 0 -0.037143488269908875 0.0054015109790652716 0 0 0 -0.011396465893706909 -0.15352951193942493 -0.018654017389639649 0 -0.018654017389639649 -0.0079713955033147137 0 0 0 -0.040375226860684864 -0.038250786450264807 0.055646562908435282 0 0.055646562908435282 0.0086757190001334195 0 0 0 -0.0073937668625327913 -0.041260908104328337 0.058112895275997056 0 0.058112895275997056 0.0072742044142506401 0 0 0 -0.0084966759225196531 -0.044224483207121468 0.060466726263181503 0 0.060466726263181503 0.0019730598987939274 0 0 0 -0.010562855827081608 -0.039736861767706855 -0.036039942682222992 0 -0.036039942682222992 0.0053079005543459346 0 0 0 -0.0086072403033401468 -0.047545823439131239 -0.035183945026889263 0 -0.035183945026889263 0.0026643749035178896 0 0 0 -0.011220362133903282 0.046219617760871981 0.044871015697407313 0 0.044871015697407313 0.079313152866673065 0 0 0 0.031383192656886286 -0.038925345564448113 -0.0023711532810459569 0 -0.0023711532810459569 -0.012982296208686238 0 0 0 -0.012976910443283586 -0.046006455650063331 0.003982009946215153 0 0.003982009946215153 -0.0153369886993312 0 0 0 -0.015335861087348633 -0.045884732263406253 0.0043576178616746251 0 0.0043576178616746251 0.0026653063238231091 0 0 0 -0.01080485648489578 -0.014678107961703601 -0.021739751763573636 0 -0.021739751763573636 0.10275612233589648 0 0 0 0.022019503593548234 -0.12503142554332605 -0.029379804598075022 0 -0.029379804598075022 -0.0036160336878501287 0 0 0 -0.032161864807794059 -0.036921928411930149 0.0024080392412009193 0 0.0024080392412009193 -0.015829626670729801 0 0 0 -0.013187888770664987 -0.18306752503612486 -0.0072568312608892183 0 -0.0072568312608892183 -0.004524582320588541 0 0 0 -0.046898026839178326 -0.1225446765797147 0.0019752994323907966 0 0.0019752994323907966 -0.0012811260650954781 0 0 0 -0.030956450661202558 -0.11104875583280893 -0.012516265041297325 0 -0.012516265041297325 0.00021031752565847661 0 0 0 -0.027709609576787697 -0.040773781322367704 0.0045670434491806543 0 0.0045670434491806543 -0.011939696439271933 0 0 0 -0.013178369440409909 -0.031749476890623712 -0.0066380828381519819 0 -0.0066380828381519819 0.023843049851772713 0 0 0 -0.0019766067597126458 -0.056259577827327482 0.01104785461787312 0 0.01104785461787312 0.045193995135103637 0 0 0 -0.0027663956730559595 -0.010290726428079579 0.06573499363931945 0 0.06573499363931945 0.014168206636562347 0 0 0 0.0009693700521207424 -0.032076838145382702 0.0041368900556477198 0 0.0041368900556477198 -0.016848632278873763 0 0 0 -0.012231367606064119 -0.025099035224045885 0.030106006108511107 0 0.030106006108511107 -0.0053568289234986466 0 0 0 -0.0076139660368856887 -0.021644524500834317 -0.03057726061253957 0 -0.03057726061253957 0.0071749392655551247 0 0 0 -0.0036173963088199645 -0.040980025805979363 0.0045609101660322848 0 0.0045609101660322848 -0.012588399538036185 0 0 0 -0.013392106336003882 -0.069846004339973719 0.0013830378033803208 0 0.0013830378033803208 0.058647117760277284 0 0 0 -0.002799721644924097 -0.011287402197163399 0.02428362736509676 0 0.02428362736509676 0.025976075637219154 0 0 0 0.0036721683600142718 -0.0064590395008985446 0.018477094595737764 0 0.018477094595737764 -0.0025407799899594963 0 0 0 -0.0022499548727143992 -0.0059013682105812926 -0.014772824321146849 0 -0.014772824321146849 -0.0059533958603994463 0 0 0 -0.0029636910177452958 -0.0090645810601192034 -0.02072815143278528 0 -0.02072815143278528 0.011003414182413351 0 0 0 0.00048470828057345372 -0.13752004818112198 0.0024127116630037193 0 0.0024127116630037193 0.033283749663242101 0 0 0 -0.026059074629469936 -0.08621698058992841 -0.024305017224017289 0 -0.024305017224017289 0.010028573182208567 0 0 0 -0.019047101851930037 -0.097177714139992544 -0.024266806541764635 0 -0.024266806541764635 0.0096842371037424435 0 0 0 -0.021873369259062414 -0.15314952848336605 0.054237588844295304 0 0.054237588844295304 0.022568523562015663 0 0 0 -0.03264525123033768 -0.1284322344224561 0.054424814366478891 0 0.054424814366478891 0.023598991242480771 0 0 0 -0.026208310794993861 -0.053010139374227341 0.002136981239470921 0 0.002136981239470921 -0.01436293488309168 0 0 0 -0.016843268564329751 0.0797356017280485 0.037250603868335203 0 0.037250603868335203 0.041367693482471601 0 0 0 0.030275823802629831 -0.1108243014259481 -0.0091049856546359855 0 -0.0091049856546359855 -0.025537653316265237 0 0 0 -0.034090488685553325 -0.090902542550677506 -0.00068181861003629822 0 -0.00068181861003629822 -0.017341875061724618 0 0 0 -0.027061104403100531 -0.07129854841621143 -0.016811106039407775 0 -0.016811106039407775 0.038358814172380719 0 0 0 -0.0082349335609576829 -0.070477205432832493 0.0037134035227723104 0 0.0037134035227723104 -0.010969565600612886 0 0 0 -0.02036169275836135 -0.070637683332025886 -0.013916218848936871 0 -0.013916218848936871 -0.023942023325927066 0 0 0 -0.023644926664488225 -0.15509099628648881 -0.023603785811479414 0 -0.023603785811479414 0.0031523140430793073 0 0 0 -0.037984670560852377 -0.15672808210912362 -0.024568304729438412 0 -0.024568304729438412 -0.00095587596337570746 0 0 0 -0.039420989518124859 -0.016342148399340228 0.03719312417063847 0 0.03719312417063847 0.048361297691065452 0 0 0 0.008004787322931417 -0.014486857668507547 -0.016672230470080152 0 -0.016672230470080152 0.0013040414875167272 0 0 0 -0.0032957040452477049 -0.0045994594495282048 -0.0032103276900626865 0 -0.0032103276900626865 0.022208235448033735 0 0 0 0.004402193999626285 -0.0017118104956725388 0.003848313559940475 0 0.003848313559940475 -0.0030005027716297761 0 0 0 -0.0011780783168255926 -0.070091932651788619 0.00018364199825000871 0 0.00018364199825000871 0.0020321775963671601 0 0 0 -0.017014938763855365 -0.0047908162341681326 -0.0049464133955254286 0 -0.0049464133955254286 0.078548347692953602 0 0 0 0.018439382864696346 -0.004743869985637611 -0.0025321961974594243 0 -0.0025321961974594243 0.14072539567061026 0 0 0 0.033995381421243226 -0.027938495128933073 -0.013895502974541951 0 -0.013895502974541951 0.016233364450501907 0 0 0 -0.0029262826696078489 -0.10220217555535728 -0.012009287354348981 0 -0.012009287354348981 0.012758950736581842 0 0 0 -0.022360806204693773 -0.00057697571695775052 0.00069442212780362889 0 0.00069442212780362889 -0.018733016766556809 0 0 0 -0.0048274981208786816 -0.15412993902634536 -0.032589131956122078 0 -0.032589131956122078 0.010021521944444944 0 0 0 -0.036027104270475063 -0.049876156457207117 0.003286863164981333 0 0.003286863164981333 0.01326212311152993 0 0 0 -0.0091535083364192825 -0.065685280267770263 -0.034982358445010603 0 -0.034982358445010603 0.029063483404875967 0 0 0 -0.0091554492157235878 -0.062770626311806577 -0.031853054628968036 0 -0.031853054628968036 0.02588884877861175 0 0 0 -0.0092204443832987759 -0.072703575338179727 0.0046636803248005058 0 0.0046636803248005058 -0.00045864746410508028 0 0 0 -0.018290555700571205 -0.08558259925559128 -0.020092197099656234 0 -0.020092197099656234 0.018221633133680526 0 0 0 -0.016840241530477779 -0.079565586559700571 0.0016437543405685359 0 0.0016437543405685359 -0.0012414288810486951 0 0 0 -0.020201753860187303 -0.065288895584683218 -0.015439561060382304 0 -0.015439561060382304 -0.017664180344657832 0 0 0 -0.020738268982335249 -0.10604327015327467 -0.011922824345456856 0 -0.011922824345456856 0.011376439348352974 0 0 0 -0.023666707701230388 -0.17506782666845216 0.021631531385153613 0 0.021631531385153613 0.040143977941524578 0 0 0 -0.033730962181731827 -0.11102791067710832 -0.010579775992501275 0 -0.010579775992501275 -0.025350736992946821 0 0 0 -0.034094661917513785 -0.089329364084624094 0.00056967053495968764 0 0.00056967053495968764 -0.020054819832908067 0 0 0 -0.027346045979383036 -0.083079843587959931 0.0054540436968693665 0 0.0054540436968693665 -0.0038396850118292709 0 0 0 -0.021729882149947304 -0.094140750383432809 -0.022532306038279225 0 -0.022532306038279225 -0.013948233695248308 0 0 0 -0.027022246019670279 -0.048540415030290447 -0.0045943816378956493 0 -0.0045943816378956493 -0.02339698677596444 0 0 0 -0.017984350451563734 -0.016426478858324989 -0.049446232683207858 0 -0.049446232683207858 0.057977724043712708 0 0 0 0.010387811296346916 -0.02896725226421535 0.0066975052281447213 0 0.0066975052281447213 -0.014145644480333589 0 0 0 -0.010778224186137227 -0.016114547777513089 0.022914420278425274 0 0.022914420278425274 -0.00069147946145076133 0 0 0 -0.0042015068097409625 -0.018245252923687616 -0.031161931825332445 0 -0.031161931825332445 0.022221719529551098 0 0 0 0.00099411665146575956 -0.081137639774995995 0.004210999204373983 0 0.004210999204373983 -0.0074389280471429398 0 0 0 -0.02214414195553472 -0.086585301889307867 -0.018010347162458869 0 -0.018010347162458869 -0.020194822200258124 0 0 0 -0.026695031022391513 -0.033740301731548995 0.0072430993327074105 0 0.0072430993327074105 -0.0074625406081868656 0 0 0 -0.010300710584933972 -0.039875964586925217 -0.03936866516627667 0 -0.03936866516627667 0.039774058850328697 0 0 0 -2.5476434149074301e-05 -0.088296911617301133 0.01725413078415056 0 0.01725413078415056 -0.001966712263738124 0 0 0 -0.02256590597025987 -0.016374350648943936 -0.017990336817556907 0 -0.017990336817556907 0.049454367028126889 0 0 0 0.0082700040947957798 -0.052597212277058047 -0.035898645632157722 0 -0.035898645632157722 0.004910220721096703 0 0 0 -0.011921747888990253 -0.073659636975931322 -0.013444408979783343 0 -0.013444408979783343 0.06393425469823058 0 0 0 -0.002431345569425182 -0.15852512296265298 -0.014665879619503719 0 -0.014665879619503719 -0.0042109207300960044 0 0 0 -0.040684010923187255 -0.11176603287186301 0.0023037101059630791 0 0.0023037101059630791 -0.002545244581891648 0 0 0 -0.028577819363438665 -0.016284255372072495 0.010369507189331117 0 0.010369507189331117 0.0036576655929813906 0 0 0 -0.0031566474447727935 -0.038334682096488042 0.0045884044537301567 0 0.0045884044537301567 -0.012825578935120374 0 0 0 -0.012790065257902104 -0.061007072552648811 -0.025101063702599402 0 -0.025101063702599402 0.011239827767484445 0 0 0 -0.012441811196291092 -0.16200333398432615 -0.018270606550305556 0 -0.018270606550305556 -0.0018508969383608034 0 0 0 -0.040963557730671729 -0.11580682781887396 0.0056155029571346299 0 0.0056155029571346299 -0.0010032709813999063 0 0 0 -0.029202524700068455 -0.055058559046541222 0.0063256765539869073 0 0.0063256765539869073 0.065557278257205989 0 0 0 0.0026246798026661865 -0.033309398425557024 -0.031556749533757644 0 -0.031556749533757644 0.0035470923656975017 0 0 0 -0.0074405765149649916 -0.034724563450422075 0.048410803749080744 0 0.048410803749080744 0.0097200114363484857 0 0 0 -0.0062511380035177311 -0.10058211361995253 0.00036245215793939689 0 0.00036245215793939689 0.01007128167659746 0 0 0 -0.022627707985838769 -0.085991605070748461 -0.0069002285702550181 0 -0.0069002285702550181 0.013243162375647056 0 0 0 -0.018187110673775344 -0.043122641318913232 -0.015278800992682473 0 -0.015278800992682473 0.025342644543874013 0 0 0 -0.0044449991937598049 -0.047160702765491988 -0.015896510378994366 0 -0.015896510378994366 0.035014138205482756 0 0 0 -0.003036641140002308 -0.060538362539827834 -0.0099521564961317609 0 -0.0099521564961317609 -0.025639144632814009 0 0 0 -0.021544376793160461 -0.058447712555890312 -0.0052500878868304793 0 -0.0052500878868304793 -0.022764676184561971 0 0 0 -0.020303097185113063 -0.064434220695389635 0.001475294136502452 0 0.001475294136502452 -0.015328441884866421 0 0 0 -0.019940665645064019 -0.06304671056726828 0.0044256612169836342 0 0.0044256612169836342 -0.01467423075787499 0 0 0 -0.019430235331285822 -0.033756781226358834 -0.007767051525719687 0 -0.007767051525719687 -0.0034608378279477048 0 0 0 -0.0093044047635766902 -0.064401503598556842 -0.0018052920578201931 0 -0.0018052920578201931 0.0695093943666589 0 0 0 0.0012769726920255243 -0.025539130942219986 0.010507602299641112 0 0.010507602299641112 9.2685729305923281e-05 0 0 0 -0.0063616113032285079 -0.029530496636816395 0.051375192901417843 0 0.051375192901417843 0.01704290036430578 0 0 0 -0.0031218990681276537 -0.046494270556633466 -0.032885708487522591 0 -0.032885708487522591 3.0174626255430326e-06 0 0 0 -0.011622813273501786 -0.022367620693643619 0.061898675123055469 0 0.061898675123055469 0.010803180760385889 0 0 0 -0.0028911099833144327 -0.020129616605008303 -0.0072993168408201775 0 -0.0072993168408201775 0.0013661279789542874 0 0 0 -0.0046908721565135023 -0.012982706285390833 0.0036669594031919703 0 0.0036669594031919703 0.014196761691938897 0 0 0 0.0003035138516370231 -0.066888736981520536 0.068442985471719453 0 0.068442985471719453 0.0017915390152434263 0 0 0 -0.016274299491569444 -0.043258890419780704 0.069929707367377025 0 0.069929707367377025 0.0071291322880129293 0 0 0 -0.0090324395329419715 -0.12231167565035771 -0.0082318943422174939 0 -0.0082318943422174939 -0.015628302869734413 0 0 0 -0.034484994630023025 -0.097112712412167596 -0.0013466080902121737 0 -0.0013466080902121737 -0.012201937784986976 0 0 0 -0.027328662549288636 -0.035327517384220186 -0.039327553069618743 0 -0.039327553069618743 0.019659551795220276 0 0 0 -0.0039169913972499359 0.00083044625047062892 -0.004472554711662793 0 -0.004472554711662793 0.077524910059615593 0 0 0 0.019588839077521458 -0.0064863816161903898 9.0258928865494248e-05 0 9.0258928865494248e-05 0.14595759710580058 0 0 0 0.034867803872402542 -0.065038444874157469 0.0010751618478299458 0 0.0010751618478299458 0.043328684306028487 0 0 0 -0.0054274401420322214 -0.020469292089973799 0.015905209155711354 0 0.015905209155711354 0.0071532368388690371 0 0 0 -0.0033290138127761923 -0.012362203488034296 -0.0021888600306267658 0 -0.0021888600306267658 -0.019039471663788943 0 0 0 -0.0078504187879557819 -0.024820115958292199 -0.0042384191969656593 0 -0.0042384191969656593 -0.023865631588259273 0 0 0 -0.012171436886637965 -0.03812173956702844 -0.014119155922235102 0 -0.014119155922235102 -0.0078124232669658511 0 0 0 -0.011483540708498607 -0.024883862649832333 0.018017630446515387 0 0.018017630446515387 -0.0055360775913086968 0 0 0 -0.0076049850602853963 -0.019183710186195413 -0.031472362693850897 0 -0.031472362693850897 0.033960561590542115 0 0 0 0.0036942128510867867 -0.0037264775936556305 0.0086852381085751329 0 0.0086852381085751329 0.022720330611363804 0 0 0 0.0047484632544270711 -0.0057341193620927822 -0.012648771571100031 0 -0.012648771571100031 0.063938752276069599 0 0 0 0.014551158228494177 -0.023787216964841207 0.038013561345471736 0 0.038013561345471736 0.021047701019373921 0 0 0 -0.00068487898636671041 -0.0208750848184307 -0.023692505766580885 0 -0.023692505766580885 -0.0064035471225902807 0 0 0 -0.0068196579852553008 -0.035307765570766925 0.0050388803771195621 0 0.0050388803771195621 -0.012227607328638597 0 0 0 -0.011883843224851377 -0.031478238419143809 0.0082151516664964556 0 0.0082151516664964556 -0.0080616677573037351 0 0 0 -0.0098849765441118842 -0.026517181957034008 0.043282669519145056 0 0.043282669519145056 0.030880319313085103 0 0 0 0.0010907843390128846 -0.026752397269185435 -0.024574903017741345 0 -0.024574903017741345 0.0018615363081333491 0 0 0 -0.006222715240263188 -0.095844467327913116 -0.012026229663706268 0 -0.012026229663706268 -0.024559828650099744 0 0 0 -0.030101073994503218 -0.082111555886042839 0.0021522612852596292 0 0.0021522612852596292 -0.017761565404115626 0 0 0 -0.024968280322539612 -0.00028846340451627039 0.076003524875001505 0 0.076003524875001505 0.027038419638403255 0 0 0 0.0066874890584717184 -0.14221087181955322 -0.0037795623321952481 0 -0.0037795623321952481 -0.024325858503514666 0 0 0 -0.041634182580766954 -0.10842078471927709 -0.0048395479958101058 0 -0.0048395479958101058 -0.018014529259787207 0 0 0 -0.031608828494766088 -0.036478764548999454 0.015577110209172185 0 0.015577110209172185 -0.0064227587034295652 0 0 0 -0.010725380813107588 -0.017083936499504904 -0.021993906443201428 0 -0.021993906443201428 0.064148650253796013 0 0 0 0.01176617843857275 -0.059831088952079774 -0.007786428845994231 0 -0.007786428845994231 0.087457269391180342 0 0 0 0.0069065451097751265 -0.092468086048932752 -0.0018570006129816075 0 -0.0018570006129816075 0.083599831608958231 0 0 0 -0.0022170636099936303 -0.058826332448543739 -0.036904458533462137 0 -0.036904458533462137 0.01118218895844536 0 0 0 -0.011911035872524511 -0.029688728590564095 -0.027183067767485719 0 -0.027183067767485719 0.0042004070585296982 0 0 0 -0.006372080383008627 -0.064851785871192003 0.078946782084670319 0 0.078946782084670319 0.020978726676933679 0 0 0 -0.010968264798564498 -0.12529757619256177 0.051538488130046467 0 0.051538488130046467 0.026483291266754971 0 0 0 -0.024703571231451726 -0.085413518767526342 -0.023732230808598043 0 -0.023732230808598043 0.011081554919736503 0 0 0 -0.018582990961947488 -0.0049113238047624463 -0.054644912304577992 0 -0.054644912304577992 0.041287052697017934 0 0 0 0.0090939322230639275 -0.018690169242347177 0.0011136093900835364 0 0.0011136093900835364 0.04295494655442178 0 0 0 0.006066194328018748 -0.024687127259906072 -0.0075644105454303612 0 -0.0075644105454303612 0.082422226704158441 0 0 0 0.014433774861063065 -0.066490553111202944 -0.021692262456073419 0 -0.021692262456073419 0.041935406363535238 0 0 0 -0.0061387866869169125 -0.060294896514684698 -0.015444949288754981 0 -0.015444949288754981 0.040610883050171409 0 0 0 -0.0049210033661283153 -0.042306826148141449 0.021923087075525025 0 0.021923087075525025 0.099629492238964779 0 0 0 0.014330666522705822 -0.021173213976936278 -0.03020835862523169 0 -0.03020835862523169 0.056925728522391861 0 0 0 0.0089381286363638957 -0.017218251826208952 0.035166423135547742 0 0.035166423135547742 0.070363930256772456 0 0 0 0.013286419607640987 -0.019140524837627737 -0.014005912296020329 0 -0.014005912296020329 -0.0054972504571288994 0 0 0 -0.0061594438236891591 -0.060147146129706071 0.012445774237169804 0 0.012445774237169804 0.059586333527470475 0 0 0 -0.00014020315055890409 -0.042867975417029192 -0.0066004308460310135 0 -0.0066004308460310135 0.018916207856996728 0 0 0 -0.0059879418900081714 -0.02777030735217409 -0.0067921941992384882 0 -0.0067921941992384882 -0.018437987445152126 0 0 0 -0.011552073699331616 -0.041759761333254992 0.020079754670459055 0 0.020079754670459055 0.039551383104835129 0 0 0 -0.00055209455710497201 -0.040090035133309956 -0.0025519483415349827 0 -0.0025519483415349827 -0.023891004174217544 0 0 0 -0.015995259826881877 -0.10674326176446264 -0.010190036260577526 0 -0.010190036260577526 0.0014223873520826658 0 0 0 -0.026330218603094924 -0.064265845437192062 -0.0090046425990926524 0 -0.0090046425990926524 -0.021733883061478557 0 0 0 -0.021499932124667658 -0.026869276450997247 0.011821438734621683 0 0.011821438734621683 -0.0017125874117617304 0 0 0 -0.0071454659656897375 -0.056587677017407981 0.0091716755816160685 0 0.0091716755816160685 0.083908157427871666 0 0 0 0.0068301201026159247 -0.17653419157364991 0.021376943553261304 0 0.021376943553261304 0.0017053168065479518 0 0 0 -0.043707218691775518 -0.038434634371739523 0.004192893311486175 0 0.004192893311486175 -0.014931835605949142 0 0 0 -0.013341617494422172 -0.028399141661562467 0.0015705767845942964 0 0.0015705767845942964 -0.0062394462756272806 0 0 0 -0.0086596469842974352 -0.049246291095826997 -0.02155167828323018 0 -0.02155167828323018 0.004450983844938472 0 0 0 -0.011198826812722149 -0.056298660947115331 -0.026537066901886064 0 -0.026537066901886064 -6.2912004396009635e-05 0 0 0 -0.014090393237877863 -0.048111704249496443 -0.010542041847066565 0 -0.010542041847066565 -0.019836551331882002 0 0 0 -0.016987063895344618 -0.034293961920918437 0.0033806970428824109 0 0.0033806970428824109 -0.015966600755806845 0 0 0 -0.01256514066918132 -0.032780604106542939 -0.0031174239179672242 0 -0.0031174239179672242 -0.0035072521253982913 0 0 0 -0.0090719640579853041 -0.051654929136659894 -0.024004903772757769 0 -0.024004903772757769 0.014510164368277345 0 0 0 -0.0092861911920956719 -0.021418432145829613 0.00046617635642337563 0 0.00046617635642337563 0.024848993284419585 0 0 0 0.0008576402846474096 -0.11213241184316909 -0.033625674091751559 0 -0.033625674091751559 -0.0048340193845060053 0 0 0 -0.029241607806918798 -0.0066318371089865435 0.021070216118080243 0 0.021070216118080243 0.12268482559075622 0 0 0 0.029013247120442148 -0.026678146145841033 -0.010308004206728061 0 -0.010308004206728061 -0.0039637121955683474 0 0 0 -0.0076604645853521475 -0.032049222580737634 0.0071820752292367108 0 0.0071820752292367108 -0.010280511129429813 0 0 0 -0.010582433427541865 -0.029095776913385121 0.0077679439774324 0 0.0077679439774324 -0.010162604137062516 0 0 0 -0.0098145952626119051 -0.028890478919343821 0.019834785584196379 0 0.019834785584196379 0.0038341879640046983 0 0 0 -0.0062640727388343365 -0.027204494242128785 -0.028818756468006634 0 -0.028818756468006634 0.040294131745544526 0 0 0 0.0032724093758536021 -0.031946848818131104 0.013087956008005728 0 0.013087956008005728 0.010085576942559966 0 0 0 -0.0054653179688927793 -0.040562501867390986 0.010686986465300086 0 0.010686986465300086 0.0089959570712069767 0 0 0 -0.0078916361990460041 -0.032529392808276367 0.0072560067339403206 0 0.0072560067339403206 -0.0085884732529101226 0 0 0 -0.010279466515296621 -0.098158264837616249 0.0047352488954061842 0 0.0047352488954061842 -0.0018900522304073075 0 0 0 -0.0250120792670059 -0.060190212543378523 -0.0059995347001546434 0 -0.0059995347001546434 0.019250367319229522 0 0 0 -0.010234961306037238 -0.041751287629819542 -0.010103127103855497 0 -0.010103127103855497 0.022747496689291491 0 0 0 -0.0047509477351320023 -0.10811862914382031 0.0050989335012788031 0 0.0050989335012788031 -0.0045166675333899522 0 0 0 -0.028158824169302567 0.044614216091225192 0.10018142889250137 0 0.10018142889250137 0.072709218151244981 0 0 0 0.029330858560617581 -0.025766879614948834 0.035916326282815075 0 0.035916326282815075 0.0065147804619041239 0 0 0 -0.0048130247882611776 -0.022469060037741073 -0.031901388353379218 0 -0.031901388353379218 0.0045757742781269428 0 0 0 -0.0044733214399035326 -0.050925490956371472 0.00056647449603981857 0 0.00056647449603981857 0.0097271976434476493 0 0 0 -0.010299573328230956 -0.036221939214470908 0.0032633178563063405 0 0.0032633178563063405 -0.014804287412633696 0 0 0 -0.012756556656776153 -0.0023177573084467856 -0.0019826243959401059 0 -0.0019826243959401059 0.026316150396154814 0 0 0 0.0059995982719269897 -0.036995418450967932 -0.012663288579326998 0 -0.012663288579326998 0.0034000571014461967 0 0 0 -0.0083988403373804199 -0.0410281036554902 -0.018730873005576854 0 -0.018730873005576854 -0.013881733144629982 0 0 0 -0.013727459200030101 -0.039295766635845719 0.0064987436593328327 0 0.0064987436593328327 -0.0014838822043337987 0 0 0 -0.010194912210044881 -0.089845765188572235 -0.0223732621786496 0 -0.0223732621786496 0.00049489012234826824 0 0 0 -0.022337718766555936 -0.07284669657197651 -0.027692614470894439 0 -0.027692614470894439 0.0062003480833783264 0 0 0 -0.016661587122149546 -0.035297462044017971 0.0012403674557620861 0 0.0012403674557620861 -0.011770770194088245 0 0 0 -0.011767058059526554 -0.10256850077396407 0.056879824986167837 0 0.056879824986167837 0.0097201567002618283 0 0 0 -0.023212086018425504 -0.13743142805253483 0.046542616513205459 0 0.046542616513205459 -0.00085600091375859222 0 0 0 -0.034571857241573412 -0.011442474611220055 0.0078865748222462506 0 0.0078865748222462506 0.035116205747836915 0 0 0 0.0059184327841541595 -0.013550321942537025 -0.013996209214623162 0 -0.013996209214623162 0.067877664594887532 0 0 0 0.013581835663087682 -0.018176202829840171 -0.019144239502424401 0 -0.019144239502424401 0.011929868911643104 0 0 0 -0.0015615834795492667 -0.029989886532051979 -0.00121971529551268 0 -0.00121971529551268 -0.013734824272841895 0 0 0 -0.010931177701223427 0.014930489383455758 0.047798302247769528 0 0.047798302247769528 0.12497150919245131 0 0 0 0.034975499643976782 -0.042142282185798408 -0.0064866690403458001 0 -0.0064866690403458001 -0.016202425881424926 0 0 0 -0.01458617701680584 -0.056525138541773205 -0.011233697727057346 0 -0.011233697727057346 0.040240993278304188 0 0 0 -0.0040710363158672422 0.033827277848772153 0.033594044579170812 0 0.033594044579170812 0.026498186982744087 0 0 0 0.015081366207878921 -0.051073341975494874 2.2360852180203922e-05 0 2.2360852180203922e-05 0.0078617146856410306 0 0 0 -0.010802906822463456 -0.023150512690476743 0.040674673584423005 0 0.040674673584423005 0.01254295590039467 0 0 0 -0.0026518891975202408 -0.022231195237128687 -0.026584338090440474 0 -0.026584338090440474 0.0032030978629220552 0 0 0 -0.0047570243435517412 -0.049655664157743494 0.0016097963280096664 0 0.0016097963280096664 -0.0051879379375291707 0 0 0 -0.013710900523818162 -0.079145900796679991 -0.019163890467976882 0 -0.019163890467976882 0.065634489159899112 0 0 0 -0.0033778529091952197 -0.02335114026932561 0.032100265815796281 0 0.032100265815796281 0.074268731079819794 0 0 0 0.012729397702623491 -0.021261641516993501 -0.013293357900636238 0 -0.013293357900636238 0.0022667222768466555 0 0 0 -0.0047487298100367115 -0.15012399342449528 0.0021890600744448531 0 0.0021890600744448531 0.0013089526703661258 0 0 0 -0.037203760188532276 -0.26204899783653196 -0.0084627255841256532 0 -0.0084627255841256532 0.0022317063765550094 0 0 0 -0.064954322864994155 -0.03758337374051457 0.026408815119896387 0 0.026408815119896387 0.11626667363764498 0 0 0 0.01967082497428263 -0.083570236667201786 0.0069726133142698765 0 0.0069726133142698765 -0.00030555882866212247 0 0 0 -0.020968948873965984 0.015256305086150466 -0.0011938948076453682 0 -0.0011938948076453682 0.067088832306687274 0 0 0 0.020586284348209437 0.0078879832840832442 0.0018965627737852486 0 0.0018965627737852486 0.086863091905577283 0 0 0 0.023687768797415187 0.0057217627814307725 -0.0042591184147011685 0 -0.0042591184147011685 0.16446286359426687 0 0 0 0.042546156593924467 0.020610914630476262 -0.0020839962449100136 0 -0.0020839962449100136 0.14074376223205798 0 0 0 0.04033866921563356 -0.017826214337049714 0.0085807884733524742 0 0.0085807884733524742 0.0062073915432881988 0 0 0 -0.0029047056984404657 -0.018887790745757749 -0.015917835377318612 0 -0.015917835377318612 0.03113132016835829 0 0 0 0.003060882355650052 -0.022404812515030709 0.0047895624228133649 0 0.0047895624228133649 0.11819639374247126 0 0 0 0.023947895306860173 -0.019605720244920133 -0.011985190629047293 0 -0.011985190629047293 0.057804767521761558 0 0 0 0.0095497618192104117 -0.082003241011941841 0.0054004023226954245 0 0.0054004023226954245 0.057090580094747517 0 0 0 -0.0062281652292985809 -0.0031886044479594311 0.028283174287133228 0 0.028283174287133228 0.058101280165259617 0 0 0 0.013728168929325602 -0.010220651623346733 0.0090447981604834249 0 0.0090447981604834249 -0.00096214782137415966 0 0 0 -0.0027956998611795569 -0.0078988312181678122 -0.0077635097585373458 0 -0.0077635097585373458 -0.0021874639532364348 0 0 0 -0.0025215737928510062 -0.0063001033627991809 -0.024530966435343526 0 -0.024530966435343526 0.025529714346880006 0 0 0 0.0048074027460200952 -0.042694017196641412 0.005365412402956668 0 0.005365412402956668 -0.0023616401729383701 0 0 0 -0.011263914342394956 -0.018504253004441362 0.027247227318020428 0 0.027247227318020428 0.071202100671165058 0 0 0 0.013174461916680813 -0.0044696747628111405 -0.006759329790049895 0 -0.006759329790049895 -0.0018090426646759084 0 0 0 -0.0015696793568714812 -0.064789642684991336 -0.0081113381792038731 0 -0.0081113381792038731 0.082337550359964082 0 0 0 0.004386976918743196 -0.0052066346337826808 0.0080380633442977967 0 0.0080380633442977967 -0.0019492255462036923 0 0 0 -0.0017889650449967043 -0.016719177316654843 -0.02470492915280742 0 -0.02470492915280742 0.036644639170563487 0 0 0 0.0049813654634771609 -0.013434569189085033 -0.029972492403034345 0 -0.029972492403034345 0.023814782019169201 0 0 0 0.0025950532075210697 -0.054689609107806764 -0.02574441993616243 0 -0.02574441993616243 0.0075394816279123478 0 0 0 -0.011787531869973583 -0.054181360420019004 -0.024658167277765417 0 -0.024658167277765417 0.0084118801953274591 0 0 0 -0.011442370056172907 -0.042506529247255412 -0.010277463498134711 0 -0.010277463498134711 -0.010246434818240294 0 0 0 -0.013188241016373932 -0.029106339265368264 0.084865633827711617 0 0.084865633827711617 0.022211714874166288 0 0 0 -0.0017236560978003967 -0.084574825148071936 -0.010028728955538635 0 -0.010028728955538635 -0.00046960177973742745 0 0 0 -0.021261106731952389 0.0071419802693901135 -0.019682990583819102 0 -0.019682990583819102 0.045998989000253038 0 0 0 0.013285242317410823 -0.033114790777919345 -0.0090631414141451871 0 -0.0090631414141451871 0.030003307739819268 0 0 0 -0.00077787075952504003 -0.022389862113749152 0.022687690273850977 0 0.022687690273850977 0.02279320838609554 0 0 0 0.0001008365680865847 -0.03321933276043243 -0.011372149348204491 0 -0.011372149348204491 -0.013314642191835091 0 0 0 -0.01163349373806688 -0.035282216737868743 -0.012185662976428015 0 -0.012185662976428015 -0.013288740187454851 0 0 0 -0.012142739231330912 -0.2863193145418893 0.0071180672387916892 0 0.0071180672387916892 0.0083422422238321747 0 0 0 -0.069494268079514365 -0.15470940442917983 -0.0034108730138292286 0 -0.0034108730138292286 0.003693188407255743 0 0 0 -0.037754054005480986 -0.047250147366208022 -0.0051620953833697312 0 -0.0051620953833697312 -0.015752150994533875 0 0 0 -0.015750574590185473 -0.05370814082867207 0.0037862209660889279 0 0.0037862209660889279 -0.017902274745002729 0 0 0 -0.0179026038934187 -0.01390102308875827 0.0077773460218953788 0 0.0077773460218953788 0.0095115805215015559 0 0 0 -0.0010973606418142046 -0.033172131736153063 0.019460904404905284 0 0.019460904404905284 0.026561212011662852 0 0 0 -0.0016527299311225561 -0.026155761711977876 0.014204593524257535 0 0.014204593524257535 0.0065118166295378421 0 0 0 -0.0049109862706100404 -0.14364144513717897 -0.015430106382852107 0 -0.015430106382852107 -0.013026683608332836 0 0 0 -0.03916703218637798 -0.1080272872393141 0.0019488539586675485 0 0.0019488539586675485 -0.0074052295657601741 0 0 0 -0.028858129201268588 0.048436654455443762 0.040809998605592146 0 0.040809998605592146 0.034031284644745696 0 0 0 0.020616984775047253 -0.12115153775704578 -0.014357663833971964 0 -0.014357663833971964 -0.0079747791720413443 0 0 0 -0.032281579232271797 -0.096975203800641063 0.0017641614988126112 0 0.0017641614988126112 -0.0051105390382813753 0 0 0 -0.025521435709730624 -0.039012391603402585 -0.0054637581858359013 0 -0.0054637581858359013 -0.0011103727151959841 0 0 0 -0.010030691079649545 0.035201085129166421 0.11881258519068211 0 0.11881258519068211 0.075613839909824954 0 0 0 0.027703731259747677 -0.018150867124827497 0.011412429253576641 0 0.011412429253576641 -0.0018914641144729127 0 0 0 -0.0050105828098250954 -0.034292271680354092 -0.0085927572593393065 0 -0.0085927572593393065 0.021794278420821822 0 0 0 -0.0031244983148830674 -0.078268722894648951 -0.0084739965595046415 0 -0.0084739965595046415 -0.026084649056791139 0 0 0 -0.02608834298786002 -0.072358071442112593 0.0018331438067868699 0 0.0018331438067868699 -0.024114508202274183 0 0 0 -0.024118144911096692 -0.13697386527128658 0.0039247380951483923 0 0.0039247380951483923 -0.00062524610666803149 0 0 0 -0.034399777844488617 -0.21848703156437282 -0.011357189204651147 0 -0.011357189204651147 -0.0012608598019931694 0 0 0 -0.054936972841591498 -0.082011180502158748 -0.014835780521546826 0 -0.014835780521546826 0.029454150602248874 0 0 0 -0.013139257474977517 0.0071538016208126387 -0.019319951689139914 0 -0.019319951689139914 0.030433904496799835 0 0 0 0.0093969265294032156 -0.074410501471267237 -0.01431915492886178 0 -0.01431915492886178 0.061870850090957122 0 0 0 -0.0031349128450775116 -0.040941473318923352 0.014509942847222686 0 0.014509942847222686 0.03664940000919327 0 0 0 -0.0010730183274325136 -0.053334236708220191 0.0081478020627242416 0 0.0081478020627242416 0.041849857483490585 0 0 0 -0.0028710948061824054 -0.0054375007589693956 0.023171817033522932 0 0.023171817033522932 0.038616486720167625 0 0 0 0.0082947464902995462 0.0078643199425506155 0.018774473332636543 0 0.018774473332636543 0.022217691585724966 0 0 0 0.0075205028820688746 -0.021702902668881474 -0.012436820698218776 0 -0.012436820698218776 -0.006473479981146113 0 0 0 -0.0070440956625068551 -0.068273486224269611 -0.019966597803387554 0 -0.019966597803387554 0.031056484866454306 0 0 0 -0.0093042503394538296 -0.08090515732080715 -0.036484928297058003 0 -0.036484928297058003 0.074938828794895246 0 0 0 -0.0014915821314779448 -0.023268318853088076 -0.061543337039903639 0 -0.061543337039903639 0.12015974463496892 0 0 0 0.02422285644547021 -0.13082243903417154 0.0034404171170583642 0 0.0034404171170583642 -0.00088065289342711961 0 0 0 -0.032925772981899665 -0.19864772830023389 -0.0096927660317575968 0 -0.0096927660317575968 -0.0016515604642027282 0 0 0 -0.050074822191109175 -0.0013274412739226269 -0.0020844566186798419 0 -0.0020844566186798419 -0.00614408882999295 0 0 0 -0.0018678825259788943 -0.025426241979915443 -0.029207682804782115 0 -0.029207682804782115 0.093202016980682645 0 0 0 0.016943943750191759 -0.028710290249774846 0.012037752293347734 0 0.012037752293347734 -0.0028754570406402426 0 0 0 -0.0078964368226037713 -0.11615867979550887 -0.013896088714643668 0 -0.013896088714643668 -0.017467522455510465 0 0 0 -0.033406550562754843 -0.093470964997035597 0.0017225686834616578 0 0.0017225686834616578 -0.011361511563608519 0 0 0 -0.026208119140161024 -0.051850459913875206 0.0010092583571682011 0 0.0010092583571682011 -0.0062476034828417909 0 0 0 -0.014524515849179246 -0.074492495556025023 -0.010100502157949649 0 -0.010100502157949649 0.067152328534573549 0 0 0 -0.0018350417553628243 -0.023948927764275929 -0.012388651313893995 0 -0.012388651313893995 0.040414128650533732 0 0 0 0.0041163002215645061 -0.053966272098768531 0.0031146181531830023 0 0.0031146181531830023 -0.0036516651912912312 0 0 0 -0.014404484322514949 -0.065630007807478075 0.016892822928746831 0 0.016892822928746831 0.00066098773232781127 0 0 0 -0.016242255018787732 -0.021635330971333633 -0.021850709991662276 0 -0.021850709991662276 0.054556732101908922 0 0 0 0.0082303502826440722 -0.014902370035259349 -0.020116843425924125 0 -0.020116843425924125 0.046511305089871779 0 0 0 0.0079022337636530104 -0.052356950323329821 -0.031344045629034215 0 -0.031344045629034215 0.043949161420478833 0 0 0 -0.0021019472257127747 -0.052708370674322075 -0.018145227186950941 0 -0.018145227186950941 0.035729849160223703 0 0 0 -0.0042446303785245998 -0.052354201802138116 -0.0046555477981936582 0 -0.0046555477981936582 0.028982538261964688 0 0 0 -0.0058429158850433552 -0.071691158138672231 -0.010833975266236653 0 -0.010833975266236653 0.063344476161348889 0 0 0 -0.0020866704943308806 -0.00049604232605560128 0.023079930046041142 0 0.023079930046041142 0.14109475417182349 0 0 0 0.03514967796144175 0.00024297171811149543 0.00052653422187054488 0 0.00052653422187054488 0.0010968160541646732 0 0 0 0.00033494694306879236 -0.0037312930429669877 -0.0194442514558677 0 -0.0194442514558677 0.074355984991841373 0 0 0 0.017656172987218832 0.00056106027523261659 -0.0011114745830527184 0 -0.0011114745830527184 0.0014341549191869696 0 0 0 0.00049880379860445245 -0.053161864758386614 0.00023956919353754907 0 0.00023956919353754907 0.031325463674466592 0 0 0 -0.0054591002709800038 -0.055059164668334076 -0.0031691726478577592 0 -0.0031691726478577592 0.020262735348739416 0 0 0 -0.0086991073298986789 -0.05129860181158017 -0.015432889699360422 0 -0.015432889699360422 0.028876380217518649 0 0 0 -0.0056055553985153439 -0.17472014782930398 -0.015438087459073949 0 -0.015438087459073949 0.0027195792896085036 0 0 0 -0.043000142134923924 -0.20067984810366812 -0.024261437068111902 0 -0.024261437068111902 0.0035336774621949063 0 0 0 -0.04928654266036829 -0.048141752020604507 -0.025011101273694013 0 -0.025011101273694013 0.0011889852777826337 0 0 0 -0.01173819168570548 -0.062603739332916353 -0.0042206256544960116 0 -0.0042206256544960116 0.0081041632285098752 0 0 0 -0.013624894026101599 -0.028133880398106229 -0.042330219468722646 0 -0.042330219468722646 0.066771882625446394 0 0 0 0.0096595005568350517 -0.090765198766503102 0.002802145073358582 0 0.002802145073358582 -0.0098453100170397163 0 0 0 -0.025152627195885721 -0.078669369434968231 0.0022588563390399836 0 0.0022588563390399836 -0.012822108406819101 0 0 0 -0.022872869460446834 -0.08592308766039132 -0.013193193074921776 0 -0.013193193074921776 -0.020593484742285784 0 0 0 -0.026629143100669279 -0.10940216672147127 -0.015853421194425715 0 -0.015853421194425715 -0.019118879264160407 0 0 0 -0.032130261496407922 -0.069407663673929032 -0.026996974889260228 0 -0.026996974889260228 0.00048824751208398354 0 0 0 -0.017229854040461068 -0.05498062836616513 -0.027865360282489968 0 -0.027865360282489968 0.0020583986123137166 0 0 0 -0.013230557438462909 -0.050348219731267997 -0.0042749676805795148 0 -0.0042749676805795148 -0.023141150727004695 0 0 0 -0.018372342614568174 -0.048444351777666421 -0.0058931785959395683 0 -0.0058931785959395683 -0.022671079486445735 0 0 0 -0.017778857816028042 -0.053881574308950006 0.0048697756032799163 0 0.0048697756032799163 -0.013619603394437602 0 0 0 -0.016875294425846902 -0.057768966114608383 0.002292616707226133 0 0.002292616707226133 -0.01801441265897144 0 0 0 -0.018945844693394956 -0.029972630521140742 0.044786135834262719 0 0.044786135834262719 0.017584797802219221 0 0 0 -0.0030969581797302137 -0.030283040705660236 -0.029764370268138718 0 -0.029764370268138718 -0.0021165982115505244 0 0 0 -0.0080999097293028566 -0.07201672114077555 0.00091318953364575043 0 0.00091318953364575043 -0.010274739319474792 0 0 0 -0.020572865115062598 -0.063562643926280971 -0.010240453268811737 0 -0.010240453268811737 -0.020455828065341478 0 0 0 -0.021004617997905619 -0.050229516413385647 -0.0090896246865371302 0 -0.0090896246865371302 0.014564136672494288 0 0 0 -0.0089163449352228502 -0.083061920707828987 0.002231769565645865 0 0.002231769565645865 -0.0075100323215069598 0 0 0 -0.022642988257333969 -0.091091211031438329 -0.015132535575010779 0 -0.015132535575010779 -0.013426299757500797 0 0 0 -0.026129377697234755 -0.10410634802691887 -0.017592104485746635 0 -0.017592104485746635 0.11635316299393383 0 0 0 0.003061703741753713 -0.056218201169400045 -0.0057951676940665026 0 -0.0057951676940665026 0.016028206938424022 0 0 0 -0.010047498557744013 -0.096356302354260889 -0.0073853304454899703 0 -0.0073853304454899703 -0.032131118546255694 0 0 0 -0.032121855225129149 -0.081980274513508172 -0.00027251306118788576 0 -0.00027251306118788576 -0.027333631444357284 0 0 0 -0.027328476489466368 0.013290428870286156 0.015013888229228518 0 0.015013888229228518 0.042622467747075177 0 0 0 0.013978224154340316 -0.0079485796815166321 -0.0020761788720500551 0 -0.0020761788720500551 -0.022254781080419894 0 0 0 -0.0075508401904840206 -0.072805407960425297 -0.00068675737250541158 0 -0.00068675737250541158 0.011231168193976598 0 0 0 -0.01539355994161215 0.00040292854628048991 -0.032737615765595696 0 -0.032737615765595696 0.02363469987260558 0 0 0 0.0060094071047215869 -0.054169175255962695 0.002108536009884812 0 0.002108536009884812 0.031610231716604251 0 0 0 -0.0056397358848396121 -0.061945779939151034 -0.012622647597239713 0 -0.012622647597239713 0.034316273244941076 0 0 0 -0.0069073766735524775 -0.16853146951561943 -0.0032532269278927085 0 -0.0032532269278927085 -0.0133241533168229 0 0 0 -0.045463905708110583 -0.1242443981658419 -0.0048194976808314388 0 -0.0048194976808314388 -0.010407299305064732 0 0 0 -0.033662924367726652 -0.020499676295382324 -0.022515047782393036 0 -0.022515047782393036 0.042272740959859723 0 0 0 0.0054432661661193427 -0.04766597045050916 0.00801739340588567 0 0.00801739340588567 0.020705386030789731 0 0 0 -0.0067401461049298606 -0.055103128409955432 -0.0072293271216288812 0 -0.0072293271216288812 0.010095108898382249 0 0 0 -0.011252004877893296 -0.10199633056933055 -0.00098753672392683234 0 -0.00098753672392683234 0.0065391520407004911 0 0 0 -0.023864294632157501 -0.098950361948710985 0.019859632734032573 0 0.019859632734032573 0.00081763353103392333 0 0 0 -0.024533182104419571 -0.059332942420058737 -0.0064282008042203104 0 -0.0064282008042203104 0.030973719533541999 0 0 0 -0.0070898057216292054 -0.057617465807488846 -0.022677855005722017 0 -0.022677855005722017 0.014891588097956876 0 0 0 -0.010681469427383031 -0.05829970237058351 -0.0028492672230130134 0 -0.0028492672230130134 0.011709929054191215 0 0 0 -0.011647443329098055 -0.045526822115994445 0.0070781822984381133 0 0.0070781822984381133 0.026128563907396991 0 0 0 -0.004849564552149379 -0.061000494451756954 -0.025442587310780918 0 -0.025442587310780918 0.017111908821962674 0 0 0 -0.010972146407448563 0.04634650989564483 0.019593549094977791 0 0.019593549094977791 0.10725797018633709 0 0 0 0.038401120020495519 -0.066065767241089535 0.0023865708441395423 0 0.0023865708441395423 0.0048311066721459239 0 0 0 -0.015308665142235889 -0.053325934836863542 0.013669022112776047 0 0.013669022112776047 -0.0031221700450583256 0 0 0 -0.014112026220479912 -0.021852998747100949 -0.018046249458292141 0 -0.018046249458292141 0.060187641691536786 0 0 0 0.0095836607361088899 -0.0085925711559726725 -0.017018550080834305 0 -0.017018550080834305 0.042465915703596258 0 0 0 0.0084683361369058407 -0.13598706013614448 -0.024791830304895596 0 -0.024791830304895596 0.036834087887723688 0 0 0 -0.02478824306210517 -0.0046588933836125279 -0.017861460474907213 0 -0.017861460474907213 -0.015539334873980987 0 0 0 -0.0050495570643983856 -0.1299415709463872 0.0058576514710690641 0 0.0058576514710690641 0.0022561710339346064 0 0 0 -0.031921349978113134 -0.21621323675202736 -0.022122960463455688 0 -0.022122960463455688 0.0065041945897571923 0 0 0 -0.052427260540567511 -0.12518830664640068 -0.00071444088584196597 0 -0.00071444088584196597 0.00066645743098819876 0 0 0 -0.031130462303853065 -0.21239400924706453 -0.0038985296431266747 0 -0.0038985296431266747 0.003160077076714396 0 0 0 -0.052308483042587561 -0.10747872841333043 -0.0046567746328228746 0 -0.0046567746328228746 -0.01486233409910722 0 0 0 -0.030585265628109429 -0.14167135640128961 -0.0025875012022599461 0 -0.0025875012022599461 -0.018268372707904469 0 0 0 -0.039984932277298525 -0.064268705838651255 -0.016791561064150813 0 -0.016791561064150813 0.046279513574229228 0 0 0 -0.0044972980661055068 -0.059344148749846025 -0.026400225295194285 0 -0.026400225295194285 0.058667431775336787 0 0 0 -0.00016917924362731818 -0.018308146657458196 -0.0046800443873991626 0 -0.0046800443873991626 0.065836982460223181 0 0 0 0.011882208950691281 -0.013110319732543091 -0.00065745466495853444 0 -0.00065745466495853444 0.1288537490647107 0 0 0 0.028935857333041853 -0.027738932823399218 0.0061907191256771188 0 0.0061907191256771188 0.041610987337048794 0 0 0 0.0034680136284123836 -0.020684822270306019 0.0021980239064206264 0 0.0021980239064206264 0.11156087349444294 0 0 0 0.02271901280603425 -0.031198388455568771 -0.010845475454542342 0 -0.010845475454542342 0.056633934783307582 0 0 0 0.0063588865819346196 -0.059857153845288238 -0.0025990332234074945 0 -0.0025990332234074945 0.012614061430856315 0 0 0 -0.011810773103607996 -0.041629607407113536 -0.026611527806377384 0 -0.026611527806377384 0.04899980938811227 0 0 0 0.0018425504952496591 -0.061551576413649223 -0.028297678020489651 0 -0.028297678020489651 0.044318203495089636 0 0 0 -0.0043083432296399105 -0.058467333362260988 -0.0026352383050454444 0 -0.0026352383050454444 0.057001388863345576 0 0 0 -0.00036648612472886186 -0.1335911300968422 0.019444618499458877 0 0.019444618499458877 -0.0022135867496704265 0 0 0 -0.033951179211627824 -0.071818250630584959 -0.010076631982014535 0 -0.010076631982014535 0.058647678173548906 0 0 0 -0.0032926431142590029 -0.0016254487493237435 -0.013621867878949076 0 -0.013621867878949076 0.17195875388721948 0 0 0 0.042583326284473977 0.052512408372041575 -0.019207523008039462 0 -0.019207523008039462 0.092694740896950734 0 0 0 0.036301787317248035 0.0054062589447594345 -0.017395148196815979 0 -0.017395148196815979 0.035853245834768455 0 0 0 0.010314876194881972 -0.23616314876288846 -0.016817281066299899 0 -0.016817281066299899 0.0054653607727765952 0 0 0 -0.05767444699752805 -0.1368310454782887 0.0054477316165938705 0 0.0054477316165938705 0.0015885421360496491 0 0 0 -0.033810625835559743 -0.073871150910067379 -0.009414494071679996 0 -0.009414494071679996 0.063453547837876628 0 0 0 -0.0026044007680477016 -0.085434223297708334 0.045532435696814533 0 0.045532435696814533 -0.0069713535131112891 0 0 0 -0.023101394202704739 -0.059659834198397599 0.042934417017762128 0 0.042934417017762128 0.001620109519991253 0 0 0 -0.014509931169601531 -0.032822813263981843 -0.034206924372165659 0 -0.034206924372165659 0.022316312801813787 0 0 0 -0.0026266251155420139 -0.024568963204288884 -0.031477447547985093 0 -0.031477447547985093 0.025067596155046164 0 0 0 0.0001246582376894039 -0.02967300186118732 -0.020074518742692504 0 -0.020074518742692504 0.067599067558295589 0 0 0 0.0094815164242771366 -0.021115642458039208 0.010147054794028693 0 0.010147054794028693 0.00066915979955162186 0 0 0 -0.0051116206646222295 -0.070537121179972087 0.0024599991150381284 0 0.0024599991150381284 -0.010871265741077923 0 0 0 -0.02035209673026251 -0.069128464363788014 -0.0080942776607816659 0 -0.0080942776607816659 -0.020116552934696365 0 0 0 -0.022311254324621093 -0.035924201648485428 -0.038114348896393313 0 -0.038114348896393313 0.011127335513431244 0 0 0 -0.0061992165337635477 -0.036446506906770759 -0.037229068272374294 0 -0.037229068272374294 0.011040637389298169 0 0 0 -0.0063514673793683141 -0.039492617401461663 -0.03624249847532679 0 -0.03624249847532679 0.0078604792890121233 0 0 0 -0.0079080345281125758 -0.041515457168273651 -0.039750199199122704 0 -0.039750199199122704 0.0079037834783259875 0 0 0 -0.0084029184224869713 -0.05488071353205029 0.056247307425508097 0 0.056247307425508097 -0.0025298533588957728 0 0 0 -0.014352641722736342 -0.043292144660552874 0.051961490134765365 0 0.051961490134765365 1.4828242782181228e-05 0 0 0 -0.010819329104442841 -0.07609569144419373 0.0037092353215238227 0 0.0037092353215238227 -0.019864967148620918 0 0 0 -0.023990164648203655 -0.088108842762994855 -0.013730915626406768 0 -0.013730915626406768 -0.026532284798422397 0 0 0 -0.028660281890354314 -0.11365794015846475 -0.015152239306845505 0 -0.015152239306845505 0.0096522393815573482 0 0 0 -0.026001425194226879 -0.19280706600656083 0.032004228839148691 0 0.032004228839148691 0.014657013751973702 0 0 0 -0.044537513063646839 -0.10038965324738622 0.008296508788027887 0 0.008296508788027887 0.0021142074414566281 0 0 0 -0.024568861451482391 -0.044045230378672841 0.0071148634438116228 0 0.0071148634438116228 0.010007260929844648 0 0 0 -0.0085094923622070547 -0.0067009372689455504 -0.013193308596819608 0 -0.013193308596819608 -0.0014069507134490955 0 0 0 -0.0020269719955987031 -0.15400943559460581 -0.02399865947556349 0 -0.02399865947556349 0.0018193110900094345 0 0 0 -0.038047531126149073 -0.19535689452280713 -0.019838921427792849 0 -0.019838921427792849 -0.0034388725903276851 0 0 0 -0.04969894177828376 -0.033167903992138315 0.00068240241353182372 0 0.00068240241353182372 -0.019586131400765993 0 0 0 -0.013188508848226079 -0.047378733844302884 0.0092600206814181518 0 0.0092600206814181518 0.079750692721468341 0 0 0 0.0080929897192913575 -0.13559791459750931 -0.0027257678442509647 0 -0.0027257678442509647 0.00043002982100409648 0 0 0 -0.033791971194126247 -0.24086273594484073 0.0040478988929425475 0 0.0040478988929425475 0.00037281216407752948 0 0 0 -0.060122480945190772 -0.082154185883582434 -0.0077605496754531156 0 -0.0077605496754531156 0.010513995947244836 0 0 0 -0.017910047484084438 -0.12050910547651131 -0.021007163206560379 0 -0.021007163206560379 -0.013811507894340727 0 0 0 -0.033580153342713012 -0.092799335037304878 -0.020476186590637872 0 -0.020476186590637872 -0.0093112988556346525 0 0 0 -0.025527658473234877 -0.0092845980294915531 0.1010040796609446 0 0.1010040796609446 0.19724739145715686 0 0 0 0.046990698356916272 -0.18370481263245997 -0.0089296872173955516 0 -0.0089296872173955516 0.00015375413514917557 0 0 0 -0.045887764624327719 -0.12188558699287905 0.0032305515704455223 0 0.0032305515704455223 0.00050467696033659748 0 0 0 -0.030345227508135578 -0.036249822113808228 -0.014475028909662513 0 -0.014475028909662513 -0.01395861810973853 0 0 0 -0.012552110055886634 -0.040209183203880949 -0.015281272672955884 0 -0.015281272672955884 -0.0115438115912877 0 0 0 -0.012938248698792176 -0.050940798324045612 0.0061503662496916432 0 0.0061503662496916432 0.045120276562045356 0 0 0 -0.0014551304405000668 -0.04632978775076621 -0.011478530152732553 0 -0.011478530152732553 0.0058716312618766198 0 0 0 -0.010114539122222405 -0.031491043523670832 0.015818731655948499 0 0.015818731655948499 0.0079663201635998965 0 0 0 -0.0058811808400177443 -0.0172713414737099 0.030282077719403389 0 0.030282077719403389 0.18300056050438429 0 0 0 0.04143230475766857 -0.09911938179342146 0.0067994378899343677 0 0.0067994378899343677 0.0038639370017640173 0 0 0 -0.023813861197914354 -0.055475597813545816 -0.0041996122543734374 0 -0.0041996122543734374 0.008170127091696934 0 0 0 -0.011826367680462233 0.047136687078273676 0.018037711966386021 0 0.018037711966386021 0.071129569785862046 0 0 0 0.029566564216033875 -0.079515330085023206 -0.012121424917533874 0 -0.012121424917533874 -0.0032886948294804583 0 0 0 -0.020701006228625803 -0.28848405052915027 -0.00064395659725285936 0 -0.00064395659725285936 -0.00017649998535473888 0 0 0 -0.072165137628626197 -0.15799075565830617 -0.0010153925883386527 0 -0.0010153925883386527 -0.00036730863844269823 0 0 0 -0.039589516074187175 -0.071380314938934042 -0.0043585651622793618 0 -0.0043585651622793618 0.072973985029839011 0 0 0 0.00039841752272621461 -0.12140908855764858 -0.016818502207848682 0 -0.016818502207848682 -0.0076141785130020151 0 0 0 -0.032255816767662621 -0.14319261400907088 -0.023855023026401884 0 -0.023855023026401884 -0.0040909753818740152 0 0 0 -0.036820897347736199 0.015194564738354954 0.028026266435937294 0 0.028026266435937294 0.043196781284937424 0 0 0 0.014597836505823109 -0.053810616888871454 -0.012743619117943153 0 -0.012743619117943153 -0.00056486452684545441 0 0 0 -0.013593870353929116 -0.0492890779435467 -0.019339380890442792 0 -0.019339380890442792 0.014952305701310981 0 0 0 -0.0085841930605589645 -0.019265738933479604 0.021197663080678185 0 0.021197663080678185 0.13036293497587437 0 0 0 0.027774299010598469 -0.017879934033159017 -0.0069545906379052443 0 -0.0069545906379052443 0.0014420524903693277 0 0 0 -0.0041094703856974224 -0.071102523367914283 -0.030180923161381545 0 -0.030180923161381545 0.04399941209289554 0 0 0 -0.0067757778187547135 -0.042471253938147602 -0.014799339490503077 0 -0.014799339490503077 0.053101741928570201 0 0 0 0.0026576219976056359 -0.060385111524275434 -0.0061290018846433397 0 -0.0061290018846433397 0.01893511605233611 0 0 0 -0.010362498867984807 -0.0460660496657046 0.012248531205161228 0 0.012248531205161228 -0.0014251194074619278 0 0 0 -0.011872792268291743 -0.019385855399683849 -0.021561481906167357 0 -0.021561481906167357 0.067755567919026483 0 0 0 0.012092428129835464 -0.065450236926005878 0.0017658902638246401 0 0.0017658902638246401 -0.0030252395031202389 0 0 0 -0.017118869107281512 -0.0042832112465606004 -0.00089826179105439996 0 -0.00089826179105439996 0.062213843599146001 0 0 0 0.014482658088146319 -0.11405452658179829 0.0051142022066638709 0 0.0051142022066638709 0.00054390573555546107 0 0 0 -0.02837765521156066 -0.088550605692180123 -0.022864390966003855 0 -0.022864390966003855 0.030899738713300429 0 0 0 -0.014412716744719917 -0.097706551176699158 0.0059591040044716034 0 0.0059591040044716034 -0.0036151120616529364 0 0 0 -0.025330415809588037 -0.083430162787919149 -0.01185332995322208 0 -0.01185332995322208 0.0016860416926216537 0 0 0 -0.020436030273824346 -0.12323461401477022 0.0041815413277907013 0 0.0041815413277907013 -0.00075970807768843684 0 0 0 -0.030998580523114619 -0.11129803837917776 0.0057934535961177702 0 0.0057934535961177702 0.00017376849558725649 0 0 0 -0.027781067470897626 -0.092823598121621664 0.058290514848399866 0 0.058290514848399866 -0.0013901820395865183 0 0 0 -0.023553445040302101 -0.070083384475404562 -0.0064109203461181945 0 -0.0064109203461181945 -0.024009898199261342 0 0 0 -0.023523320668666477 -0.077525628802412538 -0.014091335605981543 0 -0.014091335605981543 -0.023768013169298562 0 0 0 -0.025323410492927776 -0.07206980705699631 0.0044040752207407576 0 0.0044040752207407576 -0.015472660751990842 0 0 0 -0.021885616952246782 -0.069398646363041147 0.0010783183399650598 0 0.0010783183399650598 -0.018588765506031023 0 0 0 -0.021996852967268037 -0.052890098783117595 -0.012903931722160707 0 -0.012903931722160707 0.02460695959518347 0 0 0 -0.0070707847969835314 -0.040567161806403608 -0.041077834958113443 0 -0.041077834958113443 0.061226382856358577 0 0 0 0.0051648052624887648 -0.057860487910479971 -0.028835398350510383 0 -0.028835398350510383 0.022960755982694571 0 0 0 -0.0087249329819463605 -0.059375704519595285 -0.017804243742658238 0 -0.017804243742658238 0.042913323139118553 0 0 0 -0.0041155953451191274 -0.055549897733732867 -0.023436628400407056 0 -0.023436628400407056 0.020738176522308971 0 0 0 -0.0087029303028559046 -0.037637453598136916 -0.0011595428457269533 0 -0.0011595428457269533 0.06203814969525534 0 0 0 0.0061001740242797031 -0.0375873775841567 -0.012390877880260054 0 -0.012390877880260054 0.030665717840842266 0 0 0 -0.0017304149358285392 -0.16028959825935199 0.0014694697756094471 0 0.0014694697756094471 0.00079645329551525368 0 0 0 -0.039873286240959205 -0.29948988251165864 -0.0047593545023586177 0 -0.0047593545023586177 0.0048890683484781317 0 0 0 -0.07365020354079499 -0.027539551520794917 -0.011753104187170405 0 -0.011753104187170405 0.034135954488359876 0 0 0 0.0016491007418912434 -0.031044678303473683 -0.0027122001003790364 0 -0.0027122001003790364 0.073921354039698128 0 0 0 0.010719168934056139 -0.091249657872405715 0.003747925021420323 0 0.003747925021420323 0.011605088543556463 0 0 0 -0.019911142332212334 -0.040198587065791089 0.0033109544710696703 0 0.0033109544710696703 -0.014837171325024221 0 0 0 -0.013758939597703829 -0.06098103994744488 -0.013320574122969539 0 -0.013320574122969539 -0.008216999771463486 0 0 0 -0.017299509929727119 -0.04447105221969045 -0.0046334725876564578 0 -0.0046334725876564578 -0.015586014455914858 0 0 0 -0.015014266668901318 -0.033885457379303381 -0.058630261785289739 0 -0.058630261785289739 0.11791484038209549 0 0 0 0.021007345750698039 -0.11858564795671052 0.00057367691763055353 0 0.00057367691763055353 -0.0052270646006866497 0 0 0 -0.030953178139349308 -0.11098299693210192 -0.00033697967500716242 0 -0.00033697967500716242 -0.0028431252461112236 0 0 0 -0.028456530544553299 -0.14747621263469768 -0.0088980158067895887 0 -0.0088980158067895887 -0.0030955245142913201 0 0 0 -0.037642934287247229 -0.16858351344327477 -0.01047094422174745 0 -0.01047094422174745 -0.0084709820753839857 0 0 0 -0.04426362387966469 -0.13241944924114468 -0.0096782147952508678 0 -0.0096782147952508678 0.0013287748000097022 0 0 0 -0.032772668610283828 -0.032802019685877259 0.09627016781833031 0 0.09627016781833031 0.1231016679981809 0 0 0 0.022574912078075826 -0.0058827757560103167 -0.01819126886784328 0 -0.01819126886784328 0.039147480411785729 0 0 0 0.0083161761639437004 -0.014376789390573505 -0.010529035170614542 0 -0.010529035170614542 -0.0082797793895068167 0 0 0 -0.0056641421950200249 -0.07264636862255397 0.003242183211666084 0 0.003242183211666084 -0.0035674608296807284 0 0 0 -0.019053457363058669 -0.072632069119308418 -0.0069697430514757165 0 -0.0069697430514757165 0.053294288037592702 0 0 0 -0.0048344452704289706 -0.10105239732285808 0.0049301306624081852 0 0.0049301306624081852 -0.00073583625767814631 0 0 0 -0.025447058395134101 -0.0014978804104390786 0.03676483367525929 0 0.03676483367525929 0.034919031241684717 0 0 0 0.0083552877078114651 -0.044755025060681151 0.0054519026878327177 0 0.0054519026878327177 -0.014984664572075731 0 0 0 -0.014934922408189222 -0.039324175039977816 -0.019880732574687393 0 -0.019880732574687393 -0.0099217715636783499 0 0 0 -0.012311486650914031 0.029592579630949387 -0.077890636515644443 0 -0.077890636515644443 0.096177584124333457 0 0 0 0.031442540938820721 -0.23283038330567252 0.022128599294562568 0 0.022128599294562568 0.0018886683325542997 0 0 0 -0.057735428743279416 -0.03407354770955217 0.0026928199404895174 0 0.0026928199404895174 -0.015196755465457913 0 0 0 -0.012317575793752521 -0.08064848193294763 0.00013824507975952909 0 0.00013824507975952909 -0.020063929438298697 0 0 0 -0.025178102842811575 -0.091654785874565242 -0.0075283384119599443 0 -0.0075283384119599443 -0.025490246375609277 0 0 0 -0.029286258062543622 -0.039121507841445378 0.011291945015484469 0 0.011291945015484469 0.016809948799769582 0 0 0 -0.0055778897604189543 -0.12581158821768956 0.0033252293393455645 0 0.0033252293393455645 0.0023321374420434138 0 0 0 -0.030869862693911509 -0.20985963601637408 -0.013404694814500295 0 -0.013404694814500295 0.0086036585075618122 0 0 0 -0.050313994377203124 -0.0076117226640262103 0.03003517334262007 0 0.03003517334262007 0.078490626418281195 0 0 0 0.017719725938563524 -0.047787741553806606 -0.016613507027355201 0 -0.016613507027355201 -0.0033380487876608633 0 0 0 -0.012781447585366701 -0.033109422936648938 0.0042583555239900928 0 0.0042583555239900928 0.068977888976501811 0 0 0 0.0089671165099632216 -0.031742013659293494 -0.024330793046491266 0 -0.024330793046491266 0.020590316879680937 0 0 0 -0.0027879241949031186 -0.044809893401084655 0.0029695304692539531 0 0.0029695304692539531 0.032866913849433355 0 0 0 -0.0029857448879127835 -0.044259340966902067 0.0050115834717925061 0 0.0050115834717925061 0.0069400273236820036 0 0 0 -0.0093298284108050116 -0.035824683513858757 -0.00016969043477250891 0 -0.00016969043477250891 -0.019600825091983222 0 0 0 -0.013856377151460498 -0.064140625773443649 0.0011984234683445685 0 0.0011984234683445685 0.002874953637095742 0 0 0 -0.015316418034086971 -0.053118577240686637 -0.025909889460167479 0 -0.025909889460167479 0.14703751845221741 0 0 0 0.023479735302882707 -0.055662411427219768 -0.02671000135218881 0 -0.02671000135218881 0.13613885365417189 0 0 0 0.020119110556738002 -0.044076188861680965 -0.026618088322104549 0 -0.026618088322104549 0.00023892831062299891 0 0 0 -0.010959315137764492 -0.037376034252011636 -0.024607044894539465 0 -0.024607044894539465 -0.00037976928414629185 0 0 0 -0.0094389508840393432 -0.020349508810804551 0.042937409937251036 0 0.042937409937251036 0.042851591693700897 0 0 0 0.0056255207207240865 -0.028986349680423906 0.042484474359910873 0 0.042484474359910873 0.041037000946599456 0 0 0 0.0030126628165441094 -0.020796215617912894 0.050282852309783577 0 0.050282852309783577 0.022826765830821216 0 0 0 0.00050763755322691395 0.013707519534145174 0.049255542406062225 0 0.049255542406062225 0.031583189938662493 0 0 0 0.011322677368201806 -0.038333971228890006 0.0034735826055963003 0 0.0034735826055963003 -0.012778367678138757 0 0 0 -0.012778084726757191 -0.030768203451181142 0.0037537022516694607 0 0.0037537022516694607 0.089224036533732676 0 0 0 0.014613958270637883 -0.039358361753479516 0.0007575674935325627 0 0.0007575674935325627 0.054437160732111106 0 0 0 0.0037696997446579547 -0.091193310842604958 -0.019583823549423673 0 -0.019583823549423673 -0.0012042886549101794 0 0 0 -0.023099399874378701 -0.10481121060629839 -0.0081597846482924785 0 -0.0081597846482924785 -0.00059582047610473587 0 0 0 -0.026351757770600837 -0.1725699192181579 0.018309977283511913 0 0.018309977283511913 -0.0014494848105157665 0 0 0 -0.043504851007167944 -0.023054969965768383 0.027582829344666486 0 0.027582829344666486 0.038096667655629357 0 0 0 0.0037604244224652555 -0.018269976237715785 0.030103789159535571 0 0.030103789159535571 0.048814221826213255 0 0 0 0.0076360613971243746 -0.03902361053263928 0.0056673211116883299 0 0.0056673211116883299 -0.0083292910643773393 0 0 0 -0.011838225399254157 -0.040790549814833314 0.0043731302641921484 0 0.0043731302641921484 -0.015260185783895538 0 0 0 -0.014012683899682209 -0.18872232867802757 -0.016356485407984837 0 -0.016356485407984837 -0.0065710164749722133 0 0 0 -0.048823336288249905 -0.12291751639031624 0.0041653936443554612 0 0.0041653936443554612 -0.0014726579433691211 0 0 0 -0.031097543583421334 -0.1122499403232697 0.0061704799563201034 0 0.0061704799563201034 -0.0025008544974073899 0 0 0 -0.02868769870516925 -0.015633072025861283 0.028407107774895302 0 0.028407107774895302 0.089609246980449697 0 0 0 0.018494043738647159 -0.037243966966799547 -0.01121394776243001 0 -0.01121394776243001 0.0029910185399164568 0 0 0 -0.0085632371067209112 -0.039973213146536159 -0.0026505644526465962 0 -0.0026505644526465962 -0.017580699148905227 0 0 0 -0.014388478073860346 -0.026702323199766533 0.0013584529939047983 0 0.0013584529939047983 -0.010044942967578047 0 0 0 -0.0091868165418361458 -0.070703657443361823 -0.031861097193369603 0 -0.031861097193369603 0.0054108956356593296 0 0 0 -0.016323190451925762 -0.07776630559036285 -0.019035661081732339 0 -0.019035661081732339 -0.0013740545021765638 0 0 0 -0.019785090023134833 -0.043753927049193557 -0.015175352756072485 0 -0.015175352756072485 0.033606010715508325 0 0 0 -0.0025369790834213687 -0.013776005219439634 0.021994101368718183 0 0.021994101368718183 0.022449879966989883 0 0 0 0.0021684686868875605 -0.098805325664605453 0.065310043617105018 0 0.065310043617105018 0.0029417166049071075 0 0 0 -0.023965902264924704 -0.11210203051927836 -0.0029050273930120996 0 -0.0029050273930120996 0.0045219299052930984 0 0 0 -0.026895025153496344 -0.18482867380964452 0.0043425717773597633 0 0.0043425717773597633 0.01240529640445831 0 0 0 -0.043105844351296496 -0.0052288335626540228 -0.0037284311741205833 0 -0.0037284311741205833 -0.019369738441258111 0 0 0 -0.0061496430009780889 -0.010765723718249298 -0.009119633866451482 0 -0.009119633866451482 -0.018674326695106158 0 0 0 -0.0073600126033387947 -0.099857941547966955 0.0064563498106564032 0 0.0064563498106564032 -0.00030504133324844862 0 0 0 -0.025040745720303879 -0.087803749258763372 0.0045395292387338526 0 0.0045395292387338526 -0.0016236386636388073 0 0 0 -0.022356846980600521 -0.054172176547466103 -0.0065407546011107959 0 -0.0065407546011107959 0.020091403718838802 0 0 0 -0.0085201932071568426 -0.12351462619477092 0.0084932883439025816 0 0.0084932883439025816 0.0026379549046913198 0 0 0 -0.030219167822519877 -0.13404429752242641 -0.022492552086099009 0 -0.022492552086099009 -0.0084414660745451425 0 0 0 -0.035621440899242886 -0.0011148752727425512 0.0018006732870925468 0 0.0018006732870925468 -0.011245464780163649 0 0 0 -0.0030900850132265919 -0.07315812995283788 0.073866213800229286 0 0.073866213800229286 0.00847114770829549 0 0 0 -0.016171745561135653 -0.04138837248837858 0.0039555948508972804 0 0.0039555948508972804 -0.013796768998272309 0 0 0 -0.013796285371662723 0.024748747321107989 0.0205595864810868 0 0.0205595864810868 0.080977323940974011 0 0 0 0.026431517815520444 0.019190221779091805 0.043208664044406264 0 0.043208664044406264 0.12483596455075072 0 0 0 0.036006546582460615 -0.1722549535961215 0.020993058302166245 0 0.020993058302166245 0.031939463066153473 0 0 0 -0.035078872632492077 -0.0087544490778748846 0.044885067796432504 0 0.044885067796432504 0.13034187512570633 0 0 0 0.030396856511957893 0.0050761176917433204 0.037871047284507138 0 0.037871047284507138 0.086935604594516602 0 0 0 0.023002930571564967 -0.077986019690545277 0.0050871942474510351 0 0.0050871942474510351 0.0017756836756105676 0 0 0 -0.019052584003733684 -0.058050177593607227 0.00085366983325582679 0 0.00085366983325582679 -0.0031395894567749077 0 0 0 -0.015297441762595527 -0.14806656129113249 0.049742445969629068 0 0.049742445969629068 0.01611934923932612 0 0 0 -0.032986803012951649 -0.072149627941356459 -0.020229461986517538 0 -0.020229461986517538 0.067022170826491895 0 0 0 -0.001281864278716148 -0.035024521761176805 0.027220644917986037 0 0.027220644917986037 0.13857177127332493 0 0 0 0.025886812378037014 -0.049942599302139346 -0.026077912876521142 0 -0.026077912876521142 0.00066776983149530178 0 0 0 -0.012318707367660969 -0.12871918465100668 -0.006419340104211968 0 -0.006419340104211968 0.0044173604991552679 0 0 0 -0.031075456037962843 -0.22301875304224822 0.01330328393554786 0 0.01330328393554786 0.014081937308763059 0 0 0 -0.052234203933371248 -0.051513068722709887 0.026296002822055797 0 0.026296002822055797 -0.0076320515367029884 0 0 0 -0.014786280064853274 -0.026893778024453419 -0.028344680781060561 0 -0.028344680781060561 0.039647168963690582 0 0 0 0.0031883477348093048 -0.047857679863060554 -0.018422035122159258 0 -0.018422035122159258 0.024938966257755046 0 0 0 -0.0057296784013264324 -0.0055626398055936555 0.02303952921345747 0 0.02303952921345747 0.024531668782892396 0 0 0 0.0047422572443246991 -0.12224414844084976 -0.021224117024224647 0 -0.021224117024224647 -0.014567521806510934 0 0 0 -0.034202917561840157 -0.11322255346352757 0.0042094382442810635 0 0.0042094382442810635 0.0031282443287123374 0 0 0 -0.027523577283703804 -0.15866360250979186 -0.0093463518606028972 0 -0.0093463518606028972 0.010305258749889738 0 0 0 -0.037089585939975488 -0.040141647081789106 -0.030521187838817382 0 -0.030521187838817382 0.055623755982505796 0 0 0 0.0038705272251791656 -0.091551819335043333 0.0010477327832647265 0 0.0010477327832647265 0.0051820373566641709 0 0 0 -0.021592445494594846 -0.05554545672387351 0.0033930265818602231 0 0.0033930265818602231 0.11056047119605397 0 0 0 0.013753753618045109 -0.036774902529860244 -0.00073180149313009321 0 -0.00073180149313009321 -0.012256783169070062 0 0 0 -0.012257921424732577 -0.038525922780298871 -0.013691778565813106 0 -0.013691778565813106 0.01898455863145021 0 0 0 -0.0048853410372122208 -0.13257734064065649 0.0023957547919400413 0 0.0023957547919400413 0.0026078813939658108 0 0 0 -0.032492364811672746 -0.22519547016362626 -0.0098309355367906526 0 -0.0098309355367906526 0.0059695120093335996 0 0 0 -0.054806489538573117 -0.093263470734457524 -0.023049056982327176 0 -0.023049056982327176 0.0079094350407925146 0 0 0 -0.02133850892341628 -0.05388419295859484 -0.027125186486780278 0 -0.027125186486780278 0.038611506282113961 0 0 0 -0.0038181716691202128 -0.041865024156384323 -0.020822769195654456 0 -0.020822769195654456 0.070133100287839145 0 0 0 0.007067019032863664 -0.072624531726142097 0.0019097716422809136 0 0.0019097716422809136 0.0055962121642127161 0 0 0 -0.016757079890482349 -0.051609054032065671 -0.023978926698035669 0 -0.023978926698035669 0.0047059343116702124 0 0 0 -0.011725779930098823 -0.071841431405560596 -0.028271120636849889 0 -0.028271120636849889 0.0014369169771007301 0 0 0 -0.017601128607114994 -0.084956823050396701 0.0022086372737625815 0 0.0022086372737625815 0.0050692778790948634 0 0 0 -0.019971886292825418 -0.049431394185623256 -0.02695402660448204 0 -0.02695402660448204 0.0014287851383539274 0 0 0 -0.012000652261817346 -0.037990586702137674 0.00055221068357897514 0 0.00055221068357897514 -0.01920978821332741 0 0 0 -0.014300093728866269 -0.13255048727053181 7.4336862586843466e-05 0 7.4336862586843466e-05 0.0019245170711806314 0 0 0 -0.03265649254983799 -0.23436821005356967 -0.0010129753814233089 0 -0.0010129753814233089 0.0028178011128190406 0 0 0 -0.05788760223518763 -0.056980003315970681 -0.011204172164775761 0 -0.011204172164775761 -0.0035402386443449951 0 0 0 -0.015130060490078631 0.0089317585387997389 0.021298187039810124 0 0.021298187039810124 0.10023282893708441 0 0 0 0.027291146868970884 -0.0022104498461423816 0.028816133823314827 0 0.028816133823314827 0.076011312497914041 0 0 0 0.018450215662942915 -0.040450043835464022 -0.0089459549047263536 0 -0.0089459549047263536 -0.0032037321575701938 0 0 0 -0.010913443998258776 -0.0025940623972209309 0.017043344434421185 0 0.017043344434421185 0.1256958233521388 0 0 0 0.030775440238728802 -0.020255385656469116 -0.021091429503004321 0 -0.021091429503004321 0.018771457183396789 0 0 0 -0.0003709821182680817 -0.061668636102598262 -0.023346148551287499 0 -0.023346148551287499 0.018610991813091227 0 0 0 -0.010764411072376801 0.0042147455469438988 -0.0016467676772021639 0 -0.0016467676772021639 0.089626732112143559 0 0 0 0.023460369414771809 -0.0030490331672773652 -0.00093205591895895168 0 -0.00093205591895895168 0.16671118237182214 0 0 0 0.040915537301136201 -0.15410686514107322 -0.013829322818848189 0 -0.013829322818848189 0.03012664783709651 0 0 0 -0.030995054325994253 -0.083910073691902898 0.0035113113320049882 0 0.0035113113320049882 -0.0029747957183154788 0 0 0 -0.021721217352554598 -0.038845851979853782 0.0084766025755134249 0 0.0084766025755134249 -0.0018439799974161925 0 0 0 -0.010172457994317489 -0.10115710277634049 0.055518368076279079 0 0.055518368076279079 -0.0054334819798995682 0 0 0 -0.026647646189059682 -0.013888459935387065 -0.029482319039101534 0 -0.029482319039101534 0.025022454456703258 0 0 0 0.0027834986303289511 -0.034302146109747168 0.0011666382468134566 0 0.0011666382468134566 -0.016025015727752411 0 0 0 -0.012581790459374895 -0.074584584601043918 -0.00037212501594777181 0 -0.00037212501594777181 0.017507509386889733 0 0 0 -0.014269268803538605 0.016913607366641825 0.0175983206049149 0 0.0175983206049149 0.077990574769523313 0 0 0 0.023726045534041118 -0.057131270943731619 -0.0099667403138997135 0 -0.0099667403138997135 -0.02028887113785954 0 0 0 -0.01935503552039777 -0.035518652764069736 -0.0092854034002374242 0 -0.0092854034002374242 0.0059178828711109743 0 0 0 -0.0074001924732396973 -0.027031084361086276 -0.015838139507187571 0 -0.015838139507187571 0.0080763410548594337 0 0 0 -0.004738685826556668 -0.0075935484992626923 0.0052139200884018799 0 0.0052139200884018799 0.047611530199829444 0 0 0 0.010004495425141591 0.0010859866535648521 0.00010418143546653269 0 0.00010418143546653269 0.086432329621767612 0 0 0 0.021879579068833199 0.0021100113039108359 -0.0060940896278816048 0 -0.0060940896278816048 0.15613679841556749 0 0 0 0.039561702429869533 -0.011244442198120382 -0.01111515545683639 0 -0.01111515545683639 0.096358408853907715 0 0 0 0.021278491663946734 -0.030474592389616785 0.02235054752187654 0 0.02235054752187654 0.043395470007417253 0 0 0 0.0032302194044501222 -0.018505137653614417 -0.028669150351002273 0 -0.028669150351002273 -0.002178877989954503 0 0 0 -0.0051710039108922023 -0.00082561098150127181 -0.055085595589004104 0 -0.055085595589004104 0.049838281165014278 0 0 0 0.012253167545878242 -0.063319451861605841 -0.021914517103429287 0 -0.021914517103429287 0.0048068894077428759 0 0 0 -0.014628140613465873 -0.09957612033036764 0.0043359583710472233 0 0.0043359583710472233 0.0021250214656152733 0 0 0 -0.024362774716188043 -0.086654766899201013 0.0065345241300618206 0 0.0065345241300618206 0.0034582468776322428 0 0 0 -0.020799130005392158 -0.15272453370628869 0.0087192648003760198 0 0.0087192648003760198 0.062300966369557065 0 0 0 -0.022605891834182906 -0.02009108727689457 -0.00032871003318629688 0 -0.00032871003318629688 0.029483166889505252 0 0 0 0.0023480199031527538 -0.019199250521976352 -0.0097451797998991951 0 -0.0097451797998991951 0.064650153392655119 0 0 0 0.011362725717669608 -0.037878972772017405 0.0091704955569108064 0 0.0091704955569108064 0.007025717607536815 0 0 0 -0.0077133137911201514 -0.00029440829035232152 0.00057113330691530018 0 0.00057113330691530018 -0.018715912319392736 0 0 0 -0.0047525801524364031 -0.046480446089827883 0.0034417886196174158 0 0.0034417886196174158 -0.0089152589801332009 0 0 0 -0.013848926267490271 -0.052247195807003599 -0.027016659949879583 0 -0.027016659949879583 0.017247909438253717 0 0 0 -0.0087498215921874845 -0.033764160343924307 0.0013322868218668981 0 0.0013322868218668981 -0.019753336244938257 0 0 0 -0.01337937414721564 -0.03142458980825924 0.061646186370483913 0 0.061646186370483913 0.0080588887108605789 0 0 0 -0.0058414252743494988 -0.033198206156916293 0.050003056753205488 0 0.050003056753205488 0.015674290200221541 0 0 0 -0.004380978989173584 -0.033763239166590922 -0.031581804413211234 0 -0.031581804413211234 0.0040076693020532073 0 0 0 -0.007438892466134453 0.019853475427469819 -0.1084985727321488 0 -0.1084985727321488 0.19086813139433073 0 0 0 0.052680401705450158 -0.035080684468749672 0.0018609307509724962 0 0.0018609307509724962 -0.017946420890642533 0 0 0 -0.01325677633984805 -0.058975942830351014 -0.012462753164627083 0 -0.012462753164627083 0.0035682697733239177 0 0 0 -0.01385191826425658 0.0019184245097285668 0.00085244979450016523 0 0.00085244979450016523 0.00026850477188267163 0 0 0 0.00054673232040269859 -0.012566009341325124 0.0054601991843350461 0 0.0054601991843350461 0.17782310643321164 0 0 0 0.041314274272971296 0.0083872137935643472 0.0019136986986039162 0 0.0019136986986039162 0.15656222500926803 0 0 0 0.041237359700708319 0.0043830316229207522 -0.0040228820364207607 0 -0.0040228820364207607 0.081287128131461106 0 0 0 0.021417539938595409 0.0029964769626387167 -0.0013934801658341592 0 -0.0013934801658341592 0.00061634558885259594 0 0 0 0.00090320563787305019 -0.00042526688981003305 0.0010462738295253793 0 0.0010462738295253793 0.0020419797775289741 0 0 0 0.00040417822192962425 -0.0092432522431844522 -0.0075754890129408094 0 -0.0075754890129408094 0.098827882638308218 0 0 0 0.022396157598781219 -0.00043909132029051889 -0.0016707923006991088 0 -0.0016707923006991088 0.00319574724388616 0 0 0 0.00068916398089902131 -0.03770369584027268 0.00011550628356454576 0 0.00011550628356454576 -0.01770051924079042 0 0 0 -0.013851053770265775 -0.04444193952802318 -0.024965058951085778 0 -0.024965058951085778 -0.0057909316188079762 0 0 0 -0.012558217786707866 -0.084584054716353191 0.0044550794928777948 0 0.0044550794928777948 0.0094012575465325376 0 0 0 -0.018795699292455198 -0.057439865804972845 -0.031703458464154677 0 -0.031703458464154677 0.0059603762901536683 0 0 0 -0.01286987237870485 -0.046513771587491634 -0.0011867396921882959 0 -0.0011867396921882959 -0.018465132314054708 0 0 0 -0.016244725975386582 -0.031690369404076213 0.039677827391888965 0 0.039677827391888965 -0.0014697535216301461 0 0 0 -0.0082900307314266453 -0.028199609047098395 -0.032666096345474571 0 -0.032666096345474571 0.009152301254407913 0 0 0 -0.0047618269481726205 -0.007928825493535685 -0.0081108840843981955 0 -0.0081108840843981955 0.070899990878188657 0 0 0 0.015742791346163187 -0.016237410437984545 0.0012744701829607852 0 0.0012744701829607852 0.13490035273133549 0 0 0 0.029665735573337709 -0.069288770262931246 0.010336640244344497 0 0.010336640244344497 0.066931197363334416 0 0 0 -0.0005893932248991901 -0.077264056993125357 -0.0017712654919364718 0 -0.0017712654919364718 0.0099185619366500832 0 0 0 -0.016836373764118784 -0.035828150461974073 -0.014410560507826711 0 -0.014410560507826711 0.05090827562075706 0 0 0 0.0037700312896958299 -0.035583515801175247 0.0076283830797717334 0 0.0076283830797717334 0.10290567167259645 0 0 0 0.016830538967855274 -0.039229363869912576 -0.038948015361964683 0 -0.038948015361964683 0.010958761026250263 0 0 0 -0.0070676507109157238 -0.034721581842480392 0.0086239865062026268 0 0.0086239865062026268 -0.00052576649553644217 0 0 0 -0.0088118370845042069 -0.030129120010353283 -0.035611075757399191 0 -0.035611075757399191 0.020271480216400573 0 0 0 -0.0024644099484882886 -0.044223257803132965 0.03890323468725887 0 0.03890323468725887 0.00019115417372006505 0 0 0 -0.01100802590735328 -0.038694796285921568 -0.00092531812143772929 0 -0.00092531812143772929 0.030304410415286087 0 0 0 -0.0020975964676588355 -0.025793311431117349 -0.0045528250444577395 0 -0.0045528250444577395 0.034596741397315056 0 0 0 0.002200857491549385 -0.063556048013275454 0.0019278283239592756 0 0.0019278283239592756 -0.0036415732410482946 0 0 0 -0.016799405313580928 -0.060192354309974869 -0.011319514890504284 0 -0.011319514890504284 0.046409715343449565 0 0 0 -0.0034456597416313434 0.010390510634512684 -0.033032306901582487 0 -0.033032306901582487 0.024089473533818073 0 0 0 0.0086199960420826893 -0.042174883245617106 -0.026271606308591988 0 -0.026271606308591988 -0.0027017132566795193 0 0 0 -0.011219149125574205 0.040879230185045079 -0.023022288310932781 0 -0.023022288310932781 0.031693292509840987 0 0 0 0.018143130673721586 -0.026575393574926165 -0.0050945169160834247 0 -0.0050945169160834247 0.068819864466571512 0 0 0 0.010561117722911295 -0.040432992664855866 -0.0067278169474451199 0 -0.0067278169474451199 0.026934943067657979 0 0 0 -0.0033745123992993953 -0.0945174918429455 0.0036268036511928337 0 0.0036268036511928337 -0.0032402434949094019 0 0 0 -0.024439433834463731 -0.065010392392766958 -0.013310600737795343 0 -0.013310600737795343 0.051543698431416457 0 0 0 -0.0033666734903376322 -0.065701681979234081 -0.01188110368935532 0 -0.01188110368935532 0.062673528931193517 0 0 0 -0.00075703826201013735 0.022353992260673611 0.068381525989802197 0 0.068381525989802197 0.21626713138329101 0 0 0 0.059655280910991176 -0.038210719543827917 -0.023056549793637096 0 -0.023056549793637096 0.24731510614540581 0 0 0 0.052276096650394413 0.0037639809988827544 0.018450114601326149 0 0.018450114601326149 0.095156088470077727 0 0 0 0.024730017367239787 -0.040220952407944197 0.024536660140974345 0 0.024536660140974345 0.057535792876972719 0 0 0 0.0043287101172571479 -0.062519637415789031 -0.010769046437071966 0 -0.010769046437071966 0.00032051742727379207 0 0 0 -0.015549779997129143 -0.064052752281934827 0.0023113340384167506 0 0.0023113340384167506 -0.006704246740696522 0 0 0 -0.017689249755657842 -0.11797589161791724 -0.010232203856036515 0 -0.010232203856036515 -0.01757724647516222 0 0 0 -0.033888284523269863 -0.095419945523993813 -0.00019271616464545255 0 -0.00019271616464545255 -0.011784528895562967 0 0 0 -0.026801118604889197 -0.026278235920532612 0.0052389494220417797 0 0.0052389494220417797 -0.012099779898316801 0 0 0 -0.0095945039547123481 -0.13587155994642289 -0.011418044048460113 0 -0.011418044048460113 -0.0030794067000878872 0 0 0 -0.0347377416616277 -0.11763145938317289 -0.013000308326232012 0 -0.013000308326232012 -0.027354746318238504 0 0 0 -0.036246551425352852 -0.17742448545403142 0.0092349491035041559 0 0.0092349491035041559 -0.0015603752678770219 0 0 0 -0.044746215180477111 -0.15612718702973363 0.010395621157031845 0 0.010395621157031845 -0.03372902924443031 0 0 0 -0.047464054068540998 -0.065965897477047675 -0.025210867994754249 0 -0.025210867994754249 0.026998098536270498 0 0 0 -0.0097419497351942386 -0.032310924437048395 0.0033885180698991491 0 0.0033885180698991491 -0.01623243566313886 0 0 0 -0.012135840025046812 0.019993927346588225 0.03430920592324771 0 0.03430920592324771 0.035874737052880246 0 0 0 0.013967166099866923 -0.039540026185828914 0.0068925275308434064 0 0.0068925275308434064 0.090301649982645338 0 0 0 0.01269040594920412 -0.024444710758530972 0.035432063667549127 0 0.035432063667549127 0.087799054540152119 0 0 0 0.015838585945405281 -0.040897264926102905 -0.040604194213748779 0 -0.040604194213748779 0.037740364116830571 0 0 0 -0.00078922520231794469 -0.0043857474539769703 -3.4451626235387778e-05 0 -3.4451626235387778e-05 0.012091024479164911 0 0 0 0.0019263192562966524 0.0013821429782265757 -0.0061950055894257616 0 -0.0061950055894257616 0.037472284518093896 0 0 0 0.0097136068740801725 0.0019337603326868165 0.0059179713257773159 0 0.0059179713257773159 0.077545519476455063 0 0 0 0.019869819952285581 -0.0033783068812238571 -0.00048393773106703009 0 -0.00048393773106703009 0.0067737914657282437 0 0 0 0.00084887114612587449 -0.01350107324045928 0.0066844115880501653 0 0.0066844115880501653 0.0078119247643912426 0 0 0 -0.0014222871190170266 -0.014401498467656759 -0.014188003714023623 0 -0.014188003714023623 0.020755117613508567 0 0 0 0.0015884047864629935 -0.12908544142545139 -0.019738956414809564 0 -0.019738956414809564 -0.042950231862222549 0 0 0 -0.043008918321918478 -0.16805263887341643 0.018864071971172982 0 0.018864071971172982 -0.055914668108945867 0 0 0 -0.055991826745590577 -0.19186636538098259 0.019046904400067476 0 0.019046904400067476 -0.026115259759901505 0 0 0 -0.054495406285221031 -0.14941057431810476 -0.019203091821849989 0 -0.019203091821849989 -0.020581025349739032 0 0 0 -0.042497899916960957 -0.036433582908340811 -0.038711060551854248 0 -0.038711060551854248 0.014094595214890537 0 0 0 -0.0055847469233624714 -0.063882654681884171 0.0020542559959835852 0 0.0020542559959835852 0.0032481600269468613 0 0 0 -0.015158623663734321 -0.047607326279238499 -0.027681568906266246 0 -0.027681568906266246 0.0063605039436107624 0 0 0 -0.010311705583906955 -0.044947775337290552 -0.027470729890490375 0 -0.027470729890490375 -0.0034341254307643787 0 0 0 -0.012095475192013705 -0.056373498471307126 0.0010246504777357912 0 0.0010246504777357912 0.0029365784729079164 0 0 0 -0.013359229999599813 -0.042503311996632896 0.0043487817429830964 0 0.0043487817429830964 -0.0067911364003591214 0 0 0 -0.012323612099248002 -0.04234706418528187 0.0049823235701246518 0 0.0049823235701246518 -0.0062768151453085289 0 0 0 -0.012155969832647599 -0.064220000624125168 -0.050963874173324597 0 -0.050963874173324597 0.15771612812757618 0 0 0 0.023374031875862733 0.011298857609558531 -0.011871047085323688 0 -0.011871047085323688 0.44331129640721856 0 0 0 0.11365253850419429 -0.080863101674474705 -0.018470892633575098 0 -0.018470892633575098 0.018234896950383578 0 0 0 -0.015657051181022744 -0.028379947802416677 -0.0023796343548558516 0 -0.0023796343548558516 0.059758341254996794 0 0 0 0.00784459836314505 -0.040506826249981975 -0.015261650303573238 0 -0.015261650303573238 0.034304936350692761 0 0 0 -0.0015504724748222898 -0.043873991255715644 0.0065637584228379351 0 0.0065637584228379351 0.0084234601909957893 0 0 0 -0.0088626327661799759 -0.023793300848843568 0.031633904628783238 0 0.031633904628783238 0.073623726875972739 0 0 0 0.012457606506782071 -0.031854771208654209 -0.015476384820517053 0 -0.015476384820517053 -0.0020662176449033343 0 0 0 -0.0084802472133894691 0.0086720824109597638 -0.036985244386587068 0 -0.036985244386587068 0.072573212720215385 0 0 0 0.020311323782793822 -0.022043055829211157 -0.006809761901626285 0 -0.006809761901626285 0.023601578746438118 0 0 0 0.0003896307293067211 -0.048894379068399996 0.030830198553783106 0 0.030830198553783106 0.0036149689727409395 0 0 0 -0.011319852523914875 -0.02890044376758738 -0.030610601064027687 0 -0.030610601064027687 0.034296121270696034 0 0 0 0.0013489193757770801 -0.021636241048166083 -0.029643334453149511 0 -0.029643334453149511 0.02812232249319635 0 0 0 0.0016215203612576223 -0.026126468095269917 -0.0033638879452606851 0 -0.0033638879452606851 -0.0098832788738487665 0 0 0 -0.0090024367422796847 -0.020597868243936501 -0.0077844545788513519 0 -0.0077844545788513519 0.083070832725545218 0 0 0 0.015618241120402276 -0.043770328048566835 -0.0095181778395453977 0 -0.0095181778395453977 -0.010185541810088683 0 0 0 -0.013488967464663881 -0.020751789357657424 -0.0077834172070391228 0 -0.0077834172070391228 -0.026220456570037021 0 0 0 -0.011743061481923722 -0.069649423419460482 0.0032568836234806815 0 0.0032568836234806815 -0.0076538100198036219 0 0 0 -0.019325808359816014 -0.063243937505291586 0.0036585015532509587 0 0.0036585015532509587 -0.0094440975148457947 0 0 0 -0.018172008755034351 -0.065787421674543919 -0.0063381432107107311 0 -0.0063381432107107311 0.037317938047030604 0 0 0 -0.0071173709068783186 -0.060773224017232452 -0.023146481725439483 0 -0.023146481725439483 0.044159308483429527 0 0 0 -0.0041534788834507452 -0.054709583041597482 0.00083676136382203076 0 0.00083676136382203076 -0.0059091040088446491 0 0 0 -0.015154671762610542 -0.050582136961119323 0.0029325376231286813 0 0.0029325376231286813 0.003874595646036684 0 0 0 -0.011676885328770665 -0.054160207998119596 0.0011002773075169218 0 0.0011002773075169218 0.0031715125266875317 0 0 0 -0.012747173867858001 -0.012419813852598771 0.0084565486117809674 0 0.0084565486117809674 -0.013048767324733035 0 0 0 -0.0063671452943330764 -0.0046225370240595143 0.010288909557141679 0 0.010288909557141679 0.011006970676747718 0 0 0 0.0015961084131720371 -0.0049621650789637151 -0.01526608403495594 0 -0.01526608403495594 0.035278533198479206 0 0 0 0.0075790920298789144 -0.014625991107677594 -0.012830700043658272 0 -0.012830700043658272 0.0056420039557848467 0 0 0 -0.0022459967879732146 -0.019071573334713529 -0.049362998549133841 0 -0.049362998549133841 0.15636174785471188 0 0 0 0.034322543629999605 -0.0029453657813856005 0.020620498392704523 0 0.020620498392704523 0.062422049686746917 0 0 0 0.014869170976341106 -0.0011655895251809767 -0.0035207577004902069 0 -0.0035207577004902069 -0.0025507828283695133 0 0 0 -0.00092909308838784455 -0.0026676711817424925 -0.017428889264715419 0 -0.017428889264715419 0.030559617566772834 0 0 0 0.0069729865962576687 -0.0011644740833733902 0.0039476761544543493 0 0.0039476761544543493 -0.0011307858693263562 0 0 0 -0.00057381498817465904 -0.053602082209815105 0.041629723087934056 0 0.041629723087934056 -0.0039866697611321555 0 0 0 -0.014397187992737148 -0.033166421420189662 -0.034888571030703155 0 -0.034888571030703155 0.01955922167254176 0 0 0 -0.0034017999369120311 -0.026064598088163637 -0.035757646669981269 0 -0.035757646669981269 0.017390543389199209 0 0 0 -0.0021685136747410239 -0.059078183715794284 -0.01009472509510706 0 -0.01009472509510706 0.051939868395634692 0 0 0 -0.0017845788300399294 0.0023618604861601611 0.013454940151987171 0 0.013454940151987171 0.04531895937162389 0 0 0 0.011920204964445347 -0.001287433537146665 -0.0004574747689842229 0 -0.0004574747689842229 0.004347420887728326 0 0 0 0.00076499683764508219 -0.0023383922061199769 -0.00031835588774375978 0 -0.00031835588774375978 0.008628256609632956 0 0 0 0.0015724661008782448 4.3878499284000227e-05 -0.011470853372734346 0 -0.011470853372734346 0.016727239403520056 0 0 0 0.0041927794757010695 -0.030947874860313473 -0.0061267899423587124 0 -0.0061267899423587124 -0.020544234449693333 0 0 0 -0.012873027327501729 0.013158992070955222 -0.035494490375846066 0 -0.035494490375846066 0.0098107461949836217 0 0 0 0.0057424345664847665 0.011188793336024169 -0.00024607067169157837 0 -0.00024607067169157837 0.08893209054125828 0 0 0 0.025030220969320602 0.014029518017772358 -0.0044714699587395934 0 -0.0044714699587395934 0.16686986542726967 0 0 0 0.045224845861260465 -0.037086788223215227 0.0059406842401721711 0 0.0059406842401721711 -0.0095513020683206766 0 0 0 -0.011659522572883982 -0.084868003488386412 0.04392112123240266 0 0.04392112123240266 0.0021599698645848875 0 0 0 -0.020677008405950437 -0.09446673949166362 0.042141938541813015 0 0.042141938541813015 -0.001708889457619378 0 0 0 -0.024043907237320417 -0.033513594486516703 -0.0095949650227533101 0 -0.0095949650227533101 -0.012668915040760419 0 0 0 -0.011545627381819253 -0.053433574007796546 -0.0051888571191520197 0 -0.0051888571191520197 0.017156507947206578 0 0 0 -0.0090692665151474901 -0.054716122155696538 -0.027613266114166285 0 -0.027613266114166285 0.0040232919091115898 0 0 0 -0.012673207561646244 -0.045721861910476301 -0.033011091087413791 0 -0.033011091087413791 0.021606811616481224 0 0 0 -0.0060287625734987901 -0.059208189637597108 0.043833187117717665 0 0.043833187117717665 -0.0032785538401158831 0 0 0 -0.015621685869428248 -0.031075033984448774 -0.03448425589497589 0 -0.03448425589497589 0.020414260630215786 0 0 0 -0.0026651933385581916 -0.035502372576703967 -0.036812438393423186 0 -0.036812438393423186 0.015209381815205703 0 0 0 -0.0050732476903744272 -0.11308185693075425 -0.0019041280992836188 0 -0.0019041280992836188 -0.011597169318720645 0 0 0 -0.031169756562368721 -0.15208063727458987 -0.0091370252964881743 0 -0.0091370252964881743 -0.017399557641593108 0 0 0 -0.042370048729045734 -0.14025684662613983 -0.015467533438186985 0 -0.015467533438186985 -0.0015275801414048884 0 0 0 -0.035446106691886144 -0.10698532403414415 0.0028139403377418423 0 0.0028139403377418423 -0.002054204796357928 0 0 0 -0.02725988220762552 -0.060191537267851022 -0.0062940322149544585 0 -0.0062940322149544585 0.025670345974293941 0 0 0 -0.0086302978233892477 -0.077912180187278635 0.035114678701551716 0 0.035114678701551716 -0.0067259840608882016 0 0 0 -0.021159541062041543 -0.023727783562357163 -0.029225078781810687 0 -0.029225078781810687 0.033641920390676816 0 0 0 0.0024785342070798855 -0.026907256442824323 -0.030768752660016441 0 -0.030768752660016441 0.025906006321161357 0 0 0 -0.00025031253041585266 -0.062050435819641078 -0.037635176908689671 0 -0.037635176908689671 0.0096621834076653923 0 0 0 -0.013097063102993953 -0.035583379505793593 -0.0083522339942614932 0 -0.0083522339942614932 -0.014840689387156436 0 0 0 -0.012606017223237502 -0.034930892921013021 -0.017350233636876416 0 -0.017350233636876416 -0.0036348552526294098 0 0 0 -0.0096414370434105973 -0.052015694155468764 -0.01200159409185101 0 -0.01200159409185101 0.018165468017117714 0 0 0 -0.008462556534587759 -0.095362624960891387 0.0043404497628694323 0 0.0043404497628694323 -0.0064057728506071582 0 0 0 -0.025442099452874629 -0.10432087829225364 0.070017771766795134 0 0.070017771766795134 0.019783291681674919 0 0 0 -0.021134396652644799 -0.070540849425513752 -0.033144762335205802 0 -0.033144762335205802 0.012021004919286593 0 0 0 -0.014629961126556901 -0.023207942484499797 0.044213624988818534 0 0.044213624988818534 0.03206716911183316 0 0 0 0.0022148066568334485 -0.041846304312690083 -0.026892639151368414 0 -0.026892639151368414 -0.0033253691759692061 0 0 0 -0.011292918372164715 -0.020817075193305667 0.065310753276658029 0 0.065310753276658029 0.010734347248690046 0 0 0 -0.0025206819861540719 -0.088142908766659492 0.0031459158221403827 0 0.0031459158221403827 0.0010525614628145996 0 0 0 -0.021772586825961251 -0.055637029228236101 -0.0034366283326995976 0 -0.0034366283326995976 0.012409635386066499 0 0 0 -0.010806848460542388 -0.060700636562441179 -0.033796570182477392 0 -0.033796570182477392 0.0021325331476496068 0 0 0 -0.014642025853698004 -0.0067096889684870806 0.0092642816963094399 0 0.0092642816963094399 0.04863615700504853 0 0 0 0.010481617009140333 -0.010863028973459865 -0.012788707995363136 0 -0.012788707995363136 0.096848909827552232 0 0 0 0.021496470213523022 -0.053124746376847304 -0.0010040279656455993 0 -0.0010040279656455993 0.0013295441849400548 0 0 0 -0.012948800547976803 0.0023828508243282087 -6.383200794646271e-05 0 -6.383200794646271e-05 0.0047210320670902917 0 0 0 0.0017759707228548471 -0.0064623940427845916 0.0012969220953604754 0 0.0012969220953604754 0.002040406648967874 0 0 0 -0.0011054968484542904 -0.00084532739890663677 -0.015972087869074558 0 -0.015972087869074558 0.04512116753126616 0 0 0 0.01106896003308977 -0.0014433872021064609 -0.0075656952238193353 0 -0.0075656952238193353 0.046375131368952438 0 0 0 0.011232936041711827 -0.0026452681756352625 0.0085976843927468849 0 0.0085976843927468849 0.093904532098825655 0 0 0 0.022814815980797043 0.0016523226088822618 -0.00013338639573801103 0 -0.00013338639573801103 0.0026810348856178834 0 0 0 0.0010833393736249253 0.0022348705034938021 0.016817841295313496 0 0.016817841295313496 0.094094148617928752 0 0 0 0.024082254780355417 -0.0052533896117823442 -0.0015014105547372925 0 -0.0015014105547372925 0.00064096134689783923 0 0 0 -0.0011531070662211818 -0.034912426855304268 -0.010672337585271696 0 -0.010672337585271696 -0.017993854094480843 0 0 0 -0.013226570237446278 -0.038207612266969559 -0.012796587295378815 0 -0.012796587295378815 0.016356809321100618 0 0 0 -0.0054627007364672076 -0.047190898234758916 -0.01542100144507956 0 -0.01542100144507956 0.012174668356425666 0 0 0 -0.0087540574695831874 -0.021257130005798059 -0.0021169701920065731 0 -0.0021169701920065731 -0.016687531749526086 0 0 0 -0.0094861654388310353 -0.021081532166884187 0.00092870008709744489 0 0.00092870008709744489 -0.0098000035792834561 0 0 0 -0.0077203839365418969 -0.04144962845142941 0.030292979513767929 0 0.030292979513767929 0.12275040491349766 0 0 0 0.020325194115517031 -0.06779133511850445 -0.01853410981590646 0 -0.01853410981590646 0.016441108884013733 0 0 0 -0.012837556558622634 -0.070918788892986265 -0.029394187127298965 0 -0.029394187127298965 0.0090019455687723182 0 0 0 -0.015479210831053511 -0.075566040925239913 2.495802715231886e-06 0 2.495802715231886e-06 0.0048602740225715257 0 0 0 -0.017676441725667111 -0.12682923086700604 0.051569167135792515 0 0.051569167135792515 0.0046792950967846636 0 0 0 -0.030537483942555621 -0.10311160297834165 0.070760231876699886 0 0.070760231876699886 0.04616932118873085 0 0 0 -0.014235570447402424 -0.035531823667119738 0.028773045726121188 0 0.028773045726121188 0.079347705993087408 0 0 0 0.010953970581491904 -0.028234223545244741 -0.010793553823937334 0 -0.010793553823937334 0.033470266840816665 0 0 0 0.0013090108238929532 -0.03582759870482094 -0.0094481805700371083 0 -0.0094481805700371083 0.035158295385262495 0 0 0 -0.00016732582988948641 -0.00024364020931358366 0.041121902584442413 0 0.041121902584442413 0.085077903651647746 0 0 0 0.021208565860583561 -0.073098655100462789 -0.033151849989594528 0 -0.033151849989594528 0.021422889153800972 0 0 0 -0.01291894148666542 -0.085804686762063931 -0.023621754708405995 0 -0.023621754708405995 0.0018604090211020163 0 0 0 -0.02098606943524034 -0.031862463293647655 0.025607251593713472 0 0.025607251593713472 0.060288175710070169 0 0 0 0.0071064281041056249 -0.017067123393988713 0.032037499687889437 0 0.032037499687889437 0.049083515877053938 0 0 0 0.0080040981207662818 -0.049641062981264694 -0.019025062771047596 0 -0.019025062771047596 0.027877186515701036 0 0 0 -0.0054409691163909146 -0.053759637197088338 -0.0081381229248528482 0 -0.0081381229248528482 0.014068358554864047 0 0 0 -0.0099228196605560676 -0.053483215232623324 -0.0068269670183230824 0 -0.0068269670183230824 0.025013393456909117 0 0 0 -0.0071174554439285692 -0.054809979511431621 -0.0047678842829612725 0 -0.0047678842829612725 0.041427908232243904 0 0 0 -0.0033455178197969171 -0.002591796902785104 0.021462153842552567 0 0.021462153842552567 0.13112047358027556 0 0 0 0.032132169169372338 -0.03361761741931002 -0.0069433545153156917 0 -0.0069433545153156917 0.00032981145718258276 0 0 0 -0.0083219514905316094 -0.088211084796744069 0.0063770712670331436 0 0.0063770712670331436 0.00096535476673713372 0 0 0 -0.021811432507501741 -0.039907783075672998 0.0046386043982534616 0 0.0046386043982534616 -0.014551330160646053 0 0 0 -0.013614778309079759 0.030684815975654534 0.021482334110994872 0 0.021482334110994872 0.075132953175099715 0 0 0 0.026454442287688673 -0.029116268498604769 -0.0070337690201006664 0 -0.0070337690201006664 -0.016167490979800636 0 0 0 -0.01132093986960131 -0.079014433762421621 -0.029620132359544735 0 -0.029620132359544735 0.00025036052886590054 0 0 0 -0.01969101830838893 -0.1077110455490779 -0.023110628974052552 0 -0.023110628974052552 0.0048908284888560805 0 0 0 -0.025705054265055469 -0.042213070000233416 -0.013363350541351571 0 -0.013363350541351571 0.050901484961241583 0 0 0 0.0021721037402520904 
</DataArray>
<DataArray type="Float64" Name="cross_section_updated" format="ascii">
0.0010109770927134987 0.0010269986582757443 0.0010365056919608442 0.001045279412924312 0.0010542576755609397 0.0010639395391587644 0.0010744234592010612 0.0010850401555447112 0.0010956708508742877 0.0011051204605767699 0.0020386868280017753 0.0020996315079415966 0.0021403562715565792 0.0021764577017355708 0.0022114115093264386 0.0022457346201724313 0.0022798478185145576 0.0023129171862893011 0.0023449322744818917 0.0023747881137515013 1 1 1 1 1 1 1 1 1 1 1 1 1 1 1 1 1 1 1 1 1 1 1 1 1 1 1 1 1 1 1 1 1 1 1 1 1 1 1 1 1 1 1 1 1 1 1 1 1 1 1 1 1 1 1 1 1 1 1 1 1 1 1 1 1 1 1 1 1 1 1 1 1 1 1 1 1 1 1 1 1 1 1 1 1 1 1 1 1 1 1 1 1 1 1 1 1 1 1 1 1 1 1 1 1 1 1 1 1 1 1 1 1 1 1 1 1 1 1 1 1 1 1 1 1 1 1 1 1 1 1 1 1 1 1 1 1 1 1 1 1 1 1 1 1 1 1 1 1 1 1 1 1 1 1 1 1 1 1 1 1 1 1 1 1 1 1 1 1 1 1 1 1 1 1 1 1 1 1 1 1 1 1 1 1 1 1 1 1 1 1 1 1 1 1 1 1 1 1 1 1 1 1 1 1 1 1 1 1 1 1 1 1 1 1 1 1 1 1 1 1 1 1 1 1 1 1 1 1 1 1 1 1 1 1 1 1 1 1 1 1 1 1 1 1 1 1 1 1 1 1 1 1 1 1 1 1 1 1 1 1 1 1 1 1 1 1 1 1 1 1 1 1 1 1 1 1 1 1 1 1 1 1 1 1 1 1 1 1 1 1 1 1 1 1 1 1 1 1 1 1 1 1 1 1 1 1 1 1 1 1 1 1 1 1 1 1 1 1 1 1 1 1 1 1 1 1 1 1 1 1 1 1 1 1 1 1 1 1 1 1 1 1 1 1 1 1 1 1 1 1 1 1 1 1 1 1 1 1 1 1 1 1 1 1 1 1 1 1 1 1 1 1 1 1 1 1 1 1 1 1 1 1 1 1 1 1 1 1 1 1 1 1 1 1 1 1 1 1 1 1 1 1 1 1 1 1 1 1 1 1 1 1 1 1 1 1 1 1 1 1 1 1 1 1 1 1 1 1 1 1 1 1 1 1 1 1 1 1 1 1 1 1 1 1 1 1 1 1 1 1 1 1 1 1 1 1 1 1 1 1 1 1 1 1 1 1 1 1 1 1 1 1 1 1 1 1 1 1 1 1 1 1 1 1 1 1 1 1 1 1 1 1 1 1 1 1 1 1 1 1 1 1 1 1 1 1 1 1 1 1 1 1 1 1 1 1 1 1 1 1 1 1 1 1 1 1 1 1 1 1 1 1 1 1 1 1 1 1 1 1 1 1 1 1 1 1 1 1 1 1 1 1 1 1 1 1 1 1 1 1 1 1 1 1 1 1 1 1 1 1 1 1 1 1 1 1 1 1 1 1 1 1 1 1 1 1 1 1 1 1 1 1 1 1 1 1 1 1 1 1 1 1 1 1 1 1 1 1 1 1 1 1 1 1 1 1 1 1 1 1 1 1 1 1 1 1 1 1 1 1 1 1 1 1 1 1 1 1 1 1 1 1 1 1 1 1 1 1 1 1 1 1 1 1 1 1 1 1 1 1 1 1 1 1 1 1 1 1 1 1 1 1 1 1 1 1 1 1 1 1 1 1 1 1 1 1 1 1 1 1 1 1 1 1 1 1 1 1 1 1 1 1 1 1 1 1 1 1 1 1 1 1 1 1 1 1 1 1 1 1 1 1 1 1 1 1 1 1 1 1 1 1 1 1 1 1 1 1 1 1 1 1 1 1 1 1 1 1 1 1 1 1 1 1 1 1 1 1 1 1 1 1 1 1 1 1 1 1 1 1 1 1 1 1 1 1 1 1 1 1 1 1 1 1 1 1 1 1 1 1 1 1 1 1 1 1 1 1 1 1 1 1 1 1 1 1 1 1 1 1 1 1 1 1 1 1 1 1 1 1 1 1 1 1 1 1 1 1 1 1 1 1 1 1 1 1 1 1 1 1 1 1 1 1 1 1 1 1 1 1 1 1 1 1 1 1 1 1 1 1 1 1 1 1 1 1 1 1 1 1 1 1 1 1 1 1 1 1 1 1 1 1 1 1 1 1 1 1 1 1 1 1 1 1 1 1 1 1 1 1 1 1 1 1 1 1 1 1 1 1 1 1 1 1 1 1 1 1 1 1 1 1 1 1 1 1 1 1 1 1 1 1 1 1 1 1 1 1 1 1 1 1 1 1 1 1 1 1 1 1 1 1 1 1 1 1 1 1 1 1 1 1 1 1 1 1 1 1 1 1 1 1 1 1 1 1 1 1 1 1 1 1 1 1 1 1 1 1 1 1 1 1 1 1 1 1 1 1 1 1 1 1 1 1 1 1 1 1 1 1 1 1 1 1 1 1 1 1 1 1 1 1 1 1 1 1 1 1 1 1 1 1 1 
</DataArray>
<DataArray type="Float64" Name="displacement_divergence" format="ascii">
0.010938836662480795 0.026953953985116141 0.036455804856974673 0.045233387410873536 0.05421685644720621 0.063900576064758866 0.07438378289243941 0.084999688626445177 0.095644627321673434 0.10504089320104772 0.019428108026859004 0.049785812679118489 0.070142399028535335 0.088185425374346843 0.10565598624406394 0.12281140349745828 0.13986644663977138 0.15637078800639367 0.17248507822396236 0.18699311670365973 -2.0118424500449426e-05 -4.9849012317169721e-06 -2.1488714627584547e-05 -2.2321236071270041e-05 -0.00010085005011027498 -7.5294736017353267e-05 -0.00010804400901418843 -7.8290622475759506e-05 -8.7995582589202683e-05 -0.00014876034535624461 -2.8867563786502611e-05 -2.872037413087386e-05 -4.4899923132593633e-05 -5.1360795595114579e-05 -5.2163215872580603e-05 -2.7850032963295423e-05 0.00024987198236741878 1.5871694864764453e-06 6.2597758753585309e-06 1.1970781124720498e-05 2.484149039465311e-06 -5.1045619018762894e-06 -4.8822795491319966e-06 -4.2315913292725149e-05 0.00019932373963621968 -0.00015301665955829487 -8.5801862679892732e-05 -5.9310381346497267e-05 -3.2886333664518741e-05 -7.9712838311211368e-05 -6.0378345405376918e-06 -1.6084533137679271e-05 -1.9825484771073768e-05 -1.490352355031652e-05 -2.7786149498667916e-05 -6.4530365763301923e-05 2.3263579823596794e-05 -7.824313212229149e-05 0.00022851930663609862 1.2708196078176971e-05 3.6334730241444632e-05 2.1795265771413812e-05 4.4088700829024441e-05 -6.6510542685218471e-06 -4.2547198479476233e-05 -4.1669711096442882e-05 -4.9745176546829096e-06 -1.5249473700498236e-05 0.00025930902187108285 -7.3865818787363429e-06 2.5486935173019135e-05 -2.4916161720290632e-05 5.8440122096217976e-06 -2.6589407409894489e-05 -6.4090086267060923e-06 -7.7524169602333735e-05 -6.1710714312703148e-06 6.5145072076227759e-05 4.0380667012888637e-05 2.2518307306058222e-07 -1.6764712722625117e-05 7.724574761497089e-05 -1.5645099271003639e-05 -1.9872769757262694e-05 -2.4383851786021708e-05 -8.3687951964851607e-05 -0.00011041072748192585 8.1023707501447585e-06 3.4659875724267226e-05 -8.7585971931738565e-05 -6.9782279061868195e-05 -3.6594381783778632e-05 -7.5371775002260223e-05 -0.00010333830400586492 -2.9829699029934619e-05 -2.3633627927388697e-05 9.1435726442550057e-05 -5.7569793477060035e-06 -3.2175251371605127e-05 -1.869087794856568e-05 -4.3638926791852821e-05 -0.00011073766437312628 -8.4971172720704963e-05 -4.2907599237875732e-05 1.260945058095906e-06 -6.8193417790891105e-06 -1.8513986493048264e-05 -3.1037761314637174e-05 -5.8832018371457399e-05 -2.226971874282925e-05 -2.812614256668451e-05 -2.9731217024735863e-05 -3.2913103081769677e-05 -8.6629400106474387e-06 -6.6457173780400569e-06 -1.5205736501405992e-05 1.9364675991101054e-05 8.7507938368830245e-05 -2.0741739453766783e-07 -6.6721093026148037e-06 9.1268206548135618e-05 5.2127917371936876e-05 -3.5050970635572309e-05 -3.9014068104470302e-05 3.1704316196178636e-05 9.2656078538450037e-06 -1.3398597961718195e-05 1.6884223505743423e-06 -8.4957904469403975e-06 1.2391863846561832e-05 -8.196109748020812e-06 4.112819620318009e-05 -7.9577960201596945e-05 -0.0001274140848254203 -7.814634637466145e-06 0.00010741112102916279 -2.2351661611139345e-05 -2.1304116381137323e-05 1.1725808009894877e-05 8.2398684941786468e-06 2.5112809857672121e-05 2.7070445380144162e-06 1.4056221230371183e-05 -2.6993280197870335e-05 -2.5782659912025502e-05 -2.5354780897398907e-05 -6.3770613987568572e-08 -0.00011134936955286201 -3.4618252104166901e-05 -2.7884646532356019e-05 -2.3534954926776889e-05 -8.3987162873900558e-05 -6.7442607948790399e-05 -6.6036453341857709e-05 -0.00010536418873134462 -0.00010228645609600313 -2.5568441406466632e-05 -6.6893143545149289e-05 3.2022332574895181e-05 -1.1708507204710283e-06 -4.3155099317628414e-06 -2.6426106099025149e-05 -4.9352600440447482e-06 -3.2509224701689903e-06 -1.1699758921313594e-05 -2.9315417587540311e-05 -5.0999685626148498e-05 -4.6941493449983474e-05 -9.7149526045830066e-06 -5.8359914875769992e-05 -4.8798221803718908e-05 -3.7300592156533774e-05 -3.3467429539402206e-05 -3.6710411933113555e-05 -3.7299008202863142e-05 -3.9500143067920722e-05 -1.2705165767702063e-05 -3.0587170259535295e-05 -4.2087600585820285e-05 1.2240585473421532e-05 -3.5992222589686121e-05 -3.0829081710534429e-05 -0.00011068769585514879 -8.4935137510523326e-05 9.2161911556709538e-05 -2.9587280709364952e-05 6.8946485027741779e-07 -2.6706273891346491e-05 -7.6005919833111008e-05 -0.0001182454555955453 -3.27873175515496e-05 -6.965381823857716e-05 -8.6905362738878182e-05 -7.0592778747411653e-05 -4.948832697552463e-05 -5.024986221034167e-05 -5.5615393186873944e-05 -2.8540556582264945e-05 1.4515167638776659e-05 -2.2615489014605854e-05 -3.7379408535164149e-05 -4.1288666246952358e-05 -6.0842001873830096e-05 -5.3289344023831596e-05 -3.3279840479551371e-05 -3.0202779185989093e-05 -3.0672439269174238e-05 2.7205683208513616e-05 6.8768124933564555e-05 -1.3138523825036023e-05 -3.0119647625243547e-05 -3.2117670349134184e-05 -3.7967173675370822e-05 1.5738620237500198e-05 -2.3008646333521948e-05 -3.9840341063523952e-05 -2.9122333385412291e-05 -7.9525196140929597e-05 -0.00011693835360167967 -2.3131957804741734e-05 -5.8516679294469219e-05 -6.875913961298328e-05 -0.00013265189398859595 -7.7733725913678149e-05 8.724699136416136e-05 0.00026377652047090332 -1.0036384123565526e-05 -2.5397105186971032e-05 1.5235383990960071e-05 -1.5982934084777948e-05 -3.5340465600753269e-05 -4.5698814530336349e-05 -5.0425281572833401e-06 -0.00011575905685383836 -2.406105859347786e-05 -3.3472936390001665e-06 -1.859071228630329e-05 -3.6126602604049762e-05 -2.0876838026564146e-05 -1.1714271973326147e-05 -6.7721366333711735e-05 -2.8491164734267089e-05 -0.0001009380671517122 -1.8484417156331649e-05 -2.1241689806298747e-05 -2.6407139567704609e-05 -2.1518100758350549e-05 -2.8050905334757626e-05 7.8457981642215659e-05 -3.2442276108208974e-05 -3.8339652718371587e-05 -2.7012141212239474e-05 5.5048758983870685e-05 -8.0404662019485196e-05 -3.2969721926662468e-05 -0.00011724506709794578 -7.7391126653006298e-05 -6.9274023941969095e-05 -3.2945923601024779e-05 -4.9415168992816025e-06 -6.91598918263991e-06 2.423425130302178e-06 -3.0578419015160294e-05 -1.9034915092214916e-05 -9.0434907720495471e-06 -3.3480265840009705e-05 -6.9993041123103238e-06 9.1804209000354367e-06 -5.6248871817855817e-06 -7.4092275443638812e-06 1.2117707014328884e-06 -6.5147686573675074e-05 -4.7617754629825386e-05 -5.4683423147656161e-05 -8.1613128075844112e-05 -6.552077698748467e-05 -4.2108171410824368e-05 7.5689559506574846e-05 -8.5226221713883337e-05 -6.7652761007751345e-05 -2.0587333902394176e-05 -5.0904231895903338e-05 -5.9112316661220567e-05 -9.4961676402130799e-05 -9.8552473795312162e-05 2.0011968307328751e-05 -8.2392601131195745e-06 1.1005484999065955e-05 -2.9451957920640596e-06 -4.2537346909638443e-05 4.6098457161741031e-05 8.498845355310792e-05 -7.3157066740199201e-06 -5.5902015511734239e-05 -1.2068745302196648e-05 -9.0067760676187719e-05 -2.2883770841048247e-05 -2.2888623039308826e-05 -2.3051110958246667e-05 -4.5726389251428042e-05 -4.2100603826194225e-05 -5.0504384650468266e-05 -5.1845672455838181e-05 -5.9166769253075663e-05 -8.4327405454329596e-05 -8.5236654793784483e-05 -6.8365114948457599e-05 -5.4324705374868172e-05 -6.7555615049175733e-05 -4.4960876128909313e-05 2.5969528240867126e-05 -2.6945560465343081e-05 -1.0503767024352267e-05 2.4852916286647805e-06 -5.5360354888836842e-05 -6.6737577555978786e-05 -2.5751776462334913e-05 -6.3691085372755141e-08 -5.6414764925650021e-05 2.0675010236989263e-05 -2.980436972247597e-05 -6.0783639235629209e-06 -0.00010171002730796808 -7.144454840859664e-05 -7.89161861193198e-06 -3.1975163144755285e-05 -3.1104527990727805e-05 -0.00010240889432667939 -7.3006311750171114e-05 6.5616995066654976e-06 -1.8601441287412895e-05 -1.5627845008796271e-05 -5.6569269964597016e-05 -4.5467776684438515e-05 -1.1112497984399537e-05 -7.5916028500057914e-06 -5.3860941982901135e-05 -5.0757742962782634e-05 -4.9851664112660007e-05 -4.8575588328214557e-05 -2.3261011908941504e-05 3.1924317300638098e-06 -1.590402825807126e-05 -7.8047476703190302e-06 -2.9057033183754223e-05 -7.2277749582857521e-06 -1.1727180391283757e-05 7.5878462909255559e-07 -4.0685748728923419e-05 -2.258109883235466e-05 -8.6212486575057583e-05 -6.8321656373221548e-05 -9.7924784931246837e-06 4.8972097693803776e-05 8.7169509681006335e-05 -1.3568600355080597e-05 -8.3225345319404721e-06 -1.9626046969889476e-05 -3.0428592216594436e-05 -2.8708851771246536e-05 -1.9012462650713638e-05 9.2355321277168517e-06 1.1871158136067821e-05 3.6377895571235424e-05 -1.7121974659173832e-06 -1.7049144963138599e-05 -2.9709608062128453e-05 -2.4712441360279707e-05 2.7269608475332524e-06 -1.5556788100657987e-05 -7.5252684986258026e-05 -6.2420700806349016e-05 1.6718722646179643e-05 -0.00010408545645191739 -7.9022071236915201e-05 -2.6813452032768519e-05 2.9415446096432013e-05 1.7266362774437925e-05 -5.5426590249840887e-06 -2.9777589681311304e-05 -1.5930200957521557e-05 -2.7420661996410602e-05 -6.1758928078629871e-05 -4.6457477404868749e-05 2.2734830557659597e-05 1.5165485820046879e-05 3.6084437152657744e-05 -1.5346966717292329e-05 -1.2302508415320808e-05 3.5826666306764556e-05 2.2345321590909776e-05 3.321604901910212e-05 -1.5398609559222776e-05 -3.5050787639730467e-07 -1.4969854725020495e-05 -2.8880184248329058e-05 -1.3802363927624002e-06 -3.9988149567204674e-05 -6.582554650773711e-05 -5.3749830311669141e-05 -1.7863664914224379e-05 1.70753002565398e-05 -0.00010926804672943893 -3.3354043736055426e-05 -2.1649117460743588e-05 -2.7997067031805165e-05 -3.5225983094694683e-05 -4.2467659738361555e-05 -3.1412851672953316e-05 -2.2679910144963286e-05 -2.3215477980239251e-05 2.144100711618988e-06 -7.3104019517296955e-05 7.2533117801105301e-05 -1.9151161463380393e-05 -2.6456083568854655e-05 -2.4536488156529769e-05 -1.5660181847087541e-05 8.1810234396346819e-06 -1.3663294922231962e-05 -1.9729090497614997e-05 -2.5698666288241574e-05 -6.2530198167514759e-05 -2.5587403265093123e-05 -1.1877369337829941e-05 -7.0397060423256402e-05 7.3327146401543813e-05 -1.2032561970653534e-05 -1.1183303599759595e-05 -2.5748933320577383e-05 -3.1891391641940378e-05 1.499899567981752e-05 -2.0997100843451241e-05 -3.4318648000075506e-05 -2.5487280525112198e-05 -5.5844296916389684e-05 -4.1653967805373605e-05 -2.9417645148816388e-05 -5.8030215046063569e-05 -8.6429643103933668e-05 1.479608196038539e-05 3.3954589157718807e-05 -3.9039586988731429e-06 -2.7327944253058723e-05 8.7438749109941896e-05 -3.6465442542014587e-05 -1.0177590789668239e-05 3.7703415519697251e-05 -2.7007267056158645e-05 -6.6297229938017295e-06 -1.1892560858879631e-05 -3.4277251309545403e-05 -8.4446322729880645e-06 3.1823494256558692e-05 -1.1871824525091753e-05 -9.3009400471330756e-05 -0.00016238580716248564 4.9177062435706419e-05 -5.242237218491507e-05 5.1465710870523487e-05 5.9219421993538099e-05 0.00010636539148481112 0.00010084667303908391 -7.2617642461010254e-06 7.6522058891251125e-06 5.9869738267150422e-05 2.3874404548025622e-05 -1.557041307324644e-05 3.4320422323313483e-05 -6.9892496529500026e-06 -6.303934482127134e-06 1.201850686505029e-05 -2.8159785855987359e-05 3.2936154791701603e-05 -3.9241983921793784e-06 1.0967442296857919e-05 -4.4724126124912056e-06 1.2453413658692746e-05 6.4876330188026396e-06 -2.9468829674934031e-05 -2.8605925140432159e-05 -3.2970602540934862e-05 -4.3091402445008834e-06 -5.3152766829880622e-05 3.3213105793526942e-05 -1.9446768988125079e-06 2.5209142021654089e-07 -2.9083734345167309e-05 -3.0356848078327012e-05 -0.00017373567019878574 -9.438513501370269e-05 -3.9376436475463686e-05 -4.475650973354675e-05 -2.7434016045354724e-06 -4.1318248278064028e-06 -1.2277465676525096e-05 -9.7917580465944887e-05 -7.2145323003171459e-05 5.1542461937617839e-05 -8.0703948080679559e-05 -6.3803589274326545e-05 -2.5076727699124227e-05 6.9259328149369557e-05 -1.2526457024562721e-05 -7.8112457872076273e-06 -6.5220857469650055e-05 -6.0295362277741739e-05 -8.599944461122162e-05 -0.00013734243210397872 -3.2848143687444031e-05 2.3492316323507818e-05 -7.8372821126936927e-06 -2.682545818581307e-06 -7.1777370154560188e-06 2.0736866225748844e-05 1.8801257205172245e-05 -1.7610239156267207e-05 -2.3260625848634633e-05 -3.728955328694938e-06 6.0557141113675551e-05 -8.2314432454749201e-05 -0.00012518705547777284 -4.669706314947487e-06 4.2359859375479367e-05 -1.9741092056509401e-05 -8.3516376406887082e-05 -6.5520297850402582e-05 -3.6311289622948113e-05 -4.5876043884071316e-06 1.0290750553910944e-05 -3.6011210806287362e-05 -4.0605637546969626e-05 2.0575875706610198e-05 1.9755584409132622e-05 -5.2548680642818338e-06 -1.0611575946311257e-05 -1.4607289712608386e-05 -5.2166762358271267e-06 8.7874194903604479e-05 8.3736735767211967e-07 4.4140432468046421e-05 1.2470094965125276e-06 -1.3647750677449983e-05 -2.1747768324746717e-05 -1.4013888496288535e-05 -0.00010750035533730988 -0.00012321635665092079 -2.9345479214263701e-05 -3.4062235065254113e-05 2.4148751392087588e-05 -6.28815679897143e-05 -5.7182173651117068e-05 -6.6572857751673195e-05 -8.0325653741019761e-05 -4.3074635101152808e-05 -3.3076393596157775e-05 -4.5930856536420433e-05 -4.4447144540070102e-05 -4.2188236064617252e-05 -4.7364611733487402e-05 -7.7423954493258812e-06 -2.0249774323256517e-05 -5.1432162787656454e-05 -5.2511544994763998e-05 -2.2290862338057005e-05 -5.6607470643334941e-05 -6.5323444243086908e-05 7.6542593543844364e-06 -2.5118746394359987e-05 -8.0304638062822869e-05 -6.8321191223665929e-05 3.4945560385850826e-05 -1.8877100476210294e-05 -3.8483899854030229e-05 1.502351776180421e-05 -1.4099339712099048e-05 -1.7268441683881199e-05 -0.00011365976427027641 -8.4157310919316647e-05 1.3608165415298289e-05 -1.6850365262324614e-05 -2.8130012194733257e-05 -5.9660736580393801e-05 -6.1332955261048094e-05 -1.7724514304072957e-05 -2.6703673568457729e-05 -2.9118608322745273e-05 -1.2123911380373417e-05 -2.743036601862139e-05 9.6002800051238834e-05 -3.8271662855589685e-05 -3.5280065551199398e-05 2.395915184027239e-05 2.1170840342264784e-05 -6.1970607655262972e-05 -1.2623892660996002e-05 -7.9803374945282756e-05 -0.00013106815135141889 -7.782615575963289e-05 -0.00013077120760646881 -7.6463164070273551e-05 -9.9962330693246281e-05 -1.1243245165263701e-05 -4.2294810906835019e-07 2.9705522376728233e-05 7.2339643332604731e-05 8.6700340710310002e-06 5.6797532015085393e-05 1.5897216454836436e-05 -2.952693275901992e-05 4.6063762381243038e-06 -1.0770858074099683e-05 -9.1621531182208864e-07 -8.4877948029069006e-05 -8.2316077856474498e-06 0.00010645831571118487 9.0754468293120392e-05 2.5787190487204775e-05 -0.00014418611749382004 -8.4526564588899541e-05 -6.5110019201192887e-06 -5.7753485506762629e-05 -3.6274827924003862e-05 -6.5665627888549655e-06 3.1164559422322354e-07 2.3703791060692998e-05 -1.2779051661555331e-05 -5.0880241825656241e-05 -5.5778135811552739e-05 -1.5498041334408532e-05 -1.5878668448421167e-05 -1.977008632028139e-05 -2.1007296056217272e-05 -3.5881604306840982e-05 -2.7048322761108282e-05 -5.9975411620509156e-05 -7.1650704725885781e-05 -6.5003562985567129e-05 -0.00011134378265911706 -6.1422153628706106e-05 -2.127373090551764e-05 -5.0674299889966494e-06 -9.511882781537264e-05 -0.00012424735444570929 -3.297127212056519e-05 2.0232474298228424e-05 -8.4479927985315587e-05 -0.00015030620236297643 -4.4775118710210977e-05 -8.3950383356782497e-05 -6.3819146183087126e-05 0.00011747674589229046 -0.00011471941156081917 -7.5863068770338926e-05 -3.138027513971658e-05 -3.2345621746980211e-05 -3.6378261012500982e-06 -2.5286347805555964e-05 -1.4702952100044362e-05 0.00010358076189417192 -5.9534652994786054e-05 -2.95659192011556e-05 7.3916410540084826e-05 -5.1752515571564874e-05 -0.00018041284407156559 -9.8973790185468086e-05 9.9604380681561243e-07 -8.0639541919156574e-05 -9.2052243369340541e-05 3.649459126455772e-05 -3.3984675884822426e-05 -2.146048265139723e-05 6.9435747526497803e-05 -1.0273675964243226e-05 -1.6939444546886656e-05 6.6440549940140485e-06 -2.5906247169962116e-05 -2.9681980670727935e-05 3.0231070324589389e-05 -4.27971727682038e-05 3.620664522036585e-05 -7.0944138028901707e-05 -3.6031791861799826e-05 -6.3326039523970099e-05 -5.1090075684560778e-05 -7.7496451307786557e-05 -6.9452668677244067e-05 -5.8883612600755739e-05 -5.88083016716662e-05 -6.3308526232319436e-05 -5.4714042380616972e-05 -5.4992132418170102e-05 -1.7676961992458862e-05 1.2912013156221844e-05 -2.181233245486587e-05 -1.0288988362797862e-05 -2.1757325757139866e-05 1.5250435060699236e-05 -4.3260373395712396e-06 -9.9683215602398173e-05 -0.0001841255088519875 4.1227518547280653e-06 2.6797922335140129e-05 -4.9777855830530882e-05 -3.4397348994259574e-05 -4.3248774824317781e-05 -3.7535666672253283e-05 5.2518364376745012e-05 -7.7382945348373257e-05 -7.1141326361383219e-05 -9.4107335718118153e-05 -0.00011065905969916172 -8.1931671525709536e-05 5.6437280195189643e-05 2.0790440409859429e-05 -1.4160355487550078e-05 -4.7633643407646649e-05 -1.2086113176072402e-05 -6.3617645987835216e-05 2.0888219269527821e-05 -3.7337306020473053e-05 -3.0778716627285056e-05 7.8606352347051749e-05 -0.00014433857185819831 -3.0793939484381297e-05 -6.2945257107028946e-05 -7.3215645156359091e-05 -1.3944724401047384e-05 -7.717465673477903e-05 -0.00012578498594300783 4.4299314846408741e-05 -3.1953618963416908e-05 2.2417791274908009e-05 -6.9698104872577184e-06 -7.4643622197820498e-06 -2.3324571027012542e-05 -3.4640942878651241e-05 -3.8291045085217531e-05 5.8699338257206751e-05 5.0297776391845057e-05 -2.7398287844411376e-05 -2.3597377210098427e-05 1.40638018018115e-05 7.5316570413604123e-06 1.2690938830679094e-06 2.8306693420504687e-05 -3.1945211816892978e-05 3.6534895676594808e-05 9.4242493616447599e-06 -5.774849968594631e-05 -6.5879394426502226e-05 -0.00010876212751792123 9.4010610561631367e-06 1.9090153492810891e-05 -2.9595563498135394e-05 -3.5031709749205524e-05 -0.00012205834072062469 -7.7743858958553269e-05 -7.1719246762923106e-05 4.6235109346618071e-05 -2.1408092766801723e-05 -3.597119518465087e-05 -2.2967041354590378e-05 -4.0807976129814474e-05 -4.9462725057837048e-05 -6.3424477085533644e-06 5.4211717172188416e-06 -5.9914755662311312e-05 -6.7237562883740967e-05 -0.00010776461087824121 -1.5374107502445387e-05 -1.840003150834716e-05 -6.2601864300759671e-05 -5.5892117451501303e-05 -2.1300483017892044e-05 -7.5547919556299731e-05 -8.9053602248107236e-05 -7.7252125330663665e-06 -4.0429363902838664e-05 -3.4490713429156812e-05 6.607879453880076e-05 9.0016366456151692e-05 -8.7697181581230518e-05 7.5992141279894671e-05 5.7507326428912428e-05 -4.7631460009334191e-05 -3.824360440648884e-05 -8.2467007532378931e-05 -3.2046606967902654e-06 6.4717030945092555e-05 -3.0796768419152508e-05 -7.7688640094907558e-05 -0.0001305855098334282 -3.6965700162132614e-05 7.9708693370237477e-06 -1.4324196003316029e-05 1.1855643110811743e-05 -8.5507293904600357e-05 -6.8808943209259485e-05 -9.2723964849938782e-05 9.6763180629479617e-06 -5.398111373648709e-05 3.4384384045112824e-05 -3.0644803561831441e-05 -1.221335259303047e-05 -8.1230912029181784e-05 -0.00013701622384643304 -5.3346272308540477e-05 -9.5454291728007228e-06 1.7667547582159377e-05 -4.1892699726205849e-05 -2.9314449825247483e-05 -4.4002821517787442e-05 -4.9929715732063558e-05 -3.0001630654543439e-05 -3.5750234322165676e-05 -8.1641231374594749e-05 -0.00014471900558796972 -3.7825151225196927e-05 6.8227867172427747e-05 4.6125539157357374e-05 -2.728360999564635e-05 7.6938600596823496e-05 -9.2745529567026495e-07 -2.6911027680941862e-05 5.8650923536930025e-05 0.00010228884325284024 -7.7487635814985404e-05 -5.4303043381386399e-05 -2.5431144985793717e-05 -6.6619115472649638e-05 6.9587465758223733e-06 -3.1454476148437241e-05 -3.5673172008846452e-05 5.9315113835102691e-05 -4.8387588800994448e-05 -1.8500481183099214e-05 -1.1846714566391617e-05 2.501123856285363e-05 5.4698947672082894e-05 9.890425607467408e-05 5.3196229159866806e-05 8.075548511125307e-06 -1.2927509777230499e-05 3.0632918864695616e-05 -3.6570351533664683e-05 -6.0906936790470286e-05 -5.1997825013480245e-05 -5.6514729585457229e-05 5.8700497578816763e-06 2.8406814294173999e-05 -1.9283284477800354e-05 -1.1881450381090973e-05 -3.4622315668725705e-05 -2.1874553980468663e-05 -3.3448435368039081e-05 -1.4603563185874423e-05 -1.0952447472932893e-05 -1.85972311653366e-05 0.00013170100426362528 -3.3141940849620123e-05 -3.4629795660642186e-05 1.3668308010065904e-06 0.00010328568568242907 0.00010309339925177054 5.3543849846489269e-05 2.2580140946800581e-06 1.0104455548243034e-06 5.5990393996951937e-05 1.7229099522489758e-06 -3.4627634425664427e-05 -3.1395544466769704e-05 -4.6989248231137733e-05 -3.217468094676235e-05 -4.0611814938466435e-05 -2.0725076828567897e-05 -1.1904567370431534e-05 3.9356978365407943e-05 7.4164338933344434e-05 -1.4734830622479623e-06 -4.2090934410296966e-05 9.4250782242392321e-06 4.2076347419638246e-05 -1.7669126777288967e-05 -2.2029592711260516e-05 -6.1610248712202879e-06 -2.7520064768382126e-05 -5.2439911691470192e-06 5.5021437288734236e-06 -4.1998513283952342e-05 -8.6141493540779562e-06 2.1549990105206582e-05 -2.8047872813935463e-05 4.5357826684303904e-05 2.6402794307278448e-05 -8.4362809982484448e-06 -6.1098584586159242e-05 -8.4166837258440984e-06 -1.8925956550253596e-06 0.00014913820227747796 0.00013069024162598613 6.1825043418100439e-05 1.0821775293142969e-05 -3.8874449992822892e-05 -4.4223124389144608e-05 -8.472071130817473e-05 -6.7002796512222952e-05 -2.3986259886780855e-05 -8.6844354154069227e-05 -9.0616378563382113e-05 -0.0001118655379511928 -0.00011866013517135247 -2.435487433798586e-05 -3.0339600062617033e-05 3.4917915249667482e-05 3.1726014873009983e-05 3.9596464863513174e-05 -1.9730630057949745e-06 4.8157981407405204e-06 2.428401718520045e-05 4.9674549880714651e-05 2.1221778653144435e-06 -3.5557177975426794e-06 3.9710119661576313e-06 -0.00010752229580479619 -0.00013997956686397645 -0.00013623851571305259 -0.00010624474979240242 -1.396186730840646e-05 -3.7896559159335781e-05 -2.5779263959767426e-05 -3.0238687980034301e-05 -3.3398074998999532e-05 -3.0809030248120004e-05 -3.0389924581618972e-05 5.8435079689656802e-05 0.00028413134626048564 -3.9142627952556882e-05 1.9611495907862517e-05 -3.8761811870559066e-06 -2.2156581915449904e-05 3.1144016266955541e-05 -2.1200618033474523e-05 5.0778309456984364e-05 9.7407682326692635e-07 -2.8299631309787292e-05 3.3722984394434809e-06 4.0538009031436742e-06 -2.250609185569909e-05 3.9045602801005593e-05 -3.3722418661659716e-05 -2.9357653704809342e-05 -4.831452089954006e-05 -4.5430021887585932e-05 -1.7793427267195929e-05 -1.0383697208626538e-05 -3.7886679406526382e-05 -2.9192213321926673e-05 -3.186793466964497e-05 -1.5917863235832808e-05 3.99027103292998e-06 1.8947730074697237e-05 -5.6149919699330928e-06 8.5806359074998913e-05 3.7172927440851794e-05 -2.3227327209697501e-06 1.7432466490643807e-05 -1.4345374704364568e-06 -3.5992969981841691e-05 -8.5044998422794359e-06 -5.4212841868528979e-06 -4.4614470750997127e-06 2.980051241111524e-05 1.9124920941126014e-06 3.9311652521968957e-06 1.0481948689252708e-05 -3.218256831875421e-05 1.435608641621187e-05 6.2575552423301591e-05 0.00011306211465315116 -2.9148806432209953e-05 -5.1692521014875224e-05 -6.0109768093301666e-05 -2.8864068454548047e-05 -2.2673166287868794e-05 -3.1683018904115694e-05 -1.5071906433747083e-05 -3.9054214673571626e-05 -6.662983346394924e-06 -1.2683119225936294e-05 -7.7924391405921801e-05 -0.00010592512182261432 -8.8615266729715305e-05 -6.8149705519063839e-05 -2.1575744558473167e-05 -5.2898852655103648e-05 6.1963355176986729e-06 -6.2578132603964901e-07 -3.2742657757484702e-05 -3.151504305809409e-05 -2.4103592608526551e-05 -2.1156391336469427e-05 -6.3605248632186561e-05 -5.2835991631612102e-05 -3.657490281639233e-05 5.5370166420830682e-06 -2.8232295930411832e-05 -6.3017049653844685e-06 -5.4431467064903038e-05 -2.701712115135605e-05 -3.6605064634245106e-05 2.6204042522851297e-05 5.3741175533807486e-05 -3.2372001369941996e-05 4.4399268071381587e-06 -2.7637421211347546e-06 2.7672400082725049e-05 2.8082340104279395e-05 5.7037039951994203e-05 2.7083484340629897e-06 6.0205636950889409e-05 -2.8827676655527115e-06 -3.3066425593615686e-05 -1.3656751841168227e-05 -2.1885143673958064e-05 -2.3715413597077376e-05 -1.9300959841355033e-05 5.0812985288792619e-05 -3.2093891396556604e-05 -3.8698027077633878e-05 -4.4191104314167775e-05 -7.6343709856388931e-05 -3.5588926118505912e-05 2.7384926453729685e-05 3.2725270597325738e-06 -4.1831457472398491e-07 5.3021414651458886e-05 -3.2297353716663956e-05 -5.246517358810062e-05 1.776607026026403e-05 2.0010245301915773e-05 -1.360242279097707e-05 -2.4807049151390201e-05 -1.7793638609821353e-05 -8.3637945494922819e-06 8.0330422923430636e-05 -2.0804878726329683e-05 -5.4528581268754352e-05 -3.4036945772699398e-05 6.6136105719221848e-05 -2.8302349674003092e-05 -4.9227545770972464e-05 -6.4262635662638509e-05 5.4302593506301176e-06 
</DataArray>
</CellData>
</Piece>
</UnstructuredGrid>
</VTKFile>
