<?xml version="1.0"?>
<VTKFile type="UnstructuredGrid" version="0.1" byte_order="LittleEndian">
<UnstructuredGrid>
<Piece NumberOfPoints="3142" NumberOfCells="1054">
<Points>
<DataArray type="Float64" NumberOfComponents="3" format="ascii">
0 0 0 0.049999999999899652 0 0 0.02576622439977887 0.024532886826226379 0 0 0 0 0.02576622439977887 0.024532886826226379 0 0 0.050000000000207989 0 0.049999999999899652 0 0 0.053064897599215843 0.048131547304697528 0 0.02576622439977887 0.024532886826226379 0 0 0.050000000000207989 0 0.02576622439977887 0.024532886826226379 0 0.053064897599215843 0.048131547304697528 0 0 0.10000000000041601 0 0 0.050000000000207989 0 0.044310582753132287 0.101412518374475 0 0 0.15000000000062411 0 0 0.10000000000041601 0 0.044310582753132287 0.101412518374475 0 0.083411279318303222 0.089699755330707398 0 0.044310582753132287 0.101412518374475 0 0.053064897599215843 0.048131547304697528 0 0 0.050000000000207989 0 0.053064897599215843 0.048131547304697528 0 0.044310582753132287 0.101412518374475 0 0.083411279318303222 0.089699755330707398 0 0.065374659239632718 0.1448908038746782 0 0.044310582753132287 0.101412518374475 0 0.083411279318303222 0.089699755330707398 0 0.1053400320299198 0.12877248826361379 0 0.065374659239632718 0.1448908038746782 0 0.083411279318303222 0.089699755330707398 0 0.12372429750337779 0.095814237875728972 0 0.1053400320299198 0.12877248826361379 0 0.14332333627550789 0.14578431753966009 0 0.1053400320299198 0.12877248826361379 0 0.12372429750337779 0.095814237875728972 0 0.14618258501891079 0.062070108745602003 0 0.12372429750337779 0.095814237875728972 0 0.10266856499169109 0.044518360900210059 0 0.083411279318303222 0.089699755330707398 0 0.10266856499169109 0.044518360900210059 0 0.12372429750337779 0.095814237875728972 0 0.099999999999814668 0 0 0.14999999999970359 0 0 0.10266856499169109 0.044518360900210059 0 0.049999999999899652 0 0 0.099999999999814668 0 0 0.053064897599215843 0.048131547304697528 0 0.099999999999814668 0 0 0.10266856499169109 0.044518360900210059 0 0.053064897599215843 0.048131547304697528 0 0.083411279318303222 0.089699755330707398 0 0.053064897599215843 0.048131547304697528 0 0.10266856499169109 0.044518360900210059 0 0 0.25000000000104028 0 0 0.20000000000083221 0 0.044081577119474857 0.2271058242433576 0 0 0.20000000000083221 0 0.038512288486115001 0.1844147282893184 0 0.044081577119474857 0.2271058242433576 0 0.083105206071467416 0.20007701332709979 0 0.044081577119474857 0.2271058242433576 0 0.038512288486115001 0.1844147282893184 0 0 0.15000000000062411 0 0.065374659239632718 0.1448908038746782 0 0.038512288486115001 0.1844147282893184 0 0 0.15000000000062411 0 0.044310582753132287 0.101412518374475 0 0.065374659239632718 0.1448908038746782 0 0.083105206071467416 0.20007701332709979 0 0.038512288486115001 0.1844147282893184 0 0.065374659239632718 0.1448908038746782 0 0 0.20000000000083221 0 0 0.15000000000062411 0 0.038512288486115001 0.1844147282893184 0 0.065374659239632718 0.1448908038746782 0 0.1053400320299198 0.12877248826361379 0 0.106902708054812 0.16453234188234539 0 0.14332333627550789 0.14578431753966009 0 0.106902708054812 0.16453234188234539 0 0.1053400320299198 0.12877248826361379 0 0.083105206071467416 0.20007701332709979 0 0.065374659239632718 0.1448908038746782 0 0.106902708054812 0.16453234188234539 0 0.083105206071467416 0.20007701332709979 0 0.13737030665753211 0.20313708640667491 0 0.095326043202144745 0.24554465089224409 0 0.083105206071467416 0.20007701332709979 0 0.106902708054812 0.16453234188234539 0 0.13737030665753211 0.20313708640667491 0 0.083105206071467416 0.20007701332709979 0 0.095326043202144745 0.24554465089224409 0 0.044081577119474857 0.2271058242433576 0 0.049706944316556423 0.27522722923869108 0 0.044081577119474857 0.2271058242433576 0 0.095326043202144745 0.24554465089224409 0 0.13737030665753211 0.20313708640667491 0 0.14377654328998779 0.2442024734791064 0 0.095326043202144745 0.24554465089224409 0 0.17933913398461551 0.2350063570234002 0 0.14377654328998779 0.2442024734791064 0 0.13737030665753211 0.20313708640667491 0 0.17933913398461551 0.2350063570234002 0 0.13737030665753211 0.20313708640667491 0 0.18124454140915969 0.18790916706335251 0 0.14332333627550789 0.14578431753966009 0 0.18652628422869419 0.14162325200928061 0 0.18124454140915969 0.18790916706335251 0 0.14332333627550789 0.14578431753966009 0 0.13737030665753211 0.20313708640667491 0 0.106902708054812 0.16453234188234539 0 0.14332333627550789 0.14578431753966009 0 0.18124454140915969 0.18790916706335251 0 0.13737030665753211 0.20313708640667491 0 0.14332333627550789 0.14578431753966009 0 0.16141998738593399 0.10404039647458049 0 0.18652628422869419 0.14162325200928061 0 0.2185883431182947 0.18019736283949719 0 0.18652628422869419 0.14162325200928061 0 0.22985637510995899 0.1298347970200906 0 0.2185883431182947 0.18019736283949719 0 0.22985637510995899 0.1298347970200906 0 0.25557216766470708 0.15874861286892261 0 0.2185883431182947 0.18019736283949719 0 0.25557216766470708 0.15874861286892261 0 0.26429849586623999 0.19346700179430079 0 0.2185883431182947 0.18019736283949719 0 0.18124454140915969 0.18790916706335251 0 0.18652628422869419 0.14162325200928061 0 0.17933913398461551 0.2350063570234002 0 0.18124454140915969 0.18790916706335251 0 0.224700362040408 0.22206622194729711 0 0.2185883431182947 0.18019736283949719 0 0.224700362040408 0.22206622194729711 0 0.18124454140915969 0.18790916706335251 0 0.2185883431182947 0.18019736283949719 0 0.26429849586623999 0.19346700179430079 0 0.224700362040408 0.22206622194729711 0 0.25195515620380449 0.25883339815888678 0 0.21049769590865089 0.26857363548218488 0 0.224700362040408 0.22206622194729711 0 0.17933913398461551 0.2350063570234002 0 0.224700362040408 0.22206622194729711 0 0.21049769590865089 0.26857363548218488 0 0.14999999999970359 0 0 0.184418230509967 0.038773194583122873 0 0.14618258501891079 0.062070108745602003 0 0.19922788606653311 0.085920220746880993 0 0.14618258501891079 0.062070108745602003 0 0.184418230509967 0.038773194583122873 0 0.14999999999970359 0 0 0.19999999999955789 0 0 0.184418230509967 0.038773194583122873 0 0.14999999999970359 0 0 0.14618258501891079 0.062070108745602003 0 0.10266856499169109 0.044518360900210059 0 0.14618258501891079 0.062070108745602003 0 0.16141998738593399 0.10404039647458049 0 0.12372429750337779 0.095814237875728972 0 0.14332333627550789 0.14578431753966009 0 0.12372429750337779 0.095814237875728972 0 0.16141998738593399 0.10404039647458049 0 0.19922788606653311 0.085920220746880993 0 0.18652628422869419 0.14162325200928061 0 0.16141998738593399 0.10404039647458049 0 0.19922788606653311 0.085920220746880993 0 0.16141998738593399 0.10404039647458049 0 0.14618258501891079 0.062070108745602003 0 0.19922788606653311 0.085920220746880993 0 0.22985637510995899 0.1298347970200906 0 0.18652628422869419 0.14162325200928061 0 0.19922788606653311 0.085920220746880993 0 0.24218496799700481 0.089025544070598317 0 0.22985637510995899 0.1298347970200906 0 0.27474541102162192 0.11822029332053539 0 0.22985637510995899 0.1298347970200906 0 0.24218496799700481 0.089025544070598317 0 0.19922788606653311 0.085920220746880993 0 0.22668068146512929 0.045875643423131329 0 0.24218496799700481 0.089025544070598317 0 0.27499999999933927 0.060310814194988557 0 0.24218496799700481 0.089025544070598317 0 0.22668068146512929 0.045875643423131329 0 0.19922788606653311 0.085920220746880993 0 0.184418230509967 0.038773194583122873 0 0.22668068146512929 0.045875643423131329 0 0.19999999999955789 0 0 0.22668068146512929 0.045875643423131329 0 0.184418230509967 0.038773194583122873 0 0.19999999999955789 0 0 0.24999999999941211 0 0 0.22668068146512929 0.045875643423131329 0 0.24999999999941211 0 0 0.29999999999926641 0 0 0.27499999999933927 0.060310814194988557 0 0.24999999999941211 0 0 0.27499999999933927 0.060310814194988557 0 0.22668068146512929 0.045875643423131329 0 0.29999999999926641 0 0 0.32541448401678508 0.046215317981507749 0 0.27499999999933927 0.060310814194988557 0 0.29999999999926641 0 0 0.34999999999912063 0 0 0.32541448401678508 0.046215317981507749 0 0.35312867752657662 0.084946736076730367 0 0.32541448401678508 0.046215317981507749 0 0.3615861437013822 0.03582617922508851 0 0.35312867752657662 0.084946736076730367 0 0.3615861437013822 0.03582617922508851 0 0.39591832466117061 0.056982757562006353 0 0.34999999999912063 0 0 0.3615861437013822 0.03582617922508851 0 0.32541448401678508 0.046215317981507749 0 0.34999999999912063 0 0 0.3999999999989749 0 0 0.3615861437013822 0.03582617922508851 0 0.35312867752657662 0.084946736076730367 0 0.39823268594401579 0.1116623613130045 0 0.36246644853392812 0.1399454205365751 0 0.35312867752657662 0.084946736076730367 0 0.36246644853392812 0.1399454205365751 0 0.32215584939770009 0.1218492143506909 0 0.35312867752657662 0.084946736076730367 0 0.3096713403101819 0.085471541595262421 0 0.32541448401678508 0.046215317981507749 0 0.35312867752657662 0.084946736076730367 0 0.32215584939770009 0.1218492143506909 0 0.3096713403101819 0.085471541595262421 0 0.27474541102162192 0.11822029332053539 0 0.3096713403101819 0.085471541595262421 0 0.32215584939770009 0.1218492143506909 0 0.27499999999933927 0.060310814194988557 0 0.32541448401678508 0.046215317981507749 0 0.3096713403101819 0.085471541595262421 0 0.3096713403101819 0.085471541595262421 0 0.27474541102162192 0.11822029332053539 0 0.27499999999933927 0.060310814194988557 0 0.27499999999933927 0.060310814194988557 0 0.27474541102162192 0.11822029332053539 0 0.24218496799700481 0.089025544070598317 0 0.27474541102162192 0.11822029332053539 0 0.25557216766470708 0.15874861286892261 0 0.22985637510995899 0.1298347970200906 0 0.27474541102162192 0.11822029332053539 0 0.29336099386129338 0.15892013001050981 0 0.25557216766470708 0.15874861286892261 0 0.26429849586623999 0.19346700179430079 0 0.25557216766470708 0.15874861286892261 0 0.29336099386129338 0.15892013001050981 0 0.33084213324567391 0.16272720141332131 0 0.31255190597181792 0.19850845631528771 0 0.29336099386129338 0.15892013001050981 0 0.26429849586623999 0.19346700179430079 0 0.29336099386129338 0.15892013001050981 0 0.31255190597181792 0.19850845631528771 0 0.27474541102162192 0.11822029332053539 0 0.32215584939770009 0.1218492143506909 0 0.29336099386129338 0.15892013001050981 0 0.28040350263641872 0.23054717217092141 0 0.25195515620380449 0.25883339815888678 0 0.224700362040408 0.22206622194729711 0 0.26429849586623999 0.19346700179430079 0 0.28040350263641872 0.23054717217092141 0 0.224700362040408 0.22206622194729711 0 0.26429849586623999 0.19346700179430079 0 0.31255190597181792 0.19850845631528771 0 0.28040350263641872 0.23054717217092141 0 0.33758650185219202 0.23837101504325639 0 0.29132859388405002 0.27203693976649962 0 0.28040350263641872 0.23054717217092141 0 0.33758650185219202 0.23837101504325639 0 0.28040350263641872 0.23054717217092141 0 0.31255190597181792 0.19850845631528771 0 0.33758650185219202 0.23837101504325639 0 0.31255190597181792 0.19850845631528771 0 0.3572130504031617 0.1874703368446563 0 0.33758650185219202 0.23837101504325639 0 0.3572130504031617 0.1874703368446563 0 0.38831533174504851 0.2189834941785925 0 0.33758650185219202 0.23837101504325639 0 0.38831533174504851 0.2189834941785925 0 0.3786248352540974 0.27082301512024259 0 0.33084213324567391 0.16272720141332131 0 0.29336099386129338 0.15892013001050981 0 0.32215584939770009 0.1218492143506909 0 0.33084213324567391 0.16272720141332131 0 0.32215584939770009 0.1218492143506909 0 0.36246644853392812 0.1399454205365751 0 0.33084213324567391 0.16272720141332131 0 0.3572130504031617 0.1874703368446563 0 0.31255190597181792 0.19850845631528771 0 0.39801143831225599 0.16651381068160659 0 0.3572130504031617 0.1874703368446563 0 0.36246644853392812 0.1399454205365751 0 0.33084213324567391 0.16272720141332131 0 0.36246644853392812 0.1399454205365751 0 0.3572130504031617 0.1874703368446563 0 0.39801143831225599 0.16651381068160659 0 0.36246644853392812 0.1399454205365751 0 0.39823268594401579 0.1116623613130045 0 0.39801143831225599 0.16651381068160659 0 0.44288491854585582 0.14116182884956319 0 0.42905200079338551 0.19982395548231649 0 0.39801143831225599 0.16651381068160659 0 0.39823268594401579 0.1116623613130045 0 0.44288491854585582 0.14116182884956319 0 0.42377727103934271 0.25099357235810238 0 0.3786248352540974 0.27082301512024259 0 0.38831533174504851 0.2189834941785925 0 0.39801143831225599 0.16651381068160659 0 0.38831533174504851 0.2189834941785925 0 0.3572130504031617 0.1874703368446563 0 0.39801143831225599 0.16651381068160659 0 0.42905200079338551 0.19982395548231649 0 0.38831533174504851 0.2189834941785925 0 0.42377727103934271 0.25099357235810238 0 0.38831533174504851 0.2189834941785925 0 0.42905200079338551 0.19982395548231649 0 0.42377727103934271 0.25099357235810238 0 0.42905200079338551 0.19982395548231649 0 0.46429753744194407 0.22870891180733599 0 0.47357141910802508 0.1873585799078378 0 0.46429753744194407 0.22870891180733599 0 0.42905200079338551 0.19982395548231649 0 0.47357141910802508 0.1873585799078378 0 0.51729576145820033 0.1683240575987815 0 0.50760557329222289 0.20700468884612061 0 0.47357141910802508 0.1873585799078378 0 0.50760557329222289 0.20700468884612061 0 0.46429753744194407 0.22870891180733599 0 0.49695729691142171 0.25014895411178018 0 0.46429753744194407 0.22870891180733599 0 0.50760557329222289 0.20700468884612061 0 0.47357141910802508 0.1873585799078378 0 0.44288491854585582 0.14116182884956319 0 0.48466639505193998 0.1421439844745814 0 0.47357141910802508 0.1873585799078378 0 0.42905200079338551 0.19982395548231649 0 0.44288491854585582 0.14116182884956319 0 0.47357141910802508 0.1873585799078378 0 0.48466639505193998 0.1421439844745814 0 0.51729576145820033 0.1683240575987815 0 0.44288491854585582 0.14116182884956319 0 0.47881186583059909 0.093591717165689425 0 0.48466639505193998 0.1421439844745814 0 0.51076801031701946 0.1202837388510348 0 0.48466639505193998 0.1421439844745814 0 0.47881186583059909 0.093591717165689425 0 0.43698630808430822 0.080423614171545449 0 0.47881186583059909 0.093591717165689425 0 0.44288491854585582 0.14116182884956319 0 0.43698630808430822 0.080423614171545449 0 0.47040171442036788 0.044141676406503738 0 0.47881186583059909 0.093591717165689425 0 0.52375890611712683 0.059318771819432882 0 0.47881186583059909 0.093591717165689425 0 0.47040171442036788 0.044141676406503738 0 0.49999999999869432 0 0 0.52375890611712683 0.059318771819432882 0 0.47040171442036788 0.044141676406503738 0 0.44999999999882923 0 0 0.49999999999869432 0 0 0.47040171442036788 0.044141676406503738 0 0.44999999999882923 0 0 0.47040171442036788 0.044141676406503738 0 0.4320097814748517 0.037406712692169303 0 0.43698630808430822 0.080423614171545449 0 0.4320097814748517 0.037406712692169303 0 0.47040171442036788 0.044141676406503738 0 0.3999999999989749 0 0 0.4320097814748517 0.037406712692169303 0 0.39591832466117061 0.056982757562006353 0 0.43698630808430822 0.080423614171545449 0 0.39591832466117061 0.056982757562006353 0 0.4320097814748517 0.037406712692169303 0 0.3999999999989749 0 0 0.44999999999882923 0 0 0.4320097814748517 0.037406712692169303 0 0.3999999999989749 0 0 0.39591832466117061 0.056982757562006353 0 0.3615861437013822 0.03582617922508851 0 0.35312867752657662 0.084946736076730367 0 0.39591832466117061 0.056982757562006353 0 0.39823268594401579 0.1116623613130045 0 0.43698630808430822 0.080423614171545449 0 0.44288491854585582 0.14116182884956319 0 0.39823268594401579 0.1116623613130045 0 0.43698630808430822 0.080423614171545449 0 0.39823268594401579 0.1116623613130045 0 0.39591832466117061 0.056982757562006353 0 0.43249999999999988 0.43937499999999979 0 0.38707855792647411 0.42299362914874578 0 0.42161023666869668 0.39493916313643851 0 0.38083244760691543 0.38531983672244652 0 0.42161023666869668 0.39493916313643851 0 0.38707855792647411 0.42299362914874578 0 0.38083244760691543 0.38531983672244652 0 0.40076539126862748 0.34589349467022118 0 0.42161023666869668 0.39493916313643851 0 0.43249999999999988 0.43937499999999979 0 0.3908716102680424 0.47010282357248828 0 0.38707855792647411 0.42299362914874578 0 0.38244435121258652 0.51653317813019495 0 0.3908716102680424 0.47010282357248828 0 0.43507373378304309 0.49699695397193322 0 0.43249999999999988 0.43937499999999979 0 0.43507373378304309 0.49699695397193322 0 0.3908716102680424 0.47010282357248828 0 0.43249999999999988 0.43937499999999979 0 0.46111841286828259 0.46690301029591341 0 0.43507373378304309 0.49699695397193322 0 0.43249999999999988 0.43937499999999979 0 0.48858720058566618 0.43964267759203868 0 0.46111841286828259 0.46690301029591341 0 0.49102375406324739 0.49123754822244059 0 0.43507373378304309 0.49699695397193322 0 0.46111841286828259 0.46690301029591341 0 0.49102375406324739 0.49123754822244059 0 0.46111841286828259 0.46690301029591341 0 0.48858720058566618 0.43964267759203868 0 0.52289427570932567 0.3932284363388488 0 0.48858720058566618 0.43964267759203868 0 0.46655310992796922 0.39650496622958609 0 0.43249999999999988 0.43937499999999979 0 0.46655310992796922 0.39650496622958609 0 0.48858720058566618 0.43964267759203868 0 0.43249999999999988 0.43937499999999979 0 0.42161023666869668 0.39493916313643851 0 0.46655310992796922 0.39650496622958609 0 0.4409427642593301 0.35743108089689513 0 0.46655310992796922 0.39650496622958609 0 0.42161023666869668 0.39493916313643851 0 0.52289427570932567 0.3932284363388488 0 0.46655310992796922 0.39650496622958609 0 0.49077833859261139 0.35229981449445641 0 0.5 0.29999999999999999 0 0.49077833859261139 0.35229981449445641 0 0.46226845272279993 0.31901800744800313 0 0.4409427642593301 0.35743108089689513 0 0.46226845272279993 0.31901800744800313 0 0.49077833859261139 0.35229981449445641 0 0.4409427642593301 0.35743108089689513 0 0.41914690343363781 0.30688979866601612 0 0.46226845272279993 0.31901800744800313 0 0.4409427642593301 0.35743108089689513 0 0.49077833859261139 0.35229981449445641 0 0.46655310992796922 0.39650496622958609 0 0.5 0.29999999999999999 0 0.4604742573284204 0.27846934318264788 0 0.49695729691142171 0.25014895411178018 0 0.49695729691142171 0.25014895411178018 0 0.4604742573284204 0.27846934318264788 0 0.46429753744194407 0.22870891180733599 0 0.5 0.29999999999999999 0 0.46226845272279993 0.31901800744800313 0 0.4604742573284204 0.27846934318264788 0 0.41914690343363781 0.30688979866601612 0 0.4604742573284204 0.27846934318264788 0 0.46226845272279993 0.31901800744800313 0 0.42377727103934271 0.25099357235810238 0 0.46429753744194407 0.22870891180733599 0 0.4604742573284204 0.27846934318264788 0 0.42377727103934271 0.25099357235810238 0 0.4604742573284204 0.27846934318264788 0 0.41914690343363781 0.30688979866601612 0 0.42377727103934271 0.25099357235810238 0 0.41914690343363781 0.30688979866601612 0 0.3786248352540974 0.27082301512024259 0 0.36575549820117997 0.31677992835137742 0 0.3786248352540974 0.27082301512024259 0 0.41914690343363781 0.30688979866601612 0 0.4409427642593301 0.35743108089689513 0 0.42161023666869668 0.39493916313643851 0 0.40076539126862748 0.34589349467022118 0 0.4409427642593301 0.35743108089689513 0 0.40076539126862748 0.34589349467022118 0 0.41914690343363781 0.30688979866601612 0 0.36575549820117997 0.31677992835137742 0 0.41914690343363781 0.30688979866601612 0 0.40076539126862748 0.34589349467022118 0 0.40076539126862748 0.34589349467022118 0 0.33277555741076909 0.36432196682010132 0 0.36575549820117997 0.31677992835137742 0 0.38083244760691543 0.38531983672244652 0 0.33277555741076909 0.36432196682010132 0 0.40076539126862748 0.34589349467022118 0 0.36575549820117997 0.31677992835137742 0 0.33277555741076909 0.36432196682010132 0 0.32752639306529541 0.32610012995269699 0 0.33277555741076909 0.36432196682010132 0 0.29644548887253103 0.34914008784168082 0 0.32752639306529541 0.32610012995269699 0 0.33758650185219202 0.23837101504325639 0 0.3786248352540974 0.27082301512024259 0 0.33402499257867951 0.28911035184473982 0 0.36575549820117997 0.31677992835137742 0 0.33402499257867951 0.28911035184473982 0 0.3786248352540974 0.27082301512024259 0 0.36575549820117997 0.31677992835137742 0 0.32752639306529541 0.32610012995269699 0 0.33402499257867951 0.28911035184473982 0 0.29348325746214782 0.31350119524708198 0 0.33402499257867951 0.28911035184473982 0 0.32752639306529541 0.32610012995269699 0 0.33758650185219202 0.23837101504325639 0 0.33402499257867951 0.28911035184473982 0 0.29132859388405002 0.27203693976649962 0 0.29348325746214782 0.31350119524708198 0 0.29132859388405002 0.27203693976649962 0 0.33402499257867951 0.28911035184473982 0 0.29348325746214782 0.31350119524708198 0 0.24432083401701241 0.3006253385567515 0 0.29132859388405002 0.27203693976649962 0 0.25195515620380449 0.25883339815888678 0 0.29132859388405002 0.27203693976649962 0 0.24432083401701241 0.3006253385567515 0 0.25195515620380449 0.25883339815888678 0 0.28040350263641872 0.23054717217092141 0 0.29132859388405002 0.27203693976649962 0 0.27866744612395528 0.38416094670951489 0 0.29644548887253103 0.34914008784168082 0 0.33277555741076909 0.36432196682010132 0 0.29348325746214782 0.31350119524708198 0 0.32752639306529541 0.32610012995269699 0 0.29644548887253103 0.34914008784168082 0 0.29348325746214782 0.31350119524708198 0 0.29644548887253103 0.34914008784168082 0 0.25966125648670141 0.34351016742083729 0 0.29348325746214782 0.31350119524708198 0 0.25966125648670141 0.34351016742083729 0 0.24432083401701241 0.3006253385567515 0 0.27866744612395528 0.38416094670951489 0 0.25966125648670141 0.34351016742083729 0 0.29644548887253103 0.34914008784168082 0 0.27866744612395528 0.38416094670951489 0 0.22033343844674469 0.36963382230740238 0 0.25966125648670141 0.34351016742083729 0 0.27866744612395528 0.38416094670951489 0 0.29124338931648802 0.43334555462578611 0 0.24049127783545701 0.41270748208749802 0 0.29124338931648802 0.43334555462578611 0 0.25982634974572738 0.46097799597715272 0 0.24049127783545701 0.41270748208749802 0 0.27866744612395528 0.38416094670951489 0 0.31778888742534622 0.40581751814196781 0 0.29124338931648802 0.43334555462578611 0 0.27866744612395528 0.38416094670951489 0 0.33277555741076909 0.36432196682010132 0 0.31778888742534622 0.40581751814196781 0 0.33277555741076909 0.36432196682010132 0 0.35221190152536241 0.40457127605439203 0 0.31778888742534622 0.40581751814196781 0 0.34258405725730701 0.4444034294386992 0 0.31778888742534622 0.40581751814196781 0 0.35221190152536241 0.40457127605439203 0 0.34258405725730701 0.4444034294386992 0 0.29124338931648802 0.43334555462578611 0 0.31778888742534622 0.40581751814196781 0 0.34258405725730701 0.4444034294386992 0 0.35221190152536241 0.40457127605439203 0 0.38707855792647411 0.42299362914874578 0 0.38083244760691543 0.38531983672244652 0 0.38707855792647411 0.42299362914874578 0 0.35221190152536241 0.40457127605439203 0 0.38083244760691543 0.38531983672244652 0 0.35221190152536241 0.40457127605439203 0 0.33277555741076909 0.36432196682010132 0 0.38244435121258652 0.51653317813019495 0 0.35024835142131061 0.48654922671676981 0 0.3908716102680424 0.47010282357248828 0 0.34258405725730701 0.4444034294386992 0 0.3908716102680424 0.47010282357248828 0 0.35024835142131061 0.48654922671676981 0 0.34258405725730701 0.4444034294386992 0 0.38707855792647411 0.42299362914874578 0 0.3908716102680424 0.47010282357248828 0 0.34258405725730701 0.4444034294386992 0 0.31068898841644388 0.47541502461811092 0 0.29124338931648802 0.43334555462578611 0 0.35024835142131061 0.48654922671676981 0 0.33190227185843768 0.52715113583864037 0 0.31068898841644388 0.47541502461811092 0 0.34258405725730701 0.4444034294386992 0 0.35024835142131061 0.48654922671676981 0 0.31068898841644388 0.47541502461811092 0 0.28307294598219601 0.50789252727458634 0 0.25982634974572738 0.46097799597715272 0 0.31068898841644388 0.47541502461811092 0 0.29124338931648802 0.43334555462578611 0 0.31068898841644388 0.47541502461811092 0 0.25982634974572738 0.46097799597715272 0 0.28307294598219601 0.50789252727458634 0 0.23975172658309729 0.49475499200540818 0 0.25982634974572738 0.46097799597715272 0 0.22278230690790279 0.44824268025881547 0 0.23975172658309729 0.49475499200540818 0 0.19604738184454831 0.47787523520405789 0 0.22278230690790279 0.44824268025881547 0 0.19604738184454831 0.47787523520405789 0 0.191953871957803 0.42546416763755879 0 0.22278230690790279 0.44824268025881547 0 0.24049127783545701 0.41270748208749802 0 0.25982634974572738 0.46097799597715272 0 0.22278230690790279 0.44824268025881547 0 0.25982634974572738 0.46097799597715272 0 0.23975172658309729 0.49475499200540818 0 0.27866744612395528 0.38416094670951489 0 0.24049127783545701 0.41270748208749802 0 0.22033343844674469 0.36963382230740238 0 0.1650278706801647 0.38791388161335733 0 0.22033343844674469 0.36963382230740238 0 0.191953871957803 0.42546416763755879 0 0.22033343844674469 0.36963382230740238 0 0.24049127783545701 0.41270748208749802 0 0.191953871957803 0.42546416763755879 0 0.22278230690790279 0.44824268025881547 0 0.191953871957803 0.42546416763755879 0 0.24049127783545701 0.41270748208749802 0 0.15801167086041079 0.46008690540259539 0 0.13773355295499351 0.42497777642586831 0 0.191953871957803 0.42546416763755879 0 0.1650278706801647 0.38791388161335733 0 0.191953871957803 0.42546416763755879 0 0.13773355295499351 0.42497777642586831 0 0.1650278706801647 0.38791388161335733 0 0.13773355295499351 0.42497777642586831 0 0.1117088112799664 0.38831403004970022 0 0.15801167086041079 0.46008690540259539 0 0.113541300460994 0.46208784312094731 0 0.13773355295499351 0.42497777642586831 0 0.1216098864341134 0.50637075089503902 0 0.113541300460994 0.46208784312094731 0 0.15801167086041079 0.46008690540259539 0 0.1216098864341134 0.50637075089503902 0 0.15801167086041079 0.46008690540259539 0 0.16618607197337229 0.50652878253548905 0 0.15801167086041079 0.46008690540259539 0 0.19604738184454831 0.47787523520405789 0 0.16618607197337229 0.50652878253548905 0 0.15801167086041079 0.46008690540259539 0 0.191953871957803 0.42546416763755879 0 0.19604738184454831 0.47787523520405789 0 0.25195515620380449 0.25883339815888678 0 0.24432083401701241 0.3006253385567515 0 0.21049769590865089 0.26857363548218488 0 0.19670163708476801 0.31472518408333222 0 0.21049769590865089 0.26857363548218488 0 0.24432083401701241 0.3006253385567515 0 0.19670163708476801 0.31472518408333222 0 0.168349569971391 0.28054490850913671 0 0.21049769590865089 0.26857363548218488 0 0.19670163708476801 0.31472518408333222 0 0.22615676742807109 0.33458786033114157 0 0.18434624290945251 0.35208838264196463 0 0.19670163708476801 0.31472518408333222 0 0.24432083401701241 0.3006253385567515 0 0.22615676742807109 0.33458786033114157 0 0.24432083401701241 0.3006253385567515 0 0.25966125648670141 0.34351016742083729 0 0.22615676742807109 0.33458786033114157 0 0.22033343844674469 0.36963382230740238 0 0.22615676742807109 0.33458786033114157 0 0.25966125648670141 0.34351016742083729 0 0.22033343844674469 0.36963382230740238 0 0.18434624290945251 0.35208838264196463 0 0.22615676742807109 0.33458786033114157 0 0.1650278706801647 0.38791388161335733 0 0.18434624290945251 0.35208838264196463 0 0.22033343844674469 0.36963382230740238 0 0.1650278706801647 0.38791388161335733 0 0.14223753364722069 0.3341983344262433 0 0.18434624290945251 0.35208838264196463 0 0.1650278706801647 0.38791388161335733 0 0.1117088112799664 0.38831403004970022 0 0.14223753364722069 0.3341983344262433 0 0.19670163708476801 0.31472518408333222 0 0.18434624290945251 0.35208838264196463 0 0.14223753364722069 0.3341983344262433 0 0.19670163708476801 0.31472518408333222 0 0.14223753364722069 0.3341983344262433 0 0.168349569971391 0.28054490850913671 0 0.1247745017231483 0.27198077544791172 0 0.168349569971391 0.28054490850913671 0 0.14223753364722069 0.3341983344262433 0 0.1247745017231483 0.27198077544791172 0 0.14377654328998779 0.2442024734791064 0 0.168349569971391 0.28054490850913671 0 0.17933913398461551 0.2350063570234002 0 0.21049769590865089 0.26857363548218488 0 0.168349569971391 0.28054490850913671 0 0.17933913398461551 0.2350063570234002 0 0.168349569971391 0.28054490850913671 0 0.14377654328998779 0.2442024734791064 0 0.049706944316556423 0.27522722923869108 0 0.095326043202144745 0.24554465089224409 0 0.093851963071650835 0.30582068233324772 0 0.1247745017231483 0.27198077544791172 0 0.095326043202144745 0.24554465089224409 0 0.14377654328998779 0.2442024734791064 0 0.1247745017231483 0.27198077544791172 0 0.093851963071650835 0.30582068233324772 0 0.095326043202144745 0.24554465089224409 0 0.1247745017231483 0.27198077544791172 0 0.14223753364722069 0.3341983344262433 0 0.093851963071650835 0.30582068233324772 0 0.049706944316556423 0.27522722923869108 0 0.093851963071650835 0.30582068233324772 0 0.046389130980076937 0.32668781832131749 0 0.087545339447545459 0.35122518864182262 0 0.046389130980076937 0.32668781832131749 0 0.093851963071650835 0.30582068233324772 0 0.087545339447545459 0.35122518864182262 0 0.093851963071650835 0.30582068233324772 0 0.14223753364722069 0.3341983344262433 0 0.087545339447545459 0.35122518864182262 0 0.14223753364722069 0.3341983344262433 0 0.1117088112799664 0.38831403004970022 0 0.087545339447545459 0.35122518864182262 0 0.1117088112799664 0.38831403004970022 0 0.050583896093752537 0.38543522283434112 0 0.087545339447545459 0.35122518864182262 0 0.050583896093752537 0.38543522283434112 0 0.046389130980076937 0.32668781832131749 0 0 0.35000000000145642 0 0.046389130980076937 0.32668781832131749 0 0.050583896093752537 0.38543522283434112 0 0 0.35000000000145642 0 0 0.30000000000124832 0 0.046389130980076937 0.32668781832131749 0 0 0.30000000000124832 0 0.049706944316556423 0.27522722923869108 0 0.046389130980076937 0.32668781832131749 0 0 0.30000000000124832 0 0 0.25000000000104028 0 0.049706944316556423 0.27522722923869108 0 0 0.25000000000104028 0 0.044081577119474857 0.2271058242433576 0 0.049706944316556423 0.27522722923869108 0 0.078358742472063481 0.43365249433908948 0 0.113541300460994 0.46208784312094731 0 0.068743045408989428 0.48853989837882689 0 0.1216098864341134 0.50637075089503902 0 0.068743045408989428 0.48853989837882689 0 0.113541300460994 0.46208784312094731 0 0.113541300460994 0.46208784312094731 0 0.078358742472063481 0.43365249433908948 0 0.13773355295499351 0.42497777642586831 0 0.078358742472063481 0.43365249433908948 0 0.1117088112799664 0.38831403004970022 0 0.13773355295499351 0.42497777642586831 0 0.078358742472063481 0.43365249433908948 0 0.050583896093752537 0.38543522283434112 0 0.1117088112799664 0.38831403004970022 0 0.078358742472063481 0.43365249433908948 0 0.035463093262830522 0.42673416072819947 0 0.050583896093752537 0.38543522283434112 0 0 0.40000000000166441 0 0 0.35000000000145642 0 0.050583896093752537 0.38543522283434112 0 0 0.40000000000166441 0 0.050583896093752537 0.38543522283434112 0 0.035463093262830522 0.42673416072819947 0 0 0.45000000000187229 0 0 0.40000000000166441 0 0.035463093262830522 0.42673416072819947 0 0 0.45000000000187229 0 0.035463093262830522 0.42673416072819947 0 0.033550201249889847 0.46247875832467239 0 0 0.50000000000205869 0 0.033550201249889847 0.46247875832467239 0 0.068743045408989428 0.48853989837882689 0 0.078358742472063481 0.43365249433908948 0 0.068743045408989428 0.48853989837882689 0 0.033550201249889847 0.46247875832467239 0 0.078358742472063481 0.43365249433908948 0 0.033550201249889847 0.46247875832467239 0 0.035463093262830522 0.42673416072819947 0 0 0.50000000000205869 0 0 0.45000000000187229 0 0.033550201249889847 0.46247875832467239 0 0 0.50000000000205869 0 0.068743045408989428 0.48853989837882689 0 0.044576108720083309 0.53509043209532614 0 0 0.55000000000173355 0 0 0.50000000000205869 0 0.044576108720083309 0.53509043209532614 0 0 0.55000000000173355 0 0.044576108720083309 0.53509043209532614 0 0.034381862692950467 0.57372682250960894 0 0.077693244765132896 0.56932317963405099 0 0.034381862692950467 0.57372682250960894 0 0.044576108720083309 0.53509043209532614 0 0.068743045408989428 0.48853989837882689 0 0.085622222639554768 0.53333248912060549 0 0.044576108720083309 0.53509043209532614 0 0.1216098864341134 0.50637075089503902 0 0.085622222639554768 0.53333248912060549 0 0.068743045408989428 0.48853989837882689 0 0.077693244765132896 0.56932317963405099 0 0.044576108720083309 0.53509043209532614 0 0.085622222639554768 0.53333248912060549 0 0.077693244765132896 0.56932317963405099 0 0.085622222639554768 0.53333248912060549 0 0.1154888278694548 0.56733818459978413 0 0.085622222639554768 0.53333248912060549 0 0.1216098864341134 0.50637075089503902 0 0.1154888278694548 0.56733818459978413 0 0.077693244765132896 0.56932317963405099 0 0.1154888278694548 0.56733818459978413 0 0.1024350934457823 0.60772393977513839 0 0.086179601630648681 0.64647209519980475 0 0.050069554451969707 0.61308520079857043 0 0.1024350934457823 0.60772393977513839 0 0.077693244765132896 0.56932317963405099 0 0.1024350934457823 0.60772393977513839 0 0.050069554451969707 0.61308520079857043 0 0.077693244765132896 0.56932317963405099 0 0.050069554451969707 0.61308520079857043 0 0.034381862692950467 0.57372682250960894 0 0 0.60000000000138687 0 0 0.55000000000173355 0 0.034381862692950467 0.57372682250960894 0 0 0.65000000000104008 0 0 0.60000000000138687 0 0.050069554451969707 0.61308520079857043 0 0 0.60000000000138687 0 0.034381862692950467 0.57372682250960894 0 0.050069554451969707 0.61308520079857043 0 0 0.7000000000006934 0 0 0.65000000000104008 0 0.046634677244967337 0.671418230738282 0 0.086179601630648681 0.64647209519980475 0 0.046634677244967337 0.671418230738282 0 0.050069554451969707 0.61308520079857043 0 0 0.65000000000104008 0 0.050069554451969707 0.61308520079857043 0 0.046634677244967337 0.671418230738282 0 0 0.75000000000034661 0 0 0.7000000000006934 0 0.049706944316475897 0.72477277076253799 0 0 0.7000000000006934 0 0.046634677244967337 0.671418230738282 0 0.049706944316475897 0.72477277076253799 0 0 0.75000000000034661 0 0.049706944316475897 0.72477277076253799 0 0.04408157711937423 0.7728941757575627 0 0.049706944316475897 0.72477277076253799 0 0.1020579365089687 0.69352219419301997 0 0.090953281884486245 0.7564451946902494 0 0.1215415378367805 0.72939333680004137 0 0.090953281884486245 0.7564451946902494 0 0.1020579365089687 0.69352219419301997 0 0.049706944316475897 0.72477277076253799 0 0.046634677244967337 0.671418230738282 0 0.1020579365089687 0.69352219419301997 0 0.1215415378367805 0.72939333680004137 0 0.14335651144331049 0.75565258250209677 0 0.090953281884486245 0.7564451946902494 0 0.086179601630648681 0.64647209519980475 0 0.1020579365089687 0.69352219419301997 0 0.046634677244967337 0.671418230738282 0 0.086179601630648681 0.64647209519980475 0 0.1241190223511371 0.64391885572885044 0 0.1020579365089687 0.69352219419301997 0 0.086179601630648681 0.64647209519980475 0 0.1024350934457823 0.60772393977513839 0 0.1241190223511371 0.64391885572885044 0 0.16500388252850301 0.66612077714085194 0 0.1020579365089687 0.69352219419301997 0 0.1241190223511371 0.64391885572885044 0 0.15720202157091859 0.60665697304410315 0 0.16500388252850301 0.66612077714085194 0 0.1241190223511371 0.64391885572885044 0 0.15720202157091859 0.60665697304410315 0 0.19914261668318661 0.62286739485272158 0 0.16500388252850301 0.66612077714085194 0 0.16500388252850301 0.66612077714085194 0 0.15332765547575641 0.71200081858233666 0 0.1020579365089687 0.69352219419301997 0 0.1215415378367805 0.72939333680004137 0 0.15332765547575641 0.71200081858233666 0 0.14335651144331049 0.75565258250209677 0 0.1215415378367805 0.72939333680004137 0 0.1020579365089687 0.69352219419301997 0 0.15332765547575641 0.71200081858233666 0 0.16500388252850301 0.66612077714085194 0 0.19068556247388771 0.71028988922845504 0 0.15332765547575641 0.71200081858233666 0 0.18269480424590959 0.75905448272264375 0 0.14335651144331049 0.75565258250209677 0 0.15332765547575641 0.71200081858233666 0 0.18269480424590959 0.75905448272264375 0 0.15332765547575641 0.71200081858233666 0 0.19068556247388771 0.71028988922845504 0 0.18269480424590959 0.75905448272264375 0 0.19068556247388771 0.71028988922845504 0 0.2248999640082178 0.72584299459689172 0 0.2236846579037573 0.67380363126050236 0 0.2248999640082178 0.72584299459689172 0 0.19068556247388771 0.71028988922845504 0 0.2236846579037573 0.67380363126050236 0 0.26439878998046262 0.7048065392091396 0 0.2248999640082178 0.72584299459689172 0 0.25676291524611189 0.7436741304886243 0 0.22556077506376701 0.77837424984191617 0 0.2248999640082178 0.72584299459689172 0 0.25676291524611189 0.7436741304886243 0 0.2248999640082178 0.72584299459689172 0 0.26439878998046262 0.7048065392091396 0 0.2236846579037573 0.67380363126050236 0 0.16500388252850301 0.66612077714085194 0 0.19914261668318661 0.62286739485272158 0 0.2236846579037573 0.67380363126050236 0 0.19068556247388771 0.71028988922845504 0 0.16500388252850301 0.66612077714085194 0 0.2236846579037573 0.67380363126050236 0 0.19914261668318661 0.62286739485272158 0 0.2459498854893499 0.63248470766216769 0 0.2236846579037573 0.67380363126050236 0 0.2459498854893499 0.63248470766216769 0 0.27820712747429932 0.65530134213254643 0 0.22549374774072969 0.58452645269293457 0 0.2459498854893499 0.63248470766216769 0 0.19914261668318661 0.62286739485272158 0 0.26573297623774761 0.59828298563722948 0 0.2459498854893499 0.63248470766216769 0 0.22549374774072969 0.58452645269293457 0 0.22549374774072969 0.58452645269293457 0 0.19914261668318661 0.62286739485272158 0 0.18381867841758909 0.57774125163628387 0 0.20050006573841939 0.53248514016039872 0 0.22549374774072969 0.58452645269293457 0 0.18381867841758909 0.57774125163628387 0 0.26573297623774761 0.59828298563722948 0 0.22549374774072969 0.58452645269293457 0 0.25115337790845271 0.54719303014923271 0 0.20050006573841939 0.53248514016039872 0 0.25115337790845271 0.54719303014923271 0 0.22549374774072969 0.58452645269293457 0 0.20050006573841939 0.53248514016039872 0 0.23975172658309729 0.49475499200540818 0 0.25115337790845271 0.54719303014923271 0 0.20050006573841939 0.53248514016039872 0 0.16618607197337229 0.50652878253548905 0 0.19604738184454831 0.47787523520405789 0 0.20050006573841939 0.53248514016039872 0 0.19604738184454831 0.47787523520405789 0 0.23975172658309729 0.49475499200540818 0 0.20050006573841939 0.53248514016039872 0 0.18381867841758909 0.57774125163628387 0 0.14934928745814749 0.55042914607228977 0 0.20050006573841939 0.53248514016039872 0 0.14934928745814749 0.55042914607228977 0 0.16618607197337229 0.50652878253548905 0 0.1216098864341134 0.50637075089503902 0 0.16618607197337229 0.50652878253548905 0 0.14934928745814749 0.55042914607228977 0 0.1154888278694548 0.56733818459978413 0 0.1216098864341134 0.50637075089503902 0 0.14934928745814749 0.55042914607228977 0 0.15720202157091859 0.60665697304410315 0 0.1154888278694548 0.56733818459978413 0 0.14934928745814749 0.55042914607228977 0 0.15720202157091859 0.60665697304410315 0 0.1024350934457823 0.60772393977513839 0 0.1154888278694548 0.56733818459978413 0 0.15720202157091859 0.60665697304410315 0 0.1241190223511371 0.64391885572885044 0 0.1024350934457823 0.60772393977513839 0 0.18381867841758909 0.57774125163628387 0 0.19914261668318661 0.62286739485272158 0 0.15720202157091859 0.60665697304410315 0 0.15720202157091859 0.60665697304410315 0 0.14934928745814749 0.55042914607228977 0 0.18381867841758909 0.57774125163628387 0 0.15000000000062411 1 0 0.10000000000041601 1 0 0.10266856499240549 0.95548163909968886 0 0.083411279318375747 0.91030024466934134 0 0.10266856499240549 0.95548163909968886 0 0.053064897599294662 0.95186845269532028 0 0.050000000000207989 1 0 0.053064897599294662 0.95186845269532028 0 0.10000000000041601 1 0 0.10000000000041601 1 0 0.053064897599294662 0.95186845269532028 0 0.10266856499240549 0.95548163909968886 0 0.050000000000207989 1 0 0.025766224399875661 0.97546711317377799 0 0.053064897599294662 0.95186845269532028 0 0 1 0 0.025766224399875661 0.97546711317377799 0 0.050000000000207989 1 0 0 1 0 0 0.94999999999979179 0 0.025766224399875661 0.97546711317377799 0 0 0.94999999999979179 0 0.053064897599294662 0.95186845269532028 0 0.025766224399875661 0.97546711317377799 0 0 0.94999999999979179 0 0.0443105827531413 0.89858748162559932 0 0.053064897599294662 0.95186845269532028 0 0.083411279318375747 0.91030024466934134 0 0.053064897599294662 0.95186845269532028 0 0.0443105827531413 0.89858748162559932 0 0 0.94999999999979179 0 0 0.89999999999958358 0 0.0443105827531413 0.89858748162559932 0 0 0.89999999999958358 0 0 0.84999999999965292 0 0.0443105827531413 0.89858748162559932 0 0.083411279318375747 0.91030024466934134 0 0.0443105827531413 0.89858748162559932 0 0.065374659239661639 0.8551091961254178 0 0.083411279318375747 0.91030024466934134 0 0.065374659239661639 0.8551091961254178 0 0.10562472963403439 0.87143394428979881 0 0.083411279318375747 0.91030024466934134 0 0.1241151115713819 0.9045666525468371 0 0.10266856499240549 0.95548163909968886 0 0.14617343800780541 0.93808063414349496 0 0.10266856499240549 0.95548163909968886 0 0.1241151115713819 0.9045666525468371 0 0.14474682429600511 0.85524784522713515 0 0.1241151115713819 0.9045666525468371 0 0.10562472963403439 0.87143394428979881 0 0.083411279318375747 0.91030024466934134 0 0.10562472963403439 0.87143394428979881 0 0.1241151115713819 0.9045666525468371 0 0.14474682429600511 0.85524784522713515 0 0.10562472963403439 0.87143394428979881 0 0.1074251789111534 0.83564394292147814 0 0.083105206071452636 0.79992298667296435 0 0.1074251789111534 0.83564394292147814 0 0.065374659239661639 0.8551091961254178 0 0.065374659239661639 0.8551091961254178 0 0.1074251789111534 0.83564394292147814 0 0.10562472963403439 0.87143394428979881 0 0 0.84999999999965292 0 0.038512288486097702 0.8155852717111195 0 0.065374659239661639 0.8551091961254178 0 0 0.84999999999965292 0 0.065374659239661639 0.8551091961254178 0 0.0443105827531413 0.89858748162559932 0 0 0.84999999999965292 0 0 0.79999999999999982 0 0.038512288486097702 0.8155852717111195 0 0.083105206071452636 0.79992298667296435 0 0.065374659239661639 0.8551091961254178 0 0.038512288486097702 0.8155852717111195 0 0.083105206071452636 0.79992298667296435 0 0.038512288486097702 0.8155852717111195 0 0.04408157711937423 0.7728941757575627 0 0 0.79999999999999982 0 0.04408157711937423 0.7728941757575627 0 0.038512288486097702 0.8155852717111195 0 0 0.79999999999999982 0 0 0.75000000000034661 0 0.04408157711937423 0.7728941757575627 0 0.049706944316475897 0.72477277076253799 0 0.090953281884486245 0.7564451946902494 0 0.04408157711937423 0.7728941757575627 0 0.083105206071452636 0.79992298667296435 0 0.04408157711937423 0.7728941757575627 0 0.090953281884486245 0.7564451946902494 0 0.083105206071452636 0.79992298667296435 0 0.1382744753146134 0.79650574229207483 0 0.1074251789111534 0.83564394292147814 0 0.083105206071452636 0.79992298667296435 0 0.090953281884486245 0.7564451946902494 0 0.1382744753146134 0.79650574229207483 0 0.1382744753146134 0.79650574229207483 0 0.090953281884486245 0.7564451946902494 0 0.14335651144331049 0.75565258250209677 0 0.18269480424590959 0.75905448272264375 0 0.1382744753146134 0.79650574229207483 0 0.14335651144331049 0.75565258250209677 0 0.18269480424590959 0.75905448272264375 0 0.17777405986036951 0.81832336108265358 0 0.1382744753146134 0.79650574229207483 0 0.18269480424590959 0.75905448272264375 0 0.2248999640082178 0.72584299459689172 0 0.22556077506376701 0.77837424984191617 0 0.21858834311891909 0.81980263716112767 0 0.22556077506376701 0.77837424984191617 0 0.26104540868854792 0.81401944968719064 0 0.21858834311891909 0.81980263716112767 0 0.17777405986036951 0.81832336108265358 0 0.22556077506376701 0.77837424984191617 0 0.18269480424590959 0.75905448272264375 0 0.22556077506376701 0.77837424984191617 0 0.17777405986036951 0.81832336108265358 0 0.21858834311891909 0.81980263716112767 0 0.19741632902693801 0.86755867406447229 0 0.17777405986036951 0.81832336108265358 0 0.21858834311891909 0.81980263716112767 0 0.26104540868854792 0.81401944968719064 0 0.2401283238295133 0.85648409884788523 0 0.21858834311891909 0.81980263716112767 0 0.2401283238295133 0.85648409884788523 0 0.19741632902693801 0.86755867406447229 0 0.14474682429600511 0.85524784522713515 0 0.17777405986036951 0.81832336108265358 0 0.19741632902693801 0.86755867406447229 0 0.14474682429600511 0.85524784522713515 0 0.19741632902693801 0.86755867406447229 0 0.16206583317966519 0.89685560785156404 0 0.14474682429600511 0.85524784522713515 0 0.1382744753146134 0.79650574229207483 0 0.17777405986036951 0.81832336108265358 0 0.14474682429600511 0.85524784522713515 0 0.1074251789111534 0.83564394292147814 0 0.1382744753146134 0.79650574229207483 0 0.14474682429600511 0.85524784522713515 0 0.16206583317966519 0.89685560785156404 0 0.1241151115713819 0.9045666525468371 0 0.14617343800780541 0.93808063414349496 0 0.1241151115713819 0.9045666525468371 0 0.16206583317966519 0.89685560785156404 0 0.19901705110390991 0.9175543425573498 0 0.14617343800780541 0.93808063414349496 0 0.16206583317966519 0.89685560785156404 0 0.19901705110390991 0.9175543425573498 0 0.16206583317966519 0.89685560785156404 0 0.19741632902693801 0.86755867406447229 0 0.19901705110390991 0.9175543425573498 0 0.19741632902693801 0.86755867406447229 0 0.24536017905392571 0.90704567837671446 0 0.19741632902693801 0.86755867406447229 0 0.2401283238295133 0.85648409884788523 0 0.24536017905392571 0.90704567837671446 0 0.19901705110390991 0.9175543425573498 0 0.24536017905392571 0.90704567837671446 0 0.22850979588452081 0.95594428570238643 0 0.19901705110390991 0.9175543425573498 0 0.22850979588452081 0.95594428570238643 0 0.18474005699953849 0.96231585248064622 0 0.27609987656793722 0.94991445621608572 0 0.22850979588452081 0.95594428570238643 0 0.24536017905392571 0.90704567837671446 0 0.25000000000104028 1 0 0.20000000000083221 1 0 0.22850979588452081 0.95594428570238643 0 0.20000000000083221 1 0 0.18474005699953849 0.96231585248064622 0 0.22850979588452081 0.95594428570238643 0 0.20000000000083221 1 0 0.15000000000062411 1 0 0.18474005699953849 0.96231585248064622 0 0.19901705110390991 0.9175543425573498 0 0.18474005699953849 0.96231585248064622 0 0.14617343800780541 0.93808063414349496 0 0.15000000000062411 1 0 0.14617343800780541 0.93808063414349496 0 0.18474005699953849 0.96231585248064622 0 0.15000000000062411 1 0 0.10266856499240549 0.95548163909968886 0 0.14617343800780541 0.93808063414349496 0 0.35000000000145642 1 0 0.32544832635163229 0.95485394099568932 0 0.36184234618600131 0.96443954459096326 0 0.40000000000166441 1 0 0.35000000000145642 1 0 0.36184234618600131 0.96443954459096326 0 0.35752321586431363 0.9185439911803448 0 0.36184234618600131 0.96443954459096326 0 0.32544832635163229 0.95485394099568932 0 0.35752321586431363 0.9185439911803448 0 0.39641108128798319 0.94356127926187128 0 0.36184234618600131 0.96443954459096326 0 0.35000000000145642 1 0 0.30000000000124832 1 0 0.32544832635163229 0.95485394099568932 0 0.30000000000124832 1 0 0.25000000000104028 1 0 0.27609987656793722 0.94991445621608572 0 0.25000000000104028 1 0 0.22850979588452081 0.95594428570238643 0 0.27609987656793722 0.94991445621608572 0 0.30000000000124832 1 0 0.27609987656793722 0.94991445621608572 0 0.32544832635163229 0.95485394099568932 0 0.27609987656793722 0.94991445621608572 0 0.30864387279288652 0.89906554525974958 0 0.32544832635163229 0.95485394099568932 0 0.27270076654418179 0.87751467830216623 0 0.30864387279288652 0.89906554525974958 0 0.24536017905392571 0.90704567837671446 0 0.27609987656793722 0.94991445621608572 0 0.24536017905392571 0.90704567837671446 0 0.30864387279288652 0.89906554525974958 0 0.27270076654418179 0.87751467830216623 0 0.24536017905392571 0.90704567837671446 0 0.2401283238295133 0.85648409884788523 0 0.35752321586431363 0.9185439911803448 0 0.30864387279288652 0.89906554525974958 0 0.35864759629805099 0.87963482415279515 0 0.35752321586431363 0.9185439911803448 0 0.32544832635163229 0.95485394099568932 0 0.30864387279288652 0.89906554525974958 0 0.35752321586431363 0.9185439911803448 0 0.35864759629805099 0.87963482415279515 0 0.39767323751400468 0.89584229130535065 0 0.35864759629805099 0.87963482415279515 0 0.33403534827021109 0.84402799729020661 0 0.39536230704883951 0.84069429572832477 0 0.33403534827021109 0.84402799729020661 0 0.35642984951668422 0.80994399665655703 0 0.39536230704883951 0.84069429572832477 0 0.33403534827021109 0.84402799729020661 0 0.30857225866488791 0.81101973481716805 0 0.35642984951668422 0.80994399665655703 0 0.33403534827021109 0.84402799729020661 0 0.35864759629805099 0.87963482415279515 0 0.30864387279288652 0.89906554525974958 0 0.33403534827021109 0.84402799729020661 0 0.30864387279288652 0.89906554525974958 0 0.29209212897034281 0.84715728365233667 0 0.27270076654418179 0.87751467830216623 0 0.29209212897034281 0.84715728365233667 0 0.30864387279288652 0.89906554525974958 0 0.27270076654418179 0.87751467830216623 0 0.2401283238295133 0.85648409884788523 0 0.29209212897034281 0.84715728365233667 0 0.26104540868854792 0.81401944968719064 0 0.29209212897034281 0.84715728365233667 0 0.2401283238295133 0.85648409884788523 0 0.26104540868854792 0.81401944968719064 0 0.30857225866488791 0.81101973481716805 0 0.29209212897034281 0.84715728365233667 0 0.33403534827021109 0.84402799729020661 0 0.29209212897034281 0.84715728365233667 0 0.30857225866488791 0.81101973481716805 0 0.26104540868854792 0.81401944968719064 0 0.2792923945214143 0.77665808831789485 0 0.30857225866488791 0.81101973481716805 0 0.33123028043633618 0.77629643437932982 0 0.30857225866488791 0.81101973481716805 0 0.2792923945214143 0.77665808831789485 0 0.26104540868854792 0.81401944968719064 0 0.22556077506376701 0.77837424984191617 0 0.2792923945214143 0.77665808831789485 0 0.25676291524611189 0.7436741304886243 0 0.29904318922293632 0.74132814928635593 0 0.2792923945214143 0.77665808831789485 0 0.25676291524611189 0.7436741304886243 0 0.2792923945214143 0.77665808831789485 0 0.22556077506376701 0.77837424984191617 0 0.33123028043633618 0.77629643437932982 0 0.2792923945214143 0.77665808831789485 0 0.29904318922293632 0.74132814928635593 0 0.33123028043633618 0.77629643437932982 0 0.29904318922293632 0.74132814928635593 0 0.35415581127540569 0.73730480045900215 0 0.33123028043633618 0.77629643437932982 0 0.35642984951668422 0.80994399665655703 0 0.30857225866488791 0.81101973481716805 0 0.33123028043633618 0.77629643437932982 0 0.38586766253264881 0.78219501014812498 0 0.35642984951668422 0.80994399665655703 0 0.33123028043633618 0.77629643437932982 0 0.35415581127540569 0.73730480045900215 0 0.38586766253264881 0.78219501014812498 0 0.40326160981139969 0.73346192995102844 0 0.42676259796334498 0.76772545931379299 0 0.38586766253264881 0.78219501014812498 0 0.40326160981139969 0.73346192995102844 0 0.38586766253264881 0.78219501014812498 0 0.35415581127540569 0.73730480045900215 0 0.39536230704883951 0.84069429572832477 0 0.38586766253264881 0.78219501014812498 0 0.42609163930740518 0.80361684430568059 0 0.39536230704883951 0.84069429572832477 0 0.35642984951668422 0.80994399665655703 0 0.38586766253264881 0.78219501014812498 0 0.38586766253264881 0.78219501014812498 0 0.42676259796334498 0.76772545931379299 0 0.42609163930740518 0.80361684430568059 0 0.4656888918609538 0.78493261229743638 0 0.42676259796334498 0.76772545931379299 0 0.45582236402875981 0.73896743678908217 0 0.4656888918609538 0.78493261229743638 0 0.45582236402875981 0.73896743678908217 0 0.50945740445113552 0.75476055527778108 0 0.4656888918609538 0.78493261229743638 0 0.50945740445113552 0.75476055527778108 0 0.50731287292894423 0.78963574450233831 0 0.4656888918609538 0.78493261229743638 0 0.50731287292894423 0.78963574450233831 0 0.50627822638148745 0.8263979829520941 0 0.4656888918609538 0.78493261229743638 0 0.45677673713123867 0.84253684404072415 0 0.42609163930740518 0.80361684430568059 0 0.4656888918609538 0.78493261229743638 0 0.42609163930740518 0.80361684430568059 0 0.42676259796334498 0.76772545931379299 0 0.4656888918609538 0.78493261229743638 0 0.50627822638148745 0.8263979829520941 0 0.45677673713123867 0.84253684404072415 0 0.50202631463681879 0.87892870825713787 0 0.45677673713123867 0.84253684404072415 0 0.50627822638148745 0.8263979829520941 0 0.50202631463681879 0.87892870825713787 0 0.44003836461056539 0.88093474584252718 0 0.45677673713123867 0.84253684404072415 0 0.39536230704883951 0.84069429572832477 0 0.45677673713123867 0.84253684404072415 0 0.44003836461056539 0.88093474584252718 0 0.39536230704883951 0.84069429572832477 0 0.44003836461056539 0.88093474584252718 0 0.39767323751400468 0.89584229130535065 0 0.39536230704883951 0.84069429572832477 0 0.42609163930740518 0.80361684430568059 0 0.45677673713123867 0.84253684404072415 0 0.39536230704883951 0.84069429572832477 0 0.39767323751400468 0.89584229130535065 0 0.35864759629805099 0.87963482415279515 0 0.35752321586431363 0.9185439911803448 0 0.39767323751400468 0.89584229130535065 0 0.39641108128798319 0.94356127926187128 0 0.4367309254023824 0.92065556789053882 0 0.39641108128798319 0.94356127926187128 0 0.39767323751400468 0.89584229130535065 0 0.4367309254023824 0.92065556789053882 0 0.39767323751400468 0.89584229130535065 0 0.44003836461056539 0.88093474584252718 0 0.4367309254023824 0.92065556789053882 0 0.44003836461056539 0.88093474584252718 0 0.47401147028110507 0.91529957330468115 0 0.50202631463681879 0.87892870825713787 0 0.47401147028110507 0.91529957330468115 0 0.44003836461056539 0.88093474584252718 0 0.52122150208832174 0.94089974453840242 0 0.47135117303824892 0.95556877749289892 0 0.47401147028110507 0.91529957330468115 0 0.50202631463681879 0.87892870825713787 0 0.52122150208832174 0.94089974453840242 0 0.47401147028110507 0.91529957330468115 0 0.4367309254023824 0.92065556789053882 0 0.47401147028110507 0.91529957330468115 0 0.47135117303824892 0.95556877749289892 0 0.4367309254023824 0.92065556789053882 0 0.47135117303824892 0.95556877749289892 0 0.4308986359464303 0.96395712492906194 0 0.50000000000205869 1 0 0.47135117303824892 0.95556877749289892 0 0.52122150208832174 0.94089974453840242 0 0.50000000000205869 1 0 0.45000000000187229 1 0 0.47135117303824892 0.95556877749289892 0 0.45000000000187229 1 0 0.4308986359464303 0.96395712492906194 0 0.47135117303824892 0.95556877749289892 0 0.45000000000187229 1 0 0.40000000000166441 1 0 0.4308986359464303 0.96395712492906194 0 0.40000000000166441 1 0 0.39641108128798319 0.94356127926187128 0 0.4308986359464303 0.96395712492906194 0 0.4367309254023824 0.92065556789053882 0 0.4308986359464303 0.96395712492906194 0 0.39641108128798319 0.94356127926187128 0 0.40000000000166441 1 0 0.36184234618600131 0.96443954459096326 0 0.39641108128798319 0.94356127926187128 0 0.33122374654748771 0.57588941099433744 0 0.35765792684946668 0.6000687869219653 0 0.31502927232353312 0.6134992213375432 0 0.35864735590330371 0.63903383440414463 0 0.31502927232353312 0.6134992213375432 0 0.35765792684946668 0.6000687869219653 0 0.35864735590330371 0.63903383440414463 0 0.35765792684946668 0.6000687869219653 0 0.39743091024207589 0.6239520004230239 0 0.33122374654748771 0.57588941099433744 0 0.37272913873093971 0.56192925302619479 0 0.35765792684946668 0.6000687869219653 0 0.38244435121258652 0.51653317813019495 0 0.37272913873093971 0.56192925302619479 0 0.33190227185843768 0.52715113583864037 0 0.33122374654748771 0.57588941099433744 0 0.33190227185843768 0.52715113583864037 0 0.37272913873093971 0.56192925302619479 0 0.38244435121258652 0.51653317813019495 0 0.33190227185843768 0.52715113583864037 0 0.35024835142131061 0.48654922671676981 0 0.33122374654748771 0.57588941099433744 0 0.29110487519241501 0.56588143995431495 0 0.33190227185843768 0.52715113583864037 0 0.28307294598219601 0.50789252727458634 0 0.33190227185843768 0.52715113583864037 0 0.29110487519241501 0.56588143995431495 0 0.31068898841644388 0.47541502461811092 0 0.33190227185843768 0.52715113583864037 0 0.28307294598219601 0.50789252727458634 0 0.28307294598219601 0.50789252727458634 0 0.25115337790845271 0.54719303014923271 0 0.23975172658309729 0.49475499200540818 0 0.28307294598219601 0.50789252727458634 0 0.29110487519241501 0.56588143995431495 0 0.25115337790845271 0.54719303014923271 0 0.26573297623774761 0.59828298563722948 0 0.25115337790845271 0.54719303014923271 0 0.29110487519241501 0.56588143995431495 0 0.33122374654748771 0.57588941099433744 0 0.31502927232353312 0.6134992213375432 0 0.29110487519241501 0.56588143995431495 0 0.26573297623774761 0.59828298563722948 0 0.29110487519241501 0.56588143995431495 0 0.31502927232353312 0.6134992213375432 0 0.26573297623774761 0.59828298563722948 0 0.31502927232353312 0.6134992213375432 0 0.27820712747429932 0.65530134213254643 0 0.26573297623774761 0.59828298563722948 0 0.27820712747429932 0.65530134213254643 0 0.2459498854893499 0.63248470766216769 0 0.2236846579037573 0.67380363126050236 0 0.27820712747429932 0.65530134213254643 0 0.26439878998046262 0.7048065392091396 0 0.31378396441836959 0.70157213313026345 0 0.27820712747429932 0.65530134213254643 0 0.32263089806001177 0.66003674931826484 0 0.31378396441836959 0.70157213313026345 0 0.26439878998046262 0.7048065392091396 0 0.27820712747429932 0.65530134213254643 0 0.27820712747429932 0.65530134213254643 0 0.31502927232353312 0.6134992213375432 0 0.32263089806001177 0.66003674931826484 0 0.25676291524611189 0.7436741304886243 0 0.26439878998046262 0.7048065392091396 0 0.29904318922293632 0.74132814928635593 0 0.31378396441836959 0.70157213313026345 0 0.29904318922293632 0.74132814928635593 0 0.26439878998046262 0.7048065392091396 0 0.31378396441836959 0.70157213313026345 0 0.35415581127540569 0.73730480045900215 0 0.29904318922293632 0.74132814928635593 0 0.31378396441836959 0.70157213313026345 0 0.36622285152418499 0.69092437780804039 0 0.35415581127540569 0.73730480045900215 0 0.40326160981139969 0.73346192995102844 0 0.35415581127540569 0.73730480045900215 0 0.36622285152418499 0.69092437780804039 0 0.35864735590330371 0.63903383440414463 0 0.32263089806001177 0.66003674931826484 0 0.31502927232353312 0.6134992213375432 0 0.31378396441836959 0.70157213313026345 0 0.32263089806001177 0.66003674931826484 0 0.36622285152418499 0.69092437780804039 0 0.35864735590330371 0.63903383440414463 0 0.36622285152418499 0.69092437780804039 0 0.32263089806001177 0.66003674931826484 0 0.35864735590330371 0.63903383440414463 0 0.3977710372045391 0.65868194622830212 0 0.36622285152418499 0.69092437780804039 0 0.35864735590330371 0.63903383440414463 0 0.39743091024207589 0.6239520004230239 0 0.3977710372045391 0.65868194622830212 0 0.36622285152418499 0.69092437780804039 0 0.3977710372045391 0.65868194622830212 0 0.43323420005758778 0.6913544522562407 0 0.43846182030517877 0.64845797726506715 0 0.43323420005758778 0.6913544522562407 0 0.3977710372045391 0.65868194622830212 0 0.43846182030517877 0.64845797726506715 0 0.39743091024207589 0.6239520004230239 0 0.43545892161006339 0.61093128915313821 0 0.43846182030517877 0.64845797726506715 0 0.3977710372045391 0.65868194622830212 0 0.39743091024207589 0.6239520004230239 0 0.40326160981139969 0.73346192995102844 0 0.36622285152418499 0.69092437780804039 0 0.43323420005758778 0.6913544522562407 0 0.40326160981139969 0.73346192995102844 0 0.43323420005758778 0.6913544522562407 0 0.45582236402875981 0.73896743678908217 0 0.40326160981139969 0.73346192995102844 0 0.45582236402875981 0.73896743678908217 0 0.42676259796334498 0.76772545931379299 0 0.5 0.69999999999999996 0 0.45582236402875981 0.73896743678908217 0 0.43323420005758778 0.6913544522562407 0 0.5 0.69999999999999996 0 0.50945740445113552 0.75476055527778108 0 0.45582236402875981 0.73896743678908217 0 0.5 0.69999999999999996 0 0.43323420005758778 0.6913544522562407 0 0.47913475093885149 0.66010775372412711 0 0.43846182030517877 0.64845797726506715 0 0.47095389620662098 0.61892551373708504 0 0.47913475093885149 0.66010775372412711 0 0.43846182030517877 0.64845797726506715 0 0.43545892161006339 0.61093128915313821 0 0.47095389620662098 0.61892551373708504 0 0.43846182030517877 0.64845797726506715 0 0.47913475093885149 0.66010775372412711 0 0.43323420005758778 0.6913544522562407 0 0.50715858906372158 0.63295939104129484 0 0.47913475093885149 0.66010775372412711 0 0.47095389620662098 0.61892551373708504 0 0.50715858906372158 0.63295939104129484 0 0.47095389620662098 0.61892551373708504 0 0.5166924242153631 0.59825134841919447 0 0.46666084890304671 0.57634471035397938 0 0.5166924242153631 0.59825134841919447 0 0.47095389620662098 0.61892551373708504 0 0.46666084890304671 0.57634471035397938 0 0.47095389620662098 0.61892551373708504 0 0.43545892161006339 0.61093128915313821 0 0.4089290844030305 0.58728915500154233 0 0.43545892161006339 0.61093128915313821 0 0.39743091024207589 0.6239520004230239 0 0.43545892161006339 0.61093128915313821 0 0.4089290844030305 0.58728915500154233 0 0.46666084890304671 0.57634471035397938 0 0.4089290844030305 0.58728915500154233 0 0.42644501560315817 0.54603747078095544 0 0.46666084890304671 0.57634471035397938 0 0.4089290844030305 0.58728915500154233 0 0.37272913873093971 0.56192925302619479 0 0.42644501560315817 0.54603747078095544 0 0.4089290844030305 0.58728915500154233 0 0.35765792684946668 0.6000687869219653 0 0.37272913873093971 0.56192925302619479 0 0.4089290844030305 0.58728915500154233 0 0.39743091024207589 0.6239520004230239 0 0.35765792684946668 0.6000687869219653 0 0.38244435121258652 0.51653317813019495 0 0.42644501560315817 0.54603747078095544 0 0.37272913873093971 0.56192925302619479 0 0.38244435121258652 0.51653317813019495 0 0.43507373378304309 0.49699695397193322 0 0.42644501560315817 0.54603747078095544 0 0.46666084890304671 0.57634471035397938 0 0.47793794143994173 0.52940715638744962 0 0.53245488764484505 0.55078124999999989 0 0.49102375406324739 0.49123754822244059 0 0.47793794143994173 0.52940715638744962 0 0.43507373378304309 0.49699695397193322 0 0.43507373378304309 0.49699695397193322 0 0.47793794143994173 0.52940715638744962 0 0.42644501560315817 0.54603747078095544 0 0.46666084890304671 0.57634471035397938 0 0.42644501560315817 0.54603747078095544 0 0.47793794143994173 0.52940715638744962 0 0.49102375406324739 0.49123754822244059 0 0.53330375813596242 0.50827942741749099 0 0.47793794143994173 0.52940715638744962 0 0.53245488764484505 0.55078124999999989 0 0.47793794143994173 0.52940715638744962 0 0.53330375813596242 0.50827942741749099 0 0.53245488764484505 0.55078124999999989 0 0.53330375813596242 0.50827942741749099 0 0.57435499076887508 0.54267261987897775 0 0.57412547362576272 0.58273804879550706 0 0.53245488764484505 0.55078124999999989 0 0.57435499076887508 0.54267261987897775 0 0.57611405284611883 0.50165903596042916 0 0.57435499076887508 0.54267261987897775 0 0.53330375813596242 0.50827942741749099 0 0.57611405284611883 0.50165903596042916 0 0.62042975506801734 0.54295974692364424 0 0.57435499076887508 0.54267261987897775 0 0.57412547362576272 0.58273804879550706 0 0.57435499076887508 0.54267261987897775 0 0.62042975506801734 0.54295974692364424 0 0.57611405284611883 0.50165903596042916 0 0.61547661924074692 0.48539576058873962 0 0.62042975506801734 0.54295974692364424 0 0.6405463747586706 0.63290524857395714 0 0.5991018319127801 0.62925360607495295 0 0.63065402604362242 0.59661356661633302 0 0.57412547362576272 0.58273804879550706 0 0.63065402604362242 0.59661356661633302 0 0.5991018319127801 0.62925360607495295 0 0.57412547362576272 0.58273804879550706 0 0.62042975506801734 0.54295974692364424 0 0.63065402604362242 0.59661356661633302 0 0.57412547362576272 0.58273804879550706 0 0.5991018319127801 0.62925360607495295 0 0.5498280205245758 0.6290146943450976 0 0.46666084890304671 0.57634471035397938 0 0.53245488764484505 0.55078124999999989 0 0.5166924242153631 0.59825134841919447 0 0.57412547362576272 0.58273804879550706 0 0.5498280205245758 0.6290146943450976 0 0.5166924242153631 0.59825134841919447 0 0.57412547362576272 0.58273804879550706 0 0.5166924242153631 0.59825134841919447 0 0.53245488764484505 0.55078124999999989 0 0.50715858906372158 0.63295939104129484 0 0.5166924242153631 0.59825134841919447 0 0.5498280205245758 0.6290146943450976 0 0.50715858906372158 0.63295939104129484 0 0.52584555706968406 0.66664215091846768 0 0.47913475093885149 0.66010775372412711 0 0.50715858906372158 0.63295939104129484 0 0.5498280205245758 0.6290146943450976 0 0.52584555706968406 0.66664215091846768 0 0.5 0.69999999999999996 0 0.47913475093885149 0.66010775372412711 0 0.52584555706968406 0.66664215091846768 0 0.54999999999999993 0.69999999999999996 0 0.52584555706968406 0.66664215091846768 0 0.57484956128872922 0.66573805030881994 0 0.57484956128872922 0.66573805030881994 0 0.52584555706968406 0.66664215091846768 0 0.5498280205245758 0.6290146943450976 0 0.50945740445113552 0.75476055527778108 0 0.5 0.69999999999999996 0 0.55363780716230748 0.74348740161571747 0 0.5 0.69999999999999996 0 0.52584555706968406 0.66664215091846768 0 0.54999999999999993 0.69999999999999996 0 0.5 0.69999999999999996 0 0.54999999999999993 0.69999999999999996 0 0.5 0.69999999999999996 0 0.54999999999999993 0.69999999999999996 0 0.55363780716230748 0.74348740161571747 0 0.59999999999999976 0.69999999999999996 0 0.59636844454254345 0.75937156204589151 0 0.55363780716230748 0.74348740161571747 0 0.54999999999999993 0.69999999999999996 0 0.59999999999999976 0.69999999999999996 0 0.54999999999999993 0.69999999999999996 0 0.57484956128872922 0.66573805030881994 0 0.59999999999999976 0.69999999999999996 0 0.54999999999999993 0.69999999999999996 0 0.59999999999999976 0.69999999999999996 0 0.55363780716230748 0.74348740161571747 0 0.59999999999999976 0.69999999999999996 0 0.6499999999999998 0.69999999999999996 0 0.59999999999999976 0.69999999999999996 0 0.62460753523532009 0.66851202781000296 0 0.6499999999999998 0.69999999999999996 0 0.59999999999999976 0.69999999999999996 0 0.63221990677827677 0.73442891067859706 0 0.59636844454254345 0.75937156204589151 0 0.57484956128872922 0.66573805030881994 0 0.5498280205245758 0.6290146943450976 0 0.5991018319127801 0.62925360607495295 0 0.59999999999999976 0.69999999999999996 0 0.57484956128872922 0.66573805030881994 0 0.62460753523532009 0.66851202781000296 0 0.57484956128872922 0.66573805030881994 0 0.5991018319127801 0.62925360607495295 0 0.62460753523532009 0.66851202781000296 0 0.6405463747586706 0.63290524857395714 0 0.62460753523532009 0.66851202781000296 0 0.5991018319127801 0.62925360607495295 0 0.6405463747586706 0.63290524857395714 0 0.675261390228442 0.65996937624687813 0 0.62460753523532009 0.66851202781000296 0 0.6499999999999998 0.69999999999999996 0 0.62460753523532009 0.66851202781000296 0 0.675261390228442 0.65996937624687813 0 0.6499999999999998 0.69999999999999996 0 0.675261390228442 0.65996937624687813 0 0.69999999999999984 0.69999999999999996 0 0.6405463747586706 0.63290524857395714 0 0.67529834988829951 0.61613270668143583 0 0.675261390228442 0.65996937624687813 0 0.64753070846764316 0.77332939069435502 0 0.63221990677827677 0.73442891067859706 0 0.66427993341343905 0.73232764502436276 0 0.6499999999999998 0.69999999999999996 0 0.66427993341343905 0.73232764502436276 0 0.63221990677827677 0.73442891067859706 0 0.59999999999999976 0.69999999999999996 0 0.6499999999999998 0.69999999999999996 0 0.63221990677827677 0.73442891067859706 0 0.6499999999999998 0.69999999999999996 0 0.69999999999999984 0.69999999999999996 0 0.6499999999999998 0.69999999999999996 0 0.69999999999999984 0.69999999999999996 0 0.66427993341343905 0.73232764502436276 0 0.69999999999999984 0.69999999999999996 0 0.6916490518212759 0.75387992374886192 0 0.66427993341343905 0.73232764502436276 0 0.69999999999999984 0.69999999999999996 0 0.72501250972655151 0.74067302935308721 0 0.6916490518212759 0.75387992374886192 0 0.69999999999999984 0.69999999999999996 0 0.74999999999999989 0.69999999999999996 0 0.72501250972655151 0.74067302935308721 0 0.69999999999999984 0.69999999999999996 0 0.72500000000000064 0.67022701834392062 0 0.74999999999999989 0.69999999999999996 0 0.69999999999999984 0.69999999999999996 0 0.74999999999999989 0.69999999999999996 0 0.74999999999999989 0.69999999999999996 0 0.75841349681148107 0.75422312624214749 0 0.72501250972655151 0.74067302935308721 0 0.71406021706547751 0.63292083137662503 0 0.72500000000000064 0.67022701834392062 0 0.675261390228442 0.65996937624687813 0 0.71406021706547751 0.63292083137662503 0 0.675261390228442 0.65996937624687813 0 0.67529834988829951 0.61613270668143583 0 0.69999999999999984 0.69999999999999996 0 0.675261390228442 0.65996937624687813 0 0.72500000000000064 0.67022701834392062 0 0.71406021706547751 0.63292083137662503 0 0.74994237037456724 0.62775548192980357 0 0.72500000000000064 0.67022701834392062 0 0.7750489929959945 0.66593931409600093 0 0.72500000000000064 0.67022701834392062 0 0.74994237037456724 0.62775548192980357 0 0.71406021706547751 0.63292083137662503 0 0.71809016091162536 0.58185040402320831 0 0.74994237037456724 0.62775548192980357 0 0.77293540622714185 0.59448302402785813 0 0.74994237037456724 0.62775548192980357 0 0.71809016091162536 0.58185040402320831 0 0.71406021706547751 0.63292083137662503 0 0.67529834988829951 0.61613270668143583 0 0.71809016091162536 0.58185040402320831 0 0.67323294229744413 0.57556450033612505 0 0.67569444444444449 0.53500863336860327 0 0.71809016091162536 0.58185040402320831 0 0.67323294229744413 0.57556450033612505 0 0.71809016091162536 0.58185040402320831 0 0.67529834988829951 0.61613270668143583 0 0.7152569930854884 0.5237994455134295 0 0.77151014687832564 0.54436834383023036 0 0.71809016091162536 0.58185040402320831 0 0.7152569930854884 0.5237994455134295 0 0.73947346780852752 0.49062440112282169 0 0.77151014687832564 0.54436834383023036 0 0.7152569930854884 0.5237994455134295 0 0.67569444444444449 0.53500863336860327 0 0.69385896817107129 0.48377516041410151 0 0.7152569930854884 0.5237994455134295 0 0.71809016091162536 0.58185040402320831 0 0.67569444444444449 0.53500863336860327 0 0.67323294229744413 0.57556450033612505 0 0.62042975506801734 0.54295974692364424 0 0.67569444444444449 0.53500863336860327 0 0.6541250972820879 0.49999999999999989 0 0.69385896817107129 0.48377516041410151 0 0.67569444444444449 0.53500863336860327 0 0.6541250972820879 0.49999999999999989 0 0.67569444444444449 0.53500863336860327 0 0.62042975506801734 0.54295974692364424 0 0.6541250972820879 0.49999999999999989 0 0.62042975506801734 0.54295974692364424 0 0.61547661924074692 0.48539576058873962 0 0.67323294229744413 0.57556450033612505 0 0.63065402604362242 0.59661356661633302 0 0.62042975506801734 0.54295974692364424 0 0.6405463747586706 0.63290524857395714 0 0.63065402604362242 0.59661356661633302 0 0.67529834988829951 0.61613270668143583 0 0.67323294229744413 0.57556450033612505 0 0.67529834988829951 0.61613270668143583 0 0.63065402604362242 0.59661356661633302 0 0.60000000000138687 1 0 0.57382506491224949 0.9629411906298494 0 0.62065498684670595 0.95224934003983619 0 0.65000000000104008 1 0 0.60000000000138687 1 0 0.62065498684670595 0.95224934003983619 0 0.57724883562309992 0.92155686857100794 0 0.62065498684670595 0.95224934003983619 0 0.57382506491224949 0.9629411906298494 0 0.60000000000138687 1 0 0.55000000000173355 1 0 0.57382506491224949 0.9629411906298494 0 0.55000000000173355 1 0 0.50000000000205869 1 0 0.52122150208832174 0.94089974453840242 0 0.57724883562309992 0.92155686857100794 0 0.57382506491224949 0.9629411906298494 0 0.52122150208832174 0.94089974453840242 0 0.55000000000173355 1 0 0.52122150208832174 0.94089974453840242 0 0.57382506491224949 0.9629411906298494 0 0.57724883562309992 0.92155686857100794 0 0.52122150208832174 0.94089974453840242 0 0.54783390826260769 0.89287767010860219 0 0.50202631463681879 0.87892870825713787 0 0.54783390826260769 0.89287767010860219 0 0.52122150208832174 0.94089974453840242 0 0.55899371797446828 0.85003102233514438 0 0.5832743223239254 0.88483152652961872 0 0.54783390826260769 0.89287767010860219 0 0.57724883562309992 0.92155686857100794 0 0.54783390826260769 0.89287767010860219 0 0.5832743223239254 0.88483152652961872 0 0.57724883562309992 0.92155686857100794 0 0.5832743223239254 0.88483152652961872 0 0.61885627562261258 0.90282959257498208 0 0.57724883562309992 0.92155686857100794 0 0.61885627562261258 0.90282959257498208 0 0.62065498684670595 0.95224934003983619 0 0.61343887413683884 0.856862479058357 0 0.61885627562261258 0.90282959257498208 0 0.5832743223239254 0.88483152652961872 0 0.61343887413683884 0.856862479058357 0 0.60294066490120068 0.80851322453934582 0 0.65005442820240822 0.82644988530054031 0 0.61343887413683884 0.856862479058357 0 0.55899371797446828 0.85003102233514438 0 0.60294066490120068 0.80851322453934582 0 0.54782696902220018 0.79245182748204157 0 0.60294066490120068 0.80851322453934582 0 0.55899371797446828 0.85003102233514438 0 0.61343887413683884 0.856862479058357 0 0.5832743223239254 0.88483152652961872 0 0.55899371797446828 0.85003102233514438 0 0.50202631463681879 0.87892870825713787 0 0.55899371797446828 0.85003102233514438 0 0.54783390826260769 0.89287767010860219 0 0.50202631463681879 0.87892870825713787 0 0.50627822638148745 0.8263979829520941 0 0.55899371797446828 0.85003102233514438 0 0.54782696902220018 0.79245182748204157 0 0.55899371797446828 0.85003102233514438 0 0.50627822638148745 0.8263979829520941 0 0.54782696902220018 0.79245182748204157 0 0.50627822638148745 0.8263979829520941 0 0.50731287292894423 0.78963574450233831 0 0.54782696902220018 0.79245182748204157 0 0.50731287292894423 0.78963574450233831 0 0.50945740445113552 0.75476055527778108 0 0.54782696902220018 0.79245182748204157 0 0.50945740445113552 0.75476055527778108 0 0.55363780716230748 0.74348740161571747 0 0.54782696902220018 0.79245182748204157 0 0.55363780716230748 0.74348740161571747 0 0.59636844454254345 0.75937156204589151 0 0.54782696902220018 0.79245182748204157 0 0.59636844454254345 0.75937156204589151 0 0.60294066490120068 0.80851322453934582 0 0.64753070846764316 0.77332939069435502 0 0.60294066490120068 0.80851322453934582 0 0.59636844454254345 0.75937156204589151 0 0.64753070846764316 0.77332939069435502 0 0.59636844454254345 0.75937156204589151 0 0.63221990677827677 0.73442891067859706 0 0.64753070846764316 0.77332939069435502 0 0.65005442820240822 0.82644988530054031 0 0.60294066490120068 0.80851322453934582 0 0.64753070846764316 0.77332939069435502 0 0.68024162096458085 0.79868546898116533 0 0.65005442820240822 0.82644988530054031 0 0.64753070846764316 0.77332939069435502 0 0.6916490518212759 0.75387992374886192 0 0.68024162096458085 0.79868546898116533 0 0.64753070846764316 0.77332939069435502 0 0.66427993341343905 0.73232764502436276 0 0.6916490518212759 0.75387992374886192 0 0.6916490518212759 0.75387992374886192 0 0.72501250972655151 0.74067302935308721 0 0.72500000000000064 0.7952620967744265 0 0.72501250972655151 0.74067302935308721 0 0.75841349681148107 0.75422312624214749 0 0.72500000000000064 0.7952620967744265 0 0.72500000000000064 0.7952620967744265 0 0.68024162096458085 0.79868546898116533 0 0.6916490518212759 0.75387992374886192 0 0.72500000000000064 0.7952620967744265 0 0.68697391633157634 0.84450604838764298 0 0.68024162096458085 0.79868546898116533 0 0.72500000000000064 0.7952620967744265 0 0.72863726579783861 0.85390518901155588 0 0.68697391633157634 0.84450604838764298 0 0.72500000000000064 0.7952620967744265 0 0.76901770135486491 0.84293557325473656 0 0.72863726579783861 0.85390518901155588 0 0.7250000000005199 0.89375000000045834 0 0.68697391633157634 0.84450604838764298 0 0.72863726579783861 0.85390518901155588 0 0.7250000000005199 0.89375000000045834 0 0.66412543161245952 0.88015090885499059 0 0.68697391633157634 0.84450604838764298 0 0.68697391633157634 0.84450604838764298 0 0.66412543161245952 0.88015090885499059 0 0.65005442820240822 0.82644988530054031 0 0.68697391633157634 0.84450604838764298 0 0.65005442820240822 0.82644988530054031 0 0.68024162096458085 0.79868546898116533 0 0.61343887413683884 0.856862479058357 0 0.65005442820240822 0.82644988530054031 0 0.66412543161245952 0.88015090885499059 0 0.61343887413683884 0.856862479058357 0 0.66412543161245952 0.88015090885499059 0 0.61885627562261258 0.90282959257498208 0 0.65507451745379841 0.92229208810758578 0 0.61885627562261258 0.90282959257498208 0 0.66412543161245952 0.88015090885499059 0 0.65507451745379841 0.92229208810758578 0 0.62065498684670595 0.95224934003983619 0 0.61885627562261258 0.90282959257498208 0 0.65507451745379841 0.92229208810758578 0 0.68987011941058407 0.92105047536677087 0 0.68015064798562208 0.95924320340003011 0 0.65507451745379841 0.92229208810758578 0 0.66412543161245952 0.88015090885499059 0 0.68987011941058407 0.92105047536677087 0 0.7250000000005199 0.89375000000045834 0 0.68987011941058407 0.92105047536677087 0 0.66412543161245952 0.88015090885499059 0 0.7250000000005199 0.89375000000045834 0 0.72863726579783861 0.85390518901155588 0 0.76891166905518427 0.88835469571185499 0 0.7250000000005199 0.89375000000045834 0 0.75729602384198635 0.92353652857884294 0 0.7250000000005199 0.94981617647078953 0 0.7250000000005199 0.89375000000045834 0 0.7250000000005199 0.94981617647078953 0 0.68987011941058407 0.92105047536677087 0 0.7250000000005199 0.94981617647078953 0 0.68015064798562208 0.95924320340003011 0 0.68987011941058407 0.92105047536677087 0 0.75000000000034661 1 0 0.7000000000006934 1 0 0.7250000000005199 0.94981617647078953 0 0.75000000000034661 1 0 0.7250000000005199 0.94981617647078953 0 0.770759834363826 0.95919399014344442 0 0.7000000000006934 1 0 0.68015064798562208 0.95924320340003011 0 0.7250000000005199 0.94981617647078953 0 0.7000000000006934 1 0 0.65000000000104008 1 0 0.68015064798562208 0.95924320340003011 0 0.65507451745379841 0.92229208810758578 0 0.68015064798562208 0.95924320340003011 0 0.62065498684670595 0.95224934003983619 0 0.65000000000104008 1 0 0.62065498684670595 0.95224934003983619 0 0.68015064798562208 0.95924320340003011 0 0.84999999999965292 1 0 0.85170973911348691 0.93569607295217616 0 0.89898474358632463 0.95391965591118966 0 0.84999999999965292 1 0 0.81486180804382891 0.96321394949790495 0 0.85170973911348691 0.93569607295217616 0 0.79680861578988083 0.92656778056766709 0 0.85170973911348691 0.93569607295217616 0 0.81486180804382891 0.96321394949790495 0 0.84999999999965292 1 0 0.79999999999999982 1 0 0.81486180804382891 0.96321394949790495 0 0.79999999999999982 1 0 0.770759834363826 0.95919399014344442 0 0.81486180804382891 0.96321394949790495 0 0.79999999999999982 1 0 0.75000000000034661 1 0 0.770759834363826 0.95919399014344442 0 0.7250000000005199 0.94981617647078953 0 0.75729602384198635 0.92353652857884294 0 0.770759834363826 0.95919399014344442 0 0.79680861578988083 0.92656778056766709 0 0.81486180804382891 0.96321394949790495 0 0.770759834363826 0.95919399014344442 0 0.79680861578988083 0.92656778056766709 0 0.75729602384198635 0.92353652857884294 0 0.76891166905518427 0.88835469571185499 0 0.79680861578988083 0.92656778056766709 0 0.770759834363826 0.95919399014344442 0 0.75729602384198635 0.92353652857884294 0 0.7250000000005199 0.89375000000045834 0 0.76891166905518427 0.88835469571185499 0 0.75729602384198635 0.92353652857884294 0 0.79680861578988083 0.92656778056766709 0 0.76891166905518427 0.88835469571185499 0 0.81159157511211755 0.88795995483179491 0 0.85170973911348691 0.93569607295217616 0 0.81159157511211755 0.88795995483179491 0 0.85600844944837662 0.88483418979512773 0 0.79680861578988083 0.92656778056766709 0 0.81159157511211755 0.88795995483179491 0 0.85170973911348691 0.93569607295217616 0 0.90416666666660628 0.9041666666666166 0 0.85170973911348691 0.93569607295217616 0 0.85600844944837662 0.88483418979512773 0 0.82709327591091286 0.84937141670920724 0 0.88088768115933802 0.84674609810493673 0 0.85600844944837662 0.88483418979512773 0 0.82709327591091286 0.84937141670920724 0 0.84725310900444062 0.80779732082917555 0 0.88088768115933802 0.84674609810493673 0 0.82709327591091286 0.84937141670920724 0 0.80041942726660109 0.81543261647703358 0 0.84725310900444062 0.80779732082917555 0 0.82709327591091286 0.84937141670920724 0 0.85600844944837662 0.88483418979512773 0 0.81159157511211755 0.88795995483179491 0 0.76901770135486491 0.84293557325473656 0 0.81159157511211755 0.88795995483179491 0 0.76891166905518427 0.88835469571185499 0 0.82709327591091286 0.84937141670920724 0 0.81159157511211755 0.88795995483179491 0 0.76901770135486491 0.84293557325473656 0 0.76901770135486491 0.84293557325473656 0 0.76891166905518427 0.88835469571185499 0 0.72863726579783861 0.85390518901155588 0 0.76901770135486491 0.84293557325473656 0 0.77094201086366854 0.79647480515688507 0 0.80041942726660109 0.81543261647703358 0 0.82709327591091286 0.84937141670920724 0 0.76901770135486491 0.84293557325473656 0 0.80041942726660109 0.81543261647703358 0 0.80185942888539485 0.77452061303608133 0 0.80041942726660109 0.81543261647703358 0 0.77094201086366854 0.79647480515688507 0 0.72500000000000064 0.7952620967744265 0 0.75841349681148107 0.75422312624214749 0 0.77094201086366854 0.79647480515688507 0 0.72500000000000064 0.7952620967744265 0 0.77094201086366854 0.79647480515688507 0 0.76901770135486491 0.84293557325473656 0 0.80185942888539485 0.77452061303608133 0 0.77094201086366854 0.79647480515688507 0 0.75841349681148107 0.75422312624214749 0 0.80185942888539485 0.77452061303608133 0 0.75841349681148107 0.75422312624214749 0 0.78578450296893509 0.73292684821144505 0 0.80185942888539485 0.77452061303608133 0 0.85491058998424563 0.76004753345552634 0 0.84725310900444062 0.80779732082917555 0 0.80185942888539485 0.77452061303608133 0 0.81864958914779962 0.73589050177899629 0 0.85491058998424563 0.76004753345552634 0 0.80185942888539485 0.77452061303608133 0 0.84725310900444062 0.80779732082917555 0 0.80041942726660109 0.81543261647703358 0 0.90299850604011456 0.79563452813489832 0 0.84725310900444062 0.80779732082917555 0 0.85491058998424563 0.76004753345552634 0 0.90299850604011456 0.79563452813489832 0 0.85491058998424563 0.76004753345552634 0 0.89999166460796554 0.74528934923809909 0 0.90299850604011456 0.79563452813489832 0 0.94399509803918602 0.75600490196082126 0 0.95386563387742829 0.80414874155775029 0 0.90299850604011456 0.79563452813489832 0 0.89999166460796554 0.74528934923809909 0 0.94399509803918602 0.75600490196082126 0 0.94399509803918602 0.75600490196082126 0 0.97435614836745565 0.77499999999987745 0 0.95386563387742829 0.80414874155775029 0 0.94399509803918602 0.75600490196082126 0 0.97166519676947294 0.73337114490064459 0 0.97435614836745565 0.77499999999987745 0 1 0.74999999999993494 0 0.97435614836745565 0.77499999999987745 0 0.97166519676947294 0.73337114490064459 0 1 0.74999999999993494 0 1 0.7999999999998193 0 0.97435614836745565 0.77499999999987745 0 1 0.7999999999998193 0 0.95386563387742829 0.80414874155775029 0 0.97435614836745565 0.77499999999987745 0 1 0.84999999999982645 0 0.95391631417670719 0.89584263333814784 0 0.93677536231884972 0.85000000000000286 0 1 0.84999999999982645 0 0.93677536231884972 0.85000000000000286 0 0.95386563387742829 0.80414874155775029 0 1 0.7999999999998193 0 1 0.84999999999982645 0 0.95386563387742829 0.80414874155775029 0 0.90416666666660628 0.9041666666666166 0 0.88088768115933802 0.84674609810493673 0 0.93677536231884972 0.85000000000000286 0 0.90299850604011456 0.79563452813489832 0 0.95386563387742829 0.80414874155775029 0 0.93677536231884972 0.85000000000000286 0 0.90299850604011456 0.79563452813489832 0 0.93677536231884972 0.85000000000000286 0 0.88088768115933802 0.84674609810493673 0 0.90299850604011456 0.79563452813489832 0 0.88088768115933802 0.84674609810493673 0 0.84725310900444062 0.80779732082917555 0 0.90416666666660628 0.9041666666666166 0 0.85600844944837662 0.88483418979512773 0 0.88088768115933802 0.84674609810493673 0 0.90416666666660628 0.9041666666666166 0 0.89898474358632463 0.95391965591118966 0 0.85170973911348691 0.93569607295217616 0 0.90416666666660628 0.9041666666666166 0 0.95391631417670719 0.89584263333814784 0 0.94399509803919068 0.9439950980391687 0 0.90416666666660628 0.9041666666666166 0 0.94399509803919068 0.9439950980391687 0 0.89898474358632463 0.95391965591118966 0 0.90416666666660628 0.9041666666666166 0 0.93677536231884972 0.85000000000000286 0 0.95391631417670719 0.89584263333814784 0 1 0.84999999999982645 0 1 0.8999999999998336 0 0.95391631417670719 0.89584263333814784 0 1 0.8999999999998336 0 1 0.94999999999997109 0 0.97435614836744289 0.92499999999990257 0 1 0.8999999999998336 0 0.97435614836744289 0.92499999999990257 0 0.95391631417670719 0.89584263333814784 0 0.94399509803919068 0.9439950980391687 0 0.95391631417670719 0.89584263333814784 0 0.97435614836744289 0.92499999999990257 0 0.94399509803919068 0.9439950980391687 0 0.97435614836744289 0.92499999999990257 0 0.97166519676946206 0.96662885509935492 0 1 0.94999999999997109 0 0.97166519676946206 0.96662885509935492 0 0.97435614836744289 0.92499999999990257 0 1 1 0 0.97166519676946206 0.96662885509935492 0 1 0.94999999999997109 0 1 1 0 0.94999999999979179 1 0 0.97166519676946206 0.96662885509935492 0 0.94999999999979179 1 0 0.94399509803919068 0.9439950980391687 0 0.97166519676946206 0.96662885509935492 0 0.94999999999979179 1 0 0.89999999999958358 1 0 0.89898474358632463 0.95391965591118966 0 0.94999999999979179 1 0 0.89898474358632463 0.95391965591118966 0 0.94399509803919068 0.9439950980391687 0 0.89999999999958358 1 0 0.84999999999965292 1 0 0.89898474358632463 0.95391965591118966 0 0.86956835336234861 0.571283299838105 0 0.81723410853263523 0.59419663659258926 0 0.82862096804812391 0.55037090955459045 0 0.83758014339878906 0.63222013025741819 0 0.81723410853263523 0.59419663659258926 0 0.87159648282691515 0.61285406320581504 0 0.83758014339878906 0.63222013025741819 0 0.79884539758237771 0.62875045078114233 0 0.81723410853263523 0.59419663659258926 0 0.86956835336234861 0.571283299838105 0 0.87159648282691515 0.61285406320581504 0 0.81723410853263523 0.59419663659258926 0 0.86956835336234861 0.571283299838105 0 0.82862096804812391 0.55037090955459045 0 0.86907294890112186 0.52008116128001669 0 0.82862096804812391 0.55037090955459045 0 0.81441713509985358 0.51161854125224959 0 0.86907294890112186 0.52008116128001669 0 0.84723782639812573 0.48638347960178252 0 0.86907294890112186 0.52008116128001669 0 0.81441713509985358 0.51161854125224959 0 0.82862096804812391 0.55037090955459045 0 0.77151014687832564 0.54436834383023036 0 0.81441713509985358 0.51161854125224959 0 0.77846603114747959 0.49850927265137401 0 0.81441713509985358 0.51161854125224959 0 0.77151014687832564 0.54436834383023036 0 0.77846603114747959 0.49850927265137401 0 0.77151014687832564 0.54436834383023036 0 0.73947346780852752 0.49062440112282169 0 0.77293540622714185 0.59448302402785813 0 0.71809016091162536 0.58185040402320831 0 0.77151014687832564 0.54436834383023036 0 0.81723410853263523 0.59419663659258926 0 0.77293540622714185 0.59448302402785813 0 0.77151014687832564 0.54436834383023036 0 0.82862096804812391 0.55037090955459045 0 0.81723410853263523 0.59419663659258926 0 0.77151014687832564 0.54436834383023036 0 0.77293540622714185 0.59448302402785813 0 0.81723410853263523 0.59419663659258926 0 0.79884539758237771 0.62875045078114233 0 0.77293540622714185 0.59448302402785813 0 0.79884539758237771 0.62875045078114233 0 0.74994237037456724 0.62775548192980357 0 0.7750489929959945 0.66593931409600093 0 0.74994237037456724 0.62775548192980357 0 0.79884539758237771 0.62875045078114233 0 0.74999999999999989 0.69999999999999996 0 0.72500000000000064 0.67022701834392062 0 0.7750489929959945 0.66593931409600093 0 0.79999999999999982 0.69999999999999996 0 0.7750489929959945 0.66593931409600093 0 0.82457059160610424 0.66831947184359608 0 0.7750489929959945 0.66593931409600093 0 0.79884539758237771 0.62875045078114233 0 0.82457059160610424 0.66831947184359608 0 0.74999999999999989 0.69999999999999996 0 0.78578450296893509 0.73292684821144505 0 0.75841349681148107 0.75422312624214749 0 0.74999999999999989 0.69999999999999996 0 0.79999999999999982 0.69999999999999996 0 0.78578450296893509 0.73292684821144505 0 0.74999999999999989 0.69999999999999996 0 0.7750489929959945 0.66593931409600093 0 0.79999999999999982 0.69999999999999996 0 0.74999999999999989 0.69999999999999996 0 0.79999999999999982 0.69999999999999996 0 0.80185942888539485 0.77452061303608133 0 0.78578450296893509 0.73292684821144505 0 0.81864958914779962 0.73589050177899629 0 0.79999999999999982 0.69999999999999996 0 0.81864958914779962 0.73589050177899629 0 0.78578450296893509 0.73292684821144505 0 0.84999999999999987 0.69999999999999996 0 0.85491058998424563 0.76004753345552634 0 0.81864958914779962 0.73589050177899629 0 0.79999999999999982 0.69999999999999996 0 0.84999999999999987 0.69999999999999996 0 0.79999999999999982 0.69999999999999996 0 0.82457059160610424 0.66831947184359608 0 0.84999999999999987 0.69999999999999996 0 0.79999999999999982 0.69999999999999996 0 0.84999999999999987 0.69999999999999996 0 0.81864958914779962 0.73589050177899629 0 0.84999999999999987 0.69999999999999996 0 0.89999999999999991 0.69999999999999996 0 0.84999999999999987 0.69999999999999996 0 0.89999166460796554 0.74528934923809909 0 0.85491058998424563 0.76004753345552634 0 0.83758014339878906 0.63222013025741819 0 0.82457059160610424 0.66831947184359608 0 0.79884539758237771 0.62875045078114233 0 0.84999999999999987 0.69999999999999996 0 0.82457059160610424 0.66831947184359608 0 0.87712158428786946 0.65709029563313581 0 0.83758014339878906 0.63222013025741819 0 0.87159648282691515 0.61285406320581504 0 0.87712158428786946 0.65709029563313581 0 0.83758014339878906 0.63222013025741819 0 0.87712158428786946 0.65709029563313581 0 0.82457059160610424 0.66831947184359608 0 0.91750694127105259 0.63017627779935648 0 0.92057473616084773 0.66770436535372446 0 0.87712158428786946 0.65709029563313581 0 0.91750694127105259 0.63017627779935648 0 0.87712158428786946 0.65709029563313581 0 0.87159648282691515 0.61285406320581504 0 0.84999999999999987 0.69999999999999996 0 0.87712158428786946 0.65709029563313581 0 0.89999999999999991 0.69999999999999996 0 0.89999999999999991 0.69999999999999996 0 0.87712158428786946 0.65709029563313581 0 0.92057473616084773 0.66770436535372446 0 0.91750694127105259 0.63017627779935648 0 0.9578014258160763 0.65787212321113708 0 0.92057473616084773 0.66770436535372446 0 0.84999999999999987 0.69999999999999996 0 0.89999999999999991 0.69999999999999996 0 0.89999166460796554 0.74528934923809909 0 0.89999999999999991 0.69999999999999996 0 0.94999999999999996 0.69999999999999996 0 0.89999999999999991 0.69999999999999996 0 0.92057473616084773 0.66770436535372446 0 0.94999999999999996 0.69999999999999996 0 0.89999999999999991 0.69999999999999996 0 0.94999999999999996 0.69999999999999996 0 0.89999166460796554 0.74528934923809909 0 0.94999999999999996 0.69999999999999996 0 0.94399509803918602 0.75600490196082126 0 0.89999166460796554 0.74528934923809909 0 0.94999999999999996 0.69999999999999996 0 0.97166519676947294 0.73337114490064459 0 0.94399509803918602 0.75600490196082126 0 0.94999999999999996 0.69999999999999996 0 1 0.69999999999999996 0 1 0.69999999999999996 0 0.97166519676947294 0.73337114490064459 0 0.94999999999999996 0.69999999999999996 0 1 0.69999999999999996 0 1 0.74999999999993494 0 0.97166519676947294 0.73337114490064459 0 0.91750694127105259 0.63017627779935648 0 0.95867599106212187 0.60011091146651041 0 0.9578014258160763 0.65787212321113708 0 0.94999999999999996 0.69999999999999996 0 0.92057473616084773 0.66770436535372446 0 0.9578014258160763 0.65787212321113708 0 1 0.69999999999999996 0 0.94999999999999996 0.69999999999999996 0 0.9578014258160763 0.65787212321113708 0 1 0.69999999999999996 0 0.9578014258160763 0.65787212321113708 0 1 0.64999999999986979 0 1 0.64999999999986979 0 0.9578014258160763 0.65787212321113708 0 0.95867599106212187 0.60011091146651041 0 1 0.54999999999963112 0 0.95867599106212187 0.60011091146651041 0 0.93732437411268477 0.55911392101136159 0 1 0.59999999999973963 0 1 0.64999999999986979 0 0.95867599106212187 0.60011091146651041 0 1 0.54999999999963112 0 1 0.59999999999973963 0 0.95867599106212187 0.60011091146651041 0 0.91750694127105259 0.63017627779935648 0 0.91143117093204207 0.58709913730335972 0 0.95867599106212187 0.60011091146651041 0 0.93732437411268477 0.55911392101136159 0 0.95867599106212187 0.60011091146651041 0 0.91143117093204207 0.58709913730335972 0 0.86956835336234861 0.571283299838105 0 0.90900154012161016 0.53607784105648792 0 0.91143117093204207 0.58709913730335972 0 0.86956835336234861 0.571283299838105 0 0.91143117093204207 0.58709913730335972 0 0.87159648282691515 0.61285406320581504 0 0.91750694127105259 0.63017627779935648 0 0.87159648282691515 0.61285406320581504 0 0.91143117093204207 0.58709913730335972 0 0.91696753777131557 0.497780560203536 0 0.90900154012161016 0.53607784105648792 0 0.86907294890112186 0.52008116128001669 0 0.86956835336234861 0.571283299838105 0 0.86907294890112186 0.52008116128001669 0 0.90900154012161016 0.53607784105648792 0 0.93732437411268477 0.55911392101136159 0 0.90900154012161016 0.53607784105648792 0 0.95631871884947484 0.51827533208233789 0 0.93732437411268477 0.55911392101136159 0 0.91143117093204207 0.58709913730335972 0 0.90900154012161016 0.53607784105648792 0 0.91696753777131557 0.497780560203536 0 0.95631871884947484 0.51827533208233789 0 0.90900154012161016 0.53607784105648792 0 1 0.54999999999963112 0 0.93732437411268477 0.55911392101136159 0 0.95631871884947484 0.51827533208233789 0 1 0.49999999999950101 0 1 0.54999999999963112 0 0.95631871884947484 0.51827533208233789 0 1 0.49999999999950101 0 0.95631871884947484 0.51827533208233789 0 0.96228564064454991 0.48206450662049471 0 1 0.44999999999963131 0 1 0.49999999999950101 0 0.96228564064454991 0.48206450662049471 0 1 0.44999999999963131 0 0.96228564064454991 0.48206450662049471 0 0.93814194660195893 0.44426664081746747 0 0.91696753777131557 0.497780560203536 0 0.93814194660195893 0.44426664081746747 0 0.96228564064454991 0.48206450662049471 0 0.91696753777131557 0.497780560203536 0 0.96228564064454991 0.48206450662049471 0 0.95631871884947484 0.51827533208233789 0 1 0.34999999999993492 0 1 0.39999999999978308 0 0.95871855522754235 0.40006508612975411 0 1 0.39999999999978308 0 1 0.44999999999963131 0 0.95871855522754235 0.40006508612975411 0 1 0.44999999999963131 0 0.93814194660195893 0.44426664081746747 0 0.95871855522754235 0.40006508612975411 0 0.91750694127107502 0.36982372220068471 0 0.95871855522754235 0.40006508612975411 0 0.90594285160987287 0.4141265964174129 0 0.93814194660195893 0.44426664081746747 0 0.90594285160987287 0.4141265964174129 0 0.95871855522754235 0.40006508612975411 0 0.90594285160987287 0.4141265964174129 0 0.88594198078881503 0.46167788676578442 0 0.86411095495256451 0.42388805655111889 0 0.86411095495256451 0.42388805655111889 0 0.86844634540301924 0.38530937474099819 0 0.90594285160987287 0.4141265964174129 0 0.91750694127107502 0.36982372220068471 0 0.90594285160987287 0.4141265964174129 0 0.86844634540301924 0.38530937474099819 0 0.91696753777131557 0.497780560203536 0 0.88594198078881503 0.46167788676578442 0 0.93814194660195893 0.44426664081746747 0 0.93814194660195893 0.44426664081746747 0 0.88594198078881503 0.46167788676578442 0 0.90594285160987287 0.4141265964174129 0 0.91696753777131557 0.497780560203536 0 0.86907294890112186 0.52008116128001669 0 0.88594198078881503 0.46167788676578442 0 0.84723782639812573 0.48638347960178252 0 0.88594198078881503 0.46167788676578442 0 0.86907294890112186 0.52008116128001669 0 0.84723782639812573 0.48638347960178252 0 0.81441713509985358 0.51161854125224959 0 0.81400510706333218 0.47357325943904899 0 0.84723782639812573 0.48638347960178252 0 0.81400510706333218 0.47357325943904899 0 0.84925632466077294 0.45359738909549091 0 0.81973119833356312 0.43505687159469048 0 0.84925632466077294 0.45359738909549091 0 0.81400510706333218 0.47357325943904899 0 0.84723782639812573 0.48638347960178252 0 0.84925632466077294 0.45359738909549091 0 0.88594198078881503 0.46167788676578442 0 0.86411095495256451 0.42388805655111889 0 0.84925632466077294 0.45359738909549091 0 0.81973119833356312 0.43505687159469048 0 0.86411095495256451 0.42388805655111889 0 0.88594198078881503 0.46167788676578442 0 0.84925632466077294 0.45359738909549091 0 0.86411095495256451 0.42388805655111889 0 0.81308179852519835 0.39754945808726527 0 0.86844634540301924 0.38530937474099819 0 0.83573492347052902 0.36590755630746369 0 0.86844634540301924 0.38530937474099819 0 0.81308179852519835 0.39754945808726527 0 0.86411095495256451 0.42388805655111889 0 0.81973119833356312 0.43505687159469048 0 0.81308179852519835 0.39754945808726527 0 0.77354604466818633 0.40378688774472771 0 0.81973119833356312 0.43505687159469048 0 0.77972660463949339 0.45529290596363098 0 0.77354604466818633 0.40378688774472771 0 0.81308179852519835 0.39754945808726527 0 0.81973119833356312 0.43505687159469048 0 0.77354604466818633 0.40378688774472771 0 0.78145581580700685 0.34881365920033602 0 0.81308179852519835 0.39754945808726527 0 0.77354604466818633 0.40378688774472771 0 0.77972660463949339 0.45529290596363098 0 0.73483647259922602 0.44789725365921768 0 0.73483647259922602 0.44789725365921768 0 0.77972660463949339 0.45529290596363098 0 0.73947346780852752 0.49062440112282169 0 0.77846603114747959 0.49850927265137401 0 0.73947346780852752 0.49062440112282169 0 0.77972660463949339 0.45529290596363098 0 0.77846603114747959 0.49850927265137401 0 0.77972660463949339 0.45529290596363098 0 0.81400510706333218 0.47357325943904899 0 0.77846603114747959 0.49850927265137401 0 0.81400510706333218 0.47357325943904899 0 0.81441713509985358 0.51161854125224959 0 0.81973119833356312 0.43505687159469048 0 0.81400510706333218 0.47357325943904899 0 0.77972660463949339 0.45529290596363098 0 0.79999999999999982 0.29999999999999999 0 0.77075983436335049 0.25919399014334171 0 0.81486180804364938 0.26321394949780091 0 0.74999999999999989 0.29999999999999999 0 0.79999999999999982 0.29999999999999999 0 0.74999999999999989 0.29999999999999999 0 0.77075983436335049 0.25919399014334171 0 0.79999999999999982 0.29999999999999999 0 0.74999999999999989 0.29999999999999999 0 0.79999999999999982 0.29999999999999999 0 0.78145581580700685 0.34881365920033602 0 0.74999999999999989 0.29999999999999999 0 0.78145581580700685 0.34881365920033602 0 0.73090396928863699 0.33699297293167962 0 0.77354604466818633 0.40378688774472771 0 0.74764719760526988 0.3719647154012321 0 0.78145581580700685 0.34881365920033602 0 0.78145581580700685 0.34881365920033602 0 0.74764719760526988 0.3719647154012321 0 0.73090396928863699 0.33699297293167962 0 0.83573492347052902 0.36590755630746369 0 0.81308179852519835 0.39754945808726527 0 0.78145581580700685 0.34881365920033602 0 0.79999999999999982 0.29999999999999999 0 0.82500000000000062 0.33010209762754811 0 0.78145581580700685 0.34881365920033602 0 0.83573492347052902 0.36590755630746369 0 0.78145581580700685 0.34881365920033602 0 0.82500000000000062 0.33010209762754811 0 0.83573492347052902 0.36590755630746369 0 0.82500000000000062 0.33010209762754811 0 0.87430060258887643 0.34056085888204451 0 0.83573492347052902 0.36590755630746369 0 0.87430060258887643 0.34056085888204451 0 0.86844634540301924 0.38530937474099819 0 0.84999999999999987 0.29999999999999999 0 0.87430060258887643 0.34056085888204451 0 0.82500000000000062 0.33010209762754811 0 0.84999999999999987 0.29999999999999999 0 0.89999999999999991 0.29999999999999999 0 0.87430060258887643 0.34056085888204451 0 0.84999999999999987 0.29999999999999999 0 0.81486180804364938 0.26321394949780091 0 0.8517097391133297 0.2356960729520409 0 0.84999999999999987 0.29999999999999999 0 0.8517097391133297 0.2356960729520409 0 0.89898474358614167 0.25391965591104898 0 0.84999999999999987 0.29999999999999999 0 0.89999999999999991 0.29999999999999999 0 0.79999999999999982 0.29999999999999999 0 0.84999999999999987 0.29999999999999999 0 0.82500000000000062 0.33010209762754811 0 0.79999999999999982 0.29999999999999999 0 0.81486180804364938 0.26321394949780091 0 0.84999999999999987 0.29999999999999999 0 0.79999999999999982 0.29999999999999999 0 0.84999999999999987 0.29999999999999999 0 0.84999999999999987 0.29999999999999999 0 0.89898474358614167 0.25391965591104898 0 0.89999999999999991 0.29999999999999999 0 0.89999999999999991 0.29999999999999999 0 0.94999999999999996 0.29999999999999999 0 0.89999999999999991 0.29999999999999999 0 0.94999999999999996 0.29999999999999999 0 0.92012390126144183 0.33123581297173937 0 0.89999999999999991 0.29999999999999999 0 0.89898474358614167 0.25391965591104898 0 0.94999999999999996 0.29999999999999999 0 0.94999999999999996 0.29999999999999999 0 0.89898474358614167 0.25391965591104898 0 0.94399509803921056 0.24399509803922639 0 0.91750694127107502 0.36982372220068471 0 0.86844634540301924 0.38530937474099819 0 0.87430060258887643 0.34056085888204451 0 0.91750694127107502 0.36982372220068471 0 0.87430060258887643 0.34056085888204451 0 0.92012390126144183 0.33123581297173937 0 0.89999999999999991 0.29999999999999999 0 0.92012390126144183 0.33123581297173937 0 0.87430060258887643 0.34056085888204451 0 0.91750694127107502 0.36982372220068471 0 0.92012390126144183 0.33123581297173937 0 0.95780851984364423 0.34215720972155339 0 0.91750694127107502 0.36982372220068471 0 0.95780851984364423 0.34215720972155339 0 0.95871855522754235 0.40006508612975411 0 0.94999999999999996 0.29999999999999999 0 0.95780851984364423 0.34215720972155339 0 0.92012390126144183 0.33123581297173937 0 1 0.29999999999999999 0 0.95780851984364423 0.34215720972155339 0 0.94999999999999996 0.29999999999999999 0 1 0.29999999999999999 0 1 0.34999999999993492 0 0.95780851984364423 0.34215720972155339 0 1 0.34999999999993492 0 0.95871855522754235 0.40006508612975411 0 0.95780851984364423 0.34215720972155339 0 0.94999999999999996 0.29999999999999999 0 0.94399509803921056 0.24399509803922639 0 0.97166519676951801 0.26662885509932011 0 0.94999999999999996 0.29999999999999999 0 1 0.29999999999999999 0 1 0.29999999999999999 0 0.94999999999999996 0.29999999999999999 0 0.97166519676951801 0.26662885509932011 0 1 0.29999999999999999 0 0.97166519676951801 0.26662885509932011 0 1 0.24999999999987299 0 1 0.24999999999987299 0 0.97166519676951801 0.26662885509932011 0 0.97435614836740092 0.22499999999981049 0 1 0.19999999999974799 0 1 0.24999999999987299 0 0.97435614836740092 0.22499999999981049 0 0.94399509803921056 0.24399509803922639 0 0.95391631417672862 0.19584263333809451 0 0.97435614836740092 0.22499999999981049 0 0.94399509803921056 0.24399509803922639 0 0.97435614836740092 0.22499999999981049 0 0.97166519676951801 0.26662885509932011 0 1 0.19999999999974799 0 0.97435614836740092 0.22499999999981049 0 0.95391631417672862 0.19584263333809451 0 1 0.14999999999961891 0 0.95391631417672862 0.19584263333809451 0 0.93677536231883773 0.14999999999999089 0 1 0.14999999999961891 0 0.93677536231883773 0.14999999999999089 0 0.95386563387744361 0.1041487415577465 0 1 0.14999999999961891 0 1 0.19999999999974799 0 0.95391631417672862 0.19584263333809451 0 0.90416666666668166 0.20416666666667119 0 0.93677536231883773 0.14999999999999089 0 0.95391631417672862 0.19584263333809451 0 0.90416666666668166 0.20416666666667119 0 0.88088768115941807 0.14674609810479519 0 0.93677536231883773 0.14999999999999089 0 0.90299850604006393 0.09563452813493091 0 0.93677536231883773 0.14999999999999089 0 0.88088768115941807 0.14674609810479519 0 0.90416666666668166 0.20416666666667119 0 0.85600844944842547 0.1848341897950983 0 0.88088768115941807 0.14674609810479519 0 0.90416666666668166 0.20416666666667119 0 0.89898474358614167 0.25391965591104898 0 0.8517097391133297 0.2356960729520409 0 0.90416666666668166 0.20416666666667119 0 0.94399509803921056 0.24399509803922639 0 0.89898474358614167 0.25391965591104898 0 0.90416666666668166 0.20416666666667119 0 0.95391631417672862 0.19584263333809451 0 0.94399509803921056 0.24399509803922639 0 0.94999999999986839 0 0 0.97166519676946894 0.033371144900598393 0 0.94399509803922566 0.056004901960802607 0 1 0 0 0.97166519676946894 0.033371144900598393 0 0.94999999999986839 0 0 1 0 0 1 0.049999999999896842 0 0.97166519676946894 0.033371144900598393 0 1 0.049999999999896842 0 0.97435614836748241 0.074999999999825387 0 0.97166519676946894 0.033371144900598393 0 0.94399509803922566 0.056004901960802607 0 0.97166519676946894 0.033371144900598393 0 0.97435614836748241 0.074999999999825387 0 0.94399509803922566 0.056004901960802607 0 0.97435614836748241 0.074999999999825387 0 0.95386563387744361 0.1041487415577465 0 1 0.099999999999753911 0 0.95386563387744361 0.1041487415577465 0 0.97435614836748241 0.074999999999825387 0 1 0.049999999999896842 0 1 0.099999999999753911 0 0.97435614836748241 0.074999999999825387 0 1 0.099999999999753911 0 1 0.14999999999961891 0 0.95386563387744361 0.1041487415577465 0 0.90299850604006393 0.09563452813493091 0 0.95386563387744361 0.1041487415577465 0 0.93677536231883773 0.14999999999999089 0 0.90299850604006393 0.09563452813493091 0 0.88088768115941807 0.14674609810479519 0 0.84725310900442086 0.10779732082922661 0 0.90299850604006393 0.09563452813493091 0 0.85491058998398861 0.060047533455626502 0 0.899991664607802 0.045289349238254978 0 0.90299850604006393 0.09563452813493091 0 0.94399509803922566 0.056004901960802607 0 0.95386563387744361 0.1041487415577465 0 0.90299850604006393 0.09563452813493091 0 0.899991664607802 0.045289349238254978 0 0.94399509803922566 0.056004901960802607 0 0.94999999999986839 0 0 0.94399509803922566 0.056004901960802607 0 0.899991664607802 0.045289349238254978 0 0.84999999999960507 0 0 0.89999999999973679 0 0 0.899991664607802 0.045289349238254978 0 0.89999999999973679 0 0 0.94999999999986839 0 0 0.899991664607802 0.045289349238254978 0 0.79999999999947335 0 0 0.84999999999960507 0 0 0.81864958914740749 0.035890501779055867 0 0.84999999999960507 0 0 0.899991664607802 0.045289349238254978 0 0.85491058998398861 0.060047533455626502 0 0.80185942888501827 0.074520613036224564 0 0.81864958914740749 0.035890501779055867 0 0.85491058998398861 0.060047533455626502 0 0.84999999999960507 0 0 0.85491058998398861 0.060047533455626502 0 0.81864958914740749 0.035890501779055867 0 0.80185942888501827 0.074520613036224564 0 0.85491058998398861 0.060047533455626502 0 0.84725310900442086 0.10779732082922661 0 0.90299850604006393 0.09563452813493091 0 0.84725310900442086 0.10779732082922661 0 0.85491058998398861 0.060047533455626502 0 0.80185942888501827 0.074520613036224564 0 0.84725310900442086 0.10779732082922661 0 0.80076557130237269 0.1154587552654202 0 0.82709327591102189 0.14937141670914489 0 0.80076557130237269 0.1154587552654202 0 0.84725310900442086 0.10779732082922661 0 0.80185942888501827 0.074520613036224564 0 0.80076557130237269 0.1154587552654202 0 0.76878382444651716 0.097147941686331368 0 0.72525833953073282 0.1032114801687094 0 0.76878382444651716 0.097147941686331368 0 0.77144070960558853 0.14311854477243749 0 0.77144070960558853 0.14311854477243749 0 0.76878382444651716 0.097147941686331368 0 0.80076557130237269 0.1154587552654202 0 0.80185942888501827 0.074520613036224564 0 0.76878382444651716 0.097147941686331368 0 0.7527966693318906 0.053051678021508272 0 0.80185942888501827 0.074520613036224564 0 0.78393852574753176 0.032039079577822822 0 0.81864958914740749 0.035890501779055867 0 0.80185942888501827 0.074520613036224564 0 0.7527966693318906 0.053051678021508272 0 0.78393852574753176 0.032039079577822822 0 0.74999999999934175 0 0 0.78393852574753176 0.032039079577822822 0 0.7527966693318906 0.053051678021508272 0 0.74999999999934175 0 0 0.79999999999947335 0 0 0.78393852574753176 0.032039079577822822 0 0.79999999999947335 0 0 0.81864958914740749 0.035890501779055867 0 0.78393852574753176 0.032039079577822822 0 0.79680861578956375 0.22656778056752541 0 0.81283102246527783 0.1881007222486438 0 0.8517097391133297 0.2356960729520409 0 0.8517097391133297 0.2356960729520409 0 0.81283102246527783 0.1881007222486438 0 0.85600844944842547 0.1848341897950983 0 0.79680861578956375 0.22656778056752541 0 0.8517097391133297 0.2356960729520409 0 0.81486180804364938 0.26321394949780091 0 0.90416666666668166 0.20416666666667119 0 0.8517097391133297 0.2356960729520409 0 0.85600844944842547 0.1848341897950983 0 0.82709327591102189 0.14937141670914489 0 0.88088768115941807 0.14674609810479519 0 0.85600844944842547 0.1848341897950983 0 0.82709327591102189 0.14937141670914489 0 0.84725310900442086 0.10779732082922661 0 0.88088768115941807 0.14674609810479519 0 0.82709327591102189 0.14937141670914489 0 0.85600844944842547 0.1848341897950983 0 0.81283102246527783 0.1881007222486438 0 0.77144070960558853 0.14311854477243749 0 0.81283102246527783 0.1881007222486438 0 0.76587607630038135 0.18880039518954719 0 0.82709327591102189 0.14937141670914489 0 0.81283102246527783 0.1881007222486438 0 0.77144070960558853 0.14311854477243749 0 0.82709327591102189 0.14937141670914489 0 0.77144070960558853 0.14311854477243749 0 0.80076557130237269 0.1154587552654202 0 0.77144070960558853 0.14311854477243749 0 0.76587607630038135 0.18880039518954719 0 0.72634814642510737 0.16106886917518889 0 0.79680861578956375 0.22656778056752541 0 0.75668890529066124 0.2244279804069782 0 0.76587607630038135 0.18880039518954719 0 0.79680861578956375 0.22656778056752541 0 0.76587607630038135 0.18880039518954719 0 0.81283102246527783 0.1881007222486438 0 0.79680861578956375 0.22656778056752541 0 0.81486180804364938 0.26321394949780091 0 0.77075983436335049 0.25919399014334171 0 0.79680861578956375 0.22656778056752541 0 0.77075983436335049 0.25919399014334171 0 0.75668890529066124 0.2244279804069782 0 0.72500000000000064 0.2498161764706 0 0.75668890529066124 0.2244279804069782 0 0.77075983436335049 0.25919399014334171 0 0.72500000000001008 0.19776155966387679 0 0.75668890529066124 0.2244279804069782 0 0.72500000000000064 0.2498161764706 0 0.72500000000001008 0.19776155966387679 0 0.72500000000000064 0.2498161764706 0 0.69397719155551807 0.2245125647000914 0 0.72500000000000064 0.2498161764706 0 0.67933712972090698 0.25920070958121938 0 0.69397719155551807 0.2245125647000914 0 0.72500000000001008 0.19776155966387679 0 0.69397719155551807 0.2245125647000914 0 0.6865991819015953 0.189116534044597 0 0.72500000000001008 0.19776155966387679 0 0.76587607630038135 0.18880039518954719 0 0.75668890529066124 0.2244279804069782 0 0.72500000000001008 0.19776155966387679 0 0.72634814642510737 0.16106886917518889 0 0.76587607630038135 0.18880039518954719 0 0.72525833953073282 0.1032114801687094 0 0.77144070960558853 0.14311854477243749 0 0.72634814642510737 0.16106886917518889 0 0.72525833953073282 0.1032114801687094 0 0.72634814642510737 0.16106886917518889 0 0.68391457121233579 0.14440470121196541 0 0.72500000000001008 0.19776155966387679 0 0.6865991819015953 0.189116534044597 0 0.72634814642510737 0.16106886917518889 0 0.68391457121233579 0.14440470121196541 0 0.72634814642510737 0.16106886917518889 0 0.6865991819015953 0.189116534044597 0 0.68391457121233579 0.14440470121196541 0 0.6865991819015953 0.189116534044597 0 0.64011864159029941 0.18789607982138171 0 0.6236733212988993 0.14864538214901801 0 0.65290632656860115 0.11434202593454081 0 0.68391457121233579 0.14440470121196541 0 0.6236733212988993 0.14864538214901801 0 0.68391457121233579 0.14440470121196541 0 0.64011864159029941 0.18789607982138171 0 0.65394964615507722 0.22666784374016369 0 0.59814117807200873 0.23398510860739519 0 0.64011864159029941 0.18789607982138171 0 0.65394964615507722 0.22666784374016369 0 0.62657463266645097 0.26524202571255862 0 0.59814117807200873 0.23398510860739519 0 0.65394964615507722 0.22666784374016369 0 0.69397719155551807 0.2245125647000914 0 0.67933712972090698 0.25920070958121938 0 0.65394964615507722 0.22666784374016369 0 0.64011864159029941 0.18789607982138171 0 0.6865991819015953 0.189116534044597 0 0.65394964615507722 0.22666784374016369 0 0.6865991819015953 0.189116534044597 0 0.69397719155551807 0.2245125647000914 0 0.69999999999921003 0 0 0.72683645290270404 0.027797073151180601 0 0.7010294155333181 0.056779085686491267 0 0.69999999999921003 0 0 0.7010294155333181 0.056779085686491267 0 0.66369801598854572 0.036327466368102787 0 0.74999999999934175 0 0 0.7527966693318906 0.053051678021508272 0 0.72683645290270404 0.027797073151180601 0 0.69999999999921003 0 0 0.74999999999934175 0 0 0.72683645290270404 0.027797073151180601 0 0.7527966693318906 0.053051678021508272 0 0.7010294155333181 0.056779085686491267 0 0.72683645290270404 0.027797073151180601 0 0.72525833953073282 0.1032114801687094 0 0.68330259535470161 0.10038702501083881 0 0.7010294155333181 0.056779085686491267 0 0.72525833953073282 0.1032114801687094 0 0.7010294155333181 0.056779085686491267 0 0.7527966693318906 0.053051678021508272 0 0.72525833953073282 0.1032114801687094 0 0.7527966693318906 0.053051678021508272 0 0.76878382444651716 0.097147941686331368 0 0.72525833953073282 0.1032114801687094 0 0.68391457121233579 0.14440470121196541 0 0.68330259535470161 0.10038702501083881 0 0.65408113592120842 0.073941773121567966 0 0.68330259535470161 0.10038702501083881 0 0.65290632656860115 0.11434202593454081 0 0.68391457121233579 0.14440470121196541 0 0.65290632656860115 0.11434202593454081 0 0.68330259535470161 0.10038702501083881 0 0.6236733212988993 0.14864538214901801 0 0.61956000905586006 0.1043312481793135 0 0.65290632656860115 0.11434202593454081 0 0.65408113592120842 0.073941773121567966 0 0.65290632656860115 0.11434202593454081 0 0.61956000905586006 0.1043312481793135 0 0.65408113592120842 0.073941773121567966 0 0.61956000905586006 0.1043312481793135 0 0.61940220174112337 0.047251958781050582 0 0.65408113592120842 0.073941773121567966 0 0.7010294155333181 0.056779085686491267 0 0.68330259535470161 0.10038702501083881 0 0.65408113592120842 0.073941773121567966 0 0.66369801598854572 0.036327466368102787 0 0.7010294155333181 0.056779085686491267 0 0.65408113592120842 0.073941773121567966 0 0.61940220174112337 0.047251958781050582 0 0.66369801598854572 0.036327466368102787 0 0.64999999999907843 0 0 0.66369801598854572 0.036327466368102787 0 0.61940220174112337 0.047251958781050582 0 0.64999999999907843 0 0 0.69999999999921003 0 0 0.66369801598854572 0.036327466368102787 0 0.5499999999988151 0 0 0.59999999999894682 0 0 0.57396793757665954 0.037011367187645222 0 0.59999999999894682 0 0 0.64999999999907843 0 0 0.61940220174112337 0.047251958781050582 0 0.59999999999894682 0 0 0.61940220174112337 0.047251958781050582 0 0.57396793757665954 0.037011367187645222 0 0.57667858002728545 0.078486105337742612 0 0.57396793757665954 0.037011367187645222 0 0.61940220174112337 0.047251958781050582 0 0.57667858002728545 0.078486105337742612 0 0.61940220174112337 0.047251958781050582 0 0.61956000905586006 0.1043312481793135 0 0.6236733212988993 0.14864538214901801 0 0.58516465772821369 0.11653801664834119 0 0.61956000905586006 0.1043312481793135 0 0.57667858002728545 0.078486105337742612 0 0.61956000905586006 0.1043312481793135 0 0.58516465772821369 0.11653801664834119 0 0.56202748619534593 0.15054058349222879 0 0.54979595918804436 0.1060565713905809 0 0.58516465772821369 0.11653801664834119 0 0.57667858002728545 0.078486105337742612 0 0.58516465772821369 0.11653801664834119 0 0.54979595918804436 0.1060565713905809 0 0.51076801031701946 0.1202837388510348 0 0.52375890611712683 0.059318771819432882 0 0.54979595918804436 0.1060565713905809 0 0.51076801031701946 0.1202837388510348 0 0.47881186583059909 0.093591717165689425 0 0.52375890611712683 0.059318771819432882 0 0.57667858002728545 0.078486105337742612 0 0.54979595918804436 0.1060565713905809 0 0.52375890611712683 0.059318771819432882 0 0.5499999999988151 0 0 0.57396793757665954 0.037011367187645222 0 0.52375890611712683 0.059318771819432882 0 0.57667858002728545 0.078486105337742612 0 0.52375890611712683 0.059318771819432882 0 0.57396793757665954 0.037011367187645222 0 0.49999999999869432 0 0 0.5499999999988151 0 0 0.52375890611712683 0.059318771819432882 0 0.55306006949600994 0.20198184231352201 0 0.59443395090188023 0.18455690917515069 0 0.59814117807200873 0.23398510860739519 0 0.55306006949600994 0.20198184231352201 0 0.59814117807200873 0.23398510860739519 0 0.54248833945060504 0.2520322959927106 0 0.59814117807200873 0.23398510860739519 0 0.59443395090188023 0.18455690917515069 0 0.64011864159029941 0.18789607982138171 0 0.6236733212988993 0.14864538214901801 0 0.64011864159029941 0.18789607982138171 0 0.59443395090188023 0.18455690917515069 0 0.6236733212988993 0.14864538214901801 0 0.56202748619534593 0.15054058349222879 0 0.58516465772821369 0.11653801664834119 0 0.6236733212988993 0.14864538214901801 0 0.59443395090188023 0.18455690917515069 0 0.56202748619534593 0.15054058349222879 0 0.55306006949600994 0.20198184231352201 0 0.56202748619534593 0.15054058349222879 0 0.59443395090188023 0.18455690917515069 0 0.55306006949600994 0.20198184231352201 0 0.51729576145820033 0.1683240575987815 0 0.56202748619534593 0.15054058349222879 0 0.51076801031701946 0.1202837388510348 0 0.54979595918804436 0.1060565713905809 0 0.56202748619534593 0.15054058349222879 0 0.51076801031701946 0.1202837388510348 0 0.51729576145820033 0.1683240575987815 0 0.48466639505193998 0.1421439844745814 0 0.51076801031701946 0.1202837388510348 0 0.56202748619534593 0.15054058349222879 0 0.51729576145820033 0.1683240575987815 0 0.55306006949600994 0.20198184231352201 0 0.50760557329222289 0.20700468884612061 0 0.51729576145820033 0.1683240575987815 0 0.50760557329222289 0.20700468884612061 0 0.55306006949600994 0.20198184231352201 0 0.54248833945060504 0.2520322959927106 0 0.49695729691142171 0.25014895411178018 0 0.50760557329222289 0.20700468884612061 0 0.54248833945060504 0.2520322959927106 0 0.5 0.29999999999999999 0 0.49695729691142171 0.25014895411178018 0 0.54248833945060504 0.2520322959927106 0 0.5 0.29999999999999999 0 0.54999999999999993 0.29999999999999999 0 0.52752007115234678 0.33170632466418198 0 0.5 0.29999999999999999 0 0.54248833945060504 0.2520322959927106 0 0.54999999999999993 0.29999999999999999 0 0.5 0.29999999999999999 0 0.54999999999999993 0.29999999999999999 0 0.54999999999999993 0.29999999999999999 0 0.54248833945060504 0.2520322959927106 0 0.5794309697024993 0.27124795968204829 0 0.59814117807200873 0.23398510860739519 0 0.5794309697024993 0.27124795968204829 0 0.54248833945060504 0.2520322959927106 0 0.54999999999999993 0.29999999999999999 0 0.59999999999999976 0.29999999999999999 0 0.54999999999999993 0.29999999999999999 0 0.5794309697024993 0.27124795968204829 0 0.59999999999999976 0.29999999999999999 0 0.59999999999999976 0.29999999999999999 0 0.6499999999999998 0.29999999999999999 0 0.59999999999999976 0.29999999999999999 0 0.5794309697024993 0.27124795968204829 0 0.62657463266645097 0.26524202571255862 0 0.59814117807200873 0.23398510860739519 0 0.62657463266645097 0.26524202571255862 0 0.5794309697024993 0.27124795968204829 0 0.6084546825910605 0.37989672713932537 0 0.56836770495988642 0.3523062350852913 0 0.61959173890754571 0.33832250091341232 0 0.59999999999999976 0.29999999999999999 0 0.6499999999999998 0.29999999999999999 0 0.61959173890754571 0.33832250091341232 0 0.59999999999999976 0.29999999999999999 0 0.61959173890754571 0.33832250091341232 0 0.56836770495988642 0.3523062350852913 0 0.54999999999999993 0.29999999999999999 0 0.59999999999999976 0.29999999999999999 0 0.56836770495988642 0.3523062350852913 0 0.56836770495988642 0.3523062350852913 0 0.52289427570932567 0.3932284363388488 0 0.52752007115234678 0.33170632466418198 0 0.54999999999999993 0.29999999999999999 0 0.56836770495988642 0.3523062350852913 0 0.52752007115234678 0.33170632466418198 0 0.5 0.29999999999999999 0 0.52752007115234678 0.33170632466418198 0 0.49077833859261139 0.35229981449445641 0 0.52752007115234678 0.33170632466418198 0 0.52289427570932567 0.3932284363388488 0 0.49077833859261139 0.35229981449445641 0 0.52289427570932567 0.3932284363388488 0 0.56836770495988642 0.3523062350852913 0 0.57744073070774993 0.41535148636609359 0 0.52289427570932567 0.3932284363388488 0 0.57744073070774993 0.41535148636609359 0 0.53823865529665704 0.45873898050322898 0 0.52289427570932567 0.3932284363388488 0 0.53823865529665704 0.45873898050322898 0 0.48858720058566618 0.43964267759203868 0 0.49102375406324739 0.49123754822244059 0 0.53823865529665704 0.45873898050322898 0 0.53330375813596242 0.50827942741749099 0 0.49102375406324739 0.49123754822244059 0 0.48858720058566618 0.43964267759203868 0 0.53823865529665704 0.45873898050322898 0 0.57611405284611883 0.50165903596042916 0 0.53330375813596242 0.50827942741749099 0 0.53823865529665704 0.45873898050322898 0 0.57611405284611883 0.50165903596042916 0 0.57975577671020095 0.46172033326338591 0 0.61547661924074692 0.48539576058873962 0 0.57611405284611883 0.50165903596042916 0 0.53823865529665704 0.45873898050322898 0 0.57975577671020095 0.46172033326338591 0 0.61209567303293111 0.44669033081290321 0 0.57975577671020095 0.46172033326338591 0 0.57744073070774993 0.41535148636609359 0 0.53823865529665704 0.45873898050322898 0 0.57744073070774993 0.41535148636609359 0 0.57975577671020095 0.46172033326338591 0 0.61209567303293111 0.44669033081290321 0 0.61547661924074692 0.48539576058873962 0 0.57975577671020095 0.46172033326338591 0 0.6084546825910605 0.37989672713932537 0 0.57744073070774993 0.41535148636609359 0 0.56836770495988642 0.3523062350852913 0 0.61209567303293111 0.44669033081290321 0 0.57744073070774993 0.41535148636609359 0 0.63912439215427275 0.41063340167983359 0 0.6084546825910605 0.37989672713932537 0 0.63912439215427275 0.41063340167983359 0 0.57744073070774993 0.41535148636609359 0 0.6084546825910605 0.37989672713932537 0 0.65481233915350323 0.35652751921065562 0 0.63912439215427275 0.41063340167983359 0 0.6879972333610942 0.43038561374960838 0 0.65178832218679827 0.45929119821019959 0 0.63912439215427275 0.41063340167983359 0 0.6879972333610942 0.43038561374960838 0 0.63912439215427275 0.41063340167983359 0 0.68128176404677243 0.38629093627004979 0 0.65481233915350323 0.35652751921065562 0 0.68128176404677243 0.38629093627004979 0 0.63912439215427275 0.41063340167983359 0 0.6541250972820879 0.49999999999999989 0 0.61547661924074692 0.48539576058873962 0 0.65178832218679827 0.45929119821019959 0 0.61209567303293111 0.44669033081290321 0 0.65178832218679827 0.45929119821019959 0 0.61547661924074692 0.48539576058873962 0 0.61209567303293111 0.44669033081290321 0 0.63912439215427275 0.41063340167983359 0 0.65178832218679827 0.45929119821019959 0 0.6879972333610942 0.43038561374960838 0 0.69385896817107129 0.48377516041410151 0 0.65178832218679827 0.45929119821019959 0 0.6541250972820879 0.49999999999999989 0 0.65178832218679827 0.45929119821019959 0 0.69385896817107129 0.48377516041410151 0 0.7152569930854884 0.5237994455134295 0 0.69385896817107129 0.48377516041410151 0 0.73947346780852752 0.49062440112282169 0 0.6879972333610942 0.43038561374960838 0 0.73483647259922602 0.44789725365921768 0 0.69385896817107129 0.48377516041410151 0 0.73483647259922602 0.44789725365921768 0 0.73947346780852752 0.49062440112282169 0 0.69385896817107129 0.48377516041410151 0 0.71508799138962864 0.36622814920737751 0 0.72622533758026719 0.40265885511101601 0 0.68128176404677243 0.38629093627004979 0 0.6879972333610942 0.43038561374960838 0 0.72622533758026719 0.40265885511101601 0 0.73483647259922602 0.44789725365921768 0 0.6879972333610942 0.43038561374960838 0 0.68128176404677243 0.38629093627004979 0 0.72622533758026719 0.40265885511101601 0 0.77354604466818633 0.40378688774472771 0 0.73483647259922602 0.44789725365921768 0 0.72622533758026719 0.40265885511101601 0 0.71508799138962864 0.36622814920737751 0 0.74764719760526988 0.3719647154012321 0 0.72622533758026719 0.40265885511101601 0 0.77354604466818633 0.40378688774472771 0 0.72622533758026719 0.40265885511101601 0 0.74764719760526988 0.3719647154012321 0 0.71508799138962864 0.36622814920737751 0 0.73090396928863699 0.33699297293167962 0 0.74764719760526988 0.3719647154012321 0 0.71508799138962864 0.36622814920737751 0 0.68887083591306764 0.33632058575757479 0 0.73090396928863699 0.33699297293167962 0 0.71508799138962864 0.36622814920737751 0 0.68128176404677243 0.38629093627004979 0 0.68887083591306764 0.33632058575757479 0 0.69999999999999984 0.29999999999999999 0 0.73090396928863699 0.33699297293167962 0 0.68887083591306764 0.33632058575757479 0 0.69999999999999984 0.29999999999999999 0 0.72500000000000064 0.2498161764706 0 0.74999999999999989 0.29999999999999999 0 0.69999999999999984 0.29999999999999999 0 0.74999999999999989 0.29999999999999999 0 0.69999999999999984 0.29999999999999999 0 0.74999999999999989 0.29999999999999999 0 0.73090396928863699 0.33699297293167962 0 0.74999999999999989 0.29999999999999999 0 0.72500000000000064 0.2498161764706 0 0.77075983436335049 0.25919399014334171 0 0.69999999999999984 0.29999999999999999 0 0.67933712972090698 0.25920070958121938 0 0.72500000000000064 0.2498161764706 0 0.6499999999999998 0.29999999999999999 0 0.67933712972090698 0.25920070958121938 0 0.69999999999999984 0.29999999999999999 0 0.6499999999999998 0.29999999999999999 0 0.69999999999999984 0.29999999999999999 0 0.68887083591306764 0.33632058575757479 0 0.6499999999999998 0.29999999999999999 0 0.69999999999999984 0.29999999999999999 0 0.6499999999999998 0.29999999999999999 0 0.62657463266645097 0.26524202571255862 0 0.67933712972090698 0.25920070958121938 0 0.65394964615507722 0.22666784374016369 0 0.67933712972090698 0.25920070958121938 0 0.62657463266645097 0.26524202571255862 0 0.59999999999999976 0.29999999999999999 0 0.62657463266645097 0.26524202571255862 0 0.6499999999999998 0.29999999999999999 0 0.6499999999999998 0.29999999999999999 0 0.65481233915350323 0.35652751921065562 0 0.61959173890754571 0.33832250091341232 0 0.6084546825910605 0.37989672713932537 0 0.61959173890754571 0.33832250091341232 0 0.65481233915350323 0.35652751921065562 0 0.65481233915350323 0.35652751921065562 0 0.68887083591306764 0.33632058575757479 0 0.68128176404677243 0.38629093627004979 0 0.6499999999999998 0.29999999999999999 0 0.68887083591306764 0.33632058575757479 0 0.65481233915350323 0.35652751921065562 0 
</DataArray>
</Points>
<Cells>
<DataArray type="UInt32" Name="connectivity" format="ascii">
0 1 2 3 4 5 6 7 8 9 10 11 12 13 14 15 16 17 18 19 20 21 22 23 24 25 26 27 28 29 30 31 32 33 34 35 36 37 38 39 40 41 42 43 44 45 46 47 48 49 50 51 52 53 54 55 56 57 58 59 60 61 62 63 64 65 66 67 68 69 70 71 72 73 74 75 76 77 78 79 80 81 82 83 84 85 86 87 88 89 90 91 92 93 94 95 96 97 98 99 100 101 102 103 104 105 106 107 108 109 110 111 112 113 114 115 116 117 118 119 120 121 122 123 124 125 126 127 128 129 130 131 132 133 134 135 136 137 138 139 140 141 142 143 144 145 146 147 148 149 150 151 152 153 154 155 156 157 158 159 160 161 162 163 164 165 166 167 168 169 170 171 172 173 174 175 176 177 178 179 180 181 182 183 184 185 186 187 188 189 190 191 192 193 194 195 196 197 198 199 200 201 202 203 204 205 206 207 208 209 210 211 212 213 214 215 216 217 218 219 220 221 222 223 224 225 226 227 228 229 230 231 232 233 234 235 236 237 238 239 240 241 242 243 244 245 246 247 248 249 250 251 252 253 254 255 256 257 258 259 260 261 262 263 264 265 266 267 268 269 270 271 272 273 274 275 276 277 278 279 280 281 282 283 284 285 286 287 288 289 290 291 292 293 294 295 296 297 298 299 300 301 302 303 304 305 306 307 308 309 310 311 312 313 314 315 316 317 318 319 320 321 322 323 324 325 326 327 328 329 330 331 332 333 334 335 336 337 338 339 340 341 342 343 344 345 346 347 348 349 350 351 352 353 354 355 356 357 358 359 360 361 362 363 364 365 366 367 368 369 370 371 372 373 374 375 376 377 378 379 380 381 382 383 384 385 386 387 388 389 390 391 392 393 394 395 396 397 398 399 400 401 402 403 404 405 406 407 408 409 410 411 412 413 414 415 416 417 418 419 420 421 422 423 424 425 426 427 428 429 430 431 432 433 434 435 436 437 438 439 440 441 442 443 444 445 446 447 448 449 450 451 452 453 454 455 456 457 458 459 460 461 462 463 464 465 466 467 468 469 470 471 472 473 474 475 476 477 478 479 480 481 482 483 484 485 486 487 488 489 490 491 492 493 494 495 496 497 498 499 500 501 502 503 504 505 506 507 508 509 510 511 512 513 514 515 516 517 518 519 520 521 522 523 524 525 526 527 528 529 530 531 532 533 534 535 536 537 538 539 540 541 542 543 544 545 546 547 548 549 550 551 552 553 554 555 556 557 558 559 560 561 562 563 564 565 566 567 568 569 570 571 572 573 574 575 576 577 578 579 580 581 582 583 584 585 586 587 588 589 590 591 592 593 594 595 596 597 598 599 600 601 602 603 604 605 606 607 608 609 610 611 612 613 614 615 616 617 618 619 620 621 622 623 624 625 626 627 628 629 630 631 632 633 634 635 636 637 638 639 640 641 642 643 644 645 646 647 648 649 650 651 652 653 654 655 656 657 658 659 660 661 662 663 664 665 666 667 668 669 670 671 672 673 674 675 676 677 678 679 680 681 682 683 684 685 686 687 688 689 690 691 692 693 694 695 696 697 698 699 700 701 702 703 704 705 706 707 708 709 710 711 712 713 714 715 716 717 718 719 720 721 722 723 724 725 726 727 728 729 730 731 732 733 734 735 736 737 738 739 740 741 742 743 744 745 746 747 748 749 750 751 752 753 754 755 756 757 758 759 760 761 762 763 764 765 766 767 768 769 770 771 772 773 774 775 776 777 778 779 780 781 782 783 784 785 786 787 788 789 790 791 792 793 794 795 796 797 798 799 800 801 802 803 804 805 806 807 808 809 810 811 812 813 814 815 816 817 818 819 820 821 822 823 824 825 826 827 828 829 830 831 832 833 834 835 836 837 838 839 840 841 842 843 844 845 846 847 848 849 850 851 852 853 854 855 856 857 858 859 860 861 862 863 864 865 866 867 868 869 870 871 872 873 874 875 876 877 878 879 880 881 882 883 884 885 886 887 888 889 890 891 892 893 894 895 896 897 898 899 900 901 902 903 904 905 906 907 908 909 910 911 912 913 914 915 916 917 918 919 920 921 922 923 924 925 926 927 928 929 930 931 932 933 934 935 936 937 938 939 940 941 942 943 944 945 946 947 948 949 950 951 952 953 954 955 956 957 958 959 960 961 962 963 964 965 966 967 968 969 970 971 972 973 974 975 976 977 978 979 980 981 982 983 984 985 986 987 988 989 990 991 992 993 994 995 996 997 998 999 1000 1001 1002 1003 1004 1005 1006 1007 1008 1009 1010 1011 1012 1013 1014 1015 1016 1017 1018 1019 1020 1021 1022 1023 1024 1025 1026 1027 1028 1029 1030 1031 1032 1033 1034 1035 1036 1037 1038 1039 1040 1041 1042 1043 1044 1045 1046 1047 1048 1049 1050 1051 1052 1053 1054 1055 1056 1057 1058 1059 1060 1061 1062 1063 1064 1065 1066 1067 1068 1069 1070 1071 1072 1073 1074 1075 1076 1077 1078 1079 1080 1081 1082 1083 1084 1085 1086 1087 1088 1089 1090 1091 1092 1093 1094 1095 1096 1097 1098 1099 1100 1101 1102 1103 1104 1105 1106 1107 1108 1109 1110 1111 1112 1113 1114 1115 1116 1117 1118 1119 1120 1121 1122 1123 1124 1125 1126 1127 1128 1129 1130 1131 1132 1133 1134 1135 1136 1137 1138 1139 1140 1141 1142 1143 1144 1145 1146 1147 1148 1149 1150 1151 1152 1153 1154 1155 1156 1157 1158 1159 1160 1161 1162 1163 1164 1165 1166 1167 1168 1169 1170 1171 1172 1173 1174 1175 1176 1177 1178 1179 1180 1181 1182 1183 1184 1185 1186 1187 1188 1189 1190 1191 1192 1193 1194 1195 1196 1197 1198 1199 1200 1201 1202 1203 1204 1205 1206 1207 1208 1209 1210 1211 1212 1213 1214 1215 1216 1217 1218 1219 1220 1221 1222 1223 1224 1225 1226 1227 1228 1229 1230 1231 1232 1233 1234 1235 1236 1237 1238 1239 1240 1241 1242 1243 1244 1245 1246 1247 1248 1249 1250 1251 1252 1253 1254 1255 1256 1257 1258 1259 1260 1261 1262 1263 1264 1265 1266 1267 1268 1269 1270 1271 1272 1273 1274 1275 1276 1277 1278 1279 1280 1281 1282 1283 1284 1285 1286 1287 1288 1289 1290 1291 1292 1293 1294 1295 1296 1297 1298 1299 1300 1301 1302 1303 1304 1305 1306 1307 1308 1309 1310 1311 1312 1313 1314 1315 1316 1317 1318 1319 1320 1321 1322 1323 1324 1325 1326 1327 1328 1329 1330 1331 1332 1333 1334 1335 1336 1337 1338 1339 1340 1341 1342 1343 1344 1345 1346 1347 1348 1349 1350 1351 1352 1353 1354 1355 1356 1357 1358 1359 1360 1361 1362 1363 1364 1365 1366 1367 1368 1369 1370 1371 1372 1373 1374 1375 1376 1377 1378 1379 1380 1381 1382 1383 1384 1385 1386 1387 1388 1389 1390 1391 1392 1393 1394 1395 1396 1397 1398 1399 1400 1401 1402 1403 1404 1405 1406 1407 1408 1409 1410 1411 1412 1413 1414 1415 1416 1417 1418 1419 1420 1421 1422 1423 1424 1425 1426 1427 1428 1429 1430 1431 1432 1433 1434 1435 1436 1437 1438 1439 1440 1441 1442 1443 1444 1445 1446 1447 1448 1449 1450 1451 1452 1453 1454 1455 1456 1457 1458 1459 1460 1461 1462 1463 1464 1465 1466 1467 1468 1469 1470 1471 1472 1473 1474 1475 1476 1477 1478 1479 1480 1481 1482 1483 1484 1485 1486 1487 1488 1489 1490 1491 1492 1493 1494 1495 1496 1497 1498 1499 1500 1501 1502 1503 1504 1505 1506 1507 1508 1509 1510 1511 1512 1513 1514 1515 1516 1517 1518 1519 1520 1521 1522 1523 1524 1525 1526 1527 1528 1529 1530 1531 1532 1533 1534 1535 1536 1537 1538 1539 1540 1541 1542 1543 1544 1545 1546 1547 1548 1549 1550 1551 1552 1553 1554 1555 1556 1557 1558 1559 1560 1561 1562 1563 1564 1565 1566 1567 1568 1569 1570 1571 1572 1573 1574 1575 1576 1577 1578 1579 1580 1581 1582 1583 1584 1585 1586 1587 1588 1589 1590 1591 1592 1593 1594 1595 1596 1597 1598 1599 1600 1601 1602 1603 1604 1605 1606 1607 1608 1609 1610 1611 1612 1613 1614 1615 1616 1617 1618 1619 1620 1621 1622 1623 1624 1625 1626 1627 1628 1629 1630 1631 1632 1633 1634 1635 1636 1637 1638 1639 1640 1641 1642 1643 1644 1645 1646 1647 1648 1649 1650 1651 1652 1653 1654 1655 1656 1657 1658 1659 1660 1661 1662 1663 1664 1665 1666 1667 1668 1669 1670 1671 1672 1673 1674 1675 1676 1677 1678 1679 1680 1681 1682 1683 1684 1685 1686 1687 1688 1689 1690 1691 1692 1693 1694 1695 1696 1697 1698 1699 1700 1701 1702 1703 1704 1705 1706 1707 1708 1709 1710 1711 1712 1713 1714 1715 1716 1717 1718 1719 1720 1721 1722 1723 1724 1725 1726 1727 1728 1729 1730 1731 1732 1733 1734 1735 1736 1737 1738 1739 1740 1741 1742 1743 1744 1745 1746 1747 1748 1749 1750 1751 1752 1753 1754 1755 1756 1757 1758 1759 1760 1761 1762 1763 1764 1765 1766 1767 1768 1769 1770 1771 1772 1773 1774 1775 1776 1777 1778 1779 1780 1781 1782 1783 1784 1785 1786 1787 1788 1789 1790 1791 1792 1793 1794 1795 1796 1797 1798 1799 1800 1801 1802 1803 1804 1805 1806 1807 1808 1809 1810 1811 1812 1813 1814 1815 1816 1817 1818 1819 1820 1821 1822 1823 1824 1825 1826 1827 1828 1829 1830 1831 1832 1833 1834 1835 1836 1837 1838 1839 1840 1841 1842 1843 1844 1845 1846 1847 1848 1849 1850 1851 1852 1853 1854 1855 1856 1857 1858 1859 1860 1861 1862 1863 1864 1865 1866 1867 1868 1869 1870 1871 1872 1873 1874 1875 1876 1877 1878 1879 1880 1881 1882 1883 1884 1885 1886 1887 1888 1889 1890 1891 1892 1893 1894 1895 1896 1897 1898 1899 1900 1901 1902 1903 1904 1905 1906 1907 1908 1909 1910 1911 1912 1913 1914 1915 1916 1917 1918 1919 1920 1921 1922 1923 1924 1925 1926 1927 1928 1929 1930 1931 1932 1933 1934 1935 1936 1937 1938 1939 1940 1941 1942 1943 1944 1945 1946 1947 1948 1949 1950 1951 1952 1953 1954 1955 1956 1957 1958 1959 1960 1961 1962 1963 1964 1965 1966 1967 1968 1969 1970 1971 1972 1973 1974 1975 1976 1977 1978 1979 1980 1981 1982 1983 1984 1985 1986 1987 1988 1989 1990 1991 1992 1993 1994 1995 1996 1997 1998 1999 2000 2001 2002 2003 2004 2005 2006 2007 2008 2009 2010 2011 2012 2013 2014 2015 2016 2017 2018 2019 2020 2021 2022 2023 2024 2025 2026 2027 2028 2029 2030 2031 2032 2033 2034 2035 2036 2037 2038 2039 2040 2041 2042 2043 2044 2045 2046 2047 2048 2049 2050 2051 2052 2053 2054 2055 2056 2057 2058 2059 2060 2061 2062 2063 2064 2065 2066 2067 2068 2069 2070 2071 2072 2073 2074 2075 2076 2077 2078 2079 2080 2081 2082 2083 2084 2085 2086 2087 2088 2089 2090 2091 2092 2093 2094 2095 2096 2097 2098 2099 2100 2101 2102 2103 2104 2105 2106 2107 2108 2109 2110 2111 2112 2113 2114 2115 2116 2117 2118 2119 2120 2121 2122 2123 2124 2125 2126 2127 2128 2129 2130 2131 2132 2133 2134 2135 2136 2137 2138 2139 2140 2141 2142 2143 2144 2145 2146 2147 2148 2149 2150 2151 2152 2153 2154 2155 2156 2157 2158 2159 2160 2161 2162 2163 2164 2165 2166 2167 2168 2169 2170 2171 2172 2173 2174 2175 2176 2177 2178 2179 2180 2181 2182 2183 2184 2185 2186 2187 2188 2189 2190 2191 2192 2193 2194 2195 2196 2197 2198 2199 2200 2201 2202 2203 2204 2205 2206 2207 2208 2209 2210 2211 2212 2213 2214 2215 2216 2217 2218 2219 2220 2221 2222 2223 2224 2225 2226 2227 2228 2229 2230 2231 2232 2233 2234 2235 2236 2237 2238 2239 2240 2241 2242 2243 2244 2245 2246 2247 2248 2249 2250 2251 2252 2253 2254 2255 2256 2257 2258 2259 2260 2261 2262 2263 2264 2265 2266 2267 2268 2269 2270 2271 2272 2273 2274 2275 2276 2277 2278 2279 2280 2281 2282 2283 2284 2285 2286 2287 2288 2289 2290 2291 2292 2293 2294 2295 2296 2297 2298 2299 2300 2301 2302 2303 2304 2305 2306 2307 2308 2309 2310 2311 2312 2313 2314 2315 2316 2317 2318 2319 2320 2321 2322 2323 2324 2325 2326 2327 2328 2329 2330 2331 2332 2333 2334 2335 2336 2337 2338 2339 2340 2341 2342 2343 2344 2345 2346 2347 2348 2349 2350 2351 2352 2353 2354 2355 2356 2357 2358 2359 2360 2361 2362 2363 2364 2365 2366 2367 2368 2369 2370 2371 2372 2373 2374 2375 2376 2377 2378 2379 2380 2381 2382 2383 2384 2385 2386 2387 2388 2389 2390 2391 2392 2393 2394 2395 2396 2397 2398 2399 2400 2401 2402 2403 2404 2405 2406 2407 2408 2409 2410 2411 2412 2413 2414 2415 2416 2417 2418 2419 2420 2421 2422 2423 2424 2425 2426 2427 2428 2429 2430 2431 2432 2433 2434 2435 2436 2437 2438 2439 2440 2441 2442 2443 2444 2445 2446 2447 2448 2449 2450 2451 2452 2453 2454 2455 2456 2457 2458 2459 2460 2461 2462 2463 2464 2465 2466 2467 2468 2469 2470 2471 2472 2473 2474 2475 2476 2477 2478 2479 2480 2481 2482 2483 2484 2485 2486 2487 2488 2489 2490 2491 2492 2493 2494 2495 2496 2497 2498 2499 2500 2501 2502 2503 2504 2505 2506 2507 2508 2509 2510 2511 2512 2513 2514 2515 2516 2517 2518 2519 2520 2521 2522 2523 2524 2525 2526 2527 2528 2529 2530 2531 2532 2533 2534 2535 2536 2537 2538 2539 2540 2541 2542 2543 2544 2545 2546 2547 2548 2549 2550 2551 2552 2553 2554 2555 2556 2557 2558 2559 2560 2561 2562 2563 2564 2565 2566 2567 2568 2569 2570 2571 2572 2573 2574 2575 2576 2577 2578 2579 2580 2581 2582 2583 2584 2585 2586 2587 2588 2589 2590 2591 2592 2593 2594 2595 2596 2597 2598 2599 2600 2601 2602 2603 2604 2605 2606 2607 2608 2609 2610 2611 2612 2613 2614 2615 2616 2617 2618 2619 2620 2621 2622 2623 2624 2625 2626 2627 2628 2629 2630 2631 2632 2633 2634 2635 2636 2637 2638 2639 2640 2641 2642 2643 2644 2645 2646 2647 2648 2649 2650 2651 2652 2653 2654 2655 2656 2657 2658 2659 2660 2661 2662 2663 2664 2665 2666 2667 2668 2669 2670 2671 2672 2673 2674 2675 2676 2677 2678 2679 2680 2681 2682 2683 2684 2685 2686 2687 2688 2689 2690 2691 2692 2693 2694 2695 2696 2697 2698 2699 2700 2701 2702 2703 2704 2705 2706 2707 2708 2709 2710 2711 2712 2713 2714 2715 2716 2717 2718 2719 2720 2721 2722 2723 2724 2725 2726 2727 2728 2729 2730 2731 2732 2733 2734 2735 2736 2737 2738 2739 2740 2741 2742 2743 2744 2745 2746 2747 2748 2749 2750 2751 2752 2753 2754 2755 2756 2757 2758 2759 2760 2761 2762 2763 2764 2765 2766 2767 2768 2769 2770 2771 2772 2773 2774 2775 2776 2777 2778 2779 2780 2781 2782 2783 2784 2785 2786 2787 2788 2789 2790 2791 2792 2793 2794 2795 2796 2797 2798 2799 2800 2801 2802 2803 2804 2805 2806 2807 2808 2809 2810 2811 2812 2813 2814 2815 2816 2817 2818 2819 2820 2821 2822 2823 2824 2825 2826 2827 2828 2829 2830 2831 2832 2833 2834 2835 2836 2837 2838 2839 2840 2841 2842 2843 2844 2845 2846 2847 2848 2849 2850 2851 2852 2853 2854 2855 2856 2857 2858 2859 2860 2861 2862 2863 2864 2865 2866 2867 2868 2869 2870 2871 2872 2873 2874 2875 2876 2877 2878 2879 2880 2881 2882 2883 2884 2885 2886 2887 2888 2889 2890 2891 2892 2893 2894 2895 2896 2897 2898 2899 2900 2901 2902 2903 2904 2905 2906 2907 2908 2909 2910 2911 2912 2913 2914 2915 2916 2917 2918 2919 2920 2921 2922 2923 2924 2925 2926 2927 2928 2929 2930 2931 2932 2933 2934 2935 2936 2937 2938 2939 2940 2941 2942 2943 2944 2945 2946 2947 2948 2949 2950 2951 2952 2953 2954 2955 2956 2957 2958 2959 2960 2961 2962 2963 2964 2965 2966 2967 2968 2969 2970 2971 2972 2973 2974 2975 2976 2977 2978 2979 2980 2981 2982 2983 2984 2985 2986 2987 2988 2989 2990 2991 2992 2993 2994 2995 2996 2997 2998 2999 3000 3001 3002 3003 3004 3005 3006 3007 3008 3009 3010 3011 3012 3013 3014 3015 3016 3017 3018 3019 3020 3021 3022 3023 3024 3025 3026 3027 3028 3029 3030 3031 3032 3033 3034 3035 3036 3037 3038 3039 3040 3041 3042 3043 3044 3045 3046 3047 3048 3049 3050 3051 3052 3053 3054 3055 3056 3057 3058 3059 3060 3061 3062 3063 3064 3065 3066 3067 3068 3069 3070 3071 3072 3073 3074 3075 3076 3077 3078 3079 3080 3081 3082 3083 3084 3085 3086 3087 3088 3089 3090 3091 3092 3093 3094 3095 3096 3097 3098 3099 3100 3101 3102 3103 3104 3105 3106 3107 3108 3109 3110 3111 3112 3113 3114 3115 3116 3117 3118 3119 3120 3121 3122 3123 3124 3125 3126 3127 3128 3129 3130 3131 3132 3133 3134 3135 3136 3137 3138 3139 3140 3141 
</DataArray>
<DataArray type="UInt32" Name="offsets" format="ascii">
3 6 9 12 15 18 21 24 27 30 33 36 39 42 45 48 51 54 57 60 63 66 69 72 75 78 81 84 87 90 93 96 99 102 105 108 111 114 117 120 123 126 129 132 135 138 141 144 147 150 153 156 159 162 165 168 171 174 177 180 183 186 189 192 195 198 201 204 207 210 213 216 219 222 225 228 231 234 237 240 243 246 249 252 255 258 261 264 267 270 273 276 279 282 285 288 291 294 297 300 303 306 309 312 315 318 321 324 327 330 333 336 339 342 345 348 351 354 357 360 363 366 369 372 375 378 381 384 387 390 393 396 399 402 405 408 411 414 417 420 423 426 429 432 435 438 441 444 447 450 453 456 459 462 465 468 471 474 477 480 483 486 489 492 495 498 501 504 507 510 513 516 519 522 525 528 531 534 537 540 543 546 549 552 555 558 561 564 567 570 573 576 579 582 585 588 591 594 597 600 603 606 609 612 615 618 621 624 627 630 633 636 639 642 645 648 651 654 657 660 663 666 669 672 675 678 681 684 687 690 693 696 699 702 705 708 711 714 717 720 723 726 729 732 735 738 741 744 747 750 753 756 759 762 765 768 771 774 777 780 783 786 789 792 795 798 801 804 807 810 813 816 819 822 825 828 831 834 837 840 843 846 849 852 855 858 861 864 867 870 873 876 879 882 885 888 891 894 897 900 903 906 909 912 915 918 921 924 927 930 933 936 939 942 945 948 951 954 957 960 963 966 969 972 975 978 981 984 987 990 993 996 999 1002 1005 1008 1011 1014 1017 1020 1023 1026 1029 1032 1035 1038 1041 1044 1047 1050 1053 1056 1059 1062 1065 1068 1071 1074 1077 1080 1083 1086 1089 1092 1095 1098 1101 1104 1107 1110 1113 1116 1119 1122 1125 1128 1131 1134 1137 1140 1143 1146 1149 1152 1155 1158 1161 1164 1167 1170 1173 1176 1179 1182 1185 1188 1191 1194 1197 1200 1203 1206 1209 1212 1215 1218 1221 1224 1227 1230 1233 1236 1239 1242 1245 1248 1251 1254 1257 1260 1263 1266 1269 1272 1275 1278 1281 1284 1287 1290 1293 1296 1299 1302 1305 1308 1311 1314 1317 1320 1323 1326 1329 1332 1335 1338 1341 1344 1347 1350 1353 1356 1359 1362 1365 1368 1371 1374 1377 1380 1383 1386 1389 1392 1395 1398 1401 1404 1407 1410 1413 1416 1419 1422 1425 1428 1431 1434 1437 1440 1443 1446 1449 1452 1455 1458 1461 1464 1467 1470 1473 1476 1479 1482 1485 1488 1491 1494 1497 1500 1503 1506 1509 1512 1515 1518 1521 1524 1527 1530 1533 1536 1539 1542 1545 1548 1551 1554 1557 1560 1563 1566 1569 1572 1575 1578 1581 1584 1587 1590 1593 1596 1599 1602 1605 1608 1611 1614 1616 1619 1622 1624 1627 1630 1632 1635 1638 1641 1644 1647 1650 1653 1656 1659 1662 1665 1668 1671 1673 1676 1679 1682 1685 1688 1690 1693 1696 1699 1702 1705 1708 1711 1714 1717 1720 1723 1726 1729 1732 1735 1738 1741 1744 1747 1750 1753 1756 1759 1762 1765 1768 1771 1774 1777 1780 1783 1786 1789 1792 1795 1798 1801 1804 1807 1810 1813 1816 1819 1822 1825 1828 1831 1834 1837 1840 1843 1846 1849 1852 1855 1858 1861 1864 1867 1870 1873 1876 1879 1882 1885 1888 1891 1894 1897 1900 1903 1906 1909 1912 1915 1918 1921 1924 1927 1930 1933 1936 1939 1942 1945 1948 1951 1954 1957 1960 1963 1966 1969 1972 1975 1978 1981 1984 1987 1990 1993 1996 1999 2002 2005 2008 2011 2014 2017 2020 2023 2026 2029 2032 2035 2038 2041 2044 2047 2050 2053 2056 2059 2062 2065 2068 2071 2074 2077 2080 2083 2086 2089 2092 2095 2098 2101 2104 2107 2110 2113 2116 2119 2122 2125 2128 2131 2134 2137 2140 2143 2146 2149 2152 2155 2158 2161 2164 2167 2170 2173 2176 2179 2182 2185 2188 2191 2194 2196 2199 2202 2205 2207 2210 2213 2215 2218 2221 2224 2227 2230 2233 2236 2239 2242 2245 2248 2250 2253 2256 2259 2262 2264 2267 2270 2273 2276 2279 2282 2285 2288 2291 2294 2297 2300 2303 2306 2309 2312 2315 2318 2321 2324 2327 2330 2333 2336 2339 2342 2345 2348 2351 2354 2357 2360 2363 2366 2369 2372 2375 2378 2381 2384 2387 2390 2393 2396 2399 2402 2405 2408 2411 2414 2417 2420 2423 2426 2429 2432 2435 2438 2440 2443 2446 2449 2452 2455 2458 2461 2464 2467 2470 2473 2476 2479 2482 2484 2487 2490 2492 2495 2497 2500 2503 2506 2509 2512 2515 2518 2521 2524 2527 2530 2533 2536 2538 2541 2544 2547 2550 2553 2556 2559 2562 2565 2568 2571 2574 2577 2580 2583 2586 2589 2592 2595 2598 2601 2604 2607 2610 2613 2616 2619 2622 2625 2628 2631 2634 2637 2640 2643 2646 2649 2652 2655 2658 2661 2664 2667 2670 2673 2676 2679 2682 2685 2688 2691 2694 2697 2700 2703 2706 2709 2712 2715 2718 2721 2724 2727 2730 2733 2736 2739 2742 2745 2748 2751 2754 2757 2760 2763 2766 2769 2772 2775 2778 2781 2784 2787 2790 2793 2796 2799 2802 2805 2808 2811 2814 2817 2820 2823 2826 2829 2832 2835 2838 2841 2844 2847 2850 2853 2856 2859 2862 2865 2868 2871 2874 2877 2880 2883 2886 2889 2892 2895 2898 2901 2904 2907 2910 2913 2916 2919 2922 2925 2928 2931 2934 2937 2940 2943 2946 2948 2951 2954 2956 2959 2961 2964 2967 2970 2973 2976 2979 2982 2985 2988 2991 2994 2997 3000 3003 3006 3009 3012 3015 3018 3021 3024 3027 3030 3033 3036 3039 3042 3045 3048 3051 3054 3057 3060 3063 3066 3069 3072 3075 3078 3081 3084 3087 3090 3093 3096 3099 3102 3104 3107 3110 3113 3116 3119 3121 3124 3127 3130 3133 3136 3139 3142 
</DataArray>
<DataArray type="UInt32" Name="types" format="ascii">
5 5 5 5 5 5 5 5 5 5 5 5 5 5 5 5 5 5 5 5 5 5 5 5 5 5 5 5 5 5 5 5 5 5 5 5 5 5 5 5 5 5 5 5 5 5 5 5 5 5 5 5 5 5 5 5 5 5 5 5 5 5 5 5 5 5 5 5 5 5 5 5 5 5 5 5 5 5 5 5 5 5 5 5 5 5 5 5 5 5 5 5 5 5 5 5 5 5 5 5 5 5 5 5 5 5 5 5 5 5 5 5 5 5 5 5 5 5 5 5 5 5 5 5 5 5 5 5 5 5 5 5 5 5 5 5 5 5 5 5 5 5 5 5 5 5 5 5 5 5 5 5 5 5 5 5 5 5 5 5 5 5 5 5 5 5 5 5 5 5 5 5 5 5 5 5 5 5 5 5 5 5 5 5 5 5 5 5 5 5 5 5 5 5 5 5 5 5 5 5 5 5 5 5 5 5 5 5 5 5 5 5 5 5 5 5 5 5 5 5 5 5 5 5 5 5 5 5 5 5 5 5 5 5 5 5 5 5 5 5 5 5 5 5 5 5 5 5 5 5 5 5 5 5 5 5 5 5 5 5 5 5 5 5 5 5 5 5 5 5 5 5 5 5 5 5 5 5 5 5 5 5 5 5 5 5 5 5 5 5 5 5 5 5 5 5 5 5 5 5 5 5 5 5 5 5 5 5 5 5 5 5 5 5 5 5 5 5 5 5 5 5 5 5 5 5 5 5 5 5 5 5 5 5 5 5 5 5 5 5 5 5 5 5 5 5 5 5 5 5 5 5 5 5 5 5 5 5 5 5 5 5 5 5 5 5 5 5 5 5 5 5 5 5 5 5 5 5 5 5 5 5 5 5 5 5 5 5 5 5 5 5 5 5 5 5 5 5 5 5 5 5 5 5 5 5 5 5 5 5 5 5 5 5 5 5 5 5 5 5 5 5 5 5 5 5 5 5 5 5 5 5 5 5 5 5 5 5 5 5 5 5 5 5 5 5 5 5 5 5 5 5 5 5 5 5 5 5 5 5 5 5 5 5 5 5 5 5 5 5 5 5 5 5 5 5 5 5 5 5 5 5 5 5 5 5 5 5 5 5 5 5 5 5 5 5 5 5 5 5 5 5 5 5 5 5 5 5 5 5 5 5 5 5 5 5 5 5 5 5 5 5 5 5 5 5 5 5 5 5 5 5 5 5 5 5 5 5 3 5 5 3 5 5 3 5 5 5 5 5 5 5 5 5 5 5 5 5 3 5 5 5 5 5 3 5 5 5 5 5 5 5 5 5 5 5 5 5 5 5 5 5 5 5 5 5 5 5 5 5 5 5 5 5 5 5 5 5 5 5 5 5 5 5 5 5 5 5 5 5 5 5 5 5 5 5 5 5 5 5 5 5 5 5 5 5 5 5 5 5 5 5 5 5 5 5 5 5 5 5 5 5 5 5 5 5 5 5 5 5 5 5 5 5 5 5 5 5 5 5 5 5 5 5 5 5 5 5 5 5 5 5 5 5 5 5 5 5 5 5 5 5 5 5 5 5 5 5 5 5 5 5 5 5 5 5 5 5 5 5 5 5 5 5 5 5 5 5 5 5 5 5 5 5 5 5 5 5 5 5 5 5 5 5 5 5 5 5 5 5 5 5 5 3 5 5 5 3 5 5 3 5 5 5 5 5 5 5 5 5 5 5 3 5 5 5 5 3 5 5 5 5 5 5 5 5 5 5 5 5 5 5 5 5 5 5 5 5 5 5 5 5 5 5 5 5 5 5 5 5 5 5 5 5 5 5 5 5 5 5 5 5 5 5 5 5 5 5 5 5 5 5 5 5 5 5 3 5 5 5 5 5 5 5 5 5 5 5 5 5 5 3 5 5 3 5 3 5 5 5 5 5 5 5 5 5 5 5 5 5 3 5 5 5 5 5 5 5 5 5 5 5 5 5 5 5 5 5 5 5 5 5 5 5 5 5 5 5 5 5 5 5 5 5 5 5 5 5 5 5 5 5 5 5 5 5 5 5 5 5 5 5 5 5 5 5 5 5 5 5 5 5 5 5 5 5 5 5 5 5 5 5 5 5 5 5 5 5 5 5 5 5 5 5 5 5 5 5 5 5 5 5 5 5 5 5 5 5 5 5 5 5 5 5 5 5 5 5 5 5 5 5 5 5 5 5 5 5 5 5 5 5 5 5 5 5 5 5 5 5 5 5 5 5 5 5 5 3 5 5 3 5 3 5 5 5 5 5 5 5 5 5 5 5 5 5 5 5 5 5 5 5 5 5 5 5 5 5 5 5 5 5 5 5 5 5 5 5 5 5 5 5 5 5 5 5 5 5 5 5 3 5 5 5 5 5 3 5 5 5 5 5 5 5 
</DataArray>
</Cells>
<PointData Scalars="" Vectors="displacement," Tensors="">
<DataArray type="Float64" Name="displacement" NumberOfComponents="3" format="ascii">
-7.1816333316152967e-10 -2.9470298280197203e-10 0 -8.7480506305701497e-07 9.654346542561055e-08 0 -4.1001595835472794e-07 1.3809912304864706e-07 0 -7.1816333316152967e-10 -2.9470298280197203e-10 0 -4.1001595835472804e-07 1.3809912304864708e-07 0 -7.4997451379836692e-10 2.4418313549031993e-10 0 -8.7480506305701497e-07 9.654346542561055e-08 0 -9.5423699611893535e-07 4.8128294345062726e-07 0 -4.1001595835472794e-07 1.3809912304864706e-07 0 -7.4997451379836692e-10 2.4418313549031993e-10 0 -4.1001595835472794e-07 1.3809912304864708e-07 0 -9.5423699611893535e-07 4.8128294345062726e-07 0 -7.6234068786748593e-10 1.8621954588397847e-10 0 -7.4997451379836692e-10 2.4418313549031993e-10 0 -6.2231117621617059e-07 6.4508894653989044e-07 0 -4.0914407173397305e-10 4.6760594918260106e-10 0 -7.6234068786748593e-10 1.8621954588397847e-10 0 -6.2231117621617059e-07 6.4508894653989044e-07 0 -1.3581683572307913e-06 1.0098011441270621e-06 0 -6.2231117621617059e-07 6.4508894653989044e-07 0 -9.5423699611893535e-07 4.8128294345062726e-07 0 -7.4997451379836692e-10 2.4418313549031993e-10 0 -9.5423699611893535e-07 4.8128294345062726e-07 0 -6.2231117621617059e-07 6.4508894653989044e-07 0 -1.3581683572307913e-06 1.0098011441270621e-06 0 -7.3583273180176184e-07 1.0716663298065619e-06 0 -6.2231117621617059e-07 6.4508894653989044e-07 0 -1.3581683572307913e-06 1.0098011441270621e-06 0 -1.408450592977852e-06 1.4144866511546269e-06 0 -7.3583273180176184e-07 1.0716663298065619e-06 0 -1.3581683572307913e-06 1.0098011441270621e-06 0 -2.1066713020413187e-06 1.352192603259999e-06 0 -1.408450592977852e-06 1.4144866511546269e-06 0 -1.7220039630121692e-06 1.7179053242739852e-06 0 -1.408450592977852e-06 1.4144866511546269e-06 0 -2.1066713020413187e-06 1.352192603259999e-06 0 -2.9752474548467758e-06 1.1837146318686747e-06 0 -2.1066713020413187e-06 1.352192603259999e-06 0 -2.0494193912923839e-06 8.4540111857257682e-07 0 -1.3581683572307913e-06 1.0098011441270621e-06 0 -2.0494193912923839e-06 8.4540111857257682e-07 0 -2.1066713020413187e-06 1.352192603259999e-06 0 -2.0282397305094109e-06 4.4344930188948621e-07 0 -3.4743429283452665e-06 6.4973491816739407e-07 0 -2.0494193912923839e-06 8.4540111857257682e-07 0 -8.7480506305701497e-07 9.654346542561055e-08 0 -2.0282397305094109e-06 4.4344930188948621e-07 0 -9.5423699611893535e-07 4.8128294345062726e-07 0 -2.0282397305094109e-06 4.4344930188948621e-07 0 -2.0494193912923839e-06 8.4540111857257682e-07 0 -9.5423699611893535e-07 4.8128294345062726e-07 0 -1.3581683572307913e-06 1.0098011441270621e-06 0 -9.5423699611893535e-07 4.8128294345062726e-07 0 -2.0494193912923839e-06 8.4540111857257682e-07 0 -2.8151848176441727e-11 4.2413983841690592e-10 0 -2.6527936099483273e-10 3.500990513961153e-10 0 -1.1492557182213219e-07 8.8241628764627747e-07 0 -2.6527936099483273e-10 3.500990513961153e-10 0 -2.6363911096655004e-07 7.3864382990853746e-07 0 -1.1492557182213219e-07 8.8241628764627747e-07 0 -4.7451120184924984e-07 1.4028409793430134e-06 0 -1.1492557182213219e-07 8.8241628764627747e-07 0 -2.6363911096655004e-07 7.3864382990853746e-07 0 -4.0914407173397305e-10 4.6760594918260106e-10 0 -7.3583273180176184e-07 1.0716663298065619e-06 0 -2.6363911096655004e-07 7.3864382990853746e-07 0 -4.0914407173397305e-10 4.6760594918260106e-10 0 -6.2231117621617059e-07 6.4508894653989044e-07 0 -7.3583273180176184e-07 1.0716663298065619e-06 0 -4.7451120184924984e-07 1.4028409793430134e-06 0 -2.6363911096655004e-07 7.3864382990853746e-07 0 -7.3583273180176184e-07 1.0716663298065619e-06 0 -2.6527936099483273e-10 3.500990513961153e-10 0 -4.0914407173397305e-10 4.6760594918260106e-10 0 -2.6363911096655004e-07 7.3864382990853746e-07 0 -7.3583273180176184e-07 1.0716663298065619e-06 0 -1.408450592977852e-06 1.4144866511546269e-06 0 -1.0254145705581579e-06 1.5667900773671821e-06 0 -1.7220039630121692e-06 1.7179053242739852e-06 0 -1.0254145705581579e-06 1.5667900773671821e-06 0 -1.408450592977852e-06 1.4144866511546269e-06 0 -4.7451120184924984e-07 1.4028409793430134e-06 0 -7.3583273180176184e-07 1.0716663298065619e-06 0 -1.0254145705581579e-06 1.5667900773671821e-06 0 -4.7451120184924984e-07 1.4028409793430134e-06 0 -7.2552624711844104e-07 1.8598155265055088e-06 0 -6.0281577430437366e-08 1.5683372778987279e-06 0 -4.7451120184924984e-07 1.4028409793430134e-06 0 -1.0254145705581579e-06 1.5667900773671821e-06 0 -7.2552624711844104e-07 1.8598155265055088e-06 0 -4.7451120184924984e-07 1.4028409793430134e-06 0 -6.0281577430437366e-08 1.5683372778987279e-06 0 -1.1492557182213219e-07 8.8241628764627747e-07 0 1.0404766316615985e-07 9.6476243031407912e-07 0 -1.1492557182213219e-07 8.8241628764627747e-07 0 -6.0281577430437366e-08 1.5683372778987279e-06 0 -7.2552624711844104e-07 1.8598155265055088e-06 0 -1.1868730904308325e-07 1.8829766248164069e-06 0 -6.0281577430437366e-08 1.5683372778987279e-06 0 -2.9870804750814202e-07 1.9613260483464431e-06 0 -1.1868730904308316e-07 1.8829766248164069e-06 0 -7.2552624711844104e-07 1.8598155265055088e-06 0 -2.9870804750814202e-07 1.9613260483464431e-06 0 -7.2552624711844104e-07 1.8598155265055088e-06 0 -1.3106003608647108e-06 1.903479768354692e-06 0 -1.7220039630121692e-06 1.7179053242739852e-06 0 -2.3921847820236989e-06 1.7214487854835694e-06 0 -1.3106003608647108e-06 1.903479768354692e-06 0 -1.7220039630121692e-06 1.7179053242739852e-06 0 -7.2552624711844104e-07 1.8598155265055086e-06 0 -1.0254145705581579e-06 1.5667900773671821e-06 0 -1.7220039630121692e-06 1.7179053242739852e-06 0 -1.3106003608647108e-06 1.903479768354692e-06 0 -7.2552624711844104e-07 1.8598155265055088e-06 0 -1.7220039630121692e-06 1.7179053242739852e-06 0 -2.7096876634003479e-06 1.5181791113178873e-06 0 -2.3921847820236985e-06 1.7214487854835694e-06 0 -1.8003960460713098e-06 1.7324960955750122e-06 0 -2.3921847820236985e-06 1.7214487854835694e-06 0 -3.3760196603818222e-06 1.4406516312946116e-06 0 -1.8003960460713098e-06 1.7324960955750122e-06 0 -3.3760196603818222e-06 1.4406516312946116e-06 0 -2.8364661436164938e-06 1.2860326487790182e-06 0 -1.8003960460713098e-06 1.7324960955750122e-06 0 -2.8364661436164938e-06 1.286032648779018e-06 0 -1.7299597541297729e-06 1.2969202220587531e-06 0 -1.8003960460713098e-06 1.7324960955750122e-06 0 -1.3106003608647108e-06 1.903479768354692e-06 0 -2.3921847820236985e-06 1.7214487854835694e-06 0 -2.9870804750814202e-07 1.9613260483464431e-06 0 -1.3106003608647108e-06 1.903479768354692e-06 0 -6.9100021855918476e-07 1.7890735365568095e-06 0 -1.8003960460713098e-06 1.7324960955750122e-06 0 -6.9100021855918476e-07 1.7890735365568095e-06 0 -1.3106003608647108e-06 1.903479768354692e-06 0 -1.8003960460713098e-06 1.7324960955750122e-06 0 -1.7299597541297729e-06 1.2969202220587531e-06 0 -6.9100021855918476e-07 1.7890735365568095e-06 0 3.2971297915988203e-07 1.517327022200735e-06 0 4.6878998812869566e-07 1.8655331675297705e-06 0 -6.9100021855918476e-07 1.7890735365568095e-06 0 -2.9870804750814202e-07 1.9613260483464431e-06 0 -6.9100021855918476e-07 1.7890735365568095e-06 0 4.6878998812869571e-07 1.8655331675297703e-06 0 -3.4743429283452665e-06 6.4973491816739407e-07 0 -4.2366229739840986e-06 9.8659746376698263e-07 0 -2.9752474548467758e-06 1.1837146318686747e-06 0 -3.8487043879170767e-06 1.3531850785991537e-06 0 -2.9752474548467753e-06 1.1837146318686747e-06 0 -4.2366229739840986e-06 9.8659746376698263e-07 0 -3.4743429283452665e-06 6.4973491816739407e-07 0 -5.2066499280118213e-06 4.9433858933418201e-07 0 -4.2366229739840986e-06 9.8659746376698263e-07 0 -3.4743429283452665e-06 6.4973491816739407e-07 0 -2.9752474548467762e-06 1.1837146318686747e-06 0 -2.0494193912923839e-06 8.4540111857257682e-07 0 -2.9752474548467758e-06 1.1837146318686747e-06 0 -2.7096876634003479e-06 1.5181791113178873e-06 0 -2.1066713020413187e-06 1.352192603259999e-06 0 -1.7220039630121692e-06 1.7179053242739852e-06 0 -2.1066713020413187e-06 1.352192603259999e-06 0 -2.7096876634003479e-06 1.5181791113178873e-06 0 -3.8487043879170767e-06 1.3531850785991537e-06 0 -2.3921847820236985e-06 1.7214487854835694e-06 0 -2.7096876634003479e-06 1.5181791113178873e-06 0 -3.8487043879170767e-06 1.3531850785991537e-06 0 -2.7096876634003479e-06 1.5181791113178873e-06 0 -2.9752474548467758e-06 1.1837146318686747e-06 0 -3.8487043879170767e-06 1.3531850785991537e-06 0 -3.3760196603818222e-06 1.4406516312946116e-06 0 -2.3921847820236985e-06 1.7214487854835694e-06 0 -3.8487043879170767e-06 1.3531850785991537e-06 0 -4.7934572238811704e-06 1.0323372026762327e-06 0 -3.3760196603818222e-06 1.4406516312946116e-06 0 -4.5812236215397102e-06 7.9222037207100498e-07 0 -3.3760196603818222e-06 1.4406516312946116e-06 0 -4.7934572238811712e-06 1.0323372026762327e-06 0 -3.8487043879170767e-06 1.3531850785991537e-06 0 -5.4024416256110206e-06 7.9538354995235893e-07 0 -4.7934572238811712e-06 1.0323372026762327e-06 0 -6.6105208721549282e-06 2.7733307456208147e-07 0 -4.7934572238811712e-06 1.0323372026762327e-06 0 -5.4024416256110206e-06 7.9538354995235893e-07 0 -3.8487043879170767e-06 1.3531850785991537e-06 0 -4.2366229739840986e-06 9.8659746376698263e-07 0 -5.4024416256110206e-06 7.9538354995235893e-07 0 -5.2066499280118213e-06 4.9433858933418201e-07 0 -5.4024416256110206e-06 7.9538354995235893e-07 0 -4.2366229739840986e-06 9.8659746376698263e-07 0 -5.2066499280118213e-06 4.9433858933418201e-07 0 -7.2013934728381343e-06 -5.7417542174324461e-08 0 -5.4024416256110206e-06 7.9538354995235893e-07 0 -7.2013934728381343e-06 -5.7417542174324434e-08 0 -9.3501069566337948e-06 -1.0822102704022574e-06 0 -6.6105208721549282e-06 2.7733307456208147e-07 0 -7.2013934728381343e-06 -5.7417542174324434e-08 0 -6.6105208721549282e-06 2.7733307456208147e-07 0 -5.4024416256110206e-06 7.9538354995235893e-07 0 -9.3501069566337948e-06 -1.0822102704022574e-06 0 -8.9016167778463966e-06 -1.0893092499284081e-06 0 -6.6105208721549282e-06 2.7733307456208147e-07 0 -9.3501069566337948e-06 -1.0822102704022574e-06 0 -1.1870572655149395e-05 -2.6880892304195814e-06 0 -8.9016167778463966e-06 -1.0893092499284081e-06 0 -7.9904412115983808e-06 -1.564667606891344e-06 0 -8.9016167778463966e-06 -1.0893092499284081e-06 0 -1.0848029456612254e-05 -2.5585714206962238e-06 0 -7.9904412115983808e-06 -1.564667606891344e-06 0 -1.0848029456612254e-05 -2.5585714206962238e-06 0 -1.109238134342444e-05 -3.8702128088195083e-06 0 -1.1870572655149395e-05 -2.6880892304195814e-06 0 -1.0848029456612254e-05 -2.5585714206962238e-06 0 -8.9016167778463966e-06 -1.0893092499284081e-06 0 -1.1870572655149395e-05 -2.6880892304195814e-06 0 -1.4703657210819596e-05 -4.9680437913248658e-06 0 -1.0848029456612254e-05 -2.5585714206962238e-06 0 -7.9904412115983808e-06 -1.564667606891344e-06 0 -7.6359524636648322e-06 -3.3125433333716785e-06 0 -5.1869377383337773e-06 -1.453701782688457e-06 0 -7.9904412115983808e-06 -1.564667606891344e-06 0 -5.1869377383337773e-06 -1.453701782688457e-06 0 -5.3589507222096174e-06 -2.4265923691167915e-07 0 -7.9904412115983808e-06 -1.564667606891344e-06 0 -6.6947090247932448e-06 -2.3324763871254871e-07 0 -8.9016167778463966e-06 -1.0893092499284081e-06 0 -7.9904412115983808e-06 -1.564667606891344e-06 0 -5.3589507222096174e-06 -2.4265923691167915e-07 0 -6.6947090247932448e-06 -2.3324763871254871e-07 0 -4.5812236215397102e-06 7.9222037207100498e-07 0 -6.6947090247932457e-06 -2.3324763871254874e-07 0 -5.3589507222096174e-06 -2.4265923691167915e-07 0 -6.6105208721549282e-06 2.7733307456208147e-07 0 -8.9016167778463966e-06 -1.0893092499284081e-06 0 -6.6947090247932448e-06 -2.3324763871254871e-07 0 -6.6947090247932448e-06 -2.3324763871254871e-07 0 -4.5812236215397102e-06 7.9222037207100498e-07 0 -6.6105208721549282e-06 2.7733307456208147e-07 0 -6.6105208721549282e-06 2.7733307456208147e-07 0 -4.5812236215397102e-06 7.9222037207100498e-07 0 -4.7934572238811712e-06 1.0323372026762327e-06 0 -4.5812236215397102e-06 7.9222037207100498e-07 0 -2.8364661436164938e-06 1.2860326487790182e-06 0 -3.3760196603818222e-06 1.4406516312946116e-06 0 -4.5812236215397102e-06 7.9222037207100498e-07 0 -3.2907645837118396e-06 6.6015457616327176e-07 0 -2.8364661436164938e-06 1.2860326487790182e-06 0 -1.7299597541297729e-06 1.2969202220587531e-06 0 -2.8364661436164934e-06 1.2860326487790182e-06 0 -3.2907645837118396e-06 6.6015457616327176e-07 0 -3.5666323706850372e-06 -2.5737496981763927e-07 0 -1.8187571084621411e-06 3.7986723367702581e-07 0 -3.2907645837118396e-06 6.6015457616327176e-07 0 -1.7299597541297729e-06 1.2969202220587531e-06 0 -3.2907645837118396e-06 6.6015457616327176e-07 0 -1.8187571084621411e-06 3.7986723367702581e-07 0 -4.5812236215397102e-06 7.9222037207100498e-07 0 -5.3589507222096174e-06 -2.4265923691167915e-07 0 -3.2907645837118396e-06 6.6015457616327176e-07 0 -5.1519981873407786e-07 1.1179669763744415e-06 0 3.2971297915988203e-07 1.517327022200735e-06 0 -6.9100021855918476e-07 1.7890735365568095e-06 0 -1.7299597541297729e-06 1.2969202220587531e-06 0 -5.1519981873407786e-07 1.1179669763744415e-06 0 -6.9100021855918476e-07 1.7890735365568095e-06 0 -1.7299597541297729e-06 1.2969202220587531e-06 0 -1.8187571084621409e-06 3.7986723367702581e-07 0 -5.1519981873407786e-07 1.1179669763744415e-06 0 -1.4317884615835364e-07 -1.644883521604603e-07 0 8.8911826258411504e-07 9.4874249843362001e-07 0 -5.1519981873407786e-07 1.1179669763744415e-06 0 -1.4317884615835364e-07 -1.644883521604603e-07 0 -5.1519981873407807e-07 1.1179669763744413e-06 0 -1.8187571084621411e-06 3.7986723367702581e-07 0 -1.4317884615835364e-07 -1.644883521604603e-07 0 -1.8187571084621411e-06 3.7986723367702581e-07 0 -2.5438736538950834e-06 -9.7139110618156115e-07 0 -1.4317884615835364e-07 -1.644883521604603e-07 0 -2.5438736538950834e-06 -9.7139110618156115e-07 0 -9.4562726679997477e-07 -2.0261742192266952e-06 0 -1.4317884615835364e-07 -1.644883521604603e-07 0 -9.4562726679997477e-07 -2.0261742192266952e-06 0 1.3946348027003129e-06 -1.4517767745016886e-06 0 -3.5666323706850372e-06 -2.5737496981763927e-07 0 -3.2907645837118396e-06 6.6015457616327176e-07 0 -5.3589507222096174e-06 -2.4265923691167915e-07 0 -3.5666323706850372e-06 -2.5737496981763927e-07 0 -5.3589507222096165e-06 -2.4265923691167904e-07 0 -5.1869377383337773e-06 -1.453701782688457e-06 0 -3.5666323706850372e-06 -2.5737496981763927e-07 0 -2.5438736538950834e-06 -9.7139110618156115e-07 0 -1.8187571084621411e-06 3.7986723367702581e-07 0 -4.0816651378701539e-06 -2.7985486750079935e-06 0 -2.5438736538950834e-06 -9.7139110618156115e-07 0 -5.1869377383337773e-06 -1.453701782688457e-06 0 -3.5666323706850372e-06 -2.5737496981763927e-07 0 -5.1869377383337773e-06 -1.453701782688457e-06 0 -2.5438736538950834e-06 -9.7139110618156115e-07 0 -4.0816651378701539e-06 -2.7985486750079935e-06 0 -5.1869377383337773e-06 -1.453701782688457e-06 0 -7.6359524636648322e-06 -3.3125433333716785e-06 0 -4.0816651378701539e-06 -2.7985486750079935e-06 0 -6.4895170133198473e-06 -5.6368578464384242e-06 0 -2.1191459807112257e-06 -4.1774043812527662e-06 0 -4.0816651378701539e-06 -2.7985486750079935e-06 0 -7.6359524636648322e-06 -3.3125433333716785e-06 0 -6.4895170133198473e-06 -5.6368578464384242e-06 0 9.1391293210623673e-07 -3.4651417409423223e-06 0 1.3946348027003129e-06 -1.4517767745016886e-06 0 -9.4562726679997477e-07 -2.0261742192266952e-06 0 -4.0816651378701539e-06 -2.7985486750079935e-06 0 -9.4562726679997488e-07 -2.0261742192266948e-06 0 -2.5438736538950834e-06 -9.7139110618156115e-07 0 -4.0816651378701539e-06 -2.7985486750079935e-06 0 -2.1191459807112257e-06 -4.1774043812527662e-06 0 -9.4562726679997477e-07 -2.0261742192266952e-06 0 9.1391293210623673e-07 -3.4651417409423223e-06 0 -9.4562726679997477e-07 -2.0261742192266952e-06 0 -2.1191459807112257e-06 -4.1774043812527662e-06 0 9.1391293210623673e-07 -3.4651417409423223e-06 0 -2.1191459807112257e-06 -4.1774043812527662e-06 0 -1.6521260433654417e-07 -6.0942770819090862e-06 0 -3.2964432350608417e-06 -7.3788518686618191e-06 0 -1.6521260433654409e-07 -6.0942770819090853e-06 0 -2.1191459807112257e-06 -4.1774043812527662e-06 0 -3.2964432350608417e-06 -7.3788518686618191e-06 0 -5.2750711027403738e-06 -1.1701010044045792e-05 0 -1.8274285058991189e-06 -1.0153757436278721e-05 0 -3.2964432350608417e-06 -7.3788518686618191e-06 0 -1.8274285058991189e-06 -1.0153757436278721e-05 0 -1.6521260433654417e-07 -6.0942770819090862e-06 0 1.5657652196161005e-06 -8.3479998892142064e-06 0 -1.6521260433654417e-07 -6.0942770819090862e-06 0 -1.8274285058991189e-06 -1.0153757436278721e-05 0 -3.2964432350608417e-06 -7.3788518686618191e-06 0 -6.4895170133198473e-06 -5.6368578464384242e-06 0 -7.1787669626770267e-06 -8.9343551832245062e-06 0 -3.2964432350608417e-06 -7.3788518686618191e-06 0 -2.1191459807112257e-06 -4.1774043812527662e-06 0 -6.4895170133198473e-06 -5.6368578464384242e-06 0 -3.2964432350608417e-06 -7.3788518686618191e-06 0 -7.1787669626770267e-06 -8.9343551832245062e-06 0 -5.2750711027403738e-06 -1.1701010044045792e-05 0 -6.4895170133198473e-06 -5.6368578464384242e-06 0 -1.1208847610206373e-05 -8.9949883321413544e-06 0 -7.1787669626770267e-06 -8.9343551832245062e-06 0 -9.6501384381766115e-06 -1.1639345730459921e-05 0 -7.1787669626770267e-06 -8.9343551832245062e-06 0 -1.1208847610206373e-05 -8.9949883321413544e-06 0 -1.095589806785104e-05 -5.9883274654361558e-06 0 -1.1208847610206373e-05 -8.9949883321413544e-06 0 -6.4895170133198473e-06 -5.6368578464384242e-06 0 -1.095589806785104e-05 -5.9883274654361558e-06 0 -1.5186391609618858e-05 -9.0146362975422509e-06 0 -1.1208847610206373e-05 -8.9949883321413544e-06 0 -1.6065711585145811e-05 -1.3817007157595543e-05 0 -1.1208847610206373e-05 -8.9949883321413544e-06 0 -1.5186391609618858e-05 -9.0146362975422509e-06 0 -2.0865535351355034e-05 -1.2506399468999138e-05 0 -1.6065711585145811e-05 -1.3817007157595543e-05 0 -1.5186391609618858e-05 -9.0146362975422509e-06 0 -1.7736846874376599e-05 -8.2381513186807519e-06 0 -2.0865535351355034e-05 -1.2506399468999138e-05 0 -1.5186391609618858e-05 -9.0146362975422509e-06 0 -1.7736846874376599e-05 -8.2381513186807519e-06 0 -1.5186391609618858e-05 -9.0146362975422509e-06 0 -1.3951724901762268e-05 -6.2979484987994227e-06 0 -1.095589806785104e-05 -5.9883274654361558e-06 0 -1.3951724901762268e-05 -6.2979484987994236e-06 0 -1.5186391609618858e-05 -9.0146362975422509e-06 0 -1.4703657210819596e-05 -4.9680437913248658e-06 0 -1.3951724901762268e-05 -6.2979484987994227e-06 0 -1.109238134342444e-05 -3.8702128088195083e-06 0 -1.095589806785104e-05 -5.9883274654361558e-06 0 -1.109238134342444e-05 -3.8702128088195083e-06 0 -1.3951724901762268e-05 -6.2979484987994227e-06 0 -1.4703657210819596e-05 -4.9680437913248658e-06 0 -1.7736846874376599e-05 -8.2381513186807519e-06 0 -1.3951724901762268e-05 -6.2979484987994227e-06 0 -1.4703657210819596e-05 -4.9680437913248658e-06 0 -1.109238134342444e-05 -3.8702128088195074e-06 0 -1.0848029456612254e-05 -2.5585714206962238e-06 0 -7.9904412115983808e-06 -1.564667606891344e-06 0 -1.109238134342444e-05 -3.8702128088195083e-06 0 -7.6359524636648322e-06 -3.3125433333716785e-06 0 -1.095589806785104e-05 -5.9883274654361558e-06 0 -6.4895170133198465e-06 -5.6368578464384234e-06 0 -7.6359524636648322e-06 -3.3125433333716785e-06 0 -1.095589806785104e-05 -5.9883274654361558e-06 0 -7.6359524636648322e-06 -3.3125433333716785e-06 0 -1.109238134342444e-05 -3.8702128088195083e-06 0 5.767982070443354e-06 -8.4135844947309654e-07 0 5.3218170362061873e-06 -1.5304715159700555e-07 0 4.7716581566361969e-06 -1.5411175211648003e-06 0 4.4387324862596646e-06 -6.1845757942762887e-07 0 4.7716581566361969e-06 -1.5411175211648003e-06 0 5.3218170362061873e-06 -1.5304715159700555e-07 0 4.4387324862596646e-06 -6.1845757942762887e-07 0 3.7359053559649536e-06 -1.6839038983599416e-06 0 4.7716581566361969e-06 -1.5411175211648003e-06 0 5.767982070443354e-06 -8.4135844947309654e-07 0 6.4762284769540855e-06 6.1488335135835009e-07 0 5.3218170362061873e-06 -1.5304715159700555e-07 0 7.6484846630113372e-06 1.60581781140374e-06 0 6.4762284769540855e-06 6.148833513583502e-07 0 7.3411794413351951e-06 4.9179777366955219e-07 0 5.767982070443354e-06 -8.4135844947309654e-07 0 7.3411794413351951e-06 4.9179777366955219e-07 0 6.4762284769540855e-06 6.148833513583502e-07 0 5.767982070443354e-06 -8.4135844947309654e-07 0 6.4834086932466938e-06 -9.7848473161857272e-07 0 7.3411794413351951e-06 4.9179777366955219e-07 0 5.767982070443354e-06 -8.4135844947309654e-07 0 5.6431128123935803e-06 -2.4274267829792309e-06 0 6.4834086932466938e-06 -9.7848473161857251e-07 0 7.1986116669722835e-06 -1.3038175134761075e-06 0 7.3411794413351951e-06 4.9179777366955219e-07 0 6.4834086932466938e-06 -9.7848473161857251e-07 0 7.1986116669722835e-06 -1.3038175134761075e-06 0 6.4834086932466938e-06 -9.784847316185723e-07 0 5.6431128123935803e-06 -2.4274267829792309e-06 0 4.2480078430609309e-06 -4.511968311398618e-06 0 5.6431128123935803e-06 -2.4274267829792309e-06 0 4.6736312305758812e-06 -2.8250625541871779e-06 0 5.767982070443354e-06 -8.4135844947309654e-07 0 4.6736312305758812e-06 -2.8250625541871775e-06 0 5.6431128123935803e-06 -2.4274267829792309e-06 0 5.767982070443354e-06 -8.4135844947309654e-07 0 4.7716581566361969e-06 -1.5411175211648003e-06 0 4.6736312305758812e-06 -2.8250625541871779e-06 0 4.0751322529392577e-06 -2.9892737789596454e-06 0 4.6736312305758812e-06 -2.8250625541871775e-06 0 4.7716581566361969e-06 -1.5411175211648003e-06 0 4.2480078430609309e-06 -4.511968311398618e-06 0 4.6736312305758812e-06 -2.8250625541871779e-06 0 3.6285701173725401e-06 -4.7383631943284501e-06 0 4.2652590357101704e-06 -7.11165694731601e-06 0 3.6285701173725401e-06 -4.7383631943284501e-06 0 3.8091889539517982e-06 -4.7126906514540451e-06 0 4.0751322529392577e-06 -2.9892737789596454e-06 0 3.8091889539517982e-06 -4.7126906514540451e-06 0 3.6285701173725401e-06 -4.7383631943284501e-06 0 4.0751322529392577e-06 -2.9892737789596454e-06 0 3.1064462891153359e-06 -2.8405188313857396e-06 0 3.8091889539517982e-06 -4.7126906514540451e-06 0 4.0751322529392577e-06 -2.9892737789596454e-06 0 3.6285701173725401e-06 -4.7383631943284501e-06 0 4.6736312305758812e-06 -2.8250625541871779e-06 0 4.2652590357101704e-06 -7.11165694731601e-06 0 2.6789010561646656e-06 -5.1883990075799512e-06 0 1.5657652196161005e-06 -8.3479998892142064e-06 0 1.5657652196161005e-06 -8.3479998892142064e-06 0 2.6789010561646656e-06 -5.1883990075799512e-06 0 -1.6521260433654417e-07 -6.0942770819090862e-06 0 4.2652590357101704e-06 -7.11165694731601e-06 0 3.8091889539517982e-06 -4.7126906514540451e-06 0 2.6789010561646656e-06 -5.1883990075799512e-06 0 3.1064462891153359e-06 -2.8405188313857396e-06 0 2.6789010561646656e-06 -5.1883990075799512e-06 0 3.8091889539517982e-06 -4.7126906514540451e-06 0 9.1391293210623673e-07 -3.4651417409423223e-06 0 -1.6521260433654417e-07 -6.0942770819090862e-06 0 2.6789010561646656e-06 -5.1883990075799512e-06 0 9.1391293210623673e-07 -3.4651417409423223e-06 0 2.6789010561646652e-06 -5.1883990075799512e-06 0 3.1064462891153359e-06 -2.8405188313857396e-06 0 9.1391293210623673e-07 -3.4651417409423223e-06 0 3.1064462891153359e-06 -2.8405188313857396e-06 0 1.3946348027003129e-06 -1.4517767745016886e-06 0 2.8101106928209238e-06 -8.2817570776012317e-07 0 1.3946348027003129e-06 -1.4517767745016886e-06 0 3.1064462891153359e-06 -2.8405188313857396e-06 0 4.0751322529392577e-06 -2.9892737789596454e-06 0 4.7716581566361969e-06 -1.5411175211648003e-06 0 3.7359053559649536e-06 -1.6839038983599416e-06 0 4.0751322529392577e-06 -2.9892737789596454e-06 0 3.7359053559649536e-06 -1.6839038983599416e-06 0 3.1064462891153359e-06 -2.8405188313857396e-06 0 2.8101106928209238e-06 -8.2817570776012317e-07 0 3.1064462891153359e-06 -2.8405188313857396e-06 0 3.7359053559649536e-06 -1.6839038983599416e-06 0 3.7359053559649536e-06 -1.6839038983599416e-06 0 3.6798127565954815e-06 3.9304723979775408e-07 0 2.8101106928209238e-06 -8.2817570776012317e-07 0 4.4387324862596646e-06 -6.1845757942762887e-07 0 3.6798127565954815e-06 3.9304723979775408e-07 0 3.7359053559649536e-06 -1.6839038983599416e-06 0 2.8101106928209238e-06 -8.2817570776012317e-07 0 3.6798127565954815e-06 3.930472397977543e-07 0 2.7144409627079988e-06 2.8016849373435315e-07 0 3.6798127565954815e-06 3.9304723979775408e-07 0 2.9909400742235476e-06 9.2920440991130299e-07 0 2.7144409627079988e-06 2.8016849373435315e-07 0 -1.4317884615835364e-07 -1.644883521604603e-07 0 1.3946348027003129e-06 -1.4517767745016886e-06 0 1.6971081433619863e-06 1.2271382183720889e-08 0 2.8101106928209238e-06 -8.2817570776012317e-07 0 1.6971081433619865e-06 1.2271382183720926e-08 0 1.3946348027003129e-06 -1.4517767745016886e-06 0 2.8101106928209238e-06 -8.2817570776012317e-07 0 2.7144409627079984e-06 2.801684937343532e-07 0 1.6971081433619863e-06 1.2271382183720889e-08 0 2.0930452191356857e-06 9.3164209569130491e-07 0 1.6971081433619863e-06 1.2271382183720889e-08 0 2.7144409627079988e-06 2.8016849373435315e-07 0 -1.4317884615835364e-07 -1.644883521604603e-07 0 1.6971081433619863e-06 1.2271382183721015e-08 0 8.8911826258411504e-07 9.4874249843362001e-07 0 2.0930452191356857e-06 9.3164209569130491e-07 0 8.8911826258411504e-07 9.487424984336199e-07 0 1.6971081433619863e-06 1.2271382183720889e-08 0 2.0930452191356857e-06 9.3164209569130491e-07 0 1.3889316067049938e-06 1.6071911729987319e-06 0 8.8911826258411504e-07 9.4874249843362001e-07 0 3.2971297915988203e-07 1.517327022200735e-06 0 8.8911826258411504e-07 9.4874249843362001e-07 0 1.3889316067049938e-06 1.6071911729987319e-06 0 3.2971297915988203e-07 1.517327022200735e-06 0 -5.1519981873407786e-07 1.1179669763744415e-06 0 8.8911826258411504e-07 9.4874249843362001e-07 0 3.575417862588703e-06 1.2775411311657934e-06 0 2.9909400742235476e-06 9.2920440991130299e-07 0 3.6798127565954815e-06 3.9304723979775408e-07 0 2.0930452191356857e-06 9.3164209569130491e-07 0 2.7144409627079988e-06 2.8016849373435315e-07 0 2.9909400742235476e-06 9.2920440991130299e-07 0 2.0930452191356857e-06 9.3164209569130491e-07 0 2.9909400742235476e-06 9.2920440991130299e-07 0 2.5205130068799866e-06 1.4149274108287407e-06 0 2.0930452191356857e-06 9.3164209569130491e-07 0 2.5205130068799866e-06 1.4149274108287407e-06 0 1.3889316067049938e-06 1.6071911729987319e-06 0 3.575417862588703e-06 1.2775411311657934e-06 0 2.5205130068799866e-06 1.4149274108287407e-06 0 2.9909400742235476e-06 9.2920440991130299e-07 0 3.575417862588703e-06 1.2775411311657934e-06 0 2.5890245261762285e-06 1.6570124347378896e-06 0 2.5205130068799866e-06 1.4149274108287407e-06 0 3.575417862588703e-06 1.2775411311657934e-06 0 4.7060079346428342e-06 1.2885564881975088e-06 0 3.5981595638020619e-06 1.5034614852190506e-06 0 4.7060079346428342e-06 1.2885564881975088e-06 0 4.7382004353650659e-06 1.4271183378025214e-06 0 3.5981595638020619e-06 1.5034614852190506e-06 0 3.575417862588703e-06 1.2775411311657934e-06 0 4.4437382600111916e-06 8.6791435979467782e-07 0 4.7060079346428342e-06 1.2885564881975088e-06 0 3.575417862588703e-06 1.2775411311657934e-06 0 3.6798127565954815e-06 3.9304723979775408e-07 0 4.4437382600111916e-06 8.6791435979467782e-07 0 3.6798127565954815e-06 3.9304723979775408e-07 0 4.714107072374639e-06 2.8974706588339422e-07 0 4.4437382600111916e-06 8.6791435979467782e-07 0 5.5400577677650278e-06 8.9417175045470631e-07 0 4.4437382600111916e-06 8.6791435979467782e-07 0 4.714107072374639e-06 2.8974706588339422e-07 0 5.5400577677650278e-06 8.9417175045470631e-07 0 4.7060079346428342e-06 1.2885564881975088e-06 0 4.4437382600111916e-06 8.6791435979467782e-07 0 5.5400577677650278e-06 8.9417175045470631e-07 0 4.714107072374639e-06 2.8974706588339422e-07 0 5.3218170362061873e-06 -1.5304715159700555e-07 0 4.4387324862596646e-06 -6.1845757942762887e-07 0 5.3218170362061873e-06 -1.5304715159700566e-07 0 4.714107072374639e-06 2.8974706588339422e-07 0 4.4387324862596646e-06 -6.1845757942762887e-07 0 4.714107072374639e-06 2.8974706588339417e-07 0 3.6798127565954815e-06 3.9304723979775408e-07 0 7.6484846630113372e-06 1.60581781140374e-06 0 6.5774211480128681e-06 1.3195027236487866e-06 0 6.4762284769540855e-06 6.148833513583502e-07 0 5.5400577677650278e-06 8.9417175045470631e-07 0 6.4762284769540855e-06 6.148833513583502e-07 0 6.5774211480128681e-06 1.3195027236487866e-06 0 5.5400577677650278e-06 8.9417175045470631e-07 0 5.3218170362061873e-06 -1.5304715159700555e-07 0 6.4762284769540855e-06 6.148833513583502e-07 0 5.5400577677650278e-06 8.9417175045470631e-07 0 5.8339154314401581e-06 1.3957901458702465e-06 0 4.7060079346428342e-06 1.2885564881975088e-06 0 6.5774211480128681e-06 1.3195027236487866e-06 0 7.2496427525958192e-06 1.7843499202535867e-06 0 5.8339154314401581e-06 1.3957901458702465e-06 0 5.5400577677650278e-06 8.9417175045470631e-07 0 6.5774211480128681e-06 1.3195027236487866e-06 0 5.8339154314401581e-06 1.3957901458702465e-06 0 5.9637771876322837e-06 1.4659952665077814e-06 0 4.7382004353650659e-06 1.4271183378025214e-06 0 5.8339154314401581e-06 1.3957901458702465e-06 0 4.7060079346428342e-06 1.2885564881975088e-06 0 5.8339154314401581e-06 1.3957901458702465e-06 0 4.7382004353650659e-06 1.4271183378025214e-06 0 5.9637771876322837e-06 1.4659952665077814e-06 0 4.8669110217485078e-06 1.3158791241034736e-06 0 4.7382004353650659e-06 1.4271183378025214e-06 0 3.8845809464090358e-06 1.4335792817784682e-06 0 4.8669110217485078e-06 1.3158791241034736e-06 0 3.7431671388094789e-06 1.2154378630091628e-06 0 3.8845809464090358e-06 1.4335792817784682e-06 0 3.7431671388094789e-06 1.2154378630091628e-06 0 3.0334048571859146e-06 1.4938805350038551e-06 0 3.8845809464090358e-06 1.4335792817784682e-06 0 3.5981595638020619e-06 1.5034614852190506e-06 0 4.7382004353650659e-06 1.4271183378025214e-06 0 3.8845809464090358e-06 1.4335792817784682e-06 0 4.7382004353650659e-06 1.4271183378025214e-06 0 4.8669110217485078e-06 1.3158791241034736e-06 0 3.575417862588703e-06 1.2775411311657934e-06 0 3.5981595638020619e-06 1.5034614852190506e-06 0 2.5890245261762289e-06 1.6570124347378896e-06 0 2.1056477632288394e-06 1.6122008611583251e-06 0 2.5890245261762289e-06 1.6570124347378896e-06 0 3.0334048571859146e-06 1.4938805350038551e-06 0 2.5890245261762289e-06 1.6570124347378896e-06 0 3.5981595638020619e-06 1.5034614852190506e-06 0 3.0334048571859146e-06 1.4938805350038551e-06 0 3.8845809464090358e-06 1.4335792817784682e-06 0 3.0334048571859146e-06 1.4938805350038551e-06 0 3.5981595638020619e-06 1.5034614852190506e-06 0 2.7940046647985905e-06 1.195108000564305e-06 0 2.0926279988249464e-06 1.3202651743459564e-06 0 3.0334048571859146e-06 1.4938805350038551e-06 0 2.1056477632288394e-06 1.6122008611583251e-06 0 3.0334048571859146e-06 1.4938805350038551e-06 0 2.0926279988249464e-06 1.3202651743459564e-06 0 2.1056477632288394e-06 1.6122008611583251e-06 0 2.0926279988249464e-06 1.3202651743459564e-06 0 1.3807298809465529e-06 1.355620136210043e-06 0 2.7940046647985905e-06 1.195108000564305e-06 0 1.9274526861795395e-06 9.391703837466449e-07 0 2.0926279988249464e-06 1.3202651743459564e-06 0 2.3473392780838464e-06 6.6648840285450479e-07 0 1.9274526861795395e-06 9.391703837466449e-07 0 2.7940046647985905e-06 1.195108000564305e-06 0 2.3473392780838464e-06 6.6648840285450479e-07 0 2.7940046647985905e-06 1.195108000564305e-06 0 3.3501467395649076e-06 8.7912244253705676e-07 0 2.7940046647985905e-06 1.195108000564305e-06 0 3.7431671388094789e-06 1.2154378630091628e-06 0 3.3501467395649076e-06 8.7912244253705676e-07 0 2.7940046647985905e-06 1.195108000564305e-06 0 3.0334048571859146e-06 1.4938805350038551e-06 0 3.7431671388094789e-06 1.2154378630091628e-06 0 3.2971297915988203e-07 1.517327022200735e-06 0 1.3889316067049938e-06 1.6071911729987319e-06 0 4.6878998812869571e-07 1.8655331675297703e-06 0 1.3374817595046111e-06 1.8480508588875874e-06 0 4.6878998812869571e-07 1.8655331675297703e-06 0 1.3889316067049938e-06 1.6071911729987319e-06 0 1.3374817595046111e-06 1.8480508588875874e-06 0 5.5976148515248252e-07 1.9249547276199692e-06 0 4.6878998812869571e-07 1.8655331675297703e-06 0 1.3374817595046111e-06 1.8480508588875874e-06 0 1.9844111479072992e-06 1.6852998334763128e-06 0 1.8600994864805917e-06 1.7532661742547315e-06 0 1.3374817595046111e-06 1.8480508588875874e-06 0 1.3889316067049938e-06 1.6071911729987319e-06 0 1.9844111479072992e-06 1.6852998334763128e-06 0 1.3889316067049938e-06 1.6071911729987319e-06 0 2.5205130068799866e-06 1.4149274108287407e-06 0 1.9844111479072992e-06 1.6852998334763128e-06 0 2.5890245261762289e-06 1.6570124347378896e-06 0 1.9844111479072992e-06 1.6852998334763128e-06 0 2.5205130068799866e-06 1.4149274108287407e-06 0 2.5890245261762289e-06 1.6570124347378896e-06 0 1.8600994864805917e-06 1.7532661742547315e-06 0 1.9844111479072992e-06 1.6852998334763128e-06 0 2.1056477632288394e-06 1.6122008611583251e-06 0 1.8600994864805919e-06 1.7532661742547315e-06 0 2.5890245261762289e-06 1.6570124347378896e-06 0 2.1056477632288394e-06 1.6122008611583251e-06 0 1.173713464208401e-06 1.7492783452482139e-06 0 1.8600994864805917e-06 1.7532661742547315e-06 0 2.1056477632288394e-06 1.6122008611583251e-06 0 1.3807298809465529e-06 1.355620136210043e-06 0 1.173713464208401e-06 1.7492783452482139e-06 0 1.3374817595046111e-06 1.8480508588875874e-06 0 1.8600994864805917e-06 1.7532661742547315e-06 0 1.173713464208401e-06 1.7492783452482139e-06 0 1.3374817595046111e-06 1.8480508588875874e-06 0 1.173713464208401e-06 1.7492783452482139e-06 0 5.5976148515248252e-07 1.9249547276199692e-06 0 2.6084103626480838e-07 1.7719136863850855e-06 0 5.5976148515248252e-07 1.9249547276199692e-06 0 1.173713464208401e-06 1.7492783452482139e-06 0 2.6084103626480838e-07 1.7719136863850855e-06 0 -1.1868730904308325e-07 1.8829766248164069e-06 0 5.5976148515248252e-07 1.9249547276199692e-06 0 -2.9870804750814202e-07 1.9613260483464431e-06 0 4.6878998812869571e-07 1.8655331675297703e-06 0 5.5976148515248252e-07 1.9249547276199692e-06 0 -2.9870804750814202e-07 1.9613260483464431e-06 0 5.5976148515248252e-07 1.9249547276199692e-06 0 -1.1868730904308325e-07 1.8829766248164069e-06 0 1.0404766316615985e-07 9.6476243031407912e-07 0 -6.0281577430437366e-08 1.5683372778987279e-06 0 4.9176376432775659e-07 1.481165028829758e-06 0 2.6084103626480838e-07 1.7719136863850855e-06 0 -6.0281577430437366e-08 1.5683372778987279e-06 0 -1.1868730904308325e-07 1.8829766248164069e-06 0 2.6084103626480838e-07 1.7719136863850855e-06 0 4.9176376432775659e-07 1.481165028829758e-06 0 -6.0281577430437366e-08 1.5683372778987279e-06 0 2.6084103626480838e-07 1.7719136863850855e-06 0 1.173713464208401e-06 1.7492783452482139e-06 0 4.9176376432775659e-07 1.481165028829758e-06 0 1.0404766316615985e-07 9.6476243031407912e-07 0 4.9176376432775659e-07 1.481165028829758e-06 0 3.0924646014992787e-07 8.3530997154572684e-07 0 7.882635793415122e-07 1.2916452337793672e-06 0 3.0924646014992787e-07 8.3530997154572684e-07 0 4.9176376432775659e-07 1.481165028829758e-06 0 7.882635793415122e-07 1.2916452337793672e-06 0 4.9176376432775659e-07 1.4811650288297578e-06 0 1.173713464208401e-06 1.7492783452482139e-06 0 7.882635793415122e-07 1.2916452337793672e-06 0 1.173713464208401e-06 1.7492783452482139e-06 0 1.3807298809465529e-06 1.355620136210043e-06 0 7.882635793415122e-07 1.2916452337793672e-06 0 1.3807298809465529e-06 1.355620136210043e-06 0 5.4672313638188243e-07 7.8393599711438751e-07 0 7.882635793415122e-07 1.2916452337793672e-06 0 5.4672313638188243e-07 7.8393599711438741e-07 0 3.0924646014992787e-07 8.3530997154572684e-07 0 3.5933197777091888e-10 3.7673198425230757e-10 0 3.0924646014992787e-07 8.3530997154572684e-07 0 5.4672313638188243e-07 7.8393599711438751e-07 0 3.5933197777091888e-10 3.7673198425230757e-10 0 2.0574563220887489e-10 3.746656138136886e-10 0 3.0924646014992787e-07 8.3530997154572684e-07 0 2.0574563220887489e-10 3.746656138136886e-10 0 1.0404766316615985e-07 9.6476243031407912e-07 0 3.0924646014992787e-07 8.3530997154572684e-07 0 2.0574563220887489e-10 3.746656138136886e-10 0 -2.8151848176441727e-11 4.2413983841690592e-10 0 1.0404766316615985e-07 9.6476243031407912e-07 0 -2.8151848176441727e-11 4.2413983841690592e-10 0 -1.1492557182213219e-07 8.8241628764627747e-07 0 1.0404766316615985e-07 9.6476243031407912e-07 0 1.1527398823142747e-06 8.6682268178872586e-07 0 1.9274526861795395e-06 9.391703837466448e-07 0 1.1903415409222937e-06 4.9860514728996141e-07 0 2.3473392780838464e-06 6.6648840285450479e-07 0 1.1903415409222937e-06 4.9860514728996141e-07 0 1.9274526861795395e-06 9.391703837466449e-07 0 1.9274526861795395e-06 9.391703837466449e-07 0 1.1527398823142747e-06 8.6682268178872586e-07 0 2.0926279988249464e-06 1.3202651743459564e-06 0 1.1527398823142747e-06 8.6682268178872586e-07 0 1.3807298809465529e-06 1.355620136210043e-06 0 2.0926279988249464e-06 1.3202651743459564e-06 0 1.1527398823142747e-06 8.6682268178872586e-07 0 5.4672313638188243e-07 7.8393599711438751e-07 0 1.3807298809465529e-06 1.355620136210043e-06 0 1.1527398823142747e-06 8.6682268178872586e-07 0 4.7276353458049393e-07 4.7735977093794271e-07 0 5.4672313638188243e-07 7.8393599711438751e-07 0 5.8192617507966069e-10 2.5065389902939347e-10 0 3.5933197777091888e-10 3.7673198425230757e-10 0 5.4672313638188243e-07 7.8393599711438751e-07 0 5.8192617507966069e-10 2.5065389902939347e-10 0 5.4672313638188243e-07 7.8393599711438751e-07 0 4.7276353458049398e-07 4.7735977093794282e-07 0 6.8952673089831547e-10 2.1051433931303832e-10 0 5.8192617507966069e-10 2.5065389902939347e-10 0 4.7276353458049398e-07 4.7735977093794282e-07 0 6.8952673089831547e-10 2.1051433931303832e-10 0 4.7276353458049403e-07 4.7735977093794292e-07 0 5.0028313550687523e-07 3.5448499641808313e-07 0 7.4179545488238183e-10 1.718213384700827e-10 0 5.0028313550687523e-07 3.5448499641808313e-07 0 1.1903415409222937e-06 4.9860514728996141e-07 0 1.1527398823142747e-06 8.6682268178872586e-07 0 1.1903415409222937e-06 4.9860514728996141e-07 0 5.0028313550687523e-07 3.5448499641808313e-07 0 1.1527398823142747e-06 8.6682268178872586e-07 0 5.0028313550687523e-07 3.5448499641808313e-07 0 4.7276353458049398e-07 4.7735977093794282e-07 0 7.4179545488238183e-10 1.718213384700827e-10 0 6.8952673089831547e-10 2.1051433931303832e-10 0 5.0028313550687523e-07 3.5448499641808313e-07 0 7.4179545488238183e-10 1.718213384700827e-10 0 1.1903415409222937e-06 4.9860514728996141e-07 0 7.7185245374293659e-07 1.3929270458492658e-07 0 8.0482101968454031e-10 -5.7170707918919048e-11 0 7.4179545488242391e-10 1.718213384700903e-10 0 7.7185245374293659e-07 1.3929270458492658e-07 0 8.0482101968454031e-10 -5.7170707918919048e-11 0 7.7185245374293659e-07 1.3929270458492658e-07 0 5.8877675703485196e-07 -6.7267046365461084e-08 0 1.4726918363914183e-06 -3.4800606998283778e-08 0 5.8877675703485196e-07 -6.7267046365461084e-08 0 7.7185245374293659e-07 1.3929270458492658e-07 0 1.1903415409222937e-06 4.9860514728996141e-07 0 1.6125822558327754e-06 2.6883188644747593e-07 0 7.7185245374293659e-07 1.3929270458492658e-07 0 2.3473392780838464e-06 6.6648840285450479e-07 0 1.6125822558327752e-06 2.6883188644747593e-07 0 1.1903415409222937e-06 4.9860514728996141e-07 0 1.4726918363914183e-06 -3.4800606998283778e-08 0 7.7185245374293659e-07 1.3929270458492658e-07 0 1.6125822558327752e-06 2.6883188644747593e-07 0 1.4726918363914183e-06 -3.4800606998283778e-08 0 1.6125822558327752e-06 2.6883188644747593e-07 0 2.3496717396950051e-06 6.9084811344365085e-08 0 1.6125822558327752e-06 2.6883188644747593e-07 0 2.3473392780838464e-06 6.6648840285450479e-07 0 2.3496717396950051e-06 6.9084811344365085e-08 0 1.4726918363914183e-06 -3.4800606998283778e-08 0 2.3496717396950051e-06 6.9084811344365085e-08 0 1.9916990237194642e-06 -3.9184153564960731e-07 0 1.4562815925700967e-06 -7.5536865535173394e-07 0 8.447954744040931e-07 -3.3651844512531209e-07 0 1.9916990237194642e-06 -3.9184153564960731e-07 0 1.4726918363914183e-06 -3.4800606998283778e-08 0 1.9916990237194642e-06 -3.9184153564960731e-07 0 8.447954744040931e-07 -3.3651844512531209e-07 0 1.4726918363914183e-06 -3.4800606998283778e-08 0 8.447954744040931e-07 -3.3651844512531209e-07 0 5.8877675703485196e-07 -6.7267046365461084e-08 0 8.2111130331159356e-10 6.140004261190051e-12 0 8.0482101968443247e-10 -5.7170707918906725e-11 0 5.8877675703485196e-07 -6.7267046365461084e-08 0 6.3125448624564672e-10 -2.7985123734376844e-10 0 8.2111130331159356e-10 6.140004261190051e-12 0 8.447954744040931e-07 -3.3651844512531209e-07 0 8.2111130331159356e-10 6.140004261190051e-12 0 5.8877675703485196e-07 -6.7267046365461111e-08 0 8.447954744040931e-07 -3.3651844512531209e-07 0 4.6036656674003453e-10 -3.5190593575285561e-10 0 6.3125448624564672e-10 -2.7985123734376844e-10 0 6.5080124565817048e-07 -6.3845531733665994e-07 0 1.4562815925700967e-06 -7.5536865535173394e-07 0 6.5080124565817059e-07 -6.3845531733665994e-07 0 8.447954744040931e-07 -3.3651844512531209e-07 0 6.3125448624564672e-10 -2.7985123734376844e-10 0 8.447954744040931e-07 -3.3651844512531209e-07 0 6.5080124565817048e-07 -6.3845531733665994e-07 0 1.9197946343874608e-10 -5.171095032211892e-10 0 4.6036656674003453e-10 -3.5190593575285561e-10 0 4.1445574904754396e-07 -9.9843783930389423e-07 0 4.6036656674003453e-10 -3.5190593575285561e-10 0 6.5080124565817048e-07 -6.3845531733665994e-07 0 4.1445574904754396e-07 -9.9843783930389423e-07 0 1.9197946343874608e-10 -5.171095032211892e-10 0 4.1445574904754396e-07 -9.9843783930389423e-07 0 8.5245625235237379e-08 -1.0765327994832745e-06 0 4.1445574904754396e-07 -9.9843783930389423e-07 0 1.40636597091185e-06 -1.3107495161222682e-06 0 5.2032299454971295e-07 -1.7226758834055896e-06 0 1.2554044274307314e-06 -1.730437393500837e-06 0 5.2032299454971295e-07 -1.7226758834055896e-06 0 1.40636597091185e-06 -1.3107495161222682e-06 0 4.1445574904754396e-07 -9.9843783930389423e-07 0 6.5080124565817048e-07 -6.3845531733665994e-07 0 1.40636597091185e-06 -1.3107495161222682e-06 0 1.2554044274307314e-06 -1.730437393500837e-06 0 1.0221271105496253e-06 -2.0268379529619862e-06 0 5.2032299454971295e-07 -1.7226758834055896e-06 0 1.4562815925700967e-06 -7.5536865535173394e-07 0 1.40636597091185e-06 -1.3107495161222682e-06 0 6.5080124565817048e-07 -6.3845531733665994e-07 0 1.4562815925700967e-06 -7.5536865535173394e-07 0 2.3020903729296481e-06 -7.5695167040634175e-07 0 1.40636597091185e-06 -1.3107495161222682e-06 0 1.4562815925700967e-06 -7.5536865535173394e-07 0 1.9916990237194646e-06 -3.9184153564960731e-07 0 2.3020903729296481e-06 -7.5695167040634175e-07 0 3.0959441810500926e-06 -1.0046751653871873e-06 0 1.40636597091185e-06 -1.3107495161222682e-06 0 2.3020903729296481e-06 -7.5695167040634175e-07 0 3.3677834647583858e-06 -2.3278591448333596e-07 0 3.0959441810500926e-06 -1.0046751653871873e-06 0 2.3020903729296481e-06 -7.5695167040634175e-07 0 3.3677834647583858e-06 -2.3278591448333596e-07 0 4.434612927264192e-06 -1.5278369663851031e-07 0 3.0959441810500926e-06 -1.0046751653871873e-06 0 3.0959441810500926e-06 -1.0046751653871873e-06 0 2.1292473905092053e-06 -1.5819245592620988e-06 0 1.40636597091185e-06 -1.3107495161222682e-06 0 1.2554044274307314e-06 -1.730437393500837e-06 0 2.1292473905092053e-06 -1.5819245592620988e-06 0 1.0221271105496253e-06 -2.0268379529619862e-06 0 1.2554044274307314e-06 -1.730437393500837e-06 0 1.40636597091185e-06 -1.3107495161222682e-06 0 2.1292473905092053e-06 -1.5819245592620988e-06 0 3.0959441810500926e-06 -1.0046751653871873e-06 0 2.9420722459481384e-06 -1.4406001766125569e-06 0 2.1292473905092053e-06 -1.5819245592620988e-06 0 1.448110862363818e-06 -2.1277855119582978e-06 0 1.0221271105496253e-06 -2.0268379529619862e-06 0 2.1292473905092053e-06 -1.5819245592620988e-06 0 1.448110862363818e-06 -2.1277855119582978e-06 0 2.1292473905092053e-06 -1.5819245592620988e-06 0 2.9420722459481384e-06 -1.4406001766125569e-06 0 1.448110862363818e-06 -2.1277855119582978e-06 0 2.9420722459481384e-06 -1.4406001766125569e-06 0 3.3477299623233059e-06 -1.4024750080633008e-06 0 4.588920911517679e-06 -6.3946715462493672e-07 0 3.3477299623233059e-06 -1.4024750080633008e-06 0 2.9420722459481384e-06 -1.4406001766125569e-06 0 4.588920911517679e-06 -6.3946715462493672e-07 0 5.1123955174948063e-06 -4.5012355784758447e-07 0 3.3477299623233059e-06 -1.4024750080633008e-06 0 3.3861088394832633e-06 -1.1333381809258255e-06 0 1.2507239444750387e-06 -2.0347953556264734e-06 0 3.3477299623233059e-06 -1.4024750080633008e-06 0 3.3861088394832633e-06 -1.1333381809258255e-06 0 3.3477299623233059e-06 -1.4024750080633008e-06 0 5.1123955174948063e-06 -4.5012355784758457e-07 0 4.588920911517679e-06 -6.3946715462493672e-07 0 3.0959441810500926e-06 -1.0046751653871873e-06 0 4.434612927264192e-06 -1.5278369663851031e-07 0 4.588920911517679e-06 -6.3946715462493672e-07 0 2.9420722459481384e-06 -1.4406001766125569e-06 0 3.0959441810500926e-06 -1.0046751653871873e-06 0 4.588920911517679e-06 -6.3946715462493672e-07 0 4.434612927264192e-06 -1.5278369663851031e-07 0 5.7915589793350593e-06 3.0446570763919633e-07 0 4.588920911517679e-06 -6.3946715462493672e-07 0 5.7915589793350593e-06 3.0446570763919633e-07 0 6.6874246192203821e-06 5.4457340779286512e-07 0 5.2843982724239411e-06 5.9030261278834038e-07 0 5.7915589793350593e-06 3.0446570763919633e-07 0 4.434612927264192e-06 -1.5278369663851031e-07 0 6.4970671145660136e-06 9.4327027284242825e-07 0 5.7915589793350593e-06 3.0446570763919633e-07 0 5.2843982724239411e-06 5.9030261278834038e-07 0 5.2843982724239411e-06 5.9030261278834038e-07 0 4.434612927264192e-06 -1.5278369663851031e-07 0 4.1065035780490132e-06 2.8288180012283753e-07 0 4.3607925757893776e-06 8.5829981333139091e-07 0 5.2843982724239411e-06 5.9030261278834017e-07 0 4.1065035780490132e-06 2.8288180012283753e-07 0 6.4970671145660136e-06 9.4327027284242825e-07 0 5.2843982724239411e-06 5.9030261278834038e-07 0 5.7633118559283234e-06 1.1442184317658709e-06 0 4.3607925757893776e-06 8.5829981333139091e-07 0 5.7633118559283242e-06 1.1442184317658709e-06 0 5.2843982724239411e-06 5.9030261278834038e-07 0 4.3607925757893776e-06 8.5829981333139091e-07 0 4.8669110217485078e-06 1.3158791241034736e-06 0 5.7633118559283234e-06 1.1442184317658709e-06 0 4.3607925757893776e-06 8.5829981333139091e-07 0 3.3501467395649076e-06 8.7912244253705676e-07 0 3.7431671388094789e-06 1.2154378630091628e-06 0 4.3607925757893776e-06 8.5829981333139091e-07 0 3.7431671388094789e-06 1.2154378630091628e-06 0 4.8669110217485078e-06 1.3158791241034736e-06 0 4.3607925757893776e-06 8.5829981333139091e-07 0 4.1065035780490132e-06 2.8288180012283753e-07 0 3.1520626771888344e-06 3.7319905298857595e-07 0 4.3607925757893776e-06 8.5829981333139091e-07 0 3.1520626771888344e-06 3.7319905298857595e-07 0 3.3501467395649076e-06 8.7912244253705676e-07 0 2.3473392780838464e-06 6.6648840285450479e-07 0 3.3501467395649076e-06 8.7912244253705676e-07 0 3.1520626771888344e-06 3.7319905298857595e-07 0 2.3496717396950051e-06 6.9084811344365085e-08 0 2.3473392780838464e-06 6.6648840285450479e-07 0 3.1520626771888344e-06 3.7319905298857595e-07 0 3.3677834647583858e-06 -2.3278591448333596e-07 0 2.3496717396950051e-06 6.9084811344365085e-08 0 3.1520626771888344e-06 3.7319905298857595e-07 0 3.3677834647583858e-06 -2.3278591448333596e-07 0 1.9916990237194642e-06 -3.9184153564960731e-07 0 2.3496717396950051e-06 6.9084811344365085e-08 0 3.3677834647583858e-06 -2.3278591448333596e-07 0 2.3020903729296481e-06 -7.5695167040634175e-07 0 1.9916990237194642e-06 -3.9184153564960731e-07 0 4.1065035780490132e-06 2.8288180012283753e-07 0 4.434612927264192e-06 -1.5278369663851031e-07 0 3.3677834647583858e-06 -2.3278591448333596e-07 0 3.3677834647583858e-06 -2.3278591448333596e-07 0 3.1520626771888344e-06 3.73199052988576e-07 0 4.1065035780490132e-06 2.8288180012283753e-07 0 -4.8166358223415257e-06 -1.2491750417224821e-06 0 -2.7169090460866305e-06 -8.9331347906327237e-07 0 -2.7302718691577038e-06 -1.4637067214925096e-06 0 -1.690372179173752e-06 -1.6126549862536841e-06 0 -2.7302718691577038e-06 -1.4637067214925096e-06 0 -1.2483741148279513e-06 -8.3302626231923378e-07 0 -1.1200656987010974e-06 -2.9820597695102624e-07 0 -1.2483741148279513e-06 -8.3302626231923378e-07 0 -2.7169090460866305e-06 -8.9331347906327237e-07 0 -2.7169090460866305e-06 -8.9331347906327237e-07 0 -1.2483741148279513e-06 -8.3302626231923378e-07 0 -2.7302718691577038e-06 -1.4637067214925096e-06 0 -1.1200656987010974e-06 -2.9820597695102624e-07 0 -5.2772675806845002e-07 -2.7125651780980333e-07 0 -1.2483741148279513e-06 -8.3302626231923378e-07 0 -8.0376664890876273e-10 3.2822843140961978e-10 0 -5.2772675806845002e-07 -2.7125651780980333e-07 0 -1.1200656987010974e-06 -2.9820597695102624e-07 0 -8.0376664890876273e-10 3.2822843140961978e-10 0 -1.0196175451479133e-09 -4.0082265651194911e-10 0 -5.2772675806845002e-07 -2.7125651780980333e-07 0 -1.0196175451479133e-09 -4.0082265651194911e-10 0 -1.2483741148279513e-06 -8.3302626231923378e-07 0 -5.2772675806845002e-07 -2.7125651780980333e-07 0 -1.0196175451479133e-09 -4.0082265651194911e-10 0 -7.619518232841621e-07 -1.0094225207059242e-06 0 -1.2483741148279513e-06 -8.3302626231923378e-07 0 -1.690372179173752e-06 -1.6126549862536841e-06 0 -1.2483741148279513e-06 -8.3302626231923378e-07 0 -7.6195182328416199e-07 -1.0094225207059242e-06 0 -1.0196175451479133e-09 -4.0082265651194911e-10 0 -9.2922771812489486e-10 -2.9494044988550787e-10 0 -7.6195182328416199e-07 -1.0094225207059242e-06 0 -9.2922771812506774e-10 -2.949404498857371e-10 0 -4.1635946697727164e-10 -6.9879940831791051e-10 0 -7.6195182328416199e-07 -1.0094225207059242e-06 0 -1.690372179173752e-06 -1.6126549862536841e-06 0 -7.6195182328416199e-07 -1.0094225207059242e-06 0 -7.6358338735359747e-07 -1.5580720632897464e-06 0 -1.690372179173752e-06 -1.6126549862536841e-06 0 -7.6358338735359757e-07 -1.5580720632897464e-06 0 -1.5581844203267307e-06 -2.128173063223967e-06 0 -1.690372179173752e-06 -1.6126549862536841e-06 0 -2.6230820160496657e-06 -2.1608407691479026e-06 0 -2.7302718691577038e-06 -1.4637067214925096e-06 0 -3.9621962061324005e-06 -1.9994031691476178e-06 0 -2.7302718691577038e-06 -1.4637067214925096e-06 0 -2.6230820160496657e-06 -2.1608407691479026e-06 0 -1.7226518531135259e-06 -2.5353833907772091e-06 0 -2.6230820160496653e-06 -2.1608407691479022e-06 0 -1.5581844203267307e-06 -2.128173063223967e-06 0 -1.690372179173752e-06 -1.6126549862536841e-06 0 -1.5581844203267307e-06 -2.128173063223967e-06 0 -2.6230820160496657e-06 -2.1608407691479026e-06 0 -1.7226518531135259e-06 -2.5353833907772091e-06 0 -1.5581844203267307e-06 -2.128173063223967e-06 0 -8.8425511834772521e-07 -2.2094774438043944e-06 0 -1.7503512336756648e-07 -1.8149596162364861e-06 0 -8.8425511834772521e-07 -2.2094774438043944e-06 0 -7.6358338735359747e-07 -1.5580720632897464e-06 0 -7.6358338735359747e-07 -1.5580720632897464e-06 0 -8.8425511834772511e-07 -2.2094774438043944e-06 0 -1.5581844203267307e-06 -2.128173063223967e-06 0 -4.1635946697727164e-10 -6.9879940831791051e-10 0 -1.8588721863182654e-07 -1.002840891786711e-06 0 -7.6358338735359747e-07 -1.5580720632897464e-06 0 -4.1635946697727164e-10 -6.9879940831791051e-10 0 -7.6358338735359747e-07 -1.5580720632897466e-06 0 -7.6195182328416199e-07 -1.0094225207059242e-06 0 -4.1635946697727164e-10 -6.9879940831791051e-10 0 -1.4679860640438953e-10 -4.7893752486084779e-10 0 -1.8588721863182654e-07 -1.002840891786711e-06 0 -1.7503512336756648e-07 -1.8149596162364861e-06 0 -7.6358338735359768e-07 -1.5580720632897464e-06 0 -1.8588721863182654e-07 -1.002840891786711e-06 0 -1.7503512336756648e-07 -1.8149596162364861e-06 0 -1.8588721863182654e-07 -1.002840891786711e-06 0 8.5245625235237379e-08 -1.0765327994832745e-06 0 -1.4679860640438953e-10 -4.7893752486084779e-10 0 8.5245625235237379e-08 -1.0765327994832745e-06 0 -1.8588721863182654e-07 -1.002840891786711e-06 0 -1.4679860640438953e-10 -4.7893752486084779e-10 0 1.9197946343874608e-10 -5.171095032211892e-10 0 8.5245625235237379e-08 -1.0765327994832745e-06 0 4.1445574904754396e-07 -9.9843783930389423e-07 0 5.2032299454971295e-07 -1.7226758834055896e-06 0 8.5245625235237379e-08 -1.0765327994832745e-06 0 -1.7503512336756648e-07 -1.8149596162364861e-06 0 8.5245625235237379e-08 -1.0765327994832745e-06 0 5.2032299454971295e-07 -1.7226758834055896e-06 0 -1.7503512336756648e-07 -1.8149596162364861e-06 0 -3.1888245356230158e-08 -2.376509562660652e-06 0 -8.8425511834772521e-07 -2.2094774438043944e-06 0 -1.7503512336756648e-07 -1.8149596162364861e-06 0 5.2032299454971295e-07 -1.7226758834055896e-06 0 -3.1888245356230158e-08 -2.376509562660652e-06 0 -3.1888245356230158e-08 -2.376509562660652e-06 0 5.2032299454971295e-07 -1.7226758834055896e-06 0 1.0221271105496253e-06 -2.0268379529619862e-06 0 1.448110862363818e-06 -2.1277855119582978e-06 0 -3.1888245356230158e-08 -2.376509562660652e-06 0 1.0221271105496253e-06 -2.0268379529619862e-06 0 1.448110862363818e-06 -2.1277855119582978e-06 0 -6.8077976934150811e-07 -2.5834698056023878e-06 0 -3.1888245356230158e-08 -2.376509562660652e-06 0 1.448110862363818e-06 -2.1277855119582978e-06 0 3.3477299623233059e-06 -1.4024750080633008e-06 0 1.2507239444750387e-06 -2.0347953556264734e-06 0 -7.8016011343636576e-07 -2.3168966740439447e-06 0 1.2507239444750387e-06 -2.0347953556264734e-06 0 -3.9110363990262247e-07 -1.7253791651510208e-06 0 -7.8016011343636576e-07 -2.3168966740439447e-06 0 -6.8077976934150811e-07 -2.5834698056023878e-06 0 1.2507239444750387e-06 -2.0347953556264734e-06 0 1.448110862363818e-06 -2.1277855119582978e-06 0 1.2507239444750387e-06 -2.0347953556264734e-06 0 -6.8077976934150811e-07 -2.5834698056023878e-06 0 -7.8016011343636576e-07 -2.3168966740439447e-06 0 -2.8950667838569241e-06 -2.5886415650765472e-06 0 -6.8077976934150811e-07 -2.5834698056023878e-06 0 -7.8016011343636576e-07 -2.3168966740439447e-06 0 -3.9110363990262247e-07 -1.7253791651510208e-06 0 -2.9474752266348845e-06 -2.1468285819506019e-06 0 -7.8016011343636576e-07 -2.3168966740439447e-06 0 -2.9474752266348845e-06 -2.1468285819506019e-06 0 -2.8950667838569241e-06 -2.5886415650765472e-06 0 -1.7226518531135259e-06 -2.5353833907772091e-06 0 -6.8077976934150811e-07 -2.5834698056023878e-06 0 -2.8950667838569241e-06 -2.5886415650765472e-06 0 -1.7226518531135259e-06 -2.5353833907772091e-06 0 -2.8950667838569241e-06 -2.5886415650765472e-06 0 -3.2931995734862224e-06 -2.4250134047254647e-06 0 -1.7226518531135259e-06 -2.5353833907772091e-06 0 -3.1888245356230158e-08 -2.376509562660652e-06 0 -6.8077976934150811e-07 -2.5834698056023878e-06 0 -1.7226518531135259e-06 -2.5353833907772091e-06 0 -8.8425511834772521e-07 -2.2094774438043939e-06 0 -3.1888245356230158e-08 -2.376509562660652e-06 0 -1.7226518531135259e-06 -2.5353833907772091e-06 0 -3.2931995734862224e-06 -2.4250134047254647e-06 0 -2.6230820160496657e-06 -2.1608407691479026e-06 0 -3.9621962061324005e-06 -1.9994031691476178e-06 0 -2.6230820160496657e-06 -2.1608407691479026e-06 0 -3.2931995734862224e-06 -2.4250134047254647e-06 0 -5.0719760964493709e-06 -2.223730535420791e-06 0 -3.9621962061323997e-06 -1.9994031691476178e-06 0 -3.2931995734862224e-06 -2.4250134047254647e-06 0 -5.0719760964493709e-06 -2.223730535420791e-06 0 -3.2931995734862224e-06 -2.4250134047254647e-06 0 -2.8950667838569241e-06 -2.5886415650765472e-06 0 -5.0719760964493709e-06 -2.223730535420791e-06 0 -2.8950667838569241e-06 -2.5886415650765472e-06 0 -6.0353276830459865e-06 -1.8918578997681205e-06 0 -2.8950667838569241e-06 -2.5886415650765472e-06 0 -2.9474752266348845e-06 -2.1468285819506019e-06 0 -6.0353276830459865e-06 -1.8918578997681205e-06 0 -5.0719760964493709e-06 -2.223730535420791e-06 0 -6.0353276830459856e-06 -1.8918578997681207e-06 0 -7.7795595237495927e-06 -1.5017222020605072e-06 0 -5.0719760964493709e-06 -2.223730535420791e-06 0 -7.7795595237495927e-06 -1.5017222020605072e-06 0 -5.919050804937455e-06 -1.7537232133827209e-06 0 -9.9603997885001391e-06 -5.7137383919598248e-07 0 -7.7795595237495927e-06 -1.5017222020605072e-06 0 -6.0353276830459865e-06 -1.8918578997681205e-06 0 -1.0571980953313615e-05 -2.5619326683015032e-07 0 -7.4122455962754583e-06 -1.0584950856193308e-06 0 -7.7795595237495927e-06 -1.5017222020605072e-06 0 -7.4122455962754583e-06 -1.0584950856193308e-06 0 -5.919050804937455e-06 -1.7537232133827209e-06 0 -7.7795595237495927e-06 -1.5017222020605072e-06 0 -7.4122455962754583e-06 -1.0584950856193308e-06 0 -4.8166358223415257e-06 -1.2491750417224821e-06 0 -5.919050804937455e-06 -1.7537232133827209e-06 0 -5.0719760964493709e-06 -2.223730535420791e-06 0 -5.919050804937455e-06 -1.7537232133827209e-06 0 -3.9621962061324005e-06 -1.9994031691476178e-06 0 -4.8166358223415257e-06 -1.2491750417224821e-06 0 -3.9621962061324005e-06 -1.9994031691476178e-06 0 -5.919050804937455e-06 -1.7537232133827209e-06 0 -4.8166358223415257e-06 -1.2491750417224821e-06 0 -2.7302718691577043e-06 -1.4637067214925096e-06 0 -3.9621962061324005e-06 -1.9994031691476178e-06 0 -1.872028129405514e-05 4.4555827636455903e-06 0 -1.3206539353309095e-05 1.6210068748374024e-06 0 -1.6661544326637094e-05 4.2626457370176952e-06 0 -2.3986311636261529e-05 8.8096750892100941e-06 0 -1.872028129405514e-05 4.4555827636455903e-06 0 -1.6661544326637094e-05 4.2626457370176952e-06 0 -1.1588398249561284e-05 2.8389145395341847e-06 0 -1.6661544326637094e-05 4.2626457370176952e-06 0 -1.3206539353309095e-05 1.6210068748374024e-06 0 -1.1588398249561284e-05 2.8389145395341847e-06 0 -1.6873781134876667e-05 6.8368264901660952e-06 0 -1.6661544326637094e-05 4.2626457370176952e-06 0 -1.872028129405514e-05 4.4555827636455903e-06 0 -1.4279447707095216e-05 1.4728664168665277e-06 0 -1.3206539353309095e-05 1.6210068748374024e-06 0 -1.4279447707095216e-05 1.4728664168665277e-06 0 -1.0571980953313615e-05 -2.5619326683015032e-07 0 -9.9603997885001391e-06 -5.7137383919598248e-07 0 -1.0571980953313615e-05 -2.5619326683015032e-07 0 -7.7795595237495927e-06 -1.5017222020605072e-06 0 -9.9603997885001391e-06 -5.7137383919598248e-07 0 -1.4279447707095216e-05 1.4728664168665277e-06 0 -9.9603997885001391e-06 -5.7137383919598248e-07 0 -1.3206539353309095e-05 1.6210068748374024e-06 0 -9.9603997885001391e-06 -5.7137383919598248e-07 0 -7.6547808351663005e-06 -1.8825778882231842e-07 0 -1.3206539353309095e-05 1.6210068748374024e-06 0 -4.8962191880968518e-06 -1.460149014847234e-06 0 -7.6547808351663005e-06 -1.8825778882231818e-07 0 -6.0353276830459865e-06 -1.8918578997681205e-06 0 -9.9603997885001391e-06 -5.7137383919598248e-07 0 -6.0353276830459865e-06 -1.8918578997681205e-06 0 -7.6547808351663005e-06 -1.8825778882231818e-07 0 -4.8962191880968518e-06 -1.460149014847234e-06 0 -6.0353276830459865e-06 -1.8918578997681205e-06 0 -2.9474752266348845e-06 -2.1468285819506019e-06 0 -1.1588398249561284e-05 2.8389145395341847e-06 0 -7.6547808351663005e-06 -1.8825778882231818e-07 0 -7.2316332771294053e-06 2.3504939531812496e-06 0 -1.1588398249561284e-05 2.8389145395341847e-06 0 -1.3206539353309095e-05 1.6210068748374024e-06 0 -7.6547808351663005e-06 -1.8825778882231818e-07 0 -1.1588398249561284e-05 2.8389145395341847e-06 0 -7.2316332771294053e-06 2.3504939531812491e-06 0 -1.0643104242864775e-05 5.9023714965344502e-06 0 -7.2316332771294053e-06 2.3504939531812496e-06 0 -2.9762779851770039e-06 5.6507122113389452e-07 0 -3.1390482202347013e-06 4.5299360170097986e-06 0 -2.9762779851770039e-06 5.6507122113389463e-07 0 5.4824734175184931e-07 1.6577712729843611e-06 0 -3.1390482202347013e-06 4.5299360170097986e-06 0 -2.9762779851770039e-06 5.6507122113389463e-07 0 6.9786632877116993e-08 -4.8912048188514887e-07 0 5.4824734175184931e-07 1.6577712729843611e-06 0 -2.9762779851770039e-06 5.6507122113389463e-07 0 -7.2316332771294053e-06 2.3504939531812496e-06 0 -7.6547808351663005e-06 -1.8825778882231818e-07 0 -2.9762779851770039e-06 5.6507122113389463e-07 0 -7.6547808351663005e-06 -1.8825778882231818e-07 0 -2.7868324833164866e-06 -1.0472734872212543e-06 0 -4.8962191880968518e-06 -1.460149014847234e-06 0 -2.7868324833164866e-06 -1.0472734872212543e-06 0 -7.6547808351663005e-06 -1.8825778882231818e-07 0 -4.8962191880968518e-06 -1.460149014847234e-06 0 -2.9474752266348845e-06 -2.1468285819506019e-06 0 -2.7868324833164866e-06 -1.0472734872212543e-06 0 -3.9110363990262247e-07 -1.7253791651510208e-06 0 -2.7868324833164866e-06 -1.0472734872212541e-06 0 -2.9474752266348845e-06 -2.1468285819506019e-06 0 -3.9110363990262247e-07 -1.7253791651510208e-06 0 6.9786632877116477e-08 -4.8912048188514909e-07 0 -2.7868324833164866e-06 -1.0472734872212543e-06 0 -2.9762779851770039e-06 5.6507122113389463e-07 0 -2.7868324833164862e-06 -1.0472734872212543e-06 0 6.9786632877116993e-08 -4.8912048188514887e-07 0 -3.9110363990262247e-07 -1.7253791651510208e-06 0 2.1332164528767508e-06 -1.0701885710890177e-06 0 6.9786632877116993e-08 -4.8912048188514887e-07 0 3.2197305547750406e-06 5.6623511543394851e-07 0 6.9786632877116993e-08 -4.8912048188514887e-07 0 2.1332164528767504e-06 -1.0701885710890177e-06 0 -3.9110363990262247e-07 -1.7253791651510208e-06 0 1.2507239444750387e-06 -2.0347953556264734e-06 0 2.1332164528767504e-06 -1.0701885710890177e-06 0 3.3861088394832633e-06 -1.1333381809258255e-06 0 4.6773748242301605e-06 -1.5787506836826543e-07 0 2.1332164528767504e-06 -1.0701885710890177e-06 0 3.3861088394832633e-06 -1.1333381809258255e-06 0 2.1332164528767504e-06 -1.0701885710890177e-06 0 1.2507239444750387e-06 -2.0347953556264734e-06 0 3.2197305547750406e-06 5.6623511543394851e-07 0 2.13321645287675e-06 -1.070188571089018e-06 0 4.6773748242301605e-06 -1.5787506836826543e-07 0 3.2197305547750406e-06 5.6623511543394851e-07 0 4.6773748242301605e-06 -1.5787506836826543e-07 0 6.8567359591341705e-06 1.8443097082159368e-06 0 3.2197305547750406e-06 5.6623511543394851e-07 0 5.4824734175184931e-07 1.6577712729843611e-06 0 6.9786632877116993e-08 -4.8912048188514887e-07 0 3.2197305547750406e-06 5.6623511543394851e-07 0 4.0759796245833408e-06 3.3423380336250268e-06 0 5.4824734175184931e-07 1.6577712729843611e-06 0 3.2197305547750406e-06 5.6623511543394851e-07 0 6.8567359591341705e-06 1.8443097082159368e-06 0 4.0759796245833417e-06 3.3423380336250268e-06 0 9.269048437039365e-06 4.440730442347268e-06 0 6.8295569518328231e-06 6.3269277260632669e-06 0 4.0759796245833417e-06 3.3423380336250268e-06 0 9.269048437039365e-06 4.440730442347268e-06 0 4.0759796245833417e-06 3.3423380336250268e-06 0 6.8567359591341705e-06 1.8443097082159368e-06 0 -3.1390482202347013e-06 4.5299360170097986e-06 0 4.0759796245833408e-06 3.3423380336250273e-06 0 1.8760698097580849e-06 7.0119612095370097e-06 0 -3.1390482202347013e-06 4.5299360170097986e-06 0 5.4824734175184931e-07 1.6577712729843611e-06 0 4.0759796245833417e-06 3.3423380336250268e-06 0 4.0759796245833417e-06 3.3423380336250268e-06 0 6.8295569518328231e-06 6.3269277260632669e-06 0 1.8760698097580849e-06 7.0119612095370097e-06 0 5.0492223593753518e-06 1.142703553635328e-05 0 6.829556951832824e-06 6.3269277260632661e-06 0 1.1668218374465995e-05 8.1951346222931599e-06 0 5.0492223593753518e-06 1.142703553635328e-05 0 1.1668218374465995e-05 8.1951346222931599e-06 0 1.0801363137321834e-05 1.7598962713605649e-05 0 5.0492223593753518e-06 1.142703553635328e-05 0 1.0801363137321834e-05 1.7598962713605649e-05 0 4.6129054157715964e-06 1.9210597242650539e-05 0 5.0492223593753518e-06 1.142703553635328e-05 0 4.6129054157715955e-06 1.9210597242650539e-05 0 -2.2632163813486305e-06 2.0253373774224459e-05 0 5.0492223593753518e-06 1.142703553635328e-05 0 -4.3769599164421601e-06 1.1842388571820527e-05 0 1.8760698097580849e-06 7.0119612095370097e-06 0 5.0492223593753518e-06 1.142703553635328e-05 0 1.8760698097580858e-06 7.0119612095370097e-06 0 6.8295569518328231e-06 6.3269277260632669e-06 0 5.0492223593753518e-06 1.142703553635328e-05 0 -2.2632163813486305e-06 2.0253373774224459e-05 0 -4.3769599164421601e-06 1.1842388571820527e-05 0 -1.2027543484826078e-05 2.0833997218686816e-05 0 -4.3769599164421601e-06 1.1842388571820527e-05 0 -2.2632163813486305e-06 2.0253373774224459e-05 0 -1.2027543484826078e-05 2.0833997218686816e-05 0 -1.0066921155308198e-05 1.0387164512594225e-05 0 -4.3769599164421601e-06 1.1842388571820527e-05 0 -3.1390482202347013e-06 4.5299360170097986e-06 0 -4.3769599164421585e-06 1.1842388571820527e-05 0 -1.00669211553082e-05 1.0387164512594225e-05 0 -3.1390482202347013e-06 4.5299360170097986e-06 0 -1.00669211553082e-05 1.0387164512594225e-05 0 -1.0643104242864775e-05 5.9023714965344502e-06 0 -3.1390482202347013e-06 4.5299360170097986e-06 0 1.8760698097580847e-06 7.0119612095370106e-06 0 -4.3769599164421601e-06 1.1842388571820527e-05 0 -3.1390482202347013e-06 4.5299360170097986e-06 0 -1.0643104242864775e-05 5.9023714965344502e-06 0 -7.2316332771294053e-06 2.3504939531812496e-06 0 -1.1588398249561284e-05 2.8389145395341847e-06 0 -1.0643104242864775e-05 5.9023714965344502e-06 0 -1.6873781134876667e-05 6.8368264901660952e-06 0 -1.6162171607777639e-05 1.0973746689929088e-05 0 -1.6873781134876667e-05 6.8368264901660952e-06 0 -1.0643104242864775e-05 5.9023714965344502e-06 0 -1.6162171607777639e-05 1.0973746689929088e-05 0 -1.0643104242864775e-05 5.9023714965344502e-06 0 -1.00669211553082e-05 1.0387164512594225e-05 0 -1.6162171607777639e-05 1.0973746689929088e-05 0 -1.00669211553082e-05 1.0387164512594225e-05 0 -1.7433761288788222e-05 1.6728299017138235e-05 0 -1.2027543484826078e-05 2.0833997218686816e-05 0 -1.7433761288788222e-05 1.6728299017138235e-05 0 -1.00669211553082e-05 1.0387164512594225e-05 0 -2.5392195678797256e-05 2.6721122350529014e-05 0 -2.4350994883429284e-05 1.73339887153782e-05 0 -1.7433761288788222e-05 1.6728299017138235e-05 0 -1.2027543484826078e-05 2.0833997218686816e-05 0 -2.5392195678797256e-05 2.6721122350529014e-05 0 -1.7433761288788222e-05 1.6728299017138235e-05 0 -1.6162171607777639e-05 1.0973746689929088e-05 0 -1.7433761288788222e-05 1.6728299017138235e-05 0 -2.4350994883429284e-05 1.73339887153782e-05 0 -1.6162171607777639e-05 1.0973746689929088e-05 0 -2.4350994883429284e-05 1.73339887153782e-05 0 -2.2303099360442921e-05 1.1426422965355645e-05 0 -3.5751907216912024e-05 2.4298700296705838e-05 0 -2.4350994883429284e-05 1.73339887153782e-05 0 -2.5392195678797256e-05 2.6721122350529014e-05 0 -3.5751907216912024e-05 2.4298700296705838e-05 0 -2.9808817992458667e-05 1.5405046961849058e-05 0 -2.4350994883429284e-05 1.73339887153782e-05 0 -2.9808817992458667e-05 1.5405046961849058e-05 0 -2.2303099360442921e-05 1.1426422965355645e-05 0 -2.4350994883429284e-05 1.73339887153782e-05 0 -2.9808817992458667e-05 1.5405046961849058e-05 0 -2.3986311636261529e-05 8.8096750892100941e-06 0 -2.2303099360442921e-05 1.1426422965355645e-05 0 -2.3986311636261529e-05 8.8096750892100941e-06 0 -1.6873781134876664e-05 6.836826490166096e-06 0 -2.2303099360442921e-05 1.1426422965355645e-05 0 -1.6162171607777639e-05 1.0973746689929088e-05 0 -2.2303099360442921e-05 1.1426422965355645e-05 0 -1.6873781134876667e-05 6.8368264901660952e-06 0 -2.3986311636261529e-05 8.8096750892100941e-06 0 -1.6661544326637094e-05 4.2626457370176952e-06 0 -1.6873781134876667e-05 6.8368264901660952e-06 0 8.13558757354805e-06 2.0339623503600317e-06 0 9.2340551224232241e-06 2.6058962242143508e-06 0 8.1138751130807555e-06 1.7436708700685086e-06 0 9.7689832079369283e-06 2.7434982176310288e-06 0 8.1138751130807555e-06 1.7436708700685086e-06 0 9.2340551224232241e-06 2.6058962242143508e-06 0 9.7689832079369283e-06 2.7434982176310288e-06 0 9.2340551224232241e-06 2.6058962242143508e-06 0 1.0842909908552675e-05 3.6762606188609187e-06 0 8.13558757354805e-06 2.0339623503600317e-06 0 8.7487313248078749e-06 2.3789739199972118e-06 0 9.2340551224232241e-06 2.6058962242143508e-06 0 7.6484846630113372e-06 1.60581781140374e-06 0 8.7487313248078749e-06 2.3789739199972118e-06 0 7.2496427525958192e-06 1.7843499202535867e-06 0 8.13558757354805e-06 2.0339623503600317e-06 0 7.2496427525958192e-06 1.7843499202535867e-06 0 8.7487313248078749e-06 2.3789739199972118e-06 0 7.6484846630113372e-06 1.60581781140374e-06 0 7.2496427525958192e-06 1.7843499202535867e-06 0 6.5774211480128681e-06 1.3195027236487866e-06 0 8.13558757354805e-06 2.0339623503600317e-06 0 6.9878544072689397e-06 1.5207791876059901e-06 0 7.2496427525958192e-06 1.7843499202535867e-06 0 5.9637771876322837e-06 1.4659952665077814e-06 0 7.2496427525958192e-06 1.7843499202535867e-06 0 6.9878544072689397e-06 1.5207791876059901e-06 0 5.8339154314401581e-06 1.3957901458702465e-06 0 7.2496427525958192e-06 1.7843499202535867e-06 0 5.9637771876322837e-06 1.4659952665077814e-06 0 5.9637771876322837e-06 1.4659952665077814e-06 0 5.7633118559283234e-06 1.1442184317658709e-06 0 4.8669110217485078e-06 1.3158791241034736e-06 0 5.9637771876322837e-06 1.4659952665077814e-06 0 6.9878544072689397e-06 1.5207791876059901e-06 0 5.7633118559283234e-06 1.1442184317658709e-06 0 6.4970671145660136e-06 9.4327027284242825e-07 0 5.7633118559283234e-06 1.1442184317658709e-06 0 6.9878544072689397e-06 1.5207791876059901e-06 0 8.13558757354805e-06 2.0339623503600317e-06 0 8.1138751130807555e-06 1.7436708700685086e-06 0 6.9878544072689397e-06 1.5207791876059901e-06 0 6.4970671145660136e-06 9.4327027284242825e-07 0 6.9878544072689397e-06 1.5207791876059901e-06 0 8.1138751130807555e-06 1.7436708700685086e-06 0 6.4970671145660136e-06 9.4327027284242825e-07 0 8.1138751130807555e-06 1.7436708700685086e-06 0 6.6874246192203821e-06 5.4457340779286512e-07 0 6.4970671145660136e-06 9.4327027284242825e-07 0 6.6874246192203821e-06 5.4457340779286491e-07 0 5.7915589793350593e-06 3.0446570763919633e-07 0 4.588920911517679e-06 -6.3946715462493672e-07 0 6.6874246192203821e-06 5.4457340779286512e-07 0 5.1123955174948063e-06 -4.5012355784758457e-07 0 6.9546766484785021e-06 7.9986159889449293e-07 0 6.6874246192203821e-06 5.4457340779286523e-07 0 8.2335551529641693e-06 1.5808771705127507e-06 0 6.9546766484785021e-06 7.9986159889449293e-07 0 5.1123955174948063e-06 -4.5012355784758457e-07 0 6.6874246192203821e-06 5.4457340779286512e-07 0 6.6874246192203821e-06 5.4457340779286512e-07 0 8.1138751130807555e-06 1.7436708700685086e-06 0 8.2335551529641693e-06 1.5808771705127507e-06 0 3.3861088394832633e-06 -1.1333381809258255e-06 0 5.1123955174948063e-06 -4.5012355784758457e-07 0 4.6773748242301605e-06 -1.5787506836826543e-07 0 6.9546766484785021e-06 7.9986159889449293e-07 0 4.6773748242301605e-06 -1.578750683682655e-07 0 5.1123955174948063e-06 -4.5012355784758457e-07 0 6.9546766484785021e-06 7.9986159889449293e-07 0 6.8567359591341705e-06 1.8443097082159368e-06 0 4.6773748242301605e-06 -1.5787506836826543e-07 0 6.9546766484785021e-06 7.9986159889449293e-07 0 9.5978655773418659e-06 2.7353340864111029e-06 0 6.8567359591341705e-06 1.8443097082159368e-06 0 9.269048437039365e-06 4.440730442347268e-06 0 6.8567359591341705e-06 1.8443097082159368e-06 0 9.5978655773418659e-06 2.7353340864111029e-06 0 9.7689832079369283e-06 2.7434982176310288e-06 0 8.2335551529641693e-06 1.5808771705127507e-06 0 8.1138751130807555e-06 1.7436708700685086e-06 0 6.9546766484785021e-06 7.9986159889449293e-07 0 8.2335551529641693e-06 1.5808771705127505e-06 0 9.5978655773418659e-06 2.7353340864111029e-06 0 9.7689832079369283e-06 2.7434982176310288e-06 0 9.5978655773418659e-06 2.7353340864111029e-06 0 8.2335551529641693e-06 1.5808771705127507e-06 0 9.7689832079369283e-06 2.7434982176310288e-06 0 1.1440479557836079e-05 4.1551722836140557e-06 0 9.5978655773418659e-06 2.7353340864111029e-06 0 9.7689832079369283e-06 2.7434982176310288e-06 0 1.0842909908552675e-05 3.6762606188609187e-06 0 1.1440479557836081e-05 4.1551722836140548e-06 0 9.5978655773418659e-06 2.7353340864111029e-06 0 1.1440479557836081e-05 4.1551722836140548e-06 0 1.3358334040730321e-05 6.0013051418151722e-06 0 1.2829946534904394e-05 5.1205472491274871e-06 0 1.3358334040730321e-05 6.0013051418151722e-06 0 1.1440479557836081e-05 4.1551722836140548e-06 0 1.2829946534904394e-05 5.1205472491274871e-06 0 1.0842909908552675e-05 3.6762606188609187e-06 0 1.1268101546972224e-05 3.8233396520257639e-06 0 1.2829946534904394e-05 5.1205472491274871e-06 0 1.1440479557836079e-05 4.1551722836140548e-06 0 1.0842909908552675e-05 3.6762606188609187e-06 0 9.269048437039365e-06 4.440730442347268e-06 0 9.5978655773418659e-06 2.7353340864111029e-06 0 1.3358334040730321e-05 6.0013051418151722e-06 0 9.269048437039365e-06 4.440730442347268e-06 0 1.3358334040730321e-05 6.0013051418151722e-06 0 1.1668218374465995e-05 8.1951346222931599e-06 0 9.269048437039365e-06 4.440730442347268e-06 0 1.1668218374465995e-05 8.1951346222931599e-06 0 6.8295569518328231e-06 6.3269277260632669e-06 0 1.9036037728515291e-05 1.0423252432198915e-05 0 1.1668218374465994e-05 8.1951346222931599e-06 0 1.3358334040730321e-05 6.0013051418151722e-06 0 1.9036037728515291e-05 1.0423252432198915e-05 0 1.0801363137321834e-05 1.7598962713605649e-05 0 1.1668218374465995e-05 8.1951346222931599e-06 0 1.9036037728515291e-05 1.0423252432198915e-05 0 1.3358334040730321e-05 6.0013051418151722e-06 0 1.4565172137743354e-05 6.9240865874328957e-06 0 1.2829946534904394e-05 5.1205472491274871e-06 0 1.2035578372405821e-05 4.1092307437733095e-06 0 1.4565172137743354e-05 6.9240865874328957e-06 0 1.2829946534904394e-05 5.1205472491274871e-06 0 1.1268101546972224e-05 3.8233396520257639e-06 0 1.2035578372405821e-05 4.1092307437733095e-06 0 1.2829946534904394e-05 5.1205472491274871e-06 0 1.4565172137743354e-05 6.9240865874328957e-06 0 1.3358334040730321e-05 6.0013051418151722e-06 0 1.2786964854254047e-05 2.5137914583926499e-06 0 1.4565172137743354e-05 6.9240865874328957e-06 0 1.2035578372405821e-05 4.1092307437733095e-06 0 1.2786964854254047e-05 2.5137914583926499e-06 0 1.2035578372405821e-05 4.1092307437733095e-06 0 1.1183205715383721e-05 3.4499905573244283e-07 0 1.0141936618008352e-05 2.2756331814554431e-06 0 1.1183205715383721e-05 3.4499905573244283e-07 0 1.2035578372405821e-05 4.1092307437733095e-06 0 1.0141936618008352e-05 2.2756331814554431e-06 0 1.2035578372405821e-05 4.1092307437733095e-06 0 1.1268101546972224e-05 3.8233396520257639e-06 0 1.0028729971950372e-05 3.1226839888638666e-06 0 1.1268101546972224e-05 3.8233396520257639e-06 0 1.0842909908552675e-05 3.6762606188609187e-06 0 1.1268101546972224e-05 3.8233396520257639e-06 0 1.0028729971950372e-05 3.1226839888638666e-06 0 1.0141936618008352e-05 2.2756331814554431e-06 0 1.0028729971950372e-05 3.1226839888638666e-06 0 8.8787215273946674e-06 1.9328228478926062e-06 0 1.0141936618008352e-05 2.2756331814554431e-06 0 1.0028729971950372e-05 3.1226839888638666e-06 0 8.7487313248078749e-06 2.3789739199972118e-06 0 8.8787215273946674e-06 1.9328228478926058e-06 0 1.0028729971950372e-05 3.1226839888638666e-06 0 9.2340551224232241e-06 2.6058962242143508e-06 0 8.7487313248078749e-06 2.3789739199972118e-06 0 1.0028729971950372e-05 3.1226839888638666e-06 0 1.0842909908552675e-05 3.6762606188609187e-06 0 9.2340551224232241e-06 2.6058962242143508e-06 0 7.6484846630113372e-06 1.60581781140374e-06 0 8.8787215273946674e-06 1.9328228478926058e-06 0 8.7487313248078749e-06 2.3789739199972118e-06 0 7.6484846630113372e-06 1.60581781140374e-06 0 7.3411794413351951e-06 4.9179777366955219e-07 0 8.8787215273946674e-06 1.9328228478926058e-06 0 1.0141936618008352e-05 2.2756331814554431e-06 0 8.4342224454072641e-06 2.4136514184093854e-07 0 9.4722405210294018e-06 -1.9869054256166629e-06 0 7.1986116669722835e-06 -1.3038175134761075e-06 0 8.4342224454072641e-06 2.4136514184093854e-07 0 7.3411794413351951e-06 4.9179777366955219e-07 0 7.3411794413351951e-06 4.9179777366955219e-07 0 8.4342224454072641e-06 2.4136514184093854e-07 0 8.8787215273946674e-06 1.9328228478926058e-06 0 1.0141936618008352e-05 2.2756331814554431e-06 0 8.8787215273946674e-06 1.9328228478926058e-06 0 8.4342224454072641e-06 2.4136514184093854e-07 0 7.1986116669722835e-06 -1.3038175134761075e-06 0 7.918305435556878e-06 -2.9215057671525038e-06 0 8.4342224454072641e-06 2.4136514184093854e-07 0 9.4722405210294018e-06 -1.9869054256166629e-06 0 8.4342224454072641e-06 2.4136514184093854e-07 0 7.918305435556878e-06 -2.9215057671525038e-06 0 9.4722405210294018e-06 -1.9869054256166629e-06 0 7.918305435556878e-06 -2.9215057671525038e-06 0 9.6436554944639845e-06 -5.0383974981154107e-06 0 1.1360936560304831e-05 -4.6324724914867784e-06 0 9.4722405210294001e-06 -1.9869054256166634e-06 0 9.6436554944639845e-06 -5.0383974981154107e-06 0 7.9868557959558271e-06 -5.5516896249631173e-06 0 9.6436554944639845e-06 -5.0383974981154107e-06 0 7.918305435556878e-06 -2.9215057671525038e-06 0 7.9868557959558271e-06 -5.5516896249631173e-06 0 1.0336210081365114e-05 -8.3301855448701921e-06 0 9.6436554944639845e-06 -5.0383974981154107e-06 0 1.1360936560304831e-05 -4.6324724914867784e-06 0 9.6436554944639828e-06 -5.0383974981154099e-06 0 1.0336210081365116e-05 -8.3301855448701921e-06 0 7.9868557959558271e-06 -5.5516896249631173e-06 0 7.7808058158829502e-06 -8.2038392011302511e-06 0 1.0336210081365116e-05 -8.3301855448701921e-06 0 1.6270047402040065e-05 -1.0155758011030568e-05 0 1.4798321066084427e-05 -6.906217589061721e-06 0 1.3605731009809896e-05 -9.2623345577210793e-06 0 1.1360936560304831e-05 -4.6324724914867784e-06 0 1.3605731009809896e-05 -9.2623345577210793e-06 0 1.4798321066084427e-05 -6.906217589061721e-06 0 1.1360936560304831e-05 -4.6324724914867784e-06 0 1.0336210081365116e-05 -8.3301855448701921e-06 0 1.3605731009809896e-05 -9.2623345577210793e-06 0 1.1360936560304831e-05 -4.6324724914867784e-06 0 1.4798321066084427e-05 -6.9062175890617218e-06 0 1.3155241442250941e-05 -1.8559925790001097e-06 0 1.0141936618008352e-05 2.2756331814554431e-06 0 9.4722405210294035e-06 -1.9869054256166625e-06 0 1.1183205715383721e-05 3.4499905573244283e-07 0 1.1360936560304831e-05 -4.6324724914867784e-06 0 1.3155241442250941e-05 -1.8559925790001088e-06 0 1.1183205715383721e-05 3.4499905573244283e-07 0 1.1360936560304831e-05 -4.6324724914867784e-06 0 1.1183205715383721e-05 3.4499905573244283e-07 0 9.4722405210294018e-06 -1.9869054256166629e-06 0 1.2786964854254047e-05 2.5137914583926499e-06 0 1.1183205715383721e-05 3.4499905573244283e-07 0 1.3155241442250941e-05 -1.8559925790001097e-06 0 1.2786964854254047e-05 2.5137914583926499e-06 0 1.4953565009563993e-05 2.2620698532661413e-06 0 1.4565172137743354e-05 6.9240865874328957e-06 0 1.2786964854254047e-05 2.5137914583926499e-06 0 1.3155241442250941e-05 -1.8559925790001097e-06 0 1.4953565009563993e-05 2.2620698532661409e-06 0 1.9036037728515291e-05 1.0423252432198915e-05 0 1.4565172137743354e-05 6.9240865874328966e-06 0 1.4953565009563993e-05 2.2620698532661409e-06 0 2.0373976479641815e-05 -1.9348014695152453e-06 0 1.4953565009563993e-05 2.2620698532661409e-06 0 1.6921442819186863e-05 -4.8903496000693973e-06 0 1.6921442819186863e-05 -4.8903496000693973e-06 0 1.4953565009563993e-05 2.2620698532661409e-06 0 1.3155241442250941e-05 -1.8559925790001097e-06 0 1.0801363137321834e-05 1.7598962713605649e-05 0 1.9036037728515291e-05 1.0423252432198915e-05 0 1.5512633620492083e-05 3.1473044547298998e-05 0 1.9036037728515291e-05 1.0423252432198915e-05 0 1.4953565009563993e-05 2.2620698532661409e-06 0 2.0373976479641815e-05 -1.9348014695152453e-06 0 1.3340274050701158e-05 8.9029019029741119e-06 0 2.5892695386177926e-05 1.5976573759644082e-05 0 1.9036037728515291e-05 1.0423252432198915e-05 0 2.719462174598712e-05 3.119798262670296e-05 0 1.5512633620492083e-05 3.1473044547298998e-05 0 3.1969894139782483e-05 4.7037328708764767e-05 0 1.4542477701266924e-05 4.498747136433047e-05 0 1.5512633620492083e-05 3.1473044547298998e-05 0 2.5892695386177926e-05 1.5976573759644082e-05 0 2.6046213547159679e-05 1.9398127694034521e-05 0 2.0373976479641815e-05 -1.9348014695152453e-06 0 1.6921442819186863e-05 -4.8903496000693973e-06 0 2.0762431224928215e-05 -6.8408140514606615e-06 0 2.719462174598712e-05 3.119798262670296e-05 0 3.1969894139782483e-05 4.7037328708764767e-05 0 1.5512633620492083e-05 3.1473044547298998e-05 0 2.6046213547159679e-05 1.9398127694034521e-05 0 2.8909605056239564e-05 2.6789946597608726e-05 0 2.0762431224928215e-05 -6.8408140514606615e-06 0 1.8557989677720718e-05 -9.0300878755859345e-06 0 2.1422622584470969e-05 -1.0167294367143624e-05 0 3.1969894139782483e-05 4.7037328708764767e-05 0 2.4254349776610292e-05 5.7111375167701737e-05 0 1.4542477701266924e-05 4.498747136433047e-05 0 1.6921442819186863e-05 -4.8903496000693973e-06 0 1.3155241442250941e-05 -1.8559925790001097e-06 0 1.4798321066084427e-05 -6.906217589061721e-06 0 2.0762431224928215e-05 -6.8408140514606615e-06 0 1.6921442819186863e-05 -4.8903496000693973e-06 0 1.8557989677720718e-05 -9.0300878755859345e-06 0 1.6921442819186863e-05 -4.8903496000693973e-06 0 1.4798321066084427e-05 -6.906217589061721e-06 0 1.8557989677720718e-05 -9.0300878755859345e-06 0 1.6270047402040065e-05 -1.0155758011030568e-05 0 1.8557989677720718e-05 -9.0300878755859345e-06 0 1.4798321066084427e-05 -6.906217589061721e-06 0 1.6270047402040065e-05 -1.0155758011030568e-05 0 1.9099083014757748e-05 -1.2440422490180671e-05 0 1.8557989677720718e-05 -9.0300878755859345e-06 0 2.1422622584470969e-05 -1.0167294367143624e-05 0 1.8557989677720718e-05 -9.0300878755859345e-06 0 1.9099083014757748e-05 -1.2440422490180671e-05 0 2.1422622584470969e-05 -1.0167294367143624e-05 0 1.9099083014757748e-05 -1.2440422490180671e-05 0 2.2506531337226212e-05 -1.3100194667079626e-05 0 1.6270047402040065e-05 -1.0155758011030568e-05 0 1.598371444544043e-05 -1.2496641723645794e-05 0 1.9099083014757748e-05 -1.2440422490180671e-05 0 1.3531609542085075e-05 6.1764788639372814e-05 0 2.4254349776610292e-05 5.7111375167701737e-05 0 2.6917713236953981e-05 6.7835870214303967e-05 0 3.6113842279029812e-05 6.2917485578589539e-05 0 2.6917713236953981e-05 6.7835870214303967e-05 0 2.4254349776610292e-05 5.7111375167701737e-05 0 3.1969894139782483e-05 4.7037328708764767e-05 0 3.6113842279029812e-05 6.2917485578589539e-05 0 2.4254349776610292e-05 5.7111375167701737e-05 0 2.8909605056239564e-05 2.6789946597608726e-05 0 3.1001211821629698e-05 3.3195046036345387e-05 0 3.6113842279029812e-05 6.2917485578589539e-05 0 3.9755808324100445e-05 7.9882316035298793e-05 0 2.6917713236953981e-05 6.7835870214303967e-05 0 3.9755808324100439e-05 7.9882316035298807e-05 0 2.1612491702355036e-05 7.7266358751888875e-05 0 2.6917713236953981e-05 6.7835870214303967e-05 0 3.9755808324100439e-05 7.9882316035298807e-05 0 2.7591218294219368e-05 8.9386896819494888e-05 0 2.1612491702355036e-05 7.7266358751888875e-05 0 3.9755808324100439e-05 7.9882316035298807e-05 0 4.3078923435830992e-05 9.796860942987181e-05 0 2.7591218294219368e-05 8.9386896819494888e-05 0 2.2506531337226212e-05 -1.3100194667079626e-05 0 2.099936481328117e-05 -1.543294877094e-05 0 2.3829310363186972e-05 -1.6114111566004728e-05 0 3.1001211821629698e-05 3.3195046036345387e-05 0 3.3164947636251251e-05 4.0723650107399537e-05 0 4.3078923435830992e-05 9.796860942987181e-05 0 2.4518824744039865e-05 0.00010196222859967827 0 2.7591218294219368e-05 8.9386896819494888e-05 0 1.8052396305148372e-05 -1.5075310335983355e-05 0 2.099936481328117e-05 -1.543294877094e-05 0 1.9099083014757748e-05 -1.2440422490180671e-05 0 1.8052396305148372e-05 -1.5075310335983355e-05 0 1.9099083014757748e-05 -1.2440422490180671e-05 0 1.598371444544043e-05 -1.2496641723645795e-05 0 2.2506531337226212e-05 -1.3100194667079626e-05 0 1.9099083014757745e-05 -1.2440422490180671e-05 0 2.099936481328117e-05 -1.543294877094e-05 0 1.8052396305148372e-05 -1.5075310335983355e-05 0 1.8457870132089682e-05 -1.7526619843167263e-05 0 2.099936481328117e-05 -1.543294877094e-05 0 2.2005377389195859e-05 -1.8864916590783837e-05 0 2.099936481328117e-05 -1.543294877094e-05 0 1.8457870132089682e-05 -1.7526619843167263e-05 0 1.8052396305148372e-05 -1.5075310335983355e-05 0 1.4543191801655636e-05 -1.5309184554861043e-05 0 1.8457870132089682e-05 -1.7526619843167263e-05 0 1.6419537310513485e-05 -1.9208548864964976e-05 0 1.8457870132089682e-05 -1.7526619843167263e-05 0 1.4543191801655636e-05 -1.5309184554861043e-05 0 1.8052396305148372e-05 -1.5075310335983355e-05 0 1.598371444544043e-05 -1.2496641723645795e-05 0 1.4543191801655636e-05 -1.5309184554861043e-05 0 1.3284936724420624e-05 -1.2221498483951135e-05 0 1.0948874719724307e-05 -1.2263117608264567e-05 0 1.4543191801655636e-05 -1.5309184554861043e-05 0 1.3284936724420624e-05 -1.2221498483951135e-05 0 1.4543191801655636e-05 -1.5309184554861043e-05 0 1.598371444544043e-05 -1.2496641723645795e-05 0 1.0904593719455272e-05 -1.5006248909593435e-05 0 1.2858203466866869e-05 -1.8967378881217321e-05 0 1.4543191801655636e-05 -1.5309184554861043e-05 0 1.0904593719455272e-05 -1.5006248909593435e-05 0 9.3474965368706245e-06 -1.664527012134271e-05 0 1.2858203466866871e-05 -1.8967378881217321e-05 0 1.0904593719455272e-05 -1.5006248909593435e-05 0 1.0948874719724307e-05 -1.2263117608264567e-05 0 8.5616672282684635e-06 -1.3484032251462228e-05 0 1.0904593719455272e-05 -1.5006248909593435e-05 0 1.4543191801655636e-05 -1.5309184554861043e-05 0 1.0948874719724307e-05 -1.2263117608264567e-05 0 1.3284936724420624e-05 -1.2221498483951135e-05 0 1.0336210081365116e-05 -8.3301855448701921e-06 0 1.0948874719724307e-05 -1.2263117608264567e-05 0 8.8767621724857597e-06 -1.0721007383809972e-05 0 8.5616672282684635e-06 -1.3484032251462228e-05 0 1.0948874719724307e-05 -1.2263117608264567e-05 0 8.8767621724857597e-06 -1.0721007383809972e-05 0 1.0948874719724307e-05 -1.2263117608264567e-05 0 1.0336210081365116e-05 -8.3301855448701921e-06 0 8.8767621724857597e-06 -1.0721007383809972e-05 0 1.0336210081365116e-05 -8.3301855448701921e-06 0 7.7808058158829502e-06 -8.2038392011302511e-06 0 1.3284936724420624e-05 -1.2221498483951135e-05 0 1.3605731009809896e-05 -9.2623345577210793e-06 0 1.0336210081365116e-05 -8.3301855448701921e-06 0 1.6270047402040065e-05 -1.0155758011030568e-05 0 1.3605731009809896e-05 -9.2623345577210793e-06 0 1.598371444544043e-05 -1.2496641723645795e-05 0 1.3284936724420624e-05 -1.2221498483951135e-05 0 1.598371444544043e-05 -1.2496641723645795e-05 0 1.3605731009809896e-05 -9.2623345577210793e-06 0 -4.6897164977954951e-05 4.9122624644691984e-05 0 -3.4498081149207343e-05 4.0570005682947439e-05 0 -3.4973770849696898e-05 5.3955627850568872e-05 0 -5.1552226765894057e-05 6.4561721076393657e-05 0 -4.6897164977954951e-05 4.9122624644691984e-05 0 -3.4973770849696898e-05 5.3955627850568872e-05 0 -2.4516944586915884e-05 4.0432001688144025e-05 0 -3.4973770849696898e-05 5.3955627850568872e-05 0 -3.4498081149207343e-05 4.0570005682947439e-05 0 -4.6897164977954951e-05 4.9122624644691984e-05 0 -4.1272328294077369e-05 3.5547218261570266e-05 0 -3.4498081149207343e-05 4.0570005682947439e-05 0 -4.1272328294077369e-05 3.5547218261570266e-05 0 -3.5751907216912024e-05 2.4298700296705838e-05 0 -2.5392195678797256e-05 2.6721122350529014e-05 0 -2.4516944586915884e-05 4.0432001688144025e-05 0 -3.4498081149207343e-05 4.0570005682947439e-05 0 -2.5392195678797256e-05 2.6721122350529014e-05 0 -4.1272328294077369e-05 3.5547218261570266e-05 0 -2.5392195678797256e-05 2.6721122350529014e-05 0 -3.4498081149207343e-05 4.0570005682947439e-05 0 -2.4516944586915884e-05 4.0432001688144025e-05 0 -2.5392195678797256e-05 2.6721122350529014e-05 0 -1.6613734874455699e-05 3.212560041789045e-05 0 -1.2027543484826078e-05 2.0833997218686816e-05 0 -1.6613734874455699e-05 3.212560041789045e-05 0 -2.5392195678797256e-05 2.6721122350529014e-05 0 -7.6122124709051244e-06 3.3926495692130842e-05 0 -1.5982940405766714e-05 4.1523641453773746e-05 0 -1.6613734874455699e-05 3.212560041789045e-05 0 -2.4516944586915884e-05 4.0432001688144025e-05 0 -1.6613734874455699e-05 3.212560041789045e-05 0 -1.5982940405766714e-05 4.1523641453773746e-05 0 -2.4516944586915884e-05 4.0432001688144025e-05 0 -1.598294040576671e-05 4.1523641453773753e-05 0 -2.1550240530209196e-05 5.2552808298832605e-05 0 -2.4516944586915884e-05 4.0432001688144025e-05 0 -2.1550240530209196e-05 5.2552808298832605e-05 0 -3.4973770849696898e-05 5.3955627850568872e-05 0 -9.514656326768213e-06 5.0362791261978766e-05 0 -2.1550240530209196e-05 5.2552808298832605e-05 0 -1.5982940405766714e-05 4.1523641453773746e-05 0 -9.514656326768213e-06 5.0362791261978766e-05 0 2.3710208467623032e-06 4.680944966339573e-05 0 -1.3273742513152338e-06 6.2313712644157998e-05 0 -9.514656326768213e-06 5.0362791261978766e-05 0 -7.6122124709051244e-06 3.3926495692130842e-05 0 2.3710208467623032e-06 4.680944966339573e-05 0 4.5429009136660648e-06 2.9928691826113109e-05 0 2.3710208467623024e-06 4.680944966339573e-05 0 -7.6122124709051244e-06 3.3926495692130842e-05 0 -9.514656326768213e-06 5.0362791261978766e-05 0 -1.5982940405766714e-05 4.1523641453773746e-05 0 -7.6122124709051244e-06 3.3926495692130842e-05 0 -1.2027543484826078e-05 2.0833997218686816e-05 0 -7.6122124709051244e-06 3.3926495692130842e-05 0 -1.6613734874455699e-05 3.212560041789045e-05 0 -1.2027543484826078e-05 2.0833997218686816e-05 0 -2.2632163813486309e-06 2.0253373774224456e-05 0 -7.6122124709051244e-06 3.3926495692130842e-05 0 4.5429009136660648e-06 2.9928691826113109e-05 0 -7.6122124709051244e-06 3.3926495692130842e-05 0 -2.2632163813486305e-06 2.0253373774224459e-05 0 4.5429009136660648e-06 2.9928691826113109e-05 0 -2.2632163813486318e-06 2.0253373774224459e-05 0 4.6129054157715964e-06 1.9210597242650539e-05 0 4.5429009136660648e-06 2.9928691826113109e-05 0 4.6129054157715955e-06 1.9210597242650539e-05 0 1.0801363137321834e-05 1.7598962713605649e-05 0 4.5429009136660648e-06 2.9928691826113109e-05 0 1.0801363137321834e-05 1.7598962713605649e-05 0 1.5512633620492083e-05 3.1473044547298998e-05 0 4.5429009136660648e-06 2.9928691826113109e-05 0 1.5512633620492083e-05 3.1473044547298998e-05 0 1.4542477701266924e-05 4.498747136433047e-05 0 4.5429009136660648e-06 2.9928691826113109e-05 0 1.4542477701266924e-05 4.498747136433047e-05 0 2.3710208467623032e-06 4.680944966339573e-05 0 1.3531609542085075e-05 6.1764788639372814e-05 0 2.3710208467623032e-06 4.680944966339573e-05 0 1.4542477701266924e-05 4.498747136433047e-05 0 1.3531609542085075e-05 6.1764788639372814e-05 0 1.4542477701266924e-05 4.498747136433047e-05 0 2.4254349776610292e-05 5.7111375167701737e-05 0 1.3531609542085075e-05 6.1764788639372814e-05 0 -1.3273742513152348e-06 6.2313712644157998e-05 0 2.3710208467623032e-06 4.680944966339573e-05 0 1.3531609542085075e-05 6.1764788639372814e-05 0 7.3864014929342596e-06 7.2948068167790647e-05 0 -1.3273742513152338e-06 6.2313712644157998e-05 0 1.3531609542085075e-05 6.1764788639372814e-05 0 2.1612491702355036e-05 7.7266358751888875e-05 0 7.3864014929342596e-06 7.2948068167790647e-05 0 1.3531609542085075e-05 6.1764788639372814e-05 0 2.6917713236953981e-05 6.7835870214303967e-05 0 2.1612491702355036e-05 7.7266358751888875e-05 0 2.1612491702355036e-05 7.7266358751888875e-05 0 2.7591218294219368e-05 8.9386896819494888e-05 0 9.7055392808182125e-06 8.9169129905578603e-05 0 2.7591218294219368e-05 8.9386896819494888e-05 0 2.4518824744039865e-05 0.00010196222859967827 0 9.7055392808182125e-06 8.9169129905578603e-05 0 9.7055392808182125e-06 8.9169129905578603e-05 0 7.3864014929342596e-06 7.2948068167790647e-05 0 2.1612491702355036e-05 7.7266358751888875e-05 0 9.7055392808182125e-06 8.9169129905578603e-05 0 -6.1559794650213702e-06 7.5119231317964495e-05 0 7.3864014929342596e-06 7.2948068167790647e-05 0 9.7055392808182125e-06 8.9169129905578603e-05 0 -8.8956205277914096e-06 9.0548640422090767e-05 0 -6.1559794650213702e-06 7.5119231317964495e-05 0 9.7055392808182125e-06 8.9169129905578603e-05 0 -5.0846747406749074e-06 0.00010594779183587676 0 -8.8956205277914096e-06 9.0548640422090767e-05 0 -2.1427943241087348e-05 8.9229976948930156e-05 0 -6.155979465021371e-06 7.5119231317964482e-05 0 -8.8956205277914096e-06 9.0548640422090767e-05 0 -2.1427943241087348e-05 8.9229976948930156e-05 0 -1.6367962638017999e-05 6.7207250750562196e-05 0 -6.1559794650213702e-06 7.5119231317964495e-05 0 -6.1559794650213702e-06 7.5119231317964495e-05 0 -1.6367962638017999e-05 6.7207250750562196e-05 0 -1.3273742513152338e-06 6.2313712644157998e-05 0 -6.1559794650213702e-06 7.5119231317964495e-05 0 -1.3273742513152338e-06 6.2313712644157998e-05 0 7.3864014929342596e-06 7.2948068167790647e-05 0 -9.514656326768213e-06 5.0362791261978766e-05 0 -1.3273742513152338e-06 6.2313712644157998e-05 0 -1.6367962638017999e-05 6.7207250750562196e-05 0 -9.514656326768213e-06 5.0362791261978766e-05 0 -1.6367962638017999e-05 6.7207250750562196e-05 0 -2.1550240530209196e-05 5.2552808298832605e-05 0 -2.8280295398407788e-05 6.4663972696501443e-05 0 -2.1550240530209196e-05 5.2552808298832605e-05 0 -1.6367962638017999e-05 6.7207250750562196e-05 0 -2.8280295398407788e-05 6.4663972696501443e-05 0 -3.4973770849696898e-05 5.3955627850568872e-05 0 -2.1550240530209196e-05 5.2552808298832605e-05 0 -2.8280295398407788e-05 6.4663972696501443e-05 0 -2.9171459590867285e-05 7.668245475402748e-05 0 -4.0658225835645699e-05 7.378134200068449e-05 0 -2.8280295398407788e-05 6.4663972696501443e-05 0 -1.6367962638017999e-05 6.7207250750562196e-05 0 -2.9171459590867285e-05 7.668245475402748e-05 0 -2.1427943241087348e-05 8.9229976948930156e-05 0 -2.9171459590867288e-05 7.6682454754027494e-05 0 -1.6367962638017999e-05 6.7207250750562196e-05 0 -2.1427943241087348e-05 8.9229976948930156e-05 0 -8.8956205277914096e-06 9.0548640422090767e-05 0 -2.0263398919681101e-05 0.00010598407393686804 0 -2.1427943241087348e-05 8.9229976948930156e-05 0 -3.1977721579941227e-05 0.00010170610771927587 0 -3.9707633676249241e-05 8.9800641415572241e-05 0 -2.1427943241087348e-05 8.9229976948930156e-05 0 -3.9707633676249241e-05 8.9800641415572241e-05 0 -2.9171459590867285e-05 7.668245475402748e-05 0 -3.9707633676249241e-05 8.9800641415572241e-05 0 -4.0658225835645699e-05 7.378134200068449e-05 0 -2.9171459590867285e-05 7.668245475402748e-05 0 -5.8693477464178311e-05 9.9982191138638519e-05 0 -5.5601011269930463e-05 8.1685682242550256e-05 0 -3.9707633676249241e-05 8.9800641415572241e-05 0 -5.8693477464178311e-05 9.9982191138638519e-05 0 -3.9707633676249241e-05 8.9800641415572241e-05 0 -4.4838499296805242e-05 0.00010729275086229331 0 -5.5601011269930463e-05 8.1685682242550256e-05 0 -4.0658225835645699e-05 7.378134200068449e-05 0 -3.9707633676249241e-05 8.9800641415572241e-05 0 -5.5601011269930463e-05 8.1685682242550256e-05 0 -5.1552226765894057e-05 6.4561721076393657e-05 0 -4.0658225835645699e-05 7.378134200068449e-05 0 -2.8280295398407788e-05 6.4663972696501443e-05 0 -4.0658225835645699e-05 7.378134200068449e-05 0 -3.4973770849696898e-05 5.3955627850568872e-05 0 -5.1552226765894057e-05 6.4561721076393657e-05 0 -3.4973770849696898e-05 5.3955627850568872e-05 0 -4.0658225835645699e-05 7.378134200068449e-05 0 -6.2792354477487014e-05 0.00013910291155273404 0 -3.8138777641799566e-05 0.00013940662333248007 0 -4.5711050644045926e-05 0.0001588408300888784 0 -6.2792354477487014e-05 0.00013910291155273404 0 -4.7738204571115069e-05 0.00012468320298441001 0 -3.8138777641799566e-05 0.00013940662333248007 0 -3.393043504254458e-05 0.00011719858466348807 0 -3.8138777641799566e-05 0.00013940662333248007 0 -4.7738204571115076e-05 0.00012468320298441001 0 -6.2792354477487014e-05 0.00013910291155273404 0 -6.1152526930249651e-05 0.00011920756746505215 0 -4.7738204571115076e-05 0.00012468320298441001 0 -6.1152526930249651e-05 0.00011920756746505215 0 -4.4838499296805242e-05 0.00010729275086229331 0 -4.7738204571115076e-05 0.00012468320298441001 0 -6.1152526930249651e-05 0.00011920756746505215 0 -5.8693477464178311e-05 9.9982191138638519e-05 0 -4.4838499296805242e-05 0.00010729275086229331 0 -3.9707633676249241e-05 8.9800641415572241e-05 0 -3.1977721579941227e-05 0.00010170610771927587 0 -4.4838499296805242e-05 0.00010729275086229331 0 -3.393043504254458e-05 0.00011719858466348807 0 -4.7738204571115076e-05 0.00012468320298441001 0 -4.4838499296805242e-05 0.00010729275086229331 0 -3.393043504254458e-05 0.00011719858466348807 0 -3.1977721579941227e-05 0.00010170610771927587 0 -2.0263398919681101e-05 0.00010598407393686804 0 -3.393043504254458e-05 0.00011719858466348807 0 -4.4838499296805242e-05 0.00010729275086229331 0 -3.1977721579941227e-05 0.00010170610771927587 0 -2.1427943241087348e-05 8.9229976948930156e-05 0 -2.0263398919681101e-05 0.00010598407393686804 0 -3.1977721579941227e-05 0.00010170610771927587 0 -3.393043504254458e-05 0.00011719858466348807 0 -2.0263398919681101e-05 0.00010598407393686804 0 -2.0481456428109283e-05 0.00012294207349958342 0 -3.8138777641799566e-05 0.00013940662333248007 0 -2.0481456428109283e-05 0.00012294207349958342 0 -1.9665265210202465e-05 0.00014109450886033215 0 -3.393043504254458e-05 0.00011719858466348807 0 -2.0481456428109283e-05 0.00012294207349958342 0 -3.8138777641799566e-05 0.00013940662333248007 0 -2.6949139886380835e-05 0.00016089839071439926 0 -3.8138777641799566e-05 0.00013940662333248007 0 -1.9665265210202465e-05 0.00014109450886033215 0 -7.0154722905316073e-06 0.00012922044155963034 0 -5.6846543791988602e-06 0.00015146932170004046 0 -1.9665265210202465e-05 0.00014109450886033215 0 -7.0154722905316073e-06 0.00012922044155963034 0 8.1480846044826017e-06 0.00013762488210581852 0 -5.6846543791988636e-06 0.00015146932170004046 0 -7.0154722905316073e-06 0.00012922044155963034 0 4.5874129834426947e-06 0.00011848528442718889 0 8.1480846044826017e-06 0.00013762488210581852 0 -7.0154722905316073e-06 0.00012922044155963034 0 -1.9665265210202465e-05 0.00014109450886033215 0 -2.0481456428109283e-05 0.00012294207349958342 0 -5.0846747406749074e-06 0.00010594779183587676 0 -2.0481456428109283e-05 0.00012294207349958342 0 -2.0263398919681101e-05 0.00010598407393686804 0 -7.0154722905316073e-06 0.00012922044155963034 0 -2.0481456428109283e-05 0.00012294207349958342 0 -5.0846747406749074e-06 0.00010594779183587676 0 -5.0846747406749074e-06 0.00010594779183587676 0 -2.0263398919681101e-05 0.00010598407393686804 0 -8.8956205277914096e-06 9.0548640422090767e-05 0 -5.0846747406749074e-06 0.00010594779183587676 0 1.0460044496734391e-05 0.0001068790775759867 0 4.5874129834426964e-06 0.00011848528442718889 0 -7.0154722905316073e-06 0.00012922044155963034 0 -5.0846747406749091e-06 0.00010594779183587676 0 4.5874129834426964e-06 0.00011848528442718889 0 1.8963582327979302e-05 0.00011908050722126012 0 4.5874129834426964e-06 0.00011848528442718889 0 1.0460044496734391e-05 0.0001068790775759867 0 9.7055392808182125e-06 8.9169129905578603e-05 0 2.4518824744039865e-05 0.00010196222859967827 0 1.0460044496734391e-05 0.0001068790775759867 0 9.7055392808182125e-06 8.9169129905578603e-05 0 1.0460044496734391e-05 0.0001068790775759867 0 -5.0846747406749074e-06 0.00010594779183587676 0 1.8963582327979302e-05 0.00011908050722126012 0 1.0460044496734391e-05 0.0001068790775759867 0 2.4518824744039865e-05 0.00010196222859967827 0 1.8963582327979302e-05 0.00011908050722126012 0 2.4518824744039865e-05 0.00010196222859967827 0 3.3317841002617955e-05 0.00011243607879134505 0 1.8963582327979302e-05 0.00011908050722126012 0 2.5984120075289925e-05 0.00014085373770657627 0 8.1480846044826017e-06 0.00013762488210581852 0 1.8963582327979302e-05 0.00011908050722126012 0 3.3699556404693102e-05 0.00012563793333482092 0 2.5984120075289925e-05 0.00014085373770657627 0 1.8963582327979302e-05 0.00011908050722126012 0 8.1480846044826017e-06 0.00013762488210581852 0 4.5874129834426964e-06 0.00011848528442718889 0 1.3890510150186832e-05 0.00016105159177439473 0 8.1480846044826017e-06 0.00013762488210581852 0 2.5984120075289925e-05 0.00014085373770657627 0 1.3890510150186832e-05 0.00016105159177439473 0 2.5984120075289925e-05 0.00014085373770657627 0 3.3604898772546742e-05 0.00015985383158098731 0 1.3890510150186832e-05 0.00016105159177439473 0 3.1297235125194883e-05 0.00017892011902712502 0 1.172086755471509e-05 0.00018272120845424413 0 1.3890510150186832e-05 0.00016105159177439473 0 3.3604898772546749e-05 0.00015985383158098731 0 3.129723512519489e-05 0.00017892011902712502 0 3.129723512519489e-05 0.00017892011902712502 0 2.4446191293733261e-05 0.00019196477161279545 0 1.172086755471509e-05 0.00018272120845424413 0 3.129723512519489e-05 0.00017892011902712502 0 4.2622078872185651e-05 0.00019106969670162015 0 2.4446191293733261e-05 0.00019196477161279545 0 3.6763352190551293e-05 0.00020400152542348222 0 2.4446191293733261e-05 0.00019196477161279545 0 4.2622078872185651e-05 0.00019106969670162015 0 3.6763352190551293e-05 0.00020400152542348222 0 1.4481082978891461e-05 0.00020237460723887218 0 2.4446191293733261e-05 0.00019196477161279545 0 1.4481082978891461e-05 0.00020237460723887218 0 1.172086755471509e-05 0.00018272120845424413 0 2.4446191293733261e-05 0.00019196477161279545 0 -5.7961508094720314e-06 0.0002008635998339558 0 -2.3750037494728887e-05 0.00018144220743417452 0 -6.4414637684462728e-06 0.00017488739963730289 0 -5.7961508094720314e-06 0.0002008635998339558 0 -6.4414637684462728e-06 0.00017488739963730289 0 1.172086755471509e-05 0.00018272120845424413 0 1.4481082978891461e-05 0.00020237460723887218 0 -5.7961508094720314e-06 0.0002008635998339558 0 1.172086755471509e-05 0.00018272120845424413 0 -2.6949139886380835e-05 0.00016089839071439926 0 -5.6846543791988636e-06 0.00015146932170004046 0 -6.4414637684462728e-06 0.00017488739963730289 0 1.3890510150186832e-05 0.00016105159177439473 0 1.172086755471509e-05 0.00018272120845424413 0 -6.4414637684462728e-06 0.00017488739963730289 0 1.3890510150186832e-05 0.00016105159177439473 0 -6.4414637684462728e-06 0.00017488739963730289 0 -5.6846543791988636e-06 0.00015146932170004046 0 1.3890510150186832e-05 0.00016105159177439473 0 -5.6846543791988636e-06 0.00015146932170004046 0 8.1480846044826017e-06 0.00013762488210581852 0 -2.6949139886380835e-05 0.00016089839071439926 0 -1.9665265210202465e-05 0.00014109450886033215 0 -5.6846543791988636e-06 0.00015146932170004046 0 -2.6949139886380835e-05 0.00016089839071439926 0 -4.5711050644045926e-05 0.0001588408300888784 0 -3.8138777641799566e-05 0.00013940662333248007 0 -2.6949139886380835e-05 0.00016089839071439926 0 -2.3750037494728881e-05 0.00018144220743417452 0 -4.2167025895592634e-05 0.00017712896631758219 0 -2.6949139886380835e-05 0.00016089839071439926 0 -4.2167025895592634e-05 0.00017712896631758219 0 -4.5711050644045926e-05 0.0001588408300888784 0 -2.6949139886380835e-05 0.00016089839071439926 0 -6.4414637684462694e-06 0.00017488739963730286 0 -2.3750037494728881e-05 0.00018144220743417452 0 -5.7961508094720314e-06 0.0002008635998339558 0 -2.5059151497631004e-05 0.00019991937325895961 0 -2.3750037494728881e-05 0.00018144220743417452 0 -2.5059151497631004e-05 0.00019991937325895961 0 -4.4547907463033454e-05 0.00019947704493942169 0 -3.4862751577132248e-05 0.00018943183653845317 0 -2.5059151497631004e-05 0.00019991937325895961 0 -3.4862751577132248e-05 0.00018943183653845317 0 -2.3750037494728881e-05 0.00018144220743417452 0 -4.2167025895592634e-05 0.00017712896631758219 0 -2.3750037494728881e-05 0.00018144220743417452 0 -3.4862751577132248e-05 0.00018943183653845317 0 -4.2167025895592634e-05 0.00017712896631758219 0 -3.4862751577132248e-05 0.00018943183653845317 0 -5.1071592588391835e-05 0.00018823606835524539 0 -4.4547907463033454e-05 0.00019947704493942169 0 -5.1071592588391835e-05 0.00018823606835524539 0 -3.4862751577132248e-05 0.00018943183653845317 0 -6.4183815609930022e-05 0.00019944039948696239 0 -5.1071592588391835e-05 0.00018823606835524539 0 -4.4547907463033454e-05 0.00019947704493942169 0 -6.4183815609930022e-05 0.00019944039948696239 0 -6.4139637489013309e-05 0.00017960870101292934 0 -5.1071592588391835e-05 0.00018823606835524539 0 -6.4139637489013309e-05 0.00017960870101292934 0 -4.2167025895592634e-05 0.00017712896631758219 0 -5.1071592588391835e-05 0.00018823606835524539 0 -6.4139637489013309e-05 0.00017960870101292934 0 -6.3725860235796161e-05 0.00015944497210353405 0 -4.5711050644045926e-05 0.0001588408300888784 0 -6.4139637489013309e-05 0.00017960870101292934 0 -4.5711050644045926e-05 0.0001588408300888784 0 -4.2167025895592634e-05 0.00017712896631758219 0 -6.3725860235796161e-05 0.00015944497210353405 0 -6.2792354477487014e-05 0.00013910291155273404 0 -4.5711050644045926e-05 0.0001588408300888784 0 1.6107147189804392e-05 -2.6577641514820618e-05 0 1.7136624740457361e-05 -2.2454107975878857e-05 0 1.3958695772965795e-05 -2.318484062411488e-05 0 2.0850401243115043e-05 -2.4119671980917478e-05 0 1.7136624740457361e-05 -2.2454107975878857e-05 0 1.9892223784970364e-05 -2.7053458575501757e-05 0 2.0850401243115043e-05 -2.4119671980917478e-05 0 1.96032970892121e-05 -2.1036857632249137e-05 0 1.7136624740457361e-05 -2.2454107975878857e-05 0 1.6107147189804392e-05 -2.6577641514820618e-05 0 1.9892223784970364e-05 -2.7053458575501757e-05 0 1.7136624740457361e-05 -2.2454107975878857e-05 0 1.6107147189804392e-05 -2.6577641514820618e-05 0 1.3958695772965795e-05 -2.318484062411488e-05 0 1.2134865483468546e-05 -2.6006351716314057e-05 0 1.3958695772965795e-05 -2.318484062411488e-05 0 1.1196952941560317e-05 -2.196198367998791e-05 0 1.2134865483468546e-05 -2.6006351716314057e-05 0 9.9372090846557744e-06 -2.4145684396448253e-05 0 1.2134865483468546e-05 -2.6006351716314057e-05 0 1.1196952941560317e-05 -2.196198367998791e-05 0 1.3958695772965795e-05 -2.318484062411488e-05 0 1.2858203466866871e-05 -1.8967378881217321e-05 0 1.1196952941560317e-05 -2.196198367998791e-05 0 1.0142116371870594e-05 -1.9408432682394645e-05 0 1.1196952941560317e-05 -2.196198367998791e-05 0 1.2858203466866871e-05 -1.8967378881217321e-05 0 1.0142116371870594e-05 -1.9408432682394645e-05 0 1.2858203466866871e-05 -1.8967378881217321e-05 0 9.3474965368706245e-06 -1.664527012134271e-05 0 1.6419537310513485e-05 -1.9208548864964976e-05 0 1.4543191801655636e-05 -1.5309184554861043e-05 0 1.2858203466866871e-05 -1.8967378881217321e-05 0 1.7136624740457361e-05 -2.2454107975878857e-05 0 1.6419537310513485e-05 -1.9208548864964976e-05 0 1.2858203466866871e-05 -1.8967378881217321e-05 0 1.3958695772965795e-05 -2.318484062411488e-05 0 1.7136624740457361e-05 -2.2454107975878857e-05 0 1.2858203466866871e-05 -1.8967378881217321e-05 0 1.6419537310513485e-05 -1.9208548864964976e-05 0 1.7136624740457361e-05 -2.2454107975878857e-05 0 1.96032970892121e-05 -2.1036857632249137e-05 0 1.6419537310513485e-05 -1.9208548864964976e-05 0 1.96032970892121e-05 -2.1036857632249137e-05 0 1.8457870132089682e-05 -1.7526619843167263e-05 0 2.2005377389195859e-05 -1.8864916590783837e-05 0 1.8457870132089682e-05 -1.7526619843167263e-05 0 1.96032970892121e-05 -2.1036857632249137e-05 0 2.3829310363186972e-05 -1.6114111566004728e-05 0 2.099936481328117e-05 -1.543294877094e-05 0 2.2005377389195859e-05 -1.8864916590783837e-05 0 2.5559718074502177e-05 -1.9477999077262405e-05 0 2.2005377389195859e-05 -1.8864916590783837e-05 0 2.3746696872336965e-05 -2.2576034098752395e-05 0 2.2005377389195859e-05 -1.8864916590783837e-05 0 1.96032970892121e-05 -2.1036857632249137e-05 0 2.3746696872336965e-05 -2.2576034098752395e-05 0 4.3078923435830992e-05 9.796860942987181e-05 0 3.3317841002617955e-05 0.00011243607879134505 0 2.4518824744039865e-05 0.00010196222859967827 0 4.3078923435830992e-05 9.796860942987181e-05 0 4.6200201055115331e-05 0.00011702903427026735 0 3.3317841002617955e-05 0.00011243607879134505 0 2.3829310363186972e-05 -1.6114111566004728e-05 0 2.2005377389195859e-05 -1.8864916590783837e-05 0 2.5559718074502177e-05 -1.9477999077262405e-05 0 3.3164947636251251e-05 4.0723650107399537e-05 0 3.5571271964222459e-05 4.9392608172969143e-05 0 1.8963582327979302e-05 0.00011908050722126012 0 3.3317841002617955e-05 0.00011243607879134505 0 3.3699556404693102e-05 0.00012563793333482092 0 4.6200201055115331e-05 0.00011702903427026735 0 3.3699556404693102e-05 0.00012563793333482092 0 3.3317841002617955e-05 0.00011243607879134505 0 4.912658229973369e-05 0.00013738114033062557 0 2.5984120075289925e-05 0.00014085373770657627 0 3.3699556404693102e-05 0.00012563793333482092 0 3.5571271964222459e-05 4.9392608172969143e-05 0 3.7228711770215212e-05 5.5614810440177194e-05 0 2.5559718074502177e-05 -1.9477999077262405e-05 0 2.3746696872336965e-05 -2.2576034098752395e-05 0 2.774702932592725e-05 -2.351150274196123e-05 0 4.6200201055115331e-05 0.00011702903427026735 0 4.912658229973369e-05 0.00013738114033062557 0 3.3699556404693102e-05 0.00012563793333482092 0 3.7228711770215212e-05 5.5614810440177194e-05 0 4.2369998734354062e-05 6.7134882974079376e-05 0 4.912658229973369e-05 0.00013738114033062557 0 3.3604898772546742e-05 0.00015985383158098731 0 2.5984120075289925e-05 0.00014085373770657627 0 2.0850401243115043e-05 -2.4119671980917478e-05 0 2.3746696872336965e-05 -2.2576034098752395e-05 0 1.96032970892121e-05 -2.1036857632249137e-05 0 2.774702932592725e-05 -2.351150274196123e-05 0 2.3746696872336965e-05 -2.2576034098752395e-05 0 2.4617820143145032e-05 -2.7511924497437726e-05 0 2.0850401243115043e-05 -2.4119671980917478e-05 0 1.9892223784970364e-05 -2.7053458575501757e-05 0 2.4617820143145032e-05 -2.7511924497437726e-05 0 2.0850401243115043e-05 -2.4119671980917478e-05 0 2.4617820143145032e-05 -2.7511924497437726e-05 0 2.3746696872336965e-05 -2.2576034098752395e-05 0 2.3088790125714784e-05 -3.1724400093810821e-05 0 2.7898892022614448e-05 -3.2017063502016832e-05 0 2.4617820143145032e-05 -2.7511924497437726e-05 0 2.3088790125714784e-05 -3.1724400093810821e-05 0 2.4617820143145032e-05 -2.7511924497437726e-05 0 1.9892223784970364e-05 -2.7053458575501757e-05 0 2.774702932592725e-05 -2.351150274196123e-05 0 2.4617820143145032e-05 -2.7511924497437726e-05 0 3.0660780023583228e-05 -2.8261259520720289e-05 0 3.0660780023583228e-05 -2.8261259520720289e-05 0 2.4617820143145032e-05 -2.7511924497437726e-05 0 2.7898892022614448e-05 -3.2017063502016832e-05 0 2.3088790125714784e-05 -3.1724400093810821e-05 0 2.8568726673146869e-05 -3.6975711154569184e-05 0 2.7898892022614448e-05 -3.2017063502016832e-05 0 4.912658229973369e-05 0.00013738114033062557 0 5.2111614880005327e-05 0.00015813685869580215 0 3.3604898772546742e-05 0.00015985383158098731 0 4.2369998734354062e-05 6.7134882974079376e-05 0 3.6243225344898867e-05 7.0454166522921917e-05 0 3.0660780023583228e-05 -2.8261259520720289e-05 0 2.7898892022614448e-05 -3.2017063502016832e-05 0 3.4559243088565911e-05 -3.4496444496551609e-05 0 5.2111614880005327e-05 0.00015813685869580215 0 5.5520122817116676e-05 0.00018014656390360218 0 3.3604898772546742e-05 0.00015985383158098731 0 5.5520122817116676e-05 0.00018014656390360218 0 3.1297235125194883e-05 0.00017892011902712499 0 3.3604898772546742e-05 0.00015985383158098731 0 5.5520122817116676e-05 0.00018014656390360218 0 4.2622078872185651e-05 0.00019106969670162015 0 3.129723512519489e-05 0.00017892011902712502 0 3.6243225344898867e-05 7.0454166522921917e-05 0 7.6313566807685178e-05 8.2288156641139115e-05 0 6.0697548740688439e-05 0.00020299133222367527 0 4.2622078872185651e-05 0.00019106969670162015 0 5.5520122817116676e-05 0.00018014656390360218 0 6.0697548740688439e-05 0.00020299133222367527 0 3.6763352190551293e-05 0.00020400152542348222 0 4.2622078872185651e-05 0.00019106969670162015 0 2.3088790125714784e-05 -3.1724400093810821e-05 0 2.0733858860589364e-05 -3.5860021982422093e-05 0 2.8568726673146869e-05 -3.6975711154569184e-05 0 3.4559243088565911e-05 -3.4496444496551609e-05 0 2.7898892022614448e-05 -3.2017063502016832e-05 0 2.8568726673146869e-05 -3.6975711154569184e-05 0 3.9439199703320571e-05 -4.2605565347797903e-05 0 3.4559243088565911e-05 -3.4496444496551609e-05 0 2.8568726673146869e-05 -3.6975711154569184e-05 0 3.9439199703320571e-05 -4.2605565347797903e-05 0 2.8568726673146869e-05 -3.6975711154569184e-05 0 2.9818497578889094e-05 -4.3197236485223704e-05 0 2.9818497578889094e-05 -4.3197236485223704e-05 0 2.8568726673146869e-05 -3.6975711154569184e-05 0 2.0733858860589364e-05 -3.5860021982422093e-05 0 1.6432895990666163e-05 -3.8031146345566974e-05 0 2.0733858860589364e-05 -3.5860021982422093e-05 0 1.6106386979912024e-05 -3.2351024702776312e-05 0 2.2315975502633538e-05 -4.106153980491315e-05 0 2.9818497578889094e-05 -4.3197236485223704e-05 0 2.0733858860589364e-05 -3.5860021982422093e-05 0 1.6432895990666163e-05 -3.8031146345566974e-05 0 2.2315975502633538e-05 -4.106153980491315e-05 0 2.0733858860589364e-05 -3.5860021982422093e-05 0 2.3088790125714784e-05 -3.1724400093810821e-05 0 1.8242410155083707e-05 -3.0506262907024336e-05 0 2.0733858860589364e-05 -3.5860021982422093e-05 0 1.6106386979912024e-05 -3.2351024702776312e-05 0 2.0733858860589364e-05 -3.5860021982422093e-05 0 1.8242410155083707e-05 -3.0506262907024336e-05 0 1.6107147189804392e-05 -2.6577641514820618e-05 0 1.372560136730019e-05 -2.9346511708049529e-05 0 1.8242410155083707e-05 -3.0506262907024336e-05 0 1.6107147189804392e-05 -2.6577641514820618e-05 0 1.8242410155083707e-05 -3.0506262907024336e-05 0 1.9892223784970364e-05 -2.7053458575501757e-05 0 2.3088790125714784e-05 -3.1724400093810821e-05 0 1.9892223784970364e-05 -2.7053458575501757e-05 0 1.8242410155083707e-05 -3.0506262907024336e-05 0 1.1078496824586403e-05 -2.9114716422453594e-05 0 1.372560136730019e-05 -2.9346511708049529e-05 0 1.2134865483468546e-05 -2.6006351716314057e-05 0 1.6107147189804392e-05 -2.6577641514820618e-05 0 1.2134865483468546e-05 -2.6006351716314057e-05 0 1.372560136730019e-05 -2.9346511708049529e-05 0 1.6106386979912024e-05 -3.2351024702776312e-05 0 1.372560136730019e-05 -2.9346511708049529e-05 0 1.2943131024073494e-05 -3.261421917061564e-05 0 1.6106386979912024e-05 -3.2351024702776312e-05 0 1.8242410155083707e-05 -3.0506262907024336e-05 0 1.372560136730019e-05 -2.9346511708049529e-05 0 1.1078496824586403e-05 -2.9114716422453594e-05 0 1.2943131024073494e-05 -3.261421917061564e-05 0 1.372560136730019e-05 -2.9346511708049529e-05 0 1.6432895990666163e-05 -3.8031146345566974e-05 0 1.6106386979912024e-05 -3.2351024702776312e-05 0 1.2943131024073494e-05 -3.261421917061564e-05 0 1.2538093723398089e-05 -3.5001506960279128e-05 0 1.6432895990666163e-05 -3.8031146345566974e-05 0 1.2943131024073494e-05 -3.261421917061564e-05 0 1.2538093723398089e-05 -3.5001506960279128e-05 0 1.2943131024073494e-05 -3.261421917061564e-05 0 1.0706812413335329e-05 -3.1613836584310673e-05 0 9.7566611584940498e-06 -3.2015640600565877e-05 0 1.2538093723398091e-05 -3.5001506960279128e-05 0 1.0706812413335329e-05 -3.1613836584310673e-05 0 9.7566611584940498e-06 -3.2015640600565877e-05 0 1.0706812413335329e-05 -3.1613836584310673e-05 0 8.5309019382386303e-06 -2.9045273776003425e-05 0 1.1078496824586403e-05 -2.9114716422453594e-05 0 8.5309019382386303e-06 -2.9045273776003425e-05 0 1.0706812413335329e-05 -3.1613836584310673e-05 0 1.1078496824586403e-05 -2.9114716422453594e-05 0 1.0706812413335329e-05 -3.1613836584310673e-05 0 1.2943131024073494e-05 -3.261421917061564e-05 0 8.6959983743096961e-06 -2.722872574175856e-05 0 8.6504612079118784e-06 -2.927215138844049e-05 0 7.4080963122359118e-06 -2.8505145545503461e-05 0 8.6504612079118784e-06 -2.927215138844049e-05 0 9.7566611584940498e-06 -3.2015640600565877e-05 0 7.4080963122359118e-06 -2.8505145545503461e-05 0 9.7566611584940498e-06 -3.2015640600565877e-05 0 8.5309019382386303e-06 -2.9045273776003425e-05 0 7.4080963122359118e-06 -2.8505145545503461e-05 0 6.0058274933910224e-06 -2.672889183550989e-05 0 7.4080963122359118e-06 -2.8505145545503461e-05 0 6.970202104373731e-06 -2.6865708315704112e-05 0 8.5309019382386303e-06 -2.9045273776003425e-05 0 6.9702021043737302e-06 -2.6865708315704112e-05 0 7.4080963122359118e-06 -2.8505145545503461e-05 0 6.970202104373731e-06 -2.6865708315704112e-05 0 8.803447286344136e-06 -2.6462442936387101e-05 0 6.9617977311888141e-06 -2.4779590592928415e-05 0 6.9617977311888141e-06 -2.4779590592928415e-05 0 5.5630273304534563e-06 -2.4841945160159195e-05 0 6.970202104373731e-06 -2.6865708315704112e-05 0 6.0058274933910224e-06 -2.672889183550989e-05 0 6.970202104373731e-06 -2.6865708315704112e-05 0 5.5630273304534563e-06 -2.4841945160159195e-05 0 1.1078496824586403e-05 -2.9114716422453594e-05 0 8.803447286344136e-06 -2.6462442936387101e-05 0 8.5309019382386303e-06 -2.9045273776003425e-05 0 8.5309019382386303e-06 -2.9045273776003425e-05 0 8.803447286344136e-06 -2.6462442936387101e-05 0 6.970202104373731e-06 -2.6865708315704112e-05 0 1.1078496824586403e-05 -2.9114716422453594e-05 0 1.2134865483468546e-05 -2.6006351716314057e-05 0 8.803447286344136e-06 -2.6462442936387101e-05 0 9.9372090846557744e-06 -2.4145684396448253e-05 0 8.803447286344136e-06 -2.6462442936387101e-05 0 1.2134865483468546e-05 -2.6006351716314057e-05 0 9.9372090846557744e-06 -2.4145684396448253e-05 0 1.1196952941560317e-05 -2.196198367998791e-05 0 9.0169878314255602e-06 -2.1810838770499399e-05 0 9.9372090846557744e-06 -2.4145684396448253e-05 0 9.0169878314255602e-06 -2.1810838770499399e-05 0 8.2058740591348405e-06 -2.4056970065181254e-05 0 7.1442324451346825e-06 -2.2112366556599358e-05 0 8.2058740591348405e-06 -2.4056970065181254e-05 0 9.0169878314255602e-06 -2.1810838770499399e-05 0 9.9372090846557744e-06 -2.4145684396448253e-05 0 8.2058740591348405e-06 -2.4056970065181254e-05 0 8.803447286344136e-06 -2.6462442936387101e-05 0 6.9617977311888141e-06 -2.4779590592928415e-05 0 8.2058740591348405e-06 -2.4056970065181254e-05 0 7.1442324451346825e-06 -2.2112366556599358e-05 0 6.9617977311888141e-06 -2.4779590592928415e-05 0 8.803447286344136e-06 -2.6462442936387101e-05 0 8.2058740591348405e-06 -2.4056970065181254e-05 0 6.9617977311888141e-06 -2.4779590592928415e-05 0 5.4811014233980721e-06 -2.1687515243805067e-05 0 5.5630273304534563e-06 -2.4841945160159195e-05 0 4.4957656147609085e-06 -2.3088346950806301e-05 0 5.5630273304534563e-06 -2.4841945160159195e-05 0 5.4811014233980721e-06 -2.1687515243805067e-05 0 6.9617977311888141e-06 -2.4779590592928415e-05 0 7.1442324451346825e-06 -2.2112366556599358e-05 0 5.4811014233980721e-06 -2.1687515243805067e-05 0 5.4875100741583125e-06 -1.9115789319392154e-05 0 7.1442324451346825e-06 -2.2112366556599358e-05 0 7.8655683256646395e-06 -1.9449486366974042e-05 0 5.4875100741583125e-06 -1.9115789319392154e-05 0 5.4811014233980721e-06 -2.1687515243805067e-05 0 7.1442324451346825e-06 -2.2112366556599358e-05 0 5.4875100741583125e-06 -1.9115789319392154e-05 0 3.2410913740599517e-06 -1.9970563729774409e-05 0 5.4811014233980721e-06 -2.1687515243805067e-05 0 5.4875100741583125e-06 -1.9115789319392154e-05 0 7.8655683256646395e-06 -1.9449486366974042e-05 0 7.2376805172177168e-06 -1.6358193686557818e-05 0 7.2376805172177168e-06 -1.6358193686557818e-05 0 7.8655683256646395e-06 -1.9449486366974042e-05 0 9.3474965368706245e-06 -1.664527012134271e-05 0 1.0142116371870594e-05 -1.9408432682394645e-05 0 9.3474965368706245e-06 -1.664527012134271e-05 0 7.8655683256646395e-06 -1.9449486366974042e-05 0 1.0142116371870594e-05 -1.9408432682394645e-05 0 7.8655683256646395e-06 -1.9449486366974042e-05 0 9.0169878314255602e-06 -2.1810838770499399e-05 0 1.0142116371870594e-05 -1.9408432682394645e-05 0 9.0169878314255602e-06 -2.1810838770499399e-05 0 1.1196952941560317e-05 -2.196198367998791e-05 0 7.1442324451346825e-06 -2.2112366556599358e-05 0 9.0169878314255602e-06 -2.1810838770499399e-05 0 7.8655683256646395e-06 -1.9449486366974042e-05 0 1.725510273173309e-05 -5.7207443795029178e-05 0 9.2172523992265056e-06 -5.1876536175210014e-05 0 1.0856933641185824e-05 -6.094792938624522e-05 0 8.1125008103674395e-06 -3.3020965840587059e-05 0 9.2448942948468958e-06 -3.9691762825993727e-05 0 1.568658658026884e-05 -4.7315676864954836e-05 0 9.2172523992265056e-06 -5.1876536175210014e-05 0 1.725510273173309e-05 -5.7207443795029178e-05 0 6.5378683680309342e-07 -1.8742117933171134e-05 0 1.3554633748072712e-06 -2.1992185062563515e-05 0 3.2410913740599517e-06 -1.9970563729774409e-05 0 6.5378683680309342e-07 -1.8742117933171134e-05 0 3.2410913740599517e-06 -1.9970563729774409e-05 0 2.357904481228712e-06 -1.6771034212640166e-05 0 5.4875100741583125e-06 -1.9115789319392154e-05 0 3.985010022546089e-06 -1.7550276458492959e-05 0 3.2410913740599517e-06 -1.9970563729774409e-05 0 3.2410913740599517e-06 -1.9970563729774409e-05 0 3.985010022546089e-06 -1.7550276458492959e-05 0 2.357904481228712e-06 -1.6771034212640166e-05 0 4.4957656147609085e-06 -2.3088346950806301e-05 0 5.4811014233980721e-06 -2.1687515243805067e-05 0 3.2410913740599517e-06 -1.9970563729774409e-05 0 1.3554633748072712e-06 -2.1992185062563515e-05 0 3.0387992018323009e-06 -2.281059676642293e-05 0 3.2410913740599517e-06 -1.9970563729774409e-05 0 4.4957656147609085e-06 -2.3088346950806301e-05 0 3.2410913740599517e-06 -1.9970563729774409e-05 0 3.0387992018323009e-06 -2.281059676642293e-05 0 4.4957656147609085e-06 -2.3088346950806301e-05 0 3.0387992018323009e-06 -2.281059676642293e-05 0 4.3880573072461594e-06 -2.5109324770251128e-05 0 4.4957656147609085e-06 -2.3088346950806301e-05 0 4.3880573072461594e-06 -2.5109324770251128e-05 0 5.5630273304534563e-06 -2.4841945160159195e-05 0 2.5510200157804791e-06 -2.4777550979466208e-05 0 4.3880573072461594e-06 -2.5109324770251128e-05 0 3.0387992018323009e-06 -2.281059676642293e-05 0 2.5510200157804791e-06 -2.4777550979466208e-05 0 4.3944450321894403e-06 -2.6839610237566315e-05 0 4.3880573072461594e-06 -2.5109324770251128e-05 0 1.8766360187615759e-05 -6.7913103250772378e-05 0 1.0856933641185824e-05 -6.094792938624522e-05 0 6.4329104092862131e-06 -6.9127638242400124e-05 0 1.8766360187615759e-05 -6.7913103250772378e-05 0 6.4329104092862122e-06 -6.9127638242400124e-05 0 1.0943470261819137e-05 -7.9687134848926362e-05 0 1.0419669285539714e-05 -4.5988221980800753e-05 0 1.2572585514927498e-05 -5.354863597582739e-05 0 1.3554633748072712e-06 -2.1992185062563515e-05 0 2.5510200157804791e-06 -2.4777550979466208e-05 0 3.0387992018323009e-06 -2.281059676642293e-05 0 1.725510273173309e-05 -5.7207443795029178e-05 0 1.0856933641185824e-05 -6.0947929386245214e-05 0 1.8766360187615759e-05 -6.7913103250772378e-05 0 9.2448942948468958e-06 -3.9691762825993727e-05 0 1.0419669285539714e-05 -4.5988221980800753e-05 0 1.8766360187615759e-05 -6.7913103250772378e-05 0 1.0943470261819137e-05 -7.9687134848926362e-05 0 2.0441010285219121e-05 -7.8976162160026113e-05 0 1.2572585514927498e-05 -5.354863597582739e-05 0 1.3027037893857586e-05 -5.8456128485304133e-05 0 4.3944450321894411e-06 -2.6839610237566315e-05 0 7.0388721317757342e-06 -2.7703267076626022e-05 0 5.5828485162904116e-06 -2.6667732078390893e-05 0 2.0441010285219121e-05 -7.8976162160026113e-05 0 1.0943470261819137e-05 -7.9687134848926362e-05 0 2.2421076967670658e-05 -9.0784984633972613e-05 0 2.2421076967670658e-05 -9.0784984633972613e-05 0 1.0943470261819137e-05 -7.9687134848926362e-05 0 1.0195281819356337e-05 -9.0033633875046605e-05 0 6.0058274933910224e-06 -2.672889183550989e-05 0 5.5630273304534563e-06 -2.4841945160159195e-05 0 4.3880573072461594e-06 -2.5109324770251128e-05 0 6.0058274933910224e-06 -2.672889183550989e-05 0 4.3880573072461594e-06 -2.5109324770251128e-05 0 5.5828485162904116e-06 -2.6667732078390893e-05 0 4.3944450321894411e-06 -2.6839610237566315e-05 0 5.5828485162904116e-06 -2.6667732078390893e-05 0 4.3880573072461594e-06 -2.5109324770251128e-05 0 6.0058274933910224e-06 -2.672889183550989e-05 0 5.5828485162904116e-06 -2.6667732078390893e-05 0 6.9968297634890355e-06 -2.7160528607375714e-05 0 6.0058274933910224e-06 -2.672889183550989e-05 0 6.9968297634890355e-06 -2.7160528607375714e-05 0 7.4080963122359118e-06 -2.8505145545503461e-05 0 7.0388721317757334e-06 -2.7703267076626022e-05 0 6.9968297634890355e-06 -2.7160528607375714e-05 0 5.5828485162904116e-06 -2.6667732078390893e-05 0 1.0398202816863065e-05 -2.7104157887381375e-05 0 6.9968297634890355e-06 -2.7160528607375714e-05 0 7.0388721317757334e-06 -2.7703267076626022e-05 0 1.0398202816863065e-05 -2.7104157887381375e-05 0 8.6959983743096961e-06 -2.722872574175856e-05 0 6.9968297634890355e-06 -2.7160528607375714e-05 0 8.6959983743096961e-06 -2.722872574175856e-05 0 7.4080963122359118e-06 -2.8505145545503461e-05 0 6.9968297634890355e-06 -2.7160528607375714e-05 0 2.2421076967670658e-05 -9.0784984633972613e-05 0 1.0195281819356336e-05 -9.0033633875046605e-05 0 1.6140171600646159e-05 -9.651933298628144e-05 0 1.3027037893857586e-05 -5.8456128485304133e-05 0 2.2769674270144078e-05 -6.5723414791826491e-05 0 2.5799523573120241e-05 -0.00010280892221201347 0 2.2421076967670658e-05 -9.0784984633972613e-05 0 1.6140171600646159e-05 -9.651933298628144e-05 0 2.5799523573120241e-05 -0.00010280892221201347 0 1.6140171600646159e-05 -9.651933298628144e-05 0 1.3435952331208272e-05 -0.00010315669498255405 0 1.3435952331208272e-05 -0.00010315669498255405 0 1.6140171600646159e-05 -9.651933298628144e-05 0 6.9285966120541568e-06 -9.6752748318878378e-05 0 1.9927769034732991e-06 -0.00010195251138169028 0 1.3435952331208272e-05 -0.00010315669498255405 0 6.9285966120541568e-06 -9.6752748318878378e-05 0 1.0195281819356337e-05 -9.0033633875046605e-05 0 4.3331469611791831e-07 -9.1842961833193447e-05 0 6.9285966120541568e-06 -9.6752748318878378e-05 0 1.0195281819356337e-05 -9.0033633875046605e-05 0 6.9285966120541568e-06 -9.6752748318878378e-05 0 1.6140171600646159e-05 -9.651933298628144e-05 0 1.9927769034732991e-06 -0.00010195251138169028 0 6.9285966120541585e-06 -9.6752748318878391e-05 0 4.3331469611791831e-07 -9.1842961833193447e-05 0 -8.2121823389745944e-06 -0.00010091053684574565 0 4.3331469611791831e-07 -9.1842961833193447e-05 0 -8.6268963034460664e-06 -8.7635643134821966e-05 0 -8.2121823389745944e-06 -0.00010091053684574565 0 -8.6268963034460664e-06 -8.7635643134821966e-05 0 -1.7225615575335374e-05 -9.0894134743245493e-05 0 -8.2121823389745944e-06 -0.00010091053684574565 0 1.9927769034732991e-06 -0.00010195251138169028 0 4.3331469611791831e-07 -9.1842961833193447e-05 0 1.3505708684261175e-06 -8.0757396848971558e-05 0 -8.6268963034460664e-06 -8.7635643134821966e-05 0 4.3331469611791831e-07 -9.1842961833193447e-05 0 1.3505708684261175e-06 -8.0757396848971558e-05 0 -9.4396133360322943e-06 -7.5446171021225538e-05 0 -8.6268963034460664e-06 -8.7635643134821966e-05 0 -1.8848138386900707e-05 -8.0099336982094132e-05 0 -8.6268963034460664e-06 -8.7635643134821966e-05 0 -9.4396133360322943e-06 -7.5446171021225538e-05 0 1.3505708684261175e-06 -8.0757396848971558e-05 0 -2.659363286635682e-06 -7.0105387055165202e-05 0 -9.4396133360322943e-06 -7.5446171021225538e-05 0 1.3505708684261175e-06 -8.0757396848971558e-05 0 1.0943470261819137e-05 -7.9687134848926362e-05 0 6.4329104092862131e-06 -6.9127638242400124e-05 0 1.3505708684261175e-06 -8.0757396848971558e-05 0 1.0195281819356337e-05 -9.0033633875046605e-05 0 1.0943470261819137e-05 -7.9687134848926362e-05 0 1.3505708684261175e-06 -8.0757396848971558e-05 0 4.3331469611791741e-07 -9.1842961833193447e-05 0 1.0195281819356337e-05 -9.0033633875046605e-05 0 -3.7568837634835385e-05 -8.9930224506716862e-05 0 -3.0957995564740648e-05 -9.4309513266044461e-05 0 -2.6445848334278471e-05 -8.8654031511209192e-05 0 -3.7593608999202051e-05 -9.9986562595818241e-05 0 -3.0957995564740648e-05 -9.4309513266044461e-05 0 -3.7568837634835385e-05 -8.9930224506716862e-05 0 -3.7593608999202051e-05 -9.9986562595818241e-05 0 -2.7660497135093141e-05 -0.00010000670815308087 0 -3.0957995564740648e-05 -9.4309513266044461e-05 0 -2.7660497135093138e-05 -0.00010000670815308087 0 -2.2783104840524092e-05 -9.4931156923864639e-05 0 -3.0957995564740648e-05 -9.4309513266044461e-05 0 -2.6445848334278471e-05 -8.8654031511209192e-05 0 -3.0957995564740648e-05 -9.4309513266044461e-05 0 -2.2783104840524092e-05 -9.4931156923864639e-05 0 -2.6445848334278471e-05 -8.8654031511209192e-05 0 -2.2783104840524092e-05 -9.4931156923864639e-05 0 -1.7225615575335374e-05 -9.0894134743245493e-05 0 -1.7840382932744838e-05 -0.00010028526334244454 0 -1.7225615575335374e-05 -9.0894134743245493e-05 0 -2.2783104840524092e-05 -9.4931156923864639e-05 0 -2.7660497135093138e-05 -0.00010000670815308087 0 -1.7840382932744838e-05 -0.00010028526334244454 0 -2.2783104840524092e-05 -9.4931156923864639e-05 0 -1.7840382932744838e-05 -0.00010028526334244454 0 -8.2121823389745944e-06 -0.00010091053684574565 0 -1.7225615575335374e-05 -9.0894134743245493e-05 0 -1.8848138386900707e-05 -8.0099336982094132e-05 0 -1.7225615575335374e-05 -9.0894134743245493e-05 0 -8.6268963034460664e-06 -8.7635643134821966e-05 0 -1.8848138386900707e-05 -8.0099336982094132e-05 0 -9.4396133360322943e-06 -7.5446171021225538e-05 0 -1.6374687683633677e-05 -6.823613486701613e-05 0 -1.8848138386900707e-05 -8.0099336982094132e-05 0 -2.5083103505433622e-05 -6.9983727189274885e-05 0 -2.8331367443632169e-05 -7.9511137966694823e-05 0 -1.8848138386900707e-05 -8.0099336982094132e-05 0 -2.6445848334278471e-05 -8.8654031511209192e-05 0 -1.7225615575335374e-05 -9.0894134743245493e-05 0 -1.8848138386900707e-05 -8.0099336982094132e-05 0 -2.8331367443632169e-05 -7.9511137966694823e-05 0 -2.6445848334278471e-05 -8.8654031511209192e-05 0 -3.7568837634835385e-05 -8.9930224506716862e-05 0 -2.6445848334278471e-05 -8.8654031511209192e-05 0 -2.8331367443632169e-05 -7.9511137966694823e-05 0 -3.6722882482938184e-05 -6.9201296685448334e-05 0 -3.7311895153449543e-05 -7.9631043449687449e-05 0 -2.8331367443632169e-05 -7.9511137966694823e-05 0 -3.7311895153449543e-05 -7.9631043449687449e-05 0 -3.7568837634835385e-05 -8.9930224506716862e-05 0 -2.8331367443632169e-05 -7.9511137966694823e-05 0 -3.5661668221870872e-05 -5.9053255571825542e-05 0 -3.6722882482938184e-05 -6.9201296685448334e-05 0 -2.9165107558524461e-05 -6.2538596905186672e-05 0 -3.6722882482938184e-05 -6.9201296685448334e-05 0 -2.8331367443632169e-05 -7.9511137966694823e-05 0 -2.5083103505433622e-05 -6.9983727189274885e-05 0 -2.1817050749624549e-05 -5.8872833977974402e-05 0 -2.9165107558524461e-05 -6.2538596905186672e-05 0 -2.5083103505433622e-05 -6.9983727189274885e-05 0 -3.6722882482938184e-05 -6.9201296685448334e-05 0 -2.5083103505433622e-05 -6.9983727189274885e-05 0 -2.9165107558524461e-05 -6.2538596905186672e-05 0 -2.1817050749624549e-05 -5.8872833977974402e-05 0 -2.5083103505433622e-05 -6.9983727189274899e-05 0 -1.6374687683633677e-05 -6.823613486701613e-05 0 -1.8848138386900707e-05 -8.0099336982094132e-05 0 -1.6374687683633677e-05 -6.823613486701613e-05 0 -2.5083103505433622e-05 -6.9983727189274885e-05 0 -2.1817050749624549e-05 -5.8872833977974402e-05 0 -1.6374687683633677e-05 -6.823613486701613e-05 0 -1.4720792433167863e-05 -5.8504500227694662e-05 0 -8.9904003225764564e-06 -6.3898663575418874e-05 0 -1.4720792433167865e-05 -5.8504500227694662e-05 0 -1.6374687683633677e-05 -6.823613486701613e-05 0 -2.1817050749624549e-05 -5.8872833977974402e-05 0 -1.4720792433167863e-05 -5.8504500227694662e-05 0 -1.7469838149798167e-05 -5.2150985197019865e-05 0 -1.5881589858114764e-05 -4.3638003258896026e-05 0 -1.7469838149798167e-05 -5.2150985197019865e-05 0 -9.9609803212417433e-06 -5.2410871261477862e-05 0 -9.9609803212417433e-06 -5.2410871261477862e-05 0 -1.7469838149798167e-05 -5.2150985197019865e-05 0 -1.4720792433167863e-05 -5.8504500227694662e-05 0 -2.1817050749624549e-05 -5.8872833977974402e-05 0 -1.7469838149798167e-05 -5.2150985197019865e-05 0 -2.4603423818837489e-05 -4.9251842160593628e-05 0 -2.1817050749624549e-05 -5.8872833977974402e-05 0 -2.9150852849004631e-05 -5.5575956096771513e-05 0 -2.9165107558524461e-05 -6.2538596905186672e-05 0 -2.1817050749624549e-05 -5.8872833977974402e-05 0 -2.4603423818837489e-05 -4.9251842160593628e-05 0 -2.9150852849004631e-05 -5.5575956096771513e-05 0 -3.4072670708006253e-05 -4.9239044813564772e-05 0 -2.9150852849004631e-05 -5.5575956096771519e-05 0 -2.4603423818837489e-05 -4.9251842160593628e-05 0 -3.4072670708006253e-05 -4.9239044813564772e-05 0 -3.5661668221870872e-05 -5.9053255571825542e-05 0 -2.9150852849004631e-05 -5.5575956096771513e-05 0 -3.5661668221870872e-05 -5.9053255571825542e-05 0 -2.9165107558524461e-05 -6.2538596905186672e-05 0 -2.9150852849004631e-05 -5.5575956096771513e-05 0 4.0596726194385582e-06 -5.7374944914506886e-05 0 -2.4122762925102782e-06 -6.0836360241360917e-05 0 6.4329104092862131e-06 -6.9127638242400124e-05 0 6.4329104092862131e-06 -6.9127638242400124e-05 0 -2.4122762925102782e-06 -6.0836360241360917e-05 0 -2.659363286635682e-06 -7.0105387055165202e-05 0 4.0596726194385582e-06 -5.7374944914506886e-05 0 6.4329104092862122e-06 -6.9127638242400124e-05 0 1.0856933641185824e-05 -6.094792938624522e-05 0 1.3505708684261175e-06 -8.0757396848971558e-05 0 6.4329104092862131e-06 -6.9127638242400124e-05 0 -2.659363286635682e-06 -7.0105387055165202e-05 0 -8.9904003225764564e-06 -6.3898663575418874e-05 0 -9.4396133360322943e-06 -7.5446171021225538e-05 0 -2.659363286635682e-06 -7.0105387055165202e-05 0 -8.9904003225764564e-06 -6.3898663575418874e-05 0 -1.6374687683633677e-05 -6.823613486701613e-05 0 -9.4396133360322943e-06 -7.5446171021225538e-05 0 -8.9904003225764564e-06 -6.3898663575418874e-05 0 -2.659363286635682e-06 -7.0105387055165202e-05 0 -2.4122762925102782e-06 -6.0836360241360917e-05 0 -9.9609803212417433e-06 -5.2410871261477862e-05 0 -2.4122762925102782e-06 -6.0836360241360917e-05 0 -2.5215363257886866e-06 -5.1181781025154398e-05 0 -8.9904003225764564e-06 -6.3898663575418874e-05 0 -2.4122762925102782e-06 -6.0836360241360917e-05 0 -9.9609803212417433e-06 -5.2410871261477862e-05 0 -8.9904003225764564e-06 -6.3898663575418874e-05 0 -9.9609803212417433e-06 -5.2410871261477862e-05 0 -1.4720792433167863e-05 -5.8504500227694662e-05 0 -9.9609803212417433e-06 -5.2410871261477862e-05 0 -2.5215363257886862e-06 -5.1181781025154398e-05 0 -6.9602549865511195e-06 -4.3585671735435725e-05 0 4.0596726194385582e-06 -5.7374944914506886e-05 0 3.1879392592450358e-06 -4.9265956058988647e-05 0 -2.5215363257886866e-06 -5.1181781025154398e-05 0 4.0596726194385582e-06 -5.7374944914506886e-05 0 -2.5215363257886866e-06 -5.1181781025154398e-05 0 -2.4122762925102782e-06 -6.0836360241360917e-05 0 4.0596726194385582e-06 -5.7374944914506886e-05 0 1.0856933641185824e-05 -6.094792938624522e-05 0 9.2172523992265056e-06 -5.1876536175210014e-05 0 4.0596726194385582e-06 -5.7374944914506886e-05 0 9.2172523992265056e-06 -5.1876536175210014e-05 0 3.1879392592450358e-06 -4.9265956058988647e-05 0 6.7135703775629787e-06 -4.3077288781821733e-05 0 3.1879392592450358e-06 -4.9265956058988647e-05 0 9.2172523992265056e-06 -5.1876536175210014e-05 0 -1.3730413902178014e-06 -4.3244700988533944e-05 0 3.1879392592450358e-06 -4.9265956058988647e-05 0 6.7135703775629787e-06 -4.3077288781821733e-05 0 -1.3730413902178014e-06 -4.3244700988533944e-05 0 6.7135703775629787e-06 -4.3077288781821726e-05 0 2.3024680042788974e-06 -3.7474403250448665e-05 0 6.7135703775629787e-06 -4.3077288781821733e-05 0 7.1581180152083853e-06 -3.4777657340318634e-05 0 2.3024680042788974e-06 -3.7474403250448665e-05 0 -1.3730413902178014e-06 -4.3244700988533944e-05 0 2.3024680042788974e-06 -3.7474403250448665e-05 0 -2.8981274991996191e-06 -3.6225448273438605e-05 0 -1.3730413902178014e-06 -4.3244700988533944e-05 0 -2.5215363257886866e-06 -5.1181781025154398e-05 0 3.1879392592450358e-06 -4.9265956058988647e-05 0 -1.3730413902178014e-06 -4.3244700988533944e-05 0 -6.9602549865511195e-06 -4.3585671735435725e-05 0 -2.5215363257886866e-06 -5.1181781025154398e-05 0 -1.5881589858114764e-05 -4.3638003258896026e-05 0 -9.9609803212417433e-06 -5.2410871261477862e-05 0 -6.9602549865511195e-06 -4.3585671735435725e-05 0 -1.5881589858114764e-05 -4.3638003258896026e-05 0 -6.9602549865511195e-06 -4.3585671735435725e-05 0 -9.2510486435348873e-06 -3.5881168627321685e-05 0 -1.3730413902178014e-06 -4.3244700988533944e-05 0 -2.8981274991996191e-06 -3.6225448273438605e-05 0 -6.9602549865511195e-06 -4.3585671735435725e-05 0 -9.2510486435348873e-06 -3.5881168627321685e-05 0 -6.9602549865511195e-06 -4.3585671735435725e-05 0 -2.8981274991996191e-06 -3.6225448273438605e-05 0 -9.2510486435348873e-06 -3.5881168627321685e-05 0 -2.8981274991996191e-06 -3.6225448273438605e-05 0 -3.271742431870341e-06 -2.8329400932732272e-05 0 -8.2953400023876413e-06 -2.5912308307962885e-05 0 -1.3127412505927372e-05 -3.0879237168673393e-05 0 -9.2510486435348873e-06 -3.5881168627321685e-05 0 -8.2953400023876413e-06 -2.5912308307962885e-05 0 -9.2510486435348873e-06 -3.5881168627321685e-05 0 -3.271742431870341e-06 -2.8329400932732272e-05 0 1.9846472368930635e-06 -3.0530961992732239e-05 0 1.8874903088311008e-06 -2.1663504056103499e-05 0 -3.271742431870341e-06 -2.8329400932732272e-05 0 1.9846472368930635e-06 -3.0530961992732239e-05 0 6.6060478644315971e-06 -2.6076932523739094e-05 0 1.8874903088311008e-06 -2.1663504056103499e-05 0 1.9846472368930635e-06 -3.0530961992732239e-05 0 2.3024680042788983e-06 -3.7474403250448665e-05 0 7.1581180152083853e-06 -3.4777657340318634e-05 0 1.9846472368930635e-06 -3.0530961992732239e-05 0 -3.2717424318703418e-06 -2.8329400932732272e-05 0 -2.8981274991996191e-06 -3.6225448273438605e-05 0 1.9846472368930635e-06 -3.0530961992732239e-05 0 -2.8981274991996191e-06 -3.6225448273438605e-05 0 2.3024680042788974e-06 -3.7474403250448665e-05 0 -3.1993206174446741e-05 -4.0113082391455265e-05 0 -2.8322327404530029e-05 -4.4596495401474845e-05 0 -2.2693549187236697e-05 -3.9601818914957692e-05 0 -3.1993206174446741e-05 -4.0113082391455265e-05 0 -2.2693549187236697e-05 -3.9601818914957692e-05 0 -2.4657205247023483e-05 -3.3448280565380548e-05 0 -3.4072670708006253e-05 -4.9239044813564772e-05 0 -2.4603423818837489e-05 -4.9251842160593628e-05 0 -2.8322327404530029e-05 -4.4596495401474845e-05 0 -3.1993206174446741e-05 -4.0113082391455265e-05 0 -3.4072670708006253e-05 -4.9239044813564772e-05 0 -2.8322327404530029e-05 -4.4596495401474845e-05 0 -2.4603423818837489e-05 -4.9251842160593628e-05 0 -2.2693549187236697e-05 -3.9601818914957692e-05 0 -2.8322327404530029e-05 -4.4596495401474845e-05 0 -1.5881589858114764e-05 -4.3638003258896026e-05 0 -1.5623265895990992e-05 -3.6124604095315243e-05 0 -2.2693549187236697e-05 -3.9601818914957692e-05 0 -1.5881589858114764e-05 -4.3638003258896026e-05 0 -2.2693549187236693e-05 -3.9601818914957692e-05 0 -2.4603423818837489e-05 -4.9251842160593628e-05 0 -1.5881589858114764e-05 -4.3638003258896026e-05 0 -2.4603423818837489e-05 -4.9251842160593628e-05 0 -1.7469838149798167e-05 -5.2150985197019865e-05 0 -1.5881589858114764e-05 -4.3638003258896026e-05 0 -9.2510486435348873e-06 -3.5881168627321678e-05 0 -1.5623265895990992e-05 -3.6124604095315243e-05 0 -1.8799079706794303e-05 -3.1403524831102708e-05 0 -1.5623265895990992e-05 -3.6124604095315243e-05 0 -1.3127412505927372e-05 -3.0879237168673393e-05 0 -9.2510486435348873e-06 -3.5881168627321685e-05 0 -1.3127412505927372e-05 -3.0879237168673393e-05 0 -1.5623265895990992e-05 -3.6124604095315243e-05 0 -8.2953400023876413e-06 -2.5912308307962885e-05 0 -1.3831348852691783e-05 -2.5714018561560351e-05 0 -1.3127412505927372e-05 -3.0879237168673393e-05 0 -1.8799079706794303e-05 -3.1403524831102708e-05 0 -1.3127412505927372e-05 -3.0879237168673393e-05 0 -1.3831348852691783e-05 -2.5714018561560351e-05 0 -1.8799079706794303e-05 -3.1403524831102708e-05 0 -1.3831348852691783e-05 -2.5714018561560351e-05 0 -2.1325189160584586e-05 -2.6335806735950779e-05 0 -1.8799079706794303e-05 -3.1403524831102708e-05 0 -2.2693549187236697e-05 -3.9601818914957692e-05 0 -1.5623265895990992e-05 -3.6124604095315243e-05 0 -1.8799079706794303e-05 -3.1403524831102708e-05 0 -2.4657205247023483e-05 -3.3448280565380548e-05 0 -2.2693549187236697e-05 -3.9601818914957692e-05 0 -1.8799079706794303e-05 -3.1403524831102708e-05 0 -2.1325189160584586e-05 -2.6335806735950779e-05 0 -2.4657205247023483e-05 -3.3448280565380548e-05 0 -2.9588884571383439e-05 -3.1768787661022104e-05 0 -2.4657205247023483e-05 -3.3448280565380548e-05 0 -2.1325189160584586e-05 -2.6335806735950779e-05 0 -2.9588884571383439e-05 -3.1768787661022104e-05 0 -3.1993206174446741e-05 -4.0113082391455265e-05 0 -2.4657205247023483e-05 -3.3448280565380548e-05 0 -2.3825538992958846e-05 -1.7870376284326089e-05 0 -2.6915472191340349e-05 -2.4328132439294911e-05 0 -2.075379028936985e-05 -2.0169093580180456e-05 0 -2.6915472191340349e-05 -2.4328132439294911e-05 0 -2.9588884571383439e-05 -3.1768787661022104e-05 0 -2.1325189160584586e-05 -2.6335806735950779e-05 0 -2.6915472191340349e-05 -2.4328132439294911e-05 0 -2.1325189160584586e-05 -2.6335806735950779e-05 0 -2.075379028936985e-05 -2.0169093580180456e-05 0 -1.5890330574778036e-05 -1.9899391758647106e-05 0 -2.075379028936985e-05 -2.0169093580180456e-05 0 -2.1325189160584586e-05 -2.6335806735950779e-05 0 -1.5890330574778036e-05 -1.9899391758647106e-05 0 -2.1325189160584586e-05 -2.6335806735950779e-05 0 -1.3831348852691783e-05 -2.5714018561560351e-05 0 -8.2953400023876413e-06 -2.5912308307962885e-05 0 -1.1657733966049673e-05 -2.0654516055845008e-05 0 -1.3831348852691783e-05 -2.5714018561560351e-05 0 -1.5890330574778036e-05 -1.9899391758647106e-05 0 -1.3831348852691783e-05 -2.5714018561560351e-05 0 -1.1657733966049673e-05 -2.0654516055845008e-05 0 -7.5106200984826144e-06 -1.7141734284787468e-05 0 -1.2039931199349813e-05 -1.6240541904403648e-05 0 -1.1657733966049673e-05 -2.0654516055845008e-05 0 -1.5890330574778036e-05 -1.9899391758647106e-05 0 -1.1657733966049673e-05 -2.0654516055845008e-05 0 -1.2039931199349813e-05 -1.6240541904403648e-05 0 -9.6501384381766115e-06 -1.1639345730459921e-05 0 -1.6065711585145811e-05 -1.3817007157595543e-05 0 -1.2039931199349813e-05 -1.6240541904403648e-05 0 -9.6501384381766115e-06 -1.1639345730459921e-05 0 -1.1208847610206374e-05 -8.9949883321413561e-06 0 -1.6065711585145811e-05 -1.3817007157595543e-05 0 -1.5890330574778036e-05 -1.9899391758647106e-05 0 -1.2039931199349813e-05 -1.6240541904403648e-05 0 -1.6065711585145811e-05 -1.3817007157595543e-05 0 -2.3825538992958846e-05 -1.7870376284326089e-05 0 -2.075379028936985e-05 -2.0169093580180456e-05 0 -1.6065711585145811e-05 -1.3817007157595543e-05 0 -1.5890330574778036e-05 -1.9899391758647106e-05 0 -1.6065711585145811e-05 -1.3817007157595543e-05 0 -2.075379028936985e-05 -2.0169093580180456e-05 0 -2.0865535351355034e-05 -1.2506399468999138e-05 0 -2.3825538992958846e-05 -1.7870376284326089e-05 0 -1.6065711585145811e-05 -1.3817007157595543e-05 0 -2.1344336075080951e-06 -1.5480152020432823e-05 0 -3.8998896731454083e-06 -2.1394888116239427e-05 0 1.8874903088311008e-06 -2.1663504056103499e-05 0 -2.1344336075080951e-06 -1.5480152020432823e-05 0 1.8874903088311008e-06 -2.1663504056103499e-05 0 2.4498177322738176e-06 -1.3655383785887404e-05 0 1.8874903088311008e-06 -2.1663504056103499e-05 0 -3.8998896731454083e-06 -2.1394888116239427e-05 0 -3.271742431870341e-06 -2.8329400932732272e-05 0 -8.2953400023876413e-06 -2.5912308307962885e-05 0 -3.271742431870341e-06 -2.8329400932732272e-05 0 -3.8998896731454083e-06 -2.1394888116239427e-05 0 -8.2953400023876413e-06 -2.5912308307962885e-05 0 -7.5106200984826135e-06 -1.7141734284787468e-05 0 -1.1657733966049673e-05 -2.0654516055845008e-05 0 -8.2953400023876413e-06 -2.5912308307962885e-05 0 -3.8998896731454083e-06 -2.1394888116239427e-05 0 -7.5106200984826144e-06 -1.7141734284787468e-05 0 -2.1344336075080951e-06 -1.5480152020432823e-05 0 -7.5106200984826144e-06 -1.7141734284787468e-05 0 -3.8998896731454083e-06 -2.1394888116239427e-05 0 -2.1344336075080951e-06 -1.5480152020432823e-05 0 -5.2750711027403747e-06 -1.1701010044045792e-05 0 -7.5106200984826144e-06 -1.7141734284787468e-05 0 -9.6501384381766115e-06 -1.1639345730459921e-05 0 -1.2039931199349813e-05 -1.6240541904403648e-05 0 -7.5106200984826144e-06 -1.7141734284787468e-05 0 -9.6501384381766115e-06 -1.1639345730459921e-05 0 -5.2750711027403738e-06 -1.1701010044045792e-05 0 -7.1787669626770267e-06 -8.9343551832245062e-06 0 -9.6501384381766115e-06 -1.1639345730459921e-05 0 -7.5106200984826144e-06 -1.7141734284787468e-05 0 -5.2750711027403738e-06 -1.1701010044045792e-05 0 -2.1344336075080951e-06 -1.5480152020432823e-05 0 -1.8274285058991189e-06 -1.0153757436278721e-05 0 -5.2750711027403738e-06 -1.1701010044045792e-05 0 -1.8274285058991189e-06 -1.0153757436278721e-05 0 -2.1344336075080951e-06 -1.5480152020432823e-05 0 2.4498177322738176e-06 -1.3655383785887404e-05 0 1.5657652196161005e-06 -8.3479998892142064e-06 0 -1.8274285058991189e-06 -1.0153757436278721e-05 0 2.4498177322738176e-06 -1.3655383785887404e-05 0 4.2652590357101704e-06 -7.11165694731601e-06 0 1.5657652196161005e-06 -8.3479998892142064e-06 0 2.4498177322738176e-06 -1.3655383785887404e-05 0 4.2652590357101704e-06 -7.11165694731601e-06 0 2.3522939373564914e-06 -6.3600736478400256e-06 0 3.0484368646739822e-06 -5.6470255544787138e-06 0 4.2652590357101704e-06 -7.11165694731601e-06 0 2.4498177322738176e-06 -1.3655383785887404e-05 0 7.7686097927099343e-06 -1.5144132888645527e-05 0 3.9237125019997434e-06 -7.0611105504994652e-06 0 5.2271224272606139e-06 -1.0813043826644907e-05 0 7.7686097927099343e-06 -1.5144132888645527e-05 0 2.4498177322738176e-06 -1.3655383785887404e-05 0 5.8489000433978313e-06 -1.8996738675813326e-05 0 1.8874903088311008e-06 -2.1663504056103499e-05 0 5.8489000433978313e-06 -1.8996738675813326e-05 0 2.4498177322738176e-06 -1.3655383785887404e-05 0 5.2271224272606139e-06 -1.0813043826644907e-05 0 5.8053979753467815e-06 -1.5367185721905984e-05 0 7.7686097927099343e-06 -1.5144132888645527e-05 0 5.8489000433978313e-06 -1.8996738675813326e-05 0 1.033322313083042e-05 -2.2072976449308062e-05 0 5.8053979753467815e-06 -1.5367185721905984e-05 0 6.4873918803849419e-06 -2.0785701264264362e-05 0 1.033322313083042e-05 -2.2072976449308062e-05 0 5.8489000433978313e-06 -1.8996738675813326e-05 0 6.6060478644315988e-06 -2.6076932523739094e-05 0 1.8874903088311008e-06 -2.1663504056103499e-05 0 6.6060478644315988e-06 -2.6076932523739094e-05 0 5.8489000433978313e-06 -1.8996738675813326e-05 0 3.9468375660227108e-06 -8.3291503667090771e-06 0 3.2018743579568684e-06 -6.4825658918434505e-06 0 2.492970686091573e-06 -9.3004503638074983e-06 0 1.3254787075824324e-06 -8.6948563320258988e-06 0 6.3573628303179414e-07 -1.1771734277732035e-05 0 2.492970686091573e-06 -9.3004503638074983e-06 0 1.3254787075824324e-06 -8.6948563320258988e-06 0 2.492970686091573e-06 -9.3004503638074983e-06 0 3.2018743579568684e-06 -6.4825658918434505e-06 0 2.3522939373564914e-06 -6.3600736478400256e-06 0 1.3254787075824324e-06 -8.6948563320258988e-06 0 3.2018743579568684e-06 -6.4825658918434505e-06 0 3.2018743579568684e-06 -6.4825658918434505e-06 0 4.2480078430609309e-06 -4.511968311398618e-06 0 3.0484368646739822e-06 -5.6470255544787138e-06 0 2.3522939373564914e-06 -6.3600736478400256e-06 0 3.2018743579568684e-06 -6.4825658918434496e-06 0 3.0484368646739822e-06 -5.6470255544787138e-06 0 4.2652590357101704e-06 -7.11165694731601e-06 0 3.0484368646739822e-06 -5.6470255544787138e-06 0 3.6285701173725401e-06 -4.7383631943284501e-06 0 3.0484368646739822e-06 -5.6470255544787138e-06 0 4.2480078430609309e-06 -4.511968311398618e-06 0 3.6285701173725401e-06 -4.7383631943284501e-06 0 4.2480078430609309e-06 -4.511968311398618e-06 0 3.2018743579568684e-06 -6.4825658918434505e-06 0 4.9542748376358018e-06 -6.3927344821670537e-06 0 4.2480078430609309e-06 -4.511968311398618e-06 0 4.9542748376358018e-06 -6.3927344821670537e-06 0 6.2180328623695219e-06 -4.037549592320404e-06 0 4.2480078430609309e-06 -4.511968311398618e-06 0 6.2180328623695219e-06 -4.037549592320404e-06 0 5.6431128123935803e-06 -2.4274267829792309e-06 0 7.1986116669722835e-06 -1.3038175134761075e-06 0 6.2180328623695219e-06 -4.037549592320404e-06 0 7.918305435556878e-06 -2.9215057671525038e-06 0 7.1986116669722835e-06 -1.3038175134761075e-06 0 5.6431128123935803e-06 -2.4274267829792309e-06 0 6.2180328623695219e-06 -4.037549592320404e-06 0 7.9868557959558271e-06 -5.5516896249631173e-06 0 7.918305435556878e-06 -2.9215057671525038e-06 0 6.2180328623695219e-06 -4.037549592320404e-06 0 7.9868557959558271e-06 -5.5516896249631173e-06 0 6.5879511089518282e-06 -6.1574994943172579e-06 0 7.7808058158829502e-06 -8.2038392011302511e-06 0 7.9868557959558271e-06 -5.5516896249631173e-06 0 6.2180328623695219e-06 -4.037549592320404e-06 0 6.5879511089518282e-06 -6.1574994943172579e-06 0 6.2657390493686081e-06 -8.1965097243499808e-06 0 6.5879511089518282e-06 -6.157499494317257e-06 0 4.9542748376358018e-06 -6.3927344821670537e-06 0 6.2180328623695219e-06 -4.037549592320404e-06 0 4.9542748376358018e-06 -6.3927344821670537e-06 0 6.5879511089518282e-06 -6.1574994943172579e-06 0 6.2657390493686081e-06 -8.1965097243499808e-06 0 7.7808058158829502e-06 -8.2038392011302511e-06 0 6.5879511089518282e-06 -6.1574994943172579e-06 0 3.9468375660227108e-06 -8.3291503667090771e-06 0 4.9542748376358018e-06 -6.3927344821670537e-06 0 3.2018743579568684e-06 -6.4825658918434505e-06 0 6.2657390493686081e-06 -8.1965097243499808e-06 0 4.9542748376358018e-06 -6.3927344821670537e-06 0 5.1124157371193929e-06 -1.0001248250678238e-05 0 3.9468375660227108e-06 -8.3291503667090771e-06 0 5.1124157371193929e-06 -1.0001248250678238e-05 0 4.9542748376358018e-06 -6.3927344821670537e-06 0 3.9468375660227108e-06 -8.3291503667090771e-06 0 3.1284005417943138e-06 -1.1364398862392037e-05 0 5.1124157371193929e-06 -1.0001248250678238e-05 0 6.1550463803281588e-06 -1.3175444733671571e-05 0 7.0784865384191688e-06 -1.0649122199641523e-05 0 5.1124157371193929e-06 -1.0001248250678238e-05 0 6.1550463803281588e-06 -1.3175444733671571e-05 0 5.1124157371193929e-06 -1.0001248250678238e-05 0 4.3442148334696872e-06 -1.2914474662508343e-05 0 3.1284005417943138e-06 -1.1364398862392037e-05 0 4.3442148334696872e-06 -1.2914474662508343e-05 0 5.1124157371193929e-06 -1.0001248250678238e-05 0 8.8767621724857597e-06 -1.0721007383809972e-05 0 7.7808058158829502e-06 -8.2038392011302511e-06 0 7.0784865384191688e-06 -1.0649122199641523e-05 0 6.2657390493686081e-06 -8.1965097243499808e-06 0 7.0784865384191688e-06 -1.0649122199641523e-05 0 7.7808058158829502e-06 -8.2038392011302511e-06 0 6.2657390493686081e-06 -8.1965097243499808e-06 0 5.1124157371193929e-06 -1.0001248250678238e-05 0 7.0784865384191688e-06 -1.0649122199641523e-05 0 6.1550463803281588e-06 -1.3175444733671571e-05 0 8.5616672282684635e-06 -1.3484032251462228e-05 0 7.0784865384191688e-06 -1.0649122199641523e-05 0 8.8767621724857597e-06 -1.0721007383809972e-05 0 7.0784865384191688e-06 -1.0649122199641523e-05 0 8.5616672282684635e-06 -1.3484032251462228e-05 0 1.0904593719455272e-05 -1.5006248909593435e-05 0 8.5616672282684635e-06 -1.3484032251462228e-05 0 9.3474965368706245e-06 -1.664527012134271e-05 0 6.1550463803281588e-06 -1.3175444733671571e-05 0 7.2376805172177168e-06 -1.6358193686557818e-05 0 8.5616672282684635e-06 -1.3484032251462228e-05 0 7.2376805172177168e-06 -1.6358193686557818e-05 0 9.3474965368706245e-06 -1.664527012134271e-05 0 8.5616672282684635e-06 -1.3484032251462228e-05 0 3.596013144088344e-06 -1.5376814573909677e-05 0 5.1971360844617437e-06 -1.5908289318545115e-05 0 4.3442148334696872e-06 -1.2914474662508343e-05 0 6.1550463803281588e-06 -1.3175444733671571e-05 0 5.1971360844617437e-06 -1.5908289318545118e-05 0 7.2376805172177168e-06 -1.6358193686557818e-05 0 6.1550463803281588e-06 -1.3175444733671571e-05 0 4.3442148334696872e-06 -1.2914474662508343e-05 0 5.1971360844617437e-06 -1.5908289318545115e-05 0 5.4875100741583125e-06 -1.9115789319392154e-05 0 7.2376805172177168e-06 -1.6358193686557818e-05 0 5.1971360844617437e-06 -1.5908289318545115e-05 0 3.596013144088344e-06 -1.5376814573909677e-05 0 3.985010022546089e-06 -1.7550276458492959e-05 0 5.1971360844617437e-06 -1.5908289318545115e-05 0 5.4875100741583125e-06 -1.9115789319392154e-05 0 5.1971360844617437e-06 -1.5908289318545115e-05 0 3.985010022546089e-06 -1.7550276458492959e-05 0 3.596013144088344e-06 -1.5376814573909677e-05 0 2.357904481228712e-06 -1.6771034212640166e-05 0 3.985010022546089e-06 -1.7550276458492959e-05 0 3.596013144088344e-06 -1.5376814573909677e-05 0 2.2377943585926089e-06 -1.386968125277719e-05 0 2.357904481228712e-06 -1.6771034212640166e-05 0 3.596013144088344e-06 -1.5376814573909677e-05 0 4.3442148334696872e-06 -1.2914474662508343e-05 0 2.2377943585926089e-06 -1.386968125277719e-05 0 4.0629734600336673e-07 -1.5276709646159386e-05 0 2.357904481228712e-06 -1.6771034212640166e-05 0 2.2377943585926089e-06 -1.386968125277719e-05 0 1.4100422660587761e-05 -3.8149688891777218e-05 0 6.7135703775629787e-06 -4.3077288781821733e-05 0 1.568658658026884e-05 -4.7315676864954836e-05 0 7.2266421622478061e-06 -2.6728778577086851e-05 0 8.1125008103674395e-06 -3.3020965840587059e-05 0 4.0629734600336673e-07 -1.5276709646159386e-05 0 6.537868368030931e-07 -1.8742117933171134e-05 0 2.357904481228712e-06 -1.6771034212640166e-05 0 1.568658658026884e-05 -4.7315676864954836e-05 0 6.7135703775629787e-06 -4.3077288781821733e-05 0 9.2172523992265056e-06 -5.1876536175210014e-05 0 1.4100422660587761e-05 -3.8149688891777218e-05 0 7.1581180152083853e-06 -3.4777657340318634e-05 0 6.7135703775629787e-06 -4.3077288781821733e-05 0 1.2332915385788541e-05 -2.974356527087919e-05 0 7.1581180152083853e-06 -3.4777657340318634e-05 0 1.4100422660587761e-05 -3.8149688891777218e-05 0 6.3573628303179425e-07 -1.1771734277732035e-05 0 4.0629734600336673e-07 -1.5276709646159386e-05 0 2.2377943585926089e-06 -1.386968125277719e-05 0 6.4873918803849419e-06 -2.0785701264264362e-05 0 7.2266421622478061e-06 -2.6728778577086851e-05 0 1.2332915385788541e-05 -2.974356527087919e-05 0 6.6060478644315988e-06 -2.6076932523739094e-05 0 7.1581180152083853e-06 -3.4777657340318634e-05 0 1.9846472368930635e-06 -3.0530961992732239e-05 0 7.1581180152083853e-06 -3.4777657340318634e-05 0 6.6060478644315988e-06 -2.6076932523739094e-05 0 1.033322313083042e-05 -2.2072976449308062e-05 0 6.6060478644315988e-06 -2.6076932523739094e-05 0 1.2332915385788541e-05 -2.974356527087919e-05 0 6.3573628303179425e-07 -1.1771734277732035e-05 0 3.1284005417943138e-06 -1.1364398862392037e-05 0 2.492970686091573e-06 -9.3004503638074983e-06 0 3.9468375660227108e-06 -8.3291503667090771e-06 0 2.4929706860915726e-06 -9.3004503638074983e-06 0 3.1284005417943138e-06 -1.1364398862392037e-05 0 3.1284005417943138e-06 -1.1364398862392037e-05 0 2.2377943585926089e-06 -1.386968125277719e-05 0 4.3442148334696872e-06 -1.2914474662508343e-05 0 6.3573628303179425e-07 -1.1771734277732035e-05 0 2.2377943585926089e-06 -1.386968125277719e-05 0 3.1284005417943138e-06 -1.1364398862392037e-05 0 
</DataArray>
</PointData>
<CellData Scalars="region_id,cross_section_updated,displacement_divergence," Vectors="" Tensors="stress,">
<DataArray type="Float64" Name="region_id" format="ascii">
1 1 1 1 1 1 1 1 1 1 1 1 1 1 1 1 1 1 1 1 1 1 1 1 1 1 1 1 1 1 1 1 1 1 1 1 1 1 1 1 1 1 1 1 1 1 1 1 1 1 1 1 1 1 1 1 1 1 1 1 1 1 1 1 1 1 1 1 1 1 1 1 1 1 1 1 1 1 1 1 1 1 1 1 1 1 1 1 1 1 1 1 1 1 1 1 1 1 1 1 1 1 1 1 1 1 1 1 1 1 1 1 1 1 1 1 1 1 1 1 1 1 1 1 1 1 1 1 1 1 1 1 1 1 1 1 1 1 1 1 1 1 1 1 1 1 1 1 1 1 1 1 1 1 1 1 1 1 1 1 1 1 1 1 1 1 1 1 1 1 1 1 1 1 1 1 1 1 1 1 1 1 1 1 1 1 1 1 1 1 1 1 1 1 1 1 1 1 1 1 1 1 1 1 1 1 1 1 1 1 1 1 1 1 1 1 1 1 1 1 1 1 1 1 1 1 1 1 1 1 1 1 1 1 1 1 1 1 1 1 1 1 1 1 1 1 1 1 1 1 1 1 1 1 1 1 1 1 1 1 1 1 1 1 1 1 1 1 1 1 1 1 1 1 1 1 1 1 1 1 1 1 1 1 1 1 1 1 1 1 1 1 1 1 1 1 1 1 1 1 1 1 1 1 1 1 1 1 1 1 1 1 1 1 1 1 1 1 1 1 1 1 1 1 1 1 1 1 1 1 1 1 1 1 1 1 1 1 1 1 1 1 1 1 1 1 1 1 1 1 1 1 1 1 1 1 1 1 1 1 1 1 1 1 1 1 1 1 1 1 1 1 1 1 1 1 1 1 1 1 1 1 1 1 1 1 1 1 1 1 1 1 1 1 1 1 1 1 1 1 1 1 1 1 1 1 1 1 1 1 1 1 1 1 1 1 1 1 1 1 1 1 1 1 1 1 1 1 1 1 1 1 1 1 1 1 1 1 1 1 1 1 1 1 1 1 1 1 1 1 1 1 1 1 1 1 1 1 1 1 1 1 1 1 1 1 1 1 1 1 1 1 1 1 1 1 1 1 1 1 1 1 1 1 1 1 1 1 1 1 1 1 1 1 1 1 1 1 1 1 1 1 1 1 1 1 1 1 1 1 1 1 1 1 1 1 1 1 1 1 1 1 1 1 1 1 1 1 1 1 1 1 1 1 1 1 1 1 3 1 1 3 1 1 3 1 1 1 1 1 1 1 1 1 1 1 1 1 3 1 1 1 1 1 3 1 1 1 1 1 1 1 1 1 1 1 1 1 1 1 1 1 1 1 1 1 1 1 1 1 1 1 1 1 1 1 1 1 1 1 1 1 1 1 1 1 1 1 1 1 1 1 1 1 1 1 1 1 1 1 1 1 1 1 1 1 1 1 1 1 1 1 1 1 1 1 1 1 1 1 1 1 1 1 1 1 1 1 1 1 1 1 1 1 1 1 1 1 1 1 1 1 1 1 1 1 1 1 1 1 1 1 1 1 1 1 1 1 1 1 1 1 1 1 1 1 1 1 1 1 1 1 1 1 1 1 1 1 1 1 1 1 1 1 1 1 1 1 1 1 1 1 1 1 1 1 1 1 1 1 1 1 1 1 1 1 1 1 1 1 1 1 1 3 1 1 1 3 1 1 3 1 1 1 1 1 1 1 1 1 1 1 3 1 1 1 1 3 1 1 1 1 1 1 1 1 1 1 1 1 1 1 1 1 1 1 1 1 1 1 1 1 1 1 1 1 1 1 1 1 1 1 1 1 1 1 1 1 1 1 1 1 1 1 1 1 1 1 1 1 1 1 1 1 1 1 2 1 1 1 1 1 1 1 1 1 1 1 1 1 1 2 1 1 2 1 2 1 1 1 1 1 1 1 1 1 1 1 1 1 2 1 1 1 1 1 1 1 1 1 1 1 1 1 1 1 1 1 1 1 1 1 1 1 1 1 1 1 1 1 1 1 1 1 1 1 1 1 1 1 1 1 1 1 1 1 1 1 1 1 1 1 1 1 1 1 1 1 1 1 1 1 1 1 1 1 1 1 1 1 1 1 1 1 1 1 1 1 1 1 1 1 1 1 1 1 1 1 1 1 1 1 1 1 1 1 1 1 1 1 1 1 1 1 1 1 1 1 1 1 1 1 1 1 1 1 1 1 1 1 1 1 1 1 1 1 1 1 1 1 1 1 1 1 1 1 1 2 1 1 2 1 2 1 1 1 1 1 1 1 1 1 1 1 1 1 1 1 1 1 1 1 1 1 1 1 1 1 1 1 1 1 1 1 1 1 1 1 1 1 1 1 1 1 1 1 1 1 1 1 2 1 1 1 1 1 2 1 1 1 1 1 1 1 
</DataArray>
<DataArray type="Float64" Name="stress" NumberOfComponents="9" format="ascii">
-0.019535275424278603 0.0014454880290557153 0 0.0014454880290557153 -0.0026642646903969067 0 0 0 -0.0055498850286688755 -0.019057023483139056 0.0021440941003248509 0 0.0021440941003248509 -0.0063408449238561652 0 0 0 -0.0063494671017488048 -0.020460080922385774 0.0022352538290719552 0 0.0022352538290719552 0.0012994358708977327 0 0 0 -0.00479016126287201 -0.020095443186915616 0.0028061760522398037 0 0.0028061760522398037 -0.0025413015224842201 0 0 0 -0.0056591861773499594 -0.01683297046157569 0.0058215745798878048 0 0.0058215745798878048 -0.0056122267104368219 0 0 0 -0.0056112992930031271 -0.016830535340639659 0.0058244125406980325 0 0.0058244125406980325 -0.0056041755369428759 0 0 0 -0.0056086777193956336 -0.019459047535030954 0.0056315923357202775 0 0.0056315923357202775 -0.0013179039936056479 0 0 0 -0.0051942378821591521 -0.019586545155348741 0.0050093001980732049 0 0.0050093001980732049 -0.00163244649215241 0 0 0 -0.0053047479118752882 -0.01869233171077081 0.0065575640282547866 0 0.0065575640282547866 -0.0013010440551489543 0 0 0 -0.0049983439414799415 -0.015168303031993288 0.0068214542539925486 0 0.0068214542539925486 -0.00023480340600443711 0 0 0 -0.0038507766094994294 -0.021653536463032599 0.0070199688341017787 0 0.0070199688341017787 -0.00069975758904197022 0 0 0 -0.0055883235130186407 -0.01500493062979907 0.0075920856119509423 0 0.0075920856119509423 0.00041431520898174701 0 0 0 -0.0036476538552043299 -0.026744292628061696 0.0054682198631122794 0 0.0054682198631122794 -0.0003648817620154586 0 0 0 -0.0067772935975192903 -0.020816198276265213 0.0057585705651412109 0 0.0057585705651412109 0.00033373955815418216 0 0 0 -0.0051206146795277577 -0.031193839918755316 0.0021534548174600436 0 0.0021534548174600436 -0.0010309150945656022 0 0 0 -0.0080561887533302286 -0.024661753224461 0.0027027059097484685 0 0.0027027059097484685 -0.00016544095630417061 0 0 0 -0.0062067985451912909 -0.022999995118220887 0.0035229914588167442 0 0.0035229914588167442 0.001454984314594854 0 0 0 -0.0053862527009065127 -0.023169456075498564 0.0055708163400556183 0 0.0055708163400556183 -0.00027333671791206562 0 0 0 -0.0058606981983526565 -0.0031242190083908953 0.0080054768146558958 0 0.0080054768146558958 -0.00103982679934053 0 0 0 -0.0010410114519328565 -0.0058587428410283721 0.0094639041093015665 0 0.0094639041093015665 -0.0010746288572389476 0 0 0 -0.0017333429245668316 -0.0068885573050186787 0.0074670217963301033 0 0.0074670217963301033 -0.00070359132545543338 0 0 0 -0.0018980371576185276 -0.011928169498691162 0.0084607857457620513 0 0.0084607857457620513 -0.00092260942779552602 0 0 0 -0.0032126947316216733 -0.01252086596754029 0.0077048087014782189 0 0.0077048087014782189 -0.0022487255368862959 0 0 0 -0.0036923978761066465 -0.0080979549897933403 0.0085854259090000183 0 0.0085854259090000183 -0.0012377587418924384 0 0 0 -0.0023339284329214442 -0.0082059779340929555 0.0076689071829071634 0 0.0076689071829071634 -0.0027378327918504172 0 0 0 -0.0027359526814858433 -0.013225297411230841 0.0085463547212750856 0 0.0085463547212750856 -0.00033702694259358373 0 0 0 -0.0033905810884561072 -0.014380323585221877 0.0069980682268517645 0 0.0069980682268517645 -0.00053953534226043598 0 0 0 -0.0037299647318705786 -0.012012597423642156 0.0075750871781570406 0 0.0075750871781570406 -0.001274185574626531 0 0 0 -0.0033216957495671709 -0.0057032319205472699 0.0075421661348272452 0 0.0075421661348272452 -0.00041029494091626706 0 0 0 -0.0015283817153658834 -0.0059642612634762358 0.008126466547371718 0 0.008126466547371718 -0.00093395343283151147 0 0 0 -0.0017245536740769368 -0.0029196403152144607 0.0092548146541632063 0 0.0092548146541632063 -0.00092342307673761934 0 0 0 -0.00096076584798801979 -0.00065412151325109366 0.007180144166039691 0 0.007180144166039691 -5.4928374053016954e-05 0 0 0 -0.00017726247182602755 -0.0011300747866925015 0.008553076962090839 0 0.008553076962090839 -0.00085363862880945794 0 0 0 -0.00049592835387549149 -0.0013465206183356816 0.0068885386774823849 0 0.0068885386774823849 -0.00022295171930017399 0 0 0 -0.00039236808440896651 -0.0066396131972830397 0.0090743004758820373 0 0.0090743004758820373 -0.00084087260835997296 0 0 0 -0.0018701214514107566 -0.014496597535362796 0.0089213001307409702 0 0.0089213001307409702 -0.00058055350494396613 0 0 0 -0.0037692877600766922 -0.011681063474892894 0.0087947768327014432 0 0.0087947768327014432 -0.0006201011254451088 0 0 0 -0.0030752911500845021 -0.0080238692550763154 0.0074045099660390457 0 0.0074045099660390457 0.0001776129445024005 0 0 0 -0.0019615640776434792 -0.014560138573235477 0.007296043726887521 0 0.007296043726887521 0.00051210546260967854 0 0 0 -0.0035120082776564478 -0.016286125649551942 0.0090729331533466705 0 0.0090729331533466705 -0.00049369681069075938 0 0 0 -0.0041949556150606753 -0.012187983101070381 0.0074952156523046473 0 0.0074952156523046473 -0.00027039327388782633 0 0 0 -0.0031145940937395483 -0.0088129795732906444 0.0094337277647565856 0 0.0094337277647565856 0.00017902442138491292 0 0 0 -0.0021584887879764359 -0.0087913872828205824 0.0074164918964783697 0 0.0074164918964783697 0.00079495585325969897 0 0 0 -0.001999107857390223 -0.0026233920078442725 0.0071579469704589008 0 0.0071579469704589008 0.0002851624906771088 0 0 0 -0.00058455737929179533 -0.0081201521615130046 0.0093625524178684236 0 0.0093625524178684236 -0.00061542480933756728 0 0 0 -0.0021838942427126386 -0.0065624967439595894 0.0068296710655995794 0 0.0068296710655995794 0.0008671314413381398 0 0 0 -0.0014238413256553589 0.0028406165324790303 0.006851772242900382 0 0.006851772242900382 -0.00011138603693749277 0 0 0 0.00068230762388538438 -0.0018045234388969905 0.0083114082229494256 0 0.0083114082229494256 -3.5533163084057462e-05 0 0 0 -0.00046001415049526026 -0.031577277565393996 0.0025342871156847288 0 0.0025342871156847288 -0.001343500913508669 0 0 0 -0.0082301946197256663 -0.025024245021882 0.0061013136862871622 0 0.0061013136862871622 6.985200882142148e-05 0 0 0 -0.0062385982532651455 -0.036996618330694425 0.0031947281968182275 0 0.0031947281968182275 -0.00012220701310075577 0 0 0 -0.0092797063359487918 -0.025167130584830541 0.0043079619986914845 0 0.0043079619986914845 0.0010628932336021223 0 0 0 -0.006026059337807102 -0.019880164303759839 0.006429091406431978 0 0.006429091406431978 0.0007530967432345867 0 0 0 -0.0047817668901313139 -0.020751756174273432 0.0073395740817526617 0 0.0073395740817526617 -0.00039461839906685878 0 0 0 -0.0052865936433350745 -0.021181821120279359 0.0081206397486903899 0 0.0081206397486903899 -0.0003351056820132467 0 0 0 -0.0053792317005731506 -0.024438960196518596 0.0056968038473162409 0 0.0056968038473162409 0.00053369525106603324 0 0 0 -0.0059763162363631449 -0.017758335749483399 0.0069464399373764755 0 0.0069464399373764755 -8.1539553119281544e-05 0 0 0 -0.0044599688256506745 -0.02574273645901894 0.0077886228850610915 0 0.0077886228850610915 -0.00049194240426389535 0 0 0 -0.0065586697158207079 -0.020803565034899066 0.0064071416781167814 0 0.0064071416781167814 -0.00040666876797929019 0 0 0 -0.0053025584507195907 -0.024994992682737714 0.0058107549842166106 0 0.0058107549842166106 0.00062100490493590885 0 0 0 -0.0060934969444504522 -0.035091199879227007 0.0048102782518022712 0 0.0048102782518022712 -0.00053191734169492563 0 0 0 -0.0089057793052304858 -0.0328151760720716 0.0046712610842154466 0 0.0046712610842154466 -0.00058196392710509713 0 0 0 -0.0083492849997941695 -0.031658406242247125 0.0027256278861692244 0 0.0027256278861692244 0.00031595518530317876 0 0 0 -0.0078356127642359823 -0.042681812807729376 0.0031597359029764045 0 0.0031597359029764045 -0.0003818515539318508 0 0 0 -0.010765916090415301 -0.045950582444738278 0.0028459749508902218 0 0.0028459749508902218 -0.00033408437089183212 0 0 0 -0.01157116670390753 -0.033688597488771815 0.0035524741335299205 0 0.0035524741335299205 0.00093823132609650688 0 0 0 -0.0081875915406688232 -0.039329854229309784 0.0026155594480870392 0 0.0026155594480870392 0.00053000295753101749 0 0 0 -0.0096999628179446854 -0.053487847486854596 0.0021230428195020291 0 0.0021230428195020291 0.00084626224490482599 0 0 0 -0.013160396310487443 -0.041266485562616376 0.0059344486117470299 0 0.0059344486117470299 0.0011021931554727749 0 0 0 -0.010041073101785886 -0.04167562586984852 0.0022697075148880655 0 0.0022697075148880655 -0.00072272274206334336 0 0 0 -0.010599587152977971 -0.043952194231708694 0.0023289554612741497 0 0.0023289554612741497 0.0016987484733785637 0 0 0 -0.010563361439582539 -0.060649283706140762 0.00050680793417734547 0 0.00050680793417734547 -0.00063043955500095838 0 0 0 -0.015319930815285421 -0.025972883690908138 0.0043104621275073789 0 0.0043104621275073789 0.0015378055676519148 0 0 0 -0.0061087695308140533 -0.021100117885634213 0.0083573827178679387 0 0.0083573827178679387 0.0011859703422739964 0 0 0 -0.0049785368858400528 -0.031308228709829369 0.0055816831370308377 0 0.0055816831370308377 -0.00023162709549396504 0 0 0 -0.0078849639513308319 -0.031016448247165141 0.006497596921570651 0 0.006497596921570651 0.00055552905169323555 0 0 0 -0.0076152297988679712 -0.020708650888709622 0.0084379120608604023 0 0.0084379120608604023 0.001019903585538059 0 0 0 -0.0049221868257928857 -0.035250739749262447 0.0076505671231783014 0 0.0076505671231783014 0.0013876047571623751 0 0 0 -0.0084657837480250075 -0.029804279869273441 0.0055236922668322735 0 0.0055236922668322735 -0.0005497660196643276 0 0 0 -0.0075885114722344408 -0.026235652777047452 0.0078588444544331285 0 0.0078588444544331285 0.00066709145463890842 0 0 0 -0.0063921403306021222 -0.019042332727109472 0.0086856058584613861 0 0.0086856058584613861 0.00015590256537601974 0 0 0 -0.0047216075404333613 -0.012893654450665372 0.0082802583161399185 0 0.0082802583161399185 0.00033104191660460539 0 0 0 -0.0031406531335151887 -0.012824047468297621 0.0073398340805045908 0 0.0073398340805045908 0.00050572480315219572 0 0 0 -0.0030795806662863548 -0.012042579364216066 0.007148029908265646 0 0.007148029908265646 0.0013561646816972698 0 0 0 -0.0026716036706297009 -0.0063379291172787882 0.0083466212573175564 0 0.0083466212573175564 0.00028373353713289501 0 0 0 -0.001513548895036475 -0.020623680463268158 0.0073078665057425369 0 0.0073078665057425369 0.00057451520812416834 0 0 0 -0.0050122913137859975 -0.00075404536839841947 0.006537617305896682 0 0.006537617305896682 0.0016001484978832442 0 0 0 0.00021152578237120488 -0.0021796738477616396 0.0085992445178672341 0 0.0085992445178672341 -0.00026208898264462946 0 0 0 -0.00061044070760156877 -0.0051793021854495899 0.0063099003526010918 0 0.0063099003526010918 0.0021042316407921605 0 0 0 -0.0007687676361643591 0.0030918445299834892 0.0042594868129329118 0 0.0042594868129329118 0.0030520649978221202 0 0 0 0.0015359773819514019 0.0011784650081811078 0.0076095820962130455 0 0.0076095820962130455 0.0008934263663576518 0 0 0 0.00051797284363468924 -0.0042229297567502409 0.0064401990927859991 0 0.0064401990927859991 0.003528123637097369 0 0 0 -0.0001737015299132184 0.0039043619110418013 0.0048905615476324826 0 0.0048905615476324826 0.0034306793208259724 0 0 0 0.0018337603079669456 0.0036722249116250948 0.0041885489445627842 0 0.0041885489445627842 0.0060718518545239616 0 0 0 0.0024360191915372628 -0.012509731151309909 0.0085715431307405183 0 0.0085715431307405183 0.0011085901837817056 0 0 0 -0.0028502852418820514 -0.017786227712603943 0.0057738348004406324 0 0.0057738348004406324 0.0011743136000947063 0 0 0 -0.0041529785281273057 -0.0046447501980265999 0.0067281976363322976 0 0.0067281976363322976 0.0013130777806214401 0 0 0 -0.00083291810435128823 -0.0094055321208407743 0.005036215430900378 0 0.005036215430900378 0.0027431853709255008 0 0 0 -0.0016655866874788171 -0.011973312776899718 0.0084454180646110939 0 0.0084454180646110939 0.0029243129500084591 0 0 0 -0.0022622499567228208 -0.017068204505009947 0.0080096924584927807 0 0.0080096924584927807 0.0041136362491193124 0 0 0 -0.0032386420639726604 -0.011417503014719454 0.0058386625906722972 0 0.0058386625906722972 0.0084558381379562647 0 0 0 -0.00074041621919078426 -0.016851937410181206 0.0026559402734828916 0 0.0026559402734828916 0.0041281357602562284 0 0 0 -0.0031809504124812476 0.013196419140081187 0.0014946460012032333 0 0.0014946460012032333 0.0075885628732737243 0 0 0 0.005196245503338727 -0.0064218616707912984 0.0068853510334433259 0 0.0068853510334433259 0.005454292649460621 0 0 0 -0.00024189225533267195 0.001258012845132956 0.0037500546990006187 0 0.0037500546990006187 0.0062156294802310288 0 0 0 0.0018684105813409936 0.0023915417577978874 0.0042221497805665364 0 0.0042221497805665364 0.010298917626938409 0 0 0 0.0031726148461840749 0.010657166148837714 -0.00029676084410590331 0 -0.00029676084410590331 0.011729162800837113 0 0 0 0.0055965822374187107 -0.00033624997123864186 0.0028086268928305749 0 0.0028086268928305749 0.016889068413816793 0 0 0 0.0041382046106445483 -0.0018478330455296427 -0.0016352035930690331 0 -0.0016352035930690331 0.017626294685325838 0 0 0 0.0039446154099490455 0.0039429572127800128 -0.0049795955445697745 0 -0.0049795955445697745 0.01338355848735992 0 0 0 0.0043316289250349832 0.0099602954690265477 -0.0016362501762721832 0 -0.0016362501762721832 0.02610598081199475 0 0 0 0.0090165690702553036 -0.016110494605577085 0.00082930323943271322 0 0.00082930323943271322 0.010576574664585586 0 0 0 -0.0013834799852478971 -0.0037823786985640567 0.0014217677910613267 0 0.0014217677910613267 0.0077865028194251257 0 0 0 0.0010010310302152742 -0.0060335398999712929 -0.0040813774143423354 0 -0.0040813774143423354 0.010105992708735537 0 0 0 0.0010181132021910809 -0.017881792537270562 0.0024238118014971721 0 0.0024238118014971721 0.0055551919730961186 0 0 0 -0.0030816501410436056 -0.022434972612565759 -0.0029664817552822187 0 -0.0029664817552822187 0.0058383003243661913 0 0 0 -0.0041491680720499163 -0.030875718528318007 0.0001711150717315698 0 0.0001711150717315698 0.0037566561882981381 0 0 0 -0.0067797655850049612 -0.034440745237596194 0.0039952620681149853 0 0.0039952620681149853 0.0027462583759145787 0 0 0 -0.0079236217154204022 -0.043030902121152112 -0.0028913987196099236 0 -0.0028913987196099236 0.0032595994093103653 0 0 0 -0.009942825677960454 -0.047189148339089382 0.0017140037773033384 0 0.0017140037773033384 0.0010695176487150598 0 0 0 -0.011529907672593574 -0.066342986834017736 0.00053387068632080399 0 0.00053387068632080399 0.0012071020251067377 0 0 0 -0.016283971202227757 -0.048653596113345972 0.0021618905715798109 0 0.0021618905715798109 0.0013268026288438262 0 0 0 -0.011831698371125556 -0.048074193967961004 0.0005466444906200435 0 0.0005466444906200435 0.00072473739145162419 0 0 0 -0.011837364144127369 -0.049983264365798669 0.00036776862143029013 0 0.00036776862143029013 -0.00062721300697184124 0 0 0 -0.012652619343192641 -0.041165669147319908 0.0058136666722905378 0 0.0058136666722905378 0.001312862282906252 0 0 0 -0.0099632017161034314 -0.06463113150084418 0.0026443127706172005 0 0.0026443127706172005 0.00023074396568129041 0 0 0 -0.016100096883790729 -0.046730584343251273 0.0048990771804982118 0 0.0048990771804982118 0.0013091768484558928 0 0 0 -0.011355351873698846 -0.031553915609085881 0.0074207294826373962 0 0.0074207294826373962 0.0024351086099387159 0 0 0 -0.0072797017497867947 -0.024737667932079242 0.0064818209830302363 0 0.0064818209830302363 0.0041115888433321934 0 0 0 -0.0051565197721867625 -0.03520636765564554 0.0023260338483725405 0 0.0023260338483725405 0.0017988209235114544 0 0 0 -0.008351886683033518 0.010824923322190511 -0.00035932794087713011 0 -0.00035932794087713011 0.026379710200983057 0 0 0 0.0093011583807933867 0.0099948140287830917 -0.0014378524971233322 0 -0.0014378524971233322 0.021209534148880244 0 0 0 0.0078010870444158373 0.009814312388692752 -0.0025185452995275387 0 -0.0025185452995275387 0.018123424281664455 0 0 0 0.0069844341675893047 0.0084354127688862739 0.0011045574065485383 0 0.0011045574065485383 0.022060029905703844 0 0 0 0.0076238606686475328 0.012051728570854651 0.0046933870202635506 0 0.0046933870202635506 0.024032949183216235 0 0 0 0.0090211694385177177 0.013211151657763294 0.0039334986367130865 0 0.0039334986367130865 0.029908174216278553 0 0 0 0.010779831468510458 0.00817580020061804 -0.00035978434931505836 0 -0.00035978434931505836 0.028750367897288936 0 0 0 0.0092315420244767493 0.0069811527945905835 1.9588955164294558e-05 0 1.9588955164294558e-05 0.028502160729951716 0 0 0 0.008870828381135577 0.0097657277761972645 -0.00033643784771876474 0 -0.00033643784771876474 0.027941403287013139 0 0 0 0.0094267827658026035 0.0085032360277612178 0.00017445350806724255 0 0.00017445350806724255 0.027562005084699272 0 0 0 0.0090163102781151173 0.0022410150647541056 -0.0011933778983531061 0 -0.0011933778983531061 0.026138035686457027 0 0 0 0.0070947626878027793 0.0066808109759634495 -0.0018891321951722863 0 -0.0018891321951722863 0.027528200201173546 0 0 0 0.008552252794284251 0.0055924955819640545 -0.0024855686612051606 0 -0.0024855686612051606 0.026338516180413649 0 0 0 0.0079827529405944227 0.0060513401846066239 -0.0048991084539780974 0 -0.0048991084539780974 0.027044364373091139 0 0 0 0.0082739261394244468 0.0034439674376983143 -0.0032733644338991635 0 -0.0032733644338991635 0.030757388379613976 0 0 0 0.0085503389543280725 0.022838371339574941 -0.022280107685985269 0 -0.022280107685985269 0.047613690342132732 0 0 0 0.017613015420426925 0.00027022715558838381 -0.012103518385510725 0 -0.012103518385510725 0.0288040108592547 0 0 0 0.0072685595037107684 0.022077129471664715 -0.013861289425930221 0 -0.013861289425930221 0.026514332364958086 0 0 0 0.012147865459155693 0.0018944235694619456 -0.0050489577247956417 0 -0.0050489577247956417 0.02781706957583939 0 0 0 0.0074278732863253295 0.024694039970598339 -0.0043305457264880484 0 -0.0043305457264880484 0.038872109243962727 0 0 0 0.015891537303640263 0.022596456421559431 -0.0075125170642087735 0 -0.0075125170642087735 0.020634273195111436 0 0 0 0.010807682404167719 0.036371403572121888 -0.011866003652879913 0 -0.011866003652879913 0.027300070554766478 0 0 0 0.015917868531722092 0.015806021955265058 -0.0079234247708717294 0 -0.0079234247708717294 0.020015250867629036 0 0 0 0.0089553182057235253 0.011537757569349966 9.9159925000303489e-05 0 9.9159925000303489e-05 0.018568816330715637 0 0 0 0.0075266434750164077 0.023904445692610014 -0.0045635584356360764 0 -0.0045635584356360764 0.015284661433836041 0 0 0 0.0097972767816115122 0.011299049000956097 -0.0005561234929483197 0 -0.0005561234929483197 0.012047213029458867 0 0 0 0.005836565507603743 0.015517569259772608 -0.0011907874245181242 0 -0.0011907874245181242 0.0085642409165515021 0 0 0 0.0060204525440810249 0.010869098630787173 -0.0071969872594284355 0 -0.0071969872594284355 0.023936868605661136 0 0 0 0.0087014918091120746 0.009078762235360676 -0.00735933089438462 0 -0.00735933089438462 0.016500942663264608 0 0 0 0.006394926224656327 0.01643933406013099 -0.0058916060893015624 0 -0.0058916060893015624 0.019377154576309771 0 0 0 0.0089541221591101887 0.010762018658655625 -0.0023251325383183714 0 -0.0023251325383183714 0.0094937085138762714 0 0 0 0.0050639317931329749 0.013233366654662338 -0.0023082345266678857 0 -0.0023082345266678857 0.018723881094781222 0 0 0 0.007989311937360891 0.01273961115115734 -0.0012999808709428869 0 -0.0012999808709428869 0.011404080137120416 0 0 0 0.0060359228220694377 0.012815775421051962 0.0028265948763495103 0 0.0028265948763495103 0.009907369080314133 0 0 0 0.0056807861253415221 0.010481071525195403 0.0018103045418430249 0 0.0018103045418430249 0.0047891394762006913 0 0 0 0.0038175527503490248 0.0099044669064013921 0.00074038308595919707 0 0.00074038308595919707 0.0085757688855770085 0 0 0 0.0046200589479945993 0.012441780111549162 0.0002993360070100086 0 0.0002993360070100086 0.0065420324328055134 0 0 0 0.0047459531360886731 0.0105554291938664 0.0033399815341067273 0 0.0033399815341067273 0.0074048830201328738 0 0 0 0.0044900780534998163 0.0059164006801199443 0.0055527222786426866 0 0.0055527222786426866 0.0039892622677196714 0 0 0 0.0024764157369599037 0.0092594902350901735 0.0025667668393732253 0 0.0025667668393732253 0.0038787836577744064 0 0 0 0.0032845684732161432 0.0082948064855759718 0.0059440563193523411 0 0.0059440563193523411 0.0030911218513369962 0 0 0 0.0028464820842282416 0.0062709057013062737 0.0048163715506661245 0 0.0048163715506661245 0.0016001224367326455 0 0 0 0.0019677570345097307 0.0036396559277393215 0.0074731379455887465 0 0.0074731379455887465 0.00089013313923801823 0 0 0 0.0011324472667443341 0.01267725187011819 0.0024421601061371807 0 0.0024421601061371807 0.0063859497601282383 0 0 0 0.0047658004075616075 0.011683208260306204 0.0018842318453440796 0 0.0018842318453440796 0.0055696185197733096 0 0 0 0.0043132066950198767 0.011274421417813939 0.004431201878487518 0 0.004431201878487518 0.0048700389233353588 0 0 0 0.0040361150852873265 0.010003802671598177 0.0038381050507237842 0 0.0038381050507237842 0.0038431796429500356 0 0 0 0.0034617455786370571 0.012599739609904063 0.0031380134795034893 0 0.0031380134795034893 0.0074100408561977547 0 0 0 0.0050024451165254528 0.014035159467664701 0.0056050068791215126 0 0.0056050068791215126 0.0042700973192420222 0 0 0 0.0045763141967266781 0.017298741314638148 0.0058390559380120891 0 0.0058390559380120891 0.0073217365749382625 0 0 0 0.0061551194723941027 0.017578598819823987 0.0053913133664664544 0 0.0053913133664664544 0.0060054941924794283 0 0 0 0.0058960232530758556 0.01459050654256288 0.0031297528277862054 0 0.0031297528277862054 0.0084683349757353199 0 0 0 0.0057647103795745551 0.014559246353485863 0.0032069838894760077 0 0.0032069838894760077 0.011664318035027342 0 0 0 0.006555891097128304 0.012540027163328195 0.001971725169874667 0 0.001971725169874667 0.0099922484795094569 0 0 0 0.0056330689107094026 0.014902241012946365 0.0025776198597380162 0 0.0025776198597380162 0.016927579233200353 0 0 0 0.0079574550615366686 0.016710539807705635 0.0047098191343078527 0 0.0047098191343078527 0.012523772899870139 0 0 0 0.0073085781768939401 0.011181957134335454 0.0015008997741869554 0 0.0015008997741869554 0.015176729195371719 0 0 0 0.0065896715824267935 0.012973572213423679 0.00058029279973114117 0 0.00058029279973114117 0.021228487476981472 0 0 0 0.0085505149226012909 0.010793207146534379 -0.00094066219673311514 0 -0.00094066219673311514 0.013869031478509097 0 0 0 0.0061655596562608678 0.017867242171162936 0.0069467761880425529 0 0.0069467761880425529 0.026902036387718861 0 0 0 0.011192319639720451 0.013288774447903997 0.0043990042601834865 0 0.0043990042601834865 0.017589921317077456 0 0 0 0.0077196739412453653 0.014962428627786056 0.0035457278215711542 0 0.0035457278215711542 0.02367272988817757 0 0 0 0.0096587896289909055 0.016663889754970372 0.0049179362398649226 0 0.0049179362398649226 0.012780283046281867 0 0 0 0.0073610432003130624 0.018801638876231579 0.0070612001100172975 0 0.0070612001100172975 0.016276917670777165 0 0 0 0.0087696391367521956 0.019410980954222851 0.006925251484872991 0 0.006925251484872991 0.018209955151221847 0 0 0 0.0094052340263611686 0.020255577692620912 0.0067948233911267883 0 0.0067948233911267883 0.008159279079269801 0 0 0 0.0071037141929726801 0.020548577589761266 0.0071425344000710586 0 0.0071425344000710586 0.010328553176477486 0 0 0 0.0077192826915596854 0.024150253381057096 0.0079043704561740178 0 0.0079043704561740178 0.0069349316828798968 0 0 0 0.007771296265984249 0.022953207834829771 0.0069908800579580946 0 0.0069908800579580946 0.0034680596148806159 0 0 0 0.0066053168624275928 0.02022822651856886 0.0056692331123698071 0 0.0056692331123698071 0.00090177426771198554 0 0 0 0.005282500196570214 0.020067355986045931 0.0068454155223181727 0 0.0068454155223181727 0.0048191198476562162 0 0 0 0.0062216189584255342 0.020527041377019831 0.0061324813221904657 0 0.0061324813221904657 0.0038336304013466688 0 0 0 0.006090167944591625 0.014807536177414217 0.0044812149418697773 0 0.0044812149418697773 0.0043073651431988352 0 0 0 0.0047787253301532582 0.015193888230870055 0.0058879358728945288 0 0.0058879358728945288 0.0018465580235108719 0 0 0 0.0042601115635952317 0.017710255738521283 0.006141915459239318 0 0.006141915459239318 0.0024296438455850521 0 0 0 0.0050349748960265839 0.01813226057493959 0.0062319581654619437 0 0.0062319581654619437 0.0037510074444860944 0 0 0 0.0054708170048564202 0.018536508961465609 0.0053033065797522755 0 0.0053033065797522755 0.000373594108606011 0 0 0 0.0047275257675179049 0.018495388239759557 0.0062383526992771093 0 0.0062383526992771093 0.00031732539968640228 0 0 0 0.0047031784098614917 0.014659752412695258 0.0057976171378717675 0 0.0057976171378717675 0.00023924183575496638 0 0 0 0.003724748562112557 0.021156535092687563 0.0055818401969428139 0 0.0055818401969428139 -0.00010983540594310115 0 0 0 0.005261674921686112 0.020841815774249622 0.0045267363398538169 0 0.0045267363398538169 -0.0006770070477337773 0 0 0 0.0050412021816289634 0.023902351813261707 0.00512702874383574 0 0.00512702874383574 -0.00019070670999956491 0 0 0 0.0059279112758155337 0.022301529034732082 0.0049250915408014292 0 0.0049250915408014292 -0.00058399787833342265 0 0 0 0.0054293827890996649 0.020969583417085345 0.0060665003943804856 0 0.0060665003943804856 0.0010619548176391581 0 0 0 0.005507884558681125 0.0035173578788798001 0.0070373555927983264 0 0.0070373555927983264 0.0018589504671970031 0 0 0 0.0013440770865192015 0.0079300659381083636 0.0061329894314546829 0 0.0061329894314546829 0.00043065307137538089 0 0 0 0.0020901797523709374 0.003830461326321026 0.00728228813220109 0 0.00728228813220109 0.0003440320532656499 0 0 0 0.0010436233448966707 0.010868032298050532 0.005702628666930944 0 0.005702628666930944 -0.00018350782075912675 0 0 0 0.0026711311193228591 0.0087499320425462428 0.0065273604398239423 0 0.0065273604398239423 0.0024029481262001218 0 0 0 0.002788220042186592 0.011196905236597061 0.0060954347974881487 0 0.0060954347974881487 0.0018499317562912197 0 0 0 0.0032617092482220694 0.012285157398005528 0.004618043194876251 0 0.004618043194876251 0.0019008996140842116 0 0 0 0.0035465142530224356 0.012684520297081753 0.0067849436751379905 0 0.0067849436751379905 0.0029932013025463847 0 0 0 0.0039194303999070396 0.014367088546191301 0.0053911898455060135 0 0.0053911898455060135 0.0002451329835223906 0 0 0 0.0036530553824284245 0.011806609077534705 0.0056663806869856996 0 0.0056663806869856996 0.00056265144058638764 0 0 0 0.0030923151295302737 0.014587369086196419 0.006528825614654352 0 0.006528825614654352 -2.184872099222912e-05 0 0 0 0.0036413800913010445 0.010019373341768632 0.0072075000731582021 0 0.0072075000731582021 0.00099644789551522027 0 0 0 0.0027539553093209584 0.0091540744804460353 0.0065614026547518188 0 0.0065614026547518188 -3.7188731391926688e-05 0 0 0 0.0022792214372635289 0.0044787259658111579 0.0069135668500556365 0 0.0069135668500556365 -3.0692269125220939e-05 0 0 0 0.0011120084241714821 0.0038532619829568932 0.0079874457746966811 0 0.0079874457746966811 -0.00021593056570930885 0 0 0 0.00090933285431189781 0.0036283115912750553 0.007168959158529345 0 0.007168959158529345 -9.4806099926229848e-05 0 0 0 0.00088337637283720377 -0.00035361415158553962 0.0083731131072423172 0 0.0083731131072423172 -0.00042165096559365275 0 0 0 -0.00019381627929480026 0.0024177591170663698 0.0086822659102642023 0 0.0086822659102642023 -0.0004109397414748181 0 0 0 0.00050170484389788945 -0.00083047057451144865 0.0078370819646640787 0 0.0078370819646640787 0.00020605988071483589 0 0 0 -0.00015610267344915232 0.0026503059107713459 0.0069030716409165787 0 0.0069030716409165787 -0.00044960046355554256 0 0 0 0.00055017636180395083 0.0069657475891815408 0.0078866253170469195 0 0.0078866253170469195 -0.0001284862710449336 0 0 0 0.0017093153295341503 0.0062398826930936367 0.0068901234107590775 0 0.0068901234107590775 0.00028152288363366904 0 0 0 0.0016303513941818273 0.0076109849885555268 0.0080247654981470077 0 0.0080247654981470077 -5.7671374998957692e-05 0 0 0 0.0018883284033891432 0.010130052484482482 0.0060943546423340069 0 0.0060943546423340069 1.8893116761765916e-05 0 0 0 0.0025372364003110603 0.010753253323229357 0.0067464865052638979 0 0.0067464865052638979 0.00027976512828722933 0 0 0 0.0027582546128791467 0.01415739208540847 0.006749678899537888 0 0.006749678899537888 -8.800797904695741e-05 0 0 0 0.0035173460265903794 0.01087105624737119 0.0061918000457332921 0 0.0061918000457332921 0.0017673788579397852 0 0 0 0.0031596087763277447 0.0092328742815804624 0.0081576385061699619 0 0.0081576385061699619 0.00085380425492213689 0 0 0 0.0025216696341256498 0.0079922008284621805 0.0072006237676166219 0 0.0072006237676166219 0.0026641110253900805 0 0 0 0.0026640779634630645 0.0045313489334206465 0.0092037134348269996 0 0.0092037134348269996 0.00011665542761191833 0 0 0 0.0011620010902581406 0.0025093011043710572 0.0077622617303968735 0 0.0077622617303968735 0.00083537825133215659 0 0 0 0.00083616983892580339 -0.00051181358356521336 0.0097112222194409292 0 0.0097112222194409292 -0.00080185737343191343 0 0 0 -0.00032841773924928083 0.020340006539865091 0.0042120472391966521 0 0.0042120472391966521 0.00084831287409457487 0 0 0 0.0052970798534899164 0.021021844987638573 0.0045801813147068448 0 0.0045801813147068448 -0.00064862792036222972 0 0 0 0.0050933042668190858 0.017793804044820137 0.0053075673913670386 0 0.0053075673913670386 -0.00030627806818478431 0 0 0 0.0043718814941588365 0.017981083285585717 0.0056814817850320658 0 0.0056814817850320658 -0.00017720670807211056 0 0 0 0.0044509691443784007 0.01459130348269148 0.0057481932081863453 0 0.0057481932081863453 0.00084161312038948458 0 0 0 0.0038582291507702404 0.016740646418320355 0.0053971313522980582 0 0.0053971313522980582 0.0014516056917758605 0 0 0 0.0045480630275240531 0.012956618440472186 0.0061986036774481423 0 0.0061986036774481423 0.004316183147672654 0 0 0 0.0043182003970362115 0.013008282200379365 0.0069384771463196892 0 0.0069384771463196892 0.0022483032116932169 0 0 0 0.003814146353018146 0.015975411379114315 0.0053825749764341438 0 0.0053825749764341438 0.0053242808157641609 0 0 0 0.0053249230487196191 0.016056885589380517 0.0052573174471809772 0 0.0052573174471809772 0.0023481173086363095 0 0 0 0.0046012507245042061 0.019882557325446665 0.003683681670023393 0 0.003683681670023393 0.0029174630481477917 0 0 0 0.0057000050933986145 0.018167372223091411 0.0046677272764160289 0 0.0046677272764160289 0.00039906751642376564 0 0 0 0.0046416099348787947 0.017541164469898018 0.0044622654005794741 0 0.0044622654005794741 0.0027255259699586858 0 0 0 0.0050666726099641768 0.017868336670523913 0.0042243467784412667 0 0.0042243467784412667 0.005955286772823325 0 0 0 0.005955905860836809 0.019033017543346187 0.0026089485756443198 0 0.0026089485756443198 0.0017265000447110436 0 0 0 0.0051898793970143083 0.020755469188604492 0.0012503359717384217 0 0.0012503359717384217 0.006913604565878498 0 0 0 0.0069172684386207472 0.018696345879675863 0.00051041133991150715 0 0.00051041133991150715 0.00094244511226248455 0 0 0 0.0049096977479845885 0.022454932050122417 0.00035034787682488487 0 0.00035034787682488487 0.0018418959881087542 0 0 0 0.0060742070095577937 0.022178032510965104 0.0018282460403437133 0 0.0018282460403437133 0.00075949747526667393 0 0 0 0.0057343824965579437 0.022816213012919254 0.002788550648274696 0 0.002788550648274696 -0.00012526677575729755 0 0 0 0.0056727365592904901 0.021485587115212146 0.0013811167183134536 0 0.0013811167183134536 -0.0011740093682196659 0 0 0 0.0050778944367481215 0.024752971655264681 0.0014287345743443142 0 0.0014287345743443142 -0.00019972638949889473 0 0 0 0.0061383113164414438 0.022771806726636971 0.0025072904605792511 0 0.0025072904605792511 -0.0024319083322573037 0 0 0 0.0050849745985949157 0.023473874643284789 0.00031952989380829673 0 0.00031952989380829673 -0.0035955525127651777 0 0 0 0.0049695805326299032 0.021581560013814505 -0.0027779899749020317 0 -0.0027779899749020317 -0.0037564732219906912 0 0 0 0.0044562716979559564 0.022980038015763708 -0.00097728064219617132 0 -0.00097728064219617132 -0.00096272013335845386 0 0 0 0.0055043294706013162 0.021554273322936336 -0.00060570549673124403 0 -0.00060570549673124403 -0.0001344140821243245 0 0 0 0.0053549648102030022 0.020521705500398533 -0.00078214165058652994 0 -0.00078214165058652994 0.0068419191286593645 0 0 0 0.0068409061572644748 0.020226149697613695 -0.0026893777241085966 0 -0.0026893777241085966 0.0067359487527169472 0 0 0 0.0067405246125826594 0.018443671105699798 -0.0022982294159014848 0 -0.0022982294159014848 0.0011921275839756156 0 0 0 0.0049089496724188525 0.016731432408809976 -0.005474930023618851 0 -0.005474930023618851 0.0055756069693705893 0 0 0 0.0055767598445451427 0.0205482064827094 -0.0034679986402623838 0 -0.0034679986402623838 0.00092238413760084396 0 0 0 0.0053676476550775596 0.015744440326761425 -0.0053793208034061974 0 -0.0053793208034061974 -0.00096451892501053099 0 0 0 0.0036949803504377227 0.0099963564509131676 -0.0080332509684456106 0 -0.0080332509684456106 0.0033285944741983757 0 0 0 0.0033312377312778858 0.010714847823819056 -0.0089060490708532426 0 -0.0089060490708532426 -0.0025680713809569343 0 0 0 0.0020366941107155326 0.0045144047223250414 -0.011381960758806663 0 -0.011381960758806663 -0.0029966729669729346 0 0 0 0.00037943293883802541 0.010741704192945645 -0.0092152933541108407 0 -0.0092152933541108407 -0.0054799103979963175 0 0 0 0.0013154484487373341 0.013339125475488692 -0.0075285040320852009 0 -0.0075285040320852009 -0.0038846127799365554 0 0 0 0.0023636281738880337 0.01643722895039406 -0.0059993968106268822 0 -0.0059993968106268822 -0.0011243121433367237 0 0 0 0.0038282292017643342 0.0086350221953471404 -0.0090122648611860329 0 -0.0090122648611860329 -0.0039326741278100028 0 0 0 0.0011755870168842879 0.015926308458026801 -0.0060476007483514314 0 -0.0060476007483514314 -0.0041947324716158406 0 0 0 0.0029328939966027385 0.021463280730512645 -0.0036845650904102196 0 -0.0036845650904102196 -0.0051422448310913076 0 0 0 0.0040802589748553369 0.022512366710863534 -0.0021150817175398101 0 -0.0021150817175398101 -0.0028130739938369963 0 0 0 0.0049248231792566356 0.023780344599889185 -0.0030344973523166569 0 -0.0030344973523166569 -0.0039806416811774131 0 0 0 0.0049499257296779422 0.023046872044722583 -0.0026397015250855978 0 -0.0026397015250855978 -0.0063131017449690116 0 0 0 0.0041834425749383893 0.028813039907327274 -0.00041469819162594842 0 -0.00041469819162594842 -0.0052627551378060071 0 0 0 0.0058875711923803212 0.018742155167968705 -0.0066816512892421045 0 -0.0066816512892421045 -0.0073607117322947906 0 0 0 0.0028453608589184827 0.014498450106190757 -0.0091370502136461865 0 -0.0091370502136461865 -0.0062909325715331046 0 0 0 0.0020518793836644088 0.018910928004993409 -0.0064354333488875291 0 -0.0064354333488875291 -0.0054037337616339269 0 0 0 0.0033767985608398679 0.020543213171815827 -0.0049885812882675684 0 -0.0049885812882675684 -0.0056919763296538195 0 0 0 0.0037128092105405026 0.011095855772881398 -0.0096390846443376536 0 -0.0096390846443376536 -0.0075757423522622783 0 0 0 0.00088002835515477856 0.019180771492439824 -0.0096456987227511518 0 -0.0096456987227511518 -0.0080851976996392412 0 0 0 0.0027738934482001484 0.023616558996161285 -0.007882148150573141 0 -0.007882148150573141 -0.0059358517127716601 0 0 0 0.0044201768208474044 0.021592136190307955 -0.006609571697392562 0 -0.006609571697392562 -0.00863809298989748 0 0 0 0.0032385108001026152 0.031881862067277153 -0.0033946961622113945 0 -0.0033946961622113945 -0.0054134204308629585 0 0 0 0.0066171104091035486 0.0235614390776906 -0.009970789953665465 0 -0.009970789953665465 -0.0051908548633202087 0 0 0 0.0045926460535926014 0.022437457572178077 -0.0093317370191414329 0 -0.0093317370191414329 -0.0078187741572990892 0 0 0 0.0036546708537197477 0.026718996179566183 -0.00074907842270029732 0 -0.00074907842270029732 -0.0053855610125807633 0 0 0 0.0053333587917463524 0.027799126039752688 -0.0046591117659118327 0 -0.0046591117659118327 -0.0063064516865170527 0 0 0 0.005373168588308907 0.03145000745457685 0.00035223861464325854 0 0.00035223861464325854 -0.0064004194863343938 0 0 0 0.0062623969920606141 0.03656273208862941 0.0027403023083881831 0 0.0027403023083881831 -0.0023579292475043433 0 0 0 0.0085512007102812801 0.030832061563446953 0.0040347997418474293 0 0.0040347997418474293 -0.0015622894111877209 0 0 0 0.0073174430380648072 0.032715386186870504 0.0039944421321305539 0 0.0039944421321305539 -0.0012098843500983544 0 0 0 0.0078763754591930375 0.029249365779549133 0.0028036414165719531 0 0.0028036414165719531 -0.0039792225279693186 0 0 0 0.0063175358128949553 0.029260071247929242 0.0053757284476124252 0 0.0053757284476124252 -0.00030507706337717412 0 0 0 0.0072387485461380234 0.03069155010733347 0.0070379459736212733 0 0.0070379459736212733 0.0026227958158682486 0 0 0 0.0083285864808004297 0.027770878632570533 0.0053870578715959228 0 0.0053870578715959228 -0.00048643763850659411 0 0 0 0.0068211102485159795 0.027185977439679189 0.0075439908633842621 0 0.0075439908633842621 0.0039374960720181852 0 0 0 0.0077808683779243418 0.023958886358394483 0.0056476984188885528 0 0.0056476984188885528 0.00060822493754807833 0 0 0 0.0061417778239856377 0.023667584194205192 0.0057974988777171853 0 0.0057974988777171853 0.00048020604862939256 0 0 0 0.0060369475607086496 0.025616263001662084 0.0037279432822949713 0 0.0037279432822949713 -0.0027552369281110957 0 0 0 0.0057152565183877469 0.026925121822385038 0.0046180026520239855 0 0.0046180026520239855 -0.0007457486427102783 0 0 0 0.0065448432949186883 0.023105599548773198 0.0035658581099153696 0 0.0035658581099153696 -0.0026253226260476176 0 0 0 0.0051200692306813938 0.026214829966642716 0.0027395815171323114 0 0.0027395815171323114 -0.0012527861801259353 0 0 0 0.006240510946629192 0.024232730881837517 0.00154300006948974 0 0.00154300006948974 -0.0039194810037581004 0 0 0 0.0050783124695198568 0.02591766823476007 0.00078071072632207139 0 0.00078071072632207139 -0.0026042392661283012 0 0 0 0.0058283572421579458 0.025325443594509115 -0.0014904190729853003 0 -0.0014904190729853003 -0.0040283415934360784 0 0 0 0.005324275500268259 0.026510316464724924 0.0019670447315775315 0 0.0019670447315775315 -0.00381239659452567 0 0 0 0.0056744799675498211 0.028577340743671555 0.0026485845128438562 0 0.0026485845128438562 -0.0029615366848625346 0 0 0 0.006403951014702247 -0.045439078299182145 -0.0037337384883062916 0 -0.0037337384883062916 -0.0019347212177924789 0 0 0 -0.011843449879243653 -0.031324064738073774 -0.0095927657567694974 0 -0.0095927657567694974 -0.00084659610862218224 0 0 0 -0.0080426652116739883 -0.034182745270455756 -0.004508009726366816 0 -0.004508009726366816 -0.00035026157911832137 0 0 0 -0.0086332517123935207 -0.030920781517986613 -0.0060289917193507144 0 -0.0060289917193507144 0.0024909533647701557 0 0 0 -0.0071074570383041127 -0.026448384590669876 -0.0042280497948299564 0 -0.0042280497948299564 0.00224754745572232 0 0 0 -0.0060502092837368916 -0.024942532521378267 -0.0032012246993380887 0 -0.0032012246993380887 -0.0031948339130927301 0 0 0 -0.0070343416086177495 -0.024529407570495553 -0.0042088556588574097 0 -0.0042088556588574097 -0.0081609161002895898 0 0 0 -0.0081725809176962858 -0.026170079481412544 -0.0050668152001353073 0 -0.0050668152001353073 -0.0029281305516734874 0 0 0 -0.0072745525082715074 -0.02561439873743189 -0.0084788416062571547 0 -0.0084788416062571547 -0.0022202633864044658 0 0 0 -0.0069586655309590868 -0.024057373535165009 -0.0091072268213991149 0 -0.0091072268213991149 -0.001461132915597272 0 0 0 -0.0063796266126905712 -0.020610600353427454 -0.0091103353942141169 0 -0.0091103353942141169 -0.0068724589382171677 0 0 0 -0.0068707648229111556 -0.020606845647228655 -0.0091135852266999232 0 -0.0091135852266999232 -0.0068603328912963191 0 0 0 -0.0068667946346312424 -0.023096889518902229 -0.010714522829983746 0 -0.010714522829983746 -0.0029068146412118342 0 0 0 -0.0065009260400285193 -0.016209666946486522 -0.011114646203211153 0 -0.011114646203211153 -0.00092746941120154872 0 0 0 -0.0042842840894220142 -0.026200184490721173 -0.0099063333215097145 0 -0.0099063333215097145 0.00035999838556022984 0 0 0 -0.006460046526290235 -0.037989014124827879 -0.010039413233067436 0 -0.010039413233067436 -0.0017523504101243925 0 0 0 -0.0099353411337380626 -0.015494981900997145 -0.013197226016655104 0 -0.013197226016655104 -0.00098563040392404128 0 0 0 -0.0041201530762302943 -0.028108643715236498 -0.0122227622430071 0 -0.0122227622430071 -0.0029119142988996982 0 0 0 -0.007755139503534049 -0.013985347488216764 -0.011646565923699266 0 -0.011646565923699266 -0.0027575225904027389 0 0 0 -0.0041857175196548767 -0.011155670511096123 -0.011710889905988342 0 -0.011710889905988342 -0.0041221819793371452 0 0 0 -0.0038194631226083154 -0.013623685879391627 -0.013684221915668418 0 -0.013684221915668418 -0.0029113635558837281 0 0 0 -0.0041337623588188384 -0.012441450239429488 -0.012422525082021869 0 -0.012422525082021869 -0.0017332865024129868 0 0 0 -0.0035436841854606174 -0.01308548993521867 -0.011726625674825179 0 -0.011726625674825179 -0.0032542507524106375 0 0 0 -0.0040849351719073274 -0.0057866053554076081 -0.010412271922946616 0 -0.010412271922946616 -0.0019335588386496566 0 0 0 -0.0019300410485143162 -0.0052768675908662077 -0.012247448530121377 0 -0.012247448530121377 -0.0031972975196398086 0 0 0 -0.0021185412776265049 -0.0027716273862724104 -0.010029485920690482 0 -0.010029485920690482 -0.0016501318463025064 0 0 0 -0.0011054398081437305 -0.0032019186785551641 -0.01280624989404633 0 -0.01280624989404633 -0.0027585114255603421 0 0 0 -0.0014901075260288759 0.0023198802794522811 -0.0097667272005009381 0 -0.0097667272005009381 0.00077410776202245111 0 0 0 0.00077349701036868296 0.0072619214667434245 -0.0083885436931907809 0 -0.0083885436931907809 -0.001176947338562731 0 0 0 0.0015212435320451721 0.0027322792561264297 -0.012319656015616768 0 -0.012319656015616768 -0.0043401750136338804 0 0 0 -0.00040197393937686093 -7.6121750413812861e-06 -0.012467726987575931 0 -0.012467726987575931 -0.0042137131693636143 0 0 0 -0.0010553313361012541 0.00034474668557093243 -0.010450927963789113 0 -0.010450927963789113 -0.0041567141720277902 0 0 0 -0.00095299187161421422 0.0073239831681003974 -0.012240072847521339 0 -0.012240072847521339 -0.0074773527221706146 0 0 0 -3.834238851755517e-05 0.011991466171101275 -0.010399715097474439 0 -0.010399715097474439 -0.005372399022706309 0 0 0 0.0016547667870987388 0.00080818566912006047 -0.01463905690567412 0 -0.01463905690567412 -0.0080156612764159235 0 0 0 -0.0018018689018239648 0.011302643875412322 -0.012980331594728006 0 -0.012980331594728006 -0.0091744350277666448 0 0 0 0.00053205221191141884 0.0012256728851342191 -0.014113432826387353 0 -0.014113432826387353 -0.0044653979598892994 0 0 0 -0.00080993126868876986 -0.0030552572755783922 -0.016957835375068987 0 -0.016957835375068987 -0.0070723044528855014 0 0 0 -0.0025318904321159769 0.010504521473491828 -0.011824341448109656 0 -0.011824341448109656 -0.0042184904069035647 0 0 0 0.0015715077666470685 -0.0020802618741435821 -0.015206666859770807 0 -0.015206666859770807 -0.0036272665760236911 0 0 0 -0.0014268821125418187 -7.3526745344890815e-05 -0.018482481457658267 0 -0.018482481457658267 -0.0035256265238877565 0 0 0 -0.00089978831730816097 -0.017731550142504465 -0.016252661692020998 0 -0.016252661692020998 -0.007241539791158335 0 0 0 -0.0062432724834157009 -0.015415549707546355 -0.016357159001083414 0 -0.016357159001083414 -0.0047875328450447882 0 0 0 -0.0050507706381477894 -0.016500439911379349 -0.013343033950667077 0 -0.013343033950667077 -0.0018683764408439218 0 0 0 -0.0045922040880558151 -0.0015827582305626507 -0.013083635918213357 0 -0.013083635918213357 -0.0029437431758771414 0 0 0 -0.0011316253516099484 -0.010095708608331276 -0.014273862285135641 0 -0.014273862285135641 -0.0053380214351973695 0 0 0 -0.0038584325108821614 -0.025975625616463705 -0.013578996680680914 0 -0.013578996680680914 -0.0032001007305327844 0 0 0 -0.0072939315867491198 -0.023966878518829997 -0.01210766543445692 0 -0.01210766543445692 0.00085365345634673406 0 0 0 -0.005778306265620814 -0.034449127958861916 -0.011553615100646258 0 -0.011553615100646258 -0.00058429462349708639 0 0 0 -0.0087583556455897542 -0.026116065596076363 -0.016553684869617807 0 -0.016553684869617807 -0.00096716164903831725 0 0 0 -0.0067708068112786596 -0.033720369044520609 -0.013525851545602078 0 -0.013525851545602078 -0.003753600515699897 0 0 0 -0.0093684923900551227 -0.018391792672681293 -0.019201879316103128 0 -0.019201879316103128 -0.0020040515029541572 0 0 0 -0.0050989610439088704 -0.033055576337818762 -0.014693468794121513 0 -0.014693468794121513 0.0010685813358780258 0 0 0 -0.0079967487504851824 -0.051783526231754931 -0.010569150168888097 0 -0.010569150168888097 -0.003461373461629294 0 0 0 -0.01381122492334606 -0.057017554771623 -0.012924998934168333 0 -0.012924998934168333 -0.0025931486177779989 0 0 0 -0.014902675847350246 -0.067655855039519736 -0.0066046794741694663 0 -0.0066046794741694663 -0.00074450226895865501 0 0 0 -0.017100089327119598 -0.048616948001408568 -0.0052762229118369225 0 -0.0052762229118369225 2.9226675240603267e-05 0 0 0 -0.012146930331541985 -0.055532822359042625 -0.0059155422325371408 0 -0.0059155422325371408 -0.00047944154604762784 0 0 0 -0.014003065976272572 -0.034657815776929259 -0.011774424907480624 0 -0.011774424907480624 -0.00041697164076462054 0 0 0 -0.0087686968544234654 -0.047642986017556323 -0.0049552785922866629 0 -0.0049552785922866629 -0.0028717516215296403 0 0 0 -0.012628684409771489 -0.034597522823781139 -0.0076183003541241967 0 -0.0076183003541241967 0.0018718122451135827 0 0 0 -0.0081814276446668891 -0.07702670280525277 -0.0067493213427600174 0 -0.0067493213427600174 0.0033494411265826418 0 0 0 -0.018419315419667522 -0.11261448387423378 -0.00235441230244475 0 -0.00235441230244475 -0.00081750972289448831 0 0 0 -0.028357998399282068 -0.071069047576942102 -0.015253621621276327 0 -0.015253621621276327 0.0027691828900221361 0 0 0 -0.017074966171730016 -0.073686235090502455 -0.0063426124080190431 0 -0.0063426124080190431 -0.00032542495975110275 0 0 0 -0.018502915012563355 -0.094441960354087501 -0.0056703619494642473 0 -0.0056703619494642473 0.00088746850199007687 0 0 0 -0.023388622963024346 -0.079253877241833373 -0.0065076803116191195 0 -0.0065076803116191195 -0.00048375948446503954 0 0 0 -0.01993440918157461 -0.05380789215769783 -0.0067428651590259988 0 -0.0067428651590259988 0.00088546298805061534 0 0 0 -0.013230607292411795 -0.063778401501766141 -0.0060921573963501272 0 -0.0060921573963501272 0.00071294670971995197 0 0 0 -0.015766363698011533 -0.061208929730491309 -0.015887027064532967 0 -0.015887027064532967 0.00054737946535883195 0 0 0 -0.015165387566283122 -0.036709344986148959 -0.016841827212246026 0 -0.016841827212246026 0.00020781556069131291 0 0 0 -0.009125382356364415 -0.036649669793773966 -0.015555758223228503 0 -0.015555758223228503 -0.00096757506011867873 0 0 0 -0.0094043112134731665 -0.025002343405670147 -0.015883015436644811 0 -0.015883015436644811 -0.0050634925008157458 0 0 0 -0.0075164589766214731 -0.036864333008362699 -0.022686375831572715 0 -0.022686375831572715 0.0028363988360726317 0 0 0 -0.0085069835430725133 -0.049403078176423677 -0.011939544198492844 0 -0.011939544198492844 0.00023112375707980571 0 0 0 -0.012292988604835971 -0.042512864378968646 -0.011343114499959422 0 -0.011343114499959422 0.0018321062905911137 0 0 0 -0.010170189522094364 -0.0084803746529577995 -0.019390587332548514 0 -0.019390587332548514 0.0027804312675456661 0 0 0 -0.0014249858463530295 -0.0059760584418234106 -0.017522793163836196 0 -0.017522793163836196 0.0095335869863977726 0 0 0 0.00088938213614358705 0.0082966841413515506 -0.021395524342012803 0 -0.021395524342012803 -3.2326070340635282e-05 0 0 0 0.0020660895177527297 -0.031178827924725511 -0.017374409137864866 0 -0.017374409137864866 0.0022601439661907555 0 0 0 -0.007229670989633695 -0.011818458708489766 -0.020576029621497013 0 -0.020576029621497013 0.00053141636263687175 0 0 0 -0.0028217605864632248 -0.027839484930670445 -0.021682941240634176 0 -0.021682941240634176 -0.0023359512238586683 0 0 0 -0.0075438590386322814 -0.012751933246232746 -0.022043942778953021 0 -0.022043942778953021 -0.0043520026753562681 0 0 0 -0.0042759839803972587 -0.0099355232263122414 -0.017243980923574313 0 -0.017243980923574313 -0.0027288716878897321 0 0 0 -0.0031660987285504934 0.0043417062422265538 -0.020423510134620841 0 -0.020423510134620841 -0.0024877281185638617 0 0 0 0.00046349453091567433 -0.012073841198374187 -0.018145173069323891 0 -0.018145173069323891 -0.0017218207718661185 0 0 0 -0.0034489154925600738 0.0047324569286685877 -0.01565203022434021 0 -0.01565203022434021 -0.0037412757919969 0 0 0 0.00024779528416792171 0.020505032035035731 -0.018391272396314794 0 -0.018391272396314794 -0.0037022548542750139 0 0 0 0.0042006942951901766 0.013827473990327074 -0.017127736330694303 0 -0.017127736330694303 -0.0048924647215174179 0 0 0 0.0022337523172024105 0.027538212494013843 -0.013746181951444595 0 -0.013746181951444595 -0.0050484923001277021 0 0 0 0.0056224300484715353 0.013812635533312558 -0.01220955643504344 0 -0.01220955643504344 -0.0061976332830936051 0 0 0 0.0019037505625547416 0.021301043292567511 -0.011640949485201743 0 -0.011640949485201743 -0.0016899978186784327 0 0 0 0.0049027613684722721 0.036270803056020123 -0.01508354395218767 0 -0.01508354395218767 -0.00063534384204309152 0 0 0 0.0089088648034942597 0.0092373806347376321 -0.016244264622631063 0 -0.016244264622631063 0.0018658492874601522 0 0 0 0.0027758074805494461 0.029208181241359987 -0.019072233358421661 0 -0.019072233358421661 0.0032228900329117488 0 0 0 0.008107767818567934 0.027953756791216679 -0.011176214123554091 0 -0.011176214123554091 0.0064050478323393958 0 0 0 0.0085897011558890238 0.042300996849885433 -0.0080217221892600193 0 -0.0080217221892600193 0.018385434631951622 0 0 0 0.015171607870459278 0.048840130853936493 -0.0156028240739774 0 -0.0156028240739774 0.012256175349811143 0 0 0 0.015274076550936915 0.016844558762193387 -0.014904525107401603 0 -0.014904525107401603 0.012029768080854535 0 0 0 0.007218581710761977 0.0075437237370640162 -0.023044126450780009 0 -0.023044126450780009 0.01270330838241604 0 0 0 0.0050617580298700088 0.030583454811706517 -0.022959656241856613 0 -0.022959656241856613 0.032153734162358283 0 0 0 0.015684297243516193 0.04240070197233109 -0.015133687639626206 0 -0.015133687639626206 0.063851987024304141 0 0 0 0.026563172249158815 0.047564552761681714 0.0060184860924351047 0 0.0060184860924351047 0.053061994248299174 0 0 0 0.025156636752495218 0.034326507693609509 0.0014638856052754945 0 0.0014638856052754945 0.072575009763079623 0 0 0 0.026725379364172325 0.026150358244110661 -0.0014139312078081251 0 -0.0014139312078081251 0.044473288616861395 0 0 0 0.017655911715243 0.014338043089655443 -0.015679477259661456 0 -0.015679477259661456 0.032925786362832513 0 0 0 0.011815957363121977 0.026719783842605746 -0.0064608656262170813 0 -0.0064608656262170813 0.031689621984658467 0 0 0 0.014602351456816057 0.00065278039160616974 0.0064172847016195078 0 0.0064172847016195078 0.037847322999633948 0 0 0 0.009625025847810019 -0.011871957440492464 -0.0036584541076777194 0 -0.0036584541076777194 0.023219687283883794 0 0 0 0.0028369324608478186 -0.029904603956410647 0.0021631983826462245 0 0.0021631983826462245 0.028512691940597468 0 0 0 -0.00034797800395330869 -0.013079930364041842 -0.014516741018257555 0 -0.014516741018257555 0.010386023313148973 0 0 0 -0.0006734767627232241 -0.032477747453878276 -0.0086814189244442744 0 -0.0086814189244442744 0.010670879875652253 0 0 0 -0.0054517168945565075 -0.0064617121509776138 -0.012056413998293394 0 -0.012056413998293394 0.030880578513711815 0 0 0 0.0061047165906835538 -0.029164949925818699 -0.021058313754642115 0 -0.021058313754642115 0.013153830940150206 0 0 0 -0.0040027797464171301 -0.05248451290654324 -0.017288490517673262 0 -0.017288490517673262 0.0058955918653008088 0 0 0 -0.011647230260310615 -0.059813656472876751 -0.0066503223476900332 0 -0.0066503223476900332 0.0042076166962244088 0 0 0 -0.013901509944163074 -0.040221681405742143 -0.017003342360942739 0 -0.017003342360942739 0.012506531576719437 0 0 0 -0.0069287874572556835 -0.057019565999003839 7.5816130890027367e-05 0 7.5816130890027367e-05 0.010812141238204433 0 0 0 -0.011551856190199848 -0.037901266372496446 -0.0033338961280137414 0 -0.0033338961280137414 0.0058831450173351119 0 0 0 -0.008004530338790318 -0.076175319515329881 0.0079549819768687524 0 0.0079549819768687524 0.0044968338666860896 0 0 0 -0.017919621412160941 -0.060313804675797444 -0.0015820546789560019 0 -0.0015820546789560019 0.017631139385168249 0 0 0 -0.010670666322657285 -0.061028385863790002 -0.0070707640957010584 0 -0.0070707640957010584 0.0068360605927545448 0 0 0 -0.013548081317758809 -0.086402512736558856 -0.00017760278392782436 0 -0.00017760278392782436 0.0042544062241369196 0 0 0 -0.020537026628105484 -0.085294952590784706 -0.0029575553039078439 0 -0.0029575553039078439 0.0032934258613728229 0 0 0 -0.020500381682352964 -0.12580942429269237 -0.00083314234833229935 0 -0.00083314234833229935 0.0029294374855199923 0 0 0 -0.030719996701793123 -0.089532260117523604 -0.0045006585529208387 0 -0.0045006585529208387 0.0018627461797244005 0 0 0 -0.021917378484449808 -0.12354819217621719 -0.0058490236361270686 0 -0.0058490236361270686 0.0019958302664157546 0 0 0 -0.030388090477450336 -0.092354925592802284 -0.0014980216684628844 0 -0.0014980216684628844 -0.0014214120683586871 0 0 0 -0.023444084415290226 -0.071242961143766798 -0.013383696186795468 0 -0.013383696186795468 0.0042895078494339725 0 0 0 -0.016738363323583187 -0.083411255857969102 -0.011577084293015134 0 -0.011577084293015134 0.0032390588629800376 0 0 0 -0.020043049248747252 0.036688400714831933 0.013204205835907637 0 0.013204205835907637 0.013452231581768719 0 0 0 0.012535158074150166 0.037629510217926709 0.0136508596914165 0 0.0136508596914165 0.01573662666044022 0 0 0 0.013341534219591725 0.040403938601405599 0.015229222527280963 0 0.015229222527280963 0.016552945456825455 0 0 0 0.014239221014557765 0.030627683893536463 0.013320947640151667 0 0.013320947640151667 0.021569269685081327 0 0 0 0.01304923839465446 0.023129586263951243 0.010877462349227335 0 0.010877462349227335 0.025887533016299015 0 0 0 0.012254279820062561 0.027286557004489856 0.011420799304174873 0 0.011420799304174873 0.014708159006089195 0 0 0 0.010498679002644768 0.019428790084007615 0.008394874124044046 0 0.008394874124044046 0.018088189346524119 0 0 0 0.0093792448576329301 0.030901029036964824 0.011994284319812505 0 0.011994284319812505 0.015933652186052014 0 0 0 0.011708670305754202 0.024603157893762495 0.0085297941168415506 0 0.0085297941168415506 0.0082480964859341956 0 0 0 0.0082128135949241718 0.024555306753837582 0.0096026565602293969 0 0.0096026565602293969 0.014340085700928405 0 0 0 0.0097238481136914939 0.024143552171773202 0.0068720024704254732 0 0.0068720024704254732 0.003449121983536179 0 0 0 0.0068981685388273435 0.028574889464269344 0.0095799036147967264 0 0.0095799036147967264 0.0091134825473477669 0 0 0 0.0094220930029042735 0.030085992966995271 0.0077924162863516715 0 0.0077924162863516715 0.001875837269578861 0 0 0 0.0079904575591435295 0.030357707138763842 0.0095567472839579153 0 0.0095567472839579153 0.0079900127388963134 0 0 0 0.0095869299694150562 0.034568674580272192 0.010396441592540252 0 0.010396441592540252 0.0071336016336737904 0 0 0 0.010425569053486496 0.036358103570343719 0.0062449525830902816 0 0.0062449525830902816 5.7294472635466623e-05 0 0 0 0.0091038495107448048 0.031996259843339252 0.0045676808854716944 0 0.0045676808854716944 -0.00021369216202324825 0 0 0 0.0079456419203290073 0.030503736723145658 -0.0027312539427863719 0 -0.0027312539427863719 -0.006368466686811949 0 0 0 0.006033817509083432 0.039277739399520978 0.0007647080951808851 0 0.0007647080951808851 -0.0013370064237379561 0 0 0 0.0094851832439457624 0.037741060187350545 0.0010531393914805557 0 0.0010531393914805557 -0.0015800593236328878 0 0 0 0.0090402502159294164 0.039195029663100546 0.0083808117507910354 0 0.0083808117507910354 0.0051310744041798938 0 0 0 0.011081526016820114 0.028787091852569321 -0.0065993664326194409 0 -0.0065993664326194409 -0.0044727917814092214 0 0 0 0.0060785750177900213 0.035236754388942026 -0.0080830978502286696 0 -0.0080830978502286696 -0.0043307202657960793 0 0 0 0.0077265085307864807 0.039248746430169637 -0.0033093959756786973 0 -0.0033093959756786973 0.0014394677407548115 0 0 0 0.010172053542731117 0.044598272971664382 -0.0054809863038645466 0 -0.0054809863038645466 0.0040455149744803645 0 0 0 0.012160946986536194 0.052282293865388102 0.0020622514164800815 0 0.0020622514164800815 0.011488152757251957 0 0 0 0.015942611655660015 0.045148257598501246 0.0094401789221724656 0 0.0094401789221724656 0.0065074417860028141 0 0 0 0.012913924846126005 0.05080423244274266 0.0054505685574717591 0 0.0054505685574717591 0.0047355962021232191 0 0 0 0.013884957161216471 0.043222274557613106 0.0083555124307393945 0 0.0083555124307393945 0.0096203746331664404 0 0 0 0.013210662297694891 0.055127148281527177 0.011493252221216024 0 0.011493252221216024 0.012131232441688386 0 0 0 0.016814595180803867 0.046502032525081574 0.018468799271733061 0 0.018468799271733061 0.029903480078196792 0 0 0 0.019101378150819602 0.068809031302025148 0.018595247630189837 0 0.018595247630189837 0.026807326681255836 0 0 0 0.023904089495820256 0.055767269007178551 0.018718218987176065 0 0.018718218987176065 0.044363258750869744 0 0 0 0.025032631939512086 0.043041715036303579 0.021969422321282572 0 0.021969422321282572 0.049914716895601896 0 0 0 0.023239107982976348 0.051460502833765673 0.017581215024336523 0 0.017581215024336523 0.031579061604432163 0 0 0 0.020759891109549483 0.0668349880453942 -0.0032632253107759898 0 -0.0032632253107759898 0.019762117660442099 0 0 0 0.021649276426459085 0.067464711770498453 0.0039783864805511687 0 0.0039783864805511687 0.036169863756049997 0 0 0 0.025908643881637106 0.071266772470230472 -0.015877579867322099 0 -0.015877579867322099 0.030716226897949062 0 0 0 0.025495749842044883 0.1208489928415416 -0.0066382954381583141 0 -0.0066382954381583141 0.056938889230943715 0 0 0 0.044446970518121326 0.078010464977886967 -0.004568158638478384 0 -0.004568158638478384 0.1392366375702766 0 0 0 0.054311775637040885 0.11355235889160363 0.052545686414701399 0 0.052545686414701399 0.098576013737100537 0 0 0 0.053032093157176038 0.057152158094448541 0.032961179297710468 0 0.032961179297710468 0.086394554972327287 0 0 0 0.035886678266693978 0.028786239998213409 0.016358179668444016 0 0.016358179668444016 0.046444135262911079 0 0 0 0.018807593815281114 0.055402309261883886 0.021636156909562027 0 0.021636156909562027 0.045199424529230509 0 0 0 0.025150433447778606 0.029442156344248183 -0.0057466045465201718 0 -0.0057466045465201718 0.09892095757667646 0 0 0 0.032090778480231161 0.021296573136150458 -0.0059217713030550855 0 -0.0059217713030550855 0.055668271854404025 0 0 0 0.019241211247638626 0.021330507078301357 -0.0063062695496067696 0 -0.0063062695496067696 0.059505429748458398 0 0 0 0.020208984206689935 0.031543453725716722 0.016636885591319983 0 0.016636885591319983 0.056627764589613973 0 0 0 0.022042804578832689 0.032563218506912031 0.015572789585539159 0 0.015572789585539159 0.030347146803793856 0 0 0 0.015727591327676468 0.026979323550247035 0.01357854901707993 0 0.01357854901707993 0.049540916244532746 0 0 0 0.01913005994869494 0.019293623151532741 0.008485594853217808 0 0.008485594853217808 0.032664423476568685 0 0 0 0.01298951165702536 0.026222029618604627 0.013327437440085738 0 0.013327437440085738 0.039625487583202397 0 0 0 0.016461879300451756 0.029260639043675069 0.013493997895104909 0 0.013493997895104909 0.021506120298449075 0 0 0 0.012691689835531025 0.035305667711001049 0.017752191042125429 0 0.017752191042125429 0.03289785680271512 0 0 0 0.017050881128429049 0.0188002590514952 0.0091759494261820316 0 0.0091759494261820316 0.023637312790237869 0 0 0 0.010609392960433273 0.018426429392069434 0.0085870205101236698 0 0.0085870205101236698 0.035425383004844713 0 0 0 0.013462953099228533 0.017491471571919413 -0.0061808719541067625 0 -0.0061808719541067625 0.038506993523626715 0 0 0 0.013999616273886536 0.013198526759792063 0.0014810497193588025 0 0.0014810497193588025 0.036994499446431177 0 0 0 0.012548256551555807 0.011910867602638014 0.0027461962535707801 0 0.0027461962535707801 0.030665596175729025 0 0 0 0.010644115944591769 0.019428286593758042 0.0067031483857757125 0 0.0067031483857757125 0.047467830897106482 0 0 0 0.016724029372716134 0.01380680312471429 -0.0057534140004449584 0 -0.0057534140004449584 0.030247523333651924 0 0 0 0.011013581614591556 0.01400662762143735 -0.0049819613028928636 0 -0.0049819613028928636 0.027078267961152716 0 0 0 0.010271223895647514 0.021697761873887028 -0.012821144805302422 0 -0.012821144805302422 0.029221680053660982 0 0 0 0.012729860481886984 0.018769512758944798 -0.01120512369551456 0 -0.01120512369551456 0.016629982493453627 0 0 0 0.0088498738130995958 0.013459332998975726 -0.0076659121701376093 0 -0.0076659121701376093 0.01509559400104421 0 0 0 0.0071387317500049979 0.021509862435724676 -0.01218931677169216 0 -0.01218931677169216 0.017248260824217237 0 0 0 0.0096895308149854836 0.021604938990701726 -0.011423434061072005 0 -0.011423434061072005 0.017571706880559299 0 0 0 0.0097941614678152475 0.016579755936444049 -0.0090546847780596379 0 -0.0090546847780596379 0.0092374931925010839 0 0 0 0.0064543122822362728 0.034378097363844617 -0.0051244356436206361 0 -0.0051244356436206361 0.0079120137976440019 0 0 0 0.010572527790372141 0.027556685148629342 -0.0079841779095596969 0 -0.0079841779095596969 0.0031607379047099704 0 0 0 0.0076793557633348247 0.030420255038684819 -0.010183762661286427 0 -0.010183762661286427 0.0081639755567441685 0 0 0 0.0096460576488572383 0.042155626449860283 -0.018553709154335844 0 -0.018553709154335844 0.020631028344819322 0 0 0 0.015696663698669906 0.017950957195523923 -0.0059870211100150105 0 -0.0059870211100150105 0.03979839437971644 0 0 0 0.014437337893810092 0.025727484991389351 -0.014011729167632514 0 -0.014011729167632514 0.026590820243010529 0 0 0 0.013079576308599973 0.02585356200637616 -0.015962143856435015 0 -0.015962143856435015 0.032458881306916411 0 0 0 0.014578110828323143 0.029987118970397367 -0.019723043062326404 0 -0.019723043062326404 0.047596995537791509 0 0 0 0.019396028627047222 0.019882294457061984 -0.016934195014969844 0 -0.016934195014969844 0.062017890889901339 0 0 0 0.020475046336740844 0.03541392104169605 -0.016576114044523964 0 -0.016576114044523964 0.061869552374634249 0 0 0 0.024320868354082578 0.050852134072543589 -0.0018782093699489105 0 -0.0018782093699489105 0.17797869455598722 0 0 0 0.057207707157132706 0.043159152638147416 -0.0058665275055944238 0 -0.0058665275055944238 -0.0067992764108805864 0 0 0 0.0090899690568167109 0.056477513776898844 -0.028555292264957888 0 -0.028555292264957888 0.036544309645650183 0 0 0 0.023255455855637243 0.10788715109789378 0.068453656414734027 0 0.068453656414734027 0.11442785515948811 0 0 0 0.055578751564345483 0.053372894118428063 -0.041617716603999731 0 -0.041617716603999731 0.07449060228318638 0 0 0 0.031965874100403593 0.003614536521673266 0.00073865390148789142 0 0.00073865390148789142 0.010040254599549278 0 0 0 0.0034136977803056359 0.18443327599890261 0.053286287617438491 0 0.053286287617438491 0.031150450878510094 0 0 0 0.053895931719353168 0.09544914170729582 0.013369737608672994 0 0.013369737608672994 0.01598358004102856 0 0 0 0.027858180437081027 0.0087047771215079239 0.0018301832495950816 0 0.0018301832495950816 0.026104506202220948 0 0 0 0.0087023208309322166 0.015362300768825811 0.003313309810943306 0 0.003313309810943306 0.021225798608147967 0 0 0 0.0091470248442434635 0.10653663417538989 0.016067380393410814 0 0.016067380393410814 0.013992469323265255 0 0 0 0.030132275874663772 0.012765013666813776 0.0026490028121699052 0 0.0026490028121699052 0.038111783943860215 0 0 0 0.012719199402668498 0.02285862566028378 0.0055192223114274575 0 0.0055192223114274575 0.026323629970115336 0 0 0 0.012295563907599796 0.077784476411407788 0.015536403298007095 0 0.015536403298007095 0.010508026079463995 0 0 0 0.022073125622718015 0.034414644094019717 -0.0089322026023169743 0 -0.0089322026023169743 -0.0022201374372516208 0 0 0 0.0080486266641920275 0.035060823592845007 0.0033112296635121469 0 0.0033112296635121469 0.016296055673983095 0 0 0 0.012839219816707041 0.034284228040319248 -0.0023999585379829297 0 -0.0023999585379829297 0.011375641982597773 0 0 0 0.011414967505729262 0.033119302654717964 -0.00040051427650325544 0 -0.00040051427650325544 0.0074647500607537137 0 0 0 0.010146013178867902 0.028569863403873796 0.0030471896060952283 0 0.0030471896060952283 0.011226639938370253 0 0 0 0.0099491258355610124 0.033891686162055026 0.0031493300042823857 0 0.0031493300042823857 0.028365314338139769 0 0 0 0.015564250125048709 0.033921209644623376 0.0052264370818033284 0 0.0052264370818033284 0.032393468757534682 0 0 0 0.016578669600539511 0.031775736937430105 0.0017286737747607972 0 0.0017286737747607972 0.011899834380815821 0 0 0 0.010918892829561502 0.071354117239298742 0.013262174714972153 0 0.013262174714972153 0.011268033059314786 0 0 0 0.020655537574653327 0.076842749095826057 0.009066392334199036 0 0.009066392334199036 0.030153719501736509 0 0 0 0.026749117149390822 0.097606343442394494 0.0063764228361005556 0 0.0063764228361005556 0.027606349415354892 0 0 0 0.031303173214437208 0.016656927627180521 0.0032452904636531988 0 0.0032452904636531988 0.049836920048556603 0 0 0 0.016623461918934282 0.088313550513725025 0.0090620970761070944 0 0.0090620970761070944 0.031854824656654568 0 0 0 0.030042093792595037 0.07801432983805387 0.0057109230901870589 0 0.0057109230901870589 0.030618632403518919 0 0 0 0.02715824056039326 0.061989042914661174 0.014960732758678819 0 0.014960732758678819 0.029475738566080212 0 0 0 0.02286619537018536 0.084248246471482657 0.0087085505616983274 0 0.0087085505616983274 0.040065372263693 0 0 0 0.03107840468379397 0.042841261002762046 0.0050232145419833452 0 0.0050232145419833452 0.043865925346797341 0 0 0 0.021676796587389788 0.020758452829376411 0.0037101178385202573 0 0.0037101178385202573 0.062136879395993459 0 0 0 0.020723833056342469 0.066531610896605003 0.0079391404390156683 0 0.0079391404390156683 0.039517071736655862 0 0 0 0.026512170658315265 0.031419916081973302 0.0040882932919376891 0 0.0040882932919376891 0.019619969603918819 0 0 0 0.012759971421473025 0.027587206453884516 0.001611920027508526 0 0.001611920027508526 0.010503397699112904 0 0 0 0.009522651038249369 0.037889896779920967 0.0021749573605909789 0 0.0021749573605909789 0.037934889936407173 0 0 0 0.018956196679082021 0.030113340006484302 0.002296966792242814 0 0.002296966792242814 0.020729383276640534 0 0 0 0.01271068082078125 0.035677587972171715 0.0030727875903909692 0 0.0030727875903909692 0.022029535601436279 0 0 0 0.014426780893401991 0.025393869924000056 0.00078831308799398592 0 0.00078831308799398592 0.0075892887450774715 0 0 0 0.008245789667269382 0.021298369121713734 0.00074639835788831155 0 0.00074639835788831155 0.0084042804024518913 0 0 0 0.0074256623810414202 0.027135069934729916 0.0017076594116755689 0 0.0017076594116755689 0.0083538876224781844 0 0 0 0.008872239389302039 0.022522021684763499 -0.003836920388805648 0 -0.003836920388805648 0.0041740059217484603 0 0 0 0.006674006901627989 0.021314628436899283 -0.0011227642467790955 0 -0.0011227642467790955 0.0035834532631482952 0 0 0 0.0062245204250118563 0.013704141476144086 -0.0030641127882150843 0 -0.0030641127882150843 0.0026329329797725731 0 0 0 0.0040842686139791612 0.016008996237566228 -0.0051131014564067961 0 -0.0051131014564067961 0.0036560127132590492 0 0 0 0.004916252237706295 0.015783273353688898 -0.0072867216743116858 0 -0.0072867216743116858 0.0043688397748228303 0 0 0 0.005038028282127946 0.01897136307501987 -0.0031883497333943522 0 -0.0031883497333943522 0.0043936944165251061 0 0 0 0.0058412643728862476 0.022123867636874156 -0.0051424181016883896 0 -0.0051424181016883896 0.0038310374268410996 0 0 0 0.0064887262659287931 0.015184158817780929 -0.0074947733717656631 0 -0.0074947733717656631 0.0040336993177599867 0 0 0 0.0048044645338852082 0.021532002277820872 -0.0092388623810787593 0 -0.0092388623810787593 0.0069780708480297188 0 0 0 0.0071275182814626581 0.015775411865151252 -0.0092396265892683987 0 -0.0092396265892683987 0.0090172260310238672 0 0 0 0.0061981594740437781 0.023265041440946793 -0.0057444168162854303 0 -0.0057444168162854303 0.0037291538926740586 0 0 0 0.0067485488334052129 0.026625840230729177 -0.0012659912056923184 0 -0.0012659912056923184 0.0029770792201826712 0 0 0 0.0074007298627279464 0.028410413059513095 -0.0023188917248282287 0 -0.0023188917248282287 0.006094884795664406 0 0 0 0.0086263244637943652 -0.07947965000818466 0.0038309681791894312 0 0.0038309681791894312 5.0496240861952479e-05 0 0 0 -0.019857288441830656 -0.098780229580244405 0.0075235981973600331 0 0.0075235981973600331 0.0015832656894363417 0 0 0 -0.02429924097270203 -0.068773244106877685 0.018172945159615816 0 0.018172945159615816 0.0064106122163509749 0 0 0 -0.015590657972631594 -0.11938941232581651 0.006554758006556749 0 0.006554758006556749 0.0018213107932119055 0 0 0 -0.029392025383151166 -0.11657283526227691 0.004013936081725844 0 0.004013936081725844 0.003588443154048826 0 0 0 -0.028246098027057021 -0.073849517657338049 0.0024622379746249423 0 0.0024622379746249423 0.0012755118469122695 0 0 0 -0.018143501452606459 -0.080609452391729494 0.0081848393435606237 0 0.0081848393435606237 0.0014649886410353918 0 0 0 -0.019786115937673598 -0.059054811588580336 0.015690038394636452 0 0.015690038394636452 0.010749883771290936 0 0 0 -0.012076231954322392 -0.037407120030904434 0.014541211610519834 0 0.014541211610519834 0.0094910911637476891 0 0 0 -0.0069790072167891792 -0.026637875348085011 0.021335661806547834 0 0.021335661806547834 0.02177279919339481 0 0 0 -0.001216269038672585 -0.037845785430042356 0.01203913598819939 0 0.01203913598819939 0.0026555819591926877 0 0 0 -0.0087975508677124448 -0.035325690538202933 0.024729987469355286 0 0.024729987469355286 0.00903750462772962 0 0 0 -0.006572046477618318 -0.053160322892528034 0.011756122092912935 0 0.011756122092912935 0.00094268111008077859 0 0 0 -0.013054410445611786 -0.025930946427649655 0.018067417299994948 0 0.018067417299994948 0.0039611287038037457 0 0 0 -0.0054924544309614756 0.020629363156242614 0.031533505372224102 0 0.031533505372224102 0.009247189643701359 0 0 0 0.0074691381999859863 -0.001787846852976227 0.022379008875074158 0 0.022379008875074158 0.0081145263401247725 0 0 0 0.0015816698717870947 0.03237750358794228 0.035017433260472144 0 0.035017433260472144 0.02213253037456242 0 0 0 0.013627508490626133 -0.0028968721192917657 0.025575125659871245 0 0.025575125659871245 0.0080081241493548116 0 0 0 0.0012778130075158101 -0.031969046408519053 0.0085743038032345953 0 0.0085743038032345953 0.011256082658652078 0 0 0 -0.005178240937466716 -0.0086327729489864974 0.023286640391649294 0 0.023286640391649294 0.030109170964963586 0 0 0 0.0053690995039942929 -0.00059521559338088226 0.016132605391394911 0 0.016132605391394911 0.022148572673936578 0 0 0 0.005388339270138931 0.027797905432333236 0.03013660126617973 0 0.03013660126617973 0.047389847689903952 0 0 0 0.018796938280559283 0.037558516430384076 0.033372569228133302 0 0.033372569228133302 0.078880382589306963 0 0 0 0.029109724754922711 0.063582713536985774 0.03902368109279919 0 0.03902368109279919 0.027494245159720321 0 0 0 0.022769239674176517 0.071915758035398653 0.038794765131412834 0 0.038794765131412834 0.030094328874902598 0 0 0 0.025502521727575243 0.039304192991363118 0.022090672782712761 0 0.022090672782712761 0.0087868551008158935 0 0 0 0.012022762023044753 0.056733359017723917 0.030210348401142395 0 0.030210348401142395 0.011404631044909186 0 0 0 0.017034497515658276 0.070301890430833236 0.012287245451615109 0 0.012287245451615109 0.012149044030392409 0 0 0 0.020612733615306356 0.032051800409520367 0.020023985375819453 0 0.020023985375819453 0.0049255105777347222 0 0 0 0.0092443277468137568 0.033632209691724257 0.026194740975590214 0 0.026194740975590214 0.0046667690337125478 0 0 0 0.0095747446813592152 0.055263703794023122 0.017122198539614719 0 0.017122198539614719 0.010104462645408763 0 0 0 0.01634204160985786 0.055213336984092976 0.016798644480722436 0 0.016798644480722436 0.012502275947709141 0 0 0 0.016928903232950543 0.057846472298040408 0.013644288031879448 0 0.013644288031879448 0.015115430547147479 0 0 0 0.018240475711297055 0.047553528392481392 0.020178495690556686 0 0.020178495690556686 0.011688442767176621 0 0 0 0.014810492789914642 0.032015930160191663 0.020693761183819721 0 0.020693761183819721 0.0062026709696780813 0 0 0 0.0095546502824674917 0.03234167151240841 0.024869642946126036 0 0.024869642946126036 0.0045946085665884429 0 0 0 0.0092340700197492964 0.007285077775436459 0.021060355683051757 0 0.021060355683051757 0.00302794259516595 0 0 0 0.0025782550926505762 0.0096362543497522379 0.025449578266546924 0 0.025449578266546924 0.0030767227715851053 0 0 0 0.0031782442803343081 0.006393055873117337 0.02244593018566432 0 0.02244593018566432 0.0028745034498496302 0 0 0 0.0023168898307416308 -0.016595819676963997 0.025047292433002244 0 0.025047292433002244 0.0037336286750169201 0 0 0 -0.0032155477504866026 0.0086322838559791393 0.025909275385554653 0 0.025909275385554653 0.0031738929877429545 0 0 0 0.0029515442109305234 0.016245850643752724 0.020401904108771407 0 0.020401904108771407 0.0013036119452545236 0 0 0 0.0043873656472517286 -0.0070595564541027778 0.02082994983753611 0 0.02082994983753611 0.0025555763327489434 0 0 0 -0.0011259950303383892 -0.015330097194589665 0.027294161408639883 0 0.027294161408639883 0.0044500148161832342 0 0 0 -0.0027200205946015799 -0.032377695453503774 0.015864447657680192 0 0.015864447657680192 0.00017467325791775679 0 0 0 -0.0080507555488965599 -0.042168700958656213 0.022145463814455535 0 0.022145463814455535 0.003584796201800966 0 0 0 -0.0096459761892137563 -0.039191987233394898 0.014296301462992531 0 0.014296301462992531 -0.00021144725125399333 0 0 0 -0.0098508586211623062 -0.037592805023161702 0.022198655012362178 0 0.022198655012362178 0.002337961729435456 0 0 0 -0.0088137108234315198 -0.016577474167204564 0.022943320099944486 0 0.022943320099944486 -0.00062493907482985556 0 0 0 -0.0043006033105085217 -0.014013541626095763 0.026443453395173178 0 0.026443453395173178 -0.0028002960384871378 0 0 0 -0.0042034594161455968 -0.027074713205561207 0.020352079628581876 0 0.020352079628581876 0.0018320650356880019 0 0 0 -0.0063106620424683291 -0.035466581651330986 0.015618955614216556 0 0.015618955614216556 -0.00096522444623503567 0 0 0 -0.0091079515243914777 -0.046963725791225985 0.019376408739334272 0 0.019376408739334272 0.0011787972597194774 0 0 0 -0.011446232132876655 -0.065983106177272211 0.0073662365054567745 0 0.0073662365054567745 -3.1482098581392393e-05 0 0 0 -0.016503647068963345 -0.040683456055854883 0.0081132261108285419 0 0.0081132261108285419 0.0012355495967375507 0 0 0 -0.0098619766147792776 -0.053564697410957485 0.007616115688797942 0 0.007616115688797942 0.0014833529545212887 0 0 0 -0.013020336114109021 -0.086312765908917122 0.006113194750893395 0 0.006113194750893395 0.00018391053337474261 0 0 0 -0.021532213843885595 -0.064287121228196853 0.014814763911083051 0 0.014814763911083051 0.0024512980650555072 0 0 0 -0.015458955790785212 -0.063320239032907177 0.0080399340355274962 0 0.0080399340355274962 -0.0011832755279723717 0 0 0 -0.016125878640219748 -0.012253709684678656 0.010001017674139412 0 0.010001017674139412 0.0024691862182181085 0 0 0 -0.0024461308666149442 -0.029179523576794986 0.0079908879283574485 0 0.0079908879283574485 -0.0033046698200895896 0 0 0 -0.0081210483492211161 -0.01614336395389504 0.013735908321466983 0 0.013735908321466983 0.00038667937451286605 0 0 0 -0.0039391711448455435 -0.034593401770745658 0.0079996002136917925 0 0.0079996002136917925 0.0011687577116816783 0 0 0 -0.0083561610147659948 -0.033592619987591998 0.0064313009207115357 0 0.0064313009207115357 -0.00043802662353487065 0 0 0 -0.0085076616527817173 -0.052432344992532243 0.0079816729043452952 0 0.0079816729043452952 8.2130852060213755e-05 0 0 0 -0.013087553535118035 -0.044349020526331051 0.013792222883413308 0 0.013792222883413308 -0.0005174411436934534 0 0 0 -0.011216615417505849 -0.035277637445446097 0.013113445986243866 0 0.013113445986243866 -0.00061068419444998412 0 0 0 -0.0089720804099741036 -0.024878732456841357 0.02033936784300179 0 0.02033936784300179 -0.00011961491325251927 0 0 0 -0.0062495868425236356 -0.0233252786422945 0.015676024933925503 0 0.015676024933925503 0.0017017338968683404 0 0 0 -0.0054058861863566232 -0.016175051294352372 0.017673557001898793 0 0.017673557001898793 -0.0005290708369303232 0 0 0 -0.0041760305328206737 -0.0086787206196949906 0.018324540105817189 0 0.018324540105817189 0.00071767983383086431 0 0 0 -0.0019902601964660871 -0.0081277587924892813 0.017983611627449658 0 0.017983611627449658 -0.0012551070488404648 0 0 0 -0.0023457164603326586 -0.018832922176253042 0.019384132884321503 0 0.019384132884321503 -0.00013823004897051128 0 0 0 -0.0047427880563058467 -0.0057101804730379513 0.018784598954834975 0 0.018784598954834975 -0.00028367761968883798 0 0 0 -0.0014984645231816973 0.0075382605618299348 0.020409508588018571 0 0.020409508588018571 5.4291118084748291e-05 0 0 0 0.0018981379199787263 0.0078729440023302955 0.020888634552590712 0 0.020888634552590712 0.00087635651519391011 0 0 0 0.0021873251293811347 0.019853554620057778 0.020781052425250746 0 0.020781052425250746 0.0020018643968682248 0 0 0 0.0054638547542313898 -0.0070270809808617996 0.022908457078321121 0 0.022908457078321121 -0.00072324632863862703 0 0 0 -0.0019375818273751344 -0.0091496816401585024 0.025253711195516448 0 0.025253711195516448 -0.0012083532000533026 0 0 0 -0.0025895087100529235 0.0055742484706458595 0.021614446078254135 0 0.021614446078254135 0.00010180583934271681 0 0 0 0.0014190135774969082 0.0049873442257491393 0.019050782493444274 0 0.019050782493444274 0.0034653044050674603 0 0 0 0.0021131621577040109 0.017189658944134489 0.024855762174611495 0 0.024855762174611495 0.0018471926350607237 0 0 0 0.0047592128947989698 0.0066947601338969154 0.02187762855794026 0 0.02187762855794026 0.0038198860011675606 0 0 0 0.0026286615337662855 0.031138468427008126 0.017478071996259725 0 0.017478071996259725 0.0096593079521758995 0 0 0 0.010199444094796062 0.031318947785333617 0.018063104967031007 0 0.018063104967031007 0.012660896190034077 0 0 0 0.010994960993841896 0.028642849704012097 0.020823957832392916 0 0.020823957832392916 0.005201889696129669 0 0 0 0.0084611848500352194 0.0382123388703417 0.02081199269475742 0 0.02081199269475742 0.012164434520300027 0 0 0 0.012594193347660543 0.052505188364029953 0.011565218934418975 0 0.011565218934418975 0.027225001269252314 0 0 0 0.019932547408320511 0.03743366996722397 0.016590947725826699 0 0.016590947725826699 0.010467090155224401 0 0 0 0.011975190030612204 0.04240215943386294 0.018226991191839792 0 0.018226991191839792 0.024584176629532939 0 0 0 0.016746584015848831 0.022552154586762185 0.023166248391193522 0 0.023166248391193522 0.0073407759310382126 0 0 0 0.0074732326294499885 0.026657360280615494 0.020094898738393541 0 0.020094898738393541 0.0086348665709738981 0 0 0 0.0088230567128972925 0.047541895443938165 0.010817606855400785 0 0.010817606855400785 0.014402658448410932 0 0 0 0.015486138473087108 0.028098809034745154 0.0061765354409821782 0 0.0061765354409821782 0.00010178324812715189 0 0 0 0.0070501480707179098 0.051410107410654396 0.015848539449419441 0 0.015848539449419441 0.014877575767489049 0 0 0 0.016571920794535913 0.03538070840300156 0.009129448106415694 0 0.009129448106415694 0.0006157673152635823 0 0 0 0.0089991189295663965 0.056804277141465853 -0.0024312037616716076 0 -0.0024312037616716076 0.011962692820744358 0 0 0 0.017191742490552553 0.058378389949321097 0.0085331505484020909 0 0.0085331505484020909 0.010588900017338254 0 0 0 0.01724182249166506 0.042016619666522863 -0.0031940505440943845 0 -0.0031940505440943845 -0.020702048049587488 0 0 0 0.0053286429042341222 0.018813433999751439 0.0012720557680258038 0 0.0012720557680258038 -0.013828247182294362 0 0 0 0.0012462967043638251 0.0079930180999314704 0.011789720560658079 0 0.011789720560658079 -0.0086822869785265766 0 0 0 -0.00017231721964883207 0.0051627097401403255 0.0074183563888186206 0 0.0074183563888186206 -0.017173212057802978 0 0 0 -0.0030026255794157741 0.015944372064310208 0.0070964594787925606 0 0.0070964594787925606 -0.026920033950108113 0 0 0 -0.0027439154714494762 0.0075354475461680837 0.018279838435832252 0 0.018279838435832252 -0.0036771778917505937 0 0 0 0.00096456741360417819 0.022168999664940348 0.01603538944715896 0 0.01603538944715896 -0.0047257506489204459 0 0 0 0.0043608122540050864 0.007827204460985393 0.016031705311154054 0 0.016031705311154054 -0.00385180143277708 0 0 0 0.0009938507570520505 0.023262917192045263 0.018071224230198579 0 0.018071224230198579 0.0010642139722609745 0 0 0 0.0060817827910766842 -0.0049021922213838831 0.017339844695482332 0 0.017339844695482332 -0.0048255083815873512 0 0 0 -0.0024319251507429751 -0.016524229035713739 0.012785197410028371 0 0.012785197410028371 -0.0040102660437174031 0 0 0 -0.00513362376985807 -0.001476786947554487 0.01190361252815636 0 0.01190361252815636 -0.005455585199802826 0 0 0 -0.0017330930368391062 -0.0050233471537806107 0.011582176299476332 0 0.011582176299476332 -0.00062328007884415726 0 0 0 -0.0014116568081563585 -0.0030217502654618089 0.01327326802094575 0 0.01327326802094575 -0.01246965878513473 0 0 0 -0.0038728522626493289 6.4149266686186479e-05 0.0069566858432321688 0 0.0069566858432321688 -0.02012211717768686 0 0 0 -0.0050144919777501684 -0.0007673378599539288 0.0042277148542382292 0 0.0042277148542382292 -0.0096921167701005916 0 0 0 -0.0026148636575137967 0.0046426461022941456 0.0064107034788596362 0 0.0064107034788596362 -0.0064849719622737112 0 0 0 -0.0004605814649949469 -0.001016458718123725 0.0074726867822261234 0 0.0074726867822261234 -0.0077892048972030281 0 0 0 -0.0022014159038318271 -0.0048345717562838786 0.0055999164065205775 0 0.0055999164065205775 -0.0044245407580350005 0 0 0 -0.0023147781285797198 0.0008756767838558055 0.0022366376953251166 0 0.0022366376953251166 -0.0031229250483466586 0 0 0 -0.00056181206612282431 -0.00057980620436470787 0.0014285932826119119 0 0.0014285932826119119 -0.00097503838725199188 0 0 0 -0.00038871114790417494 -0.001470381874589588 0.0017852814360742825 0 0.0017852814360742825 -0.001583745885112009 0 0 0 -0.00076353193992551027 -0.00062598172194738844 0.0032291945913862641 0 0.0032291945913862641 0.0012380436356779212 0 0 0 0.00015301547843238339 -0.0082404330799263903 0.0050053752413773429 0 0.0050053752413773429 0.0017604449660071353 0 0 0 -0.0016199970284795917 -0.0088299326332159644 0.0059772193938683049 0 0.0059772193938683049 -0.0022011934028638436 0 0 0 -0.002757781509019841 -0.020745349665886259 0.0065236349286952036 0 0.0065236349286952036 -0.0024916804657904024 0 0 0 -0.0058092575329191654 0.014638108637199165 -0.0018461060243597227 0 -0.0018461060243597227 0.00030778885968618663 0 0 0 0.0037364743742213657 0.025956081788644003 0.00047787194246384779 0 0.00047787194246384779 0.010570217422207318 0 0 0 0.0091315748027127608 0.029041835425963225 0.0020076976842980446 0 0.0020076976842980446 0.0083173415497835856 0 0 0 0.0093397942439366888 0.020748310129981826 0.0032143434822073103 0 0.0032143434822073103 -0.0010229911955142029 0 0 0 0.004931329733616905 0.011330311306247676 -3.4785919424656919e-05 0 -3.4785919424656919e-05 -0.0073243269711739112 0 0 0 0.0010014960837684272 0.0059130929532720672 -0.0017532764521429045 0 -0.0017532764521429045 -0.0030427629659557365 0 0 0 0.00071758249682905839 0.0061884737208721119 -0.0050463596938143951 0 -0.0050463596938143951 -0.00655488984406144 0 0 0 -9.1604030797332037e-05 0.012833785926728902 -0.0026320836514122786 0 -0.0026320836514122786 -0.00070182827052645003 0 0 0 0.0030329894140506408 0.008367953809276879 -0.0041156433469129589 0 -0.0041156433469129589 0.0016209037174725327 0 0 0 0.0024972143816874015 0.0093436697908161025 -0.0040714374192788172 0 -0.0040714374192788172 0.0019440529418742469 0 0 0 0.0028219306831725431 0.020429753267031309 4.0894765204531336e-05 0 4.0894765204531336e-05 0.003813918880183842 0 0 0 0.0060609180368037807 0.018881412987322072 -0.0010770545056973727 0 -0.0010770545056973727 0.0033837269597084552 0 0 0 0.0055662849867576525 0.012627445008233137 0.00074759625652998096 0 0.00074759625652998096 0.0015994314172299712 0 0 0 0.0035567191063658049 0.020860915503364663 0.0028100100625978487 0 0.0028100100625978487 0.0091218348498827151 0 0 0 0.0074956875883118168 0.026615658328804637 0.0018302488895922675 0 0.0018302488895922675 0.0098676977911534847 0 0 0 0.0091208390299895442 0.031113918085248479 0.0026104572543296234 0 0.0026104572543296234 0.023504541311548333 0 0 0 0.013654614849199206 0.044566589715465427 0.0028510783227898573 0 0.0028510783227898573 0.04938558069507315 0 0 0 0.023488042602634596 0.05279427932538612 0.0018742059574532732 0 0.0018742059574532732 0.058390928453153801 0 0 0 0.027796301944634963 0.041377809618703965 0.0036264606208167571 0 0.0036264606208167571 0.024607516713251509 0 0 0 0.01649633158298891 0.064145319563203573 0.017058690593303227 0 0.017058690593303227 0.034969184150000387 0 0 0 0.024778625928301157 0.084946397475043289 0.0067670553808735524 0 0.0067670553808735524 0.055077424790932028 0 0 0 0.035005955566493885 0.054043509940245468 0.0046893485256157552 0 0.0046893485256157552 0.051384436296562863 0 0 0 0.026356986559202086 0.025116727218211933 0.004058361269850274 0 0.004058361269850274 0.075196176897645642 0 0 0 0.025078226028964395 0.054998612893882415 0.015623863384095049 0 0.015623863384095049 0.023305756737157068 0 0 0 0.019576092407759926 0.067231205439814312 0.010799432724044156 0 0.010799432724044156 0.057251789691850075 0 0 0 0.031120748782916152 0.065764316654977423 0.0055377803971334849 0 0.0055377803971334849 0.04844941754768628 0 0 0 0.028553433550666113 0.029779746197355489 0.0042517812135796276 0 0.0042517812135796276 0.089233162444482914 0 0 0 0.029753227160459597 0.066585179526921973 0.0041946434938222033 0 0.0041946434938222033 0.059767618489561192 0 0 0 0.031588199504120812 0.081575769090353578 0.011332080817502544 0 0.011332080817502544 0.057438907615486201 0 0 0 0.034753669176460056 0.034852467016050256 0.0043751993632940708 0 0.0043751993632940708 0.10422835868244588 0 0 0 0.034770206424624035 0.059212754630531328 0.016038751032753762 0 0.016038751032753762 0.044009474468376109 0 0 0 0.025805557274726554 0.034528028154750007 0.0032611157137032443 0 0.0032611157137032443 0.026057121639336461 0 0 0 0.015146287448521589 0.060277285489269528 0.0043464304214508032 0 0.0043464304214508032 0.061851893522772705 0 0 0 0.030532294753010614 0.036731234411935931 0.0067958675618621511 0 0.0067958675618621511 0.012650183082425603 0 0 0 0.012345354373590384 0.04770292813551319 0.00061395054322760378 0 0.00061395054322760378 0.026199867468541305 0 0 0 0.018475698901013582 0.054396952532721941 0.0082559189859198745 0 0.0082559189859198745 0.018868964979580627 0 0 0 0.018316479378075644 0.037907800528794861 0.00012602990819085558 0 0.00012602990819085558 0.015259082636712051 0 0 0 0.013291720791376693 0.083204432869865674 0.0059054865197956385 0 0.0059054865197956385 0.063133253959615221 0 0 0 0.036584421707370252 0.074108014801705896 0.00053257693113184512 0 0.00053257693113184512 0.07107917178286044 0 0 0 0.036296796646141577 0.062110652140745515 -0.0033511108983286242 0 -0.0033511108983286242 0.023930153480066663 0 0 0 0.0215102014052031 0.086835816124347431 0.0025969997837116399 0 0.0025969997837116399 0.069465363235657662 0 0 0 0.039075294840001273 0.039957070100320694 0.0042677257268880272 0 0.0042677257268880272 0.12026332379788722 0 0 0 0.040055098474551978 0.10830266927347154 0.0041949924929130522 0 0.0041949924929130522 0.075406371661523197 0 0 0 0.045927260233748685 0.097001071033765207 0.01262951804138468 0 0.01262951804138468 0.072858705126169987 0 0 0 0.042464944039983576 0.071416499229893765 0.00018982850445392607 0 0.00018982850445392607 0.049335187266654923 0 0 0 0.030187921624137165 0.084031005733839148 0.01426894898089115 0 0.01426894898089115 0.057451645174157573 0 0 0 0.035370662726998958 0.046985678792269565 0.0043165947975376037 0 0.0043165947975376037 0.13839253452319039 0 0 0 0.046344553328864987 0.1365371509818567 0.00126670516254479 0 0.00126670516254479 0.078256193836978571 0 0 0 0.053698336204708763 0.097070582647383358 -0.01365886880102396 0 -0.01365886880102396 0.053907649145037394 0 0 0 0.03774455794810519 0.042362008440145482 0.0081766881840930061 0 0.0081766881840930061 -0.0083534687767579108 0 0 0 0.0085021349158468373 0.084465599116758383 0.011722424302557821 0 0.011722424302557821 0.066493438947285322 0 0 0 0.037739759516010996 0.12864588729133719 -0.00076407435785791344 0 -0.00076407435785791344 0.07362043852971345 0 0 0 0.050566581455262716 0.083346772777093903 0.018874828031086421 0 0.018874828031086421 0.040404575190748804 0 0 0 0.030937836991960732 0.057447653048811637 -0.0059957353656030707 0 -0.0059957353656030707 -0.0039002662422963352 0 0 0 0.013386846701628763 0.0098450648855531453 0.0026351470722360826 0 0.0026351470722360826 -0.034786784276353955 0 0 0 -0.0062354298477002024 0.029340482432439252 0.0096256924218185991 0 0.0096256924218185991 -0.0357813683690269 0 0 0 -0.001610221484146912 0.02207859223192676 -0.0033490586452571414 0 -0.0033490586452571414 -0.057288863055269215 0 0 0 -0.0088025677058356563 0.022037759507072867 -0.00019336817148568608 0 -0.00019336817148568608 -0.0062987907435676782 0 0 0 0.0039347421908762989 0.017918513756781829 -0.0020257363500379433 0 -0.0020257363500379433 -0.027119075687434713 0 0 0 -0.0023001404826632488 0.014019749278339183 0.00034279839725687156 0 0.00034279839725687156 -0.01516290452395419 0 0 0 -0.00028578881140373102 0.017503827278444073 -0.00039034558307506073 0 -0.00039034558307506073 -0.0016282740740140023 0 0 0 0.003968888301107476 0.028561801952667942 0.0049065146864261944 0 0.0049065146864261944 -0.0061712030002626372 0 0 0 0.0055976497381013401 0.0047966021512301782 -0.0014111279161160006 0 -0.0014111279161160006 -0.021493100418196937 0 0 0 -0.0041741245667417104 0.0063955108324912713 -0.00079843478036312199 0 -0.00079843478036312199 -0.0089491461092679799 0 0 0 -0.00063840881919418387 0.0058868622487440736 0.0015181836229661294 0 0.0015181836229661294 -0.031233865693466756 0 0 0 -0.0063367508611806289 0.0076930512859150757 -0.0012766929738342314 0 -0.0012766929738342314 -0.017053232408482222 0 0 0 -0.0023400452806417449 0.003467008176139541 -0.0024547586413201372 0 -0.0024547586413201372 -0.022471765773846131 0 0 0 -0.0047511893994267029 0.0058826918142007578 -0.0042084812156619883 0 -0.0042084812156619883 -0.038889068211321876 0 0 0 -0.0082515940992802794 0.0037438992777709449 -0.00084285119069682501 0 -0.00084285119069682501 -0.063384340460048774 0 0 0 -0.014910110295569512 0.0056129856236778464 -0.0025693292395073675 0 -0.0025693292395073675 -0.040096897761223937 0 0 0 -0.0086209780343865505 0.0026351901583381195 -0.0023186044538663908 0 -0.0023186044538663908 -0.062820085621269367 0 0 0 -0.015046223865732799 0.002617974365380471 0.0013558707317362639 0 0.0013558707317362639 -0.041398096183477562 0 0 0 -0.0096950304545243282 0.00083716377413625698 -0.0052088482752242204 0 -0.0052088482752242204 -0.028301929936723869 0 0 0 -0.0068661915406469098 0.0012444995262612668 -0.0018327896411974576 0 -0.0018327896411974576 -0.041120050478339554 0 0 0 -0.0099688877380195162 0.019764866354729717 -0.007822038410973231 0 -0.007822038410973231 -0.037004791677770328 0 0 0 -0.0043099813307601797 0.014207938928930464 0.0013830285183947244 0 0.0013830285183947244 -0.053791790215875768 0 0 0 -0.009895962821736326 0.0068295029638917593 -0.0047011570823725299 0 -0.0047011570823725299 -0.033076425187049785 0 0 0 -0.0065617305557895134 0.013367445538413736 -0.0034191998391000233 0 -0.0034191998391000233 -0.0083800280466448385 0 0 0 0.0012468543729421966 0.0084548309841383507 -0.0023085613155165996 0 -0.0023085613155165996 -0.029670734519987918 0 0 0 -0.0053039758839624751 0.0066958394284385991 -0.0041038357242879075 0 -0.0041038357242879075 -0.012546727800430368 0 0 0 -0.0014627220929979423 0.0090357226588253479 -0.0054270058782944219 0 -0.0054270058782944219 -0.0013563869003200418 0 0 0 0.0019198339396263552 0.015065973969352102 -0.0066750260639136527 0 -0.0066750260639136527 -0.01023803426084427 0 0 0 0.0012069849271269181 0.0051140364288668749 -0.0020147388893486384 0 -0.0020147388893486384 -0.02394845048249733 0 0 0 -0.0047086035134076276 0.0049240795695347783 -0.0047895342961883774 0 -0.0047895342961883774 -0.013658533918069593 0 0 0 -0.0021836135871337037 0.0011897369654007284 -0.0048955708570602025 0 -0.0048955708570602025 -0.013081337887879907 0 0 0 -0.0029729002306198016 0.0058228731474420925 -0.0030859897951890369 0 -0.0030859897951890369 -0.010456701103295551 0 0 0 -0.0011584569889633578 0.0054617446756569377 -0.0047103492332257468 0 -0.0047103492332257468 -0.0016197858987202496 0 0 0 0.00096048969423412345 0.0058502809253745403 -0.0057447253881364596 0 -0.0057447253881364596 -0.0053760966283112888 0 0 0 0.00011854607426586838 0.0052354361877521571 -0.0061501406174002682 0 -0.0061501406174002682 -0.00016994110869117396 0 0 0 0.0012663737697652111 0.0028533216093354699 -0.0044058557037081614 0 -0.0044058557037081614 -0.0061448857522932304 0 0 0 -0.00082289103573942451 0.0062029754168632656 -0.0064789450792619718 0 -0.0064789450792619718 -0.0049203745924206732 0 0 0 0.00032065020611060646 0.0045885399892356404 -0.0075334833084949038 0 -0.0075334833084949038 -0.0066010129149784991 0 0 0 -0.00050311823143572854 0.0097217019086207057 -0.0082835645397282276 0 -0.0082835645397282276 -0.0019951163754737822 0 0 0 0.0019316463832866893 0.013578899051625015 -0.0071227364133526483 0 -0.0071227364133526483 0.0089379775999522959 0 0 0 0.0056292191628943278 0.0078393340436085923 -0.0068467256696590414 0 -0.0068467256696590414 0.0019264549138716669 0 0 0 0.002441447239370037 0.0065917884273392624 -0.0081106541241307284 0 -0.0081106541241307284 0.0037144667052414482 0 0 0 0.0025765637831452193 0.0080567606017100113 -0.0087415142415852368 0 -0.0087415142415852368 0.0028980421111141075 0 0 0 0.0027387006782060574 0.010250335392659307 -0.0089039033442184223 0 -0.0089039033442184223 0.010172301404633502 0 0 0 0.0051056591993231953 0.0085394078130278592 -0.0095096285323551799 0 -0.0095096285323551799 0.0047884438009174815 0 0 0 0.0033319629034863005 0.0074576525018488771 -0.0081031823197186444 0 -0.0081031823197186444 0.0033054821371115151 0 0 0 0.002690783659740098 0.011159156588701064 -0.0070717244178980163 0 -0.0070717244178980163 0.0025351723288516981 0 0 0 0.0034235822293882112 0.0060787679721404269 -0.0061980541996856653 0 -0.0061980541996856653 0.00091352937369956755 0 0 0 0.0017480743364600053 0.0088903193321328566 -0.0050593178355272383 0 -0.0050593178355272383 -0.00046720659258447927 0 0 0 0.0021057781848871082 0.0076230318930258778 -0.007207060721509978 0 -0.007207060721509978 0.00015655032426005466 0 0 0 0.0019448955543214796 0.031850195288176231 -0.010034429665748967 0 -0.010034429665748967 0.029733044448830848 0 0 0 0.015395809934251825 0.012784940976477385 -0.0062398541959615694 0 -0.0062398541959615694 0.038282349746425463 0 0 0 0.012766822680725711 0.042093050479317301 -0.0093348395420938535 0 -0.0093348395420938535 0.025894117744239886 0 0 0 0.016996792055889248 0.023528729243300933 -0.0084163738013290634 0 -0.0084163738013290634 0.025678889297635288 0 0 0 0.012301904635234062 0.014529541169037666 -0.0073763096275330231 0 -0.0073763096275330231 0.02446020145479505 0 0 0 0.009747435655958217 0.010287124621506633 -0.010313171037842517 0 -0.010313171037842517 0.0096394023035412668 0 0 0 0.004981631731261954 0.012519365142017236 -0.0089724417444078802 0 -0.0089724417444078802 0.01380613562960803 0 0 0 0.0065813751929063025 0.014059705557288485 -0.0077336155008758817 0 -0.0077336155008758817 0.0074275068182407811 0 0 0 0.0053718030938823408 0.025096483771993944 -0.0050485604152007424 0 -0.0050485604152007424 0.029574412375930115 0 0 0 0.013667724036981049 0.017829678297484275 -0.0093800302248632089 0 -0.0093800302248632089 0.017090663328538258 0 0 0 0.0087300854065056055 0.02666776280656781 -0.0053375743612616156 0 -0.0053375743612616156 0.015976944878863392 0 0 0 0.010661176921357776 0.018604584222683324 -0.0098836881541503052 0 -0.0098836881541503052 0.0051738955715592283 0 0 0 0.005944619948560631 0.033467523381022074 -0.0073305761423592686 0 -0.0073305761423592686 0.035296155937965312 0 0 0 0.017190919829746881 0.050853617199172085 -0.0072155017887493766 0 -0.0072155017887493766 0.034581650547342857 0 0 0 0.021358816936628722 0.033670554301739763 -0.007865559143668821 0 -0.007865559143668821 0.025354964323249574 0 0 0 0.01475637965624732 0.030636888413478822 -0.014375770213023942 0 -0.014375770213023942 0.023883950603914142 0 0 0 0.013630209754348296 0.019106090828258496 -0.0065128643969332009 0 -0.0065128643969332009 0.05718048584609467 0 0 0 0.019071644168588295 0.036324339279806828 -0.0078579192182462454 0 -0.0078579192182462454 0.032457392817135333 0 0 0 0.017195433024235485 0.042341789971500149 -0.011189123258342204 0 -0.011189123258342204 0.030304892738009515 0 0 0 0.018161670677377534 0.015698356800530999 -0.006473367578990679 0 -0.006473367578990679 0.047019884802188647 0 0 0 0.015679560400679908 0.048313152106817858 -0.0063563343583774579 0 -0.0063563343583774579 0.037761850073838144 0 0 0 0.021518750545164056 0.023054560753055592 -0.0063250139578607378 0 -0.0063250139578607378 0.069134597306915263 0 0 0 0.023047289514992714 0.070118628014505524 -0.0053203133609576354 0 -0.0053203133609576354 0.041112549669993781 0 0 0 0.02780779442112491 0.055774597293970177 -0.012376275138294757 0 -0.012376275138294757 0.040599524205012255 0 0 0 0.024093530374745608 0.041328737370658453 -0.0049808339958028469 0 -0.0049808339958028469 0.025479314822379084 0 0 0 0.016702013048259357 0.022064685198980111 -0.0038124609357440137 0 -0.0038124609357440137 0.0084045334361189106 0 0 0 0.0076173046587747484 0.032862424367457649 -0.0087616704257380829 0 -0.0087616704257380829 0.0067452523549872412 0 0 0 0.0099019191806112294 0.045570259208712049 -0.0041168132660352741 0 -0.0041168132660352741 0.041041527048365389 0 0 0 0.021652946564269304 0.039449568051467439 0.00034856711070307966 0 0.00034856711070307966 0.010564096828752562 0 0 0 0.012503416220055026 0.025858564899203074 -0.0078887744419535721 0 -0.0078887744419535721 -0.015706436245982558 0 0 0 0.0025380321633051151 0.05441189675085862 -0.010463717228163694 0 -0.010463717228163694 0.035378878715650902 0 0 0 0.022447693866627379 0.08488584421410042 -0.00058386160059983871 0 -0.00058386160059983871 0.039660368796712198 0 0 0 0.031136553252703147 0.054924773580868842 -0.01407894140652316 0 -0.01407894140652316 0.015650810300239456 0 0 0 0.017643895970277081 0.037575091057609505 0.0036783720935631425 0 0.0036783720935631425 -0.01228828728137199 0 0 0 0.0063217009440593719 0.05286315722316387 -0.012345788321012741 0 -0.012345788321012741 0.03131970633848985 0 0 0 0.021045715890413541 0.027991119649426618 -0.0062148434088826025 0 -0.0062148434088826025 0.083349830220197513 0 0 0 0.027835237467406033 0.087367535937159513 -0.0033592097368275306 0 -0.0033592097368275306 0.045882025062705001 0 0 0 0.03331239024996635 0.062395996862968595 0.0068422770012726009 0 0.0068422770012726009 0.028217818059169453 0 0 0 0.022653453730534623 0.038972977041726087 -0.0065890528160807982 0 -0.0065890528160807982 0.0024192029624781064 0 0 0 0.010348045001051132 0.027136421295944152 0.0010464417778652813 0 0.0010464417778652813 -0.016643776386381561 0 0 0 0.0026231612273906759 0.022823012008921506 -0.0079149984831325959 0 -0.0079149984831325959 -0.0022160856252564365 0 0 0 0.0051517315959162535 0.03494947508819457 -0.0014488006827243494 0 -0.0014488006827243494 0.0019802995615472163 0 0 0 0.0092324436624354744 0.011369190719603628 -0.0021942198914038924 0 -0.0021942198914038924 -0.01283990898898324 0 0 0 -0.00036767956734495844 0.0025632014395674529 -0.0059117247484201663 0 -0.0059117247484201663 -0.013300388431171983 0 0 0 -0.0026842967479011604 0.0049936899975199234 -0.0079935857043934248 0 -0.0079935857043934248 -0.0060089227572173165 0 0 0 -0.00025380818992426502 0.01017696929260428 -0.0053578130496143572 0 -0.0053578130496143572 -0.018836467002560173 0 0 0 -0.00216487442748889 0.013338417759408416 -0.012668219710852413 0 -0.012668219710852413 -0.0040470479404637327 0 0 0 0.0023228424547361848 0.0027569004548980702 -0.012577581330093124 0 -0.012577581330093124 -0.0035315730963109138 0 0 0 -0.00019366816035326639 0.0031839125483686948 -0.012890559136318314 0 -0.012890559136318314 -0.0023861135714222659 0 0 0 0.00019944974423669048 0.0098726966167194119 -0.014283921603177097 0 -0.014283921603177097 -0.00030784718907472808 0 0 0 0.0023912123569109767 0.023653104590176492 -0.011116718072433307 0 -0.011116718072433307 0.0060872547166173352 0 0 0 0.0074350898266984308 0.0308048143525117 -0.013938871621644311 0 -0.013938871621644311 0.0076152738658812336 0 0 0 0.0096050220545982334 0.01578973999605493 -0.0072948625327528827 0 -0.0072948625327528827 -0.0039456881332333715 0 0 0 0.0029610129657052786 -0.00042163232050440591 -0.0020287774846592388 0 -0.0020287774846592388 0.00087936270752231316 0 0 0 0.00011443259675436579 -0.00085627049705916392 -0.0010818293625530773 0 -0.0010818293625530773 -0.00098344417171447596 0 0 0 -0.00045992866719346548 -0.00041641780620731389 -0.00086733664949112388 0 -0.00086733664949112388 -0.00056857782367261017 0 0 0 -0.00024624890746998101 0.00060372261411567596 -0.001434604846431764 0 -0.001434604846431764 -0.001944950283895075 0 0 0 -0.00033530691744476648 -0.0034312584327779172 -0.0036805853377017694 0 -0.0036805853377017694 -0.0028872400411881216 0 0 0 -0.0015796246184914819 -0.00077079089966392011 -0.0049823126875532253 0 -0.0049823126875532253 -0.0053242820274430613 0 0 0 -0.0015237682317770229 0.0029298151383243543 -0.0041902554080073817 0 -0.0041902554080073817 -0.0042592298991861455 0 0 0 -0.00033235369021555883 -0.00069989703229120627 -0.0027814509934160903 0 -0.0027814509934160903 -0.0061758097172051442 0 0 0 -0.0017189266873741432 -0.00021276157383436558 -0.0048483764590294687 0 -0.0048483764590294687 -0.013410088595071451 0 0 0 -0.003405712542226482 -0.0024514608789366621 -0.0092947457360181424 0 -0.0092947457360181424 -0.0088826627741833697 0 0 0 -0.0028335309132800912 -0.0060266707353868743 -0.012395348775817605 0 -0.012395348775817605 -0.0032129236589203414 0 0 0 -0.0023098985985768317 -0.011859478178449234 -0.0088261006729538627 0 -0.0088261006729538627 -0.0029709508280502117 0 0 0 -0.0037076072516248892 -0.0014483212907547838 -0.0080576305569086681 0 -0.0080576305569086681 -0.0038192057254005096 0 0 0 -0.0013168817540388789 -0.0033832499719290005 -0.007763595056893613 0 -0.007763595056893613 -0.00034187064659818578 0 0 0 -0.00093128015463177227 -0.0062508737398603714 -0.0039465910992736442 0 -0.0039465910992736442 -0.0015543755803417714 0 0 0 -0.0019513123300504559 -0.013092643589808883 -0.0041219347549070204 0 -0.0041219347549070204 -0.0015811198567989848 0 0 0 -0.003668440861651967 -0.0051227668084715683 -0.0030769201637018684 0 -0.0030769201637018684 0.0010760183832356773 0 0 0 -0.001011687106308834 -0.022127928292195231 -0.004368630927035144 0 -0.004368630927035144 0.001533927831542492 0 0 0 -0.0051485001151631016 -0.0083889550516630385 -0.0061824734871222531 0 -0.0061824734871222531 0.0016217378909741953 0 0 0 -0.0016918042901722385 -0.011412434169865426 -0.0091176970370461241 0 -0.0091176970370461241 0.00087223372891742645 0 0 0 -0.0026350501102369028 -0.019432379310303269 -0.0050779196904343626 0 -0.0050779196904343626 -0.0022350223248238099 0 0 0 -0.0054168504087817454 -0.013559839509379668 -0.011272985281263831 0 -0.011272985281263831 -0.0011599763363931981 0 0 0 -0.0036799539614432719 -0.0046694977768193535 -0.012254642123730147 0 -0.012254642123730147 0.0011750499865610387 0 0 0 -0.00087361194756463423 -0.0070810479955003558 -0.014248895452379673 0 -0.014248895452379673 0.0012864798162988134 0 0 0 -0.0014486420448003301 -0.0069967938029150689 -0.013815485775205971 0 -0.013815485775205971 0.00093705268482335846 0 0 0 -0.0015149352795228443 -0.014251742295866857 -0.011099891801628292 0 -0.011099891801628292 -0.00087477142601131985 0 0 0 -0.0037816284304695441 -0.014108279422523906 -0.012270933459469904 0 -0.012270933459469904 0.0012764605757158431 0 0 0 -0.0032079547117020435 -0.0069739968166975461 -0.015327752616338897 0 -0.015327752616338897 0.0041049930087357356 0 0 0 -0.00071725095199028782 -0.017420220964515509 -0.012429245467322297 0 -0.012429245467322297 0.00097461983141844399 0 0 0 -0.0041114002832742247 -0.021689522091627889 -0.008044195437502677 0 -0.008044195437502677 0.00061609483165703249 0 0 0 -0.005268356814992714 -0.025083721185261365 -0.0066022889991755318 0 -0.0066022889991755318 -0.00166887565521745 0 0 0 -0.0066881492101197315 -0.025609515179661424 -0.0065851409876154232 0 -0.0065851409876154232 0.0022417552985294353 0 0 0 -0.0058419399702829278 -0.034082320673134436 -0.0036003914415946698 0 -0.0036003914415946698 -0.00055112113233546367 0 0 0 -0.008658360451367586 -0.023076341340278306 -0.0036460139236148548 0 -0.0036460139236148548 0.00036759124055496528 0 0 0 -0.0056771875249309045 0.017424956348574744 -0.016003618448978907 0 -0.016003618448978907 0.0066251119432398919 0 0 0 0.0060125170729536659 0.009856909207619946 -0.014065253409394241 0 -0.014065253409394241 0.004445071523331956 0 0 0 0.00357549518273792 0.019658881198919897 -0.01467000586973044 0 -0.01467000586973044 0.015799939290942255 0 0 0 0.0088647051224655105 0.01355591277495094 -0.016675603654702553 0 -0.016675603654702553 0.0050648061717053494 0 0 0 0.0046551797366640724 0.00042006920616022292 -0.014566937388698374 0 -0.014566937388698374 0.00014603693039205723 0 0 0 0.00014152653413801453 0.00048862432261143063 -0.014749095680875013 0 -0.014749095680875013 0.00042464842541722891 0 0 0 0.00022831818700719264 0.0088038021966573843 -0.016849302911642994 0 -0.016849302911642994 0.0029511153758408071 0 0 0 0.0029387293931245062 0.0064596481280952411 -0.016860976476868017 0 -0.016860976476868017 0.0041398242394641294 0 0 0 0.0026498680918898287 -0.00072060272204321763 -0.014992705771586234 0 -0.014992705771586234 0.0028882962332670292 0 0 0 0.0005419233778059529 -0.0015095353166777459 -0.014510851849256892 0 -0.014510851849256892 0.0008888475818906727 0 0 0 -0.00015517193369685156 -0.00087772941193418191 -0.012718862623094962 0 -0.012718862623094962 0.0031434780550421149 0 0 0 0.00056643716077699885 0.016255190393950625 -0.015439849938725221 0 -0.015439849938725221 0.0071583601364930693 0 0 0 0.0058533876326110068 0.0075842449054968064 -0.01411041607460195 0 -0.01411041607460195 0.0071875074399798677 0 0 0 0.0036929380863691685 0.027074948527234521 -0.012411908840716412 0 -0.012411908840716412 0.013303782156873001 0 0 0 0.010094682671026811 0.018049707052604169 -0.013688897686252255 0 -0.013688897686252255 0.013336632311300889 0 0 0 0.0078465848409762784 0.026281588951501567 -0.011175829966433015 0 -0.011175829966433015 0.011943768802885391 0 0 0 0.0095563394385966838 0.017130070732712166 -0.014947686939042804 0 -0.014947686939042804 0.0091405169986273904 0 0 0 0.0065676469328348475 0.019861996865425925 -0.011151980005963236 0 -0.011151980005963236 0.010051159042867071 0 0 0 0.0074782889770732908 0.025460630365084613 -0.013100341134956311 0 -0.013100341134956311 0.0096917801811244875 0 0 0 0.0087881026365522752 0.0095396283879876642 -0.015192028561216375 0 -0.015192028561216375 0.006331181563973054 0 0 0 0.0039677024879901657 0.010517832161152652 -0.012454672991488197 0 -0.012454672991488197 0.0076919837776652233 0 0 0 0.0045524539847044965 0.0072637226527971152 -0.016492388837266891 0 -0.016492388837266891 0.0047421697264431253 0 0 0 0.0030014730948101295 -0.0043282943349332026 -0.01584288416761831 0 -0.01584288416761831 0.0034178119018544173 0 0 0 -0.00022762060826969632 -0.0061987394123617263 -0.011582890645352006 0 -0.011582890645352006 0.0025809172247858204 0 0 0 -0.00090445554689401811 0.0074905600625013724 -0.012358371859920197 0 -0.012358371859920197 0.0052227327645990584 0 0 0 0.00317832320677508 -0.0009170321215086763 -0.016262602563778372 0 -0.016262602563778372 0.0031919666281331471 0 0 0 0.00056873362665610383 0.0061784869672132717 -0.011246973727884801 0 -0.011246973727884801 0.0047303390526494613 0 0 0 0.0027272065049656971 -0.0059889450118302268 -0.011891908531284773 0 -0.011891908531284773 0.0022836511489099376 0 0 0 -0.00092632346573007229 -0.0049779347078173775 -0.013669934403908856 0 -0.013669934403908856 0.0063737901200323632 0 0 0 0.0003489638530537742 0.022334347479591288 -0.01199279076431934 0 -0.01199279076431934 0.0073412243913213437 0 0 0 0.0074188929677281301 0.024280614501582046 -0.010016239367399593 0 -0.010016239367399593 0.011276281813554223 0 0 0 0.0088892240787840776 0.020859293060870865 -0.010621106716971224 0 -0.010621106716971224 0.011898944438611503 0 0 0 0.0081895593748705919 0.0069664322465402551 -0.014407915841559205 0 -0.014407915841559205 0.0064331708381360486 0 0 0 0.0033499007711691453 0.019155525095498394 -0.011904623611297238 0 -0.011904623611297238 0.0073055140814135555 0 0 0 0.0066152597942280011 -0.035284189087904871 -0.0061492186249179071 0 -0.0061492186249179071 0.0013198208512494869 0 0 0 -0.0084910920591638739 -0.040155469274823351 -0.0028020066847034286 0 -0.0028020066847034286 -0.00046436171588876141 0 0 0 -0.01015495774767807 -0.034549648554167277 -0.0034371877242215243 0 -0.0034371877242215243 -0.0011591213169519637 0 0 0 -0.0089271924677797529 -0.043938805267662695 -0.0041229245766061717 0 -0.0041229245766061717 0.001269314344470196 0 0 0 -0.010667372730798208 -0.026661884630730603 -0.0054017137265772938 0 -0.0054017137265772938 -0.0016536224392542653 0 0 0 -0.0070788767674960784 -0.017237806411326773 -0.0096623993627613022 0 -0.0096623993627613022 0.0014612558367577133 0 0 0 -0.0039441376436422093 -0.026463602347246262 -0.01029797090951301 0 -0.01029797090951301 0.0018145068399871844 0 0 0 -0.0061622738768147833 -0.013972746789265522 -0.01132506674394762 0 -0.01132506674394762 0.00058608297550888366 0 0 0 -0.0033466659534392429 -0.015889958954670602 -0.013853324257190769 0 -0.013853324257190769 0.0032661691353725875 0 0 0 -0.0031559474548245592 -0.018250198941938411 -0.011598446533356233 0 -0.011598446533356233 0.0025213334942034704 0 0 0 -0.0039322163619336936 -0.015507471223588365 -0.0095870398853135641 0 -0.0095870398853135641 0.0032354185512318834 0 0 0 -0.0030680131680891343 -0.016161756047841966 -0.012585041924376816 0 -0.012585041924376816 0.0054788327866202025 0 0 0 -0.0026707308153054304 -0.021663873054691793 -0.0070549394334535886 0 -0.0070549394334535886 0.0017384328964942693 0 0 0 -0.0049813600395494494 -0.029383682544028067 -0.0093917642769064391 0 -0.0093917642769064391 0.0022817207478543766 0 0 0 -0.0067754904490434087 -0.029266532374118359 -0.0080160006758108193 0 -0.0080160006758108193 0.001210268209448806 0 0 0 -0.0070140660411673328 -0.030154505939609291 -0.0089209624067204674 0 -0.0089209624067204674 0.001379411940033215 0 0 0 -0.0071937734998940434 -0.041465453749418346 -0.0045470625718425084 0 -0.0045470625718425084 0.0013294524614823056 0 0 0 -0.010034000321984038 -0.040589196507289385 -0.002872642860006186 0 -0.002872642860006186 0.00043875737199944309 0 0 0 -0.010037609783822468 -0.051025435520674456 -0.0051990819210636086 0 -0.0051990819210636086 0.0008002760336227599 0 0 0 -0.012556289871762938 -0.065546289800392676 -0.0024562449701060894 0 -0.0024562449701060894 0.0011168552947172783 0 0 0 -0.01610735862641885 -0.056715623144956373 -0.0034201834566836933 0 -0.0034201834566836933 0.00095152288743827196 0 0 0 -0.013941025064379553 -0.046055978936121705 -0.0011811530249314639 0 -0.0011811530249314639 0.00021441761840002016 0 0 0 -0.011460390329430414 -0.041266594688632745 -0.0077578035222846675 0 -0.0077578035222846675 0.0028880617770101064 0 0 0 -0.0095946332279056527 -0.032883412828875164 -0.0044104959654838738 0 -0.0044104959654838738 0.001078443056953482 0 0 0 -0.0079512424429803996 -0.018354598852697801 -0.00692938050037889 0 -0.00692938050037889 0.0033607808586624266 0 0 0 -0.003748454498508802 -0.02157157974377491 -0.010680926319634243 0 -0.010680926319634243 0.0056199018911908816 0 0 0 -0.003987919463146028 -0.019181714133072889 -0.0086869234540776774 0 -0.0086869234540776774 0.0099298139901188298 0 0 0 -0.0023129750357385043 -0.025049440828568074 -0.0043240603026553082 0 -0.0043240603026553082 0.00077278928095686483 0 0 0 -0.0060691628869027833 -0.02516067128871044 -0.0055025773734035388 0 -0.0055025773734035388 0.0038696118232063176 0 0 0 -0.0053227648663760341 -0.033711597897582171 0.0010329882767435711 0 0.0010329882767435711 0.0051405391808817258 0 0 0 -0.0071427646791751148 -0.035817456313951793 -0.0059460402091127407 0 -0.0059460402091127407 0.0043311920246821567 0 0 0 -0.0078715660723174125 -0.046492625607261265 -0.0033071432506368154 0 -0.0033071432506368154 0.00091947169845565946 0 0 0 -0.011393288477201405 -0.042387435635325266 -0.00010032629141581983 0 -0.00010032629141581983 0.0011822318302402435 0 0 0 -0.010301300951271242 -0.062690374786584221 -0.0010609632761664687 0 -0.0010609632761664687 0.0013691087024336746 0 0 0 -0.01533031652103764 0.0097756776199852957 -0.0096782730561306984 0 -0.0096782730561306984 0.0087260898475400861 0 0 0 0.0046254418668813246 0.027850764143277237 -0.018298551630244075 0 -0.018298551630244075 0.016228661402180544 0 0 0 0.011019856386364477 0.0086574125804327676 -0.014213185688622787 0 -0.014213185688622787 0.0092676509249623104 0 0 0 0.0044812658763487903 0.0062725110088719949 -0.010341933111040619 0 -0.010341933111040619 0.0043098789272978388 0 0 0 0.0026455974840424168 -0.0083510644208125706 -0.010538297666382942 0 -0.010538297666382942 0.0042963990658366757 0 0 0 -0.0010136663387440015 -0.0069527283946883289 -0.010820476886585606 0 -0.010820476886585606 0.0085716088567817095 0 0 0 0.0004047201155233382 0.004927503246845967 -0.013935907222272115 0 -0.013935907222272115 0.010137788975388473 0 0 0 0.0037663230555586222 -0.0060964853047029005 -0.0055827832361082519 0 -0.0055827832361082519 0.01068674496530353 0 0 0 0.0011475649151501816 -0.021882575575896984 -0.0024083147907284566 0 -0.0024083147907284566 0.0044929891574158054 0 0 0 -0.0043473966046202739 -0.015239077981520452 -0.00027717694646653412 0 -0.00027717694646653412 0.007176849123494207 0 0 0 -0.0020155572145065526 -0.0098931778046169039 -0.0092137803788482908 0 -0.0092137803788482908 0.012128752745487081 0 0 0 0.00055889373521755825 0.008199020536118401 -0.010417040651921028 0 -0.010417040651921028 0.014410760480859042 0 0 0 0.0056524452542443537 0.0089320046165661943 -0.0094141503039474449 0 -0.0094141503039474449 0.015763748715032722 0 0 0 0.0061739383328997255 0.024380925538216948 -0.013802209724254 0 -0.013802209724254 0.021942891572806003 0 0 0 0.011580954277755726 0.033462557967054829 -0.025915842375461559 0 -0.025915842375461559 0.045283518426383118 0 0 0 0.019686519098359483 -0.032652496950370341 0.0039446441901514612 0 0.0039446441901514612 0.024472275443524538 0 0 0 -0.0020450553767114438 0.081728798837902725 -0.024295648093137404 0 -0.024295648093137404 0.020971948065723001 0 0 0 0.025675186725906449 0.001788093686367362 -0.001113278637279852 0 -0.001113278637279852 0.0052808628238853877 0 0 0 0.0017672391275631878 0.041199018374728412 -0.013920847390391816 0 -0.013920847390391816 0.0039846041828763834 0 0 0 0.011295905639401214 0.03460472397415508 -0.0092932330490925336 0 -0.0092932330490925336 0.010662133807769147 0 0 0 0.011316714445481088 0.004446314484771602 -0.0029212451908823753 0 -0.0029212451908823753 0.013301933819237289 0 0 0 0.004437062076002223 0.058408739114878511 -0.0077222608726424946 0 -0.0077222608726424946 0.011090963704924017 0 0 0 0.017374925704950639 0.0062863580758067824 -0.0041843328295398134 0 -0.0041843328295398134 0.018815426617497896 0 0 0 0.0062754461733261699 0.039678869699117519 -0.0070890748923572444 0 -0.0070890748923572444 0.013664495712532199 0 0 0 0.013335841352912409 0.036310250649378123 -0.011406442799699712 0 -0.011406442799699712 0.0077242191598991261 0 0 0 0.011008617452319319 -0.0018347656065720586 -0.0074961958582515156 0 -0.0074961958582515156 0.0093160039819467355 0 0 0 0.0018703095938436554 -0.01029082656633179 -0.0096081005919866416 0 -0.0096081005919866416 0.013271035472245452 0 0 0 0.00074505222647842928 -0.0014907303427809937 -0.0076467707799288825 0 -0.0076467707799288825 0.011035821721817066 0 0 0 0.0023862728447590353 -0.019021293182651399 -0.0092967014940611003 0 -0.0092967014940611003 0.008652295157585782 0 0 0 -0.0025922495062664086 -0.00050828114998224122 -0.0038456695149466577 0 -0.0038456695149466577 0.01721056897811446 0 0 0 0.004175571957033046 -0.0041139930751283339 -0.0021147802894387752 0 -0.0021147802894387752 0.0049037924228490237 0 0 0 0.00019744983693017679 -0.0119047373085974 -0.0063271100244969916 0 -0.0063271100244969916 0.044582412176212005 0 0 0 0.0081694187169036557 0.00083830428689418788 0.0016373236871863733 0 0.0016373236871863733 0.018754091013131649 0 0 0 0.0048980988250064495 0.0048470847533784861 -0.0038764421066618988 0 -0.0038764421066618988 0.008850797558594331 0 0 0 0.0034244705779932008 0.0077667090738290263 -0.0045870202947136812 0 -0.0045870202947136812 0.020643302755423462 0 0 0 0.0071025029573131178 0.0065400886182917081 -0.0034526583616641439 0 -0.0034526583616641439 0.019573632794954748 0 0 0 0.00652843035331161 0.010875908659801037 -0.0043551955396900089 0 -0.0043551955396900089 0.022819010788922234 0 0 0 0.0084237298621808246 0.0094763343462059644 -0.0045640183389372632 0 -0.0045640183389372632 0.028481612695681995 0 0 0 0.0094894867604719841 0.015086114232894299 -0.0095364598716983946 0 -0.0095364598716983946 0.02280425632041494 0 0 0 0.0094725926383273165 0.015269598444329008 -0.011040483110556082 0 -0.011040483110556082 0.015093207936648961 0 0 0 0.0075907015952444788 0.0118014549960559 -0.0064825861722911729 0 -0.0064825861722911729 0.015074214516684586 0 0 0 0.0067189173781851338 0.010732443131000413 -0.0097583727027139716 0 -0.0097583727027139716 0.012147664036618072 0 0 0 0.0057200267919046213 0.010743496550766542 -0.0066795554101672788 0 -0.0066795554101672788 0.011741075517645139 0 0 0 0.0056211430171029253 0.01153343525675023 -0.0088885806588838573 0 -0.0088885806588838573 0.0092957538077848116 0 0 0 0.0052072972661337848 0.0028468749155800693 -0.009733574787833793 0 -0.009733574787833793 0.010484544682638375 0 0 0 0.0033328548995546145 0.0090088792195697626 -0.0088107361685782065 0 -0.0088107361685782065 0.010018446471047271 0 0 0 0.0047568314226542618 0.0075683649753236631 -0.010144952827730341 0 -0.010144952827730341 0.0064592797780383959 0 0 0 0.0035069111883405113 0.0040760921534503669 -0.0099428792225604093 0 -0.0099428792225604093 0.0091164357981031729 0 0 0 0.0032981319878884058 0.0083138986815469718 -0.011047264310469623 0 -0.011047264310469623 0.007049367750227048 0 0 0 0.003840816607943498 0.0077495501689190671 -0.0105443143767305 0 -0.0105443143767305 0.007098967213059415 0 0 0 0.0037121293454946136 0.0067315186997396886 -0.011131897457918372 0 -0.011131897457918372 0.0088515668281337057 0 0 0 0.0038957713819683382 0.015114716057596359 -0.0089608408957748409 0 -0.0089608408957748409 0.007189167330457269 0 0 0 0.0055759708470134173 0.012077507291907166 -0.010028104192223591 0 -0.010028104192223591 0.009739523608948919 0 0 0 0.0054542577252140179 0.0112115010413954 -0.0098045932259517438 0 -0.0098045932259517438 0.0069543480162244375 0 0 0 0.0045414622644049663 0.012255830159783977 -0.009748823150689645 0 -0.009748823150689645 0.0059293377887906437 0 0 0 0.0045462919871436559 0.01272153174938892 -0.010017203360855154 0 -0.010017203360855154 0.0065603342313484136 0 0 0 0.0048204664951843196 0.010582653542452719 -0.0062041822981848682 0 -0.0062041822981848682 0.0023898781233232524 0 0 0 0.0032431329164440137 0.0085359772181911736 -0.0096983492906149577 0 -0.0096983492906149577 0.0047145681262262817 0 0 0 0.003312636336104402 0.012297116241094528 -0.0084518536931631749 0 -0.0084518536931631749 0.0049690756663448021 0 0 0 0.0043165479768598174 0.0066124215528925376 -0.010420874939856745 0 -0.010420874939856745 0.0091367956970321851 0 0 0 0.0039373043124812032 0.0093619431094272565 -0.010131217541843152 0 -0.010131217541843152 0.0065534181605319541 0 0 0 0.0039788403174897957 0.0068990790527697944 -0.011129559683478729 0 -0.011129559683478729 0.0070726819773584554 0 0 0 0.0034929402575320824 0.0072891966243630313 -0.0094857092159337797 0 -0.0094857092159337797 0.0055984102743232844 0 0 0 0.003221901724671572 0.0077919764342755937 -0.010098512586403825 0 -0.010098512586403825 0.0091575853960328413 0 0 0 0.0042373904575770949 0.0085669935966681265 -0.0099482149274777599 0 -0.0099482149274777599 0.009349267560023744 0 0 0 0.0044790652891729676 0.0091420981353940445 -0.0096202908856111435 0 -0.0096202908856111435 0.014320948459646154 0 0 0 0.0058657616487600844 0.006697174178950549 -0.010268100028449467 0 -0.010268100028449467 0.013175199977262686 0 0 0 0.0049680935390533087 0.0073448048662236864 -0.0099796055044897025 0 -0.0099796055044897025 0.011889763373258089 0 0 0 0.0048086420598704299 0.0094502198418036087 -0.0073016596008474433 0 -0.0073016596008474433 0.021819892448163902 0 0 0 0.0078175280724918639 0.040814682958497744 -0.0081281348752408333 0 -0.0081281348752408333 0.020929558015904681 0 0 0 0.015436060243600586 0.010310568243035181 -0.0057957225097180331 0 -0.0057957225097180331 0.030875009775625881 0 0 0 0.010296394504665268 0.012941865291653781 -0.0082748268739533792 0 -0.0082748268739533792 0.022986268463778825 0 0 0 0.0089820334388581446 0.029200289872221452 -0.010440828987592354 0 -0.010440828987592354 0.023200627917907446 0 0 0 0.013100229447532252 0.030833757595660011 -0.0085706281039990562 0 -0.0085706281039990562 0.019362068908082675 0 0 0 0.01254895662593572 0.043418832033274374 -0.0063472515998169721 0 -0.0063472515998169721 0.017136030512673317 0 0 0 0.015138715636486888 0.0013973131270879346 -0.0084318841444516457 0 -0.0084318841444516457 0.018876031351083067 0 0 0 0.0050683361195427712 0.0081867040545177058 -0.0051258055019708084 0 -0.0051258055019708084 0.024512800145513894 0 0 0 0.0081748760500078982 0.034770412410203927 -0.0071557761147544863 0 -0.0071557761147544863 0.017182539170660371 0 0 0 0.012988237895216109 0.030904132459560696 -0.01064567492015131 0 -0.01064567492015131 0.0084892243513292609 0 0 0 0.0098483392027224337 0.04715360629490431 -0.0062407039867339309 0 -0.0062407039867339309 0.013480514567393076 0 0 0 0.015158530215574367 -0.00086168329859709 -0.0082697850024381347 0 -0.0082697850024381347 0.013319290769745234 0 0 0 0.003114401867787029 0.0026569461021126832 -0.010847314814196915 0 -0.010847314814196915 0.0080671415900792909 0 0 0 0.0026810219230480013 0.0019892809924872412 -0.010566027627826491 0 -0.010566027627826491 0.0099759038063990113 0 0 0 0.0029912961997215631 0.0051432824761632745 -0.0087425327545090775 0 -0.0087425327545090775 0.015389749955071197 0 0 0 0.0051332581078086109 
</DataArray>
<DataArray type="Float64" Name="cross_section_updated" format="ascii">
1 1 1 1 1 1 1 1 1 1 1 1 1 1 1 1 1 1 1 1 1 1 1 1 1 1 1 1 1 1 1 1 1 1 1 1 1 1 1 1 1 1 1 1 1 1 1 1 1 1 1 1 1 1 1 1 1 1 1 1 1 1 1 1 1 1 1 1 1 1 1 1 1 1 1 1 1 1 1 1 1 1 1 1 1 1 1 1 1 1 1 1 1 1 1 1 1 1 1 1 1 1 1 1 1 1 1 1 1 1 1 1 1 1 1 1 1 1 1 1 1 1 1 1 1 1 1 1 1 1 1 1 1 1 1 1 1 1 1 1 1 1 1 1 1 1 1 1 1 1 1 1 1 1 1 1 1 1 1 1 1 1 1 1 1 1 1 1 1 1 1 1 1 1 1 1 1 1 1 1 1 1 1 1 1 1 1 1 1 1 1 1 1 1 1 1 1 1 1 1 1 1 1 1 1 1 1 1 1 1 1 1 1 1 1 1 1 1 1 1 1 1 1 1 1 1 1 1 1 1 1 1 1 1 1 1 1 1 1 1 1 1 1 1 1 1 1 1 1 1 1 1 1 1 1 1 1 1 1 1 1 1 1 1 1 1 1 1 1 1 1 1 1 1 1 1 1 1 1 1 1 1 1 1 1 1 1 1 1 1 1 1 1 1 1 1 1 1 1 1 1 1 1 1 1 1 1 1 1 1 1 1 1 1 1 1 1 1 1 1 1 1 1 1 1 1 1 1 1 1 1 1 1 1 1 1 1 1 1 1 1 1 1 1 1 1 1 1 1 1 1 1 1 1 1 1 1 1 1 1 1 1 1 1 1 1 1 1 1 1 1 1 1 1 1 1 1 1 1 1 1 1 1 1 1 1 1 1 1 1 1 1 1 1 1 1 1 1 1 1 1 1 1 1 1 1 1 1 1 1 1 1 1 1 1 1 1 1 1 1 1 1 1 1 1 1 1 1 1 1 1 1 1 1 1 1 1 1 1 1 1 1 1 1 1 1 1 1 1 1 1 1 1 1 1 1 1 1 1 1 1 1 1 1 1 1 1 1 1 1 1 1 1 1 1 1 1 1 1 1 1 1 1 1 1 1 1 1 1 1 1 1 1 1 1 1 1 1 1 1 1 1 1 1 1 1 1 1 1 1 1 1 1 1 1 1 1 1 1 1 1 1 1 1 1 1 1 1 1 1 1 1 1 1 1 1 1 1 0.0020165663920481088 1 1 0.0020435054634282222 1 1 0.0020634814613529795 1 1 1 1 1 1 1 1 1 1 1 1 1 0.0020830336453240557 1 1 1 1 1 0.0021035326158491277 1 1 1 1 1 1 1 1 1 1 1 1 1 1 1 1 1 1 1 1 1 1 1 1 1 1 1 1 1 1 1 1 1 1 1 1 1 1 1 1 1 1 1 1 1 1 1 1 1 1 1 1 1 1 1 1 1 1 1 1 1 1 1 1 1 1 1 1 1 1 1 1 1 1 1 1 1 1 1 1 1 1 1 1 1 1 1 1 1 1 1 1 1 1 1 1 1 1 1 1 1 1 1 1 1 1 1 1 1 1 1 1 1 1 1 1 1 1 1 1 1 1 1 1 1 1 1 1 1 1 1 1 1 1 1 1 1 1 1 1 1 1 1 1 1 1 1 1 1 1 1 1 1 1 1 1 1 1 1 1 1 1 1 1 1 1 1 1 0.0021252948771717031 1 1 1 0.0021486998382100582 1 1 0.0021736453806445546 1 1 1 1 1 1 1 1 1 1 1 0.002200520563308338 1 1 1 1 0.0022301199529858136 1 1 1 1 1 1 1 1 1 1 1 1 1 1 1 1 1 1 1 1 1 1 1 1 1 1 1 1 1 1 1 1 1 1 1 1 1 1 1 1 1 1 1 1 1 1 1 1 1 1 1 1 1 1 1 1 1 1 0.0010318944088321248 1 1 1 1 1 1 1 1 1 1 1 1 1 1 0.001047636052096883 1 1 0.001039175405501886 1 0.0010576091347399032 1 1 1 1 1 1 1 1 1 1 1 1 1 0.0010693932409409895 1 1 1 1 1 1 1 1 1 1 1 1 1 1 1 1 1 1 1 1 1 1 1 1 1 1 1 1 1 1 1 1 1 1 1 1 1 1 1 1 1 1 1 1 1 1 1 1 1 1 1 1 1 1 1 1 1 1 1 1 1 1 1 1 1 1 1 1 1 1 1 1 1 1 1 1 1 1 1 1 1 1 1 1 1 1 1 1 1 1 1 1 1 1 1 1 1 1 1 1 1 1 1 1 1 1 1 1 1 1 1 1 1 1 1 1 1 1 1 1 1 1 1 1 1 1 1 1 1 1 1 1 1 1 1 1 0.0010043920296204027 1 1 0.0010110810896790438 1 0.0010156749755552146 1 1 1 1 1 1 1 1 1 1 1 1 1 1 1 1 1 1 1 1 1 1 1 1 1 1 1 1 1 1 1 1 1 1 1 1 1 1 1 1 1 1 1 1 1 1 1 0.0010257232690887008 1 1 1 1 1 0.0010204224051193825 1 1 1 1 1 1 1 
</DataArray>
<DataArray type="Float64" Name="displacement_divergence" format="ascii">
-1.387471257167219e-05 -1.5873667754372015e-05 -1.1975403157180023e-05 -1.4147965443374897e-05 -1.402824823250782e-05 -1.4021694298489085e-05 -1.298559470539788e-05 -1.3261869779688218e-05 -1.2495859853699855e-05 -9.6269415237485824e-06 -1.3970808782546601e-05 -9.1191346380108252e-06 -1.6943233993798225e-05 -1.2801536698819391e-05 -2.0140471883325574e-05 -1.5516996362978226e-05 -1.3465631752266278e-05 -1.465174549588164e-05 -2.6025286298321409e-06 -4.3333573114170779e-06 -4.7450928940463229e-06 -8.0317368290541798e-06 -9.230994690266614e-06 -5.8348210823036177e-06 -6.8398817037146084e-06 -8.4764527211402644e-06 -9.3249118296764421e-06 -8.3042393739179301e-06 -3.8209542884147087e-06 -4.3113841851923464e-06 -2.4019146199700531e-06 -4.4315617956506692e-07 -1.2398208846887296e-06 -9.8092021102242006e-07 -4.6753036285268943e-06 -9.4232194001917275e-06 -7.6882278752112525e-06 -4.9039101941086956e-06 -8.7800206941411238e-06 -1.0487389037651692e-05 -7.7864852343488864e-06 -5.3962219699410922e-06 -4.9977696434755581e-06 -1.4613934482294903e-06 -5.4597356067815922e-06 -3.5596033141384049e-06 1.7057690597134528e-06 -1.1500353762381539e-06 -2.057548654931417e-05 -1.5596495633162846e-05 -2.3199265839871989e-05 -1.5065148344517758e-05 -1.1954417225328287e-05 -1.3216484108337683e-05 -1.3448079251432874e-05 -1.4940790590907867e-05 -1.1149922064126696e-05 -1.639667428955179e-05 -1.3256396126798968e-05 -1.5233742361126128e-05 -2.2264448263076197e-05 -2.0873212499485441e-05 -1.9589031910589983e-05 -2.6914790226038258e-05 -2.8927916759768809e-05 -2.0468978851672069e-05 -2.4249907044861713e-05 -3.2900990776218616e-05 -2.5102682754464691e-05 -2.6498967882444882e-05 -2.6408403598956358e-05 -3.8299827038213555e-05 -1.5271923827035168e-05 -1.2446342214600145e-05 -1.9712409878327073e-05 -1.9038074497169924e-05 -1.2305467064482234e-05 -2.1164459370062499e-05 -1.8971278680586097e-05 -1.5980350826505324e-05 -1.1804018851083415e-05 -7.85163283378799e-06 -7.6989516657158934e-06 -6.6790091765742343e-06 -3.7838722375911802e-06 -1.2530728284464982e-05 5.2881445592800882e-07 -1.5261017690039231e-06 -1.9219190904108921e-06 3.8399434548785067e-06 1.2949321090867264e-06 -4.3425382478304344e-07 4.584400769917353e-06 6.0900479788431623e-06 -7.1257131047051231e-06 -1.0382446320318277e-05 -2.0822952608782128e-06 -4.163966718697037e-06 -5.6556248918070203e-06 -8.0966051599316654e-06 -1.8510405479769563e-06 -7.9523760312031095e-06 1.2990613758346822e-05 -6.0473063833168357e-07 4.6710264533524716e-06 7.9315371154601975e-06 1.3991455593546774e-05 1.0345511526611382e-05 9.8615385248725963e-06 1.0829072312587437e-05 2.2541422675638278e-05 -3.4586999631197395e-06 2.5025775755381887e-06 2.5452830054776919e-06 -7.704125352609077e-06 -1.0372920180124726e-05 -1.6949413962512371e-05 -1.9809054288551003e-05 -2.485706419490114e-05 -2.8824769181483827e-05 -4.0709928005569355e-05 -2.9579245927813835e-05 -2.9593410360318486e-05 -3.163154835798159e-05 -2.490800429025855e-05 -4.0250242209476843e-05 -2.8388379684247089e-05 -1.8199254374466918e-05 -1.2891299430466884e-05 -2.0879716707583866e-05 2.3252895951983472e-05 1.9502717611039606e-05 1.7461085418973257e-05 1.905965167161885e-05 2.2552923596294334e-05 2.6949578671276125e-05 2.3078855061191859e-05 2.2177070952838949e-05 2.356695691450651e-05 2.2540775695287822e-05 1.7736906719506959e-05 2.1380631985710633e-05 1.9956882351486058e-05 2.0684815348561098e-05 2.1375847385820182e-05 4.4032538551067289e-05 1.8171398759276913e-05 3.036966364788924e-05 1.8569683215813315e-05 3.97288432591007e-05 2.7019206010419288e-05 3.9794671329305249e-05 2.2388295514308814e-05 1.8816608687541008e-05 2.4493191954028787e-05 1.4591413769009362e-05 1.5051131360202567e-05 2.1753729522780198e-05 1.5987315561640791e-05 2.2385305397775479e-05 1.2659829482832436e-05 1.9973279843402232e-05 1.5089807055173605e-05 1.4201965313353796e-05 9.5438818758725555e-06 1.1550147369986499e-05 1.1864882840221696e-05 1.1225195133749533e-05 6.1910393423997558e-06 8.2114211830403621e-06 7.1162052105706103e-06 4.9193925862743259e-06 2.8311181668608353e-06 1.191450101890401e-05 1.0783016737549696e-05 1.0090287713218303e-05 8.6543639465926427e-06 1.2506112791313649e-05 1.1440785491816697e-05 1.5387798680985246e-05 1.4740058132689635e-05 1.4411775948936386e-05 1.6389727742820763e-05 1.4082672276773521e-05 1.989363765384169e-05 1.827144544223485e-05 1.6474178956066967e-05 2.1376287306503234e-05 1.5413899140652168e-05 2.798079909930111e-05 1.929918485311343e-05 2.4146974072477265e-05 1.8402608000782663e-05 2.1924097841880508e-05 2.351308506590292e-05 1.7759285482431705e-05 1.9298206728899218e-05 1.9428240664960614e-05 1.6513292156068973e-05 1.320625049142554e-05 1.555404739606386e-05 1.522541986147904e-05 1.1946813325383154e-05 1.0650278908988086e-05 1.2587437240066456e-05 1.3677042512141043e-05 1.1818814418794764e-05 1.1757946024653718e-05 9.3118714052813912e-06 1.3154187304215272e-05 1.260300545407242e-05 1.4819778189538845e-05 1.3573456972749162e-05 1.37697113967028e-05 3.3601927162980081e-06 5.2254493809273418e-06 2.6090583622416632e-06 6.6778277983071461e-06 6.9705501054664784e-06 8.1542731205551639e-06 8.8662856325561098e-06 9.7985759997675935e-06 9.1326384560710722e-06 7.7307878238256828e-06 9.103450228252606e-06 6.8848882733024035e-06 5.6980535931588198e-06 2.7800210604287107e-06 2.2733321357797422e-06 2.2084409320930124e-06 -4.8454069823699666e-07 1.2542621097447178e-06 -3.9025668362289192e-07 1.3754409045098754e-06 4.273288323835379e-06 4.0758784854545712e-06 4.7208210084728516e-06 6.3430910007776523e-06 6.8956365321978657e-06 8.7933650664759407e-06 7.89902194081936e-06 6.3041740853141243e-06 6.6601949086576609e-06 2.9050027256453558e-06 2.0904245973145089e-06 -8.2104434812320411e-07 1.3242699633724784e-05 1.2733260667047712e-05 1.0929703735397098e-05 1.1127422860946007e-05 9.6455728769256019e-06 1.137015756881014e-05 1.0795500992590526e-05 9.5353658825453655e-06 1.331230762179905e-05 1.1503126811260516e-05 1.4250012733496539e-05 1.1604024837196987e-05 1.2666681524910436e-05 1.4889764652092024e-05 1.297469849253577e-05 1.7293171096551869e-05 1.2274244369961469e-05 1.5185517523894484e-05 1.4335956241394862e-05 1.4181841398226234e-05 1.26947360918703e-05 1.5345778291103609e-05 1.2712436496487287e-05 1.2423951331574746e-05 1.1140679244889886e-05 1.3760823676503285e-05 1.3387412025507499e-05 1.7102265393161186e-05 1.6851311531456646e-05 1.2272374181047133e-05 1.3941899611362855e-05 1.3419119137693893e-05 9.237450876094308e-06 8.3280943281947139e-06 5.0917352767888286e-06 9.4858234709506773e-07 3.2886211218433297e-06 5.9090704347200686e-06 9.5705730044108349e-06 2.9389675422107125e-06 7.3322349915068478e-06 1.0200647437138336e-05 1.2312057948141592e-05 1.2374814324194859e-05 1.0458606437345967e-05 1.4718927980950787e-05 7.1134021472961996e-06 5.1296984591610301e-06 8.441996402099673e-06 9.2820230263512626e-06 2.2000708878869497e-06 6.9347336205003892e-06 1.1050442052118508e-05 8.0962770002565505e-06 1.6542776022758892e-05 1.1481615133981499e-05 9.1366771342993664e-06 1.3333396979365878e-05 1.3432921470772263e-05 1.5655992480151521e-05 2.1378001775703185e-05 1.8293607595162028e-05 1.9690938647982612e-05 1.5793839532237389e-05 1.8096871365345026e-05 2.0821466202001072e-05 1.7052775621289934e-05 1.9452170944810857e-05 1.5354444559964066e-05 1.5092368901771608e-05 1.4288141295969367e-05 1.6362108237296737e-05 1.2800173076703478e-05 1.5601277366572993e-05 1.2695781173799635e-05 1.457089310539487e-05 1.3310688750670635e-05 1.4186199918874528e-05 1.6009877536755628e-05 -2.9608624698109131e-05 -2.0106663029184968e-05 -2.1583129280983789e-05 -1.7768642595760284e-05 -1.5125523209342223e-05 -1.7585854021544372e-05 -2.0431452294240711e-05 -1.8186381270678771e-05 -1.7396663827397715e-05 -1.5949066531726427e-05 -1.717691205727789e-05 -1.7166986586578107e-05 -1.6252315100071286e-05 -1.0710710223555051e-05 -1.6150116315725595e-05 -2.4838352834345144e-05 -1.0300382690575731e-05 -1.9387848758835129e-05 -1.0464293799137186e-05 -9.5486578065207891e-06 -1.0334405897047099e-05 -8.8592104636515464e-06 -1.0212337929768317e-05 -4.8251026212857905e-06 -5.2963531940662601e-06 -2.763599520359325e-06 -3.7252688150721907e-06 1.9337425259217072e-06 3.8031088301129316e-06 -1.0049348484421534e-06 -2.6383283402531296e-06 -2.3824796790355349e-06 -9.5855971293890637e-08 4.1369169677468327e-06 -4.5046722545599106e-06 1.3301305297785438e-06 -2.0248281717219333e-06 -6.3297260802899405e-06 3.9287694166176789e-06 -3.5672052813545353e-06 -2.2494707932704013e-06 -1.5608181208539249e-05 -1.2626926595369467e-05 -1.1480510220139526e-05 -2.8290633790248655e-06 -9.6460812772054e-06 -1.8234828966872805e-05 -1.4445765664052046e-05 -2.1895889113974387e-05 -1.6927017028196652e-05 -2.3421230975137831e-05 -1.2747402609772166e-05 -1.9991871876212946e-05 -3.4528062308365138e-05 -3.7256689618375639e-05 -4.2750223317798988e-05 -3.0367325828854975e-05 -3.5007664940681413e-05 -2.1921742136058657e-05 -3.1571711024428733e-05 -2.0453569111667218e-05 -4.6048288549168842e-05 -7.0894995998205151e-05 -4.2687415429325061e-05 -4.625728753140846e-05 -5.8471557407560894e-05 -4.9836022953936551e-05 -3.3076518231029487e-05 -3.9415909245028852e-05 -3.7913468915707818e-05 -2.281345589091102e-05 -2.3510778033682931e-05 -1.8791147441553666e-05 -2.1267458857681301e-05 -3.0732471512089955e-05 -2.5425473805235966e-05 -3.5624646158825756e-06 2.2234553403589804e-06 5.1652237943818219e-06 -1.8074177474084247e-05 -7.0544014661580714e-06 -1.885964759658067e-05 -1.0689959950993125e-05 -7.9152468213762287e-06 1.1587363272891853e-06 -8.6222887314001946e-06 6.1948821041980643e-07 1.0501735737975443e-05 5.584380793006027e-06 1.4056075121178838e-05 4.7593764063868568e-06 1.2256903421180675e-05 2.2272162008735653e-05 6.939518701373612e-06 2.0269419546419821e-05 2.1474252889722568e-05 3.7929019676148137e-05 3.8185191377342279e-05 1.8046454276904969e-05 1.2654395074675046e-05 3.9210743108790511e-05 6.6407930622897039e-05 6.2891591881238131e-05 6.6813448410430734e-05 4.4139779288107574e-05 2.9539893407804943e-05 3.650587864204011e-05 2.4062564619525085e-05 7.0923311521196614e-06 -8.6994500988324787e-07 -1.6836919068080429e-06 -1.3629292236391269e-05 1.5261791476708881e-05 -1.0006949366042796e-05 -2.9118075650776592e-05 -3.475377486040766e-05 -1.7321968643139188e-05 -2.8879640475499634e-05 -2.0011325846975821e-05 -4.4799053530402322e-05 -2.6676665806643217e-05 -3.3870203294397022e-05 -5.1342566570263779e-05 -5.1250954205882439e-05 -7.679999175448269e-05 -5.4793446211124584e-05 -7.5970226193625888e-05 -5.8610211038225438e-05 -4.1845908308958073e-05 -5.0107623121868177e-05 3.133789518537538e-05 3.3353835548979334e-05 3.5598052536394425e-05 3.2623095986636177e-05 3.0635699550156396e-05 2.6246697506611916e-05 2.3448112144082327e-05 2.9271675764385501e-05 2.0532033987310412e-05 2.4309620284228743e-05 1.7245421347068345e-05 2.3555232507260692e-05 1.9976143897858832e-05 2.3967324923537602e-05 2.6063922633716217e-05 2.2759623776862001e-05 1.9864104800822515e-05 1.5084543772708578e-05 2.3712958109864364e-05 2.2600625539823567e-05 2.7703815042050298e-05 1.5196437544475059e-05 1.9316271326966208e-05 2.5430133856827781e-05 3.0402367466340489e-05 3.9856529139150037e-05 3.2284812115314997e-05 3.4712392903041186e-05 3.3026655744237209e-05 4.2036487952009665e-05 4.7753445377048977e-05 5.9760223739550606e-05 6.2581579848780186e-05 5.8097769957440954e-05 5.1899727773873689e-05 5.4123191066147682e-05 6.4771609704092803e-05 6.3739374605112169e-05 0.00011111742629530331 0.00013577943909260216 0.00013258023289294016 8.9716695666734945e-05 4.7018984538202791e-05 6.2876083619446558e-05 8.0226946200577973e-05 4.8103028119096566e-05 5.052246051672488e-05 5.5107011447081712e-05 3.9318978319191228e-05 4.7825149871737379e-05 3.2473779142563373e-05 4.1154698251129435e-05 3.1729224588827591e-05 4.262720282107261e-05 2.6523482401083201e-05 3.3657382748071355e-05 3.4999040684716319e-05 3.1370641378889506e-05 2.6610289861479401e-05 4.1810073431790306e-05 2.7533954036478892e-05 2.567805973911877e-05 3.1824651204717475e-05 2.2124684532749027e-05 1.7846829375012476e-05 2.4223827037463675e-05 2.4485403669538138e-05 1.6135780705590664e-05 2.6431319475930375e-05 1.9198389408337039e-05 2.4115144122143157e-05 3.9241659246674712e-05 3.6093344734525216e-05 3.2698940771499884e-05 3.6445277070807874e-05 4.8490071567618048e-05 5.1187615841852045e-05 6.0802170885206462e-05 0.00014301926789283173 2.272492264204185e-05 5.8138639639093121e-05 0.00013894687891086369 7.9914685251008979e-05 0.0085342444507640891 0.00013473982929838293 6.9645451092702811e-05 0.021755802077330542 2.2867562110608531e-05 7.5330689686659534e-05 0.031797998506671248 3.0738909768999599e-05 5.5182814056794929e-05 2.0121566660480074e-05 3.209804954176761e-05 2.8537418764323187e-05 2.5365032947169812e-05 2.4872814588902545e-05 3.8910625312621688e-05 4.1446674001348788e-05 2.7297232073903788e-05 5.1638843936633368e-05 6.6872792873476881e-05 7.8257933036093245e-05 0.041558654797335698 7.5105234481486968e-05 6.7895601400983104e-05 5.7165488425463132e-05 7.7696011709484872e-05 5.4191991468474415e-05 0.051809582640856167 6.6280426645787759e-05 3.1899928553682608e-05 2.3806627595623334e-05 4.7390491697705221e-05 3.1776702051953046e-05 3.6066952233504901e-05 2.0614474168173499e-05 1.8564155952603499e-05 2.2180598473255065e-05 1.668501725407003e-05 1.5561301062529652e-05 1.0210671534947792e-05 1.229063059426583e-05 1.2595070705319919e-05 1.4603160932215629e-05 1.6221815664822054e-05 1.201116133471309e-05 1.7818795703656676e-05 1.5495398685109449e-05 1.6871372083513016e-05 1.8501824656819859e-05 2.1565811159485997e-05 -4.9643221104576419e-05 -6.0748102431755144e-05 -3.8976644931578981e-05 -7.3480063457877958e-05 -7.0615245067642666e-05 -4.5358753631516224e-05 -4.9465289844183866e-05 -3.0190579885805966e-05 -1.744751804197295e-05 -3.040672596681419e-06 -2.1993877169281212e-05 -1.6430116194045925e-05 -3.2636026114029508e-05 -1.3731136077403558e-05 1.8672845499965193e-05 3.9541746794675287e-06 3.4068771226565412e-05 3.1945325187894644e-06 -1.2945602343667015e-05 1.3422748759985744e-05 1.3470848175347398e-05 4.6992345701398213e-05 7.277431188730673e-05 5.6923099185441392e-05 6.375630431893819e-05 3.0056905057611956e-05 4.2586243789145719e-05 5.1531834038266028e-05 2.3110819367034475e-05 2.3936861703398099e-05 4.0855104024644815e-05 4.2322258082376236e-05 4.5601189278242317e-05 3.7026231974786501e-05 2.3886625706168825e-05 2.3085175049372946e-05 6.4456377316264964e-06 7.9456107008356921e-06 5.7922245768541984e-06 -8.0388693762169922e-06 7.3788605273263129e-06 1.09684141181292e-05 -2.8149875758458256e-06 -6.8000514865040277e-06 -2.0126888872241521e-05 -2.4114940473034512e-05 -2.4627146552905601e-05 -2.2034277058578865e-05 -1.0751508276271365e-05 -1.0508648540364317e-05 -1.577665510617038e-05 -2.2769878810978807e-05 -2.8615580332191221e-05 -4.1259117672408797e-05 -2.4654941536948055e-05 -3.2550840285272683e-05 -5.3830534609714507e-05 -3.8647389476963103e-05 -4.0314696600549549e-05 -6.1153271665372749e-06 -2.0302620873053311e-05 -9.8479278621138588e-06 -2.089040253691523e-05 -2.1269154131954137e-05 -3.2718883837794775e-05 -2.8041538543764621e-05 -2.2430201024935346e-05 -1.5623967106309297e-05 -1.3514715465891237e-05 -1.0440076332052239e-05 -4.9756504911652177e-06 -5.8642911508312648e-06 -1.1856970140764682e-05 -3.7461613079541912e-06 4.7453447999468504e-06 5.4683128234526979e-06 1.3659636885578631e-05 -4.843954568437784e-06 -6.4737717751328465e-06 3.5475339437428558e-06 5.2829053942605826e-06 1.1898032236997374e-05 6.5716538344153495e-06 2.5498610236989838e-05 2.748740248460454e-05 2.1152962125088343e-05 3.1485483369151062e-05 4.9831368520800862e-05 2.9937975076530215e-05 4.1866460039621627e-05 1.8683081573626133e-05 2.2057641782243041e-05 3.8715346182717839e-05 1.7625370176795312e-05 4.1429801986339588e-05 2.2497797323915887e-05 4.2979356226381139e-05 4.3104556229162962e-05 1.3321607260584681e-05 3.1157417609119567e-06 -4.3079304912164648e-07 -7.5065639485389149e-06 -6.8597886786238293e-06 2.4114185340107404e-06 1.090203063501289e-05 2.4846268926299007e-06 1.5204456977691364e-05 -6.0798128768573857e-06 -1.2834059424644926e-05 -4.3327325920982165e-06 -3.5291420203906188e-06 -9.6821306566231141e-06 -1.2536229944375664e-05 -6.5371591437843182e-06 -1.1514536624878009e-06 -5.5035397595792814e-06 -5.7869453214494035e-06 -1.4045301653066097e-06 -9.7177786976057612e-07 -1.9088298498131165e-06 3.8253869608150057e-07 -4.0499925711996038e-06 -6.8944537725493943e-06 -1.4523143832297428e-05 9.3411859355533623e-06 2.2828937006781917e-05 2.3349485609841817e-05 1.2328324334042135e-05 2.5037402094210464e-06 1.7939562420726004e-06 -2.2901007699330407e-07 7.582473535126485e-06 6.2430359542185124e-06 7.0548267079314857e-06 1.5152295092009361e-05 1.3915712466894162e-05 8.8917977659146012e-06 1.8739218970779373e-05 2.2802097574973806e-05 3.4136537122997975e-05 5.8720106506586652e-05 6.9490754861587585e-05 4.1240828957472277e-05 6.1946564820752458e-05 8.7514888916234799e-05 6.589246639800519e-05 0.062695565072411003 4.8940231019399495e-05 7.7801871957290398e-05 7.138358387666474e-05 0.074383067901149 7.8970498760301978e-05 8.6884172941149862e-05 0.086925516061560071 6.4513893186816159e-05 3.7865718621303974e-05 7.6330736882526456e-05 3.0863385933975972e-05 4.6189247252534068e-05 4.5791198445189069e-05 3.3229301978441672e-05 9.1461054268425566e-05 9.0741991615353934e-05 5.3775503513007702e-05 9.7688237100003114e-05 0.10013774618637995 0.00011481815058437167 0.00010616236009995889 7.5469804060343255e-05 8.8426656817497482e-05 0.11586138332216248 0.00013424584051177288 9.4361394870262966e-05 2.1255337289617215e-05 9.434939879002745e-05 0.00012641645363815695 7.7344592479901752e-05 3.3467116754071929e-05 -1.5588574619250538e-05 -4.0255537103671109e-06 -2.2006419264589042e-05 9.8368554771906518e-06 -5.7503512066581068e-06 -7.1447202850945333e-07 9.9222207527688115e-06 1.3994124345253199e-05 -1.0435311416854263e-05 -1.5960220479853514e-06 -1.5841877152951672e-05 -5.8501132016044012e-06 -1.1877973498566896e-05 -2.0628985248200807e-05 -3.7275275738923642e-05 -2.1552445085966441e-05 -3.7615559664332081e-05 -2.4237576136310838e-05 -1.7165478851617079e-05 -2.492221934504899e-05 -1.0774953326900398e-05 -2.4739907054340785e-05 -1.6404326389473853e-05 3.1171359323556129e-06 -1.3259939709906246e-05 -3.6568052324949338e-06 4.7995848490657079e-06 3.017462317817291e-06 -1.1771508783518781e-05 -5.4590339678342722e-06 -7.4322505765494519e-06 -2.8961424724083902e-06 2.4012242355853607e-06 2.9636518566469264e-07 3.1659344244132403e-06 -2.0572275893486366e-06 8.0162551527654651e-07 -1.2577955785892324e-06 4.8291159582165843e-06 1.4073047907235822e-05 6.103618098425123e-06 6.4414094578630027e-06 6.8467516955153171e-06 1.2764147998308028e-05 8.3299072587158618e-06 6.7269591493502516e-06 8.5589555734705389e-06 4.3701858411499679e-06 5.2644454622177272e-06 4.8622388858036845e-06 3.8489524835629441e-05 0.031917056701814273 4.2491980139723368e-05 3.0754761588085101e-05 2.4368589139895432e-05 1.2454079328154898e-05 1.645343798226573e-05 1.3429507734705838e-05 3.4169310092452493e-05 2.182521351626397e-05 2.6652942303394549e-05 1.4861549871401686e-05 4.297729957436719e-05 5.3397042341571822e-05 3.689094914061824e-05 3.4075524385870814e-05 0.047679110421470744 4.2988582560588733e-05 4.5404176693443813e-05 0.039198901001699774 5.379687636290981e-05 0.057618223787481784 6.9519486052812131e-05 6.0233825936864363e-05 4.1755032620648461e-05 1.9043261646936919e-05 2.4754797951527974e-05 5.4132366410673317e-05 3.1258540550137513e-05 6.345080408262779e-06 5.6119234666568467e-05 7.7841383131757862e-05 4.4109739925692793e-05 1.5804252360148525e-05 5.2614289726033998e-05 0.06958809366851508 8.3280975624915304e-05 5.6633634326336627e-05 2.587011250262776e-05 6.5579030684767763e-06 1.2879328989790634e-05 2.3081109156088998e-05 -9.1919891836273436e-07 -6.7107418697525279e-06 -6.3452047481104418e-07 -5.4121860687223297e-06 5.8071061368402364e-06 -4.8417040088278001e-07 4.9862436059169152e-07 5.9780308922774677e-06 1.8587724566745961e-05 2.4012555136495488e-05 7.4025324142636042e-06 2.8608149188610529e-07 -1.1498216679834208e-06 -6.156222686746056e-07 -8.3826729361212438e-07 -3.9490615462291039e-06 -3.8094205794419501e-06 -8.3088422553898381e-07 -4.2973167184357572e-06 -8.5142813555661189e-06 -7.0838272832004535e-06 -5.7747464964419751e-06 -9.2690181290621711e-06 -3.2922043850971798e-06 -2.3282003865794903e-06 -4.8782808251263262e-06 -9.1711021541300824e-06 -2.5292177657720242e-06 -1.2871250287908257e-05 -4.2295107254308219e-06 -6.5876252755924349e-06 -1.3542126021954469e-05 -9.1998849036075206e-06 -2.1840298689115075e-06 -3.6216051120011809e-06 -3.7873381988073884e-06 -9.4540710761737565e-06 -8.0198867792550133e-06 -1.7931273799759261e-06 -1.0278500708185375e-05 -1.3170892037481707e-05 -1.6720373025299251e-05 -1.460484992570738e-05 -2.1645901128418453e-05 -1.4192968812327348e-05 1.5031292682384173e-05 8.9387379568451556e-06 2.216176280616408e-05 1.1637949341660294e-05 3.5381633534483682e-07 5.7079546751778645e-07 7.3468234828108925e-06 6.6246702297245805e-06 1.3548084445149061e-06 -3.8792983424228503e-07 1.4160929019425828e-06 1.4633469081527534e-05 9.2323452159229821e-06 2.5236706677567362e-05 1.9616462102440592e-05 2.3890848596491189e-05 1.6419117332087127e-05 1.8695722442683079e-05 2.1970256591380367e-05 9.9192562199753014e-06 1.1381134961761146e-05 7.5036827370252257e-06 -5.6905152067418877e-07 -2.2611388672348711e-06 7.9458080169377346e-06 1.4218340666402292e-06 6.8180162624140921e-06 -2.3158086643250853e-06 8.7240963263430539e-07 1.8547232419320386e-05 2.2223060196960081e-05 2.0473898437176454e-05 8.3747519279228242e-06 1.6538149485570051e-05 -2.1227730147909654e-05 -2.5387394369195031e-05 -2.2317981169449558e-05 -2.6668431826995477e-05 -1.7697191918740343e-05 -9.8603441091057835e-06 -1.5405684692036702e-05 -8.3666648835977169e-06 -7.8898686370612245e-06 -9.8305409048343294e-06 -7.6700329202228487e-06 -6.676827038263613e-06 -1.245340009887349e-05 -1.6938726122608472e-05 -1.7535165102918479e-05 -1.79844337497351e-05 -2.5085000804960151e-05 -2.5094024459556018e-05 -3.1390724679407258e-05 -4.0268396566047241e-05 -3.4852562660948796e-05 -2.8650975823575988e-05 -2.3986583069764092e-05 -1.987810610745098e-05 -9.3711362462720656e-06 -9.9697986578650742e-06 -5.7824375893463431e-06 -1.5172907217256894e-05 -1.330691216594015e-05 -1.7856911697937779e-05 -1.9678915180793504e-05 -2.8483221193003466e-05 -2.575325237817803e-05 -3.8325791302594084e-05 1.1563604667203377e-05 2.7549640965911129e-05 1.1203164690871991e-05 6.6139937101060756e-06 -2.534165846860008e-06 1.011800288808429e-06 9.4158076388966145e-06 2.8689122878754517e-06 -1.0868491511550839e-05 -5.0388930362663367e-06 1.3972343380439108e-06 1.4131113135610923e-05 1.5434845832249335e-05 2.8952385694389353e-05 4.9216297745898681e-05 -5.1126384417786257e-06 6.4187966814766104e-05 0.0044180978189079685 2.8239764098503029e-05 2.8291786113702729e-05 0.011092655190005553 4.3437314262376604e-05 0.015688615433315425 3.3339603382281056e-05 2.7521543630798279e-05 4.6757739846091427e-06 1.8626305661960363e-06 5.9656821118975791e-06 -6.4806237656660372e-06 1.0438929892582637e-05 4.9362459232541405e-07 2.0423546792259126e-05 1.2245247062516154e-05 8.5611764449830291e-06 1.7756257393282805e-05 1.6321075883279039e-05 2.1059324655452047e-05 2.3723716901179954e-05 2.3681481595818291e-05 1.897675398811123e-05 1.6797293445462816e-05 1.4300066979761522e-05 1.4052857542757257e-05 1.3018243165334449e-05 8.3321372488865325e-06 1.1892078556635671e-05 8.7672779708512853e-06 8.245329969721021e-06 9.6020415198587255e-06 9.2803233637365774e-06 9.7394284549208573e-06 1.3939927117533491e-05 1.3635644313035041e-05 1.1353655661012379e-05 1.1365729967859159e-05 1.2051166237960738e-05 8.1078322911099551e-06 8.2815908402609508e-06 1.0791369942149646e-05 9.8432607812030357e-06 9.9471007937245001e-06 8.7323506438302526e-06 8.0547543116788888e-06 1.0593476143942672e-05 1.1197663222932419e-05 1.4664404121900176e-05 1.2420233847633226e-05 1.2021605149676109e-05 1.9543820181229694e-05 3.8590150609001421e-05 0.025740986261663164 2.245508359714532e-05 3.2750573618830613e-05 3.1372391564839252e-05 3.7846789091217298e-05 1.2670840298856917e-05 0.020437190125019756 3.2470594738040113e-05 2.4620848006806151e-05 3.789632553893586e-05 7.7860046694676151e-06 6.7025548076199892e-06 7.4782404993038471e-06 1.2833145269521527e-05 
</DataArray>
</CellData>
</Piece>
</UnstructuredGrid>
</VTKFile>
