<?xml version="1.0"?>
<VTKFile type="UnstructuredGrid" version="0.1" byte_order="LittleEndian">
<UnstructuredGrid>
<Piece NumberOfPoints="3142" NumberOfCells="1054">
<Points>
<DataArray type="Float64" NumberOfComponents="3" format="ascii">
0.02576622439977887 0.024532886826226379 0 0 0 0 0.049999999999899652 0 0 0.02576622439977887 0.024532886826226379 0 0 0 0 0 0.050000000000207989 0 0.02576622439977887 0.024532886826226379 0 0.049999999999899652 0 0 0.053064897599215843 0.048131547304697528 0 0.02576622439977887 0.024532886826226379 0 0.053064897599215843 0.048131547304697528 0 0 0.050000000000207989 0 0 0.050000000000207989 0 0 0.10000000000041601 0 0.044310582753132287 0.101412518374475 0 0 0.10000000000041601 0 0.044310582753132287 0.101412518374475 0 0 0.15000000000062411 0 0.053064897599215843 0.048131547304697528 0 0.044310582753132287 0.101412518374475 0 0.083411279318303222 0.089699755330707398 0 0.053064897599215843 0.048131547304697528 0 0 0.050000000000207989 0 0.044310582753132287 0.101412518374475 0 0.044310582753132287 0.101412518374475 0 0.083411279318303222 0.089699755330707398 0 0.065374659239632718 0.1448908038746782 0 0.083411279318303222 0.089699755330707398 0 0.065374659239632718 0.1448908038746782 0 0.1053400320299198 0.12877248826361379 0 0.083411279318303222 0.089699755330707398 0 0.12372429750337779 0.095814237875728972 0 0.1053400320299198 0.12877248826361379 0 0.12372429750337779 0.095814237875728972 0 0.1053400320299198 0.12877248826361379 0 0.14332333627550789 0.14578431753966009 0 0.12372429750337779 0.095814237875728972 0 0.10266856499169109 0.044518360900210059 0 0.14618258501891079 0.062070108745602003 0 0.083411279318303222 0.089699755330707398 0 0.12372429750337779 0.095814237875728972 0 0.10266856499169109 0.044518360900210059 0 0.10266856499169109 0.044518360900210059 0 0.099999999999814668 0 0 0.14999999999970359 0 0 0.049999999999899652 0 0 0.053064897599215843 0.048131547304697528 0 0.099999999999814668 0 0 0.053064897599215843 0.048131547304697528 0 0.10266856499169109 0.044518360900210059 0 0.099999999999814668 0 0 0.053064897599215843 0.048131547304697528 0 0.083411279318303222 0.089699755330707398 0 0.10266856499169109 0.044518360900210059 0 0.044081577119474857 0.2271058242433576 0 0 0.20000000000083221 0 0 0.25000000000104028 0 0.044081577119474857 0.2271058242433576 0 0 0.20000000000083221 0 0.038512288486115001 0.1844147282893184 0 0.044081577119474857 0.2271058242433576 0 0.038512288486115001 0.1844147282893184 0 0.083105206071467416 0.20007701332709979 0 0.038512288486115001 0.1844147282893184 0 0 0.15000000000062411 0 0.065374659239632718 0.1448908038746782 0 0.044310582753132287 0.101412518374475 0 0 0.15000000000062411 0 0.065374659239632718 0.1448908038746782 0 0.038512288486115001 0.1844147282893184 0 0.065374659239632718 0.1448908038746782 0 0.083105206071467416 0.20007701332709979 0 0 0.20000000000083221 0 0.038512288486115001 0.1844147282893184 0 0 0.15000000000062411 0 0.065374659239632718 0.1448908038746782 0 0.1053400320299198 0.12877248826361379 0 0.106902708054812 0.16453234188234539 0 0.1053400320299198 0.12877248826361379 0 0.106902708054812 0.16453234188234539 0 0.14332333627550789 0.14578431753966009 0 0.065374659239632718 0.1448908038746782 0 0.106902708054812 0.16453234188234539 0 0.083105206071467416 0.20007701332709979 0 0.083105206071467416 0.20007701332709979 0 0.095326043202144745 0.24554465089224409 0 0.13737030665753211 0.20313708640667491 0 0.106902708054812 0.16453234188234539 0 0.083105206071467416 0.20007701332709979 0 0.13737030665753211 0.20313708640667491 0 0.044081577119474857 0.2271058242433576 0 0.083105206071467416 0.20007701332709979 0 0.095326043202144745 0.24554465089224409 0 0.044081577119474857 0.2271058242433576 0 0.095326043202144745 0.24554465089224409 0 0.049706944316556423 0.27522722923869108 0 0.095326043202144745 0.24554465089224409 0 0.14377654328998779 0.2442024734791064 0 0.13737030665753211 0.20313708640667491 0 0.17933913398461551 0.2350063570234002 0 0.14377654328998779 0.2442024734791064 0 0.13737030665753211 0.20313708640667491 0 0.17933913398461551 0.2350063570234002 0 0.13737030665753211 0.20313708640667491 0 0.18124454140915969 0.18790916706335251 0 0.18124454140915969 0.18790916706335251 0 0.14332333627550789 0.14578431753966009 0 0.18652628422869419 0.14162325200928061 0 0.106902708054812 0.16453234188234539 0 0.13737030665753211 0.20313708640667491 0 0.14332333627550789 0.14578431753966009 0 0.13737030665753211 0.20313708640667491 0 0.18124454140915969 0.18790916706335251 0 0.14332333627550789 0.14578431753966009 0 0.14332333627550789 0.14578431753966009 0 0.18652628422869419 0.14162325200928061 0 0.16141998738593399 0.10404039647458049 0 0.18652628422869419 0.14162325200928061 0 0.22985637510995899 0.1298347970200906 0 0.2185883431182947 0.18019736283949719 0 0.22985637510995899 0.1298347970200906 0 0.2185883431182947 0.18019736283949719 0 0.25557216766470708 0.15874861286892261 0 0.2185883431182947 0.18019736283949719 0 0.25557216766470708 0.15874861286892261 0 0.26429849586623999 0.19346700179430079 0 0.18124454140915969 0.18790916706335251 0 0.18652628422869419 0.14162325200928061 0 0.2185883431182947 0.18019736283949719 0 0.17933913398461551 0.2350063570234002 0 0.18124454140915969 0.18790916706335251 0 0.224700362040408 0.22206622194729711 0 0.18124454140915969 0.18790916706335251 0 0.2185883431182947 0.18019736283949719 0 0.224700362040408 0.22206622194729711 0 0.2185883431182947 0.18019736283949719 0 0.224700362040408 0.22206622194729711 0 0.26429849586623999 0.19346700179430079 0 0.224700362040408 0.22206622194729711 0 0.25195515620380449 0.25883339815888678 0 0.21049769590865089 0.26857363548218488 0 0.17933913398461551 0.2350063570234002 0 0.224700362040408 0.22206622194729711 0 0.21049769590865089 0.26857363548218488 0 0.184418230509967 0.038773194583122873 0 0.14999999999970359 0 0 0.14618258501891079 0.062070108745602003 0 0.184418230509967 0.038773194583122873 0 0.14618258501891079 0.062070108745602003 0 0.19922788606653311 0.085920220746880993 0 0.184418230509967 0.038773194583122873 0 0.14999999999970359 0 0 0.19999999999955789 0 0 0.10266856499169109 0.044518360900210059 0 0.14999999999970359 0 0 0.14618258501891079 0.062070108745602003 0 0.12372429750337779 0.095814237875728972 0 0.14618258501891079 0.062070108745602003 0 0.16141998738593399 0.10404039647458049 0 0.12372429750337779 0.095814237875728972 0 0.14332333627550789 0.14578431753966009 0 0.16141998738593399 0.10404039647458049 0 0.18652628422869419 0.14162325200928061 0 0.16141998738593399 0.10404039647458049 0 0.19922788606653311 0.085920220746880993 0 0.14618258501891079 0.062070108745602003 0 0.16141998738593399 0.10404039647458049 0 0.19922788606653311 0.085920220746880993 0 0.18652628422869419 0.14162325200928061 0 0.22985637510995899 0.1298347970200906 0 0.19922788606653311 0.085920220746880993 0 0.22985637510995899 0.1298347970200906 0 0.19922788606653311 0.085920220746880993 0 0.24218496799700481 0.089025544070598317 0 0.22985637510995899 0.1298347970200906 0 0.24218496799700481 0.089025544070598317 0 0.27474541102162192 0.11822029332053539 0 0.19922788606653311 0.085920220746880993 0 0.24218496799700481 0.089025544070598317 0 0.22668068146512929 0.045875643423131329 0 0.24218496799700481 0.089025544070598317 0 0.22668068146512929 0.045875643423131329 0 0.27499999999933927 0.060310814194988557 0 0.184418230509967 0.038773194583122873 0 0.19922788606653311 0.085920220746880993 0 0.22668068146512929 0.045875643423131329 0 0.184418230509967 0.038773194583122873 0 0.22668068146512929 0.045875643423131329 0 0.19999999999955789 0 0 0.22668068146512929 0.045875643423131329 0 0.19999999999955789 0 0 0.24999999999941211 0 0 0.24999999999941211 0 0 0.27499999999933927 0.060310814194988557 0 0.29999999999926641 0 0 0.22668068146512929 0.045875643423131329 0 0.24999999999941211 0 0 0.27499999999933927 0.060310814194988557 0 0.27499999999933927 0.060310814194988557 0 0.29999999999926641 0 0 0.32541448401678508 0.046215317981507749 0 0.29999999999926641 0 0 0.32541448401678508 0.046215317981507749 0 0.34999999999912063 0 0 0.32541448401678508 0.046215317981507749 0 0.3615861437013822 0.03582617922508851 0 0.35312867752657662 0.084946736076730367 0 0.3615861437013822 0.03582617922508851 0 0.35312867752657662 0.084946736076730367 0 0.39591832466117061 0.056982757562006353 0 0.32541448401678508 0.046215317981507749 0 0.3615861437013822 0.03582617922508851 0 0.34999999999912063 0 0 0.3615861437013822 0.03582617922508851 0 0.34999999999912063 0 0 0.3999999999989749 0 0 0.35312867752657662 0.084946736076730367 0 0.36246644853392812 0.1399454205365751 0 0.39823268594401579 0.1116623613130045 0 0.35312867752657662 0.084946736076730367 0 0.32215584939770009 0.1218492143506909 0 0.36246644853392812 0.1399454205365751 0 0.32541448401678508 0.046215317981507749 0 0.35312867752657662 0.084946736076730367 0 0.3096713403101819 0.085471541595262421 0 0.35312867752657662 0.084946736076730367 0 0.32215584939770009 0.1218492143506909 0 0.3096713403101819 0.085471541595262421 0 0.32215584939770009 0.1218492143506909 0 0.3096713403101819 0.085471541595262421 0 0.27474541102162192 0.11822029332053539 0 0.27499999999933927 0.060310814194988557 0 0.32541448401678508 0.046215317981507749 0 0.3096713403101819 0.085471541595262421 0 0.27499999999933927 0.060310814194988557 0 0.3096713403101819 0.085471541595262421 0 0.27474541102162192 0.11822029332053539 0 0.24218496799700481 0.089025544070598317 0 0.27499999999933927 0.060310814194988557 0 0.27474541102162192 0.11822029332053539 0 0.22985637510995899 0.1298347970200906 0 0.27474541102162192 0.11822029332053539 0 0.25557216766470708 0.15874861286892261 0 0.27474541102162192 0.11822029332053539 0 0.25557216766470708 0.15874861286892261 0 0.29336099386129338 0.15892013001050981 0 0.25557216766470708 0.15874861286892261 0 0.29336099386129338 0.15892013001050981 0 0.26429849586623999 0.19346700179430079 0 0.29336099386129338 0.15892013001050981 0 0.31255190597181792 0.19850845631528771 0 0.33084213324567391 0.16272720141332131 0 0.29336099386129338 0.15892013001050981 0 0.26429849586623999 0.19346700179430079 0 0.31255190597181792 0.19850845631528771 0 0.32215584939770009 0.1218492143506909 0 0.27474541102162192 0.11822029332053539 0 0.29336099386129338 0.15892013001050981 0 0.224700362040408 0.22206622194729711 0 0.28040350263641872 0.23054717217092141 0 0.25195515620380449 0.25883339815888678 0 0.224700362040408 0.22206622194729711 0 0.28040350263641872 0.23054717217092141 0 0.26429849586623999 0.19346700179430079 0 0.28040350263641872 0.23054717217092141 0 0.26429849586623999 0.19346700179430079 0 0.31255190597181792 0.19850845631528771 0 0.28040350263641872 0.23054717217092141 0 0.33758650185219202 0.23837101504325639 0 0.29132859388405002 0.27203693976649962 0 0.28040350263641872 0.23054717217092141 0 0.33758650185219202 0.23837101504325639 0 0.31255190597181792 0.19850845631528771 0 0.33758650185219202 0.23837101504325639 0 0.31255190597181792 0.19850845631528771 0 0.3572130504031617 0.1874703368446563 0 0.33758650185219202 0.23837101504325639 0 0.3572130504031617 0.1874703368446563 0 0.38831533174504851 0.2189834941785925 0 0.33758650185219202 0.23837101504325639 0 0.38831533174504851 0.2189834941785925 0 0.3786248352540974 0.27082301512024259 0 0.32215584939770009 0.1218492143506909 0 0.29336099386129338 0.15892013001050981 0 0.33084213324567391 0.16272720141332131 0 0.32215584939770009 0.1218492143506909 0 0.33084213324567391 0.16272720141332131 0 0.36246644853392812 0.1399454205365751 0 0.31255190597181792 0.19850845631528771 0 0.33084213324567391 0.16272720141332131 0 0.3572130504031617 0.1874703368446563 0 0.3572130504031617 0.1874703368446563 0 0.36246644853392812 0.1399454205365751 0 0.39801143831225599 0.16651381068160659 0 0.33084213324567391 0.16272720141332131 0 0.3572130504031617 0.1874703368446563 0 0.36246644853392812 0.1399454205365751 0 0.36246644853392812 0.1399454205365751 0 0.39801143831225599 0.16651381068160659 0 0.39823268594401579 0.1116623613130045 0 0.39801143831225599 0.16651381068160659 0 0.42905200079338551 0.19982395548231649 0 0.44288491854585582 0.14116182884956319 0 0.39801143831225599 0.16651381068160659 0 0.44288491854585582 0.14116182884956319 0 0.39823268594401579 0.1116623613130045 0 0.38831533174504851 0.2189834941785925 0 0.42377727103934271 0.25099357235810238 0 0.3786248352540974 0.27082301512024259 0 0.3572130504031617 0.1874703368446563 0 0.39801143831225599 0.16651381068160659 0 0.38831533174504851 0.2189834941785925 0 0.39801143831225599 0.16651381068160659 0 0.38831533174504851 0.2189834941785925 0 0.42905200079338551 0.19982395548231649 0 0.38831533174504851 0.2189834941785925 0 0.42905200079338551 0.19982395548231649 0 0.42377727103934271 0.25099357235810238 0 0.42905200079338551 0.19982395548231649 0 0.46429753744194407 0.22870891180733599 0 0.42377727103934271 0.25099357235810238 0 0.42905200079338551 0.19982395548231649 0 0.46429753744194407 0.22870891180733599 0 0.47357141910802508 0.1873585799078378 0 0.47357141910802508 0.1873585799078378 0 0.51729576145820033 0.1683240575987815 0 0.50760557329222289 0.20700468884612061 0 0.46429753744194407 0.22870891180733599 0 0.47357141910802508 0.1873585799078378 0 0.50760557329222289 0.20700468884612061 0 0.46429753744194407 0.22870891180733599 0 0.49695729691142171 0.25014895411178018 0 0.50760557329222289 0.20700468884612061 0 0.44288491854585582 0.14116182884956319 0 0.47357141910802508 0.1873585799078378 0 0.48466639505193998 0.1421439844745814 0 0.42905200079338551 0.19982395548231649 0 0.44288491854585582 0.14116182884956319 0 0.47357141910802508 0.1873585799078378 0 0.47357141910802508 0.1873585799078378 0 0.48466639505193998 0.1421439844745814 0 0.51729576145820033 0.1683240575987815 0 0.44288491854585582 0.14116182884956319 0 0.48466639505193998 0.1421439844745814 0 0.47881186583059909 0.093591717165689425 0 0.48466639505193998 0.1421439844745814 0 0.47881186583059909 0.093591717165689425 0 0.51076801031701946 0.1202837388510348 0 0.44288491854585582 0.14116182884956319 0 0.47881186583059909 0.093591717165689425 0 0.43698630808430822 0.080423614171545449 0 0.47881186583059909 0.093591717165689425 0 0.47040171442036788 0.044141676406503738 0 0.43698630808430822 0.080423614171545449 0 0.47881186583059909 0.093591717165689425 0 0.47040171442036788 0.044141676406503738 0 0.52375890611712683 0.059318771819432882 0 0.47040171442036788 0.044141676406503738 0 0.49999999999869432 0 0 0.52375890611712683 0.059318771819432882 0 0.47040171442036788 0.044141676406503738 0 0.49999999999869432 0 0 0.44999999999882923 0 0 0.47040171442036788 0.044141676406503738 0 0.44999999999882923 0 0 0.4320097814748517 0.037406712692169303 0 0.47040171442036788 0.044141676406503738 0 0.4320097814748517 0.037406712692169303 0 0.43698630808430822 0.080423614171545449 0 0.4320097814748517 0.037406712692169303 0 0.3999999999989749 0 0 0.39591832466117061 0.056982757562006353 0 0.4320097814748517 0.037406712692169303 0 0.39591832466117061 0.056982757562006353 0 0.43698630808430822 0.080423614171545449 0 0.44999999999882923 0 0 0.4320097814748517 0.037406712692169303 0 0.3999999999989749 0 0 0.3615861437013822 0.03582617922508851 0 0.3999999999989749 0 0 0.39591832466117061 0.056982757562006353 0 0.35312867752657662 0.084946736076730367 0 0.39591832466117061 0.056982757562006353 0 0.39823268594401579 0.1116623613130045 0 0.44288491854585582 0.14116182884956319 0 0.39823268594401579 0.1116623613130045 0 0.43698630808430822 0.080423614171545449 0 0.39591832466117061 0.056982757562006353 0 0.39823268594401579 0.1116623613130045 0 0.43698630808430822 0.080423614171545449 0 0.42161023666869668 0.39493916313643851 0 0.38707855792647411 0.42299362914874578 0 0.43249999999999988 0.43937499999999979 0 0.42161023666869668 0.39493916313643851 0 0.38083244760691543 0.38531983672244652 0 0.38707855792647411 0.42299362914874578 0 0.42161023666869668 0.39493916313643851 0 0.38083244760691543 0.38531983672244652 0 0.40076539126862748 0.34589349467022118 0 0.38707855792647411 0.42299362914874578 0 0.3908716102680424 0.47010282357248828 0 0.43249999999999988 0.43937499999999979 0 0.3908716102680424 0.47010282357248828 0 0.43507373378304309 0.49699695397193322 0 0.38244435121258652 0.51653317813019495 0 0.3908716102680424 0.47010282357248828 0 0.43507373378304309 0.49699695397193322 0 0.43249999999999988 0.43937499999999979 0 0.43507373378304309 0.49699695397193322 0 0.43249999999999988 0.43937499999999979 0 0.46111841286828259 0.46690301029591341 0 0.43249999999999988 0.43937499999999979 0 0.46111841286828259 0.46690301029591341 0 0.48858720058566618 0.43964267759203868 0 0.43507373378304309 0.49699695397193322 0 0.46111841286828259 0.46690301029591341 0 0.49102375406324739 0.49123754822244059 0 0.46111841286828259 0.46690301029591341 0 0.49102375406324739 0.49123754822244059 0 0.48858720058566618 0.43964267759203868 0 0.48858720058566618 0.43964267759203868 0 0.46655310992796922 0.39650496622958609 0 0.52289427570932567 0.3932284363388488 0 0.43249999999999988 0.43937499999999979 0 0.48858720058566618 0.43964267759203868 0 0.46655310992796922 0.39650496622958609 0 0.42161023666869668 0.39493916313643851 0 0.43249999999999988 0.43937499999999979 0 0.46655310992796922 0.39650496622958609 0 0.42161023666869668 0.39493916313643851 0 0.46655310992796922 0.39650496622958609 0 0.4409427642593301 0.35743108089689513 0 0.46655310992796922 0.39650496622958609 0 0.49077833859261139 0.35229981449445641 0 0.52289427570932567 0.3932284363388488 0 0.49077833859261139 0.35229981449445641 0 0.46226845272279993 0.31901800744800313 0 0.5 0.29999999999999999 0 0.49077833859261139 0.35229981449445641 0 0.46226845272279993 0.31901800744800313 0 0.4409427642593301 0.35743108089689513 0 0.46226845272279993 0.31901800744800313 0 0.4409427642593301 0.35743108089689513 0 0.41914690343363781 0.30688979866601612 0 0.46655310992796922 0.39650496622958609 0 0.49077833859261139 0.35229981449445641 0 0.4409427642593301 0.35743108089689513 0 0.49695729691142171 0.25014895411178018 0 0.4604742573284204 0.27846934318264788 0 0.5 0.29999999999999999 0 0.46429753744194407 0.22870891180733599 0 0.49695729691142171 0.25014895411178018 0 0.4604742573284204 0.27846934318264788 0 0.46226845272279993 0.31901800744800313 0 0.4604742573284204 0.27846934318264788 0 0.5 0.29999999999999999 0 0.46226845272279993 0.31901800744800313 0 0.4604742573284204 0.27846934318264788 0 0.41914690343363781 0.30688979866601612 0 0.46429753744194407 0.22870891180733599 0 0.4604742573284204 0.27846934318264788 0 0.42377727103934271 0.25099357235810238 0 0.4604742573284204 0.27846934318264788 0 0.42377727103934271 0.25099357235810238 0 0.41914690343363781 0.30688979866601612 0 0.42377727103934271 0.25099357235810238 0 0.41914690343363781 0.30688979866601612 0 0.3786248352540974 0.27082301512024259 0 0.41914690343363781 0.30688979866601612 0 0.3786248352540974 0.27082301512024259 0 0.36575549820117997 0.31677992835137742 0 0.42161023666869668 0.39493916313643851 0 0.4409427642593301 0.35743108089689513 0 0.40076539126862748 0.34589349467022118 0 0.4409427642593301 0.35743108089689513 0 0.41914690343363781 0.30688979866601612 0 0.40076539126862748 0.34589349467022118 0 0.41914690343363781 0.30688979866601612 0 0.40076539126862748 0.34589349467022118 0 0.36575549820117997 0.31677992835137742 0 0.40076539126862748 0.34589349467022118 0 0.36575549820117997 0.31677992835137742 0 0.33277555741076909 0.36432196682010132 0 0.38083244760691543 0.38531983672244652 0 0.40076539126862748 0.34589349467022118 0 0.33277555741076909 0.36432196682010132 0 0.36575549820117997 0.31677992835137742 0 0.32752639306529541 0.32610012995269699 0 0.33277555741076909 0.36432196682010132 0 0.32752639306529541 0.32610012995269699 0 0.33277555741076909 0.36432196682010132 0 0.29644548887253103 0.34914008784168082 0 0.33758650185219202 0.23837101504325639 0 0.3786248352540974 0.27082301512024259 0 0.33402499257867951 0.28911035184473982 0 0.3786248352540974 0.27082301512024259 0 0.36575549820117997 0.31677992835137742 0 0.33402499257867951 0.28911035184473982 0 0.36575549820117997 0.31677992835137742 0 0.32752639306529541 0.32610012995269699 0 0.33402499257867951 0.28911035184473982 0 0.32752639306529541 0.32610012995269699 0 0.33402499257867951 0.28911035184473982 0 0.29348325746214782 0.31350119524708198 0 0.33758650185219202 0.23837101504325639 0 0.33402499257867951 0.28911035184473982 0 0.29132859388405002 0.27203693976649962 0 0.33402499257867951 0.28911035184473982 0 0.29132859388405002 0.27203693976649962 0 0.29348325746214782 0.31350119524708198 0 0.29132859388405002 0.27203693976649962 0 0.29348325746214782 0.31350119524708198 0 0.24432083401701241 0.3006253385567515 0 0.29132859388405002 0.27203693976649962 0 0.25195515620380449 0.25883339815888678 0 0.24432083401701241 0.3006253385567515 0 0.28040350263641872 0.23054717217092141 0 0.29132859388405002 0.27203693976649962 0 0.25195515620380449 0.25883339815888678 0 0.33277555741076909 0.36432196682010132 0 0.29644548887253103 0.34914008784168082 0 0.27866744612395528 0.38416094670951489 0 0.32752639306529541 0.32610012995269699 0 0.29644548887253103 0.34914008784168082 0 0.29348325746214782 0.31350119524708198 0 0.29644548887253103 0.34914008784168082 0 0.29348325746214782 0.31350119524708198 0 0.25966125648670141 0.34351016742083729 0 0.29348325746214782 0.31350119524708198 0 0.25966125648670141 0.34351016742083729 0 0.24432083401701241 0.3006253385567515 0 0.29644548887253103 0.34914008784168082 0 0.25966125648670141 0.34351016742083729 0 0.27866744612395528 0.38416094670951489 0 0.25966125648670141 0.34351016742083729 0 0.27866744612395528 0.38416094670951489 0 0.22033343844674469 0.36963382230740238 0 0.27866744612395528 0.38416094670951489 0 0.29124338931648802 0.43334555462578611 0 0.24049127783545701 0.41270748208749802 0 0.29124338931648802 0.43334555462578611 0 0.25982634974572738 0.46097799597715272 0 0.24049127783545701 0.41270748208749802 0 0.27866744612395528 0.38416094670951489 0 0.29124338931648802 0.43334555462578611 0 0.31778888742534622 0.40581751814196781 0 0.33277555741076909 0.36432196682010132 0 0.27866744612395528 0.38416094670951489 0 0.31778888742534622 0.40581751814196781 0 0.33277555741076909 0.36432196682010132 0 0.31778888742534622 0.40581751814196781 0 0.35221190152536241 0.40457127605439203 0 0.31778888742534622 0.40581751814196781 0 0.35221190152536241 0.40457127605439203 0 0.34258405725730701 0.4444034294386992 0 0.29124338931648802 0.43334555462578611 0 0.31778888742534622 0.40581751814196781 0 0.34258405725730701 0.4444034294386992 0 0.38707855792647411 0.42299362914874578 0 0.35221190152536241 0.40457127605439203 0 0.34258405725730701 0.4444034294386992 0 0.38083244760691543 0.38531983672244652 0 0.38707855792647411 0.42299362914874578 0 0.35221190152536241 0.40457127605439203 0 0.38083244760691543 0.38531983672244652 0 0.33277555741076909 0.36432196682010132 0 0.35221190152536241 0.40457127605439203 0 0.3908716102680424 0.47010282357248828 0 0.35024835142131061 0.48654922671676981 0 0.38244435121258652 0.51653317813019495 0 0.3908716102680424 0.47010282357248828 0 0.35024835142131061 0.48654922671676981 0 0.34258405725730701 0.4444034294386992 0 0.38707855792647411 0.42299362914874578 0 0.3908716102680424 0.47010282357248828 0 0.34258405725730701 0.4444034294386992 0 0.29124338931648802 0.43334555462578611 0 0.34258405725730701 0.4444034294386992 0 0.31068898841644388 0.47541502461811092 0 0.35024835142131061 0.48654922671676981 0 0.31068898841644388 0.47541502461811092 0 0.33190227185843768 0.52715113583864037 0 0.35024835142131061 0.48654922671676981 0 0.34258405725730701 0.4444034294386992 0 0.31068898841644388 0.47541502461811092 0 0.31068898841644388 0.47541502461811092 0 0.25982634974572738 0.46097799597715272 0 0.28307294598219601 0.50789252727458634 0 0.29124338931648802 0.43334555462578611 0 0.31068898841644388 0.47541502461811092 0 0.25982634974572738 0.46097799597715272 0 0.25982634974572738 0.46097799597715272 0 0.23975172658309729 0.49475499200540818 0 0.28307294598219601 0.50789252727458634 0 0.23975172658309729 0.49475499200540818 0 0.19604738184454831 0.47787523520405789 0 0.22278230690790279 0.44824268025881547 0 0.19604738184454831 0.47787523520405789 0 0.22278230690790279 0.44824268025881547 0 0.191953871957803 0.42546416763755879 0 0.25982634974572738 0.46097799597715272 0 0.22278230690790279 0.44824268025881547 0 0.24049127783545701 0.41270748208749802 0 0.25982634974572738 0.46097799597715272 0 0.23975172658309729 0.49475499200540818 0 0.22278230690790279 0.44824268025881547 0 0.27866744612395528 0.38416094670951489 0 0.24049127783545701 0.41270748208749802 0 0.22033343844674469 0.36963382230740238 0 0.191953871957803 0.42546416763755879 0 0.1650278706801647 0.38791388161335733 0 0.22033343844674469 0.36963382230740238 0 0.24049127783545701 0.41270748208749802 0 0.191953871957803 0.42546416763755879 0 0.22033343844674469 0.36963382230740238 0 0.22278230690790279 0.44824268025881547 0 0.24049127783545701 0.41270748208749802 0 0.191953871957803 0.42546416763755879 0 0.191953871957803 0.42546416763755879 0 0.13773355295499351 0.42497777642586831 0 0.15801167086041079 0.46008690540259539 0 0.191953871957803 0.42546416763755879 0 0.1650278706801647 0.38791388161335733 0 0.13773355295499351 0.42497777642586831 0 0.1650278706801647 0.38791388161335733 0 0.13773355295499351 0.42497777642586831 0 0.1117088112799664 0.38831403004970022 0 0.13773355295499351 0.42497777642586831 0 0.15801167086041079 0.46008690540259539 0 0.113541300460994 0.46208784312094731 0 0.15801167086041079 0.46008690540259539 0 0.113541300460994 0.46208784312094731 0 0.1216098864341134 0.50637075089503902 0 0.15801167086041079 0.46008690540259539 0 0.1216098864341134 0.50637075089503902 0 0.16618607197337229 0.50652878253548905 0 0.19604738184454831 0.47787523520405789 0 0.15801167086041079 0.46008690540259539 0 0.16618607197337229 0.50652878253548905 0 0.19604738184454831 0.47787523520405789 0 0.191953871957803 0.42546416763755879 0 0.15801167086041079 0.46008690540259539 0 0.25195515620380449 0.25883339815888678 0 0.21049769590865089 0.26857363548218488 0 0.24432083401701241 0.3006253385567515 0 0.21049769590865089 0.26857363548218488 0 0.24432083401701241 0.3006253385567515 0 0.19670163708476801 0.31472518408333222 0 0.21049769590865089 0.26857363548218488 0 0.19670163708476801 0.31472518408333222 0 0.168349569971391 0.28054490850913671 0 0.19670163708476801 0.31472518408333222 0 0.22615676742807109 0.33458786033114157 0 0.18434624290945251 0.35208838264196463 0 0.24432083401701241 0.3006253385567515 0 0.19670163708476801 0.31472518408333222 0 0.22615676742807109 0.33458786033114157 0 0.25966125648670141 0.34351016742083729 0 0.24432083401701241 0.3006253385567515 0 0.22615676742807109 0.33458786033114157 0 0.25966125648670141 0.34351016742083729 0 0.22615676742807109 0.33458786033114157 0 0.22033343844674469 0.36963382230740238 0 0.22615676742807109 0.33458786033114157 0 0.22033343844674469 0.36963382230740238 0 0.18434624290945251 0.35208838264196463 0 0.1650278706801647 0.38791388161335733 0 0.22033343844674469 0.36963382230740238 0 0.18434624290945251 0.35208838264196463 0 0.1650278706801647 0.38791388161335733 0 0.18434624290945251 0.35208838264196463 0 0.14223753364722069 0.3341983344262433 0 0.1650278706801647 0.38791388161335733 0 0.14223753364722069 0.3341983344262433 0 0.1117088112799664 0.38831403004970022 0 0.19670163708476801 0.31472518408333222 0 0.18434624290945251 0.35208838264196463 0 0.14223753364722069 0.3341983344262433 0 0.19670163708476801 0.31472518408333222 0 0.14223753364722069 0.3341983344262433 0 0.168349569971391 0.28054490850913671 0 0.14223753364722069 0.3341983344262433 0 0.168349569971391 0.28054490850913671 0 0.1247745017231483 0.27198077544791172 0 0.14377654328998779 0.2442024734791064 0 0.168349569971391 0.28054490850913671 0 0.1247745017231483 0.27198077544791172 0 0.17933913398461551 0.2350063570234002 0 0.21049769590865089 0.26857363548218488 0 0.168349569971391 0.28054490850913671 0 0.17933913398461551 0.2350063570234002 0 0.14377654328998779 0.2442024734791064 0 0.168349569971391 0.28054490850913671 0 0.095326043202144745 0.24554465089224409 0 0.093851963071650835 0.30582068233324772 0 0.049706944316556423 0.27522722923869108 0 0.095326043202144745 0.24554465089224409 0 0.14377654328998779 0.2442024734791064 0 0.1247745017231483 0.27198077544791172 0 0.095326043202144745 0.24554465089224409 0 0.1247745017231483 0.27198077544791172 0 0.093851963071650835 0.30582068233324772 0 0.14223753364722069 0.3341983344262433 0 0.1247745017231483 0.27198077544791172 0 0.093851963071650835 0.30582068233324772 0 0.093851963071650835 0.30582068233324772 0 0.046389130980076937 0.32668781832131749 0 0.049706944316556423 0.27522722923869108 0 0.093851963071650835 0.30582068233324772 0 0.087545339447545459 0.35122518864182262 0 0.046389130980076937 0.32668781832131749 0 0.14223753364722069 0.3341983344262433 0 0.093851963071650835 0.30582068233324772 0 0.087545339447545459 0.35122518864182262 0 0.14223753364722069 0.3341983344262433 0 0.087545339447545459 0.35122518864182262 0 0.1117088112799664 0.38831403004970022 0 0.087545339447545459 0.35122518864182262 0 0.1117088112799664 0.38831403004970022 0 0.050583896093752537 0.38543522283434112 0 0.087545339447545459 0.35122518864182262 0 0.046389130980076937 0.32668781832131749 0 0.050583896093752537 0.38543522283434112 0 0 0.35000000000145642 0 0.046389130980076937 0.32668781832131749 0 0.050583896093752537 0.38543522283434112 0 0 0.35000000000145642 0 0.046389130980076937 0.32668781832131749 0 0 0.30000000000124832 0 0.046389130980076937 0.32668781832131749 0 0 0.30000000000124832 0 0.049706944316556423 0.27522722923869108 0 0 0.30000000000124832 0 0 0.25000000000104028 0 0.049706944316556423 0.27522722923869108 0 0.044081577119474857 0.2271058242433576 0 0 0.25000000000104028 0 0.049706944316556423 0.27522722923869108 0 0.068743045408989428 0.48853989837882689 0 0.113541300460994 0.46208784312094731 0 0.078358742472063481 0.43365249433908948 0 0.068743045408989428 0.48853989837882689 0 0.113541300460994 0.46208784312094731 0 0.1216098864341134 0.50637075089503902 0 0.13773355295499351 0.42497777642586831 0 0.113541300460994 0.46208784312094731 0 0.078358742472063481 0.43365249433908948 0 0.13773355295499351 0.42497777642586831 0 0.1117088112799664 0.38831403004970022 0 0.078358742472063481 0.43365249433908948 0 0.1117088112799664 0.38831403004970022 0 0.078358742472063481 0.43365249433908948 0 0.050583896093752537 0.38543522283434112 0 0.078358742472063481 0.43365249433908948 0 0.035463093262830522 0.42673416072819947 0 0.050583896093752537 0.38543522283434112 0 0 0.35000000000145642 0 0.050583896093752537 0.38543522283434112 0 0 0.40000000000166441 0 0.035463093262830522 0.42673416072819947 0 0.050583896093752537 0.38543522283434112 0 0 0.40000000000166441 0 0.035463093262830522 0.42673416072819947 0 0 0.40000000000166441 0 0 0.45000000000187229 0 0.035463093262830522 0.42673416072819947 0 0 0.45000000000187229 0 0.033550201249889847 0.46247875832467239 0 0.068743045408989428 0.48853989837882689 0 0.033550201249889847 0.46247875832467239 0 0 0.50000000000205869 0 0.068743045408989428 0.48853989837882689 0 0.078358742472063481 0.43365249433908948 0 0.033550201249889847 0.46247875832467239 0 0.078358742472063481 0.43365249433908948 0 0.035463093262830522 0.42673416072819947 0 0.033550201249889847 0.46247875832467239 0 0 0.45000000000187229 0 0.033550201249889847 0.46247875832467239 0 0 0.50000000000205869 0 0.068743045408989428 0.48853989837882689 0 0 0.50000000000205869 0 0.044576108720083309 0.53509043209532614 0 0 0.50000000000205869 0 0 0.55000000000173355 0 0.044576108720083309 0.53509043209532614 0 0 0.55000000000173355 0 0.044576108720083309 0.53509043209532614 0 0.034381862692950467 0.57372682250960894 0 0.044576108720083309 0.53509043209532614 0 0.077693244765132896 0.56932317963405099 0 0.034381862692950467 0.57372682250960894 0 0.068743045408989428 0.48853989837882689 0 0.044576108720083309 0.53509043209532614 0 0.085622222639554768 0.53333248912060549 0 0.068743045408989428 0.48853989837882689 0 0.085622222639554768 0.53333248912060549 0 0.1216098864341134 0.50637075089503902 0 0.044576108720083309 0.53509043209532614 0 0.085622222639554768 0.53333248912060549 0 0.077693244765132896 0.56932317963405099 0 0.085622222639554768 0.53333248912060549 0 0.1154888278694548 0.56733818459978413 0 0.077693244765132896 0.56932317963405099 0 0.085622222639554768 0.53333248912060549 0 0.1216098864341134 0.50637075089503902 0 0.1154888278694548 0.56733818459978413 0 0.1024350934457823 0.60772393977513839 0 0.1154888278694548 0.56733818459978413 0 0.077693244765132896 0.56932317963405099 0 0.1024350934457823 0.60772393977513839 0 0.050069554451969707 0.61308520079857043 0 0.086179601630648681 0.64647209519980475 0 0.1024350934457823 0.60772393977513839 0 0.077693244765132896 0.56932317963405099 0 0.050069554451969707 0.61308520079857043 0 0.077693244765132896 0.56932317963405099 0 0.050069554451969707 0.61308520079857043 0 0.034381862692950467 0.57372682250960894 0 0 0.55000000000173355 0 0.034381862692950467 0.57372682250960894 0 0 0.60000000000138687 0 0.050069554451969707 0.61308520079857043 0 0 0.60000000000138687 0 0 0.65000000000104008 0 0.050069554451969707 0.61308520079857043 0 0.034381862692950467 0.57372682250960894 0 0 0.60000000000138687 0 0 0.65000000000104008 0 0.046634677244967337 0.671418230738282 0 0 0.7000000000006934 0 0.050069554451969707 0.61308520079857043 0 0.046634677244967337 0.671418230738282 0 0.086179601630648681 0.64647209519980475 0 0.050069554451969707 0.61308520079857043 0 0 0.65000000000104008 0 0.046634677244967337 0.671418230738282 0 0 0.7000000000006934 0 0.049706944316475897 0.72477277076253799 0 0 0.75000000000034661 0 0.046634677244967337 0.671418230738282 0 0 0.7000000000006934 0 0.049706944316475897 0.72477277076253799 0 0.049706944316475897 0.72477277076253799 0 0 0.75000000000034661 0 0.04408157711937423 0.7728941757575627 0 0.049706944316475897 0.72477277076253799 0 0.1020579365089687 0.69352219419301997 0 0.090953281884486245 0.7564451946902494 0 0.1020579365089687 0.69352219419301997 0 0.1215415378367805 0.72939333680004137 0 0.090953281884486245 0.7564451946902494 0 0.046634677244967337 0.671418230738282 0 0.049706944316475897 0.72477277076253799 0 0.1020579365089687 0.69352219419301997 0 0.1215415378367805 0.72939333680004137 0 0.090953281884486245 0.7564451946902494 0 0.14335651144331049 0.75565258250209677 0 0.046634677244967337 0.671418230738282 0 0.1020579365089687 0.69352219419301997 0 0.086179601630648681 0.64647209519980475 0 0.1020579365089687 0.69352219419301997 0 0.086179601630648681 0.64647209519980475 0 0.1241190223511371 0.64391885572885044 0 0.1024350934457823 0.60772393977513839 0 0.086179601630648681 0.64647209519980475 0 0.1241190223511371 0.64391885572885044 0 0.1020579365089687 0.69352219419301997 0 0.1241190223511371 0.64391885572885044 0 0.16500388252850301 0.66612077714085194 0 0.1241190223511371 0.64391885572885044 0 0.16500388252850301 0.66612077714085194 0 0.15720202157091859 0.60665697304410315 0 0.16500388252850301 0.66612077714085194 0 0.19914261668318661 0.62286739485272158 0 0.15720202157091859 0.60665697304410315 0 0.1020579365089687 0.69352219419301997 0 0.16500388252850301 0.66612077714085194 0 0.15332765547575641 0.71200081858233666 0 0.1215415378367805 0.72939333680004137 0 0.15332765547575641 0.71200081858233666 0 0.14335651144331049 0.75565258250209677 0 0.1020579365089687 0.69352219419301997 0 0.1215415378367805 0.72939333680004137 0 0.15332765547575641 0.71200081858233666 0 0.16500388252850301 0.66612077714085194 0 0.15332765547575641 0.71200081858233666 0 0.19068556247388771 0.71028988922845504 0 0.15332765547575641 0.71200081858233666 0 0.14335651144331049 0.75565258250209677 0 0.18269480424590959 0.75905448272264375 0 0.15332765547575641 0.71200081858233666 0 0.19068556247388771 0.71028988922845504 0 0.18269480424590959 0.75905448272264375 0 0.19068556247388771 0.71028988922845504 0 0.2248999640082178 0.72584299459689172 0 0.18269480424590959 0.75905448272264375 0 0.19068556247388771 0.71028988922845504 0 0.2248999640082178 0.72584299459689172 0 0.2236846579037573 0.67380363126050236 0 0.2248999640082178 0.72584299459689172 0 0.2236846579037573 0.67380363126050236 0 0.26439878998046262 0.7048065392091396 0 0.2248999640082178 0.72584299459689172 0 0.22556077506376701 0.77837424984191617 0 0.25676291524611189 0.7436741304886243 0 0.2248999640082178 0.72584299459689172 0 0.25676291524611189 0.7436741304886243 0 0.26439878998046262 0.7048065392091396 0 0.16500388252850301 0.66612077714085194 0 0.2236846579037573 0.67380363126050236 0 0.19914261668318661 0.62286739485272158 0 0.16500388252850301 0.66612077714085194 0 0.19068556247388771 0.71028988922845504 0 0.2236846579037573 0.67380363126050236 0 0.2236846579037573 0.67380363126050236 0 0.2459498854893499 0.63248470766216769 0 0.19914261668318661 0.62286739485272158 0 0.2236846579037573 0.67380363126050236 0 0.2459498854893499 0.63248470766216769 0 0.27820712747429932 0.65530134213254643 0 0.2459498854893499 0.63248470766216769 0 0.19914261668318661 0.62286739485272158 0 0.22549374774072969 0.58452645269293457 0 0.2459498854893499 0.63248470766216769 0 0.22549374774072969 0.58452645269293457 0 0.26573297623774761 0.59828298563722948 0 0.19914261668318661 0.62286739485272158 0 0.22549374774072969 0.58452645269293457 0 0.18381867841758909 0.57774125163628387 0 0.22549374774072969 0.58452645269293457 0 0.20050006573841939 0.53248514016039872 0 0.18381867841758909 0.57774125163628387 0 0.22549374774072969 0.58452645269293457 0 0.25115337790845271 0.54719303014923271 0 0.26573297623774761 0.59828298563722948 0 0.22549374774072969 0.58452645269293457 0 0.20050006573841939 0.53248514016039872 0 0.25115337790845271 0.54719303014923271 0 0.23975172658309729 0.49475499200540818 0 0.20050006573841939 0.53248514016039872 0 0.25115337790845271 0.54719303014923271 0 0.19604738184454831 0.47787523520405789 0 0.20050006573841939 0.53248514016039872 0 0.16618607197337229 0.50652878253548905 0 0.23975172658309729 0.49475499200540818 0 0.19604738184454831 0.47787523520405789 0 0.20050006573841939 0.53248514016039872 0 0.20050006573841939 0.53248514016039872 0 0.14934928745814749 0.55042914607228977 0 0.18381867841758909 0.57774125163628387 0 0.20050006573841939 0.53248514016039872 0 0.16618607197337229 0.50652878253548905 0 0.14934928745814749 0.55042914607228977 0 0.1216098864341134 0.50637075089503902 0 0.16618607197337229 0.50652878253548905 0 0.14934928745814749 0.55042914607228977 0 0.1216098864341134 0.50637075089503902 0 0.1154888278694548 0.56733818459978413 0 0.14934928745814749 0.55042914607228977 0 0.1154888278694548 0.56733818459978413 0 0.14934928745814749 0.55042914607228977 0 0.15720202157091859 0.60665697304410315 0 0.1024350934457823 0.60772393977513839 0 0.1154888278694548 0.56733818459978413 0 0.15720202157091859 0.60665697304410315 0 0.1024350934457823 0.60772393977513839 0 0.1241190223511371 0.64391885572885044 0 0.15720202157091859 0.60665697304410315 0 0.19914261668318661 0.62286739485272158 0 0.15720202157091859 0.60665697304410315 0 0.18381867841758909 0.57774125163628387 0 0.14934928745814749 0.55042914607228977 0 0.15720202157091859 0.60665697304410315 0 0.18381867841758909 0.57774125163628387 0 0.10000000000041601 1 0 0.10266856499240549 0.95548163909968886 0 0.15000000000062411 1 0 0.10266856499240549 0.95548163909968886 0 0.053064897599294662 0.95186845269532028 0 0.083411279318375747 0.91030024466934134 0 0.10000000000041601 1 0 0.050000000000207989 1 0 0.053064897599294662 0.95186845269532028 0 0.10000000000041601 1 0 0.10266856499240549 0.95548163909968886 0 0.053064897599294662 0.95186845269532028 0 0.050000000000207989 1 0 0.025766224399875661 0.97546711317377799 0 0.053064897599294662 0.95186845269532028 0 0.050000000000207989 1 0 0 1 0 0.025766224399875661 0.97546711317377799 0 0 1 0 0.025766224399875661 0.97546711317377799 0 0 0.94999999999979179 0 0.025766224399875661 0.97546711317377799 0 0 0.94999999999979179 0 0.053064897599294662 0.95186845269532028 0 0 0.94999999999979179 0 0.053064897599294662 0.95186845269532028 0 0.0443105827531413 0.89858748162559932 0 0.053064897599294662 0.95186845269532028 0 0.0443105827531413 0.89858748162559932 0 0.083411279318375747 0.91030024466934134 0 0 0.94999999999979179 0 0 0.89999999999958358 0 0.0443105827531413 0.89858748162559932 0 0 0.89999999999958358 0 0.0443105827531413 0.89858748162559932 0 0 0.84999999999965292 0 0.0443105827531413 0.89858748162559932 0 0.083411279318375747 0.91030024466934134 0 0.065374659239661639 0.8551091961254178 0 0.083411279318375747 0.91030024466934134 0 0.10562472963403439 0.87143394428979881 0 0.065374659239661639 0.8551091961254178 0 0.10266856499240549 0.95548163909968886 0 0.083411279318375747 0.91030024466934134 0 0.1241151115713819 0.9045666525468371 0 0.10266856499240549 0.95548163909968886 0 0.1241151115713819 0.9045666525468371 0 0.14617343800780541 0.93808063414349496 0 0.1241151115713819 0.9045666525468371 0 0.10562472963403439 0.87143394428979881 0 0.14474682429600511 0.85524784522713515 0 0.083411279318375747 0.91030024466934134 0 0.1241151115713819 0.9045666525468371 0 0.10562472963403439 0.87143394428979881 0 0.10562472963403439 0.87143394428979881 0 0.1074251789111534 0.83564394292147814 0 0.14474682429600511 0.85524784522713515 0 0.1074251789111534 0.83564394292147814 0 0.065374659239661639 0.8551091961254178 0 0.083105206071452636 0.79992298667296435 0 0.10562472963403439 0.87143394428979881 0 0.1074251789111534 0.83564394292147814 0 0.065374659239661639 0.8551091961254178 0 0.065374659239661639 0.8551091961254178 0 0 0.84999999999965292 0 0.038512288486097702 0.8155852717111195 0 0.0443105827531413 0.89858748162559932 0 0.065374659239661639 0.8551091961254178 0 0 0.84999999999965292 0 0 0.84999999999965292 0 0.038512288486097702 0.8155852717111195 0 0 0.79999999999999982 0 0.065374659239661639 0.8551091961254178 0 0.038512288486097702 0.8155852717111195 0 0.083105206071452636 0.79992298667296435 0 0.038512288486097702 0.8155852717111195 0 0.04408157711937423 0.7728941757575627 0 0.083105206071452636 0.79992298667296435 0 0.038512288486097702 0.8155852717111195 0 0 0.79999999999999982 0 0.04408157711937423 0.7728941757575627 0 0 0.79999999999999982 0 0 0.75000000000034661 0 0.04408157711937423 0.7728941757575627 0 0.049706944316475897 0.72477277076253799 0 0.04408157711937423 0.7728941757575627 0 0.090953281884486245 0.7564451946902494 0 0.04408157711937423 0.7728941757575627 0 0.090953281884486245 0.7564451946902494 0 0.083105206071452636 0.79992298667296435 0 0.1074251789111534 0.83564394292147814 0 0.083105206071452636 0.79992298667296435 0 0.1382744753146134 0.79650574229207483 0 0.090953281884486245 0.7564451946902494 0 0.083105206071452636 0.79992298667296435 0 0.1382744753146134 0.79650574229207483 0 0.090953281884486245 0.7564451946902494 0 0.14335651144331049 0.75565258250209677 0 0.1382744753146134 0.79650574229207483 0 0.14335651144331049 0.75565258250209677 0 0.1382744753146134 0.79650574229207483 0 0.18269480424590959 0.75905448272264375 0 0.1382744753146134 0.79650574229207483 0 0.18269480424590959 0.75905448272264375 0 0.17777405986036951 0.81832336108265358 0 0.2248999640082178 0.72584299459689172 0 0.18269480424590959 0.75905448272264375 0 0.22556077506376701 0.77837424984191617 0 0.22556077506376701 0.77837424984191617 0 0.21858834311891909 0.81980263716112767 0 0.26104540868854792 0.81401944968719064 0 0.22556077506376701 0.77837424984191617 0 0.21858834311891909 0.81980263716112767 0 0.17777405986036951 0.81832336108265358 0 0.18269480424590959 0.75905448272264375 0 0.22556077506376701 0.77837424984191617 0 0.17777405986036951 0.81832336108265358 0 0.21858834311891909 0.81980263716112767 0 0.19741632902693801 0.86755867406447229 0 0.17777405986036951 0.81832336108265358 0 0.21858834311891909 0.81980263716112767 0 0.2401283238295133 0.85648409884788523 0 0.26104540868854792 0.81401944968719064 0 0.21858834311891909 0.81980263716112767 0 0.2401283238295133 0.85648409884788523 0 0.19741632902693801 0.86755867406447229 0 0.19741632902693801 0.86755867406447229 0 0.17777405986036951 0.81832336108265358 0 0.14474682429600511 0.85524784522713515 0 0.19741632902693801 0.86755867406447229 0 0.14474682429600511 0.85524784522713515 0 0.16206583317966519 0.89685560785156404 0 0.1382744753146134 0.79650574229207483 0 0.17777405986036951 0.81832336108265358 0 0.14474682429600511 0.85524784522713515 0 0.1074251789111534 0.83564394292147814 0 0.1382744753146134 0.79650574229207483 0 0.14474682429600511 0.85524784522713515 0 0.1241151115713819 0.9045666525468371 0 0.14474682429600511 0.85524784522713515 0 0.16206583317966519 0.89685560785156404 0 0.1241151115713819 0.9045666525468371 0 0.16206583317966519 0.89685560785156404 0 0.14617343800780541 0.93808063414349496 0 0.16206583317966519 0.89685560785156404 0 0.19901705110390991 0.9175543425573498 0 0.14617343800780541 0.93808063414349496 0 0.19741632902693801 0.86755867406447229 0 0.16206583317966519 0.89685560785156404 0 0.19901705110390991 0.9175543425573498 0 0.19741632902693801 0.86755867406447229 0 0.24536017905392571 0.90704567837671446 0 0.19901705110390991 0.9175543425573498 0 0.2401283238295133 0.85648409884788523 0 0.19741632902693801 0.86755867406447229 0 0.24536017905392571 0.90704567837671446 0 0.24536017905392571 0.90704567837671446 0 0.19901705110390991 0.9175543425573498 0 0.22850979588452081 0.95594428570238643 0 0.19901705110390991 0.9175543425573498 0 0.22850979588452081 0.95594428570238643 0 0.18474005699953849 0.96231585248064622 0 0.24536017905392571 0.90704567837671446 0 0.22850979588452081 0.95594428570238643 0 0.27609987656793722 0.94991445621608572 0 0.22850979588452081 0.95594428570238643 0 0.20000000000083221 1 0 0.25000000000104028 1 0 0.22850979588452081 0.95594428570238643 0 0.20000000000083221 1 0 0.18474005699953849 0.96231585248064622 0 0.20000000000083221 1 0 0.18474005699953849 0.96231585248064622 0 0.15000000000062411 1 0 0.19901705110390991 0.9175543425573498 0 0.18474005699953849 0.96231585248064622 0 0.14617343800780541 0.93808063414349496 0 0.18474005699953849 0.96231585248064622 0 0.14617343800780541 0.93808063414349496 0 0.15000000000062411 1 0 0.10266856499240549 0.95548163909968886 0 0.14617343800780541 0.93808063414349496 0 0.15000000000062411 1 0 0.35000000000145642 1 0 0.36184234618600131 0.96443954459096326 0 0.32544832635163229 0.95485394099568932 0 0.35000000000145642 1 0 0.36184234618600131 0.96443954459096326 0 0.40000000000166441 1 0 0.36184234618600131 0.96443954459096326 0 0.32544832635163229 0.95485394099568932 0 0.35752321586431363 0.9185439911803448 0 0.36184234618600131 0.96443954459096326 0 0.35752321586431363 0.9185439911803448 0 0.39641108128798319 0.94356127926187128 0 0.35000000000145642 1 0 0.32544832635163229 0.95485394099568932 0 0.30000000000124832 1 0 0.30000000000124832 1 0 0.25000000000104028 1 0 0.27609987656793722 0.94991445621608572 0 0.22850979588452081 0.95594428570238643 0 0.25000000000104028 1 0 0.27609987656793722 0.94991445621608572 0 0.32544832635163229 0.95485394099568932 0 0.30000000000124832 1 0 0.27609987656793722 0.94991445621608572 0 0.32544832635163229 0.95485394099568932 0 0.27609987656793722 0.94991445621608572 0 0.30864387279288652 0.89906554525974958 0 0.24536017905392571 0.90704567837671446 0 0.27270076654418179 0.87751467830216623 0 0.30864387279288652 0.89906554525974958 0 0.24536017905392571 0.90704567837671446 0 0.27609987656793722 0.94991445621608572 0 0.30864387279288652 0.89906554525974958 0 0.2401283238295133 0.85648409884788523 0 0.24536017905392571 0.90704567837671446 0 0.27270076654418179 0.87751467830216623 0 0.30864387279288652 0.89906554525974958 0 0.35752321586431363 0.9185439911803448 0 0.35864759629805099 0.87963482415279515 0 0.32544832635163229 0.95485394099568932 0 0.30864387279288652 0.89906554525974958 0 0.35752321586431363 0.9185439911803448 0 0.35752321586431363 0.9185439911803448 0 0.35864759629805099 0.87963482415279515 0 0.39767323751400468 0.89584229130535065 0 0.35864759629805099 0.87963482415279515 0 0.33403534827021109 0.84402799729020661 0 0.39536230704883951 0.84069429572832477 0 0.33403534827021109 0.84402799729020661 0 0.35642984951668422 0.80994399665655703 0 0.39536230704883951 0.84069429572832477 0 0.33403534827021109 0.84402799729020661 0 0.30857225866488791 0.81101973481716805 0 0.35642984951668422 0.80994399665655703 0 0.30864387279288652 0.89906554525974958 0 0.35864759629805099 0.87963482415279515 0 0.33403534827021109 0.84402799729020661 0 0.30864387279288652 0.89906554525974958 0 0.33403534827021109 0.84402799729020661 0 0.29209212897034281 0.84715728365233667 0 0.27270076654418179 0.87751467830216623 0 0.30864387279288652 0.89906554525974958 0 0.29209212897034281 0.84715728365233667 0 0.2401283238295133 0.85648409884788523 0 0.27270076654418179 0.87751467830216623 0 0.29209212897034281 0.84715728365233667 0 0.2401283238295133 0.85648409884788523 0 0.29209212897034281 0.84715728365233667 0 0.26104540868854792 0.81401944968719064 0 0.29209212897034281 0.84715728365233667 0 0.26104540868854792 0.81401944968719064 0 0.30857225866488791 0.81101973481716805 0 0.33403534827021109 0.84402799729020661 0 0.29209212897034281 0.84715728365233667 0 0.30857225866488791 0.81101973481716805 0 0.26104540868854792 0.81401944968719064 0 0.30857225866488791 0.81101973481716805 0 0.2792923945214143 0.77665808831789485 0 0.30857225866488791 0.81101973481716805 0 0.2792923945214143 0.77665808831789485 0 0.33123028043633618 0.77629643437932982 0 0.22556077506376701 0.77837424984191617 0 0.26104540868854792 0.81401944968719064 0 0.2792923945214143 0.77665808831789485 0 0.2792923945214143 0.77665808831789485 0 0.25676291524611189 0.7436741304886243 0 0.29904318922293632 0.74132814928635593 0 0.22556077506376701 0.77837424984191617 0 0.2792923945214143 0.77665808831789485 0 0.25676291524611189 0.7436741304886243 0 0.2792923945214143 0.77665808831789485 0 0.33123028043633618 0.77629643437932982 0 0.29904318922293632 0.74132814928635593 0 0.33123028043633618 0.77629643437932982 0 0.29904318922293632 0.74132814928635593 0 0.35415581127540569 0.73730480045900215 0 0.30857225866488791 0.81101973481716805 0 0.33123028043633618 0.77629643437932982 0 0.35642984951668422 0.80994399665655703 0 0.33123028043633618 0.77629643437932982 0 0.35642984951668422 0.80994399665655703 0 0.38586766253264881 0.78219501014812498 0 0.33123028043633618 0.77629643437932982 0 0.38586766253264881 0.78219501014812498 0 0.35415581127540569 0.73730480045900215 0 0.38586766253264881 0.78219501014812498 0 0.42676259796334498 0.76772545931379299 0 0.40326160981139969 0.73346192995102844 0 0.38586766253264881 0.78219501014812498 0 0.35415581127540569 0.73730480045900215 0 0.40326160981139969 0.73346192995102844 0 0.38586766253264881 0.78219501014812498 0 0.42609163930740518 0.80361684430568059 0 0.39536230704883951 0.84069429572832477 0 0.35642984951668422 0.80994399665655703 0 0.38586766253264881 0.78219501014812498 0 0.39536230704883951 0.84069429572832477 0 0.38586766253264881 0.78219501014812498 0 0.42609163930740518 0.80361684430568059 0 0.42676259796334498 0.76772545931379299 0 0.42676259796334498 0.76772545931379299 0 0.4656888918609538 0.78493261229743638 0 0.45582236402875981 0.73896743678908217 0 0.4656888918609538 0.78493261229743638 0 0.45582236402875981 0.73896743678908217 0 0.50945740445113552 0.75476055527778108 0 0.4656888918609538 0.78493261229743638 0 0.50731287292894423 0.78963574450233831 0 0.50945740445113552 0.75476055527778108 0 0.4656888918609538 0.78493261229743638 0 0.50627822638148745 0.8263979829520941 0 0.50731287292894423 0.78963574450233831 0 0.42609163930740518 0.80361684430568059 0 0.4656888918609538 0.78493261229743638 0 0.45677673713123867 0.84253684404072415 0 0.42609163930740518 0.80361684430568059 0 0.42676259796334498 0.76772545931379299 0 0.4656888918609538 0.78493261229743638 0 0.4656888918609538 0.78493261229743638 0 0.45677673713123867 0.84253684404072415 0 0.50627822638148745 0.8263979829520941 0 0.45677673713123867 0.84253684404072415 0 0.50202631463681879 0.87892870825713787 0 0.50627822638148745 0.8263979829520941 0 0.45677673713123867 0.84253684404072415 0 0.44003836461056539 0.88093474584252718 0 0.50202631463681879 0.87892870825713787 0 0.45677673713123867 0.84253684404072415 0 0.39536230704883951 0.84069429572832477 0 0.44003836461056539 0.88093474584252718 0 0.39536230704883951 0.84069429572832477 0 0.39767323751400468 0.89584229130535065 0 0.44003836461056539 0.88093474584252718 0 0.42609163930740518 0.80361684430568059 0 0.45677673713123867 0.84253684404072415 0 0.39536230704883951 0.84069429572832477 0 0.35864759629805099 0.87963482415279515 0 0.39536230704883951 0.84069429572832477 0 0.39767323751400468 0.89584229130535065 0 0.35752321586431363 0.9185439911803448 0 0.39767323751400468 0.89584229130535065 0 0.39641108128798319 0.94356127926187128 0 0.39767323751400468 0.89584229130535065 0 0.4367309254023824 0.92065556789053882 0 0.39641108128798319 0.94356127926187128 0 0.39767323751400468 0.89584229130535065 0 0.4367309254023824 0.92065556789053882 0 0.44003836461056539 0.88093474584252718 0 0.4367309254023824 0.92065556789053882 0 0.44003836461056539 0.88093474584252718 0 0.47401147028110507 0.91529957330468115 0 0.44003836461056539 0.88093474584252718 0 0.47401147028110507 0.91529957330468115 0 0.50202631463681879 0.87892870825713787 0 0.47401147028110507 0.91529957330468115 0 0.47135117303824892 0.95556877749289892 0 0.52122150208832174 0.94089974453840242 0 0.47401147028110507 0.91529957330468115 0 0.52122150208832174 0.94089974453840242 0 0.50202631463681879 0.87892870825713787 0 0.4367309254023824 0.92065556789053882 0 0.47401147028110507 0.91529957330468115 0 0.47135117303824892 0.95556877749289892 0 0.4367309254023824 0.92065556789053882 0 0.47135117303824892 0.95556877749289892 0 0.4308986359464303 0.96395712492906194 0 0.47135117303824892 0.95556877749289892 0 0.50000000000205869 1 0 0.52122150208832174 0.94089974453840242 0 0.47135117303824892 0.95556877749289892 0 0.45000000000187229 1 0 0.50000000000205869 1 0 0.47135117303824892 0.95556877749289892 0 0.45000000000187229 1 0 0.4308986359464303 0.96395712492906194 0 0.45000000000187229 1 0 0.4308986359464303 0.96395712492906194 0 0.40000000000166441 1 0 0.4308986359464303 0.96395712492906194 0 0.39641108128798319 0.94356127926187128 0 0.40000000000166441 1 0 0.4367309254023824 0.92065556789053882 0 0.4308986359464303 0.96395712492906194 0 0.39641108128798319 0.94356127926187128 0 0.36184234618600131 0.96443954459096326 0 0.39641108128798319 0.94356127926187128 0 0.40000000000166441 1 0 0.33122374654748771 0.57588941099433744 0 0.31502927232353312 0.6134992213375432 0 0.35765792684946668 0.6000687869219653 0 0.31502927232353312 0.6134992213375432 0 0.35765792684946668 0.6000687869219653 0 0.35864735590330371 0.63903383440414463 0 0.35765792684946668 0.6000687869219653 0 0.35864735590330371 0.63903383440414463 0 0.39743091024207589 0.6239520004230239 0 0.33122374654748771 0.57588941099433744 0 0.35765792684946668 0.6000687869219653 0 0.37272913873093971 0.56192925302619479 0 0.37272913873093971 0.56192925302619479 0 0.33190227185843768 0.52715113583864037 0 0.38244435121258652 0.51653317813019495 0 0.33122374654748771 0.57588941099433744 0 0.37272913873093971 0.56192925302619479 0 0.33190227185843768 0.52715113583864037 0 0.35024835142131061 0.48654922671676981 0 0.33190227185843768 0.52715113583864037 0 0.38244435121258652 0.51653317813019495 0 0.33122374654748771 0.57588941099433744 0 0.33190227185843768 0.52715113583864037 0 0.29110487519241501 0.56588143995431495 0 0.33190227185843768 0.52715113583864037 0 0.28307294598219601 0.50789252727458634 0 0.29110487519241501 0.56588143995431495 0 0.31068898841644388 0.47541502461811092 0 0.33190227185843768 0.52715113583864037 0 0.28307294598219601 0.50789252727458634 0 0.23975172658309729 0.49475499200540818 0 0.28307294598219601 0.50789252727458634 0 0.25115337790845271 0.54719303014923271 0 0.28307294598219601 0.50789252727458634 0 0.25115337790845271 0.54719303014923271 0 0.29110487519241501 0.56588143995431495 0 0.25115337790845271 0.54719303014923271 0 0.29110487519241501 0.56588143995431495 0 0.26573297623774761 0.59828298563722948 0 0.33122374654748771 0.57588941099433744 0 0.31502927232353312 0.6134992213375432 0 0.29110487519241501 0.56588143995431495 0 0.31502927232353312 0.6134992213375432 0 0.29110487519241501 0.56588143995431495 0 0.26573297623774761 0.59828298563722948 0 0.31502927232353312 0.6134992213375432 0 0.26573297623774761 0.59828298563722948 0 0.27820712747429932 0.65530134213254643 0 0.2459498854893499 0.63248470766216769 0 0.26573297623774761 0.59828298563722948 0 0.27820712747429932 0.65530134213254643 0 0.2236846579037573 0.67380363126050236 0 0.27820712747429932 0.65530134213254643 0 0.26439878998046262 0.7048065392091396 0 0.27820712747429932 0.65530134213254643 0 0.31378396441836959 0.70157213313026345 0 0.32263089806001177 0.66003674931826484 0 0.27820712747429932 0.65530134213254643 0 0.26439878998046262 0.7048065392091396 0 0.31378396441836959 0.70157213313026345 0 0.31502927232353312 0.6134992213375432 0 0.27820712747429932 0.65530134213254643 0 0.32263089806001177 0.66003674931826484 0 0.25676291524611189 0.7436741304886243 0 0.26439878998046262 0.7048065392091396 0 0.29904318922293632 0.74132814928635593 0 0.26439878998046262 0.7048065392091396 0 0.29904318922293632 0.74132814928635593 0 0.31378396441836959 0.70157213313026345 0 0.29904318922293632 0.74132814928635593 0 0.31378396441836959 0.70157213313026345 0 0.35415581127540569 0.73730480045900215 0 0.31378396441836959 0.70157213313026345 0 0.36622285152418499 0.69092437780804039 0 0.35415581127540569 0.73730480045900215 0 0.36622285152418499 0.69092437780804039 0 0.35415581127540569 0.73730480045900215 0 0.40326160981139969 0.73346192995102844 0 0.31502927232353312 0.6134992213375432 0 0.32263089806001177 0.66003674931826484 0 0.35864735590330371 0.63903383440414463 0 0.31378396441836959 0.70157213313026345 0 0.36622285152418499 0.69092437780804039 0 0.32263089806001177 0.66003674931826484 0 0.36622285152418499 0.69092437780804039 0 0.32263089806001177 0.66003674931826484 0 0.35864735590330371 0.63903383440414463 0 0.36622285152418499 0.69092437780804039 0 0.35864735590330371 0.63903383440414463 0 0.3977710372045391 0.65868194622830212 0 0.35864735590330371 0.63903383440414463 0 0.3977710372045391 0.65868194622830212 0 0.39743091024207589 0.6239520004230239 0 0.36622285152418499 0.69092437780804039 0 0.3977710372045391 0.65868194622830212 0 0.43323420005758778 0.6913544522562407 0 0.3977710372045391 0.65868194622830212 0 0.43323420005758778 0.6913544522562407 0 0.43846182030517877 0.64845797726506715 0 0.43846182030517877 0.64845797726506715 0 0.43545892161006339 0.61093128915313821 0 0.39743091024207589 0.6239520004230239 0 0.3977710372045391 0.65868194622830212 0 0.43846182030517877 0.64845797726506715 0 0.39743091024207589 0.6239520004230239 0 0.36622285152418499 0.69092437780804039 0 0.40326160981139969 0.73346192995102844 0 0.43323420005758778 0.6913544522562407 0 0.40326160981139969 0.73346192995102844 0 0.43323420005758778 0.6913544522562407 0 0.45582236402875981 0.73896743678908217 0 0.42676259796334498 0.76772545931379299 0 0.40326160981139969 0.73346192995102844 0 0.45582236402875981 0.73896743678908217 0 0.43323420005758778 0.6913544522562407 0 0.45582236402875981 0.73896743678908217 0 0.5 0.69999999999999996 0 0.45582236402875981 0.73896743678908217 0 0.5 0.69999999999999996 0 0.50945740445113552 0.75476055527778108 0 0.43323420005758778 0.6913544522562407 0 0.47913475093885149 0.66010775372412711 0 0.5 0.69999999999999996 0 0.43846182030517877 0.64845797726506715 0 0.47913475093885149 0.66010775372412711 0 0.47095389620662098 0.61892551373708504 0 0.43846182030517877 0.64845797726506715 0 0.47095389620662098 0.61892551373708504 0 0.43545892161006339 0.61093128915313821 0 0.43323420005758778 0.6913544522562407 0 0.43846182030517877 0.64845797726506715 0 0.47913475093885149 0.66010775372412711 0 0.47913475093885149 0.66010775372412711 0 0.47095389620662098 0.61892551373708504 0 0.50715858906372158 0.63295939104129484 0 0.47095389620662098 0.61892551373708504 0 0.5166924242153631 0.59825134841919447 0 0.50715858906372158 0.63295939104129484 0 0.47095389620662098 0.61892551373708504 0 0.46666084890304671 0.57634471035397938 0 0.5166924242153631 0.59825134841919447 0 0.47095389620662098 0.61892551373708504 0 0.46666084890304671 0.57634471035397938 0 0.43545892161006339 0.61093128915313821 0 0.43545892161006339 0.61093128915313821 0 0.4089290844030305 0.58728915500154233 0 0.39743091024207589 0.6239520004230239 0 0.46666084890304671 0.57634471035397938 0 0.43545892161006339 0.61093128915313821 0 0.4089290844030305 0.58728915500154233 0 0.46666084890304671 0.57634471035397938 0 0.4089290844030305 0.58728915500154233 0 0.42644501560315817 0.54603747078095544 0 0.37272913873093971 0.56192925302619479 0 0.4089290844030305 0.58728915500154233 0 0.42644501560315817 0.54603747078095544 0 0.35765792684946668 0.6000687869219653 0 0.37272913873093971 0.56192925302619479 0 0.4089290844030305 0.58728915500154233 0 0.35765792684946668 0.6000687869219653 0 0.4089290844030305 0.58728915500154233 0 0.39743091024207589 0.6239520004230239 0 0.37272913873093971 0.56192925302619479 0 0.38244435121258652 0.51653317813019495 0 0.42644501560315817 0.54603747078095544 0 0.43507373378304309 0.49699695397193322 0 0.38244435121258652 0.51653317813019495 0 0.42644501560315817 0.54603747078095544 0 0.46666084890304671 0.57634471035397938 0 0.47793794143994173 0.52940715638744962 0 0.53245488764484505 0.55078124999999989 0 0.43507373378304309 0.49699695397193322 0 0.49102375406324739 0.49123754822244059 0 0.47793794143994173 0.52940715638744962 0 0.43507373378304309 0.49699695397193322 0 0.42644501560315817 0.54603747078095544 0 0.47793794143994173 0.52940715638744962 0 0.46666084890304671 0.57634471035397938 0 0.42644501560315817 0.54603747078095544 0 0.47793794143994173 0.52940715638744962 0 0.49102375406324739 0.49123754822244059 0 0.47793794143994173 0.52940715638744962 0 0.53330375813596242 0.50827942741749099 0 0.47793794143994173 0.52940715638744962 0 0.53245488764484505 0.55078124999999989 0 0.53330375813596242 0.50827942741749099 0 0.53245488764484505 0.55078124999999989 0 0.53330375813596242 0.50827942741749099 0 0.57435499076887508 0.54267261987897775 0 0.53245488764484505 0.55078124999999989 0 0.57435499076887508 0.54267261987897775 0 0.57412547362576272 0.58273804879550706 0 0.53330375813596242 0.50827942741749099 0 0.57611405284611883 0.50165903596042916 0 0.57435499076887508 0.54267261987897775 0 0.57611405284611883 0.50165903596042916 0 0.57435499076887508 0.54267261987897775 0 0.62042975506801734 0.54295974692364424 0 0.57435499076887508 0.54267261987897775 0 0.62042975506801734 0.54295974692364424 0 0.57412547362576272 0.58273804879550706 0 0.57611405284611883 0.50165903596042916 0 0.62042975506801734 0.54295974692364424 0 0.61547661924074692 0.48539576058873962 0 0.5991018319127801 0.62925360607495295 0 0.6405463747586706 0.63290524857395714 0 0.63065402604362242 0.59661356661633302 0 0.57412547362576272 0.58273804879550706 0 0.5991018319127801 0.62925360607495295 0 0.63065402604362242 0.59661356661633302 0 0.62042975506801734 0.54295974692364424 0 0.57412547362576272 0.58273804879550706 0 0.63065402604362242 0.59661356661633302 0 0.57412547362576272 0.58273804879550706 0 0.5498280205245758 0.6290146943450976 0 0.5991018319127801 0.62925360607495295 0 0.46666084890304671 0.57634471035397938 0 0.53245488764484505 0.55078124999999989 0 0.5166924242153631 0.59825134841919447 0 0.57412547362576272 0.58273804879550706 0 0.5166924242153631 0.59825134841919447 0 0.5498280205245758 0.6290146943450976 0 0.53245488764484505 0.55078124999999989 0 0.57412547362576272 0.58273804879550706 0 0.5166924242153631 0.59825134841919447 0 0.5166924242153631 0.59825134841919447 0 0.50715858906372158 0.63295939104129484 0 0.5498280205245758 0.6290146943450976 0 0.47913475093885149 0.66010775372412711 0 0.50715858906372158 0.63295939104129484 0 0.52584555706968406 0.66664215091846768 0 0.50715858906372158 0.63295939104129484 0 0.52584555706968406 0.66664215091846768 0 0.5498280205245758 0.6290146943450976 0 0.47913475093885149 0.66010775372412711 0 0.52584555706968406 0.66664215091846768 0 0.5 0.69999999999999996 0 0.52584555706968406 0.66664215091846768 0 0.54999999999999993 0.69999999999999996 0 0.57484956128872922 0.66573805030881994 0 0.52584555706968406 0.66664215091846768 0 0.5498280205245758 0.6290146943450976 0 0.57484956128872922 0.66573805030881994 0 0.5 0.69999999999999996 0 0.55363780716230748 0.74348740161571747 0 0.50945740445113552 0.75476055527778108 0 0.52584555706968406 0.66664215091846768 0 0.5 0.69999999999999996 0 0.54999999999999993 0.69999999999999996 0 0.5 0.69999999999999996 0 0.54999999999999993 0.69999999999999996 0 0.5 0.69999999999999996 0 0.54999999999999993 0.69999999999999996 0 0.55363780716230748 0.74348740161571747 0 0.55363780716230748 0.74348740161571747 0 0.59999999999999976 0.69999999999999996 0 0.59636844454254345 0.75937156204589151 0 0.54999999999999993 0.69999999999999996 0 0.59999999999999976 0.69999999999999996 0 0.54999999999999993 0.69999999999999996 0 0.59999999999999976 0.69999999999999996 0 0.57484956128872922 0.66573805030881994 0 0.54999999999999993 0.69999999999999996 0 0.55363780716230748 0.74348740161571747 0 0.59999999999999976 0.69999999999999996 0 0.59999999999999976 0.69999999999999996 0 0.6499999999999998 0.69999999999999996 0 0.59999999999999976 0.69999999999999996 0 0.62460753523532009 0.66851202781000296 0 0.6499999999999998 0.69999999999999996 0 0.59999999999999976 0.69999999999999996 0 0.63221990677827677 0.73442891067859706 0 0.59636844454254345 0.75937156204589151 0 0.5498280205245758 0.6290146943450976 0 0.57484956128872922 0.66573805030881994 0 0.5991018319127801 0.62925360607495295 0 0.59999999999999976 0.69999999999999996 0 0.57484956128872922 0.66573805030881994 0 0.62460753523532009 0.66851202781000296 0 0.57484956128872922 0.66573805030881994 0 0.62460753523532009 0.66851202781000296 0 0.5991018319127801 0.62925360607495295 0 0.62460753523532009 0.66851202781000296 0 0.5991018319127801 0.62925360607495295 0 0.6405463747586706 0.63290524857395714 0 0.62460753523532009 0.66851202781000296 0 0.6405463747586706 0.63290524857395714 0 0.675261390228442 0.65996937624687813 0 0.62460753523532009 0.66851202781000296 0 0.675261390228442 0.65996937624687813 0 0.6499999999999998 0.69999999999999996 0 0.675261390228442 0.65996937624687813 0 0.6499999999999998 0.69999999999999996 0 0.69999999999999984 0.69999999999999996 0 0.6405463747586706 0.63290524857395714 0 0.675261390228442 0.65996937624687813 0 0.67529834988829951 0.61613270668143583 0 0.63221990677827677 0.73442891067859706 0 0.66427993341343905 0.73232764502436276 0 0.64753070846764316 0.77332939069435502 0 0.63221990677827677 0.73442891067859706 0 0.6499999999999998 0.69999999999999996 0 0.66427993341343905 0.73232764502436276 0 0.59999999999999976 0.69999999999999996 0 0.63221990677827677 0.73442891067859706 0 0.6499999999999998 0.69999999999999996 0 0.6499999999999998 0.69999999999999996 0 0.69999999999999984 0.69999999999999996 0 0.6499999999999998 0.69999999999999996 0 0.66427993341343905 0.73232764502436276 0 0.69999999999999984 0.69999999999999996 0 0.66427993341343905 0.73232764502436276 0 0.69999999999999984 0.69999999999999996 0 0.6916490518212759 0.75387992374886192 0 0.69999999999999984 0.69999999999999996 0 0.72501250972655151 0.74067302935308721 0 0.6916490518212759 0.75387992374886192 0 0.69999999999999984 0.69999999999999996 0 0.74999999999999989 0.69999999999999996 0 0.72501250972655151 0.74067302935308721 0 0.69999999999999984 0.69999999999999996 0 0.74999999999999989 0.69999999999999996 0 0.72500000000000064 0.67022701834392062 0 0.69999999999999984 0.69999999999999996 0 0.74999999999999989 0.69999999999999996 0 0.74999999999999989 0.69999999999999996 0 0.72501250972655151 0.74067302935308721 0 0.75841349681148107 0.75422312624214749 0 0.675261390228442 0.65996937624687813 0 0.71406021706547751 0.63292083137662503 0 0.72500000000000064 0.67022701834392062 0 0.675261390228442 0.65996937624687813 0 0.71406021706547751 0.63292083137662503 0 0.67529834988829951 0.61613270668143583 0 0.675261390228442 0.65996937624687813 0 0.69999999999999984 0.69999999999999996 0 0.72500000000000064 0.67022701834392062 0 0.71406021706547751 0.63292083137662503 0 0.72500000000000064 0.67022701834392062 0 0.74994237037456724 0.62775548192980357 0 0.72500000000000064 0.67022701834392062 0 0.74994237037456724 0.62775548192980357 0 0.7750489929959945 0.66593931409600093 0 0.71406021706547751 0.63292083137662503 0 0.74994237037456724 0.62775548192980357 0 0.71809016091162536 0.58185040402320831 0 0.74994237037456724 0.62775548192980357 0 0.71809016091162536 0.58185040402320831 0 0.77293540622714185 0.59448302402785813 0 0.71406021706547751 0.63292083137662503 0 0.71809016091162536 0.58185040402320831 0 0.67529834988829951 0.61613270668143583 0 0.71809016091162536 0.58185040402320831 0 0.67569444444444449 0.53500863336860327 0 0.67323294229744413 0.57556450033612505 0 0.71809016091162536 0.58185040402320831 0 0.67529834988829951 0.61613270668143583 0 0.67323294229744413 0.57556450033612505 0 0.71809016091162536 0.58185040402320831 0 0.7152569930854884 0.5237994455134295 0 0.77151014687832564 0.54436834383023036 0 0.7152569930854884 0.5237994455134295 0 0.77151014687832564 0.54436834383023036 0 0.73947346780852752 0.49062440112282169 0 0.7152569930854884 0.5237994455134295 0 0.67569444444444449 0.53500863336860327 0 0.69385896817107129 0.48377516041410151 0 0.71809016091162536 0.58185040402320831 0 0.7152569930854884 0.5237994455134295 0 0.67569444444444449 0.53500863336860327 0 0.62042975506801734 0.54295974692364424 0 0.67569444444444449 0.53500863336860327 0 0.67323294229744413 0.57556450033612505 0 0.67569444444444449 0.53500863336860327 0 0.6541250972820879 0.49999999999999989 0 0.69385896817107129 0.48377516041410151 0 0.62042975506801734 0.54295974692364424 0 0.67569444444444449 0.53500863336860327 0 0.6541250972820879 0.49999999999999989 0 0.62042975506801734 0.54295974692364424 0 0.61547661924074692 0.48539576058873962 0 0.6541250972820879 0.49999999999999989 0 0.62042975506801734 0.54295974692364424 0 0.63065402604362242 0.59661356661633302 0 0.67323294229744413 0.57556450033612505 0 0.6405463747586706 0.63290524857395714 0 0.63065402604362242 0.59661356661633302 0 0.67529834988829951 0.61613270668143583 0 0.63065402604362242 0.59661356661633302 0 0.67529834988829951 0.61613270668143583 0 0.67323294229744413 0.57556450033612505 0 0.60000000000138687 1 0 0.62065498684670595 0.95224934003983619 0 0.57382506491224949 0.9629411906298494 0 0.60000000000138687 1 0 0.62065498684670595 0.95224934003983619 0 0.65000000000104008 1 0 0.62065498684670595 0.95224934003983619 0 0.57382506491224949 0.9629411906298494 0 0.57724883562309992 0.92155686857100794 0 0.60000000000138687 1 0 0.57382506491224949 0.9629411906298494 0 0.55000000000173355 1 0 0.55000000000173355 1 0 0.50000000000205869 1 0 0.52122150208832174 0.94089974453840242 0 0.57382506491224949 0.9629411906298494 0 0.52122150208832174 0.94089974453840242 0 0.57724883562309992 0.92155686857100794 0 0.57382506491224949 0.9629411906298494 0 0.55000000000173355 1 0 0.52122150208832174 0.94089974453840242 0 0.52122150208832174 0.94089974453840242 0 0.54783390826260769 0.89287767010860219 0 0.57724883562309992 0.92155686857100794 0 0.52122150208832174 0.94089974453840242 0 0.50202631463681879 0.87892870825713787 0 0.54783390826260769 0.89287767010860219 0 0.54783390826260769 0.89287767010860219 0 0.5832743223239254 0.88483152652961872 0 0.55899371797446828 0.85003102233514438 0 0.54783390826260769 0.89287767010860219 0 0.5832743223239254 0.88483152652961872 0 0.57724883562309992 0.92155686857100794 0 0.5832743223239254 0.88483152652961872 0 0.57724883562309992 0.92155686857100794 0 0.61885627562261258 0.90282959257498208 0 0.62065498684670595 0.95224934003983619 0 0.57724883562309992 0.92155686857100794 0 0.61885627562261258 0.90282959257498208 0 0.5832743223239254 0.88483152652961872 0 0.61885627562261258 0.90282959257498208 0 0.61343887413683884 0.856862479058357 0 0.61343887413683884 0.856862479058357 0 0.60294066490120068 0.80851322453934582 0 0.65005442820240822 0.82644988530054031 0 0.61343887413683884 0.856862479058357 0 0.55899371797446828 0.85003102233514438 0 0.60294066490120068 0.80851322453934582 0 0.55899371797446828 0.85003102233514438 0 0.54782696902220018 0.79245182748204157 0 0.60294066490120068 0.80851322453934582 0 0.5832743223239254 0.88483152652961872 0 0.61343887413683884 0.856862479058357 0 0.55899371797446828 0.85003102233514438 0 0.50202631463681879 0.87892870825713787 0 0.54783390826260769 0.89287767010860219 0 0.55899371797446828 0.85003102233514438 0 0.50202631463681879 0.87892870825713787 0 0.55899371797446828 0.85003102233514438 0 0.50627822638148745 0.8263979829520941 0 0.55899371797446828 0.85003102233514438 0 0.50627822638148745 0.8263979829520941 0 0.54782696902220018 0.79245182748204157 0 0.50627822638148745 0.8263979829520941 0 0.54782696902220018 0.79245182748204157 0 0.50731287292894423 0.78963574450233831 0 0.54782696902220018 0.79245182748204157 0 0.50731287292894423 0.78963574450233831 0 0.50945740445113552 0.75476055527778108 0 0.55363780716230748 0.74348740161571747 0 0.54782696902220018 0.79245182748204157 0 0.50945740445113552 0.75476055527778108 0 0.55363780716230748 0.74348740161571747 0 0.54782696902220018 0.79245182748204157 0 0.59636844454254345 0.75937156204589151 0 0.54782696902220018 0.79245182748204157 0 0.60294066490120068 0.80851322453934582 0 0.59636844454254345 0.75937156204589151 0 0.60294066490120068 0.80851322453934582 0 0.59636844454254345 0.75937156204589151 0 0.64753070846764316 0.77332939069435502 0 0.63221990677827677 0.73442891067859706 0 0.59636844454254345 0.75937156204589151 0 0.64753070846764316 0.77332939069435502 0 0.60294066490120068 0.80851322453934582 0 0.64753070846764316 0.77332939069435502 0 0.65005442820240822 0.82644988530054031 0 0.64753070846764316 0.77332939069435502 0 0.68024162096458085 0.79868546898116533 0 0.65005442820240822 0.82644988530054031 0 0.64753070846764316 0.77332939069435502 0 0.68024162096458085 0.79868546898116533 0 0.6916490518212759 0.75387992374886192 0 0.66427993341343905 0.73232764502436276 0 0.64753070846764316 0.77332939069435502 0 0.6916490518212759 0.75387992374886192 0 0.72501250972655151 0.74067302935308721 0 0.6916490518212759 0.75387992374886192 0 0.72500000000000064 0.7952620967744265 0 0.72501250972655151 0.74067302935308721 0 0.72500000000000064 0.7952620967744265 0 0.75841349681148107 0.75422312624214749 0 0.68024162096458085 0.79868546898116533 0 0.6916490518212759 0.75387992374886192 0 0.72500000000000064 0.7952620967744265 0 0.68024162096458085 0.79868546898116533 0 0.72500000000000064 0.7952620967744265 0 0.68697391633157634 0.84450604838764298 0 0.72500000000000064 0.7952620967744265 0 0.72863726579783861 0.85390518901155588 0 0.68697391633157634 0.84450604838764298 0 0.72500000000000064 0.7952620967744265 0 0.72863726579783861 0.85390518901155588 0 0.76901770135486491 0.84293557325473656 0 0.72863726579783861 0.85390518901155588 0 0.68697391633157634 0.84450604838764298 0 0.7250000000005199 0.89375000000045834 0 0.68697391633157634 0.84450604838764298 0 0.66412543161245952 0.88015090885499059 0 0.7250000000005199 0.89375000000045834 0 0.68697391633157634 0.84450604838764298 0 0.65005442820240822 0.82644988530054031 0 0.66412543161245952 0.88015090885499059 0 0.68024162096458085 0.79868546898116533 0 0.68697391633157634 0.84450604838764298 0 0.65005442820240822 0.82644988530054031 0 0.61343887413683884 0.856862479058357 0 0.65005442820240822 0.82644988530054031 0 0.66412543161245952 0.88015090885499059 0 0.61885627562261258 0.90282959257498208 0 0.61343887413683884 0.856862479058357 0 0.66412543161245952 0.88015090885499059 0 0.61885627562261258 0.90282959257498208 0 0.65507451745379841 0.92229208810758578 0 0.66412543161245952 0.88015090885499059 0 0.62065498684670595 0.95224934003983619 0 0.61885627562261258 0.90282959257498208 0 0.65507451745379841 0.92229208810758578 0 0.65507451745379841 0.92229208810758578 0 0.68987011941058407 0.92105047536677087 0 0.68015064798562208 0.95924320340003011 0 0.65507451745379841 0.92229208810758578 0 0.66412543161245952 0.88015090885499059 0 0.68987011941058407 0.92105047536677087 0 0.66412543161245952 0.88015090885499059 0 0.7250000000005199 0.89375000000045834 0 0.68987011941058407 0.92105047536677087 0 0.72863726579783861 0.85390518901155588 0 0.7250000000005199 0.89375000000045834 0 0.76891166905518427 0.88835469571185499 0 0.7250000000005199 0.89375000000045834 0 0.7250000000005199 0.94981617647078953 0 0.75729602384198635 0.92353652857884294 0 0.7250000000005199 0.89375000000045834 0 0.68987011941058407 0.92105047536677087 0 0.7250000000005199 0.94981617647078953 0 0.68987011941058407 0.92105047536677087 0 0.7250000000005199 0.94981617647078953 0 0.68015064798562208 0.95924320340003011 0 0.7250000000005199 0.94981617647078953 0 0.7000000000006934 1 0 0.75000000000034661 1 0 0.7250000000005199 0.94981617647078953 0 0.75000000000034661 1 0 0.770759834363826 0.95919399014344442 0 0.7250000000005199 0.94981617647078953 0 0.7000000000006934 1 0 0.68015064798562208 0.95924320340003011 0 0.7000000000006934 1 0 0.68015064798562208 0.95924320340003011 0 0.65000000000104008 1 0 0.62065498684670595 0.95224934003983619 0 0.65507451745379841 0.92229208810758578 0 0.68015064798562208 0.95924320340003011 0 0.62065498684670595 0.95224934003983619 0 0.68015064798562208 0.95924320340003011 0 0.65000000000104008 1 0 0.84999999999965292 1 0 0.85170973911348691 0.93569607295217616 0 0.89898474358632463 0.95391965591118966 0 0.84999999999965292 1 0 0.81486180804382891 0.96321394949790495 0 0.85170973911348691 0.93569607295217616 0 0.81486180804382891 0.96321394949790495 0 0.79680861578988083 0.92656778056766709 0 0.85170973911348691 0.93569607295217616 0 0.84999999999965292 1 0 0.81486180804382891 0.96321394949790495 0 0.79999999999999982 1 0 0.81486180804382891 0.96321394949790495 0 0.79999999999999982 1 0 0.770759834363826 0.95919399014344442 0 0.79999999999999982 1 0 0.75000000000034661 1 0 0.770759834363826 0.95919399014344442 0 0.7250000000005199 0.94981617647078953 0 0.770759834363826 0.95919399014344442 0 0.75729602384198635 0.92353652857884294 0 0.81486180804382891 0.96321394949790495 0 0.770759834363826 0.95919399014344442 0 0.79680861578988083 0.92656778056766709 0 0.79680861578988083 0.92656778056766709 0 0.75729602384198635 0.92353652857884294 0 0.76891166905518427 0.88835469571185499 0 0.770759834363826 0.95919399014344442 0 0.79680861578988083 0.92656778056766709 0 0.75729602384198635 0.92353652857884294 0 0.7250000000005199 0.89375000000045834 0 0.75729602384198635 0.92353652857884294 0 0.76891166905518427 0.88835469571185499 0 0.79680861578988083 0.92656778056766709 0 0.76891166905518427 0.88835469571185499 0 0.81159157511211755 0.88795995483179491 0 0.81159157511211755 0.88795995483179491 0 0.85170973911348691 0.93569607295217616 0 0.85600844944837662 0.88483418979512773 0 0.79680861578988083 0.92656778056766709 0 0.81159157511211755 0.88795995483179491 0 0.85170973911348691 0.93569607295217616 0 0.85170973911348691 0.93569607295217616 0 0.85600844944837662 0.88483418979512773 0 0.90416666666660628 0.9041666666666166 0 0.85600844944837662 0.88483418979512773 0 0.82709327591091286 0.84937141670920724 0 0.88088768115933802 0.84674609810493673 0 0.82709327591091286 0.84937141670920724 0 0.84725310900444062 0.80779732082917555 0 0.88088768115933802 0.84674609810493673 0 0.82709327591091286 0.84937141670920724 0 0.80041942726660109 0.81543261647703358 0 0.84725310900444062 0.80779732082917555 0 0.81159157511211755 0.88795995483179491 0 0.85600844944837662 0.88483418979512773 0 0.82709327591091286 0.84937141670920724 0 0.76891166905518427 0.88835469571185499 0 0.81159157511211755 0.88795995483179491 0 0.76901770135486491 0.84293557325473656 0 0.81159157511211755 0.88795995483179491 0 0.82709327591091286 0.84937141670920724 0 0.76901770135486491 0.84293557325473656 0 0.72863726579783861 0.85390518901155588 0 0.76891166905518427 0.88835469571185499 0 0.76901770135486491 0.84293557325473656 0 0.76901770135486491 0.84293557325473656 0 0.80041942726660109 0.81543261647703358 0 0.77094201086366854 0.79647480515688507 0 0.82709327591091286 0.84937141670920724 0 0.76901770135486491 0.84293557325473656 0 0.80041942726660109 0.81543261647703358 0 0.80041942726660109 0.81543261647703358 0 0.77094201086366854 0.79647480515688507 0 0.80185942888539485 0.77452061303608133 0 0.72500000000000064 0.7952620967744265 0 0.77094201086366854 0.79647480515688507 0 0.75841349681148107 0.75422312624214749 0 0.72500000000000064 0.7952620967744265 0 0.76901770135486491 0.84293557325473656 0 0.77094201086366854 0.79647480515688507 0 0.77094201086366854 0.79647480515688507 0 0.75841349681148107 0.75422312624214749 0 0.80185942888539485 0.77452061303608133 0 0.75841349681148107 0.75422312624214749 0 0.80185942888539485 0.77452061303608133 0 0.78578450296893509 0.73292684821144505 0 0.80185942888539485 0.77452061303608133 0 0.84725310900444062 0.80779732082917555 0 0.85491058998424563 0.76004753345552634 0 0.80185942888539485 0.77452061303608133 0 0.85491058998424563 0.76004753345552634 0 0.81864958914779962 0.73589050177899629 0 0.80041942726660109 0.81543261647703358 0 0.80185942888539485 0.77452061303608133 0 0.84725310900444062 0.80779732082917555 0 0.84725310900444062 0.80779732082917555 0 0.85491058998424563 0.76004753345552634 0 0.90299850604011456 0.79563452813489832 0 0.85491058998424563 0.76004753345552634 0 0.90299850604011456 0.79563452813489832 0 0.89999166460796554 0.74528934923809909 0 0.90299850604011456 0.79563452813489832 0 0.94399509803918602 0.75600490196082126 0 0.95386563387742829 0.80414874155775029 0 0.90299850604011456 0.79563452813489832 0 0.94399509803918602 0.75600490196082126 0 0.89999166460796554 0.74528934923809909 0 0.94399509803918602 0.75600490196082126 0 0.97435614836745565 0.77499999999987745 0 0.95386563387742829 0.80414874155775029 0 0.94399509803918602 0.75600490196082126 0 0.97435614836745565 0.77499999999987745 0 0.97166519676947294 0.73337114490064459 0 0.97435614836745565 0.77499999999987745 0 0.97166519676947294 0.73337114490064459 0 1 0.74999999999993494 0 0.97435614836745565 0.77499999999987745 0 1 0.7999999999998193 0 1 0.74999999999993494 0 0.97435614836745565 0.77499999999987745 0 1 0.7999999999998193 0 0.95386563387742829 0.80414874155775029 0 1 0.84999999999982645 0 0.93677536231884972 0.85000000000000286 0 0.95391631417670719 0.89584263333814784 0 0.95386563387742829 0.80414874155775029 0 1 0.84999999999982645 0 0.93677536231884972 0.85000000000000286 0 1 0.7999999999998193 0 0.95386563387742829 0.80414874155775029 0 1 0.84999999999982645 0 0.93677536231884972 0.85000000000000286 0 0.88088768115933802 0.84674609810493673 0 0.90416666666660628 0.9041666666666166 0 0.90299850604011456 0.79563452813489832 0 0.95386563387742829 0.80414874155775029 0 0.93677536231884972 0.85000000000000286 0 0.90299850604011456 0.79563452813489832 0 0.93677536231884972 0.85000000000000286 0 0.88088768115933802 0.84674609810493673 0 0.84725310900444062 0.80779732082917555 0 0.90299850604011456 0.79563452813489832 0 0.88088768115933802 0.84674609810493673 0 0.85600844944837662 0.88483418979512773 0 0.88088768115933802 0.84674609810493673 0 0.90416666666660628 0.9041666666666166 0 0.85170973911348691 0.93569607295217616 0 0.90416666666660628 0.9041666666666166 0 0.89898474358632463 0.95391965591118966 0 0.90416666666660628 0.9041666666666166 0 0.95391631417670719 0.89584263333814784 0 0.94399509803919068 0.9439950980391687 0 0.90416666666660628 0.9041666666666166 0 0.94399509803919068 0.9439950980391687 0 0.89898474358632463 0.95391965591118966 0 0.93677536231884972 0.85000000000000286 0 0.90416666666660628 0.9041666666666166 0 0.95391631417670719 0.89584263333814784 0 1 0.84999999999982645 0 0.95391631417670719 0.89584263333814784 0 1 0.8999999999998336 0 1 0.8999999999998336 0 0.97435614836744289 0.92499999999990257 0 1 0.94999999999997109 0 0.95391631417670719 0.89584263333814784 0 1 0.8999999999998336 0 0.97435614836744289 0.92499999999990257 0 0.95391631417670719 0.89584263333814784 0 0.97435614836744289 0.92499999999990257 0 0.94399509803919068 0.9439950980391687 0 0.97435614836744289 0.92499999999990257 0 0.94399509803919068 0.9439950980391687 0 0.97166519676946206 0.96662885509935492 0 0.97435614836744289 0.92499999999990257 0 0.97166519676946206 0.96662885509935492 0 1 0.94999999999997109 0 0.97166519676946206 0.96662885509935492 0 1 0.94999999999997109 0 1 1 0 0.97166519676946206 0.96662885509935492 0 1 1 0 0.94999999999979179 1 0 0.94399509803919068 0.9439950980391687 0 0.97166519676946206 0.96662885509935492 0 0.94999999999979179 1 0 0.94999999999979179 1 0 0.89898474358632463 0.95391965591118966 0 0.89999999999958358 1 0 0.94399509803919068 0.9439950980391687 0 0.94999999999979179 1 0 0.89898474358632463 0.95391965591118966 0 0.84999999999965292 1 0 0.89898474358632463 0.95391965591118966 0 0.89999999999958358 1 0 0.81723410853263523 0.59419663659258926 0 0.86956835336234861 0.571283299838105 0 0.82862096804812391 0.55037090955459045 0 0.81723410853263523 0.59419663659258926 0 0.87159648282691515 0.61285406320581504 0 0.83758014339878906 0.63222013025741819 0 0.81723410853263523 0.59419663659258926 0 0.79884539758237771 0.62875045078114233 0 0.83758014339878906 0.63222013025741819 0 0.81723410853263523 0.59419663659258926 0 0.87159648282691515 0.61285406320581504 0 0.86956835336234861 0.571283299838105 0 0.86956835336234861 0.571283299838105 0 0.86907294890112186 0.52008116128001669 0 0.82862096804812391 0.55037090955459045 0 0.86907294890112186 0.52008116128001669 0 0.81441713509985358 0.51161854125224959 0 0.82862096804812391 0.55037090955459045 0 0.86907294890112186 0.52008116128001669 0 0.81441713509985358 0.51161854125224959 0 0.84723782639812573 0.48638347960178252 0 0.81441713509985358 0.51161854125224959 0 0.82862096804812391 0.55037090955459045 0 0.77151014687832564 0.54436834383023036 0 0.81441713509985358 0.51161854125224959 0 0.77151014687832564 0.54436834383023036 0 0.77846603114747959 0.49850927265137401 0 0.77151014687832564 0.54436834383023036 0 0.77846603114747959 0.49850927265137401 0 0.73947346780852752 0.49062440112282169 0 0.71809016091162536 0.58185040402320831 0 0.77151014687832564 0.54436834383023036 0 0.77293540622714185 0.59448302402785813 0 0.81723410853263523 0.59419663659258926 0 0.77151014687832564 0.54436834383023036 0 0.77293540622714185 0.59448302402785813 0 0.81723410853263523 0.59419663659258926 0 0.82862096804812391 0.55037090955459045 0 0.77151014687832564 0.54436834383023036 0 0.81723410853263523 0.59419663659258926 0 0.77293540622714185 0.59448302402785813 0 0.79884539758237771 0.62875045078114233 0 0.74994237037456724 0.62775548192980357 0 0.77293540622714185 0.59448302402785813 0 0.79884539758237771 0.62875045078114233 0 0.74994237037456724 0.62775548192980357 0 0.7750489929959945 0.66593931409600093 0 0.79884539758237771 0.62875045078114233 0 0.74999999999999989 0.69999999999999996 0 0.72500000000000064 0.67022701834392062 0 0.7750489929959945 0.66593931409600093 0 0.7750489929959945 0.66593931409600093 0 0.79999999999999982 0.69999999999999996 0 0.82457059160610424 0.66831947184359608 0 0.7750489929959945 0.66593931409600093 0 0.79884539758237771 0.62875045078114233 0 0.82457059160610424 0.66831947184359608 0 0.74999999999999989 0.69999999999999996 0 0.75841349681148107 0.75422312624214749 0 0.78578450296893509 0.73292684821144505 0 0.74999999999999989 0.69999999999999996 0 0.79999999999999982 0.69999999999999996 0 0.78578450296893509 0.73292684821144505 0 0.74999999999999989 0.69999999999999996 0 0.7750489929959945 0.66593931409600093 0 0.79999999999999982 0.69999999999999996 0 0.74999999999999989 0.69999999999999996 0 0.79999999999999982 0.69999999999999996 0 0.80185942888539485 0.77452061303608133 0 0.78578450296893509 0.73292684821144505 0 0.81864958914779962 0.73589050177899629 0 0.79999999999999982 0.69999999999999996 0 0.78578450296893509 0.73292684821144505 0 0.81864958914779962 0.73589050177899629 0 0.85491058998424563 0.76004753345552634 0 0.81864958914779962 0.73589050177899629 0 0.84999999999999987 0.69999999999999996 0 0.79999999999999982 0.69999999999999996 0 0.84999999999999987 0.69999999999999996 0 0.79999999999999982 0.69999999999999996 0 0.84999999999999987 0.69999999999999996 0 0.82457059160610424 0.66831947184359608 0 0.79999999999999982 0.69999999999999996 0 0.81864958914779962 0.73589050177899629 0 0.84999999999999987 0.69999999999999996 0 0.84999999999999987 0.69999999999999996 0 0.89999999999999991 0.69999999999999996 0 0.85491058998424563 0.76004753345552634 0 0.84999999999999987 0.69999999999999996 0 0.89999166460796554 0.74528934923809909 0 0.79884539758237771 0.62875045078114233 0 0.83758014339878906 0.63222013025741819 0 0.82457059160610424 0.66831947184359608 0 0.84999999999999987 0.69999999999999996 0 0.82457059160610424 0.66831947184359608 0 0.87712158428786946 0.65709029563313581 0 0.87159648282691515 0.61285406320581504 0 0.83758014339878906 0.63222013025741819 0 0.87712158428786946 0.65709029563313581 0 0.83758014339878906 0.63222013025741819 0 0.82457059160610424 0.66831947184359608 0 0.87712158428786946 0.65709029563313581 0 0.87712158428786946 0.65709029563313581 0 0.92057473616084773 0.66770436535372446 0 0.91750694127105259 0.63017627779935648 0 0.87159648282691515 0.61285406320581504 0 0.87712158428786946 0.65709029563313581 0 0.91750694127105259 0.63017627779935648 0 0.84999999999999987 0.69999999999999996 0 0.87712158428786946 0.65709029563313581 0 0.89999999999999991 0.69999999999999996 0 0.87712158428786946 0.65709029563313581 0 0.92057473616084773 0.66770436535372446 0 0.89999999999999991 0.69999999999999996 0 0.92057473616084773 0.66770436535372446 0 0.91750694127105259 0.63017627779935648 0 0.9578014258160763 0.65787212321113708 0 0.84999999999999987 0.69999999999999996 0 0.89999166460796554 0.74528934923809909 0 0.89999999999999991 0.69999999999999996 0 0.89999999999999991 0.69999999999999996 0 0.94999999999999996 0.69999999999999996 0 0.92057473616084773 0.66770436535372446 0 0.89999999999999991 0.69999999999999996 0 0.94999999999999996 0.69999999999999996 0 0.89999166460796554 0.74528934923809909 0 0.89999999999999991 0.69999999999999996 0 0.94999999999999996 0.69999999999999996 0 0.94399509803918602 0.75600490196082126 0 0.89999166460796554 0.74528934923809909 0 0.94999999999999996 0.69999999999999996 0 0.94399509803918602 0.75600490196082126 0 0.94999999999999996 0.69999999999999996 0 0.97166519676947294 0.73337114490064459 0 0.94999999999999996 0.69999999999999996 0 1 0.69999999999999996 0 0.94999999999999996 0.69999999999999996 0 1 0.69999999999999996 0 0.97166519676947294 0.73337114490064459 0 1 0.69999999999999996 0 0.97166519676947294 0.73337114490064459 0 1 0.74999999999993494 0 0.91750694127105259 0.63017627779935648 0 0.9578014258160763 0.65787212321113708 0 0.95867599106212187 0.60011091146651041 0 0.92057473616084773 0.66770436535372446 0 0.94999999999999996 0.69999999999999996 0 0.9578014258160763 0.65787212321113708 0 0.94999999999999996 0.69999999999999996 0 1 0.69999999999999996 0 0.9578014258160763 0.65787212321113708 0 1 0.69999999999999996 0 0.9578014258160763 0.65787212321113708 0 1 0.64999999999986979 0 0.9578014258160763 0.65787212321113708 0 1 0.64999999999986979 0 0.95867599106212187 0.60011091146651041 0 0.95867599106212187 0.60011091146651041 0 0.93732437411268477 0.55911392101136159 0 1 0.54999999999963112 0 1 0.64999999999986979 0 1 0.59999999999973963 0 0.95867599106212187 0.60011091146651041 0 1 0.59999999999973963 0 0.95867599106212187 0.60011091146651041 0 1 0.54999999999963112 0 0.91750694127105259 0.63017627779935648 0 0.95867599106212187 0.60011091146651041 0 0.91143117093204207 0.58709913730335972 0 0.95867599106212187 0.60011091146651041 0 0.91143117093204207 0.58709913730335972 0 0.93732437411268477 0.55911392101136159 0 0.86956835336234861 0.571283299838105 0 0.91143117093204207 0.58709913730335972 0 0.90900154012161016 0.53607784105648792 0 0.87159648282691515 0.61285406320581504 0 0.86956835336234861 0.571283299838105 0 0.91143117093204207 0.58709913730335972 0 0.87159648282691515 0.61285406320581504 0 0.91750694127105259 0.63017627779935648 0 0.91143117093204207 0.58709913730335972 0 0.86907294890112186 0.52008116128001669 0 0.90900154012161016 0.53607784105648792 0 0.91696753777131557 0.497780560203536 0 0.86956835336234861 0.571283299838105 0 0.86907294890112186 0.52008116128001669 0 0.90900154012161016 0.53607784105648792 0 0.90900154012161016 0.53607784105648792 0 0.93732437411268477 0.55911392101136159 0 0.95631871884947484 0.51827533208233789 0 0.91143117093204207 0.58709913730335972 0 0.90900154012161016 0.53607784105648792 0 0.93732437411268477 0.55911392101136159 0 0.90900154012161016 0.53607784105648792 0 0.95631871884947484 0.51827533208233789 0 0.91696753777131557 0.497780560203536 0 0.93732437411268477 0.55911392101136159 0 0.95631871884947484 0.51827533208233789 0 1 0.54999999999963112 0 0.95631871884947484 0.51827533208233789 0 1 0.54999999999963112 0 1 0.49999999999950101 0 0.95631871884947484 0.51827533208233789 0 1 0.49999999999950101 0 0.96228564064454991 0.48206450662049471 0 1 0.49999999999950101 0 1 0.44999999999963131 0 0.96228564064454991 0.48206450662049471 0 1 0.44999999999963131 0 0.93814194660195893 0.44426664081746747 0 0.96228564064454991 0.48206450662049471 0 0.93814194660195893 0.44426664081746747 0 0.96228564064454991 0.48206450662049471 0 0.91696753777131557 0.497780560203536 0 0.95631871884947484 0.51827533208233789 0 0.96228564064454991 0.48206450662049471 0 0.91696753777131557 0.497780560203536 0 1 0.39999999999978308 0 0.95871855522754235 0.40006508612975411 0 1 0.34999999999993492 0 1 0.44999999999963131 0 1 0.39999999999978308 0 0.95871855522754235 0.40006508612975411 0 1 0.44999999999963131 0 0.93814194660195893 0.44426664081746747 0 0.95871855522754235 0.40006508612975411 0 0.95871855522754235 0.40006508612975411 0 0.90594285160987287 0.4141265964174129 0 0.91750694127107502 0.36982372220068471 0 0.93814194660195893 0.44426664081746747 0 0.95871855522754235 0.40006508612975411 0 0.90594285160987287 0.4141265964174129 0 0.90594285160987287 0.4141265964174129 0 0.88594198078881503 0.46167788676578442 0 0.86411095495256451 0.42388805655111889 0 0.90594285160987287 0.4141265964174129 0 0.86411095495256451 0.42388805655111889 0 0.86844634540301924 0.38530937474099819 0 0.90594285160987287 0.4141265964174129 0 0.86844634540301924 0.38530937474099819 0 0.91750694127107502 0.36982372220068471 0 0.93814194660195893 0.44426664081746747 0 0.91696753777131557 0.497780560203536 0 0.88594198078881503 0.46167788676578442 0 0.93814194660195893 0.44426664081746747 0 0.90594285160987287 0.4141265964174129 0 0.88594198078881503 0.46167788676578442 0 0.86907294890112186 0.52008116128001669 0 0.91696753777131557 0.497780560203536 0 0.88594198078881503 0.46167788676578442 0 0.86907294890112186 0.52008116128001669 0 0.88594198078881503 0.46167788676578442 0 0.84723782639812573 0.48638347960178252 0 0.81441713509985358 0.51161854125224959 0 0.84723782639812573 0.48638347960178252 0 0.81400510706333218 0.47357325943904899 0 0.84723782639812573 0.48638347960178252 0 0.81400510706333218 0.47357325943904899 0 0.84925632466077294 0.45359738909549091 0 0.81400510706333218 0.47357325943904899 0 0.84925632466077294 0.45359738909549091 0 0.81973119833356312 0.43505687159469048 0 0.88594198078881503 0.46167788676578442 0 0.84723782639812573 0.48638347960178252 0 0.84925632466077294 0.45359738909549091 0 0.84925632466077294 0.45359738909549091 0 0.86411095495256451 0.42388805655111889 0 0.81973119833356312 0.43505687159469048 0 0.88594198078881503 0.46167788676578442 0 0.84925632466077294 0.45359738909549091 0 0.86411095495256451 0.42388805655111889 0 0.86411095495256451 0.42388805655111889 0 0.86844634540301924 0.38530937474099819 0 0.81308179852519835 0.39754945808726527 0 0.86844634540301924 0.38530937474099819 0 0.81308179852519835 0.39754945808726527 0 0.83573492347052902 0.36590755630746369 0 0.86411095495256451 0.42388805655111889 0 0.81308179852519835 0.39754945808726527 0 0.81973119833356312 0.43505687159469048 0 0.81973119833356312 0.43505687159469048 0 0.77354604466818633 0.40378688774472771 0 0.77972660463949339 0.45529290596363098 0 0.81308179852519835 0.39754945808726527 0 0.81973119833356312 0.43505687159469048 0 0.77354604466818633 0.40378688774472771 0 0.81308179852519835 0.39754945808726527 0 0.77354604466818633 0.40378688774472771 0 0.78145581580700685 0.34881365920033602 0 0.77354604466818633 0.40378688774472771 0 0.77972660463949339 0.45529290596363098 0 0.73483647259922602 0.44789725365921768 0 0.77972660463949339 0.45529290596363098 0 0.73483647259922602 0.44789725365921768 0 0.73947346780852752 0.49062440112282169 0 0.77972660463949339 0.45529290596363098 0 0.77846603114747959 0.49850927265137401 0 0.73947346780852752 0.49062440112282169 0 0.81400510706333218 0.47357325943904899 0 0.77972660463949339 0.45529290596363098 0 0.77846603114747959 0.49850927265137401 0 0.81441713509985358 0.51161854125224959 0 0.81400510706333218 0.47357325943904899 0 0.77846603114747959 0.49850927265137401 0 0.81400510706333218 0.47357325943904899 0 0.81973119833356312 0.43505687159469048 0 0.77972660463949339 0.45529290596363098 0 0.79999999999999982 0.29999999999999999 0 0.77075983436335049 0.25919399014334171 0 0.81486180804364938 0.26321394949780091 0 0.79999999999999982 0.29999999999999999 0 0.74999999999999989 0.29999999999999999 0 0.79999999999999982 0.29999999999999999 0 0.77075983436335049 0.25919399014334171 0 0.74999999999999989 0.29999999999999999 0 0.79999999999999982 0.29999999999999999 0 0.78145581580700685 0.34881365920033602 0 0.74999999999999989 0.29999999999999999 0 0.78145581580700685 0.34881365920033602 0 0.73090396928863699 0.33699297293167962 0 0.74999999999999989 0.29999999999999999 0 0.77354604466818633 0.40378688774472771 0 0.78145581580700685 0.34881365920033602 0 0.74764719760526988 0.3719647154012321 0 0.78145581580700685 0.34881365920033602 0 0.74764719760526988 0.3719647154012321 0 0.73090396928863699 0.33699297293167962 0 0.81308179852519835 0.39754945808726527 0 0.78145581580700685 0.34881365920033602 0 0.83573492347052902 0.36590755630746369 0 0.79999999999999982 0.29999999999999999 0 0.78145581580700685 0.34881365920033602 0 0.82500000000000062 0.33010209762754811 0 0.78145581580700685 0.34881365920033602 0 0.82500000000000062 0.33010209762754811 0 0.83573492347052902 0.36590755630746369 0 0.82500000000000062 0.33010209762754811 0 0.83573492347052902 0.36590755630746369 0 0.87430060258887643 0.34056085888204451 0 0.86844634540301924 0.38530937474099819 0 0.83573492347052902 0.36590755630746369 0 0.87430060258887643 0.34056085888204451 0 0.82500000000000062 0.33010209762754811 0 0.87430060258887643 0.34056085888204451 0 0.84999999999999987 0.29999999999999999 0 0.87430060258887643 0.34056085888204451 0 0.84999999999999987 0.29999999999999999 0 0.89999999999999991 0.29999999999999999 0 0.84999999999999987 0.29999999999999999 0 0.81486180804364938 0.26321394949780091 0 0.8517097391133297 0.2356960729520409 0 0.84999999999999987 0.29999999999999999 0 0.89898474358614167 0.25391965591104898 0 0.8517097391133297 0.2356960729520409 0 0.84999999999999987 0.29999999999999999 0 0.89999999999999991 0.29999999999999999 0 0.79999999999999982 0.29999999999999999 0 0.82500000000000062 0.33010209762754811 0 0.84999999999999987 0.29999999999999999 0 0.79999999999999982 0.29999999999999999 0 0.84999999999999987 0.29999999999999999 0 0.81486180804364938 0.26321394949780091 0 0.79999999999999982 0.29999999999999999 0 0.84999999999999987 0.29999999999999999 0 0.84999999999999987 0.29999999999999999 0 0.89898474358614167 0.25391965591104898 0 0.89999999999999991 0.29999999999999999 0 0.89999999999999991 0.29999999999999999 0 0.94999999999999996 0.29999999999999999 0 0.89999999999999991 0.29999999999999999 0 0.92012390126144183 0.33123581297173937 0 0.94999999999999996 0.29999999999999999 0 0.89898474358614167 0.25391965591104898 0 0.89999999999999991 0.29999999999999999 0 0.94999999999999996 0.29999999999999999 0 0.89898474358614167 0.25391965591104898 0 0.94999999999999996 0.29999999999999999 0 0.94399509803921056 0.24399509803922639 0 0.86844634540301924 0.38530937474099819 0 0.87430060258887643 0.34056085888204451 0 0.91750694127107502 0.36982372220068471 0 0.87430060258887643 0.34056085888204451 0 0.92012390126144183 0.33123581297173937 0 0.91750694127107502 0.36982372220068471 0 0.87430060258887643 0.34056085888204451 0 0.89999999999999991 0.29999999999999999 0 0.92012390126144183 0.33123581297173937 0 0.92012390126144183 0.33123581297173937 0 0.91750694127107502 0.36982372220068471 0 0.95780851984364423 0.34215720972155339 0 0.95871855522754235 0.40006508612975411 0 0.91750694127107502 0.36982372220068471 0 0.95780851984364423 0.34215720972155339 0 0.92012390126144183 0.33123581297173937 0 0.95780851984364423 0.34215720972155339 0 0.94999999999999996 0.29999999999999999 0 0.95780851984364423 0.34215720972155339 0 0.94999999999999996 0.29999999999999999 0 1 0.29999999999999999 0 0.95780851984364423 0.34215720972155339 0 1 0.34999999999993492 0 1 0.29999999999999999 0 0.95871855522754235 0.40006508612975411 0 0.95780851984364423 0.34215720972155339 0 1 0.34999999999993492 0 0.94999999999999996 0.29999999999999999 0 0.97166519676951801 0.26662885509932011 0 0.94399509803921056 0.24399509803922639 0 0.94999999999999996 0.29999999999999999 0 1 0.29999999999999999 0 0.94999999999999996 0.29999999999999999 0 1 0.29999999999999999 0 0.97166519676951801 0.26662885509932011 0 1 0.29999999999999999 0 0.97166519676951801 0.26662885509932011 0 1 0.24999999999987299 0 0.97166519676951801 0.26662885509932011 0 0.97435614836740092 0.22499999999981049 0 1 0.24999999999987299 0 0.97435614836740092 0.22499999999981049 0 1 0.24999999999987299 0 1 0.19999999999974799 0 0.97435614836740092 0.22499999999981049 0 0.94399509803921056 0.24399509803922639 0 0.95391631417672862 0.19584263333809451 0 0.97166519676951801 0.26662885509932011 0 0.97435614836740092 0.22499999999981049 0 0.94399509803921056 0.24399509803922639 0 0.97435614836740092 0.22499999999981049 0 0.95391631417672862 0.19584263333809451 0 1 0.19999999999974799 0 0.95391631417672862 0.19584263333809451 0 1 0.14999999999961891 0 0.93677536231883773 0.14999999999999089 0 1 0.14999999999961891 0 0.93677536231883773 0.14999999999999089 0 0.95386563387744361 0.1041487415577465 0 0.95391631417672862 0.19584263333809451 0 1 0.19999999999974799 0 1 0.14999999999961891 0 0.95391631417672862 0.19584263333809451 0 0.93677536231883773 0.14999999999999089 0 0.90416666666668166 0.20416666666667119 0 0.93677536231883773 0.14999999999999089 0 0.88088768115941807 0.14674609810479519 0 0.90416666666668166 0.20416666666667119 0 0.93677536231883773 0.14999999999999089 0 0.88088768115941807 0.14674609810479519 0 0.90299850604006393 0.09563452813493091 0 0.88088768115941807 0.14674609810479519 0 0.90416666666668166 0.20416666666667119 0 0.85600844944842547 0.1848341897950983 0 0.89898474358614167 0.25391965591104898 0 0.90416666666668166 0.20416666666667119 0 0.8517097391133297 0.2356960729520409 0 0.89898474358614167 0.25391965591104898 0 0.94399509803921056 0.24399509803922639 0 0.90416666666668166 0.20416666666667119 0 0.94399509803921056 0.24399509803922639 0 0.95391631417672862 0.19584263333809451 0 0.90416666666668166 0.20416666666667119 0 0.94999999999986839 0 0 0.97166519676946894 0.033371144900598393 0 0.94399509803922566 0.056004901960802607 0 0.94999999999986839 0 0 1 0 0 0.97166519676946894 0.033371144900598393 0 1 0 0 1 0.049999999999896842 0 0.97166519676946894 0.033371144900598393 0 1 0.049999999999896842 0 0.97166519676946894 0.033371144900598393 0 0.97435614836748241 0.074999999999825387 0 0.97166519676946894 0.033371144900598393 0 0.94399509803922566 0.056004901960802607 0 0.97435614836748241 0.074999999999825387 0 0.94399509803922566 0.056004901960802607 0 0.97435614836748241 0.074999999999825387 0 0.95386563387744361 0.1041487415577465 0 0.97435614836748241 0.074999999999825387 0 1 0.099999999999753911 0 0.95386563387744361 0.1041487415577465 0 1 0.049999999999896842 0 0.97435614836748241 0.074999999999825387 0 1 0.099999999999753911 0 1 0.14999999999961891 0 1 0.099999999999753911 0 0.95386563387744361 0.1041487415577465 0 0.93677536231883773 0.14999999999999089 0 0.95386563387744361 0.1041487415577465 0 0.90299850604006393 0.09563452813493091 0 0.88088768115941807 0.14674609810479519 0 0.90299850604006393 0.09563452813493091 0 0.84725310900442086 0.10779732082922661 0 0.90299850604006393 0.09563452813493091 0 0.899991664607802 0.045289349238254978 0 0.85491058998398861 0.060047533455626502 0 0.94399509803922566 0.056004901960802607 0 0.95386563387744361 0.1041487415577465 0 0.90299850604006393 0.09563452813493091 0 0.94399509803922566 0.056004901960802607 0 0.90299850604006393 0.09563452813493091 0 0.899991664607802 0.045289349238254978 0 0.94999999999986839 0 0 0.94399509803922566 0.056004901960802607 0 0.899991664607802 0.045289349238254978 0 0.899991664607802 0.045289349238254978 0 0.89999999999973679 0 0 0.84999999999960507 0 0 0.94999999999986839 0 0 0.899991664607802 0.045289349238254978 0 0.89999999999973679 0 0 0.84999999999960507 0 0 0.81864958914740749 0.035890501779055867 0 0.79999999999947335 0 0 0.899991664607802 0.045289349238254978 0 0.84999999999960507 0 0 0.85491058998398861 0.060047533455626502 0 0.85491058998398861 0.060047533455626502 0 0.81864958914740749 0.035890501779055867 0 0.80185942888501827 0.074520613036224564 0 0.84999999999960507 0 0 0.85491058998398861 0.060047533455626502 0 0.81864958914740749 0.035890501779055867 0 0.85491058998398861 0.060047533455626502 0 0.84725310900442086 0.10779732082922661 0 0.80185942888501827 0.074520613036224564 0 0.90299850604006393 0.09563452813493091 0 0.85491058998398861 0.060047533455626502 0 0.84725310900442086 0.10779732082922661 0 0.84725310900442086 0.10779732082922661 0 0.80076557130237269 0.1154587552654202 0 0.80185942888501827 0.074520613036224564 0 0.84725310900442086 0.10779732082922661 0 0.80076557130237269 0.1154587552654202 0 0.82709327591102189 0.14937141670914489 0 0.80076557130237269 0.1154587552654202 0 0.76878382444651716 0.097147941686331368 0 0.80185942888501827 0.074520613036224564 0 0.76878382444651716 0.097147941686331368 0 0.77144070960558853 0.14311854477243749 0 0.72525833953073282 0.1032114801687094 0 0.80076557130237269 0.1154587552654202 0 0.76878382444651716 0.097147941686331368 0 0.77144070960558853 0.14311854477243749 0 0.76878382444651716 0.097147941686331368 0 0.80185942888501827 0.074520613036224564 0 0.7527966693318906 0.053051678021508272 0 0.81864958914740749 0.035890501779055867 0 0.80185942888501827 0.074520613036224564 0 0.78393852574753176 0.032039079577822822 0 0.80185942888501827 0.074520613036224564 0 0.78393852574753176 0.032039079577822822 0 0.7527966693318906 0.053051678021508272 0 0.78393852574753176 0.032039079577822822 0 0.7527966693318906 0.053051678021508272 0 0.74999999999934175 0 0 0.78393852574753176 0.032039079577822822 0 0.79999999999947335 0 0 0.74999999999934175 0 0 0.81864958914740749 0.035890501779055867 0 0.78393852574753176 0.032039079577822822 0 0.79999999999947335 0 0 0.81283102246527783 0.1881007222486438 0 0.8517097391133297 0.2356960729520409 0 0.79680861578956375 0.22656778056752541 0 0.81283102246527783 0.1881007222486438 0 0.8517097391133297 0.2356960729520409 0 0.85600844944842547 0.1848341897950983 0 0.81486180804364938 0.26321394949780091 0 0.8517097391133297 0.2356960729520409 0 0.79680861578956375 0.22656778056752541 0 0.90416666666668166 0.20416666666667119 0 0.8517097391133297 0.2356960729520409 0 0.85600844944842547 0.1848341897950983 0 0.88088768115941807 0.14674609810479519 0 0.85600844944842547 0.1848341897950983 0 0.82709327591102189 0.14937141670914489 0 0.88088768115941807 0.14674609810479519 0 0.84725310900442086 0.10779732082922661 0 0.82709327591102189 0.14937141670914489 0 0.81283102246527783 0.1881007222486438 0 0.85600844944842547 0.1848341897950983 0 0.82709327591102189 0.14937141670914489 0 0.81283102246527783 0.1881007222486438 0 0.77144070960558853 0.14311854477243749 0 0.76587607630038135 0.18880039518954719 0 0.81283102246527783 0.1881007222486438 0 0.82709327591102189 0.14937141670914489 0 0.77144070960558853 0.14311854477243749 0 0.80076557130237269 0.1154587552654202 0 0.82709327591102189 0.14937141670914489 0 0.77144070960558853 0.14311854477243749 0 0.77144070960558853 0.14311854477243749 0 0.76587607630038135 0.18880039518954719 0 0.72634814642510737 0.16106886917518889 0 0.76587607630038135 0.18880039518954719 0 0.79680861578956375 0.22656778056752541 0 0.75668890529066124 0.2244279804069782 0 0.81283102246527783 0.1881007222486438 0 0.76587607630038135 0.18880039518954719 0 0.79680861578956375 0.22656778056752541 0 0.77075983436335049 0.25919399014334171 0 0.81486180804364938 0.26321394949780091 0 0.79680861578956375 0.22656778056752541 0 0.77075983436335049 0.25919399014334171 0 0.79680861578956375 0.22656778056752541 0 0.75668890529066124 0.2244279804069782 0 0.77075983436335049 0.25919399014334171 0 0.75668890529066124 0.2244279804069782 0 0.72500000000000064 0.2498161764706 0 0.75668890529066124 0.2244279804069782 0 0.72500000000000064 0.2498161764706 0 0.72500000000001008 0.19776155966387679 0 0.72500000000000064 0.2498161764706 0 0.69397719155551807 0.2245125647000914 0 0.72500000000001008 0.19776155966387679 0 0.72500000000000064 0.2498161764706 0 0.69397719155551807 0.2245125647000914 0 0.67933712972090698 0.25920070958121938 0 0.69397719155551807 0.2245125647000914 0 0.72500000000001008 0.19776155966387679 0 0.6865991819015953 0.189116534044597 0 0.76587607630038135 0.18880039518954719 0 0.75668890529066124 0.2244279804069782 0 0.72500000000001008 0.19776155966387679 0 0.76587607630038135 0.18880039518954719 0 0.72500000000001008 0.19776155966387679 0 0.72634814642510737 0.16106886917518889 0 0.77144070960558853 0.14311854477243749 0 0.72634814642510737 0.16106886917518889 0 0.72525833953073282 0.1032114801687094 0 0.72634814642510737 0.16106886917518889 0 0.68391457121233579 0.14440470121196541 0 0.72525833953073282 0.1032114801687094 0 0.72500000000001008 0.19776155966387679 0 0.72634814642510737 0.16106886917518889 0 0.6865991819015953 0.189116534044597 0 0.72634814642510737 0.16106886917518889 0 0.68391457121233579 0.14440470121196541 0 0.6865991819015953 0.189116534044597 0 0.68391457121233579 0.14440470121196541 0 0.64011864159029941 0.18789607982138171 0 0.6865991819015953 0.189116534044597 0 0.68391457121233579 0.14440470121196541 0 0.65290632656860115 0.11434202593454081 0 0.6236733212988993 0.14864538214901801 0 0.68391457121233579 0.14440470121196541 0 0.64011864159029941 0.18789607982138171 0 0.6236733212988993 0.14864538214901801 0 0.64011864159029941 0.18789607982138171 0 0.65394964615507722 0.22666784374016369 0 0.59814117807200873 0.23398510860739519 0 0.65394964615507722 0.22666784374016369 0 0.59814117807200873 0.23398510860739519 0 0.62657463266645097 0.26524202571255862 0 0.69397719155551807 0.2245125647000914 0 0.65394964615507722 0.22666784374016369 0 0.67933712972090698 0.25920070958121938 0 0.64011864159029941 0.18789607982138171 0 0.65394964615507722 0.22666784374016369 0 0.6865991819015953 0.189116534044597 0 0.69397719155551807 0.2245125647000914 0 0.65394964615507722 0.22666784374016369 0 0.6865991819015953 0.189116534044597 0 0.69999999999921003 0 0 0.72683645290270404 0.027797073151180601 0 0.7010294155333181 0.056779085686491267 0 0.69999999999921003 0 0 0.7010294155333181 0.056779085686491267 0 0.66369801598854572 0.036327466368102787 0 0.7527966693318906 0.053051678021508272 0 0.74999999999934175 0 0 0.72683645290270404 0.027797073151180601 0 0.69999999999921003 0 0 0.74999999999934175 0 0 0.72683645290270404 0.027797073151180601 0 0.7527966693318906 0.053051678021508272 0 0.72683645290270404 0.027797073151180601 0 0.7010294155333181 0.056779085686491267 0 0.7010294155333181 0.056779085686491267 0 0.72525833953073282 0.1032114801687094 0 0.68330259535470161 0.10038702501083881 0 0.7527966693318906 0.053051678021508272 0 0.7010294155333181 0.056779085686491267 0 0.72525833953073282 0.1032114801687094 0 0.76878382444651716 0.097147941686331368 0 0.7527966693318906 0.053051678021508272 0 0.72525833953073282 0.1032114801687094 0 0.68391457121233579 0.14440470121196541 0 0.72525833953073282 0.1032114801687094 0 0.68330259535470161 0.10038702501083881 0 0.68330259535470161 0.10038702501083881 0 0.65290632656860115 0.11434202593454081 0 0.65408113592120842 0.073941773121567966 0 0.68391457121233579 0.14440470121196541 0 0.68330259535470161 0.10038702501083881 0 0.65290632656860115 0.11434202593454081 0 0.65290632656860115 0.11434202593454081 0 0.61956000905586006 0.1043312481793135 0 0.6236733212988993 0.14864538214901801 0 0.65290632656860115 0.11434202593454081 0 0.65408113592120842 0.073941773121567966 0 0.61956000905586006 0.1043312481793135 0 0.65408113592120842 0.073941773121567966 0 0.61940220174112337 0.047251958781050582 0 0.61956000905586006 0.1043312481793135 0 0.7010294155333181 0.056779085686491267 0 0.68330259535470161 0.10038702501083881 0 0.65408113592120842 0.073941773121567966 0 0.7010294155333181 0.056779085686491267 0 0.65408113592120842 0.073941773121567966 0 0.66369801598854572 0.036327466368102787 0 0.65408113592120842 0.073941773121567966 0 0.66369801598854572 0.036327466368102787 0 0.61940220174112337 0.047251958781050582 0 0.66369801598854572 0.036327466368102787 0 0.64999999999907843 0 0 0.61940220174112337 0.047251958781050582 0 0.69999999999921003 0 0 0.66369801598854572 0.036327466368102787 0 0.64999999999907843 0 0 0.59999999999894682 0 0 0.57396793757665954 0.037011367187645222 0 0.5499999999988151 0 0 0.64999999999907843 0 0 0.59999999999894682 0 0 0.61940220174112337 0.047251958781050582 0 0.59999999999894682 0 0 0.61940220174112337 0.047251958781050582 0 0.57396793757665954 0.037011367187645222 0 0.61940220174112337 0.047251958781050582 0 0.57396793757665954 0.037011367187645222 0 0.57667858002728545 0.078486105337742612 0 0.61940220174112337 0.047251958781050582 0 0.57667858002728545 0.078486105337742612 0 0.61956000905586006 0.1043312481793135 0 0.61956000905586006 0.1043312481793135 0 0.58516465772821369 0.11653801664834119 0 0.6236733212988993 0.14864538214901801 0 0.57667858002728545 0.078486105337742612 0 0.61956000905586006 0.1043312481793135 0 0.58516465772821369 0.11653801664834119 0 0.58516465772821369 0.11653801664834119 0 0.54979595918804436 0.1060565713905809 0 0.56202748619534593 0.15054058349222879 0 0.57667858002728545 0.078486105337742612 0 0.58516465772821369 0.11653801664834119 0 0.54979595918804436 0.1060565713905809 0 0.54979595918804436 0.1060565713905809 0 0.51076801031701946 0.1202837388510348 0 0.52375890611712683 0.059318771819432882 0 0.47881186583059909 0.093591717165689425 0 0.51076801031701946 0.1202837388510348 0 0.52375890611712683 0.059318771819432882 0 0.57667858002728545 0.078486105337742612 0 0.54979595918804436 0.1060565713905809 0 0.52375890611712683 0.059318771819432882 0 0.57396793757665954 0.037011367187645222 0 0.52375890611712683 0.059318771819432882 0 0.5499999999988151 0 0 0.57396793757665954 0.037011367187645222 0 0.57667858002728545 0.078486105337742612 0 0.52375890611712683 0.059318771819432882 0 0.49999999999869432 0 0 0.52375890611712683 0.059318771819432882 0 0.5499999999988151 0 0 0.59814117807200873 0.23398510860739519 0 0.59443395090188023 0.18455690917515069 0 0.55306006949600994 0.20198184231352201 0 0.59814117807200873 0.23398510860739519 0 0.55306006949600994 0.20198184231352201 0 0.54248833945060504 0.2520322959927106 0 0.64011864159029941 0.18789607982138171 0 0.59814117807200873 0.23398510860739519 0 0.59443395090188023 0.18455690917515069 0 0.64011864159029941 0.18789607982138171 0 0.59443395090188023 0.18455690917515069 0 0.6236733212988993 0.14864538214901801 0 0.58516465772821369 0.11653801664834119 0 0.6236733212988993 0.14864538214901801 0 0.56202748619534593 0.15054058349222879 0 0.59443395090188023 0.18455690917515069 0 0.6236733212988993 0.14864538214901801 0 0.56202748619534593 0.15054058349222879 0 0.59443395090188023 0.18455690917515069 0 0.56202748619534593 0.15054058349222879 0 0.55306006949600994 0.20198184231352201 0 0.56202748619534593 0.15054058349222879 0 0.51729576145820033 0.1683240575987815 0 0.55306006949600994 0.20198184231352201 0 0.54979595918804436 0.1060565713905809 0 0.51076801031701946 0.1202837388510348 0 0.56202748619534593 0.15054058349222879 0 0.48466639505193998 0.1421439844745814 0 0.51076801031701946 0.1202837388510348 0 0.51729576145820033 0.1683240575987815 0 0.51076801031701946 0.1202837388510348 0 0.56202748619534593 0.15054058349222879 0 0.51729576145820033 0.1683240575987815 0 0.51729576145820033 0.1683240575987815 0 0.50760557329222289 0.20700468884612061 0 0.55306006949600994 0.20198184231352201 0 0.50760557329222289 0.20700468884612061 0 0.55306006949600994 0.20198184231352201 0 0.54248833945060504 0.2520322959927106 0 0.49695729691142171 0.25014895411178018 0 0.50760557329222289 0.20700468884612061 0 0.54248833945060504 0.2520322959927106 0 0.49695729691142171 0.25014895411178018 0 0.5 0.29999999999999999 0 0.54248833945060504 0.2520322959927106 0 0.5 0.29999999999999999 0 0.54999999999999993 0.29999999999999999 0 0.52752007115234678 0.33170632466418198 0 0.5 0.29999999999999999 0 0.54999999999999993 0.29999999999999999 0 0.54248833945060504 0.2520322959927106 0 0.5 0.29999999999999999 0 0.54999999999999993 0.29999999999999999 0 0.54999999999999993 0.29999999999999999 0 0.54248833945060504 0.2520322959927106 0 0.5794309697024993 0.27124795968204829 0 0.59814117807200873 0.23398510860739519 0 0.54248833945060504 0.2520322959927106 0 0.5794309697024993 0.27124795968204829 0 0.54999999999999993 0.29999999999999999 0 0.59999999999999976 0.29999999999999999 0 0.54999999999999993 0.29999999999999999 0 0.5794309697024993 0.27124795968204829 0 0.59999999999999976 0.29999999999999999 0 0.59999999999999976 0.29999999999999999 0 0.6499999999999998 0.29999999999999999 0 0.5794309697024993 0.27124795968204829 0 0.59999999999999976 0.29999999999999999 0 0.62657463266645097 0.26524202571255862 0 0.59814117807200873 0.23398510860739519 0 0.5794309697024993 0.27124795968204829 0 0.62657463266645097 0.26524202571255862 0 0.61959173890754571 0.33832250091341232 0 0.56836770495988642 0.3523062350852913 0 0.6084546825910605 0.37989672713932537 0 0.59999999999999976 0.29999999999999999 0 0.61959173890754571 0.33832250091341232 0 0.6499999999999998 0.29999999999999999 0 0.59999999999999976 0.29999999999999999 0 0.61959173890754571 0.33832250091341232 0 0.56836770495988642 0.3523062350852913 0 0.54999999999999993 0.29999999999999999 0 0.59999999999999976 0.29999999999999999 0 0.56836770495988642 0.3523062350852913 0 0.56836770495988642 0.3523062350852913 0 0.52752007115234678 0.33170632466418198 0 0.52289427570932567 0.3932284363388488 0 0.54999999999999993 0.29999999999999999 0 0.56836770495988642 0.3523062350852913 0 0.52752007115234678 0.33170632466418198 0 0.49077833859261139 0.35229981449445641 0 0.5 0.29999999999999999 0 0.52752007115234678 0.33170632466418198 0 0.49077833859261139 0.35229981449445641 0 0.52752007115234678 0.33170632466418198 0 0.52289427570932567 0.3932284363388488 0 0.56836770495988642 0.3523062350852913 0 0.52289427570932567 0.3932284363388488 0 0.57744073070774993 0.41535148636609359 0 0.52289427570932567 0.3932284363388488 0 0.53823865529665704 0.45873898050322898 0 0.57744073070774993 0.41535148636609359 0 0.48858720058566618 0.43964267759203868 0 0.52289427570932567 0.3932284363388488 0 0.53823865529665704 0.45873898050322898 0 0.49102375406324739 0.49123754822244059 0 0.53330375813596242 0.50827942741749099 0 0.53823865529665704 0.45873898050322898 0 0.49102375406324739 0.49123754822244059 0 0.48858720058566618 0.43964267759203868 0 0.53823865529665704 0.45873898050322898 0 0.53330375813596242 0.50827942741749099 0 0.57611405284611883 0.50165903596042916 0 0.53823865529665704 0.45873898050322898 0 0.57611405284611883 0.50165903596042916 0 0.57975577671020095 0.46172033326338591 0 0.61547661924074692 0.48539576058873962 0 0.57611405284611883 0.50165903596042916 0 0.53823865529665704 0.45873898050322898 0 0.57975577671020095 0.46172033326338591 0 0.57975577671020095 0.46172033326338591 0 0.61209567303293111 0.44669033081290321 0 0.57744073070774993 0.41535148636609359 0 0.53823865529665704 0.45873898050322898 0 0.57975577671020095 0.46172033326338591 0 0.57744073070774993 0.41535148636609359 0 0.57975577671020095 0.46172033326338591 0 0.61209567303293111 0.44669033081290321 0 0.61547661924074692 0.48539576058873962 0 0.56836770495988642 0.3523062350852913 0 0.57744073070774993 0.41535148636609359 0 0.6084546825910605 0.37989672713932537 0 0.61209567303293111 0.44669033081290321 0 0.57744073070774993 0.41535148636609359 0 0.63912439215427275 0.41063340167983359 0 0.57744073070774993 0.41535148636609359 0 0.6084546825910605 0.37989672713932537 0 0.63912439215427275 0.41063340167983359 0 0.6084546825910605 0.37989672713932537 0 0.63912439215427275 0.41063340167983359 0 0.65481233915350323 0.35652751921065562 0 0.63912439215427275 0.41063340167983359 0 0.65178832218679827 0.45929119821019959 0 0.6879972333610942 0.43038561374960838 0 0.63912439215427275 0.41063340167983359 0 0.68128176404677243 0.38629093627004979 0 0.6879972333610942 0.43038561374960838 0 0.63912439215427275 0.41063340167983359 0 0.68128176404677243 0.38629093627004979 0 0.65481233915350323 0.35652751921065562 0 0.61547661924074692 0.48539576058873962 0 0.6541250972820879 0.49999999999999989 0 0.65178832218679827 0.45929119821019959 0 0.61209567303293111 0.44669033081290321 0 0.61547661924074692 0.48539576058873962 0 0.65178832218679827 0.45929119821019959 0 0.61209567303293111 0.44669033081290321 0 0.63912439215427275 0.41063340167983359 0 0.65178832218679827 0.45929119821019959 0 0.65178832218679827 0.45929119821019959 0 0.69385896817107129 0.48377516041410151 0 0.6879972333610942 0.43038561374960838 0 0.6541250972820879 0.49999999999999989 0 0.65178832218679827 0.45929119821019959 0 0.69385896817107129 0.48377516041410151 0 0.7152569930854884 0.5237994455134295 0 0.69385896817107129 0.48377516041410151 0 0.73947346780852752 0.49062440112282169 0 0.69385896817107129 0.48377516041410151 0 0.73483647259922602 0.44789725365921768 0 0.6879972333610942 0.43038561374960838 0 0.69385896817107129 0.48377516041410151 0 0.73483647259922602 0.44789725365921768 0 0.73947346780852752 0.49062440112282169 0 0.68128176404677243 0.38629093627004979 0 0.72622533758026719 0.40265885511101601 0 0.71508799138962864 0.36622814920737751 0 0.73483647259922602 0.44789725365921768 0 0.6879972333610942 0.43038561374960838 0 0.72622533758026719 0.40265885511101601 0 0.68128176404677243 0.38629093627004979 0 0.6879972333610942 0.43038561374960838 0 0.72622533758026719 0.40265885511101601 0 0.77354604466818633 0.40378688774472771 0 0.73483647259922602 0.44789725365921768 0 0.72622533758026719 0.40265885511101601 0 0.72622533758026719 0.40265885511101601 0 0.74764719760526988 0.3719647154012321 0 0.71508799138962864 0.36622814920737751 0 0.77354604466818633 0.40378688774472771 0 0.72622533758026719 0.40265885511101601 0 0.74764719760526988 0.3719647154012321 0 0.74764719760526988 0.3719647154012321 0 0.71508799138962864 0.36622814920737751 0 0.73090396928863699 0.33699297293167962 0 0.71508799138962864 0.36622814920737751 0 0.68887083591306764 0.33632058575757479 0 0.73090396928863699 0.33699297293167962 0 0.68128176404677243 0.38629093627004979 0 0.71508799138962864 0.36622814920737751 0 0.68887083591306764 0.33632058575757479 0 0.68887083591306764 0.33632058575757479 0 0.73090396928863699 0.33699297293167962 0 0.69999999999999984 0.29999999999999999 0 0.72500000000000064 0.2498161764706 0 0.74999999999999989 0.29999999999999999 0 0.69999999999999984 0.29999999999999999 0 0.74999999999999989 0.29999999999999999 0 0.69999999999999984 0.29999999999999999 0 0.73090396928863699 0.33699297293167962 0 0.74999999999999989 0.29999999999999999 0 0.69999999999999984 0.29999999999999999 0 0.77075983436335049 0.25919399014334171 0 0.72500000000000064 0.2498161764706 0 0.74999999999999989 0.29999999999999999 0 0.72500000000000064 0.2498161764706 0 0.69999999999999984 0.29999999999999999 0 0.67933712972090698 0.25920070958121938 0 0.69999999999999984 0.29999999999999999 0 0.67933712972090698 0.25920070958121938 0 0.6499999999999998 0.29999999999999999 0 0.68887083591306764 0.33632058575757479 0 0.69999999999999984 0.29999999999999999 0 0.6499999999999998 0.29999999999999999 0 0.69999999999999984 0.29999999999999999 0 0.6499999999999998 0.29999999999999999 0 0.67933712972090698 0.25920070958121938 0 0.62657463266645097 0.26524202571255862 0 0.6499999999999998 0.29999999999999999 0 0.65394964615507722 0.22666784374016369 0 0.67933712972090698 0.25920070958121938 0 0.62657463266645097 0.26524202571255862 0 0.59999999999999976 0.29999999999999999 0 0.62657463266645097 0.26524202571255862 0 0.6499999999999998 0.29999999999999999 0 0.61959173890754571 0.33832250091341232 0 0.6499999999999998 0.29999999999999999 0 0.65481233915350323 0.35652751921065562 0 0.61959173890754571 0.33832250091341232 0 0.6084546825910605 0.37989672713932537 0 0.65481233915350323 0.35652751921065562 0 0.68128176404677243 0.38629093627004979 0 0.68887083591306764 0.33632058575757479 0 0.65481233915350323 0.35652751921065562 0 0.68887083591306764 0.33632058575757479 0 0.6499999999999998 0.29999999999999999 0 0.65481233915350323 0.35652751921065562 0 
</DataArray>
</Points>
<Cells>
<DataArray type="UInt32" Name="connectivity" format="ascii">
0 1 2 3 4 5 6 7 8 9 10 11 12 13 14 15 16 17 18 19 20 21 22 23 24 25 26 27 28 29 30 31 32 33 34 35 36 37 38 39 40 41 42 43 44 45 46 47 48 49 50 51 52 53 54 55 56 57 58 59 60 61 62 63 64 65 66 67 68 69 70 71 72 73 74 75 76 77 78 79 80 81 82 83 84 85 86 87 88 89 90 91 92 93 94 95 96 97 98 99 100 101 102 103 104 105 106 107 108 109 110 111 112 113 114 115 116 117 118 119 120 121 122 123 124 125 126 127 128 129 130 131 132 133 134 135 136 137 138 139 140 141 142 143 144 145 146 147 148 149 150 151 152 153 154 155 156 157 158 159 160 161 162 163 164 165 166 167 168 169 170 171 172 173 174 175 176 177 178 179 180 181 182 183 184 185 186 187 188 189 190 191 192 193 194 195 196 197 198 199 200 201 202 203 204 205 206 207 208 209 210 211 212 213 214 215 216 217 218 219 220 221 222 223 224 225 226 227 228 229 230 231 232 233 234 235 236 237 238 239 240 241 242 243 244 245 246 247 248 249 250 251 252 253 254 255 256 257 258 259 260 261 262 263 264 265 266 267 268 269 270 271 272 273 274 275 276 277 278 279 280 281 282 283 284 285 286 287 288 289 290 291 292 293 294 295 296 297 298 299 300 301 302 303 304 305 306 307 308 309 310 311 312 313 314 315 316 317 318 319 320 321 322 323 324 325 326 327 328 329 330 331 332 333 334 335 336 337 338 339 340 341 342 343 344 345 346 347 348 349 350 351 352 353 354 355 356 357 358 359 360 361 362 363 364 365 366 367 368 369 370 371 372 373 374 375 376 377 378 379 380 381 382 383 384 385 386 387 388 389 390 391 392 393 394 395 396 397 398 399 400 401 402 403 404 405 406 407 408 409 410 411 412 413 414 415 416 417 418 419 420 421 422 423 424 425 426 427 428 429 430 431 432 433 434 435 436 437 438 439 440 441 442 443 444 445 446 447 448 449 450 451 452 453 454 455 456 457 458 459 460 461 462 463 464 465 466 467 468 469 470 471 472 473 474 475 476 477 478 479 480 481 482 483 484 485 486 487 488 489 490 491 492 493 494 495 496 497 498 499 500 501 502 503 504 505 506 507 508 509 510 511 512 513 514 515 516 517 518 519 520 521 522 523 524 525 526 527 528 529 530 531 532 533 534 535 536 537 538 539 540 541 542 543 544 545 546 547 548 549 550 551 552 553 554 555 556 557 558 559 560 561 562 563 564 565 566 567 568 569 570 571 572 573 574 575 576 577 578 579 580 581 582 583 584 585 586 587 588 589 590 591 592 593 594 595 596 597 598 599 600 601 602 603 604 605 606 607 608 609 610 611 612 613 614 615 616 617 618 619 620 621 622 623 624 625 626 627 628 629 630 631 632 633 634 635 636 637 638 639 640 641 642 643 644 645 646 647 648 649 650 651 652 653 654 655 656 657 658 659 660 661 662 663 664 665 666 667 668 669 670 671 672 673 674 675 676 677 678 679 680 681 682 683 684 685 686 687 688 689 690 691 692 693 694 695 696 697 698 699 700 701 702 703 704 705 706 707 708 709 710 711 712 713 714 715 716 717 718 719 720 721 722 723 724 725 726 727 728 729 730 731 732 733 734 735 736 737 738 739 740 741 742 743 744 745 746 747 748 749 750 751 752 753 754 755 756 757 758 759 760 761 762 763 764 765 766 767 768 769 770 771 772 773 774 775 776 777 778 779 780 781 782 783 784 785 786 787 788 789 790 791 792 793 794 795 796 797 798 799 800 801 802 803 804 805 806 807 808 809 810 811 812 813 814 815 816 817 818 819 820 821 822 823 824 825 826 827 828 829 830 831 832 833 834 835 836 837 838 839 840 841 842 843 844 845 846 847 848 849 850 851 852 853 854 855 856 857 858 859 860 861 862 863 864 865 866 867 868 869 870 871 872 873 874 875 876 877 878 879 880 881 882 883 884 885 886 887 888 889 890 891 892 893 894 895 896 897 898 899 900 901 902 903 904 905 906 907 908 909 910 911 912 913 914 915 916 917 918 919 920 921 922 923 924 925 926 927 928 929 930 931 932 933 934 935 936 937 938 939 940 941 942 943 944 945 946 947 948 949 950 951 952 953 954 955 956 957 958 959 960 961 962 963 964 965 966 967 968 969 970 971 972 973 974 975 976 977 978 979 980 981 982 983 984 985 986 987 988 989 990 991 992 993 994 995 996 997 998 999 1000 1001 1002 1003 1004 1005 1006 1007 1008 1009 1010 1011 1012 1013 1014 1015 1016 1017 1018 1019 1020 1021 1022 1023 1024 1025 1026 1027 1028 1029 1030 1031 1032 1033 1034 1035 1036 1037 1038 1039 1040 1041 1042 1043 1044 1045 1046 1047 1048 1049 1050 1051 1052 1053 1054 1055 1056 1057 1058 1059 1060 1061 1062 1063 1064 1065 1066 1067 1068 1069 1070 1071 1072 1073 1074 1075 1076 1077 1078 1079 1080 1081 1082 1083 1084 1085 1086 1087 1088 1089 1090 1091 1092 1093 1094 1095 1096 1097 1098 1099 1100 1101 1102 1103 1104 1105 1106 1107 1108 1109 1110 1111 1112 1113 1114 1115 1116 1117 1118 1119 1120 1121 1122 1123 1124 1125 1126 1127 1128 1129 1130 1131 1132 1133 1134 1135 1136 1137 1138 1139 1140 1141 1142 1143 1144 1145 1146 1147 1148 1149 1150 1151 1152 1153 1154 1155 1156 1157 1158 1159 1160 1161 1162 1163 1164 1165 1166 1167 1168 1169 1170 1171 1172 1173 1174 1175 1176 1177 1178 1179 1180 1181 1182 1183 1184 1185 1186 1187 1188 1189 1190 1191 1192 1193 1194 1195 1196 1197 1198 1199 1200 1201 1202 1203 1204 1205 1206 1207 1208 1209 1210 1211 1212 1213 1214 1215 1216 1217 1218 1219 1220 1221 1222 1223 1224 1225 1226 1227 1228 1229 1230 1231 1232 1233 1234 1235 1236 1237 1238 1239 1240 1241 1242 1243 1244 1245 1246 1247 1248 1249 1250 1251 1252 1253 1254 1255 1256 1257 1258 1259 1260 1261 1262 1263 1264 1265 1266 1267 1268 1269 1270 1271 1272 1273 1274 1275 1276 1277 1278 1279 1280 1281 1282 1283 1284 1285 1286 1287 1288 1289 1290 1291 1292 1293 1294 1295 1296 1297 1298 1299 1300 1301 1302 1303 1304 1305 1306 1307 1308 1309 1310 1311 1312 1313 1314 1315 1316 1317 1318 1319 1320 1321 1322 1323 1324 1325 1326 1327 1328 1329 1330 1331 1332 1333 1334 1335 1336 1337 1338 1339 1340 1341 1342 1343 1344 1345 1346 1347 1348 1349 1350 1351 1352 1353 1354 1355 1356 1357 1358 1359 1360 1361 1362 1363 1364 1365 1366 1367 1368 1369 1370 1371 1372 1373 1374 1375 1376 1377 1378 1379 1380 1381 1382 1383 1384 1385 1386 1387 1388 1389 1390 1391 1392 1393 1394 1395 1396 1397 1398 1399 1400 1401 1402 1403 1404 1405 1406 1407 1408 1409 1410 1411 1412 1413 1414 1415 1416 1417 1418 1419 1420 1421 1422 1423 1424 1425 1426 1427 1428 1429 1430 1431 1432 1433 1434 1435 1436 1437 1438 1439 1440 1441 1442 1443 1444 1445 1446 1447 1448 1449 1450 1451 1452 1453 1454 1455 1456 1457 1458 1459 1460 1461 1462 1463 1464 1465 1466 1467 1468 1469 1470 1471 1472 1473 1474 1475 1476 1477 1478 1479 1480 1481 1482 1483 1484 1485 1486 1487 1488 1489 1490 1491 1492 1493 1494 1495 1496 1497 1498 1499 1500 1501 1502 1503 1504 1505 1506 1507 1508 1509 1510 1511 1512 1513 1514 1515 1516 1517 1518 1519 1520 1521 1522 1523 1524 1525 1526 1527 1528 1529 1530 1531 1532 1533 1534 1535 1536 1537 1538 1539 1540 1541 1542 1543 1544 1545 1546 1547 1548 1549 1550 1551 1552 1553 1554 1555 1556 1557 1558 1559 1560 1561 1562 1563 1564 1565 1566 1567 1568 1569 1570 1571 1572 1573 1574 1575 1576 1577 1578 1579 1580 1581 1582 1583 1584 1585 1586 1587 1588 1589 1590 1591 1592 1593 1594 1595 1596 1597 1598 1599 1600 1601 1602 1603 1604 1605 1606 1607 1608 1609 1610 1611 1612 1613 1614 1615 1616 1617 1618 1619 1620 1621 1622 1623 1624 1625 1626 1627 1628 1629 1630 1631 1632 1633 1634 1635 1636 1637 1638 1639 1640 1641 1642 1643 1644 1645 1646 1647 1648 1649 1650 1651 1652 1653 1654 1655 1656 1657 1658 1659 1660 1661 1662 1663 1664 1665 1666 1667 1668 1669 1670 1671 1672 1673 1674 1675 1676 1677 1678 1679 1680 1681 1682 1683 1684 1685 1686 1687 1688 1689 1690 1691 1692 1693 1694 1695 1696 1697 1698 1699 1700 1701 1702 1703 1704 1705 1706 1707 1708 1709 1710 1711 1712 1713 1714 1715 1716 1717 1718 1719 1720 1721 1722 1723 1724 1725 1726 1727 1728 1729 1730 1731 1732 1733 1734 1735 1736 1737 1738 1739 1740 1741 1742 1743 1744 1745 1746 1747 1748 1749 1750 1751 1752 1753 1754 1755 1756 1757 1758 1759 1760 1761 1762 1763 1764 1765 1766 1767 1768 1769 1770 1771 1772 1773 1774 1775 1776 1777 1778 1779 1780 1781 1782 1783 1784 1785 1786 1787 1788 1789 1790 1791 1792 1793 1794 1795 1796 1797 1798 1799 1800 1801 1802 1803 1804 1805 1806 1807 1808 1809 1810 1811 1812 1813 1814 1815 1816 1817 1818 1819 1820 1821 1822 1823 1824 1825 1826 1827 1828 1829 1830 1831 1832 1833 1834 1835 1836 1837 1838 1839 1840 1841 1842 1843 1844 1845 1846 1847 1848 1849 1850 1851 1852 1853 1854 1855 1856 1857 1858 1859 1860 1861 1862 1863 1864 1865 1866 1867 1868 1869 1870 1871 1872 1873 1874 1875 1876 1877 1878 1879 1880 1881 1882 1883 1884 1885 1886 1887 1888 1889 1890 1891 1892 1893 1894 1895 1896 1897 1898 1899 1900 1901 1902 1903 1904 1905 1906 1907 1908 1909 1910 1911 1912 1913 1914 1915 1916 1917 1918 1919 1920 1921 1922 1923 1924 1925 1926 1927 1928 1929 1930 1931 1932 1933 1934 1935 1936 1937 1938 1939 1940 1941 1942 1943 1944 1945 1946 1947 1948 1949 1950 1951 1952 1953 1954 1955 1956 1957 1958 1959 1960 1961 1962 1963 1964 1965 1966 1967 1968 1969 1970 1971 1972 1973 1974 1975 1976 1977 1978 1979 1980 1981 1982 1983 1984 1985 1986 1987 1988 1989 1990 1991 1992 1993 1994 1995 1996 1997 1998 1999 2000 2001 2002 2003 2004 2005 2006 2007 2008 2009 2010 2011 2012 2013 2014 2015 2016 2017 2018 2019 2020 2021 2022 2023 2024 2025 2026 2027 2028 2029 2030 2031 2032 2033 2034 2035 2036 2037 2038 2039 2040 2041 2042 2043 2044 2045 2046 2047 2048 2049 2050 2051 2052 2053 2054 2055 2056 2057 2058 2059 2060 2061 2062 2063 2064 2065 2066 2067 2068 2069 2070 2071 2072 2073 2074 2075 2076 2077 2078 2079 2080 2081 2082 2083 2084 2085 2086 2087 2088 2089 2090 2091 2092 2093 2094 2095 2096 2097 2098 2099 2100 2101 2102 2103 2104 2105 2106 2107 2108 2109 2110 2111 2112 2113 2114 2115 2116 2117 2118 2119 2120 2121 2122 2123 2124 2125 2126 2127 2128 2129 2130 2131 2132 2133 2134 2135 2136 2137 2138 2139 2140 2141 2142 2143 2144 2145 2146 2147 2148 2149 2150 2151 2152 2153 2154 2155 2156 2157 2158 2159 2160 2161 2162 2163 2164 2165 2166 2167 2168 2169 2170 2171 2172 2173 2174 2175 2176 2177 2178 2179 2180 2181 2182 2183 2184 2185 2186 2187 2188 2189 2190 2191 2192 2193 2194 2195 2196 2197 2198 2199 2200 2201 2202 2203 2204 2205 2206 2207 2208 2209 2210 2211 2212 2213 2214 2215 2216 2217 2218 2219 2220 2221 2222 2223 2224 2225 2226 2227 2228 2229 2230 2231 2232 2233 2234 2235 2236 2237 2238 2239 2240 2241 2242 2243 2244 2245 2246 2247 2248 2249 2250 2251 2252 2253 2254 2255 2256 2257 2258 2259 2260 2261 2262 2263 2264 2265 2266 2267 2268 2269 2270 2271 2272 2273 2274 2275 2276 2277 2278 2279 2280 2281 2282 2283 2284 2285 2286 2287 2288 2289 2290 2291 2292 2293 2294 2295 2296 2297 2298 2299 2300 2301 2302 2303 2304 2305 2306 2307 2308 2309 2310 2311 2312 2313 2314 2315 2316 2317 2318 2319 2320 2321 2322 2323 2324 2325 2326 2327 2328 2329 2330 2331 2332 2333 2334 2335 2336 2337 2338 2339 2340 2341 2342 2343 2344 2345 2346 2347 2348 2349 2350 2351 2352 2353 2354 2355 2356 2357 2358 2359 2360 2361 2362 2363 2364 2365 2366 2367 2368 2369 2370 2371 2372 2373 2374 2375 2376 2377 2378 2379 2380 2381 2382 2383 2384 2385 2386 2387 2388 2389 2390 2391 2392 2393 2394 2395 2396 2397 2398 2399 2400 2401 2402 2403 2404 2405 2406 2407 2408 2409 2410 2411 2412 2413 2414 2415 2416 2417 2418 2419 2420 2421 2422 2423 2424 2425 2426 2427 2428 2429 2430 2431 2432 2433 2434 2435 2436 2437 2438 2439 2440 2441 2442 2443 2444 2445 2446 2447 2448 2449 2450 2451 2452 2453 2454 2455 2456 2457 2458 2459 2460 2461 2462 2463 2464 2465 2466 2467 2468 2469 2470 2471 2472 2473 2474 2475 2476 2477 2478 2479 2480 2481 2482 2483 2484 2485 2486 2487 2488 2489 2490 2491 2492 2493 2494 2495 2496 2497 2498 2499 2500 2501 2502 2503 2504 2505 2506 2507 2508 2509 2510 2511 2512 2513 2514 2515 2516 2517 2518 2519 2520 2521 2522 2523 2524 2525 2526 2527 2528 2529 2530 2531 2532 2533 2534 2535 2536 2537 2538 2539 2540 2541 2542 2543 2544 2545 2546 2547 2548 2549 2550 2551 2552 2553 2554 2555 2556 2557 2558 2559 2560 2561 2562 2563 2564 2565 2566 2567 2568 2569 2570 2571 2572 2573 2574 2575 2576 2577 2578 2579 2580 2581 2582 2583 2584 2585 2586 2587 2588 2589 2590 2591 2592 2593 2594 2595 2596 2597 2598 2599 2600 2601 2602 2603 2604 2605 2606 2607 2608 2609 2610 2611 2612 2613 2614 2615 2616 2617 2618 2619 2620 2621 2622 2623 2624 2625 2626 2627 2628 2629 2630 2631 2632 2633 2634 2635 2636 2637 2638 2639 2640 2641 2642 2643 2644 2645 2646 2647 2648 2649 2650 2651 2652 2653 2654 2655 2656 2657 2658 2659 2660 2661 2662 2663 2664 2665 2666 2667 2668 2669 2670 2671 2672 2673 2674 2675 2676 2677 2678 2679 2680 2681 2682 2683 2684 2685 2686 2687 2688 2689 2690 2691 2692 2693 2694 2695 2696 2697 2698 2699 2700 2701 2702 2703 2704 2705 2706 2707 2708 2709 2710 2711 2712 2713 2714 2715 2716 2717 2718 2719 2720 2721 2722 2723 2724 2725 2726 2727 2728 2729 2730 2731 2732 2733 2734 2735 2736 2737 2738 2739 2740 2741 2742 2743 2744 2745 2746 2747 2748 2749 2750 2751 2752 2753 2754 2755 2756 2757 2758 2759 2760 2761 2762 2763 2764 2765 2766 2767 2768 2769 2770 2771 2772 2773 2774 2775 2776 2777 2778 2779 2780 2781 2782 2783 2784 2785 2786 2787 2788 2789 2790 2791 2792 2793 2794 2795 2796 2797 2798 2799 2800 2801 2802 2803 2804 2805 2806 2807 2808 2809 2810 2811 2812 2813 2814 2815 2816 2817 2818 2819 2820 2821 2822 2823 2824 2825 2826 2827 2828 2829 2830 2831 2832 2833 2834 2835 2836 2837 2838 2839 2840 2841 2842 2843 2844 2845 2846 2847 2848 2849 2850 2851 2852 2853 2854 2855 2856 2857 2858 2859 2860 2861 2862 2863 2864 2865 2866 2867 2868 2869 2870 2871 2872 2873 2874 2875 2876 2877 2878 2879 2880 2881 2882 2883 2884 2885 2886 2887 2888 2889 2890 2891 2892 2893 2894 2895 2896 2897 2898 2899 2900 2901 2902 2903 2904 2905 2906 2907 2908 2909 2910 2911 2912 2913 2914 2915 2916 2917 2918 2919 2920 2921 2922 2923 2924 2925 2926 2927 2928 2929 2930 2931 2932 2933 2934 2935 2936 2937 2938 2939 2940 2941 2942 2943 2944 2945 2946 2947 2948 2949 2950 2951 2952 2953 2954 2955 2956 2957 2958 2959 2960 2961 2962 2963 2964 2965 2966 2967 2968 2969 2970 2971 2972 2973 2974 2975 2976 2977 2978 2979 2980 2981 2982 2983 2984 2985 2986 2987 2988 2989 2990 2991 2992 2993 2994 2995 2996 2997 2998 2999 3000 3001 3002 3003 3004 3005 3006 3007 3008 3009 3010 3011 3012 3013 3014 3015 3016 3017 3018 3019 3020 3021 3022 3023 3024 3025 3026 3027 3028 3029 3030 3031 3032 3033 3034 3035 3036 3037 3038 3039 3040 3041 3042 3043 3044 3045 3046 3047 3048 3049 3050 3051 3052 3053 3054 3055 3056 3057 3058 3059 3060 3061 3062 3063 3064 3065 3066 3067 3068 3069 3070 3071 3072 3073 3074 3075 3076 3077 3078 3079 3080 3081 3082 3083 3084 3085 3086 3087 3088 3089 3090 3091 3092 3093 3094 3095 3096 3097 3098 3099 3100 3101 3102 3103 3104 3105 3106 3107 3108 3109 3110 3111 3112 3113 3114 3115 3116 3117 3118 3119 3120 3121 3122 3123 3124 3125 3126 3127 3128 3129 3130 3131 3132 3133 3134 3135 3136 3137 3138 3139 3140 3141 
</DataArray>
<DataArray type="UInt32" Name="offsets" format="ascii">
3 6 9 12 15 18 21 24 27 30 33 36 39 42 45 48 51 54 57 60 63 66 69 72 75 78 81 84 87 90 93 96 99 102 105 108 111 114 117 120 123 126 129 132 135 138 141 144 147 150 153 156 159 162 165 168 171 174 177 180 183 186 189 192 195 198 201 204 207 210 213 216 219 222 225 228 231 234 237 240 243 246 249 252 255 258 261 264 267 270 273 276 279 282 285 288 291 294 297 300 303 306 309 312 315 318 321 324 327 330 333 336 339 342 345 348 351 354 357 360 363 366 369 372 375 378 381 384 387 390 393 396 399 402 405 408 411 414 417 420 423 426 429 432 435 438 441 444 447 450 453 456 459 462 465 468 471 474 477 480 483 486 489 492 495 498 501 504 507 510 513 516 519 522 525 528 531 534 537 540 543 546 549 552 555 558 561 564 567 570 573 576 579 582 585 588 591 594 597 600 603 606 609 612 615 618 621 624 627 630 633 636 639 642 645 648 651 654 657 660 663 666 669 672 675 678 681 684 687 690 693 696 699 702 705 708 711 714 717 720 723 726 729 732 735 738 741 744 747 750 753 756 759 762 765 768 771 774 777 780 783 786 789 792 795 798 801 804 807 810 813 816 819 822 825 828 831 834 837 840 843 846 849 852 855 858 861 864 867 870 873 876 879 882 885 888 891 894 897 900 903 906 909 912 915 918 921 924 927 930 933 936 939 942 945 948 951 954 957 960 963 966 969 972 975 978 981 984 987 990 993 996 999 1002 1005 1008 1011 1014 1017 1020 1023 1026 1029 1032 1035 1038 1041 1044 1047 1050 1053 1056 1059 1062 1065 1068 1071 1074 1077 1080 1083 1086 1089 1092 1095 1098 1101 1104 1107 1110 1113 1116 1119 1122 1125 1128 1131 1134 1137 1140 1143 1146 1149 1152 1155 1158 1161 1164 1167 1170 1173 1176 1179 1182 1185 1188 1191 1194 1197 1200 1203 1206 1209 1212 1215 1218 1221 1224 1227 1230 1233 1236 1239 1242 1245 1248 1251 1254 1257 1260 1263 1266 1269 1272 1275 1278 1281 1284 1287 1290 1293 1296 1299 1302 1305 1308 1311 1314 1317 1320 1323 1326 1329 1332 1335 1338 1341 1344 1347 1350 1353 1356 1359 1362 1365 1368 1371 1374 1377 1380 1383 1386 1389 1392 1395 1398 1401 1404 1407 1410 1413 1416 1419 1422 1425 1428 1431 1434 1437 1440 1443 1446 1449 1452 1455 1458 1461 1464 1467 1470 1473 1476 1479 1482 1485 1488 1491 1494 1497 1500 1503 1506 1509 1512 1515 1518 1521 1524 1527 1530 1533 1536 1539 1542 1545 1548 1551 1554 1557 1560 1563 1566 1569 1572 1575 1578 1581 1584 1587 1590 1593 1596 1599 1602 1605 1608 1611 1614 1616 1619 1622 1624 1627 1630 1632 1635 1638 1641 1644 1647 1650 1653 1656 1659 1662 1665 1668 1671 1673 1676 1679 1682 1685 1688 1690 1693 1696 1699 1702 1705 1708 1711 1714 1717 1720 1723 1726 1729 1732 1735 1738 1741 1744 1747 1750 1753 1756 1759 1762 1765 1768 1771 1774 1777 1780 1783 1786 1789 1792 1795 1798 1801 1804 1807 1810 1813 1816 1819 1822 1825 1828 1831 1834 1837 1840 1843 1846 1849 1852 1855 1858 1861 1864 1867 1870 1873 1876 1879 1882 1885 1888 1891 1894 1897 1900 1903 1906 1909 1912 1915 1918 1921 1924 1927 1930 1933 1936 1939 1942 1945 1948 1951 1954 1957 1960 1963 1966 1969 1972 1975 1978 1981 1984 1987 1990 1993 1996 1999 2002 2005 2008 2011 2014 2017 2020 2023 2026 2029 2032 2035 2038 2041 2044 2047 2050 2053 2056 2059 2062 2065 2068 2071 2074 2077 2080 2083 2086 2089 2092 2095 2098 2101 2104 2107 2110 2113 2116 2119 2122 2125 2128 2131 2134 2137 2140 2143 2146 2149 2152 2155 2158 2161 2164 2167 2170 2173 2176 2179 2182 2185 2188 2191 2194 2196 2199 2202 2205 2207 2210 2213 2215 2218 2221 2224 2227 2230 2233 2236 2239 2242 2245 2248 2250 2253 2256 2259 2262 2264 2267 2270 2273 2276 2279 2282 2285 2288 2291 2294 2297 2300 2303 2306 2309 2312 2315 2318 2321 2324 2327 2330 2333 2336 2339 2342 2345 2348 2351 2354 2357 2360 2363 2366 2369 2372 2375 2378 2381 2384 2387 2390 2393 2396 2399 2402 2405 2408 2411 2414 2417 2420 2423 2426 2429 2432 2435 2438 2440 2443 2446 2449 2452 2455 2458 2461 2464 2467 2470 2473 2476 2479 2482 2484 2487 2490 2492 2495 2497 2500 2503 2506 2509 2512 2515 2518 2521 2524 2527 2530 2533 2536 2538 2541 2544 2547 2550 2553 2556 2559 2562 2565 2568 2571 2574 2577 2580 2583 2586 2589 2592 2595 2598 2601 2604 2607 2610 2613 2616 2619 2622 2625 2628 2631 2634 2637 2640 2643 2646 2649 2652 2655 2658 2661 2664 2667 2670 2673 2676 2679 2682 2685 2688 2691 2694 2697 2700 2703 2706 2709 2712 2715 2718 2721 2724 2727 2730 2733 2736 2739 2742 2745 2748 2751 2754 2757 2760 2763 2766 2769 2772 2775 2778 2781 2784 2787 2790 2793 2796 2799 2802 2805 2808 2811 2814 2817 2820 2823 2826 2829 2832 2835 2838 2841 2844 2847 2850 2853 2856 2859 2862 2865 2868 2871 2874 2877 2880 2883 2886 2889 2892 2895 2898 2901 2904 2907 2910 2913 2916 2919 2922 2925 2928 2931 2934 2937 2940 2943 2946 2948 2951 2954 2956 2959 2961 2964 2967 2970 2973 2976 2979 2982 2985 2988 2991 2994 2997 3000 3003 3006 3009 3012 3015 3018 3021 3024 3027 3030 3033 3036 3039 3042 3045 3048 3051 3054 3057 3060 3063 3066 3069 3072 3075 3078 3081 3084 3087 3090 3093 3096 3099 3102 3104 3107 3110 3113 3116 3119 3121 3124 3127 3130 3133 3136 3139 3142 
</DataArray>
<DataArray type="UInt32" Name="types" format="ascii">
5 5 5 5 5 5 5 5 5 5 5 5 5 5 5 5 5 5 5 5 5 5 5 5 5 5 5 5 5 5 5 5 5 5 5 5 5 5 5 5 5 5 5 5 5 5 5 5 5 5 5 5 5 5 5 5 5 5 5 5 5 5 5 5 5 5 5 5 5 5 5 5 5 5 5 5 5 5 5 5 5 5 5 5 5 5 5 5 5 5 5 5 5 5 5 5 5 5 5 5 5 5 5 5 5 5 5 5 5 5 5 5 5 5 5 5 5 5 5 5 5 5 5 5 5 5 5 5 5 5 5 5 5 5 5 5 5 5 5 5 5 5 5 5 5 5 5 5 5 5 5 5 5 5 5 5 5 5 5 5 5 5 5 5 5 5 5 5 5 5 5 5 5 5 5 5 5 5 5 5 5 5 5 5 5 5 5 5 5 5 5 5 5 5 5 5 5 5 5 5 5 5 5 5 5 5 5 5 5 5 5 5 5 5 5 5 5 5 5 5 5 5 5 5 5 5 5 5 5 5 5 5 5 5 5 5 5 5 5 5 5 5 5 5 5 5 5 5 5 5 5 5 5 5 5 5 5 5 5 5 5 5 5 5 5 5 5 5 5 5 5 5 5 5 5 5 5 5 5 5 5 5 5 5 5 5 5 5 5 5 5 5 5 5 5 5 5 5 5 5 5 5 5 5 5 5 5 5 5 5 5 5 5 5 5 5 5 5 5 5 5 5 5 5 5 5 5 5 5 5 5 5 5 5 5 5 5 5 5 5 5 5 5 5 5 5 5 5 5 5 5 5 5 5 5 5 5 5 5 5 5 5 5 5 5 5 5 5 5 5 5 5 5 5 5 5 5 5 5 5 5 5 5 5 5 5 5 5 5 5 5 5 5 5 5 5 5 5 5 5 5 5 5 5 5 5 5 5 5 5 5 5 5 5 5 5 5 5 5 5 5 5 5 5 5 5 5 5 5 5 5 5 5 5 5 5 5 5 5 5 5 5 5 5 5 5 5 5 5 5 5 5 5 5 5 5 5 5 5 5 5 5 5 5 5 5 5 5 5 5 5 5 5 5 5 5 5 5 5 5 5 5 5 5 5 5 5 5 5 5 5 5 5 5 5 5 5 5 5 5 5 5 5 5 5 5 5 5 5 5 5 5 5 5 5 5 5 5 5 5 5 5 5 5 5 5 5 5 5 5 5 5 5 5 5 5 5 5 3 5 5 3 5 5 3 5 5 5 5 5 5 5 5 5 5 5 5 5 3 5 5 5 5 5 3 5 5 5 5 5 5 5 5 5 5 5 5 5 5 5 5 5 5 5 5 5 5 5 5 5 5 5 5 5 5 5 5 5 5 5 5 5 5 5 5 5 5 5 5 5 5 5 5 5 5 5 5 5 5 5 5 5 5 5 5 5 5 5 5 5 5 5 5 5 5 5 5 5 5 5 5 5 5 5 5 5 5 5 5 5 5 5 5 5 5 5 5 5 5 5 5 5 5 5 5 5 5 5 5 5 5 5 5 5 5 5 5 5 5 5 5 5 5 5 5 5 5 5 5 5 5 5 5 5 5 5 5 5 5 5 5 5 5 5 5 5 5 5 5 5 5 5 5 5 5 5 5 5 5 5 5 5 5 5 5 5 5 5 5 5 5 5 5 3 5 5 5 3 5 5 3 5 5 5 5 5 5 5 5 5 5 5 3 5 5 5 5 3 5 5 5 5 5 5 5 5 5 5 5 5 5 5 5 5 5 5 5 5 5 5 5 5 5 5 5 5 5 5 5 5 5 5 5 5 5 5 5 5 5 5 5 5 5 5 5 5 5 5 5 5 5 5 5 5 5 5 3 5 5 5 5 5 5 5 5 5 5 5 5 5 5 3 5 5 3 5 3 5 5 5 5 5 5 5 5 5 5 5 5 5 3 5 5 5 5 5 5 5 5 5 5 5 5 5 5 5 5 5 5 5 5 5 5 5 5 5 5 5 5 5 5 5 5 5 5 5 5 5 5 5 5 5 5 5 5 5 5 5 5 5 5 5 5 5 5 5 5 5 5 5 5 5 5 5 5 5 5 5 5 5 5 5 5 5 5 5 5 5 5 5 5 5 5 5 5 5 5 5 5 5 5 5 5 5 5 5 5 5 5 5 5 5 5 5 5 5 5 5 5 5 5 5 5 5 5 5 5 5 5 5 5 5 5 5 5 5 5 5 5 5 5 5 5 5 5 5 5 3 5 5 3 5 3 5 5 5 5 5 5 5 5 5 5 5 5 5 5 5 5 5 5 5 5 5 5 5 5 5 5 5 5 5 5 5 5 5 5 5 5 5 5 5 5 5 5 5 5 5 5 5 3 5 5 5 5 5 3 5 5 5 5 5 5 5 
</DataArray>
</Cells>
<PointData Scalars="" Vectors="displacement," Tensors="">
<DataArray type="Float64" Name="displacement" NumberOfComponents="3" format="ascii">
-9.4785139930320005e-07 2.1838558590028256e-07 0 -1.8216118831808972e-09 -7.4930351359791276e-10 0 -2.0927700930403568e-06 1.439309085390069e-09 0 -9.4785139930320005e-07 2.1838558590028256e-07 0 -1.8216118831808939e-09 -7.4930351359791214e-10 0 -1.6724562886591289e-09 5.3502674334267637e-10 0 -9.4785139930320005e-07 2.1838558590028256e-07 0 -2.0927700930403568e-06 1.439309085390069e-09 0 -2.1271895828423779e-06 8.565694565383764e-07 0 -9.4785139930320005e-07 2.1838558590028256e-07 0 -2.1271895828423779e-06 8.565694565383764e-07 0 -1.6724562886591289e-09 5.3502674334267637e-10 0 -1.6724562886591289e-09 5.3502674334267637e-10 0 -1.656166894069768e-09 3.2525512599376374e-10 0 -1.3555368440861342e-06 1.244370947999345e-06 0 -1.656166894069768e-09 3.2525512599376374e-10 0 -1.3555368440861342e-06 1.244370947999345e-06 0 -8.6922132816534044e-10 9.7458288498090649e-10 0 -2.1271895828423779e-06 8.565694565383764e-07 0 -1.3555368440861342e-06 1.244370947999345e-06 0 -2.9625571736651985e-06 1.8617185060901289e-06 0 -2.1271895828423779e-06 8.565694565383764e-07 0 -1.6724562886591289e-09 5.3502674334267637e-10 0 -1.3555368440861342e-06 1.244370947999345e-06 0 -1.3555368440861342e-06 1.244370947999345e-06 0 -2.9625571736651985e-06 1.8617185060901289e-06 0 -1.5672590596116055e-06 2.0703587626443505e-06 0 -2.9625571736651985e-06 1.8617185060901289e-06 0 -1.5672590596116055e-06 2.0703587626443505e-06 0 -3.0202440897802741e-06 2.6173475419504848e-06 0 -2.9625571736651985e-06 1.8617185060901289e-06 0 -4.5710495912273173e-06 2.383191247127838e-06 0 -3.0202440897802741e-06 2.6173475419504848e-06 0 -4.5710495912273173e-06 2.383191247127838e-06 0 -3.0202440897802741e-06 2.6173475419504848e-06 0 -3.6557010057764875e-06 3.0610046838282612e-06 0 -4.5710495912273173e-06 2.383191247127838e-06 0 -4.5685416088263007e-06 1.3997408157791317e-06 0 -6.5297437723815302e-06 1.892241342298395e-06 0 -2.9625571736651985e-06 1.8617185060901289e-06 0 -4.5710495912273173e-06 2.383191247127838e-06 0 -4.5685416088263007e-06 1.3997408157791317e-06 0 -4.5685416088263007e-06 1.3997408157791317e-06 0 -4.6936498011271693e-06 5.2768215808273661e-07 0 -7.8790373255761866e-06 7.0753948309500615e-07 0 -2.0927700930403568e-06 1.439309085390069e-09 0 -2.1271895828423779e-06 8.565694565383764e-07 0 -4.6936498011271693e-06 5.2768215808273661e-07 0 -2.1271895828423779e-06 8.565694565383764e-07 0 -4.5685416088263007e-06 1.3997408157791317e-06 0 -4.6936498011271693e-06 5.2768215808273661e-07 0 -2.1271895828423779e-06 8.565694565383764e-07 0 -2.9625571736651985e-06 1.8617185060901289e-06 0 -4.5685416088263007e-06 1.3997408157791317e-06 0 -2.1829445100442755e-07 1.7390797128057817e-06 0 -5.4375576199612198e-10 6.9084577098032744e-10 0 -2.4746699392104942e-11 8.5343861686700355e-10 0 -2.1829445100442755e-07 1.7390797128057817e-06 0 -5.4375576199612198e-10 6.9084577098032744e-10 0 -5.4955493156036109e-07 1.4523228607907796e-06 0 -2.1829445100442755e-07 1.7390797128057817e-06 0 -5.495549315603612e-07 1.4523228607907796e-06 0 -9.7126573599403321e-07 2.6981005374842968e-06 0 -5.4955493156036109e-07 1.4523228607907796e-06 0 -8.6922132816534044e-10 9.7458288498090649e-10 0 -1.5672590596116055e-06 2.0703587626443505e-06 0 -1.3555368440861342e-06 1.244370947999345e-06 0 -8.6922132816534044e-10 9.7458288498090649e-10 0 -1.5672590596116055e-06 2.0703587626443505e-06 0 -5.4955493156036109e-07 1.4523228607907796e-06 0 -1.5672590596116055e-06 2.0703587626443505e-06 0 -9.7126573599403321e-07 2.6981005374842968e-06 0 -5.4375576199612198e-10 6.9084577098032744e-10 0 -5.4955493156036109e-07 1.4523228607907796e-06 0 -8.6922132816534044e-10 9.7458288498090649e-10 0 -1.5672590596116055e-06 2.0703587626443505e-06 0 -3.0202440897802745e-06 2.6173475419504848e-06 0 -2.1605333153368838e-06 2.9350403278201919e-06 0 -3.0202440897802741e-06 2.6173475419504848e-06 0 -2.1605333153368838e-06 2.9350403278201919e-06 0 -3.6557010057764875e-06 3.0610046838282612e-06 0 -1.5672590596116055e-06 2.0703587626443505e-06 0 -2.1605333153368838e-06 2.9350403278201919e-06 0 -9.7126573599403321e-07 2.6981005374842968e-06 0 -9.7126573599403321e-07 2.6981005374842968e-06 0 -6.5742298866682341e-08 3.0077811494693633e-06 0 -1.4771900858478719e-06 3.415719119769558e-06 0 -2.1605333153368838e-06 2.9350403278201919e-06 0 -9.7126573599403321e-07 2.6981005374842968e-06 0 -1.4771900858478719e-06 3.415719119769558e-06 0 -2.1829445100442755e-07 1.7390797128057817e-06 0 -9.7126573599403321e-07 2.6981005374842968e-06 0 -6.5742298866682341e-08 3.0077811494693633e-06 0 -2.1829445100442755e-07 1.7390797128057817e-06 0 -6.5742298866682341e-08 3.0077811494693633e-06 0 2.5856801519157902e-07 1.8994122201710492e-06 0 -6.5742298866682341e-08 3.0077811494693633e-06 0 -1.6752581772857561e-07 3.4549661159996932e-06 0 -1.4771900858478719e-06 3.415719119769558e-06 0 -5.3942625868678568e-07 3.4246871492642733e-06 0 -1.675258177285754e-07 3.4549661159996932e-06 0 -1.4771900858478719e-06 3.415719119769558e-06 0 -5.3942625868678568e-07 3.4246871492642733e-06 0 -1.4771900858478719e-06 3.415719119769558e-06 0 -2.717533827251943e-06 3.2488381210714725e-06 0 -2.717533827251943e-06 3.2488381210714725e-06 0 -3.6557010057764875e-06 3.0610046838282612e-06 0 -5.0768684001870268e-06 2.8028596168346501e-06 0 -2.1605333153368838e-06 2.9350403278201919e-06 0 -1.4771900858478717e-06 3.415719119769558e-06 0 -3.6557010057764875e-06 3.0610046838282612e-06 0 -1.4771900858478719e-06 3.415719119769558e-06 0 -2.717533827251943e-06 3.2488381210714725e-06 0 -3.6557010057764875e-06 3.0610046838282612e-06 0 -3.6557010057764875e-06 3.0610046838282612e-06 0 -5.0768684001870268e-06 2.8028596168346501e-06 0 -5.8433326432934168e-06 2.5167812214055066e-06 0 -5.0768684001870268e-06 2.8028596168346501e-06 0 -7.1754173361290067e-06 1.8863879768890795e-06 0 -3.7509235151873775e-06 2.632206016929754e-06 0 -7.1754173361290067e-06 1.8863879768890795e-06 0 -3.7509235151873775e-06 2.632206016929754e-06 0 -5.9625180034247619e-06 1.376686342303939e-06 0 -3.7509235151873775e-06 2.632206016929754e-06 0 -5.9625180034247619e-06 1.3766863423039388e-06 0 -3.571426459741168e-06 1.3793737940396853e-06 0 -2.717533827251943e-06 3.2488381210714725e-06 0 -5.0768684001870268e-06 2.8028596168346501e-06 0 -3.7509235151873775e-06 2.632206016929754e-06 0 -5.3942625868678568e-07 3.4246871492642733e-06 0 -2.717533827251943e-06 3.2488381210714725e-06 0 -1.3637815240759021e-06 2.7618846491822394e-06 0 -2.717533827251943e-06 3.2488381210714725e-06 0 -3.7509235151873775e-06 2.632206016929754e-06 0 -1.3637815240759021e-06 2.7618846491822394e-06 0 -3.7509235151873775e-06 2.632206016929754e-06 0 -1.3637815240759021e-06 2.7618846491822394e-06 0 -3.571426459741168e-06 1.3793737940396853e-06 0 -1.3637815240759021e-06 2.7618846491822394e-06 0 8.0701268957445249e-07 2.0687989770116865e-06 0 1.099002720704604e-06 3.0876937885439722e-06 0 -5.3942625868678568e-07 3.4246871492642733e-06 0 -1.3637815240759021e-06 2.7618846491822394e-06 0 1.099002720704604e-06 3.0876937885439722e-06 0 -9.3457739012956455e-06 1.2234093330142673e-06 0 -7.8790373255761866e-06 7.0753948309500615e-07 0 -6.5297437723815302e-06 1.892241342298395e-06 0 -9.3457739012956455e-06 1.2234093330142673e-06 0 -6.5297437723815302e-06 1.892241342298395e-06 0 -8.3200399945278904e-06 1.9157082547902697e-06 0 -9.3457739012956455e-06 1.2234093330142673e-06 0 -7.8790373255761866e-06 7.0753948309500615e-07 0 -1.1650225245531106e-05 5.6153176287454894e-08 0 -4.5685416088263007e-06 1.3997408157791317e-06 0 -7.8790373255761866e-06 7.0753948309500615e-07 0 -6.5297437723815302e-06 1.892241342298395e-06 0 -4.5710495912273173e-06 2.383191247127838e-06 0 -6.5297437723815302e-06 1.892241342298395e-06 0 -5.8433326432934168e-06 2.5167812214055066e-06 0 -4.5710495912273173e-06 2.383191247127838e-06 0 -3.6557010057764875e-06 3.0610046838282612e-06 0 -5.8433326432934168e-06 2.5167812214055066e-06 0 -5.0768684001870268e-06 2.8028596168346501e-06 0 -5.8433326432934168e-06 2.5167812214055066e-06 0 -8.3200399945278904e-06 1.9157082547902697e-06 0 -6.5297437723815302e-06 1.892241342298395e-06 0 -5.8433326432934168e-06 2.5167812214055066e-06 0 -8.3200399945278904e-06 1.9157082547902697e-06 0 -5.0768684001870268e-06 2.8028596168346501e-06 0 -7.1754173361290067e-06 1.8863879768890795e-06 0 -8.3200399945278904e-06 1.9157082547902697e-06 0 -7.1754173361290067e-06 1.8863879768890795e-06 0 -8.3200399945278904e-06 1.9157082547902697e-06 0 -1.0304794632272872e-05 8.9832318846229288e-07 0 -7.1754173361290067e-06 1.8863879768890795e-06 0 -1.0304794632272872e-05 8.9832318846229288e-07 0 -9.7315504441977809e-06 1.2276766420721624e-07 0 -8.3200399945278904e-06 1.9157082547902697e-06 0 -1.0304794632272872e-05 8.9832318846229288e-07 0 -1.1800456542770833e-05 5.167775236921938e-07 0 -1.0304794632272872e-05 8.9832318846229288e-07 0 -1.1800456542770833e-05 5.167775236921938e-07 0 -1.4254351188995791e-05 -9.9454417461136118e-07 0 -9.3457739012956455e-06 1.2234093330142673e-06 0 -8.3200399945278904e-06 1.9157082547902697e-06 0 -1.1800456542770833e-05 5.167775236921938e-07 0 -9.3457739012956455e-06 1.2234093330142673e-06 0 -1.1800456542770833e-05 5.167775236921938e-07 0 -1.1650225245531106e-05 5.6153176287454894e-08 0 -1.1800456542770833e-05 5.167775236921938e-07 0 -1.1650225245531106e-05 5.6153176287455126e-08 0 -1.592976569320332e-05 -1.4928656441874001e-06 0 -1.592976569320332e-05 -1.4928656441874001e-06 0 -1.4254351188995791e-05 -9.9454417461136118e-07 0 -2.0472392701698247e-05 -4.1077621156666825e-06 0 -1.1800456542770833e-05 5.167775236921938e-07 0 -1.592976569320332e-05 -1.4928656441874001e-06 0 -1.4254351188995791e-05 -9.9454417461136118e-07 0 -1.4254351188995791e-05 -9.9454417461136118e-07 0 -2.0472392701698247e-05 -4.1077621156666825e-06 0 -1.9126591841009919e-05 -4.4006734396933549e-06 0 -2.0472392701698247e-05 -4.1077621156666825e-06 0 -1.9126591841009919e-05 -4.4006734396933549e-06 0 -2.5722284687464058e-05 -8.0158856120976931e-06 0 -1.9126591841009919e-05 -4.4006734396933549e-06 0 -2.3214208303584154e-05 -7.9108659042876328e-06 0 -1.6939735549343667e-05 -5.7249283955840493e-06 0 -2.3214208303584154e-05 -7.9108659042876328e-06 0 -1.6939735549343667e-05 -5.7249283955840493e-06 0 -2.3450470005915156e-05 -1.112746095321571e-05 0 -1.9126591841009919e-05 -4.4006734396933549e-06 0 -2.3214208303584154e-05 -7.9108659042876328e-06 0 -2.5722284687464058e-05 -8.0158856120976931e-06 0 -2.3214208303584154e-05 -7.9108659042876328e-06 0 -2.5722284687464058e-05 -8.0158856120976931e-06 0 -3.1500874128463576e-05 -1.3427683601976294e-05 0 -1.6939735549343667e-05 -5.7249283955840493e-06 0 -1.0883116954403597e-05 -5.5330714076894947e-06 0 -1.6025743402467246e-05 -9.966879596085056e-06 0 -1.6939735549343667e-05 -5.7249283955840493e-06 0 -1.1329605474817018e-05 -2.5385812774304459e-06 0 -1.0883116954403597e-05 -5.5330714076894947e-06 0 -1.9126591841009919e-05 -4.4006734396933549e-06 0 -1.6939735549343667e-05 -5.7249283955840493e-06 0 -1.4283095555613322e-05 -2.4136052806951296e-06 0 -1.6939735549343667e-05 -5.7249283955840493e-06 0 -1.1329605474817018e-05 -2.5385812774304459e-06 0 -1.4283095555613322e-05 -2.4136052806951296e-06 0 -1.1329605474817018e-05 -2.5385812774304459e-06 0 -1.4283095555613322e-05 -2.4136052806951296e-06 0 -9.7315504441977809e-06 1.2276766420721624e-07 0 -1.4254351188995791e-05 -9.9454417461136118e-07 0 -1.9126591841009919e-05 -4.4006734396933549e-06 0 -1.4283095555613322e-05 -2.4136052806951296e-06 0 -1.4254351188995791e-05 -9.9454417461136118e-07 0 -1.4283095555613322e-05 -2.4136052806951292e-06 0 -9.7315504441977809e-06 1.2276766420721624e-07 0 -1.0304794632272872e-05 8.9832318846229288e-07 0 -1.4254351188995791e-05 -9.9454417461136118e-07 0 -9.7315504441977809e-06 1.2276766420721624e-07 0 -7.1754173361290067e-06 1.8863879768890795e-06 0 -9.7315504441977809e-06 1.2276766420721624e-07 0 -5.9625180034247619e-06 1.376686342303939e-06 0 -9.7315504441977809e-06 1.2276766420721624e-07 0 -5.9625180034247619e-06 1.376686342303939e-06 0 -6.9008877211037557e-06 -2.8434054177178028e-07 0 -5.9625180034247619e-06 1.376686342303939e-06 0 -6.9008877211037557e-06 -2.8434054177178028e-07 0 -3.571426459741168e-06 1.3793737940396853e-06 0 -6.9008877211037557e-06 -2.8434054177178028e-07 0 -3.7402514897176619e-06 -9.6844476255164002e-07 0 -7.4582961975983905e-06 -2.5926162578313742e-06 0 -6.9008877211037557e-06 -2.8434054177178028e-07 0 -3.571426459741168e-06 1.3793737940396853e-06 0 -3.7402514897176619e-06 -9.6844476255164002e-07 0 -1.1329605474817018e-05 -2.5385812774304459e-06 0 -9.7315504441977809e-06 1.2276766420721624e-07 0 -6.9008877211037557e-06 -2.8434054177178028e-07 0 -1.3637815240759021e-06 2.7618846491822394e-06 0 -9.8152038687842239e-07 9.5144281429166605e-07 0 8.0701268957445249e-07 2.0687989770116865e-06 0 -1.3637815240759021e-06 2.7618846491822394e-06 0 -9.8152038687842196e-07 9.5144281429166626e-07 0 -3.571426459741168e-06 1.3793737940396853e-06 0 -9.8152038687842196e-07 9.5144281429166626e-07 0 -3.571426459741168e-06 1.3793737940396853e-06 0 -3.7402514897176619e-06 -9.6844476255164002e-07 0 -9.8152038687842196e-07 9.5144281429166626e-07 0 -1.9895680400894623e-07 -2.2090118824162985e-06 0 1.9836061289868283e-06 6.3186945564975864e-07 0 -9.8152038687842196e-07 9.5144281429166626e-07 0 -1.98956804008947e-07 -2.2090118824162981e-06 0 -3.7402514897176619e-06 -9.6844476255164002e-07 0 -1.9895680400894644e-07 -2.2090118824162985e-06 0 -3.7402514897176619e-06 -9.6844476255164002e-07 0 -5.2725193802146088e-06 -4.3075206175510487e-06 0 -1.9895680400894644e-07 -2.2090118824162985e-06 0 -5.2725193802146088e-06 -4.3075206175510487e-06 0 -1.9114886934722287e-06 -6.7242915918682365e-06 0 -1.9895680400894644e-07 -2.2090118824162985e-06 0 -1.9114886934722287e-06 -6.7242915918682365e-06 0 3.0278076388209312e-06 -5.1296948926949633e-06 0 -1.1329605474817018e-05 -2.5385812774304459e-06 0 -6.9008877211037557e-06 -2.8434054177178076e-07 0 -7.4582961975983905e-06 -2.5926162578313742e-06 0 -1.1329605474817018e-05 -2.5385812774304459e-06 0 -7.4582961975983905e-06 -2.5926162578313742e-06 0 -1.0883116954403597e-05 -5.5330714076894947e-06 0 -3.7402514897176619e-06 -9.6844476255164002e-07 0 -7.4582961975983905e-06 -2.5926162578313742e-06 0 -5.2725193802146088e-06 -4.3075206175510487e-06 0 -5.2725193802146088e-06 -4.3075206175510487e-06 0 -1.0883116954403597e-05 -5.5330714076894947e-06 0 -8.5126379313487142e-06 -8.735903976161257e-06 0 -7.4582961975983905e-06 -2.5926162578313742e-06 0 -5.2725193802146088e-06 -4.3075206175510487e-06 0 -1.0883116954403597e-05 -5.5330714076894947e-06 0 -1.0883116954403597e-05 -5.5330714076894947e-06 0 -8.5126379313487142e-06 -8.735903976161257e-06 0 -1.6025743402467246e-05 -9.966879596085056e-06 0 -8.5126379313487142e-06 -8.735903976161257e-06 0 -4.423709558274884e-06 -1.1886314577186234e-05 0 -1.3514116891677705e-05 -1.5456375411592074e-05 0 -8.5126379313487142e-06 -8.735903976161257e-06 0 -1.3514116891677705e-05 -1.5456375411592074e-05 0 -1.6025743402467246e-05 -9.966879596085056e-06 0 -1.9114886934722287e-06 -6.7242915918682365e-06 0 2.0034638649233216e-06 -9.9204485817263738e-06 0 3.0278076388209312e-06 -5.1296948926949633e-06 0 -5.2725193802146088e-06 -4.3075206175510487e-06 0 -8.5126379313487142e-06 -8.735903976161257e-06 0 -1.9114886934722287e-06 -6.7242915918682365e-06 0 -8.5126379313487142e-06 -8.735903976161257e-06 0 -1.9114886934722287e-06 -6.7242915918682365e-06 0 -4.423709558274884e-06 -1.1886314577186234e-05 0 -1.9114886934722287e-06 -6.7242915918682365e-06 0 -4.423709558274884e-06 -1.1886314577186234e-05 0 2.0034638649233211e-06 -9.9204485817263738e-06 0 -4.423709558274884e-06 -1.1886314577186234e-05 0 -3.6495210124450235e-07 -1.6195908000090314e-05 0 2.0034638649233211e-06 -9.9204485817263738e-06 0 -4.423709558274884e-06 -1.1886314577186234e-05 0 -3.6495210124450235e-07 -1.6195908000090314e-05 0 -6.8978846201997975e-06 -1.9400563958093502e-05 0 -6.8978846201997975e-06 -1.9400563958093502e-05 0 -1.0874922336718682e-05 -2.9321785325320158e-05 0 -3.8922622328458719e-06 -2.57263458270899e-05 0 -3.6495210124450235e-07 -1.6195908000090314e-05 0 -6.8978846201997975e-06 -1.9400563958093502e-05 0 -3.8922622328458719e-06 -2.57263458270899e-05 0 -3.6495210124450235e-07 -1.6195908000090314e-05 0 3.2294787190210146e-06 -2.12162173790479e-05 0 -3.8922622328458719e-06 -2.57263458270899e-05 0 -1.3514116891677705e-05 -1.5456375411592074e-05 0 -6.8978846201997975e-06 -1.9400563958093502e-05 0 -1.4848771975843949e-05 -2.3020838525007418e-05 0 -4.423709558274884e-06 -1.1886314577186234e-05 0 -1.3514116891677703e-05 -1.5456375411592071e-05 0 -6.8978846201997975e-06 -1.9400563958093502e-05 0 -6.8978846201997975e-06 -1.9400563958093502e-05 0 -1.4848771975843949e-05 -2.3020838525007418e-05 0 -1.0874922336718682e-05 -2.9321785325320158e-05 0 -1.3514116891677705e-05 -1.5456375411592074e-05 0 -1.4848771975843949e-05 -2.3020838525007418e-05 0 -2.3206633404318024e-05 -2.3119098835982137e-05 0 -1.4848771975843949e-05 -2.3020838525007418e-05 0 -2.3206633404318024e-05 -2.3119098835982137e-05 0 -1.9807066658150511e-05 -2.9124951274868709e-05 0 -1.3514116891677705e-05 -1.5456375411592074e-05 0 -2.3206633404318024e-05 -2.3119098835982137e-05 0 -2.2906335836955339e-05 -1.6167206835295984e-05 0 -2.3206633404318024e-05 -2.3119098835982137e-05 0 -3.1674331494248374e-05 -2.2965452372985006e-05 0 -2.2906335836955339e-05 -1.6167206835295984e-05 0 -2.3206633404318024e-05 -2.3119098835982137e-05 0 -3.1674331494248374e-05 -2.2965452372985006e-05 0 -3.2951437087497947e-05 -3.3777810033968692e-05 0 -3.1674331494248374e-05 -2.2965452372985006e-05 0 -4.3564791601560016e-05 -3.0554574117381944e-05 0 -3.2951437087497947e-05 -3.3777810033968692e-05 0 -3.1674331494248374e-05 -2.2965452372985006e-05 0 -4.3564791601560016e-05 -3.0554574117381944e-05 0 -3.7548507510957088e-05 -2.0958133083265103e-05 0 -3.1674331494248374e-05 -2.2965452372985006e-05 0 -3.7548507510957088e-05 -2.0958133083265103e-05 0 -2.9402583277452705e-05 -1.6708141525487212e-05 0 -3.1674331494248374e-05 -2.2965452372985006e-05 0 -2.9402583277452705e-05 -1.6708141525487212e-05 0 -2.2906335836955339e-05 -1.6167206835295984e-05 0 -2.9402583277452705e-05 -1.6708141525487212e-05 0 -3.1500874128463576e-05 -1.3427683601976294e-05 0 -2.3450470005915156e-05 -1.112746095321571e-05 0 -2.9402583277452705e-05 -1.6708141525487212e-05 0 -2.3450470005915153e-05 -1.112746095321571e-05 0 -2.2906335836955339e-05 -1.6167206835295984e-05 0 -3.7548507510957088e-05 -2.0958133083265103e-05 0 -2.9402583277452702e-05 -1.6708141525487212e-05 0 -3.1500874128463576e-05 -1.3427683601976294e-05 0 -2.3214208303584154e-05 -7.9108659042876328e-06 0 -3.1500874128463576e-05 -1.3427683601976294e-05 0 -2.3450470005915156e-05 -1.112746095321571e-05 0 -1.6939735549343667e-05 -5.7249283955840493e-06 0 -2.3450470005915156e-05 -1.112746095321571e-05 0 -1.6025743402467246e-05 -9.966879596085056e-06 0 -1.3514116891677705e-05 -1.5456375411592074e-05 0 -1.6025743402467246e-05 -9.966879596085056e-06 0 -2.2906335836955339e-05 -1.6167206835295984e-05 0 -2.3450470005915156e-05 -1.112746095321571e-05 0 -1.6025743402467246e-05 -9.966879596085056e-06 0 -2.2906335836955339e-05 -1.6167206835295984e-05 0 9.9076739939863055e-06 -4.8189955520039928e-06 0 1.0991563953989409e-05 -1.5668876706927407e-06 0 1.1837533064497807e-05 -3.1335971646325162e-06 0 9.9076739939863055e-06 -4.8189955520039928e-06 0 9.2510335300643367e-06 -2.7345326663295504e-06 0 1.0991563953989409e-05 -1.5668876706927407e-06 0 9.9076739939863055e-06 -4.8189955520039928e-06 0 9.2510335300643367e-06 -2.7345326663295504e-06 0 7.8617243079776563e-06 -5.3255599096840194e-06 0 1.0991563953989409e-05 -1.5668876706927407e-06 0 1.3247527376702909e-05 3.1346984809711274e-07 0 1.1837533064497807e-05 -3.1335971646325162e-06 0 1.3247527376702909e-05 3.1346984809711274e-07 0 1.4903347138388408e-05 -2.6057600089779946e-08 0 1.5584861578984537e-05 2.7666075712262192e-06 0 1.3247527376702909e-05 3.1346984809711274e-07 0 1.4903347138388406e-05 -2.6057600089780085e-08 0 1.1837533064497807e-05 -3.1335971646325162e-06 0 1.4903347138388406e-05 -2.6057600089780085e-08 0 1.1837533064497807e-05 -3.1335971646325162e-06 0 1.3235187895333405e-05 -3.3934255099318007e-06 0 1.1837533064497807e-05 -3.1335971646325162e-06 0 1.3235187895333405e-05 -3.3934255099318007e-06 0 1.1674588384032015e-05 -6.5899113886069682e-06 0 1.4903347138388406e-05 -2.6057600089780085e-08 0 1.3235187895333405e-05 -3.3934255099318011e-06 0 1.473541473986379e-05 -4.1951733807150259e-06 0 1.3235187895333405e-05 -3.3934255099318007e-06 0 1.473541473986379e-05 -4.1951733807150259e-06 0 1.1674588384032015e-05 -6.5899113886069682e-06 0 1.1674588384032015e-05 -6.5899113886069682e-06 0 9.7291901539894473e-06 -7.6062890122338657e-06 0 9.0719637641517061e-06 -1.0984850297443352e-05 0 1.1837533064497807e-05 -3.1335971646325162e-06 0 1.1674588384032015e-05 -6.5899113886069682e-06 0 9.7291901539894456e-06 -7.6062890122338657e-06 0 9.9076739939863055e-06 -4.8189955520039928e-06 0 1.1837533064497807e-05 -3.1335971646325162e-06 0 9.7291901539894456e-06 -7.6062890122338657e-06 0 9.9076739939863055e-06 -4.8189955520039928e-06 0 9.7291901539894456e-06 -7.6062890122338665e-06 0 8.5627820320765257e-06 -8.1989810962752101e-06 0 9.7291901539894456e-06 -7.6062890122338657e-06 0 7.707818376161496e-06 -1.1922164549840032e-05 0 9.0719637641517061e-06 -1.0984850297443352e-05 0 7.707818376161496e-06 -1.1922164549840032e-05 0 8.1959280636060694e-06 -1.2248516919178863e-05 0 9.3902841209700981e-06 -1.7768909993143535e-05 0 7.707818376161496e-06 -1.1922164549840032e-05 0 8.1959280636060694e-06 -1.2248516919178863e-05 0 8.5627820320765257e-06 -8.1989810962752101e-06 0 8.1959280636060694e-06 -1.2248516919178863e-05 0 8.5627820320765257e-06 -8.1989810962752101e-06 0 6.6376352158893221e-06 -8.140936951632345e-06 0 9.7291901539894456e-06 -7.6062890122338657e-06 0 7.707818376161496e-06 -1.1922164549840032e-05 0 8.5627820320765257e-06 -8.1989810962752101e-06 0 3.229478719021015e-06 -2.12162173790479e-05 0 5.7841857625562375e-06 -1.3647225383505174e-05 0 9.3902841209700981e-06 -1.7768909993143535e-05 0 -3.6495210124450235e-07 -1.6195908000090314e-05 0 3.229478719021015e-06 -2.12162173790479e-05 0 5.7841857625562375e-06 -1.3647225383505174e-05 0 8.1959280636060694e-06 -1.2248516919178863e-05 0 5.7841857625562375e-06 -1.3647225383505174e-05 0 9.3902841209700981e-06 -1.7768909993143535e-05 0 8.1959280636060694e-06 -1.2248516919178863e-05 0 5.7841857625562375e-06 -1.3647225383505174e-05 0 6.6376352158893221e-06 -8.140936951632345e-06 0 -3.6495210124450235e-07 -1.6195908000090314e-05 0 5.7841857625562375e-06 -1.3647225383505174e-05 0 2.0034638649233211e-06 -9.9204485817263738e-06 0 5.7841857625562375e-06 -1.3647225383505174e-05 0 2.0034638649233211e-06 -9.9204485817263738e-06 0 6.6376352158893221e-06 -8.140936951632345e-06 0 2.0034638649233211e-06 -9.9204485817263738e-06 0 6.6376352158893221e-06 -8.140936951632345e-06 0 3.0278076388209312e-06 -5.1296948926949633e-06 0 6.6376352158893221e-06 -8.140936951632345e-06 0 3.0278076388209312e-06 -5.1296948926949633e-06 0 5.9757621878242145e-06 -3.4673542963303186e-06 0 9.9076739939863055e-06 -4.8189955520039928e-06 0 8.5627820320765257e-06 -8.1989810962752101e-06 0 7.8617243079776563e-06 -5.3255599096840194e-06 0 8.5627820320765257e-06 -8.1989810962752101e-06 0 6.6376352158893221e-06 -8.140936951632345e-06 0 7.8617243079776563e-06 -5.3255599096840194e-06 0 6.6376352158893221e-06 -8.140936951632345e-06 0 7.8617243079776579e-06 -5.3255599096840194e-06 0 5.9757621878242145e-06 -3.4673542963303186e-06 0 7.8617243079776563e-06 -5.3255599096840194e-06 0 5.9757621878242145e-06 -3.4673542963303186e-06 0 7.7405756685898868e-06 -4.4177091446596288e-07 0 9.2510335300643367e-06 -2.7345326663295504e-06 0 7.8617243079776563e-06 -5.3255599096840194e-06 0 7.7405756685898868e-06 -4.4177091446596288e-07 0 5.9757621878242145e-06 -3.4673542963303186e-06 0 5.7730697140356786e-06 -8.2598048997859269e-07 0 7.7405756685898868e-06 -4.4177091446596288e-07 0 5.7730697140356786e-06 -8.2598048997859269e-07 0 7.7405756685898868e-06 -4.4177091446596288e-07 0 6.3438454294878085e-06 8.3062760546210498e-07 0 -1.9895680400894644e-07 -2.2090118824162985e-06 0 3.0278076388209312e-06 -5.1296948926949633e-06 0 3.6643154195523209e-06 -1.5961002814667947e-06 0 3.0278076388209312e-06 -5.1296948926949633e-06 0 5.9757621878242145e-06 -3.4673542963303186e-06 0 3.6643154195523209e-06 -1.5961002814667947e-06 0 5.9757621878242145e-06 -3.4673542963303186e-06 0 5.7730697140356777e-06 -8.2598048997859248e-07 0 3.6643154195523209e-06 -1.5961002814667947e-06 0 5.7730697140356786e-06 -8.2598048997859269e-07 0 3.6643154195523209e-06 -1.5961002814667947e-06 0 4.4941889572542613e-06 7.2036801839708698e-07 0 -1.9895680400894644e-07 -2.2090118824162985e-06 0 3.6643154195523213e-06 -1.5961002814667945e-06 0 1.9836061289868283e-06 6.3186945564975864e-07 0 3.6643154195523209e-06 -1.5961002814667947e-06 0 1.9836061289868287e-06 6.3186945564975896e-07 0 4.4941889572542613e-06 7.2036801839708698e-07 0 1.9836061289868283e-06 6.3186945564975864e-07 0 4.4941889572542613e-06 7.2036801839708698e-07 0 3.0367496100087192e-06 2.4124442606620414e-06 0 1.9836061289868283e-06 6.3186945564975864e-07 0 8.0701268957445249e-07 2.0687989770116865e-06 0 3.0367496100087192e-06 2.4124442606620414e-06 0 -9.8152038687842196e-07 9.5144281429166626e-07 0 1.9836061289868283e-06 6.3186945564975875e-07 0 8.0701268957445249e-07 2.0687989770116865e-06 0 7.7405756685898868e-06 -4.4177091446596288e-07 0 6.3438454294878085e-06 8.3062760546210509e-07 0 7.5449677726032528e-06 1.8058712921265867e-06 0 5.7730697140356786e-06 -8.2598048997859269e-07 0 6.3438454294878085e-06 8.3062760546210498e-07 0 4.4941889572542613e-06 7.2036801839708698e-07 0 6.3438454294878085e-06 8.3062760546210498e-07 0 4.4941889572542613e-06 7.2036801839708698e-07 0 5.3875808099294374e-06 2.0450714397994038e-06 0 4.4941889572542613e-06 7.2036801839708698e-07 0 5.3875808099294374e-06 2.0450714397994038e-06 0 3.0367496100087192e-06 2.4124442606620414e-06 0 6.3438454294878085e-06 8.3062760546210498e-07 0 5.3875808099294374e-06 2.0450714397994038e-06 0 7.5449677726032528e-06 1.8058712921265867e-06 0 5.3875808099294374e-06 2.0450714397994038e-06 0 7.5449677726032528e-06 1.8058712921265867e-06 0 5.5286233959192342e-06 2.8289617199204666e-06 0 7.5449677726032528e-06 1.8058712921265867e-06 0 9.829139057663952e-06 1.9893844200828633e-06 0 7.6013445721685272e-06 2.5639119139074713e-06 0 9.829139057663952e-06 1.9893844200828633e-06 0 9.914205857353977e-06 2.5365571327886037e-06 0 7.6013445721685272e-06 2.5639119139074713e-06 0 7.5449677726032528e-06 1.8058712921265867e-06 0 9.829139057663952e-06 1.9893844200828633e-06 0 9.2849672314536652e-06 8.3748768004272468e-07 0 7.7405756685898868e-06 -4.4177091446596288e-07 0 7.5449677726032528e-06 1.8058712921265867e-06 0 9.2849672314536652e-06 8.3748768004272468e-07 0 7.7405756685898868e-06 -4.4177091446596288e-07 0 9.2849672314536652e-06 8.3748768004272468e-07 0 9.8096179297220687e-06 -5.6054427580402851e-07 0 9.2849672314536652e-06 8.3748768004272468e-07 0 9.8096179297220687e-06 -5.6054427580402851e-07 0 1.1457693323305921e-05 9.7953852591487541e-07 0 9.829139057663952e-06 1.9893844200828633e-06 0 9.2849672314536652e-06 8.3748768004272468e-07 0 1.1457693323305921e-05 9.7953852591487541e-07 0 1.0991563953989409e-05 -1.5668876706927407e-06 0 9.8096179297220687e-06 -5.6054427580402851e-07 0 1.1457693323305921e-05 9.7953852591487541e-07 0 9.2510335300643367e-06 -2.7345326663295504e-06 0 1.0991563953989409e-05 -1.566887670692741e-06 0 9.8096179297220687e-06 -5.6054427580402851e-07 0 9.2510335300643367e-06 -2.7345326663295504e-06 0 7.7405756685898868e-06 -4.4177091446596288e-07 0 9.8096179297220687e-06 -5.6054427580402851e-07 0 1.3247527376702909e-05 3.1346984809711274e-07 0 1.3511279733858727e-05 2.1022335881879281e-06 0 1.5584861578984537e-05 2.7666075712262192e-06 0 1.3247527376702909e-05 3.1346984809711274e-07 0 1.3511279733858727e-05 2.1022335881879281e-06 0 1.1457693323305921e-05 9.7953852591487541e-07 0 1.0991563953989409e-05 -1.5668876706927407e-06 0 1.3247527376702909e-05 3.1346984809711258e-07 0 1.1457693323305921e-05 9.7953852591487541e-07 0 9.829139057663952e-06 1.9893844200828633e-06 0 1.1457693323305921e-05 9.7953852591487541e-07 0 1.208425451048966e-05 2.3631474759592354e-06 0 1.3511279733858727e-05 2.1022335881879281e-06 0 1.208425451048966e-05 2.3631474759592354e-06 0 1.4910469560544039e-05 3.4563709723811502e-06 0 1.3511279733858727e-05 2.1022335881879281e-06 0 1.1457693323305921e-05 9.7953852591487541e-07 0 1.208425451048966e-05 2.3631474759592354e-06 0 1.208425451048966e-05 2.3631474759592354e-06 0 9.914205857353977e-06 2.5365571327886037e-06 0 1.2383419849514731e-05 2.799337041378008e-06 0 9.829139057663952e-06 1.9893844200828633e-06 0 1.208425451048966e-05 2.3631474759592354e-06 0 9.914205857353977e-06 2.5365571327886037e-06 0 9.914205857353977e-06 2.5365571327886037e-06 0 1.0187863211119089e-05 2.5187966087826334e-06 0 1.2383419849514731e-05 2.799337041378008e-06 0 1.0187863211119089e-05 2.5187966087826334e-06 0 7.9000463808648612e-06 2.3258942785275895e-06 0 8.1879340371646985e-06 2.6099343183736042e-06 0 7.9000463808648612e-06 2.3258942785275895e-06 0 8.1879340371646985e-06 2.6099343183736042e-06 0 6.4440184477221838e-06 2.7553850789737988e-06 0 9.914205857353977e-06 2.5365571327886037e-06 0 8.1879340371646985e-06 2.6099343183736042e-06 0 7.6013445721685272e-06 2.5639119139074713e-06 0 9.914205857353977e-06 2.5365571327886037e-06 0 1.0187863211119089e-05 2.5187966087826334e-06 0 8.1879340371646985e-06 2.6099343183736042e-06 0 7.5449677726032528e-06 1.8058712921265867e-06 0 7.6013445721685272e-06 2.5639119139074709e-06 0 5.5286233959192342e-06 2.8289617199204666e-06 0 6.4440184477221838e-06 2.7553850789737988e-06 0 4.5245202091911512e-06 2.9967300035302813e-06 0 5.5286233959192342e-06 2.8289617199204666e-06 0 7.6013445721685272e-06 2.5639119139074713e-06 0 6.4440184477221838e-06 2.7553850789737988e-06 0 5.5286233959192342e-06 2.8289617199204666e-06 0 8.1879340371646985e-06 2.6099343183736042e-06 0 7.6013445721685272e-06 2.5639119139074713e-06 0 6.4440184477221838e-06 2.7553850789737988e-06 0 6.4440184477221838e-06 2.7553850789737988e-06 0 4.484676761726891e-06 2.5343900547473253e-06 0 5.9449229372490261e-06 2.3040794481634927e-06 0 6.4440184477221838e-06 2.7553850789737988e-06 0 4.5245202091911512e-06 2.9967300035302813e-06 0 4.484676761726891e-06 2.5343900547473253e-06 0 4.5245202091911512e-06 2.9967300035302813e-06 0 4.484676761726891e-06 2.5343900547473253e-06 0 2.9909428377420427e-06 2.6140696111333142e-06 0 4.484676761726891e-06 2.5343900547473253e-06 0 5.9449229372490261e-06 2.3040794481634927e-06 0 4.1292315996061598e-06 1.8447031417618728e-06 0 5.9449229372490261e-06 2.3040794481634927e-06 0 4.1292315996061598e-06 1.8447031417618728e-06 0 5.0077693741300075e-06 1.3452338966331897e-06 0 5.9449229372490261e-06 2.3040794481634927e-06 0 5.0077693741300075e-06 1.3452338966331895e-06 0 7.0933518694988663e-06 1.7567239435724215e-06 0 7.9000463808648612e-06 2.3258942785275895e-06 0 5.9449229372490261e-06 2.3040794481634927e-06 0 7.0933518694988663e-06 1.7567239435724215e-06 0 7.9000463808648612e-06 2.3258942785275895e-06 0 6.4440184477221838e-06 2.7553850789737988e-06 0 5.9449229372490261e-06 2.3040794481634927e-06 0 8.0701268957445249e-07 2.0687989770116865e-06 0 1.0990027207046043e-06 3.0876937885439722e-06 0 3.0367496100087192e-06 2.4124442606620414e-06 0 1.099002720704604e-06 3.0876937885439722e-06 0 3.0367496100087192e-06 2.4124442606620414e-06 0 2.9268645664994444e-06 3.211859725339357e-06 0 1.099002720704604e-06 3.0876937885439722e-06 0 2.9268645664994444e-06 3.211859725339357e-06 0 1.2833286681163481e-06 3.459025165890739e-06 0 2.9268645664994444e-06 3.211859725339357e-06 0 4.2762824557805938e-06 2.764352362393537e-06 0 4.0133326923479499e-06 3.1395338217403419e-06 0 3.0367496100087192e-06 2.4124442606620414e-06 0 2.9268645664994444e-06 3.211859725339357e-06 0 4.2762824557805938e-06 2.764352362393537e-06 0 5.3875808099294374e-06 2.0450714397994038e-06 0 3.0367496100087192e-06 2.4124442606620414e-06 0 4.2762824557805938e-06 2.764352362393537e-06 0 5.3875808099294374e-06 2.0450714397994038e-06 0 4.2762824557805938e-06 2.764352362393537e-06 0 5.5286233959192342e-06 2.8289617199204666e-06 0 4.2762824557805938e-06 2.764352362393537e-06 0 5.5286233959192342e-06 2.8289617199204666e-06 0 4.0133326923479499e-06 3.1395338217403419e-06 0 4.5245202091911512e-06 2.9967300035302813e-06 0 5.5286233959192342e-06 2.8289617199204666e-06 0 4.0133326923479499e-06 3.1395338217403419e-06 0 4.5245202091911512e-06 2.9967300035302813e-06 0 4.0133326923479499e-06 3.1395338217403419e-06 0 2.5731686214854471e-06 3.2740017620345248e-06 0 4.5245202091911512e-06 2.9967300035302813e-06 0 2.5731686214854471e-06 3.2740017620345248e-06 0 2.9909428377420427e-06 2.6140696111333142e-06 0 2.9268645664994444e-06 3.211859725339357e-06 0 4.013332692347949e-06 3.1395338217403419e-06 0 2.5731686214854471e-06 3.2740017620345248e-06 0 2.9268645664994444e-06 3.211859725339357e-06 0 2.5731686214854471e-06 3.2740017620345252e-06 0 1.2833286681163481e-06 3.459025165890739e-06 0 2.5731686214854471e-06 3.2740017620345248e-06 0 1.2833286681163481e-06 3.459025165890739e-06 0 6.3552182135676409e-07 3.3270794363434437e-06 0 -1.6752581772857561e-07 3.4549661159996932e-06 0 1.2833286681163481e-06 3.459025165890739e-06 0 6.3552182135676409e-07 3.3270794363434437e-06 0 -5.3942625868678568e-07 3.4246871492642733e-06 0 1.099002720704604e-06 3.0876937885439722e-06 0 1.2833286681163481e-06 3.459025165890739e-06 0 -5.3942625868678568e-07 3.4246871492642733e-06 0 -1.6752581772857561e-07 3.4549661159996932e-06 0 1.2833286681163481e-06 3.459025165890739e-06 0 -6.5742298866682341e-08 3.0077811494693633e-06 0 1.1109234136159803e-06 2.8547657170984873e-06 0 2.5856801519157902e-07 1.8994122201710492e-06 0 -6.5742298866682341e-08 3.0077811494693633e-06 0 -1.6752581772857561e-07 3.4549661159996932e-06 0 6.3552182135676409e-07 3.3270794363434437e-06 0 -6.5742298866682341e-08 3.0077811494693633e-06 0 6.3552182135676409e-07 3.3270794363434437e-06 0 1.1109234136159803e-06 2.8547657170984873e-06 0 2.5731686214854471e-06 3.2740017620345248e-06 0 6.3552182135676409e-07 3.3270794363434437e-06 0 1.1109234136159803e-06 2.8547657170984873e-06 0 1.1109234136159803e-06 2.8547657170984873e-06 0 6.9462530677238413e-07 1.6480420905625289e-06 0 2.5856801519157902e-07 1.8994122201710492e-06 0 1.1109234136159803e-06 2.8547657170984873e-06 0 1.7363039623435326e-06 2.5078666410011932e-06 0 6.9462530677238413e-07 1.6480420905625289e-06 0 2.5731686214854471e-06 3.2740017620345248e-06 0 1.1109234136159803e-06 2.8547657170984873e-06 0 1.7363039623435326e-06 2.5078666410011932e-06 0 2.5731686214854471e-06 3.2740017620345248e-06 0 1.7363039623435326e-06 2.5078666410011932e-06 0 2.9909428377420427e-06 2.6140696111333142e-06 0 1.7363039623435326e-06 2.5078666410011932e-06 0 2.9909428377420427e-06 2.6140696111333142e-06 0 1.2012173839440071e-06 1.5515384192846935e-06 0 1.7363039623435326e-06 2.5078666410011932e-06 0 6.9462530677238413e-07 1.6480420905625289e-06 0 1.2012173839440071e-06 1.5515384192846935e-06 0 8.1299374291120676e-10 7.542983434118114e-10 0 6.9462530677238413e-07 1.6480420905625289e-06 0 1.2012173839440071e-06 1.5515384192846935e-06 0 8.1299374291120676e-10 7.542983434118114e-10 0 6.9462530677238413e-07 1.6480420905625289e-06 0 4.8135303753519016e-10 7.4933132412341731e-10 0 6.9462530677238413e-07 1.6480420905625289e-06 0 4.8135303753519016e-10 7.4933132412341731e-10 0 2.5856801519157902e-07 1.8994122201710492e-06 0 4.8135303753519016e-10 7.4933132412341731e-10 0 -2.4746699392104942e-11 8.5343861686700355e-10 0 2.5856801519157902e-07 1.8994122201710492e-06 0 -2.1829445100442755e-07 1.7390797128057817e-06 0 -2.4746699392104942e-11 8.5343861686700355e-10 0 2.5856801519157902e-07 1.8994122201710492e-06 0 2.5640243995726769e-06 1.0052650783649101e-06 0 4.1292315996061598e-06 1.8447031417618728e-06 0 2.492846332987507e-06 1.7099555224415817e-06 0 2.5640243995726769e-06 1.0052650783649101e-06 0 4.1292315996061598e-06 1.8447031417618728e-06 0 5.0077693741300075e-06 1.3452338966331897e-06 0 4.484676761726891e-06 2.5343900547473253e-06 0 4.1292315996061598e-06 1.8447031417618728e-06 0 2.492846332987507e-06 1.7099555224415817e-06 0 4.484676761726891e-06 2.5343900547473253e-06 0 2.9909428377420427e-06 2.6140696111333142e-06 0 2.492846332987507e-06 1.7099555224415817e-06 0 2.9909428377420427e-06 2.6140696111333142e-06 0 2.4928463329875066e-06 1.7099555224415817e-06 0 1.2012173839440071e-06 1.5515384192846935e-06 0 2.492846332987507e-06 1.7099555224415817e-06 0 1.0303130199723227e-06 9.5062441586026582e-07 0 1.2012173839440071e-06 1.5515384192846935e-06 0 8.1299374291120676e-10 7.542983434118114e-10 0 1.2012173839440071e-06 1.5515384192846935e-06 0 1.278918332731401e-09 5.016617138690707e-10 0 1.0303130199723229e-06 9.5062441586026604e-07 0 1.2012173839440071e-06 1.5515384192846935e-06 0 1.278918332731401e-09 5.016617138690707e-10 0 1.0303130199723229e-06 9.5062441586026604e-07 0 1.278918332731401e-09 5.016617138690707e-10 0 1.5088004487543836e-09 4.2318126402033793e-10 0 1.0303130199723229e-06 9.5062441586026604e-07 0 1.5088004487543836e-09 4.2318126402033793e-10 0 1.0896447928244231e-06 7.1121807310966936e-07 0 2.5640243995726769e-06 1.0052650783649101e-06 0 1.0896447928244231e-06 7.1121807310966936e-07 0 1.6253638214405854e-09 3.5347792783938334e-10 0 2.5640243995726769e-06 1.0052650783649101e-06 0 2.492846332987507e-06 1.7099555224415817e-06 0 1.0896447928244231e-06 7.1121807310966936e-07 0 2.492846332987507e-06 1.7099555224415817e-06 0 1.0303130199723227e-06 9.5062441586026604e-07 0 1.0896447928244231e-06 7.1121807310966936e-07 0 1.5088004487543836e-09 4.2318126402033793e-10 0 1.0896447928244231e-06 7.1121807310966936e-07 0 1.6253638214405854e-09 3.5347792783938334e-10 0 2.5640243995726769e-06 1.0052650783649101e-06 0 1.6253638214405854e-09 3.5347792783938334e-10 0 1.6701468891839034e-06 2.9515209823899874e-07 0 1.6253638214405854e-09 3.5347792783938334e-10 0 1.7525256792035915e-09 -1.0786232170698895e-10 0 1.6701468891839034e-06 2.9515209823899874e-07 0 1.7525256792035915e-09 -1.0786232170698895e-10 0 1.6701468891839034e-06 2.9515209823899874e-07 0 1.2742040664144906e-06 -1.1709430719455494e-07 0 1.6701468891839034e-06 2.9515209823899874e-07 0 3.1616717802149434e-06 -2.1956049210543496e-08 0 1.2742040664144906e-06 -1.1709430719455494e-07 0 2.5640243995726769e-06 1.0052650783649101e-06 0 1.6701468891839036e-06 2.9515209823899874e-07 0 3.4599264096099976e-06 5.7123058162711938e-07 0 2.5640243995726769e-06 1.0052650783649101e-06 0 3.4599264096099976e-06 5.7123058162711938e-07 0 5.0077693741300075e-06 1.3452338966331897e-06 0 1.6701468891839034e-06 2.9515209823899874e-07 0 3.4599264096099976e-06 5.7123058162711938e-07 0 3.1616717802149434e-06 -2.1956049210543496e-08 0 3.4599264096099976e-06 5.7123058162711938e-07 0 5.010538912602056e-06 2.1648254398863465e-07 0 3.1616717802149434e-06 -2.1956049210543496e-08 0 3.4599264096099976e-06 5.7123058162711938e-07 0 5.0077693741300075e-06 1.3452338966331897e-06 0 5.010538912602056e-06 2.1648254398863465e-07 0 4.2564589660011056e-06 -6.8686875583428118e-07 0 5.010538912602056e-06 2.1648254398863465e-07 0 3.1616717802149434e-06 -2.1956049210543496e-08 0 4.2564589660011056e-06 -6.8686875583428118e-07 0 1.8263001340683092e-06 -6.4033707459899973e-07 0 3.1328635899404696e-06 -1.4206134722514152e-06 0 4.2564589660011056e-06 -6.8686875583428118e-07 0 3.1616717802149438e-06 -2.19560492105435e-08 0 1.8263001340683092e-06 -6.4033707459899973e-07 0 3.1616717802149434e-06 -2.1956049210543496e-08 0 1.8263001340683092e-06 -6.4033707459899973e-07 0 1.2742040664144906e-06 -1.1709430719455494e-07 0 1.7525256792035915e-09 -1.0786232170698895e-10 0 1.2742040664144906e-06 -1.1709430719455494e-07 0 1.7839265668508968e-09 2.0962790324832424e-11 0 1.8263001340683092e-06 -6.4033707459899973e-07 0 1.7839265668508968e-09 2.0962790324832424e-11 0 1.389426692679963e-09 -5.5334311566721473e-10 0 1.8263001340683092e-06 -6.4033707459899973e-07 0 1.2742040664144906e-06 -1.170943071945549e-07 0 1.7839265668508968e-09 2.0962790324832424e-11 0 1.389426692679963e-09 -5.5334311566721473e-10 0 1.414106837516147e-06 -1.2458913541403508e-06 0 1.025869243539186e-09 -7.0272257291795199e-10 0 1.8263001340683092e-06 -6.4033707459899973e-07 0 1.4141068375161466e-06 -1.2458913541403508e-06 0 3.1328635899404696e-06 -1.4206134722514152e-06 0 1.8263001340683092e-06 -6.4033707459899973e-07 0 1.389426692679963e-09 -5.5334311566721473e-10 0 1.414106837516147e-06 -1.2458913541403508e-06 0 1.025869243539186e-09 -7.0272257291795199e-10 0 9.1614635750941792e-07 -1.9653467522164947e-06 0 4.4841267917725246e-10 -1.0428342066566738e-09 0 1.414106837516147e-06 -1.2458913541403508e-06 0 1.025869243539186e-09 -7.0272257291795199e-10 0 9.1614635750941792e-07 -1.9653467522164947e-06 0 9.1614635750941792e-07 -1.9653467522164947e-06 0 4.4841267917725246e-10 -1.0428342066566738e-09 0 2.0985000010375634e-07 -2.1325070151697383e-06 0 9.1614635750941792e-07 -1.9653467522164947e-06 0 3.0355537254509556e-06 -2.4829942844109001e-06 0 1.1568843495197034e-06 -3.3239898034198292e-06 0 3.0355537254509556e-06 -2.4829942844109001e-06 0 2.7155960894500845e-06 -3.2357406921793237e-06 0 1.1568843495197034e-06 -3.3239898034198292e-06 0 1.414106837516147e-06 -1.2458913541403508e-06 0 9.1614635750941803e-07 -1.9653467522164947e-06 0 3.0355537254509556e-06 -2.4829942844109001e-06 0 2.7155960894500841e-06 -3.2357406921793237e-06 0 1.1568843495197034e-06 -3.3239898034198292e-06 0 2.219812640635575e-06 -3.7177030847350964e-06 0 1.414106837516147e-06 -1.2458913541403508e-06 0 3.0355537254509556e-06 -2.4829942844109001e-06 0 3.1328635899404696e-06 -1.4206134722514152e-06 0 3.0355537254509556e-06 -2.4829942844109001e-06 0 3.1328635899404696e-06 -1.4206134722514152e-06 0 4.9180210307459248e-06 -1.3456227659678249e-06 0 4.2564589660011056e-06 -6.8686875583428118e-07 0 3.1328635899404696e-06 -1.4206134722514152e-06 0 4.9180210307459248e-06 -1.3456227659678249e-06 0 3.0355537254509556e-06 -2.4829942844109001e-06 0 4.9180210307459239e-06 -1.3456227659678247e-06 0 6.5723516847326806e-06 -1.6900315734814842e-06 0 4.9180210307459248e-06 -1.3456227659678249e-06 0 6.5723516847326806e-06 -1.6900315734814842e-06 0 7.1344633288177663e-06 -2.7236349779904786e-07 0 6.5723516847326806e-06 -1.6900315734814842e-06 0 9.338354633123258e-06 3.7480415748211577e-08 0 7.1344633288177663e-06 -2.7236349779904786e-07 0 3.0355537254509556e-06 -2.4829942844109001e-06 0 6.5723516847326806e-06 -1.6900315734814844e-06 0 4.5514923718920688e-06 -2.8284433783213706e-06 0 2.7155960894500841e-06 -3.2357406921793237e-06 0 4.5514923718920688e-06 -2.8284433783213706e-06 0 2.219812640635575e-06 -3.7177030847350964e-06 0 3.0355537254509556e-06 -2.4829942844109001e-06 0 2.7155960894500845e-06 -3.2357406921793237e-06 0 4.5514923718920688e-06 -2.8284433783213706e-06 0 6.5723516847326806e-06 -1.6900315734814842e-06 0 4.5514923718920688e-06 -2.8284433783213706e-06 0 6.2376601348186447e-06 -2.3511944358240905e-06 0 4.5514923718920688e-06 -2.8284433783213706e-06 0 2.219812640635575e-06 -3.7177030847350964e-06 0 3.1088754252826258e-06 -3.6889777557774166e-06 0 4.5514923718920688e-06 -2.8284433783213706e-06 0 6.2376601348186447e-06 -2.3511944358240905e-06 0 3.1088754252826258e-06 -3.6889777557774166e-06 0 6.2376601348186447e-06 -2.3511944358240905e-06 0 7.051934010237445e-06 -2.0117007196759555e-06 0 3.1088754252826258e-06 -3.6889777557774166e-06 0 6.2376601348186447e-06 -2.3511944358240905e-06 0 7.051934010237445e-06 -2.0117007196759555e-06 0 9.6413743402351755e-06 -6.7321163226762506e-07 0 7.051934010237445e-06 -2.0117007196759555e-06 0 9.6413743402351755e-06 -6.7321163226762506e-07 0 1.0673352771931205e-05 1.0656433089853055e-07 0 7.051934010237445e-06 -2.0117007196759555e-06 0 2.6665121667428226e-06 -3.1227126360274412e-06 0 7.0943346001909807e-06 -1.1380777426601681e-06 0 7.051934010237445e-06 -2.0117007196759555e-06 0 7.0943346001909807e-06 -1.1380777426601681e-06 0 1.0673352771931205e-05 1.0656433089853055e-07 0 6.5723516847326806e-06 -1.6900315734814842e-06 0 9.6413743402351738e-06 -6.7321163226762527e-07 0 9.338354633123258e-06 3.7480415748211577e-08 0 6.5723516847326806e-06 -1.6900315734814842e-06 0 6.2376601348186447e-06 -2.3511944358240905e-06 0 9.6413743402351755e-06 -6.7321163226762506e-07 0 9.6413743402351755e-06 -6.7321163226762506e-07 0 1.2100965345609835e-05 1.1484041942479429e-06 0 9.338354633123258e-06 3.7480415748211577e-08 0 9.6413743402351755e-06 -6.7321163226762506e-07 0 1.2100965345609835e-05 1.1484041942479429e-06 0 1.3904929013321789e-05 1.9095296972757441e-06 0 1.2100965345609835e-05 1.1484041942479429e-06 0 9.338354633123258e-06 3.7480415748211577e-08 0 1.1066987152806015e-05 1.4530186914080728e-06 0 1.2100965345609835e-05 1.1484041942479429e-06 0 1.1066987152806015e-05 1.4530186914080728e-06 0 1.3510980715833182e-05 2.3022238393421686e-06 0 9.338354633123258e-06 3.7480415748211577e-08 0 1.1066987152806015e-05 1.4530186914080726e-06 0 8.6583266300347995e-06 7.4616382561679045e-07 0 1.1066987152806015e-05 1.4530186914080728e-06 0 9.1747461092551728e-06 1.7807275503291381e-06 0 8.6583266300347995e-06 7.4616382561679045e-07 0 1.1066987152806015e-05 1.4530186914080728e-06 0 1.2019015270066574e-05 2.4110065361077132e-06 0 1.3510980715833182e-05 2.3022238393421686e-06 0 1.1066987152806015e-05 1.4530186914080728e-06 0 9.1747461092551728e-06 1.7807275503291383e-06 0 1.2019015270066574e-05 2.4110065361077132e-06 0 1.0187863211119089e-05 2.5187966087826334e-06 0 9.1747461092551728e-06 1.7807275503291381e-06 0 1.2019015270066574e-05 2.4110065361077132e-06 0 7.9000463808648612e-06 2.3258942785275895e-06 0 9.1747461092551728e-06 1.7807275503291381e-06 0 7.0933518694988663e-06 1.7567239435724215e-06 0 1.0187863211119089e-05 2.5187966087826334e-06 0 7.9000463808648612e-06 2.3258942785275895e-06 0 9.1747461092551728e-06 1.7807275503291381e-06 0 9.1747461092551728e-06 1.7807275503291381e-06 0 6.6848402814567005e-06 8.333440890954211e-07 0 8.6583266300347995e-06 7.4616382561679045e-07 0 9.1747461092551728e-06 1.7807275503291381e-06 0 7.0933518694988663e-06 1.7567239435724217e-06 0 6.6848402814566997e-06 8.3334408909542121e-07 0 5.0077693741300075e-06 1.3452338966331897e-06 0 7.0933518694988663e-06 1.7567239435724215e-06 0 6.6848402814566997e-06 8.3334408909542121e-07 0 5.0077693741300075e-06 1.3452338966331897e-06 0 5.010538912602056e-06 2.1648254398863465e-07 0 6.6848402814566997e-06 8.3334408909542121e-07 0 5.010538912602056e-06 2.1648254398863465e-07 0 6.6848402814566997e-06 8.3334408909542121e-07 0 7.1344633288177663e-06 -2.7236349779904786e-07 0 4.2564589660011056e-06 -6.8686875583428118e-07 0 5.010538912602056e-06 2.1648254398863465e-07 0 7.1344633288177663e-06 -2.7236349779904786e-07 0 4.2564589660011056e-06 -6.8686875583428118e-07 0 4.9180210307459248e-06 -1.3456227659678249e-06 0 7.1344633288177663e-06 -2.7236349779904786e-07 0 9.338354633123258e-06 3.7480415748211577e-08 0 7.1344633288177663e-06 -2.7236349779904786e-07 0 8.6583266300347995e-06 7.4616382561679045e-07 0 6.6848402814566997e-06 8.3334408909542121e-07 0 7.1344633288177671e-06 -2.7236349779904765e-07 0 8.6583266300347995e-06 7.4616382561679045e-07 0 -6.2037166813554111e-06 -1.3917869864561626e-06 0 -6.0193956898944882e-06 -2.6191623678520641e-06 0 -1.0778157280206392e-05 -1.8182965560987533e-06 0 -6.0193956898944882e-06 -2.6191623678520641e-06 0 -2.7535060404229764e-06 -1.5666821260559774e-06 0 -3.6556043200026895e-06 -3.0731370986980999e-06 0 -6.2037166813554111e-06 -1.3917869864561626e-06 0 -2.6473743696035317e-06 -3.9026347624607812e-07 0 -2.7535060404229764e-06 -1.5666821260559774e-06 0 -6.2037166813554111e-06 -1.3917869864561626e-06 0 -6.0193956898944882e-06 -2.6191623678520641e-06 0 -2.7535060404229764e-06 -1.5666821260559774e-06 0 -2.6473743696035317e-06 -3.9026347624607812e-07 0 -1.205960894375379e-06 -4.8614216708107245e-07 0 -2.7535060404229764e-06 -1.5666821260559774e-06 0 -2.6473743696035317e-06 -3.9026347624607812e-07 0 -2.0493599182723366e-09 8.3813160058593522e-10 0 -1.205960894375379e-06 -4.8614216708107245e-07 0 -2.0493599182723366e-09 8.3813160058593522e-10 0 -1.205960894375379e-06 -4.8614216708107245e-07 0 -2.2464397748500151e-09 -8.6937988228442349e-10 0 -1.205960894375379e-06 -4.8614216708107245e-07 0 -2.2464397748499989e-09 -8.6937988228441212e-10 0 -2.7535060404229764e-06 -1.5666821260559774e-06 0 -2.2464397748500151e-09 -8.6937988228442349e-10 0 -2.7535060404229764e-06 -1.5666821260559774e-06 0 -1.6450807524987942e-06 -1.9873117591495987e-06 0 -2.7535060404229764e-06 -1.5666821260559774e-06 0 -1.6450807524987944e-06 -1.9873117591495987e-06 0 -3.6556043200026895e-06 -3.0731370986980999e-06 0 -2.2464397748500151e-09 -8.6937988228442349e-10 0 -2.0010391625390627e-09 -5.4054089959646599e-10 0 -1.6450807524987942e-06 -1.9873117591495987e-06 0 -2.0010391625394357e-09 -5.4054089959691732e-10 0 -1.6450807524987942e-06 -1.9873117591495987e-06 0 -8.7413178344343567e-10 -1.456862533591394e-09 0 -1.6450807524987942e-06 -1.9873117591495987e-06 0 -3.6556043200026895e-06 -3.0731370986980999e-06 0 -1.613105000893361e-06 -3.0561784802744898e-06 0 -3.6556043200026895e-06 -3.0731370986980999e-06 0 -3.3189314915117084e-06 -4.0389198345621556e-06 0 -1.613105000893361e-06 -3.0561784802744898e-06 0 -6.0193956898944882e-06 -2.6191623678520641e-06 0 -3.6556043200026895e-06 -3.0731370986980999e-06 0 -5.6446911970569796e-06 -3.9748172922233754e-06 0 -6.0193956898944882e-06 -2.6191623678520641e-06 0 -5.6446911970569787e-06 -3.9748172922233754e-06 0 -8.6073831685961857e-06 -3.4646712666509831e-06 0 -5.6446911970569796e-06 -3.9748172922233754e-06 0 -3.3189314915117084e-06 -4.0389198345621556e-06 0 -3.6355042027668422e-06 -4.6489460129278485e-06 0 -3.6556043200026895e-06 -3.0731370986980999e-06 0 -5.6446911970569796e-06 -3.9748172922233754e-06 0 -3.3189314915117084e-06 -4.0389198345621556e-06 0 -3.3189314915117084e-06 -4.0389198345621556e-06 0 -1.8457026009106204e-06 -4.2127363874741922e-06 0 -3.6355042027668422e-06 -4.6489460129278485e-06 0 -1.8457026009106204e-06 -4.2127363874741922e-06 0 -1.613105000893361e-06 -3.0561784802744898e-06 0 -3.2983811924570546e-07 -3.5252909393753349e-06 0 -3.3189314915117084e-06 -4.0389198345621556e-06 0 -1.8457026009106204e-06 -4.2127363874741922e-06 0 -1.613105000893361e-06 -3.0561784802744898e-06 0 -1.613105000893361e-06 -3.0561784802744898e-06 0 -8.7413178344343567e-10 -1.456862533591394e-09 0 -3.7923689666617221e-07 -1.989603054071043e-06 0 -1.6450807524987942e-06 -1.9873117591495987e-06 0 -1.613105000893361e-06 -3.0561784802744898e-06 0 -8.7413178344343567e-10 -1.456862533591394e-09 0 -8.7413178344343567e-10 -1.456862533591394e-09 0 -3.7923689666617221e-07 -1.989603054071043e-06 0 -2.8414658806575136e-10 -9.52931038671251e-10 0 -1.613105000893361e-06 -3.0561784802744898e-06 0 -3.7923689666617221e-07 -1.989603054071043e-06 0 -3.2983811924570546e-07 -3.5252909393753349e-06 0 -3.7923689666617221e-07 -1.989603054071043e-06 0 2.0985000010375634e-07 -2.1325070151697383e-06 0 -3.2983811924570546e-07 -3.5252909393753349e-06 0 -3.7923689666617221e-07 -1.989603054071043e-06 0 -2.8414658806575136e-10 -9.52931038671251e-10 0 2.0985000010375634e-07 -2.1325070151697383e-06 0 -2.8414658806575136e-10 -9.52931038671251e-10 0 4.4841267917725246e-10 -1.0428342066566738e-09 0 2.0985000010375634e-07 -2.1325070151697383e-06 0 9.1614635750941792e-07 -1.9653467522164947e-06 0 2.0985000010375634e-07 -2.1325070151697383e-06 0 1.1568843495197034e-06 -3.3239898034198292e-06 0 2.0985000010375634e-07 -2.1325070151697383e-06 0 1.1568843495197034e-06 -3.3239898034198292e-06 0 -3.2983811924570546e-07 -3.5252909393753349e-06 0 -1.8457026009106204e-06 -4.2127363874741922e-06 0 -3.2983811924570546e-07 -3.5252909393753349e-06 0 -8.9280269987309884e-09 -4.419008750465565e-06 0 1.1568843495197034e-06 -3.3239898034198292e-06 0 -3.2983811924570536e-07 -3.5252909393753349e-06 0 -8.9280269987309884e-09 -4.419008750465565e-06 0 1.1568843495197034e-06 -3.3239898034198292e-06 0 2.219812640635575e-06 -3.7177030847350964e-06 0 -8.9280269987309884e-09 -4.419008750465565e-06 0 2.219812640635575e-06 -3.7177030847350964e-06 0 -8.9280269987309884e-09 -4.419008750465565e-06 0 3.1088754252826258e-06 -3.6889777557774166e-06 0 -8.9280269987309884e-09 -4.419008750465565e-06 0 3.1088754252826258e-06 -3.6889777557774166e-06 0 -1.3950495035600532e-06 -4.5482332761314035e-06 0 7.051934010237445e-06 -2.0117007196759555e-06 0 3.1088754252826262e-06 -3.6889777557774166e-06 0 2.6665121667428226e-06 -3.1227126360274416e-06 0 2.6665121667428226e-06 -3.1227126360274416e-06 0 -1.611957970312523e-06 -3.6496002098612999e-06 0 -8.0476454561354581e-07 -1.9995745736242187e-06 0 2.6665121667428226e-06 -3.1227126360274416e-06 0 -1.611957970312523e-06 -3.6496002098612999e-06 0 -1.3950495035600532e-06 -4.5482332761314035e-06 0 3.1088754252826258e-06 -3.6889777557774166e-06 0 2.6665121667428226e-06 -3.1227126360274416e-06 0 -1.3950495035600532e-06 -4.5482332761314035e-06 0 -1.611957970312523e-06 -3.6496002098612999e-06 0 -6.123429324328563e-06 -4.3259621290589822e-06 0 -1.3950495035600532e-06 -4.5482332761314035e-06 0 -1.611957970312523e-06 -3.6496002098612999e-06 0 -6.2042252208589713e-06 -2.9827376818363616e-06 0 -8.0476454561354581e-07 -1.9995745736242187e-06 0 -1.611957970312523e-06 -3.6496002098612999e-06 0 -6.2042252208589713e-06 -2.9827376818363616e-06 0 -6.123429324328563e-06 -4.3259621290589822e-06 0 -6.123429324328563e-06 -4.3259621290589822e-06 0 -1.3950495035600532e-06 -4.5482332761314035e-06 0 -3.6355042027668422e-06 -4.6489460129278485e-06 0 -6.123429324328563e-06 -4.3259621290589822e-06 0 -3.6355042027668422e-06 -4.6489460129278485e-06 0 -7.049151537629437e-06 -4.2524854347249711e-06 0 -8.9280269987309884e-09 -4.419008750465565e-06 0 -1.3950495035600532e-06 -4.5482332761314035e-06 0 -3.6355042027668422e-06 -4.6489460129278485e-06 0 -1.8457026009106204e-06 -4.2127363874741922e-06 0 -8.9280269987309884e-09 -4.419008750465565e-06 0 -3.6355042027668422e-06 -4.6489460129278485e-06 0 -5.6446911970569796e-06 -3.9748172922233754e-06 0 -3.6355042027668422e-06 -4.6489460129278485e-06 0 -7.049151537629437e-06 -4.2524854347249711e-06 0 -5.6446911970569796e-06 -3.9748172922233754e-06 0 -7.049151537629437e-06 -4.2524854347249711e-06 0 -8.6073831685961857e-06 -3.4646712666509831e-06 0 -7.049151537629437e-06 -4.2524854347249711e-06 0 -1.0877579691087371e-05 -3.4991326052338519e-06 0 -8.6073831685961857e-06 -3.4646712666509831e-06 0 -6.123429324328563e-06 -4.3259621290589822e-06 0 -7.049151537629437e-06 -4.2524854347249711e-06 0 -1.0877579691087371e-05 -3.4991326052338519e-06 0 -6.123429324328563e-06 -4.3259621290589822e-06 0 -1.2834354043706769e-05 -2.3127491977773229e-06 0 -1.0877579691087371e-05 -3.4991326052338519e-06 0 -6.2042252208589713e-06 -2.9827376818363616e-06 0 -6.123429324328563e-06 -4.3259621290589822e-06 0 -1.2834354043706769e-05 -2.3127491977773229e-06 0 -1.2834354043706769e-05 -2.3127491977773229e-06 0 -1.0877579691087371e-05 -3.4991326052338519e-06 0 -1.6792925507689927e-05 -1.6537870199719999e-06 0 -1.0877579691087371e-05 -3.4991326052338519e-06 0 -1.6792925507689927e-05 -1.6537870199719999e-06 0 -1.290795160903294e-05 -2.616238060987939e-06 0 -1.2834354043706769e-05 -2.3127491977773229e-06 0 -1.6792925507689927e-05 -1.6537870199719999e-06 0 -2.1286552275595216e-05 8.9980489593988927e-07 0 -1.6792925507689927e-05 -1.6537870199719999e-06 0 -1.6375007345929686e-05 -9.8909721219046894e-07 0 -2.3088452032969581e-05 1.2337851023384408e-06 0 -1.6792925507689927e-05 -1.6537870199719999e-06 0 -1.6375007345929686e-05 -9.8909721219046894e-07 0 -1.290795160903294e-05 -2.616238060987939e-06 0 -1.6375007345929686e-05 -9.8909721219046894e-07 0 -1.290795160903294e-05 -2.616238060987939e-06 0 -1.0778157280206392e-05 -1.8182965560987533e-06 0 -1.0877579691087371e-05 -3.4991326052338519e-06 0 -1.290795160903294e-05 -2.616238060987939e-06 0 -8.6073831685961857e-06 -3.4646712666509831e-06 0 -1.290795160903294e-05 -2.616238060987939e-06 0 -8.6073831685961857e-06 -3.4646712666509831e-06 0 -1.0778157280206392e-05 -1.8182965560987533e-06 0 -6.0193956898944882e-06 -2.6191623678520641e-06 0 -8.6073831685961857e-06 -3.4646712666509831e-06 0 -1.0778157280206392e-05 -1.8182965560987533e-06 0 -3.9990812531627113e-05 1.2549448475262326e-05 0 -3.5155244874922529e-05 1.242144146705765e-05 0 -2.8011332099240719e-05 6.2463775560272375e-06 0 -3.9990812531627113e-05 1.2549448475262326e-05 0 -3.5155244874922529e-05 1.242144146705765e-05 0 -5.060208125613538e-05 2.2599351779920841e-05 0 -3.5155244874922529e-05 1.242144146705765e-05 0 -2.8011332099240719e-05 6.2463775560272375e-06 0 -2.4261920508967085e-05 9.374298829754858e-06 0 -3.5155244874922529e-05 1.242144146705765e-05 0 -2.4261920508967085e-05 9.374298829754858e-06 0 -3.5157063016743451e-05 1.8509853319803586e-05 0 -3.9990812531627113e-05 1.2549448475262326e-05 0 -2.8011332099240719e-05 6.2463775560272375e-06 0 -3.0845514835223776e-05 5.5209877551693396e-06 0 -3.0845514835223776e-05 5.5209877551693396e-06 0 -2.3088452032969581e-05 1.2337851023384408e-06 0 -2.1286552275595216e-05 8.9980489593988927e-07 0 -1.6792925507689927e-05 -1.6537870199719999e-06 0 -2.3088452032969581e-05 1.2337851023384408e-06 0 -2.1286552275595216e-05 8.9980489593988927e-07 0 -2.8011332099240719e-05 6.2463775560272375e-06 0 -3.0845514835223776e-05 5.5209877551693396e-06 0 -2.1286552275595216e-05 8.9980489593988927e-07 0 -2.8011332099240719e-05 6.2463775560272375e-06 0 -2.1286552275595216e-05 8.9980489593988927e-07 0 -1.6099966400433916e-05 2.1339140399222167e-06 0 -1.2834354043706769e-05 -2.3127491977773229e-06 0 -1.0317564309872619e-05 -1.0820050372875371e-06 0 -1.6099966400433916e-05 2.1339140399222167e-06 0 -1.2834354043706769e-05 -2.3127491977773229e-06 0 -2.1286552275595216e-05 8.9980489593988959e-07 0 -1.6099966400433916e-05 2.1339140399222167e-06 0 -6.2042252208589713e-06 -2.9827376818363616e-06 0 -1.2834354043706769e-05 -2.3127491977773229e-06 0 -1.0317564309872619e-05 -1.0820050372875375e-06 0 -1.6099966400433916e-05 2.1339140399222167e-06 0 -2.4261920508967085e-05 9.374298829754858e-06 0 -1.5103477836558518e-05 8.2787401795653151e-06 0 -2.8011332099240719e-05 6.2463775560272375e-06 0 -1.6099966400433916e-05 2.1339140399222162e-06 0 -2.4261920508967085e-05 9.374298829754858e-06 0 -2.4261920508967085e-05 9.374298829754858e-06 0 -1.5103477836558518e-05 8.2787401795653134e-06 0 -2.2075556529586705e-05 1.6530434270341661e-05 0 -1.5103477836558518e-05 8.2787401795653151e-06 0 -6.246116073333019e-06 3.919231130676281e-06 0 -6.6310256437199743e-06 1.3297885340594893e-05 0 -6.246116073333019e-06 3.919231130676281e-06 0 1.0536592826231273e-06 6.3198317818052353e-06 0 -6.6310256437199743e-06 1.3297885340594893e-05 0 -6.246116073333019e-06 3.919231130676281e-06 0 1.1964847050301761e-07 1.1391302016370238e-06 0 1.0536592826231273e-06 6.3198317818052353e-06 0 -1.6099966400433916e-05 2.1339140399222167e-06 0 -1.5103477836558518e-05 8.2787401795653151e-06 0 -6.246116073333019e-06 3.919231130676281e-06 0 -1.6099966400433916e-05 2.1339140399222167e-06 0 -6.2461160733330207e-06 3.9192311306762819e-06 0 -5.8615448631143235e-06 -7.0739188941405748e-08 0 -1.0317564309872619e-05 -1.0820050372875375e-06 0 -1.6099966400433916e-05 2.1339140399222167e-06 0 -5.8615448631143235e-06 -7.0739188941405748e-08 0 -6.2042252208589713e-06 -2.9827376818363616e-06 0 -1.0317564309872619e-05 -1.0820050372875375e-06 0 -5.8615448631143235e-06 -7.0739188941405748e-08 0 -6.2042252208589713e-06 -2.9827376818363616e-06 0 -5.8615448631143227e-06 -7.073918894140592e-08 0 -8.0476454561354581e-07 -1.9995745736242187e-06 0 -5.8615448631143235e-06 -7.0739188941405748e-08 0 -8.0476454561354581e-07 -1.9995745736242187e-06 0 1.1964847050301761e-07 1.1391302016370238e-06 0 -6.246116073333019e-06 3.919231130676281e-06 0 -5.8615448631143227e-06 -7.0739188941405986e-08 0 1.1964847050301761e-07 1.1391302016370238e-06 0 -8.0476454561354581e-07 -1.9995745736242187e-06 0 1.1964847050301761e-07 1.1391302016370238e-06 0 4.4529288955651409e-06 -6.2310923656338793e-07 0 1.1964847050301761e-07 1.1391302016370238e-06 0 4.45292889556514e-06 -6.2310923656338804e-07 0 6.6266218542938367e-06 3.370034199074253e-06 0 2.6665121667428226e-06 -3.1227126360274416e-06 0 -8.0476454561354581e-07 -1.9995745736242187e-06 0 4.4529288955651409e-06 -6.2310923656338793e-07 0 4.4529288955651409e-06 -6.2310923656338793e-07 0 7.0943346001909815e-06 -1.1380777426601681e-06 0 9.7104676224170529e-06 1.2322471849154445e-06 0 2.6665121667428226e-06 -3.1227126360274416e-06 0 4.4529288955651409e-06 -6.2310923656338793e-07 0 7.0943346001909807e-06 -1.1380777426601681e-06 0 4.4529288955651409e-06 -6.2310923656338793e-07 0 6.6266218542938367e-06 3.370034199074253e-06 0 9.7104676224170529e-06 1.2322471849154445e-06 0 6.6266218542938367e-06 3.370034199074253e-06 0 9.7104676224170529e-06 1.2322471849154445e-06 0 1.4096249563550681e-05 5.8770083122476914e-06 0 1.1964847050301761e-07 1.1391302016370238e-06 0 6.6266218542938367e-06 3.370034199074253e-06 0 1.0536592826231273e-06 6.3198317818052353e-06 0 6.6266218542938367e-06 3.370034199074253e-06 0 1.0536592826231273e-06 6.3198317818052353e-06 0 8.2569663714698305e-06 9.9640042671600064e-06 0 6.6266218542938367e-06 3.370034199074253e-06 0 8.2569663714698305e-06 9.9640042671600064e-06 0 1.4096249563550681e-05 5.8770083122476914e-06 0 8.2569663714698305e-06 9.9640042671600064e-06 0 1.3832835378445508e-05 1.6632032552594761e-05 0 1.8956932345513615e-05 1.1722608898857632e-05 0 8.2569663714698305e-06 9.9640042671600064e-06 0 1.4096249563550681e-05 5.8770083122476914e-06 0 1.8956932345513615e-05 1.1722608898857632e-05 0 8.2569663714698305e-06 9.9640042671600064e-06 0 3.5898631903189208e-06 1.8710161727333937e-05 0 -6.6310256437199743e-06 1.3297885340594893e-05 0 1.0536592826231273e-06 6.3198317818052353e-06 0 8.2569663714698305e-06 9.9640042671600064e-06 0 -6.6310256437199743e-06 1.3297885340594893e-05 0 8.2569663714698305e-06 9.9640042671600064e-06 0 3.5898631903189208e-06 1.8710161727333937e-05 0 1.3832835378445508e-05 1.6632032552594761e-05 0 1.3832835378445508e-05 1.6632032552594761e-05 0 9.9207019536740167e-06 2.8532368393209222e-05 0 2.3788435330355792e-05 2.0283993682237651e-05 0 9.9207019536740167e-06 2.8532368393209222e-05 0 2.3788435330355792e-05 2.0283993682237651e-05 0 2.148360187216463e-05 4.182304528879349e-05 0 9.9207019536740167e-06 2.8532368393209222e-05 0 8.9853809798621424e-06 4.5958713201643071e-05 0 2.148360187216463e-05 4.182304528879349e-05 0 9.9207019536740167e-06 2.8532368393209222e-05 0 -4.892104731083058e-06 4.8722475370206563e-05 0 8.9853809798621424e-06 4.5958713201643071e-05 0 3.5898631903189208e-06 1.8710161727333937e-05 0 9.9207019536740167e-06 2.8532368393209222e-05 0 -9.1836864405657238e-06 3.0011314025481465e-05 0 3.5898631903189208e-06 1.8710161727333937e-05 0 1.3832835378445508e-05 1.6632032552594757e-05 0 9.9207019536740167e-06 2.8532368393209222e-05 0 9.9207019536740167e-06 2.8532368393209222e-05 0 -9.1836864405657238e-06 3.0011314025481465e-05 0 -4.892104731083058e-06 4.8722475370206563e-05 0 -9.1836864405657238e-06 3.0011314025481465e-05 0 -2.4351378683331537e-05 5.010681830095854e-05 0 -4.892104731083058e-06 4.8722475370206563e-05 0 -9.1836864405657238e-06 3.0011314025481465e-05 0 -2.0733251444563924e-05 2.6832894206622641e-05 0 -2.4351378683331537e-05 5.010681830095854e-05 0 -9.1836864405657238e-06 3.0011314025481465e-05 0 -6.6310256437199743e-06 1.3297885340594893e-05 0 -2.0733251444563924e-05 2.6832894206622641e-05 0 -6.6310256437199743e-06 1.3297885340594893e-05 0 -2.2075556529586705e-05 1.6530434270341661e-05 0 -2.0733251444563924e-05 2.6832894206622641e-05 0 3.5898631903189208e-06 1.8710161727333937e-05 0 -9.1836864405657238e-06 3.0011314025481465e-05 0 -6.6310256437199743e-06 1.3297885340594893e-05 0 -1.5103477836558518e-05 8.2787401795653151e-06 0 -6.6310256437199751e-06 1.3297885340594895e-05 0 -2.2075556529586705e-05 1.6530434270341661e-05 0 -2.4261920508967085e-05 9.374298829754858e-06 0 -2.2075556529586705e-05 1.6530434270341661e-05 0 -3.5157063016743451e-05 1.8509853319803586e-05 0 -2.2075556529586705e-05 1.6530434270341661e-05 0 -3.3283122066310713e-05 2.8062270337873804e-05 0 -3.5157063016743451e-05 1.8509853319803586e-05 0 -2.2075556529586705e-05 1.6530434270341661e-05 0 -3.3283122066310713e-05 2.8062270337873804e-05 0 -2.0733251444563924e-05 2.6832894206622641e-05 0 -3.3283122066310713e-05 2.8062270337873804e-05 0 -2.0733251444563924e-05 2.6832894206622641e-05 0 -3.5534879990764125e-05 4.0959046654860482e-05 0 -2.0733251444563924e-05 2.6832894206622641e-05 0 -3.5534879990764125e-05 4.0959046654860482e-05 0 -2.4351378683331537e-05 5.010681830095854e-05 0 -3.5534879990764125e-05 4.0959046654860482e-05 0 -4.9915939986394324e-05 4.2045387105466478e-05 0 -5.1086580525372225e-05 6.2655770100070887e-05 0 -3.5534879990764125e-05 4.0959046654860482e-05 0 -5.1086580525372225e-05 6.2655770100070887e-05 0 -2.4351378683331537e-05 5.010681830095854e-05 0 -3.3283122066310713e-05 2.8062270337873804e-05 0 -3.5534879990764125e-05 4.0959046654860482e-05 0 -4.9915939986394324e-05 4.2045387105466478e-05 0 -3.3283122066310713e-05 2.8062270337873804e-05 0 -4.9915939986394324e-05 4.2045387105466478e-05 0 -4.6289175773937225e-05 2.8811653535800847e-05 0 -4.9915939986394324e-05 4.2045387105466478e-05 0 -7.3314381331532902e-05 5.6868446630130054e-05 0 -5.1086580525372225e-05 6.2655770100070887e-05 0 -4.9915939986394324e-05 4.2045387105466478e-05 0 -6.2068053763468615e-05 3.7390415290793676e-05 0 -7.3314381331532902e-05 5.6868446630130054e-05 0 -4.9915939986394324e-05 4.2045387105466478e-05 0 -6.2068053763468615e-05 3.7390415290793676e-05 0 -4.6289175773937225e-05 2.8811653535800847e-05 0 -6.2068053763468615e-05 3.7390415290793676e-05 0 -4.6289175773937225e-05 2.8811653535800847e-05 0 -5.060208125613538e-05 2.2599351779920841e-05 0 -4.6289175773937225e-05 2.8811653535800847e-05 0 -3.5157063016743451e-05 1.8509853319803586e-05 0 -5.060208125613538e-05 2.2599351779920841e-05 0 -3.3283122066310713e-05 2.8062270337873804e-05 0 -4.6289175773937225e-05 2.8811653535800847e-05 0 -3.5157063016743451e-05 1.8509853319803586e-05 0 -3.5155244874922529e-05 1.242144146705765e-05 0 -3.5157063016743451e-05 1.8509853319803586e-05 0 -5.060208125613538e-05 2.2599351779920841e-05 0 1.6716943722113575e-05 4.3938786782965745e-06 0 1.6740191506986954e-05 4.141475622282161e-06 0 1.8895715058125837e-05 5.7966402010560619e-06 0 1.6740191506986954e-05 4.141475622282161e-06 0 1.8895715058125837e-05 5.7966402010560627e-06 0 2.0038407126863137e-05 6.5426209586962618e-06 0 1.8895715058125837e-05 5.7966402010560619e-06 0 2.0038407126863137e-05 6.5426209586962626e-06 0 2.2087659395033385e-05 8.2381522073413129e-06 0 1.6716943722113575e-05 4.3938786782965745e-06 0 1.8895715058125837e-05 5.7966402010560619e-06 0 1.7842996878306207e-05 4.8533278167696487e-06 0 1.7842996878306207e-05 4.8533278167696487e-06 0 1.4910469560544039e-05 3.4563709723811502e-06 0 1.5584861578984537e-05 2.7666075712262192e-06 0 1.6716943722113575e-05 4.3938786782965745e-06 0 1.7842996878306207e-05 4.8533278167696487e-06 0 1.4910469560544039e-05 3.4563709723811502e-06 0 1.3511279733858727e-05 2.1022335881879281e-06 0 1.4910469560544037e-05 3.4563709723811502e-06 0 1.5584861578984537e-05 2.7666075712262192e-06 0 1.6716943722113575e-05 4.3938786782965745e-06 0 1.4910469560544039e-05 3.4563709723811502e-06 0 1.446831176211712e-05 3.2882790963287969e-06 0 1.4910469560544039e-05 3.4563709723811502e-06 0 1.2383419849514731e-05 2.799337041378008e-06 0 1.446831176211712e-05 3.2882790963287969e-06 0 1.208425451048966e-05 2.3631474759592354e-06 0 1.4910469560544039e-05 3.4563709723811502e-06 0 1.2383419849514731e-05 2.799337041378008e-06 0 1.0187863211119089e-05 2.5187966087826334e-06 0 1.2383419849514731e-05 2.799337041378008e-06 0 1.2019015270066574e-05 2.4110065361077132e-06 0 1.2383419849514731e-05 2.799337041378008e-06 0 1.2019015270066574e-05 2.4110065361077128e-06 0 1.446831176211712e-05 3.2882790963287969e-06 0 1.2019015270066574e-05 2.4110065361077132e-06 0 1.446831176211712e-05 3.2882790963287969e-06 0 1.3510980715833182e-05 2.3022238393421686e-06 0 1.6716943722113575e-05 4.3938786782965745e-06 0 1.6740191506986954e-05 4.141475622282161e-06 0 1.446831176211712e-05 3.2882790963287969e-06 0 1.6740191506986954e-05 4.141475622282161e-06 0 1.446831176211712e-05 3.2882790963287969e-06 0 1.3510980715833182e-05 2.3022238393421686e-06 0 1.6740191506986954e-05 4.141475622282161e-06 0 1.3510980715833182e-05 2.3022238393421686e-06 0 1.3904929013321789e-05 1.9095296972757441e-06 0 1.2100965345609835e-05 1.1484041942479429e-06 0 1.3510980715833182e-05 2.3022238393421686e-06 0 1.3904929013321789e-05 1.9095296972757441e-06 0 9.6413743402351755e-06 -6.7321163226762506e-07 0 1.3904929013321789e-05 1.9095296972757441e-06 0 1.0673352771931205e-05 1.0656433089853055e-07 0 1.3904929013321789e-05 1.9095296972757441e-06 0 1.4394922870432856e-05 2.9999365159205841e-06 0 1.6989529584770422e-05 4.2612551725921597e-06 0 1.3904929013321789e-05 1.9095296972757441e-06 0 1.0673352771931205e-05 1.0656433089853043e-07 0 1.4394922870432856e-05 2.9999365159205841e-06 0 1.6740191506986954e-05 4.141475622282161e-06 0 1.3904929013321788e-05 1.9095296972757433e-06 0 1.6989529584770422e-05 4.2612551725921597e-06 0 7.0943346001909807e-06 -1.1380777426601681e-06 0 1.0673352771931205e-05 1.0656433089853055e-07 0 9.7104676224170529e-06 1.2322471849154445e-06 0 1.0673352771931205e-05 1.0656433089853055e-07 0 9.7104676224170529e-06 1.2322471849154447e-06 0 1.4394922870432856e-05 2.9999365159205841e-06 0 9.7104676224170529e-06 1.2322471849154445e-06 0 1.4394922870432856e-05 2.9999365159205841e-06 0 1.4096249563550681e-05 5.8770083122476914e-06 0 1.4394922870432856e-05 2.9999365159205841e-06 0 1.9717158252919488e-05 7.2242732347954026e-06 0 1.4096249563550681e-05 5.8770083122476914e-06 0 1.9717158252919488e-05 7.2242732347954026e-06 0 1.4096249563550681e-05 5.8770083122476914e-06 0 1.8956932345513615e-05 1.1722608898857632e-05 0 1.6740191506986954e-05 4.141475622282161e-06 0 1.6989529584770422e-05 4.2612551725921597e-06 0 2.0038407126863137e-05 6.5426209586962618e-06 0 1.4394922870432856e-05 2.9999365159205841e-06 0 1.9717158252919488e-05 7.2242732347954026e-06 0 1.6989529584770422e-05 4.2612551725921597e-06 0 1.9717158252919488e-05 7.2242732347954026e-06 0 1.6989529584770422e-05 4.2612551725921597e-06 0 2.0038407126863137e-05 6.5426209586962618e-06 0 1.9717158252919488e-05 7.2242732347954026e-06 0 2.0038407126863137e-05 6.5426209586962618e-06 0 2.340863950622169e-05 9.7948431961510694e-06 0 2.0038407126863137e-05 6.5426209586962618e-06 0 2.340863950622169e-05 9.7948431961510694e-06 0 2.2087659395033385e-05 8.2381522073413129e-06 0 1.9717158252919488e-05 7.2242732347954026e-06 0 2.340863950622169e-05 9.7948431961510694e-06 0 2.7377354477427119e-05 1.4359555184766255e-05 0 2.340863950622169e-05 9.7948431961510694e-06 0 2.7377354477427119e-05 1.4359555184766255e-05 0 2.6115723645845262e-05 1.1538063384270668e-05 0 2.6115723645845262e-05 1.1538063384270668e-05 0 2.2786420814866943e-05 8.1189639781951539e-06 0 2.2087659395033385e-05 8.2381522073413129e-06 0 2.340863950622169e-05 9.7948431961510694e-06 0 2.6115723645845262e-05 1.1538063384270668e-05 0 2.2087659395033385e-05 8.2381522073413129e-06 0 1.9717158252919488e-05 7.2242732347954026e-06 0 1.8956932345513615e-05 1.1722608898857632e-05 0 2.7377354477427119e-05 1.4359555184766255e-05 0 1.8956932345513615e-05 1.1722608898857632e-05 0 2.7377354477427119e-05 1.4359555184766255e-05 0 2.3788435330355792e-05 2.0283993682237651e-05 0 1.3832835378445508e-05 1.6632032552594761e-05 0 1.8956932345513615e-05 1.1722608898857632e-05 0 2.3788435330355792e-05 2.0283993682237651e-05 0 2.7377354477427119e-05 1.4359555184766255e-05 0 2.3788435330355792e-05 2.0283993682237651e-05 0 3.9479426057747099e-05 2.41683217733329e-05 0 2.3788435330355792e-05 2.0283993682237651e-05 0 3.9479426057747099e-05 2.41683217733329e-05 0 2.148360187216463e-05 4.182304528879349e-05 0 2.7377354477427119e-05 1.4359555184766255e-05 0 2.96713975631425e-05 1.5453587496070705e-05 0 3.9479426057747099e-05 2.41683217733329e-05 0 2.6115723645845262e-05 1.1538063384270668e-05 0 2.9671397563142496e-05 1.5453587496070702e-05 0 2.4260298816167693e-05 8.491924143616828e-06 0 2.6115723645845262e-05 1.1538063384270668e-05 0 2.4260298816167693e-05 8.491924143616828e-06 0 2.2786420814866943e-05 8.1189639781951539e-06 0 2.7377354477427119e-05 1.4359555184766255e-05 0 2.6115723645845262e-05 1.1538063384270668e-05 0 2.9671397563142496e-05 1.5453587496070702e-05 0 2.9671397563142496e-05 1.5453587496070702e-05 0 2.4260298816167693e-05 8.4919241436168297e-06 0 2.5739777308491396e-05 4.5818360203689368e-06 0 2.4260298816167693e-05 8.491924143616828e-06 0 2.2532745078202745e-05 -7.1049141074213224e-07 0 2.5739777308491396e-05 4.5818360203689368e-06 0 2.4260298816167693e-05 8.491924143616828e-06 0 2.038287030202898e-05 4.0286060980552093e-06 0 2.2532745078202745e-05 -7.1049141074213224e-07 0 2.4260298816167693e-05 8.491924143616828e-06 0 2.038287030202898e-05 4.0286060980552093e-06 0 2.2786420814866943e-05 8.1189639781951539e-06 0 2.2786420814866943e-05 8.1189639781951539e-06 0 2.0323588056181954e-05 6.5228214782866968e-06 0 2.2087659395033385e-05 8.2381522073413129e-06 0 2.038287030202898e-05 4.0286060980552093e-06 0 2.2786420814866943e-05 8.1189639781951539e-06 0 2.0323588056181954e-05 6.5228214782866968e-06 0 2.038287030202898e-05 4.0286060980552093e-06 0 2.0323588056181954e-05 6.5228214782866968e-06 0 1.7944383760409914e-05 3.4139074899512747e-06 0 1.7842996878306207e-05 4.8533278167696487e-06 0 2.0323588056181954e-05 6.5228214782866968e-06 0 1.7944383760409914e-05 3.4139074899512747e-06 0 1.8895715058125837e-05 5.7966402010560619e-06 0 1.7842996878306207e-05 4.8533278167696487e-06 0 2.0323588056181954e-05 6.5228214782866968e-06 0 1.8895715058125837e-05 5.7966402010560619e-06 0 2.0323588056181951e-05 6.5228214782866968e-06 0 2.2087659395033385e-05 8.2381522073413129e-06 0 1.7842996878306207e-05 4.8533278167696487e-06 0 1.5584861578984537e-05 2.7666075712262192e-06 0 1.7944383760409914e-05 3.4139074899512747e-06 0 1.4903347138388406e-05 -2.6057600089780085e-08 0 1.5584861578984537e-05 2.7666075712262196e-06 0 1.7944383760409914e-05 3.4139074899512747e-06 0 2.038287030202898e-05 4.0286060980552093e-06 0 1.7069106143354399e-05 -7.2589456694841219e-07 0 1.9416443591993353e-05 -6.0840491598325282e-06 0 1.4903347138388406e-05 -2.6057600089780085e-08 0 1.473541473986379e-05 -4.1951733807150259e-06 0 1.7069106143354399e-05 -7.2589456694841219e-07 0 1.4903347138388406e-05 -2.6057600089780085e-08 0 1.7944383760409914e-05 3.4139074899512747e-06 0 1.7069106143354399e-05 -7.2589456694841219e-07 0 2.038287030202898e-05 4.0286060980552093e-06 0 1.7944383760409914e-05 3.4139074899512747e-06 0 1.7069106143354399e-05 -7.2589456694841219e-07 0 1.473541473986379e-05 -4.1951733807150259e-06 0 1.7069106143354399e-05 -7.2589456694841219e-07 0 1.6468830703551298e-05 -7.9628530907601184e-06 0 1.7069106143354399e-05 -7.2589456694841219e-07 0 1.9416443591993353e-05 -6.0840491598325282e-06 0 1.6468830703551298e-05 -7.9628530907601184e-06 0 1.9416443591993353e-05 -6.0840491598325282e-06 0 1.6468830703551298e-05 -7.9628530907601184e-06 0 2.0397480608454199e-05 -1.2965359958398907e-05 0 1.9416443591993353e-05 -6.0840491598325282e-06 0 2.0397480608454199e-05 -1.2965359958398907e-05 0 2.3634496183155812e-05 -1.2371626490658187e-05 0 1.6468830703551298e-05 -7.9628530907601184e-06 0 1.7188598344659391e-05 -1.3709250805022608e-05 0 2.0397480608454199e-05 -1.2965359958398907e-05 0 1.7188598344659391e-05 -1.3709250805022608e-05 0 2.0397480608454199e-05 -1.2965359958398907e-05 0 2.2686500252051425e-05 -2.017928257519119e-05 0 2.0397480608454199e-05 -1.2965359958398907e-05 0 2.2686500252051425e-05 -2.017928257519119e-05 0 2.3634496183155812e-05 -1.2371626490658187e-05 0 1.7188598344659391e-05 -1.3709250805022608e-05 0 2.2686500252051425e-05 -2.017928257519119e-05 0 1.7576741384634093e-05 -1.9154313022644263e-05 0 3.1113577557906047e-05 -1.7625787184245771e-05 0 3.4954689062930139e-05 -2.4563144807863199e-05 0 2.9397943485918718e-05 -2.2648703987282522e-05 0 2.3634496183155812e-05 -1.2371626490658187e-05 0 3.1113577557906047e-05 -1.7625787184245771e-05 0 2.9397943485918718e-05 -2.2648703987282522e-05 0 2.2686500252051425e-05 -2.017928257519119e-05 0 2.3634496183155812e-05 -1.2371626490658187e-05 0 2.9397943485918718e-05 -2.2648703987282522e-05 0 2.3634496183155812e-05 -1.2371626490658187e-05 0 2.6789226289423012e-05 -5.9109889654938705e-06 0 3.1113577557906047e-05 -1.7625787184245771e-05 0 2.038287030202898e-05 4.0286060980552093e-06 0 1.9416443591993357e-05 -6.0840491598325265e-06 0 2.2532745078202745e-05 -7.1049141074213224e-07 0 2.3634496183155812e-05 -1.2371626490658187e-05 0 2.2532745078202745e-05 -7.1049141074213224e-07 0 2.6789226289423012e-05 -5.9109889654938705e-06 0 1.9416443591993353e-05 -6.0840491598325282e-06 0 2.3634496183155812e-05 -1.2371626490658187e-05 0 2.2532745078202745e-05 -7.1049141074213224e-07 0 2.2532745078202745e-05 -7.1049141074213224e-07 0 2.5739777308491399e-05 4.5818360203689368e-06 0 2.6789226289423012e-05 -5.9109889654938705e-06 0 2.9671397563142496e-05 1.5453587496070702e-05 0 2.5739777308491396e-05 4.5818360203689368e-06 0 3.0319102434973043e-05 4.1744299398164285e-06 0 2.5739777308491396e-05 4.5818360203689368e-06 0 3.0319102434973043e-05 4.1744299398164285e-06 0 2.6789226289423012e-05 -5.9109889654938705e-06 0 2.9671397563142496e-05 1.5453587496070702e-05 0 3.0319102434973039e-05 4.1744299398164268e-06 0 3.9479426057747099e-05 2.41683217733329e-05 0 3.0319102434973043e-05 4.1744299398164285e-06 0 4.3081801510448218e-05 -5.8776244546290704e-06 0 3.5294250106350423e-05 -1.2937020885405723e-05 0 3.0319102434973043e-05 4.1744299398164285e-06 0 2.6789226289423012e-05 -5.9109889654938705e-06 0 3.5294250106350423e-05 -1.2937020885405723e-05 0 3.9479426057747099e-05 2.41683217733329e-05 0 3.1288733145777787e-05 7.2829689120227167e-05 0 2.148360187216463e-05 4.182304528879349e-05 0 3.0319102434973043e-05 4.1744299398164285e-06 0 3.9479426057747099e-05 2.41683217733329e-05 0 4.3081801510448218e-05 -5.8776244546290704e-06 0 2.0888368156023354e-05 2.0803409526198442e-05 0 5.6237727779238028e-05 3.5537042007647586e-05 0 3.9479426057747099e-05 2.41683217733329e-05 0 5.6688410282214408e-05 7.1438494072019126e-05 0 3.128873314577778e-05 7.2829689120227167e-05 0 3.128873314577778e-05 7.2829689120227167e-05 0 6.5691852141118307e-05 0.00010555986367496199 0 2.9583490516405242e-05 0.0001018145491002065 0 5.6237727779238028e-05 3.5537042007647586e-05 0 5.3759523534386028e-05 4.3012647691174322e-05 0 4.3081801510448218e-05 -5.8776244546290704e-06 0 4.3974486210947124e-05 -1.7168706042731654e-05 0 3.5294250106350423e-05 -1.2937020885405723e-05 0 5.6688410282214408e-05 7.1438494072019126e-05 0 3.128873314577778e-05 7.2829689120227167e-05 0 6.5691852141118307e-05 0.00010555986367496199 0 5.3759523534386028e-05 4.3012647691174322e-05 0 5.9858710784739194e-05 5.7244124412680058e-05 0 4.3974486210947124e-05 -1.7168706042731654e-05 0 3.9382114891419563e-05 -2.207947307664769e-05 0 4.5414971703750614e-05 -2.4081564650635299e-05 0 6.5691852141118307e-05 0.00010555986367496199 0 4.9593812955591555e-05 0.00012651935295817634 0 2.9583490516405242e-05 0.0001018145491002065 0 2.6789226289423012e-05 -5.9109889654938705e-06 0 3.5294250106350423e-05 -1.2937020885405723e-05 0 3.1113577557906047e-05 -1.7625787184245771e-05 0 4.3974486210947124e-05 -1.7168706042731654e-05 0 3.5294250106350423e-05 -1.2937020885405723e-05 0 3.9382114891419563e-05 -2.207947307664769e-05 0 3.5294250106350423e-05 -1.2937020885405723e-05 0 3.9382114891419563e-05 -2.207947307664769e-05 0 3.1113577557906047e-05 -1.7625787184245771e-05 0 3.9382114891419563e-05 -2.207947307664769e-05 0 3.1113577557906047e-05 -1.7625787184245771e-05 0 3.4954689062930139e-05 -2.4563144807863199e-05 0 3.9382114891419563e-05 -2.207947307664769e-05 0 3.4954689062930139e-05 -2.4563144807863199e-05 0 4.1199541877529768e-05 -2.8874690429858178e-05 0 3.9382114891419563e-05 -2.207947307664769e-05 0 4.1199541877529768e-05 -2.8874690429858178e-05 0 4.5414971703750614e-05 -2.4081564650635299e-05 0 4.1199541877529768e-05 -2.8874690429858178e-05 0 4.5414971703750614e-05 -2.4081564650635299e-05 0 4.7871954721088912e-05 -2.9374603420344691e-05 0 3.4954689062930139e-05 -2.4563144807863199e-05 0 4.1199541877529768e-05 -2.8874690429858178e-05 0 3.5169708071536383e-05 -2.9240111347009735e-05 0 4.9593812955591555e-05 0.00012651935295817634 0 5.4936188269667303e-05 0.00014777540016184021 0 2.8251868271259563e-05 0.00013627159861639781 0 4.9593812955591555e-05 0.00012651935295817634 0 7.3211732090655744e-05 0.00013759818783881788 0 5.4936188269667303e-05 0.00014777540016184021 0 6.5691852141118307e-05 0.00010555986367496199 0 4.9593812955591555e-05 0.00012651935295817634 0 7.3211732090655744e-05 0.00013759818783881788 0 5.9858710784739194e-05 5.7244124412680058e-05 0 6.3726932449619693e-05 7.0383538526397338e-05 0 7.3211732090655744e-05 0.00013759818783881788 0 5.4936188269667303e-05 0.00014777540016184021 0 7.9804465574034441e-05 0.00017054857010326242 0 5.4936188269667303e-05 0.00014777540016184021 0 7.9804465574034441e-05 0.00017054857010326242 0 4.4681489994501714e-05 0.00016648296286429082 0 7.9804465574034441e-05 0.00017054857010326242 0 5.6509225949624818e-05 0.00018932374722798647 0 4.4681489994501714e-05 0.00016648296286429082 0 7.9804465574034441e-05 0.00017054857010326242 0 8.5943911640840739e-05 0.00020451239354652979 0 5.6509225949624818e-05 0.00018932374722798647 0 4.7871954721088912e-05 -2.9374603420344691e-05 0 5.0905600460736574e-05 -3.4171758210949865e-05 0 4.5627827397863103e-05 -3.3864819944404663e-05 0 6.3726932449619693e-05 7.0383538526397338e-05 0 6.8183531631002358e-05 8.5172191462033257e-05 0 8.5943911640840739e-05 0.00020451239354652979 0 5.6509225949624818e-05 0.00018932374722798647 0 5.1046716343529544e-05 0.00021315102645090648 0 4.1199541877529768e-05 -2.8874690429858178e-05 0 4.003376023977518e-05 -3.385653730199586e-05 0 4.5627827397863103e-05 -3.3864819944404663e-05 0 4.1199541877529768e-05 -2.8874690429858178e-05 0 4.003376023977518e-05 -3.385653730199586e-05 0 3.5169708071536383e-05 -2.9240111347009735e-05 0 4.1199541877529768e-05 -2.8874690429858178e-05 0 4.7871954721088912e-05 -2.9374603420344691e-05 0 4.5627827397863103e-05 -3.3864819944404663e-05 0 4.003376023977518e-05 -3.385653730199586e-05 0 4.5627827397863103e-05 -3.3864819944404663e-05 0 4.1713179161020301e-05 -3.809969285361388e-05 0 4.5627827397863103e-05 -3.3864819944404663e-05 0 4.1713179161020301e-05 -3.809969285361388e-05 0 4.8559696457420618e-05 -3.9325532922388551e-05 0 4.003376023977518e-05 -3.385653730199586e-05 0 4.1713179161020301e-05 -3.809969285361388e-05 0 3.3536718788744852e-05 -3.4483750649218465e-05 0 4.1713179161020301e-05 -3.809969285361388e-05 0 3.3536718788744852e-05 -3.4483750649218465e-05 0 3.8581219409137731e-05 -4.1248264584396813e-05 0 4.003376023977518e-05 -3.385653730199586e-05 0 3.3536718788744852e-05 -3.4483750649218465e-05 0 3.5169708071536383e-05 -2.9240111347009735e-05 0 3.3536718788744852e-05 -3.4483750649218465e-05 0 2.5323877020523341e-05 -2.8166807543094749e-05 0 2.9847827573609275e-05 -2.850946700117483e-05 0 3.3536718788744852e-05 -3.4483750649218465e-05 0 3.5169708071536383e-05 -2.9240111347009735e-05 0 2.9847827573609275e-05 -2.850946700117483e-05 0 3.3536718788744852e-05 -3.4483750649218465e-05 0 2.6309272284791094e-05 -3.3383940345791267e-05 0 3.1818063552591567e-05 -4.096837141187511e-05 0 2.6309272284791094e-05 -3.3383940345791267e-05 0 3.1818063552591567e-05 -4.096837141187511e-05 0 2.3832519641583728e-05 -3.6151730325371149e-05 0 2.6309272284791094e-05 -3.3383940345791267e-05 0 2.5323877020523341e-05 -2.8166807543094749e-05 0 2.1016448636330776e-05 -2.9870152161571497e-05 0 3.3536718788744852e-05 -3.4483750649218465e-05 0 2.6309272284791094e-05 -3.3383940345791267e-05 0 2.5323877020523341e-05 -2.8166807543094749e-05 0 2.2686500252051425e-05 -2.017928257519119e-05 0 2.5323877020523341e-05 -2.8166807543094749e-05 0 2.9847827573609275e-05 -2.850946700117483e-05 0 2.5323877020523341e-05 -2.8166807543094749e-05 0 2.0639834893626293e-05 -2.4542078747435432e-05 0 2.1016448636330776e-05 -2.9870152161571497e-05 0 2.2686500252051425e-05 -2.017928257519119e-05 0 2.5323877020523341e-05 -2.8166807543094749e-05 0 2.0639834893626293e-05 -2.4542078747435432e-05 0 2.2686500252051425e-05 -2.017928257519119e-05 0 1.7576741384634093e-05 -1.9154313022644263e-05 0 2.0639834893626293e-05 -2.4542078747435432e-05 0 2.2686500252051425e-05 -2.017928257519119e-05 0 2.9397943485918718e-05 -2.2648703987282522e-05 0 2.9847827573609275e-05 -2.850946700117483e-05 0 3.4954689062930139e-05 -2.4563144807863199e-05 0 2.9397943485918718e-05 -2.2648703987282522e-05 0 3.5169708071536383e-05 -2.9240111347009735e-05 0 2.9397943485918718e-05 -2.2648703987282522e-05 0 3.5169708071536383e-05 -2.9240111347009735e-05 0 2.9847827573609275e-05 -2.850946700117483e-05 0 -9.284898669306127e-05 0.00010921979141502841 0 -6.8032036240552716e-05 0.00011961747522751235 0 -6.8449077671289222e-05 9.1855515127062487e-05 0 -9.284898669306127e-05 0.00010921979141502841 0 -6.8032036240552716e-05 0.00011961747522751235 0 -0.00010016388761543937 0.00014052207917505716 0 -6.8032036240552716e-05 0.00011961747522751235 0 -6.8449077671289222e-05 9.1855515127062487e-05 0 -4.8209457575834196e-05 9.1903019895525227e-05 0 -9.284898669306127e-05 0.00010921979141502841 0 -6.8449077671289222e-05 9.1855515127062487e-05 0 -8.3268061155841557e-05 8.0869498577525363e-05 0 -8.3268061155841557e-05 8.0869498577525363e-05 0 -7.3314381331532902e-05 5.6868446630130054e-05 0 -5.1086580525372225e-05 6.2655770100070887e-05 0 -6.8449077671289222e-05 9.1855515127062487e-05 0 -5.1086580525372225e-05 6.2655770100070887e-05 0 -4.8209457575834196e-05 9.1903019895525227e-05 0 -6.8449077671289222e-05 9.1855515127062487e-05 0 -8.3268061155841557e-05 8.0869498577525363e-05 0 -5.1086580525372225e-05 6.2655770100070887e-05 0 -5.1086580525372225e-05 6.2655770100070887e-05 0 -3.2965864020091978e-05 7.4518174163414966e-05 0 -4.8209457575834196e-05 9.1903019895525227e-05 0 -5.1086580525372225e-05 6.2655770100070887e-05 0 -2.4351378683331537e-05 5.010681830095854e-05 0 -3.2965864020091978e-05 7.4518174163414966e-05 0 -3.2965864020091978e-05 7.4518174163414966e-05 0 -3.1130100565182079e-05 9.4400232980602046e-05 0 -1.5010095395149644e-05 7.8571249553323322e-05 0 -3.2965864020091978e-05 7.4518174163414966e-05 0 -3.1130100565182079e-05 9.4400232980602046e-05 0 -4.8209457575834196e-05 9.1903019895525227e-05 0 -3.1130100565182079e-05 9.4400232980602046e-05 0 -4.8209457575834196e-05 9.1903019895525227e-05 0 -4.1371834083446612e-05 0.00011710643102965404 0 -6.8032036240552716e-05 0.00011961747522751235 0 -4.8209457575834196e-05 9.1903019895525227e-05 0 -4.1371834083446612e-05 0.00011710643102965404 0 -3.1130100565182079e-05 9.4400232980602046e-05 0 -4.1371834083446612e-05 0.00011710643102965404 0 -1.7790835626735112e-05 0.00011296655375112724 0 -1.7790835626735112e-05 0.00011296655375112724 0 5.4013078992172938e-06 0.00010579517695535171 0 -9.6620087312532853e-07 0.00013735878468724438 0 -1.7790835626735112e-05 0.00011296655375112724 0 -1.5010095395149644e-05 7.8571249553323322e-05 0 5.4013078992172938e-06 0.00010579517695535171 0 -1.5010095395149644e-05 7.8571249553323322e-05 0 8.8848625297824943e-06 6.9891137441532072e-05 0 5.4013078992172938e-06 0.00010579517695535171 0 -3.1130100565182079e-05 9.4400232980602046e-05 0 -1.7790835626735112e-05 0.00011296655375112724 0 -1.5010095395149644e-05 7.8571249553323322e-05 0 -2.4351378683331537e-05 5.010681830095854e-05 0 -3.2965864020091978e-05 7.4518174163414966e-05 0 -1.5010095395149644e-05 7.8571249553323322e-05 0 -2.4351378683331537e-05 5.010681830095854e-05 0 -1.5010095395149647e-05 7.8571249553323322e-05 0 -4.892104731083058e-06 4.8722475370206563e-05 0 -1.5010095395149644e-05 7.8571249553323322e-05 0 -4.8921047310830554e-06 4.8722475370206563e-05 0 8.8848625297824943e-06 6.9891137441532072e-05 0 -4.892104731083058e-06 4.8722475370206563e-05 0 8.8848625297824943e-06 6.9891137441532072e-05 0 8.9853809798621424e-06 4.5958713201643071e-05 0 8.8848625297824943e-06 6.9891137441532072e-05 0 8.9853809798621407e-06 4.5958713201643078e-05 0 2.148360187216463e-05 4.182304528879349e-05 0 3.128873314577778e-05 7.2829689120227167e-05 0 8.8848625297824943e-06 6.9891137441532072e-05 0 2.148360187216463e-05 4.182304528879349e-05 0 3.128873314577778e-05 7.2829689120227167e-05 0 8.8848625297824943e-06 6.9891137441532072e-05 0 2.9583490516405242e-05 0.0001018145491002065 0 8.8848625297824943e-06 6.9891137441532072e-05 0 5.4013078992172938e-06 0.00010579517695535171 0 2.9583490516405242e-05 0.0001018145491002065 0 5.4013078992172938e-06 0.00010579517695535171 0 2.9583490516405239e-05 0.0001018145491002065 0 2.8251868271259563e-05 0.00013627159861639781 0 4.9593812955591555e-05 0.00012651935295817634 0 2.9583490516405242e-05 0.0001018145491002065 0 2.8251868271259563e-05 0.00013627159861639781 0 5.4013078992172938e-06 0.00010579517695535171 0 2.8251868271259563e-05 0.00013627159861639784 0 -9.6620087312532853e-07 0.00013735878468724438 0 2.8251868271259563e-05 0.00013627159861639781 0 1.6711777118847899e-05 0.00015840915622091929 0 -9.6620087312532853e-07 0.00013735878468724438 0 2.8251868271259563e-05 0.00013627159861639781 0 1.6711777118847899e-05 0.00015840915622091929 0 4.4681489994501714e-05 0.00016648296286429082 0 5.4936188269667303e-05 0.00014777540016184021 0 2.8251868271259563e-05 0.00013627159861639781 0 4.4681489994501714e-05 0.00016648296286429082 0 5.6509225949624818e-05 0.00018932374722798647 0 4.4681489994501714e-05 0.00016648296286429082 0 2.207046186868843e-05 0.00018980534354032678 0 5.6509225949624818e-05 0.00018932374722798647 0 2.207046186868843e-05 0.00018980534354032678 0 5.1046716343529544e-05 0.00021315102645090648 0 1.6711777118847899e-05 0.00015840915622091929 0 4.4681489994501714e-05 0.00016648296286429082 0 2.207046186868843e-05 0.00018980534354032678 0 1.6711777118847899e-05 0.00015840915622091929 0 2.207046186868843e-05 0.00018980534354032678 0 -9.6234667129629822e-06 0.00016266548213048494 0 2.207046186868843e-05 0.00018980534354032678 0 -1.4021691105654401e-05 0.00019251249347206032 0 -9.6234667129629822e-06 0.00016266548213048494 0 2.207046186868843e-05 0.00018980534354032678 0 -1.4021691105654401e-05 0.00019251249347206032 0 -5.6793073261687642e-06 0.00022174410296169639 0 -1.4021691105654401e-05 0.00019251249347206032 0 -9.6234667129629822e-06 0.00016266548213048494 0 -3.8520031826460504e-05 0.00018987354085093729 0 -9.6234667129629822e-06 0.00016266548213048494 0 -3.0133848829282038e-05 0.00014689591089811352 0 -3.8520031826460504e-05 0.00018987354085093729 0 -9.6234667129629822e-06 0.00016266548213048494 0 -9.6620087312532853e-07 0.00013735878468724438 0 -3.0133848829282038e-05 0.00014689591089811352 0 1.6711777118847899e-05 0.00015840915622091929 0 -9.6234667129629822e-06 0.00016266548213048494 0 -9.6620087312532853e-07 0.00013735878468724438 0 -1.7790835626735112e-05 0.00011296655375112724 0 -9.6620087312532853e-07 0.00013735878468724438 0 -3.0133848829282038e-05 0.00014689591089811352 0 -4.1371834083446612e-05 0.00011710643102965404 0 -1.7790835626735112e-05 0.00011296655375112724 0 -3.0133848829282038e-05 0.00014689591089811352 0 -4.1371834083446612e-05 0.00011710643102965404 0 -5.3782203474088016e-05 0.00014143002367505782 0 -3.0133848829282038e-05 0.00014689591089811352 0 -6.8032036240552716e-05 0.00011961747522751235 0 -4.1371834083446612e-05 0.00011710643102965404 0 -5.3782203474088016e-05 0.00014143002367505782 0 -5.3782203474088016e-05 0.00014143002367505782 0 -5.4577917505244614e-05 0.00016524372514922019 0 -7.7436519534129024e-05 0.00015928743460248901 0 -5.3782203474088016e-05 0.00014143002367505782 0 -3.0133848829282038e-05 0.00014689591089811352 0 -5.4577917505244614e-05 0.00016524372514922019 0 -3.0133848829282038e-05 0.00014689591089811352 0 -3.8520031826460504e-05 0.00018987354085093729 0 -5.4577917505244614e-05 0.00016524372514922019 0 -1.4021691105654401e-05 0.00019251249347206032 0 -3.8520031826460504e-05 0.00018987354085093729 0 -3.5159167284529443e-05 0.00022182515961608162 0 -3.8520031826460504e-05 0.00018987354085093729 0 -7.4175808919152406e-05 0.00019062436657432647 0 -5.8219493960034997e-05 0.00021358346781207211 0 -3.8520031826460504e-05 0.00018987354085093729 0 -5.4577917505244614e-05 0.00016524372514922019 0 -7.4175808919152406e-05 0.00019062436657432647 0 -5.4577917505244614e-05 0.00016524372514922019 0 -7.4175808919152406e-05 0.00019062436657432647 0 -7.7436519534129024e-05 0.00015928743460248901 0 -7.4175808919152406e-05 0.00019062436657432647 0 -0.00010603536281108324 0.00017443597429406857 0 -0.00011011851310951957 0.00020983629611392529 0 -7.4175808919152406e-05 0.00019062436657432647 0 -0.00011011851310951957 0.00020983629611392529 0 -8.2745962221614678e-05 0.00022404184187483804 0 -7.4175808919152406e-05 0.00019062436657432647 0 -0.00010603536281108324 0.00017443597429406857 0 -7.7436519534129024e-05 0.00015928743460248901 0 -0.00010603536281108324 0.00017443597429406857 0 -7.7436519534129024e-05 0.00015928743460248901 0 -0.00010016388761543937 0.00014052207917505716 0 -6.8032036240552716e-05 0.00011961747522751235 0 -5.3782203474088016e-05 0.00014143002367505782 0 -7.7436519534129024e-05 0.00015928743460248901 0 -6.8032036240552716e-05 0.00011961747522751235 0 -7.7436519534129024e-05 0.00015928743460248901 0 -0.00010016388761543937 0.00014052207917505716 0 -0.00011506904745467649 0.00028393990912210131 0 -6.7884913005212207e-05 0.00028449138514871625 0 -8.1594248179155414e-05 0.00032094505894290231 0 -0.00011506904745467649 0.00028393990912210131 0 -8.7122979949097912e-05 0.00025687392948843475 0 -6.7884913005212207e-05 0.00028449138514871625 0 -8.7122979949097912e-05 0.00025687392948843475 0 -6.0985922683040594e-05 0.00024287679703052748 0 -6.7884913005212207e-05 0.00028449138514871625 0 -0.00011506904745467649 0.00028393990912210131 0 -8.7122979949097912e-05 0.00025687392948843475 0 -0.0001131607932436711 0.00024642232554623276 0 -8.7122979949097912e-05 0.00025687392948843475 0 -0.0001131607932436711 0.00024642232554623276 0 -8.2745962221614678e-05 0.00022404184187483804 0 -0.0001131607932436711 0.00024642232554623276 0 -0.00011011851310951957 0.00020983629611392529 0 -8.2745962221614678e-05 0.00022404184187483804 0 -7.4175808919152406e-05 0.00019062436657432647 0 -8.2745962221614678e-05 0.00022404184187483804 0 -5.8219493960034997e-05 0.00021358346781207211 0 -8.7122979949097912e-05 0.00025687392948843475 0 -8.2745962221614678e-05 0.00022404184187483804 0 -6.0985922683040594e-05 0.00024287679703052748 0 -6.0985922683040594e-05 0.00024287679703052748 0 -5.8219493960034991e-05 0.00021358346781207208 0 -3.5159167284529443e-05 0.00022182515961608162 0 -8.2745962221614678e-05 0.00022404184187483804 0 -6.0985922683040594e-05 0.00024287679703052748 0 -5.8219493960034997e-05 0.00021358346781207211 0 -3.8520031826460504e-05 0.00018987354085093729 0 -5.8219493960034997e-05 0.00021358346781207211 0 -3.5159167284529443e-05 0.00022182515961608162 0 -6.0985922683040594e-05 0.00024287679703052748 0 -3.5159167284529443e-05 0.00022182515961608162 0 -3.4544453661541106e-05 0.00025364230490537406 0 -3.4544453661541106e-05 0.00025364230490537406 0 -6.7884913005212207e-05 0.00028449138514871625 0 -3.1957000541458851e-05 0.00028740077166115538 0 -6.0985922683040594e-05 0.00024287679703052748 0 -3.4544453661541106e-05 0.00025364230490537406 0 -6.7884913005212207e-05 0.00028449138514871625 0 -6.7884913005212207e-05 0.00028449138514871625 0 -3.1957000541458851e-05 0.00028740077166115532 0 -4.5149671213135587e-05 0.00032447667751088526 0 -3.1957000541458851e-05 0.00028740077166115538 0 -8.0828289645383669e-06 0.00026510976209094327 0 -4.2802237215987075e-06 0.00030610861074837736 0 -8.0828289645383669e-06 0.00026510976209094327 0 2.160870447426755e-05 0.00027987083132748443 0 -4.2802237215987075e-06 0.00030610861074837736 0 -8.0828289645383669e-06 0.00026510976209094327 0 1.370621740752217e-05 0.00024484186738163856 0 2.160870447426755e-05 0.00027987083132748443 0 -3.4544453661541106e-05 0.00025364230490537406 0 -3.1957000541458851e-05 0.00028740077166115538 0 -8.0828289645383669e-06 0.00026510976209094327 0 -3.5159167284529443e-05 0.00022182515961608162 0 -3.4544453661541106e-05 0.00025364230490537406 0 -5.6793073261687642e-06 0.00022174410296169639 0 -3.4544453661541106e-05 0.00025364230490537406 0 -8.0828289645383669e-06 0.00026510976209094327 0 -5.6793073261687642e-06 0.00022174410296169639 0 -1.4021691105654401e-05 0.00019251249347206032 0 -3.5159167284529443e-05 0.00022182515961608162 0 -5.6793073261687642e-06 0.00022174410296169639 0 -5.6793073261687642e-06 0.00022174410296169639 0 1.370621740752217e-05 0.00024484186738163856 0 2.4380073677132639e-05 0.00022304555527209285 0 -8.0828289645383669e-06 0.00026510976209094327 0 -5.6793073261687684e-06 0.00022174410296169639 0 1.3706217407522172e-05 0.00024484186738163856 0 1.3706217407522172e-05 0.00024484186738163856 0 2.4380073677132636e-05 0.00022304555527209285 0 4.1250776135333472e-05 0.0002451535118313983 0 2.207046186868843e-05 0.00018980534354032678 0 2.4380073677132639e-05 0.00022304555527209285 0 5.1046716343529544e-05 0.00021315102645090648 0 2.207046186868843e-05 0.00018980534354032678 0 -5.6793073261687642e-06 0.00022174410296169639 0 2.4380073677132639e-05 0.00022304555527209285 0 2.4380073677132639e-05 0.00022304555527209285 0 5.1046716343529544e-05 0.00021315102645090648 0 4.1250776135333472e-05 0.0002451535118313983 0 5.1046716343529544e-05 0.00021315102645090648 0 4.1250776135333472e-05 0.0002451535118313983 0 6.794512099643275e-05 0.00023182800077446006 0 4.1250776135333472e-05 0.0002451535118313983 0 2.160870447426755e-05 0.00027987083132748443 0 5.5635306316774549e-05 0.0002841877949830427 0 4.1250776135333472e-05 0.0002451535118313983 0 5.5635306316774549e-05 0.0002841877949830427 0 6.9194689333672976e-05 0.0002558258499562118 0 1.3706217407522172e-05 0.00024484186738163856 0 4.1250776135333472e-05 0.0002451535118313983 0 2.160870447426755e-05 0.00027987083132748443 0 2.160870447426755e-05 0.00027987083132748443 0 5.5635306316774549e-05 0.0002841877949830427 0 3.3939524803147372e-05 0.0003221461199737989 0 5.5635306316774549e-05 0.0002841877949830427 0 3.3939524803147379e-05 0.0003221461199737989 0 7.0761396341119208e-05 0.00031752172322906471 0 3.3939524803147372e-05 0.0003221461199737989 0 6.754543120339644e-05 0.00035236356502696777 0 3.1034338402349316e-05 0.00036212020550674867 0 3.3939524803147372e-05 0.0003221461199737989 0 6.7545431203396453e-05 0.00035236356502696777 0 7.0761396341119208e-05 0.00031752172322906471 0 6.7545431203396453e-05 0.00035236356502696777 0 5.5610592723584303e-05 0.00037738108497292652 0 3.1034338402349316e-05 0.00036212020550674867 0 6.7545431203396453e-05 0.00035236356502696777 0 5.5610592723584296e-05 0.00037738108497292652 0 8.8776508177958554e-05 0.00037255666215619681 0 5.5610592723584303e-05 0.00037738108497292652 0 8.8776508177958554e-05 0.00037255666215619681 0 7.896300942358177e-05 0.00039716978257337671 0 5.5610592723584303e-05 0.00037738108497292652 0 3.7368518490366769e-05 0.00039879896701542299 0 7.896300942358177e-05 0.00039716978257337671 0 5.5610592723584303e-05 0.00037738108497292652 0 3.7368518490366769e-05 0.00039879896701542299 0 3.1034338402349316e-05 0.00036212020550674867 0 -2.2117515153776489e-06 0.00039883687459086134 0 -4.5640411364310644e-06 0.00034944372783283709 0 -3.8227040738613463e-05 0.00036300293491463141 0 3.1034338402349316e-05 0.00036212020550674867 0 -2.2117515153776527e-06 0.00039883687459086134 0 -4.5640411364310644e-06 0.00034944372783283709 0 3.7368518490366769e-05 0.00039879896701542299 0 3.1034338402349316e-05 0.00036212020550674867 0 -2.2117515153776489e-06 0.00039883687459086134 0 -4.5640411364310644e-06 0.00034944372783283709 0 -4.2802237215987075e-06 0.00030610861074837736 0 -4.5149671213135587e-05 0.00032447667751088526 0 3.3939524803147372e-05 0.0003221461199737989 0 3.1034338402349316e-05 0.00036212020550674867 0 -4.5640411364310644e-06 0.00034944372783283709 0 3.3939524803147372e-05 0.0003221461199737989 0 -4.5640411364310644e-06 0.00034944372783283709 0 -4.2802237215987075e-06 0.00030610861074837736 0 2.160870447426755e-05 0.00027987083132748443 0 3.3939524803147372e-05 0.0003221461199737989 0 -4.2802237215987075e-06 0.00030610861074837736 0 -3.1957000541458851e-05 0.00028740077166115538 0 -4.2802237215987075e-06 0.00030610861074837736 0 -4.5149671213135587e-05 0.00032447667751088526 0 -6.7884913005212207e-05 0.00028449138514871625 0 -4.5149671213135573e-05 0.00032447667751088526 0 -8.1594248179155414e-05 0.00032094505894290231 0 -4.5149671213135587e-05 0.00032447667751088526 0 -3.8227040738613463e-05 0.00036300293491463141 0 -7.4188842229190255e-05 0.00035548946210148583 0 -4.5149671213135587e-05 0.00032447667751088526 0 -7.4188842229190255e-05 0.00035548946210148583 0 -8.1594248179155414e-05 0.00032094505894290231 0 -4.5640411364310644e-06 0.00034944372783283709 0 -4.514967121313558e-05 0.00032447667751088526 0 -3.8227040738613463e-05 0.00036300293491463141 0 -2.2117515153776489e-06 0.00039883687459086134 0 -3.8227040738613463e-05 0.00036300293491463141 0 -4.0319427021979569e-05 0.00039860787527780172 0 -4.0319427021979569e-05 0.00039860787527780172 0 -5.970001087960676e-05 0.00037878291171118233 0 -7.832750687598938e-05 0.00039841998650598374 0 -3.8227040738613463e-05 0.00036300293491463141 0 -4.0319427021979569e-05 0.00039860787527780172 0 -5.970001087960676e-05 0.00037878291171118233 0 -3.8227040738613463e-05 0.00036300293491463141 0 -5.970001087960676e-05 0.00037878291171118233 0 -7.4188842229190255e-05 0.00035548946210148583 0 -5.970001087960676e-05 0.00037878291171118233 0 -7.4188842229190241e-05 0.00035548946210148583 0 -9.1112237776634853e-05 0.00037685347975789928 0 -5.970001087960676e-05 0.00037878291171118233 0 -9.1112237776634853e-05 0.00037685347975789928 0 -7.832750687598938e-05 0.00039841998650598374 0 -9.1112237776634853e-05 0.00037685347975789928 0 -7.832750687598938e-05 0.00039841998650598374 0 -0.00011622131289023177 0.00039859764446462505 0 -9.1112237776634853e-05 0.00037685347975789928 0 -0.00011622131289023177 0.000398597644464625 0 -0.00011637221442900826 0.00036048207772621779 0 -7.4188842229190255e-05 0.00035548946210148583 0 -9.1112237776634853e-05 0.00037685347975789928 0 -0.00011637221442900826 0.00036048207772621779 0 -0.00011637221442900826 0.00036048207772621779 0 -8.1594248179155414e-05 0.00032094505894290231 0 -0.00011605422208942355 0.00032223631048768081 0 -7.4188842229190255e-05 0.00035548946210148583 0 -0.00011637221442900826 0.00036048207772621779 0 -8.1594248179155414e-05 0.00032094505894290231 0 -0.00011506904745467649 0.00028393990912210131 0 -8.1594248179155414e-05 0.00032094505894290231 0 -0.00011605422208942355 0.00032223631048768081 0 4.1244178847315802e-05 -4.6643705660337537e-05 0 4.0820114482951506e-05 -5.3750489200652954e-05 0 3.5531109249332341e-05 -4.8332333768534042e-05 0 4.1244178847315802e-05 -4.6643705660337537e-05 0 4.7811448862648995e-05 -5.3379319637580732e-05 0 4.8445701525567856e-05 -4.8228142917463189e-05 0 4.1244178847315802e-05 -4.6643705660337537e-05 0 4.512460226746919e-05 -4.3678838182304939e-05 0 4.8445701525567856e-05 -4.8228142917463189e-05 0 4.1244178847315802e-05 -4.6643705660337537e-05 0 4.7811448862648995e-05 -5.3379319637580732e-05 0 4.0820114482951506e-05 -5.3750489200652954e-05 0 4.0820114482951506e-05 -5.3750489200652954e-05 0 3.3036110066487574e-05 -5.3605777556051141e-05 0 3.5531109249332341e-05 -4.8332333768534042e-05 0 3.3036110066487574e-05 -5.3605777556051141e-05 0 2.9673544113784325e-05 -4.6309524810968297e-05 0 3.5531109249332341e-05 -4.8332333768534042e-05 0 3.3036110066487574e-05 -5.3605777556051141e-05 0 2.9673544113784325e-05 -4.6309524810968297e-05 0 2.7910144934879293e-05 -5.0456118503985575e-05 0 2.9673544113784325e-05 -4.6309524810968297e-05 0 3.5531109249332341e-05 -4.8332333768534042e-05 0 3.1818063552591567e-05 -4.096837141187511e-05 0 2.9673544113784325e-05 -4.6309524810968297e-05 0 3.1818063552591567e-05 -4.096837141187511e-05 0 2.6510195430728114e-05 -4.1519200535923723e-05 0 3.1818063552591567e-05 -4.096837141187511e-05 0 2.6510195430728114e-05 -4.1519200535923723e-05 0 2.3832519641583728e-05 -3.6151730325371149e-05 0 3.3536718788744852e-05 -3.4483750649218465e-05 0 3.1818063552591567e-05 -4.096837141187511e-05 0 3.8581219409137731e-05 -4.1248264584396813e-05 0 4.1244178847315802e-05 -4.6643705660337537e-05 0 3.1818063552591567e-05 -4.096837141187511e-05 0 3.8581219409137731e-05 -4.1248264584396813e-05 0 4.1244178847315802e-05 -4.6643705660337537e-05 0 3.5531109249332341e-05 -4.8332333768534042e-05 0 3.1818063552591567e-05 -4.096837141187511e-05 0 4.1244178847315802e-05 -4.6643705660337537e-05 0 3.8581219409137731e-05 -4.1248264584396813e-05 0 4.512460226746919e-05 -4.3678838182304939e-05 0 4.1713179161020301e-05 -3.809969285361388e-05 0 3.8581219409137731e-05 -4.1248264584396813e-05 0 4.512460226746919e-05 -4.3678838182304939e-05 0 4.1713179161020301e-05 -3.809969285361388e-05 0 4.8559696457420618e-05 -3.9325532922388551e-05 0 4.512460226746919e-05 -4.3678838182304939e-05 0 5.0905600460736574e-05 -3.4171758210949865e-05 0 4.5627827397863103e-05 -3.3864819944404663e-05 0 4.8559696457420618e-05 -3.9325532922388551e-05 0 4.8559696457420618e-05 -3.9325532922388551e-05 0 5.487524287334291e-05 -3.9044586899650889e-05 0 5.2858528184813331e-05 -4.4603987423397509e-05 0 4.8559696457420618e-05 -3.9325532922388551e-05 0 4.512460226746919e-05 -4.3678838182304939e-05 0 5.2858528184813331e-05 -4.4603987423397509e-05 0 8.5943911640840739e-05 0.00020451239354652979 0 5.1046716343529544e-05 0.00021315102645090648 0 6.794512099643275e-05 0.00023182800077446006 0 8.5943911640840739e-05 0.00020451239354652979 0 9.1900135446805909e-05 0.00023938646433528828 0 6.794512099643275e-05 0.00023182800077446006 0 5.0905600460736574e-05 -3.4171758210949865e-05 0 4.8559696457420618e-05 -3.9325532922388551e-05 0 5.487524287334291e-05 -3.9044586899650889e-05 0 6.8183531631002358e-05 8.5172191462033257e-05 0 7.3177708228981355e-05 0.00010039351152503989 0 4.1250776135333472e-05 0.0002451535118313983 0 6.794512099643275e-05 0.00023182800077446006 0 6.9194689333672976e-05 0.0002558258499562118 0 9.1900135446805909e-05 0.00023938646433528828 0 6.794512099643275e-05 0.00023182800077446006 0 6.9194689333672976e-05 0.0002558258499562118 0 5.5635306316774549e-05 0.0002841877949830427 0 6.9194689333672976e-05 0.0002558258499562118 0 9.7945011856334814e-05 0.00027571600482071383 0 7.3177708228981355e-05 0.00010039351152503989 0 7.7523788598378828e-05 0.00011509747847633626 0 5.487524287334291e-05 -3.9044586899650889e-05 0 5.9879129793198969e-05 -4.4527455955189602e-05 0 5.2858528184813331e-05 -4.4603987423397509e-05 0 9.1900135446805909e-05 0.00023938646433528828 0 6.9194689333672976e-05 0.0002558258499562118 0 9.7945011856334814e-05 0.00027571600482071383 0 7.7523788598378828e-05 0.00011509747847633626 0 8.7283568151417566e-05 0.00013182350057124812 0 5.5635306316774549e-05 0.0002841877949830427 0 9.7945011856334814e-05 0.00027571600482071383 0 7.0761396341119208e-05 0.00031752172322906471 0 4.512460226746919e-05 -4.3678838182304939e-05 0 4.8445701525567856e-05 -4.8228142917463189e-05 0 5.2858528184813331e-05 -4.4603987423397509e-05 0 5.9879129793198969e-05 -4.4527455955189602e-05 0 5.2858528184813331e-05 -4.4603987423397509e-05 0 5.6058558019052072e-05 -5.2125440409943052e-05 0 4.7811448862648995e-05 -5.3379319637580732e-05 0 4.8445701525567856e-05 -4.8228142917463189e-05 0 5.6058558019052072e-05 -5.2125440409943052e-05 0 4.8445701525567856e-05 -4.8228142917463189e-05 0 5.2858528184813331e-05 -4.4603987423397509e-05 0 5.6058558019052072e-05 -5.2125440409943052e-05 0 5.6058558019052072e-05 -5.2125440409943052e-05 0 6.2885154502684794e-05 -5.80143307176154e-05 0 5.4855859602544035e-05 -5.977196588357834e-05 0 4.7811448862648995e-05 -5.3379319637580732e-05 0 5.6058558019052072e-05 -5.2125440409943052e-05 0 5.4855859602544035e-05 -5.977196588357834e-05 0 5.9879129793198969e-05 -4.4527455955189602e-05 0 5.6058558019052072e-05 -5.2125440409943052e-05 0 6.6196828982994325e-05 -5.1101420343008845e-05 0 5.6058558019052072e-05 -5.2125440409943052e-05 0 6.2885154502684794e-05 -5.8014330717615393e-05 0 6.6196828982994325e-05 -5.1101420343008845e-05 0 6.2885154502684794e-05 -5.8014330717615393e-05 0 5.4855859602544035e-05 -5.977196588357834e-05 0 6.5398072847005242e-05 -6.605495625886307e-05 0 9.7945011856334814e-05 0.00027571600482071383 0 7.0761396341119208e-05 0.00031752172322906471 0 0.0001042405075627441 0.00031282703009840571 0 8.7283568151417566e-05 0.00013182350057124812 0 8.0764655542744844e-05 0.000144482236669771 0 6.2885154502684794e-05 -5.8014330717615393e-05 0 6.6196828982994325e-05 -5.1101420343008845e-05 0 7.4229031643955329e-05 -5.9782579103030088e-05 0 7.0761396341119208e-05 0.00031752172322906471 0 0.0001042405075627441 0.00031282703009840571 0 0.00011148932812800476 0.00035146376400531051 0 6.7545431203396453e-05 0.00035236356502696777 0 7.0761396341119208e-05 0.00031752172322906471 0 0.00011148932812800476 0.00035146376400531051 0 6.7545431203396453e-05 0.00035236356502696777 0 0.00011148932812800476 0.00035146376400531045 0 8.8776508177958554e-05 0.00037255666215619681 0 8.0764655542744844e-05 0.000144482236669771 0 0.00014228517645595184 0.00016120307175582322 0 0.00011148932812800476 0.00035146376400531051 0 0.00012084996026563919 0.00039165493519519452 0 8.8776508177958554e-05 0.00037255666215619681 0 0.00012084996026563919 0.00039165493519519452 0 8.8776508177958554e-05 0.00037255666215619681 0 7.896300942358177e-05 0.00039716978257337671 0 5.4855859602544035e-05 -5.977196588357834e-05 0 6.5398072847005242e-05 -6.605495625886307e-05 0 5.1979430786043513e-05 -6.8074800089369566e-05 0 6.2885154502684794e-05 -5.8014330717615393e-05 0 7.4229031643955329e-05 -5.9782579103030088e-05 0 6.5398072847005242e-05 -6.605495625886307e-05 0 7.4229031643955329e-05 -5.9782579103030088e-05 0 8.337849808642806e-05 -7.1734079543007016e-05 0 6.5398072847005242e-05 -6.605495625886307e-05 0 8.337849808642806e-05 -7.1734079543007016e-05 0 6.5398072847005242e-05 -6.605495625886307e-05 0 6.8909063696247089e-05 -7.6584469770548075e-05 0 6.5398072847005242e-05 -6.605495625886307e-05 0 6.8909063696247089e-05 -7.6584469770548075e-05 0 5.1979430786043513e-05 -6.8074800089369566e-05 0 5.1979430786043513e-05 -6.8074800089369566e-05 0 4.2521811602389077e-05 -6.3888479884949821e-05 0 4.4304220161247856e-05 -7.4860851540510222e-05 0 6.8909063696247089e-05 -7.6584469770548075e-05 0 5.5736196899334202e-05 -7.7094361917309033e-05 0 5.1979430786043513e-05 -6.8074800089369566e-05 0 5.5736196899334202e-05 -7.7094361917309033e-05 0 5.1979430786043513e-05 -6.8074800089369566e-05 0 4.4304220161247856e-05 -7.4860851540510222e-05 0 5.4855859602544035e-05 -5.977196588357834e-05 0 5.1979430786043513e-05 -6.8074800089369566e-05 0 4.5988858478008625e-05 -5.9764221215877165e-05 0 5.1979430786043513e-05 -6.8074800089369566e-05 0 4.5988858478008625e-05 -5.9764221215877165e-05 0 4.2521811602389077e-05 -6.3888479884949821e-05 0 4.0820114482951506e-05 -5.3750489200652954e-05 0 4.5988858478008625e-05 -5.9764221215877165e-05 0 3.7194939311412021e-05 -5.9298745141351949e-05 0 4.7811448862648995e-05 -5.3379319637580732e-05 0 4.0820114482951506e-05 -5.3750489200652954e-05 0 4.5988858478008625e-05 -5.9764221215877165e-05 0 4.7811448862648995e-05 -5.3379319637580732e-05 0 5.4855859602544035e-05 -5.977196588357834e-05 0 4.5988858478008625e-05 -5.9764221215877165e-05 0 3.3036110066487574e-05 -5.3605777556051141e-05 0 3.7194939311412021e-05 -5.9298745141351949e-05 0 3.18864542744624e-05 -5.9850262079717423e-05 0 4.0820114482951506e-05 -5.3750489200652954e-05 0 3.3036110066487574e-05 -5.3605777556051141e-05 0 3.7194939311412021e-05 -5.9298745141351949e-05 0 3.7194939311412021e-05 -5.9298745141351949e-05 0 4.2521811602389077e-05 -6.3888479884949821e-05 0 3.6456639385485046e-05 -6.595940071640744e-05 0 4.5988858478008625e-05 -5.9764221215877165e-05 0 3.7194939311412014e-05 -5.9298745141351949e-05 0 4.2521811602389077e-05 -6.3888479884949821e-05 0 3.7194939311412021e-05 -5.9298745141351949e-05 0 3.6456639385485046e-05 -6.595940071640744e-05 0 3.18864542744624e-05 -5.9850262079717423e-05 0 4.2521811602389077e-05 -6.3888479884949821e-05 0 3.6456639385485046e-05 -6.595940071640744e-05 0 4.4304220161247856e-05 -7.4860851540510222e-05 0 3.6456639385485046e-05 -6.595940071640744e-05 0 4.4304220161247856e-05 -7.4860851540510222e-05 0 3.5948082006095106e-05 -7.159364527631192e-05 0 3.6456639385485046e-05 -6.595940071640744e-05 0 3.5948082006095106e-05 -7.159364527631192e-05 0 3.172411978314555e-05 -6.5409625125330349e-05 0 3.5948082006095106e-05 -7.159364527631192e-05 0 2.9918242540216027e-05 -6.8028269903017802e-05 0 3.172411978314555e-05 -6.5409625125330349e-05 0 2.9918242540216027e-05 -6.8028269903017802e-05 0 2.6561931923775164e-05 -6.1399515274557722e-05 0 3.172411978314555e-05 -6.5409625125330349e-05 0 2.6561931923775164e-05 -6.1399515274557722e-05 0 3.172411978314555e-05 -6.5409625125330349e-05 0 3.18864542744624e-05 -5.9850262079717423e-05 0 3.6456639385485046e-05 -6.595940071640744e-05 0 3.172411978314555e-05 -6.5409625125330349e-05 0 3.18864542744624e-05 -5.9850262079717423e-05 0 2.6809649750335143e-05 -6.5224967200092299e-05 0 2.3933743669894623e-05 -6.2438447418382712e-05 0 2.5208642954066405e-05 -6.4221949852398362e-05 0 2.9918242540216027e-05 -6.8028269903017802e-05 0 2.6809649750335143e-05 -6.5224967200092299e-05 0 2.3933743669894623e-05 -6.2438447418382712e-05 0 2.9918242540216027e-05 -6.8028269903017802e-05 0 2.6561931923775168e-05 -6.1399515274557722e-05 0 2.3933743669894623e-05 -6.2438447418382712e-05 0 2.3933743669894623e-05 -6.2438447418382712e-05 0 2.2378888117030145e-05 -5.7392759258404041e-05 0 1.9612444029692844e-05 -5.8755409735198362e-05 0 2.6561931923775164e-05 -6.1399515274557722e-05 0 2.3933743669894623e-05 -6.2438447418382712e-05 0 2.2378888117030145e-05 -5.7392759258404041e-05 0 2.2378888117030145e-05 -5.7392759258404041e-05 0 2.6348922701191378e-05 -5.5330951584883123e-05 0 2.1622148074921791e-05 -5.2388696892673587e-05 0 2.2378888117030145e-05 -5.7392759258404041e-05 0 2.1622148074921791e-05 -5.2388696892673587e-05 0 1.8187584089821303e-05 -5.3177169888307025e-05 0 2.2378888117030145e-05 -5.7392759258404041e-05 0 1.8187584089821303e-05 -5.3177169888307025e-05 0 1.9612444029692844e-05 -5.8755409735198362e-05 0 2.6561931923775164e-05 -6.1399515274557722e-05 0 3.18864542744624e-05 -5.9850262079717423e-05 0 2.6348922701191378e-05 -5.5330951584883123e-05 0 2.6561931923775164e-05 -6.1399515274557722e-05 0 2.2378888117030145e-05 -5.7392759258404041e-05 0 2.6348922701191378e-05 -5.5330951584883123e-05 0 3.3036110066487574e-05 -5.3605777556051141e-05 0 3.18864542744624e-05 -5.9850262079717423e-05 0 2.6348922701191378e-05 -5.5330951584883123e-05 0 3.3036110066487574e-05 -5.3605777556051141e-05 0 2.6348922701191378e-05 -5.5330951584883123e-05 0 2.7910144934879293e-05 -5.0456118503985575e-05 0 2.9673544113784325e-05 -4.6309524810968297e-05 0 2.7910144934879293e-05 -5.0456118503985575e-05 0 2.5104240846963821e-05 -4.6002597303998171e-05 0 2.7910144934879293e-05 -5.0456118503985575e-05 0 2.5104240846963821e-05 -4.6002597303998171e-05 0 2.4176014671220134e-05 -5.054138556562154e-05 0 2.5104240846963821e-05 -4.6002597303998171e-05 0 2.4176014671220134e-05 -5.054138556562154e-05 0 2.1098693655262593e-05 -4.6631758684689286e-05 0 2.6348922701191378e-05 -5.5330951584883123e-05 0 2.7910144934879293e-05 -5.0456118503985575e-05 0 2.4176014671220134e-05 -5.054138556562154e-05 0 2.4176014671220134e-05 -5.054138556562154e-05 0 2.1622148074921791e-05 -5.2388696892673587e-05 0 2.1098693655262593e-05 -4.6631758684689286e-05 0 2.6348922701191378e-05 -5.5330951584883123e-05 0 2.4176014671220134e-05 -5.054138556562154e-05 0 2.1622148074921791e-05 -5.2388696892673587e-05 0 2.1622148074921791e-05 -5.2388696892673587e-05 0 1.8187584089821303e-05 -5.3177169888307025e-05 0 1.7059997144848371e-05 -4.5912297232462476e-05 0 1.8187584089821303e-05 -5.3177169888307025e-05 0 1.7059997144848375e-05 -4.5912297232462483e-05 0 1.4975300667595642e-05 -4.9387113195231414e-05 0 2.1622148074921791e-05 -5.2388696892673587e-05 0 1.7059997144848371e-05 -4.5912297232462476e-05 0 2.1098693655262593e-05 -4.6631758684689286e-05 0 2.1098693655262593e-05 -4.6631758684689286e-05 0 1.6280358621318565e-05 -4.0462556224071793e-05 0 2.1734226641737311e-05 -4.1323630936921412e-05 0 1.7059997144848371e-05 -4.5912297232462476e-05 0 2.1098693655262593e-05 -4.6631758684689286e-05 0 1.6280358621318565e-05 -4.0462556224071793e-05 0 1.7059997144848371e-05 -4.5912297232462476e-05 0 1.6280358621318565e-05 -4.0462556224071793e-05 0 1.1095213325275557e-05 -4.2447371248100094e-05 0 1.6280358621318565e-05 -4.0462556224071793e-05 0 2.1734226641737311e-05 -4.1323630936921412e-05 0 1.9259895313155461e-05 -3.5134592557561815e-05 0 2.1734226641737311e-05 -4.1323630936921412e-05 0 1.9259895313155461e-05 -3.5134592557561815e-05 0 2.3832519641583728e-05 -3.6151730325371149e-05 0 2.1734226641737311e-05 -4.1323630936921412e-05 0 2.6510195430728114e-05 -4.1519200535923723e-05 0 2.3832519641583728e-05 -3.6151730325371149e-05 0 2.5104240846963821e-05 -4.6002597303998171e-05 0 2.1734226641737311e-05 -4.1323630936921412e-05 0 2.6510195430728114e-05 -4.1519200535923723e-05 0 2.9673544113784325e-05 -4.6309524810968297e-05 0 2.5104240846963821e-05 -4.6002597303998171e-05 0 2.6510195430728114e-05 -4.1519200535923723e-05 0 2.5104240846963821e-05 -4.6002597303998171e-05 0 2.1098693655262593e-05 -4.6631758684689279e-05 0 2.1734226641737311e-05 -4.1323630936921412e-05 0 3.4979234826607973e-05 -0.00012072767495674404 0 1.9565764130729598e-05 -0.00011126268443324197 0 2.3083419847162315e-05 -0.00012807403939787458 0 2.0739263353365271e-05 -8.3942138467028672e-05 0 1.8204948808738683e-05 -7.1055944179692292e-05 0 3.4979234826607973e-05 -0.00012072767495674404 0 1.9565764130729598e-05 -0.00011126268443324197 0 3.190550754457756e-05 -0.0001021944853030258 0 6.6784347471972979e-06 -4.7120938348612512e-05 0 1.1095213325275557e-05 -4.2447371248100094e-05 0 4.6900347137063484e-06 -3.9895651409103907e-05 0 1.1095213325275557e-05 -4.2447371248100094e-05 0 8.2882667152033468e-06 -3.5610424781051655e-05 0 4.6900347137063484e-06 -3.9895651409103907e-05 0 1.6280358621318565e-05 -4.0462556224071793e-05 0 1.1095213325275557e-05 -4.2447371248100094e-05 0 1.2272796085293271e-05 -3.7190258271828791e-05 0 1.1095213325275557e-05 -4.2447371248100094e-05 0 1.2272796085293271e-05 -3.7190258271828791e-05 0 8.2882667152033468e-06 -3.5610424781051655e-05 0 1.7059997144848371e-05 -4.5912297232462476e-05 0 1.1095213325275557e-05 -4.2447371248100094e-05 0 1.4975300667595642e-05 -4.9387113195231414e-05 0 6.6784347471972979e-06 -4.7120938348612512e-05 0 1.1095213325275557e-05 -4.2447371248100094e-05 0 1.1038859996837968e-05 -4.9089205271372671e-05 0 1.1095213325275557e-05 -4.2447371248100094e-05 0 1.1038859996837968e-05 -4.9089205271372671e-05 0 1.4975300667595642e-05 -4.9387113195231414e-05 0 1.1038859996837968e-05 -4.9089205271372671e-05 0 1.4975300667595642e-05 -4.9387113195231414e-05 0 1.4788216869671296e-05 -5.4863514649503643e-05 0 1.8187584089821303e-05 -5.3177169888307025e-05 0 1.4975300667595642e-05 -4.9387113195231414e-05 0 1.4788216869671296e-05 -5.4863514649503643e-05 0 1.1038859996837968e-05 -4.9089205271372671e-05 0 1.4788216869671296e-05 -5.4863514649503643e-05 0 9.5544328362593865e-06 -5.3917565253589235e-05 0 1.4788216869671296e-05 -5.4863514649503643e-05 0 9.5544328362593865e-06 -5.3917565253589235e-05 0 1.3547688954823663e-05 -5.9820150038774278e-05 0 3.8161351952740738e-05 -0.00014019639348622601 0 2.3083419847162315e-05 -0.00012807403939787458 0 1.5220090794244788e-05 -0.00014356587605189136 0 3.8161351952740738e-05 -0.00014019639348622601 0 2.43836431863128e-05 -0.00016224575196211117 0 1.5220090794244788e-05 -0.00014356587605189136 0 2.3539718345690155e-05 -9.6947894587593068e-05 0 2.793448436719452e-05 -0.00011023774449679178 0 6.6784347471972979e-06 -4.7120938348612512e-05 0 1.1038859996837968e-05 -4.9089205271372671e-05 0 9.5544328362593865e-06 -5.3917565253589235e-05 0 3.4979234826607973e-05 -0.00012072767495674404 0 3.8161351952740738e-05 -0.00014019639348622601 0 2.3083419847162315e-05 -0.00012807403939787458 0 2.0739263353365271e-05 -8.3942138467028672e-05 0 2.3539718345690155e-05 -9.6947894587593068e-05 0 3.8161351952740738e-05 -0.00014019639348622601 0 2.43836431863128e-05 -0.00016224575196211117 0 4.1734733624640831e-05 -0.00016010531840270799 0 2.793448436719452e-05 -0.00011023774449679178 0 3.0136485833463792e-05 -0.0001219981085202335 0 1.3547688954823663e-05 -5.9820150038774278e-05 0 1.7426094973701787e-05 -6.0012747468368729e-05 0 1.8870533288996785e-05 -6.4200516199056293e-05 0 2.43836431863128e-05 -0.00016224575196211117 0 4.1734733624640831e-05 -0.00016010531840270799 0 4.5977012532761264e-05 -0.00018080444969760195 0 2.43836431863128e-05 -0.00016224575196211117 0 4.5977012532761264e-05 -0.00018080444969760195 0 2.3654610054928074e-05 -0.00018116132684708872 0 1.8187584089821303e-05 -5.3177169888307025e-05 0 1.4788216869671296e-05 -5.4863514649503643e-05 0 1.9612444029692844e-05 -5.8755409735198362e-05 0 1.4788216869671296e-05 -5.4863514649503643e-05 0 1.7426094973701787e-05 -6.0012747468368729e-05 0 1.9612444029692844e-05 -5.8755409735198362e-05 0 1.4788216869671296e-05 -5.4863514649503643e-05 0 1.3547688954823663e-05 -5.9820150038774278e-05 0 1.7426094973701787e-05 -6.0012747468368729e-05 0 1.7426094973701787e-05 -6.0012747468368729e-05 0 1.9612444029692844e-05 -5.8755409735198362e-05 0 2.113730942480581e-05 -6.245465346978483e-05 0 2.3933743669894623e-05 -6.2438447418382712e-05 0 1.9612444029692844e-05 -5.8755409735198362e-05 0 2.113730942480581e-05 -6.245465346978483e-05 0 1.7426094973701787e-05 -6.0012747468368729e-05 0 2.113730942480581e-05 -6.245465346978483e-05 0 1.8870533288996785e-05 -6.4200516199056293e-05 0 2.113730942480581e-05 -6.245465346978483e-05 0 1.8870533288996785e-05 -6.4200516199056293e-05 0 2.5039129512429314e-05 -6.62356765709624e-05 0 2.113730942480581e-05 -6.245465346978483e-05 0 2.5208642954066405e-05 -6.4221949852398362e-05 0 2.5039129512429314e-05 -6.62356765709624e-05 0 2.3933743669894623e-05 -6.2438447418382712e-05 0 2.1137309424805807e-05 -6.245465346978483e-05 0 2.5208642954066405e-05 -6.4221949852398362e-05 0 4.5977012532761264e-05 -0.00018080444969760195 0 3.4920762586039276e-05 -0.00019186601211528752 0 2.3654610054928074e-05 -0.00018116132684708872 0 3.0136485833463792e-05 -0.0001219981085202335 0 4.5485981373227456e-05 -0.00013454983362373032 0 4.5977012532761264e-05 -0.00018080444969760195 0 5.1969806295462793e-05 -0.00020180281554972034 0 3.4920762586039276e-05 -0.00019186601211528752 0 5.1969806295462793e-05 -0.00020180281554972034 0 3.4920762586039276e-05 -0.00019186601211528752 0 3.0480226122450991e-05 -0.00020460683544133194 0 3.4920762586039276e-05 -0.00019186601211528752 0 1.8003138010708009e-05 -0.00019418466623274762 0 3.0480226122450991e-05 -0.00020460683544133194 0 1.8003138010708012e-05 -0.00019418466623274762 0 3.0480226122450991e-05 -0.00020460683544133194 0 8.9012030728266971e-06 -0.00020519429812464724 0 1.8003138010708012e-05 -0.00019418466623274762 0 2.3654610054928074e-05 -0.00018116132684708872 0 5.2213670851869796e-06 -0.00018610824734525576 0 3.4920762586039276e-05 -0.00019186601211528752 0 1.8003138010708012e-05 -0.00019418466623274762 0 2.3654610054928074e-05 -0.00018116132684708872 0 1.8003138010708012e-05 -0.00019418466623274762 0 5.2213670851869796e-06 -0.00018610824734525576 0 8.9012030728266971e-06 -0.00020519429812464724 0 5.2213670851869796e-06 -0.00018610824734525576 0 -1.1442970629347389e-05 -0.00020494301229105453 0 -1.2947691756281241e-05 -0.00017927707790674072 0 -1.1442970629347389e-05 -0.00020494301229105453 0 -1.2947691756281241e-05 -0.00017927707790674072 0 -3.0022663719256155e-05 -0.0001862126354814212 0 5.2213670851869796e-06 -0.00018610824734525576 0 8.9012030728266971e-06 -0.00020519429812464724 0 -1.1442970629347389e-05 -0.00020494301229105453 0 5.2213670851869796e-06 -0.00018610824734525576 0 -1.2947691756281241e-05 -0.00017927707790674072 0 6.2501838787336128e-06 -0.0001654705050860452 0 -1.2947691756281241e-05 -0.00017927707790674072 0 -1.5294605770079856e-05 -0.00015646733685893799 0 6.2501838787336128e-06 -0.0001654705050860452 0 -1.2947691756281241e-05 -0.00017927707790674072 0 -1.5294605770079856e-05 -0.00015646733685893799 0 -3.3684740150569345e-05 -0.00016561686970079296 0 -1.5294605770079856e-05 -0.00015646733685893799 0 6.2501838787336128e-06 -0.0001654705050860452 0 -2.3259323934194661e-06 -0.00014610757759503298 0 2.43836431863128e-05 -0.00016224575196211117 0 6.2501838787336128e-06 -0.0001654705050860452 0 1.5220090794244788e-05 -0.00014356587605189136 0 2.43836431863128e-05 -0.00016224575196211117 0 2.3654610054928074e-05 -0.00018116132684708872 0 6.2501838787336128e-06 -0.0001654705050860452 0 2.3654610054928074e-05 -0.00018116132684708872 0 5.2213670851869796e-06 -0.00018610824734525576 0 6.2501838787336128e-06 -0.0001654705050860452 0 -7.0233946298572762e-05 -0.0001849049925395112 0 -5.7177104519147384e-05 -0.00019337415100740779 0 -4.8439473873131945e-05 -0.00018226886544082282 0 -7.0233946298572762e-05 -0.0001849049925395112 0 -7.0141670404560402e-05 -0.00020463845393330383 0 -5.7177104519147384e-05 -0.00019337415100740779 0 -7.0141670404560402e-05 -0.00020463845393330383 0 -5.0559062836911613e-05 -0.00020452893640628448 0 -5.7177104519147384e-05 -0.00019337415100740779 0 -5.0559062836911613e-05 -0.00020452893640628448 0 -5.7177104519147384e-05 -0.00019337415100740779 0 -4.0984640464939017e-05 -0.00019437582969744629 0 -5.7177104519147384e-05 -0.00019337415100740779 0 -4.8439473873131945e-05 -0.00018226886544082282 0 -4.0984640464939017e-05 -0.00019437582969744629 0 -4.8439473873131945e-05 -0.00018226886544082282 0 -4.0984640464939017e-05 -0.00019437582969744629 0 -3.0022663719256155e-05 -0.0001862126354814212 0 -4.0984640464939017e-05 -0.00019437582969744629 0 -3.0969243761358186e-05 -0.0002046732903510748 0 -3.0022663719256155e-05 -0.0001862126354814212 0 -5.0559062836911613e-05 -0.00020452893640628448 0 -4.0984640464939017e-05 -0.00019437582969744632 0 -3.0969243761358186e-05 -0.0002046732903510748 0 -1.1442970629347389e-05 -0.00020494301229105453 0 -3.0969243761358186e-05 -0.0002046732903510748 0 -3.0022663719256155e-05 -0.0001862126354814212 0 -1.2947691756281241e-05 -0.00017927707790674072 0 -3.0022663719256155e-05 -0.0001862126354814212 0 -3.3684740150569345e-05 -0.00016561686970079296 0 -1.5294605770079856e-05 -0.00015646733685893799 0 -3.3684740150569345e-05 -0.00016561686970079296 0 -2.9457205694134366e-05 -0.00014308568113646002 0 -3.3684740150569345e-05 -0.00016561686970079296 0 -5.2484815796663832e-05 -0.00016467976834981117 0 -4.6576063124509271e-05 -0.00014647159369242016 0 -4.8439473873131945e-05 -0.00018226886544082282 0 -3.0022663719256155e-05 -0.0001862126354814212 0 -3.3684740150569345e-05 -0.00016561686970079296 0 -4.8439473873131945e-05 -0.00018226886544082282 0 -3.3684740150569345e-05 -0.00016561686970079296 0 -5.2484815796663832e-05 -0.00016467976834981117 0 -7.0233946298572762e-05 -0.0001849049925395112 0 -4.8439473873131945e-05 -0.00018226886544082282 0 -5.2484815796663832e-05 -0.00016467976834981117 0 -5.2484815796663832e-05 -0.00016467976834981117 0 -7.0005193497367954e-05 -0.0001649945950139836 0 -6.9304358188879516e-05 -0.00014498195813056122 0 -7.0233946298572762e-05 -0.0001849049925395112 0 -5.2484815796663832e-05 -0.00016467976834981117 0 -7.0005193497367954e-05 -0.0001649945950139836 0 -6.9304358188879516e-05 -0.00014498195813056122 0 -5.4997329303636221e-05 -0.0001322393915113109 0 -6.7915896031563755e-05 -0.00012545921584087574 0 -5.2484815796663832e-05 -0.00016467976834981117 0 -6.9304358188879516e-05 -0.00014498195813056122 0 -4.6576063124509271e-05 -0.00014647159369242016 0 -4.6576063124509271e-05 -0.00014647159369242016 0 -5.4997329303636221e-05 -0.0001322393915113109 0 -4.0807412089422357e-05 -0.00012526852413813336 0 -6.9304358188879516e-05 -0.00014498195813056122 0 -4.6576063124509271e-05 -0.00014647159369242016 0 -5.4997329303636221e-05 -0.0001322393915113109 0 -4.6576063124509271e-05 -0.00014647159369242016 0 -2.9457205694134366e-05 -0.00014308568113646002 0 -4.0807412089422357e-05 -0.00012526852413813336 0 -3.3684740150569345e-05 -0.00016561686970079296 0 -4.6576063124509271e-05 -0.00014647159369242016 0 -2.9457205694134366e-05 -0.00014308568113646002 0 -2.9457205694134366e-05 -0.00014308568113646002 0 -2.6814156710841401e-05 -0.00012457803410970619 0 -4.0807412089422357e-05 -0.00012526852413813336 0 -2.9457205694134366e-05 -0.00014308568113646002 0 -2.6814156710841397e-05 -0.00012457803410970619 0 -1.515397236145701e-05 -0.00013476513748978007 0 -2.6814156710841397e-05 -0.00012457803410970619 0 -3.2685620043338819e-05 -0.00011236005641523052 0 -4.0807412089422357e-05 -0.00012526852413813336 0 -3.2685620043338819e-05 -0.00011236005641523052 0 -1.7805981113307702e-05 -0.00011294546643410866 0 -3.0127987780087906e-05 -9.5802469372724798e-05 0 -2.6814156710841397e-05 -0.00012457803410970619 0 -3.2685620043338819e-05 -0.00011236005641523052 0 -1.7805981113307702e-05 -0.00011294546643410866 0 -3.2685620043338819e-05 -0.00011236005641523052 0 -4.0807412089422357e-05 -0.00012526852413813336 0 -4.7016589581876422e-05 -0.00010663771165494506 0 -5.4997329303636221e-05 -0.0001322393915113109 0 -4.0807412089422357e-05 -0.00012526852413813336 0 -5.547367136872397e-05 -0.0001188266414017959 0 -4.0807412089422357e-05 -0.00012526852413813336 0 -5.547367136872397e-05 -0.0001188266414017959 0 -4.7016589581876422e-05 -0.00010663771165494506 0 -5.547367136872397e-05 -0.0001188266414017959 0 -4.7016589581876422e-05 -0.00010663771165494506 0 -6.5704541105370166e-05 -0.00010641659946978873 0 -5.547367136872397e-05 -0.0001188266414017959 0 -6.7915896031563755e-05 -0.00012545921584087574 0 -6.5704541105370166e-05 -0.00010641659946978873 0 -5.4997329303636221e-05 -0.0001322393915113109 0 -5.547367136872397e-05 -0.0001188266414017959 0 -6.7915896031563755e-05 -0.00012545921584087574 0 -2.4331044564538387e-06 -0.0001288018429629379 0 1.5220090794244788e-05 -0.00014356587605189136 0 9.9082128946631826e-06 -0.00012195616837929111 0 -2.4331044564538387e-06 -0.0001288018429629379 0 1.5220090794244788e-05 -0.00014356587605189136 0 -2.3259323934194661e-06 -0.00014610757759503298 0 2.3083419847162315e-05 -0.00012807403939787458 0 1.5220090794244788e-05 -0.00014356587605189136 0 9.9082128946631826e-06 -0.00012195616837929111 0 6.2501838787336128e-06 -0.0001654705050860452 0 1.5220090794244788e-05 -0.00014356587605189136 0 -2.3259323934194661e-06 -0.00014610757759503298 0 -1.5294605770079856e-05 -0.00015646733685893799 0 -2.3259323934194661e-06 -0.00014610757759503298 0 -1.515397236145701e-05 -0.00013476513748978007 0 -1.5294605770079856e-05 -0.00015646733685893799 0 -2.9457205694134366e-05 -0.00014308568113646002 0 -1.515397236145701e-05 -0.00013476513748978007 0 -2.4331044564538387e-06 -0.0001288018429629379 0 -2.3259323934194661e-06 -0.00014610757759503298 0 -1.515397236145701e-05 -0.00013476513748978007 0 -2.4331044564538387e-06 -0.0001288018429629379 0 -1.7805981113307702e-05 -0.00011294546643410866 0 -3.2555538004967902e-06 -0.00011049901987692016 0 -2.4331044564538387e-06 -0.0001288018429629379 0 -1.5153972361457012e-05 -0.00013476513748978007 0 -1.7805981113307702e-05 -0.00011294546643410866 0 -2.6814156710841397e-05 -0.00012457803410970619 0 -1.515397236145701e-05 -0.00013476513748978007 0 -1.7805981113307702e-05 -0.00011294546643410866 0 -1.7805981113307702e-05 -0.00011294546643410866 0 -3.2555538004967898e-06 -0.00011049901987692016 0 -1.2452332802549493e-05 -9.5828456926427526e-05 0 -3.2555538004967902e-06 -0.00011049901987692016 0 9.9082128946631826e-06 -0.00012195616837929111 0 7.7837519736244988e-06 -0.00010663673834732985 0 -2.4331044564538387e-06 -0.0001288018429629379 0 -3.2555538004967902e-06 -0.00011049901987692016 0 9.9082128946631826e-06 -0.00012195616837929111 0 1.9565764130729598e-05 -0.00011126268443324197 0 2.3083419847162315e-05 -0.00012807403939787458 0 9.9082128946631826e-06 -0.00012195616837929111 0 1.9565764130729598e-05 -0.00011126268443324197 0 9.9082128946631826e-06 -0.00012195616837929111 0 7.7837519736244988e-06 -0.00010663673834732985 0 1.9565764130729598e-05 -0.00011126268443324197 0 7.7837519736244988e-06 -0.00010663673834732985 0 1.4421475036562568e-05 -9.456404141909504e-05 0 7.7837519736244988e-06 -0.00010663673834732985 0 1.4421475036562568e-05 -9.456404141909504e-05 0 -1.4517150570401556e-06 -9.5139123916339739e-05 0 1.4421475036562568e-05 -9.456404141909504e-05 0 5.5331289958339902e-06 -8.3720146920787756e-05 0 -1.4517150570401556e-06 -9.5139123916339739e-05 0 1.4421475036562568e-05 -9.456404141909504e-05 0 5.5331289958339902e-06 -8.3720146920787756e-05 0 1.5120990395670536e-05 -7.8201174922136189e-05 0 5.5331289958339902e-06 -8.3720146920787756e-05 0 -1.4517150570401567e-06 -9.5139123916339739e-05 0 -4.8425717780804189e-06 -8.129136960805959e-05 0 -3.2555538004967902e-06 -0.00011049901987692016 0 7.7837519736244988e-06 -0.00010663673834732985 0 -1.4517150570401556e-06 -9.5139123916339739e-05 0 -3.2555538004967902e-06 -0.00011049901987692016 0 -1.4517150570401556e-06 -9.5139123916339739e-05 0 -1.2452332802549493e-05 -9.5828456926427526e-05 0 -1.7805981113307702e-05 -0.00011294546643410866 0 -1.2452332802549493e-05 -9.5828456926427526e-05 0 -3.0127987780087906e-05 -9.5802469372724798e-05 0 -1.2452332802549493e-05 -9.5828456926427526e-05 0 -1.7485805313800098e-05 -8.0524204669505915e-05 0 -3.0127987780087906e-05 -9.5802469372724798e-05 0 -1.4517150570401556e-06 -9.5139123916339739e-05 0 -1.2452332802549493e-05 -9.5828456926427526e-05 0 -4.8425717780804189e-06 -8.129136960805959e-05 0 -1.2452332802549493e-05 -9.5828456926427526e-05 0 -1.7485805313800098e-05 -8.0524204669505915e-05 0 -4.8425717780804189e-06 -8.129136960805959e-05 0 -1.7485805313800098e-05 -8.0524204669505915e-05 0 -6.0272373058383193e-06 -6.5249563642711414e-05 0 -4.8425717780804189e-06 -8.129136960805959e-05 0 -1.7485805313800098e-05 -8.0524204669505915e-05 0 -2.5559230020746791e-05 -7.0215995117875693e-05 0 -1.622002970488893e-05 -6.0133695374483643e-05 0 -1.7485805313800098e-05 -8.0524204669505915e-05 0 -6.0272373058383176e-06 -6.5249563642711414e-05 0 -1.622002970488893e-05 -6.0133695374483643e-05 0 -6.0272373058383193e-06 -6.5249563642711414e-05 0 4.6340784554027986e-06 -6.9778389857966231e-05 0 4.1061743190662806e-06 -5.1312424794624775e-05 0 4.6340784554027994e-06 -6.9778389857966231e-05 0 4.1061743190662806e-06 -5.1312424794624775e-05 0 1.3940455420019822e-05 -6.0490694206816765e-05 0 5.5331289958339902e-06 -8.3720146920787756e-05 0 4.6340784554028003e-06 -6.9778389857966231e-05 0 1.5120990395670536e-05 -7.8201174922136189e-05 0 -6.0272373058383193e-06 -6.5249563642711414e-05 0 4.6340784554027994e-06 -6.9778389857966231e-05 0 -4.8425717780804189e-06 -8.129136960805959e-05 0 5.5331289958339902e-06 -8.3720146920787756e-05 0 4.6340784554027994e-06 -6.9778389857966231e-05 0 -4.8425717780804189e-06 -8.129136960805959e-05 0 -6.2626002121167113e-05 -8.8385742076428574e-05 0 -5.4790730769592681e-05 -9.7398413181953907e-05 0 -4.4023685190181071e-05 -8.7630310233024938e-05 0 -6.2626002121167113e-05 -8.8385742076428574e-05 0 -4.4023685190181071e-05 -8.7630310233024938e-05 0 -4.8582197713431419e-05 -7.5126652868686723e-05 0 -4.7016589581876422e-05 -0.00010663771165494506 0 -6.5704541105370166e-05 -0.00010641659946978873 0 -5.4790730769592681e-05 -9.739841318195392e-05 0 -6.2626002121167113e-05 -8.8385742076428574e-05 0 -6.5704541105370166e-05 -0.00010641659946978873 0 -5.4790730769592681e-05 -9.739841318195392e-05 0 -4.7016589581876422e-05 -0.00010663771165494506 0 -5.4790730769592681e-05 -9.739841318195392e-05 0 -4.4023685190181071e-05 -8.7630310233024938e-05 0 -4.4023685190181071e-05 -8.7630310233024938e-05 0 -3.0127987780087906e-05 -9.5802469372724798e-05 0 -3.0170519242509518e-05 -8.0824017491921076e-05 0 -4.7016589581876422e-05 -0.00010663771165494506 0 -4.4023685190181071e-05 -8.7630310233024938e-05 0 -3.0127987780087906e-05 -9.5802469372724798e-05 0 -3.2685620043338819e-05 -0.00011236005641523052 0 -4.7016589581876422e-05 -0.00010663771165494506 0 -3.0127987780087906e-05 -9.5802469372724798e-05 0 -1.7485805313800098e-05 -8.0524204669505915e-05 0 -3.0127987780087906e-05 -9.5802469372724785e-05 0 -3.0170519242509518e-05 -8.0824017491921076e-05 0 -3.0170519242509518e-05 -8.0824017491921076e-05 0 -2.5559230020746791e-05 -7.0215995117875693e-05 0 -3.6934689914068111e-05 -7.1138714509716918e-05 0 -1.7485805313800098e-05 -8.0524204669505915e-05 0 -3.0170519242509518e-05 -8.0824017491921076e-05 0 -2.5559230020746791e-05 -7.0215995117875693e-05 0 -2.5559230020746791e-05 -7.0215995117875693e-05 0 -2.7354385577540165e-05 -5.9500267637474509e-05 0 -1.622002970488893e-05 -6.0133695374483643e-05 0 -2.5559230020746791e-05 -7.0215995117875693e-05 0 -3.6934689914068111e-05 -7.1138714509716918e-05 0 -2.7354385577540165e-05 -5.9500267637474509e-05 0 -3.6934689914068111e-05 -7.1138714509716918e-05 0 -4.2552391940669368e-05 -6.054156193575564e-05 0 -2.7354385577540165e-05 -5.9500267637474509e-05 0 -4.4023685190181071e-05 -8.7630310233024938e-05 0 -3.0170519242509518e-05 -8.0824017491921076e-05 0 -3.6934689914068111e-05 -7.1138714509716918e-05 0 -4.4023685190181071e-05 -8.7630310233024938e-05 0 -3.6934689914068111e-05 -7.1138714509716918e-05 0 -4.8582197713431419e-05 -7.5126652868686723e-05 0 -3.6934689914068111e-05 -7.1138714509716918e-05 0 -4.8582197713431419e-05 -7.5126652868686723e-05 0 -4.2552391940669368e-05 -6.054156193575564e-05 0 -4.8582197713431419e-05 -7.5126652868686723e-05 0 -5.8888382659457888e-05 -7.1489808526005945e-05 0 -4.2552391940669368e-05 -6.054156193575564e-05 0 -6.2626002121167113e-05 -8.8385742076428574e-05 0 -4.8582197713431419e-05 -7.5126652868686723e-05 0 -5.8888382659457888e-05 -7.1489808526005945e-05 0 -5.4462270266799644e-05 -5.6057054451726909e-05 0 -4.2088081230162646e-05 -4.7451446263395056e-05 0 -4.9022713820331646e-05 -4.2263201558586328e-05 0 -5.8888382659457888e-05 -7.1489808526005945e-05 0 -5.4462270266799644e-05 -5.6057054451726909e-05 0 -4.2552391940669368e-05 -6.054156193575564e-05 0 -5.4462270266799644e-05 -5.6057054451726909e-05 0 -4.2552391940669368e-05 -6.054156193575564e-05 0 -4.2088081230162646e-05 -4.7451446263395056e-05 0 -4.2552391940669368e-05 -6.054156193575564e-05 0 -4.2088081230162646e-05 -4.7451446263395056e-05 0 -3.2023038069627591e-05 -4.7080304935824641e-05 0 -4.2552391940669368e-05 -6.054156193575564e-05 0 -3.2023038069627591e-05 -4.7080304935824641e-05 0 -2.7354385577540165e-05 -5.9500267637474509e-05 0 -2.7354385577540165e-05 -5.9500267637474509e-05 0 -2.3338725271809131e-05 -4.8836024342904033e-05 0 -1.622002970488893e-05 -6.0133695374483643e-05 0 -3.2023038069627591e-05 -4.7080304935824641e-05 0 -2.7354385577540165e-05 -5.9500267637474509e-05 0 -2.3338725271809131e-05 -4.8836024342904033e-05 0 -2.3338725271809131e-05 -4.8836024342904033e-05 0 -2.4421740625416348e-05 -3.9272411462167865e-05 0 -1.5170052176367321e-05 -4.140513814317496e-05 0 -3.2023038069627591e-05 -4.7080304935824641e-05 0 -2.3338725271809131e-05 -4.8836024342904033e-05 0 -2.4421740625416348e-05 -3.9272411462167865e-05 0 -2.4421740625416348e-05 -3.9272411462167865e-05 0 -1.9807066658150511e-05 -2.9124951274868709e-05 0 -3.2951437087497947e-05 -3.3777810033968692e-05 0 -2.3206633404318024e-05 -2.3119098835982137e-05 0 -1.9807066658150511e-05 -2.9124951274868709e-05 0 -3.2951437087497947e-05 -3.3777810033968692e-05 0 -3.2023038069627591e-05 -4.7080304935824641e-05 0 -2.4421740625416348e-05 -3.9272411462167865e-05 0 -3.2951437087497947e-05 -3.3777810033968692e-05 0 -4.2088081230162646e-05 -4.7451446263395056e-05 0 -3.2951437087497947e-05 -3.3777810033968692e-05 0 -4.9022713820331646e-05 -4.2263201558586328e-05 0 -4.2088081230162646e-05 -4.7451446263395056e-05 0 -3.2023038069627591e-05 -4.7080304935824641e-05 0 -3.2951437087497947e-05 -3.3777810033968692e-05 0 -4.3564791601560016e-05 -3.0554574117381944e-05 0 -3.2951437087497947e-05 -3.3777810033968692e-05 0 -4.9022713820331646e-05 -4.2263201558586328e-05 0 4.1061743190662806e-06 -5.1312424794624775e-05 0 -7.6565191383041501e-06 -5.0647644496936571e-05 0 -4.3574874820431744e-06 -3.7805625075401644e-05 0 4.1061743190662806e-06 -5.1312424794624775e-05 0 -4.3574874820431744e-06 -3.7805625075401644e-05 0 4.9945432547897953e-06 -3.366343630804371e-05 0 -6.0272373058383193e-06 -6.5249563642711414e-05 0 4.1061743190662806e-06 -5.1312424794624775e-05 0 -7.6565191383041501e-06 -5.0647644496936571e-05 0 -6.0272373058383193e-06 -6.5249563642711414e-05 0 -7.6565191383041501e-06 -5.0647644496936571e-05 0 -1.622002970488893e-05 -6.0133695374483643e-05 0 -2.3338725271809131e-05 -4.8836024342904033e-05 0 -1.622002970488893e-05 -6.0133695374483643e-05 0 -1.5170052176367321e-05 -4.140513814317496e-05 0 -7.6565191383041501e-06 -5.0647644496936571e-05 0 -1.622002970488893e-05 -6.0133695374483643e-05 0 -1.5170052176367321e-05 -4.140513814317496e-05 0 -7.6565191383041501e-06 -5.0647644496936571e-05 0 -1.5170052176367321e-05 -4.140513814317496e-05 0 -4.3574874820431744e-06 -3.7805625075401644e-05 0 -1.5170052176367321e-05 -4.140513814317496e-05 0 -1.0874922336718683e-05 -2.9321785325320158e-05 0 -4.3574874820431744e-06 -3.7805625075401644e-05 0 -2.4421740625416348e-05 -3.9272411462167865e-05 0 -1.9807066658150511e-05 -2.9124951274868709e-05 0 -1.5170052176367321e-05 -4.140513814317496e-05 0 -1.4848771975843949e-05 -2.3020838525007418e-05 0 -1.9807066658150511e-05 -2.9124951274868709e-05 0 -1.0874922336718682e-05 -2.9321785325320158e-05 0 -1.9807066658150511e-05 -2.9124951274868709e-05 0 -1.5170052176367321e-05 -4.140513814317496e-05 0 -1.0874922336718682e-05 -2.9321785325320158e-05 0 -1.0874922336718682e-05 -2.9321785325320158e-05 0 -3.892262232845871e-06 -2.57263458270899e-05 0 -4.3574874820431744e-06 -3.7805625075401644e-05 0 -3.8922622328458719e-06 -2.57263458270899e-05 0 -4.3574874820431744e-06 -3.7805625075401644e-05 0 4.9945432547897953e-06 -3.366343630804371e-05 0 3.229478719021015e-06 -2.12162173790479e-05 0 -3.8922622328458719e-06 -2.57263458270899e-05 0 4.9945432547897953e-06 -3.366343630804371e-05 0 3.229478719021015e-06 -2.12162173790479e-05 0 9.3902841209700981e-06 -1.7768909993143535e-05 0 4.9945432547897953e-06 -3.366343630804371e-05 0 9.3902841209700981e-06 -1.7768909993143535e-05 0 5.9740693623305459e-06 -1.448827131256271e-05 0 6.7544257657901126e-06 -1.3515646246752862e-05 0 9.3902841209700981e-06 -1.7768909993143535e-05 0 1.6895221486749267e-05 -3.6777031499395456e-05 0 4.9945432547897953e-06 -3.366343630804371e-05 0 7.8671085738731022e-06 -1.7544326580134497e-05 0 1.2029810477917112e-05 -2.5841072708905251e-05 0 1.6895221486749267e-05 -3.6777031499395456e-05 0 4.9945432547897953e-06 -3.366343630804371e-05 0 1.2406716398279252e-05 -4.54480288537929e-05 0 4.1061743190662806e-06 -5.1312424794624775e-05 0 4.9945432547897953e-06 -3.366343630804371e-05 0 1.2406716398279252e-05 -4.54480288537929e-05 0 1.2029810477917112e-05 -2.5841072708905251e-05 0 1.2992072805191135e-05 -3.5381563514033408e-05 0 1.6895221486749267e-05 -3.6777031499395456e-05 0 1.2406716398279252e-05 -4.54480288537929e-05 0 2.1867104258758513e-05 -5.1871750692928073e-05 0 1.2992072805191135e-05 -3.5381563514033408e-05 0 1.4543113137778195e-05 -4.6535074339613405e-05 0 1.2406716398279252e-05 -4.54480288537929e-05 0 2.1867104258758513e-05 -5.1871750692928066e-05 0 1.3940455420019822e-05 -6.0490694206816765e-05 0 4.1061743190662806e-06 -5.1312424794624775e-05 0 1.240671639827925e-05 -4.54480288537929e-05 0 1.3940455420019822e-05 -6.0490694206816765e-05 0 6.8562056104677396e-06 -2.0154019243690274e-05 0 7.5041555153862256e-06 -1.4628356399633245e-05 0 9.6100413667961676e-06 -1.8330963645879715e-05 0 4.3472494870285731e-06 -1.8993371265023054e-05 0 6.8562056104677396e-06 -2.0154019243690274e-05 0 3.4454792717020766e-06 -2.5256502421711921e-05 0 4.3472494870285731e-06 -1.8993371265023054e-05 0 6.8562056104677396e-06 -2.0154019243690274e-05 0 7.5041555153862256e-06 -1.4628356399633245e-05 0 5.9740693623305459e-06 -1.448827131256271e-05 0 4.3472494870285731e-06 -1.8993371265023054e-05 0 7.5041555153862256e-06 -1.4628356399633245e-05 0 7.5041555153862256e-06 -1.4628356399633245e-05 0 6.7544257657901126e-06 -1.3515646246752862e-05 0 9.0719637641517061e-06 -1.0984850297443352e-05 0 5.9740693623305459e-06 -1.448827131256271e-05 0 7.5041555153862256e-06 -1.4628356399633245e-05 0 6.7544257657901126e-06 -1.3515646246752862e-05 0 7.707818376161496e-06 -1.1922164549840032e-05 0 9.3902841209700981e-06 -1.7768909993143535e-05 0 6.7544257657901126e-06 -1.3515646246752862e-05 0 7.707818376161496e-06 -1.1922164549840032e-05 0 6.7544257657901126e-06 -1.3515646246752862e-05 0 9.0719637641517061e-06 -1.0984850297443352e-05 0 7.5041555153862256e-06 -1.4628356399633245e-05 0 9.0719637641517061e-06 -1.0984850297443352e-05 0 1.1162287594493126e-05 -1.4674738869166844e-05 0 9.0719637641517061e-06 -1.0984850297443352e-05 0 1.3177357151816217e-05 -1.011026889497565e-05 0 1.1162287594493126e-05 -1.4674738869166844e-05 0 1.1674588384032015e-05 -6.5899113886069682e-06 0 9.0719637641517061e-06 -1.0984850297443352e-05 0 1.3177357151816217e-05 -1.011026889497565e-05 0 1.473541473986379e-05 -4.1951733807150259e-06 0 1.6468830703551298e-05 -7.9628530907601184e-06 0 1.3177357151816217e-05 -1.011026889497565e-05 0 1.473541473986379e-05 -4.1951733807150259e-06 0 1.1674588384032015e-05 -6.5899113886069682e-06 0 1.3177357151816217e-05 -1.011026889497565e-05 0 1.6468830703551298e-05 -7.9628530907601184e-06 0 1.7188598344659391e-05 -1.3709250805022608e-05 0 1.3177357151816217e-05 -1.011026889497565e-05 0 1.7188598344659391e-05 -1.3709250805022608e-05 0 1.4541016831298142e-05 -1.4587101082785118e-05 0 1.7576741384634093e-05 -1.9154313022644263e-05 0 1.7188598344659391e-05 -1.3709250805022608e-05 0 1.3177357151816217e-05 -1.011026889497565e-05 0 1.4541016831298142e-05 -1.4587101082785118e-05 0 1.4541016831298142e-05 -1.4587101082785118e-05 0 1.4460275490512276e-05 -1.8654328442474875e-05 0 1.1162287594493126e-05 -1.4674738869166844e-05 0 1.3177357151816217e-05 -1.011026889497565e-05 0 1.4541016831298142e-05 -1.4587101082785118e-05 0 1.1162287594493126e-05 -1.4674738869166844e-05 0 1.4541016831298142e-05 -1.4587101082785118e-05 0 1.4460275490512276e-05 -1.8654328442474875e-05 0 1.7576741384634093e-05 -1.9154313022644263e-05 0 7.5041555153862256e-06 -1.4628356399633245e-05 0 1.1162287594493126e-05 -1.4674738869166844e-05 0 9.6100413667961676e-06 -1.8330963645879715e-05 0 1.4460275490512276e-05 -1.8654328442474875e-05 0 1.1162287594493126e-05 -1.4674738869166844e-05 0 1.2598115410983351e-05 -2.1947461861435929e-05 0 1.1162287594493126e-05 -1.4674738869166844e-05 0 9.6100413667961676e-06 -1.8330963645879715e-05 0 1.2598115410983351e-05 -2.1947461861435929e-05 0 9.6100413667961676e-06 -1.8330963645879715e-05 0 1.2598115410983351e-05 -2.1947461861435929e-05 0 8.7112104519022633e-06 -2.438554163893466e-05 0 1.2598115410983351e-05 -2.1947461861435929e-05 0 1.6947093635848778e-05 -2.3824544800269673e-05 0 1.5828983213748663e-05 -2.8575895872330289e-05 0 1.2598115410983351e-05 -2.1947461861435929e-05 0 1.1782953632504395e-05 -2.7679382166247826e-05 0 1.5828983213748663e-05 -2.8575895872330289e-05 0 1.2598115410983351e-05 -2.1947461861435929e-05 0 1.1782953632504395e-05 -2.7679382166247826e-05 0 8.7112104519022633e-06 -2.438554163893466e-05 0 1.7576741384634093e-05 -1.9154313022644263e-05 0 2.0639834893626293e-05 -2.4542078747435432e-05 0 1.6947093635848778e-05 -2.3824544800269673e-05 0 1.4460275490512276e-05 -1.8654328442474875e-05 0 1.7576741384634093e-05 -1.9154313022644267e-05 0 1.6947093635848778e-05 -2.3824544800269673e-05 0 1.4460275490512276e-05 -1.8654328442474875e-05 0 1.2598115410983351e-05 -2.1947461861435929e-05 0 1.6947093635848778e-05 -2.3824544800269673e-05 0 1.6947093635848778e-05 -2.3824544800269673e-05 0 2.1016448636330776e-05 -2.9870152161571497e-05 0 1.5828983213748663e-05 -2.8575895872330289e-05 0 2.0639834893626293e-05 -2.4542078747435432e-05 0 1.6947093635848778e-05 -2.3824544800269673e-05 0 2.1016448636330776e-05 -2.9870152161571497e-05 0 2.6309272284791094e-05 -3.3383940345791267e-05 0 2.1016448636330776e-05 -2.9870152161571497e-05 0 2.3832519641583728e-05 -3.6151730325371149e-05 0 2.1016448636330776e-05 -2.9870152161571497e-05 0 1.9259895313155461e-05 -3.5134592557561815e-05 0 1.5828983213748663e-05 -2.8575895872330289e-05 0 2.1016448636330776e-05 -2.9870152161571497e-05 0 1.9259895313155461e-05 -3.5134592557561815e-05 0 2.3832519641583728e-05 -3.6151730325371149e-05 0 1.1782953632504395e-05 -2.7679382166247826e-05 0 1.4568468825299414e-05 -3.3887696150044724e-05 0 1.0784247646078063e-05 -3.2668284732712437e-05 0 1.9259895313155461e-05 -3.5134592557561815e-05 0 1.5828983213748663e-05 -2.8575895872330289e-05 0 1.4568468825299414e-05 -3.3887696150044724e-05 0 1.1782953632504395e-05 -2.7679382166247826e-05 0 1.5828983213748663e-05 -2.8575895872330289e-05 0 1.4568468825299414e-05 -3.3887696150044724e-05 0 1.6280358621318565e-05 -4.0462556224071793e-05 0 1.9259895313155461e-05 -3.5134592557561815e-05 0 1.4568468825299414e-05 -3.3887696150044724e-05 0 1.4568468825299414e-05 -3.3887696150044724e-05 0 1.2272796085293271e-05 -3.7190258271828791e-05 0 1.0784247646078063e-05 -3.2668284732712437e-05 0 1.6280358621318565e-05 -4.0462556224071793e-05 0 1.4568468825299414e-05 -3.3887696150044724e-05 0 1.2272796085293271e-05 -3.7190258271828791e-05 0 1.2272796085293271e-05 -3.7190258271828791e-05 0 1.0784247646078063e-05 -3.2668284732712437e-05 0 8.2882667152033468e-06 -3.5610424781051655e-05 0 1.0784247646078063e-05 -3.2668284732712437e-05 0 7.3704338153774677e-06 -2.9539511107430199e-05 0 8.2882667152033468e-06 -3.5610424781051655e-05 0 1.1782953632504395e-05 -2.7679382166247826e-05 0 1.0784247646078063e-05 -3.2668284732712437e-05 0 7.3704338153774677e-06 -2.9539511107430199e-05 0 7.3704338153774677e-06 -2.9539511107430199e-05 0 8.2882667152033468e-06 -3.5610424781051655e-05 0 3.5814167219823237e-06 -3.2542199071435044e-05 0 1.4421475036562568e-05 -9.456404141909504e-05 0 3.190550754457756e-05 -0.0001021944853030258 0 2.8880464773319353e-05 -8.4505023924313775e-05 0 1.8204948808738683e-05 -7.1055944179692292e-05 0 1.6173396612810928e-05 -5.8534306759244057e-05 0 8.2882667152033468e-06 -3.5610424781051655e-05 0 4.6900347137063476e-06 -3.9895651409103907e-05 0 3.5814167219823237e-06 -3.2542199071435044e-05 0 1.9565764130729598e-05 -0.00011126268443324197 0 1.4421475036562568e-05 -9.456404141909504e-05 0 3.190550754457756e-05 -0.0001021944853030258 0 1.4421475036562568e-05 -9.456404141909504e-05 0 2.8880464773319353e-05 -8.4505023924313775e-05 0 1.5120990395670536e-05 -7.8201174922136189e-05 0 2.8880464773319353e-05 -8.4505023924313775e-05 0 1.5120990395670536e-05 -7.8201174922136189e-05 0 2.5599283606530506e-05 -6.7746602389074249e-05 0 7.3704338153774677e-06 -2.9539511107430199e-05 0 3.5814167219823241e-06 -3.2542199071435044e-05 0 3.4454792717020766e-06 -2.5256502421711921e-05 0 1.6173396612810928e-05 -5.8534306759244057e-05 0 1.4543113137778195e-05 -4.6535074339613405e-05 0 1.5120990395670536e-05 -7.8201174922136189e-05 0 1.3940455420019822e-05 -6.0490694206816765e-05 0 2.5599283606530506e-05 -6.7746602389074249e-05 0 4.6340784554027994e-06 -6.9778389857966231e-05 0 1.5120990395670536e-05 -7.8201174922136189e-05 0 1.3940455420019822e-05 -6.0490694206816765e-05 0 2.1867104258758513e-05 -5.1871750692928073e-05 0 1.3940455420019822e-05 -6.0490694206816765e-05 0 2.5599283606530506e-05 -6.7746602389074249e-05 0 6.8562056104677396e-06 -2.0154019243690274e-05 0 3.4454792717020766e-06 -2.5256502421711921e-05 0 8.7112104519022633e-06 -2.438554163893466e-05 0 6.8562056104677396e-06 -2.0154019243690274e-05 0 9.6100413667961676e-06 -1.8330963645879715e-05 0 8.7112104519022633e-06 -2.438554163893466e-05 0 1.1782953632504395e-05 -2.7679382166247826e-05 0 7.3704338153774677e-06 -2.9539511107430199e-05 0 8.7112104519022633e-06 -2.438554163893466e-05 0 7.3704338153774677e-06 -2.9539511107430199e-05 0 3.4454792717020766e-06 -2.5256502421711921e-05 0 8.7112104519022633e-06 -2.438554163893466e-05 0 
</DataArray>
</PointData>
<CellData Scalars="region_id,cross_section_updated,displacement_divergence," Vectors="" Tensors="effective_stress,">
<DataArray type="Float64" Name="region_id" format="ascii">
1 1 1 1 1 1 1 1 1 1 1 1 1 1 1 1 1 1 1 1 1 1 1 1 1 1 1 1 1 1 1 1 1 1 1 1 1 1 1 1 1 1 1 1 1 1 1 1 1 1 1 1 1 1 1 1 1 1 1 1 1 1 1 1 1 1 1 1 1 1 1 1 1 1 1 1 1 1 1 1 1 1 1 1 1 1 1 1 1 1 1 1 1 1 1 1 1 1 1 1 1 1 1 1 1 1 1 1 1 1 1 1 1 1 1 1 1 1 1 1 1 1 1 1 1 1 1 1 1 1 1 1 1 1 1 1 1 1 1 1 1 1 1 1 1 1 1 1 1 1 1 1 1 1 1 1 1 1 1 1 1 1 1 1 1 1 1 1 1 1 1 1 1 1 1 1 1 1 1 1 1 1 1 1 1 1 1 1 1 1 1 1 1 1 1 1 1 1 1 1 1 1 1 1 1 1 1 1 1 1 1 1 1 1 1 1 1 1 1 1 1 1 1 1 1 1 1 1 1 1 1 1 1 1 1 1 1 1 1 1 1 1 1 1 1 1 1 1 1 1 1 1 1 1 1 1 1 1 1 1 1 1 1 1 1 1 1 1 1 1 1 1 1 1 1 1 1 1 1 1 1 1 1 1 1 1 1 1 1 1 1 1 1 1 1 1 1 1 1 1 1 1 1 1 1 1 1 1 1 1 1 1 1 1 1 1 1 1 1 1 1 1 1 1 1 1 1 1 1 1 1 1 1 1 1 1 1 1 1 1 1 1 1 1 1 1 1 1 1 1 1 1 1 1 1 1 1 1 1 1 1 1 1 1 1 1 1 1 1 1 1 1 1 1 1 1 1 1 1 1 1 1 1 1 1 1 1 1 1 1 1 1 1 1 1 1 1 1 1 1 1 1 1 1 1 1 1 1 1 1 1 1 1 1 1 1 1 1 1 1 1 1 1 1 1 1 1 1 1 1 1 1 1 1 1 1 1 1 1 1 1 1 1 1 1 1 1 1 1 1 1 1 1 1 1 1 1 1 1 1 1 1 1 1 1 1 1 1 1 1 1 1 1 1 1 1 1 1 1 1 1 1 1 1 1 1 1 1 1 1 1 1 1 1 1 1 1 1 1 1 1 1 1 1 1 1 1 1 1 1 1 1 1 1 1 1 1 1 1 1 1 1 1 1 1 1 1 1 1 1 1 1 1 1 1 1 1 1 3 1 1 3 1 1 3 1 1 1 1 1 1 1 1 1 1 1 1 1 3 1 1 1 1 1 3 1 1 1 1 1 1 1 1 1 1 1 1 1 1 1 1 1 1 1 1 1 1 1 1 1 1 1 1 1 1 1 1 1 1 1 1 1 1 1 1 1 1 1 1 1 1 1 1 1 1 1 1 1 1 1 1 1 1 1 1 1 1 1 1 1 1 1 1 1 1 1 1 1 1 1 1 1 1 1 1 1 1 1 1 1 1 1 1 1 1 1 1 1 1 1 1 1 1 1 1 1 1 1 1 1 1 1 1 1 1 1 1 1 1 1 1 1 1 1 1 1 1 1 1 1 1 1 1 1 1 1 1 1 1 1 1 1 1 1 1 1 1 1 1 1 1 1 1 1 1 1 1 1 1 1 1 1 1 1 1 1 1 1 1 1 1 1 1 3 1 1 1 3 1 1 3 1 1 1 1 1 1 1 1 1 1 1 3 1 1 1 1 3 1 1 1 1 1 1 1 1 1 1 1 1 1 1 1 1 1 1 1 1 1 1 1 1 1 1 1 1 1 1 1 1 1 1 1 1 1 1 1 1 1 1 1 1 1 1 1 1 1 1 1 1 1 1 1 1 1 1 2 1 1 1 1 1 1 1 1 1 1 1 1 1 1 2 1 1 2 1 2 1 1 1 1 1 1 1 1 1 1 1 1 1 2 1 1 1 1 1 1 1 1 1 1 1 1 1 1 1 1 1 1 1 1 1 1 1 1 1 1 1 1 1 1 1 1 1 1 1 1 1 1 1 1 1 1 1 1 1 1 1 1 1 1 1 1 1 1 1 1 1 1 1 1 1 1 1 1 1 1 1 1 1 1 1 1 1 1 1 1 1 1 1 1 1 1 1 1 1 1 1 1 1 1 1 1 1 1 1 1 1 1 1 1 1 1 1 1 1 1 1 1 1 1 1 1 1 1 1 1 1 1 1 1 1 1 1 1 1 1 1 1 1 1 1 1 1 1 1 1 2 1 1 2 1 2 1 1 1 1 1 1 1 1 1 1 1 1 1 1 1 1 1 1 1 1 1 1 1 1 1 1 1 1 1 1 1 1 1 1 1 1 1 1 1 1 1 1 1 1 1 1 1 2 1 1 1 1 1 2 1 1 1 1 1 1 1 
</DataArray>
<DataArray type="Float64" Name="effective_stress" NumberOfComponents="9" format="ascii">
-0.046628236185625005 0.0021613604416392505 0 0.0021613604416392505 -0.0060640057625471668 0 0 0 -0.013173060487043043 -0.044052198326605146 0.0033933040864041687 0 0.0033933040864041687 -0.014656667063387101 0 0 0 -0.014677216347498063 -0.047186022683783864 0.0042563777526211906 0 0.0042563777526211906 0.0026458548983386392 0 0 0 -0.011135041946361304 -0.044992208306646887 0.0051673287326460572 0 0.0051673287326460572 -0.0064064310156521989 0 0 0 -0.012849659830574775 -0.036666900426945176 0.01123041925926398 0 0.01123041925926398 -0.012226775270151822 0 0 0 -0.012223418924274249 -0.036660617233389203 0.011236365419905992 0 0.011236365419905992 -0.012206353418938066 0 0 0 -0.012216742663081818 -0.042243534580929526 0.010811648631413573 0 0.010811648631413573 -0.0030052976933201917 0 0 0 -0.011312208068562427 -0.043735562521820343 0.0097723729893430013 0 0.0097723729893430013 -0.0039260009813469401 0 0 0 -0.011915390875791826 -0.040633507457787002 0.012757207205506237 0 0.012757207205506237 -0.002973533172539719 0 0 0 -0.01090176015758168 -0.032355225105279564 0.013181853797536006 0 0.013181853797536006 -0.00064527437888527509 0 0 0 -0.0082501248710412055 -0.04676011791033173 0.013518352021360596 0 0.013518352021360596 -0.0015033822703057198 0 0 0 -0.012065875045159356 -0.031937968126948234 0.014792421134444497 0 0.014792421134444497 0.00097798860894113965 0 0 0 -0.0077399948795017753 -0.057824466645234586 0.010563593092033195 0 0.010563593092033195 -0.00070566533877021789 0 0 0 -0.014632532996001207 -0.045136392513510884 0.01124267544607618 0 0.01124267544607618 0.00072277142349580492 0 0 0 -0.011103405272503768 -0.068700053570341882 0.004090496791622867 0 0.004090496791622867 -0.0022353591458357863 0 0 0 -0.017733853179044419 -0.055582583300949194 0.0052488382081285929 0 0.0052488382081285929 -0.0002914485850087124 0 0 0 -0.013968507971489477 -0.051019251560034187 0.0072234910576584668 0 0.0072234910576584668 0.0031002990753215328 0 0 0 -0.011979738121178165 -0.051598699791764922 0.010841743274344697 0 0.010841743274344697 -0.00080560349328577183 0 0 0 -0.01310107582126268 -0.0059340238855723993 0.015777641465236386 0 0.015777641465236386 -0.0019745393144785526 0 0 0 -0.0019771408000127384 -0.011985738827010147 0.019008536147846096 0 0.019008536147846096 -0.0021717309680110916 0 0 0 -0.0035393674487553071 -0.014032656872529898 0.01449228965710638 0 0.01449228965710638 -0.0012428136320963446 0 0 0 -0.0038188676261565607 -0.025332274033009434 0.016853899470848442 0 0.016853899470848442 -0.0018239362191340772 0 0 0 -0.0067890525630358778 -0.026731947558604672 0.015369051050741192 0 0.015369051050741192 -0.0051469392736225097 0 0 0 -0.0079697217080567928 -0.016840718260703002 0.017033997600297009 0 0.017033997600297009 -0.002728764124882016 0 0 0 -0.0048923705963962588 -0.01710568539331294 0.015078763876817404 0 0.015078763876817404 -0.0057079481895362964 0 0 0 -0.0057034083957123085 -0.028181066367778368 0.016862622647334381 0 0.016862622647334381 -0.00070839086734277024 0 0 0 -0.007222364308780288 -0.030239262769393038 0.013248769568654631 0 0.013248769568654631 -0.00096956583998960774 0 0 0 -0.0078022071523456702 -0.025233125432370697 0.014542312226967842 0 0.014542312226967842 -0.0025178929262531513 0 0 0 -0.0069377545896559568 -0.011405777109696771 0.014321837743716922 0 0.014321837743716922 -0.0002747927519130694 0 0 0 -0.0029201424654024524 -0.012119260259704678 0.01573267516312685 0 0.01573267516312685 -0.0017909671962983084 0 0 0 -0.0034775568640007422 -0.0054958885075108328 0.018343100985116226 0 0.018343100985116226 -0.0016470627999368853 0 0 0 -0.0017857378268619321 -0.00055473655439151198 0.013829937716206428 0 0.013829937716206428 0.00030242034251905248 0 0 0 -6.3079052968113142e-05 -0.001647286113562893 0.016519050458373034 0 0.016519050458373034 -0.0010632745902890151 0 0 0 -0.00067764017596298048 -0.0021313790898428234 0.012657121263542874 0 0.012657121263542874 0.00040562962583060025 0 0 0 -0.00043143736600306098 -0.013419220078463157 0.017280910859487613 0 0.017280910859487613 -0.00060016806504040177 0 0 0 -0.0035048470358758944 -0.030334863959501728 0.017056336951162328 0 0.017056336951162328 -0.00045513172877735542 0 0 0 -0.0076974989220697614 -0.024490775190880963 0.017057629358942679 0 0.017057629358942679 -0.00078956556040153669 0 0 0 -0.0063200851878206232 -0.016378163590068676 0.013856400332865062 0 0.013856400332865062 0.00094740061679518539 0 0 0 -0.0038576907433183691 -0.030512506919637663 0.013952957810627992 0 0.013952957810627992 0.0014580299234994709 0 0 0 -0.0072636192490345558 -0.033955003528670327 0.017053589180818784 0 0.017053589180818784 0.00012682408496901554 0 0 0 -0.0084570448609253314 -0.024765125876661794 0.013448263563748829 0 0.013448263563748829 0.00058669125739667545 0 0 0 -0.0060446086548162888 -0.017791272337885678 0.017454967675902974 0 0.017454967675902974 0.0020852089463850865 0 0 0 -0.0039265158478751436 -0.017896461670801528 0.013638510808684589 0 0.013638510808684589 0.0025018389491446701 0 0 0 -0.0038486556804142114 -0.0047744002016464815 0.012935417262095539 0 0.012935417262095539 0.0017997842841113161 0 0 0 -0.00074365397938379579 -0.016381053126635434 0.017543784420873388 0 0.017543784420873388 0.00024263214891340201 0 0 0 -0.0040346052444305072 -0.012854842148501452 0.01175168408061388 0 0.01175168408061388 0.0036216439455629135 0 0 0 -0.0023082995507346278 0.0067632996957539687 0.012010902526020183 0 0.012010902526020183 0.0016800169295617048 0 0 0 0.0021108291563289167 -0.0029169621189098008 0.015244738396870322 0 0.015244738396870322 0.0019994817571270113 0 0 0 -0.00022937009044569218 -0.067822355833919018 0.0047149513067240613 0 0.0047149513067240613 -0.0026481026258389634 0 0 0 -0.017617614614939495 -0.054055067278783078 0.012202547242015629 0 0.012202547242015629 4.7677080632781144e-05 0 0 0 -0.013501847549537585 -0.080560801189402384 0.0064383569429819782 0 0.0064383569429819782 -0.00032637669038900071 0 0 0 -0.020221794469947849 -0.055321243883815124 0.0088156286738679014 0 0.0088156286738679014 0.002150228910941035 0 0 0 -0.013292753743218526 -0.042732534507755875 0.012556762779341158 0 0.012556762779341158 0.0015036391666016363 0 0 0 -0.010307223835288553 -0.044213129719406538 0.014059174063646027 0 0.014059174063646027 -0.00053613919630896012 0 0 0 -0.011187317228928878 -0.045136234592292108 0.015726788151932805 0 0.015726788151932805 -0.00031410668508056669 0 0 0 -0.011362585319343164 -0.05190996791734568 0.010688619676940445 0 0.010688619676940445 0.0014608871644749485 0 0 0 -0.012612270188217676 -0.036961410876342318 0.012947632532074491 0 0.012947632532074491 0.00030664439154260564 0 0 0 -0.0091636916211999229 -0.054091808893503693 0.014597572681227822 0 0.014597572681227822 -0.00022546837072861745 0 0 0 -0.013579319316058075 -0.042942642519784517 0.011479867556115518 0 0.011479867556115518 -3.239457832809379e-05 0 0 0 -0.010743759274528149 -0.052883388599745909 0.011063534100731975 0 0.011063534100731975 0.0013747888977096584 0 0 0 -0.012877149925509054 -0.073192440377477574 0.0085095420060042545 0 0.0085095420060042545 -0.00040221474349632497 0 0 0 -0.018398663780243459 -0.069795841089364694 0.0087890679178480782 0 0.0087890679178480782 -0.00081521962008894184 0 0 0 -0.01765276517736343 -0.0677541104676955 0.0053631644426680352 0 0.0053631644426680352 0.00078166668058922721 0 0 0 -0.016743110946776565 -0.091485569339900666 0.0062093525750499205 0 0.0062093525750499205 -0.00056611936788177747 0 0 0 -0.023012922176945606 -0.097046624211792082 0.0052567508127011678 0 0.0052567508127011678 -0.00041174409085372593 0 0 0 -0.024364592075661443 -0.071230574507865282 0.0068867562873263554 0 0.0068867562873263554 0.0020997955402418597 0 0 0 -0.01728269474190585 -0.081365842997168772 0.0044832687884896333 0 0.0044832687884896333 0.0013677375780269535 0 0 0 -0.019999526354785427 -0.11133951851967419 0.0034790489005752101 0 0.0034790489005752101 0.0019745315309688122 0 0 0 -0.027341246747176369 -0.084650578353229478 0.010107041549961105 0 0.010107041549961105 0.0029712322740775843 0 0 0 -0.020419836519787949 -0.082603677735027331 0.0019664461544573603 0 0.0019664461544573603 -0.0001759256380247029 0 0 0 -0.02069490084326301 -0.089444567324678356 0.0037889241308315703 0 0.0037889241308315703 0.0036767389315889298 0 0 0 -0.02144195709827236 -0.12351224726075091 -0.00034134990557452283 0 -0.00034134990557452283 -0.00070701755720584125 0 0 0 -0.031054816204489188 -0.051335692264451935 0.0046998655628704145 0 0.0046998655628704145 0.0059615858988689707 0 0 0 -0.011343526591395744 -0.042858465032226699 0.014025391173312807 0 0.014025391173312807 0.004304903473890842 0 0 0 -0.0096383903895839659 -0.063855760293019842 0.0093571685530655438 0 0.0093571685530655438 0.0002163871908381354 0 0 0 -0.01590984327554542 -0.062835702258175891 0.01032962122639617 0 0.01032962122639617 0.0031837614575842069 0 0 0 -0.014912985200147919 -0.042695390462131395 0.015152541136000459 0 0.015152541136000459 0.0031082732294755609 0 0 0 -0.0098967793081639506 -0.073397140684724332 0.014062327706510646 0 0.014062327706510646 0.0037940937916546985 0 0 0 -0.017400761723267388 -0.061166996825131 0.0092373477278454106 0 0.0092373477278454106 -6.5388160229903122e-05 0 0 0 -0.015308096246340224 -0.055014433614707994 0.014765772006373652 0 0.014765772006373652 0.002050173646502017 0 0 0 -0.013241064992051495 -0.039330870415776653 0.015850272483579279 0 0.015850272483579279 0.0019036325277949698 0 0 0 -0.0093568094719954295 -0.026190711090306899 0.014829761660571972 0 0.014829761660571972 0.0020676293091599959 0 0 0 -0.0060307704452867228 -0.025752636424830385 0.012476870904664171 0 0.012476870904664171 0.0032964852169578146 0 0 0 -0.0056140378019681504 -0.023715537854178386 0.011450635342203905 0 0.011450635342203905 0.0062012482698022633 0 0 0 -0.0043785723960940263 -0.012309022066996789 0.014613347761248913 0 0.014613347761248913 0.0029823851463469213 0 0 0 -0.0023316592301624722 -0.042039232734872437 0.012268802452022845 0 0.012268802452022845 0.0033106265381585807 0 0 0 -0.0096821515491784596 -0.00051318917264714728 0.010966983419890795 0 0.010966983419890795 0.0061319319610809442 0 0 0 0.0014046856971084466 -0.0037434032702335172 0.015471512506296674 0 0.015471512506296674 0.001694166666418459 0 0 0 -0.00051230915095376237 -0.0095520180345888862 0.010020915143190227 0 0.010020915143190227 0.0075338594699822028 0 0 0 -0.00050453964115166868 0.007706610547973885 0.0056630590692579256 0 0.0056630590692579256 0.01014973931568133 0 0 0 0.0044640874659138043 0.0035797221510747235 0.01279191282216789 0 0.01279191282216789 0.0053815718678298721 0 0 0 0.0022403235047261487 -0.007348946688672732 0.0096701977049080262 0 0.0096701977049080262 0.012169528054175892 0 0 0 0.0012051453413757934 0.0093421740317513498 0.0062897062856109645 0 0.0062897062856109645 0.011755220902236629 0 0 0 0.0052743487334970009 0.0095153360926057626 0.0050477065631499771 0 0.0050477065631499771 0.019393888976936058 0 0 0 0.0072273062673854568 -0.02522799314158285 0.014886672808262995 0 0.014886672808262995 0.004416309282786357 0 0 0 -0.0052029209646991155 -0.03530877560108249 0.0082503703923064928 0 0.0082503703923064928 0.0052847459976785305 0 0 0 -0.007506007400850976 -0.0085646977737208474 0.010451107800724425 0 0.010451107800724425 0.0059044013924331451 0 0 0 -0.00066507409532192557 -0.018041257442251081 0.0059286407796274587 0 0.0059286407796274587 0.0095801516540618692 0 0 0 -0.0021152764470473064 -0.023574701459115256 0.013768825521221606 0 0.013768825521221606 0.010116543250021232 0 0 0 -0.0033645395522735322 -0.033895819962084545 0.012107487512806929 0 0.012107487512806929 0.012181043843603606 0 0 0 -0.0054286940296202207 -0.021313282276134507 0.0061365500111635191 0 0.0061365500111635191 0.024328444101138436 0 0 0 0.00075379045625097174 -0.032225785136318214 -0.00022596655229226853 0 -0.00022596655229226853 0.012605036030555128 0 0 0 -0.0049051872764407922 0.029806730769391235 -0.0006768464949510021 0 -0.0006768464949510021 0.022632739818639308 0 0 0 0.013109867647007639 -0.011536634690421606 0.0098478854506623588 0 0.0098478854506623588 0.017698552528162936 0 0 0 0.0015404794594353274 0.0032533179425722931 0.0025090186840332207 0 0.0025090186840332207 0.018516298155793323 0 0 0 0.0054424040245913997 0.0073875392551196323 0.0044562857976341852 0 0.0044562857976341852 0.03088727432589386 0 0 0 0.0095687033952533834 0.023041593612627698 -0.0060057792290924422 0 -0.0060057792290924422 0.033070781401198956 0 0 0 0.01402809375345665 0.002403224996858494 -0.00066593242345308612 0 -0.00066593242345308612 0.045923164489988066 0 0 0 0.012081597371711633 -0.00045086862987342435 -0.012887300450016542 0 -0.012887300450016542 0.043080025399224509 0 0 0 0.010657289192337771 0.0096163768269336494 -0.018701398017855586 0 -0.018701398017855586 0.037029154762763639 0 0 0 0.011661382897424334 0.024675509969929899 -0.01036437325136802 0 -0.01036437325136802 0.069358294949205201 0 0 0 0.023508451229783789 -0.028869406743757903 -0.0059342161651824987 0 -0.0059342161651824987 0.028177191890408515 0 0 0 -0.00017305371333733999 -0.0066386564547865345 -0.004235063549188206 0 -0.004235063549188206 0.021835955210944336 0 0 0 0.0037993246890394572 -0.0084308995096648992 -0.017250430075661682 0 -0.017250430075661682 0.026317142983982217 0 0 0 0.0044715608685793468 -0.033741929864421843 -0.0020467852524256556 0 -0.0020467852524256556 0.014270314658671568 0 0 0 -0.004867903801437562 -0.03892946368714921 -0.013485051166163275 0 -0.013485051166163275 0.016304419296638561 0 0 0 -0.0056562610976277211 -0.057661768339596187 -0.0060095232272002475 0 -0.0060095232272002475 0.011417386325443146 0 0 0 -0.011561095503538274 -0.066822916928116455 0.0030535694824412041 0 0.0030535694824412041 0.006082583971136396 0 0 0 -0.015185083239245053 -0.078421873336317643 -0.011117465642123459 0 -0.011117465642123459 0.0090069492167658693 0 0 0 -0.017353731029887957 -0.089228528785568112 0.00059690033364229178 0 0.00059690033364229178 0.0025508638272951356 0 0 0 -0.021669416239568223 -0.12709779394496701 -0.0012961327496976704 0 -0.0012961327496976704 0.00374879996472538 0 0 0 -0.030837248495060365 -0.094762286576948102 0.0023578457754477311 0 0.0023578457754477311 0.0030678802022317542 0 0 0 -0.022923601593679094 -0.092094652392176818 -0.0029924594237216821 0 -0.0029924594237216821 0.0035219225060644233 0 0 0 -0.022143182471528106 -0.098038433050441992 -0.0013592612758332179 0 -0.0013592612758332179 -0.00017264737018368725 0 0 0 -0.024552770105156392 -0.082260345971065879 0.0083894371169611487 0 0.0083894371169611487 0.0031554495592518994 0 0 0 -0.01977622410295353 -0.12867019072993352 0.0035947784065344934 0 0.0035947784065344934 0.0010379642909115472 0 0 0 -0.031908056609755542 -0.095070991169145358 0.0085119425882707878 0 0.0085119425882707878 0.0026917050077330806 0 0 0 -0.023094821540353062 -0.063711171663300342 0.011614473981335457 0 0.011614473981335457 0.0063404961724002618 0 0 0 -0.014342668872724992 -0.048764308739378037 0.0079078511093601811 0 0.0079078511093601811 0.01069277252891887 0 0 0 -0.0095178840526147918 -0.068185098090175575 0.00016116181921443928 0 0.00016116181921443928 0.0061498118862249977 0 0 0 -0.015508821550987643 0.024250031350859919 -0.004083284746172507 0 -0.004083284746172507 0.062353974137027396 0 0 0 0.021651001371971835 0.022929595264480348 -0.0062020058996164586 0 -0.0062020058996164586 0.051456574837050503 0 0 0 0.018596542525382707 0.02260255585341419 -0.0083058109231507315 0 -0.0083058109231507315 0.045534836728766265 0 0 0 0.017034348145545105 0.019260890017949898 -0.0010298164086755685 0 -0.0010298164086755685 0.053320436677551798 0 0 0 0.018145331673875418 0.025912088065428475 0.0062361266724288208 0 0.0062361266724288208 0.058050508936985983 0 0 0 0.020990649250603597 0.028591750975691853 0.0045387210347194711 0 0.0045387210347194711 0.069038862998514403 0 0 0 0.024407653493551569 0.019774717175461524 -0.0041502131392689504 0 -0.0041502131392689504 0.06715111645193024 0 0 0 0.021731458406847946 0.018163589028728236 -0.0031301364580900992 0 -0.0031301364580900992 0.064613033304758649 0 0 0 0.020694155583371718 0.024380060880253632 -0.0044625903398573079 0 -0.0044625903398573079 0.06363909150519928 0 0 0 0.022004788096363224 0.022196206492593219 -0.0031708529532961729 0 -0.0031708529532961729 0.060290258689802451 0 0 0 0.020621616295598923 0.010513150563222724 -0.0029290564792754659 0 -0.0029290564792754659 0.059640624455872593 0 0 0 0.017538443754773834 0.018315253718931335 -0.0060768381556262231 0 -0.0060768381556262231 0.064955541654151877 0 0 0 0.020817698843270803 0.014795997711893896 -0.0076398429485633398 0 -0.0076398429485633398 0.062089376724708795 0 0 0 0.019221343609150676 0.016694616295090794 -0.012318393431552797 0 -0.012318393431552797 0.066494970549339227 0 0 0 0.020797396711107516 0.015598226438276325 -0.0061784691330675073 0 -0.0061784691330675073 0.076562101811142202 0 0 0 0.023040082062354646 0.058087988012546492 -0.051166481368945582 0 -0.051166481368945582 0.12003860650621426 0 0 0 0.044531648629690182 0.0065451302838913095 -0.027079465907544134 0 -0.027079465907544134 0.07452452752074834 0 0 0 0.020267414451159926 0.052896951962024943 -0.032969470030964065 0 -0.032969470030964065 0.066104068835416377 0 0 0 0.029750255199360323 0.0082021861005893634 -0.012010190728638098 0 -0.012010190728638098 0.066820365009714403 0 0 0 0.018755637777575919 0.060930233804096567 -0.0099018846647347669 0 -0.0099018846647347669 0.10363168300606201 0 0 0 0.041140479202539604 0.048060233791367549 -0.021060957364257421 0 -0.021060957364257421 0.056037416572258636 0 0 0 0.026024412590906529 0.088375794138841557 -0.027719208861230915 0 -0.027719208861230915 0.072204826457211227 0 0 0 0.040145155149013179 0.03926288119506114 -0.019068888838287348 0 -0.019068888838287348 0.054898027300311222 0 0 0 0.023540227123843106 0.028339127695354498 -0.0031823128376025078 0 -0.0031823128376025078 0.053237782509840653 0 0 0 0.02039422755129881 0.055094015071463796 -0.012787089417424666 0 -0.012787089417424666 0.041890368073879691 0 0 0 0.024246095786335888 0.026656640881997203 -0.0046047550213670213 0 -0.0046047550213670213 0.034396749087144414 0 0 0 0.015263347492285386 0.035647604072476663 -0.005575828792370726 0 -0.005575828792370726 0.024999676109571739 0 0 0 0.015161820045512097 0.026030581603966072 -0.018308605120655463 0 -0.018308605120655463 0.058154901139277709 0 0 0 0.021046370685810948 0.022473512101392541 -0.018545885370751171 0 -0.018545885370751171 0.043641358909696851 0 0 0 0.016528717752772336 0.037497392305775222 -0.016188107733277859 0 -0.016188107733277859 0.04864612332542137 0 0 0 0.021535878907799157 0.024306777553410458 -0.0079926003908207359 0 -0.0079926003908207359 0.026245162733559972 0 0 0 0.012637985071742616 0.029387676574739438 -0.0082874518586427519 0 -0.0082874518586427519 0.046138407569365866 0 0 0 0.018881521036026326 0.02829131485490111 -0.0061519290215908042 0 -0.0061519290215908042 0.029598855538934529 0 0 0 0.014472542598458902 0.027865286071771134 0.0029586539434572172 0 0.0029586539434572172 0.026106406152382786 0 0 0 0.013492923056038469 0.023625014386519642 0.00035501808520431964 0 0.00035501808520431964 0.015033964931470037 0 0 0 0.0096647448294974268 0.022628803905161053 -0.0019194889149157304 0 -0.0019194889149157304 0.024395545335977525 0 0 0 0.011756087310284644 0.027699805714358081 -0.0025395017545661912 0 -0.0025395017545661912 0.018907425329665738 0 0 0 0.01165180776100596 0.023377584018411127 0.0039363311306408154 0 0.0039363311306408154 0.02065194984599384 0 0 0 0.011007383466101242 0.013683709490218823 0.00851716952760153 0 0.00851716952760153 0.013294106111750314 0 0 0 0.0067444539004922824 0.020548038658453407 0.002233381747080561 0 0.002233381747080561 0.012128017114718124 0 0 0 0.0081690139432928841 0.018364154561156445 0.0097448431205675937 0 0.0097448431205675937 0.010363489172040125 0 0 0 0.0071819109332991399 0.014145536562764767 0.0073723031533229483 0 0.0073723031533229483 0.0062791861396123069 0 0 0 0.0051061806755942699 0.0086253052334477678 0.013024373933167251 0 0.013024373933167251 0.0051066936911285474 0 0 0 0.003432999731144081 0.02719417412397656 0.00236062299587408 0 0.00236062299587408 0.017924653605291233 0 0 0 0.011279706932316943 0.025564871047228592 0.00091176984961725827 0 0.00091176984961725827 0.01608140481268024 0 0 0 0.010411568964977198 0.024308227938051645 0.0065838795483966275 0 0.0065838795483966275 0.014410145834489203 0 0 0 0.0096795934431352162 0.02189562144578874 0.0053130939005728278 0 0.0053130939005728278 0.011706451695369408 0 0 0 0.0084005182852895412 0.027217118320262374 0.0037920981668652107 0 0.0037920981668652107 0.020046455009618401 0 0 0 0.011815893332470191 0.030043194083126657 0.0094331913621398672 0 0.0094331913621398672 0.012810122265027753 0 0 0 0.010713329087038616 0.036453291204934304 0.009990637037126323 0 0.009990637037126323 0.020038457609020885 0 0 0 0.014122937203488801 0.036889471989985829 0.0091944658306617102 0 0.0091944658306617102 0.017352211860639587 0 0 0 0.013560420962656361 0.030923267767208967 0.0038440256289077965 0 0.0038440256289077965 0.022807987568726359 0 0 0 0.013432813833983813 0.03117195468149149 0.0038210194302088292 0 0.0038210194302088292 0.029848529952486724 0 0 0 0.015255121158494547 0.026720151810731004 0.001307358180014621 0 0.001307358180014621 0.026373268447220082 0 0 0 0.013273355064487773 0.031905331553287862 0.0023590346666084428 0 0.0023590346666084428 0.041677593019911058 0 0 0 0.018395731143299732 0.034864999392785853 0.0071787027573977386 0 0.0071787027573977386 0.031827238769288418 0 0 0 0.016673059540518578 0.024048988639229617 9.8506356486153038e-05 0 9.8506356486153038e-05 0.037988926493685612 0 0 0 0.0155094787832288 0.028165007248764033 -0.0020424446861816254 0 -0.0020424446861816254 0.051216582575328962 0 0 0 0.019845397456023251 0.023825744210157321 -0.0051670746396471935 0 -0.0051670746396471935 0.035098993486691391 0 0 0 0.01473118442421217 0.037346812485500175 0.011449093785054534 0 0.011449093785054534 0.064074657735604265 0 0 0 0.02535536755527611 0.02769987955248613 0.0062062996386583209 0 0.0062062996386583209 0.043654657083931285 0 0 0 0.017838634159104361 0.031662308300938351 0.0041232577751609874 0 0.0041232577751609874 0.056273812691320764 0 0 0 0.021984030248064786 0.034872282422152664 0.0077114961468844126 0 0.0077114961468844126 0.032918678705179956 0 0 0 0.016947740281833157 0.038855505554612361 0.012341769784230907 0 0.012341769784230907 0.041692794796047983 0 0 0 0.020137075087665081 0.040013786217577764 0.0118348692586536 0 0.0118348692586536 0.044633348893226975 0 0 0 0.021161783777701174 0.042109537050100926 0.012331173393673215 0 0.012331173393673215 0.023085956304075644 0 0 0 0.016298873338544136 0.042729763235194881 0.012869512350110007 0 0.012869512350110007 0.027085885424698093 0 0 0 0.017453912164973249 0.050157671719882786 0.015203149854956924 0 0.015203149854956924 0.019722418166409315 0 0 0 0.017470022471573029 0.048261434030708983 0.013535287034918804 0 0.013535287034918804 0.011654858554572739 0 0 0 0.014979073146320424 0.042576577580215214 0.010484879355848954 0 0.010484879355848954 0.0053330330303146753 0 0 0 0.011977402652632474 0.042032503201627117 0.012739260371585997 0 0.012739260371585997 0.01429130037710194 0 0 0 0.014080950894682271 0.043092252347380088 0.011291936904384913 0 0.011291936904384913 0.012855680092825908 0 0 0 0.013986983110051495 0.031603199891256595 0.0072162754771848726 0 0.0072162754771848726 0.013014777105145335 0 0 0 0.011154494249100477 0.032627870568927742 0.010651969389895776 0 0.010651969389895776 0.0072094448155607879 0 0 0 0.0099593288461221237 0.037459056345048702 0.011184230882057035 0 0.011184230882057035 0.0083951343113225774 0 0 0 0.011463547664092827 0.038607334997546254 0.011408433790026696 0 0.011408433790026696 0.012045751505221754 0 0 0 0.012663271625691993 0.039555636959539661 0.009993682158354774 0 0.009993682158354774 0.0036274606890774053 0 0 0 0.010795774412154265 0.03932673381851641 0.011811680893276069 0 0.011811680893276069 0.0030711043365320573 0 0 0 0.010599459538762112 0.031805204539561108 0.010936076917344262 0 0.010936076917344262 0.0028908048865800423 0 0 0 0.0086740023565352892 0.045059320325780756 0.010933663787575942 0 0.010933663787575942 0.0019969766345243299 0 0 0 0.011764074240076279 0.044437478632575966 0.0088166544464370038 0 0.0088166544464370038 0.0008880112426504147 0 0 0 0.011331372468806599 0.050706495471453138 0.010312882648153963 0 0.010312882648153963 0.0025885635905248047 0 0 0 0.013323764765494486 0.046911964929965536 0.009487486772081475 0 0.009487486772081475 0.0018207642790331394 0 0 0 0.012183182302249681 0.044418563512040224 0.011696093928452302 0 0.011696093928452302 0.0056842376725779655 0 0 0 0.012525700296154532 0.0084461505352940759 0.012296425234568691 0 0.012296425234568691 0.0069760279252051027 0 0 0 0.0038555446151247938 0.017455409378744558 0.010665805839836569 0 0.010665805839836569 0.0030942108249544728 0 0 0 0.0051374050509247621 0.0090413827168703415 0.013223685766695345 0 0.013223685766695345 0.0030799810436622985 0 0 0 0.0030303409401331548 0.023434976612653723 0.0099233857461543291 0 0.0099233857461543291 0.0017414945764215872 0 0 0 0.0062941177972688327 0.01935544738959635 0.011411817739779086 0 0.011411817739779086 0.0082047908924814117 0 0 0 0.0068900595705194481 0.024238991841287735 0.010507130959259335 0 0.010507130959259335 0.0070338363576831417 0 0 0 0.0078182070497427193 0.026520095819707785 0.0073876958856903471 0 0.0073876958856903471 0.0070793787328669866 0 0 0 0.0083998686381436989 0.027552839510994034 0.012285471455777769 0 0.012285471455777769 0.0095884099909543039 0 0 0 0.0092853123754870776 0.030662472423463878 0.0095929504186415618 0 0.0095929504186415618 0.0029235730187924247 0 0 0 0.008396511360564074 0.025615161219705813 0.010157516115547164 0 0.010157516115547164 0.0035846657987840119 0 0 0 0.0072999567546224529 0.031458989735379812 0.012465252744418044 0 0.012465252744418044 0.0017601797677742129 0 0 0 0.0083047923757885028 0.021937592189975999 0.013333668755364878 0 0.013333668755364878 0.0045144485294459878 0 0 0 0.0066130101798554854 0.019983070673742036 0.012022788625513252 0 0.012022788625513252 0.0014906362513883442 0 0 0 0.005368426731282596 0.010386571774307371 0.01277092552234645 0 0.01277092552234645 0.0015396112660055472 0 0 0 0.0029815457600782299 0.008822536459528043 0.015165695136791162 0 0.015165695136791162 0.00055965665560338274 0 0 0 0.0023455482787828573 0.008423017642477805 0.013044197056078396 0 0.013044197056078396 0.0012364431071759802 0 0 0 0.002414865187413448 9.6884076360333193e-05 0.015719568712888429 0 0.015719568712888429 0.00065638444692568687 0 0 0 0.00018831713082150675 0.0060293635043867783 0.017068329905572346 0 0.017068329905572346 -9.7779015001121317e-05 0 0 0 0.0014828961223464152 -0.00089289285406022462 0.014912308818512392 0 0.014912308818512392 0.0015614490203443576 0 0 0 0.00016713904157104886 0.006494670132287857 0.013004566969895874 0 0.013004566969895874 -0.00020799394550000821 0 0 0 0.0015716690466969531 0.015600801385656051 0.015238781931865477 0 0.015238781931865477 0.0010057739861419543 0 0 0 0.0041516438429495036 0.014097160670275735 0.013303553331526333 0 0.013303553331526333 0.0011361803600731801 0 0 0 0.0038083352575872288 0.017198692264243545 0.015787025754973032 0 0.015787025754973032 0.0010651894878369846 0 0 0 0.0045659704380201314 0.022188925950434008 0.01150905277013897 0 0.01150905277013897 0.0010476667645690288 0 0 0 0.0058091481787507608 0.023689296661698049 0.012889188475310488 0 0.012889188475310488 0.0023425341267612199 0 0 0 0.006507957697114819 0.030783870962422438 0.013205250911988467 0 0.013205250911988467 0.00094991911494607742 0 0 0 0.0079334475193421281 0.023969663774687788 0.011985046590785808 0 0.011985046590785808 0.0044978373255766639 0 0 0 0.0071168752750661157 0.020732560670630833 0.016310722989116146 0 0.016310722989116146 0.0026084480317441726 0 0 0 0.0058352521755937513 0.017951665655468213 0.014206757175513743 0 0.014206757175513743 0.0059839945149008939 0 0 0 0.0059839150425922772 0.010672368811380178 0.018420309503620419 0 0.018420309503620419 0.00088818774858278465 0 0 0 0.0028901391399907429 0.0062358187538951856 0.015282487932948641 0 0.015282487932948641 0.0020763852957198779 0 0 0 0.0020780510124037655 -0.00026108980988511464 0.01947778879010903 0 0.01947778879010903 -0.0013719528803537093 0 0 0 -0.00040826067255970641 0.043525740427053886 0.0082872622299570708 0 0.0082872622299570708 0.0031393180712990035 0 0 0 0.011666264624588231 0.045239688376250364 0.0092277593614342162 0 0.0092277593614342162 0.00092949300441521471 0 0 0 0.011542295345166395 0.038423188270401899 0.010372362580766089 0 0.010372362580766089 0.001568719108238064 0 0 0 0.0099979768446599952 0.038585630334011842 0.011052574948293207 0 0.011052574948293207 0.0012362502120625007 0 0 0 0.0099554701365185926 0.031793272652336745 0.011162718249805432 0 0.011162718249805432 0.0032214215315374412 0 0 0 0.008753673545968543 0.036341430387373037 0.010724167730609351 0 0.010724167730609351 0.0039866087235935974 0 0 0 0.010082009777741652 0.028467296932058433 0.01226820906315236 0 0.01226820906315236 0.0094837093959225828 0 0 0 0.0094877515819952549 0.028736128120141535 0.013870285572242366 0 0.013870285572242366 0.0056155022786728544 0 0 0 0.0085879075997035981 0.034815664573033242 0.010719062275823 0 0.010719062275823 0.011603547274747644 0 0 0 0.011604802961945219 0.035251587676844609 0.010617746056257139 0 0.010617746056257139 0.0059315156998487988 0 0 0 0.010295775844173353 0.042987223070823651 0.0074236417341970642 0 0.0074236417341970642 0.0069653592840118912 0 0 0 0.012488145588708885 0.039452503885502484 0.0093824074546217176 0 0.0093824074546217176 0.0024107533828408062 0 0 0 0.010465814317085822 0.037965089505539992 0.0088304018018819583 0 0.0088304018018819583 0.0065737896202320324 0 0 0 0.011134719781443009 0.038918084665130505 0.0084755438247864738 0 0.0084755438247864738 0.012971207883871645 0 0 0 0.012972323137250536 0.041406009854262606 0.0053530950276296351 0 0.0053530950276296351 0.0048507952725236232 0 0 0 0.011564201281696555 0.044910923764846157 0.0026492735142495958 0 0.0026492735142495958 0.014960465996291666 0 0 0 0.014967847440284458 0.040835270654874703 0.0011768170096309145 0 0.0011768170096309145 0.0031735308328721974 0 0 0 0.011002200371936723 0.048304207983943907 0.00097092623743945329 0 0.00097092623743945329 0.0050416963869837871 0 0 0 0.013336476092731923 0.047693375096964211 0.0038895660481313033 0 0.0038895660481313033 0.0030654793579233466 0 0 0 0.012689713613721891 0.048721362274156473 0.0056277448767462629 0 0.0056277448767462629 0.0014384964889294187 0 0 0 0.012539964690771479 0.046336286773392875 0.0029637407442117628 0 0.0029637407442117628 -0.00070684122355380702 0 0 0 0.011407361387459765 0.052752409956546509 0.0032102978177233677 0 0.0032102978177233677 0.0012977396130997099 0 0 0 0.013512537392411561 0.048780608085151077 0.0051906299177884698 0 0.0051906299177884698 -0.0026036985886733217 0 0 0 0.011544227374119436 0.05024566087690252 0.00092505792657490769 0 0.00092505792657490769 -0.0053101197429398662 0 0 0 0.011233885283490661 0.046395678192333784 -0.0051641856830765371 0 -0.0051641856830765371 -0.0060553974132144806 0 0 0 0.010085070194779829 0.049246180581664814 -0.0015206964767602756 0 -0.0015206964767602756 -0.00033819281948059728 0 0 0 0.012226996940546056 0.046455697699241828 -0.00096014831985781891 0 -0.00096014831985781891 0.00095939201186823891 0 0 0 0.011853772427777512 0.044411770690219912 -0.0013614851028771848 0 -0.0013614851028771848 0.014806671832463333 0 0 0 0.01480461063067081 0.043725439974043892 -0.0051177031223673605 0 -0.0051177031223673605 0.014562894798686716 0 0 0 0.014572083693182653 0.040241614629895853 -0.0043811445452457192 0 -0.0043811445452457192 0.0036541332074385628 0 0 0 0.010973936959333604 0.036354750267835981 -0.010684007553383175 0 -0.010684007553383175 0.012115063327523963 0 0 0 0.012117453398839984 0.044192070254464706 -0.0064283339470157953 0 -0.0064283339470157953 0.0029422364282870265 0 0 0 0.011783576670687934 0.034531121644229293 -0.010600828483618364 0 -0.010600828483618364 -0.00090420867324933138 0 0 0 0.0084067282427449912 0.022096563740147873 -0.015813078985563951 0 -0.015813078985563951 0.0073582655318628152 0 0 0 0.0073637073180026725 0.023875792240068631 -0.017789462405793509 0 -0.017789462405793509 -0.0043503960638524367 0 0 0 0.0048813490440540504 0.010556425126565037 -0.022879212913404737 0 -0.022879212913404737 -0.0056585444378542959 0 0 0 0.0012244701721776836 0.023640506599312203 -0.018142649627972074 0 -0.018142649627972074 -0.010135647955776289 0 0 0 0.0033762146608839819 0.028819089912861643 -0.01412392781209695 0 -0.01412392781209695 -0.0066432194446113813 0 0 0 0.005543967617062568 0.035509329058127349 -0.011447199069513747 0 -0.011447199069513747 -0.0014818224331888639 0 0 0 0.0085068766562346205 0.018915039312754851 -0.017192692624934801 0 -0.017192692624934801 -0.0064545818696968849 0 0 0 0.0031151143607644968 0.034755778222359153 -0.011674076425934914 0 -0.011674076425934914 -0.0069610178199933578 0 0 0 0.0069486901005914471 0.045953967228256454 -0.0068408174389075274 0 -0.0068408174389075274 -0.0089279710753864972 0 0 0 0.0092564990382174965 0.048240799425143893 -0.0035217163825155273 0 -0.0035217163825155273 -0.0037950359812002933 0 0 0 0.011111440860985896 0.050434792794362769 -0.0051314269647716754 0 -0.0051314269647716754 -0.0061073701711165454 0 0 0 0.011081855655811563 0.049121327940970731 -0.0044099440922208107 0 -0.0044099440922208107 -0.0097379602684419878 0 0 0 0.0098458419181321824 0.060590485393369309 0.00010741311111081976 0 0.00010741311111081976 -0.007681054503722487 0 0 0 0.013227357722411709 0.040230643990026974 -0.012573338233398481 0 -0.012573338233398481 -0.01250844430637249 0 0 0 0.0069305499209136139 0.031152077272546874 -0.01762504587034731 0 -0.01762504587034731 -0.010881620480253845 0 0 0 0.0050676141980732572 0.040298201784030922 -0.012013473407499644 0 -0.012013473407499644 -0.0095456218204349533 0 0 0 0.0076881449908989905 0.043625719967162004 -0.0084671615386585249 0 -0.0084671615386585249 -0.0087283671480004703 0 0 0 0.0087243382047903842 0.024105525257429219 -0.017949846803500237 0 -0.017949846803500237 -0.013099213685828795 0 0 0 0.0027515778929001165 0.040806629870314123 -0.018235360752447208 0 -0.018235360752447208 -0.013631641229067862 0 0 0 0.006793747160311555 0.049544818647934225 -0.014097111119921719 0 -0.014097111119921719 -0.0091047332291633865 0 0 0 0.01011002135469271 0.045807653277934901 -0.011603365537914998 0 -0.011603365537914998 -0.012710408139339602 0 0 0 0.0082743112846488161 0.066602219907203677 -0.004729300009978215 0 -0.004729300009978215 -0.0062171376360937924 0 0 0 0.015096270567777469 0.049408810747427249 -0.017823487696069125 0 -0.017823487696069125 -0.0066203491815997467 0 0 0 0.010697115391456879 0.04755178342857036 -0.016751237544871761 0 -0.016751237544871761 -0.0097469801155469788 0 0 0 0.0094512008282558388 0.056467205549171728 -4.078308397736386e-05 0 -4.078308397736386e-05 -0.0065675725572702662 0 0 0 0.012474908247975361 0.058377263097692311 -0.0080959809544236174 0 -0.0080959809544236174 -0.009455761880426114 0 0 0 0.012230375304316548 0.065708098251690716 0.0018256840654207439 0 0.0018256840654207439 -0.00815338971224484 0 0 0 0.01438867713486146 0.076086202072745537 0.0073526968900166426 0 0.0073526968900166426 0.0011334785719231966 0 0 0 0.019304920161167166 0.064578969261029226 0.0093928586209420708 0 0.0093928586209420708 0.0022647264681995918 0 0 0 0.016710923932307206 0.067781757572583423 0.0088640388957321736 0 0.0088640388957321736 0.0034212574561451256 0 0 0 0.017800753757182111 0.061209730454661042 0.0063346404804082504 0 0.0063346404804082504 -0.0038317442593323973 0 0 0 0.014344496548832162 0.061264869765854997 0.011537836448763656 0 0.011537836448763656 0.00370901959242626 0 0 0 0.016243472339570301 0.063874614152342885 0.014938193407321986 0 0.014938193407321986 0.011656408597348053 0 0 0 0.018882755687422731 0.057874200851613392 0.010999524692398293 0 0.010999524692398293 0.0040787189289034562 0 0 0 0.015488229945129214 0.056902586250194016 0.015264103510095887 0 0.015264103510095887 0.01354683128033813 0 0 0 0.017612354382633033 0.050712559895166334 0.011359468640002739 0 0.011359468640002739 0.0054909579921925073 0 0 0 0.014050879471839721 0.049417907700586051 0.011292893278303049 0 0.011292893278303049 0.0050815825788977295 0 0 0 0.013624872569870959 0.054205511653708627 0.0078252413221078631 0 0.0078252413221078631 -0.0015734402724800756 0 0 0 0.013158017845307134 0.056529587834612822 0.0094776640976344338 0 0.0094776640976344338 0.0016744342060780182 0 0 0 0.014551005510172705 0.049119836785423851 0.0071679141477802855 0 0.0071679141477802855 -0.0022607717936834124 0 0 0 0.011714766247935122 0.055470870206670547 0.0058880868435118019 0 0.0058880868435118019 -0.00024639779734172713 0 0 0 0.013806118102332206 0.051643057618843212 0.0035479135968534102 0 0.0035479135968534102 -0.0049308485362077777 0 0 0 0.011678052270658852 0.055001190332959631 0.0021923575836966646 0 0.0021923575836966646 -0.0030507639603266569 0 0 0 0.012987606593158235 0.053766070659766942 -0.0023685020118257099 0 -0.0023685020118257099 -0.0060482316038242955 0 0 0 0.011929459763985656 0.056152952943534826 0.0049187403430249466 0 0.0049187403430249466 -0.0036448694153299425 0 0 0 0.013127020882051223 0.060017634432150878 0.0058707987089508173 0 0.0058707987089508173 -0.0031562281864602505 0 0 0 0.014215351561422652 -0.098963067064790383 -0.0072618573989678657 0 -0.0072618573989678657 -0.0041250028691269449 0 0 0 -0.025772017483479341 -0.06893832128771879 -0.0190742671235722 0 -0.0190742671235722 -0.0019628922029645002 0 0 0 -0.01772530337267083 -0.076085716711439086 -0.0089418471987989384 0 -0.0089418471987989384 -0.00065124218314396159 0 0 0 -0.01918423972364576 -0.067830250994140889 -0.012470745969854197 0 -0.012470745969854197 0.0053194182165349629 0 0 0 -0.015627708194401475 -0.060290148888680131 -0.0084059186546438444 0 -0.0084059186546438444 0.0046480656626577341 0 0 0 -0.013910520806505601 -0.058833866679465087 -0.0057259670072132675 0 -0.0057259670072132675 -0.0072007994192429571 0 0 0 -0.016508666524677015 -0.056051123805924169 -0.0075453962884612273 0 -0.0075453962884612273 -0.018647281023673641 0 0 0 -0.018674601207399454 -0.057964659023071782 -0.0098077948880436697 0 -0.0098077948880436697 -0.0073768965714024332 0 0 0 -0.016335388898618554 -0.056567632677623714 -0.016925985022835828 0 -0.016925985022835828 -0.0051844873538580971 0 0 0 -0.015438030007870453 -0.051791001052310104 -0.017875735025815475 0 -0.017875735025815475 -0.0032880322776261475 0 0 0 -0.013769758332484065 -0.044499991222262357 -0.017937006119054296 0 -0.017937006119054296 -0.014840345639051421 0 0 0 -0.014835084215328443 -0.044490704346606784 -0.017943740630580882 0 -0.017943740630580882 -0.014810686587343682 0 0 0 -0.014825347733487617 -0.049764434306599728 -0.021231142060392193 0 -0.021231142060392193 -0.0062206283555836933 0 0 0 -0.013996265665545859 -0.034326190677733334 -0.021879618221799266 0 -0.021879618221799266 -0.0020082664284716209 0 0 0 -0.0090836142765512405 -0.056307791175019085 -0.019707356184249878 0 -0.019707356184249878 0.000842185865347643 0 0 0 -0.013866401327417857 -0.08122630168346151 -0.019820019508968341 0 -0.019820019508968341 -0.003421442813503095 0 0 0 -0.021161936124241134 -0.032745486369255006 -0.026150739102323114 0 -0.026150739102323114 -0.0016976560596486806 0 0 0 -0.0086107856072259285 -0.060065465284606018 -0.024032243034185049 0 -0.024032243034185049 -0.0058829223866256053 0 0 0 -0.016487096917807906 -0.02912426479332875 -0.022530439913990046 0 -0.022530439913990046 -0.0052721318743878896 0 0 0 -0.0085990991669291535 -0.023128740662225082 -0.022836135323996629 0 -0.022836135323996629 -0.0081307338374366905 0 0 0 -0.0078148686249154345 -0.028784149602798959 -0.027314995974189526 0 -0.027314995974189526 -0.0058019118747448016 0 0 0 -0.008646515369385932 -0.026145935815655882 -0.024955364292786938 0 -0.024955364292786938 -0.0033397021216364647 0 0 0 -0.0073714094843230805 -0.027697515958233315 -0.023637389756158114 0 -0.023637389756158114 -0.0072322664959253245 0 0 0 -0.0087324456135396585 -0.011806046758008764 -0.020657795801107454 0 -0.020657795801107454 -0.0039460994578946213 0 0 0 -0.0039380365539758459 -0.010704913957268514 -0.024505195642611857 0 -0.024505195642611857 -0.0066509745246067092 0 0 0 -0.0043389721204688085 -0.0051820435868808355 -0.019667787674931738 0 -0.019667787674931738 -0.0030075787770543292 0 0 0 -0.002047405590983791 -0.0061382688202468692 -0.025864104980797612 0 -0.025864104980797612 -0.0054796539216235007 0 0 0 -0.0029044806854675934 0.0057102340279275819 -0.019347322240530613 0 -0.019347322240530613 0.001905329276892892 0 0 0 0.0019038908262051183 0.016149174305074596 -0.016248416190726988 0 -0.016248416190726988 -0.0017860513623079617 0 0 0 0.0035907807356916539 0.0065745481470079817 -0.024595129431344773 0 -0.024595129431344773 -0.0083065664113609605 0 0 0 -0.00043300456608824645 0.00051781665443433045 -0.024482792114845761 0 -0.024482792114845761 -0.0082361951066855232 0 0 0 -0.0019295946130628017 0.0014328753097371145 -0.020077017124905276 0 -0.020077017124905276 -0.0076712148241041694 0 0 0 -0.0015595848785917611 0.016140102887397485 -0.023966884880775745 0 -0.023966884880775745 -0.013964219268695358 0 0 0 0.00054397090467552672 0.025675423286015436 -0.019600636914927125 0 -0.019600636914927125 -0.0094617085556161599 0 0 0 0.0040534286825998226 0.002247464462745874 -0.028366622464388681 0 -0.028366622464388681 -0.014313891647508667 0 0 0 -0.0030166067961907017 0.024378967199517904 -0.02438226171776281 0 -0.02438226171776281 -0.014740083601705346 0 0 0 0.0024097208994531445 0.0035440774567027356 -0.025767964692770984 0 -0.025767964692770984 -0.0055623488199614303 0 0 0 -0.00050456784081467443 -0.0054574385707007638 -0.032477788094098549 0 -0.032477788094098549 -0.011374141618411573 0 0 0 -0.0042078950472780848 0.022512979701664489 -0.022017702493182037 0 -0.022017702493182037 -0.006274302390391201 0 0 0 0.0040596693278183334 -0.0039656258665734835 -0.029247766770015157 0 -0.029247766770015157 -0.005942705288853399 0 0 0 -0.0024770827888567215 0.00045774831580782174 -0.035192143906694215 0 -0.035192143906694215 -0.0044315974732414623 0 0 0 -0.00099346228935840927 -0.035875422069844523 -0.030521038584921556 0 -0.030521038584921556 -0.012224359999881494 0 0 0 -0.012024945517431508 -0.031893979575332722 -0.031812213461314222 0 -0.031812213461314222 -0.0081985949811352668 0 0 0 -0.010023143639116988 -0.03420982835225847 -0.025911570369589437 0 -0.025911570369589437 -0.0031602302879950028 0 0 0 -0.0093425146600633543 -0.0027805055110575252 -0.025120911451132287 0 -0.025120911451132287 -0.004963303101444827 0 0 0 -0.0019359521531255933 -0.020892755997216277 -0.028057898310942672 0 -0.028057898310942672 -0.0099380202774845411 0 0 0 -0.0077076940686751985 -0.054752744428863846 -0.026561498759095005 0 -0.026561498759095005 -0.0058845374788203189 0 0 0 -0.015159320476921027 -0.051112824115292846 -0.024085967845997078 0 -0.024085967845997078 0.0018145712582777335 0 0 0 -0.012324563214253789 -0.072481459253503397 -0.022387958849714496 0 -0.022387958849714496 -0.00050182959670308502 0 0 0 -0.018245822212551624 -0.055042219654970484 -0.032849248287227469 0 -0.032849248287227469 -0.0010936817689654044 0 0 0 -0.014033975355983969 -0.069749803619270245 -0.025570058199581906 0 -0.025570058199581906 -0.0066045077566466159 0 0 0 -0.019088577843979219 -0.038050340688415459 -0.037416090074228442 0 -0.037416090074228442 -0.0022987886895420515 0 0 0 -0.010087282344489369 -0.069183785310123883 -0.029006187823281307 0 -0.029006187823281307 0.0027391176511653986 0 0 0 -0.016611166914739631 -0.10879091253197651 -0.020474625171493344 0 -0.020474625171493344 -0.0063544615603536997 0 0 0 -0.028786343523082569 -0.11798167395211558 -0.024312476145767137 0 -0.024312476145767137 -0.0036728024736814371 0 0 0 -0.030413619106449252 -0.14357972025342092 -0.01317828801216241 0 -0.01317828801216241 -0.0010787007914970885 0 0 0 -0.036164605261229485 -0.1028125020440887 -0.010495732548824278 0 -0.010495732548824278 0.00025310996756406495 0 0 0 -0.025639848019131158 -0.11973927499435233 -0.012036361640435362 0 -0.012036361640435362 -0.0010194207782570977 0 0 0 -0.030189673943152365 -0.074065688382142586 -0.023765554151067604 0 -0.023765554151067604 -0.00092716609938486155 0 0 0 -0.01874821362038185 -0.10121441719240949 -0.0095201907968798533 0 -0.0095201907968798533 -0.0057393731343058224 0 0 0 -0.026738447581678829 -0.07523599451242545 -0.015684934843076464 0 -0.015684934843076464 0.0038490278208052689 0 0 0 -0.01784674167290505 -0.15494193495594269 -0.011998367362153345 0 -0.011998367362153345 0.0072938192243476863 0 0 0 -0.03691202893289873 -0.2264560110685937 -0.0022635395599701902 0 -0.0022635395599701902 -0.00024683484007678724 0 0 0 -0.056675711477167615 -0.14393256008191035 -0.02735479888359766 0 -0.02735479888359766 0.0071767331997375505 0 0 0 -0.034188956720543257 -0.14397387219936086 -0.0079942660208502658 0 -0.0079942660208502658 0.0022902965458668836 0 0 0 -0.035420893913373538 -0.19421927854734555 -0.010124357435449906 0 -0.010124357435449906 0.0026412169253416384 0 0 0 -0.047894515405500923 -0.16562953333503586 -0.012430971089968055 0 -0.012430971089968055 -0.00043658066290521921 0 0 0 -0.04151652849948529 -0.1123440580534377 -0.013138777336221291 0 -0.013138777336221291 0.0021016731978034265 0 0 0 -0.027560596213908568 -0.13061397514221981 -0.011223227370820097 0 -0.011223227370820097 0.0019027084081600903 0 0 0 -0.032177816683514916 -0.1252236751703415 -0.029488103740071891 0 -0.029488103740071891 0.003440175314146178 0 0 0 -0.030445874964048852 -0.074122349428120779 -0.030790939240717116 0 -0.030790939240717116 0.0035244145446891514 0 0 0 -0.017649483720857916 -0.0751421739313579 -0.029510195508779914 0 -0.029510195508779914 -0.0010280379005283974 0 0 0 -0.019042552957971547 -0.05042552487422039 -0.029260558309757857 0 -0.029260558309757857 -0.008564090500398764 0 0 0 -0.014747403843654774 -0.073992073039172684 -0.040848895924913378 0 -0.040848895924913378 0.0095419177772659292 0 0 0 -0.01611253881547671 -0.09845716389747157 -0.02020982431369428 0 -0.02020982431369428 0.0024510972418768512 0 0 0 -0.02400151666389868 -0.082384158838266885 -0.016123880648467703 0 -0.016123880648467703 0.0086566317824015408 0 0 0 -0.018431881763966318 -0.016449418428750508 -0.032703971949436444 0 -0.032703971949436444 0.011712680841656137 0 0 0 -0.0011841843967735979 -0.0098342056445481357 -0.028702695734837205 0 -0.028702695734837205 0.02996047735474755 0 0 0 0.005031567927549857 0.018189127133409991 -0.038438811626269317 0 -0.038438811626269317 0.0068145562117603725 0 0 0 0.0062509208362925978 -0.06076318743542717 -0.029029117982634599 0 -0.029029117982634599 0.011269801953057532 0 0 0 -0.012373346370592394 -0.023252605788651827 -0.037515677698304634 0 -0.037515677698304634 0.0048966442792798747 0 0 0 -0.004588990377342993 -0.056329788779029388 -0.040521465765040281 0 -0.040521465765040281 -0.00038926223549870563 0 0 0 -0.014179762753632027 -0.025648773221630502 -0.041797268675550468 0 -0.041797268675550468 -0.0055569338720072841 0 0 0 -0.0078014267734094426 -0.0194085194037616 -0.031602022722998044 0 -0.031602022722998044 -0.0012613453066763272 0 0 0 -0.0051674661776094852 0.0097399900622406332 -0.038184769816646709 0 -0.038184769816646709 -0.00044624358747127196 0 0 0 0.0023234366186923421 -0.022629741558319153 -0.031911003996494942 0 -0.031911003996494942 0.0033914206095053065 0 0 0 -0.0048095802372034625 0.011191628935459639 -0.027863174622649419 0 -0.027863174622649419 -0.001319222899372776 0 0 0 0.0024681015090217157 0.043220883412540483 -0.033612628085592539 0 -0.033612628085592539 -0.00067970039549744565 0 0 0 0.010635295754260754 0.029311268281158764 -0.032159415159468907 0 -0.032159415159468907 -0.0055316128981161162 0 0 0 0.0059449138457606633 0.057661597240269216 -0.025211309368483335 0 -0.025211309368483335 -0.0040883091790849119 0 0 0 0.01339332201529608 0.029713839516956358 -0.02183245202761059 0 -0.02183245202761059 -0.0069674089977361173 0 0 0 0.0056866076298050586 0.045341363054664505 -0.019635805711250912 0 -0.019635805711250912 0.004903860506326907 0 0 0 0.012561305890247856 0.076080427785580232 -0.027248391986764854 0 -0.027248391986764854 0.0089286950868161796 0 0 0 0.021252280718099086 0.021232491837155587 -0.027544664599869068 0 -0.027544664599869068 0.013994976080974914 0 0 0 0.0088068669795326252 0.06111897221137224 -0.0334020340692842 0 -0.0334020340692842 0.017219281976524115 0 0 0 0.019584563546974083 0.059512952711623247 -0.017451604927257211 0 -0.017451604927257211 0.026521069586911389 0 0 0 0.021508505574633664 0.090689151201779519 -0.0094370421084411862 0 -0.0094370421084411862 0.05722348631264107 0 0 0 0.036978159378605172 0.10361687261556352 -0.027988219916512555 0 -0.027988219916512555 0.041563935101885024 0 0 0 0.036295201929362142 0.035126693336377926 -0.021271180796730217 0 -0.021271180796730217 0.037044895841320369 0 0 0 0.018042897294424584 0.017793877870970094 -0.040486246862545192 0 -0.040486246862545192 0.040066880087744949 0 0 0 0.014465189489678745 0.067267752574475675 -0.039984473276226812 0 -0.039984473276226812 0.087867335422423753 0 0 0 0.038783771999224864 0.093874777285274436 -0.023748454216683298 0 -0.023748454216683298 0.16543425844293214 0 0 0 0.064827258932051657 0.098566647067206054 0.024026281342976907 0 0.024026281342976907 0.13902995937204868 0 0 0 0.059399151609813655 0.078810212775633437 0.01807856010802962 0 0.01807856010802962 0.17915869870328116 0 0 0 0.06449222786972858 0.05881694125232062 0.01277585957145555 0 0.01277585957145555 0.11207137956843982 0 0 0 0.042722080205190194 0.032026454129110093 -0.020170941244860949 0 -0.020170941244860949 0.084377378328537644 0 0 0 0.029100958114411934 0.055769161002163385 -0.0028353043149782486 0 -0.0028353043149782486 0.085890184598782504 0 0 0 0.035414836400236481 0.008366973606257197 0.028698123705229561 0 0.028698123705229561 0.097322372804181573 0 0 0 0.026422336602609689 -0.018603358477314313 0.0095171327135925576 0 0.0095171327135925576 0.056190095280104879 0 0 0 0.0093966842006976137 -0.050071508253012431 0.018886391146914205 0 0.018886391146914205 0.070830833283124173 0 0 0 0.005189831257527977 -0.024387139560744064 -0.017483331154281544 0 -0.017483331154281544 0.029623459230248228 0 0 0 0.0013090799173759993 -0.059980501990804791 -0.0069279678420639812 0 -0.0069279678420639812 0.030909812071330346 0 0 0 -0.0072676724798686164 -0.0079256421360106993 -0.013110091046391548 0 -0.013110091046391548 0.080179295531392192 0 0 0 0.018063413348845384 -0.055885128096148859 -0.034793593085298335 0 -0.034793593085298335 0.035384192701489903 0 0 0 -0.0051252338486647286 -0.1037306610277281 -0.028833999568026708 0 -0.028833999568026708 0.01544589998858048 0 0 0 -0.022071190259786932 -0.11372194382801573 -0.0050461244435388575 0 -0.0050461244435388575 0.013799901847158513 0 0 0 -0.024980510495214325 -0.077173898199588919 -0.024411344865261753 0 -0.024411344865261753 0.03053667577641328 0 0 0 -0.01165930560579384 -0.10429614417666577 0.011903914578174135 0 0.011903914578174135 0.029745796454289805 0 0 0 -0.018637586930594037 -0.068619092340943377 0.0061024472559850218 0 0.0061024472559850218 0.018352310945434658 0 0 0 -0.012566695348877222 -0.13513715751250321 0.025512069054662856 0 0.025512069054662856 0.013999632305284684 0 0 0 -0.030284381301804712 -0.10878468403129332 0.0098036090077803506 0 0.0098036090077803506 0.040844039292385448 0 0 0 -0.016985161184726982 -0.11520990608095455 -0.0045629156734413936 0 -0.0045629156734413936 0.015258677049731384 0 0 0 -0.02498780725780575 -0.16231163660405723 0.0075283951952015704 0 0.0075283951952015704 0.013237157536843958 0 0 0 -0.03726861976680329 -0.15735192046075064 -2.5193671148671104e-05 0 -2.5193671148671104e-05 0.0077475278734367992 0 0 0 -0.037401098146828432 -0.23693861147815667 0.003187806889617617 0 0.003187806889617617 0.0089491299189619067 0 0 0 -0.056997370389798713 -0.17178578376070139 -0.0049623992151525687 0 -0.0049623992151525687 0.0048628258436630989 0 0 0 -0.04173073947925951 -0.24268679852565084 -0.00817154125607919 0 -0.00817154125607919 0.0057618448893242968 0 0 0 -0.059231238409081566 -0.17845913806935579 0.0011323693416453035 0 0.0011323693416453035 -0.00022945564187265566 0 0 0 -0.044672148427807118 -0.14001633113548922 -0.020510331138231058 0 -0.020510331138231058 0.010175173914107633 0 0 0 -0.03246028930534544 -0.16746460324943194 -0.020712186867665086 0 -0.020712186867665086 0.0071050514036262724 0 0 0 -0.040089887961451437 0.075103538828865071 0.027352313596872985 0 0.027352313596872985 0.037384860956525101 0 0 0 0.028122099946347526 0.078401752450163092 0.028929090838402782 0 0.028929090838402782 0.045349716907756465 0 0 0 0.030937867339479896 0.083480290889281092 0.031349266722140945 0 0.031349266722140945 0.046875736765471597 0 0 0 0.03258900691368817 0.063822468123203718 0.026622889385532599 0 0.026622889385532599 0.057081246848751141 0 0 0 0.030225928742988732 0.047925126559793002 0.020358526077275153 0 0.020358526077275153 0.064052659047377503 0 0 0 0.027994446401792623 0.055532138628508317 0.022096233561655854 0 0.022096233561655854 0.039290321392494734 0 0 0 0.023705615005250757 0.039304409855047594 0.01495991235338508 0 0.01495991235338508 0.045140094714667206 0 0 0 0.021111126142428709 0.06378989903010665 0.024157994735193061 0 0.024157994735193061 0.042118032945652487 0 0 0 0.026476982993939798 0.05047133118850293 0.016465631249596064 0 0.016465631249596064 0.024234390633920133 0 0 0 0.018676430455605755 0.050691910097531684 0.018384760807379996 0 0.018384760807379996 0.036764643033219191 0 0 0 0.021864138282687736 0.05002207136655959 0.013275306327236232 0 0.013275306327236232 0.012718696670285731 0 0 0 0.015685192009211344 0.059390386651146515 0.019450672869965838 0 0.019450672869965838 0.025944699715967683 0 0 0 0.021333771591778558 0.062108283251407416 0.016000736764683526 0 0.016000736764683526 0.010367914329208042 0 0 0 0.018119049395153897 0.062430207184071398 0.019499363924464597 0 0.019499363924464597 0.025775572578920693 0 0 0 0.022051444940748045 0.071727782310915492 0.022051071585665417 0 0.022051071585665417 0.022863988020634503 0 0 0 0.02364794258288748 0.075099755575171637 0.013733004573867023 0 0.013733004573867023 0.0078177454017050868 0 0 0 0.020729375244219184 0.066755087069249638 0.010951202139501251 0 0.010951202139501251 0.0070461720346363318 0 0 0 0.018450314775971512 0.064033613352945787 -0.0037355091567323252 0 -0.0037355091567323252 -0.0059975166025399117 0 0 0 0.014509024187601475 0.08181920848026851 0.0033236432654011744 0 0.0033236432654011744 0.007360829503059968 0 0 0 0.022295009495832116 0.078705951816069 0.0048667030849220659 0 0.0048667030849220659 0.0044202922351963235 0 0 0 0.020781561012816325 0.081629613272630491 0.019002855040744643 0 0.019002855040744643 0.020616833516337363 0 0 0 0.025561611697241957 0.060374627633423106 -0.010369387020292622 0 -0.010369387020292622 -0.0025313922340560588 0 0 0 0.014460808849841748 0.073866822940735016 -0.014025783064353793 0 -0.014025783064353793 -0.00023760138812033149 0 0 0 0.018407305388153682 0.082108547135061577 -0.0029980271132773947 0 -0.0029980271132773947 0.012881462537657991 0 0 0 0.02374750241817989 0.09399316133674554 -0.0084994464010643353 0 -0.0084994464010643353 0.022221417779372282 0 0 0 0.029053644779029456 0.1104172823580902 0.0087091138701677201 0 0.0087091138701677201 0.038900000330336165 0 0 0 0.037329320672106578 0.09333268276113256 0.020588314832159629 0 0.020588314832159629 0.023541010040093249 0 0 0 0.029218423200306435 0.10586716373432448 0.014023222777218715 0 0.014023222777218715 0.020562746608119603 0 0 0 0.031607477585611006 0.091054374589897541 0.01933530022757126 0 0.01933530022757126 0.034174284479635025 0 0 0 0.031307164767383162 0.11600818599248834 0.024933072779786833 0 0.024933072779786833 0.039821248936546184 0 0 0 0.03895735873225864 0.098537620426906905 0.039316819818516348 0 0.039316819818516348 0.080020433157446169 0 0 0 0.044639513396088279 0.14691734377939863 0.041479335682844252 0 0.041479335682844252 0.074899974739490477 0 0 0 0.055454329629722299 0.12079858176127943 0.039978437190032093 0 0.039978437190032093 0.11838652290964469 0 0 0 0.059796276167731019 0.092512287092110262 0.04489393771657435 0 0.04489393771657435 0.12569128686246639 0 0 0 0.054550893488644177 0.10879562483701395 0.036504992192957456 0 0.036504992192957456 0.083512329257209361 0 0 0 0.048076988523555866 0.14332708712487591 -0.0046688025246823112 0 -0.0046688025246823112 0.061758322908257335 0 0 0 0.051271352508283338 0.14589265450041022 0.012992090784315929 0 0.012992090784315929 0.10155886682459675 0 0 0 0.061862880331251729 0.15269997999934187 -0.027892279817963522 0 -0.027892279817963522 0.087172988049495193 0 0 0 0.059968242012209322 0.26755573573976815 -0.013027880204813047 0 -0.013027880204813047 0.15138696462071319 0 0 0 0.10473567509012031 0.17465108185191619 -0.006132852432820135 0 -0.006132852432820135 0.34259090340266374 0 0 0 0.12931049631364494 0.25309765951029584 0.11570919685802021 0 0.11570919685802021 0.24639647332158587 0 0 0 0.12487353320797041 0.12693482637059444 0.068657465102584719 0 0.068657465102584719 0.21187585652101099 0 0 0 0.08470267072290133 0.063096057854309467 0.030706512071386777 0 0.030706512071386777 0.11908756234522544 0 0 0 0.045545905049883678 0.12155600466173877 0.045412366524276077 0 0.045412366524276077 0.12040363013655558 0 0 0 0.060489908699573602 0.069467993607029349 -0.021776651262985315 0 -0.021776651262985315 0.24330742441122133 0 0 0 0.078193854504562649 0.049872908764196047 -0.022948559243904033 0 -0.022948559243904033 0.13502091689174056 0 0 0 0.046223456413984135 0.051751303025727002 -0.022551561662543778 0 -0.022551561662543778 0.14487925317617462 0 0 0 0.049157639050475405 0.068272268320717297 0.030195142195711816 0 0.030195142195711816 0.13600695072721741 0 0 0 0.051069804761983681 0.067376195602168065 0.029918392884523123 0 0.029918392884523123 0.077193545808569575 0 0 0 0.036142435352684382 0.058815523570383957 0.023950669579350749 0 0.023950669579350749 0.12162795596704137 0 0 0 0.04511086988435635 0.04041377340418547 0.012700307442533205 0 0.012700307442533205 0.079616818184727739 0 0 0 0.030007647897228297 0.05527953724142777 0.024692422473335515 0 0.024692422473335515 0.096484186309899606 0 0 0 0.037940930887831834 0.059686056163686614 0.026149706922172992 0 0.026149706922172992 0.055782107644612222 0 0 0 0.028867040952074714 0.07409469099003807 0.035874587340504957 0 0.035874587340504957 0.08397586870926993 0 0 0 0.039517639924827007 0.03845208448820113 0.015778725153305383 0 0.015778725153305383 0.058632435526465861 0 0 0 0.024271130003666749 0.038950724631844284 0.013997261711683714 0 0.013997261711683714 0.082378875788242087 0 0 0 0.030332400105021581 0.045261874429424122 -0.020856861767176535 0 -0.020856861767176535 0.090813554364955834 0 0 0 0.034018857198594994 0.031189278362064029 -0.0020929729476493481 0 -0.0020929729476493481 0.082647449946116613 0 0 0 0.028459182077045165 0.027603444658240335 0.00054229530579727112 0 0.00054229530579727112 0.072533042351852775 0 0 0 0.025034121752523293 0.043099263987687819 0.0081674480302284455 0 0.0081674480302284455 0.10916612026380222 0 0 0 0.038066346062872472 0.03844865033855728 -0.017765995093428549 0 -0.017765995093428549 0.069365006556492109 0 0 0 0.026953414223762358 0.0356573785157656 -0.018020045215464586 0 -0.018020045215464586 0.05659412278318271 0 0 0 0.023062875324737081 0.060807124765784933 -0.034475802907624142 0 -0.034475802907624142 0.06409189958973599 0 0 0 0.031224756088880201 0.052468348971700815 -0.03221017300875214 0 -0.03221017300875214 0.032309386200634671 0 0 0 0.021194433793083903 0.039911715424555322 -0.021125656812857024 0 -0.021125656812857024 0.026598062748673545 0 0 0 0.016627444543307224 0.063583552029681453 -0.030516913238278875 0 -0.030516913238278875 0.033375182599687289 0 0 0 0.024239683657342151 0.064579044410468731 -0.030232699549114474 0 -0.030232699549114474 0.03637613992812827 0 0 0 0.025238796084649254 0.05164600910078386 -0.022314526266953599 0 -0.022314526266953599 0.011135016892128646 0 0 0 0.015695256498228088 0.094446440957575789 -0.014299583390630251 0 -0.014299583390630251 0.023695341345428611 0 0 0 0.029535445575751135 0.079305433040397832 -0.022131187887492715 0 -0.022131187887492715 0.0075930621045787738 0 0 0 0.021724623786244138 0.084922726000371318 -0.027211573505202452 0 -0.027211573505202452 0.015572538118142631 0 0 0 0.025123816029628432 0.11054768744512478 -0.049544158924733073 0 -0.049544158924733073 0.052573933939598388 0 0 0 0.04078040534618077 0.043452303017337893 -0.022479999409839097 0 -0.022479999409839097 0.090611881937813679 0 0 0 0.0335160462387879 0.067955508946797277 -0.040590891286757455 0 -0.040590891286757455 0.063673858730514205 0 0 0 0.03290734191932785 0.06877917692727753 -0.044136656530212898 0 -0.044136656530212898 0.076569329231861036 0 0 0 0.036337126539784638 0.075659068519585163 -0.05444537235984296 0 -0.05444537235984296 0.11817565088256221 0 0 0 0.048458679850536833 0.046146184898062576 -0.048358804419196363 0 -0.048358804419196363 0.15631377786213768 0 0 0 0.050614990690050071 0.089727657049430795 -0.047453473917559108 0 -0.047453473917559108 0.15606147596126987 0 0 0 0.061447283252675164 0.12221048688146291 -0.014422237714336796 0 -0.014422237714336796 0.43750559742424394 0 0 0 0.13992902107642674 0.10944084786536964 -0.018022950421553607 0 -0.018022950421553607 -0.014565854464017564 0 0 0 0.023718748350338027 0.14378813937556179 -0.075171823787278325 0 -0.075171823787278325 0.09701322491662745 0 0 0 0.060200341073047295 0.2357829473408809 0.15980812498933927 0 0.15980812498933927 0.28414025871551007 0 0 0 0.12998080151409774 0.1399713422434431 -0.10819559910918536 0 -0.10819559910918536 0.18936199775745716 0 0 0 0.082333335000225064 0.0085799964836219701 0.0014785299370282147 0 0.0014785299370282147 0.023477630434980176 0 0 0 0.0080144067296505361 0.39417797827463952 0.13301694144837806 0 0.13301694144837806 0.081158944458009419 0 0 0 0.11883423068316223 0.20999129708921793 0.035648725782752688 0 0.035648725782752688 0.047477261242829805 0 0 0 0.06436713958301199 0.019944991922557741 0.0035922023156619541 0 0.0035922023156619541 0.059993580839343731 0 0 0 0.019984643190475371 0.03832747499182243 0.0057687141037924827 0 0.0057687141037924827 0.057850604143537543 0 0 0 0.024044519783839979 0.20604434832951901 0.033317798676568589 0 0.033317798676568589 0.041912766018705944 0 0 0 0.06198927858705626 0.028587212714723163 0.0050652644454796773 0 0.0050652644454796773 0.085371290160146884 0 0 0 0.02848962571871751 0.053735779506229403 0.012041032966235293 0 0.012041032966235293 0.069016266979265883 0 0 0 0.03068801162137394 0.16048453125501788 0.029730615152373741 0 0.029730615152373741 0.030173339873615257 0 0 0 0.04766446778215816 0.092539199280143453 -0.026094521798481957 0 -0.026094521798481957 -0.00054525992548964952 0 0 0 0.022998484838663458 0.089860863586395764 0.0067520691300197722 0 0.0067520691300197722 0.042594533273793533 0 0 0 0.033113849215047383 0.090131154032203981 -0.0083715313932127295 0 -0.0083715313932127295 0.036603651645789159 0 0 0 0.031683701419498334 0.092356916348373258 -0.0029652185719808433 0 -0.0029652185719808433 0.0254736941116534 0 0 0 0.02945765261500663 0.077987734446019169 0.0077951345826644536 0 0.0077951345826644536 0.037190366390114249 0 0 0 0.028794525209033334 0.087736268638472725 0.0062625136750369959 0 0.0062625136750369959 0.071121711418431599 0 0 0 0.039714495014226137 0.080140736608653285 0.012181604757733111 0 0.012181604757733111 0.083175296716309077 0 0 0 0.040829008331240646 0.09041564454802492 0.002800905123797881 0 0.002800905123797881 0.038912780935119073 0 0 0 0.032332106370785985 0.14887184216563076 0.025433191433855432 0 0.025433191433855432 0.038960079696445327 0 0 0 0.046957980465518911 0.15965801536295332 0.017381259851697584 0 0.017381259851697584 0.075971122614782338 0 0 0 0.058907284494433942 0.18412583051623721 0.012978118585619036 0 0.012978118585619036 0.071105174778316016 0 0 0 0.063807751323638362 0.036253129921263165 0.0060780424368948038 0 0.0060780424368948038 0.10851182357723714 0 0 0 0.036191238374625075 0.16771131811907247 0.014176665207559225 0 0.014176665207559225 0.081199011420981071 0 0 0 0.062227582385013469 0.15914808767037059 0.011764293048048158 0 0.011764293048048158 0.08202912206239521 0 0 0 0.060294302433191449 0.13638957975023602 0.024634075801864608 0 0.024634075801864608 0.080295012370596552 0 0 0 0.054171148030208394 0.16489905288211482 0.012408547516106514 0 0.012408547516106514 0.10177261037074281 0 0 0 0.066667915813214407 0.10090866884577582 0.012151126438810032 0 0.012151126438810032 0.10857267919987801 0 0 0 0.052370337011413526 0.043967690908461858 0.0068153914267900569 0 0.0068153914267900569 0.1316178503777771 0 0 0 0.04389638532155974 0.14567565848991304 0.013032401423099582 0 0.013032401423099582 0.10391133860308255 0 0 0 0.062396749273248897 0.086647508469316181 0.010031057443808722 0 0.010031057443808722 0.062032002085649962 0 0 0 0.037169877638741577 0.082356539607060797 0.0059780552199333314 0 0.0059780552199333314 0.036233560982392721 0 0 0 0.029647525147363379 0.097865288637965925 0.0063769570766940009 0 0.0063769570766940009 0.093149984081923654 0 0 0 0.047753818179972402 0.091967096363975334 0.0068856347141146301 0 0.0068856347141146301 0.065918832981414266 0 0 0 0.03947148233634741 0.099006788721670708 0.010954504716808533 0 0.010954504716808533 0.073026724403553733 0 0 0 0.043008378281306076 0.080231895722704005 0.005836683319028084 0 0.005836683319028084 0.029926881844767328 0 0 0 0.027539694391867875 0.076014184809810981 0.0043331511354735563 0 0.0043331511354735563 0.033984899654775247 0 0 0 0.027499771116146543 0.082787792178769942 0.0049132937363879359 0 0.0049132937363879359 0.030569962595764263 0 0 0 0.028339438693633565 0.072694484784189994 -0.0061320836818967717 0 -0.0061320836818967717 0.0067454607284583856 0 0 0 0.019859986378162109 0.072650514099426078 -0.0014760994310607511 0 -0.0014760994310607511 0.012152541194371702 0 0 0 0.021200763823449487 0.05899216826855444 -0.0033302142990666028 0 -0.0033302142990666028 0.0062346403021740077 0 0 0 0.016306702142682098 0.062167846124795256 -0.0060593780576580492 0 -0.0060593780576580492 0.008103265186347075 0 0 0 0.01756777782778568 0.058997064769082647 -0.01313795354514484 0 -0.01313795354514484 0.0036491205616387967 0 0 0 0.015661546332680382 0.066297942100397134 -0.0055047427363751344 0 -0.0055047427363751344 0.0089376493504432358 0 0 0 0.01880889786271012 0.070250724808487819 -0.012631366256911476 0 -0.012631366256911476 0.0048856775772937455 0 0 0 0.018784100596445419 0.054784132180713069 -0.015473377280100425 0 -0.015473377280100425 0.00043153484665142683 0 0 0 0.013803916756841145 0.068499095926688541 -0.020221293983522542 0 -0.020221293983522542 0.0086358320501108699 0 0 0 0.019283731994199915 0.054296376320505296 -0.020973544877704864 0 -0.020973544877704864 0.011692530280426938 0 0 0 0.016497226650233062 0.072167644752051702 -0.013643873074280083 0 -0.013643873074280083 0.0047585626098407829 0 0 0 0.019231551840473149 0.079249552692459022 -0.0030450482490391173 0 -0.0030450482490391173 0.011270444433546051 0 0 0 0.02262999928150132 0.083985623320060654 -0.0062048620313675529 0 -0.0062048620313675529 0.01654732887920074 0 0 0 0.025133238049815376 -0.12896716817206283 0.012091296356828041 0 0.012091296356828041 0.0027936958898662212 0 0 0 -0.031543368070549194 -0.15433669637136116 0.017217469906790628 0 0.017217469906790628 0.0051435699213620012 0 0 0 -0.037298281612499706 -0.10615110969017316 0.042496704174526445 0 0.042496704174526445 0.016690238833148019 0 0 0 -0.022365217714256258 -0.20271052536740369 0.017574822761478592 0 0.017574822761478592 0.0050476582841012529 0 0 0 -0.049415716770825624 -0.20911217370065335 0.012974052072268538 0 0.012974052072268538 0.0096989876579369749 0 0 0 -0.049853296510679102 -0.12782647659547131 0.015154740242350084 0 0.015154740242350084 0.0035514138396175454 0 0 0 -0.031068765688963329 -0.1345889833089936 0.02118539031908695 0 0.02118539031908695 0.0059072993968679599 0 0 0 -0.032170420978031578 -0.096204810704574484 0.043455024016613164 0 0.043455024016613164 0.02368265446468687 0 0 0 -0.018130539059971917 -0.05857726761414217 0.043319258208125322 0 0.043319258208125322 0.024558610854147567 0 0 0 -0.0085046641899986231 -0.03337776453964425 0.056945051351633497 0 0.056945051351633497 0.047285633927761861 0 0 0 0.0034769673470294027 -0.057048240994145738 0.036979096356404645 0 0.036979096356404645 0.0076249048081340476 0 0 0 -0.012355834046502867 -0.044727645539039268 0.059188417037585817 0 0.059188417037585817 0.021239233496335386 0 0 0 -0.0058721030106760608 -0.081330336539364612 0.032730446920489875 0 0.032730446920489875 0.0030764994534906442 0 0 0 -0.019563459271468298 -0.029859067299697895 0.048281533029619239 0 0.048281533029619239 0.0068964254683168136 0 0 0 -0.0057406604578451592 0.063339037956582078 0.071137519918157421 0 0.071137519918157421 0.024435703674519638 0 0 0 0.021943685407775415 0.015828054978597739 0.059436019219461483 0 0.059436019219461483 0.017505188841218544 0 0 0 0.0083333109549540429 0.083776871510135492 0.086821768506504471 0 0.086821768506504471 0.055522294495602476 0 0 0 0.034824791501434499 0.015438860506551633 0.06448246011238512 0 0.06448246011238512 0.021602851363083264 0 0 0 0.0092604279674088907 -0.050821727755985147 0.034712430105559466 0 0.034712430105559466 0.02674809548127044 0 0 0 -0.0060184080686788155 -0.0020880640963534813 0.065015943593099784 0 0.065015943593099784 0.073604096766046512 0 0 0 0.01787900816742316 0.010195063471242771 0.052952307091531925 0 0.052952307091531925 0.051224810650863484 0 0 0 0.015354968530526647 0.065104100148432709 0.08300963373460718 0 0.08300963373460718 0.11943520650955231 0 0 0 0.046134826664496198 0.088499869992062941 0.08920003290518598 0 0.08920003290518598 0.19403302367150355 0 0 0 0.070633223415891622 0.13976216174963801 0.10530458332896381 0 0.10530458332896381 0.072188360503764482 0 0 0 0.052987630563350478 0.15746201731244036 0.091305893439872832 0 0.091305893439872832 0.073414683043760587 0 0 0 0.057719175089050223 0.097594741598249102 0.060023365044826971 0 0.060023365044826971 0.025736018190467558 0 0 0 0.030832689947179137 0.13101969664404864 0.067576178624453975 0 0.067576178624453975 0.033633258779532993 0 0 0 0.041163238855895429 0.15978134238832731 0.029892320230588298 0 0.029892320230588298 0.03607754621336845 0 0 0 0.04896472215042369 0.086114332641872626 0.048289384766809107 0 0.048289384766809107 0.016361838304640219 0 0 0 0.025619042736628184 0.086808946076381233 0.053002329858560904 0 0.053002329858560904 0.015994441404976634 0 0 0 0.025700846870339467 0.12875140981814948 0.034201304325586879 0 0.034201304325586879 0.035885202348809653 0 0 0 0.041159153041739893 0.12471443109053293 0.030446041563032322 0 0.030446041563032322 0.040484266809022174 0 0 0 0.041299674474888914 0.12934084184705408 0.022924246850207441 0 0.022924246850207441 0.05269218632162076 0 0 0 0.045508257042169209 0.11445028176413397 0.031549517958203488 0 0.031549517958203488 0.047733937875229053 0 0 0 0.040546054909840645 0.087434842953338088 0.038310856828269513 0 0.038310856828269513 0.027397885891840668 0 0 0 0.02870818221129473 0.085883698251355556 0.045973899724385578 0 0.045973899724385578 0.01789789941421116 0 0 0 0.025945399416391401 0.041203546396555588 0.039376631485294356 0 0.039376631485294356 0.015606286958075533 0 0 0 0.014202458338657895 0.046996515708334574 0.042554014582166566 0 0.042554014582166566 0.016991238659350427 0 0 0 0.01599693859192125 0.038639910442382019 0.041876086526769885 0 0.041876086526769885 0.012007316684433889 0 0 0 0.012661806781704144 -0.0061271733105799919 0.049377277515007645 0 0.049377277515007645 0.0074211342466674601 0 0 0 0.00032349023402178378 0.041947511925963576 0.053629683685582519 0 0.053629683685582519 0.011523522819598231 0 0 0 0.013367758686390507 0.056879163790806153 0.042981411609700482 0 0.042981411609700482 0.0099712972674099731 0 0 0 0.016712615264554254 0.0092376870759485197 0.04931984338070583 0 0.04931984338070583 0.0057451938347461429 0 0 0 0.0037457202276736101 -0.0051907126394996062 0.060778308922557311 0 0.060778308922557311 0.010867515468458655 0 0 0 0.0014192007072396096 -0.039005096659019634 0.038198904099926878 0 0.038198904099926878 0.00089898806999588743 0 0 0 -0.009526527147255992 -0.053823412557372656 0.047850695173876412 0 0.047850695173876412 0.010744886099178813 0 0 0 -0.010769631614548462 -0.046204121988129732 0.030071911260097527 0 0.030071911260097527 0.0042037846964415593 0 0 0 -0.010500084322921932 -0.044900686539162682 0.045822671117146108 0 0.045822671117146108 0.0036138986039775389 0 0 0 -0.010321696983796591 -0.0039731534460010209 0.044143962209121035 0 0.044143962209121035 0.0038949919124684484 0 0 0 -1.9540383383365167e-05 0.001282463635062514 0.045162179075237896 0 0.045162179075237896 0.00063447702404495487 0 0 0 0.0004792351647768256 -0.022750444960642078 0.034333546008303184 0 0.034333546008303184 0.0067010803058176419 0 0 0 -0.0040123411637059975 -0.039189684320758866 0.03022226763737601 0 0.03022226763737601 0.001221333852444495 0 0 0 -0.0094920876170783153 -0.058081289489808618 0.036314637400438166 0 0.036314637400438166 0.0052734951630224458 0 0 0 -0.013201948581696765 -0.085945759037963976 0.012986981909403728 0 0.012986981909403728 0.003484341987842754 0 0 0 -0.02061535426253025 -0.045657455841978889 0.012875611712278801 0 0.012875611712278801 0.0073860695263414655 0 0 0 -0.0095678465789090783 -0.070020266132258646 0.014418811635127371 0 0.014418811635127371 0.0070365461453851808 0 0 0 -0.015745929996718422 -0.12437668739107499 0.013509312838798859 0 0.013509312838798859 0.002644350350587521 0 0 0 -0.030433084260121923 -0.094618207619424632 0.033504987136143249 0 0.033504987136143249 0.0041397013130621829 0 0 0 -0.022619626576590557 -0.090057410954347716 0.017047585272104343 0 0.017047585272104343 0.002201863902989043 0 0 0 -0.021963886762839779 -0.0037569361621934971 0.013036872511174469 0 0.013036872511174469 0.011339895553460239 0 0 0 0.0018957398478171295 -0.027053508472446586 0.0094711184454574493 0 0.0094711184454574493 0.0033361341344297912 0 0 0 -0.0059293435845040321 -0.0055269700914930553 0.018805546974287157 0 0.018805546974287157 0.0080799344913216053 0 0 0 0.00063824109995769263 -0.038186753221677749 0.010846057340906823 0 0.010846057340906823 0.0075680098401580409 0 0 0 -0.0076546858453798716 -0.033772187045519542 0.0086579649411206994 0 0.0086579649411206994 0.0058692101211241798 0 0 0 -0.0069757442310988127 -0.063360728984525938 0.011987469842661698 0 0.011987469842661698 0.004623741633468903 0 0 0 -0.014684246837763926 -0.052638887558926317 0.023001034457866165 0 0.023001034457866165 0.0027515181148896062 0 0 0 -0.012471842361009511 -0.036645847286258082 0.01897535121817584 0 0.01897535121817584 0.004768221167976705 0 0 0 -0.0079694065295696781 -0.018990282207107079 0.031506557216354425 0 0.031506557216354425 0.0046037082831711373 0 0 0 -0.0035966434809839853 -0.015804654631037973 0.023672464615706268 0 0.023672464615706268 0.0094188506828274399 0 0 0 -0.0015964509870527444 -0.0025086884820435529 0.02862490963217712 0 0.02862490963217712 0.005807646528516841 0 0 0 0.00082473951161854409 0.012367392728996895 0.025508581318377743 0 0.025508581318377743 0.011190967984900269 0 0 0 0.0058895901784741245 0.013144044078416073 0.021951795673937902 0 0.021951795673937902 0.011929802690418434 0 0 0 0.0062684616922088487 -0.0090164760687295731 0.026837321922056567 0 0.026837321922056567 0.0084194500595087263 0 0 0 -0.00014925650230501741 0.01421224970866089 0.024491054500290321 0 0.024491054500290321 0.012852735380892932 0 0 0 0.0067662462723880046 0.046413075229536416 0.023836136728061508 0 0.023836136728061508 0.0228072930906702 0 0 0 0.017305092080051709 0.049990190731084905 0.02659165808294528 0 0.02659165808294528 0.032523727589869544 0 0 0 0.020628479580238501 0.071465229252104967 0.025060232898237444 0 0.025060232898237444 0.032663043508284417 0 0 0 0.02603206819009718 0.015698252862891948 0.031608619843715186 0 0.031608619843715186 0.014176493239789423 0 0 0 0.0074686865256707868 0.011489985698255767 0.038588998393263997 0 0.038588998393263997 0.0075900653056999445 0 0 0 0.0047700127509890944 0.040827739171783395 0.029594341018629455 0 0.029594341018629455 0.016462862133228562 0 0 0 0.014322650326253128 0.037740727918494921 0.030343094256667369 0 0.030343094256667369 0.016288851288507544 0 0 0 0.013507394801750783 0.064127758868095075 0.037192362633695852 0 0.037192362633695852 0.024091396230468298 0 0 0 0.022054788774640954 0.043641475973306587 0.031130684711976997 0 0.031130684711976997 0.026605225933524324 0 0 0 0.017561675476707617 0.090389039461594489 0.022809459995424941 0 0.022809459995424941 0.049330736369102013 0 0 0 0.034929943957673792 0.088870268615796277 0.028744579747902926 0 0.028744579747902926 0.050738219171621246 0 0 0 0.034902121946854603 0.081513449255685488 0.031710463553717538 0 0.031710463553717538 0.029254290390384519 0 0 0 0.027691934911517446 0.10397241427843007 0.029214256784849457 0 0.029214256784849457 0.05417371931669468 0 0 0 0.039536533398780827 0.1263198621208228 0.015758458598791103 0 0.015758458598791103 0.088569215881122432 0 0 0 0.053722269500485531 0.10783723290659131 0.017569269889676997 0 0.017569269889676997 0.066718823998823673 0 0 0 0.043639014226353634 0.12022729092870588 0.024911578342734719 0 0.024911578342734719 0.092755760059711534 0 0 0 0.053245762747104575 0.078702513883185832 0.031934259510387086 0 0.031934259510387086 0.046304910857268178 0 0 0 0.031251856185113391 0.094659446496118183 0.025495644194961642 0 0.025495644194961642 0.066049059788285014 0 0 0 0.040177126571100896 0.13181527637561885 0.0070871493956554676 0 0.0070871493956554676 0.093834544185904534 0 0 0 0.056412455140380846 0.1039732962939488 0.0021814317011599194 0 0.0021814317011599194 0.080540659621029853 0 0 0 0.046128488978744553 0.14597327890414613 0.017213166860578166 0 0.017213166860578166 0.096894290598503297 0 0 0 0.060716892375662468 0.12748774424456943 0.008915122227712402 0 0.008915122227712402 0.083753951368617408 0 0 0 0.052810423903297377 0.15785937265339856 -0.0082539649944020077 0 -0.0082539649944020077 0.12223707924028027 0 0 0 0.070024112973419594 0.17604043046954665 0.010944452825212281 0 0.010944452825212281 0.12491582091159392 0 0 0 0.075239062845285254 0.13260231113894116 -0.011380026268778654 0 -0.011380026268778654 0.078956705143383488 0 0 0 0.052889754070580608 0.093839098782417363 0.00057376169955425382 0 0.00057376169955425382 0.071512644264954517 0 0 0 0.041337935761843081 0.046113402442771623 0.01320190614427246 0 0.01320190614427246 0.019283348119255805 0 0 0 0.016349187640506635 0.050534921785324372 0.0074847715862835784 0 0.0074847715862835784 0.032547906147039285 0 0 0 0.020770706983090914 0.079637105372725614 0.0014019356365846392 0 0.0014019356365846392 0.027354396733592523 0 0 0 0.02674787552657909 0.04695487804164733 0.019285080754150863 0 0.019285080754150863 0.021694510792246824 0 0 0 0.017162347208473427 0.088465917329386912 0.012971761504156187 0 0.012971761504156187 0.045998541213160493 0 0 0 0.033616114635636851 0.053468063948203692 0.017049516480144078 0 0.017049516480144078 0.040360538270301838 0 0 0 0.023457150554625716 0.083228956120018349 0.016705778654292236 0 0.016705778654292236 0.044577864984603366 0 0 0 0.03195170527615554 0.020596619068538047 0.019476517067924526 0 0.019476517067924526 0.016763526018540809 0 0 0 0.0093400362717697138 -0.0052067808077294053 0.013746906801278103 0 0.013746906801278103 0.007831399782784132 0 0 0 0.00065615474376334859 0.019095363803972809 0.012483584649958801 0 0.012483584649958801 0.010254909377534815 0 0 0 0.0073375682953775723 0.0073641446741241623 0.014923135352936434 0 0.014923135352936434 0.012227925695495578 0 0 0 0.0048980175924047131 0.020733080808313264 0.014134155361800183 0 0.014134155361800183 0.013156542062837673 0 0 0 0.0084724057177880674 0.026190902315096576 0.0043498094943665855 0 0.0043498094943665855 0.0038449820930921419 0 0 0 0.0075089711020472905 0.016117203779113076 0.0037053399290489786 0 0.0037053399290489786 0.0013641074609331838 0 0 0 0.0043703278100117871 0.026766607006072363 0.0081854321154773979 0 0.0081854321154773979 0.0084479919685733762 0 0 0 0.0088036497436618788 0.014670506951928175 0.0096824500929053592 0 0.0096824500929053592 0.0073881962774358101 0 0 0 0.0055146758073405522 0.007759805288367172 0.0060391557807863983 0 0.0060391557807863983 0.006194367370552456 0 0 0 0.0034885431647304621 0.011617001088244983 0.0035419745755849164 0 0.0035419745755849164 0.0070346949329533892 0 0 0 0.0046629240052997178 0.0091341266809270572 0.0021361853054131519 0 0.0021361853054131519 0.0068347453446548911 0 0 0 0.0039922180063953761 0.0053503523964040234 0.0029320131605832245 0 0.0029320131605832245 0.0063933587075588605 0 0 0 0.0029359277759906099 0.008709504791005962 0.0050626637476671732 0 0.0050626637476671732 0.010340486572683716 0 0 0 0.0047624978409221974 -0.0031642597931207384 0.0068927024428808714 0 0.0068927024428808714 0.010858730353973556 0 0 0 0.0019236176402137595 0.00085983551974977424 0.0063630753934016404 0 0.0063630753934016404 0.0074312067667865467 0 0 0 0.0020727605716339692 -0.019185559571276212 0.0074153719966880693 0 0.0074153719966880693 0.0054944979100710611 0 0 0 -0.0034227654153018428 0.067774876337849621 0.004209736755258181 0 0.004209736755258181 0.026500631216308967 0 0 0 0.023568876888539592 0.094096294358880228 0.0074251794834365448 0 0.0074251794834365448 0.063546207304404412 0 0 0 0.039410625415821299 0.095580477972110001 0.012521422735449483 0 0.012521422735449483 0.055584200200273326 0 0 0 0.037791169543095915 0.0830832075964969 0.014368125392599573 0 0.014368125392599573 0.043938103519357785 0 0 0 0.031755327778963671 0.061515131493038243 0.0079990184159804412 0 0.0079990184159804412 0.018847761813381835 0 0 0 0.020090723326605074 0.047108388083162644 0.0013534321707501518 0 0.0013534321707501518 0.012006263733893796 0 0 0 0.014778662954263999 0.047546917537999223 -0.0030104380384823881 0 -0.0030104380384823881 0.0075881514974651676 0 0 0 0.013783767258866098 0.059261414797758427 0.0016094469533969313 0 0.0016094469533969313 0.01427601063430417 0 0 0 0.018384356358015663 0.048955328303106893 -0.0032354547154950786 0 -0.0032354547154950786 0.0080309147541797188 0 0 0 0.014246560764321625 0.049261688486796386 -0.0054036477505953195 0 -0.0054036477505953195 0.0072429554601086132 0 0 0 0.014126160986726234 0.072716831950098315 0.0041415218519463282 0 0.0041415218519463282 0.022008524900040016 0 0 0 0.023681339212534569 0.072321650959622064 0.0045635723896607083 0 0.0045635723896607083 0.021845065203118352 0 0 0 0.023541679040685048 0.061897432060010124 0.0055522555131936602 0 0.0055522555131936602 0.025853872351596169 0 0 0 0.021937826102901556 0.08168350417826642 0.0092517680809960402 0 0.0092517680809960402 0.04969125471657021 0 0 0 0.032843689723709102 0.08651239126905505 0.010384641199052025 0 0.010384641199052025 0.045447196730235229 0 0 0 0.032989896999822604 0.097805477974623217 0.0081098914653160992 0 0.0081098914653160992 0.078993189182971379 0 0 0 0.044199666789398628 0.11291950510621107 0.0067495715821783708 0 0.0067495715821783708 0.11854692992527571 0 0 0 0.057866608757871696 0.13267763556018053 0.0061546102005496928 0 0.0061546102005496928 0.13967132269392091 0 0 0 0.068087239563525359 0.11485112655511359 0.013853895532386529 0 0.013853895532386529 0.088841121764237863 0 0 0 0.050923062079837933 0.14395837427387437 0.023891682100411593 0 0.023891682100411593 0.098846345305513283 0 0 0 0.060701179894846691 0.17157745526074208 0.0085554971947299791 0 0.0085554971947299791 0.13353404220045739 0 0 0 0.076277874365299425 0.12712733161145534 0.01192198134095146 0 0.01192198134095146 0.12732488042756007 0 0 0 0.063613053009753895 0.051831380537593369 0.0073280909358607697 0 0.0073280909358607697 0.15517451431050949 0 0 0 0.051751473712025715 0.13504959149077767 0.01857593462021212 0 0.01857593462021212 0.087203552350653357 0 0 0 0.055563285960357867 0.15268452941932464 0.015317918668625197 0 0.015317918668625197 0.13887513994158773 0 0 0 0.072889917340228649 0.15378781469350278 0.0059849358299037814 0 0.0059849358299037814 0.13826479462504082 0 0 0 0.073013152329636011 0.059971757129949815 0.0076267091992702658 0 0.0076267091992702658 0.17963712224620795 0 0 0 0.059902219844039442 0.15626760465778017 0.012647266141084634 0 0.012647266141084634 0.14855405110255315 0 0 0 0.076205413940083233 0.17727235457489865 0.0124553667424947 0 0.0124553667424947 0.14494497351484759 0 0 0 0.080554332022436226 0.068651425831004725 0.0077447642410478582 0 0.0077447642410478582 0.2053296516016197 0 0 0 0.068495269358156113 0.15396240225743343 0.020867710342633128 0 0.020867710342633128 0.13506912784355074 0 0 0 0.072257882525245704 0.10944192675839975 0.01034590291447663 0 0.01034590291447663 0.096482822456515294 0 0 0 0.051481187303728804 0.15092957319977071 0.010283150440841882 0 0.010283150440841882 0.15711240294891882 0 0 0 0.077010494037172333 0.11567136540429801 0.019967023278949114 0 0.019967023278949114 0.085620149946439295 0 0 0 0.050322878837684271 0.13428362032816349 0.009756001090141353 0 0.009756001090141353 0.10117321658677531 0 0 0 0.058864209228734643 0.1520099659349039 0.022100807741502609 0 0.022100807741502609 0.11370325964343864 0 0 0 0.066428306394585634 0.12384592291287935 0.0072759303946900999 0 0.0072759303946900999 0.09248012827925664 0 0 0 0.054081512798033998 0.18921122333536738 0.014968685069975673 0 0.014968685069975673 0.16330092185920075 0 0 0 0.088128036298642076 0.18133294438450975 0.0051299707131510774 0 0.0051299707131510774 0.17832699564587395 0 0 0 0.089914985007595871 0.17092116806339464 0.0018853981316229174 0 0.0018853981316229174 0.12431102610304406 0 0 0 0.073808048541609703 0.19261053132266603 0.0012066587564181219 0 0.0012066587564181219 0.17491986875780441 0 0 0 0.091882600020117611 0.077361025452367407 0.007631667395168136 0 0.007631667395168136 0.23250028676405718 0 0 0 0.077465328054106136 0.2341488503087667 0.012504635623519722 0 0.012504635623519722 0.18838558062479616 0 0 0 0.1056336077333907 0.21549257435811395 0.013413731446667132 0 0.013413731446667132 0.18255320689765958 0 0 0 0.099511445313943819 0.1773420831111836 -0.0017908947196262348 0 -0.0017908947196262348 0.16406846089003135 0 0 0 0.085352636000303406 0.20638529957217755 0.017778808234554688 0 0.017778808234554688 0.17906854627474944 0 0 0 0.096363461461731914 0.088940028286571188 0.0076069425470144739 0 0.0076069425470144739 0.26288277152126832 0 0 0 0.087955699951959884 0.26874002985210943 0.0006675138924263635 0 0.0006675138924263635 0.20713963274772418 0 0 0 0.11896991564995929 0.21848280481606253 -0.013526287579510132 0 -0.013526287579510132 0.19047767900672596 0 0 0 0.10224012095569757 0.13399183236965634 0.022292606848321739 0 0.022292606848321739 0.079087529408012891 0 0 0 0.053269840444417349 0.20082051991975464 0.019117701764831851 0 0.019117701764831851 0.18906353419072897 0 0 0 0.097471013527620942 0.26143693982684635 0.0017917799418256022 0 0.0017917799418256022 0.19874496716228607 0 0 0 0.11504547674728316 0.20342747799892813 0.02318499082711678 0 0.02318499082711678 0.17128415085358273 0 0 0 0.093677907213127742 0.1647890627821712 -0.0037816608379733635 0 -0.0037816608379733635 0.088294138186355342 0 0 0 0.063270800242131719 0.065077865226990661 0.0096547407587630474 0 0.0096547407587630474 0.010847950519368488 0 0 0 0.018981453936589787 0.11401967731506335 0.018088105029899881 0 0.018088105029899881 0.048884258235893263 0 0 0 0.04072598388773907 0.091960318149875819 0.0041020793745761147 0 0.0041020793745761147 -0.016994781988312502 0 0 0 0.018741384040390829 0.097779762450272478 0.0050359671603610323 0 0.0050359671603610323 0.059927580532993963 0 0 0 0.03942683574581668 0.083725656294742268 0.0078785784220812838 0 0.0078785784220812838 0.014832881972812295 0 0 0 0.024639634566888557 0.070375018883811147 0.010701201658020965 0 0.010701201658020965 0.020979165017273704 0 0 0 0.022838545975271296 0.079761329812570031 0.006165179234770557 0 0.006165179234770557 0.043905893246750413 0 0 0 0.030916805764830167 0.10426057717229031 0.019022203961133466 0 0.019022203961133466 0.056676906558040141 0 0 0 0.040234370932582642 0.048227445808887048 0.0044047057828467129 0 0.0044047057828467129 0.0010544820136457744 0 0 0 0.012320481955633289 0.051521687994465853 0.003843216493675361 0 0.003843216493675361 0.015624673771279827 0 0 0 0.016786590441436405 0.051422722879684746 0.0094890618484765321 0 0.0094890618484765321 -0.0019444785282323185 0 0 0 0.01236956108786319 0.059200198371397797 0.0036498224876049257 0 0.0036498224876049257 0.018172874197641353 0 0 0 0.019343268142259742 0.041124447340298409 8.2925751567763939e-06 0 8.2925751567763939e-06 -0.003510294107123002 0 0 0 0.0094035383082937685 0.051220212828468448 -0.0025523575614638805 0 -0.0025523575614638805 -0.018065451999371596 0 0 0 0.0082886902072742963 0.043796194715054027 0.0043195276345884825 0 0.0043195276345884825 -0.055101668731031062 0 0 0 -0.0028263685039942033 0.039814347230590741 -0.0028193296327410633 0 -0.0028193296327410633 -0.028472813795402452 0 0 0 0.0028353833587970723 0.037054119632080607 -0.0037848096014417854 0 -0.0037848096014417854 -0.063709968086445912 0 0 0 -0.0066639621135912153 0.037056177140675106 0.0019507906525234042 0 0.0019507906525234042 -0.030328111850469242 0 0 0 0.0016820163225514939 0.033927625104831438 -0.0067474156702155286 0 -0.0067474156702155286 -0.012909317145551436 0 0 0 0.00525457698982007 0.038108821099939877 0.00091796220674245088 0 0.00091796220674245088 -0.027342537508951437 0 0 0 0.0026915708977471031 0.075635437467244049 -0.01420481252364326 0 -0.01420481252364326 0.0038141090715457793 0 0 0 0.019862386634697471 0.061290200848490885 -0.0021668318432679357 0 -0.0021668318432679357 -0.039373724046428873 0 0 0 0.0054791192005154473 0.045961290207691463 -0.0094413918949593223 0 -0.0094413918949593223 -0.011655178211218198 0 0 0 0.008576527999118233 0.061948030570124213 -0.0074274264851759142 0 -0.0074274264851759142 0.027300874384384555 0 0 0 0.022312226238627164 0.052472013615013441 -0.0073836967079007887 0 -0.0073836967079007887 -0.0080834672706920907 0 0 0 0.011097136586080164 0.046908507118067544 -0.0081639699344272509 0 -0.0081639699344272509 0.0074091167164272997 0 0 0 0.01357940595862378 0.050766776764718857 -0.0097736940239536718 0 -0.0097736940239536718 0.02458458334619551 0 0 0 0.018837840027728592 0.064226680690330162 -0.01480708957652388 0 -0.01480708957652388 0.022663137311397019 0 0 0 0.021722454500431698 0.043664556770731916 -0.0025285837258074428 0 -0.0025285837258074428 -0.00639674968628412 0 0 0 0.0093169517711119421 0.041989282585971954 -0.0077178248553372297 0 -0.0077178248553372297 0.0071232338989086763 0 0 0 0.012278129121220116 0.036884090510698075 -0.0041865838449921811 0 -0.0041865838449921811 0.0022881201704194609 0 0 0 0.0097930526702794118 0.044829447232124509 -0.0020825937852326781 0 -0.0020825937852326781 0.0059974291966383708 0 0 0 0.012706719107190734 0.043297936538990278 -0.0047048689192296655 0 -0.0047048689192296655 0.0073458824623668928 0 0 0 0.012660954750339459 0.045300270577068091 -0.0062206858602406601 0 -0.0062206858602406601 0.0092134251850561899 0 0 0 0.013628423940531209 0.041492630132946406 -0.0084816142228907321 0 -0.0084816142228907321 0.01056163381017039 0 0 0 0.013013565985779185 0.038278703040949824 -0.005363055809250894 0 -0.005363055809250894 0.0070375692470112661 0 0 0 0.011329068071990189 0.0446618856008347 -0.010163876954705831 0 -0.010163876954705831 0.011616767446212095 0 0 0 0.014069663261761706 0.042441802717529953 -0.010332416124128885 0 -0.010332416124128885 0.011169791704261023 0 0 0 0.013402898605447744 0.051617932919311056 -0.014514248997731127 0 -0.014514248997731127 0.023432078708577012 0 0 0 0.018762502906972019 0.057345002004629553 -0.012581542630110298 0 -0.012581542630110298 0.039231811167834252 0 0 0 0.024144203293116062 0.046139672732225967 -0.011089645919759972 0 -0.011089645919759972 0.019275622171709417 0 0 0 0.016353823725983929 0.042324028098437383 -0.01257671911545058 0 -0.01257671911545058 0.013307725498588718 0 0 0 0.013907938399256525 0.044895718659751643 -0.014276032269112837 0 -0.014276032269112837 0.020418412211817533 0 0 0 0.016328532717892391 0.049144983075621373 -0.014320483529158545 0 -0.014320483529158545 0.034141241922223897 0 0 0 0.020821556249461304 0.046050438538388402 -0.01462624668534529 0 -0.01462624668534529 0.015160931348770237 0 0 0 0.015302842471789632 0.042203382288630686 -0.0134042962216738 0 -0.0134042962216738 0.0044636580825641037 0 0 0 0.011666760092798711 0.05186675980703722 -0.0096322099028299801 0 -0.0096322099028299801 0.0082324026567903233 0 0 0 0.015024790615956872 0.043178465714219239 -0.0081549857481722776 0 -0.0081549857481722776 0.0054578139155287975 0 0 0 0.012159069907437037 0.050585482749583119 -0.004479708259939319 0 -0.004479708259939319 0.0097678018785935222 0 0 0 0.015088321157044161 0.046179119733813556 -0.0098576888336784352 0 -0.0098576888336784352 0.011481458222266594 0 0 0 0.014415144489019982 0.075830329024749399 -0.016895211008640887 0 -0.016895211008640887 0.072292841337986857 0 0 0 0.037030792590683981 0.027241937649481726 -0.011206344136355075 0 -0.011206344136355075 0.081563616817589057 0 0 0 0.027201388616767699 0.087231003068356183 -0.014795522523194049 0 -0.014795522523194049 0.064974463155122342 0 0 0 0.038051366555869603 0.064059864282536447 -0.015566218221941597 0 -0.015566218221941597 0.064921990704188359 0 0 0 0.032245463746681233 0.051527796112612434 -0.012992607674289613 0 -0.012992607674289613 0.060980588858315699 0 0 0 0.028127096242732019 0.045704631058665984 -0.018397863703536299 0 -0.018397863703536299 0.03148288389459053 0 0 0 0.019296878738314066 0.047848281804001802 -0.016814909359136099 0 -0.016814909359136099 0.0394634643220102 0 0 0 0.021827936531503056 0.055649345362922625 -0.014811100670577504 0 -0.014811100670577504 0.034464742691382111 0 0 0 0.022528522013576247 0.071973113413101308 -0.01022905771189242 0 -0.01022905771189242 0.072173392707534756 0 0 0 0.036036626530158988 0.062101608571703382 -0.016221529647065358 0 -0.016221529647065358 0.056050756931699253 0 0 0 0.029538091375850561 0.079017479377637312 -0.01205505512565358 0 -0.01205505512565358 0.056862067483243572 0 0 0 0.033969886715220332 0.067542215318529719 -0.018337830858901449 0 -0.018337830858901449 0.044812624443612226 0 0 0 0.028088709940535528 0.088385788830040335 -0.013153763785985123 0 -0.013153763785985123 0.086710682754428392 0 0 0 0.043774117896117293 0.11480005247891056 -0.014745888301990473 0 -0.014745888301990473 0.088831765848618183 0 0 0 0.050907954581882187 0.081747035803604984 -0.012327005994739348 0 -0.012327005994739348 0.072108671325422424 0 0 0 0.038463926782256963 0.083473732090781128 -0.021148974602364201 0 -0.021148974602364201 0.072057505061577487 0 0 0 0.038882809288089737 0.037418273703830204 -0.011465111556533288 0 -0.011465111556533288 0.11197355608611434 0 0 0 0.037347957447486133 0.088026570465723541 -0.015539492855179637 0 -0.015539492855179637 0.080015833697197114 0 0 0 0.042010601040730122 0.093328948875849749 -0.016113608099551736 0 -0.016113608099551736 0.076331350555051358 0 0 0 0.042415074857725443 0.032044323887969461 -0.011485589888142925 0 -0.011485589888142925 0.095953742544399589 0 0 0 0.031999516608092263 0.10785029061282825 -0.0092852583278448808 0 -0.0092852583278448808 0.094854444836878216 0 0 0 0.050676183862426782 0.043430668407686342 -0.011152787694903849 0 -0.011152787694903849 0.13015107712921781 0 0 0 0.043395436384226029 0.14785856105383105 -0.01281103611231893 0 -0.01281103611231893 0.10291364577441398 0 0 0 0.062693051707061132 0.12404310485561326 -0.01572480816387789 0 -0.01572480816387789 0.10062346444713194 0 0 0 0.056166642325686189 0.1041360863812868 -0.0072401352357491788 0 -0.0072401352357491788 0.088305586918652423 0 0 0 0.048110418324984749 0.075882728344493167 -0.0091959129257066508 0 -0.0091959129257066508 0.05067280573057667 0 0 0 0.031638883518767535 0.094200908239488679 -0.018323991431040104 0 -0.018323991431040104 0.058400016104682928 0 0 0 0.038150231086042985 0.11130063456406158 -0.0093884775804004006 0 -0.0093884775804004006 0.099557282563088823 0 0 0 0.052714479281787685 0.10763286644111278 -0.0042774804460944393 0 -0.0042774804460944393 0.065366526695010557 0 0 0 0.043249848284030758 0.084957481198274898 -0.017372759215302902 0 -0.017372759215302902 0.030136719951682434 0 0 0 0.028773550287489402 0.12769844309730083 -0.017445196014214182 0 -0.017445196014214182 0.10277451549483096 0 0 0 0.057618239648032921 0.16762724980775284 -0.0039140127118130197 0 -0.0039140127118130197 0.10809159112357697 0 0 0 0.068929710232832439 0.13114946668781213 -0.018393482683006349 0 -0.018393482683006349 0.086675992225359488 0 0 0 0.054456364728292961 0.10570800268501268 0.0019396986122894866 0 0.0019396986122894866 0.03623960574343419 0 0 0 0.035486902107111688 0.12769328489372 -0.016291840948056135 0 -0.016291840948056135 0.098514373996299032 0 0 0 0.056551914722504648 0.050802602388415039 -0.01090784500618756 0 -0.01090784500618756 0.15142543945070031 0 0 0 0.050557010459778839 0.16735501571373179 -0.004337149637078935 0 -0.004337149637078935 0.11852624632829833 0 0 0 0.071470315510507643 0.13705045993887888 0.0052202938491578976 0 0.0052202938491578976 0.10550257766718829 0 0 0 0.060638259401516903 0.11308180407781454 -0.0086080625912861031 0 -0.0086080625912861031 0.067221581625843907 0 0 0 0.045075846425914445 0.083669582174393575 0.0054825579867818774 0 0.0054825579867818774 0.040422397968827184 0 0 0 0.031022995035804968 0.080098059757449214 -0.0092832018511752601 0 -0.0092832018511752601 0.044277162295587758 0 0 0 0.031093805513259243 0.0968400752728375 0.00010731287974863335 0 0.00010731287974863335 0.063372510484361433 0 0 0 0.040053146439299858 0.0573263155857624 -0.0028939210042717711 0 -0.0028939210042717711 0.034298640277757642 0 0 0 0.022906238965880066 0.029669150583456982 -0.0074047071143354959 0 -0.0074047071143354959 0.012848729719699303 0 0 0 0.010629470075789405 0.028540248313250194 -0.0098712837974637112 0 -0.0098712837974637112 0.0094620229091963992 0 0 0 0.0095005678056114817 0.049763493886131993 -0.0027295286162866139 0 -0.0027295286162866139 0.011227066845413525 0 0 0 0.01524764018288649 0.053831696643347859 -0.013438027192407498 0 -0.013438027192407498 0.024063186049607221 0 0 0 0.019473720673238715 0.028313543671075747 -0.016723074253201131 0 -0.016723074253201131 0.018908909863692536 0 0 0 0.011805613383692126 0.025590063739399316 -0.01583623343875043 0 -0.01583623343875043 0.011081168609806458 0 0 0 0.0091678080873016654 0.042322631449345116 -0.0172529406579367 0 -0.0172529406579367 0.022019334509660204 0 0 0 0.016085491489751136 0.070635446631507934 -0.013636104388489834 0 -0.013636104388489834 0.047809429280817994 0 0 0 0.02961121897808143 0.087425858772165466 -0.017676009505332269 0 -0.017676009505332269 0.052117623077124975 0 0 0 0.034885870462322277 0.061055796710356214 -0.0079100600412651545 0 -0.0079100600412651545 0.039423887282646786 0 0 0 0.025119920998250667 0.0051148265391329772 -0.0033098921101741841 0 -0.0033098921101741841 0.0064248762022942607 0 0 0 0.0028849256853569205 0.0031906504557164261 -0.0018423787408843844 0 -0.0018423787408843844 0.0036662941503751156 0 0 0 0.0017142361515225524 0.0053363006988688382 -0.0013244740250013542 0 -0.0013244740250013542 0.0041151408093739973 0 0 0 0.0023628603770608201 0.0071740340748689402 -0.0023626134139345112 0 -0.0023626134139345112 0.0039278240062632364 0 0 0 0.0027754645202833217 0.003444464044969564 -0.004423702868866064 0 -0.004423702868866064 0.0030542864918299273 0 0 0 0.0016246876341998728 0.0084729776967229498 -0.0070296173519071026 0 -0.0070296173519071026 0.0026277894758690579 0 0 0 0.0027751917931477799 0.016509909365464148 -0.0056868281082969041 0 -0.0056868281082969041 0.0040939001692317234 0 0 0 0.0051509523836734683 0.0091628306539073279 -0.0027782940898264386 0 -0.0027782940898264386 -2.5273937566794302e-05 0 0 0 0.0022843891790851334 0.015363458150240249 -0.0040437562503539137 0 -0.0040437562503539137 -0.0006329153361709194 0 0 0 0.0036826357035173877 0.011041464413194257 -0.011663734004917714 0 -0.011663734004917714 0.0040268828298872794 0 0 0 0.0037670868107702593 0.0053729427944766428 -0.016839786768915399 0 -0.016839786768915399 0.0066942460390175818 0 0 0 0.0030167972083738892 -0.0082218381287060271 -0.011275661747194965 0 -0.011275661747194965 0.0030230798370030343 0 0 0 -0.0012996895729255886 0.010349413454971701 -0.0096947167107359622 0 -0.0096947167107359622 0.0046599430176884615 0 0 0 0.0037523391181652488 0.0033498036407084708 -0.011063053074450879 0 -0.011063053074450879 0.0068096585726022951 0 0 0 0.002539865553327747 -0.0016711285620615302 -0.0047453759481455027 0 -0.0047453759481455027 0.0038204871346724234 0 0 0 0.00053733964315261229 -0.014068933457727249 -0.0053604228281471933 0 -0.0053604228281471933 0.0026466593699600621 0 0 0 -0.0028555685219417413 -0.002738802747756619 -0.0045418128801133495 0 -0.0045418128801133495 0.0064237710337993192 0 0 0 0.00092124207151078608 -0.027732233363908732 -0.0064325501778967897 0 -0.0064325501778967897 0.0056648779762475954 0 0 0 -0.0055168388469151175 -0.0051627618115841489 -0.0088806386255158021 0 -0.0088806386255158021 0.0068211158879765144 0 0 0 0.00041458851909803585 -0.0085488319864119866 -0.01378501961501577 0 -0.01378501961501577 0.0053050542115515853 0 0 0 -0.00081094444371521135 -0.022196448382077238 -0.0069607239916198438 0 -0.0069607239916198438 0.00082508335798520127 0 0 0 -0.0053428412560231342 -0.010866012759259663 -0.016419654541077078 0 -0.016419654541077078 0.0039802925960084612 0 0 0 -0.0017214300408127936 0.0054914463195916419 -0.017557879472438698 0 -0.017557879472438698 0.0085646492077127157 0 0 0 0.0035140238818263114 0.0018736427579004733 -0.022115554913195751 0 -0.022115554913195751 0.0072981783954189083 0 0 0 0.0022929552883297344 0.0028777585601351685 -0.021156550378337607 0 -0.021156550378337607 0.009171497950405616 0 0 0 0.0030123141276354737 -0.011694828683233238 -0.017715587533108201 0 -0.017715587533108201 0.0030975516601476905 0 0 0 -0.0021493192557715535 -0.012602173296623873 -0.02186870078583214 0 -0.02186870078583214 0.0055887718200484382 0 0 0 -0.0017533503691439661 0.0017188246960084808 -0.025513030845961682 0 -0.025513030845961682 0.010882162396446571 0 0 0 0.0031502467731137074 -0.018570499638315918 -0.020842492698561421 0 -0.020842492698561421 0.0038301985741400202 0 0 0 -0.0036850752660438912 -0.026177969094398179 -0.012646592795521716 0 -0.012646592795521716 0.0039960695307723615 0 0 0 -0.0055454748909062879 -0.031881103102411879 -0.010561117485599514 0 -0.010561117485599514 0.00056009753439489884 0 0 0 -0.0078302513920041061 -0.032903825563891376 -0.010675162692552309 0 -0.010675162692552309 0.0059916609621590844 0 0 0 -0.0067280411504330173 -0.046636320994220548 -0.0058714017152374787 0 -0.0058714017152374787 0.0016177522933555899 0 0 0 -0.011254642175216101 -0.028341754107803707 -0.0053641599329750378 0 -0.0053641599329750378 0.003995609633456354 0 0 0 -0.0060865361185868938 0.053960681195670546 -0.023220852364272737 0 -0.023220852364272737 0.031966859469520159 0 0 0 0.021481885166297898 0.040998025423315987 -0.020869771359355083 0 -0.020869771359355083 0.03094732339507722 0 0 0 0.017986337204598302 0.060077214908975884 -0.02352417029386078 0 -0.02352417029386078 0.05135158516895677 0 0 0 0.027857200019483219 0.052143462321715628 -0.024026782177901662 0 -0.024026782177901662 0.033878308404911905 0 0 0 0.021505442681656994 0.020857799298588997 -0.021224828112541338 0 -0.021224828112541338 0.01628940205527929 0 0 0 0.0092868003384669606 0.019271106906185276 -0.020848180882829692 0 -0.020848180882829692 0.011350765076769243 0 0 0 0.0076554679957389071 0.03636034823479628 -0.02459996171946266 0 -0.02459996171946266 0.019115296117161229 0 0 0 0.013868911087989266 0.029196066972650314 -0.027388588767156663 0 -0.027388588767156663 0.016220547748135861 0 0 0 0.011354153680196655 0.016070900451754522 -0.024338941577425222 0 -0.024338941577425222 0.01518216392273497 0 0 0 0.0078132660936223175 0.013607573336795853 -0.022561426310668375 0 -0.022561426310668375 0.0091942167668030983 0 0 0 0.0057004475259000431 0.01325037392297064 -0.022795056071218234 0 -0.022795056071218234 0.01261623320099714 0 0 0 0.0064666517809918861 0.047042295990571859 -0.025298980564788076 0 -0.025298980564788076 0.026142142779510991 0 0 0 0.01829610969252049 0.033203031413546746 -0.023755327605828231 0 -0.023755327605828231 0.027815162592385256 0 0 0 0.015254548501483001 0.067769801522545414 -0.019157987033929069 0 -0.019157987033929069 0.045869567342314177 0 0 0 0.028409842216214898 0.051560488285621875 -0.023418911004543741 0 -0.023418911004543741 0.040609525273729741 0 0 0 0.023042503389838154 0.062608406307609277 -0.019303411831277484 0 -0.019303411831277484 0.037892251699063184 0 0 0 0.025125164501668185 0.046224943370395843 -0.026876428333509228 0 -0.026876428333509228 0.027192501297866212 0 0 0 0.018354361167065458 0.049770099617856722 -0.021449390569838633 0 -0.021449390569838633 0.028374220047022281 0 0 0 0.019536079916219862 0.057956917791356366 -0.024398730239803212 0 -0.024398730239803212 0.028505742516264476 0 0 0 0.021615665076905266 0.030838881114057304 -0.029562179734482386 0 -0.029562179734482386 0.017609326493705169 0 0 0 0.012112051901940535 0.035149290887967255 -0.022694266355266723 0 -0.022694266355266723 0.024728419254514633 0 0 0 0.014969427535620583 0.028133818004674405 -0.02962508006517503 0 -0.02962508006517503 0.014733482961122757 0 0 0 0.010716825241449346 0.0061007065631659696 -0.028599871496518048 0 -0.028599871496518048 0.0091280636893276146 0 0 0 0.0038071925631233405 0.00091859908837021997 -0.023057699151867617 0 -0.023057699151867617 0.0071239151821440583 0 0 0 0.0020106285676285696 0.026961448576999881 -0.024513985157770035 0 -0.024513985157770035 0.014845098176088894 0 0 0 0.010451636688272415 0.011148516161247901 -0.032066638373111467 0 -0.032066638373111467 0.0086289972710966723 0 0 0 0.0049443783580862544 0.023137287452539845 -0.025415178456285603 0 -0.025415178456285603 0.011520520755018637 0 0 0 0.0086644520518895929 -3.1480044230813853e-05 -0.026996919615572046 0 -0.026996919615572046 0.0061915044024996035 0 0 0 0.0015400060895671697 0.0012763799939574105 -0.030759997056703403 0 -0.030759997056703403 0.012318909425667268 0 0 0 0.0033988223549061836 0.052643639937352937 -0.028504468809300632 0 -0.028504468809300632 0.018798680292526904 0 0 0 0.017860580057469988 0.056996550269881041 -0.022642857083007728 0 -0.022642857083007728 0.026005970052245253 0 0 0 0.020750630080531685 0.050807550259912571 -0.022043338509762672 0 -0.022043338509762672 0.03014428820295878 0 0 0 0.020237959615717838 0.024675899791699207 -0.030759411679528115 0 -0.030759411679528115 0.01501993320226136 0 0 0 0.0099239582484901834 0.046959831375068206 -0.025137376562517681 0 -0.025137376562517681 0.019855583114762876 0 0 0 0.016703853622457854 -0.05005044454786256 -0.011122896688899098 0 -0.011122896688899098 0.0043988719134200327 0 0 0 -0.011412893158610715 -0.061714823873275051 -0.0067927748308882485 0 -0.0067927748308882485 0.00030478187954208202 0 0 0 -0.015352510498433187 -0.048515882255950091 -0.0064823370076760867 0 -0.0064823370076760867 0.0002362861287036333 0 0 0 -0.012069899031811812 -0.064315381362028967 -0.0077200726148071996 0 -0.0077200726148071996 0.0040803509023898954 0 0 0 -0.015058757614909712 -0.035517764298121701 -0.0097770890802876265 0 -0.0097770890802876265 -0.0003355218574954133 0 0 0 -0.0089633215389042231 -0.019530226164208131 -0.019243708020639239 0 -0.019243708020639239 0.0048636833442352589 0 0 0 -0.0036666357049933151 -0.03593275677532759 -0.01943283632519209 0 -0.01943283632519209 0.0040518478588915663 0 0 0 -0.0079702272291088949 -0.012303244648982192 -0.019873273627836086 0 -0.019873273627836086 0.004173491231380555 0 0 0 -0.0020324383544004232 -0.017369675346887825 -0.027748140805960664 0 -0.027748140805960664 0.0067814800801055952 0 0 0 -0.0026470488166955297 -0.022143289538885447 -0.024871141427760701 0 -0.024871141427760701 0.0063391927991562902 0 0 0 -0.0039510241849320948 -0.018502329456670175 -0.022091616123600333 0 -0.022091616123600333 0.006194396699332444 0 0 0 -0.0030769831893343487 -0.020266462652180572 -0.029128784196038898 0 -0.029128784196038898 0.010288961939129093 0 0 0 -0.0024943751782627865 -0.031164125042975811 -0.017871477185217199 0 -0.017871477185217199 0.0038819698362749233 0 0 0 -0.0068205388016751925 -0.043974326683571596 -0.021568194258667739 0 -0.021568194258667739 0.0057456040741294956 0 0 0 -0.0095571806523604974 -0.042898043315494794 -0.017815214994966633 0 -0.017815214994966633 0.0023456508047442481 0 0 0 -0.010138098127687678 -0.042878081681549052 -0.018294930734681247 0 -0.018294930734681247 0.0047829663070695361 0 0 0 -0.0095237788436197679 -0.067210605206243029 -0.012066890073868075 0 -0.012066890073868075 0.0024582373186307627 0 0 0 -0.01618809197190299 -0.063835247146961926 -0.006925829793582583 0 -0.006925829793582583 0.0021859819641991685 0 0 0 -0.015412316295690676 -0.07878032152400094 -0.010411789003892502 0 -0.010411789003892502 0.0028666809767567969 0 0 0 -0.018978410136811008 -0.1151599270293911 -0.0072243265851552607 0 -0.0072243265851552607 0.0026518314848613667 0 0 0 -0.028127023886132474 -0.093494267154067834 -0.0081025411426551841 0 -0.0081025411426551841 0.0027883916671787023 0 0 0 -0.022676468871722366 -0.078326840999110886 -0.0046165195142287008 0 -0.0046165195142287008 0.0013913609139108996 0 0 0 -0.019233870021300087 -0.067788361496413041 -0.018992281491002877 0 -0.018992281491002877 0.0074773274582200511 0 0 0 -0.015077758509548234 -0.054399529703388294 -0.013891119392156037 0 -0.013891119392156037 0.0022140075254848401 0 0 0 -0.013046380544475822 -0.026430114287632311 -0.020533670789638581 0 -0.020533670789638581 0.0061481233619566922 0 0 0 -0.0050704977314188771 -0.031231868816794295 -0.026748666962390977 0 -0.026748666962390977 0.012328232673182615 0 0 0 -0.0047259090359029754 -0.029017797733589701 -0.024662168943083415 0 -0.024662168943083415 0.020992678386263286 0 0 0 -0.0020062798368315482 -0.041492548494593079 -0.01513214257133122 0 -0.01513214257133122 0.0023444374024808035 0 0 0 -0.0097870277730280064 -0.042508168790043238 -0.018116723460275735 0 -0.018116723460275735 0.010020354630989603 0 0 0 -0.0081219535397634712 -0.062767148716701859 -0.0045550251254592722 0 -0.0045550251254592722 0.011922258763130467 0 0 0 -0.012711222488392876 -0.06173675639196935 -0.018071627049764755 0 -0.018071627049764755 0.0094526299083547149 0 0 0 -0.0130710316209037 -0.080764325327905506 -0.0091348579680329556 0 -0.0091348579680329556 0.0030473157460246814 0 0 0 -0.019429252395470109 -0.076074626082913488 -0.0053589787393799049 0 -0.0053589787393799049 0.002367292573121231 0 0 0 -0.018426833377448108 -0.11520796099923497 -0.0046122886435594479 0 -0.0046122886435594479 0.0036831390028359001 0 0 0 -0.027881205499099726 0.027644710799272169 -0.027956140295679943 0 -0.027956140295679943 0.01937969285686271 0 0 0 0.011756100914033677 0.064268612819074006 -0.045864904492446124 0 -0.045864904492446124 0.039488374318898178 0 0 0 0.025939246784493081 0.026276825085829458 -0.033519900641390821 0 -0.033519900641390821 0.02004545991579354 0 0 0 0.011580571250405791 0.022128401040336532 -0.026967990253473739 0 -0.026967990253473739 0.011313522900210371 0 0 0 0.0083604809851367534 -0.0069980383605470209 -0.02796221486900935 0 -0.02796221486900935 0.010534960740108401 0 0 0 0.00088423059489040057 -0.0050530180501745237 -0.029167972129778619 0 -0.029167972129778619 0.016682165948434191 0 0 0 0.0029072869745649099 0.018228928895240526 -0.036533101528259559 0 -0.036533101528259559 0.024339960575651132 0 0 0 0.010642222367722942 -0.0062252594768857916 -0.02099802059932393 0 -0.02099802059932393 0.02415146127634582 0 0 0 0.0044815504498650349 -0.037710055797151587 -0.013448957117362922 0 -0.013448957117362922 0.010259995921793497 0 0 0 -0.0068625149688396059 -0.026953236334608943 -0.0091753712064681636 0 -0.0091753712064681636 0.017523959633087838 0 0 0 -0.0023573191753802625 -0.012787948370707403 -0.027620290960709393 0 -0.027620290960709393 0.028736678152551431 0 0 0 0.0039871824454609794 0.022839240040542511 -0.031889262668980456 0 -0.031889262668980456 0.036550924918885785 0 0 0 0.014847541239857057 0.023700148538654597 -0.029450991379975082 0 -0.029450991379975082 0.036983498947517734 0 0 0 0.015170911871543125 0.052614603703599966 -0.040810150118697486 0 -0.040810150118697486 0.056674023359712555 0 0 0 0.027322156765828137 0.074909451950447639 -0.062165345257755383 0 -0.062165345257755383 0.11676217510728011 0 0 0 0.047917906764431958 -0.051110828522869578 0.016713018941020646 0 0.016713018941020646 0.065305258984322934 0 0 0 0.003548607615363325 0.17796751567207736 -0.062227965120534294 0 -0.062227965120534294 0.053586555606364716 0 0 0 0.057888517819610547 0.0045576568830636068 -0.0022506043939139113 0 -0.0022506043939139113 0.013406557727332 0 0 0 0.0044910536525989029 0.087016385757278006 -0.029854286512941974 0 -0.029854286512941974 0.011637905767252599 0 0 0 0.024663572881132703 0.07977547719718836 -0.024534896771979564 0 -0.024534896771979564 0.02422886877882191 0 0 0 0.026001086494002568 0.011056522218802134 -0.005764525305670759 0 -0.005764525305670759 0.033107981867460855 0 0 0 0.011041126021565749 0.11634735110106742 -0.017599137588920288 0 -0.017599137588920288 0.030841555894608907 0 0 0 0.03679722674891911 0.015110920847035561 -0.008023959907916314 0 -0.008023959907916314 0.04523349595982111 0 0 0 0.015086104201714169 0.083657166032456154 -0.01531777411969798 0 -0.01531777411969798 0.03262781291715533 0 0 0 0.029071244737402913 0.076877202909633069 -0.025614461313591796 0 -0.025614461313591796 0.022393758715236189 0 0 0 0.024817740406217315 0.013487735064162482 -0.014263552912853902 0 -0.014263552912853902 0.021704622737858115 0 0 0 0.0087980894505051421 -0.0081416478235656203 -0.020229117490373122 0 -0.020229117490373122 0.033288350310198778 0 0 0 0.0062866756216582997 0.014227064901981709 -0.015516162971655284 0 -0.015516162971655284 0.028013664470424582 0 0 0 0.010560182343101618 -0.027458963672088957 -0.019769660246453418 0 -0.019769660246453418 0.021739581003059782 0 0 0 -0.001429845667257304 0.014320539231915175 -0.00344380699767248 0 -0.00344380699767248 0.044944338239536169 0 0 0 0.014816219367862857 0.0086004366933306042 -0.001498420290325958 0 -0.001498420290325958 0.011794536690045154 0 0 0 0.0050987433458439257 -0.012336066012300636 -0.0077479631845634445 0 -0.0077479631845634445 0.11915943951989379 0 0 0 0.026705843376898301 0.009759819190396285 0.0064334460263379689 0 0.0064334460263379689 0.045431232136367905 0 0 0 0.013797762831691041 0.022669124862401455 -0.0063037116314040298 0 -0.0063037116314040298 0.017750918499326751 0 0 0 0.010105010840432055 0.030015447649974082 -0.0085611810744490313 0 -0.0085611810744490313 0.044415367298326805 0 0 0 0.018607703737075224 0.021298304019467307 -0.0089931705509519316 0 -0.0089931705509519316 0.042217528391467973 0 0 0 0.01587895810273382 0.029659111568155511 -0.013867319991646608 0 -0.013867319991646608 0.045234972401545226 0 0 0 0.018723520992425205 0.029378427302603843 -0.012571429168938553 0 -0.012571429168938553 0.063854803495991957 0 0 0 0.02330830769964895 0.045191524286091925 -0.024136240755845764 0 -0.024136240755845764 0.047538140566993153 0 0 0 0.023182416213271259 0.050343169654629844 -0.025795556248945084 0 -0.025795556248945084 0.027163153482791476 0 0 0 0.019376580784355311 0.038310597295175289 -0.015944907442186407 0 -0.015944907442186407 0.025643353227345789 0 0 0 0.01598848763063028 0.039981597016587656 -0.020287502767252698 0 -0.020287502767252698 0.021843253167643017 0 0 0 0.015456212546057668 0.036174966943649717 -0.014748969327226502 0 -0.014748969327226502 0.019844815379937542 0 0 0 0.014004945580896835 0.039531130606004938 -0.019616788914727706 0 -0.019616788914727706 0.011196615236961027 0 0 0 0.012681936460741533 0.022353241435199463 -0.01837804576616775 0 -0.01837804576616775 0.022317432091190748 0 0 0 0.01116766838159753 0.03591191186456108 -0.017747086371529552 0 -0.017747086371529552 0.015308176076994084 0 0 0 0.012805021985388826 0.034237106223148572 -0.019664949041310276 0 -0.019664949041310276 0.011398491016034074 0 0 0 0.011408899309795661 0.027016220228304466 -0.019522778458693671 0 -0.019522778458693671 0.01799044332042038 0 0 0 0.011251665887181239 0.03874583427096269 -0.021395139573413574 0 -0.021395139573413574 0.0090071562301463071 0 0 0 0.011938247625277273 0.037250241500981496 -0.01948714530301747 0 -0.01948714530301747 0.012784826154996431 0 0 0 0.012508766913994496 0.034626558135186142 -0.021001396309668879 0 -0.021001396309668879 0.018765885427964202 0 0 0 0.013348110890787607 0.051235225612903751 -0.0190460175344392 0 -0.0190460175344392 0.0065853141594516273 0 0 0 0.014455134943088865 0.045144816972295332 -0.021027317831824377 0 -0.021027317831824377 0.013359072562231081 0 0 0 0.01462597238363161 0.04279885926182167 -0.019593599583800969 0 -0.019593599583800969 0.0088292625214570486 0 0 0 0.0129070304458197 0.047891140506651109 -0.018395608989342366 0 -0.018395608989342366 0.0063186024065741142 0 0 0 0.013552435728306306 0.050663992171003494 -0.019981373130711078 0 -0.019981373130711078 0.006539912637694878 0 0 0 0.014300976202174614 0.048480390233708454 -0.011000415146120879 0 -0.011000415146120879 -0.00027146618131090872 0 0 0 0.012052231013099463 0.042504855189918783 -0.017453225828747893 0 -0.017453225828747893 0.004304097907087634 0 0 0 0.011702238274251597 0.052105186696778494 -0.013750642305852545 0 -0.013750642305852545 0.0077608154230963677 0 0 0 0.014966500529968674 0.036550374696845633 -0.018463073612763448 0 -0.018463073612763448 0.022695535623886487 0 0 0 0.014811477580183086 0.044150854937661799 -0.017208340700795619 0 -0.017208340700795619 0.013673199721763063 0 0 0 0.01445601366485616 0.036584719066158095 -0.020502143162719089 0 -0.020502143162719089 0.012992240498925139 0 0 0 0.012394239891270808 0.040181372867862775 -0.016662472554498653 0 -0.016662472554498653 0.012198977853322912 0 0 0 0.013095087680296463 0.038572368267315554 -0.018216983358874062 0 -0.018216983358874062 0.022989080419273056 0 0 0 0.015390362171647159 0.044777550121188225 -0.016315591650595575 0 -0.016315591650595575 0.026074704220298006 0 0 0 0.017713063585371613 0.042920690582038956 -0.016983816391378012 0 -0.016983816391378012 0.039141455222683863 0 0 0 0.020515536451180705 0.033276570210739875 -0.019373330432536862 0 -0.019373330432536862 0.03488704328900083 0 0 0 0.01704090337493519 0.036664512699711382 -0.018317268076032289 0 -0.018317268076032289 0.029586566851211415 0 0 0 0.016562769887730699 0.039373908396314217 -0.013828920674433667 0 -0.013828920674433667 0.053901628175358152 0 0 0 0.02331888414291805 0.082279737457469415 -0.014211631680538739 0 -0.014211631680538739 0.053236475011882778 0 0 0 0.033879053117338076 0.022901089002062388 -0.010603077275805232 0 -0.010603077275805232 0.068573247665647805 0 0 0 0.022868584166927542 0.042575179057881773 -0.015342213262139803 0 -0.015342213262139803 0.056773985703307661 0 0 0 0.024837291190297373 0.068069766545485577 -0.018426304300552587 0 -0.018426304300552587 0.058021116288938135 0 0 0 0.031522720708605845 0.068453957442720537 -0.016335251922309446 0 -0.016335251922309446 0.048877322947909141 0 0 0 0.029332820097657475 0.084843481489238703 -0.01246229695729173 0 -0.01246229695729173 0.044534849793229636 0 0 0 0.03234458282061714 0.018471655434043964 -0.016223757095128272 0 -0.016223757095128272 0.046714969484195956 0 0 0 0.016296656229560023 0.018929711767448992 -0.009586564336590133 0 -0.009586564336590133 0.0566847971599449 0 0 0 0.018903627231848474 0.074198790604686704 -0.01456310183249733 0 -0.01456310183249733 0.042030529680581186 0 0 0 0.029057330071316945 0.066421090466815658 -0.02218581946098297 0 -0.02218581946098297 0.025116577695809772 0 0 0 0.022884417040656357 0.091661913633853898 -0.012949880095315502 0 -0.012949880095315502 0.03612626264415475 0 0 0 0.031947044069501995 0.016398160821915336 -0.016501237218768394 0 -0.016501237218768394 0.03406963810435476 0 0 0 0.012616949731567545 0.023525265310370885 -0.021945751024259746 0 -0.021945751024259746 0.01877218292241381 0 0 0 0.010574362058196146 0.023436589778304678 -0.020625472705578296 0 -0.020625472705578296 0.02450851765023529 0 0 0 0.011986276857134992 0.028936041611056729 -0.017393751475333341 0 -0.017393751475333341 0.038371073161539759 0 0 0 0.016826778693149108 
</DataArray>
<DataArray type="Float64" Name="cross_section_updated" format="ascii">
1 1 1 1 1 1 1 1 1 1 1 1 1 1 1 1 1 1 1 1 1 1 1 1 1 1 1 1 1 1 1 1 1 1 1 1 1 1 1 1 1 1 1 1 1 1 1 1 1 1 1 1 1 1 1 1 1 1 1 1 1 1 1 1 1 1 1 1 1 1 1 1 1 1 1 1 1 1 1 1 1 1 1 1 1 1 1 1 1 1 1 1 1 1 1 1 1 1 1 1 1 1 1 1 1 1 1 1 1 1 1 1 1 1 1 1 1 1 1 1 1 1 1 1 1 1 1 1 1 1 1 1 1 1 1 1 1 1 1 1 1 1 1 1 1 1 1 1 1 1 1 1 1 1 1 1 1 1 1 1 1 1 1 1 1 1 1 1 1 1 1 1 1 1 1 1 1 1 1 1 1 1 1 1 1 1 1 1 1 1 1 1 1 1 1 1 1 1 1 1 1 1 1 1 1 1 1 1 1 1 1 1 1 1 1 1 1 1 1 1 1 1 1 1 1 1 1 1 1 1 1 1 1 1 1 1 1 1 1 1 1 1 1 1 1 1 1 1 1 1 1 1 1 1 1 1 1 1 1 1 1 1 1 1 1 1 1 1 1 1 1 1 1 1 1 1 1 1 1 1 1 1 1 1 1 1 1 1 1 1 1 1 1 1 1 1 1 1 1 1 1 1 1 1 1 1 1 1 1 1 1 1 1 1 1 1 1 1 1 1 1 1 1 1 1 1 1 1 1 1 1 1 1 1 1 1 1 1 1 1 1 1 1 1 1 1 1 1 1 1 1 1 1 1 1 1 1 1 1 1 1 1 1 1 1 1 1 1 1 1 1 1 1 1 1 1 1 1 1 1 1 1 1 1 1 1 1 1 1 1 1 1 1 1 1 1 1 1 1 1 1 1 1 1 1 1 1 1 1 1 1 1 1 1 1 1 1 1 1 1 1 1 1 1 1 1 1 1 1 1 1 1 1 1 1 1 1 1 1 1 1 1 1 1 1 1 1 1 1 1 1 1 1 1 1 1 1 1 1 1 1 1 1 1 1 1 1 1 1 1 1 1 1 1 1 1 1 1 1 1 1 1 1 1 1 1 1 1 1 1 1 1 1 1 1 1 1 1 1 1 1 1 1 1 1 1 1 1 1 1 1 1 1 1 1 1 1 1 1 1 1 1 1 1 1 1 1 1 1 1 1 1 1 1 1 1 1 1 0.0020386580592633243 1 1 0.0021000223441221709 1 1 0.0021422041611035732 1 1 1 1 1 1 1 1 1 1 1 1 1 0.0021808014630065303 1 1 1 1 1 0.0022193036626405433 1 1 1 1 1 1 1 1 1 1 1 1 1 1 1 1 1 1 1 1 1 1 1 1 1 1 1 1 1 1 1 1 1 1 1 1 1 1 1 1 1 1 1 1 1 1 1 1 1 1 1 1 1 1 1 1 1 1 1 1 1 1 1 1 1 1 1 1 1 1 1 1 1 1 1 1 1 1 1 1 1 1 1 1 1 1 1 1 1 1 1 1 1 1 1 1 1 1 1 1 1 1 1 1 1 1 1 1 1 1 1 1 1 1 1 1 1 1 1 1 1 1 1 1 1 1 1 1 1 1 1 1 1 1 1 1 1 1 1 1 1 1 1 1 1 1 1 1 1 1 1 1 1 1 1 1 1 1 1 1 1 1 1 1 1 1 1 1 0.0022585576014962096 1 1 1 0.0022993372560054215 1 1 0.0023420859556086589 1 1 1 1 1 1 1 1 1 1 1 0.0023875873967748778 1 1 1 1 0.0024373176789232709 1 1 1 1 1 1 1 1 1 1 1 1 1 1 1 1 1 1 1 1 1 1 1 1 1 1 1 1 1 1 1 1 1 1 1 1 1 1 1 1 1 1 1 1 1 1 1 1 1 1 1 1 1 1 1 1 1 1 0.0010679527852510268 1 1 1 1 1 1 1 1 1 1 1 1 1 1 0.0010932819982982852 1 1 0.0010799427824203841 1 0.0011084445509312397 1 1 1 1 1 1 1 1 1 1 1 1 1 0.0011260855362386518 1 1 1 1 1 1 1 1 1 1 1 1 1 1 1 1 1 1 1 1 1 1 1 1 1 1 1 1 1 1 1 1 1 1 1 1 1 1 1 1 1 1 1 1 1 1 1 1 1 1 1 1 1 1 1 1 1 1 1 1 1 1 1 1 1 1 1 1 1 1 1 1 1 1 1 1 1 1 1 1 1 1 1 1 1 1 1 1 1 1 1 1 1 1 1 1 1 1 1 1 1 1 1 1 1 1 1 1 1 1 1 1 1 1 1 1 1 1 1 1 1 1 1 1 1 1 1 1 1 1 1 1 1 1 1 1 0.0010111443800934164 1 1 0.0010275835698073689 1 0.0010376842396976336 1 1 1 1 1 1 1 1 1 1 1 1 1 1 1 1 1 1 1 1 1 1 1 1 1 1 1 1 1 1 1 1 1 1 1 1 1 1 1 1 1 1 1 1 1 1 1 0.0010571308293734001 1 1 1 1 1 0.0010472264624101207 1 1 1 1 1 1 1 
</DataArray>
<DataArray type="Float64" Name="displacement_divergence" format="ascii">
-3.2932651217607612e-05 -3.6693040868745158e-05 -2.7837604865903263e-05 -3.2124149576436929e-05 -3.0558547310685625e-05 -3.0541856657704542e-05 -2.8280520171406058e-05 -2.9788477189479554e-05 -2.7254400393954205e-05 -2.0625312177603019e-05 -3.0164687612898401e-05 -1.9349987198754452e-05 -3.6581332490003013e-05 -2.7758513181259437e-05 -4.4334632947611044e-05 -3.4921269928723707e-05 -2.9949345302945417e-05 -3.2752689553156708e-05 -4.9428520000318451e-06 -8.8484186218882737e-06 -9.5471690653913933e-06 -1.6972631407589695e-05 -1.9924304270141981e-05 -1.223092649099064e-05 -1.4258520989280771e-05 -1.8055910771950712e-05 -1.9505517880864156e-05 -1.7344386474139911e-05 -7.300356163506136e-06 -8.6938921600018468e-06 -4.4643445671548276e-06 -1.5769763242028258e-07 -1.694100439907423e-06 -1.0785934150076628e-06 -8.7621175896897234e-06 -1.9243747305174399e-05 -1.5800212969551572e-05 -9.6442268582959132e-06 -1.8159048122586374e-05 -2.1142612152313339e-05 -1.5111521637040701e-05 -9.8162896196878671e-06 -9.6216392010355294e-06 -1.8591349484594936e-06 -1.0086513111076263e-05 -5.7707488768365631e-06 5.2770728908222949e-06 -5.7342522611424454e-07 -4.4044036537348756e-05 -3.3754618873843938e-05 -5.0554486174869607e-05 -3.3231884358046301e-05 -2.5768059588221403e-05 -2.7968293072322189e-05 -2.8406463298357881e-05 -3.1530675470544181e-05 -2.29092290529998e-05 -3.394829829014523e-05 -2.6859398186320371e-05 -3.2192874813772637e-05 -4.599665945060862e-05 -4.4131912943408474e-05 -4.185777736694141e-05 -5.7532305442364046e-05 -6.0911480189153604e-05 -4.3206736854764629e-05 -4.9998815886963647e-05 -6.8353116867940768e-05 -5.104959129946991e-05 -5.1737252108157609e-05 -5.3604892745680966e-05 -7.7637040511222919e-05 -2.8358816478489312e-05 -2.4095975973959932e-05 -3.9774608188863457e-05 -3.7282463000369835e-05 -2.4741948270409846e-05 -4.3501904308168471e-05 -3.8270240615850518e-05 -3.31026624801287e-05 -2.3392023679988562e-05 -1.5076926113216808e-05 -1.4035094504920366e-05 -1.0946430990235091e-05 -5.8291480754061894e-06 -2.4205378872946155e-05 3.5117142427711223e-06 -1.2807728773844075e-06 -1.2613491028791682e-06 1.1160218664784509e-05 5.6008087618153689e-06 3.0128633534394914e-06 1.3185871833742485e-05 1.8068265668463659e-05 -1.3007302411747797e-05 -1.8765018502127436e-05 -1.6626852383047974e-06 -5.28819111761827e-06 -8.4113488806837535e-06 -1.3571735074050602e-05 1.8844761406275063e-06 -1.226296819110197e-05 3.2774669117519091e-05 3.8511986485883023e-06 1.3606010061478518e-05 2.3921758488133375e-05 3.5070234383641593e-05 3.020399342927902e-05 2.6643222980844532e-05 2.9153457243560828e-05 5.8771128074459346e-05 -4.3263428334337599e-07 9.4983117225986576e-06 1.1178902171448367e-05 -1.2169759503593777e-05 -1.4140652744069161e-05 -2.8902738758845766e-05 -3.796270809811248e-05 -4.3384327574719808e-05 -5.4173540598920742e-05 -7.7093121237651078e-05 -5.73090039841977e-05 -5.5357956178820114e-05 -6.1381925262890964e-05 -4.9440560257383822e-05 -7.9770141524388756e-05 -5.773705385088269e-05 -3.5856672181812453e-05 -2.3794710131536958e-05 -3.877205387746911e-05 5.4127503429929571e-05 4.6491356313456746e-05 4.2585870363862782e-05 4.5363329184688608e-05 5.2476623126509054e-05 6.101913373387891e-05 5.432864601711987e-05 5.1735388958429326e-05 5.5011970240908048e-05 5.1554040738997287e-05 4.384610938693461e-05 5.2044247108177025e-05 4.8053359022876704e-05 5.1993491777768778e-05 5.7600205155886532e-05 0.00011132912157422548 5.0668536127899776e-05 7.437563799840086e-05 4.6889094443939788e-05 0.00010285119800634905 6.5061031477266424e-05 0.00010036288787253299 5.885056780960775e-05 5.0985568878246946e-05 6.061523946583971e-05 3.81583687307135e-05 3.7904550113780234e-05 5.2615926714527331e-05 4.1321794381930874e-05 5.3839697269497861e-05 3.1594962679356542e-05 4.7203802590065773e-05 3.6181356496147257e-05 3.3732307640096179e-05 2.4161862073743562e-05 2.9390218275711624e-05 2.9129519402514906e-05 2.7518458665253127e-05 1.6861134751230712e-05 2.0422534858232213e-05 1.7954777333247857e-05 1.276545168898567e-05 8.5824993278601926e-06 2.8199267330792359e-05 2.602892241244303e-05 2.4198983607838029e-05 2.1001295713223857e-05 2.9539733331175484e-05 2.6783322717596516e-05 3.5307343008721943e-05 3.390105240664093e-05 3.3582034584959535e-05 3.8137802896236364e-05 3.318338766121942e-05 4.5989327858249362e-05 4.1682648851296434e-05 3.8773696958072001e-05 4.9613493640058166e-05 3.6827961060530398e-05 6.3388418888190245e-05 4.459658539776091e-05 5.4960075620161956e-05 4.2369350704582956e-05 5.0342687719162773e-05 5.2904459444252954e-05 4.0747183346360387e-05 4.3634780412433132e-05 4.3675056178932624e-05 3.7447682865801037e-05 2.9943506631581185e-05 3.5202377236705706e-05 3.4967457775128716e-05 2.7886235622751193e-05 2.4898322115305306e-05 2.8658869160232043e-05 3.1658179064229957e-05 2.6989436030385675e-05 2.6498648846905278e-05 2.1685005891338226e-05 2.9410185600190688e-05 2.8328431172016494e-05 3.330941191373625e-05 3.045795575562421e-05 3.1314250740386386e-05 9.6388615378119826e-06 1.2843512627311902e-05 7.575852350332883e-06 1.5735294493172088e-05 1.7225148926298592e-05 1.9545517624356806e-05 2.0999671595359227e-05 2.32132809387177e-05 2.0991278401410191e-05 1.8249891886556147e-05 2.0761980939471259e-05 1.6532525449638729e-05 1.3421066828206494e-05 7.4538644001955642e-06 5.8638706969571213e-06 6.0371629685336298e-06 4.7079282705376471e-07 3.7072403058660309e-06 4.1784760392758963e-07 3.9291726167424017e-06 1.0379109607373745e-05 9.520838143968065e-06 1.1414926095050333e-05 1.4522870446876918e-05 1.6269894242787034e-05 1.9833618798355311e-05 1.7792188187665285e-05 1.4588130438984378e-05 1.4959787606480694e-05 7.2253478499768496e-06 5.1951275310094144e-06 -1.0206516813992674e-06 2.9165661561470572e-05 2.8855738362915992e-05 2.4994942111649993e-05 2.4888675341296486e-05 2.1884183864921361e-05 2.5205024444354134e-05 2.3719378954988132e-05 2.1469768999258996e-05 2.9012007404863052e-05 2.5739439610433382e-05 3.1220363971772212e-05 2.616453579271456e-05 2.783679945360751e-05 3.2430807843126344e-05 2.891050320424138e-05 3.7419618600711137e-05 2.7505500929841812e-05 3.3341190231829812e-05 3.1724284034304726e-05 3.134991172692871e-05 2.8518403468649424e-05 3.3781343481028892e-05 2.8860568435298589e-05 2.8084713208726639e-05 2.5212675486949573e-05 3.056749235136515e-05 2.9634431069443786e-05 3.7011526576677019e-05 3.6430209232956646e-05 2.743484239833402e-05 3.0293633497099972e-05 2.9458941676719825e-05 2.1016820606862477e-05 1.8409268295006684e-05 1.2203372610135127e-05 3.0611754304442091e-06 8.4405366522099484e-06 1.3859919042656428e-05 2.1267191640586553e-05 7.7877859019112421e-06 1.7371725251478631e-05 2.3141247595543742e-05 2.7778602152464739e-05 2.7704639139528911e-05 2.4614604795330477e-05 3.306839430602925e-05 1.7326374802284061e-05 1.2669035495183124e-05 1.9220362477247439e-05 2.1810845511975978e-05 6.8789447322502724e-06 1.6984367900778864e-05 2.5275053386731767e-05 2.0685778211622072e-05 3.7740676419443685e-05 2.6742788478642179e-05 2.36280020706396e-05 3.1187270619938417e-05 3.0575938260791385e-05 3.5971692837153607e-05 4.8262300402917974e-05 4.1777309830768012e-05 4.4501884392955306e-05 3.5861241372080371e-05 4.0608680848925796e-05 4.7206889218556889e-05 3.8720574862823009e-05 4.403088595658263e-05 3.5127198679599266e-05 3.4062181424677331e-05 3.2895044613267835e-05 3.6377513775431752e-05 2.9286915619837786e-05 3.4515295255830511e-05 2.9195130676647133e-05 3.2469016482895585e-05 2.9823649409964144e-05 3.2817552205128026e-05 3.5538378903556599e-05 -6.4430043708698341e-05 -4.431325843167708e-05 -4.7960599309114401e-05 -3.9069270486003707e-05 -3.4776302016264001e-05 -4.1271666311692526e-05 -4.6686503018498633e-05 -4.083847224654639e-05 -3.8595075019676139e-05 -3.4424395831210157e-05 -3.7087710538321112e-05 -3.7063369333719038e-05 -3.4990664163864655e-05 -2.2709035691378098e-05 -3.4666003318544661e-05 -5.290484031060284e-05 -2.1526964018064828e-05 -4.1217742294519751e-05 -2.149774791732289e-05 -1.9537171562288599e-05 -2.161628842346481e-05 -1.8428523710807699e-05 -2.1831114033849161e-05 -9.8450913849396171e-06 -1.0847430301172027e-05 -5.118513977459481e-06 -7.2612017136689856e-06 4.759727065512796e-06 8.9769518392291411e-06 -1.0825114152206248e-06 -4.8239865326569754e-06 -3.8989621964794062e-06 1.3599272616888038e-06 1.0133571706499561e-05 -7.5415169904767293e-06 6.0243022486328418e-06 -1.2614196020366885e-06 -1.0519737618195221e-05 1.0149173319545823e-05 -6.1927069721418097e-06 -2.4836557233960218e-06 -3.0062363793578742e-05 -2.5057859097792492e-05 -2.3356286650158401e-05 -4.8398803828139718e-06 -1.9269235171687999e-05 -3.78983011923026e-05 -3.0811408035634449e-05 -4.5614555531379037e-05 -3.5084938389959899e-05 -4.7721444609948033e-05 -2.5218205861223462e-05 -4.1527917286849069e-05 -7.1965858807706448e-05 -7.6034047766123235e-05 -9.0411513153073703e-05 -6.4099620047827912e-05 -7.5474184857880918e-05 -4.6870534050954647e-05 -6.6846118954197068e-05 -4.4616854182262622e-05 -9.2280072332246886e-05 -0.00014168927869291913 -8.5472391801358187e-05 -8.855223478343388e-05 -0.00011973628851375232 -0.00010379132124871326 -6.8901490534771449e-05 -8.0444541708787356e-05 -7.6114687410122175e-05 -4.4123709302144801e-05 -4.7606382394928891e-05 -3.6868509609136899e-05 -4.0281347038691759e-05 -6.000379165974669e-05 -4.6079704409915865e-05 -2.96046099193401e-06 1.2578919818874646e-05 1.562730209073149e-05 -3.093336592648098e-05 -1.1472475943357465e-05 -3.5449406884080057e-05 -1.9503566933523601e-05 -1.291866544402371e-05 5.8085915467308524e-06 -1.2023950593008643e-05 6.1702537725542912e-06 2.6588239385651896e-05 1.4862284614401653e-05 3.3483305038240196e-05 1.4216519074512662e-05 3.1403264725619617e-05 5.3130701795247717e-05 2.201716744883155e-05 4.8961408867435196e-05 5.3771263936584106e-05 9.2445398446512953e-05 9.0738004823405439e-05 4.5107243236061515e-05 3.6162973724196906e-05 9.6959429998062199e-05 0.00016206814733012907 0.00014849787902453422 0.00016123056967432166 0.00010680520051297511 7.2752395286029858e-05 8.8537091000591146e-05 6.6055841506524189e-05 2.3491710501743969e-05 1.297457814381978e-05 3.2726997934401196e-06 -1.816918119967149e-05 4.5158533372113353e-05 -1.2813084621661811e-05 -5.5177975649467362e-05 -6.245127623803569e-05 -2.9148264014484753e-05 -4.6593967326485181e-05 -3.1416738372193071e-05 -7.5710953254512047e-05 -4.246290296181746e-05 -6.2469518144514166e-05 -9.3171549417008165e-05 -9.3502745367070881e-05 -0.0001424934259744965 -0.00010432684869814889 -0.00014807809602270392 -0.00011168037106951779 -8.1150723263363663e-05 -0.00010022471990362857 7.0305249865868825e-05 7.7344668348699691e-05 8.147251728422054e-05 7.5564821857471872e-05 6.9986116004481605e-05 5.9264037513126876e-05 5.2777815356071742e-05 6.6192457484849475e-05 4.6691076139014382e-05 5.4660345706719357e-05 3.9212980023028316e-05 5.3334428979446374e-05 4.5297623487884677e-05 5.5128612351870062e-05 5.9119856457218725e-05 5.1823438110547937e-05 4.6125786939928853e-05 3.6272560469003708e-05 5.5737523739580241e-05 5.1953902532040804e-05 6.3904029243104903e-05 3.6152022124604431e-05 4.6018263470384214e-05 5.93687560454497e-05 7.2634111947573684e-05 9.3323301680266503e-05 7.3046058000766142e-05 7.9018693964027527e-05 7.8267911918457957e-05 9.7393396830646625e-05 0.00011159878349022067 0.00013863582407430566 0.00014949069041932746 0.00013637723372161045 0.00012019247130888968 0.00012817838127070834 0.0001546572008281294 0.00014992060503052319 0.00026183918772530084 0.00032327624078411232 0.00031218383301992594 0.00021175667680725343 0.00011386476262470924 0.00015122477174893401 0.0001954846362614066 0.00011555864103496017 0.00012289409762618851 0.00012767451190495924 9.0356088381711008e-05 0.00011277717471089082 7.5019119743070786e-05 9.4852327219579631e-05 7.2167602380186763e-05 9.8794099812067604e-05 6.0677825009166867e-05 7.5831000262553975e-05 8.5047142996487455e-05 7.1147955192612928e-05 6.2585304381308188e-05 9.5165865157181208e-05 6.7383535559405771e-05 5.7657188311842648e-05 7.8061890222200518e-05 5.2986084482709766e-05 4.1568611358268066e-05 6.0599209143355365e-05 6.3096990211623371e-05 3.9238141245570286e-05 7.3838613939377858e-05 5.4311559465610316e-05 6.2809540074071173e-05 0.00010195101336545187 8.379011559696975e-05 8.2268354798319744e-05 9.084281634946159e-05 0.00012114669962634222 0.00012653747672512517 0.00015361820813168794 0.00034982255269106686 5.9296870875845257e-05 0.00015050085268261812 0.00032495200378524435 0.00020583333750056275 0.02003601682412634 0.00029708557670790549 0.00016091784895753015 0.04996160797618842 6.0111299459599974e-05 0.00015497319646764088 0.071224064296793774 7.6720029053434907e-05 0.00011916116945539547 5.7496212096658738e-05 8.278462303761843e-05 7.9209253548745808e-05 7.3644131537516598e-05 7.1986313022583397e-05 9.9286237535565407e-05 0.00010207252082810155 8.0830265926964961e-05 0.00011739495116379686 0.00014726821123608536 0.00015951937830909575 0.090478095936562683 0.00015556895596253377 0.00015073575608297871 0.00013542787007552034 0.00016666978953303567 0.00013092584252853397 0.10974096330389935 0.00015599187318312245 9.2924694096853866e-05 7.4118812868408297e-05 0.00011938454544993104 9.8678705840868494e-05 0.00010752094570326537 6.8849235979669457e-05 6.8749427790366609e-05 7.0848596734083652e-05 4.9649965945405394e-05 5.3001909558623517e-05 4.0766755356705036e-05 4.3919444569464044e-05 3.9153865831700928e-05 4.7022244656775272e-05 4.6960251491113495e-05 3.4509791892102894e-05 4.820932998549955e-05 4.1243066625582606e-05 4.8078879601182929e-05 5.6574998203753099e-05 6.2833095124538224e-05 -7.885842017637298e-05 -9.3245704031250012e-05 -5.5913044285641009e-05 -0.00012353929192706389 -0.00012463324127669781 -7.7671914222407924e-05 -8.0426052445078857e-05 -4.5326347649929941e-05 -2.1261660474996701e-05 8.692418367573472e-06 -3.0889585116257185e-05 -1.4680257526690282e-05 -4.8908648178671611e-05 -1.4351651144612742e-05 5.4859213519438984e-05 2.0833277387384812e-05 8.7061978753586193e-05 2.3151069918522045e-05 -1.5046020171696674e-05 4.4697520418558083e-05 3.838742132631647e-05 0.00011533706666124041 0.00017658305853972896 0.00013246907640837634 0.00014429793772262556 7.7081724867947895e-05 0.00010290809713973817 0.00012241180537605947 6.4047606841570719e-05 6.4252117175848337e-05 0.00010289788260435008 0.00010324918618722159 0.00011377064260542245 0.00010136513727460255 7.1770455528236089e-05 6.4863498540978972e-05 3.5506145846644368e-05 3.999234647980354e-05 3.1654516954260532e-05 8.0872558505529213e-07 3.3419396715976286e-05 4.178153816138553e-05 9.364300569184112e-06 3.5480017680993123e-06 -2.3816317868139217e-05 -2.692407903637101e-05 -2.6250210807305004e-05 -2.5804242459491001e-05 -4.885095845896803e-08 1.1980879119421551e-06 -1.0030852909266173e-05 -2.3730219042696326e-05 -3.3004871454241341e-05 -5.1538385656326596e-05 -2.3919616447273719e-05 -3.9364824991795864e-05 -7.6082710650304548e-05 -5.6549066441476808e-05 -5.4909716907099778e-05 4.7393496195424875e-06 -1.4823358961260635e-05 1.5956027498943356e-06 -1.9136714613449471e-05 -1.7439360577747517e-05 -3.6710617094410855e-05 -3.1179605902521834e-05 -1.9923516323924403e-05 -8.9916087024606919e-06 -3.9911274676311323e-06 2.0618487790455622e-06 1.472397544618597e-05 1.5671154230522538e-05 -3.731412557635063e-07 1.6915615680971208e-05 4.3262730200128302e-05 5.157119895059627e-05 6.508017047524451e-05 1.8671716314176863e-05 1.192503187747232e-05 3.5806625815632811e-05 3.3768487004376922e-05 5.5136971936603149e-05 4.3904188691769666e-05 8.7324859894185973e-05 8.7255304867136368e-05 6.9229837278792818e-05 9.8841333496952613e-05 0.00013430567375121404 0.00010909753556588488 0.00013311440686776099 7.8129640462783824e-05 0.00010044281642775251 0.0001410311378509518 0.00011532122244686197 0.00015179223093915624 0.00013202605975824386 0.00017506028243354822 0.00018809765711321489 0.00013222438517645173 0.00010334483940461006 4.0872969101267073e-05 5.1926767457727459e-05 6.6869688816450709e-05 4.2905868021184644e-05 8.4040286589091504e-05 5.8642876386564256e-05 7.9879263190390203e-05 2.3350090679425013e-05 1.6403868594071572e-06 1.834392073844348e-05 1.2245043981011679e-05 2.1181014294471313e-05 1.8772427755119753e-05 1.0925819525027872e-05 2.2009124359153101e-05 1.3786689518351276e-05 8.7213579118249063e-06 1.1657310013250192e-05 9.9805450159886483e-06 7.3398194399771147e-06 1.190624460230532e-05 4.8090441005337048e-06 5.1819014290848493e-06 -8.5569135382526987e-06 5.8922192221348962e-05 9.8526563539552952e-05 9.4477923857739479e-05 7.9388319447408961e-05 5.0226808316512469e-05 3.6946657385660171e-05 3.4459418147165469e-05 4.596089089503911e-05 3.5616401910803933e-05 3.5315402466815418e-05 5.9203348031336466e-05 5.8854197601712773e-05 5.484456525725419e-05 8.2109224309272894e-05 8.2474742499556762e-05 0.00011049916697349667 0.00014466652189467938 0.00017021809890881341 0.000127307655199595 0.00015175294973711773 0.00019069468591324888 0.00015903263252438479 0.12937868428006427 0.00013890821490089448 0.00018222479335057006 0.00018253288082408902 0.1497555496100986 0.00019051353485020819 0.00020138583005609211 0.17123817339539027 0.00018064470631311508 0.00012870296825932218 0.00019252623509293106 0.00012580719709421066 0.00014716052307183684 0.00016607076598646429 0.00013520378199508501 0.00022032009074660498 0.00022478746251898963 0.00018452012135402432 0.0002297065000502951 0.19366332013526535 0.00026408401933347638 0.00024877861328485894 0.00021338159000075952 0.00024090865365432963 0.21988924987989969 0.00029742478912489663 0.00025560030238924551 0.00013317460111104333 0.00024367753381905155 0.00028761369186820784 0.00023419476803281905 0.00015817700060532917 4.7453634841474021e-05 0.0001018149597193476 4.6853460100976978e-05 9.8567089364541517e-05 6.1599086417221541e-05 5.7096364938178171e-05 7.7292014412075311e-05 0.00010058592733145667 3.0801204889083136e-05 4.1966476103590957e-05 3.0923902719658331e-05 4.8358170355649414e-05 2.3508845770734473e-05 2.0721725518185697e-05 -7.0659212599855081e-06 7.0884583969926026e-06 -1.6659905283978021e-05 4.2050408063788562e-06 1.3136442474550019e-05 6.7289272443677209e-06 4.9655966586743599e-05 1.369779800128855e-05 2.1441319997795487e-05 5.5780565596568127e-05 2.7742841465200449e-05 3.3948514896559316e-05 4.7094600069321401e-05 5.4306136251079488e-05 2.3292379427779729e-05 3.0695322803050312e-05 2.4482631675698443e-05 3.1766797767976591e-05 3.16523868758487e-05 3.4071059851327338e-05 3.2533914964448128e-05 2.8322670179975647e-05 3.5174158154404407e-05 3.3507246513619525e-05 4.6906257267430125e-05 6.0360508232790459e-05 4.0884559314959944e-05 3.4769845998141257e-05 4.0821331794730465e-05 5.2053890623653424e-05 3.8257106179474077e-05 2.9166900231996436e-05 3.7561976539892294e-05 3.0397674768592713e-05 3.7720802892610461e-05 3.6037861222550056e-05 9.2576981476710264e-05 0.068003471541919241 9.5128416389673922e-05 8.0613659366703051e-05 7.0317740606830282e-05 4.8242196845785403e-05 5.4569841328757718e-05 5.6321305033940725e-05 9.0091566325397753e-05 7.3845228439626707e-05 8.4924716788050954e-05 7.0221774851338776e-05 0.00010943529474029311 0.00012726988645470538 9.6159816955642199e-05 9.720702322022455e-05 0.093369893618715311 0.00010502650260182521 0.00010603768714431347 0.07999879152023065 0.00012669045965606716 0.10848859096056507 0.00015673262926765266 0.00014041660581421577 0.00012027604581246179 7.9097208796918698e-05 9.537557771510728e-05 0.00013178619820446884 0.00010812462071007742 7.1933875718723384e-05 0.0001440455991200823 0.00017232427558208088 0.00013614091182073251 8.8717255267779148e-05 0.00014137978680626214 0.12639252614944707 0.00017867578877626966 0.00015159564850379236 0.00011268961606478699 7.7557487589511968e-05 7.7734513783146546e-05 0.00010013286609824874 5.7265597414700095e-05 2.6573675189472262e-05 2.3751419514028357e-05 3.8119100457215983e-05 4.8684301683097351e-05 2.9514033459230628e-05 2.2919520218253608e-05 4.0213728724378464e-05 7.4028047445204195e-05 8.7214676155806213e-05 6.2799802495627126e-05 7.2123142133930819e-06 4.2855903788080463e-06 5.9071509426522587e-06 6.9386613007083736e-06 4.0617190855008617e-06 6.9379794828709415e-06 1.2877380959184885e-05 5.7109729477136315e-06 9.2065892587937824e-06 9.41771702692531e-06 7.5419930209348097e-06 -3.2492239323141613e-06 9.3808477954125625e-06 6.3496638833186562e-06 1.3433491078813876e-06 -7.1389213048548567e-06 2.3031051787766529e-06 -1.379209711728762e-05 1.0364712977450202e-06 -2.0273611092878029e-06 -1.3357103140057016e-05 -4.3035751020321206e-06 8.7850597045649459e-06 5.7323882208248911e-06 7.5307853190887883e-06 -5.3732981394284327e-06 -4.3833759228590599e-06 7.8756169327848756e-06 -9.2126881651097281e-06 -1.3863687227265789e-05 -1.957562848001063e-05 -1.6820102876082725e-05 -2.8136605438040417e-05 -1.5216340296466974e-05 5.3704712915743705e-05 4.4965843011495355e-05 6.9643000048707875e-05 5.3763606704142295e-05 2.321700084616761e-05 1.9138669989347129e-05 3.4672277719972801e-05 2.8385384200490995e-05 1.9533165234056327e-05 1.4251118814749553e-05 1.6166629452480069e-05 4.5740274231302006e-05 3.8136371253707276e-05 7.1024605540537245e-05 5.7606258474595003e-05 6.2812911254170518e-05 4.588590291766388e-05 4.884019979054942e-05 5.4039162692262957e-05 3.0280129754851112e-05 3.7423568839051028e-05 2.6792063103623764e-05 9.5179814078084381e-06 5.026571419071554e-06 2.6129091720680943e-05 1.2360945895215341e-05 2.1661130129723913e-05 3.8500152239180586e-06 8.4970558872654069e-06 4.4651450143675091e-05 5.1876575201329237e-05 5.0594899039294559e-05 2.4809895621225389e-05 4.1759634056144548e-05 -2.8532232896526667e-05 -3.8381276246082775e-05 -3.0174747579529205e-05 -3.7646894037274455e-05 -2.2408303847260523e-05 -9.1665892624826807e-06 -1.992556807277248e-05 -5.081095886001058e-06 -6.617622041738859e-06 -9.877560462330558e-06 -7.6924579733355787e-06 -6.2359379456569577e-06 -1.705134700418794e-05 -2.3892951630901434e-05 -2.5345245319218467e-05 -2.3809447109049506e-05 -4.0470229929757224e-05 -3.8530790739226971e-05 -4.7446025342027555e-05 -7.0317559715331237e-05 -5.6691172179305742e-05 -4.8084675053250002e-05 -3.7694396273870497e-05 -3.2615951361189425e-05 -1.2676244328546854e-05 -1.1814772589757543e-05 -5.01569959207907e-06 -2.4467569432570291e-05 -2.0304883849408552e-05 -3.1778056220982181e-05 -3.2677579052258995e-05 -4.8573130988675199e-05 -4.6067083443620413e-05 -6.9703013747749202e-05 2.939025228508425e-05 6.4848116961232854e-05 2.89514281260145e-05 2.0901202462841884e-05 2.2105764872257889e-06 7.2682174364122444e-06 2.6605555919307191e-05 1.1203876124662505e-05 -1.715628742209865e-05 -5.8932979384506909e-06 9.9679561136526004e-06 3.7118853099642651e-05 3.7927279678857755e-05 6.8305391914570435e-05 0.00011979476691107986 8.8715190384083668e-06 0.00014472129454902634 0.011227634131497254 6.1658932202831798e-05 6.5002716235006402e-05 0.027602815053914365 9.1993066872297479e-05 0.037715260504285412 7.2678111843507394e-05 6.2044351015543269e-05 2.1995223626262875e-05 1.5716689054145756e-05 2.6400455857753988e-05 -3.5746141681432665e-06 3.7040548419657138e-05 1.2746858364609862e-05 6.6764608442245656e-05 3.4494407079227652e-05 2.5262527101080166e-05 4.6519259342688065e-05 3.9697395256834555e-05 4.6808802481062954e-05 5.8270769249122351e-05 5.7956040533178172e-05 4.8441451960888419e-05 3.9971219076575702e-05 3.8640531365144101e-05 3.5012363952241943e-05 3.1704841151853648e-05 2.7919170953993828e-05 3.2012554963472032e-05 2.8522248274489247e-05 2.8129164717953091e-05 2.9845619063193201e-05 3.1271917284986174e-05 3.3370277226968934e-05 3.6137837357722111e-05 3.6564930959079043e-05 3.2267576114549128e-05 3.3881089320765773e-05 3.5752440505436523e-05 3.0130577532748578e-05 2.9255595685628974e-05 3.7416251324921563e-05 3.7028693950457684e-05 3.6140034162140608e-05 3.0985599728177075e-05 3.2737719200740976e-05 3.8475905429117803e-05 4.4282658963428834e-05 5.1288841127951606e-05 4.2602258437337811e-05 4.1406924719326844e-05 5.8297210357295183e-05 8.469763279334529e-05 0.05717146041731886 6.209322797574347e-05 7.8806801771514907e-05 7.3332050244143869e-05 8.0861457051542877e-05 4.0741640573900003e-05 0.047259068079621186 7.2643325178292553e-05 5.7211042601640468e-05 7.9867610173755231e-05 3.1542374328918737e-05 2.6435905145490352e-05 2.996569214283758e-05 4.2066946732872816e-05 
</DataArray>
</CellData>
</Piece>
</UnstructuredGrid>
</VTKFile>
