<?xml version="1.0"?>
<VTKFile type="UnstructuredGrid" version="0.1" byte_order="LittleEndian">
<UnstructuredGrid>
<Piece NumberOfPoints="3142" NumberOfCells="1054">
<Points>
<DataArray type="Float64" NumberOfComponents="3" format="ascii">
0.5 0.29999999999999999 0 0.54999999999999993 0.29999999999999999 0 0.54999999999999993 0.29999999999999999 0 0.59999999999999976 0.29999999999999999 0 0.59999999999999976 0.29999999999999999 0 0.6499999999999998 0.29999999999999999 0 0.6499999999999998 0.29999999999999999 0 0.69999999999999984 0.29999999999999999 0 0.69999999999999984 0.29999999999999999 0 0.74999999999999989 0.29999999999999999 0 0.74999999999999989 0.29999999999999999 0 0.79999999999999982 0.29999999999999999 0 0.79999999999999982 0.29999999999999999 0 0.84999999999999987 0.29999999999999999 0 0.84999999999999987 0.29999999999999999 0 0.89999999999999991 0.29999999999999999 0 0.89999999999999991 0.29999999999999999 0 0.94999999999999996 0.29999999999999999 0 0.94999999999999996 0.29999999999999999 0 1 0.29999999999999999 0 0.5 0.69999999999999996 0 0.54999999999999993 0.69999999999999996 0 0.54999999999999993 0.69999999999999996 0 0.59999999999999976 0.69999999999999996 0 0.59999999999999976 0.69999999999999996 0 0.6499999999999998 0.69999999999999996 0 0.6499999999999998 0.69999999999999996 0 0.69999999999999984 0.69999999999999996 0 0.69999999999999984 0.69999999999999996 0 0.74999999999999989 0.69999999999999996 0 0.74999999999999989 0.69999999999999996 0 0.79999999999999982 0.69999999999999996 0 0.79999999999999982 0.69999999999999996 0 0.84999999999999987 0.69999999999999996 0 0.84999999999999987 0.69999999999999996 0 0.89999999999999991 0.69999999999999996 0 0.89999999999999991 0.69999999999999996 0 0.94999999999999996 0.69999999999999996 0 0.94999999999999996 0.69999999999999996 0 1 0.69999999999999996 0 0.40076539126862748 0.34589349467022118 0 0.33277555741076909 0.36432196682010132 0 0.36575549820117997 0.31677992835137742 0 0.38083244760691543 0.38531983672244652 0 0.33277555741076909 0.36432196682010132 0 0.40076539126862748 0.34589349467022118 0 0.56836770495988642 0.3523062350852913 0 0.52289427570932567 0.3932284363388488 0 0.52752007115234678 0.33170632466418198 0 0.52752007115234678 0.33170632466418198 0 0.52289427570932567 0.3932284363388488 0 0.49077833859261139 0.35229981449445641 0 0.10000000000041601 1 0 0.053064897599294662 0.95186845269532028 0 0.10266856499240549 0.95548163909968886 0 0.099999999999814668 0 0 0.10266856499169109 0.044518360900210059 0 0.053064897599215843 0.048131547304697528 0 0.050000000000207989 1 0 0.053064897599294662 0.95186845269532028 0 0.10000000000041601 1 0 0.049999999999899652 0 0 0.099999999999814668 0 0 0.053064897599215843 0.048131547304697528 0 0.24999999999941211 0 0 0.29999999999926641 0 0 0.27499999999933927 0.060310814194988557 0 0.30000000000124832 1 0 0.25000000000104028 1 0 0.27609987656793722 0.94991445621608572 0 0.15720202157091859 0.60665697304410315 0 0.19914261668318661 0.62286739485272158 0 0.16500388252850301 0.66612077714085194 0 0.2236846579037573 0.67380363126050236 0 0.16500388252850301 0.66612077714085194 0 0.19914261668318661 0.62286739485272158 0 0.1247745017231483 0.27198077544791172 0 0.168349569971391 0.28054490850913671 0 0.14223753364722069 0.3341983344262433 0 0 0.75000000000034661 0 0 0.7000000000006934 0 0.049706944316475897 0.72477277076253799 0 0 0.30000000000124832 0 0 0.25000000000104028 0 0.049706944316556423 0.27522722923869108 0 0.59999999999999976 0.29999999999999999 0 0.61959173890754571 0.33832250091341232 0 0.56836770495988642 0.3523062350852913 0 0.5 0.69999999999999996 0 0.43323420005758778 0.6913544522562407 0 0.47913475093885149 0.66010775372412711 0 1 0.14999999999961891 0 0.95391631417672862 0.19584263333809451 0 0.93677536231883773 0.14999999999999089 0 1 0.84999999999982645 0 0.95391631417670719 0.89584263333814784 0 0.93677536231884972 0.85000000000000286 0 1 0.84999999999982645 0 0.93677536231884972 0.85000000000000286 0 0.95386563387742829 0.80414874155775029 0 1 0.14999999999961891 0 0.93677536231883773 0.14999999999999089 0 0.95386563387744361 0.1041487415577465 0 0.90416666666660628 0.9041666666666166 0 0.88088768115933802 0.84674609810493673 0 0.93677536231884972 0.85000000000000286 0 0.90416666666668166 0.20416666666667119 0 0.88088768115941807 0.14674609810479519 0 0.93677536231883773 0.14999999999999089 0 0.1247745017231483 0.27198077544791172 0 0.14223753364722069 0.3341983344262433 0 0.093851963071650835 0.30582068233324772 0 0.5 0.69999999999999996 0 0.45582236402875981 0.73896743678908217 0 0.43323420005758778 0.6913544522562407 0 0.55000000000173355 1 0 0.50000000000205869 1 0 0.52122150208832174 0.94089974453840242 0 0.49999999999869432 0 0 0.5499999999988151 0 0 0.52375890611712683 0.059318771819432882 0 0.54999999999999993 0.29999999999999999 0 0.59999999999999976 0.29999999999999999 0 0.56836770495988642 0.3523062350852913 0 0.50202631463681879 0.87892870825713787 0 0.44003836461056539 0.88093474584252718 0 0.45677673713123867 0.84253684404072415 0 0.33403534827021109 0.84402799729020661 0 0.35864759629805099 0.87963482415279515 0 0.30864387279288652 0.89906554525974958 0 0.53245488764484505 0.55078124999999989 0 0.47793794143994173 0.52940715638744962 0 0.53330375813596242 0.50827942741749099 0 0.82709327591102189 0.14937141670914489 0 0.81283102246527783 0.1881007222486438 0 0.77144070960558853 0.14311854477243749 0 0.82709327591091286 0.84937141670920724 0 0.81159157511211755 0.88795995483179491 0 0.76901770135486491 0.84293557325473656 0 0.77144070960558853 0.14311854477243749 0 0.81283102246527783 0.1881007222486438 0 0.76587607630038135 0.18880039518954719 0 0.76901770135486491 0.84293557325473656 0 0.81159157511211755 0.88795995483179491 0 0.76891166905518427 0.88835469571185499 0 0.33403534827021109 0.84402799729020661 0 0.30864387279288652 0.89906554525974958 0 0.29209212897034281 0.84715728365233667 0 0.57412547362576272 0.58273804879550706 0 0.5166924242153631 0.59825134841919447 0 0.53245488764484505 0.55078124999999989 0 0.50202631463681879 0.87892870825713787 0 0.47401147028110507 0.91529957330468115 0 0.44003836461056539 0.88093474584252718 0 0.5 0.69999999999999996 0 0.54999999999999993 0.69999999999999996 0 0.55363780716230748 0.74348740161571747 0 1 0.34999999999993492 0 0.95871855522754235 0.40006508612975411 0 0.95780851984364423 0.34215720972155339 0 1 0.64999999999986979 0 0.9578014258160763 0.65787212321113708 0 0.95867599106212187 0.60011091146651041 0 0.46666084890304671 0.57634471035397938 0 0.47793794143994173 0.52940715638744962 0 0.53245488764484505 0.55078124999999989 0 0.94999999999999996 0.29999999999999999 0 0.89898474358614167 0.25391965591104898 0 0.94399509803921056 0.24399509803922639 0 0.94999999999979179 1 0 0.89898474358632463 0.95391965591118966 0 0.94399509803919068 0.9439950980391687 0 0 0.65000000000104008 0 0.050069554451969707 0.61308520079857043 0 0.046634677244967337 0.671418230738282 0 0 0.35000000000145642 0 0.046389130980076937 0.32668781832131749 0 0.050583896093752537 0.38543522283434112 0 0.50202631463681879 0.87892870825713787 0 0.50627822638148745 0.8263979829520941 0 0.55899371797446828 0.85003102233514438 0 0.54782696902220018 0.79245182748204157 0 0.55899371797446828 0.85003102233514438 0 0.50627822638148745 0.8263979829520941 0 0.50945740445113552 0.75476055527778108 0 0.5 0.69999999999999996 0 0.55363780716230748 0.74348740161571747 0 0.84999999999965292 1 0 0.85170973911348691 0.93569607295217616 0 0.89898474358632463 0.95391965591118966 0 0.84999999999999987 0.29999999999999999 0 0.8517097391133297 0.2356960729520409 0 0.89898474358614167 0.25391965591104898 0 0.86956835336234861 0.571283299838105 0 0.82862096804812391 0.55037090955459045 0 0.86907294890112186 0.52008116128001669 0 0.49102375406324739 0.49123754822244059 0 0.53330375813596242 0.50827942741749099 0 0.47793794143994173 0.52940715638744962 0 0.57611405284611883 0.50165903596042916 0 0.61547661924074692 0.48539576058873962 0 0.62042975506801734 0.54295974692364424 0 0.71406021706547751 0.63292083137662503 0 0.67529834988829951 0.61613270668143583 0 0.71809016091162536 0.58185040402320831 0 0.65000000000104008 1 0 0.62065498684670595 0.95224934003983619 0 0.68015064798562208 0.95924320340003011 0 0.84999999999960507 0 0 0.899991664607802 0.045289349238254978 0 0.85491058998398861 0.060047533455626502 0 0.84999999999999987 0.69999999999999996 0 0.89999166460796554 0.74528934923809909 0 0.85491058998424563 0.76004753345552634 0 0.89999999999999991 0.29999999999999999 0 0.89898474358614167 0.25391965591104898 0 0.94999999999999996 0.29999999999999999 0 0.94999999999979179 1 0 0.89999999999958358 1 0 0.89898474358632463 0.95391965591118966 0 0.86411095495256451 0.42388805655111889 0 0.81308179852519835 0.39754945808726527 0 0.86844634540301924 0.38530937474099819 0 0.5 0.29999999999999999 0 0.49695729691142171 0.25014895411178018 0 0.54248833945060504 0.2520322959927106 0 0.86411095495256451 0.42388805655111889 0 0.81973119833356312 0.43505687159469048 0 0.81308179852519835 0.39754945808726527 0 0.67323294229744413 0.57556450033612505 0 0.71809016091162536 0.58185040402320831 0 0.67529834988829951 0.61613270668143583 0 0.6236733212988993 0.14864538214901801 0 0.68391457121233579 0.14440470121196541 0 0.64011864159029941 0.18789607982138171 0 0 0.050000000000207989 0 0.053064897599215843 0.048131547304697528 0 0.044310582753132287 0.101412518374475 0 0 0.94999999999979179 0 0.0443105827531413 0.89858748162559932 0 0.053064897599294662 0.95186845269532028 0 1 0.34999999999993492 0 1 0.39999999999978308 0 0.95871855522754235 0.40006508612975411 0 1 0.59999999999973963 0 1 0.64999999999986979 0 0.95867599106212187 0.60011091146651041 0 0 0.84999999999965292 0 0.065374659239661639 0.8551091961254178 0 0.0443105827531413 0.89858748162559932 0 0 0.15000000000062411 0 0.044310582753132287 0.101412518374475 0 0.065374659239632718 0.1448908038746782 0 0.16500388252850301 0.66612077714085194 0 0.1020579365089687 0.69352219419301997 0 0.1241190223511371 0.64391885572885044 0 0.14999999999970359 0 0 0.14618258501891079 0.062070108745602003 0 0.10266856499169109 0.044518360900210059 0 0.15000000000062411 1 0 0.10266856499240549 0.95548163909968886 0 0.14617343800780541 0.93808063414349496 0 0.7152569930854884 0.5237994455134295 0 0.67569444444444449 0.53500863336860327 0 0.69385896817107129 0.48377516041410151 0 0.6541250972820879 0.49999999999999989 0 0.62042975506801734 0.54295974692364424 0 0.61547661924074692 0.48539576058873962 0 0.94999999999999996 0.69999999999999996 0 0.94399509803918602 0.75600490196082126 0 0.89999166460796554 0.74528934923809909 0 0.94999999999986839 0 0 0.94399509803922566 0.056004901960802607 0 0.899991664607802 0.045289349238254978 0 0.6541250972820879 0.49999999999999989 0 0.69385896817107129 0.48377516041410151 0 0.67569444444444449 0.53500863336860327 0 0.82862096804812391 0.55037090955459045 0 0.81723410853263523 0.59419663659258926 0 0.77151014687832564 0.54436834383023036 0 0.7250000000005199 0.89375000000045834 0 0.66412543161245952 0.88015090885499059 0 0.68697391633157634 0.84450604838764298 0 0 0.94999999999979179 0 0 0.89999999999958358 0 0.0443105827531413 0.89858748162559932 0 0 0.10000000000041601 0 0 0.050000000000207989 0 0.044310582753132287 0.101412518374475 0 0.16500388252850301 0.66612077714085194 0 0.15332765547575641 0.71200081858233666 0 0.1020579365089687 0.69352219419301997 0 0.90299850604011456 0.79563452813489832 0 0.93677536231884972 0.85000000000000286 0 0.88088768115933802 0.84674609810493673 0 0.90299850604006393 0.09563452813493091 0 0.93677536231883773 0.14999999999999089 0 0.88088768115941807 0.14674609810479519 0 0.68391457121233579 0.14440470121196541 0 0.6865991819015953 0.189116534044597 0 0.64011864159029941 0.18789607982138171 0 0.085622222639554768 0.53333248912060549 0 0.1216098864341134 0.50637075089503902 0 0.1154888278694548 0.56733818459978413 0 0.21858834311891909 0.81980263716112767 0 0.22556077506376701 0.77837424984191617 0 0.26104540868854792 0.81401944968719064 0 0.81723410853263523 0.59419663659258926 0 0.77293540622714185 0.59448302402785813 0 0.77151014687832564 0.54436834383023036 0 0.1154888278694548 0.56733818459978413 0 0.1216098864341134 0.50637075089503902 0 0.14934928745814749 0.55042914607228977 0 0.1216098864341134 0.50637075089503902 0 0.068743045408989428 0.48853989837882689 0 0.113541300460994 0.46208784312094731 0 0.078358742472063481 0.43365249433908948 0 0.113541300460994 0.46208784312094731 0 0.068743045408989428 0.48853989837882689 0 0.83573492347052902 0.36590755630746369 0 0.81308179852519835 0.39754945808726527 0 0.78145581580700685 0.34881365920033602 0 0.57611405284611883 0.50165903596042916 0 0.62042975506801734 0.54295974692364424 0 0.57435499076887508 0.54267261987897775 0 0.86956835336234861 0.571283299838105 0 0.81723410853263523 0.59419663659258926 0 0.82862096804812391 0.55037090955459045 0 0.46666084890304671 0.57634471035397938 0 0.53245488764484505 0.55078124999999989 0 0.5166924242153631 0.59825134841919447 0 0.89999999999999991 0.69999999999999996 0 0.94999999999999996 0.69999999999999996 0 0.89999166460796554 0.74528934923809909 0 0.89999999999973679 0 0 0.94999999999986839 0 0 0.899991664607802 0.045289349238254978 0 0.84999999999960507 0 0 0.89999999999973679 0 0 0.899991664607802 0.045289349238254978 0 0.84999999999999987 0.69999999999999996 0 0.89999999999999991 0.69999999999999996 0 0.89999166460796554 0.74528934923809909 0 0.43545892161006339 0.61093128915313821 0 0.4089290844030305 0.58728915500154233 0 0.46666084890304671 0.57634471035397938 0 0.1650278706801647 0.38791388161335733 0 0.1117088112799664 0.38831403004970022 0 0.14223753364722069 0.3341983344262433 0 0.087545339447545459 0.35122518864182262 0 0.14223753364722069 0.3341983344262433 0 0.1117088112799664 0.38831403004970022 0 0.6916490518212759 0.75387992374886192 0 0.72501250972655151 0.74067302935308721 0 0.72500000000000064 0.7952620967744265 0 0.72501250972655151 0.74067302935308721 0 0.75841349681148107 0.75422312624214749 0 0.72500000000000064 0.7952620967744265 0 0.57412547362576272 0.58273804879550706 0 0.53245488764484505 0.55078124999999989 0 0.57435499076887508 0.54267261987897775 0 1 0.54999999999963112 0 0.95867599106212187 0.60011091146651041 0 0.93732437411268477 0.55911392101136159 0 1 0.44999999999963131 0 0.93814194660195893 0.44426664081746747 0 0.95871855522754235 0.40006508612975411 0 0.4089290844030305 0.58728915500154233 0 0.42644501560315817 0.54603747078095544 0 0.46666084890304671 0.57634471035397938 0 0.89999999999958358 1 0 0.84999999999965292 1 0 0.89898474358632463 0.95391965591118966 0 0.84999999999999987 0.29999999999999999 0 0.89898474358614167 0.25391965591104898 0 0.89999999999999991 0.29999999999999999 0 0.29999999999926641 0 0 0.32541448401678508 0.046215317981507749 0 0.27499999999933927 0.060310814194988557 0 0.30000000000124832 1 0 0.27609987656793722 0.94991445621608572 0 0.32544832635163229 0.95485394099568932 0 0.57412547362576272 0.58273804879550706 0 0.62042975506801734 0.54295974692364424 0 0.63065402604362242 0.59661356661633302 0 0.5 0.29999999999999999 0 0.54248833945060504 0.2520322959927106 0 0.54999999999999993 0.29999999999999999 0 0.67323294229744413 0.57556450033612505 0 0.62042975506801734 0.54295974692364424 0 0.67569444444444449 0.53500863336860327 0 0.6541250972820879 0.49999999999999989 0 0.67569444444444449 0.53500863336860327 0 0.62042975506801734 0.54295974692364424 0 1 0.14999999999961891 0 1 0.19999999999974799 0 0.95391631417672862 0.19584263333809451 0 1 0.84999999999982645 0 1 0.8999999999998336 0 0.95391631417670719 0.89584263333814784 0 1 0.7999999999998193 0 1 0.84999999999982645 0 0.95386563387742829 0.80414874155775029 0 1 0.099999999999753911 0 1 0.14999999999961891 0 0.95386563387744361 0.1041487415577465 0 0.4656888918609538 0.78493261229743638 0 0.50627822638148745 0.8263979829520941 0 0.45677673713123867 0.84253684404072415 0 0.6879972333610942 0.43038561374960838 0 0.72622533758026719 0.40265885511101601 0 0.73483647259922602 0.44789725365921768 0 0.67323294229744413 0.57556450033612505 0 0.67569444444444449 0.53500863336860327 0 0.71809016091162536 0.58185040402320831 0 0.7152569930854884 0.5237994455134295 0 0.71809016091162536 0.58185040402320831 0 0.67569444444444449 0.53500863336860327 0 0.65394964615507722 0.22666784374016369 0 0.59814117807200873 0.23398510860739519 0 0.64011864159029941 0.18789607982138171 0 0.55000000000173355 1 0 0.52122150208832174 0.94089974453840242 0 0.57382506491224949 0.9629411906298494 0 0.39801143831225599 0.16651381068160659 0 0.44288491854585582 0.14116182884956319 0 0.42905200079338551 0.19982395548231649 0 0.47357141910802508 0.1873585799078378 0 0.42905200079338551 0.19982395548231649 0 0.44288491854585582 0.14116182884956319 0 0.90594285160987287 0.4141265964174129 0 0.88594198078881503 0.46167788676578442 0 0.86411095495256451 0.42388805655111889 0 0.65507451745379841 0.92229208810758578 0 0.68015064798562208 0.95924320340003011 0 0.62065498684670595 0.95224934003983619 0 0.35312867752657662 0.084946736076730367 0 0.39591832466117061 0.056982757562006353 0 0.39823268594401579 0.1116623613130045 0 0.43698630808430822 0.080423614171545449 0 0.39823268594401579 0.1116623613130045 0 0.39591832466117061 0.056982757562006353 0 0.4367309254023824 0.92065556789053882 0 0.39641108128798319 0.94356127926187128 0 0.39767323751400468 0.89584229130535065 0 0.35752321586431363 0.9185439911803448 0 0.39767323751400468 0.89584229130535065 0 0.39641108128798319 0.94356127926187128 0 0.77354604466818633 0.40378688774472771 0 0.77972660463949339 0.45529290596363098 0 0.73483647259922602 0.44789725365921768 0 0.5499999999988151 0 0 0.57396793757665954 0.037011367187645222 0 0.52375890611712683 0.059318771819432882 0 0.64753070846764316 0.77332939069435502 0 0.60294066490120068 0.80851322453934582 0 0.59636844454254345 0.75937156204589151 0 0.49102375406324739 0.49123754822244059 0 0.48858720058566618 0.43964267759203868 0 0.53823865529665704 0.45873898050322898 0 0.28307294598219601 0.50789252727458634 0 0.29110487519241501 0.56588143995431495 0 0.25115337790845271 0.54719303014923271 0 0.79680861578988083 0.92656778056766709 0 0.81159157511211755 0.88795995483179491 0 0.85170973911348691 0.93569607295217616 0 0.79680861578956375 0.22656778056752541 0 0.81283102246527783 0.1881007222486438 0 0.8517097391133297 0.2356960729520409 0 0.57412547362576272 0.58273804879550706 0 0.57435499076887508 0.54267261987897775 0 0.62042975506801734 0.54295974692364424 0 0.93814194660195893 0.44426664081746747 0 0.88594198078881503 0.46167788676578442 0 0.90594285160987287 0.4141265964174129 0 0.7152569930854884 0.5237994455134295 0 0.73947346780852752 0.49062440112282169 0 0.77151014687832564 0.54436834383023036 0 0 0.7000000000006934 0 0.046634677244967337 0.671418230738282 0 0.049706944316475897 0.72477277076253799 0 0 0.30000000000124832 0 0.049706944316556423 0.27522722923869108 0 0.046389130980076937 0.32668781832131749 0 0.59814117807200873 0.23398510860739519 0 0.59443395090188023 0.18455690917515069 0 0.64011864159029941 0.18789607982138171 0 0.21858834311891909 0.81980263716112767 0 0.26104540868854792 0.81401944968719064 0 0.2401283238295133 0.85648409884788523 0 0.39536230704883951 0.84069429572832477 0 0.45677673713123867 0.84253684404072415 0 0.44003836461056539 0.88093474584252718 0 0.086179601630648681 0.64647209519980475 0 0.050069554451969707 0.61308520079857043 0 0.1024350934457823 0.60772393977513839 0 0.077693244765132896 0.56932317963405099 0 0.1024350934457823 0.60772393977513839 0 0.050069554451969707 0.61308520079857043 0 0.078358742472063481 0.43365249433908948 0 0.050583896093752537 0.38543522283434112 0 0.1117088112799664 0.38831403004970022 0 0.087545339447545459 0.35122518864182262 0 0.1117088112799664 0.38831403004970022 0 0.050583896093752537 0.38543522283434112 0 0.33403534827021109 0.84402799729020661 0 0.35642984951668422 0.80994399665655703 0 0.39536230704883951 0.84069429572832477 0 0.28307294598219601 0.50789252727458634 0 0.33190227185843768 0.52715113583864037 0 0.29110487519241501 0.56588143995431495 0 0.2236846579037573 0.67380363126050236 0 0.19068556247388771 0.71028988922845504 0 0.16500388252850301 0.66612077714085194 0 0.26104540868854792 0.81401944968719064 0 0.22556077506376701 0.77837424984191617 0 0.2792923945214143 0.77665808831789485 0 0.38244435121258652 0.51653317813019495 0 0.37272913873093971 0.56192925302619479 0 0.33190227185843768 0.52715113583864037 0 0.25195515620380449 0.25883339815888678 0 0.29132859388405002 0.27203693976649962 0 0.24432083401701241 0.3006253385567515 0 0.29348325746214782 0.31350119524708198 0 0.24432083401701241 0.3006253385567515 0 0.29132859388405002 0.27203693976649962 0 0 0.89999999999958358 0 0 0.84999999999965292 0 0.0443105827531413 0.89858748162559932 0 0 0.15000000000062411 0 0 0.10000000000041601 0 0.044310582753132287 0.101412518374475 0 0.59999999999999976 0.69999999999999996 0 0.59636844454254345 0.75937156204589151 0 0.55363780716230748 0.74348740161571747 0 0.1650278706801647 0.38791388161335733 0 0.22033343844674469 0.36963382230740238 0 0.191953871957803 0.42546416763755879 0 0.52289427570932567 0.3932284363388488 0 0.46655310992796922 0.39650496622958609 0 0.49077833859261139 0.35229981449445641 0 0.91696753777131557 0.497780560203536 0 0.88594198078881503 0.46167788676578442 0 0.93814194660195893 0.44426664081746747 0 0.24999999999941211 0 0 0.27499999999933927 0.060310814194988557 0 0.22668068146512929 0.045875643423131329 0 0.25000000000104028 1 0 0.22850979588452081 0.95594428570238643 0 0.27609987656793722 0.94991445621608572 0 0.77846603114747959 0.49850927265137401 0 0.77151014687832564 0.54436834383023036 0 0.73947346780852752 0.49062440112282169 0 0.27499999999933927 0.060310814194988557 0 0.27474541102162192 0.11822029332053539 0 0.24218496799700481 0.089025544070598317 0 0.27270076654418179 0.87751467830216623 0 0.29209212897034281 0.84715728365233667 0 0.30864387279288652 0.89906554525974958 0 0.3096713403101819 0.085471541595262421 0 0.27474541102162192 0.11822029332053539 0 0.27499999999933927 0.060310814194988557 0 0.17933913398461551 0.2350063570234002 0 0.18124454140915969 0.18790916706335251 0 0.224700362040408 0.22206622194729711 0 0.18269480424590959 0.75905448272264375 0 0.22556077506376701 0.77837424984191617 0 0.17777405986036951 0.81832336108265358 0 0.35864759629805099 0.87963482415279515 0 0.33403534827021109 0.84402799729020661 0 0.39536230704883951 0.84069429572832477 0 0.77354604466818633 0.40378688774472771 0 0.73483647259922602 0.44789725365921768 0 0.72622533758026719 0.40265885511101601 0 0.80185942888539485 0.77452061303608133 0 0.85491058998424563 0.76004753345552634 0 0.84725310900444062 0.80779732082917555 0 0.80185942888501827 0.074520613036224564 0 0.85491058998398861 0.060047533455626502 0 0.84725310900442086 0.10779732082922661 0 0.086179601630648681 0.64647209519980475 0 0.046634677244967337 0.671418230738282 0 0.050069554451969707 0.61308520079857043 0 0.087545339447545459 0.35122518864182262 0 0.050583896093752537 0.38543522283434112 0 0.046389130980076937 0.32668781832131749 0 0 0.75000000000034661 0 0.049706944316475897 0.72477277076253799 0 0.04408157711937423 0.7728941757575627 0 0 0.25000000000104028 0 0.044081577119474857 0.2271058242433576 0 0.049706944316556423 0.27522722923869108 0 0.52289427570932567 0.3932284363388488 0 0.56836770495988642 0.3523062350852913 0 0.57744073070774993 0.41535148636609359 0 0.6084546825910605 0.37989672713932537 0 0.57744073070774993 0.41535148636609359 0 0.56836770495988642 0.3523062350852913 0 0.61343887413683884 0.856862479058357 0 0.55899371797446828 0.85003102233514438 0 0.60294066490120068 0.80851322453934582 0 0.54782696902220018 0.79245182748204157 0 0.60294066490120068 0.80851322453934582 0 0.55899371797446828 0.85003102233514438 0 0.40326160981139969 0.73346192995102844 0 0.36622285152418499 0.69092437780804039 0 0.43323420005758778 0.6913544522562407 0 0.52289427570932567 0.3932284363388488 0 0.48858720058566618 0.43964267759203868 0 0.46655310992796922 0.39650496622958609 0 0.15720202157091859 0.60665697304410315 0 0.1154888278694548 0.56733818459978413 0 0.14934928745814749 0.55042914607228977 0 0.6879972333610942 0.43038561374960838 0 0.73483647259922602 0.44789725365921768 0 0.69385896817107129 0.48377516041410151 0 0.7250000000005199 0.89375000000045834 0 0.68987011941058407 0.92105047536677087 0 0.66412543161245952 0.88015090885499059 0 0.83573492347052902 0.36590755630746369 0 0.78145581580700685 0.34881365920033602 0 0.82500000000000062 0.33010209762754811 0 0.82862096804812391 0.55037090955459045 0 0.81441713509985358 0.51161854125224959 0 0.86907294890112186 0.52008116128001669 0 0.19670163708476801 0.31472518408333222 0 0.14223753364722069 0.3341983344262433 0 0.168349569971391 0.28054490850913671 0 0.50202631463681879 0.87892870825713787 0 0.45677673713123867 0.84253684404072415 0 0.50627822638148745 0.8263979829520941 0 0.099999999999814668 0 0 0.14999999999970359 0 0 0.10266856499169109 0.044518360900210059 0 0.15000000000062411 1 0 0.10000000000041601 1 0 0.10266856499240549 0.95548163909968886 0 0.67323294229744413 0.57556450033612505 0 0.63065402604362242 0.59661356661633302 0 0.62042975506801734 0.54295974692364424 0 0.083105206071467416 0.20007701332709979 0 0.13737030665753211 0.20313708640667491 0 0.095326043202144745 0.24554465089224409 0 0.083105206071452636 0.79992298667296435 0 0.090953281884486245 0.7564451946902494 0 0.1382744753146134 0.79650574229207483 0 0.50000000000205869 1 0 0.47135117303824892 0.95556877749289892 0 0.52122150208832174 0.94089974453840242 0 0.49999999999869432 0 0 0.52375890611712683 0.059318771819432882 0 0.47040171442036788 0.044141676406503738 0 0.4656888918609538 0.78493261229743638 0 0.45582236402875981 0.73896743678908217 0 0.50945740445113552 0.75476055527778108 0 0.5 0.69999999999999996 0 0.50945740445113552 0.75476055527778108 0 0.45582236402875981 0.73896743678908217 0 0.55306006949600994 0.20198184231352201 0 0.56202748619534593 0.15054058349222879 0 0.59443395090188023 0.18455690917515069 0 0.6236733212988993 0.14864538214901801 0 0.59443395090188023 0.18455690917515069 0 0.56202748619534593 0.15054058349222879 0 0.57412547362576272 0.58273804879550706 0 0.5498280205245758 0.6290146943450976 0 0.5166924242153631 0.59825134841919447 0 0.91696753777131557 0.497780560203536 0 0.93814194660195893 0.44426664081746747 0 0.96228564064454991 0.48206450662049471 0 0.15720202157091859 0.60665697304410315 0 0.16500388252850301 0.66612077714085194 0 0.1241190223511371 0.64391885572885044 0 0.44288491854585582 0.14116182884956319 0 0.47881186583059909 0.093591717165689425 0 0.48466639505193998 0.1421439844745814 0 1 0.54999999999963112 0 0.93732437411268477 0.55911392101136159 0 0.95631871884947484 0.51827533208233789 0 0.57724883562309992 0.92155686857100794 0 0.57382506491224949 0.9629411906298494 0 0.52122150208832174 0.94089974453840242 0 0.85170973911348691 0.93569607295217616 0 0.81159157511211755 0.88795995483179491 0 0.85600844944837662 0.88483418979512773 0 0.8517097391133297 0.2356960729520409 0 0.81283102246527783 0.1881007222486438 0 0.85600844944842547 0.1848341897950983 0 0.27866744612395528 0.38416094670951489 0 0.29124338931648802 0.43334555462578611 0 0.24049127783545701 0.41270748208749802 0 0.6084546825910605 0.37989672713932537 0 0.56836770495988642 0.3523062350852913 0 0.61959173890754571 0.33832250091341232 0 0.20050006573841939 0.53248514016039872 0 0.25115337790845271 0.54719303014923271 0 0.22549374774072969 0.58452645269293457 0 0.26573297623774761 0.59828298563722948 0 0.22549374774072969 0.58452645269293457 0 0.25115337790845271 0.54719303014923271 0 0.26104540868854792 0.81401944968719064 0 0.29209212897034281 0.84715728365233667 0 0.2401283238295133 0.85648409884788523 0 0.6236733212988993 0.14864538214901801 0 0.65290632656860115 0.11434202593454081 0 0.68391457121233579 0.14440470121196541 0 0.19901705110390991 0.9175543425573498 0 0.19741632902693801 0.86755867406447229 0 0.24536017905392571 0.90704567837671446 0 0.72500000000000064 0.7952620967744265 0 0.76901770135486491 0.84293557325473656 0 0.72863726579783861 0.85390518901155588 0 0.72500000000000064 0.7952620967744265 0 0.72863726579783861 0.85390518901155588 0 0.68697391633157634 0.84450604838764298 0 0.7250000000005199 0.89375000000045834 0 0.68697391633157634 0.84450604838764298 0 0.72863726579783861 0.85390518901155588 0 0.72525833953073282 0.1032114801687094 0 0.77144070960558853 0.14311854477243749 0 0.72634814642510737 0.16106886917518889 0 0.72525833953073282 0.1032114801687094 0 0.72634814642510737 0.16106886917518889 0 0.68391457121233579 0.14440470121196541 0 0.36622285152418499 0.69092437780804039 0 0.3977710372045391 0.65868194622830212 0 0.43323420005758778 0.6913544522562407 0 0 0.65000000000104008 0 0 0.60000000000138687 0 0.050069554451969707 0.61308520079857043 0 0 0.40000000000166441 0 0 0.35000000000145642 0 0.050583896093752537 0.38543522283434112 0 0.22033343844674469 0.36963382230740238 0 0.24049127783545701 0.41270748208749802 0 0.191953871957803 0.42546416763755879 0 0.5 0.29999999999999999 0 0.4604742573284204 0.27846934318264788 0 0.49695729691142171 0.25014895411178018 0 0.19741632902693801 0.86755867406447229 0 0.2401283238295133 0.85648409884788523 0 0.24536017905392571 0.90704567837671446 0 0 0.50000000000205869 0 0.068743045408989428 0.48853989837882689 0 0.044576108720083309 0.53509043209532614 0 0.15000000000062411 1 0 0.14617343800780541 0.93808063414349496 0 0.18474005699953849 0.96231585248064622 0 0.14999999999970359 0 0 0.184418230509967 0.038773194583122873 0 0.14618258501891079 0.062070108745602003 0 0.57667858002728545 0.078486105337742612 0 0.52375890611712683 0.059318771819432882 0 0.57396793757665954 0.037011367187645222 0 0.113541300460994 0.46208784312094731 0 0.078358742472063481 0.43365249433908948 0 0.13773355295499351 0.42497777642586831 0 0.77354604466818633 0.40378688774472771 0 0.78145581580700685 0.34881365920033602 0 0.81308179852519835 0.39754945808726527 0 0.38244435121258652 0.51653317813019495 0 0.33190227185843768 0.52715113583864037 0 0.35024835142131061 0.48654922671676981 0 0.64753070846764316 0.77332939069435502 0 0.65005442820240822 0.82644988530054031 0 0.60294066490120068 0.80851322453934582 0 0.15720202157091859 0.60665697304410315 0 0.1024350934457823 0.60772393977513839 0 0.1154888278694548 0.56733818459978413 0 0.90416666666660628 0.9041666666666166 0 0.85600844944837662 0.88483418979512773 0 0.88088768115933802 0.84674609810493673 0 0.90416666666668166 0.20416666666667119 0 0.85600844944842547 0.1848341897950983 0 0.88088768115941807 0.14674609810479519 0 0.078358742472063481 0.43365249433908948 0 0.1117088112799664 0.38831403004970022 0 0.13773355295499351 0.42497777642586831 0 0.38244435121258652 0.51653317813019495 0 0.3908716102680424 0.47010282357248828 0 0.43507373378304309 0.49699695397193322 0 0.90299850604011456 0.79563452813489832 0 0.95386563387742829 0.80414874155775029 0 0.93677536231884972 0.85000000000000286 0 0.90416666666660628 0.9041666666666166 0 0.93677536231884972 0.85000000000000286 0 0.95391631417670719 0.89584263333814784 0 0.90299850604006393 0.09563452813493091 0 0.95386563387744361 0.1041487415577465 0 0.93677536231883773 0.14999999999999089 0 0.90416666666668166 0.20416666666667119 0 0.93677536231883773 0.14999999999999089 0 0.95391631417672862 0.19584263333809451 0 0.39536230704883951 0.84069429572832477 0 0.44003836461056539 0.88093474584252718 0 0.39767323751400468 0.89584229130535065 0 0.51076801031701946 0.1202837388510348 0 0.52375890611712683 0.059318771819432882 0 0.54979595918804436 0.1060565713905809 0 0.57667858002728545 0.078486105337742612 0 0.54979595918804436 0.1060565713905809 0 0.52375890611712683 0.059318771819432882 0 0.57724883562309992 0.92155686857100794 0 0.52122150208832174 0.94089974453840242 0 0.54783390826260769 0.89287767010860219 0 0.50202631463681879 0.87892870825713787 0 0.54783390826260769 0.89287767010860219 0 0.52122150208832174 0.94089974453840242 0 0.087545339447545459 0.35122518864182262 0 0.093851963071650835 0.30582068233324772 0 0.14223753364722069 0.3341983344262433 0 0.54999999999999993 0.69999999999999996 0 0.59999999999999976 0.69999999999999996 0 0.55363780716230748 0.74348740161571747 0 0.083105206071452636 0.79992298667296435 0 0.1074251789111534 0.83564394292147814 0 0.065374659239661639 0.8551091961254178 0 0.083105206071467416 0.20007701332709979 0 0.065374659239632718 0.1448908038746782 0 0.106902708054812 0.16453234188234539 0 0.52289427570932567 0.3932284363388488 0 0.53823865529665704 0.45873898050322898 0 0.48858720058566618 0.43964267759203868 0 0.13737030665753211 0.20313708640667491 0 0.14377654328998779 0.2442024734791064 0 0.095326043202144745 0.24554465089224409 0 0.1382744753146134 0.79650574229207483 0 0.090953281884486245 0.7564451946902494 0 0.14335651144331049 0.75565258250209677 0 0.27270076654418179 0.87751467830216623 0 0.30864387279288652 0.89906554525974958 0 0.24536017905392571 0.90704567837671446 0 0.27609987656793722 0.94991445621608572 0 0.24536017905392571 0.90704567837671446 0 0.30864387279288652 0.89906554525974958 0 0.90299850604011456 0.79563452813489832 0 0.84725310900444062 0.80779732082917555 0 0.85491058998424563 0.76004753345552634 0 0.90299850604006393 0.09563452813493091 0 0.84725310900442086 0.10779732082922661 0 0.85491058998398861 0.060047533455626502 0 1 0.54999999999963112 0 1 0.59999999999973963 0 0.95867599106212187 0.60011091146651041 0 1 0.39999999999978308 0 1 0.44999999999963131 0 0.95871855522754235 0.40006508612975411 0 0.28040350263641872 0.23054717217092141 0 0.25195515620380449 0.25883339815888678 0 0.224700362040408 0.22206622194729711 0 0.84999999999999987 0.29999999999999999 0 0.87430060258887643 0.34056085888204451 0 0.82500000000000062 0.33010209762754811 0 0.84999999999999987 0.69999999999999996 0 0.82457059160610424 0.66831947184359608 0 0.87712158428786946 0.65709029563313581 0 0.86956835336234861 0.571283299838105 0 0.87159648282691515 0.61285406320581504 0 0.81723410853263523 0.59419663659258926 0 0.43698630808430822 0.080423614171545449 0 0.47881186583059909 0.093591717165689425 0 0.44288491854585582 0.14116182884956319 0 1 0.44999999999963131 0 0.96228564064454991 0.48206450662049471 0 0.93814194660195893 0.44426664081746747 0 0.35752321586431363 0.9185439911803448 0 0.30864387279288652 0.89906554525974958 0 0.35864759629805099 0.87963482415279515 0 0.29124338931648802 0.43334555462578611 0 0.25982634974572738 0.46097799597715272 0 0.24049127783545701 0.41270748208749802 0 0.51076801031701946 0.1202837388510348 0 0.56202748619534593 0.15054058349222879 0 0.51729576145820033 0.1683240575987815 0 0.55306006949600994 0.20198184231352201 0 0.51729576145820033 0.1683240575987815 0 0.56202748619534593 0.15054058349222879 0 0.26429849586623999 0.19346700179430079 0 0.28040350263641872 0.23054717217092141 0 0.224700362040408 0.22206622194729711 0 0.51076801031701946 0.1202837388510348 0 0.48466639505193998 0.1421439844745814 0 0.47881186583059909 0.093591717165689425 0 0.2185883431182947 0.18019736283949719 0 0.26429849586623999 0.19346700179430079 0 0.224700362040408 0.22206622194729711 0 0.18269480424590959 0.75905448272264375 0 0.2248999640082178 0.72584299459689172 0 0.22556077506376701 0.77837424984191617 0 0.51076801031701946 0.1202837388510348 0 0.47881186583059909 0.093591717165689425 0 0.52375890611712683 0.059318771819432882 0 0.50202631463681879 0.87892870825713787 0 0.52122150208832174 0.94089974453840242 0 0.47401147028110507 0.91529957330468115 0 0 0.84999999999965292 0 0.038512288486097702 0.8155852717111195 0 0.065374659239661639 0.8551091961254178 0 0 0.15000000000062411 0 0.065374659239632718 0.1448908038746782 0 0.038512288486115001 0.1844147282893184 0 0.2185883431182947 0.18019736283949719 0 0.224700362040408 0.22206622194729711 0 0.18124454140915969 0.18790916706335251 0 0.21858834311891909 0.81980263716112767 0 0.17777405986036951 0.81832336108265358 0 0.22556077506376701 0.77837424984191617 0 0.1215415378367805 0.72939333680004137 0 0.1020579365089687 0.69352219419301997 0 0.15332765547575641 0.71200081858233666 0 0.49695729691142171 0.25014895411178018 0 0.50760557329222289 0.20700468884612061 0 0.54248833945060504 0.2520322959927106 0 0.15720202157091859 0.60665697304410315 0 0.14934928745814749 0.55042914607228977 0 0.18381867841758909 0.57774125163628387 0 0.90416666666660628 0.9041666666666166 0 0.85170973911348691 0.93569607295217616 0 0.85600844944837662 0.88483418979512773 0 0.90416666666668166 0.20416666666667119 0 0.8517097391133297 0.2356960729520409 0 0.85600844944842547 0.1848341897950983 0 0.17933913398461551 0.2350063570234002 0 0.13737030665753211 0.20313708640667491 0 0.18124454140915969 0.18790916706335251 0 0.18269480424590959 0.75905448272264375 0 0.17777405986036951 0.81832336108265358 0 0.1382744753146134 0.79650574229207483 0 0.1216098864341134 0.50637075089503902 0 0.15801167086041079 0.46008690540259539 0 0.16618607197337229 0.50652878253548905 0 0.50760557329222289 0.20700468884612061 0 0.55306006949600994 0.20198184231352201 0 0.54248833945060504 0.2520322959927106 0 0.75000000000034661 1 0 0.7000000000006934 1 0 0.7250000000005199 0.94981617647078953 0 0.69999999999999984 0.29999999999999999 0 0.72500000000000064 0.2498161764706 0 0.74999999999999989 0.29999999999999999 0 0.72525833953073282 0.1032114801687094 0 0.68391457121233579 0.14440470121196541 0 0.68330259535470161 0.10038702501083881 0 0.43249999999999988 0.43937499999999979 0 0.46655310992796922 0.39650496622958609 0 0.48858720058566618 0.43964267759203868 0 0.19901705110390991 0.9175543425573498 0 0.14617343800780541 0.93808063414349496 0 0.16206583317966519 0.89685560785156404 0 0.19922788606653311 0.085920220746880993 0 0.16141998738593399 0.10404039647458049 0 0.14618258501891079 0.062070108745602003 0 0.31378396441836959 0.70157213313026345 0 0.26439878998046262 0.7048065392091396 0 0.27820712747429932 0.65530134213254643 0 0.1216098864341134 0.50637075089503902 0 0.113541300460994 0.46208784312094731 0 0.15801167086041079 0.46008690540259539 0 0.6084546825910605 0.37989672713932537 0 0.65481233915350323 0.35652751921065562 0 0.63912439215427275 0.41063340167983359 0 0.19901705110390991 0.9175543425573498 0 0.18474005699953849 0.96231585248064622 0 0.14617343800780541 0.93808063414349496 0 0.19922788606653311 0.085920220746880993 0 0.14618258501891079 0.062070108745602003 0 0.184418230509967 0.038773194583122873 0 0.38244435121258652 0.51653317813019495 0 0.35024835142131061 0.48654922671676981 0 0.3908716102680424 0.47010282357248828 0 0.82709327591102189 0.14937141670914489 0 0.77144070960558853 0.14311854477243749 0 0.80076557130237269 0.1154587552654202 0 0.82709327591091286 0.84937141670920724 0 0.76901770135486491 0.84293557325473656 0 0.80041942726660109 0.81543261647703358 0 0.43698630808430822 0.080423614171545449 0 0.44288491854585582 0.14116182884956319 0 0.39823268594401579 0.1116623613130045 0 0.39801143831225599 0.16651381068160659 0 0.39823268594401579 0.1116623613130045 0 0.44288491854585582 0.14116182884956319 0 0.36575549820117997 0.31677992835137742 0 0.3786248352540974 0.27082301512024259 0 0.41914690343363781 0.30688979866601612 0 0.42377727103934271 0.25099357235810238 0 0.41914690343363781 0.30688979866601612 0 0.3786248352540974 0.27082301512024259 0 0.049706944316475897 0.72477277076253799 0 0.1020579365089687 0.69352219419301997 0 0.090953281884486245 0.7564451946902494 0 0.1215415378367805 0.72939333680004137 0 0.090953281884486245 0.7564451946902494 0 0.1020579365089687 0.69352219419301997 0 0.1247745017231483 0.27198077544791172 0 0.093851963071650835 0.30582068233324772 0 0.095326043202144745 0.24554465089224409 0 0.049706944316556423 0.27522722923869108 0 0.095326043202144745 0.24554465089224409 0 0.093851963071650835 0.30582068233324772 0 0.77354604466818633 0.40378688774472771 0 0.81973119833356312 0.43505687159469048 0 0.77972660463949339 0.45529290596363098 0 0.43249999999999988 0.43937499999999979 0 0.43507373378304309 0.49699695397193322 0 0.3908716102680424 0.47010282357248828 0 0.26573297623774761 0.59828298563722948 0 0.2459498854893499 0.63248470766216769 0 0.22549374774072969 0.58452645269293457 0 0.72500000000000064 0.7952620967744265 0 0.77094201086366854 0.79647480515688507 0 0.76901770135486491 0.84293557325473656 0 0.72525833953073282 0.1032114801687094 0 0.76878382444651716 0.097147941686331368 0 0.77144070960558853 0.14311854477243749 0 0.72500000000000064 0.7952620967744265 0 0.68697391633157634 0.84450604838764298 0 0.68024162096458085 0.79868546898116533 0 0.31378396441836959 0.70157213313026345 0 0.29904318922293632 0.74132814928635593 0 0.26439878998046262 0.7048065392091396 0 0.31378396441836959 0.70157213313026345 0 0.35415581127540569 0.73730480045900215 0 0.29904318922293632 0.74132814928635593 0 0.61343887413683884 0.856862479058357 0 0.65005442820240822 0.82644988530054031 0 0.66412543161245952 0.88015090885499059 0 0.68697391633157634 0.84450604838764298 0 0.66412543161245952 0.88015090885499059 0 0.65005442820240822 0.82644988530054031 0 0.083411279318375747 0.91030024466934134 0 0.065374659239661639 0.8551091961254178 0 0.10562472963403439 0.87143394428979881 0 0.083411279318303222 0.089699755330707398 0 0.1053400320299198 0.12877248826361379 0 0.065374659239632718 0.1448908038746782 0 0.55306006949600994 0.20198184231352201 0 0.59443395090188023 0.18455690917515069 0 0.59814117807200873 0.23398510860739519 0 0.84999999999999987 0.29999999999999999 0 0.89999999999999991 0.29999999999999999 0 0.87430060258887643 0.34056085888204451 0 0.84999999999999987 0.69999999999999996 0 0.87712158428786946 0.65709029563313581 0 0.89999999999999991 0.69999999999999996 0 0.34258405725730701 0.4444034294386992 0 0.3908716102680424 0.47010282357248828 0 0.35024835142131061 0.48654922671676981 0 0.26573297623774761 0.59828298563722948 0 0.31502927232353312 0.6134992213375432 0 0.27820712747429932 0.65530134213254643 0 0.91696753777131557 0.497780560203536 0 0.86907294890112186 0.52008116128001669 0 0.88594198078881503 0.46167788676578442 0 0.84723782639812573 0.48638347960178252 0 0.88594198078881503 0.46167788676578442 0 0.86907294890112186 0.52008116128001669 0 0.7152569930854884 0.5237994455134295 0 0.77151014687832564 0.54436834383023036 0 0.71809016091162536 0.58185040402320831 0 0.90416666666660628 0.9041666666666166 0 0.89898474358632463 0.95391965591118966 0 0.85170973911348691 0.93569607295217616 0 0.90416666666668166 0.20416666666667119 0 0.89898474358614167 0.25391965591104898 0 0.8517097391133297 0.2356960729520409 0 0.91750694127107502 0.36982372220068471 0 0.95780851984364423 0.34215720972155339 0 0.95871855522754235 0.40006508612975411 0 0.91750694127105259 0.63017627779935648 0 0.95867599106212187 0.60011091146651041 0 0.9578014258160763 0.65787212321113708 0 0.90299850604011456 0.79563452813489832 0 0.88088768115933802 0.84674609810493673 0 0.84725310900444062 0.80779732082917555 0 0.90299850604006393 0.09563452813493091 0 0.88088768115941807 0.14674609810479519 0 0.84725310900442086 0.10779732082922661 0 0.1216098864341134 0.50637075089503902 0 0.16618607197337229 0.50652878253548905 0 0.14934928745814749 0.55042914607228977 0 0.20050006573841939 0.53248514016039872 0 0.14934928745814749 0.55042914607228977 0 0.16618607197337229 0.50652878253548905 0 0.80185942888539485 0.77452061303608133 0 0.84725310900444062 0.80779732082917555 0 0.80041942726660109 0.81543261647703358 0 0.80185942888501827 0.074520613036224564 0 0.84725310900442086 0.10779732082922661 0 0.80076557130237269 0.1154587552654202 0 0.083105206071452636 0.79992298667296435 0 0.065374659239661639 0.8551091961254178 0 0.038512288486097702 0.8155852717111195 0 0.083105206071467416 0.20007701332709979 0 0.038512288486115001 0.1844147282893184 0 0.065374659239632718 0.1448908038746782 0 0.54782696902220018 0.79245182748204157 0 0.59636844454254345 0.75937156204589151 0 0.60294066490120068 0.80851322453934582 0 0.083411279318375747 0.91030024466934134 0 0.0443105827531413 0.89858748162559932 0 0.065374659239661639 0.8551091961254178 0 0.083411279318303222 0.089699755330707398 0 0.065374659239632718 0.1448908038746782 0 0.044310582753132287 0.101412518374475 0 0.84999999999965292 1 0 0.81486180804382891 0.96321394949790495 0 0.85170973911348691 0.93569607295217616 0 0.84999999999999987 0.29999999999999999 0 0.81486180804364938 0.26321394949780091 0 0.8517097391133297 0.2356960729520409 0 0.4656888918609538 0.78493261229743638 0 0.45677673713123867 0.84253684404072415 0 0.42609163930740518 0.80361684430568059 0 0.39536230704883951 0.84069429572832477 0 0.42609163930740518 0.80361684430568059 0 0.45677673713123867 0.84253684404072415 0 0.6236733212988993 0.14864538214901801 0 0.56202748619534593 0.15054058349222879 0 0.58516465772821369 0.11653801664834119 0 0.57412547362576272 0.58273804879550706 0 0.63065402604362242 0.59661356661633302 0 0.5991018319127801 0.62925360607495295 0 0.61343887413683884 0.856862479058357 0 0.5832743223239254 0.88483152652961872 0 0.55899371797446828 0.85003102233514438 0 0.50202631463681879 0.87892870825713787 0 0.55899371797446828 0.85003102233514438 0 0.54783390826260769 0.89287767010860219 0 0.51076801031701946 0.1202837388510348 0 0.54979595918804436 0.1060565713905809 0 0.56202748619534593 0.15054058349222879 0 0.55306006949600994 0.20198184231352201 0 0.59814117807200873 0.23398510860739519 0 0.54248833945060504 0.2520322959927106 0 0.83573492347052902 0.36590755630746369 0 0.82500000000000062 0.33010209762754811 0 0.87430060258887643 0.34056085888204451 0 0.83758014339878906 0.63222013025741819 0 0.87712158428786946 0.65709029563313581 0 0.82457059160610424 0.66831947184359608 0 0.49102375406324739 0.49123754822244059 0 0.53823865529665704 0.45873898050322898 0 0.53330375813596242 0.50827942741749099 0 0.52289427570932567 0.3932284363388488 0 0.57744073070774993 0.41535148636609359 0 0.53823865529665704 0.45873898050322898 0 0.4089290844030305 0.58728915500154233 0 0.37272913873093971 0.56192925302619479 0 0.42644501560315817 0.54603747078095544 0 0.49695729691142171 0.25014895411178018 0 0.4604742573284204 0.27846934318264788 0 0.46429753744194407 0.22870891180733599 0 0.90299850604011456 0.79563452813489832 0 0.85491058998424563 0.76004753345552634 0 0.89999166460796554 0.74528934923809909 0 0.90299850604006393 0.09563452813493091 0 0.85491058998398861 0.060047533455626502 0 0.899991664607802 0.045289349238254978 0 0.38244435121258652 0.51653317813019495 0 0.42644501560315817 0.54603747078095544 0 0.37272913873093971 0.56192925302619479 0 0.71406021706547751 0.63292083137662503 0 0.71809016091162536 0.58185040402320831 0 0.74994237037456724 0.62775548192980357 0 0.84723782639812573 0.48638347960178252 0 0.86907294890112186 0.52008116128001669 0 0.81441713509985358 0.51161854125224959 0 0.33122374654748771 0.57588941099433744 0 0.33190227185843768 0.52715113583864037 0 0.37272913873093971 0.56192925302619479 0 0.086179601630648681 0.64647209519980475 0 0.1241190223511371 0.64391885572885044 0 0.1020579365089687 0.69352219419301997 0 0.59999999999894682 0 0 0.64999999999907843 0 0 0.61940220174112337 0.047251958781050582 0 0.18269480424590959 0.75905448272264375 0 0.14335651144331049 0.75565258250209677 0 0.15332765547575641 0.71200081858233666 0 0.22549374774072969 0.58452645269293457 0 0.2459498854893499 0.63248470766216769 0 0.19914261668318661 0.62286739485272158 0 0.38244435121258652 0.51653317813019495 0 0.43507373378304309 0.49699695397193322 0 0.42644501560315817 0.54603747078095544 0 0.65000000000104008 1 0 0.60000000000138687 1 0 0.62065498684670595 0.95224934003983619 0 0.078358742472063481 0.43365249433908948 0 0.068743045408989428 0.48853989837882689 0 0.033550201249889847 0.46247875832467239 0 0.2236846579037573 0.67380363126050236 0 0.27820712747429932 0.65530134213254643 0 0.26439878998046262 0.7048065392091396 0 0.6879972333610942 0.43038561374960838 0 0.68128176404677243 0.38629093627004979 0 0.72622533758026719 0.40265885511101601 0 0.72525833953073282 0.1032114801687094 0 0.7010294155333181 0.056779085686491267 0 0.7527966693318906 0.053051678021508272 0 0.18269480424590959 0.75905448272264375 0 0.15332765547575641 0.71200081858233666 0 0.19068556247388771 0.71028988922845504 0 0.1216098864341134 0.50637075089503902 0 0.085622222639554768 0.53333248912060549 0 0.068743045408989428 0.48853989837882689 0 0.25676291524611189 0.7436741304886243 0 0.26439878998046262 0.7048065392091396 0 0.29904318922293632 0.74132814928635593 0 0.65481233915350323 0.35652751921065562 0 0.68128176404677243 0.38629093627004979 0 0.63912439215427275 0.41063340167983359 0 0.83573492347052902 0.36590755630746369 0 0.86844634540301924 0.38530937474099819 0 0.81308179852519835 0.39754945808726527 0 0.27270076654418179 0.87751467830216623 0 0.2401283238295133 0.85648409884788523 0 0.29209212897034281 0.84715728365233667 0 0.84999999999999987 0.69999999999999996 0 0.85491058998424563 0.76004753345552634 0 0.81864958914779962 0.73589050177899629 0 0.84999999999960507 0 0 0.85491058998398861 0.060047533455626502 0 0.81864958914740749 0.035890501779055867 0 0.18381867841758909 0.57774125163628387 0 0.19914261668318661 0.62286739485272158 0 0.15720202157091859 0.60665697304410315 0 0.22549374774072969 0.58452645269293457 0 0.19914261668318661 0.62286739485272158 0 0.18381867841758909 0.57774125163628387 0 0.79680861578988083 0.92656778056766709 0 0.85170973911348691 0.93569607295217616 0 0.81486180804382891 0.96321394949790495 0 0.79680861578956375 0.22656778056752541 0 0.8517097391133297 0.2356960729520409 0 0.81486180804364938 0.26321394949780091 0 0.20050006573841939 0.53248514016039872 0 0.23975172658309729 0.49475499200540818 0 0.25115337790845271 0.54719303014923271 0 0.28307294598219601 0.50789252727458634 0 0.25115337790845271 0.54719303014923271 0 0.23975172658309729 0.49475499200540818 0 0.20050006573841939 0.53248514016039872 0 0.18381867841758909 0.57774125163628387 0 0.14934928745814749 0.55042914607228977 0 0.19922788606653311 0.085920220746880993 0 0.22985637510995899 0.1298347970200906 0 0.18652628422869419 0.14162325200928061 0 0.33758650185219202 0.23837101504325639 0 0.38831533174504851 0.2189834941785925 0 0.3786248352540974 0.27082301512024259 0 0.42377727103934271 0.25099357235810238 0 0.3786248352540974 0.27082301512024259 0 0.38831533174504851 0.2189834941785925 0 0.19922788606653311 0.085920220746880993 0 0.18652628422869419 0.14162325200928061 0 0.16141998738593399 0.10404039647458049 0 0.54782696902220018 0.79245182748204157 0 0.55363780716230748 0.74348740161571747 0 0.59636844454254345 0.75937156204589151 0 0.82709327591091286 0.84937141670920724 0 0.88088768115933802 0.84674609810493673 0 0.85600844944837662 0.88483418979512773 0 0.82709327591102189 0.14937141670914489 0 0.88088768115941807 0.14674609810479519 0 0.85600844944842547 0.1848341897950983 0 0.27866744612395528 0.38416094670951489 0 0.22033343844674469 0.36963382230740238 0 0.25966125648670141 0.34351016742083729 0 0 0.50000000000205869 0 0.033550201249889847 0.46247875832467239 0 0.068743045408989428 0.48853989837882689 0 0.31378396441836959 0.70157213313026345 0 0.36622285152418499 0.69092437780804039 0 0.35415581127540569 0.73730480045900215 0 0.77293540622714185 0.59448302402785813 0 0.71809016091162536 0.58185040402320831 0 0.77151014687832564 0.54436834383023036 0 0.7152569930854884 0.5237994455134295 0 0.69385896817107129 0.48377516041410151 0 0.73947346780852752 0.49062440112282169 0 0.15801167086041079 0.46008690540259539 0 0.191953871957803 0.42546416763755879 0 0.19604738184454831 0.47787523520405789 0 0.57667858002728545 0.078486105337742612 0 0.61940220174112337 0.047251958781050582 0 0.61956000905586006 0.1043312481793135 0 0.65408113592120842 0.073941773121567966 0 0.61956000905586006 0.1043312481793135 0 0.61940220174112337 0.047251958781050582 0 0 0.55000000000173355 0 0 0.50000000000205869 0 0.044576108720083309 0.53509043209532614 0 0.65507451745379841 0.92229208810758578 0 0.62065498684670595 0.95224934003983619 0 0.61885627562261258 0.90282959257498208 0 0.57724883562309992 0.92155686857100794 0 0.61885627562261258 0.90282959257498208 0 0.62065498684670595 0.95224934003983619 0 0.91750694127107502 0.36982372220068471 0 0.86844634540301924 0.38530937474099819 0 0.87430060258887643 0.34056085888204451 0 0.91750694127105259 0.63017627779935648 0 0.87712158428786946 0.65709029563313581 0 0.87159648282691515 0.61285406320581504 0 0.33123028043633618 0.77629643437932982 0 0.29904318922293632 0.74132814928635593 0 0.35415581127540569 0.73730480045900215 0 0.86411095495256451 0.42388805655111889 0 0.84925632466077294 0.45359738909549091 0 0.81973119833356312 0.43505687159469048 0 0.43846182030517877 0.64845797726506715 0 0.47913475093885149 0.66010775372412711 0 0.43323420005758778 0.6913544522562407 0 0.18269480424590959 0.75905448272264375 0 0.19068556247388771 0.71028988922845504 0 0.2248999640082178 0.72584299459689172 0 0.39536230704883951 0.84069429572832477 0 0.38586766253264881 0.78219501014812498 0 0.42609163930740518 0.80361684430568059 0 0.59999999999999976 0.69999999999999996 0 0.63221990677827677 0.73442891067859706 0 0.59636844454254345 0.75937156204589151 0 0.27866744612395528 0.38416094670951489 0 0.24049127783545701 0.41270748208749802 0 0.22033343844674469 0.36963382230740238 0 0.82709327591091286 0.84937141670920724 0 0.84725310900444062 0.80779732082917555 0 0.88088768115933802 0.84674609810493673 0 0.82709327591102189 0.14937141670914489 0 0.84725310900442086 0.10779732082922661 0 0.88088768115941807 0.14674609810479519 0 0.1650278706801647 0.38791388161335733 0 0.18434624290945251 0.35208838264196463 0 0.22033343844674469 0.36963382230740238 0 0.4409427642593301 0.35743108089689513 0 0.49077833859261139 0.35229981449445641 0 0.46655310992796922 0.39650496622958609 0 0.80185942888539485 0.77452061303608133 0 0.81864958914779962 0.73589050177899629 0 0.85491058998424563 0.76004753345552634 0 0.80185942888501827 0.074520613036224564 0 0.81864958914740749 0.035890501779055867 0 0.85491058998398861 0.060047533455626502 0 0.29999999999926641 0 0 0.34999999999912063 0 0 0.32541448401678508 0.046215317981507749 0 0.35000000000145642 1 0 0.30000000000124832 1 0 0.32544832635163229 0.95485394099568932 0 0.4656888918609538 0.78493261229743638 0 0.50731287292894423 0.78963574450233831 0 0.50627822638148745 0.8263979829520941 0 0.2185883431182947 0.18019736283949719 0 0.25557216766470708 0.15874861286892261 0 0.26429849586623999 0.19346700179430079 0 1 0.29999999999999999 0 1 0.34999999999993492 0 0.95780851984364423 0.34215720972155339 0 1 0.29999999999999999 0 0.95780851984364423 0.34215720972155339 0 0.94999999999999996 0.29999999999999999 0 1 0.69999999999999996 0 0.94999999999999996 0.69999999999999996 0 0.9578014258160763 0.65787212321113708 0 1 0.69999999999999996 0 0.9578014258160763 0.65787212321113708 0 1 0.64999999999986979 0 0.91750694127107502 0.36982372220068471 0 0.90594285160987287 0.4141265964174129 0 0.86844634540301924 0.38530937474099819 0 0.91750694127105259 0.63017627779935648 0 0.87159648282691515 0.61285406320581504 0 0.91143117093204207 0.58709913730335972 0 0.74999999999999989 0.69999999999999996 0 0.7750489929959945 0.66593931409600093 0 0.79999999999999982 0.69999999999999996 0 0.74999999999999989 0.29999999999999999 0 0.79999999999999982 0.29999999999999999 0 0.78145581580700685 0.34881365920033602 0 0.54999999999999993 0.69999999999999996 0 0.57484956128872922 0.66573805030881994 0 0.59999999999999976 0.69999999999999996 0 0.90299850604011456 0.79563452813489832 0 0.94399509803918602 0.75600490196082126 0 0.95386563387742829 0.80414874155775029 0 0.90416666666660628 0.9041666666666166 0 0.95391631417670719 0.89584263333814784 0 0.94399509803919068 0.9439950980391687 0 0.90299850604006393 0.09563452813493091 0 0.94399509803922566 0.056004901960802607 0 0.95386563387744361 0.1041487415577465 0 0.90416666666668166 0.20416666666667119 0 0.95391631417672862 0.19584263333809451 0 0.94399509803921056 0.24399509803922639 0 0.22278230690790279 0.44824268025881547 0 0.19604738184454831 0.47787523520405789 0 0.191953871957803 0.42546416763755879 0 0.90299850604011456 0.79563452813489832 0 0.89999166460796554 0.74528934923809909 0 0.94399509803918602 0.75600490196082126 0 0.90299850604006393 0.09563452813493091 0 0.899991664607802 0.045289349238254978 0 0.94399509803922566 0.056004901960802607 0 0.49102375406324739 0.49123754822244059 0 0.47793794143994173 0.52940715638744962 0 0.43507373378304309 0.49699695397193322 0 0.90416666666660628 0.9041666666666166 0 0.94399509803919068 0.9439950980391687 0 0.89898474358632463 0.95391965591118966 0 0.90416666666668166 0.20416666666667119 0 0.94399509803921056 0.24399509803922639 0 0.89898474358614167 0.25391965591104898 0 0.65394964615507722 0.22666784374016369 0 0.62657463266645097 0.26524202571255862 0 0.59814117807200873 0.23398510860739519 0 0.6084546825910605 0.37989672713932537 0 0.63912439215427275 0.41063340167983359 0 0.57744073070774993 0.41535148636609359 0 0.61209567303293111 0.44669033081290321 0 0.57744073070774993 0.41535148636609359 0 0.63912439215427275 0.41063340167983359 0 0.25676291524611189 0.7436741304886243 0 0.22556077506376701 0.77837424984191617 0 0.2248999640082178 0.72584299459689172 0 0.61343887413683884 0.856862479058357 0 0.60294066490120068 0.80851322453934582 0 0.65005442820240822 0.82644988530054031 0 0.64999999999907843 0 0 0.66369801598854572 0.036327466368102787 0 0.61940220174112337 0.047251958781050582 0 0.40326160981139969 0.73346192995102844 0 0.38586766253264881 0.78219501014812498 0 0.35415581127540569 0.73730480045900215 0 0.33123028043633618 0.77629643437932982 0 0.35415581127540569 0.73730480045900215 0 0.38586766253264881 0.78219501014812498 0 0.26573297623774761 0.59828298563722948 0 0.29110487519241501 0.56588143995431495 0 0.31502927232353312 0.6134992213375432 0 0.77846603114747959 0.49850927265137401 0 0.81441713509985358 0.51161854125224959 0 0.77151014687832564 0.54436834383023036 0 0.82862096804812391 0.55037090955459045 0 0.77151014687832564 0.54436834383023036 0 0.81441713509985358 0.51161854125224959 0 0.50000000000205869 1 0 0.45000000000187229 1 0 0.47135117303824892 0.95556877749289892 0 0.44999999999882923 0 0 0.49999999999869432 0 0 0.47040171442036788 0.044141676406503738 0 0 0.7000000000006934 0 0 0.65000000000104008 0 0.046634677244967337 0.671418230738282 0 0 0.35000000000145642 0 0 0.30000000000124832 0 0.046389130980076937 0.32668781832131749 0 0.31378396441836959 0.70157213313026345 0 0.27820712747429932 0.65530134213254643 0 0.32263089806001177 0.66003674931826484 0 0.33122374654748771 0.57588941099433744 0 0.31502927232353312 0.6134992213375432 0 0.29110487519241501 0.56588143995431495 0 0.26573297623774761 0.59828298563722948 0 0.27820712747429932 0.65530134213254643 0 0.2459498854893499 0.63248470766216769 0 0.14474682429600511 0.85524784522713515 0 0.16206583317966519 0.89685560785156404 0 0.1241151115713819 0.9045666525468371 0 0.14332333627550789 0.14578431753966009 0 0.12372429750337779 0.095814237875728972 0 0.16141998738593399 0.10404039647458049 0 0.64753070846764316 0.77332939069435502 0 0.59636844454254345 0.75937156204589151 0 0.63221990677827677 0.73442891067859706 0 0.14474682429600511 0.85524784522713515 0 0.1241151115713819 0.9045666525468371 0 0.10562472963403439 0.87143394428979881 0 0.14332333627550789 0.14578431753966009 0 0.1053400320299198 0.12877248826361379 0 0.12372429750337779 0.095814237875728972 0 0.77354604466818633 0.40378688774472771 0 0.81308179852519835 0.39754945808726527 0 0.81973119833356312 0.43505687159469048 0 0.54782696902220018 0.79245182748204157 0 0.50945740445113552 0.75476055527778108 0 0.55363780716230748 0.74348740161571747 0 0.2236846579037573 0.67380363126050236 0 0.2459498854893499 0.63248470766216769 0 0.27820712747429932 0.65530134213254643 0 0.77293540622714185 0.59448302402785813 0 0.74994237037456724 0.62775548192980357 0 0.71809016091162536 0.58185040402320831 0 0 0.79999999999999982 0 0 0.75000000000034661 0 0.04408157711937423 0.7728941757575627 0 0 0.25000000000104028 0 0 0.20000000000083221 0 0.044081577119474857 0.2271058242433576 0 0.19999999999955789 0 0 0.24999999999941211 0 0 0.22668068146512929 0.045875643423131329 0 0.25000000000104028 1 0 0.20000000000083221 1 0 0.22850979588452081 0.95594428570238643 0 0.47357141910802508 0.1873585799078378 0 0.44288491854585582 0.14116182884956319 0 0.48466639505193998 0.1421439844745814 0 0.59999999999999976 0.29999999999999999 0 0.5794309697024993 0.27124795968204829 0 0.62657463266645097 0.26524202571255862 0 0.43249999999999988 0.43937499999999979 0 0.42161023666869668 0.39493916313643851 0 0.46655310992796922 0.39650496622958609 0 0.31068898841644388 0.47541502461811092 0 0.33190227185843768 0.52715113583864037 0 0.28307294598219601 0.50789252727458634 0 0.35024835142131061 0.48654922671676981 0 0.33190227185843768 0.52715113583864037 0 0.31068898841644388 0.47541502461811092 0 0.35864735590330371 0.63903383440414463 0 0.36622285152418499 0.69092437780804039 0 0.32263089806001177 0.66003674931826484 0 0.31378396441836959 0.70157213313026345 0 0.32263089806001177 0.66003674931826484 0 0.36622285152418499 0.69092437780804039 0 0.86956835336234861 0.571283299838105 0 0.90900154012161016 0.53607784105648792 0 0.91143117093204207 0.58709913730335972 0 0.6499999999999998 0.29999999999999999 0 0.65481233915350323 0.35652751921065562 0 0.61959173890754571 0.33832250091341232 0 0.4409427642593301 0.35743108089689513 0 0.46226845272279993 0.31901800744800313 0 0.49077833859261139 0.35229981449445641 0 0.5 0.29999999999999999 0 0.49077833859261139 0.35229981449445641 0 0.46226845272279993 0.31901800744800313 0 0.14999999999970359 0 0 0.19999999999955789 0 0 0.184418230509967 0.038773194583122873 0 0.20000000000083221 1 0 0.15000000000062411 1 0 0.18474005699953849 0.96231585248064622 0 1 0.49999999999950101 0 1 0.54999999999963112 0 0.95631871884947484 0.51827533208233789 0 0.38586766253264881 0.78219501014812498 0 0.42676259796334498 0.76772545931379299 0 0.42609163930740518 0.80361684430568059 0 0.20050006573841939 0.53248514016039872 0 0.22549374774072969 0.58452645269293457 0 0.18381867841758909 0.57774125163628387 0 0.065374659239661639 0.8551091961254178 0 0.1074251789111534 0.83564394292147814 0 0.10562472963403439 0.87143394428979881 0 0.065374659239632718 0.1448908038746782 0 0.1053400320299198 0.12877248826361379 0 0.106902708054812 0.16453234188234539 0 0.1650278706801647 0.38791388161335733 0 0.14223753364722069 0.3341983344262433 0 0.18434624290945251 0.35208838264196463 0 0.43249999999999988 0.43937499999999979 0 0.46111841286828259 0.46690301029591341 0 0.43507373378304309 0.49699695397193322 0 0.83758014339878906 0.63222013025741819 0 0.81723410853263523 0.59419663659258926 0 0.87159648282691515 0.61285406320581504 0 0.19670163708476801 0.31472518408333222 0 0.18434624290945251 0.35208838264196463 0 0.14223753364722069 0.3341983344262433 0 0.75000000000034661 1 0 0.7250000000005199 0.94981617647078953 0 0.770759834363826 0.95919399014344442 0 0.74999999999999989 0.29999999999999999 0 0.72500000000000064 0.2498161764706 0 0.77075983436335049 0.25919399014334171 0 0.69999999999999984 0.29999999999999999 0 0.67933712972090698 0.25920070958121938 0 0.72500000000000064 0.2498161764706 0 0.57611405284611883 0.50165903596042916 0 0.53330375813596242 0.50827942741749099 0 0.53823865529665704 0.45873898050322898 0 0.6499999999999998 0.29999999999999999 0 0.68887083591306764 0.33632058575757479 0 0.65481233915350323 0.35652751921065562 0 0.27866744612395528 0.38416094670951489 0 0.33277555741076909 0.36432196682010132 0 0.31778888742534622 0.40581751814196781 0 0.49102375406324739 0.49123754822244059 0 0.43507373378304309 0.49699695397193322 0 0.46111841286828259 0.46690301029591341 0 0.94999999999999996 0.69999999999999996 0 0.97166519676947294 0.73337114490064459 0 0.94399509803918602 0.75600490196082126 0 0.94999999999986839 0 0 0.97166519676946894 0.033371144900598393 0 0.94399509803922566 0.056004901960802607 0 0.94999999999999996 0.29999999999999999 0 0.94399509803921056 0.24399509803922639 0 0.97166519676951801 0.26662885509932011 0 0.94999999999979179 1 0 0.94399509803919068 0.9439950980391687 0 0.97166519676946206 0.96662885509935492 0 0.34258405725730701 0.4444034294386992 0 0.29124338931648802 0.43334555462578611 0 0.31778888742534622 0.40581751814196781 0 0.27866744612395528 0.38416094670951489 0 0.31778888742534622 0.40581751814196781 0 0.29124338931648802 0.43334555462578611 0 0.36575549820117997 0.31677992835137742 0 0.33277555741076909 0.36432196682010132 0 0.32752639306529541 0.32610012995269699 0 0.35752321586431363 0.9185439911803448 0 0.32544832635163229 0.95485394099568932 0 0.30864387279288652 0.89906554525974958 0 0.27609987656793722 0.94991445621608572 0 0.30864387279288652 0.89906554525974958 0 0.32544832635163229 0.95485394099568932 0 0.33123028043633618 0.77629643437932982 0 0.30857225866488791 0.81101973481716805 0 0.2792923945214143 0.77665808831789485 0 0.33758650185219202 0.23837101504325639 0 0.29132859388405002 0.27203693976649962 0 0.28040350263641872 0.23054717217092141 0 0.4409427642593301 0.35743108089689513 0 0.41914690343363781 0.30688979866601612 0 0.46226845272279993 0.31901800744800313 0 0.14332333627550789 0.14578431753966009 0 0.13737030665753211 0.20313708640667491 0 0.106902708054812 0.16453234188234539 0 0.083105206071467416 0.20007701332709979 0 0.106902708054812 0.16453234188234539 0 0.13737030665753211 0.20313708640667491 0 0.083105206071452636 0.79992298667296435 0 0.1382744753146134 0.79650574229207483 0 0.1074251789111534 0.83564394292147814 0 0.14474682429600511 0.85524784522713515 0 0.1074251789111534 0.83564394292147814 0 0.1382744753146134 0.79650574229207483 0 0.65408113592120842 0.073941773121567966 0 0.7010294155333181 0.056779085686491267 0 0.68330259535470161 0.10038702501083881 0 0.72525833953073282 0.1032114801687094 0 0.68330259535470161 0.10038702501083881 0 0.7010294155333181 0.056779085686491267 0 0.049706944316475897 0.72477277076253799 0 0.046634677244967337 0.671418230738282 0 0.1020579365089687 0.69352219419301997 0 0.086179601630648681 0.64647209519980475 0 0.1020579365089687 0.69352219419301997 0 0.046634677244967337 0.671418230738282 0 0.087545339447545459 0.35122518864182262 0 0.046389130980076937 0.32668781832131749 0 0.093851963071650835 0.30582068233324772 0 0.049706944316556423 0.27522722923869108 0 0.093851963071650835 0.30582068233324772 0 0.046389130980076937 0.32668781832131749 0 0.82709327591091286 0.84937141670920724 0 0.80041942726660109 0.81543261647703358 0 0.84725310900444062 0.80779732082917555 0 0.82709327591102189 0.14937141670914489 0 0.80076557130237269 0.1154587552654202 0 0.84725310900442086 0.10779732082922661 0 0.17933913398461551 0.2350063570234002 0 0.14377654328998779 0.2442024734791064 0 0.13737030665753211 0.20313708640667491 0 0.18269480424590959 0.75905448272264375 0 0.1382744753146134 0.79650574229207483 0 0.14335651144331049 0.75565258250209677 0 0.33758650185219202 0.23837101504325639 0 0.3786248352540974 0.27082301512024259 0 0.33402499257867951 0.28911035184473982 0 0.14332333627550789 0.14578431753966009 0 0.18124454140915969 0.18790916706335251 0 0.13737030665753211 0.20313708640667491 0 0.14474682429600511 0.85524784522713515 0 0.1382744753146134 0.79650574229207483 0 0.17777405986036951 0.81832336108265358 0 0.5 0.29999999999999999 0 0.52752007115234678 0.33170632466418198 0 0.49077833859261139 0.35229981449445641 0 0.27866744612395528 0.38416094670951489 0 0.29644548887253103 0.34914008784168082 0 0.33277555741076909 0.36432196682010132 0 0 0.84999999999965292 0 0 0.79999999999999982 0 0.038512288486097702 0.8155852717111195 0 0 0.20000000000083221 0 0 0.15000000000062411 0 0.038512288486115001 0.1844147282893184 0 0.40326160981139969 0.73346192995102844 0 0.35415581127540569 0.73730480045900215 0 0.36622285152418499 0.69092437780804039 0 0.91696753777131557 0.497780560203536 0 0.96228564064454991 0.48206450662049471 0 0.95631871884947484 0.51827533208233789 0 0.33758650185219202 0.23837101504325639 0 0.31255190597181792 0.19850845631528771 0 0.3572130504031617 0.1874703368446563 0 0.59814117807200873 0.23398510860739519 0 0.62657463266645097 0.26524202571255862 0 0.5794309697024993 0.27124795968204829 0 0.34258405725730701 0.4444034294386992 0 0.31068898841644388 0.47541502461811092 0 0.29124338931648802 0.43334555462578611 0 0.38083244760691543 0.38531983672244652 0 0.35221190152536241 0.40457127605439203 0 0.33277555741076909 0.36432196682010132 0 0.083411279318375747 0.91030024466934134 0 0.10266856499240549 0.95548163909968886 0 0.053064897599294662 0.95186845269532028 0 0.083411279318303222 0.089699755330707398 0 0.053064897599215843 0.048131547304697528 0 0.10266856499169109 0.044518360900210059 0 0.42377727103934271 0.25099357235810238 0 0.4604742573284204 0.27846934318264788 0 0.41914690343363781 0.30688979866601612 0 0.28307294598219601 0.50789252727458634 0 0.25982634974572738 0.46097799597715272 0 0.31068898841644388 0.47541502461811092 0 0.29348325746214782 0.31350119524708198 0 0.29132859388405002 0.27203693976649962 0 0.33402499257867951 0.28911035184473982 0 0.35312867752657662 0.084946736076730367 0 0.39823268594401579 0.1116623613130045 0 0.36246644853392812 0.1399454205365751 0 0.7000000000006934 1 0 0.68015064798562208 0.95924320340003011 0 0.7250000000005199 0.94981617647078953 0 0.42377727103934271 0.25099357235810238 0 0.38831533174504851 0.2189834941785925 0 0.42905200079338551 0.19982395548231649 0 0.53823865529665704 0.45873898050322898 0 0.57744073070774993 0.41535148636609359 0 0.57975577671020095 0.46172033326338591 0 0.33758650185219202 0.23837101504325639 0 0.3572130504031617 0.1874703368446563 0 0.38831533174504851 0.2189834941785925 0 0.29124338931648802 0.43334555462578611 0 0.31068898841644388 0.47541502461811092 0 0.25982634974572738 0.46097799597715272 0 0.6084546825910605 0.37989672713932537 0 0.61959173890754571 0.33832250091341232 0 0.65481233915350323 0.35652751921065562 0 0.40326160981139969 0.73346192995102844 0 0.43323420005758778 0.6913544522562407 0 0.45582236402875981 0.73896743678908217 0 0.33758650185219202 0.23837101504325639 0 0.28040350263641872 0.23054717217092141 0 0.31255190597181792 0.19850845631528771 0 0.79999999999999982 1 0 0.75000000000034661 1 0 0.770759834363826 0.95919399014344442 0 0.74999999999999989 0.29999999999999999 0 0.77075983436335049 0.25919399014334171 0 0.79999999999999982 0.29999999999999999 0 0.6499999999999998 0.29999999999999999 0 0.67933712972090698 0.25920070958121938 0 0.69999999999999984 0.29999999999999999 0 0.39536230704883951 0.84069429572832477 0 0.39767323751400468 0.89584229130535065 0 0.35864759629805099 0.87963482415279515 0 0.54999999999999993 0.69999999999999996 0 0.52584555706968406 0.66664215091846768 0 0.57484956128872922 0.66573805030881994 0 0.35312867752657662 0.084946736076730367 0 0.32541448401678508 0.046215317981507749 0 0.3615861437013822 0.03582617922508851 0 0.35752321586431363 0.9185439911803448 0 0.36184234618600131 0.96443954459096326 0 0.32544832635163229 0.95485394099568932 0 0.35312867752657662 0.084946736076730367 0 0.3615861437013822 0.03582617922508851 0 0.39591832466117061 0.056982757562006353 0 0.35752321586431363 0.9185439911803448 0 0.39641108128798319 0.94356127926187128 0 0.36184234618600131 0.96443954459096326 0 0.083411279318303222 0.089699755330707398 0 0.044310582753132287 0.101412518374475 0 0.053064897599215843 0.048131547304697528 0 0.083411279318375747 0.91030024466934134 0 0.053064897599294662 0.95186845269532028 0 0.0443105827531413 0.89858748162559932 0 0.38083244760691543 0.38531983672244652 0 0.40076539126862748 0.34589349467022118 0 0.42161023666869668 0.39493916313643851 0 0.4409427642593301 0.35743108089689513 0 0.42161023666869668 0.39493916313643851 0 0.40076539126862748 0.34589349467022118 0 0.79999999999999982 0.29999999999999999 0 0.82500000000000062 0.33010209762754811 0 0.78145581580700685 0.34881365920033602 0 0.79999999999999982 0.69999999999999996 0 0.7750489929959945 0.66593931409600093 0 0.82457059160610424 0.66831947184359608 0 0.59999999999999976 0.69999999999999996 0 0.57484956128872922 0.66573805030881994 0 0.62460753523532009 0.66851202781000296 0 0.74999999999999989 0.69999999999999996 0 0.72500000000000064 0.67022701834392062 0 0.7750489929959945 0.66593931409600093 0 0.74999999999999989 0.29999999999999999 0 0.78145581580700685 0.34881365920033602 0 0.73090396928863699 0.33699297293167962 0 0.33758650185219202 0.23837101504325639 0 0.33402499257867951 0.28911035184473982 0 0.29132859388405002 0.27203693976649962 0 0.36575549820117997 0.31677992835137742 0 0.41914690343363781 0.30688979866601612 0 0.40076539126862748 0.34589349467022118 0 0.4409427642593301 0.35743108089689513 0 0.40076539126862748 0.34589349467022118 0 0.41914690343363781 0.30688979866601612 0 0.34258405725730701 0.4444034294386992 0 0.38707855792647411 0.42299362914874578 0 0.3908716102680424 0.47010282357248828 0 0.7000000000006934 1 0 0.65000000000104008 1 0 0.68015064798562208 0.95924320340003011 0 0.49102375406324739 0.49123754822244059 0 0.46111841286828259 0.46690301029591341 0 0.48858720058566618 0.43964267759203868 0 0.4656888918609538 0.78493261229743638 0 0.42676259796334498 0.76772545931379299 0 0.45582236402875981 0.73896743678908217 0 0.40326160981139969 0.73346192995102844 0 0.45582236402875981 0.73896743678908217 0 0.42676259796334498 0.76772545931379299 0 0.59999999999999976 0.29999999999999999 0 0.62657463266645097 0.26524202571255862 0 0.6499999999999998 0.29999999999999999 0 0.40000000000166441 1 0 0.36184234618600131 0.96443954459096326 0 0.39641108128798319 0.94356127926187128 0 0.3999999999989749 0 0 0.39591832466117061 0.056982757562006353 0 0.3615861437013822 0.03582617922508851 0 0.43249999999999988 0.43937499999999979 0 0.48858720058566618 0.43964267759203868 0 0.46111841286828259 0.46690301029591341 0 0.7250000000005199 0.89375000000045834 0 0.7250000000005199 0.94981617647078953 0 0.68987011941058407 0.92105047536677087 0 0.7250000000005199 0.89375000000045834 0 0.75729602384198635 0.92353652857884294 0 0.7250000000005199 0.94981617647078953 0 0.72500000000001008 0.19776155966387679 0 0.75668890529066124 0.2244279804069782 0 0.72500000000000064 0.2498161764706 0 0.72500000000001008 0.19776155966387679 0 0.72500000000000064 0.2498161764706 0 0.69397719155551807 0.2245125647000914 0 0.79999999999999982 0.29999999999999999 0 0.81486180804364938 0.26321394949780091 0 0.84999999999999987 0.29999999999999999 0 0.84999999999965292 1 0 0.79999999999999982 1 0 0.81486180804382891 0.96321394949790495 0 0.1247745017231483 0.27198077544791172 0 0.095326043202144745 0.24554465089224409 0 0.14377654328998779 0.2442024734791064 0 0.1215415378367805 0.72939333680004137 0 0.14335651144331049 0.75565258250209677 0 0.090953281884486245 0.7564451946902494 0 0.72500000000001008 0.19776155966387679 0 0.72634814642510737 0.16106886917518889 0 0.76587607630038135 0.18880039518954719 0 0.72500000000001008 0.19776155966387679 0 0.6865991819015953 0.189116534044597 0 0.72634814642510737 0.16106886917518889 0 0.77144070960558853 0.14311854477243749 0 0.76587607630038135 0.18880039518954719 0 0.72634814642510737 0.16106886917518889 0 0.68391457121233579 0.14440470121196541 0 0.72634814642510737 0.16106886917518889 0 0.6865991819015953 0.189116534044597 0 0.7250000000005199 0.89375000000045834 0 0.72863726579783861 0.85390518901155588 0 0.76891166905518427 0.88835469571185499 0 0.76901770135486491 0.84293557325473656 0 0.76891166905518427 0.88835469571185499 0 0.72863726579783861 0.85390518901155588 0 0 0.20000000000083221 0 0.038512288486115001 0.1844147282893184 0 0.044081577119474857 0.2271058242433576 0 0 0.79999999999999982 0 0.04408157711937423 0.7728941757575627 0 0.038512288486097702 0.8155852717111195 0 0.52375890611712683 0.059318771819432882 0 0.47881186583059909 0.093591717165689425 0 0.47040171442036788 0.044141676406503738 0 0.52122150208832174 0.94089974453840242 0 0.47135117303824892 0.95556877749289892 0 0.47401147028110507 0.91529957330468115 0 0.27474541102162192 0.11822029332053539 0 0.3096713403101819 0.085471541595262421 0 0.32215584939770009 0.1218492143506909 0 0.22278230690790279 0.44824268025881547 0 0.24049127783545701 0.41270748208749802 0 0.25982634974572738 0.46097799597715272 0 0.93732437411268477 0.55911392101136159 0 0.91143117093204207 0.58709913730335972 0 0.90900154012161016 0.53607784105648792 0 0.19901705110390991 0.9175543425573498 0 0.24536017905392571 0.90704567837671446 0 0.22850979588452081 0.95594428570238643 0 0.27609987656793722 0.94991445621608572 0 0.22850979588452081 0.95594428570238643 0 0.24536017905392571 0.90704567837671446 0 0.15720202157091859 0.60665697304410315 0 0.1241190223511371 0.64391885572885044 0 0.1024350934457823 0.60772393977513839 0 0.6499999999999998 0.69999999999999996 0 0.675261390228442 0.65996937624687813 0 0.69999999999999984 0.69999999999999996 0 0.3999999999989749 0 0 0.4320097814748517 0.037406712692169303 0 0.39591832466117061 0.056982757562006353 0 0.40000000000166441 1 0 0.39641108128798319 0.94356127926187128 0 0.4308986359464303 0.96395712492906194 0 0.54999999999999993 0.29999999999999999 0 0.56836770495988642 0.3523062350852913 0 0.52752007115234678 0.33170632466418198 0 0.14474682429600511 0.85524784522713515 0 0.17777405986036951 0.81832336108265358 0 0.19741632902693801 0.86755867406447229 0 0.21858834311891909 0.81980263716112767 0 0.19741632902693801 0.86755867406447229 0 0.17777405986036951 0.81832336108265358 0 0.54782696902220018 0.79245182748204157 0 0.50731287292894423 0.78963574450233831 0 0.50945740445113552 0.75476055527778108 0 0.20000000000083221 1 0 0.18474005699953849 0.96231585248064622 0 0.22850979588452081 0.95594428570238643 0 0.19999999999955789 0 0 0.22668068146512929 0.045875643423131329 0 0.184418230509967 0.038773194583122873 0 0.77846603114747959 0.49850927265137401 0 0.73947346780852752 0.49062440112282169 0 0.77972660463949339 0.45529290596363098 0 0.73483647259922602 0.44789725365921768 0 0.77972660463949339 0.45529290596363098 0 0.73947346780852752 0.49062440112282169 0 0.34258405725730701 0.4444034294386992 0 0.35024835142131061 0.48654922671676981 0 0.31068898841644388 0.47541502461811092 0 0.33123028043633618 0.77629643437932982 0 0.2792923945214143 0.77665808831789485 0 0.29904318922293632 0.74132814928635593 0 0.26573297623774761 0.59828298563722948 0 0.25115337790845271 0.54719303014923271 0 0.29110487519241501 0.56588143995431495 0 0.4656888918609538 0.78493261229743638 0 0.50945740445113552 0.75476055527778108 0 0.50731287292894423 0.78963574450233831 0 0.35312867752657662 0.084946736076730367 0 0.36246644853392812 0.1399454205365751 0 0.32215584939770009 0.1218492143506909 0 0.29348325746214782 0.31350119524708198 0 0.25966125648670141 0.34351016742083729 0 0.24432083401701241 0.3006253385567515 0 0.59999999999999976 0.69999999999999996 0 0.6499999999999998 0.69999999999999996 0 0.63221990677827677 0.73442891067859706 0 0.69999999999921003 0 0 0.7010294155333181 0.056779085686491267 0 0.66369801598854572 0.036327466368102787 0 0.40000000000166441 1 0 0.35000000000145642 1 0 0.36184234618600131 0.96443954459096326 0 0.34999999999912063 0 0 0.3999999999989749 0 0 0.3615861437013822 0.03582617922508851 0 0.43507373378304309 0.49699695397193322 0 0.47793794143994173 0.52940715638744962 0 0.42644501560315817 0.54603747078095544 0 0.14474682429600511 0.85524784522713515 0 0.19741632902693801 0.86755867406447229 0 0.16206583317966519 0.89685560785156404 0 0.19901705110390991 0.9175543425573498 0 0.16206583317966519 0.89685560785156404 0 0.19741632902693801 0.86755867406447229 0 0.35864735590330371 0.63903383440414463 0 0.3977710372045391 0.65868194622830212 0 0.36622285152418499 0.69092437780804039 0 0.7527966693318906 0.053051678021508272 0 0.7010294155333181 0.056779085686491267 0 0.72683645290270404 0.027797073151180601 0 0.71508799138962864 0.36622814920737751 0 0.72622533758026719 0.40265885511101601 0 0.68128176404677243 0.38629093627004979 0 0.79999999999999982 0.69999999999999996 0 0.84999999999999987 0.69999999999999996 0 0.81864958914779962 0.73589050177899629 0 0.79999999999947335 0 0 0.84999999999960507 0 0 0.81864958914740749 0.035890501779055867 0 0.39536230704883951 0.84069429572832477 0 0.35642984951668422 0.80994399665655703 0 0.38586766253264881 0.78219501014812498 0 0.42377727103934271 0.25099357235810238 0 0.46429753744194407 0.22870891180733599 0 0.4604742573284204 0.27846934318264788 0 0.39801143831225599 0.16651381068160659 0 0.42905200079338551 0.19982395548231649 0 0.38831533174504851 0.2189834941785925 0 0.79999999999999982 1 0 0.770759834363826 0.95919399014344442 0 0.81486180804382891 0.96321394949790495 0 0.79999999999999982 0.29999999999999999 0 0.77075983436335049 0.25919399014334171 0 0.81486180804364938 0.26321394949780091 0 0.25195515620380449 0.25883339815888678 0 0.21049769590865089 0.26857363548218488 0 0.224700362040408 0.22206622194729711 0 0.40326160981139969 0.73346192995102844 0 0.42676259796334498 0.76772545931379299 0 0.38586766253264881 0.78219501014812498 0 0.35312867752657662 0.084946736076730367 0 0.3096713403101819 0.085471541595262421 0 0.32541448401678508 0.046215317981507749 0 0.59999999999999976 0.29999999999999999 0 0.6499999999999998 0.29999999999999999 0 0.61959173890754571 0.33832250091341232 0 0.2185883431182947 0.18019736283949719 0 0.18652628422869419 0.14162325200928061 0 0.22985637510995899 0.1298347970200906 0 0.64999999999907843 0 0 0.69999999999921003 0 0 0.66369801598854572 0.036327466368102787 0 0.27499999999933927 0.060310814194988557 0 0.24218496799700481 0.089025544070598317 0 0.22668068146512929 0.045875643423131329 0 0.19922788606653311 0.085920220746880993 0 0.22668068146512929 0.045875643423131329 0 0.24218496799700481 0.089025544070598317 0 0.65507451745379841 0.92229208810758578 0 0.66412543161245952 0.88015090885499059 0 0.68987011941058407 0.92105047536677087 0 0.049706944316475897 0.72477277076253799 0 0.090953281884486245 0.7564451946902494 0 0.04408157711937423 0.7728941757575627 0 0.083105206071452636 0.79992298667296435 0 0.04408157711937423 0.7728941757575627 0 0.090953281884486245 0.7564451946902494 0 0.083105206071467416 0.20007701332709979 0 0.095326043202144745 0.24554465089224409 0 0.044081577119474857 0.2271058242433576 0 0.049706944316556423 0.27522722923869108 0 0.044081577119474857 0.2271058242433576 0 0.095326043202144745 0.24554465089224409 0 0.36575549820117997 0.31677992835137742 0 0.33402499257867951 0.28911035184473982 0 0.3786248352540974 0.27082301512024259 0 0.53245488764484505 0.55078124999999989 0 0.53330375813596242 0.50827942741749099 0 0.57435499076887508 0.54267261987897775 0 0.57611405284611883 0.50165903596042916 0 0.57435499076887508 0.54267261987897775 0 0.53330375813596242 0.50827942741749099 0 0.6499999999999998 0.29999999999999999 0 0.69999999999999984 0.29999999999999999 0 0.68887083591306764 0.33632058575757479 0 0.57611405284611883 0.50165903596042916 0 0.53823865529665704 0.45873898050322898 0 0.57975577671020095 0.46172033326338591 0 0.7750489929959945 0.66593931409600093 0 0.72500000000000064 0.67022701834392062 0 0.74994237037456724 0.62775548192980357 0 0.78145581580700685 0.34881365920033602 0 0.74764719760526988 0.3719647154012321 0 0.73090396928863699 0.33699297293167962 0 0.3999999999989749 0 0 0.44999999999882923 0 0 0.4320097814748517 0.037406712692169303 0 0.45000000000187229 1 0 0.40000000000166441 1 0 0.4308986359464303 0.96395712492906194 0 0.57484956128872922 0.66573805030881994 0 0.5991018319127801 0.62925360607495295 0 0.62460753523532009 0.66851202781000296 0 0.7750489929959945 0.66593931409600093 0 0.79884539758237771 0.62875045078114233 0 0.82457059160610424 0.66831947184359608 0 0.39801143831225599 0.16651381068160659 0 0.36246644853392812 0.1399454205365751 0 0.39823268594401579 0.1116623613130045 0 0.078358742472063481 0.43365249433908948 0 0.033550201249889847 0.46247875832467239 0 0.035463093262830522 0.42673416072819947 0 0.25676291524611189 0.7436741304886243 0 0.2792923945214143 0.77665808831789485 0 0.22556077506376701 0.77837424984191617 0 0.2236846579037573 0.67380363126050236 0 0.2248999640082178 0.72584299459689172 0 0.19068556247388771 0.71028988922845504 0 0.50715858906372158 0.63295939104129484 0 0.5166924242153631 0.59825134841919447 0 0.5498280205245758 0.6290146943450976 0 0.14618258501891079 0.062070108745602003 0 0.12372429750337779 0.095814237875728972 0 0.10266856499169109 0.044518360900210059 0 0.083411279318303222 0.089699755330707398 0 0.10266856499169109 0.044518360900210059 0 0.12372429750337779 0.095814237875728972 0 0.083411279318375747 0.91030024466934134 0 0.1241151115713819 0.9045666525468371 0 0.10266856499240549 0.95548163909968886 0 0.14617343800780541 0.93808063414349496 0 0.10266856499240549 0.95548163909968886 0 0.1241151115713819 0.9045666525468371 0 0.5499999999988151 0 0 0.59999999999894682 0 0 0.57396793757665954 0.037011367187645222 0 0.54782696902220018 0.79245182748204157 0 0.50627822638148745 0.8263979829520941 0 0.50731287292894423 0.78963574450233831 0 0.6499999999999998 0.29999999999999999 0 0.62657463266645097 0.26524202571255862 0 0.67933712972090698 0.25920070958121938 0 0.86956835336234861 0.571283299838105 0 0.86907294890112186 0.52008116128001669 0 0.90900154012161016 0.53607784105648792 0 0.17933913398461551 0.2350063570234002 0 0.224700362040408 0.22206622194729711 0 0.21049769590865089 0.26857363548218488 0 0.43249999999999988 0.43937499999999979 0 0.3908716102680424 0.47010282357248828 0 0.38707855792647411 0.42299362914874578 0 0.27474541102162192 0.11822029332053539 0 0.22985637510995899 0.1298347970200906 0 0.24218496799700481 0.089025544070598317 0 0.64753070846764316 0.77332939069435502 0 0.66427993341343905 0.73232764502436276 0 0.6916490518212759 0.75387992374886192 0 0 0.40000000000166441 0 0.050583896093752537 0.38543522283434112 0 0.035463093262830522 0.42673416072819947 0 0.73483647259922602 0.44789725365921768 0 0.73947346780852752 0.49062440112282169 0 0.69385896817107129 0.48377516041410151 0 0.57484956128872922 0.66573805030881994 0 0.52584555706968406 0.66664215091846768 0 0.5498280205245758 0.6290146943450976 0 0.60000000000138687 1 0 0.55000000000173355 1 0 0.57382506491224949 0.9629411906298494 0 0.068743045408989428 0.48853989837882689 0 0.085622222639554768 0.53333248912060549 0 0.044576108720083309 0.53509043209532614 0 0.083105206071467416 0.20007701332709979 0 0.044081577119474857 0.2271058242433576 0 0.038512288486115001 0.1844147282893184 0 0.083105206071452636 0.79992298667296435 0 0.038512288486097702 0.8155852717111195 0 0.04408157711937423 0.7728941757575627 0 0.28307294598219601 0.50789252727458634 0 0.23975172658309729 0.49475499200540818 0 0.25982634974572738 0.46097799597715272 0 0.43698630808430822 0.080423614171545449 0 0.39591832466117061 0.056982757562006353 0 0.4320097814748517 0.037406712692169303 0 0.4367309254023824 0.92065556789053882 0 0.4308986359464303 0.96395712492906194 0 0.39641108128798319 0.94356127926187128 0 0.80185942888539485 0.77452061303608133 0 0.75841349681148107 0.75422312624214749 0 0.78578450296893509 0.73292684821144505 0 0.80185942888501827 0.074520613036224564 0 0.7527966693318906 0.053051678021508272 0 0.78393852574753176 0.032039079577822822 0 0.6499999999999998 0.69999999999999996 0 0.62460753523532009 0.66851202781000296 0 0.675261390228442 0.65996937624687813 0 0.33123028043633618 0.77629643437932982 0 0.38586766253264881 0.78219501014812498 0 0.35642984951668422 0.80994399665655703 0 0.6405463747586706 0.63290524857395714 0 0.675261390228442 0.65996937624687813 0 0.62460753523532009 0.66851202781000296 0 0.22278230690790279 0.44824268025881547 0 0.191953871957803 0.42546416763755879 0 0.24049127783545701 0.41270748208749802 0 0.077693244765132896 0.56932317963405099 0 0.050069554451969707 0.61308520079857043 0 0.034381862692950467 0.57372682250960894 0 0.25195515620380449 0.25883339815888678 0 0.24432083401701241 0.3006253385567515 0 0.21049769590865089 0.26857363548218488 0 0.46666084890304671 0.57634471035397938 0 0.5166924242153631 0.59825134841919447 0 0.47095389620662098 0.61892551373708504 0 0.50715858906372158 0.63295939104129484 0 0.47095389620662098 0.61892551373708504 0 0.5166924242153631 0.59825134841919447 0 0.72525833953073282 0.1032114801687094 0 0.7527966693318906 0.053051678021508272 0 0.76878382444651716 0.097147941686331368 0 0.80185942888501827 0.074520613036224564 0 0.76878382444651716 0.097147941686331368 0 0.7527966693318906 0.053051678021508272 0 0.72500000000000064 0.7952620967744265 0 0.75841349681148107 0.75422312624214749 0 0.77094201086366854 0.79647480515688507 0 0.80185942888539485 0.77452061303608133 0 0.77094201086366854 0.79647480515688507 0 0.75841349681148107 0.75422312624214749 0 0.72500000000000064 0.7952620967744265 0 0.68024162096458085 0.79868546898116533 0 0.6916490518212759 0.75387992374886192 0 0.64753070846764316 0.77332939069435502 0 0.6916490518212759 0.75387992374886192 0 0.68024162096458085 0.79868546898116533 0 0 0.50000000000205869 0 0 0.45000000000187229 0 0.033550201249889847 0.46247875832467239 0 0.69999999999999984 0.69999999999999996 0 0.675261390228442 0.65996937624687813 0 0.72500000000000064 0.67022701834392062 0 0.71406021706547751 0.63292083137662503 0 0.72500000000000064 0.67022701834392062 0 0.675261390228442 0.65996937624687813 0 0.65408113592120842 0.073941773121567966 0 0.61940220174112337 0.047251958781050582 0 0.66369801598854572 0.036327466368102787 0 0.59999999999894682 0 0 0.61940220174112337 0.047251958781050582 0 0.57396793757665954 0.037011367187645222 0 0.60000000000138687 1 0 0.57382506491224949 0.9629411906298494 0 0.62065498684670595 0.95224934003983619 0 0.33122374654748771 0.57588941099433744 0 0.35765792684946668 0.6000687869219653 0 0.31502927232353312 0.6134992213375432 0 0.35864735590330371 0.63903383440414463 0 0.31502927232353312 0.6134992213375432 0 0.35765792684946668 0.6000687869219653 0 0.15801167086041079 0.46008690540259539 0 0.19604738184454831 0.47787523520405789 0 0.16618607197337229 0.50652878253548905 0 0.078358742472063481 0.43365249433908948 0 0.035463093262830522 0.42673416072819947 0 0.050583896093752537 0.38543522283434112 0 0.19901705110390991 0.9175543425573498 0 0.22850979588452081 0.95594428570238643 0 0.18474005699953849 0.96231585248064622 0 0.19922788606653311 0.085920220746880993 0 0.184418230509967 0.038773194583122873 0 0.22668068146512929 0.045875643423131329 0 0.19922788606653311 0.085920220746880993 0 0.24218496799700481 0.089025544070598317 0 0.22985637510995899 0.1298347970200906 0 0.74999999999999989 0.69999999999999996 0 0.78578450296893509 0.73292684821144505 0 0.75841349681148107 0.75422312624214749 0 0.74999999999934175 0 0 0.78393852574753176 0.032039079577822822 0 0.7527966693318906 0.053051678021508272 0 0 0.60000000000138687 0 0.034381862692950467 0.57372682250960894 0 0.050069554451969707 0.61308520079857043 0 0.2236846579037573 0.67380363126050236 0 0.26439878998046262 0.7048065392091396 0 0.2248999640082178 0.72584299459689172 0 0.6236733212988993 0.14864538214901801 0 0.58516465772821369 0.11653801664834119 0 0.61956000905586006 0.1043312481793135 0 0.26104540868854792 0.81401944968719064 0 0.2792923945214143 0.77665808831789485 0 0.30857225866488791 0.81101973481716805 0 0.42377727103934271 0.25099357235810238 0 0.42905200079338551 0.19982395548231649 0 0.46429753744194407 0.22870891180733599 0 0.27820712747429932 0.65530134213254643 0 0.31502927232353312 0.6134992213375432 0 0.32263089806001177 0.66003674931826484 0 0.61343887413683884 0.856862479058357 0 0.61885627562261258 0.90282959257498208 0 0.5832743223239254 0.88483152652961872 0 0.43698630808430822 0.080423614171545449 0 0.47040171442036788 0.044141676406503738 0 0.47881186583059909 0.093591717165689425 0 0.4367309254023824 0.92065556789053882 0 0.47401147028110507 0.91529957330468115 0 0.47135117303824892 0.95556877749289892 0 0.91696753777131557 0.497780560203536 0 0.95631871884947484 0.51827533208233789 0 0.90900154012161016 0.53607784105648792 0 0.93732437411268477 0.55911392101136159 0 0.90900154012161016 0.53607784105648792 0 0.95631871884947484 0.51827533208233789 0 0.27474541102162192 0.11822029332053539 0 0.25557216766470708 0.15874861286892261 0 0.22985637510995899 0.1298347970200906 0 0.2185883431182947 0.18019736283949719 0 0.22985637510995899 0.1298347970200906 0 0.25557216766470708 0.15874861286892261 0 0.29348325746214782 0.31350119524708198 0 0.33402499257867951 0.28911035184473982 0 0.32752639306529541 0.32610012995269699 0 0.27499999999933927 0.060310814194988557 0 0.32541448401678508 0.046215317981507749 0 0.3096713403101819 0.085471541595262421 0 0.27270076654418179 0.87751467830216623 0 0.24536017905392571 0.90704567837671446 0 0.2401283238295133 0.85648409884788523 0 1 0.44999999999963131 0 1 0.49999999999950101 0 0.96228564064454991 0.48206450662049471 0 0.61343887413683884 0.856862479058357 0 0.66412543161245952 0.88015090885499059 0 0.61885627562261258 0.90282959257498208 0 0 0.45000000000187229 0 0 0.40000000000166441 0 0.035463093262830522 0.42673416072819947 0 0.69999999999999984 0.69999999999999996 0 0.6916490518212759 0.75387992374886192 0 0.66427993341343905 0.73232764502436276 0 0.43846182030517877 0.64845797726506715 0 0.43323420005758778 0.6913544522562407 0 0.3977710372045391 0.65868194622830212 0 0.4367309254023824 0.92065556789053882 0 0.44003836461056539 0.88093474584252718 0 0.47401147028110507 0.91529957330468115 0 0.43846182030517877 0.64845797726506715 0 0.39743091024207589 0.6239520004230239 0 0.43545892161006339 0.61093128915313821 0 0.43846182030517877 0.64845797726506715 0 0.3977710372045391 0.65868194622830212 0 0.39743091024207589 0.6239520004230239 0 0.26429849586623999 0.19346700179430079 0 0.29336099386129338 0.15892013001050981 0 0.31255190597181792 0.19850845631528771 0 0.19670163708476801 0.31472518408333222 0 0.21049769590865089 0.26857363548218488 0 0.24432083401701241 0.3006253385567515 0 0.57724883562309992 0.92155686857100794 0 0.62065498684670595 0.95224934003983619 0 0.57382506491224949 0.9629411906298494 0 0.4409427642593301 0.35743108089689513 0 0.46655310992796922 0.39650496622958609 0 0.42161023666869668 0.39493916313643851 0 0.46666084890304671 0.57634471035397938 0 0.47095389620662098 0.61892551373708504 0 0.43545892161006339 0.61093128915313821 0 0.6879972333610942 0.43038561374960838 0 0.65178832218679827 0.45929119821019959 0 0.63912439215427275 0.41063340167983359 0 0.43698630808430822 0.080423614171545449 0 0.4320097814748517 0.037406712692169303 0 0.47040171442036788 0.044141676406503738 0 0.4367309254023824 0.92065556789053882 0 0.47135117303824892 0.95556877749289892 0 0.4308986359464303 0.96395712492906194 0 0.79680861578988083 0.92656778056766709 0 0.81486180804382891 0.96321394949790495 0 0.770759834363826 0.95919399014344442 0 0.79680861578956375 0.22656778056752541 0 0.81486180804364938 0.26321394949780091 0 0.77075983436335049 0.25919399014334171 0 0.71508799138962864 0.36622814920737751 0 0.68128176404677243 0.38629093627004979 0 0.68887083591306764 0.33632058575757479 0 0.35864735590330371 0.63903383440414463 0 0.32263089806001177 0.66003674931826484 0 0.31502927232353312 0.6134992213375432 0 0.21858834311891909 0.81980263716112767 0 0.2401283238295133 0.85648409884788523 0 0.19741632902693801 0.86755867406447229 0 0.35312867752657662 0.084946736076730367 0 0.32215584939770009 0.1218492143506909 0 0.3096713403101819 0.085471541595262421 0 0.35752321586431363 0.9185439911803448 0 0.35864759629805099 0.87963482415279515 0 0.39767323751400468 0.89584229130535065 0 0.41914690343363781 0.30688979866601612 0 0.4604742573284204 0.27846934318264788 0 0.46226845272279993 0.31901800744800313 0 0.33084213324567391 0.16272720141332131 0 0.32215584939770009 0.1218492143506909 0 0.36246644853392812 0.1399454205365751 0 0.46666084890304671 0.57634471035397938 0 0.42644501560315817 0.54603747078095544 0 0.47793794143994173 0.52940715638744962 0 0 0.60000000000138687 0 0 0.55000000000173355 0 0.034381862692950467 0.57372682250960894 0 0.77354604466818633 0.40378688774472771 0 0.74764719760526988 0.3719647154012321 0 0.78145581580700685 0.34881365920033602 0 0.34999999999912063 0 0 0.3615861437013822 0.03582617922508851 0 0.32541448401678508 0.046215317981507749 0 0.35000000000145642 1 0 0.32544832635163229 0.95485394099568932 0 0.36184234618600131 0.96443954459096326 0 0.57667858002728545 0.078486105337742612 0 0.57396793757665954 0.037011367187645222 0 0.61940220174112337 0.047251958781050582 0 0.47357141910802508 0.1873585799078378 0 0.50760557329222289 0.20700468884612061 0 0.46429753744194407 0.22870891180733599 0 0.49695729691142171 0.25014895411178018 0 0.46429753744194407 0.22870891180733599 0 0.50760557329222289 0.20700468884612061 0 0.33084213324567391 0.16272720141332131 0 0.3572130504031617 0.1874703368446563 0 0.31255190597181792 0.19850845631528771 0 0.6879972333610942 0.43038561374960838 0 0.63912439215427275 0.41063340167983359 0 0.68128176404677243 0.38629093627004979 0 0.65408113592120842 0.073941773121567966 0 0.65290632656860115 0.11434202593454081 0 0.61956000905586006 0.1043312481793135 0 0.33084213324567391 0.16272720141332131 0 0.31255190597181792 0.19850845631528771 0 0.29336099386129338 0.15892013001050981 0 0.61209567303293111 0.44669033081290321 0 0.63912439215427275 0.41063340167983359 0 0.65178832218679827 0.45929119821019959 0 0.086179601630648681 0.64647209519980475 0 0.1024350934457823 0.60772393977513839 0 0.1241190223511371 0.64391885572885044 0 0.44999999999882923 0 0 0.47040171442036788 0.044141676406503738 0 0.4320097814748517 0.037406712692169303 0 0.45000000000187229 1 0 0.4308986359464303 0.96395712492906194 0 0.47135117303824892 0.95556877749289892 0 0.74999999999934175 0 0 0.7527966693318906 0.053051678021508272 0 0.72683645290270404 0.027797073151180601 0 0.74999999999999989 0.69999999999999996 0 0.75841349681148107 0.75422312624214749 0 0.72501250972655151 0.74067302935308721 0 0.69999999999999984 0.69999999999999996 0 0.72501250972655151 0.74067302935308721 0 0.6916490518212759 0.75387992374886192 0 0.74999999999934175 0 0 0.79999999999947335 0 0 0.78393852574753176 0.032039079577822822 0 0.74999999999999989 0.69999999999999996 0 0.79999999999999982 0.69999999999999996 0 0.78578450296893509 0.73292684821144505 0 0.6405463747586706 0.63290524857395714 0 0.5991018319127801 0.62925360607495295 0 0.63065402604362242 0.59661356661633302 0 0.65481233915350323 0.35652751921065562 0 0.68887083591306764 0.33632058575757479 0 0.68128176404677243 0.38629093627004979 0 0.89999999999999991 0.29999999999999999 0 0.94999999999999996 0.29999999999999999 0 0.92012390126144183 0.33123581297173937 0 0.89999999999999991 0.69999999999999996 0 0.92057473616084773 0.66770436535372446 0 0.94999999999999996 0.69999999999999996 0 0.4367309254023824 0.92065556789053882 0 0.39767323751400468 0.89584229130535065 0 0.44003836461056539 0.88093474584252718 0 0.2185883431182947 0.18019736283949719 0 0.18124454140915969 0.18790916706335251 0 0.18652628422869419 0.14162325200928061 0 0.20050006573841939 0.53248514016039872 0 0.19604738184454831 0.47787523520405789 0 0.23975172658309729 0.49475499200540818 0 0.65507451745379841 0.92229208810758578 0 0.61885627562261258 0.90282959257498208 0 0.66412543161245952 0.88015090885499059 0 0.65394964615507722 0.22666784374016369 0 0.67933712972090698 0.25920070958121938 0 0.62657463266645097 0.26524202571255862 0 0.077693244765132896 0.56932317963405099 0 0.034381862692950467 0.57372682250960894 0 0.044576108720083309 0.53509043209532614 0 0.39801143831225599 0.16651381068160659 0 0.38831533174504851 0.2189834941785925 0 0.3572130504031617 0.1874703368446563 0 0.6499999999999998 0.69999999999999996 0 0.69999999999999984 0.69999999999999996 0 0.66427993341343905 0.73232764502436276 0 0.1215415378367805 0.72939333680004137 0 0.15332765547575641 0.71200081858233666 0 0.14335651144331049 0.75565258250209677 0 0.6405463747586706 0.63290524857395714 0 0.63065402604362242 0.59661356661633302 0 0.67529834988829951 0.61613270668143583 0 0.67323294229744413 0.57556450033612505 0 0.67529834988829951 0.61613270668143583 0 0.63065402604362242 0.59661356661633302 0 0.91750694127107502 0.36982372220068471 0 0.87430060258887643 0.34056085888204451 0 0.92012390126144183 0.33123581297173937 0 0.89999999999999991 0.29999999999999999 0 0.92012390126144183 0.33123581297173937 0 0.87430060258887643 0.34056085888204451 0 0.89999999999999991 0.69999999999999996 0 0.87712158428786946 0.65709029563313581 0 0.92057473616084773 0.66770436535372446 0 0.91750694127105259 0.63017627779935648 0 0.92057473616084773 0.66770436535372446 0 0.87712158428786946 0.65709029563313581 0 0.33122374654748771 0.57588941099433744 0 0.29110487519241501 0.56588143995431495 0 0.33190227185843768 0.52715113583864037 0 0.57484956128872922 0.66573805030881994 0 0.5498280205245758 0.6290146943450976 0 0.5991018319127801 0.62925360607495295 0 0.57412547362576272 0.58273804879550706 0 0.5991018319127801 0.62925360607495295 0 0.5498280205245758 0.6290146943450976 0 0.65408113592120842 0.073941773121567966 0 0.66369801598854572 0.036327466368102787 0 0.7010294155333181 0.056779085686491267 0 0.27474541102162192 0.11822029332053539 0 0.32215584939770009 0.1218492143506909 0 0.29336099386129338 0.15892013001050981 0 0.33084213324567391 0.16272720141332131 0 0.29336099386129338 0.15892013001050981 0 0.32215584939770009 0.1218492143506909 0 0.5 0.29999999999999999 0 0.54999999999999993 0.29999999999999999 0 0.52752007115234678 0.33170632466418198 0 0.83573492347052902 0.36590755630746369 0 0.87430060258887643 0.34056085888204451 0 0.86844634540301924 0.38530937474099819 0 0.83758014339878906 0.63222013025741819 0 0.87159648282691515 0.61285406320581504 0 0.87712158428786946 0.65709029563313581 0 0.22278230690790279 0.44824268025881547 0 0.23975172658309729 0.49475499200540818 0 0.19604738184454831 0.47787523520405789 0 1 0.49999999999950101 0 0.95631871884947484 0.51827533208233789 0 0.96228564064454991 0.48206450662049471 0 0.1650278706801647 0.38791388161335733 0 0.13773355295499351 0.42497777642586831 0 0.1117088112799664 0.38831403004970022 0 0.61209567303293111 0.44669033081290321 0 0.57975577671020095 0.46172033326338591 0 0.57744073070774993 0.41535148636609359 0 0.077693244765132896 0.56932317963405099 0 0.1154888278694548 0.56733818459978413 0 0.1024350934457823 0.60772393977513839 0 0.68697391633157634 0.84450604838764298 0 0.65005442820240822 0.82644988530054031 0 0.68024162096458085 0.79868546898116533 0 0.76901770135486491 0.84293557325473656 0 0.77094201086366854 0.79647480515688507 0 0.80041942726660109 0.81543261647703358 0 0.77144070960558853 0.14311854477243749 0 0.76878382444651716 0.097147941686331368 0 0.80076557130237269 0.1154587552654202 0 0.5 0.69999999999999996 0 0.52584555706968406 0.66664215091846768 0 0.54999999999999993 0.69999999999999996 0 0.077693244765132896 0.56932317963405099 0 0.044576108720083309 0.53509043209532614 0 0.085622222639554768 0.53333248912060549 0 0.69999999999921003 0 0 0.72683645290270404 0.027797073151180601 0 0.7010294155333181 0.056779085686491267 0 1 0 0 0.97166519676946894 0.033371144900598393 0 0.94999999999986839 0 0 1 0.69999999999999996 0 0.97166519676947294 0.73337114490064459 0 0.94999999999999996 0.69999999999999996 0 1 0.69999999999999996 0 1 0.74999999999993494 0 0.97166519676947294 0.73337114490064459 0 1 0.29999999999999999 0 0.97166519676951801 0.26662885509932011 0 1 0.24999999999987299 0 1 1 0 0.94999999999979179 1 0 0.97166519676946206 0.96662885509935492 0 1 0 0 1 0.049999999999896842 0 0.97166519676946894 0.033371144900598393 0 1 0.29999999999999999 0 0.94999999999999996 0.29999999999999999 0 0.97166519676951801 0.26662885509932011 0 1 1 0 0.97166519676946206 0.96662885509935492 0 1 0.94999999999997109 0 0 0.55000000000173355 0 0.044576108720083309 0.53509043209532614 0 0.034381862692950467 0.57372682250960894 0 0.6879972333610942 0.43038561374960838 0 0.69385896817107129 0.48377516041410151 0 0.65178832218679827 0.45929119821019959 0 0.33084213324567391 0.16272720141332131 0 0.36246644853392812 0.1399454205365751 0 0.3572130504031617 0.1874703368446563 0 0.65408113592120842 0.073941773121567966 0 0.68330259535470161 0.10038702501083881 0 0.65290632656860115 0.11434202593454081 0 0.16500388252850301 0.66612077714085194 0 0.19068556247388771 0.71028988922845504 0 0.15332765547575641 0.71200081858233666 0 0.82709327591091286 0.84937141670920724 0 0.85600844944837662 0.88483418979512773 0 0.81159157511211755 0.88795995483179491 0 0.82709327591102189 0.14937141670914489 0 0.85600844944842547 0.1848341897950983 0 0.81283102246527783 0.1881007222486438 0 0.79999999999999982 0.29999999999999999 0 0.84999999999999987 0.29999999999999999 0 0.82500000000000062 0.33010209762754811 0 0.79999999999999982 0.69999999999999996 0 0.82457059160610424 0.66831947184359608 0 0.84999999999999987 0.69999999999999996 0 0.59999999999999976 0.69999999999999996 0 0.62460753523532009 0.66851202781000296 0 0.6499999999999998 0.69999999999999996 0 0.39801143831225599 0.16651381068160659 0 0.3572130504031617 0.1874703368446563 0 0.36246644853392812 0.1399454205365751 0 0.69999999999999984 0.29999999999999999 0 0.74999999999999989 0.29999999999999999 0 0.73090396928863699 0.33699297293167962 0 0.69999999999999984 0.69999999999999996 0 0.72500000000000064 0.67022701834392062 0 0.74999999999999989 0.69999999999999996 0 0.6236733212988993 0.14864538214901801 0 0.64011864159029941 0.18789607982138171 0 0.59443395090188023 0.18455690917515069 0 0.20050006573841939 0.53248514016039872 0 0.16618607197337229 0.50652878253548905 0 0.19604738184454831 0.47787523520405789 0 0.79680861578956375 0.22656778056752541 0 0.76587607630038135 0.18880039518954719 0 0.81283102246527783 0.1881007222486438 0 0.79680861578988083 0.92656778056766709 0 0.76891166905518427 0.88835469571185499 0 0.81159157511211755 0.88795995483179491 0 0.71406021706547751 0.63292083137662503 0 0.675261390228442 0.65996937624687813 0 0.67529834988829951 0.61613270668143583 0 0.6405463747586706 0.63290524857395714 0 0.67529834988829951 0.61613270668143583 0 0.675261390228442 0.65996937624687813 0 0.19670163708476801 0.31472518408333222 0 0.168349569971391 0.28054490850913671 0 0.21049769590865089 0.26857363548218488 0 0.47357141910802508 0.1873585799078378 0 0.46429753744194407 0.22870891180733599 0 0.42905200079338551 0.19982395548231649 0 0.59814117807200873 0.23398510860739519 0 0.5794309697024993 0.27124795968204829 0 0.54248833945060504 0.2520322959927106 0 0.6541250972820879 0.49999999999999989 0 0.65178832218679827 0.45929119821019959 0 0.69385896817107129 0.48377516041410151 0 0.54999999999999993 0.29999999999999999 0 0.5794309697024993 0.27124795968204829 0 0.59999999999999976 0.29999999999999999 0 0.7750489929959945 0.66593931409600093 0 0.74994237037456724 0.62775548192980357 0 0.79884539758237771 0.62875045078114233 0 0.77293540622714185 0.59448302402785813 0 0.79884539758237771 0.62875045078114233 0 0.74994237037456724 0.62775548192980357 0 0.14332333627550789 0.14578431753966009 0 0.16141998738593399 0.10404039647458049 0 0.18652628422869419 0.14162325200928061 0 0.38083244760691543 0.38531983672244652 0 0.42161023666869668 0.39493916313643851 0 0.38707855792647411 0.42299362914874578 0 0.43249999999999988 0.43937499999999979 0 0.38707855792647411 0.42299362914874578 0 0.42161023666869668 0.39493916313643851 0 0.43846182030517877 0.64845797726506715 0 0.47095389620662098 0.61892551373708504 0 0.47913475093885149 0.66010775372412711 0 0.50715858906372158 0.63295939104129484 0 0.47913475093885149 0.66010775372412711 0 0.47095389620662098 0.61892551373708504 0 0.69999999999999984 0.69999999999999996 0 0.74999999999999989 0.69999999999999996 0 0.72501250972655151 0.74067302935308721 0 0.4089290844030305 0.58728915500154233 0 0.35765792684946668 0.6000687869219653 0 0.37272913873093971 0.56192925302619479 0 0.69999999999921003 0 0 0.74999999999934175 0 0 0.72683645290270404 0.027797073151180601 0 0.17933913398461551 0.2350063570234002 0 0.21049769590865089 0.26857363548218488 0 0.168349569971391 0.28054490850913671 0 0.14474682429600511 0.85524784522713515 0 0.10562472963403439 0.87143394428979881 0 0.1074251789111534 0.83564394292147814 0 0.14332333627550789 0.14578431753966009 0 0.106902708054812 0.16453234188234539 0 0.1053400320299198 0.12877248826361379 0 0.2236846579037573 0.67380363126050236 0 0.19914261668318661 0.62286739485272158 0 0.2459498854893499 0.63248470766216769 0 0.049999999999899652 0 0 0.053064897599215843 0.048131547304697528 0 0.02576622439977887 0.024532886826226379 0 0 0.050000000000207989 0 0.02576622439977887 0.024532886826226379 0 0.053064897599215843 0.048131547304697528 0 0.050000000000207989 1 0 0.025766224399875661 0.97546711317377799 0 0.053064897599294662 0.95186845269532028 0 0 0.94999999999979179 0 0.053064897599294662 0.95186845269532028 0 0.025766224399875661 0.97546711317377799 0 0.47357141910802508 0.1873585799078378 0 0.48466639505193998 0.1421439844745814 0 0.51729576145820033 0.1683240575987815 0 0.077693244765132896 0.56932317963405099 0 0.085622222639554768 0.53333248912060549 0 0.1154888278694548 0.56733818459978413 0 0.64753070846764316 0.77332939069435502 0 0.63221990677827677 0.73442891067859706 0 0.66427993341343905 0.73232764502436276 0 0.4656888918609538 0.78493261229743638 0 0.42609163930740518 0.80361684430568059 0 0.42676259796334498 0.76772545931379299 0 0.4089290844030305 0.58728915500154233 0 0.39743091024207589 0.6239520004230239 0 0.35765792684946668 0.6000687869219653 0 0.55306006949600994 0.20198184231352201 0 0.50760557329222289 0.20700468884612061 0 0.51729576145820033 0.1683240575987815 0 1 0.8999999999998336 0 1 0.94999999999997109 0 0.97435614836744289 0.92499999999990257 0 1 0.19999999999974799 0 1 0.24999999999987299 0 0.97435614836740092 0.22499999999981049 0 1 0.74999999999993494 0 1 0.7999999999998193 0 0.97435614836745565 0.77499999999987745 0 1 0.049999999999896842 0 1 0.099999999999753911 0 0.97435614836748241 0.074999999999825387 0 0.86411095495256451 0.42388805655111889 0 0.86844634540301924 0.38530937474099819 0 0.90594285160987287 0.4141265964174129 0 0.86956835336234861 0.571283299838105 0 0.91143117093204207 0.58709913730335972 0 0.87159648282691515 0.61285406320581504 0 0 0 0 0.02576622439977887 0.024532886826226379 0 0 0.050000000000207989 0 0 1 0 0 0.94999999999979179 0 0.025766224399875661 0.97546711317377799 0 0 1 0 0.025766224399875661 0.97546711317377799 0 0.050000000000207989 1 0 0 0 0 0.049999999999899652 0 0 0.02576622439977887 0.024532886826226379 0 0.65394964615507722 0.22666784374016369 0 0.64011864159029941 0.18789607982138171 0 0.6865991819015953 0.189116534044597 0 0.25195515620380449 0.25883339815888678 0 0.28040350263641872 0.23054717217092141 0 0.29132859388405002 0.27203693976649962 0 0.61209567303293111 0.44669033081290321 0 0.65178832218679827 0.45929119821019959 0 0.61547661924074692 0.48539576058873962 0 0.6541250972820879 0.49999999999999989 0 0.61547661924074692 0.48539576058873962 0 0.65178832218679827 0.45929119821019959 0 0.19670163708476801 0.31472518408333222 0 0.24432083401701241 0.3006253385567515 0 0.22615676742807109 0.33458786033114157 0 0.15801167086041079 0.46008690540259539 0 0.13773355295499351 0.42497777642586831 0 0.191953871957803 0.42546416763755879 0 0.1650278706801647 0.38791388161335733 0 0.191953871957803 0.42546416763755879 0 0.13773355295499351 0.42497777642586831 0 0.50715858906372158 0.63295939104129484 0 0.52584555706968406 0.66664215091846768 0 0.47913475093885149 0.66010775372412711 0 0.5 0.69999999999999996 0 0.47913475093885149 0.66010775372412711 0 0.52584555706968406 0.66664215091846768 0 0.51076801031701946 0.1202837388510348 0 0.51729576145820033 0.1683240575987815 0 0.48466639505193998 0.1421439844745814 0 0.71406021706547751 0.63292083137662503 0 0.74994237037456724 0.62775548192980357 0 0.72500000000000064 0.67022701834392062 0 0.71508799138962864 0.36622814920737751 0 0.73090396928863699 0.33699297293167962 0 0.74764719760526988 0.3719647154012321 0 0.22278230690790279 0.44824268025881547 0 0.25982634974572738 0.46097799597715272 0 0.23975172658309729 0.49475499200540818 0 0.80185942888539485 0.77452061303608133 0 0.78578450296893509 0.73292684821144505 0 0.81864958914779962 0.73589050177899629 0 0.80185942888501827 0.074520613036224564 0 0.78393852574753176 0.032039079577822822 0 0.81864958914740749 0.035890501779055867 0 0.5 0.29999999999999999 0 0.46226845272279993 0.31901800744800313 0 0.4604742573284204 0.27846934318264788 0 0.6405463747586706 0.63290524857395714 0 0.62460753523532009 0.66851202781000296 0 0.5991018319127801 0.62925360607495295 0 0.79680861578988083 0.92656778056766709 0 0.770759834363826 0.95919399014344442 0 0.75729602384198635 0.92353652857884294 0 0.79680861578956375 0.22656778056752541 0 0.77075983436335049 0.25919399014334171 0 0.75668890529066124 0.2244279804069782 0 0.65394964615507722 0.22666784374016369 0 0.69397719155551807 0.2245125647000914 0 0.67933712972090698 0.25920070958121938 0 0.81973119833356312 0.43505687159469048 0 0.84925632466077294 0.45359738909549091 0 0.81400510706333218 0.47357325943904899 0 0.83758014339878906 0.63222013025741819 0 0.82457059160610424 0.66831947184359608 0 0.79884539758237771 0.62875045078114233 0 0.25676291524611189 0.7436741304886243 0 0.2248999640082178 0.72584299459689172 0 0.26439878998046262 0.7048065392091396 0 0.91696753777131557 0.497780560203536 0 0.90900154012161016 0.53607784105648792 0 0.86907294890112186 0.52008116128001669 0 0.17933913398461551 0.2350063570234002 0 0.168349569971391 0.28054490850913671 0 0.14377654328998779 0.2442024734791064 0 0.1247745017231483 0.27198077544791172 0 0.14377654328998779 0.2442024734791064 0 0.168349569971391 0.28054490850913671 0 0.34258405725730701 0.4444034294386992 0 0.35221190152536241 0.40457127605439203 0 0.38707855792647411 0.42299362914874578 0 0.47357141910802508 0.1873585799078378 0 0.51729576145820033 0.1683240575987815 0 0.50760557329222289 0.20700468884612061 0 0.19670163708476801 0.31472518408333222 0 0.22615676742807109 0.33458786033114157 0 0.18434624290945251 0.35208838264196463 0 0.22033343844674469 0.36963382230740238 0 0.18434624290945251 0.35208838264196463 0 0.22615676742807109 0.33458786033114157 0 0.24432083401701241 0.3006253385567515 0 0.25966125648670141 0.34351016742083729 0 0.22615676742807109 0.33458786033114157 0 0.93814194660195893 0.44426664081746747 0 0.90594285160987287 0.4141265964174129 0 0.95871855522754235 0.40006508612975411 0 0.91750694127107502 0.36982372220068471 0 0.95871855522754235 0.40006508612975411 0 0.90594285160987287 0.4141265964174129 0 0.91750694127105259 0.63017627779935648 0 0.91143117093204207 0.58709913730335972 0 0.95867599106212187 0.60011091146651041 0 0.93732437411268477 0.55911392101136159 0 0.95867599106212187 0.60011091146651041 0 0.91143117093204207 0.58709913730335972 0 0.50715858906372158 0.63295939104129484 0 0.5498280205245758 0.6290146943450976 0 0.52584555706968406 0.66664215091846768 0 0.94399509803918602 0.75600490196082126 0 0.97435614836745565 0.77499999999987745 0 0.95386563387742829 0.80414874155775029 0 0.94399509803922566 0.056004901960802607 0 0.97435614836748241 0.074999999999825387 0 0.95386563387744361 0.1041487415577465 0 0.94399509803921056 0.24399509803922639 0 0.95391631417672862 0.19584263333809451 0 0.97435614836740092 0.22499999999981049 0 0.94399509803919068 0.9439950980391687 0 0.95391631417670719 0.89584263333814784 0 0.97435614836744289 0.92499999999990257 0 0.79680861578988083 0.92656778056766709 0 0.75729602384198635 0.92353652857884294 0 0.76891166905518427 0.88835469571185499 0 0.79680861578956375 0.22656778056752541 0 0.75668890529066124 0.2244279804069782 0 0.76587607630038135 0.18880039518954719 0 0.65394964615507722 0.22666784374016369 0 0.6865991819015953 0.189116534044597 0 0.69397719155551807 0.2245125647000914 0 0.38083244760691543 0.38531983672244652 0 0.38707855792647411 0.42299362914874578 0 0.35221190152536241 0.40457127605439203 0 1 0.7999999999998193 0 0.95386563387742829 0.80414874155775029 0 0.97435614836745565 0.77499999999987745 0 1 0.099999999999753911 0 0.95386563387744361 0.1041487415577465 0 0.97435614836748241 0.074999999999825387 0 1 0.8999999999998336 0 0.97435614836744289 0.92499999999990257 0 0.95391631417670719 0.89584263333814784 0 1 0.19999999999974799 0 0.97435614836740092 0.22499999999981049 0 0.95391631417672862 0.19584263333809451 0 0.84723782639812573 0.48638347960178252 0 0.81400510706333218 0.47357325943904899 0 0.84925632466077294 0.45359738909549091 0 0.54999999999999993 0.29999999999999999 0 0.54248833945060504 0.2520322959927106 0 0.5794309697024993 0.27124795968204829 0 0.94999999999999996 0.29999999999999999 0 0.95780851984364423 0.34215720972155339 0 0.92012390126144183 0.33123581297173937 0 0.94999999999999996 0.69999999999999996 0 0.92057473616084773 0.66770436535372446 0 0.9578014258160763 0.65787212321113708 0 0.15801167086041079 0.46008690540259539 0 0.113541300460994 0.46208784312094731 0 0.13773355295499351 0.42497777642586831 0 0.7250000000005199 0.94981617647078953 0 0.68015064798562208 0.95924320340003011 0 0.68987011941058407 0.92105047536677087 0 0.65507451745379841 0.92229208810758578 0 0.68987011941058407 0.92105047536677087 0 0.68015064798562208 0.95924320340003011 0 0.77846603114747959 0.49850927265137401 0 0.77972660463949339 0.45529290596363098 0 0.81400510706333218 0.47357325943904899 0 0.27866744612395528 0.38416094670951489 0 0.25966125648670141 0.34351016742083729 0 0.29644548887253103 0.34914008784168082 0 0.61209567303293111 0.44669033081290321 0 0.61547661924074692 0.48539576058873962 0 0.57975577671020095 0.46172033326338591 0 0.57611405284611883 0.50165903596042916 0 0.57975577671020095 0.46172033326338591 0 0.61547661924074692 0.48539576058873962 0 0.7250000000005199 0.89375000000045834 0 0.76891166905518427 0.88835469571185499 0 0.75729602384198635 0.92353652857884294 0 0.72500000000001008 0.19776155966387679 0 0.76587607630038135 0.18880039518954719 0 0.75668890529066124 0.2244279804069782 0 0.72500000000001008 0.19776155966387679 0 0.69397719155551807 0.2245125647000914 0 0.6865991819015953 0.189116534044597 0 0.083411279318303222 0.089699755330707398 0 0.12372429750337779 0.095814237875728972 0 0.1053400320299198 0.12877248826361379 0 0.083411279318375747 0.91030024466934134 0 0.10562472963403439 0.87143394428979881 0 0.1241151115713819 0.9045666525468371 0 0.14617343800780541 0.93808063414349496 0 0.1241151115713819 0.9045666525468371 0 0.16206583317966519 0.89685560785156404 0 0.14618258501891079 0.062070108745602003 0 0.16141998738593399 0.10404039647458049 0 0.12372429750337779 0.095814237875728972 0 0.33277555741076909 0.36432196682010132 0 0.35221190152536241 0.40457127605439203 0 0.31778888742534622 0.40581751814196781 0 0.7250000000005199 0.94981617647078953 0 0.75729602384198635 0.92353652857884294 0 0.770759834363826 0.95919399014344442 0 0.72500000000000064 0.2498161764706 0 0.75668890529066124 0.2244279804069782 0 0.77075983436335049 0.25919399014334171 0 0.72500000000000064 0.2498161764706 0 0.67933712972090698 0.25920070958121938 0 0.69397719155551807 0.2245125647000914 0 0.6236733212988993 0.14864538214901801 0 0.61956000905586006 0.1043312481793135 0 0.65290632656860115 0.11434202593454081 0 0.81973119833356312 0.43505687159469048 0 0.81400510706333218 0.47357325943904899 0 0.77972660463949339 0.45529290596363098 0 0.25676291524611189 0.7436741304886243 0 0.29904318922293632 0.74132814928635593 0 0.2792923945214143 0.77665808831789485 0 0.36575549820117997 0.31677992835137742 0 0.32752639306529541 0.32610012995269699 0 0.33402499257867951 0.28911035184473982 0 0.14332333627550789 0.14578431753966009 0 0.18652628422869419 0.14162325200928061 0 0.18124454140915969 0.18790916706335251 0 0.57724883562309992 0.92155686857100794 0 0.5832743223239254 0.88483152652961872 0 0.61885627562261258 0.90282959257498208 0 0.57667858002728545 0.078486105337742612 0 0.61956000905586006 0.1043312481793135 0 0.58516465772821369 0.11653801664834119 0 0.80185942888539485 0.77452061303608133 0 0.80041942726660109 0.81543261647703358 0 0.77094201086366854 0.79647480515688507 0 0.80185942888501827 0.074520613036224564 0 0.80076557130237269 0.1154587552654202 0 0.76878382444651716 0.097147941686331368 0 0.64753070846764316 0.77332939069435502 0 0.68024162096458085 0.79868546898116533 0 0.65005442820240822 0.82644988530054031 0 0.26429849586623999 0.19346700179430079 0 0.25557216766470708 0.15874861286892261 0 0.29336099386129338 0.15892013001050981 0 0.29348325746214782 0.31350119524708198 0 0.29644548887253103 0.34914008784168082 0 0.25966125648670141 0.34351016742083729 0 0.68391457121233579 0.14440470121196541 0 0.65290632656860115 0.11434202593454081 0 0.68330259535470161 0.10038702501083881 0 0.91750694127107502 0.36982372220068471 0 0.92012390126144183 0.33123581297173937 0 0.95780851984364423 0.34215720972155339 0 0.91750694127105259 0.63017627779935648 0 0.9578014258160763 0.65787212321113708 0 0.92057473616084773 0.66770436535372446 0 0.22033343844674469 0.36963382230740238 0 0.22615676742807109 0.33458786033114157 0 0.25966125648670141 0.34351016742083729 0 1 0.94999999999997109 0 0.97166519676946206 0.96662885509935492 0 0.97435614836744289 0.92499999999990257 0 0.94399509803919068 0.9439950980391687 0 0.97435614836744289 0.92499999999990257 0 0.97166519676946206 0.96662885509935492 0 0.94399509803921056 0.24399509803922639 0 0.97435614836740092 0.22499999999981049 0 0.97166519676951801 0.26662885509932011 0 1 0.24999999999987299 0 0.97166519676951801 0.26662885509932011 0 0.97435614836740092 0.22499999999981049 0 1 0.74999999999993494 0 0.97435614836745565 0.77499999999987745 0 0.97166519676947294 0.73337114490064459 0 1 0.049999999999896842 0 0.97435614836748241 0.074999999999825387 0 0.97166519676946894 0.033371144900598393 0 0.94399509803918602 0.75600490196082126 0 0.97166519676947294 0.73337114490064459 0 0.97435614836745565 0.77499999999987745 0 0.94399509803922566 0.056004901960802607 0 0.97166519676946894 0.033371144900598393 0 0.97435614836748241 0.074999999999825387 0 0.77846603114747959 0.49850927265137401 0 0.81400510706333218 0.47357325943904899 0 0.81441713509985358 0.51161854125224959 0 0.77354604466818633 0.40378688774472771 0 0.72622533758026719 0.40265885511101601 0 0.74764719760526988 0.3719647154012321 0 0.71508799138962864 0.36622814920737751 0 0.74764719760526988 0.3719647154012321 0 0.72622533758026719 0.40265885511101601 0 0.84723782639812573 0.48638347960178252 0 0.84925632466077294 0.45359738909549091 0 0.88594198078881503 0.46167788676578442 0 0.86411095495256451 0.42388805655111889 0 0.88594198078881503 0.46167788676578442 0 0.84925632466077294 0.45359738909549091 0 0.43846182030517877 0.64845797726506715 0 0.43545892161006339 0.61093128915313821 0 0.47095389620662098 0.61892551373708504 0 0.33123028043633618 0.77629643437932982 0 0.35642984951668422 0.80994399665655703 0 0.30857225866488791 0.81101973481716805 0 0.33403534827021109 0.84402799729020661 0 0.30857225866488791 0.81101973481716805 0 0.35642984951668422 0.80994399665655703 0 0.26429849586623999 0.19346700179430079 0 0.31255190597181792 0.19850845631528771 0 0.28040350263641872 0.23054717217092141 0 0.57724883562309992 0.92155686857100794 0 0.54783390826260769 0.89287767010860219 0 0.5832743223239254 0.88483152652961872 0 0.55899371797446828 0.85003102233514438 0 0.5832743223239254 0.88483152652961872 0 0.54783390826260769 0.89287767010860219 0 0.4089290844030305 0.58728915500154233 0 0.43545892161006339 0.61093128915313821 0 0.39743091024207589 0.6239520004230239 0 0.77293540622714185 0.59448302402785813 0 0.81723410853263523 0.59419663659258926 0 0.79884539758237771 0.62875045078114233 0 0.83758014339878906 0.63222013025741819 0 0.79884539758237771 0.62875045078114233 0 0.81723410853263523 0.59419663659258926 0 0.35864735590330371 0.63903383440414463 0 0.39743091024207589 0.6239520004230239 0 0.3977710372045391 0.65868194622830212 0 0.56202748619534593 0.15054058349222879 0 0.54979595918804436 0.1060565713905809 0 0.58516465772821369 0.11653801664834119 0 0.57667858002728545 0.078486105337742612 0 0.58516465772821369 0.11653801664834119 0 0.54979595918804436 0.1060565713905809 0 0.33122374654748771 0.57588941099433744 0 0.37272913873093971 0.56192925302619479 0 0.35765792684946668 0.6000687869219653 0 0.35864735590330371 0.63903383440414463 0 0.35765792684946668 0.6000687869219653 0 0.39743091024207589 0.6239520004230239 0 0.71508799138962864 0.36622814920737751 0 0.68887083591306764 0.33632058575757479 0 0.73090396928863699 0.33699297293167962 0 0.29348325746214782 0.31350119524708198 0 0.32752639306529541 0.32610012995269699 0 0.29644548887253103 0.34914008784168082 0 0.33277555741076909 0.36432196682010132 0 0.29644548887253103 0.34914008784168082 0 0.32752639306529541 0.32610012995269699 0 0.34258405725730701 0.4444034294386992 0 0.31778888742534622 0.40581751814196781 0 0.35221190152536241 0.40457127605439203 0 0.79999999999999982 0.69999999999999996 0 0.81864958914779962 0.73589050177899629 0 0.78578450296893509 0.73292684821144505 0 0.79999999999947335 0 0 0.81864958914740749 0.035890501779055867 0 0.78393852574753176 0.032039079577822822 0 0.27474541102162192 0.11822029332053539 0 0.29336099386129338 0.15892013001050981 0 0.25557216766470708 0.15874861286892261 0 0 0.45000000000187229 0 0.035463093262830522 0.42673416072819947 0 0.033550201249889847 0.46247875832467239 0 0.6499999999999998 0.69999999999999996 0 0.66427993341343905 0.73232764502436276 0 0.63221990677827677 0.73442891067859706 0 0.84723782639812573 0.48638347960178252 0 0.81441713509985358 0.51161854125224959 0 0.81400510706333218 0.47357325943904899 0 0.26104540868854792 0.81401944968719064 0 0.30857225866488791 0.81101973481716805 0 0.29209212897034281 0.84715728365233667 0 0.33403534827021109 0.84402799729020661 0 0.29209212897034281 0.84715728365233667 0 0.30857225866488791 0.81101973481716805 0 0.69999999999999984 0.29999999999999999 0 0.73090396928863699 0.33699297293167962 0 0.68887083591306764 0.33632058575757479 0 
</DataArray>
</Points>
<Cells>
<DataArray type="UInt32" Name="connectivity" format="ascii">
0 1 2 3 4 5 6 7 8 9 10 11 12 13 14 15 16 17 18 19 20 21 22 23 24 25 26 27 28 29 30 31 32 33 34 35 36 37 38 39 40 41 42 43 44 45 46 47 48 49 50 51 52 53 54 55 56 57 58 59 60 61 62 63 64 65 66 67 68 69 70 71 72 73 74 75 76 77 78 79 80 81 82 83 84 85 86 87 88 89 90 91 92 93 94 95 96 97 98 99 100 101 102 103 104 105 106 107 108 109 110 111 112 113 114 115 116 117 118 119 120 121 122 123 124 125 126 127 128 129 130 131 132 133 134 135 136 137 138 139 140 141 142 143 144 145 146 147 148 149 150 151 152 153 154 155 156 157 158 159 160 161 162 163 164 165 166 167 168 169 170 171 172 173 174 175 176 177 178 179 180 181 182 183 184 185 186 187 188 189 190 191 192 193 194 195 196 197 198 199 200 201 202 203 204 205 206 207 208 209 210 211 212 213 214 215 216 217 218 219 220 221 222 223 224 225 226 227 228 229 230 231 232 233 234 235 236 237 238 239 240 241 242 243 244 245 246 247 248 249 250 251 252 253 254 255 256 257 258 259 260 261 262 263 264 265 266 267 268 269 270 271 272 273 274 275 276 277 278 279 280 281 282 283 284 285 286 287 288 289 290 291 292 293 294 295 296 297 298 299 300 301 302 303 304 305 306 307 308 309 310 311 312 313 314 315 316 317 318 319 320 321 322 323 324 325 326 327 328 329 330 331 332 333 334 335 336 337 338 339 340 341 342 343 344 345 346 347 348 349 350 351 352 353 354 355 356 357 358 359 360 361 362 363 364 365 366 367 368 369 370 371 372 373 374 375 376 377 378 379 380 381 382 383 384 385 386 387 388 389 390 391 392 393 394 395 396 397 398 399 400 401 402 403 404 405 406 407 408 409 410 411 412 413 414 415 416 417 418 419 420 421 422 423 424 425 426 427 428 429 430 431 432 433 434 435 436 437 438 439 440 441 442 443 444 445 446 447 448 449 450 451 452 453 454 455 456 457 458 459 460 461 462 463 464 465 466 467 468 469 470 471 472 473 474 475 476 477 478 479 480 481 482 483 484 485 486 487 488 489 490 491 492 493 494 495 496 497 498 499 500 501 502 503 504 505 506 507 508 509 510 511 512 513 514 515 516 517 518 519 520 521 522 523 524 525 526 527 528 529 530 531 532 533 534 535 536 537 538 539 540 541 542 543 544 545 546 547 548 549 550 551 552 553 554 555 556 557 558 559 560 561 562 563 564 565 566 567 568 569 570 571 572 573 574 575 576 577 578 579 580 581 582 583 584 585 586 587 588 589 590 591 592 593 594 595 596 597 598 599 600 601 602 603 604 605 606 607 608 609 610 611 612 613 614 615 616 617 618 619 620 621 622 623 624 625 626 627 628 629 630 631 632 633 634 635 636 637 638 639 640 641 642 643 644 645 646 647 648 649 650 651 652 653 654 655 656 657 658 659 660 661 662 663 664 665 666 667 668 669 670 671 672 673 674 675 676 677 678 679 680 681 682 683 684 685 686 687 688 689 690 691 692 693 694 695 696 697 698 699 700 701 702 703 704 705 706 707 708 709 710 711 712 713 714 715 716 717 718 719 720 721 722 723 724 725 726 727 728 729 730 731 732 733 734 735 736 737 738 739 740 741 742 743 744 745 746 747 748 749 750 751 752 753 754 755 756 757 758 759 760 761 762 763 764 765 766 767 768 769 770 771 772 773 774 775 776 777 778 779 780 781 782 783 784 785 786 787 788 789 790 791 792 793 794 795 796 797 798 799 800 801 802 803 804 805 806 807 808 809 810 811 812 813 814 815 816 817 818 819 820 821 822 823 824 825 826 827 828 829 830 831 832 833 834 835 836 837 838 839 840 841 842 843 844 845 846 847 848 849 850 851 852 853 854 855 856 857 858 859 860 861 862 863 864 865 866 867 868 869 870 871 872 873 874 875 876 877 878 879 880 881 882 883 884 885 886 887 888 889 890 891 892 893 894 895 896 897 898 899 900 901 902 903 904 905 906 907 908 909 910 911 912 913 914 915 916 917 918 919 920 921 922 923 924 925 926 927 928 929 930 931 932 933 934 935 936 937 938 939 940 941 942 943 944 945 946 947 948 949 950 951 952 953 954 955 956 957 958 959 960 961 962 963 964 965 966 967 968 969 970 971 972 973 974 975 976 977 978 979 980 981 982 983 984 985 986 987 988 989 990 991 992 993 994 995 996 997 998 999 1000 1001 1002 1003 1004 1005 1006 1007 1008 1009 1010 1011 1012 1013 1014 1015 1016 1017 1018 1019 1020 1021 1022 1023 1024 1025 1026 1027 1028 1029 1030 1031 1032 1033 1034 1035 1036 1037 1038 1039 1040 1041 1042 1043 1044 1045 1046 1047 1048 1049 1050 1051 1052 1053 1054 1055 1056 1057 1058 1059 1060 1061 1062 1063 1064 1065 1066 1067 1068 1069 1070 1071 1072 1073 1074 1075 1076 1077 1078 1079 1080 1081 1082 1083 1084 1085 1086 1087 1088 1089 1090 1091 1092 1093 1094 1095 1096 1097 1098 1099 1100 1101 1102 1103 1104 1105 1106 1107 1108 1109 1110 1111 1112 1113 1114 1115 1116 1117 1118 1119 1120 1121 1122 1123 1124 1125 1126 1127 1128 1129 1130 1131 1132 1133 1134 1135 1136 1137 1138 1139 1140 1141 1142 1143 1144 1145 1146 1147 1148 1149 1150 1151 1152 1153 1154 1155 1156 1157 1158 1159 1160 1161 1162 1163 1164 1165 1166 1167 1168 1169 1170 1171 1172 1173 1174 1175 1176 1177 1178 1179 1180 1181 1182 1183 1184 1185 1186 1187 1188 1189 1190 1191 1192 1193 1194 1195 1196 1197 1198 1199 1200 1201 1202 1203 1204 1205 1206 1207 1208 1209 1210 1211 1212 1213 1214 1215 1216 1217 1218 1219 1220 1221 1222 1223 1224 1225 1226 1227 1228 1229 1230 1231 1232 1233 1234 1235 1236 1237 1238 1239 1240 1241 1242 1243 1244 1245 1246 1247 1248 1249 1250 1251 1252 1253 1254 1255 1256 1257 1258 1259 1260 1261 1262 1263 1264 1265 1266 1267 1268 1269 1270 1271 1272 1273 1274 1275 1276 1277 1278 1279 1280 1281 1282 1283 1284 1285 1286 1287 1288 1289 1290 1291 1292 1293 1294 1295 1296 1297 1298 1299 1300 1301 1302 1303 1304 1305 1306 1307 1308 1309 1310 1311 1312 1313 1314 1315 1316 1317 1318 1319 1320 1321 1322 1323 1324 1325 1326 1327 1328 1329 1330 1331 1332 1333 1334 1335 1336 1337 1338 1339 1340 1341 1342 1343 1344 1345 1346 1347 1348 1349 1350 1351 1352 1353 1354 1355 1356 1357 1358 1359 1360 1361 1362 1363 1364 1365 1366 1367 1368 1369 1370 1371 1372 1373 1374 1375 1376 1377 1378 1379 1380 1381 1382 1383 1384 1385 1386 1387 1388 1389 1390 1391 1392 1393 1394 1395 1396 1397 1398 1399 1400 1401 1402 1403 1404 1405 1406 1407 1408 1409 1410 1411 1412 1413 1414 1415 1416 1417 1418 1419 1420 1421 1422 1423 1424 1425 1426 1427 1428 1429 1430 1431 1432 1433 1434 1435 1436 1437 1438 1439 1440 1441 1442 1443 1444 1445 1446 1447 1448 1449 1450 1451 1452 1453 1454 1455 1456 1457 1458 1459 1460 1461 1462 1463 1464 1465 1466 1467 1468 1469 1470 1471 1472 1473 1474 1475 1476 1477 1478 1479 1480 1481 1482 1483 1484 1485 1486 1487 1488 1489 1490 1491 1492 1493 1494 1495 1496 1497 1498 1499 1500 1501 1502 1503 1504 1505 1506 1507 1508 1509 1510 1511 1512 1513 1514 1515 1516 1517 1518 1519 1520 1521 1522 1523 1524 1525 1526 1527 1528 1529 1530 1531 1532 1533 1534 1535 1536 1537 1538 1539 1540 1541 1542 1543 1544 1545 1546 1547 1548 1549 1550 1551 1552 1553 1554 1555 1556 1557 1558 1559 1560 1561 1562 1563 1564 1565 1566 1567 1568 1569 1570 1571 1572 1573 1574 1575 1576 1577 1578 1579 1580 1581 1582 1583 1584 1585 1586 1587 1588 1589 1590 1591 1592 1593 1594 1595 1596 1597 1598 1599 1600 1601 1602 1603 1604 1605 1606 1607 1608 1609 1610 1611 1612 1613 1614 1615 1616 1617 1618 1619 1620 1621 1622 1623 1624 1625 1626 1627 1628 1629 1630 1631 1632 1633 1634 1635 1636 1637 1638 1639 1640 1641 1642 1643 1644 1645 1646 1647 1648 1649 1650 1651 1652 1653 1654 1655 1656 1657 1658 1659 1660 1661 1662 1663 1664 1665 1666 1667 1668 1669 1670 1671 1672 1673 1674 1675 1676 1677 1678 1679 1680 1681 1682 1683 1684 1685 1686 1687 1688 1689 1690 1691 1692 1693 1694 1695 1696 1697 1698 1699 1700 1701 1702 1703 1704 1705 1706 1707 1708 1709 1710 1711 1712 1713 1714 1715 1716 1717 1718 1719 1720 1721 1722 1723 1724 1725 1726 1727 1728 1729 1730 1731 1732 1733 1734 1735 1736 1737 1738 1739 1740 1741 1742 1743 1744 1745 1746 1747 1748 1749 1750 1751 1752 1753 1754 1755 1756 1757 1758 1759 1760 1761 1762 1763 1764 1765 1766 1767 1768 1769 1770 1771 1772 1773 1774 1775 1776 1777 1778 1779 1780 1781 1782 1783 1784 1785 1786 1787 1788 1789 1790 1791 1792 1793 1794 1795 1796 1797 1798 1799 1800 1801 1802 1803 1804 1805 1806 1807 1808 1809 1810 1811 1812 1813 1814 1815 1816 1817 1818 1819 1820 1821 1822 1823 1824 1825 1826 1827 1828 1829 1830 1831 1832 1833 1834 1835 1836 1837 1838 1839 1840 1841 1842 1843 1844 1845 1846 1847 1848 1849 1850 1851 1852 1853 1854 1855 1856 1857 1858 1859 1860 1861 1862 1863 1864 1865 1866 1867 1868 1869 1870 1871 1872 1873 1874 1875 1876 1877 1878 1879 1880 1881 1882 1883 1884 1885 1886 1887 1888 1889 1890 1891 1892 1893 1894 1895 1896 1897 1898 1899 1900 1901 1902 1903 1904 1905 1906 1907 1908 1909 1910 1911 1912 1913 1914 1915 1916 1917 1918 1919 1920 1921 1922 1923 1924 1925 1926 1927 1928 1929 1930 1931 1932 1933 1934 1935 1936 1937 1938 1939 1940 1941 1942 1943 1944 1945 1946 1947 1948 1949 1950 1951 1952 1953 1954 1955 1956 1957 1958 1959 1960 1961 1962 1963 1964 1965 1966 1967 1968 1969 1970 1971 1972 1973 1974 1975 1976 1977 1978 1979 1980 1981 1982 1983 1984 1985 1986 1987 1988 1989 1990 1991 1992 1993 1994 1995 1996 1997 1998 1999 2000 2001 2002 2003 2004 2005 2006 2007 2008 2009 2010 2011 2012 2013 2014 2015 2016 2017 2018 2019 2020 2021 2022 2023 2024 2025 2026 2027 2028 2029 2030 2031 2032 2033 2034 2035 2036 2037 2038 2039 2040 2041 2042 2043 2044 2045 2046 2047 2048 2049 2050 2051 2052 2053 2054 2055 2056 2057 2058 2059 2060 2061 2062 2063 2064 2065 2066 2067 2068 2069 2070 2071 2072 2073 2074 2075 2076 2077 2078 2079 2080 2081 2082 2083 2084 2085 2086 2087 2088 2089 2090 2091 2092 2093 2094 2095 2096 2097 2098 2099 2100 2101 2102 2103 2104 2105 2106 2107 2108 2109 2110 2111 2112 2113 2114 2115 2116 2117 2118 2119 2120 2121 2122 2123 2124 2125 2126 2127 2128 2129 2130 2131 2132 2133 2134 2135 2136 2137 2138 2139 2140 2141 2142 2143 2144 2145 2146 2147 2148 2149 2150 2151 2152 2153 2154 2155 2156 2157 2158 2159 2160 2161 2162 2163 2164 2165 2166 2167 2168 2169 2170 2171 2172 2173 2174 2175 2176 2177 2178 2179 2180 2181 2182 2183 2184 2185 2186 2187 2188 2189 2190 2191 2192 2193 2194 2195 2196 2197 2198 2199 2200 2201 2202 2203 2204 2205 2206 2207 2208 2209 2210 2211 2212 2213 2214 2215 2216 2217 2218 2219 2220 2221 2222 2223 2224 2225 2226 2227 2228 2229 2230 2231 2232 2233 2234 2235 2236 2237 2238 2239 2240 2241 2242 2243 2244 2245 2246 2247 2248 2249 2250 2251 2252 2253 2254 2255 2256 2257 2258 2259 2260 2261 2262 2263 2264 2265 2266 2267 2268 2269 2270 2271 2272 2273 2274 2275 2276 2277 2278 2279 2280 2281 2282 2283 2284 2285 2286 2287 2288 2289 2290 2291 2292 2293 2294 2295 2296 2297 2298 2299 2300 2301 2302 2303 2304 2305 2306 2307 2308 2309 2310 2311 2312 2313 2314 2315 2316 2317 2318 2319 2320 2321 2322 2323 2324 2325 2326 2327 2328 2329 2330 2331 2332 2333 2334 2335 2336 2337 2338 2339 2340 2341 2342 2343 2344 2345 2346 2347 2348 2349 2350 2351 2352 2353 2354 2355 2356 2357 2358 2359 2360 2361 2362 2363 2364 2365 2366 2367 2368 2369 2370 2371 2372 2373 2374 2375 2376 2377 2378 2379 2380 2381 2382 2383 2384 2385 2386 2387 2388 2389 2390 2391 2392 2393 2394 2395 2396 2397 2398 2399 2400 2401 2402 2403 2404 2405 2406 2407 2408 2409 2410 2411 2412 2413 2414 2415 2416 2417 2418 2419 2420 2421 2422 2423 2424 2425 2426 2427 2428 2429 2430 2431 2432 2433 2434 2435 2436 2437 2438 2439 2440 2441 2442 2443 2444 2445 2446 2447 2448 2449 2450 2451 2452 2453 2454 2455 2456 2457 2458 2459 2460 2461 2462 2463 2464 2465 2466 2467 2468 2469 2470 2471 2472 2473 2474 2475 2476 2477 2478 2479 2480 2481 2482 2483 2484 2485 2486 2487 2488 2489 2490 2491 2492 2493 2494 2495 2496 2497 2498 2499 2500 2501 2502 2503 2504 2505 2506 2507 2508 2509 2510 2511 2512 2513 2514 2515 2516 2517 2518 2519 2520 2521 2522 2523 2524 2525 2526 2527 2528 2529 2530 2531 2532 2533 2534 2535 2536 2537 2538 2539 2540 2541 2542 2543 2544 2545 2546 2547 2548 2549 2550 2551 2552 2553 2554 2555 2556 2557 2558 2559 2560 2561 2562 2563 2564 2565 2566 2567 2568 2569 2570 2571 2572 2573 2574 2575 2576 2577 2578 2579 2580 2581 2582 2583 2584 2585 2586 2587 2588 2589 2590 2591 2592 2593 2594 2595 2596 2597 2598 2599 2600 2601 2602 2603 2604 2605 2606 2607 2608 2609 2610 2611 2612 2613 2614 2615 2616 2617 2618 2619 2620 2621 2622 2623 2624 2625 2626 2627 2628 2629 2630 2631 2632 2633 2634 2635 2636 2637 2638 2639 2640 2641 2642 2643 2644 2645 2646 2647 2648 2649 2650 2651 2652 2653 2654 2655 2656 2657 2658 2659 2660 2661 2662 2663 2664 2665 2666 2667 2668 2669 2670 2671 2672 2673 2674 2675 2676 2677 2678 2679 2680 2681 2682 2683 2684 2685 2686 2687 2688 2689 2690 2691 2692 2693 2694 2695 2696 2697 2698 2699 2700 2701 2702 2703 2704 2705 2706 2707 2708 2709 2710 2711 2712 2713 2714 2715 2716 2717 2718 2719 2720 2721 2722 2723 2724 2725 2726 2727 2728 2729 2730 2731 2732 2733 2734 2735 2736 2737 2738 2739 2740 2741 2742 2743 2744 2745 2746 2747 2748 2749 2750 2751 2752 2753 2754 2755 2756 2757 2758 2759 2760 2761 2762 2763 2764 2765 2766 2767 2768 2769 2770 2771 2772 2773 2774 2775 2776 2777 2778 2779 2780 2781 2782 2783 2784 2785 2786 2787 2788 2789 2790 2791 2792 2793 2794 2795 2796 2797 2798 2799 2800 2801 2802 2803 2804 2805 2806 2807 2808 2809 2810 2811 2812 2813 2814 2815 2816 2817 2818 2819 2820 2821 2822 2823 2824 2825 2826 2827 2828 2829 2830 2831 2832 2833 2834 2835 2836 2837 2838 2839 2840 2841 2842 2843 2844 2845 2846 2847 2848 2849 2850 2851 2852 2853 2854 2855 2856 2857 2858 2859 2860 2861 2862 2863 2864 2865 2866 2867 2868 2869 2870 2871 2872 2873 2874 2875 2876 2877 2878 2879 2880 2881 2882 2883 2884 2885 2886 2887 2888 2889 2890 2891 2892 2893 2894 2895 2896 2897 2898 2899 2900 2901 2902 2903 2904 2905 2906 2907 2908 2909 2910 2911 2912 2913 2914 2915 2916 2917 2918 2919 2920 2921 2922 2923 2924 2925 2926 2927 2928 2929 2930 2931 2932 2933 2934 2935 2936 2937 2938 2939 2940 2941 2942 2943 2944 2945 2946 2947 2948 2949 2950 2951 2952 2953 2954 2955 2956 2957 2958 2959 2960 2961 2962 2963 2964 2965 2966 2967 2968 2969 2970 2971 2972 2973 2974 2975 2976 2977 2978 2979 2980 2981 2982 2983 2984 2985 2986 2987 2988 2989 2990 2991 2992 2993 2994 2995 2996 2997 2998 2999 3000 3001 3002 3003 3004 3005 3006 3007 3008 3009 3010 3011 3012 3013 3014 3015 3016 3017 3018 3019 3020 3021 3022 3023 3024 3025 3026 3027 3028 3029 3030 3031 3032 3033 3034 3035 3036 3037 3038 3039 3040 3041 3042 3043 3044 3045 3046 3047 3048 3049 3050 3051 3052 3053 3054 3055 3056 3057 3058 3059 3060 3061 3062 3063 3064 3065 3066 3067 3068 3069 3070 3071 3072 3073 3074 3075 3076 3077 3078 3079 3080 3081 3082 3083 3084 3085 3086 3087 3088 3089 3090 3091 3092 3093 3094 3095 3096 3097 3098 3099 3100 3101 3102 3103 3104 3105 3106 3107 3108 3109 3110 3111 3112 3113 3114 3115 3116 3117 3118 3119 3120 3121 3122 3123 3124 3125 3126 3127 3128 3129 3130 3131 3132 3133 3134 3135 3136 3137 3138 3139 3140 3141 
</DataArray>
<DataArray type="UInt32" Name="offsets" format="ascii">
2 4 6 8 10 12 14 16 18 20 22 24 26 28 30 32 34 36 38 40 43 46 49 52 55 58 61 64 67 70 73 76 79 82 85 88 91 94 97 100 103 106 109 112 115 118 121 124 127 130 133 136 139 142 145 148 151 154 157 160 163 166 169 172 175 178 181 184 187 190 193 196 199 202 205 208 211 214 217 220 223 226 229 232 235 238 241 244 247 250 253 256 259 262 265 268 271 274 277 280 283 286 289 292 295 298 301 304 307 310 313 316 319 322 325 328 331 334 337 340 343 346 349 352 355 358 361 364 367 370 373 376 379 382 385 388 391 394 397 400 403 406 409 412 415 418 421 424 427 430 433 436 439 442 445 448 451 454 457 460 463 466 469 472 475 478 481 484 487 490 493 496 499 502 505 508 511 514 517 520 523 526 529 532 535 538 541 544 547 550 553 556 559 562 565 568 571 574 577 580 583 586 589 592 595 598 601 604 607 610 613 616 619 622 625 628 631 634 637 640 643 646 649 652 655 658 661 664 667 670 673 676 679 682 685 688 691 694 697 700 703 706 709 712 715 718 721 724 727 730 733 736 739 742 745 748 751 754 757 760 763 766 769 772 775 778 781 784 787 790 793 796 799 802 805 808 811 814 817 820 823 826 829 832 835 838 841 844 847 850 853 856 859 862 865 868 871 874 877 880 883 886 889 892 895 898 901 904 907 910 913 916 919 922 925 928 931 934 937 940 943 946 949 952 955 958 961 964 967 970 973 976 979 982 985 988 991 994 997 1000 1003 1006 1009 1012 1015 1018 1021 1024 1027 1030 1033 1036 1039 1042 1045 1048 1051 1054 1057 1060 1063 1066 1069 1072 1075 1078 1081 1084 1087 1090 1093 1096 1099 1102 1105 1108 1111 1114 1117 1120 1123 1126 1129 1132 1135 1138 1141 1144 1147 1150 1153 1156 1159 1162 1165 1168 1171 1174 1177 1180 1183 1186 1189 1192 1195 1198 1201 1204 1207 1210 1213 1216 1219 1222 1225 1228 1231 1234 1237 1240 1243 1246 1249 1252 1255 1258 1261 1264 1267 1270 1273 1276 1279 1282 1285 1288 1291 1294 1297 1300 1303 1306 1309 1312 1315 1318 1321 1324 1327 1330 1333 1336 1339 1342 1345 1348 1351 1354 1357 1360 1363 1366 1369 1372 1375 1378 1381 1384 1387 1390 1393 1396 1399 1402 1405 1408 1411 1414 1417 1420 1423 1426 1429 1432 1435 1438 1441 1444 1447 1450 1453 1456 1459 1462 1465 1468 1471 1474 1477 1480 1483 1486 1489 1492 1495 1498 1501 1504 1507 1510 1513 1516 1519 1522 1525 1528 1531 1534 1537 1540 1543 1546 1549 1552 1555 1558 1561 1564 1567 1570 1573 1576 1579 1582 1585 1588 1591 1594 1597 1600 1603 1606 1609 1612 1615 1618 1621 1624 1627 1630 1633 1636 1639 1642 1645 1648 1651 1654 1657 1660 1663 1666 1669 1672 1675 1678 1681 1684 1687 1690 1693 1696 1699 1702 1705 1708 1711 1714 1717 1720 1723 1726 1729 1732 1735 1738 1741 1744 1747 1750 1753 1756 1759 1762 1765 1768 1771 1774 1777 1780 1783 1786 1789 1792 1795 1798 1801 1804 1807 1810 1813 1816 1819 1822 1825 1828 1831 1834 1837 1840 1843 1846 1849 1852 1855 1858 1861 1864 1867 1870 1873 1876 1879 1882 1885 1888 1891 1894 1897 1900 1903 1906 1909 1912 1915 1918 1921 1924 1927 1930 1933 1936 1939 1942 1945 1948 1951 1954 1957 1960 1963 1966 1969 1972 1975 1978 1981 1984 1987 1990 1993 1996 1999 2002 2005 2008 2011 2014 2017 2020 2023 2026 2029 2032 2035 2038 2041 2044 2047 2050 2053 2056 2059 2062 2065 2068 2071 2074 2077 2080 2083 2086 2089 2092 2095 2098 2101 2104 2107 2110 2113 2116 2119 2122 2125 2128 2131 2134 2137 2140 2143 2146 2149 2152 2155 2158 2161 2164 2167 2170 2173 2176 2179 2182 2185 2188 2191 2194 2197 2200 2203 2206 2209 2212 2215 2218 2221 2224 2227 2230 2233 2236 2239 2242 2245 2248 2251 2254 2257 2260 2263 2266 2269 2272 2275 2278 2281 2284 2287 2290 2293 2296 2299 2302 2305 2308 2311 2314 2317 2320 2323 2326 2329 2332 2335 2338 2341 2344 2347 2350 2353 2356 2359 2362 2365 2368 2371 2374 2377 2380 2383 2386 2389 2392 2395 2398 2401 2404 2407 2410 2413 2416 2419 2422 2425 2428 2431 2434 2437 2440 2443 2446 2449 2452 2455 2458 2461 2464 2467 2470 2473 2476 2479 2482 2485 2488 2491 2494 2497 2500 2503 2506 2509 2512 2515 2518 2521 2524 2527 2530 2533 2536 2539 2542 2545 2548 2551 2554 2557 2560 2563 2566 2569 2572 2575 2578 2581 2584 2587 2590 2593 2596 2599 2602 2605 2608 2611 2614 2617 2620 2623 2626 2629 2632 2635 2638 2641 2644 2647 2650 2653 2656 2659 2662 2665 2668 2671 2674 2677 2680 2683 2686 2689 2692 2695 2698 2701 2704 2707 2710 2713 2716 2719 2722 2725 2728 2731 2734 2737 2740 2743 2746 2749 2752 2755 2758 2761 2764 2767 2770 2773 2776 2779 2782 2785 2788 2791 2794 2797 2800 2803 2806 2809 2812 2815 2818 2821 2824 2827 2830 2833 2836 2839 2842 2845 2848 2851 2854 2857 2860 2863 2866 2869 2872 2875 2878 2881 2884 2887 2890 2893 2896 2899 2902 2905 2908 2911 2914 2917 2920 2923 2926 2929 2932 2935 2938 2941 2944 2947 2950 2953 2956 2959 2962 2965 2968 2971 2974 2977 2980 2983 2986 2989 2992 2995 2998 3001 3004 3007 3010 3013 3016 3019 3022 3025 3028 3031 3034 3037 3040 3043 3046 3049 3052 3055 3058 3061 3064 3067 3070 3073 3076 3079 3082 3085 3088 3091 3094 3097 3100 3103 3106 3109 3112 3115 3118 3121 3124 3127 3130 3133 3136 3139 3142 
</DataArray>
<DataArray type="UInt32" Name="types" format="ascii">
3 3 3 3 3 3 3 3 3 3 3 3 3 3 3 3 3 3 3 3 5 5 5 5 5 5 5 5 5 5 5 5 5 5 5 5 5 5 5 5 5 5 5 5 5 5 5 5 5 5 5 5 5 5 5 5 5 5 5 5 5 5 5 5 5 5 5 5 5 5 5 5 5 5 5 5 5 5 5 5 5 5 5 5 5 5 5 5 5 5 5 5 5 5 5 5 5 5 5 5 5 5 5 5 5 5 5 5 5 5 5 5 5 5 5 5 5 5 5 5 5 5 5 5 5 5 5 5 5 5 5 5 5 5 5 5 5 5 5 5 5 5 5 5 5 5 5 5 5 5 5 5 5 5 5 5 5 5 5 5 5 5 5 5 5 5 5 5 5 5 5 5 5 5 5 5 5 5 5 5 5 5 5 5 5 5 5 5 5 5 5 5 5 5 5 5 5 5 5 5 5 5 5 5 5 5 5 5 5 5 5 5 5 5 5 5 5 5 5 5 5 5 5 5 5 5 5 5 5 5 5 5 5 5 5 5 5 5 5 5 5 5 5 5 5 5 5 5 5 5 5 5 5 5 5 5 5 5 5 5 5 5 5 5 5 5 5 5 5 5 5 5 5 5 5 5 5 5 5 5 5 5 5 5 5 5 5 5 5 5 5 5 5 5 5 5 5 5 5 5 5 5 5 5 5 5 5 5 5 5 5 5 5 5 5 5 5 5 5 5 5 5 5 5 5 5 5 5 5 5 5 5 5 5 5 5 5 5 5 5 5 5 5 5 5 5 5 5 5 5 5 5 5 5 5 5 5 5 5 5 5 5 5 5 5 5 5 5 5 5 5 5 5 5 5 5 5 5 5 5 5 5 5 5 5 5 5 5 5 5 5 5 5 5 5 5 5 5 5 5 5 5 5 5 5 5 5 5 5 5 5 5 5 5 5 5 5 5 5 5 5 5 5 5 5 5 5 5 5 5 5 5 5 5 5 5 5 5 5 5 5 5 5 5 5 5 5 5 5 5 5 5 5 5 5 5 5 5 5 5 5 5 5 5 5 5 5 5 5 5 5 5 5 5 5 5 5 5 5 5 5 5 5 5 5 5 5 5 5 5 5 5 5 5 5 5 5 5 5 5 5 5 5 5 5 5 5 5 5 5 5 5 5 5 5 5 5 5 5 5 5 5 5 5 5 5 5 5 5 5 5 5 5 5 5 5 5 5 5 5 5 5 5 5 5 5 5 5 5 5 5 5 5 5 5 5 5 5 5 5 5 5 5 5 5 5 5 5 5 5 5 5 5 5 5 5 5 5 5 5 5 5 5 5 5 5 5 5 5 5 5 5 5 5 5 5 5 5 5 5 5 5 5 5 5 5 5 5 5 5 5 5 5 5 5 5 5 5 5 5 5 5 5 5 5 5 5 5 5 5 5 5 5 5 5 5 5 5 5 5 5 5 5 5 5 5 5 5 5 5 5 5 5 5 5 5 5 5 5 5 5 5 5 5 5 5 5 5 5 5 5 5 5 5 5 5 5 5 5 5 5 5 5 5 5 5 5 5 5 5 5 5 5 5 5 5 5 5 5 5 5 5 5 5 5 5 5 5 5 5 5 5 5 5 5 5 5 5 5 5 5 5 5 5 5 5 5 5 5 5 5 5 5 5 5 5 5 5 5 5 5 5 5 5 5 5 5 5 5 5 5 5 5 5 5 5 5 5 5 5 5 5 5 5 5 5 5 5 5 5 5 5 5 5 5 5 5 5 5 5 5 5 5 5 5 5 5 5 5 5 5 5 5 5 5 5 5 5 5 5 5 5 5 5 5 5 5 5 5 5 5 5 5 5 5 5 5 5 5 5 5 5 5 5 5 5 5 5 5 5 5 5 5 5 5 5 5 5 5 5 5 5 5 5 5 5 5 5 5 5 5 5 5 5 5 5 5 5 5 5 5 5 5 5 5 5 5 5 5 5 5 5 5 5 5 5 5 5 5 5 5 5 5 5 5 5 5 5 5 5 5 5 5 5 5 5 5 5 5 5 5 5 5 5 5 5 5 5 5 5 5 5 5 5 5 5 5 5 5 5 5 5 5 5 5 5 5 5 5 5 5 5 5 5 5 5 5 5 5 5 5 5 5 5 5 5 5 5 5 5 5 5 5 5 5 5 5 5 5 5 5 5 5 5 5 5 5 5 5 5 5 5 5 5 5 5 5 5 5 5 5 5 5 5 5 5 5 5 5 5 5 5 5 5 5 5 5 5 5 5 5 5 5 5 5 5 5 5 5 5 5 5 5 5 5 5 5 5 5 5 5 5 5 5 5 5 5 5 5 5 5 5 5 5 5 5 5 5 5 5 5 5 5 5 5 5 5 5 5 5 5 5 5 5 
</DataArray>
</Cells>
<PointData Scalars="" Vectors="displacement," Tensors="">
<DataArray type="Float64" Name="displacement" NumberOfComponents="3" format="ascii">
-6.1794545182496709e-06 -8.2407196343371119e-06 0 -6.6339035263410625e-06 -1.1728415809221749e-05 0 -6.6339035263410625e-06 -1.1728415809221749e-05 0 -7.1465675587448627e-06 -1.5924465214092223e-05 0 -7.1465675587448627e-06 -1.5924465214092223e-05 0 -7.7899177098505078e-06 -2.0837216299560677e-05 0 -7.7899177098505078e-06 -2.0837216299560677e-05 0 -8.3780266368506707e-06 -2.6059669241938897e-05 0 -8.3780266368506707e-06 -2.6059669241938897e-05 0 -8.8919355360614968e-06 -3.1403828947852625e-05 0 -8.8919355360614968e-06 -3.1403828947852625e-05 0 -9.3887348392663599e-06 -3.691883700884582e-05 0 -9.3887348392663599e-06 -3.691883700884582e-05 0 -9.9849672070510154e-06 -4.1816338796504056e-05 0 -9.9849672070510154e-06 -4.1816338796504056e-05 0 -1.0665736277465053e-05 -4.7714419567936781e-05 0 -1.0665736277465053e-05 -4.7714419567936781e-05 0 -1.1035797480338368e-05 -5.1161922318671436e-05 0 -1.1035797480338368e-05 -5.1161922318671436e-05 0 -1.2850387400136813e-05 -5.6590855441540763e-05 0 6.4570449642664776e-06 1.2417407635803028e-05 0 9.1922754013187115e-06 1.9747888234226221e-05 0 9.1922754013187115e-06 1.9747888234226221e-05 0 9.5620799791033192e-06 2.3337255894895036e-05 0 9.5620799791033192e-06 2.3337255894895036e-05 0 9.8051698675667936e-06 3.0793904375344518e-05 0 9.8051698675667936e-06 3.0793904375344518e-05 0 9.7995153401044884e-06 3.7083848609277674e-05 0 9.7995153401044884e-06 3.7083848609277674e-05 0 9.555670160146026e-06 4.4294493132931909e-05 0 9.555670160146026e-06 4.4294493132931909e-05 0 9.0480082926802433e-06 5.2454291136297121e-05 0 9.0480082926802433e-06 5.2454291136297121e-05 0 8.30319827416664e-06 5.7971738139582027e-05 0 8.30319827416664e-06 5.7971738139582027e-05 0 6.5896493936950425e-06 6.8524293716017867e-05 0 6.5896493936950425e-06 6.8524293716017867e-05 0 7.6342493538066611e-06 7.1185759660550234e-05 0 7.6342493538066611e-06 7.1185759660550234e-05 0 -2.9638142742626783e-06 8.1742509495209766e-05 0 -4.9301552029651785e-06 -2.7548552187388788e-06 0 -3.467093183770031e-06 -5.7949204726421178e-07 0 -4.785675889782034e-06 -2.1950011168129013e-06 0 -4.0446118652635318e-06 -1.3511245592609953e-06 0 -3.467093183770031e-06 -5.7949204726421178e-07 0 -4.9301552029651785e-06 -2.7548552187388788e-06 0 -9.7692199134608724e-06 -6.679005424116507e-06 0 -8.0163058353611028e-06 -4.6526601585820955e-06 0 -8.6601466954794299e-06 -6.2788991335269751e-06 0 -8.6601466954794299e-06 -6.2788991335269751e-06 0 -8.0163058353611028e-06 -4.6526601585820955e-06 0 -7.3757038429251858e-06 -5.4394827507447212e-06 0 -6.2780523830327775e-06 1.5271437351406334e-06 0 -2.7577874220527608e-06 2.4060374713121717e-07 0 -5.7758636545562234e-06 6.0256682071098059e-07 0 -4.3836436305376634e-06 -1.3717916703050261e-06 0 -4.0471411314321511e-06 -7.5822088249326926e-07 0 -1.9541002188818272e-06 -3.6876894233069713e-07 0 -3.1504868433977993e-06 1.1994084433360545e-06 0 -2.7577874220527608e-06 2.4060374713121717e-07 0 -6.2780523830327775e-06 1.5271437351406334e-06 0 -2.2530178780764042e-06 -1.015662078744533e-06 0 -4.3836436305376634e-06 -1.3717916703050261e-06 0 -1.9541002188818272e-06 -3.6876894233069713e-07 0 -1.1787583237278107e-05 -3.087149401549887e-06 0 -1.4588284719443124e-05 -4.2900758079348074e-06 0 -1.1384459158899336e-05 -2.5780870063935129e-06 0 -2.2901940091544801e-05 6.4102820293342775e-06 0 -1.8010082836948671e-05 4.1510585813710999e-06 0 -1.7553360220804116e-05 3.7159124345372568e-06 0 -1.8424918861107571e-07 3.357747522709934e-07 0 -1.8453460358203609e-07 7.2990333972060198e-07 0 -7.0522103715017271e-07 -3.5657013837972203e-08 0 -7.3059991071230964e-07 7.8126451913868934e-07 0 -7.0522103715017281e-07 -3.5657013837972203e-08 0 -1.8453460358203609e-07 7.2990333972060198e-07 0 -2.0037608545515886e-06 8.2396104649607195e-07 0 -2.5828789509798743e-06 7.6094343364605648e-07 0 -1.5578530251634353e-06 9.4258678869643983e-07 0 -8.8125063094098489e-10 -3.7823742670864545e-10 0 -5.9471738494397674e-10 -2.5555963007945514e-10 0 -6.7681325054214071e-07 -6.2623283486746722e-07 0 -6.671254889075125e-10 2.4350078158954356e-10 0 -8.6182636221490609e-10 2.5934003549220184e-10 0 -7.6715515693224637e-07 5.5216052402611184e-07 0 -1.1888363355145096e-05 -9.0816334082588029e-06 0 -1.159754835001759e-05 -9.2102513716870475e-06 0 -9.7692199134608724e-06 -6.679005424116507e-06 0 5.7262694501447491e-06 1.3968338910238914e-05 0 2.0795802957959253e-06 9.0453077624513208e-06 0 1.7992237010215828e-06 9.7499619250282186e-06 0 -2.29060903709814e-05 -8.833353966230689e-05 0 -1.7399422588638759e-05 -8.2382579182454856e-05 0 -2.3061126411217877e-05 -7.9358556812803434e-05 0 -2.7942815985399137e-05 0.00019062129647814222 0 -4.196793169892597e-05 0.0001756439980148596 0 -2.8165075098871561e-05 0.00017051236475005882 0 -2.7942815985399137e-05 0.00019062129647814222 0 -2.8165075098871561e-05 0.00017051236475005882 0 -1.4675811548250975e-05 0.00017669710145922429 0 -2.29060903709814e-05 -8.833353966230689e-05 0 -2.3061126411217877e-05 -7.9358556812803434e-05 0 -2.898673007403564e-05 -8.1551575893485913e-05 0 -4.4463364651752598e-05 0.00015890878375636789 0 -2.7052533559151208e-05 0.00015118547635510827 0 -2.8165075098871561e-05 0.00017051236475005882 0 -1.633609334385057e-05 -7.4454553874592704e-05 0 -2.3296549330941495e-05 -7.0237449366143402e-05 0 -2.3061126411217877e-05 -7.9358556812803434e-05 0 -2.0037608545515886e-06 8.2396104649607195e-07 0 -1.5578530251634353e-06 9.4258678869643983e-07 0 -1.2295733753410482e-06 8.2067644343754009e-07 0 5.7262694501447491e-06 1.3968338910238914e-05 0 -2.6782696048790376e-07 1.2041421358309243e-05 0 2.0795802957959253e-06 9.0453077624513208e-06 0 -5.4404064709910969e-05 4.2599631736319001e-05 0 -4.8248611089014043e-05 3.1090041312044093e-05 0 -3.8143687292266201e-05 3.3362586505675091e-05 0 -2.8098769558637204e-05 -1.5569517832525289e-05 0 -3.1395893794313484e-05 -2.0622717230838628e-05 0 -2.3978660027809022e-05 -1.6593701429398138e-05 0 -9.6133568475806911e-06 -7.1200165552932314e-06 0 -1.1888363355145096e-05 -9.0816334082588029e-06 0 -9.7692199134608724e-06 -6.679005424116507e-06 0 -2.4709155063508651e-05 2.6847350469278784e-05 0 -2.128925489401112e-05 1.5813003170332306e-05 0 -1.6108452919464441e-05 1.7048828931799947e-05 0 -1.1502657703930097e-05 4.5449037231724664e-06 0 -1.6471078776611223e-05 6.9241121057591614e-06 0 -1.5716429098553744e-05 4.0263627184983787e-06 0 -4.5537043384880549e-06 -5.7072170648870176e-07 0 -3.7875862500179709e-06 1.2900577815295046e-06 0 -5.7628372719347579e-06 -1.9445827589795101e-06 0 -2.246496265848183e-05 -6.1000308135331018e-05 0 -1.747785709698351e-05 -5.8364902068164156e-05 0 -2.2472091610892989e-05 -5.136383482640406e-05 0 -2.7329617243982619e-05 0.00013176470455247214 0 -3.8471941226674865e-05 0.00012616750632541741 0 -2.4597564774729722e-05 0.00011056463803868937 0 -2.2472091610892989e-05 -5.136383482640406e-05 0 -1.747785709698351e-05 -5.8364902068164156e-05 0 -1.6735038340307628e-05 -5.0087892540949884e-05 0 -2.4597564774729722e-05 0.00011056463803868937 0 -3.8471941226674865e-05 0.00012616750632541741 0 -3.7681995116011004e-05 0.00011071893428781377 0 -1.1502657703930097e-05 4.5449037231724664e-06 0 -1.5716429098553744e-05 4.0263627184983787e-06 0 -1.0234995462324019e-05 2.5207395057676112e-06 0 -4.2163996145608252e-06 -2.8048201527551799e-06 0 -2.673736464321942e-06 2.2884662191184662e-06 0 -4.5537043384880549e-06 -5.7072170648870176e-07 0 -2.4709155063508651e-05 2.6847350469278784e-05 0 -2.9361199830526057e-05 2.2794046263773271e-05 0 -2.1289254894011123e-05 1.5813003170332306e-05 0 5.7262694501447491e-06 1.3968338910238914e-05 0 1.2310239187521563e-05 3.5525751277837666e-05 0 3.960961780874695e-07 3.6409654481077023e-05 0 -1.614376596715274e-05 -2.3112911286261365e-05 0 -1.4323222605689024e-05 -2.277172823159783e-05 0 -1.6689503871479851e-05 -2.1880506035111513e-05 0 -4.4830828883661385e-06 -3.1351128067207079e-05 0 -4.3444683335014332e-06 -2.9182831323079433e-05 0 -6.4101523126531495e-06 -2.8645035314678734e-05 0 -2.0152954272234007e-06 3.8640242404189667e-06 0 -3.7875862500179709e-06 1.2900577815295046e-06 0 -4.5537043384880549e-06 -5.7072170648870176e-07 0 -4.3946871735178814e-06 -8.102465231406007e-05 0 -1.0027598852275763e-05 -7.3375416458005229e-05 0 -1.1634789272706625e-05 -8.1141060114427462e-05 0 -7.5381930449373055e-05 0.00017411622104794363 0 -6.0131473532570981e-05 0.00015706751510147386 0 -5.7130181185194645e-05 0.00017212693478001038 0 -4.0965681669885712e-10 -1.9786293257233538e-10 0 -2.2010043887019746e-07 -1.7307577681481826e-07 0 -3.6015896780664242e-07 -3.9008544870287178e-07 0 -5.3177619650961403e-10 2.5034647667318013e-10 0 -5.367072861854325e-07 5.1763581691445405e-07 0 -4.1190190109446147e-07 5.2223197414303062e-07 0 -2.4709155063508651e-05 2.6847350469278784e-05 0 -1.5401583430559094e-05 2.576190454074711e-05 0 -2.19032961009496e-05 4.0153984349190368e-05 0 -1.0083734360333101e-05 3.5442590591186786e-05 0 -2.19032961009496e-05 4.0153984349190368e-05 0 -1.540158343055909e-05 2.576190454074711e-05 0 -2.8311455313201001e-06 2.2157433500644186e-05 0 5.7262694501447491e-06 1.3968338910238914e-05 0 3.960961780874695e-07 3.6409654481077023e-05 0 -7.4837999165981576e-05 0.00014024910465481653 0 -5.3715258281640727e-05 0.00014061311299204052 0 -6.0131473532570981e-05 0.00015706751510147386 0 -2.6574082586877165e-06 -6.3259345308057903e-05 0 -1.1927931234230766e-05 -6.5036192196583334e-05 0 -1.0027598852275761e-05 -7.3375416458005229e-05 0 -7.5387380965271057e-06 -2.2621305691778107e-05 0 -8.1346305583082439e-06 -1.9858052140820025e-05 0 -9.5401937382540689e-06 -2.1830108115675429e-05 0 -5.1189613371383868e-06 -6.3543482761542344e-07 0 -5.7628372719347579e-06 -1.9445827589795101e-06 0 -3.7875862500179709e-06 1.2900577815295046e-06 0 -6.8522893428099982e-06 -4.4770133445517808e-06 0 -7.9575077093268153e-06 -7.0618404982406489e-06 0 -6.2403400850948235e-06 -6.7364953134309806e-06 0 -2.7179876598576389e-06 -1.2308413835669781e-05 0 -3.1989864811213415e-06 -1.0054458122172441e-05 0 -5.5042240164378818e-06 -1.298237815339216e-05 0 -6.5197516379925669e-05 7.1510725207414491e-05 0 -4.8988538904324349e-05 6.0985990505508336e-05 0 -5.4988345054333619e-05 8.0423881663952673e-05 0 -4.3553192749054261e-05 -6.5212372867234347e-05 0 -3.7077020176128506e-05 -7.3167094218032247e-05 0 -3.4577078543708997e-05 -6.5857123965302436e-05 0 1.8422647472986749e-05 0.0001375941570215261 0 2.9084504428212266e-06 0.0001580000209588491 0 -1.1705716975991644e-06 0.00014171665311596315 0 -3.4431209332513745e-06 -7.1878579183028312e-05 0 -1.0027598852275761e-05 -7.3375416458005229e-05 0 -4.3946871735178814e-06 -8.102465231406007e-05 0 -7.5381930449373055e-05 0.00017411622104794363 0 -7.5286299509224602e-05 0.00015742485705432137 0 -6.0131473532570981e-05 0.00015706751510147386 0 -1.332622637522481e-05 -2.026845619938478e-05 0 -1.382496658456785e-05 -1.825223053090722e-05 0 -1.4828155462725974e-05 -2.0212474590975255e-05 0 -6.2768261927653035e-06 -8.2903011958320306e-06 0 -8.2940828350926658e-06 -1.000332794451706e-05 0 -8.419920962678803e-06 -1.5128567785891237e-05 0 -1.332622637522481e-05 -2.026845619938478e-05 0 -1.2517968571032359e-05 -1.8553564693717168e-05 0 -1.382496658456785e-05 -1.825223053090722e-05 0 -5.2854274471142177e-06 -1.0121528315402604e-05 0 -5.5042240164378818e-06 -1.298237815339216e-05 0 -3.1989864811213415e-06 -1.0054458122172441e-05 0 -1.888703791060411e-05 -2.7554207996029926e-05 0 -2.064908090949353e-05 -3.674992653232473e-05 0 -1.503810408734936e-05 -2.9557217063913524e-05 0 -1.4744479224277059e-09 1.7569628836667585e-10 0 -1.9541002188818272e-06 -3.6876894233069713e-07 0 -1.3595223151883979e-06 6.3117113730310148e-08 0 -2.1240740634298568e-09 -3.6081416315808866e-10 0 -1.847987016909468e-06 -3.3043940529547029e-07 0 -2.7577874220527608e-06 2.4060374713121717e-07 0 -1.614376596715274e-05 -2.3112911286261365e-05 0 -1.3927730151126755e-05 -2.4389256438989692e-05 0 -1.4323222605689024e-05 -2.277172823159783e-05 0 -6.0518768377393007e-06 -3.0279253412380814e-05 0 -4.4830828883661385e-06 -3.1351128067207079e-05 0 -6.4101523126531495e-06 -2.8645035314678734e-05 0 -1.495776020420366e-09 -5.5364163652288408e-10 0 -2.3238471756373159e-06 -7.0260120273096272e-07 0 -1.8479870169094678e-06 -3.304394052954704e-07 0 -1.1800631071060139e-09 2.9177229664657544e-10 0 -1.3595223151883979e-06 6.3117113730310148e-08 0 -1.824024989165852e-06 3.0834737614818766e-07 0 -7.0522103715017271e-07 -3.5657013837972203e-08 0 -8.8054749271185622e-07 -6.3593173864909708e-07 0 -4.7729031057708129e-07 -1.6075473928017798e-07 0 -6.6450439747307857e-06 -1.7198627109106069e-06 0 -5.6561764824907575e-06 -8.0042684153711328e-07 0 -4.0471411314321511e-06 -7.5822088249326926e-07 0 -9.7343071289875969e-06 1.9446842302255208e-06 0 -5.7758636545562234e-06 6.0256682071098059e-07 0 -8.067407926880718e-06 5.8007540222439447e-07 0 -8.0000789532470381e-06 -1.2930687692215547e-05 0 -7.0939313750551579e-06 -1.0432075429299857e-05 0 -9.1832251947248604e-06 -1.1759795799200358e-05 0 -8.086191146731676e-06 -9.2433465070954262e-06 0 -6.2403400850948235e-06 -6.7364953134309806e-06 0 -7.9575077093268153e-06 -7.0618404982406489e-06 0 1.627002464855116e-05 0.00017355783572172912 0 -7.0567644313120505e-07 0.00017364416869493159 0 2.9084504428212266e-06 0.0001580000209588491 0 -4.3908191702138105e-05 -8.0811056996897039e-05 0 -3.5676571801579503e-05 -7.9900973944785502e-05 0 -3.7077020176128506e-05 -7.3167094218032247e-05 0 -8.086191146731676e-06 -9.2433465070954262e-06 0 -9.1832251947248604e-06 -1.1759795799200358e-05 0 -7.0939313750551579e-06 -1.0432075429299857e-05 0 -8.1346305583082439e-06 -1.9858052140820025e-05 0 -6.1673602942668575e-06 -1.9348793936550893e-05 0 -7.8374820153371899e-06 -1.6383460262978719e-05 0 -3.8027186008874719e-05 9.5043674252922935e-05 0 -3.2395591268735765e-05 7.3749140209573405e-05 0 -2.3664531445307723e-05 8.1242507921755198e-05 0 -2.1240740634298568e-09 -3.6081416315808866e-10 0 -2.2189811019554091e-09 4.1350072739235456e-11 0 -1.8479870169094678e-06 -3.304394052954704e-07 0 -1.6345808988767001e-09 -8.072884711485403e-11 0 -1.4744479224277059e-09 1.7569628836667585e-10 0 -1.3595223151883979e-06 6.3117113730310148e-08 0 -7.0522103715017271e-07 -3.5657013837972203e-08 0 -1.4271675828874728e-06 -4.3604551914644891e-07 0 -8.8054749271185622e-07 -6.3593173864909708e-07 0 -1.2163911181373289e-05 0.00015942016856554069 0 -2.8165075098871561e-05 0.00017051236475005882 0 -2.7052533559151208e-05 0.00015118547635510827 0 -3.0066698376060205e-05 -7.3690795828603125e-05 0 -2.3061126411217877e-05 -7.9358556812803434e-05 0 -2.3296549330941495e-05 -7.0237449366143402e-05 0 -2.064908090949353e-05 -3.674992653232473e-05 0 -1.5568698539643678e-05 -3.6795064579807514e-05 0 -1.503810408734936e-05 -2.9557217063913524e-05 0 -1.9215921928415292e-07 3.1201754120895348e-07 0 -2.417149175445937e-07 6.3386315268008576e-07 0 -1.6500763150493958e-07 2.9020336760551185e-07 0 -6.2124861469475738e-06 2.2546767958661827e-07 0 -4.2627070438672627e-06 2.469773967013439e-07 0 -6.9249898156432112e-06 1.2180482037584374e-06 0 -6.1673602942668575e-06 -1.9348793936550893e-05 0 -5.5773697876898668e-06 -1.6430927590658001e-05 0 -7.8374820153371899e-06 -1.6383460262978719e-05 0 -1.6500763150493958e-07 2.9020336760551185e-07 0 -2.417149175445937e-07 6.3386315268008576e-07 0 -1.4153233676126559e-07 6.072923439358909e-07 0 -2.417149175445937e-07 6.3386315268008576e-07 0 -2.1854044338213906e-07 4.0715832685429484e-07 0 -4.2342329061463679e-07 7.3031852170693865e-07 0 -4.101263288334729e-07 6.1941334785819872e-07 0 -4.2342329061463679e-07 7.3031852170693865e-07 0 -2.1854044338213906e-07 4.0715832685429484e-07 0 -1.5151871864162493e-05 -1.922699476264309e-05 0 -1.382496658456785e-05 -1.825223053090722e-05 0 -1.4935605446654254e-05 -1.7423188169567878e-05 0 -6.8522893428099982e-06 -4.4770133445517808e-06 0 -6.2403400850948226e-06 -6.7364953134309797e-06 0 -5.5625142697915486e-06 -3.5924620262778243e-06 0 -7.5387380965271057e-06 -2.2621305691778107e-05 0 -6.1673602942668575e-06 -1.9348793936550893e-05 0 -8.1346305583082439e-06 -1.9858052140820025e-05 0 -2.0152954272234007e-06 3.8640242404189667e-06 0 -4.5537043384880549e-06 -5.7072170648870134e-07 0 -2.673736464321942e-06 2.2884662191184662e-06 0 1.7498593631744636e-05 0.00015515495422401582 0 1.627002464855116e-05 0.00017355783572172912 0 2.9084504428212266e-06 0.0001580000209588491 0 -4.3849748440024474e-05 -7.3177178912504868e-05 0 -4.3908191702138105e-05 -8.0811056996897039e-05 0 -3.7077020176128506e-05 -7.3167094218032247e-05 0 -4.3553192749054261e-05 -6.5212372867234347e-05 0 -4.3849748440024474e-05 -7.3177178912504868e-05 0 -3.7077020176128506e-05 -7.3167094218032247e-05 0 1.8422647472986749e-05 0.0001375941570215261 0 1.7498593631744636e-05 0.00015515495422401582 0 2.9084504428212266e-06 0.0001580000209588491 0 -3.8177594845155018e-08 5.7672967652962623e-06 0 -3.9252612122176047e-07 4.668736976331135e-06 0 -2.0152954272234007e-06 3.8640242404189667e-06 0 -1.2349621040744868e-06 9.8206966380126125e-07 0 -8.2162790404425948e-07 8.7123753487742577e-07 0 -1.5578530251634353e-06 9.4258678869643983e-07 0 -8.6661161278157411e-07 7.9087955919537576e-07 0 -1.5578530251634353e-06 9.4258678869643983e-07 0 -8.2162790404425948e-07 8.7123753487742577e-07 0 1.4782315097405589e-06 8.2438636386502712e-05 0 5.6965867292063544e-06 9.3932861519112161e-05 0 -1.0516217916539267e-05 9.4432423056601246e-05 0 5.6965867292063544e-06 9.3932861519112161e-05 0 1.5227105887828417e-06 0.00010606544546267405 0 -1.0516217916539267e-05 9.4432423056601246e-05 0 -4.2163996145608252e-06 -2.8048201527551799e-06 0 -4.553704338488054e-06 -5.7072170648870208e-07 0 -5.5625142697915486e-06 -3.5924620262778243e-06 0 -7.6516232456795678e-06 -2.8940405926368152e-05 0 -6.4101523126531495e-06 -2.8645035314678734e-05 0 -7.9587190215061606e-06 -2.6396202742883421e-05 0 -1.1668120138182896e-05 -2.581807813738999e-05 0 -1.2481200283798945e-05 -2.3214526402423758e-05 0 -1.4323222605689024e-05 -2.277172823159783e-05 0 -3.9252612122176047e-07 4.668736976331135e-06 0 -1.8996540154285586e-06 3.0285027262938622e-06 0 -2.0152954272234007e-06 3.8640242404189667e-06 0 -7.5286299509224602e-05 0.00015742485705432137 0 -7.4837999165981576e-05 0.00014024910465481653 0 -6.0131473532570981e-05 0.00015706751510147386 0 -2.6574082586877165e-06 -6.3259345308057903e-05 0 -1.0027598852275761e-05 -7.3375416458005229e-05 0 -3.4431209332513745e-06 -7.1878579183028312e-05 0 -1.4588284719443124e-05 -4.2900758079348074e-06 0 -1.4402341339023033e-05 -4.1670126800219664e-06 0 -1.1384459158899336e-05 -2.5780870063935129e-06 0 -2.2901940091544801e-05 6.4102820293342775e-06 0 -1.7553360220804116e-05 3.7159124345372568e-06 0 -2.2018322811450095e-05 6.4740086827234035e-06 0 -4.2163996145608252e-06 -2.8048201527551799e-06 0 -6.2403400850948235e-06 -6.7364953134309806e-06 0 -3.8837664451819343e-06 -7.158242898306038e-06 0 -6.2768261927653035e-06 -8.2903011958320306e-06 0 -8.419920962678803e-06 -1.5128567785891237e-05 0 -3.7584366324024349e-06 -1.6212317527063978e-05 0 -5.2854274471142177e-06 -1.0121528315402604e-05 0 -6.2403400850948235e-06 -6.7364953134309806e-06 0 -7.0939313750551579e-06 -1.0432075429299857e-05 0 -8.086191146731676e-06 -9.2433465070954262e-06 0 -7.0939313750551579e-06 -1.0432075429299857e-05 0 -6.2403400850948235e-06 -6.7364953134309806e-06 0 -2.29060903709814e-05 -8.833353966230689e-05 0 -1.6731436297761875e-05 -8.8749637487380985e-05 0 -1.7399422588638759e-05 -8.2382579182454856e-05 0 -2.7942815985399137e-05 0.00019062129647814222 0 -4.3233029335365521e-05 0.00019032616295035587 0 -4.196793169892597e-05 0.0001756439980148596 0 -1.3266077622457198e-05 0.00019109540183871165 0 -2.7942815985399137e-05 0.00019062129647814222 0 -1.4675811548250975e-05 0.00017669710145922429 0 -2.9529605860122469e-05 -8.8101030251343316e-05 0 -2.29060903709814e-05 -8.833353966230689e-05 0 -2.898673007403564e-05 -8.1551575893485913e-05 0 -7.1241658595674234e-06 1.6024869710416692e-05 0 -1.540158343055909e-05 2.576190454074711e-05 0 -1.6108452919464441e-05 1.7048828931799947e-05 0 -1.0719053145974936e-05 -1.1748681293520934e-05 0 -1.2240562239428466e-05 -1.410436469349038e-05 0 -1.0944840254894059e-05 -1.4268468747018436e-05 0 -5.2854274471142177e-06 -1.0121528315402604e-05 0 -7.0939313750551579e-06 -1.0432075429299857e-05 0 -5.5042240164378818e-06 -1.298237815339216e-05 0 -8.0000789532470381e-06 -1.2930687692215547e-05 0 -5.5042240164378818e-06 -1.298237815339216e-05 0 -7.0939313750551579e-06 -1.0432075429299857e-05 0 -1.0918414995437723e-05 -3.1310266283625639e-05 0 -9.9210804920176129e-06 -2.2970001112133747e-05 0 -1.503810408734936e-05 -2.9557217063913524e-05 0 -5.4404064709910969e-05 4.2599631736319001e-05 0 -3.8143687292266201e-05 3.3362586505675091e-05 0 -4.7925165590201151e-05 4.759583906711005e-05 0 -1.1173586022460506e-05 -5.2980809187712919e-06 0 -1.4137206205434083e-05 -8.2656093728792776e-06 0 -1.0059913916019406e-05 -6.4208875147376488e-06 0 -1.1939791450555274e-05 -9.6289200600272937e-06 0 -1.0059913916019406e-05 -6.4208875147376488e-06 0 -1.4137206205434083e-05 -8.2656093728792776e-06 0 -1.3857772641553449e-05 -2.1496163896323697e-05 0 -1.1892026345342165e-05 -2.1607009806516227e-05 0 -1.332622637522481e-05 -2.026845619938478e-05 0 -4.3176188904140636e-05 7.1423687251889279e-05 0 -5.4988345054333619e-05 8.0423881663952673e-05 0 -4.8988538904324349e-05 6.0985990505508336e-05 0 -1.3942426328517211e-05 -4.5070790351227654e-06 0 -1.7532406458655593e-05 -6.9616652964508978e-06 0 -1.4375959794052443e-05 -6.139437388503637e-06 0 -1.8049694718847373e-05 -8.9444104069724033e-06 0 -1.4375959794052443e-05 -6.139437388503637e-06 0 -1.7532406458655593e-05 -6.9616652964508978e-06 0 -2.7303047827569554e-05 1.6704939099118003e-05 0 -2.7204476200183299e-05 1.2331796665082247e-05 0 -2.0859702712920305e-05 1.1019864982258756e-05 0 -2.0932895932834759e-05 7.7420091201696003e-06 0 -2.0859702712920305e-05 1.1019864982258756e-05 0 -2.7204476200183299e-05 1.2331796665082247e-05 0 -1.3014125892209817e-05 -1.6480994119876389e-05 0 -1.1320934327038711e-05 -1.6669815731714424e-05 0 -1.0944840254894059e-05 -1.4268468747018436e-05 0 -3.1395893794313484e-05 -2.0622717230838628e-05 0 -2.8832880619932987e-05 -2.2676556280289408e-05 0 -2.3978660027809022e-05 -1.6593701429398138e-05 0 -4.5536896852020833e-06 6.7450816123189319e-05 0 -1.3685918529296026e-05 5.2847486524835472e-05 0 -1.965387509021298e-06 5.0430788869807751e-05 0 -5.1189613371383868e-06 -6.3543482761542344e-07 0 -6.1580103828100438e-06 -2.2914548943036355e-06 0 -7.1246455363860322e-06 -3.5172331807171964e-06 0 -6.0748929000486008e-07 1.7194002005887926e-06 0 2.8522432735216814e-08 2.3469298759824248e-06 0 -7.7950107774766397e-08 1.6501278515016826e-06 0 -4.9849022738702444e-05 0.00012102520692008067 0 -3.8471941226674865e-05 0.00012616750632541741 0 -5.3715258281640727e-05 0.00014061311299204052 0 -1.2376296508197293e-05 -5.5205989518718541e-05 0 -1.747785709698351e-05 -5.8364902068164156e-05 0 -1.1927931234230764e-05 -6.5036192196583334e-05 0 -4.2163996145608252e-06 -2.8048201527551799e-06 0 -5.5625142697915477e-06 -3.5924620262778239e-06 0 -6.2403400850948235e-06 -6.7364953134309806e-06 0 -1.2481200283798945e-05 -2.3214526402423755e-05 0 -1.1892026345342165e-05 -2.1607009806516227e-05 0 -1.3857772641553449e-05 -2.1496163896323697e-05 0 -8.0000789532470381e-06 -1.2930687692215547e-05 0 -9.554233471291037e-06 -1.4427743864988233e-05 0 -7.8374820153371899e-06 -1.6383460262978719e-05 0 -5.9471738494397674e-10 -2.5555963007945514e-10 0 -3.6015896780664242e-07 -3.9008544870287178e-07 0 -6.7681325054214071e-07 -6.2623283486746722e-07 0 -6.671254889075125e-10 2.4350078158954356e-10 0 -7.6715515693224637e-07 5.5216052402611184e-07 0 -5.367072861854325e-07 5.1763581691445405e-07 0 -9.9210804920176129e-06 -2.2970001112133747e-05 0 -1.4733758248132208e-05 -2.3073280625003582e-05 0 -1.503810408734936e-05 -2.9557217063913524e-05 0 -6.2124861469475738e-06 2.2546767958661827e-07 0 -6.9249898156432112e-06 1.2180482037584374e-06 0 -9.0651610783377481e-06 9.4016311711350522e-07 0 -1.3265173720113369e-05 9.0993051510573687e-06 0 -1.6108452919464437e-05 1.7048828931799947e-05 0 -2.1289254894011123e-05 1.5813003170332306e-05 0 -4.3373925260064155e-07 -3.4299472355311777e-07 0 -2.2010043887019746e-07 -1.7307577681481826e-07 0 -2.5824541950036934e-07 -4.5928125294988405e-08 0 -1.8226953529510904e-07 1.0208216043205505e-07 0 -2.5824541950036934e-07 -4.5928125294988405e-08 0 -2.2010043887019746e-07 -1.7307577681481826e-07 0 -4.101263288334729e-07 6.1941334785819872e-07 0 -4.1190190109446147e-07 5.2223197414303072e-07 0 -8.2162790404425948e-07 8.7123753487742577e-07 0 -8.6661161278157411e-07 7.9087955919537576e-07 0 -8.2162790404425948e-07 8.7123753487742577e-07 0 -4.1190190109446147e-07 5.2223197414303062e-07 0 -1.1502657703930097e-05 4.5449037231724664e-06 0 -8.5225124926595474e-06 5.5180673944627068e-06 0 -1.3265173720113369e-05 9.0993051510573687e-06 0 -6.0748929000486008e-07 1.7194002005887926e-06 0 -7.1268022586794717e-07 2.3632916378015747e-06 0 2.8522432735216814e-08 2.3469298759824248e-06 0 -7.3059991071230964e-07 7.8126451913868934e-07 0 -1.5611546485519519e-06 6.8193915179721627e-09 0 -7.0522103715017271e-07 -3.5657013837972203e-08 0 -6.9249898156432112e-06 1.2180482037584374e-06 0 -4.2627070438672627e-06 2.469773967013439e-07 0 -4.8121069222762712e-06 1.7165183341014894e-06 0 -1.6996070657902029e-06 2.2247166820065054e-06 0 -5.0660934547433015e-07 3.4808513335634031e-06 0 -7.1268022586794717e-07 2.3632916378015747e-06 0 -4.4455013500351587e-06 -1.1625471786003325e-07 0 -4.7693759604790171e-06 -7.0480118228600804e-07 0 -3.3946206530191166e-06 2.5947581355007913e-07 0 -3.8331815200296935e-06 -4.2657403463519372e-07 0 -3.3946206530191166e-06 2.5947581355007913e-07 0 -4.7693759604790171e-06 -7.0480118228600804e-07 0 -2.2189811019553748e-09 4.1350072739241679e-11 0 -1.495776020420366e-09 -5.5364163652288408e-10 0 -1.8479870169094678e-06 -3.304394052954704e-07 0 -1.1800631071060139e-09 2.9177229664657544e-10 0 -1.6345808988767001e-09 -8.072884711485403e-11 0 -1.3595223151883979e-06 6.3117113730310148e-08 0 1.5139303672085665e-05 5.174851123369426e-05 0 -1.965387509021298e-06 5.0430788869807751e-05 0 3.960961780874695e-07 3.6409654481077023e-05 0 -1.2349621040744868e-06 9.8206966380126125e-07 0 -1.9377738144552052e-06 8.0618867963904551e-07 0 -1.0195335519742215e-06 1.033337111323927e-06 0 -8.0163058353611028e-06 -4.6526601585820955e-06 0 -6.1361188973467277e-06 -3.2071204078473673e-06 0 -7.3757038429251858e-06 -5.4394827507447212e-06 0 -1.0382813161217126e-05 -2.3732946957132299e-05 0 -1.1892026345342165e-05 -2.1607009806516227e-05 0 -1.2481200283798945e-05 -2.3214526402423755e-05 0 -1.1787583237278107e-05 -3.087149401549887e-06 0 -1.1384459158899336e-05 -2.5780870063935129e-06 0 -9.4903528279111295e-06 -1.8985921608852806e-06 0 -1.8010082836948671e-05 4.1510585813710999e-06 0 -1.4241309621653592e-05 2.2978325458123284e-06 0 -1.7553360220804116e-05 3.7159124345372568e-06 0 -9.6972901013424324e-06 -1.6669192668671693e-05 0 -7.8374820153371899e-06 -1.6383460262978719e-05 0 -9.554233471291037e-06 -1.4427743864988233e-05 0 -1.1384459158899336e-05 -2.5780870063935129e-06 0 -9.3645727740533849e-06 -1.7605050676377656e-06 0 -9.0336424247168236e-06 -1.5256733165462135e-06 0 -1.1956495694445806e-05 2.1733292256227039e-06 0 -1.0234995462324019e-05 2.5207395057676112e-06 0 -1.5716429098553744e-05 4.0263627184983787e-06 0 -1.2003210978325757e-05 -3.0762805649654264e-06 0 -9.3645727740533849e-06 -1.7605050676377656e-06 0 -1.1384459158899336e-05 -2.5780870063935129e-06 0 -3.5488016897195175e-06 5.2425772547226107e-07 0 -4.5073531008978193e-06 2.3130478461888561e-07 0 -4.7905942807402644e-06 4.322369604367904e-08 0 -2.9114804120716773e-06 -4.1377874396193634e-07 0 -4.2627070438672627e-06 2.469773967013439e-07 0 -5.0324715006378497e-06 -5.0578302831854796e-07 0 -1.6471078776611223e-05 6.9241121057591614e-06 0 -1.1502657703930097e-05 4.5449037231724664e-06 0 -1.3265173720113369e-05 9.0993051510573687e-06 0 -1.3014125892209817e-05 -1.6480994119876389e-05 0 -1.0944840254894059e-05 -1.4268468747018434e-05 0 -1.2240562239428466e-05 -1.410436469349038e-05 0 -5.0032420202655637e-06 0.0001222533879840457 0 -1.1705716975991644e-06 0.00014171665311596315 0 -1.5340420170411941e-05 0.0001391468818695796 0 -3.1859571800168725e-05 -5.692770466033184e-05 0 -3.457707854370899e-05 -6.585712396530245e-05 0 -2.8033679712462714e-05 -6.45152033407664e-05 0 -4.3373925260064155e-07 -3.4299472355311777e-07 0 -3.6015896780664242e-07 -3.9008544870287178e-07 0 -2.2010043887019746e-07 -1.7307577681481826e-07 0 -8.6661161278157411e-07 7.9087955919537576e-07 0 -4.1190190109446147e-07 5.2223197414303062e-07 0 -5.367072861854325e-07 5.1763581691445405e-07 0 -8.8125063094098489e-10 -3.7823742670864545e-10 0 -6.7681325054214071e-07 -6.2623283486746722e-07 0 -8.9791697768199522e-07 -6.66103121630591e-07 0 -8.6182636221490609e-10 2.5934003549220184e-10 0 -8.613586665624589e-07 4.5759786250640923e-07 0 -7.6715515693224637e-07 5.5216052402611184e-07 0 -8.0163058353611028e-06 -4.6526601585820955e-06 0 -9.7692199134608724e-06 -6.679005424116507e-06 0 -8.9646877330840343e-06 -6.0270997893613454e-06 0 -1.0350091316714535e-05 -8.0068738224886792e-06 0 -8.9646877330840343e-06 -6.0270997893613454e-06 0 -9.7692199134608724e-06 -6.679005424116507e-06 0 -2.5009065051916349e-05 5.6862416879227704e-05 0 -2.19032961009496e-05 4.0153984349190368e-05 0 -1.3685918529296026e-05 5.2847486524835472e-05 0 -1.0083734360333101e-05 3.5442590591186786e-05 0 -1.3685918529296028e-05 5.2847486524835472e-05 0 -2.19032961009496e-05 4.0153984349190368e-05 0 -1.1054856279124253e-06 7.8242388539843088e-06 0 3.0501535879573341e-07 5.3350776641261828e-06 0 2.0795802957959253e-06 9.0453077624513208e-06 0 -8.0163058353611028e-06 -4.6526601585820955e-06 0 -6.1580103828100438e-06 -2.2914548943036355e-06 0 -6.1361188973467277e-06 -3.2071204078473673e-06 0 -1.8424918861107571e-07 3.357747522709934e-07 0 -1.6500763150493958e-07 2.9020336760551185e-07 0 -1.4153233676126559e-07 6.072923439358909e-07 0 -1.0719053145974936e-05 -1.1748681293520934e-05 0 -1.0944840254894059e-05 -1.4268468747018436e-05 0 -9.1832251947248604e-06 -1.1759795799200358e-05 0 -3.8027186008874719e-05 9.5043674252922935e-05 0 -4.4497488557552484e-05 8.3114387070068493e-05 0 -3.2395591268735765e-05 7.3749140209573405e-05 0 -1.5151871864162493e-05 -1.922699476264309e-05 0 -1.4935605446654254e-05 -1.7423188169567878e-05 0 -1.6109213108861722e-05 -1.9423541926079475e-05 0 -8.1346305583082439e-06 -1.9858052140820025e-05 0 -9.5579044084132779e-06 -1.8734502335811352e-05 0 -9.5401937382540689e-06 -2.1830108115675429e-05 0 -2.4840243267935265e-06 7.3448997185924924e-07 0 -1.5578530251634353e-06 9.4258678869643983e-07 0 -2.5828789509798743e-06 7.6094343364605648e-07 0 -2.4709155063508651e-05 2.6847350469278784e-05 0 -1.6108452919464441e-05 1.7048828931799947e-05 0 -1.540158343055909e-05 2.576190454074711e-05 0 -4.3836436305376634e-06 -1.3717916703050261e-06 0 -6.6450439747307857e-06 -1.7198627109106069e-06 0 -4.0471411314321511e-06 -7.5822088249326926e-07 0 -9.7343071289875969e-06 1.9446842302255208e-06 0 -6.2780523830327775e-06 1.5271437351406334e-06 0 -5.7758636545562234e-06 6.0256682071098059e-07 0 -5.2854274471142177e-06 -1.0121528315402604e-05 0 -3.8837664451819343e-06 -7.158242898306038e-06 0 -6.2403400850948235e-06 -6.7364953134309806e-06 0 -1.889478050759111e-06 5.7265652478072433e-07 0 -3.1237972455910555e-06 5.7281179511398338e-07 0 -1.7353477292127909e-06 7.4538019387509084e-07 0 -2.1015565069872431e-06 -9.2402635278355e-07 0 -1.5487245775883453e-06 -9.1190078449017626e-07 0 -3.3123615475329889e-06 -8.8497495416793369e-07 0 -4.8248611089014043e-05 3.1090041312044093e-05 0 -3.6244774290490327e-05 2.3645762432226428e-05 0 -3.8143687292266201e-05 3.3362586505675091e-05 0 -2.8098769558637204e-05 -1.5569517832525289e-05 0 -2.3978660027809022e-05 -1.6593701429398138e-05 0 -2.2435543357007179e-05 -1.2051791413061301e-05 0 -7.1241658595674234e-06 1.6024869710416692e-05 0 -2.6782696048790386e-07 1.2041421358309243e-05 0 -2.8311455313201001e-06 2.2157433500644186e-05 0 5.7262694501447491e-06 1.3968338910238914e-05 0 -2.8311455313201005e-06 2.2157433500644186e-05 0 -2.6782696048790386e-07 1.2041421358309243e-05 0 -1.2491013884362877e-05 -1.7310464387152392e-05 0 -1.7182039568301973e-05 -1.9277512615634221e-05 0 -1.4733758248132208e-05 -2.3073280625003582e-05 0 -1.888703791060411e-05 -2.7554207996029926e-05 0 -1.4733758248132208e-05 -2.3073280625003582e-05 0 -1.7182039568301973e-05 -1.9277512615634221e-05 0 -4.2163996145608252e-06 -2.8048201527551799e-06 0 -1.9436414250577771e-06 4.6842488316508454e-07 0 -2.673736464321942e-06 2.2884662191184662e-06 0 -1.0382813161217126e-05 -2.3732946957132299e-05 0 -1.2481200283798946e-05 -2.3214526402423758e-05 0 -1.0710517916718509e-05 -2.5270169063268915e-05 0 -1.8424918861107571e-07 3.357747522709934e-07 0 -7.0522103715017271e-07 -3.5657013837972203e-08 0 -4.7729031057708129e-07 -1.6075473928017798e-07 0 -1.4137206205434083e-05 -8.2656093728792776e-06 0 -1.8958059380021567e-05 -1.1808483866396668e-05 0 -1.5505882355568132e-05 -1.1451693975453379e-05 0 -7.6516232456795678e-06 -2.8940405926368152e-05 0 -7.9587190215061606e-06 -2.6396202742883421e-05 0 -9.311845731540465e-06 -2.6083366030562496e-05 0 -3.8331885794152406e-05 4.7277306150176331e-05 0 -4.7925165590201151e-05 4.759583906711005e-05 0 -3.8143687292266201e-05 3.3362586505675091e-05 0 -5.3715258281640727e-05 0.00014061311299204052 0 -3.8471941226674865e-05 0.00012616750632541741 0 -3.8209275257160489e-05 0.00014216005318543748 0 -1.1927931234230764e-05 -6.5036192196583334e-05 0 -1.747785709698351e-05 -5.8364902068164156e-05 0 -1.8362872169218369e-05 -6.5977921875308142e-05 0 -2.3713940254834535e-06 4.7526455988361768e-07 0 -1.7818594632907367e-06 8.9409276437154026e-07 0 -1.5534583001225747e-06 9.3310544259551578e-07 0 -1.0350091316714535e-05 -8.0068738224886792e-06 0 -9.7692199134608724e-06 -6.679005424116507e-06 0 -1.159754835001759e-05 -9.2102513716870475e-06 0 -1.528172463763305e-07 1.1072095366025297e-06 0 -7.7950107774766423e-08 1.6501278515016828e-06 0 4.0150953435317464e-08 1.3084585093048537e-06 0 1.5684549140245882e-07 1.9595639788283815e-06 0 4.0150953435317464e-08 1.3084585093048537e-06 0 -7.7950107774766397e-08 1.6501278515016826e-06 0 -6.9249898156432112e-06 1.2180482037584374e-06 0 -1.0234995462324019e-05 2.5207395057676112e-06 0 -9.0651610783377481e-06 9.4016311711350522e-07 0 -1.888703791060411e-05 -2.7554207996029926e-05 0 -2.3326070634986772e-05 -3.2315559477366702e-05 0 -2.064908090949353e-05 -3.674992653232473e-05 0 -1.0446235089191996e-05 8.9267218613274769e-07 0 -7.9362740766169891e-06 9.5654518726694133e-08 0 -1.2548555919055414e-05 1.6885499558117861e-06 0 -1.0516217916539267e-05 9.4432423056601246e-05 0 -2.4597564774729722e-05 0.00011056463803868937 0 -2.7028794473735896e-05 9.6092365632794482e-05 0 -1.0516217916539267e-05 9.4432423056601246e-05 0 -2.7028794473735896e-05 9.6092365632794482e-05 0 -2.3664531445307723e-05 8.1242507921755198e-05 0 -3.8027186008874719e-05 9.5043674252922935e-05 0 -2.3664531445307726e-05 8.1242507921755184e-05 0 -2.7028794473735896e-05 9.6092365632794482e-05 0 -2.650498769040102e-05 -4.384890047218393e-05 0 -2.2472091610892989e-05 -5.136383482640406e-05 0 -1.9485338838306687e-05 -4.3565977173924968e-05 0 -2.650498769040102e-05 -4.384890047218393e-05 0 -1.9485338838306687e-05 -4.3565977173924968e-05 0 -2.064908090949353e-05 -3.674992653232473e-05 0 3.0501535879573341e-07 5.3350776641261828e-06 0 1.236370298309906e-06 6.5564759606189768e-06 0 2.0795802957959253e-06 9.0453077624513208e-06 0 -4.0965681669885712e-10 -1.9786293257233538e-10 0 -2.1482311307641471e-10 1.8991882747813523e-11 0 -2.2010043887019746e-07 -1.7307577681481826e-07 0 -3.6467212933259353e-10 1.8083775943775197e-10 0 -5.3177619650961403e-10 2.5034647667318013e-10 0 -4.1190190109446147e-07 5.2223197414303062e-07 0 -1.9377738144552052e-06 8.0618867963904551e-07 0 -1.5534583001225749e-06 9.3310544259551578e-07 0 -1.0195335519742215e-06 1.033337111323927e-06 0 -6.2768261927653035e-06 -8.2903011958320306e-06 0 -6.710410169376319e-06 -6.7286441034648981e-06 0 -8.2940828350926658e-06 -1.000332794451706e-05 0 -7.9362740766169891e-06 9.5654518726694146e-08 0 -9.0651610783377464e-06 9.4016311711350533e-07 0 -1.2548555919055414e-05 1.6885499558117861e-06 0 -2.3458139389015563e-10 1.3167932880324204e-10 0 -2.1854044338213906e-07 4.0715832685429484e-07 0 -1.4174894005148166e-07 1.4528535496176944e-07 0 -9.7343071289875969e-06 1.9446842302255208e-06 0 -8.067407926880718e-06 5.8007540222439447e-07 0 -1.1318416001161345e-05 1.567504856110541e-06 0 -6.6450439747307857e-06 -1.7198627109106069e-06 0 -7.693753371667392e-06 -1.4628620850050794e-06 0 -5.6561764824907575e-06 -8.0042684153711328e-07 0 -2.4581562778457849e-05 -2.2272032823404059e-05 0 -2.3978660027809022e-05 -1.6593701429398134e-05 0 -2.8832880619932987e-05 -2.2676556280289408e-05 0 -4.2342329061463679e-07 7.3031852170693865e-07 0 -4.101263288334729e-07 6.1941334785819872e-07 0 -7.3249951523389631e-07 9.2218615501099057e-07 0 -1.3014125892209817e-05 -1.6480994119876389e-05 0 -1.4935605446654254e-05 -1.7423188169567878e-05 0 -1.382496658456785e-05 -1.825223053090722e-05 0 -1.6996070657902029e-06 2.2247166820065054e-06 0 -7.1268022586794717e-07 2.3632916378015747e-06 0 -1.7215626558417165e-06 1.5285509625171952e-06 0 -4.5536896852020833e-06 6.7450816123189319e-05 0 -1.8377784367392763e-05 6.8518835385832907e-05 0 -1.3685918529296026e-05 5.2847486524835472e-05 0 -1.8424918861107571e-07 3.357747522709934e-07 0 -2.5824541950036934e-07 -4.5928125294988405e-08 0 -1.6500763150493958e-07 2.9020336760551185e-07 0 -4.4463364651752598e-05 0.00015890878375636789 0 -3.8209275257160489e-05 0.00014216005318543748 0 -2.7052533559151208e-05 0.00015118547635510827 0 -1.633609334385057e-05 -7.4454553874592704e-05 0 -1.8362872169218369e-05 -6.5977921875308142e-05 0 -2.3296549330941495e-05 -7.0237449366143402e-05 0 -4.101263288334729e-07 6.1941334785819872e-07 0 -8.2162790404425948e-07 8.7123753487742577e-07 0 -7.3249951523389631e-07 9.2218615501099057e-07 0 -1.6996070657902029e-06 2.2247166820065054e-06 0 -2.8530367772825828e-06 7.5113816219778001e-07 0 -3.408428290253144e-06 1.0484466071556323e-06 0 -1.2163911181373289e-05 0.00015942016856554069 0 -1.4675811548250975e-05 0.00017669710145922429 0 -2.8165075098871561e-05 0.00017051236475005882 0 -4.4463364651752598e-05 0.00015890878375636789 0 -2.8165075098871558e-05 0.00017051236475005879 0 -4.196793169892597e-05 0.0001756439980148596 0 -3.0066698376060205e-05 -7.3690795828603125e-05 0 -2.898673007403564e-05 -8.1551575893485913e-05 0 -2.3061126411217877e-05 -7.9358556812803434e-05 0 -1.633609334385057e-05 -7.4454553874592704e-05 0 -2.3061126411217877e-05 -7.9358556812803434e-05 0 -1.7399422588638759e-05 -8.2382579182454856e-05 0 -1.3265173720113369e-05 9.0993051510573687e-06 0 -2.1289254894011123e-05 1.5813003170332306e-05 0 -2.0859702712920305e-05 1.1019864982258756e-05 0 -1.8117277155956561e-05 -1.4199474458321607e-05 0 -2.3978660027809022e-05 -1.6593701429398138e-05 0 -2.0832726258694039e-05 -1.8678088708971927e-05 0 -2.4581562778457849e-05 -2.2272032823404059e-05 0 -2.0832726258694039e-05 -1.8678088708971927e-05 0 -2.3978660027809022e-05 -1.6593701429398138e-05 0 -3.8331885794152406e-05 4.7277306150176331e-05 0 -3.8143687292266201e-05 3.3362586505675091e-05 0 -3.0171101118263403e-05 3.8626760162449269e-05 0 -2.4709155063508651e-05 2.6847350469278784e-05 0 -3.0171101118263403e-05 3.8626760162449269e-05 0 -3.8143687292266201e-05 3.3362586505675091e-05 0 -8.6661161278157411e-07 7.9087955919537576e-07 0 -1.2295733753410482e-06 8.2067644343754009e-07 0 -1.5578530251634353e-06 9.4258678869643983e-07 0 1.2310239187521563e-05 3.5525751277837666e-05 0 1.5139303672085665e-05 5.174851123369426e-05 0 3.960961780874695e-07 3.6409654481077023e-05 0 -2.1015565069872431e-06 -9.2402635278355e-07 0 -3.4661234860598543e-06 -8.7536456457265739e-07 0 -2.3238471756373159e-06 -7.0260120273096272e-07 0 -1.889478050759111e-06 5.7265652478072433e-07 0 -1.824024989165852e-06 3.0834737614818766e-07 0 -2.8451963982774081e-06 4.146918245323904e-07 0 -8.0163058353611028e-06 -4.6526601585820955e-06 0 -7.1246455363860322e-06 -3.5172331807171964e-06 0 -6.1580103828100438e-06 -2.2914548943036355e-06 0 -3.1237972455910555e-06 5.7281179511398338e-07 0 -2.7042156729940461e-06 7.0928857331530005e-07 0 -1.7353477292127909e-06 7.4538019387509084e-07 0 -3.3123615475329889e-06 -8.8497495416793369e-07 0 -1.5487245775883455e-06 -9.1190078449017626e-07 0 -2.3406556513715066e-06 -7.0944724337902267e-07 0 -1.1956495694445806e-05 2.1733292256227039e-06 0 -1.5716429098553744e-05 4.0263627184983787e-06 0 -1.2548555919055414e-05 1.6885499558117861e-06 0 -1.7553360220804116e-05 3.7159124345372568e-06 0 -1.2548555919055414e-05 1.6885499558117861e-06 0 -1.5716429098553744e-05 4.0263627184983787e-06 0 -1.2163911181373289e-05 0.00015942016856554069 0 -1.5340420170411941e-05 0.0001391468818695796 0 -1.1705716975991644e-06 0.00014171665311596315 0 -3.0066698376060205e-05 -7.3690795828603125e-05 0 -2.8033679712462714e-05 -6.45152033407664e-05 0 -3.4577078543708997e-05 -6.5857123965302436e-05 0 -7.6516232456795678e-06 -2.8940405926368152e-05 0 -6.0518768377393007e-06 -3.0279253412380814e-05 0 -6.4101523126531495e-06 -2.8645035314678734e-05 0 -1.3927730151126755e-05 -2.4389256438989692e-05 0 -1.1668120138182896e-05 -2.581807813738999e-05 0 -1.4323222605689024e-05 -2.277172823159783e-05 0 -5.7467382939803774e-06 -7.8893226895565193e-07 0 -4.4455013500351587e-06 -1.1625471786003325e-07 0 -4.7905942807402644e-06 4.322369604367904e-08 0 -1.7049595597443664e-05 -2.109708358293923e-05 0 -1.6350240276124153e-05 -2.0535477688534605e-05 0 -1.6109213108861722e-05 -1.9423541926079475e-05 0 -5.6969751177968324e-07 -1.8966672221748624e-05 0 -2.3112728139782927e-06 -1.88129738029406e-05 0 -3.7194540407433771e-06 -2.3151564516333197e-05 0 -7.5387380965271057e-06 -2.2621305691778107e-05 0 -5.8445736587857542e-06 -2.3076935657845735e-05 0 -6.1673602942668575e-06 -1.9348793936550893e-05 0 -1.8049694718847373e-05 -8.9444104069724033e-06 0 -1.8958059380021567e-05 -1.1808483866396668e-05 0 -1.4137206205434083e-05 -8.2656093728792776e-06 0 -1.1668120138182896e-05 -2.581807813738999e-05 0 -1.0710517916718509e-05 -2.5270169063268915e-05 0 -1.2481200283798945e-05 -2.3214526402423755e-05 0 -2.0932895932834759e-05 7.7420091201696003e-06 0 -1.5716429098553744e-05 4.0263627184983787e-06 0 -1.6471078776611223e-05 6.9241121057591614e-06 0 -1.7818594632907369e-06 8.9409276437154026e-07 0 -1.0687490566050601e-06 1.2370244804016576e-06 0 -1.5534583001225747e-06 9.3310544259551578e-07 0 -1.8117277155956561e-05 -1.4199474458321607e-05 0 -1.7182039568301973e-05 -1.9277512615634221e-05 0 -1.446748343251553e-05 -1.3941978804868943e-05 0 -1.2491013884362877e-05 -1.7310464387152392e-05 0 -1.446748343251553e-05 -1.3941978804868943e-05 0 -1.7182039568301973e-05 -1.9277512615634221e-05 0 -6.5062294412540278e-06 -7.8164472532157086e-07 0 -5.7467382939803774e-06 -7.8893226895565193e-07 0 -4.7905942807402644e-06 4.322369604367904e-08 0 -1.8117277155956561e-05 -1.4199474458321607e-05 0 -1.5505882355568132e-05 -1.1451693975453379e-05 0 -1.8958059380021567e-05 -1.1808483866396668e-05 0 -5.6832491373137358e-06 -2.0484752716626591e-07 0 -6.5062294412540278e-06 -7.8164472532157086e-07 0 -4.7905942807402644e-06 4.322369604367904e-08 0 -2.9114804120716773e-06 -4.1377874396193634e-07 0 -2.0691194688246244e-06 4.5046998586443946e-07 0 -4.2627070438672627e-06 2.469773967013439e-07 0 -1.8117277155956561e-05 -1.4199474458321607e-05 0 -1.8958059380021567e-05 -1.1808483866396668e-05 0 -2.3978660027809022e-05 -1.6593701429398138e-05 0 -2.4709155063508651e-05 2.6847350469278784e-05 0 -3.8143687292266201e-05 3.3362586505675091e-05 0 -2.9361199830526057e-05 2.2794046263773271e-05 0 -1.495776020420366e-09 -5.5364163652288408e-10 0 -1.063177629834685e-06 -5.7317683606928106e-07 0 -2.3238471756373159e-06 -7.0260120273096272e-07 0 -1.1800631071060139e-09 2.9177229664657544e-10 0 -1.824024989165852e-06 3.0834737614818766e-07 0 -9.0112786058154602e-07 3.2407964977540877e-07 0 -5.6832491373137358e-06 -2.0484752716626591e-07 0 -4.7905942807402644e-06 4.322369604367904e-08 0 -4.5073531008978193e-06 2.3130478461888561e-07 0 -6.2124861469475738e-06 2.2546767958661827e-07 0 -5.0324715006378497e-06 -5.0578302831854796e-07 0 -4.2627070438672627e-06 2.469773967013439e-07 0 -1.5284639624152954e-06 -7.4703803123204542e-07 0 -8.8054749271185622e-07 -6.3593173864909708e-07 0 -1.4271675828874728e-06 -4.3604551914644891e-07 0 -8.2940828350926658e-06 -1.000332794451706e-05 0 -1.1360956595542534e-05 -1.2141529109603378e-05 0 -8.419920962678803e-06 -1.5128567785891237e-05 0 -1.8424918861107571e-07 3.357747522709934e-07 0 -1.4153233676126557e-07 6.07292343935891e-07 0 -6.6686127790242078e-08 7.8455323142901715e-07 0 -4.4463364651752598e-05 0.00015890878375636789 0 -5.3715258281640727e-05 0.00014061311299204052 0 -3.8209275257160489e-05 0.00014216005318543748 0 -1.633609334385057e-05 -7.4454553874592704e-05 0 -1.1927931234230764e-05 -6.5036192196583334e-05 0 -1.8362872169218369e-05 -6.5977921875308142e-05 0 -3.5488016897195175e-06 5.2425772547226107e-07 0 -3.1237972455910555e-06 5.7281179511398338e-07 0 -4.5073531008978193e-06 2.3130478461888561e-07 0 -2.9114804120716773e-06 -4.1377874396193634e-07 0 -5.0324715006378497e-06 -5.0578302831854796e-07 0 -3.3123615475329889e-06 -8.8497495416793369e-07 0 -2.417149175445937e-07 6.3386315268008576e-07 0 -5.5384672583080695e-07 9.5123523769395495e-07 0 -2.8000949827137671e-07 8.9558514593047772e-07 0 -1.1360956595542534e-05 -1.2141529109603378e-05 0 -1.2491013884362877e-05 -1.7310464387152392e-05 0 -8.419920962678803e-06 -1.5128567785891237e-05 0 -7.192110560248954e-05 0.00010523143424334309 0 -6.9118191803079371e-05 8.8045521605499815e-05 0 -5.4441026241523673e-05 9.5720858966880695e-05 0 -1.5942731209020857e-06 -3.7533968118040624e-05 0 -8.5619144108985729e-06 -4.2471846338288033e-05 0 -1.6558208967720272e-06 -4.5645663859231294e-05 0 -2.650498769040102e-05 -4.384890047218393e-05 0 -2.064908090949353e-05 -3.6749926532324723e-05 0 -2.578216927739542e-05 -3.7136148747189294e-05 0 -4.4972098705197203e-06 -9.1066402926594112e-07 0 -6.1361188973467277e-06 -3.2071204078473669e-06 0 -6.1580103828100438e-06 -2.2914548943036355e-06 0 -1.0446235089191996e-05 8.9267218613274769e-07 0 -8.0674079268807163e-06 5.8007540222439426e-07 0 -7.5467493676699837e-06 3.8892598211705867e-08 0 -7.371515148756142e-06 -9.5764916088108597e-07 0 -5.5452543746293285e-06 -3.9496965943858511e-07 0 -5.6561764824907575e-06 -8.0042684153711328e-07 0 -8.4943660845689687e-07 3.1391721287317328e-06 0 -1.3349588113460859e-06 1.5391384141964623e-06 0 -7.7804404356190016e-08 2.1723874641365709e-06 0 -2.417149175445937e-07 6.3386315268008576e-07 0 -4.2342329061463679e-07 7.3031852170693865e-07 0 -5.5384672583080706e-07 9.5123523769395495e-07 0 -1.0350091316714535e-05 -8.0068738224886792e-06 0 -1.2034312660663804e-05 -1.07883615021248e-05 0 -1.0316103336226101e-05 -9.2010112667374079e-06 0 -1.0446235089191996e-05 8.9267218613274769e-07 0 -1.1318416001161345e-05 1.567504856110541e-06 0 -8.067407926880718e-06 5.8007540222439447e-07 0 -7.371515148756142e-06 -9.5764916088108597e-07 0 -5.6561764824907567e-06 -8.0042684153711318e-07 0 -7.693753371667392e-06 -1.4628620850050797e-06 0 -1.6996070657902029e-06 2.2247166820065054e-06 0 -1.7215626558417165e-06 1.5285509625171952e-06 0 -2.8530367772825828e-06 7.5113816219778001e-07 0 -2.246496265848183e-05 -6.1000308135331018e-05 0 -2.2472091610892989e-05 -5.136383482640406e-05 0 -2.6427234268994086e-05 -5.6569943338087353e-05 0 -2.7329617243982619e-05 0.00013176470455247214 0 -2.4597564774729725e-05 0.00011056463803868937 0 -1.708114491586781e-05 0.00012193571380816514 0 -1.8049694718847373e-05 -8.9444104069724033e-06 0 -1.4137206205434083e-05 -8.2656093728792759e-06 0 -1.4375959794052443e-05 -6.139437388503637e-06 0 -1.1173586022460506e-05 -5.2980809187712919e-06 0 -1.4375959794052443e-05 -6.139437388503637e-06 0 -1.4137206205434083e-05 -8.2656093728792776e-06 0 -4.785675889782034e-06 -2.1950011168129013e-06 0 -6.1245424465024223e-06 -3.1949263454767214e-06 0 -5.6360010894933755e-06 -4.2337422292382547e-06 0 -7.3989131803290752e-06 -5.3217522244315192e-06 0 -5.6360010894933755e-06 -4.2337422292382547e-06 0 -6.1245424465024223e-06 -3.1949263454767214e-06 0 -6.7681325054214071e-07 -6.2623283486746722e-07 0 -8.8054749271185622e-07 -6.3593173864909708e-07 0 -1.5487245775883455e-06 -9.1190078449017626e-07 0 -1.5284639624152954e-06 -7.4703803123204542e-07 0 -1.5487245775883455e-06 -9.1190078449017626e-07 0 -8.8054749271185622e-07 -6.3593173864909708e-07 0 -2.0037608545515886e-06 8.2396104649607195e-07 0 -1.2295733753410482e-06 8.2067644343754009e-07 0 -1.7353477292127909e-06 7.4538019387509084e-07 0 -7.6715515693224637e-07 5.5216052402611184e-07 0 -1.7353477292127909e-06 7.4538019387509084e-07 0 -1.2295733753410482e-06 8.2067644343754009e-07 0 -1.3014125892209817e-05 -1.6480994119876389e-05 0 -1.2517968571032359e-05 -1.8553564693717168e-05 0 -1.1320934327038711e-05 -1.6669815731714424e-05 0 -4.4972098705197203e-06 -9.1066402926594112e-07 0 -3.408428290253144e-06 1.0484466071556323e-06 0 -2.8530367772825828e-06 7.5113816219778001e-07 0 1.5684549140245882e-07 1.9595639788283815e-06 0 -6.7224610809490207e-08 1.5198695297287234e-06 0 4.0150953435317464e-08 1.3084585093048537e-06 0 -1.0516217916539267e-05 9.4432423056601246e-05 0 -1.1252574297764502e-05 0.00011109380893659962 0 -2.4597564774729722e-05 0.00011056463803868937 0 -2.650498769040102e-05 -4.384890047218393e-05 0 -2.8218928678231253e-05 -5.1234436166541596e-05 0 -2.2472091610892989e-05 -5.136383482640406e-05 0 -1.0516217916539267e-05 9.4432423056601246e-05 0 -2.3664531445307723e-05 8.1242507921755198e-05 0 -1.1248393396658648e-05 7.8704756224636402e-05 0 -8.4943660845689687e-07 3.1391721287317328e-06 0 -2.7575369500682851e-06 2.4669841856158399e-06 0 -1.3349588113460859e-06 1.5391384141964623e-06 0 -8.4943660845689687e-07 3.1391721287317328e-06 0 -2.1107474128904514e-06 4.8868486274557341e-06 0 -2.7575369500682851e-06 2.4669841856158399e-06 0 -2.5009065051916349e-05 5.6862416879227704e-05 0 -1.8377784367392763e-05 6.8518835385832921e-05 0 -3.2395591268735765e-05 7.3749140209573405e-05 0 -2.3664531445307723e-05 8.1242507921755198e-05 0 -3.2395591268735765e-05 7.3749140209573405e-05 0 -1.8377784367392763e-05 6.8518835385832921e-05 0 -3.8560323346395164e-06 -2.387537145913531e-07 0 -2.3238471756373159e-06 -7.0260120273096272e-07 0 -4.1934012357854273e-06 -6.2974311256402408e-07 0 -2.8080205865063486e-06 -1.1621755650160241e-07 0 -3.210757049861298e-06 1.6201963973510782e-07 0 -1.824024989165852e-06 3.0834737614818766e-07 0 -1.2491013884362877e-05 -1.7310464387152392e-05 0 -1.4733758248132208e-05 -2.3073280625003582e-05 0 -9.9210804920176129e-06 -2.2970001112133747e-05 0 -1.7049595597443664e-05 -2.109708358293923e-05 0 -1.7274934230823206e-05 -2.2259872588742417e-05 0 -1.6350240276124153e-05 -2.0535477688534605e-05 0 -5.6969751177968324e-07 -1.8966672221748624e-05 0 -3.7194540407433771e-06 -2.3151564516333197e-05 0 -1.1216541956771573e-06 -2.2552788182126997e-05 0 -2.3303966328299667e-06 6.6339905761329044e-07 0 -2.8530367772825828e-06 7.5113816219778001e-07 0 -1.7215626558417165e-06 1.5285509625171952e-06 0 1.5684549140245882e-07 1.9595639788283815e-06 0 3.8501840477989126e-07 3.1612652190802651e-06 0 -7.7804404356190016e-08 2.1723874641365709e-06 0 -1.0382813161217126e-05 -2.3732946957132299e-05 0 -9.5401937382540689e-06 -2.1830108115675429e-05 0 -1.1892026345342165e-05 -2.1607009806516227e-05 0 -1.0796549240893358e-05 -2.0229155019791568e-05 0 -1.1892026345342165e-05 -2.1607009806516227e-05 0 -9.5401937382540689e-06 -2.1830108115675429e-05 0 -8.0000789532470381e-06 -1.2930687692215547e-05 0 -7.8374820153371899e-06 -1.6383460262978719e-05 0 -5.5042240164378818e-06 -1.298237815339216e-05 0 -4.4463364651752598e-05 0.00015890878375636789 0 -6.0131473532570981e-05 0.00015706751510147386 0 -5.3715258281640727e-05 0.00014061311299204052 0 -1.633609334385057e-05 -7.4454553874592704e-05 0 -1.0027598852275761e-05 -7.3375416458005229e-05 0 -1.1927931234230764e-05 -6.5036192196583334e-05 0 -1.5668137977851268e-05 -2.1257600868198516e-05 0 -1.6689503871479851e-05 -2.1880506035111513e-05 0 -1.4323222605689024e-05 -2.277172823159783e-05 0 -5.3710809495415687e-06 -2.6450837777697462e-05 0 -6.4101523126531495e-06 -2.8645035314678734e-05 0 -4.3444683335014332e-06 -2.9182831323079433e-05 0 -1.2163911181373289e-05 0.00015942016856554069 0 -2.7052533559151208e-05 0.00015118547635510827 0 -1.5340420170411941e-05 0.0001391468818695796 0 -3.0066698376060205e-05 -7.3690795828603125e-05 0 -2.3296549330941495e-05 -7.0237449366143402e-05 0 -2.8033679712462714e-05 -6.45152033407664e-05 0 -2.417149175445937e-07 6.3386315268008576e-07 0 -2.8000949827137671e-07 8.9558514593047772e-07 0 -1.4153233676126559e-07 6.072923439358909e-07 0 -1.528172463763305e-07 1.1072095366025297e-06 0 -1.4153233676126559e-07 6.072923439358909e-07 0 -2.8000949827137671e-07 8.9558514593047772e-07 0 -5.0032420202655637e-06 0.0001222533879840457 0 -1.5340420170411941e-05 0.0001391468818695796 0 -1.708114491586781e-05 0.00012193571380816514 0 -3.1859571800168725e-05 -5.692770466033184e-05 0 -2.8033679712462714e-05 -6.45152033407664e-05 0 -2.6427234268994086e-05 -5.6569943338087353e-05 0 -2.1015565069872431e-06 -9.2402635278355e-07 0 -2.3238471756373163e-06 -7.0260120273096262e-07 0 -1.063177629834685e-06 -5.7317683606928106e-07 0 -1.889478050759111e-06 5.7265652478072433e-07 0 -9.0112786058154602e-07 3.2407964977540877e-07 0 -1.824024989165852e-06 3.0834737614818766e-07 0 -1.0083734360333101e-05 3.5442590591186786e-05 0 -1.965387509021298e-06 5.0430788869807751e-05 0 -1.3685918529296026e-05 5.2847486524835472e-05 0 -3.8560323346395164e-06 -2.387537145913531e-07 0 -1.8479870169094678e-06 -3.304394052954704e-07 0 -2.3238471756373159e-06 -7.0260120273096272e-07 0 -2.8080205865063486e-06 -1.1621755650160241e-07 0 -1.824024989165852e-06 3.0834737614818766e-07 0 -1.3595223151883979e-06 6.3117113730310148e-08 0 -7.4837999165981576e-05 0.00014024910465481653 0 -6.1933560447271672e-05 0.00012767863133339577 0 -5.3715258281640727e-05 0.00014061311299204052 0 -2.6574082586877165e-06 -6.3259345308057903e-05 0 -7.6000792270816697e-06 -5.7929512658250663e-05 0 -1.1927931234230764e-05 -6.5036192196583334e-05 0 -7.1241658595674234e-06 1.6024869710416692e-05 0 -1.6108452919464441e-05 1.7048828931799947e-05 0 -9.1136456580627547e-06 1.147133287881287e-05 0 -1.3265173720113369e-05 9.0993051510573687e-06 0 -9.1136456580627547e-06 1.1471332878812872e-05 0 -1.6108452919464441e-05 1.7048828931799947e-05 0 -1.888703791060411e-05 -2.7554207996029926e-05 0 -1.7182039568301973e-05 -1.9277512615634221e-05 0 -2.1072754098002024e-05 -2.2797904275155741e-05 0 -4.2163996145608252e-06 -2.8048201527551799e-06 0 -3.8837664451819343e-06 -7.158242898306038e-06 0 -1.9243735845790419e-06 -4.5484625551476696e-06 0 -2.5009065051916349e-05 5.6862416879227704e-05 0 -3.0360839849050481e-05 4.8152367191172639e-05 0 -2.19032961009496e-05 4.0153984349190368e-05 0 -2.4709155063508651e-05 2.6847350469278784e-05 0 -2.19032961009496e-05 4.0153984349190368e-05 0 -3.0171101118263403e-05 3.8626760162449269e-05 0 -1.8117277155956561e-05 -1.4199474458321607e-05 0 -2.0832726258694039e-05 -1.8678088708971927e-05 0 -1.7182039568301973e-05 -1.9277512615634221e-05 0 -1.2491013884362877e-05 -1.7310464387152392e-05 0 -9.9210804920176129e-06 -2.2970001112133747e-05 0 -8.419920962678803e-06 -1.5128567785891237e-05 0 -1.5151871864162493e-05 -1.922699476264309e-05 0 -1.6109213108861722e-05 -1.9423541926079475e-05 0 -1.6350240276124153e-05 -2.0535477688534605e-05 0 -4.5799251477207851e-06 -2.0593931331093779e-05 0 -3.7194540407433771e-06 -2.3151564516333197e-05 0 -2.3112728139782927e-06 -1.88129738029406e-05 0 -5.1189613371383868e-06 -6.3543482761542344e-07 0 -7.1246455363860322e-06 -3.5172331807171964e-06 0 -5.7628372719347579e-06 -1.9445827589795101e-06 0 -8.0163058353611028e-06 -4.6526601585820955e-06 0 -8.9646877330840343e-06 -6.0270997893613454e-06 0 -7.1246455363860322e-06 -3.5172331807171964e-06 0 -3.9252612122176047e-07 4.668736976331135e-06 0 -5.0660934547433015e-07 3.4808513335634031e-06 0 -1.8996540154285588e-06 3.0285027262938622e-06 0 -8.2940828350926658e-06 -1.000332794451706e-05 0 -6.710410169376319e-06 -6.7286441034648981e-06 0 -9.0894768583053694e-06 -8.0468963541036498e-06 0 -1.2163911181373289e-05 0.00015942016856554069 0 -1.1705716975991634e-06 0.00014171665311596315 0 2.9084504428212266e-06 0.0001580000209588491 0 -3.0066698376060205e-05 -7.3690795828603125e-05 0 -3.4577078543708997e-05 -6.5857123965302436e-05 0 -3.7077020176128506e-05 -7.3167094218032247e-05 0 -1.6996070657902029e-06 2.2247166820065054e-06 0 -1.8996540154285588e-06 3.0285027262938622e-06 0 -5.0660934547433015e-07 3.4808513335634031e-06 0 -2.7179876598576389e-06 -1.2308413835669781e-05 0 -5.5042240164378818e-06 -1.298237815339216e-05 0 -3.5300880071792937e-06 -1.4676609636345889e-05 0 -1.0796549240893358e-05 -2.0229155019791568e-05 0 -9.5401937382540689e-06 -2.1830108115675429e-05 0 -9.5579044084132779e-06 -1.8734502335811352e-05 0 2.7514583101781985e-08 3.1271782800228566e-06 0 -7.1268022586794717e-07 2.3632916378015743e-06 0 -5.0660934547433015e-07 3.4808513335634031e-06 0 -4.3373925260064155e-07 -3.4299472355311777e-07 0 -4.7729031057708129e-07 -1.6075473928017795e-07 0 -8.8054749271185622e-07 -6.3593173864909708e-07 0 -3.466717865604269e-05 -2.6656058891904862e-05 0 -3.7427762527022928e-05 -3.3456993426813183e-05 0 -2.9835427289561543e-05 -2.8388252397241064e-05 0 -2.9114804120716773e-06 -4.1377874396193634e-07 0 -2.3406556513715066e-06 -7.0944724337902267e-07 0 -1.4271675828874728e-06 -4.3604551914644891e-07 0 4.0150953435317464e-08 1.3084585093048537e-06 0 -6.7224610809490207e-08 1.5198695297287234e-06 0 -1.8453460358203609e-07 7.2990333972060198e-07 0 -1.6996070657902029e-06 2.2247166820065054e-06 0 -3.408428290253144e-06 1.0484466071556323e-06 0 -1.8996540154285588e-06 3.0285027262938622e-06 0 -6.5197516379925669e-05 7.1510725207414491e-05 0 -6.0384182681479037e-05 5.6292077062044939e-05 0 -4.8988538904324349e-05 6.0985990505508336e-05 0 -4.101263288334729e-07 6.1941334785819872e-07 0 -2.1854044338213906e-07 4.0715832685429484e-07 0 -1.60402126655329e-07 2.6658306479678716e-07 0 -7.3059991071230964e-07 7.8126451913868934e-07 0 -7.7804404356190016e-08 2.1723874641365709e-06 0 -1.3349588113460859e-06 1.5391384141964623e-06 0 -1.0719053145974936e-05 -1.1748681293520934e-05 0 -1.182655675872747e-05 -1.1825190669369819e-05 0 -1.2240562239428466e-05 -1.410436469349038e-05 0 -2.650498769040102e-05 -4.384890047218393e-05 0 -3.1785461850806299e-05 -4.0397975009341594e-05 0 -3.3759393855737439e-05 -4.8837469606530759e-05 0 -2.9114804120716773e-06 -4.1377874396193634e-07 0 -1.4271675828874728e-06 -4.3604551914644891e-07 0 -1.5611546485519519e-06 6.8193915179720883e-09 0 -2.417149175445937e-07 6.3386315268008576e-07 0 -1.9215921928415292e-07 3.1201754120895348e-07 0 -2.1854044338213906e-07 4.0715832685429484e-07 0 -2.9039642867419169e-06 1.1443904161757669e-06 0 -1.3349588113460859e-06 1.5391384141964623e-06 0 -2.7575369500682851e-06 2.4669841856158399e-06 0 -1.2034312660663804e-05 -1.07883615021248e-05 0 -1.182655675872747e-05 -1.1825190669369819e-05 0 -1.0316103336226101e-05 -9.2010112667374079e-06 0 -1.5151871864162493e-05 -1.922699476264309e-05 0 -1.4828155462725974e-05 -2.0212474590975255e-05 0 -1.382496658456785e-05 -1.825223053090722e-05 0 -1.1956495694445806e-05 2.1733292256227039e-06 0 -9.0651610783377481e-06 9.4016311711350522e-07 0 -1.0234995462324019e-05 2.5207395057676112e-06 0 1.8422647472986749e-05 0.0001375941570215261 0 -1.1705716975991644e-06 0.00014171665311596315 0 6.9675498637401263e-06 0.00012774078077787431 0 -4.3553192749054261e-05 -6.5212372867234347e-05 0 -3.4577078543708997e-05 -6.5857123965302436e-05 0 -3.7668058088970251e-05 -5.9906519935396459e-05 0 -6.6686127790242078e-08 7.8455323142901715e-07 0 -1.8453460358203609e-07 7.2990333972060198e-07 0 -1.8424918861107571e-07 3.357747522709934e-07 0 4.0150953435317464e-08 1.3084585093048537e-06 0 -1.8453460358203609e-07 7.2990333972060198e-07 0 -6.6686127790242078e-08 7.8455323142901715e-07 0 -4.9849022738702444e-05 0.00012102520692008067 0 -5.3715258281640727e-05 0.00014061311299204052 0 -6.1933560447271672e-05 0.00012767863133339577 0 -1.2376296508197293e-05 -5.5205989518718541e-05 0 -1.1927931234230766e-05 -6.5036192196583334e-05 0 -7.6000792270816697e-06 -5.7929512658250663e-05 0 -1.528172463763305e-07 1.1072095366025297e-06 0 -5.4401881090855289e-07 1.3666682750429007e-06 0 -7.7950107774766397e-08 1.6501278515016826e-06 0 -6.0748929000486008e-07 1.7194002005887926e-06 0 -7.7950107774766397e-08 1.6501278515016828e-06 0 -5.4401881090855289e-07 1.3666682750429007e-06 0 -1.528172463763305e-07 1.1072095366025297e-06 0 -6.6686127790242078e-08 7.8455323142901715e-07 0 -1.4153233676126559e-07 6.072923439358909e-07 0 -7.371515148756142e-06 -9.5764916088108597e-07 0 -7.4000874432332271e-06 -8.3336494264933951e-07 0 -5.6470301480505467e-06 -2.0950277790624617e-07 0 -6.5712812592867765e-06 -2.1379422406002794e-06 0 -8.2580258218465119e-06 -4.1621915392516734e-06 0 -6.1245424465024223e-06 -3.1949263454767214e-06 0 -7.3989131803290752e-06 -5.3217522244315192e-06 0 -6.1245424465024214e-06 -3.1949263454767214e-06 0 -8.2580258218465119e-06 -4.1621915392516734e-06 0 -7.371515148756142e-06 -9.5764916088108597e-07 0 -5.6470301480505467e-06 -2.0950277790624617e-07 0 -5.5452543746293285e-06 -3.9496965943858511e-07 0 -1.0083734360333101e-05 3.5442590591186786e-05 0 3.960961780874695e-07 3.6409654481077023e-05 0 -1.965387509021298e-06 5.0430788869807751e-05 0 -2.7329617243982619e-05 0.00013176470455247214 0 -2.7052533559151205e-05 0.00015118547635510827 0 -3.8209275257160489e-05 0.00014216005318543748 0 -2.246496265848183e-05 -6.1000308135331018e-05 0 -2.3296549330941495e-05 -7.0237449366143402e-05 0 -1.8362872169218369e-05 -6.5977921875308142e-05 0 -2.3713940254834535e-06 4.7526455988361768e-07 0 -1.9377738144552052e-06 8.0618867963904551e-07 0 -2.7928348349238081e-06 3.314152457618659e-07 0 -2.3458139389015563e-10 1.3167932880324204e-10 0 -1.60402126655329e-07 2.6658306479678716e-07 0 -2.1854044338213906e-07 4.0715832685429484e-07 0 -8.4943660845689687e-07 3.1391721287317328e-06 0 3.0501535879573341e-07 5.3350776641261828e-06 0 -2.1107474128904514e-06 4.8868486274557341e-06 0 -5.5773697876898668e-06 -1.6430927590658001e-05 0 -5.5042240164378818e-06 -1.298237815339216e-05 0 -7.8374820153371899e-06 -1.6383460262978719e-05 0 -8.0000789532470381e-06 -1.2930687692215547e-05 0 -9.1832251947248604e-06 -1.1759795799200358e-05 0 -9.554233471291037e-06 -1.4427743864988233e-05 0 -5.5384672583080706e-07 9.5123523769395495e-07 0 -1.0195335519742215e-06 1.033337111323927e-06 0 -5.441708699914093e-07 1.0847230120598052e-06 0 -2.4581562778457849e-05 -2.2272032823404059e-05 0 -2.9835427289561543e-05 -2.8388252397241064e-05 0 -2.342120974557181e-05 -2.7591342762242743e-05 0 -2.8065874799509178e-05 -3.2963612055060797e-05 0 -2.342120974557181e-05 -2.7591342762242743e-05 0 -2.9835427289561543e-05 -2.8388252397241064e-05 0 -2.0937964270538638e-10 -2.703749054171594e-11 0 -2.3458139389016339e-10 1.3167932880324997e-10 0 -1.4174894005148166e-07 1.4528535496176944e-07 0 -4.3176188904140636e-05 7.1423687251889279e-05 0 -4.8988538904324349e-05 6.0985990505508336e-05 0 -3.6289631243522003e-05 5.9344173678645182e-05 0 -3.8331885794152406e-05 4.7277306150176331e-05 0 -3.6289631243522003e-05 5.9344173678645182e-05 0 -4.8988538904324349e-05 6.0985990505508336e-05 0 -1.5668137977851268e-05 -2.1257600868198516e-05 0 -1.4828155462725974e-05 -2.0212474590975255e-05 0 -1.6350240276124153e-05 -2.0535477688534605e-05 0 -5.3710809495415687e-06 -2.6450837777697462e-05 0 -3.7194540407433771e-06 -2.3151564516333197e-05 0 -5.8445736587857542e-06 -2.3076935657845735e-05 0 -5.1345339187510304e-06 3.833625743191791e-06 0 -2.7575369500682851e-06 2.4669841856158399e-06 0 -2.1107474128904514e-06 4.8868486274557341e-06 0 -1.332622637522481e-05 -2.026845619938478e-05 0 -1.2051387710718106e-05 -1.9940922781598067e-05 0 -1.2517968571032359e-05 -1.8553564693717168e-05 0 1.3737715684999829e-06 7.5884949789236797e-06 0 1.7992237010215828e-06 9.7499619250282186e-06 0 2.0795802957959253e-06 9.0453077624513208e-06 0 -2.9114804120716773e-06 -4.1377874396193634e-07 0 -1.5611546485519519e-06 6.8193915179720883e-09 0 -2.0691194688246244e-06 4.5046998586443946e-07 0 -1.3265173720113369e-05 9.0993051510573687e-06 0 -5.797067790707963e-06 7.1670918145531215e-06 0 -9.1136456580627547e-06 1.147133287881287e-05 0 1.5139303672085665e-05 5.174851123369426e-05 0 6.2500518854122149e-06 6.232814486914289e-05 0 -1.965387509021298e-06 5.0430788869807751e-05 0 -2.3713940254834535e-06 4.7526455988361768e-07 0 -1.5534583001225747e-06 9.3310544259551568e-07 0 -1.9377738144552052e-06 8.0618867963904551e-07 0 -2.7329617243982619e-05 0.00013176470455247214 0 -1.5340420170411941e-05 0.0001391468818695796 0 -2.7052533559151208e-05 0.00015118547635510827 0 -2.246496265848183e-05 -6.1000308135331018e-05 0 -2.8033679712462714e-05 -6.45152033407664e-05 0 -2.3296549330941495e-05 -7.0237449366143402e-05 0 -1.2349621040744868e-06 9.8206966380126125e-07 0 -1.8114027206774265e-06 8.8025133334131704e-07 0 -1.9377738144552052e-06 8.0618867963904551e-07 0 -5.6974028738343016e-06 -3.8545122818686468e-06 0 -7.3757038429251858e-06 -5.4394827507447212e-06 0 -6.1361188973467277e-06 -3.2071204078473673e-06 0 -5.0032420202655637e-06 0.0001222533879840457 0 6.9675498637401263e-06 0.00012774078077787431 0 -1.1705716975991644e-06 0.00014171665311596315 0 -3.1859571800168725e-05 -5.692770466033184e-05 0 -3.7668058088970251e-05 -5.9906519935396459e-05 0 -3.4577078543708997e-05 -6.5857123965302436e-05 0 -1.4588284719443124e-05 -4.2900758079348074e-06 0 -1.7697683937283402e-05 -5.9863671902576037e-06 0 -1.4402341339023033e-05 -4.1670126800219664e-06 0 -2.8466399807323412e-05 9.8926622532799685e-06 0 -2.2901940091544801e-05 6.4102820293342775e-06 0 -2.2018322811450095e-05 6.4740086827234035e-06 0 -7.1241658595674234e-06 1.6024869710416692e-05 0 -8.7857359925408141e-06 2.4236860508806751e-05 0 -1.540158343055909e-05 2.576190454074711e-05 0 -5.6832491373137358e-06 -2.0484752716626591e-07 0 -7.3606613109689321e-06 -9.5454233127722378e-07 0 -6.5062294412540278e-06 -7.8164472532157086e-07 0 -1.7448018585655577e-05 -2.3418807168208376e-05 0 -1.614376596715274e-05 -2.3112911286261365e-05 0 -1.6689503871479851e-05 -2.1880506035111513e-05 0 -1.7448018585655577e-05 -2.3418807168208376e-05 0 -1.6689503871479851e-05 -2.1880506035111513e-05 0 -1.7514344656950178e-05 -2.2891425811314761e-05 0 -2.1121491824710617e-06 -3.0017152771865868e-05 0 -1.8357559441908305e-06 -2.6379003289537536e-05 0 -4.3444683335014332e-06 -2.9182831323079433e-05 0 -2.1121491824710617e-06 -3.0017152771865868e-05 0 -4.3444683335014332e-06 -2.9182831323079433e-05 0 -4.4830828883661385e-06 -3.1351128067207079e-05 0 -1.5668137977851268e-05 -2.1257600868198516e-05 0 -1.3857772641553449e-05 -2.1496163896323697e-05 0 -1.4828155462725974e-05 -2.0212474590975255e-05 0 -5.3710809495415687e-06 -2.6450837777697462e-05 0 -5.8445736587857542e-06 -2.3076935657845735e-05 0 -7.0011603438976743e-06 -2.5498639360178792e-05 0 8.0838757248770684e-07 -1.2394269415542773e-05 0 -1.7250589583573439e-06 -1.5482182534892527e-05 0 1.4529120368164402e-07 -1.5453248615702392e-05 0 -1.6021512839000099e-05 -1.718150017367872e-05 0 -1.6621026865126713e-05 -1.9442392275768795e-05 0 -1.4935605446654254e-05 -1.7423188169567878e-05 0 5.2172619540241784e-06 1.2235135282139738e-06 0 8.6653869717929704e-07 -2.1551297214544472e-06 0 3.7367746972256817e-06 -3.6397664019949476e-06 0 -1.2163911181373289e-05 0.00015942016856554069 0 -7.0567644313120558e-07 0.00017364416869493162 0 -1.4675811548250975e-05 0.00017669710145922429 0 -4.4463364651752598e-05 0.00015890878375636789 0 -4.196793169892597e-05 0.0001756439980148596 0 -5.7130181185194645e-05 0.00017212693478001038 0 -3.0066698376060205e-05 -7.3690795828603125e-05 0 -3.5676571801579503e-05 -7.9900973944785502e-05 0 -2.898673007403564e-05 -8.1551575893485913e-05 0 -1.633609334385057e-05 -7.4454553874592704e-05 0 -1.7399422588638759e-05 -8.2382579182454856e-05 0 -1.1634789272706625e-05 -8.1141060114427462e-05 0 -9.6468544790932914e-07 1.1176226793727962e-06 0 -5.441708699914093e-07 1.0847230120598052e-06 0 -1.0195335519742215e-06 1.033337111323927e-06 0 -1.2163911181373289e-05 0.00015942016856554069 0 2.9084504428212279e-06 0.0001580000209588491 0 -7.056764431312041e-07 0.00017364416869493162 0 -3.0066698376060205e-05 -7.3690795828603125e-05 0 -3.7077020176128506e-05 -7.3167094218032247e-05 0 -3.5676571801579503e-05 -7.9900973944785502e-05 0 -5.1189613371383868e-06 -6.3543482761542344e-07 0 -3.7875862500179709e-06 1.2900577815295046e-06 0 -3.408428290253144e-06 1.0484466071556323e-06 0 -4.4463364651752598e-05 0.00015890878375636789 0 -5.7130181185194645e-05 0.00017212693478001038 0 -6.0131473532570981e-05 0.00015706751510147386 0 -1.633609334385057e-05 -7.4454553874592704e-05 0 -1.1634789272706625e-05 -8.1141060114427462e-05 0 -1.0027598852275761e-05 -7.3375416458005229e-05 0 -1.0918414995437723e-05 -3.1310266283625639e-05 0 -6.3768774299840677e-06 -2.6861767201989515e-05 0 -9.9210804920176129e-06 -2.2970001112133747e-05 0 -1.0350091316714535e-05 -8.0068738224886792e-06 0 -1.0316103336226101e-05 -9.2010112667374079e-06 0 -8.9646877330840343e-06 -6.0270997893613454e-06 0 -8.9168608553657591e-06 -7.3515144284252309e-06 0 -8.9646877330840343e-06 -6.0270997893613454e-06 0 -1.0316103336226101e-05 -9.2010112667374079e-06 0 -2.9039642867419169e-06 1.1443904161757669e-06 0 -4.2627070438672627e-06 2.469773967013439e-07 0 -2.0691194688246244e-06 4.5046998586443946e-07 0 -2.5009065051916349e-05 5.6862416879227704e-05 0 -1.3685918529296026e-05 5.2847486524835472e-05 0 -1.8377784367392763e-05 6.8518835385832921e-05 0 -3.7427762527022928e-05 -3.3456993426813183e-05 0 -3.3162555621753527e-05 -3.4917534285431535e-05 0 -2.9835427289561543e-05 -2.8388252397241064e-05 0 -1.1054856279124253e-06 7.8242388539843088e-06 0 -5.797067790707963e-06 7.1670918145531215e-06 0 -2.1107474128904514e-06 4.8868486274557341e-06 0 -5.1345339187510304e-06 3.833625743191791e-06 0 -2.1107474128904514e-06 4.8868486274557341e-06 0 -5.797067790707963e-06 7.1670918145531215e-06 0 1.5684549140245882e-07 1.9595639788283815e-06 0 2.8522432735216814e-08 2.3469298759824248e-06 0 3.8501840477989126e-07 3.1612652190802651e-06 0 -9.6972901013424324e-06 -1.6669192668671693e-05 0 -9.5579044084132779e-06 -1.8734502335811352e-05 0 -7.8374820153371899e-06 -1.6383460262978719e-05 0 -8.1346305583082439e-06 -1.9858052140820025e-05 0 -7.8374820153371899e-06 -1.6383460262978719e-05 0 -9.5579044084132779e-06 -1.8734502335811352e-05 0 -4.8248611089014043e-05 3.1090041312044093e-05 0 -4.1523736354558717e-05 2.1796004454155129e-05 0 -3.6244774290490327e-05 2.3645762432226428e-05 0 -2.4570589536022318e-05 -1.1471669898410868e-05 0 -2.8098769558637204e-05 -1.5569517832525289e-05 0 -2.2435543357007179e-05 -1.2051791413061301e-05 0 -5.9471738494397674e-10 -2.5555963007945514e-10 0 -4.0965681669885712e-10 -1.9786293257233538e-10 0 -3.6015896780664242e-07 -3.9008544870287178e-07 0 -5.3177619650961403e-10 2.5034647667318013e-10 0 -6.671254889075125e-10 2.4350078158954356e-10 0 -5.367072861854325e-07 5.1763581691445405e-07 0 -8.4943660845689687e-07 3.1391721287317328e-06 0 -7.7804404356189884e-08 2.1723874641365709e-06 0 2.173037652879855e-07 3.5386472907381906e-06 0 2.7514583101781985e-08 3.1271782800228566e-06 0 3.8501840477989126e-07 3.1612652190802651e-06 0 2.8522432735216814e-08 2.3469298759824248e-06 0 1.5684549140245882e-07 1.9595639788283815e-06 0 -7.7804404356190056e-08 2.1723874641365705e-06 0 -6.7224610809490207e-08 1.5198695297287234e-06 0 -5.325087626112701e-06 -6.0101232912427962e-07 0 -7.5467493676699837e-06 3.8892598211705867e-08 0 -5.8910562014675555e-06 -1.6597795588228752e-07 0 -4.1939098695755596e-06 1.5331938751419397e-07 0 -4.2805726174384228e-06 -2.3890460230743312e-07 0 -5.5452543746293285e-06 -3.9496965943858511e-07 0 -4.5536896852020833e-06 6.7450816123189319e-05 0 -1.965387509021298e-06 5.0430788869807751e-05 0 6.2500518854122149e-06 6.232814486914289e-05 0 -5.325087626112701e-06 -6.0101232912427962e-07 0 -5.8910562014675546e-06 -1.6597795588228757e-07 0 -4.1934012357854273e-06 -6.2974311256402408e-07 0 -4.1939098695755596e-06 1.5331938751419397e-07 0 -3.210757049861298e-06 1.6201963973510782e-07 0 -4.2805726174384228e-06 -2.3890460230743312e-07 0 -1.3014125892209817e-05 -1.6480994119876389e-05 0 -1.382496658456785e-05 -1.825223053090722e-05 0 -1.2517968571032359e-05 -1.8553564693717168e-05 0 -1.0083734360333101e-05 3.5442590591186786e-05 0 -2.8311455313201001e-06 2.2157433500644186e-05 0 3.960961780874695e-07 3.6409654481077023e-05 0 -7.3059991071230964e-07 7.8126451913868934e-07 0 -6.7224610809490207e-08 1.5198695297287234e-06 0 -7.7804404356190016e-08 2.1723874641365709e-06 0 -5.5773697876898668e-06 -1.6430927590658001e-05 0 -3.5300880071792937e-06 -1.4676609636345889e-05 0 -5.5042240164378818e-06 -1.298237815339216e-05 0 -1.2627568083710625e-09 -2.9187187302783218e-10 0 -8.8125063094098489e-10 -3.7823742670864545e-10 0 -8.9791697768199522e-07 -6.66103121630591e-07 0 -8.6182636221490609e-10 2.5934003549220184e-10 0 -1.0912199703953129e-09 1.6484262485860744e-10 0 -8.613586665624589e-07 4.5759786250640923e-07 0 -9.1135429397220347e-06 -2.2604655913566415e-06 0 -1.1787583237278107e-05 -3.0871494015498874e-06 0 -9.4903528279111295e-06 -1.8985921608852806e-06 0 -1.8010082836948671e-05 4.1510585813710999e-06 0 -1.3619109963905677e-05 2.7736417598175244e-06 0 -1.4241309621653592e-05 2.2978325458123284e-06 0 -1.1939791450555274e-05 -9.6289200600272937e-06 0 -1.4137206205434083e-05 -8.2656093728792776e-06 0 -1.5505882355568132e-05 -1.1451693975453379e-05 0 -2.4169497314206215e-06 -2.2802630594138152e-05 0 -6.0679706333564728e-06 -2.0124856113383631e-05 0 -6.3768774299840677e-06 -2.6861767201989515e-05 0 -4.4972098705197203e-06 -9.1066402926594112e-07 0 -4.8374635876860992e-06 -2.0907168305902672e-06 0 -6.1361188973467277e-06 -3.2071204078473673e-06 0 -1.344607993570239e-06 1.4084385948409842e-06 0 -7.1268022586794717e-07 2.3632916378015747e-06 0 -6.0748929000486008e-07 1.7194002005887926e-06 0 -1.7215626558417165e-06 1.5285509625171952e-06 0 -7.1268022586794727e-07 2.3632916378015747e-06 0 -1.344607993570239e-06 1.4084385948409842e-06 0 7.4156098110968043e-07 4.6850924890147337e-06 0 3.0501535879573341e-07 5.3350776641261828e-06 0 2.173037652879855e-07 3.5386472907381906e-06 0 -8.4943660845689687e-07 3.1391721287317328e-06 0 2.1730376528798545e-07 3.5386472907381902e-06 0 3.0501535879573341e-07 5.3350776641261828e-06 0 -7.5387380965271057e-06 -2.2621305691778107e-05 0 -8.9349169570125016e-06 -2.4297146403659732e-05 0 -7.0011603438976743e-06 -2.5498639360178792e-05 0 -1.3744016931350784e-05 -1.1692721341728234e-05 0 -1.2034312660663804e-05 -1.07883615021248e-05 0 -1.159754835001759e-05 -9.2102513716870475e-06 0 -5.6974028738343016e-06 -3.8545122818686468e-06 0 -6.0768624595086082e-06 -5.8745445764346263e-06 0 -7.3757038429251858e-06 -5.4394827507447212e-06 0 -6.2768261927653035e-06 -8.2903011958320306e-06 0 -7.3757038429251867e-06 -5.4394827507447212e-06 0 -6.0768624595086082e-06 -5.8745445764346263e-06 0 -6.6450439747307857e-06 -1.7198627109106069e-06 0 -9.1135429397220347e-06 -2.260465591356642e-06 0 -7.693753371667392e-06 -1.4628620850050797e-06 0 -1.3619109963905677e-05 2.7736417598175244e-06 0 -9.7343071289875969e-06 1.9446842302255208e-06 0 -1.1318416001161345e-05 1.567504856110541e-06 0 -9.6059651050964923e-06 -2.7372554670629168e-05 0 -7.6516232456795678e-06 -2.8940405926368152e-05 0 -9.311845731540465e-06 -2.6083366030562496e-05 0 -5.797067790707963e-06 7.1670918145531215e-06 0 -4.2134748247614298e-06 1.0336647549401555e-05 0 -9.1136456580627547e-06 1.147133287881287e-05 0 -1.528172463763305e-07 1.1072095366025297e-06 0 4.0150953435317457e-08 1.3084585093048537e-06 0 -6.6686127790242078e-08 7.8455323142901715e-07 0 -2.3238471756373159e-06 -7.0260120273096272e-07 0 -3.4661234860598543e-06 -8.7536456457265749e-07 0 -4.1934012357854273e-06 -6.2974311256402408e-07 0 -1.824024989165852e-06 3.0834737614818766e-07 0 -3.2107570498612984e-06 1.6201963973510777e-07 0 -2.8451963982774081e-06 4.146918245323904e-07 0 -1.2349621040744868e-06 9.8206966380126125e-07 0 -1.5578530251634353e-06 9.4258678869643983e-07 0 -1.8114027206774267e-06 8.8025133334131704e-07 0 -4.4972098705197203e-06 -9.1066402926594112e-07 0 -4.7864456599596512e-06 -6.6679695918083751e-07 0 -3.408428290253144e-06 1.0484466071556323e-06 0 -4.5799251477207851e-06 -2.0593931331093779e-05 0 -6.1673602942668575e-06 -1.9348793936550893e-05 0 -5.8445736587857542e-06 -2.3076935657845735e-05 0 -2.4840243267935265e-06 7.3448997185924924e-07 0 -1.8114027206774267e-06 8.8025133334131704e-07 0 -1.5578530251634353e-06 9.4258678869643983e-07 0 -7.192110560248954e-05 0.00010523143424334309 0 -5.4441026241523673e-05 9.5720858966880695e-05 0 -5.9313186233301383e-05 0.00011201696236607518 0 -1.6558208967720272e-06 -4.5645663859231294e-05 0 -8.5619144108985729e-06 -4.2471846338288033e-05 0 -7.6767301369590587e-06 -5.0146057448122496e-05 0 -1.5942731209020857e-06 -3.7533968118040624e-05 0 -7.0783180140271508e-06 -3.4917132739750667e-05 0 -8.5619144108985729e-06 -4.2471846338288033e-05 0 -6.8522893428099982e-06 -4.4770133445517808e-06 0 -5.7628372719347579e-06 -1.9445827589795101e-06 0 -7.1246455363860322e-06 -3.5172331807171964e-06 0 -1.3744016931350784e-05 -1.1692721341728234e-05 0 -1.3497810640963948e-05 -1.3032736079634043e-05 0 -1.2034312660663804e-05 -1.07883615021248e-05 0 -2.3713940254834535e-06 4.7526455988361768e-07 0 -3.467093183770031e-06 -5.7949204726421178e-07 0 -2.5756639571666404e-06 2.5172667570882343e-07 0 -5.1189613371383868e-06 -6.3543482761542344e-07 0 -3.408428290253144e-06 1.0484466071556323e-06 0 -4.7864456599596512e-06 -6.667969591808374e-07 0 1.627002464855116e-05 0.00017355783572172912 0 5.8669895391868268e-06 0.00018257088459816477 0 -7.056764431312041e-07 0.00017364416869493162 0 -4.3908191702138105e-05 -8.0811056996897039e-05 0 -3.9007241430871532e-05 -8.3999043261815971e-05 0 -3.5676571801579503e-05 -7.9900973944785502e-05 0 -4.3946871735178814e-06 -8.102465231406007e-05 0 -1.1634789272706625e-05 -8.1141060114427462e-05 0 -8.8908318275189305e-06 -8.538576781760699e-05 0 -7.5381930449373055e-05 0.00017411622104794363 0 -5.7130181185194645e-05 0.00017212693478001038 0 -6.4509945049742308e-05 0.00018118687755340541 0 -2.3303966328299667e-06 6.6339905761329044e-07 0 -1.7818594632907369e-06 8.9409276437154026e-07 0 -2.5756639571666404e-06 2.5172667570882343e-07 0 -2.3713940254834535e-06 4.7526455988361768e-07 0 -2.5756639571666404e-06 2.5172667570882343e-07 0 -1.7818594632907369e-06 8.9409276437154026e-07 0 -4.785675889782034e-06 -2.1950011168129013e-06 0 -3.467093183770031e-06 -5.7949204726421157e-07 0 -4.0594314775250912e-06 -1.0065663354746465e-06 0 -2.0932895932834759e-05 7.7420091201696003e-06 0 -2.2018322811450095e-05 6.4740086827234035e-06 0 -1.5716429098553744e-05 4.0263627184983787e-06 0 -1.7553360220804116e-05 3.7159124345372568e-06 0 -1.5716429098553744e-05 4.0263627184983779e-06 0 -2.2018322811450095e-05 6.4740086827234035e-06 0 -5.1345339187510304e-06 3.833625743191791e-06 0 -7.7197533841170969e-06 2.9109510485907064e-06 0 -4.8121069222762712e-06 1.7165183341014894e-06 0 -6.5712812592867765e-06 -2.1379422406002794e-06 0 -4.7693759604790171e-06 -7.0480118228600804e-07 0 -5.7467382939803774e-06 -7.8893226895565193e-07 0 -5.6974028738343016e-06 -3.8545122818686468e-06 0 -5.6360010894933755e-06 -4.2337422292382547e-06 0 -6.0768624595086082e-06 -5.8745445764346263e-06 0 -4.1939098695755596e-06 1.5331938751419397e-07 0 -3.1237972455910551e-06 5.7281179511398338e-07 0 -2.8451963982774081e-06 4.146918245323904e-07 0 -1.889478050759111e-06 5.7265652478072433e-07 0 -2.8451963982774081e-06 4.146918245323904e-07 0 -3.1237972455910555e-06 5.7281179511398338e-07 0 -2.1015565069872431e-06 -9.2402635278355e-07 0 -3.3123615475329889e-06 -8.8497495416793369e-07 0 -3.4661234860598543e-06 -8.7536456457265739e-07 0 -5.325087626112701e-06 -6.0101232912427962e-07 0 -3.4661234860598539e-06 -8.7536456457265739e-07 0 -3.3123615475329889e-06 -8.8497495416793369e-07 0 -2.8065874799509178e-05 -3.2963612055060797e-05 0 -3.1785461850806299e-05 -4.0397975009341594e-05 0 -2.578216927739542e-05 -3.7136148747189294e-05 0 -2.650498769040102e-05 -4.384890047218393e-05 0 -2.578216927739542e-05 -3.7136148747189294e-05 0 -3.1785461850806299e-05 -4.0397975009341594e-05 0 -6.7681325054214071e-07 -6.2623283486746722e-07 0 -3.6015896780664242e-07 -3.9008544870287178e-07 0 -8.8054749271185622e-07 -6.3593173864909708e-07 0 -4.3373925260064155e-07 -3.4299472355311777e-07 0 -8.8054749271185622e-07 -6.3593173864909708e-07 0 -3.6015896780664242e-07 -3.9008544870287178e-07 0 -8.6661161278157411e-07 7.9087955919537576e-07 0 -5.367072861854325e-07 5.1763581691445405e-07 0 -1.2295733753410482e-06 8.2067644343754009e-07 0 -7.6715515693224637e-07 5.5216052402611184e-07 0 -1.2295733753410482e-06 8.2067644343754009e-07 0 -5.367072861854325e-07 5.1763581691445405e-07 0 -2.7329617243982619e-05 0.00013176470455247214 0 -1.7081144915867813e-05 0.00012193571380816514 0 -1.5340420170411941e-05 0.0001391468818695796 0 -2.246496265848183e-05 -6.1000308135331018e-05 0 -2.6427234268994089e-05 -5.6569943338087353e-05 0 -2.8033679712462714e-05 -6.45152033407664e-05 0 -3.5488016897195175e-06 5.2425772547226107e-07 0 -2.7042156729940457e-06 7.0928857331530005e-07 0 -3.1237972455910555e-06 5.7281179511398338e-07 0 -2.9114804120716773e-06 -4.1377874396193634e-07 0 -3.3123615475329889e-06 -8.8497495416793369e-07 0 -2.3406556513715066e-06 -7.0944724337902267e-07 0 -6.5712812592867765e-06 -2.1379422406002794e-06 0 -6.1245424465024223e-06 -3.1949263454767214e-06 0 -4.9820995041353847e-06 -1.5751063181598828e-06 0 -4.1939098695755596e-06 1.5331938751419397e-07 0 -4.5073531008978193e-06 2.3130478461888561e-07 0 -3.1237972455910555e-06 5.7281179511398338e-07 0 -5.325087626112701e-06 -6.0101232912427962e-07 0 -3.3123615475329889e-06 -8.8497495416793369e-07 0 -5.0324715006378497e-06 -5.0578302831854796e-07 0 -6.2768261927653035e-06 -8.2903011958320306e-06 0 -8.6601466954794299e-06 -6.2788991335269751e-06 0 -7.3757038429251858e-06 -5.4394827507447212e-06 0 -2.3713940254834535e-06 4.7526455988361768e-07 0 -3.2004428807014174e-06 -1.5973393167967812e-07 0 -3.467093183770031e-06 -5.7949204726421178e-07 0 -1.495776020420366e-09 -5.5364163652288408e-10 0 -1.2627568083710625e-09 -2.9187187302783218e-10 0 -1.063177629834685e-06 -5.7317683606928106e-07 0 -1.0912199703953129e-09 1.6484262485860744e-10 0 -1.1800631071060139e-09 2.9177229664657544e-10 0 -9.0112786058154602e-07 3.2407964977540877e-07 0 -1.1054856279124253e-06 7.8242388539843088e-06 0 -2.1107474128904514e-06 4.8868486274557341e-06 0 3.0501535879573341e-07 5.3350776641261828e-06 0 -1.0382813161217126e-05 -2.3732946957132299e-05 0 -1.0710517916718509e-05 -2.5270169063268915e-05 0 -9.311845731540465e-06 -2.6083366030562496e-05 0 -6.5712812592867765e-06 -2.1379422406002794e-06 0 -7.5287530233667028e-06 -1.8188002269096941e-06 0 -9.0381855517644056e-06 -3.315803244992474e-06 0 -9.9210804920176129e-06 -2.2970001112133747e-05 0 -6.3768774299840677e-06 -2.6861767201989515e-05 0 -6.0679706333564728e-06 -2.0124856113383631e-05 0 -2.3303966328299667e-06 6.6339905761329044e-07 0 -1.344607993570239e-06 1.4084385948409842e-06 0 -1.7818594632907369e-06 8.9409276437154026e-07 0 -4.0446118652635318e-06 -1.3511245592609953e-06 0 -3.1721030318302153e-06 -3.0133329176491028e-07 0 -3.467093183770031e-06 -5.7949204726421178e-07 0 -3.8560323346395164e-06 -2.387537145913531e-07 0 -5.7758636545562234e-06 6.0256682071098059e-07 0 -2.7577874220527608e-06 2.4060374713121717e-07 0 -2.8080205865063486e-06 -1.1621755650160241e-07 0 -1.9541002188818272e-06 -3.6876894233069713e-07 0 -4.0471411314321511e-06 -7.5822088249326926e-07 0 -7.3989131803290752e-06 -5.3217522244315192e-06 0 -6.710410169376319e-06 -6.7286441034648989e-06 0 -5.6360010894933755e-06 -4.2337422292382547e-06 0 -6.0748929000486008e-07 1.7194002005887926e-06 0 -1.0687490566050601e-06 1.2370244804016576e-06 0 -1.344607993570239e-06 1.4084385948409842e-06 0 -3.8331815200296935e-06 -4.2657403463519372e-07 0 -4.7693759604790171e-06 -7.0480118228600815e-07 0 -4.9820995041353847e-06 -1.5751063181598828e-06 0 -1.3942426328517211e-05 -4.5070790351227654e-06 0 -1.4375959794052443e-05 -6.139437388503637e-06 0 -1.1506795389310042e-05 -4.1026146757176058e-06 0 -6.9118191803079371e-05 8.8045521605499815e-05 0 -5.4988345054333619e-05 8.0423881663952673e-05 0 -5.4441026241523673e-05 9.5720858966880695e-05 0 -7.3989131803290752e-06 -5.3217522244315192e-06 0 -8.2580258218465119e-06 -4.1621915392516734e-06 0 -1.0059913916019406e-05 -6.4208875147376488e-06 0 -7.1246455363860322e-06 -3.5172331807171964e-06 0 -8.9646877330840343e-06 -6.0270997893613454e-06 0 -7.9101633486090825e-06 -5.395301785050173e-06 0 -6.5712812592867765e-06 -2.1379422406002794e-06 0 -9.0381855517644056e-06 -3.315803244992474e-06 0 -8.2580258218465119e-06 -4.1621915392516734e-06 0 -1.7818594632907369e-06 8.9409276437154026e-07 0 -1.344607993570239e-06 1.4084385948409842e-06 0 -1.0687490566050601e-06 1.2370244804016576e-06 0 -1.0350091316714535e-05 -8.0068738224886792e-06 0 -1.1597548350017592e-05 -9.2102513716870475e-06 0 -1.2034312660663804e-05 -1.07883615021248e-05 0 -1.1054856279124253e-06 7.8242388539843088e-06 0 2.0795802957959253e-06 9.0453077624513208e-06 0 -2.6782696048790386e-07 1.2041421358309243e-05 0 -6.5712812592867765e-06 -2.1379422406002794e-06 0 -5.7467382939803774e-06 -7.8893226895565204e-07 0 -7.5287530233667028e-06 -1.8188002269096941e-06 0 -7.3836735231832599e-05 0.00012273648858491951 0 -7.192110560248954e-05 0.00010523143424334309 0 -5.9313186233301383e-05 0.00011201696236607518 0 -1.6558208967720272e-06 -4.5645663859231294e-05 0 -7.6767301369590587e-06 -5.0146057448122496e-05 0 -1.9651038333771307e-06 -5.4213946824339029e-05 0 -1.8231883667428794e-06 -2.9926699651540274e-05 0 -7.0783180140271508e-06 -3.4917132739750667e-05 0 -1.5942731209020857e-06 -3.7533968118040624e-05 0 -1.3265173720113369e-05 9.0993051510573687e-06 0 -2.0859702712920305e-05 1.1019864982258756e-05 0 -1.6471078776611223e-05 6.9241121057591614e-06 0 5.2172619540241784e-06 1.2235135282139738e-06 0 5.6246098216667643e-07 5.1010112548600454e-06 0 8.6653869717929704e-07 -2.1551297214544472e-06 0 -1.3942426328517211e-05 -4.5070790351227654e-06 0 -1.4402341339023033e-05 -4.1670126800219664e-06 0 -1.6812897530761617e-05 -5.7288026234438673e-06 0 -2.0932895932834759e-05 7.7420091201696003e-06 0 -2.6368854940306872e-05 9.5647823050038887e-06 0 -2.2018322811450095e-05 6.4740086827234035e-06 0 -1.3942426328517211e-05 -4.5070790351227654e-06 0 -1.6812897530761617e-05 -5.7288026234438673e-06 0 -1.7532406458655593e-05 -6.9616652964508978e-06 0 -2.0932895932834759e-05 7.7420091201696003e-06 0 -2.7204476200183299e-05 1.2331796665082247e-05 0 -2.6368854940306872e-05 9.5647823050038887e-06 0 -2.8080205865063486e-06 -1.1621755650160241e-07 0 -1.3595223151883979e-06 6.3117113730310148e-08 0 -1.9541002188818272e-06 -3.6876894233069713e-07 0 -3.8560323346395164e-06 -2.387537145913531e-07 0 -2.7577874220527608e-06 2.4060374713121717e-07 0 -1.8479870169094678e-06 -3.304394052954704e-07 0 -4.0446118652635318e-06 -1.3511245592609953e-06 0 -4.9301552029651785e-06 -2.7548552187388788e-06 0 -4.8374635876860992e-06 -2.0907168305902672e-06 0 -5.6974028738343016e-06 -3.8545122818686468e-06 0 -4.8374635876860992e-06 -2.0907168305902672e-06 0 -4.9301552029651785e-06 -2.7548552187388788e-06 0 -1.6621026865126713e-05 -1.9442392275768795e-05 0 -1.6109213108861722e-05 -1.9423541926079475e-05 0 -1.4935605446654254e-05 -1.7423188169567878e-05 0 1.4529120368164402e-07 -1.5453248615702392e-05 0 -1.7250589583573441e-06 -1.5482182534892527e-05 0 -2.3112728139782927e-06 -1.88129738029406e-05 0 3.7367746972256817e-06 -3.6397664019949476e-06 0 8.6653869717929714e-07 -2.1551297214544468e-06 0 7.2449182656672561e-07 -6.1650774047077471e-06 0 8.0838757248770684e-07 -1.2394269415542773e-05 0 -6.9814222573218788e-07 -1.2213448839121579e-05 0 -1.7250589583573441e-06 -1.5482182534892527e-05 0 -1.6021512839000099e-05 -1.718150017367872e-05 0 -1.4935605446654254e-05 -1.7423188169567878e-05 0 -1.439601512402088e-05 -1.5281740985831587e-05 0 -6.5712812592867765e-06 -2.1379422406002794e-06 0 -4.9820995041353847e-06 -1.5751063181598826e-06 0 -4.7693759604790171e-06 -7.0480118228600804e-07 0 -4.785675889782034e-06 -2.1950011168129013e-06 0 -5.6360010894933755e-06 -4.2337422292382547e-06 0 -4.9301552029651785e-06 -2.7548552187388788e-06 0 -5.6974028738343016e-06 -3.8545122818686468e-06 0 -4.9301552029651785e-06 -2.7548552187388788e-06 0 -5.6360010894933755e-06 -4.2337422292382547e-06 0 -2.3303966328299667e-06 6.6339905761329044e-07 0 -3.5960997692497105e-06 -5.0658175226308507e-07 0 -2.8530367772825828e-06 7.5113816219778001e-07 0 -6.9118191803079371e-05 8.8045521605499815e-05 0 -6.5197516379925669e-05 7.1510725207414491e-05 0 -5.4988345054333619e-05 8.0423881663952673e-05 0 -5.1189613371383868e-06 -6.3543482761542344e-07 0 -4.7864456599596512e-06 -6.6679695918083719e-07 0 -6.1580103828100438e-06 -2.2914548943036355e-06 0 -7.1241658595674234e-06 1.6024869710416692e-05 0 -4.213474824761429e-06 1.0336647549401555e-05 0 -2.6782696048790386e-07 1.2041421358309243e-05 0 -1.1054856279124253e-06 7.8242388539843088e-06 0 -2.6782696048790386e-07 1.2041421358309243e-05 0 -4.2134748247614298e-06 1.0336647549401555e-05 0 -2.4169497314206215e-06 -2.2802630594138152e-05 0 -6.3768774299840677e-06 -2.6861767201989515e-05 0 -1.8231883667428794e-06 -2.9926699651540274e-05 0 -3.4765371243863e-05 1.4740392675846933e-05 0 -2.6368854940306872e-05 9.5647823050038887e-06 0 -2.7204476200183299e-05 1.2331796665082247e-05 0 -2.1060169435316646e-05 -8.2832698300607746e-06 0 -1.753240645865559e-05 -6.9616652964508978e-06 0 -1.6812897530761617e-05 -5.7288026234438673e-06 0 -4.4972098705197203e-06 -9.1066402926594112e-07 0 -6.1580103828100438e-06 -2.2914548943036351e-06 0 -4.7864456599596512e-06 -6.667969591808374e-07 0 -3.8027186008874719e-05 9.5043674252922935e-05 0 -5.4441026241523673e-05 9.5720858966880695e-05 0 -4.4497488557552478e-05 8.3114387070068493e-05 0 -3.8027186008874719e-05 9.5043674252922935e-05 0 -4.7808790400380576e-05 0.00010681900717574296 0 -5.4441026241523673e-05 9.5720858966880695e-05 0 -1.5074210882769853e-05 -4.3036514975931459e-05 0 -1.2129604696802009e-05 -4.8164302578436348e-05 0 -8.5619144108985729e-06 -4.2471846338288033e-05 0 -1.5074210882769853e-05 -4.3036514975931459e-05 0 -8.5619144108985729e-06 -4.2471846338288027e-05 0 -1.1472388457614132e-05 -3.7665126607861964e-05 0 -1.9651038333771307e-06 -5.4213946824339029e-05 0 -7.6000792270816697e-06 -5.7929512658250663e-05 0 -2.6574082586877165e-06 -6.3259345308057903e-05 0 -7.4837999165981576e-05 0.00014024910465481653 0 -7.3836735231832599e-05 0.00012273648858491951 0 -6.1933560447271672e-05 0.00012767863133339577 0 -2.0037608545515886e-06 8.2396104649607195e-07 0 -1.7353477292127909e-06 7.4538019387509084e-07 0 -2.7042156729940461e-06 7.0928857331530005e-07 0 -1.5284639624152954e-06 -7.4703803123204542e-07 0 -2.3406556513715066e-06 -7.0944724337902267e-07 0 -1.5487245775883455e-06 -9.1190078449017626e-07 0 -1.5074210882769853e-05 -4.3036514975931459e-05 0 -1.9485338838306687e-05 -4.3565977173924968e-05 0 -1.6735038340307628e-05 -5.0087892540949884e-05 0 -1.5074210882769853e-05 -4.3036514975931459e-05 0 -1.5568698539643678e-05 -3.6795064579807514e-05 0 -1.9485338838306687e-05 -4.3565977173924968e-05 0 -2.2472091610892989e-05 -5.136383482640406e-05 0 -1.6735038340307628e-05 -5.0087892540949884e-05 0 -1.9485338838306687e-05 -4.3565977173924968e-05 0 -2.064908090949353e-05 -3.674992653232473e-05 0 -1.9485338838306687e-05 -4.3565977173924968e-05 0 -1.5568698539643678e-05 -3.6795064579807514e-05 0 -3.8027186008874719e-05 9.5043674252922935e-05 0 -2.7028794473735896e-05 9.6092365632794482e-05 0 -3.7681995116011004e-05 0.00011071893428781377 0 -2.4597564774729722e-05 0.00011056463803868937 0 -3.7681995116011004e-05 0.00011071893428781377 0 -2.7028794473735896e-05 9.6092365632794482e-05 0 -1.0912199703953129e-09 1.6484262485860744e-10 0 -9.0112786058154602e-07 3.2407964977540877e-07 0 -8.613586665624589e-07 4.5759786250640923e-07 0 -1.2627568083710625e-09 -2.9187187302783218e-10 0 -8.9791697768199522e-07 -6.66103121630591e-07 0 -1.063177629834685e-06 -5.7317683606928106e-07 0 -2.3978660027809022e-05 -1.6593701429398138e-05 0 -1.8958059380021567e-05 -1.1808483866396668e-05 0 -2.2435543357007179e-05 -1.2051791413061301e-05 0 -3.8143687292266201e-05 3.3362586505675091e-05 0 -3.6244774290490327e-05 2.3645762432226428e-05 0 -2.9361199830526057e-05 2.2794046263773271e-05 0 -9.3645727740533849e-06 -1.7605050676377656e-06 0 -1.2003210978325759e-05 -3.0762805649654269e-06 0 -1.0944177870780185e-05 -2.9259582679993989e-06 0 -9.6468544790932914e-07 1.1176226793727962e-06 0 -1.5534583001225747e-06 9.3310544259551578e-07 0 -1.0687490566050601e-06 1.2370244804016576e-06 0 -7.9587190215061606e-06 -2.6396202742883421e-05 0 -7.0011603438976743e-06 -2.5498639360178792e-05 0 -8.9349169570125016e-06 -2.4297146403659732e-05 0 -1.0446235089191996e-05 8.9267218613274769e-07 0 -1.2548555919055414e-05 1.6885499558117859e-06 0 -1.4241309621653592e-05 2.2978325458123284e-06 0 -1.7553360220804116e-05 3.7159124345372568e-06 0 -1.4241309621653592e-05 2.2978325458123284e-06 0 -1.2548555919055414e-05 1.6885499558117861e-06 0 -1.8424918861107571e-07 3.357747522709934e-07 0 -4.7729031057708129e-07 -1.6075473928017798e-07 0 -2.5824541950036934e-07 -4.5928125294988405e-08 0 2.4978233721308121e-06 -6.8281111192573897e-06 0 -5.5857553669434056e-07 -9.526153619963306e-06 0 1.6167494260278189e-06 -9.5721621407695649e-06 0 -2.1060169435316646e-05 -8.2832698300607746e-06 0 -2.0749539653686935e-05 -9.4395524336014738e-06 0 -1.7532406458655593e-05 -6.9616652964508978e-06 0 -3.4765371243863e-05 1.4740392675846933e-05 0 -2.7204476200183299e-05 1.2331796665082247e-05 0 -3.3453214618473641e-05 1.7412434695944251e-05 0 -9.6133568475806911e-06 -7.1200165552932314e-06 0 -9.7692199134608708e-06 -6.679005424116507e-06 0 -8.6601466954794299e-06 -6.2788991335269751e-06 0 -5.325087626112701e-06 -6.0101232912427962e-07 0 -5.0324715006378497e-06 -5.0578302831854796e-07 0 -7.9362740766169891e-06 9.5654518726694146e-08 0 -6.2124861469475738e-06 2.2546767958661827e-07 0 -7.9362740766169891e-06 9.5654518726694199e-08 0 -5.0324715006378497e-06 -5.0578302831854796e-07 0 -1.0083734360333101e-05 3.5442590591186786e-05 0 -8.7857359925408141e-06 2.4236860508806754e-05 0 -2.8311455313201001e-06 2.2157433500644186e-05 0 -1.3619109963905677e-05 2.7736417598175244e-06 0 -1.1318416001161345e-05 1.567504856110541e-06 0 -1.4241309621653592e-05 2.2978325458123284e-06 0 -9.1135429397220347e-06 -2.2604655913566415e-06 0 -9.4903528279111295e-06 -1.8985921608852806e-06 0 -7.693753371667392e-06 -1.4628620850050797e-06 0 -9.6972901013424324e-06 -1.6669192668671693e-05 0 -9.554233471291037e-06 -1.4427743864988233e-05 0 -1.1320934327038711e-05 -1.6669815731714424e-05 0 -1.0944840254894059e-05 -1.4268468747018436e-05 0 -1.1320934327038711e-05 -1.6669815731714424e-05 0 -9.554233471291037e-06 -1.4427743864988233e-05 0 -2.3303966328299667e-06 6.6339905761329044e-07 0 -1.7215626558417165e-06 1.5285509625171952e-06 0 -1.344607993570239e-06 1.4084385948409842e-06 0 -5.1345339187510304e-06 3.833625743191791e-06 0 -4.8121069222762712e-06 1.7165183341014892e-06 0 -2.7575369500682851e-06 2.4669841856158399e-06 0 1.5684549140245882e-07 1.9595639788283815e-06 0 -7.7950107774766397e-08 1.6501278515016826e-06 0 2.8522432735216814e-08 2.3469298759824248e-06 0 -7.1241658595674234e-06 1.6024869710416692e-05 0 -2.8311455313201001e-06 2.2157433500644186e-05 0 -8.7857359925408125e-06 2.4236860508806751e-05 0 -1.3942426328517211e-05 -4.5070790351227654e-06 0 -1.1506795389310042e-05 -4.1026146757176058e-06 0 -1.0944177870780185e-05 -2.9259582679993989e-06 0 -3.8331815200296935e-06 -4.2657403463519372e-07 0 -2.7928348349238081e-06 3.314152457618659e-07 0 -3.3946206530191166e-06 2.5947581355007913e-07 0 1.5139303672085665e-05 5.174851123369426e-05 0 1.7085068090865123e-05 6.7574937803799759e-05 0 6.2500518854122149e-06 6.232814486914289e-05 0 -3.9746207255692055e-05 -4.0946958554174089e-05 0 -3.1785461850806299e-05 -4.0397975009341594e-05 0 -3.3162555621753527e-05 -3.4917534285431535e-05 0 -3.4765371243863e-05 1.4740392675846933e-05 0 -2.8466399807323412e-05 9.8926622532799685e-06 0 -2.6368854940306872e-05 9.5647823050038887e-06 0 -1.7697683937283402e-05 -5.9863671902576037e-06 0 -2.1060169435316646e-05 -8.2832698300607746e-06 0 -1.6812897530761617e-05 -5.7288026234438673e-06 0 -3.408428290253144e-06 1.0484466071556323e-06 0 -3.7875862500179709e-06 1.2900577815295046e-06 0 -1.8996540154285588e-06 3.0285027262938622e-06 0 -5.325087626112701e-06 -6.0101232912427962e-07 0 -7.9362740766169891e-06 9.5654518726694146e-08 0 -7.5467493676699837e-06 3.8892598211705867e-08 0 -1.0446235089191996e-05 8.9267218613274769e-07 0 -7.5467493676699837e-06 3.8892598211705867e-08 0 -7.9362740766169891e-06 9.5654518726694146e-08 0 7.4156098110968043e-07 4.6850924890147337e-06 0 1.2363702983099062e-06 6.5564759606189768e-06 0 3.0501535879573341e-07 5.3350776641261828e-06 0 -3.3759393855737439e-05 -4.8837469606530759e-05 0 -3.1785461850806299e-05 -4.0397975009341594e-05 0 -3.6721466254444988e-05 -4.4834490833127707e-05 0 -1.3149611764213783e-05 -1.3944555118877461e-05 0 -1.2240562239428466e-05 -1.410436469349038e-05 0 -1.182655675872747e-05 -1.1825190669369819e-05 0 1.8995684655162168e-05 0.00011911627630672841 0 1.8422647472986749e-05 0.0001375941570215261 0 6.9675498637401263e-06 0.00012774078077787431 0 -4.2863255048945667e-05 -5.7063528993091971e-05 0 -4.3553192749054268e-05 -6.5212372867234347e-05 0 -3.7668058088970251e-05 -5.9906519935396459e-05 0 -1.3265173720113369e-05 9.0993051510573687e-06 0 -8.5225124926595474e-06 5.5180673944627068e-06 0 -5.797067790707963e-06 7.1670918145531215e-06 0 -7.3989131803290752e-06 -5.3217522244315192e-06 0 -9.0894768583053694e-06 -8.0468963541036498e-06 0 -6.710410169376319e-06 -6.7286441034648981e-06 0 -1.1173586022460506e-05 -5.2980809187712919e-06 0 -1.0059913916019406e-05 -6.4208875147376488e-06 0 -8.2580258218465119e-06 -4.1621915392516734e-06 0 -7.3836735231832599e-05 0.00012273648858491951 0 -5.9313186233301383e-05 0.00011201696236607518 0 -6.1933560447271672e-05 0.00012767863133339577 0 -1.9651038333771307e-06 -5.4213946824339029e-05 0 -7.6767301369590587e-06 -5.0146057448122496e-05 0 -7.6000792270816697e-06 -5.7929512658250663e-05 0 -4.4455013500351587e-06 -1.1625471786003325e-07 0 -3.4919269483955041e-06 4.4360322918130284e-07 0 -4.7905942807402644e-06 4.322369604367904e-08 0 -1.1054856279124253e-06 7.8242388539843088e-06 0 -4.2134748247614298e-06 1.0336647549401555e-05 0 -5.797067790707963e-06 7.1670918145531215e-06 0 -1.3942426328517211e-05 -4.5070790351227654e-06 0 -1.2003210978325757e-05 -3.0762805649654264e-06 0 -1.4402341339023033e-05 -4.1670126800219664e-06 0 -1.1888363355145096e-05 -9.0816334082588029e-06 0 -1.3744016931350784e-05 -1.1692721341728234e-05 0 -1.159754835001759e-05 -9.2102513716870475e-06 0 -5.6832491373137358e-06 -2.0484752716626591e-07 0 -5.6470301480505467e-06 -2.0950277790624625e-07 0 -7.4000874432332271e-06 -8.3336494264933951e-07 0 -3.7427762527022928e-05 -3.3456993426813183e-05 0 -3.9746207255692055e-05 -4.0946958554174089e-05 0 -3.3162555621753527e-05 -3.4917534285431535e-05 0 -1.1384459158899336e-05 -2.5780870063935129e-06 0 -9.0336424247168236e-06 -1.5256733165462135e-06 0 -9.4903528279111295e-06 -1.8985921608852806e-06 0 -7.371515148756142e-06 -9.5764916088108597e-07 0 -9.4903528279111295e-06 -1.8985921608852806e-06 0 -9.0336424247168236e-06 -1.5256733165462135e-06 0 -4.3176188904140636e-05 7.1423687251889279e-05 0 -3.2395591268735765e-05 7.3749140209573405e-05 0 -4.4497488557552478e-05 8.3114387070068493e-05 0 -6.7681325054214071e-07 -6.2623283486746722e-07 0 -1.5487245775883455e-06 -9.1190078449017626e-07 0 -8.9791697768199522e-07 -6.66103121630591e-07 0 -2.1015565069872431e-06 -9.2402635278355e-07 0 -8.9791697768199522e-07 -6.66103121630591e-07 0 -1.5487245775883455e-06 -9.1190078449017626e-07 0 -1.889478050759111e-06 5.7265652478072433e-07 0 -1.7353477292127909e-06 7.4538019387509084e-07 0 -8.613586665624589e-07 4.5759786250640923e-07 0 -7.6715515693224637e-07 5.5216052402611184e-07 0 -8.613586665624589e-07 4.5759786250640923e-07 0 -1.7353477292127909e-06 7.4538019387509084e-07 0 -4.785675889782034e-06 -2.1950011168129013e-06 0 -4.9820995041353847e-06 -1.5751063181598828e-06 0 -6.1245424465024223e-06 -3.1949263454767214e-06 0 -4.5537043384880549e-06 -5.7072170648870176e-07 0 -5.7628372719347579e-06 -1.9445827589795101e-06 0 -5.5625142697915486e-06 -3.5924620262778243e-06 0 -6.8522893428099982e-06 -4.4770133445517808e-06 0 -5.5625142697915486e-06 -3.5924620262778243e-06 0 -5.7628372719347579e-06 -1.9445827589795101e-06 0 -1.3744016931350784e-05 -1.1692721341728234e-05 0 -1.5103706215617138e-05 -1.4557351754183638e-05 0 -1.3497810640963948e-05 -1.3032736079634043e-05 0 -6.8522893428099982e-06 -4.4770133445517808e-06 0 -7.1246455363860322e-06 -3.5172331807171964e-06 0 -7.9101633486090825e-06 -5.395301785050173e-06 0 -1.7250589583573441e-06 -1.5482182534892527e-05 0 -6.9814222573218799e-07 -1.2213448839121579e-05 0 -3.5300880071792937e-06 -1.4676609636345889e-05 0 -1.4935605446654254e-05 -1.7423188169567878e-05 0 -1.3614563778835461e-05 -1.5516276255593615e-05 0 -1.439601512402088e-05 -1.5281740985831587e-05 0 -2.1060169435316646e-05 -8.2832698300607746e-06 0 -2.4570589536022318e-05 -1.1471669898410868e-05 0 -2.0749539653686935e-05 -9.4395524336014738e-06 0 -4.1523736354558717e-05 2.1796004454155129e-05 0 -3.4765371243863e-05 1.4740392675846933e-05 0 -3.3453214618473641e-05 1.7412434695944251e-05 0 8.6653869717929704e-07 -2.1551297214544472e-06 0 -1.9243735845790415e-06 -4.5484625551476696e-06 0 7.2449182656672561e-07 -6.1650774047077471e-06 0 -1.7250589583573441e-06 -1.5482182534892527e-05 0 -4.2155223275365004e-06 -1.7893491701571104e-05 0 -2.3112728139782927e-06 -1.88129738029406e-05 0 -1.1173586022460506e-05 -5.2980809187712919e-06 0 -1.1506795389310042e-05 -4.1026146757176058e-06 0 -1.4375959794052443e-05 -6.139437388503637e-06 0 -4.101263288334729e-07 6.1941334785819872e-07 0 -1.60402126655329e-07 2.6658306479678716e-07 0 -2.1547822887230153e-07 3.3592201516955626e-07 0 -2.9039642867419169e-06 1.1443904161757669e-06 0 -4.8121069222762712e-06 1.7165183341014894e-06 0 -4.2627070438672627e-06 2.469773967013439e-07 0 -7.3059991071230964e-07 7.8126451913868934e-07 0 -2.0691194688246244e-06 4.5046998586443946e-07 0 -1.5611546485519519e-06 6.8193915179720883e-09 0 -9.0492640576006625e-07 4.9077959699683881e-06 0 -2.673736464321942e-06 2.2884662191184662e-06 0 -1.9436414250577775e-06 4.6842488316508374e-07 0 -5.6561764824907575e-06 -8.0042684153711328e-07 0 -4.2805726174384228e-06 -2.3890460230743312e-07 0 -4.0471411314321511e-06 -7.5822088249326926e-07 0 -2.8080205865063486e-06 -1.1621755650160241e-07 0 -4.0471411314321511e-06 -7.5822088249326926e-07 0 -4.2805726174384228e-06 -2.3890460230743312e-07 0 -3.8560323346395164e-06 -2.387537145913531e-07 0 -5.8910562014675555e-06 -1.6597795588228752e-07 0 -5.7758636545562234e-06 6.0256682071098059e-07 0 -8.067407926880718e-06 5.8007540222439447e-07 0 -5.7758636545562234e-06 6.0256682071098059e-07 0 -5.8910562014675555e-06 -1.6597795588228752e-07 0 -3.1395893794313484e-05 -2.0622717230838628e-05 0 -3.466717865604269e-05 -2.6656058891904862e-05 0 -2.8832880619932987e-05 -2.2676556280289408e-05 0 -1.0083734360333101e-05 3.5442590591186786e-05 0 -1.540158343055909e-05 2.5761904540747113e-05 0 -8.7857359925408125e-06 2.4236860508806751e-05 0 -1.8231883667428794e-06 -2.9926699651540274e-05 0 -6.3768774299840677e-06 -2.6861767201989515e-05 0 -7.0783180140271508e-06 -3.4917132739750667e-05 0 -7.5387380965271057e-06 -2.2621305691778107e-05 0 -9.5401937382540689e-06 -2.1830108115675429e-05 0 -8.9349169570125016e-06 -2.4297146403659732e-05 0 -3.5488016897195175e-06 5.2425772547226107e-07 0 -4.7905942807402644e-06 4.322369604367904e-08 0 -3.4919269483955041e-06 4.4360322918130284e-07 0 -4.4972098705197203e-06 -9.1066402926594112e-07 0 -2.8530367772825828e-06 7.5113816219778001e-07 0 -3.5960997692497105e-06 -5.0658175226308507e-07 0 -9.3645727740533849e-06 -1.7605050676377656e-06 0 -7.4000874432332271e-06 -8.3336494264933951e-07 0 -9.0336424247168236e-06 -1.5256733165462135e-06 0 -4.5536896852020833e-06 6.7450816123189319e-05 0 7.5713430620837169e-06 7.2915888881732965e-05 0 1.4782315097405589e-06 8.2438636386502712e-05 0 -3.6467212933259353e-10 1.8083775943775197e-10 0 -4.1190190109446147e-07 5.2223197414303062e-07 0 -2.1547822887230153e-07 3.3592201516955626e-07 0 -1.0944840254894059e-05 -1.4268468747018436e-05 0 -9.554233471291037e-06 -1.4427743864988233e-05 0 -9.1832251947248604e-06 -1.1759795799200358e-05 0 8.6653869717929704e-07 -2.1551297214544472e-06 0 5.6246098216667643e-07 5.1010112548600454e-06 0 -1.9436414250577775e-06 4.6842488316508374e-07 0 -6.0384182681479037e-05 5.6292077062044939e-05 0 -5.4404064709910969e-05 4.2599631736319001e-05 0 -4.7925165590201151e-05 4.759583906711005e-05 0 -2.1854044338213906e-07 4.0715832685429484e-07 0 -1.9215921928415292e-07 3.1201754120895348e-07 0 -1.4174894005148166e-07 1.4528535496176944e-07 0 -1.889478050759111e-06 5.7265652478072433e-07 0 -8.613586665624589e-07 4.5759786250640923e-07 0 -9.0112786058154602e-07 3.2407964977540877e-07 0 -2.1015565069872431e-06 -9.2402635278355e-07 0 -1.063177629834685e-06 -5.7317683606928106e-07 0 -8.9791697768199522e-07 -6.66103121630591e-07 0 -6.0748929000486008e-07 1.7194002005887926e-06 0 -5.4401881090855289e-07 1.3666682750429007e-06 0 -1.0687490566050601e-06 1.2370244804016576e-06 0 -1.8049694718847373e-05 -8.9444104069724033e-06 0 -1.7532406458655593e-05 -6.9616652964508978e-06 0 -2.0749539653686935e-05 -9.4395524336014738e-06 0 -2.7303047827569554e-05 1.6704939099118003e-05 0 -3.3453214618473641e-05 1.7412434695944251e-05 0 -2.7204476200183299e-05 1.2331796665082247e-05 0 -5.0032420202655637e-06 0.0001222533879840457 0 1.5227105887828417e-06 0.00010606544546267405 0 8.1930579344611167e-06 0.00011553452983053645 0 -3.1859571800168725e-05 -5.692770466033184e-05 0 -3.3759393855737439e-05 -4.8837469606530759e-05 0 -3.7582767382510855e-05 -5.4194720267422714e-05 0 2.4978233721308121e-06 -6.8281111192573897e-06 0 7.2449182656672571e-07 -6.1650774047077463e-06 0 -5.5857553669434056e-07 -9.526153619963306e-06 0 -5.1345339187510304e-06 3.833625743191791e-06 0 -5.797067790707963e-06 7.1670918145531207e-06 0 -8.5225124926595474e-06 5.5180673944627068e-06 0 -1.891551360002943e-06 -7.6568391612660753e-06 0 -5.5857553669434056e-07 -9.526153619963306e-06 0 7.2449182656672561e-07 -6.1650774047077471e-06 0 -9.6468544790932914e-07 1.1176226793727962e-06 0 -1.0195335519742215e-06 1.033337111323927e-06 0 -1.5534583001225747e-06 9.3310544259551578e-07 0 -1.8226953529510904e-07 1.0208216043205505e-07 0 -2.2010043887019746e-07 -1.7307577681481826e-07 0 -1.2719669884382241e-07 -1.0425841778257066e-08 0 -4.4455013500351587e-06 -1.1625471786003325e-07 0 -3.3946206530191166e-06 2.5947581355007907e-07 0 -3.4919269483955041e-06 4.4360322918130284e-07 0 -2.0152954272234007e-06 3.8640242404189667e-06 0 -2.673736464321942e-06 2.2884662191184662e-06 0 -4.2122279703768263e-07 6.2833857253403265e-06 0 -9.0492640576006625e-07 4.9077959699683881e-06 0 -4.2122279703768269e-07 6.2833857253403265e-06 0 -2.673736464321942e-06 2.2884662191184662e-06 0 -2.650498769040102e-05 -4.384890047218393e-05 0 -3.3759393855737439e-05 -4.8837469606530759e-05 0 -2.8218928678231253e-05 -5.1234436166541596e-05 0 -3.1859571800168725e-05 -5.692770466033184e-05 0 -2.8218928678231253e-05 -5.1234436166541596e-05 0 -3.3759393855737439e-05 -4.8837469606530759e-05 0 -1.0516217916539267e-05 9.4432423056601246e-05 0 1.5227105887828417e-06 0.00010606544546267405 0 -1.1252574297764502e-05 0.00011109380893659962 0 -5.0032420202655637e-06 0.0001222533879840457 0 -1.1252574297764502e-05 0.00011109380893659962 0 1.5227105887828417e-06 0.00010606544546267405 0 -1.0516217916539267e-05 9.4432423056601246e-05 0 -1.1248393396658648e-05 7.8704756224636402e-05 0 1.4782315097405589e-06 8.2438636386502712e-05 0 -4.5536896852020833e-06 6.7450816123189319e-05 0 1.4782315097405589e-06 8.2438636386502712e-05 0 -1.1248393396658648e-05 7.8704756224636402e-05 0 -2.3458139389015563e-10 1.3167932880324204e-10 0 -2.726353183254752e-10 1.5594192162235092e-10 0 -1.60402126655329e-07 2.6658306479678716e-07 0 1.6167494260278189e-06 -9.5721621407695649e-06 0 -5.5857553669434078e-07 -9.5261536199633076e-06 0 -6.9814222573218799e-07 -1.2213448839121579e-05 0 -2.7179876598576389e-06 -1.2308413835669781e-05 0 -6.9814222573218799e-07 -1.2213448839121579e-05 0 -5.5857553669434056e-07 -9.526153619963306e-06 0 -2.8065874799509178e-05 -3.2963612055060797e-05 0 -2.9835427289561543e-05 -2.8388252397241064e-05 0 -3.3162555621753527e-05 -3.4917534285431535e-05 0 -3.466717865604269e-05 -2.6656058891904862e-05 0 -2.9835427289561543e-05 -2.8388252397241064e-05 0 -2.8832880619932987e-05 -2.2676556280289408e-05 0 -6.0384182681479037e-05 5.6292077062044939e-05 0 -4.7925165590201151e-05 4.759583906711005e-05 0 -4.8988538904324349e-05 6.0985990505508336e-05 0 2.7514583101781985e-08 3.1271782800228566e-06 0 3.04720301000095e-07 4.0894154043357797e-06 0 3.8501840477989126e-07 3.1612652190802651e-06 0 7.4156098110968043e-07 4.6850924890147337e-06 0 3.8501840477989126e-07 3.1612652190802651e-06 0 3.04720301000095e-07 4.0894154043357797e-06 0 -5.5384672583080706e-07 9.5123523769395495e-07 0 -5.441708699914093e-07 1.0847230120598052e-06 0 -2.8000949827137671e-07 8.9558514593047772e-07 0 -4.101263288334729e-07 6.1941334785819872e-07 0 -2.1547822887230147e-07 3.3592201516955621e-07 0 -4.1190190109446147e-07 5.2223197414303062e-07 0 -1.0446235089191996e-05 8.9267218613274769e-07 0 -1.4241309621653592e-05 2.2978325458123284e-06 0 -1.1318416001161345e-05 1.567504856110541e-06 0 -7.371515148756142e-06 -9.5764916088108597e-07 0 -7.693753371667392e-06 -1.4628620850050797e-06 0 -9.4903528279111295e-06 -1.8985921608852806e-06 0 -7.371515148756142e-06 -9.5764916088108597e-07 0 -9.0336424247168236e-06 -1.5256733165462133e-06 0 -7.4000874432332271e-06 -8.3336494264933951e-07 0 1.8869835502373854e-05 0.00010140612951364421 0 8.1930579344611167e-06 0.00011553452983053645 0 1.5227105887828417e-06 0.00010606544546267405 0 -4.1595517301100302e-05 -4.8855885249755118e-05 0 -3.7582767382510855e-05 -5.4194720267422721e-05 0 -3.3759393855737439e-05 -4.8837469606530759e-05 0 -2.1482311307641471e-10 1.8991882747813523e-11 0 -1.2719669884382241e-07 -1.0425841778257087e-08 0 -2.2010043887019746e-07 -1.7307577681481826e-07 0 -7.3059991071230964e-07 7.8126451913868934e-07 0 -1.3349588113460859e-06 1.5391384141964627e-06 0 -2.0691194688246244e-06 4.5046998586443946e-07 0 -1.888703791060411e-05 -2.7554207996029926e-05 0 -2.1072754098002024e-05 -2.2797904275155741e-05 0 -2.342120974557181e-05 -2.7591342762242743e-05 0 -6.9249898156432112e-06 1.2180482037584374e-06 0 -4.8121069222762704e-06 1.7165183341014892e-06 0 -7.7197533841170969e-06 2.9109510485907064e-06 0 -7.3989131803290752e-06 -5.3217522244315192e-06 0 -1.0059913916019406e-05 -6.4208875147376488e-06 0 -9.0894768583053694e-06 -8.0468963541036498e-06 0 -7.7804404356190016e-08 2.1723874641365709e-06 0 3.8501840477989126e-07 3.1612652190802651e-06 0 2.173037652879855e-07 3.5386472907381906e-06 0 -2.5009065051916349e-05 5.6862416879227704e-05 0 -3.6289631243522003e-05 5.9344173678645182e-05 0 -3.0360839849050481e-05 4.8152367191172639e-05 0 -1.8049694718847373e-05 -8.9444104069724033e-06 0 -2.2435543357007179e-05 -1.2051791413061301e-05 0 -1.8958059380021567e-05 -1.1808483866396668e-05 0 -2.7303047827569554e-05 1.6704939099118003e-05 0 -2.9361199830526057e-05 2.2794046263773271e-05 0 -3.6244774290490327e-05 2.3645762432226428e-05 0 -1.0382813161217126e-05 -2.3732946957132299e-05 0 -9.311845731540465e-06 -2.6083366030562496e-05 0 -8.9349169570125016e-06 -2.4297146403659732e-05 0 -7.9587190215061606e-06 -2.6396202742883421e-05 0 -8.9349169570125016e-06 -2.4297146403659732e-05 0 -9.311845731540465e-06 -2.6083366030562496e-05 0 -9.3645727740533849e-06 -1.7605050676377656e-06 0 -7.3606613109689321e-06 -9.5454233127722378e-07 0 -7.4000874432332271e-06 -8.3336494264933951e-07 0 -5.6832491373137358e-06 -2.0484752716626591e-07 0 -7.4000874432332271e-06 -8.3336494264933951e-07 0 -7.3606613109689321e-06 -9.5454233127722378e-07 0 -3.8331815200296935e-06 -4.2657403463519372e-07 0 -4.9820995041353847e-06 -1.5751063181598828e-06 0 -4.0594314775250912e-06 -1.0065663354746465e-06 0 -1.1384459158899336e-05 -2.5780870063935129e-06 0 -1.4402341339023033e-05 -4.1670126800219664e-06 0 -1.2003210978325757e-05 -3.0762805649654264e-06 0 -1.1956495694445806e-05 2.1733292256227039e-06 0 -1.2548555919055414e-05 1.6885499558117861e-06 0 -9.0651610783377481e-06 9.4016311711350522e-07 0 -1.1668120138182896e-05 -2.581807813738999e-05 0 -9.6059651050964923e-06 -2.7372554670629168e-05 0 -1.0710517916718509e-05 -2.5270169063268915e-05 0 -2.5009065051916349e-05 5.6862416879227704e-05 0 -3.2395591268735765e-05 7.3749140209573405e-05 0 -3.6289631243522003e-05 5.9344173678645182e-05 0 -2.726353183254752e-10 1.5594192162235092e-10 0 -3.6467212933259353e-10 1.8083775943775197e-10 0 -2.1547822887230153e-07 3.3592201516955626e-07 0 1.8244131249450534e-05 8.4148064577386849e-05 0 1.4782315097405589e-06 8.2438636386502712e-05 0 7.5713430620837169e-06 7.2915888881732965e-05 0 1.3737715684999829e-06 7.5884949789236797e-06 0 2.0795802957959253e-06 9.0453077624513208e-06 0 1.236370298309906e-06 6.5564759606189768e-06 0 -2.7303047827569554e-05 1.6704939099118003e-05 0 -2.1289254894011123e-05 1.5813003170332306e-05 0 -2.9361199830526057e-05 2.2794046263773271e-05 0 1.3737715684999829e-06 7.5884949789236797e-06 0 6.837055626440474e-07 5.6308792305212581e-06 0 -3.8177594845155018e-08 5.7672967652962623e-06 0 1.3737715684999829e-06 7.5884949789236797e-06 0 1.2363702983099058e-06 6.556475960618976e-06 0 6.837055626440474e-07 5.6308792305212581e-06 0 -6.5062294412540278e-06 -7.8164472532157086e-07 0 -8.4925592644086954e-06 -1.7272594494237142e-06 0 -7.5287530233667028e-06 -1.8188002269096941e-06 0 -2.4840243267935265e-06 7.3448997185924924e-07 0 -3.4919269483955041e-06 4.4360322918130284e-07 0 -3.3946206530191166e-06 2.5947581355007913e-07 0 -3.8331885794152406e-05 4.7277306150176331e-05 0 -4.8988538904324349e-05 6.0985990505508336e-05 0 -4.7925165590201151e-05 4.759583906711005e-05 0 -5.6974028738343016e-06 -3.8545122818686468e-06 0 -6.1361188973467268e-06 -3.2071204078473669e-06 0 -4.8374635876860992e-06 -2.0907168305902672e-06 0 -2.0152954272234007e-06 3.8640242404189667e-06 0 -4.2122279703768263e-07 6.2833857253403265e-06 0 -3.8177594845155018e-08 5.7672967652962623e-06 0 -1.0719053145974936e-05 -1.1748681293520934e-05 0 -9.2864645759235063e-06 -9.4285601878472696e-06 0 -1.0316103336226101e-05 -9.2010112667374079e-06 0 -1.8049694718847373e-05 -8.9444104069724033e-06 0 -2.0749539653686935e-05 -9.4395524336014738e-06 0 -2.2435543357007179e-05 -1.2051791413061301e-05 0 -2.7303047827569554e-05 1.6704939099118003e-05 0 -3.6244774290490327e-05 2.3645762432226428e-05 0 -3.3453214618473641e-05 1.7412434695944251e-05 0 -4.9849022738702444e-05 0.00012102520692008067 0 -6.1933560447271672e-05 0.00012767863133339577 0 -5.9313186233301383e-05 0.00011201696236607518 0 -1.2376296508197293e-05 -5.5205989518718541e-05 0 -7.6000792270816697e-06 -5.7929512658250663e-05 0 -7.6767301369590587e-06 -5.0146057448122496e-05 0 -1.3149611764213783e-05 -1.3944555118877461e-05 0 -1.182655675872747e-05 -1.1825190669369819e-05 0 -1.3497810640963948e-05 -1.3032736079634043e-05 0 7.4156098110968043e-07 4.6850924890147337e-06 0 2.173037652879855e-07 3.5386472907381906e-06 0 3.8501840477989126e-07 3.1612652190802651e-06 0 -6.2124861469475738e-06 2.2546767958661827e-07 0 -9.0651610783377481e-06 9.4016311711350522e-07 0 -7.9362740766169891e-06 9.5654518726694146e-08 0 -1.3942426328517211e-05 -4.5070790351227654e-06 0 -1.0944177870780185e-05 -2.9259582679993989e-06 0 -1.2003210978325757e-05 -3.0762805649654264e-06 0 -2.0932895932834759e-05 7.7420091201696003e-06 0 -1.6471078776611223e-05 6.9241121057591614e-06 0 -2.0859702712920305e-05 1.1019864982258756e-05 0 -5.6360010894933755e-06 -4.2337422292382547e-06 0 -6.710410169376319e-06 -6.7286441034648981e-06 0 -6.0768624595086082e-06 -5.8745445764346263e-06 0 -9.4509875442714736e-06 -2.7191828130700479e-06 0 -1.0944177870780183e-05 -2.9259582679993989e-06 0 -1.1506795389310042e-05 -4.1026146757176058e-06 0 -2.0152954272234007e-06 3.8640242404189667e-06 0 -1.8996540154285588e-06 3.0285027262938622e-06 0 -3.7875862500179709e-06 1.2900577815295046e-06 0 -2.1482311307641471e-10 1.8991882747813523e-11 0 -2.0937964270536309e-10 -2.7037490541714033e-11 0 -1.2719669884382241e-07 -1.0425841778257066e-08 0 -1.3014125892209817e-05 -1.6480994119876389e-05 0 -1.3614563778835461e-05 -1.5516276255593615e-05 0 -1.4935605446654254e-05 -1.7423188169567878e-05 0 -1.7697683937283402e-05 -5.9863671902576037e-06 0 -1.6812897530761617e-05 -5.7288026234438673e-06 0 -1.4402341339023033e-05 -4.1670126800219664e-06 0 -2.8466399807323412e-05 9.8926622532799685e-06 0 -2.2018322811450095e-05 6.4740086827234035e-06 0 -2.6368854940306872e-05 9.5647823050038887e-06 0 -2.4581562778457849e-05 -2.2272032823404059e-05 0 -2.8832880619932987e-05 -2.2676556280289408e-05 0 -2.9835427289561543e-05 -2.8388252397241064e-05 0 -1.1939791450555274e-05 -9.6289200600272937e-06 0 -1.1360956595542534e-05 -1.2141529109603378e-05 0 -9.0894768583053694e-06 -8.0468963541036498e-06 0 -8.2940828350926658e-06 -1.000332794451706e-05 0 -9.0894768583053694e-06 -8.0468963541036498e-06 0 -1.1360956595542534e-05 -1.2141529109603378e-05 0 -9.4509875442714736e-06 -2.7191828130700479e-06 0 -9.0381855517644056e-06 -3.315803244992474e-06 0 -7.5287530233667028e-06 -1.8188002269096941e-06 0 -1.0719053145974936e-05 -1.1748681293520934e-05 0 -1.0316103336226101e-05 -9.2010112667374079e-06 0 -1.182655675872747e-05 -1.1825190669369819e-05 0 -2.8065874799509178e-05 -3.2963612055060797e-05 0 -2.3326070634986772e-05 -3.2315559477366702e-05 0 -2.342120974557181e-05 -2.7591342762242743e-05 0 -9.4509875442714736e-06 -2.7191828130700479e-06 0 -7.5287530233667028e-06 -1.8188002269096941e-06 0 -8.4925592644086954e-06 -1.7272594494237142e-06 0 -8.9168608553657591e-06 -7.3515144284252309e-06 0 -1.0316103336226101e-05 -9.2010112667374079e-06 0 -9.2864645759235063e-06 -9.4285601878472696e-06 0 -4.3373925260064155e-07 -3.4299472355311777e-07 0 -2.5824541950036934e-07 -4.5928125294988385e-08 0 -4.7729031057708129e-07 -1.6075473928017798e-07 0 -2.4570589536022318e-05 -1.1471669898410868e-05 0 -2.2435543357007179e-05 -1.2051791413061301e-05 0 -2.0749539653686935e-05 -9.4395524336014738e-06 0 -4.1523736354558717e-05 2.1796004454155129e-05 0 -3.3453214618473641e-05 1.7412434695944251e-05 0 -3.6244774290490327e-05 2.3645762432226428e-05 0 -4.1595517301100302e-05 -4.8855885249755118e-05 0 -3.3759393855737439e-05 -4.8837469606530759e-05 0 -3.6721466254444988e-05 -4.4834490833127707e-05 0 1.8869835502373854e-05 0.00010140612951364421 0 1.5227105887828417e-06 0.00010606544546267405 0 5.6965867292063544e-06 9.3932861519112161e-05 0 1.8244131249450534e-05 8.4148064577386849e-05 0 5.6965867292063544e-06 9.3932861519112161e-05 0 1.4782315097405589e-06 8.2438636386502712e-05 0 -4.1595517301100302e-05 -4.8855885249755118e-05 0 -4.2863255048945667e-05 -5.7063528993091971e-05 0 -3.7582767382510855e-05 -5.4194720267422714e-05 0 1.8869835502373854e-05 0.00010140612951364421 0 1.8995684655162168e-05 0.00011911627630672841 0 8.1930579344611167e-06 0.00011553452983053645 0 -1.891551360002943e-06 -7.6568391612660753e-06 0 -1.9243735845790419e-06 -4.5484625551476696e-06 0 -3.8837664451819343e-06 -7.158242898306038e-06 0 -1.2034312660663804e-05 -1.07883615021248e-05 0 -1.3497810640963948e-05 -1.3032736079634043e-05 0 -1.182655675872747e-05 -1.1825190669369819e-05 0 -1.7274934230823206e-05 -2.2259872588742417e-05 0 -1.7514344656950178e-05 -2.2891425811314765e-05 0 -1.6869291632494847e-05 -2.1491572905653793e-05 0 -1.1216541956771573e-06 -2.2552788182126997e-05 0 -3.5583649339484277e-06 -2.6147539660993866e-05 0 -1.8357559441908305e-06 -2.6379003289537536e-05 0 -2.7303047827569554e-05 1.6704939099118003e-05 0 -2.0859702712920305e-05 1.1019864982258756e-05 0 -2.1289254894011123e-05 1.5813003170332306e-05 0 -5.6832491373137358e-06 -2.0484752716626591e-07 0 -4.5073531008978193e-06 2.3130478461888561e-07 0 -5.6470301480505467e-06 -2.0950277790624617e-07 0 -1.528172463763305e-07 1.1072095366025297e-06 0 -5.441708699914093e-07 1.0847230120598052e-06 0 -5.4401881090855289e-07 1.3666682750429007e-06 0 -4.3176188904140636e-05 7.1423687251889279e-05 0 -3.6289631243522003e-05 5.9344173678645182e-05 0 -3.2395591268735765e-05 7.3749140209573405e-05 0 -1.0918414995437723e-05 -3.1310266283625639e-05 0 -7.0783180140271508e-06 -3.4917132739750667e-05 0 -6.3768774299840677e-06 -2.6861767201989515e-05 0 -1.8226953529510904e-07 1.0208216043205505e-07 0 -1.2719669884382241e-07 -1.0425841778257066e-08 0 -1.4174894005148166e-07 1.4528535496176944e-07 0 -1.1173586022460506e-05 -5.2980809187712919e-06 0 -8.2580258218465119e-06 -4.1621915392516734e-06 0 -9.0381855517644056e-06 -3.315803244992474e-06 0 1.7085068090865123e-05 6.7574937803799759e-05 0 1.8244131249450537e-05 8.4148064577386849e-05 0 7.5713430620837169e-06 7.2915888881732965e-05 0 -1.5284639624152954e-06 -7.4703803123204542e-07 0 -1.4271675828874728e-06 -4.3604551914644891e-07 0 -2.3406556513715066e-06 -7.0944724337902267e-07 0 -1.891551360002943e-06 -7.6568391612660753e-06 0 -3.8837664451819343e-06 -7.158242898306038e-06 0 -3.1989864811213415e-06 -1.0054458122172441e-05 0 -5.2854274471142177e-06 -1.0121528315402604e-05 0 -3.1989864811213415e-06 -1.0054458122172441e-05 0 -3.8837664451819343e-06 -7.158242898306038e-06 0 -1.5668137977851268e-05 -2.1257600868198516e-05 0 -1.6350240276124153e-05 -2.0535477688534605e-05 0 -1.6869291632494847e-05 -2.1491572905653793e-05 0 -1.7274934230823206e-05 -2.2259872588742417e-05 0 -1.6869291632494847e-05 -2.1491572905653793e-05 0 -1.6350240276124153e-05 -2.0535477688534605e-05 0 -1.1216541956771573e-06 -2.2552788182126997e-05 0 -3.7194540407433767e-06 -2.3151564516333197e-05 0 -3.5583649339484277e-06 -2.6147539660993866e-05 0 -5.3710809495415687e-06 -2.6450837777697462e-05 0 -3.5583649339484277e-06 -2.6147539660993866e-05 0 -3.7194540407433771e-06 -2.3151564516333197e-05 0 2.7514583101781985e-08 3.1271782800228566e-06 0 2.8522432735216814e-08 2.3469298759824248e-06 0 -7.1268022586794717e-07 2.3632916378015747e-06 0 8.6653869717929704e-07 -2.1551297214544472e-06 0 -1.9436414250577775e-06 4.6842488316508374e-07 0 -1.9243735845790419e-06 -4.5484625551476696e-06 0 -4.2163996145608252e-06 -2.8048201527551799e-06 0 -1.9243735845790419e-06 -4.5484625551476696e-06 0 -1.9436414250577775e-06 4.6842488316508374e-07 0 -2.8065874799509178e-05 -3.2963612055060797e-05 0 -3.3162555621753527e-05 -3.4917534285431535e-05 0 -3.1785461850806299e-05 -4.0397975009341594e-05 0 -9.3645727740533849e-06 -1.7605050676377656e-06 0 -1.0944177870780185e-05 -2.9259582679993989e-06 0 -8.4925592644086954e-06 -1.7272594494237142e-06 0 -9.4509875442714736e-06 -2.7191828130700479e-06 0 -8.4925592644086954e-06 -1.7272594494237142e-06 0 -1.0944177870780185e-05 -2.9259582679993989e-06 0 -6.2768261927653035e-06 -8.2903011958320306e-06 0 -9.6133568475806911e-06 -7.1200165552932314e-06 0 -8.6601466954794299e-06 -6.2788991335269751e-06 0 -1.5151871864162493e-05 -1.922699476264309e-05 0 -1.6350240276124153e-05 -2.0535477688534605e-05 0 -1.4828155462725974e-05 -2.0212474590975255e-05 0 -4.5799251477207851e-06 -2.0593931331093779e-05 0 -5.8445736587857542e-06 -2.3076935657845735e-05 0 -3.7194540407433771e-06 -2.3151564516333197e-05 0 -9.6468544790932914e-07 1.1176226793727962e-06 0 -5.4401881090855279e-07 1.3666682750429007e-06 0 -5.441708699914093e-07 1.0847230120598052e-06 0 -9.6059651050964923e-06 -2.7372554670629168e-05 0 -9.311845731540465e-06 -2.6083366030562496e-05 0 -1.0710517916718509e-05 -2.5270169063268915e-05 0 -1.2349621040744868e-06 9.8206966380126125e-07 0 -7.3249951523389631e-07 9.2218615501099057e-07 0 -8.2162790404425948e-07 8.7123753487742577e-07 0 -8.9168608553657591e-06 -7.3515144284252309e-06 0 -7.9101633486090825e-06 -5.3953017850501721e-06 0 -8.9646877330840343e-06 -6.0270997893613454e-06 0 -1.8226953529510904e-07 1.0208216043205505e-07 0 -1.6500763150493958e-07 2.9020336760551185e-07 0 -2.5824541950036934e-07 -4.5928125294988405e-08 0 -2.3664531445307723e-05 8.1242507921755198e-05 0 -1.8377784367392763e-05 6.8518835385832921e-05 0 -1.1248393396658648e-05 7.8704756224636402e-05 0 -2.4597564774729722e-05 0.00011056463803868937 0 -1.12525742977645e-05 0.00011109380893659962 0 -1.708114491586781e-05 0.00012193571380816514 0 -2.2472091610892989e-05 -5.136383482640406e-05 0 -2.8218928678231253e-05 -5.1234436166541596e-05 0 -2.6427234268994086e-05 -5.6569943338087353e-05 0 5.7262694501447491e-06 1.3968338910238914e-05 0 5.6246098216667643e-07 5.1010112548600454e-06 0 5.2172619540241784e-06 1.2235135282139738e-06 0 -1.8226953529510904e-07 1.0208216043205505e-07 0 -1.4174894005148166e-07 1.4528535496176944e-07 0 -1.9215921928415292e-07 3.1201754120895348e-07 0 -3.9746207255692055e-05 -4.0946958554174089e-05 0 -3.6721466254444988e-05 -4.4834490833127707e-05 0 -3.1785461850806299e-05 -4.0397975009341594e-05 0 -4.3886276064921445e-05 -8.8135959215508803e-05 0 -3.9007241430871532e-05 -8.3999043261815971e-05 0 -4.3908191702138105e-05 -8.0811056996897039e-05 0 1.5184576922315204e-05 0.00018921551281449723 0 5.8669895391868277e-06 0.00018257088459816477 0 1.627002464855116e-05 0.00017355783572172912 0 1.5184576922315204e-05 0.00018921551281449723 0 1.0028500539080773e-06 0.00019130875097302509 0 5.8669895391868268e-06 0.00018257088459816477 0 -5.0021468318899556e-06 -8.8197619956473794e-05 0 -8.8908318275189305e-06 -8.538576781760699e-05 0 -1.0862555693960353e-05 -8.9133050496525949e-05 0 -7.5351997585604256e-05 0.00019038532723598018 0 -7.5381930449373055e-05 0.00017411622104794363 0 -6.4509945049742308e-05 0.00018118687755340541 0 -4.3886276064921445e-05 -8.8135959215508803e-05 0 -3.6594765526573117e-05 -8.810981794436604e-05 0 -3.9007241430871532e-05 -8.3999043261815971e-05 0 -5.0021468318899556e-06 -8.8197619956473794e-05 0 -4.3946871735178814e-06 -8.102465231406007e-05 0 -8.8908318275189305e-06 -8.538576781760699e-05 0 -7.5351997585604256e-05 0.00019038532723598018 0 -6.4509945049742308e-05 0.00018118687755340541 0 -5.9132235203403035e-05 0.00019034860638694133 0 -2.0937964270538638e-10 -2.703749054171594e-11 0 -1.4174894005148166e-07 1.4528535496176944e-07 0 -1.2719669884382241e-07 -1.0425841778257066e-08 0 -1.0719053145974936e-05 -1.1748681293520934e-05 0 -9.1832251947248604e-06 -1.1759795799200358e-05 0 -9.2864645759235063e-06 -9.4285601878472696e-06 0 -9.4509875442714736e-06 -2.7191828130700479e-06 0 -1.1506795389310042e-05 -4.1026146757176058e-06 0 -9.0381855517644056e-06 -3.315803244992474e-06 0 -2.8065874799509178e-05 -3.2963612055060797e-05 0 -2.578216927739542e-05 -3.7136148747189294e-05 0 -2.3326070634986772e-05 -3.2315559477366702e-05 0 -7.0522103715017271e-07 -3.5657013837972203e-08 0 -1.5611546485519519e-06 6.8193915179720883e-09 0 -1.4271675828874728e-06 -4.3604551914644891e-07 0 -2.7329617243982619e-05 0.00013176470455247214 0 -3.8209275257160489e-05 0.00014216005318543748 0 -3.8471941226674865e-05 0.00012616750632541741 0 -2.246496265848183e-05 -6.1000308135331018e-05 0 -1.8362872169218369e-05 -6.5977921875308142e-05 0 -1.747785709698351e-05 -5.8364902068164156e-05 0 -1.6621026865126713e-05 -1.9442392275768795e-05 0 -1.7049595597443664e-05 -2.109708358293923e-05 0 -1.6109213108861722e-05 -1.9423541926079475e-05 0 1.4529120368164402e-07 -1.5453248615702392e-05 0 -2.3112728139782932e-06 -1.88129738029406e-05 0 -5.6969751177968324e-07 -1.8966672221748624e-05 0 3.7367746972256817e-06 -3.6397664019949476e-06 0 7.2449182656672561e-07 -6.1650774047077471e-06 0 2.4978233721308121e-06 -6.8281111192573897e-06 0 -1.1173586022460506e-05 -5.2980809187712919e-06 0 -9.0381855517644056e-06 -3.315803244992474e-06 0 -1.1506795389310042e-05 -4.1026146757176058e-06 0 -1.5103706215617138e-05 -1.4557351754183638e-05 0 -1.6021512839000099e-05 -1.718150017367872e-05 0 -1.439601512402088e-05 -1.5281740985831587e-05 0 1.6167494260278189e-06 -9.5721621407695649e-06 0 -6.9814222573218799e-07 -1.2213448839121579e-05 0 8.0838757248770684e-07 -1.2394269415542773e-05 0 -1.888703791060411e-05 -2.7554207996029926e-05 0 -1.503810408734936e-05 -2.9557217063913527e-05 0 -1.4733758248132208e-05 -2.3073280625003582e-05 0 -1.528172463763305e-07 1.1072095366025297e-06 0 -2.8000949827137671e-07 8.9558514593047772e-07 0 -5.441708699914093e-07 1.0847230120598052e-06 0 -1.2376296508197293e-05 -5.5205989518718541e-05 0 -1.6735038340307628e-05 -5.0087892540949884e-05 0 -1.747785709698351e-05 -5.8364902068164156e-05 0 -4.9849022738702444e-05 0.00012102520692008067 0 -3.7681995116011004e-05 0.00011071893428781377 0 -3.8471941226674865e-05 0.00012616750632541741 0 -2.7179876598576389e-06 -1.2308413835669781e-05 0 -5.5857553669434056e-07 -9.526153619963306e-06 0 -3.1989864811213415e-06 -1.0054458122172441e-05 0 -1.891551360002943e-06 -7.6568391612660753e-06 0 -3.1989864811213415e-06 -1.0054458122172441e-05 0 -5.5857553669434056e-07 -9.526153619963306e-06 0 -2.4840243267935265e-06 7.3448997185924924e-07 0 -2.5828789509798743e-06 7.6094343364605648e-07 0 -3.4919269483955041e-06 4.4360322918130284e-07 0 -1.1939791450555274e-05 -9.6289200600272937e-06 0 -9.0894768583053694e-06 -8.0468963541036498e-06 0 -1.0059913916019406e-05 -6.4208875147376488e-06 0 -9.9210804920176129e-06 -2.2970001112133747e-05 0 -6.0679706333564728e-06 -2.0124856113383631e-05 0 -8.419920962678803e-06 -1.5128567785891237e-05 0 -8.086191146731676e-06 -9.2433465070954262e-06 0 -9.2864645759235063e-06 -9.4285601878472696e-06 0 -9.1832251947248604e-06 -1.1759795799200358e-05 0 -3.7584366324024349e-06 -1.6212317527063978e-05 0 -6.0679706333564728e-06 -2.0124856113383631e-05 0 -2.4169497314206215e-06 -2.2802630594138152e-05 0 -1.7250589583573441e-06 -1.5482182534892527e-05 0 -3.5300880071792937e-06 -1.4676609636345889e-05 0 -4.2155223275365004e-06 -1.7893491701571104e-05 0 -5.5773697876898668e-06 -1.6430927590658001e-05 0 -4.2155223275365004e-06 -1.7893491701571104e-05 0 -3.5300880071792937e-06 -1.4676609636345889e-05 0 -4.1939098695755596e-06 1.5331938751419397e-07 0 -5.5452543746293285e-06 -3.9496965943858511e-07 0 -5.6470301480505467e-06 -2.0950277790624617e-07 0 -4.0446118652635318e-06 -1.3511245592609953e-06 0 -4.8374635876860992e-06 -2.0907168305902672e-06 0 -3.5960997692497105e-06 -5.0658175226308507e-07 0 -4.4972098705197203e-06 -9.1066402926594112e-07 0 -3.5960997692497105e-06 -5.0658175226308507e-07 0 -4.8374635876860992e-06 -2.0907168305902672e-06 0 1.3737715684999829e-06 7.5884949789236797e-06 0 -4.2122279703768263e-07 6.2833857253403265e-06 0 1.7992237010215828e-06 9.7499619250282186e-06 0 -9.0492640576006625e-07 4.9077959699683881e-06 0 1.7992237010215828e-06 9.7499619250282186e-06 0 -4.2122279703768263e-07 6.2833857253403265e-06 0 1.8244131249450534e-05 8.4148064577386849e-05 0 1.8869835502373854e-05 0.00010140612951364421 0 5.6965867292063544e-06 9.3932861519112161e-05 0 -3.9252612122176047e-07 4.668736976331135e-06 0 3.04720301000095e-07 4.0894154043357797e-06 0 -5.0660934547433015e-07 3.4808513335634031e-06 0 -3.9746207255692055e-05 -4.0946958554174089e-05 0 -4.1595517301100302e-05 -4.8855885249755118e-05 0 -3.6721466254444988e-05 -4.4834490833127707e-05 0 -3.5488016897195175e-06 5.2425772547226107e-07 0 -3.4919269483955041e-06 4.4360322918130284e-07 0 -2.5828789509798743e-06 7.6094343364605648e-07 0 -5.325087626112701e-06 -6.0101232912427962e-07 0 -4.1934012357854273e-06 -6.2974311256402408e-07 0 -3.4661234860598543e-06 -8.7536456457265739e-07 0 -4.1939098695755596e-06 1.5331938751419397e-07 0 -2.8451963982774081e-06 4.146918245323904e-07 0 -3.210757049861298e-06 1.6201963973510782e-07 0 -7.3059991071230964e-07 7.8126451913868934e-07 0 -1.8453460358203609e-07 7.2990333972060198e-07 0 -6.7224610809490207e-08 1.5198695297287234e-06 0 -2.2530178780764042e-06 -1.015662078744533e-06 0 -1.9541002188818272e-06 -3.6876894233069713e-07 0 -9.6192365519982058e-07 -3.000135720968149e-07 0 -1.4744479224277059e-09 1.7569628836667585e-10 0 -9.6192365519982058e-07 -3.0001357209681484e-07 0 -1.9541002188818272e-06 -3.6876894233069713e-07 0 -3.1504868433977993e-06 1.1994084433360545e-06 0 -1.3463544035217418e-06 2.9886523242445577e-07 0 -2.7577874220527608e-06 2.4060374713121717e-07 0 -2.1240740634298568e-09 -3.6081416315808866e-10 0 -2.7577874220527608e-06 2.4060374713121717e-07 0 -1.3463544035217418e-06 2.9886523242445577e-07 0 -1.1939791450555274e-05 -9.6289200600272937e-06 0 -1.5505882355568132e-05 -1.1451693975453379e-05 0 -1.446748343251553e-05 -1.3941978804868943e-05 0 -1.8226953529510904e-07 1.0208216043205505e-07 0 -1.9215921928415292e-07 3.1201754120895348e-07 0 -1.6500763150493958e-07 2.9020336760551185e-07 0 -4.5536896852020833e-06 6.7450816123189319e-05 0 6.2500518854122149e-06 6.232814486914289e-05 0 7.5713430620837169e-06 7.2915888881732965e-05 0 -7.1241658595674234e-06 1.6024869710416692e-05 0 -9.1136456580627547e-06 1.1471332878812869e-05 0 -4.2134748247614298e-06 1.0336647549401555e-05 0 -3.9252612122176047e-07 4.668736976331135e-06 0 6.837055626440474e-07 5.6308792305212581e-06 0 3.04720301000095e-07 4.0894154043357797e-06 0 -1.2491013884362877e-05 -1.7310464387152392e-05 0 -1.1360956595542534e-05 -1.2141529109603378e-05 0 -1.446748343251553e-05 -1.3941978804868943e-05 0 -4.3233029335365521e-05 0.00019032616295035587 0 -5.9132235203403035e-05 0.00019034860638694133 0 -5.1121005356593032e-05 0.00018209218597964715 0 -1.6731436297761875e-05 -8.8749637487380985e-05 0 -1.0862555693960353e-05 -8.9133050496525949e-05 0 -1.3889623324958679e-05 -8.5616622839759248e-05 0 1.0028500539080773e-06 0.00019130875097302509 0 -1.3266077622457198e-05 0.00019109540183871165 0 -6.2093065021025681e-06 0.00018353958900302212 0 -3.6594765526573124e-05 -8.8109817944366053e-05 0 -2.9529605860122469e-05 -8.8101030251343316e-05 0 -3.3018911507598934e-05 -8.4412880142889225e-05 0 -1.332622637522481e-05 -2.026845619938478e-05 0 -1.4828155462725974e-05 -2.0212474590975255e-05 0 -1.3857772641553449e-05 -2.1496163896323697e-05 0 -7.5387380965271057e-06 -2.2621305691778107e-05 0 -7.0011603438976743e-06 -2.5498639360178796e-05 0 -5.8445736587857542e-06 -2.3076935657845735e-05 0 -2.5264221241613914e-09 -1.0769625165610593e-09 0 -9.6192365519982079e-07 -3.0001357209681495e-07 0 -1.4744479224277059e-09 1.7569628836667585e-10 0 -3.3871900661742846e-09 1.4410348851568786e-09 0 -2.1240740634298568e-09 -3.6081416315808866e-10 0 -1.3463544035217418e-06 2.9886523242445577e-07 0 -3.3871900661742846e-09 1.4410348851568786e-09 0 -1.3463544035217418e-06 2.9886523242445577e-07 0 -3.1504868433977993e-06 1.1994084433360545e-06 0 -2.5264221241613914e-09 -1.0769625165610593e-09 0 -2.2530178780764042e-06 -1.015662078744533e-06 0 -9.6192365519982058e-07 -3.000135720968149e-07 0 -1.0918414995437723e-05 -3.1310266283625639e-05 0 -1.503810408734936e-05 -2.9557217063913524e-05 0 -1.5568698539643678e-05 -3.6795064579807514e-05 0 -4.4455013500351587e-06 -1.1625471786003325e-07 0 -5.7467382939803774e-06 -7.8893226895565193e-07 0 -4.7693759604790171e-06 -7.0480118228600804e-07 0 -8.9168608553657591e-06 -7.3515144284252309e-06 0 -9.2864645759235063e-06 -9.4285601878472696e-06 0 -7.9575077093268153e-06 -7.0618404982406489e-06 0 -8.086191146731676e-06 -9.2433465070954262e-06 0 -7.9575077093268153e-06 -7.0618404982406489e-06 0 -9.2864645759235063e-06 -9.4285601878472696e-06 0 -2.4840243267935265e-06 7.3448997185924924e-07 0 -3.3946206530191166e-06 2.5947581355007913e-07 0 -2.5428963687753848e-06 6.0191544235343256e-07 0 -5.5384672583080706e-07 9.5123523769395495e-07 0 -7.3249951523389631e-07 9.2218615501099057e-07 0 -1.0195335519742215e-06 1.033337111323927e-06 0 -1.2349621040744868e-06 9.8206966380126125e-07 0 -1.0195335519742215e-06 1.033337111323927e-06 0 -7.3249951523389631e-07 9.2218615501099057e-07 0 -9.0492640576006625e-07 4.9077959699683881e-06 0 5.6246098216667653e-07 5.1010112548600454e-06 0 1.7992237010215828e-06 9.7499619250282186e-06 0 5.7262694501447491e-06 1.3968338910238914e-05 0 1.7992237010215832e-06 9.7499619250282203e-06 0 5.6246098216667643e-07 5.1010112548600454e-06 0 -1.8117277155956561e-05 -1.4199474458321607e-05 0 -1.446748343251553e-05 -1.3941978804868943e-05 0 -1.5505882355568132e-05 -1.1451693975453379e-05 0 -2.7179876598576389e-06 -1.2308413835669781e-05 0 -3.5300880071792937e-06 -1.4676609636345889e-05 0 -6.9814222573218799e-07 -1.2213448839121579e-05 0 -1.3149611764213783e-05 -1.3944555118877461e-05 0 -1.439601512402088e-05 -1.5281740985831587e-05 0 -1.3614563778835461e-05 -1.5516276255593615e-05 0 -9.6468544790932914e-07 1.1176226793727962e-06 0 -1.0687490566050601e-06 1.2370244804016576e-06 0 -5.4401881090855289e-07 1.3666682750429007e-06 0 -5.0032420202655637e-06 0.0001222533879840457 0 8.1930579344611167e-06 0.00011553452983053645 0 6.9675498637401263e-06 0.00012774078077787431 0 -3.1859571800168725e-05 -5.692770466033184e-05 0 -3.7582767382510855e-05 -5.4194720267422714e-05 0 -3.7668058088970251e-05 -5.9906519935396459e-05 0 -6.2768261927653035e-06 -8.2903011958320306e-06 0 -6.0768624595086082e-06 -5.8745445764346263e-06 0 -6.710410169376319e-06 -6.7286441034648981e-06 0 -1.891551360002943e-06 -7.6568391612660753e-06 0 7.2449182656672561e-07 -6.1650774047077471e-06 0 -1.9243735845790419e-06 -4.5484625551476696e-06 0 -4.9849022738702444e-05 0.00012102520692008067 0 -5.9313186233301383e-05 0.00011201696236607518 0 -4.7808790400380576e-05 0.00010681900717574296 0 -1.2376296508197293e-05 -5.5205989518718541e-05 0 -7.6767301369590587e-06 -5.0146057448122496e-05 0 -1.2129604696802009e-05 -4.8164302578436348e-05 0 -1.0918414995437723e-05 -3.1310266283625639e-05 0 -1.147238845761413e-05 -3.7665126607861964e-05 0 -7.0783180140271508e-06 -3.4917132739750667e-05 0 -1.2517968571032359e-05 -1.8553564693717168e-05 0 -1.2051387710718106e-05 -1.9940922781598067e-05 0 -1.1023787841348196e-05 -1.8465246934239675e-05 0 -4.5799251477207851e-06 -2.0593931331093779e-05 0 -2.3112728139782927e-06 -1.88129738029406e-05 0 -4.2155223275365004e-06 -1.7893491701571104e-05 0 -2.9039642867419169e-06 1.1443904161757669e-06 0 -2.0691194688246244e-06 4.5046998586443946e-07 0 -1.3349588113460859e-06 1.5391384141964623e-06 0 -1.0382813161217126e-05 -2.3732946957132299e-05 0 -8.9349169570125016e-06 -2.4297146403659732e-05 0 -9.5401937382540689e-06 -2.1830108115675429e-05 0 -3.5488016897195175e-06 5.2425772547226107e-07 0 -2.5828789509798743e-06 7.6094343364605648e-07 0 -2.7042156729940461e-06 7.0928857331530005e-07 0 -2.0037608545515886e-06 8.2396104649607195e-07 0 -2.7042156729940461e-06 7.0928857331530005e-07 0 -2.5828789509798743e-06 7.6094343364605648e-07 0 -2.3303966328299667e-06 6.6339905761329044e-07 0 -3.1721030318302149e-06 -3.0133329176491028e-07 0 -3.5960997692497105e-06 -5.0658175226308507e-07 0 -1.1939791450555274e-05 -9.6289200600272937e-06 0 -1.446748343251553e-05 -1.3941978804868943e-05 0 -1.1360956595542534e-05 -1.2141529109603378e-05 0 -2.4840243267935265e-06 7.3448997185924924e-07 0 -2.5428963687753848e-06 6.0191544235343256e-07 0 -1.8114027206774267e-06 8.8025133334131704e-07 0 -1.9377738144552052e-06 8.0618867963904551e-07 0 -1.8114027206774267e-06 8.8025133334131704e-07 0 -2.5428963687753848e-06 6.0191544235343256e-07 0 -3.3946206530191166e-06 2.5947581355007913e-07 0 -2.7928348349238081e-06 3.314152457618659e-07 0 -2.5428963687753848e-06 6.0191544235343256e-07 0 -1.2481200283798945e-05 -2.3214526402423755e-05 0 -1.3857772641553449e-05 -2.1496163896323697e-05 0 -1.4323222605689024e-05 -2.277172823159783e-05 0 -1.5668137977851268e-05 -2.1257600868198516e-05 0 -1.4323222605689022e-05 -2.277172823159783e-05 0 -1.3857772641553449e-05 -2.1496163896323697e-05 0 -5.3710809495415687e-06 -2.6450837777697462e-05 0 -7.0011603438976743e-06 -2.5498639360178792e-05 0 -6.4101523126531495e-06 -2.8645035314678734e-05 0 -7.9587190215061606e-06 -2.6396202742883421e-05 0 -6.4101523126531495e-06 -2.8645035314678734e-05 0 -7.0011603438976743e-06 -2.5498639360178792e-05 0 -9.0492640576006625e-07 4.9077959699683881e-06 0 -1.9436414250577775e-06 4.6842488316508374e-07 0 5.6246098216667643e-07 5.1010112548600454e-06 0 -7.056764431312041e-07 0.00017364416869493162 0 -6.2093065021025681e-06 0.00018353958900302212 0 -1.4675811548250975e-05 0.00017669710145922429 0 -3.5676571801579503e-05 -7.9900973944785502e-05 0 -3.3018911507598934e-05 -8.4412880142889225e-05 0 -2.898673007403564e-05 -8.1551575893485913e-05 0 -1.1634789272706625e-05 -8.1141060114427462e-05 0 -1.7399422588638759e-05 -8.2382579182454856e-05 0 -1.3889623324958679e-05 -8.5616622839759248e-05 0 -5.7130181185194645e-05 0.00017212693478001038 0 -4.196793169892597e-05 0.0001756439980148596 0 -5.1121005356593032e-05 0.00018209218597964715 0 -4.9849022738702444e-05 0.00012102520692008067 0 -4.7808790400380576e-05 0.00010681900717574295 0 -3.7681995116011004e-05 0.00011071893428781377 0 -1.2376296508197293e-05 -5.5205989518718541e-05 0 -1.2129604696802009e-05 -4.8164302578436348e-05 0 -1.6735038340307628e-05 -5.0087892540949884e-05 0 -1.0918414995437723e-05 -3.1310266283625639e-05 0 -1.5568698539643678e-05 -3.6795064579807514e-05 0 -1.1472388457614132e-05 -3.7665126607861964e-05 0 -4.0446118652635318e-06 -1.3511245592609953e-06 0 -3.5960997692497105e-06 -5.0658175226308507e-07 0 -3.1721030318302149e-06 -3.0133329176491028e-07 0 -1.3266077622457198e-05 0.00019109540183871165 0 -1.4675811548250975e-05 0.00017669710145922429 0 -6.2093065021025681e-06 0.00018353958900302212 0 -2.9529605860122469e-05 -8.8101030251343316e-05 0 -2.898673007403564e-05 -8.1551575893485913e-05 0 -3.3018911507598934e-05 -8.4412880142889225e-05 0 -4.3233029335365521e-05 0.00019032616295035587 0 -5.1121005356593032e-05 0.00018209218597964715 0 -4.196793169892597e-05 0.0001756439980148596 0 -1.6731436297761875e-05 -8.8749637487380985e-05 0 -1.3889623324958679e-05 -8.5616622839759248e-05 0 -1.7399422588638759e-05 -8.2382579182454856e-05 0 -1.0796549240893358e-05 -2.0229155019791568e-05 0 -1.1023787841348196e-05 -1.8465246934239675e-05 0 -1.2051387710718106e-05 -1.9940922781598067e-05 0 -3.7584366324024349e-06 -1.6212317527063978e-05 0 -8.419920962678803e-06 -1.5128567785891237e-05 0 -6.0679706333564728e-06 -2.0124856113383631e-05 0 -1.7514344656950178e-05 -2.2891425811314761e-05 0 -1.6689503871479851e-05 -2.1880506035111513e-05 0 -1.6869291632494847e-05 -2.1491572905653793e-05 0 -1.8357559441908305e-06 -2.6379003289537536e-05 0 -3.5583649339484277e-06 -2.6147539660993866e-05 0 -4.3444683335014332e-06 -2.9182831323079433e-05 0 -5.5384672583080706e-07 9.5123523769395495e-07 0 -4.2342329061463679e-07 7.3031852170693865e-07 0 -7.3249951523389631e-07 9.2218615501099057e-07 0 -5.4441026241523673e-05 9.5720858966880695e-05 0 -5.4988345054333619e-05 8.0423881663952673e-05 0 -4.4497488557552478e-05 8.3114387070068493e-05 0 -4.3176188904140636e-05 7.1423687251889279e-05 0 -4.4497488557552478e-05 8.3114387070068493e-05 0 -5.4988345054333619e-05 8.0423881663952673e-05 0 -9.6972901013424324e-06 -1.6669192668671693e-05 0 -1.1320934327038711e-05 -1.6669815731714424e-05 0 -1.1023787841348196e-05 -1.8465246934239675e-05 0 -2.3713940254834535e-06 4.7526455988361768e-07 0 -2.7928348349238081e-06 3.314152457618659e-07 0 -3.2004428807014178e-06 -1.5973393167967809e-07 0 -8.9168608553657591e-06 -7.3515144284252309e-06 0 -7.9575077093268153e-06 -7.0618404982406489e-06 0 -7.9101633486090825e-06 -5.395301785050173e-06 0 -6.8522893428099982e-06 -4.4770133445517808e-06 0 -7.9101633486090825e-06 -5.395301785050173e-06 0 -7.9575077093268153e-06 -7.0618404982406489e-06 0 -3.8027186008874719e-05 9.5043674252922935e-05 0 -3.7681995116011004e-05 0.00011071893428781377 0 -4.7808790400380576e-05 0.00010681900717574296 0 -1.5074210882769853e-05 -4.3036514975931459e-05 0 -1.6735038340307628e-05 -5.0087892540949884e-05 0 -1.2129604696802009e-05 -4.8164302578436348e-05 0 -1.5074210882769853e-05 -4.3036514975931459e-05 0 -1.1472388457614132e-05 -3.7665126607861964e-05 0 -1.5568698539643678e-05 -3.6795064579807514e-05 0 -2.8080205865063486e-06 -1.1621755650160241e-07 0 -4.2805726174384228e-06 -2.3890460230743322e-07 0 -3.210757049861298e-06 1.6201963973510782e-07 0 -3.8560323346395164e-06 -2.387537145913531e-07 0 -4.1934012357854273e-06 -6.2974311256402408e-07 0 -5.8910562014675555e-06 -1.6597795588228752e-07 0 -8.067407926880718e-06 5.8007540222439447e-07 0 -5.8910562014675555e-06 -1.6597795588228752e-07 0 -7.5467493676699837e-06 3.8892598211705867e-08 0 -5.6561764824907575e-06 -8.0042684153711328e-07 0 -5.5452543746293285e-06 -3.9496965943858511e-07 0 -4.2805726174384228e-06 -2.3890460230743312e-07 0 -3.467093183770031e-06 -5.7949204726421178e-07 0 -3.1721030318302149e-06 -3.0133329176491028e-07 0 -2.5756639571666404e-06 2.5172667570882343e-07 0 -5.4441026241523673e-05 9.5720858966880695e-05 0 -4.7808790400380576e-05 0.00010681900717574296 0 -5.9313186233301383e-05 0.00011201696236607518 0 -8.5619144108985729e-06 -4.2471846338288033e-05 0 -1.2129604696802009e-05 -4.8164302578436348e-05 0 -7.6767301369590587e-06 -5.0146057448122496e-05 0 -8.5619144108985729e-06 -4.2471846338288033e-05 0 -7.0783180140271508e-06 -3.4917132739750667e-05 0 -1.1472388457614132e-05 -3.7665126607861964e-05 0 -1.888703791060411e-05 -2.7554207996029926e-05 0 -2.342120974557181e-05 -2.7591342762242743e-05 0 -2.3326070634986772e-05 -3.2315559477366702e-05 0 -1.2517968571032359e-05 -1.8553564693717168e-05 0 -1.1023787841348196e-05 -1.8465246934239675e-05 0 -1.1320934327038711e-05 -1.6669815731714424e-05 0 -2.9039642867419169e-06 1.1443904161757669e-06 0 -2.7575369500682851e-06 2.4669841856158399e-06 0 -4.8121069222762712e-06 1.7165183341014894e-06 0 -4.785675889782034e-06 -2.1950011168129013e-06 0 -4.0594314775250912e-06 -1.0065663354746465e-06 0 -4.9820995041353847e-06 -1.5751063181598828e-06 0 -4.1939098695755596e-06 1.5331938751419397e-07 0 -5.6470301480505458e-06 -2.0950277790624627e-07 0 -4.5073531008978193e-06 2.3130478461888561e-07 0 -3.8331885794152406e-05 4.7277306150176331e-05 0 -3.0360839849050481e-05 4.8152367191172639e-05 0 -3.6289631243522003e-05 5.9344173678645182e-05 0 -2.4581562778457849e-05 -2.2272032823404059e-05 0 -2.342120974557181e-05 -2.7591342762242743e-05 0 -2.1072754098002024e-05 -2.2797904275155741e-05 0 -5.0032420202655637e-06 0.0001222533879840457 0 -1.708114491586781e-05 0.00012193571380816514 0 -1.1252574297764502e-05 0.00011109380893659962 0 -3.1859571800168725e-05 -5.692770466033184e-05 0 -2.6427234268994086e-05 -5.6569943338087353e-05 0 -2.8218928678231253e-05 -5.1234436166541596e-05 0 -4.5536896852020833e-06 6.7450816123189319e-05 0 -1.1248393396658648e-05 7.8704756224636402e-05 0 -1.8377784367392763e-05 6.8518835385832921e-05 0 -6.5062294412540278e-06 -7.8164472532157086e-07 0 -7.3606613109689321e-06 -9.5454233127722357e-07 0 -8.4925592644086954e-06 -1.7272594494237142e-06 0 -3.8331815200296935e-06 -4.2657403463519372e-07 0 -3.2004428807014178e-06 -1.5973393167967809e-07 0 -2.7928348349238081e-06 3.314152457618659e-07 0 -2.064908090949353e-05 -3.674992653232473e-05 0 -2.3326070634986772e-05 -3.2315559477366702e-05 0 -2.578216927739542e-05 -3.7136148747189294e-05 0 -1.5668137977851268e-05 -2.1257600868198516e-05 0 -1.6869291632494847e-05 -2.1491572905653793e-05 0 -1.6689503871479851e-05 -2.1880506035111513e-05 0 -5.3710809495415687e-06 -2.6450837777697462e-05 0 -4.3444683335014332e-06 -2.9182831323079433e-05 0 -3.5583649339484277e-06 -2.6147539660993866e-05 0 -1.9377738144552052e-06 8.0618867963904551e-07 0 -2.5428963687753848e-06 6.0191544235343256e-07 0 -2.7928348349238081e-06 3.314152457618659e-07 0 -5.9132235203403035e-05 0.00019034860638694133 0 -6.4509945049742308e-05 0.00018118687755340541 0 -5.1121005356593032e-05 0.00018209218597964715 0 -5.7130181185194645e-05 0.00017212693478001038 0 -5.1121005356593032e-05 0.00018209218597964715 0 -6.4509945049742308e-05 0.00018118687755340541 0 -1.1634789272706625e-05 -8.1141060114427462e-05 0 -1.3889623324958679e-05 -8.5616622839759248e-05 0 -8.8908318275189305e-06 -8.538576781760699e-05 0 -1.0862555693960353e-05 -8.9133050496525949e-05 0 -8.8908318275189305e-06 -8.538576781760699e-05 0 -1.3889623324958679e-05 -8.5616622839759248e-05 0 1.0028500539080773e-06 0.00019130875097302509 0 -6.2093065021025681e-06 0.00018353958900302212 0 5.8669895391868268e-06 0.00018257088459816477 0 -3.6594765526573124e-05 -8.8109817944366053e-05 0 -3.3018911507598934e-05 -8.4412880142889225e-05 0 -3.9007241430871532e-05 -8.3999043261815971e-05 0 -7.056764431312041e-07 0.00017364416869493162 0 5.8669895391868268e-06 0.00018257088459816477 0 -6.2093065021025681e-06 0.00018353958900302212 0 -3.5676571801579503e-05 -7.9900973944785502e-05 0 -3.9007241430871532e-05 -8.3999043261815971e-05 0 -3.3018911507598934e-05 -8.4412880142889225e-05 0 -9.6972901013424324e-06 -1.6669192668671693e-05 0 -1.1023787841348196e-05 -1.8465246934239675e-05 0 -9.5579044084132779e-06 -1.8734502335811352e-05 0 -1.3014125892209817e-05 -1.6480994119876389e-05 0 -1.2240562239428466e-05 -1.410436469349038e-05 0 -1.3614563778835461e-05 -1.5516276255593615e-05 0 -1.3149611764213783e-05 -1.3944555118877461e-05 0 -1.3614563778835461e-05 -1.5516276255593615e-05 0 -1.2240562239428466e-05 -1.410436469349038e-05 0 -1.0796549240893358e-05 -2.0229155019791568e-05 0 -1.2051387710718106e-05 -1.9940922781598067e-05 0 -1.1892026345342165e-05 -2.1607009806516227e-05 0 -1.332622637522481e-05 -2.026845619938478e-05 0 -1.1892026345342165e-05 -2.1607009806516227e-05 0 -1.2051387710718106e-05 -1.9940922781598067e-05 0 1.3737715684999829e-06 7.5884949789236797e-06 0 -3.8177594845155018e-08 5.7672967652962623e-06 0 -4.2122279703768263e-07 6.2833857253403265e-06 0 -5.1345339187510304e-06 3.833625743191791e-06 0 -8.5225124926595474e-06 5.5180673944627068e-06 0 -7.7197533841170969e-06 2.9109510485907064e-06 0 -1.1502657703930097e-05 4.5449037231724664e-06 0 -7.7197533841170969e-06 2.9109510485907064e-06 0 -8.5225124926595474e-06 5.5180673944627068e-06 0 -6.5062294412540278e-06 -7.8164472532157086e-07 0 -7.5287530233667028e-06 -1.8188002269096941e-06 0 -5.7467382939803774e-06 -7.8893226895565193e-07 0 -3.8331885794152406e-05 4.7277306150176331e-05 0 -3.0171101118263403e-05 3.8626760162449269e-05 0 -3.0360839849050481e-05 4.8152367191172639e-05 0 -2.19032961009496e-05 4.0153984349190368e-05 0 -3.0360839849050481e-05 4.8152367191172639e-05 0 -3.0171101118263403e-05 3.8626760162449269e-05 0 -3.9252612122176047e-07 4.668736976331135e-06 0 -3.8177594845155018e-08 5.7672967652962623e-06 0 6.837055626440474e-07 5.6308792305212581e-06 0 -5.5773697876898668e-06 -1.6430927590658001e-05 0 -6.1673602942668575e-06 -1.9348793936550893e-05 0 -4.2155223275365004e-06 -1.7893491701571104e-05 0 -4.5799251477207851e-06 -2.0593931331093779e-05 0 -4.2155223275365004e-06 -1.7893491701571104e-05 0 -6.1673602942668575e-06 -1.9348793936550893e-05 0 7.4156098110968043e-07 4.6850924890147337e-06 0 6.837055626440474e-07 5.6308792305212581e-06 0 1.236370298309906e-06 6.5564759606189768e-06 0 -1.7182039568301973e-05 -1.9277512615634221e-05 0 -2.0832726258694039e-05 -1.8678088708971927e-05 0 -2.1072754098002024e-05 -2.2797904275155741e-05 0 -2.4581562778457849e-05 -2.2272032823404059e-05 0 -2.1072754098002024e-05 -2.2797904275155741e-05 0 -2.0832726258694039e-05 -1.8678088708971927e-05 0 2.7514583101781985e-08 3.1271782800228566e-06 0 -5.0660934547433015e-07 3.4808513335634031e-06 0 3.04720301000095e-07 4.0894154043357797e-06 0 7.4156098110968043e-07 4.6850924890147337e-06 0 3.04720301000095e-07 4.0894154043357797e-06 0 6.837055626440474e-07 5.6308792305212581e-06 0 -1.3149611764213783e-05 -1.3944555118877461e-05 0 -1.3497810640963948e-05 -1.3032736079634043e-05 0 -1.439601512402088e-05 -1.5281740985831587e-05 0 -3.8331815200296935e-06 -4.2657403463519372e-07 0 -4.0594314775250912e-06 -1.0065663354746465e-06 0 -3.2004428807014178e-06 -1.5973393167967809e-07 0 -3.467093183770031e-06 -5.7949204726421178e-07 0 -3.2004428807014178e-06 -1.5973393167967809e-07 0 -4.0594314775250912e-06 -1.0065663354746465e-06 0 -2.3303966328299667e-06 6.6339905761329044e-07 0 -2.5756639571666404e-06 2.5172667570882343e-07 0 -3.1721030318302149e-06 -3.0133329176491028e-07 0 1.8995684655162168e-05 0.00011911627630672841 0 6.9675498637401255e-06 0.00012774078077787431 0 8.1930579344611167e-06 0.00011553452983053645 0 -4.2863255048945667e-05 -5.7063528993091971e-05 0 -3.7668058088970245e-05 -5.9906519935396459e-05 0 -3.7582767382510855e-05 -5.4194720267422714e-05 0 -9.3645727740533849e-06 -1.7605050676377656e-06 0 -8.4925592644086954e-06 -1.7272594494237142e-06 0 -7.3606613109689321e-06 -9.5454233127722378e-07 0 -2.726353183254752e-10 1.5594192162235092e-10 0 -2.1547822887230155e-07 3.3592201516955626e-07 0 -1.60402126655329e-07 2.6658306479678716e-07 0 1.7085068090865123e-05 6.7574937803799759e-05 0 7.5713430620837169e-06 7.2915888881732965e-05 0 6.2500518854122149e-06 6.232814486914289e-05 0 -1.0796549240893358e-05 -2.0229155019791568e-05 0 -9.5579044084132779e-06 -1.8734502335811352e-05 0 -1.1023787841348196e-05 -1.8465246934239675e-05 0 -6.9249898156432112e-06 1.2180482037584374e-06 0 -7.7197533841170969e-06 2.910951048590706e-06 0 -1.0234995462324019e-05 2.5207395057676112e-06 0 -1.1502657703930097e-05 4.5449037231724664e-06 0 -1.0234995462324017e-05 2.5207395057676112e-06 0 -7.7197533841170969e-06 2.9109510485907064e-06 0 -1.5103706215617138e-05 -1.4557351754183638e-05 0 -1.439601512402088e-05 -1.5281740985831587e-05 0 -1.3497810640963948e-05 -1.3032736079634043e-05 0 
</DataArray>
</PointData>
<CellData Scalars="region_id,cross_section_updated,displacement_divergence," Vectors="" Tensors="stress,">
<DataArray type="Float64" Name="region_id" format="ascii">
2 2 2 2 2 2 2 2 2 2 3 3 3 3 3 3 3 3 3 3 1 1 1 1 1 1 1 1 1 1 1 1 1 1 1 1 1 1 1 1 1 1 1 1 1 1 1 1 1 1 1 1 1 1 1 1 1 1 1 1 1 1 1 1 1 1 1 1 1 1 1 1 1 1 1 1 1 1 1 1 1 1 1 1 1 1 1 1 1 1 1 1 1 1 1 1 1 1 1 1 1 1 1 1 1 1 1 1 1 1 1 1 1 1 1 1 1 1 1 1 1 1 1 1 1 1 1 1 1 1 1 1 1 1 1 1 1 1 1 1 1 1 1 1 1 1 1 1 1 1 1 1 1 1 1 1 1 1 1 1 1 1 1 1 1 1 1 1 1 1 1 1 1 1 1 1 1 1 1 1 1 1 1 1 1 1 1 1 1 1 1 1 1 1 1 1 1 1 1 1 1 1 1 1 1 1 1 1 1 1 1 1 1 1 1 1 1 1 1 1 1 1 1 1 1 1 1 1 1 1 1 1 1 1 1 1 1 1 1 1 1 1 1 1 1 1 1 1 1 1 1 1 1 1 1 1 1 1 1 1 1 1 1 1 1 1 1 1 1 1 1 1 1 1 1 1 1 1 1 1 1 1 1 1 1 1 1 1 1 1 1 1 1 1 1 1 1 1 1 1 1 1 1 1 1 1 1 1 1 1 1 1 1 1 1 1 1 1 1 1 1 1 1 1 1 1 1 1 1 1 1 1 1 1 1 1 1 1 1 1 1 1 1 1 1 1 1 1 1 1 1 1 1 1 1 1 1 1 1 1 1 1 1 1 1 1 1 1 1 1 1 1 1 1 1 1 1 1 1 1 1 1 1 1 1 1 1 1 1 1 1 1 1 1 1 1 1 1 1 1 1 1 1 1 1 1 1 1 1 1 1 1 1 1 1 1 1 1 1 1 1 1 1 1 1 1 1 1 1 1 1 1 1 1 1 1 1 1 1 1 1 1 1 1 1 1 1 1 1 1 1 1 1 1 1 1 1 1 1 1 1 1 1 1 1 1 1 1 1 1 1 1 1 1 1 1 1 1 1 1 1 1 1 1 1 1 1 1 1 1 1 1 1 1 1 1 1 1 1 1 1 1 1 1 1 1 1 1 1 1 1 1 1 1 1 1 1 1 1 1 1 1 1 1 1 1 1 1 1 1 1 1 1 1 1 1 1 1 1 1 1 1 1 1 1 1 1 1 1 1 1 1 1 1 1 1 1 1 1 1 1 1 1 1 1 1 1 1 1 1 1 1 1 1 1 1 1 1 1 1 1 1 1 1 1 1 1 1 1 1 1 1 1 1 1 1 1 1 1 1 1 1 1 1 1 1 1 1 1 1 1 1 1 1 1 1 1 1 1 1 1 1 1 1 1 1 1 1 1 1 1 1 1 1 1 1 1 1 1 1 1 1 1 1 1 1 1 1 1 1 1 1 1 1 1 1 1 1 1 1 1 1 1 1 1 1 1 1 1 1 1 1 1 1 1 1 1 1 1 1 1 1 1 1 1 1 1 1 1 1 1 1 1 1 1 1 1 1 1 1 1 1 1 1 1 1 1 1 1 1 1 1 1 1 1 1 1 1 1 1 1 1 1 1 1 1 1 1 1 1 1 1 1 1 1 1 1 1 1 1 1 1 1 1 1 1 1 1 1 1 1 1 1 1 1 1 1 1 1 1 1 1 1 1 1 1 1 1 1 1 1 1 1 1 1 1 1 1 1 1 1 1 1 1 1 1 1 1 1 1 1 1 1 1 1 1 1 1 1 1 1 1 1 1 1 1 1 1 1 1 1 1 1 1 1 1 1 1 1 1 1 1 1 1 1 1 1 1 1 1 1 1 1 1 1 1 1 1 1 1 1 1 1 1 1 1 1 1 1 1 1 1 1 1 1 1 1 1 1 1 1 1 1 1 1 1 1 1 1 1 1 1 1 1 1 1 1 1 1 1 1 1 1 1 1 1 1 1 1 1 1 1 1 1 1 1 1 1 1 1 1 1 1 1 1 1 1 1 1 1 1 1 1 1 1 1 1 1 1 1 1 1 1 1 1 1 1 1 1 1 1 1 1 1 1 1 1 1 1 1 1 1 1 1 1 1 1 1 1 1 1 1 1 1 1 1 1 1 1 1 1 1 1 1 1 1 1 1 1 1 1 1 1 1 1 1 1 1 1 1 1 1 1 1 1 1 1 1 1 1 1 1 1 1 1 1 1 1 1 1 1 1 1 1 1 1 1 1 1 1 1 1 1 1 1 1 1 1 1 1 1 1 1 1 1 1 1 1 1 1 1 1 1 1 1 1 1 1 1 1 1 1 1 1 1 1 1 1 1 1 1 1 1 1 
</DataArray>
<DataArray type="Float64" Name="stress" NumberOfComponents="9" format="ascii">
0.0018075534181599563 -0.0011988856124347286 0 -0.0011988856124347286 0.0054517449909977167 0 0 0 0.0018148246022894185 0.0045503556947523276 -0.0030988351630195105 0 -0.0030988351630195105 0.013683877582330828 0 0 0 0.0045585583192707894 0.0063755546955117422 -0.0043177504463502245 0 -0.0043177504463502245 0.019167838496205993 0 0 0 0.0063858482979294324 0.0082280043204857999 -0.0051278319554036176 0 -0.0051278319554036176 0.024721651932785416 0 0 0 0.0082374140633178026 0.010275822196300853 -0.005617778285035937 0 -0.005617778285035937 0.030860356758452039 0 0 0 0.010284044738688226 0.012635220463547646 -0.0058484430592834801 0 -0.0058484430592834801 0.037937456546048041 0 0 0 0.012643169252398924 0.015372453677910951 -0.005848802088402375 0 -0.005848802088402375 0.046155519905271079 0 0 0 0.015381993395795506 0.018339855206190976 -0.0056919847734370138 0 -0.0056919847734370138 0.055063134839079424 0 0 0 0.0183507475113176 0.02154150515053728 -0.0054178741782067042 0 -0.0054178741782067042 0.064648199368595727 0 0 0 0.021547426129783252 0.024538857700126978 -0.0051565373124225402 0 -0.0051565373124225402 0.073732706855248048 0 0 0 0.024567891138843754 0.0034958693054516236 0.00076794156813712509 0 0.00076794156813712509 0.010312553168383526 0 0 0 0.0034521056184587877 0.0089779268483981215 0.0018782655621210876 0 0.0018782655621210876 0.026910113052216154 0 0 0 0.0089720099751535685 0.012984966813197761 0.0026586305572030263 0 0.0026586305572030263 0.038939342686731618 0 0 0 0.012981077374982344 0.016812191855462261 0.0031717822080871666 0 0.0031717822080871666 0.050436937456144373 0 0 0 0.016812282327901659 0.020746210280415334 0.0035265681315201193 0 0.0035265681315201193 0.06225423693276335 0 0 0 0.020750111803294669 0.024824808500342601 0.0037564625221635888 0 0.0037564625221635888 0.074506915860545614 0 0 0 0.024832931090222055 0.029095159976126227 0.0038284134196509782 0 0.0038284134196509782 0.087333147769563538 0 0 0 0.029107076936422446 0.033385731991810441 0.0038456797258303093 0 0.0038456797258303093 0.1002668631037815 0 0 0 0.033413148773897984 0.037789528540783622 0.0036938945695726365 0 0.0036938945695726365 0.11330173122490374 0 0 0 0.037772814941421838 0.041662596932689318 0.0036247046684301063 0 0.0036247046684301063 0.12566606687026438 0 0 0 0.041832165950738416 -0.01488644572749151 -0.0049152250668830118 0 -0.0049152250668830118 0.010519988783389882 0 0 0 -0.0010916142360254087 -0.012452382709850291 -0.004989189295553715 0 -0.004989189295553715 0.019862921922085358 0 0 0 0.0018526348030587642 -0.027590067857837693 -0.0056659734083262664 0 -0.0056659734083262664 0.017211977809747231 0 0 0 -0.0025945225120226137 -0.026126428925393887 -8.1005060469901968e-05 0 -8.1005060469901968e-05 0.018814413412313526 0 0 0 -0.0018280038782700833 -0.063267966914129309 -0.0036414366137211499 0 -0.0036414366137211499 0.0014319167664536333 0 0 0 -0.015459012536918912 -0.04407995171107669 0.0012906453417828581 0 0.0012906453417828581 0.00044384238611761516 0 0 0 -0.010909027331239772 -0.066926416254734 -0.0022349138114624804 0 -0.0022349138114624804 -0.00061505422839619114 0 0 0 -0.016885367620782549 -0.045577555742104307 0.00072051943865116702 0 0.00072051943865116702 -0.00037261906856051602 0 0 0 -0.011487543702666206 -0.059851485837308163 0.0023377923475078402 0 0.0023377923475078402 -0.00030956265284103057 0 0 0 -0.015040262122537286 -0.1045109917510301 -0.0059671615547316429 0 -0.0059671615547316429 -0.00045411096024101927 0 0 0 -0.026241275677817796 0.0011204505160341241 0.0012857251388078202 0 0.0012857251388078202 -0.0080306314782762362 0 0 0 -0.0017275452405605281 -0.0011894053159986215 0.0013991621812109722 0 0.0013991621812109722 -0.0068850106420603047 0 0 0 -0.0020186039895147313 -0.0176892138804879 0.0038424575754584332 0 0.0038424575754584332 -0.0032856798075681891 0 0 0 -0.0052437234220140197 -0.016322481237071442 -0.0050391457878711781 0 -0.0050391457878711781 -0.0054434442053519208 0 0 0 -0.0054414813606058409 -0.018501965675458625 0.0044428620016850615 0 0.0044428620016850615 -0.0061676597959027957 0 0 0 -0.0061674063678403557 -0.02771483642850206 -0.0085981958362687586 0 -0.0085981958362687586 0.011266899050546841 0 0 0 -0.0041119843444887838 0.082719768675558719 0.055741832102127707 0 0.055741832102127707 0.10443499307489379 0 0 0 0.046788690437613106 -0.0022124313840941046 -0.0077470953070337689 0 -0.0077470953070337689 -0.014484161245527538 0 0 0 -0.0041741481574053552 0.0014251048528362009 0.0062594943381348855 0 0.0062594943381348855 -0.006973926070244385 0 0 0 -0.0013872053043522126 -0.002316448906683144 0.010067785530842971 0 0.010067785530842971 -0.018198587348887685 0 0 0 -0.0051287590638928737 0.00090981667575129599 -0.0047218132084526476 0 -0.0047218132084526476 -0.005117417066133445 0 0 0 -0.0010519000975955928 -0.005101433970095548 0.017550249089322456 0 0.017550249089322456 -0.007920899294367123 0 0 0 -0.003255583316115751 -0.0064781213663966664 -0.016148032672388291 0 -0.016148032672388291 -0.010109638787275776 0 0 0 -0.0041469400384181732 -0.015209500574381484 0.0050144744890148005 0 0.0050144744890148005 -0.0035383150523126605 0 0 0 -0.0046869539066735364 0.089905031831077953 -0.0041025667488142556 0 -0.0041025667488142556 0.061727644960386768 0 0 0 0.037908169197866194 -0.13004926620550719 0.0060027588436048496 0 0.0060027588436048496 0.0038012331234437147 0 0 0 -0.03156200827051589 -0.069845649792744519 -0.0020779985661687995 0 -0.0020779985661687995 0.0014790017045387405 0 0 0 -0.017091662022051465 -0.045716938941575753 -0.010493784861839507 0 -0.010493784861839507 0.0084495996593951794 0 0 0 -0.0093168348205451487 -0.05404158171433715 0.0072999705777845115 0 0.0072999705777845115 0.031119060348477001 0 0 0 -0.0057306303414650372 -0.057126986230505224 -0.014248242028587994 0 -0.014248242028587994 0.0034598138082682639 0 0 0 -0.013416793105559242 -0.017454072146299848 -0.0073969520948585794 0 -0.0073969520948585794 0.027672316101142073 0 0 0 0.0025545609887105553 -0.014879248695564784 -0.019967497215095109 0 -0.019967497215095109 -0.00057379027142034911 0 0 0 -0.0038632597417462833 -0.016672870276352503 0.0281361363988063 0 0.0281361363988063 -0.0039278410132322916 0 0 0 -0.0051501778223962957 -0.014180506784544689 -0.020917677029458404 0 -0.020917677029458404 0.0021746926186358984 0 0 0 -0.0030014535414771837 -0.023711301667196372 0.029548570000647256 0 0.029548570000647256 -0.0033786777967850234 0 0 0 -0.0067724948659954043 -0.039339369412419035 -0.017791801555579214 0 -0.017791801555579214 0.0010743124917542632 0 0 0 -0.0095662642301661913 -0.0077795114095309884 -0.018336065479405153 0 -0.018336065479405153 0.033478844477070974 0 0 0 0.0064248332668850015 -0.062461425817664382 0.001641041619519043 0 0.001641041619519043 0.0072584416641123528 0 0 0 -0.013800746038387976 0.15171891241942159 0.05846612579801249 0 0.05846612579801249 0.033782674066148433 0 0 0 0.046375396621392506 0.00043551493047258583 0.0057410167511142696 0 0.0057410167511142696 -0.015828216970516451 0 0 0 -0.0038481755100109871 2.8599332246220799e-05 -0.0069826576323608822 0 -0.0069826576323608822 -0.010782199387016189 0 0 0 -0.0026884000136925268 -0.014597773282336485 -0.0077682433407846793 0 -0.0077682433407846793 0.040598305413204361 0 0 0 0.0065001330327169671 -0.00040237285726962835 -0.01522684340597702 0 -0.01522684340597702 0.021308155805635387 0 0 0 0.0052264457370915229 -0.0062086944319230675 0.0036589631772807607 0 0.0036589631772807607 -0.0024382352762080117 0 0 0 -0.0021617324270328808 -0.0093654774142701118 -0.0037027149164043835 0 -0.0037027149164043835 -0.0074968224967790643 0 0 0 -0.0042155749777622936 -0.012429962815347998 0.0054609325929104559 0 0.0054609325929104559 -0.0048828001183026208 0 0 0 -0.0043281907334126544 -0.034332432200823576 0.029561055452945184 0 0.029561055452945184 0.032570664200619354 0 0 0 -0.00044044200005107989 -0.028497096591527576 0.02408430625997629 0 0.02408430625997629 0.024236153247201062 0 0 0 -0.0010652358360815628 0.074075330043672699 0.073506377734268463 0 0.073506377734268463 0.12055337140809694 0 0 0 0.048657175362942388 -0.0093832959502585037 0.0071854407567908396 0 0.0071854407567908396 0.00066645272412903245 0 0 0 -0.0021792108065321128 -0.0091806564780584667 -0.016555790549082405 0 -0.016555790549082405 0.02116283472050514 0 0 0 0.0029955445606116536 -0.012474404223725588 -0.0082981102429560138 0 -0.0082981102429560138 -0.020022663710430044 0 0 0 -0.0081242669835388803 -0.016880998478112738 -0.0076041875092288484 0 -0.0076041875092288484 0.031700491796223161 0 0 0 0.0037048733295276092 -0.013888831179406209 -0.012007286321635158 0 -0.012007286321635158 0.0070122572137063799 0 0 0 -0.0017191434914249626 -0.0096894933433054609 -0.0032213036327303907 0 -0.0032213036327303907 0.0056488792049033121 0 0 0 -0.0010101535346005303 -0.070359939108519842 0.010056315792737358 0 0.010056315792737358 -0.00088305162243407231 0 0 0 -0.017810747682738437 -0.0066346758650538407 -0.0045378258598399723 0 -0.0045378258598399723 0.00040963094123536159 0 0 0 -0.0015562612309545365 -0.0038553628296955633 0.01947168725107129 0 0.01947168725107129 0.039350071050261892 0 0 0 0.0088736770551414157 -0.0082322347379099499 -0.015844363850169185 0 -0.015844363850169185 0.036203535163326278 0 0 0 0.0069928251063541939 -0.0021352334621616009 0.001996441207979927 0 0.001996441207979927 -0.0002853202170101099 0 0 0 -0.00060513841979270566 -0.01393332563671093 0.000479263622852652 0 0.000479263622852652 -0.01058397285499435 0 0 0 -0.0061293246229263132 0.011196524502930792 -0.02941540289052072 0 -0.02941540289052072 0.047825855962997772 0 0 0 0.014755595116482152 -0.011300494133593297 -0.00099100957662424938 0 -0.00099100957662424938 -0.0049753871608756439 0 0 0 -0.0040689703236172492 -0.012631578887457875 -0.004967318099033332 0 -0.004967318099033332 0.001053990367629043 0 0 0 -0.0028943971299572047 -0.021025804266144088 -0.017843775270530427 0 -0.017843775270530427 0.0063837283066076056 0 0 0 -0.0036605189898841761 -0.041137422232304793 -0.00062518210803731407 0 -0.00062518210803731407 -0.0062415627192686906 0 0 0 -0.011844746237893373 -0.057941196165786801 -0.0017620343239140033 0 -0.0017620343239140033 -0.0086155911348641777 0 0 0 -0.016639196825162746 0.0013695636624375233 0.0020390134066762544 0 0.0020390134066762544 -0.02677217537080772 0 0 0 -0.0063506529270925703 0.0019299492747299474 -0.0032912456127682232 0 -0.0032912456127682232 -0.02222334287799077 0 0 0 -0.0050733484008152196 -0.040768479462196749 -0.0068114288258051192 0 -0.0068114288258051192 -0.010139288696197154 0 0 0 -0.012726942039598475 -0.031910426581236051 0.0030747811125387105 0 0.0030747811125387105 -0.0071862533519337453 0 0 0 -0.0097741699832924502 -0.0037694255298406625 -0.00075627295976325899 0 -0.00075627295976325899 -0.0083177061136655538 0 0 0 -0.0030217829108765536 -0.045064968418423321 0.002619988207275506 0 0.002619988207275506 0.0003341636376426396 0 0 0 -0.011182701195195174 -0.065677456200595646 -0.0059986797029683934 0 -0.0059986797029683934 0.0010814316631236279 0 0 0 -0.016149006134367996 -0.013574270317885079 -0.010295930381518041 0 -0.010295930381518041 -0.00034664304753312392 0 0 0 -0.0034802283413545576 -0.013766245939774067 -0.011767998999106216 0 -0.011767998999106216 0.0069972686176795196 0 0 0 -0.0016922443305236387 0.0057302715320885766 0.016851342877451492 0 0.016851342877451492 0.043138522709070704 0 0 0 0.01221719856028966 -0.0046999684521309426 -0.0025709459262305279 0 -0.0025709459262305279 -0.0017309567672352255 0 0 0 -0.0016077313048415975 -0.013756295702423108 -0.010177155516916267 0 -0.010177155516916267 -0.00026888334761593358 0 0 0 -0.0035062947625097568 -0.013219098001187594 -0.0072126962981616388 0 -0.0072126962981616388 -0.0087541093018196764 0 0 0 -0.0054933018257518097 -0.034768662553092522 0.032374758621616984 0 0.032374758621616984 0.0014793291379611162 0 0 0 -0.0083223333537827404 -0.049989434780673608 -0.0029826555048730339 0 -0.0029826555048730339 -0.016671724430590312 0 0 0 -0.01666528980281598 -0.036775656064491784 0.00056928319199040216 0 0.00056928319199040216 -0.012264022424387512 0 0 0 -0.012259919622219827 -0.0083191038120095321 -0.0041786382741580566 0 -0.0041786382741580566 -0.010330154299777917 0 0 0 -0.0046623145279468614 -0.0079410229118844766 0.021572163356471385 0 0.021572163356471385 -0.014624899996714014 0 0 0 -0.0056414807271497613 -0.0052813377023910313 -0.012820096788797697 0 -0.012820096788797697 -0.0049204967890646989 0 0 0 -0.0025504586228639603 -0.013964631905898786 -0.016578486939514525 0 -0.016578486939514525 0.0042553356838786471 0 0 0 -0.0024273240555050344 -0.0026134202471639559 0.0025260441160758927 0 0.0025260441160758927 -0.0063370924217012311 0 0 0 -0.0022376281672162966 -0.027085687716354188 -0.010881655824691167 0 -0.010881655824691167 -0.0052999812361941038 0 0 0 -0.0080964172381370741 -0.015259031279205082 -0.0081571114867624132 0 -0.0081571114867624132 -0.0040986761764580382 0 0 0 -0.0048394268639157523 -0.0003081739037557945 0.0033173163321891441 0 0.0033173163321891441 -0.0053768397927839405 0 0 0 -0.0014212534241349335 -0.0035912933624433954 0.0039235557551800925 0 0.0039235557551800925 -0.0045605983681560394 0 0 0 -0.0020379729326498591 -0.0045242239641294516 0.0033994869267705272 0 0.0033994869267705272 -0.0046053657514024925 0 0 0 -0.0022823974288829858 -0.014543987487878524 -0.0012570322722465083 0 -0.0012570322722465083 0.0012576215019501902 0 0 0 -0.0033215914964820903 -0.010429867494464486 -0.015018187768133878 0 -0.015018187768133878 0.016401351884805113 0 0 0 0.001492871097585155 -0.010958306104638771 -0.0087395135120367368 0 -0.0087395135120367368 -0.0092215152155229463 0 0 0 -0.0050449553300404293 -0.014572639327880166 -0.0079032256301674302 0 -0.0079032256301674302 0.041496055870226103 0 0 0 0.0067308541355864896 -0.0043306495090378316 0.018359659184427946 0 0.018359659184427946 0.065636466397268833 0 0 0 0.015326454222057695 -0.0013248092443404191 -0.0012537066091627969 0 -0.0012537066091627969 -0.00023405895775852059 0 0 0 -0.00038971705052470718 -0.0070399947886196079 -0.0039014808881787065 0 -0.0039014808881787065 -0.0021404201438151027 0 0 0 -0.0022951037331085944 0.0029764740296414072 0.011623433184672516 0 0.011623433184672516 0.06806886792842004 0 0 0 0.017761335489515195 -0.0045170166629254389 0.013655158107297744 0 0.013655158107297744 0.053121556152406421 0 0 0 0.01215113487237025 -0.0092775908823156724 0.0045392841444572909 0 0.0045392841444572909 -0.0032487192400383093 0 0 0 -0.0031315775305884946 -0.01211281040034083 0.0042883659450376286 0 0.0042883659450376286 -0.0037188226495672473 0 0 0 -0.0039579082624770206 0.01433775060551179 0.020469710173614208 0 0.020469710173614208 0.014625754968437654 0 0 0 0.007240876393487361 -0.0016783504980308894 0.024998421227455103 0 0.024998421227455103 0.0092898228346118827 0 0 0 0.0019028680841453038 -0.013406059775825006 -0.013956792013615172 0 -0.013956792013615172 0.016082907427942286 0 0 0 0.00066921191302932864 -0.0009425945793725965 -0.0049636190019784754 0 -0.0049636190019784754 -0.033742358971435737 0 0 0 -0.0086712383877021182 -0.00067703713472277993 0.0025428881632221963 0 0.0025428881632221963 -0.030504260246136838 0 0 0 -0.0077953243452149046 -0.012922195914337015 0.007916692515112865 0 0.007916692515112865 0.034952055876060623 0 0 0 0.0055074649904309058 -0.010684676699562301 0.0059337094279469926 0 0.0059337094279469926 -0.0033628081310936864 0 0 0 -0.0035118712076638303 -0.0043446090464199782 -0.011658882898725742 0 -0.011658882898725742 0.037251784032813706 0 0 0 0.0082267937465985153 -0.054158914057765094 0.002138880990941526 0 0.002138880990941526 0.00043245340618779798 0 0 0 -0.013431615162894322 -0.089155461797998575 -0.0055063150671068803 0 -0.0055063150671068803 0.00066647389744838026 0 0 0 -0.022122246975137538 -0.0033046353063305028 -0.013546793238676087 0 -0.013546793238676087 0.0065245266637350141 0 0 0 0.00080497283935113823 0.061328614845031715 -0.027659277665157703 0 -0.027659277665157703 0.022808912671871295 0 0 0 0.021034381879225766 -0.0094790631567190226 -0.0089232880395870087 0 -0.0089232880395870087 0.00071265352985955266 0 0 0 -0.0021916024067148709 -0.0098685673863386503 -0.012454524454700168 0 -0.012454524454700168 0.0038088799237707555 0 0 0 -0.0015149218656419633 0.0006964233253333083 -0.0055676493875008726 0 -0.0055676493875008726 -0.0086446124931135182 0 0 0 -0.0019870472919450524 -0.0021985075744692661 0.0053304480880025373 0 0.0053304480880025373 -0.0070290177842649015 0 0 0 -0.0023068813396833754 0.0011995492335377111 0.0070829727466164005 0 0.0070829727466164005 -0.009714397947633735 0 0 0 -0.0021287121785238394 -0.001685560004430706 -0.003965052983320394 0 -0.003965052983320394 -0.0055220541020462519 0 0 0 -0.0018019035266192949 -0.027254892624811636 0.011818264875559648 0 0.011818264875559648 0.041473675594422721 0 0 0 0.0035546957424027886 -0.017214587775377169 -0.0098534808899616855 0 -0.0098534808899616855 0.0018557038421156968 0 0 0 -0.0038397209833153784 -0.011737399953398705 -0.0081518515712768053 0 -0.0081518515712768053 9.2289769140309341e-05 0 0 0 -0.002911277546064588 -0.01182694787215777 -0.0076132224920255342 0 -0.0076132224920255342 -0.0016361928376637941 0 0 0 -0.0033657851774553842 -0.0014218875592924007 -0.016333197227494232 0 -0.016333197227494232 0.007776466647161917 0 0 0 0.0015886447719674068 -0.094201155976001649 0.010302176578038391 0 0.010302176578038391 0.0014845354366296304 0 0 0 -0.023179155134842921 -0.029754358734722812 0.0025687376990175086 0 0.0025687376990175086 0.0095900687967673259 0 0 0 -0.0050410724844888594 -0.023058390783178589 -0.0015874852507964769 0 -0.0015874852507964769 0.00882198773831816 0 0 0 -0.0035591007612151004 -0.010580964506365892 0.0027065609577292538 0 0.0027065609577292538 -0.020884622569490419 0 0 0 -0.0078663967689640846 -0.073001652236987791 0.020362404856138883 0 0.020362404856138883 0.00099836093769190004 0 0 0 -0.018000822824823903 -0.047118172517296143 0.0053482246892209082 0 0.0053482246892209082 0.0024220262356735855 0 0 0 -0.011174036570405624 -0.049005618794618809 0.00057255586387332941 0 0.00057255586387332941 0.0023352317463044281 0 0 0 -0.011667596762078618 -0.082673632933039282 -0.0036329325218453015 0 -0.0036329325218453015 0.005321928600281467 0 0 0 -0.019337926083189461 -0.077322898516664171 -0.014508054080510584 0 -0.014508054080510584 0.0063349477643784291 0 0 0 -0.017746987688071467 -0.015763244772276273 -0.007757720713337829 0 -0.007757720713337829 -0.0022585639208685046 0 0 0 -0.0045054521732861893 -0.054290633962871773 -0.0043324498476232098 0 -0.0043324498476232098 0.00092428822885673445 0 0 0 -0.013341586433503791 0.01997691436160931 0.036330364968425899 0 0.036330364968425899 0.011847891974153368 0 0 0 0.0079562015839406697 -0.019709639797995761 -0.0065078991925988997 0 -0.0065078991925988997 0.02956643137015175 0 0 0 0.0024641978930389948 0.00043175111876120331 0.0098278815321798593 0 0.0098278815321798593 0.0097312776034897269 0 0 0 0.0025407571805627326 -0.022885508230995555 0.021541786357959891 0 0.021541786357959891 -0.0041987877281015606 0 0 0 -0.0067710739897743899 -0.012760825586629887 -0.021204895569184534 0 -0.021204895569184534 0.0032684896501204985 0 0 0 -0.0023730839841272777 -0.010197410020739345 -0.013938109499603439 0 -0.013938109499603439 0.017152649148705172 0 0 0 0.0017388097819914588 -0.0036191439677643045 0.0023352988796348367 0 0.0023352988796348367 -0.020169969474520211 0 0 0 -0.0059472783605711566 -0.013385588711380444 -0.0091316499769657916 0 -0.0091316499769657916 -0.0041911021635857582 0 0 0 -0.0043941727187415264 -0.014677082176936539 -0.0063992819944066678 0 -0.0063992819944066678 -0.0089565685806348647 0 0 0 -0.005908412689392851 -0.016332819680365769 0.00589048031879634 0 0.00589048031879634 -0.0053947088764708887 0 0 0 -0.005431882139209164 -0.011503618859798791 -0.017783093580255288 0 -0.017783093580255288 0.0098237032085985859 0 0 0 -0.0004199789128000557 -0.0282851431354939 -0.015512018511382383 0 -0.015512018511382383 -0.003743761131328651 0 0 0 -0.0080072260667056385 -0.040472665416416143 -0.0097522173991787982 0 -0.0097522173991787982 0.012032279880077601 0 0 0 -0.0071100963840846354 -0.00427329092503237 -0.0013338995423030635 0 -0.0013338995423030635 -0.008833849473302794 0 0 0 -0.0032767850995837912 -0.0030814443223890868 0.00019674216825050269 0 0.00019674216825050269 -0.0064494993553799 0 0 0 -0.0023827359194422467 -0.0087937665114294593 0.0039112419265682494 0 0.0039112419265682494 -0.0043275419169556684 0 0 0 -0.0032803271070962819 -0.0090100234632308675 0.0046167038441187634 0 0.0046167038441187634 -0.0047125936046520968 0 0 0 -0.0034306542669707411 -0.03328283325807866 -0.013940369979812767 0 -0.013940369979812767 0.011297539834472403 0 0 0 -0.0054963233559015626 -0.0044194305275204529 0.0085404227095214544 0 0.0085404227095214544 0.0086760654870492032 0 0 0 0.0010641587398821893 -0.00035450497130188555 -0.0023083429735407603 0 -0.0023083429735407603 -0.0083534119201340313 0 0 0 -0.002176979222858979 -0.014659868413231898 -0.014068598889221868 0 -0.014068598889221868 -0.0048698440673103777 0 0 0 -0.0048824281201355711 -0.0062548308996069569 0.010542848303330778 0 0.010542848303330778 0.028164429797925029 0 0 0 0.0054773997245795162 -0.016476378141715091 0.0021409357943535717 0 0.0021409357943535717 0.00079969482054349696 0 0 0 -0.0039191708302928974 -0.015031318396807214 0.0029723541561543524 0 0.0029723541561543524 0.0030298648280263386 0 0 0 -0.0030003633921952188 -0.049982083441414915 -0.0029889461057251432 0 -0.0029889461057251432 -0.016648001324007362 0 0 0 -0.016657521191355568 -0.036771094901562121 0.0005740400084738714 0 0.0005740400084738714 -0.012249084942787163 0 0 0 -0.01225504496108732 0.059981057568067417 0.017561754950860986 0 0.017561754950860986 0.017778440324279055 0 0 0 0.019439874473086576 -0.009309185995472289 0.0039192837521903508 0 0.0039192837521903508 4.059351531453953e-05 0 0 0 -0.0023171481200394382 -0.024287021759729362 -0.0053573764662976885 0 -0.0053573764662976885 0.032052766869583915 0 0 0 0.0019414362774636471 -0.0076016297570287578 0.00033149204085566875 0 0.00033149204085566875 -0.02941211712658065 0 0 0 -0.0092534367209023277 -0.049908446094832401 0.0028985332370167673 0 0.0028985332370167673 0.00073638051858899989 0 0 0 -0.012293016394060864 -0.080531784178110105 -0.0062043771416246708 0 -0.0062043771416246708 0.00081236935466645621 0 0 0 -0.019929853705860916 -0.014785428802865739 -0.0072750864415264682 0 -0.0072750864415264682 -0.0075038702050254785 0 0 0 -0.0055723247519728243 -0.043918053955315547 0.0059622176524234665 0 0.0059622176524234665 0.00032732390960475162 0 0 0 -0.010897682511427698 -0.055049588215323651 -0.018832117871870495 0 -0.018832117871870495 -0.0017771411255820893 0 0 0 -0.014206682335226407 -0.046021214938719308 0.0040618618408135854 0 0.0040618618408135854 -0.00039597265448361452 0 0 0 -0.011604296898300732 -0.023842313636393015 0.0042146384960757947 0 0.0042146384960757947 -0.0016980841585995932 0 0 0 -0.0063850994487481506 -0.017910836983013451 -0.0085939848533850439 0 -0.0085939848533850439 -0.0062505110571985222 0 0 0 -0.0060403370100529982 -0.036041171046821745 -0.016104336017823163 0 -0.016104336017823163 0.0039062106764223142 0 0 0 -0.0080337400925998628 -0.018145333511012038 -0.0073869666118268895 0 -0.0073869666118268895 0.00030848879863570877 0 0 0 -0.0044592111780940719 -0.0088354077648993279 0.028038169603079754 0 0.028038169603079754 0.0026517261666469949 0 0 0 -0.0015459203995629167 -0.016902254387037186 -0.013314402246861812 0 -0.013314402246861812 -0.0043951408092708366 0 0 0 -0.00532434879907695 -0.0057229817577716825 -0.0015232084223132645 0 -0.0015232084223132645 -0.0059512663125824003 0 0 0 -0.0029185620175885205 -0.011799650582943402 0.0038809536530253824 0 0.0038809536530253824 -0.0043742029377164615 0 0 0 -0.0040434633801649678 -0.021300165095924101 -0.0081625674256907005 0 -0.0081625674256907005 -0.0097085794285176885 0 0 0 -0.0077521861311104483 -0.020649986265578516 0.0058960244106334193 0 0.0058960244106334193 -0.0061268322941423984 0 0 0 -0.0066942046399302282 -0.022820230299441489 -0.006001529470959284 0 -0.006001529470959284 0.0082143533688765757 0 0 0 -0.0036514692326412301 -0.024291141351086482 -0.011274778165170661 0 -0.011274778165170661 0.009789087897479315 0 0 0 -0.0036255133634017916 -0.027374017082445135 0.030699367933918059 0 0.030699367933918059 0.0088643610897116698 0 0 0 -0.0046274139981833384 0.0016819565475952869 0.042122666792598948 0 0.042122666792598948 0.023826796296891772 0 0 0 0.0063771882111217648 0.036359179979465105 -0.00049300940891475881 0 -0.00049300940891475881 0.023175508914264592 0 0 0 0.014883672223432433 -0.025588379681138643 -0.0030627455253078896 0 -0.0030627455253078896 0.027034622725300446 0 0 0 0.00036156076104044282 -0.0019425188442916946 0.0022796614863511452 0 0.0022796614863511452 -0.0067665957661280016 0 0 0 -0.002177278652604924 -0.017113524648925488 -0.010187355209850674 0 -0.010187355209850674 0.00063378362440585922 0 0 0 -0.0041199352561299141 -0.032786970134916493 0.028390627157088566 0 0.028390627157088566 -1.912288754568614e-05 0 0 0 -0.0082015232556155171 -0.0096120052239774822 -0.0031047161272694523 0 -0.0031047161272694523 0.014997427258152785 0 0 0 0.0013463555085437839 -0.010313925561432721 -0.0065901652662709864 0 -0.0065901652662709864 -0.012748861056256583 0 0 0 -0.0057656966544223504 -0.014042516049367723 0.0039797720354009022 0 0.0039797720354009022 -0.0027102179086016739 0 0 0 -0.0041881834894923475 -0.039256236969339525 0.0027631611527236533 0 0.0027631611527236533 0.025161314187225448 0 0 0 -0.0035237306955285819 -0.048593724465377602 0.001323367058962858 0 0.001323367058962858 -0.001051551367451501 0 0 0 -0.012411318958207278 -0.074442508732575255 -0.0028292970492587214 0 -0.0028292970492587214 -0.0021272224575380819 0 0 0 -0.019142432797528336 -0.010315101907475539 -0.0085125353638967685 0 -0.0085125353638967685 0.0018272099784242823 0 0 0 -0.0021219729822628056 -0.026405712455809936 0.0037741037077622186 0 0.0037741037077622186 -0.0046882933359368648 0 0 0 -0.0077735014479366985 -0.02765123978362714 -0.0064668319489461232 0 -0.0064668319489461232 -0.00938009646901573 0 0 0 -0.0092578340631607175 -0.10447358948223567 -0.00050119170361132004 0 -0.00050119170361132004 0.0027561498017019126 0 0 0 -0.025429359920133426 -0.058326143303667796 0.00037423484111734351 0 0.00037423484111734351 0.00081621606556647741 0 0 0 -0.014377481809525347 0.01475998862282478 0.010326686243144478 0 0.010326686243144478 0.05749886786298268 0 0 0 0.018064714121451872 0.04704768721376798 -0.0014503389592891852 0 -0.0014503389592891852 0.14713559977503265 0 0 0 0.048545821747200152 -0.014437536846789285 -0.017889144784017846 0 -0.017889144784017846 0.011255545943121559 0 0 0 -0.00079549772591690909 -0.023322702868371487 -0.015299833153505499 0 -0.015299833153505499 0.0091397464511953075 0 0 0 -0.0035457391042940101 -0.0077435773749779755 -0.016111837993430207 0 -0.016111837993430207 0.027460401923384 0 0 0 0.0049292061371015074 -0.0018579513596045788 -0.00043096293913763573 0 -0.00043096293913763573 -0.029189700265139118 0 0 0 -0.0077619129061859415 -0.0039191403652758597 -0.00067960525425115009 0 -0.00067960525425115009 -0.0089413454412491655 0 0 0 -0.0032151214516312559 -0.034796402323518924 -0.00055210558267873577 0 -0.00055210558267873577 0.0060979349740634126 0 0 0 -0.0071746168373639091 0.0011210251057287568 -0.0027005045444929363 0 -0.0027005045444929363 -0.029989799479912871 0 0 0 -0.0072171935935460563 -0.091379256147925705 0.0077928978760964385 0 0.0077928978760964385 0.00055264638994186738 0 0 0 -0.022706652439495947 -0.018753805641117616 0.021548397398483354 0 0.021548397398483354 -0.0062336569468954828 0 0 0 -0.0062468656470036077 -0.011740458098861428 -0.020182287110143582 0 -0.020182287110143582 -3.4407611462894394e-05 0 0 0 -0.0029437164275810113 -0.0086655239988645549 0.0039755099402925317 0 0.0039755099402925317 0.0074825977668349216 0 0 0 -0.00029573155800740941 -0.02882683348628387 -0.0090926917065879825 0 -0.0090926917065879825 0.0084679557244299875 0 0 0 -0.0050897194404634777 -3.5533060921754539e-05 0.0058537508782603182 0 0.0058537508782603182 -0.0015991061483619368 0 0 0 -0.00040865980232092196 0.0024049409630556608 0.0079244744719006704 0 0.0079244744719006704 0.0025026825156828011 0 0 0 0.0012269058696846163 -0.037840094171769062 -0.014149220303304875 0 -0.014149220303304875 -0.0027390697937945269 0 0 0 -0.010144790991390894 -0.02200187781320867 -0.016339602082485666 0 -0.016339602082485666 0.002556355667057808 0 0 0 -0.0048613805365377571 -0.061494733737821841 -0.011104433322606719 0 -0.011104433322606719 -0.0041985731478199114 0 0 0 -0.016423326721410423 -0.016826992125156703 0.031774916401075104 0 0.031774916401075104 0.00076535615137185431 0 0 0 -0.0040154089934463233 -0.018449260959615084 0.029805067108270245 0 0.029805067108270245 0.00055637930704455218 0 0 0 -0.0044732204131425826 -0.019288260921106359 0.030946932340696343 0 0.030946932340696343 6.8385556946992665e-05 0 0 0 -0.0048049688410397584 -0.018131453974502942 -0.019219502890638007 0 -0.019219502890638007 0.0025819961128282776 0 0 0 -0.0038873644654186523 -0.021256694292449186 -0.016819985007946514 0 -0.016819985007946514 0.0014206940780019696 0 0 0 -0.0049590000536117633 0.038277290826828653 0.020922876432715724 0 0.020922876432715724 0.030030175505616319 0 0 0 0.017076866583111243 -0.0052704366530431541 -0.0013839397897766454 0 -0.0013839397897766454 -0.0017614384537412479 0 0 0 -0.0017579687766961008 -0.009762284621427841 0.0041293770122539193 0 0.0041293770122539193 -0.0032555777264436287 0 0 0 -0.0032544655869678673 -0.0078550525118668765 0.0045519700021270215 0 0.0045519700021270215 0.0010982889945036819 0 0 0 -0.0016891908793407978 0.0014710734134372044 -0.0076263857325860121 0 -0.0076263857325860121 0.041065442596392721 0 0 0 0.010634129002457485 -0.046794396669240158 -0.016575010784911557 0 -0.016575010784911557 -0.0023476939706245856 0 0 0 -0.012285522659966195 -0.0049279705852323056 0.0021825430379340525 0 0.0021825430379340525 -0.0046223035659825277 0 0 0 -0.0023875685378037083 -0.075608660566925959 -0.004143640588311806 0 -0.004143640588311806 -0.0025013082766616687 0 0 0 -0.019527492210896905 -0.048622659004197093 0.0018095775196041728 0 0.0018095775196041728 -0.00097283525799939444 0 0 0 -0.012398873565549112 -0.052765739623373581 -0.0031076651969159236 0 -0.0031076651969159236 0.00072908930604242972 0 0 0 -0.013009162579332767 -0.0064034304662644714 0.0040378237490113012 0 0.0040378237490113012 -0.0043107561538470902 0 0 0 -0.0026785466550278904 -0.014034939563253489 -0.0041317135781862024 0 -0.0041317135781862024 0.0069924947318213415 0 0 0 -0.0017606112078580247 -0.01043000558794365 0.007779351636407787 0 0.007779351636407787 0.019293056711231882 0 0 0 0.0022157627808220559 0.001129615276531392 0.028297575092260163 0 0.028297575092260163 0.0050505915963812986 0 0 0 0.001545051718228118 -0.00086620091453274871 0.0019866996131795269 0 0.0019866996131795269 -0.0068047177281690798 0 0 0 -0.0019177296606754574 -0.014773359703028621 0.020650242080644476 0 0.020650242080644476 -0.013195586357381828 0 0 0 -0.0069922365151025012 -0.010420214176555587 -0.020245775621991646 0 -0.020245775621991646 -0.0061275224173973353 0 0 0 -0.0041369341484882582 -0.0063251979480055641 0.0041994135524799662 0 0.0041994135524799662 -0.0042635745970797164 0 0 0 -0.0026471931362713197 -0.018040081997340165 0.0035941133647679879 0 0.0035941133647679879 0.025645840232298281 0 0 0 0.0019014395587395312 -0.0032774280029070901 0.018683773327822117 0 0.018683773327822117 -0.009414726582648747 0 0 0 -0.0031730386463888482 -0.0054561493295103292 0.013277697760175622 0 0.013277697760175622 -0.01571055114441311 0 0 0 -0.005291675118481054 -0.0041313743860085239 -0.0095604704698526721 0 -0.0095604704698526721 -0.011187973908802551 0 0 0 -0.0038298370737027687 -0.0032026834574817031 -0.014644168142700309 0 -0.014644168142700309 -0.0074720185209908863 0 0 0 -0.0026686754946181335 -0.057436430585207074 -0.0046883244624826154 0 -0.0046883244624826154 0.012478431245550314 0 0 0 -0.011239499834914179 -0.038497565213463432 -0.0082922903368172762 0 -0.0082922903368172762 0.0043062438914691081 0 0 0 -0.0085478303304986139 -0.046171699678117531 -0.0087648738598385539 0 -0.0087648738598385539 0.0048925485285333248 0 0 0 -0.010319787787396048 -0.076181074125325432 0.021086294867096539 0 0.021086294867096539 0.011554294128079734 0 0 0 -0.016156694999311438 -0.059263484775103265 0.019998658349848236 0 0.019998658349848236 0.010258027420208538 0 0 0 -0.012251364338723619 -0.012843865167047297 0.0036824296368893946 0 0.0036824296368893946 -0.0045833883680681271 0 0 0 -0.0043568133837788544 0.065171220160483878 0.018301748516237601 0 0.018301748516237601 0.014453533469348523 0 0 0 0.019906188407458059 -0.03965552815666256 -0.0070513888813897151 0 -0.0070513888813897151 -0.0098449596541794939 0 0 0 -0.012375121952710517 -0.032130610858986559 0.0033063915248989729 0 0.0033063915248989729 -0.0057209353902182855 0 0 0 -0.0094628865623012145 -0.022417642433458517 -0.0057951285706343038 0 -0.0057951285706343038 0.019623927436971167 0 0 0 -0.00069842874912184449 -0.022185112495172101 0.0050518123642467059 0 0.0050518123642467059 -0.0037419078549235001 0 0 0 -0.0064817550875238975 -0.020130678808839345 -0.008763235020798725 0 -0.008763235020798725 -0.010788252812301256 0 0 0 -0.0077297329052851494 -0.06339008679586125 -0.014275577069259526 0 -0.014275577069259526 0.00034906800532669841 0 0 0 -0.01576025469763364 -0.063658982193936009 -0.013919976909708316 0 -0.013919976909708316 -0.00087024079215807654 0 0 0 -0.01613230574652352 -0.0077880048583873762 0.026660976951442261 0 0.026660976951442261 0.0023826680639653652 0 0 0 -0.0013513341986055583 -0.0074631908390369039 -0.011307615419284739 0 -0.011307615419284739 -0.00060081667952105455 0 0 0 -0.0020160018796395729 -0.0002038395802559804 -0.0030493582725374391 0 -0.0030493582725374391 -0.02863002622829346 0 0 0 -0.0072084664521373668 0.00015140012065509301 0.0023856837725350077 0 0.0023856837725350077 -0.030431062859080482 0 0 0 -0.0075699156846063265 -0.022114033381562721 0.0035310179336627253 0 0.0035310179336627253 0.00072848049736187195 0 0 0 -0.0053463882210502125 0.00078744194580374072 -0.0024380181926246525 0 -0.0024380181926246525 0.03369401572566777 0 0 0 0.0086203644178678707 0.0055546471883279047 -0.0024290522449464669 0 -0.0024290522449464669 0.057772291957533695 0 0 0 0.015831734786465407 -0.012921202741029141 -0.0099073868592201852 0 -0.0099073868592201852 -0.012567550560198069 0 0 0 -0.0063721883253068023 -0.044632017592902425 -0.002257184841008765 0 -0.002257184841008765 0.0047367407213356194 0 0 0 -0.0099738192178916718 -0.00046488411110384709 0.00059594993153000431 0 0.00059594993153000431 -0.031334651720701212 0 0 0 -0.0079498839579512648 -0.063214112991621205 -0.01981845006413244 0 -0.01981845006413244 0.0034118867393028163 0 0 0 -0.01495055656307958 -0.009148987304654306 0.004068809799756312 0 0.004068809799756312 0.0053653482105842643 0 0 0 -0.00094590977351751131 -0.026518023018879525 -0.012496189836037258 0 -0.012496189836037258 0.012987064395151293 0 0 0 -0.0033827396559320405 -0.024002574471036986 -0.010084218149613466 0 -0.010084218149613466 0.011993562061060781 0 0 0 -0.0030022531024940513 -0.023368728955060713 0.0055804078070720541 0 0.0055804078070720541 -0.00060290945855305967 0 0 0 -0.0059929096034034481 -0.036859095510293691 -0.0057954418907023575 0 -0.0057954418907023575 0.0071313761211834747 0 0 0 -0.0074319298472775436 -0.027072782479078298 0.0040140835407602308 0 0.0040140835407602308 -0.00037280986253234024 0 0 0 -0.0068613980854026584 -0.016965445746237817 -0.0097355403768519047 0 -0.0097355403768519047 -0.010018712257605585 0 0 0 -0.006746039500960848 -0.047082774372954814 -0.0019945821762167443 0 -0.0019945821762167443 0.0054299127552971393 0 0 0 -0.010413215404414436 -0.081549596348566858 0.0036954282007611583 0 0.0036954282007611583 0.018703819902642499 0 0 0 -0.015711444111481052 -0.040160697696728531 -0.0077034336382080116 0 -0.0077034336382080116 -0.0088538006138939203 0 0 0 -0.012253624577655612 -0.031502845876968402 0.0038623266941338369 0 0.0038623266941338369 -0.006444804299943244 0 0 0 -0.0094869125442279129 -0.028588882686797178 0.0060034633420791459 0 0.0060034633420791459 -0.001629219131535494 0 0 0 -0.0075545254545831683 -0.031456874209935017 -0.013515304428798607 0 -0.013515304428798607 -0.0078391906339244262 0 0 0 -0.0098240162109648529 -0.0087884053596966986 -0.0036090515111096249 0 -0.0036090515111096249 -0.0098461540173280411 0 0 0 -0.0046586398442561849 0.0018471669501162469 -0.017506781751001066 0 -0.017506781751001066 0.023610179630601469 0 0 0 0.006364336645179422 0.0012471922959783829 0.0035558062801393162 0 0.0035558062801393162 -0.0062374001421361966 0 0 0 -0.0012475519615394524 -0.0090782312016526312 0.017082281003115818 0 0.017082281003115818 -0.0040790207387724209 0 0 0 -0.003289312985106374 -0.0086931892950566914 -0.020649075951502449 0 -0.020649075951502449 0.00085649811966836964 0 0 0 -0.0019591727938471637 -0.027387146794372728 0.0054574190980407229 0 0.0054574190980407229 -0.0027403842797041589 0 0 0 -0.0075318827685192224 -0.027574982971191406 -0.011069983932344948 0 -0.011069983932344948 -0.0099619859920715651 0 0 0 -0.0093842422408157381 -0.0019498830295886791 0.0047722347391549701 0 0.0047722347391549701 -0.0030319377619822362 0 0 0 -0.0012454551978927286 -0.011485895206924862 -0.013438013003377764 0 -0.013438013003377764 0.017549857933394641 0 0 0 0.0015159906816174518 -0.059955869458777067 0.0093294898368726752 0 0.0093294898368726752 -0.00048112521283671938 0 0 0 -0.015109248667903419 0.0055532491331254097 -0.0096019048786483152 0 -0.0096019048786483152 0.020598805055052627 0 0 0 0.0065380135470444745 -0.025718889330712036 -0.017509555828202628 0 -0.017509555828202628 0.0031699426723524882 0 0 0 -0.0056372366645899286 -0.022063571132611103 -0.0040508970435170592 0 -0.0040508970435170592 0.028788407986079435 0 0 0 0.0016812092133670839 -0.063208419800220808 -0.0089238635958701195 0 -0.0089238635958701195 -0.0017398141798415315 0 0 0 -0.016237058495015565 -0.042946299745244963 0.003382302578788304 0 0.003382302578788304 -0.00062890501336757693 0 0 0 -0.010893801189653132 0.0084544101352925782 0.0036299672130899376 0 0.0036299672130899376 -0.0012612825943606118 0 0 0 0.0017982818852329899 -0.0044943022489931424 0.0037720553647462678 0 0.0037720553647462678 -0.004760220394886475 0 0 0 -0.0023136306609699035 -0.022967662382691566 -0.01123820468840684 0 -0.01123820468840684 0.007261262361633547 0 0 0 -0.0039266000052644995 -0.064280862011692974 -0.01007719354184149 0 -0.01007719354184149 -0.00077438720879998302 0 0 0 -0.016263812305123224 -0.044055731052634939 0.0042901102409424723 0 0.0042901102409424723 -0.00021898508025330887 0 0 0 -0.011068679033222065 -0.010845974538629576 0.0058276561539199181 0 0.0058276561539199181 0.028923928607150332 0 0 0 0.0045194885171301854 -0.015430726797880601 -0.018290573431319374 0 -0.018290573431319374 -0.00071948771284180424 0 0 0 -0.0040375536276806567 -0.0166634129433616 0.029774232752878271 0 0.029774232752878271 -0.0023907036790964398 0 0 0 -0.0047635291556142878 -0.040958837062434493 0.0038026805235474859 0 0.0038026805235474859 0.0043559453965966236 0 0 0 -0.009150722916459509 -0.033719655265673311 0.00026106382135365758 0 0.00026106382135365758 0.0048737147843262267 0 0 0 -0.0072114851203367658 -0.0086587981421815882 -0.0039999596434103397 0 -0.0039999596434103397 0.0095620959556946411 0 0 0 0.00022582445337826496 -0.011438419011914256 -0.0038828317150442701 0 -0.0038828317150442701 0.013414290262636661 0 0 0 0.00049396781268060477 -0.015697900049030274 -0.0063082111765732718 0 -0.0063082111765732718 -0.010500702190362655 0 0 0 -0.0065496505598482326 -0.014039837563699697 -0.0042615688348804784 0 -0.0042615688348804784 -0.0090211172605923207 0 0 0 -0.0057652387060730037 -0.019033150181263433 0.0038025500147388898 0 0.0038025500147388898 -0.0049724252630778901 0 0 0 -0.0060013938610853322 -0.018672483051911402 0.0052516617937095143 0 0.0052516617937095143 -0.0047578724998591955 0 0 0 -0.0058575888879426512 -0.014290985340831897 -0.0047057550820826244 0 -0.0047057550820826244 -0.0027680590182231901 0 0 0 -0.0042647610897637855 -0.015824085589670623 0.0022598815187631913 0 0.0022598815187631913 0.031675008233912151 0 0 0 0.0039627306610603846 0.0039817234364975859 0.0052438245301478347 0 0.0052438245301478347 -0.0017866268052064427 0 0 0 0.00054877415782278276 -0.0086733549895587903 0.02999386664158989 0 0.02999386664158989 0.00097777578567637136 0 0 0 -0.0019238948009706602 -0.023370083946711195 -0.016978563307105884 0 -0.016978563307105884 -0.00039139078244398995 0 0 0 -0.0059403686822887547 -0.0036967450954501491 0.032534428328504839 0 0.032534428328504839 0.0027292908065863486 0 0 0 -0.00024186357221600563 0.0062186143582349269 -0.0053533064523662664 0 -0.0053533064523662664 -0.0032782690761086787 0 0 0 0.00073508632053156768 0.0098951713284824369 -0.00039901667959897982 0 -0.00039901667959897982 0.0026101988438322829 0 0 0 0.0031263425430786834 -0.030597066110339688 0.02981339589819415 0 0.02981339589819415 0.0020495466261172268 0 0 0 -0.0071368798710555459 -0.018124465221467712 0.033714945374502148 0 0.033714945374502148 0.0026380761660553809 0 0 0 -0.0038715972638531104 -0.045076184941892326 -0.0065389098502491045 0 -0.0065389098502491045 -0.0054183221120032276 0 0 0 -0.012623626763473889 -0.035027664246674466 0.0027323253263897384 0 0.0027323253263897384 -0.0036947948180857696 0 0 0 -0.0096806147661900634 -0.010493862440476759 -0.014336599985310838 0 -0.014336599985310838 0.0094646155441027169 0 0 0 -0.00025731172409351744 0.0057034261136377218 -0.0013254334973263322 0 -0.0013254334973263322 0.031531950877203729 0 0 0 0.0093088442477103628 0.0076310148782649523 -0.0021181761338437133 0 -0.0021181761338437133 0.058218272404233162 0 0 0 0.016462321820624515 -0.015650007054791092 0.0032355853155040578 0 0.0032355853155040578 0.018635496423358929 0 0 0 0.00074637234214196269 0.0069047047534658429 0.0077630416903536944 0 0.0077630416903536944 0.00047068613204454685 0 0 0 0.0018438477213775957 -0.0054650896325283416 -0.0029213186947668474 0 -0.0029213186947668474 -0.020671891431901179 0 0 0 -0.0065342452661073802 -0.010740635055195791 -0.0029152306082010637 0 -0.0029152306082010637 -0.022023172841016736 0 0 0 -0.0081909519740531178 -0.014818776201104028 -0.007412461501118621 0 -0.007412461501118621 -0.0026532784991200598 0 0 0 -0.004368013675056015 -0.016819244618374085 0.012794074835769331 0 0.012794074835769331 -0.0063827221286792413 0 0 0 -0.0058004916867634981 -0.0087382513781108229 -0.020680203356633675 0 -0.020680203356633675 0.00048932909532994895 0 0 0 -0.0020622305706952393 -0.0027785058472089286 0.0060308405836712459 0 0.0060308405836712459 -0.016910998331606697 0 0 0 -0.0049223760447039133 -0.0030271032370786377 -0.0099971135044809867 0 -0.0099971135044809867 -0.011921865527752651 0 0 0 -0.0037372421912078291 -0.010383219507252073 0.027330985967391364 0 0.027330985967391364 -0.0079203261639297917 0 0 0 -0.0045758864177954939 -0.011637741569912152 -0.014653098682028354 0 -0.014653098682028354 -0.0081668013052154098 0 0 0 -0.0049511357187819183 -0.0027666305676133686 0.0034830627243630972 0 0.0034830627243630972 -0.0055188268950760871 0 0 0 -0.0020713643656723639 -7.4329446594393125e-05 0.0048711346433487736 0 0.0048711346433487736 -0.0034987393474022153 0 0 0 -0.00089326719849915255 -0.011149060382513731 0.029095453100101865 0 0.029095453100101865 0.0018302690213500838 0 0 0 -0.0023296978402911339 -0.013615791900302376 -0.015146081096910791 0 -0.015146081096910791 -6.8403107846615185e-05 0 0 0 -0.0034210487520373034 -0.032741480571429657 -0.0081013884752285867 0 -0.0081013884752285867 -0.009128939805368854 0 0 0 -0.010467605094199627 -0.028064241335305714 0.0044308226953588183 0 0.0044308226953588183 -0.0057495840457760386 0 0 0 -0.0084534563452704371 0.0080676631576840352 0.029844949218965716 0 0.029844949218965716 0.010395460112623933 0 0 0 0.0046157808175770199 -0.053865567479224843 -0.0049444182259917582 0 -0.0049444182259917582 -0.0089237611294424035 0 0 0 -0.015697332152166812 -0.039427830242215987 0.0015254266958819652 0 0.0015254266958819652 -0.0058189812552295163 0 0 0 -0.011311702874361377 -0.025774854640532086 0.009893666701545567 0 0.009893666701545567 -0.0045950323400432147 0 0 0 -0.0075924717451438806 -0.0027997980194160998 -0.012726778139044548 0 -0.012726778139044548 0.023557327152134322 0 0 0 0.0051893822831795555 -0.014880135084576317 -0.010704926810774174 0 -0.010704926810774174 0.035966064500897031 0 0 0 0.0052714823540801793 -0.033373396106366526 -0.0074074547911038846 0 -0.0074074547911038846 0.033945649453911653 0 0 0 0.00014306333688626771 -0.02461350949782376 -0.014493149010150613 0 -0.014493149010150613 0.0050585729677372626 0 0 0 -0.0048887341325216105 -0.0068026237520442678 -0.009996244273700489 0 -0.009996244273700489 0.0024829440613459153 0 0 0 -0.0010799199226745743 -0.028026212029226616 0.032798490116695944 0 0.032798490116695944 0.0090330975327425067 0 0 0 -0.0047482786241209718 -0.055627467776566075 0.016301004209494541 0 0.016301004209494541 0.012423466738292532 0 0 0 -0.010801000259568372 -0.036684104513205612 -0.0067140496034230959 0 -0.0067140496034230959 0.0052986441669794493 0 0 0 -0.0078463650865565615 0.0051714535792832111 -0.021951575002103055 0 -0.021951575002103055 0.017564033561241754 0 0 0 0.0056838717851312309 -0.0083006739966115448 0.0019155731418655508 0 0.0019155731418655508 0.011188829153885388 0 0 0 0.00072203878931845905 -0.0088933554449800722 -0.0081603826631316961 0 -0.0081603826631316961 0.019665578151218943 0 0 0 0.0026930556765597247 -0.01933029859537597 -0.006840299984443533 0 -0.006840299984443533 0.022947537983268332 0 0 0 0.00090430984697308786 -0.020104785468691364 -0.0064281641321294863 0 -0.0064281641321294863 0.020682752191460818 0 0 0 0.00014449168069235671 -0.0042033634603424012 0.013205050102115541 0 0.013205050102115541 0.042742559605864802 0 0 0 0.0096347990363805959 0.00030211862224351071 -0.010514810780453326 0 -0.010514810780453326 0.022328241211120731 0 0 0 0.0056575899583410777 -0.0062549087151055893 0.025757175566895163 0 0.025757175566895163 0.0048572780192355225 0 0 0 -0.00034940767396740569 -0.011898109488679642 -0.0090235256328550784 0 -0.0090235256328550784 -0.0047169978564176596 0 0 0 -0.00415377683627427 -0.012216637164653002 0.0087520872316485844 0 0.0087520872316485844 0.025385817717661005 0 0 0 0.0032922951382520042 -0.014706111718874442 -0.0045835534582647219 0 -0.0045835534582647219 0.0037172488835431131 0 0 0 -0.0027472157088328387 -0.012073496780303797 -0.0054281648746835054 0 -0.0054281648746835054 -0.016840309389260899 0 0 0 -0.0072284515423911705 -0.0030101359515214473 0.011574494020075134 0 0.011574494020075134 0.015920528340481854 0 0 0 0.0032275980972401013 -0.0051659217313137218 -0.0018478705281075409 0 -0.0018478705281075409 -0.0099063553807574346 0 0 0 -0.0037680692780177882 -0.05857713689072705 -0.0044372348535785889 0 -0.0044372348535785889 0.00094595707008882091 0 0 0 -0.014407794955159536 -0.016729246908598939 -0.0063480540564987567 0 -0.0063480540564987567 -0.010331962957872132 0 0 0 -0.0067653024666177661 0.0026780160023294735 0.0055518885205807778 0 0.0055518885205807778 -0.0023697735971959389 0 0 0 7.7060601283384517e-05 -0.011427251785794724 0.0075706944325144411 0 0.0075706944325144411 0.037780235984260224 0 0 0 0.006588246049616376 -0.10217647715300843 0.0096332003978933187 0 0.0096332003978933187 0.0015239252436960449 0 0 0 -0.025163137977328054 -0.00562177468745108 0.0035616305873769822 0 0.0035616305873769822 -0.0048644320519395882 0 0 0 -0.0026215516848476675 0.0019401065471668297 -0.00038923318975376056 0 -0.00038923318975376056 -0.0060393162271074607 0 0 0 -0.0010248024199851578 -0.019318722136583838 -0.010512855890383477 0 -0.010512855890383477 0.0042417870711846106 0 0 0 -0.0037692337663497999 -0.030486232069002694 -0.013399748969762759 0 -0.013399748969762759 0.00088739891721689723 0 0 0 -0.0073997082879464493 -0.0085629908726666502 -0.0067783798277133191 0 -0.0067783798277133191 -0.01003625242275155 0 0 0 -0.0046498108238545487 -0.0025895010620567058 0.0026389001489254432 0 0.0026389001489254432 -0.0054333059980990065 0 0 0 -0.002005701765038928 -0.00013771997629867007 -0.0036273526524805561 0 -0.0036273526524805561 -0.0043711218481633941 0 0 0 -0.0011272104561155186 -0.019787779394076652 -0.01150120921256164 0 -0.01150120921256164 0.0078675244013783896 0 0 0 -0.002980063748174569 -0.010021241918932028 0.00017455796684946734 0 0.00017455796684946734 0.0035763280910445228 0 0 0 -0.0016112284569718971 -0.040701214926120811 -0.019303215387610439 0 -0.019303215387610439 -0.0039463476295742705 0 0 0 -0.011161890638923776 0.0067566401532945797 0.013429965384400999 0 0.013429965384400999 0.044144676346970502 0 0 0 0.012725329125066187 -0.017068554889720415 -0.0061084332408616326 0 -0.0061084332408616326 -0.0026628881402460391 0 0 0 -0.0049328607574915459 -0.00064205179909893008 0.0033409700793505573 0 0.0033409700793505573 -0.005619102760853846 0 0 0 -0.0015652886399881946 0.0014761374911741072 0.0039319026208759229 0 0.0039319026208759229 -0.0056953455650584871 0 0 0 -0.0010548020184710958 -0.017856619206815472 0.013736081012334755 0 0.013736081012334755 0.00077898369889339847 0 0 0 -0.0042694088769807959 -0.011598905551662986 -0.017595573208587317 0 -0.017595573208587317 0.012269545589117747 0 0 0 0.0001676600093636349 -9.949951815666977e-05 0.0075636624306024899 0 0.0075636624306024899 0.0034680001593292466 0 0 0 0.00084212516029314247 -0.0037882632382702022 0.0067273874002562253 0 0.0067273874002562253 0.0028885572111707891 0 0 0 -0.00022492650677485328 -0.001004255753860225 0.0041779050442675575 0 0.0041779050442675575 -0.0046557116231841804 0 0 0 -0.001414991844261102 -0.03665761454311741 0.0046864448738241932 0 0.0046864448738241932 -0.00067883049105970815 0 0 0 -0.0093341112585442788 -0.017818864409543771 0.00093378461245430082 0 0.00093378461245430082 0.0069257480952986256 0 0 0 -0.002723279078561288 -0.008974826644572706 -0.001320091482809635 0 -0.001320091482809635 0.0084590484089269447 0 0 0 -0.00012894455891143686 -0.04057915368769386 0.0051637789647210027 0 0.0051637789647210027 -0.0015062013990634012 0 0 0 -0.010521338771689315 0.035275432615712726 0.044011315674372053 0 0.044011315674372053 0.031363166222149991 0 0 0 0.016659649709465679 -0.011807284367580273 0.024748584732260881 0 0.024748584732260881 -0.0051958959674438532 0 0 0 -0.0042507950837560315 -0.011461415205566317 -0.01934401588122367 0 -0.01934401588122367 -0.0041830316646476184 0 0 0 -0.0039111117175534282 -0.010799270564701837 0.0032996590375457832 0 0.0032996590375457832 0.0038742359261929957 0 0 0 -0.0017312586596272103 -0.0043242536445682123 0.0028985831523547284 0 0.0028985831523547284 -0.0037065429316347157 0 0 0 -0.0020076991440507322 0.015012345506139845 -0.0027217143859156172 0 -0.0027217143859156172 0.0063901810567213724 0 0 0 0.0053506316407153087 -0.013819754308295878 -0.0070553850535625094 0 -0.0070553850535625094 -0.0037035295888829811 0 0 0 -0.0043808209742947357 -0.015527066618333932 -0.0087796847165999836 0 -0.0087796847165999836 -0.0028384932707811728 0 0 0 -0.0045913899722788004 -0.0046730002587942847 0.0050239234277863363 0 0.0050239234277863363 -0.00077568313138279624 0 0 0 -0.0013621708475442702 -0.043153490572177433 -0.008078526917001172 0 -0.008078526917001172 0.00089900002092435649 0 0 0 -0.010563622637813241 -0.036898948623095923 -0.012204847583238143 0 -0.012204847583238143 0.0030142263953161219 0 0 0 -0.008471180556944985 -0.0038113478107668556 0.0013037255746188533 0 0.0013037255746188533 -0.0012738352290683336 0 0 0 -0.001271295759958797 -0.055115135939022009 0.026774908384554541 0 0.026774908384554541 0.0045652985068653784 0 0 0 -0.012637459358039227 -0.069678986623199768 0.018191338350108804 0 0.018191338350108804 0.00056130740242665844 0 0 0 -0.017279419805193263 -0.0061431476820698327 0.0053196283510697218 0 0.0053196283510697218 0.0028825267852565783 0 0 0 -0.00081515522420330666 -0.0066936437791102477 -0.010956365385867001 0 -0.010956365385867001 0.006155124946202073 0 0 0 -0.00013462970822705755 0.0071166065564017521 -0.012000585544040016 0 -0.012000585544040016 0.0010397346300871219 0 0 0 0.0020390852966222263 -0.013972535566133773 -0.00094377929274366834 0 -0.00094377929274366834 -0.014780364220085607 0 0 0 -0.007188224946554897 0.022293835942944484 0.023632620162794153 0 0.023632620162794153 0.049109706856948765 0 0 0 0.017850885699973312 -0.0049426729928841728 -0.0049273528749721844 0 -0.0049273528749721844 -0.0081005204987427588 0 0 0 -0.0032607983729067325 -0.012142574755122183 -0.01088602680346562 0 -0.01088602680346562 0.014239374171194051 0 0 0 0.00052419985401796348 0.035200598272996153 0.017684943017356403 0 0.017684943017356403 0.0096209195452915397 0 0 0 0.011205379454571895 -0.010578776310446809 0.0027140284655433932 0 0.0027140284655433932 0.0032366943064221255 0 0 0 -0.0018355205010061708 -0.011993105132702908 0.027232022964122304 0 0.027232022964122304 -0.006733492325587731 0 0 0 -0.0046816493645726043 -0.010441076445476705 -0.016852893376638978 0 -0.016852893376638978 -0.0020820239338907864 0 0 0 -0.0031307750948418867 -0.010241992121562373 0.0034058089866194899 0 0.0034058089866194899 -0.001950868684853526 0 0 0 -0.0030482152016039735 -0.025137442569060142 -0.0072143392351767983 0 -0.0072143392351767983 0.029005952755651959 0 0 0 0.00096712754664795425 -0.0088386131238020749 0.022528172637264365 0 0.022528172637264365 0.018122254359484335 0 0 0 0.0023209103089204541 -0.012097095416712139 -0.0087052662268133352 0 -0.0087052662268133352 0.00075262229002437397 0 0 0 -0.0028361182816719344 -0.066097927840288631 0.0017182701419517488 0 0.0017182701419517488 0.00070776642149210367 0 0 0 -0.016347540354699121 -0.11840783075302275 -0.005062910629177908 0 -0.005062910629177908 0.00090192954928139391 0 0 0 -0.02937647530093529 -0.004671771113627321 0.004591786806641969 0 0.004591786806641969 0.048456032020446571 0 0 0 0.010946065226704826 -0.029036448596450902 0.0065030587965539842 0 0.0065030587965539842 -0.00029936624291918013 0 0 0 -0.0073339537098425257 0.012150310190362125 -0.0017047975185129072 0 -0.0017047975185129072 0.010575882211665341 0 0 0 0.0056815481005068735 0.011965198514761716 0.0035089996678610291 0 0.0035089996678610291 0.031650726981430899 0 0 0 0.010903981374048161 0.014598802195624372 -0.0056946909829358461 0 -0.0056946909829358461 0.061485573836807861 0 0 0 0.019021094008108086 0.017345139408144888 0.00040501890762650872 0 0.00040501890762650872 0.034239852769920143 0 0 0 0.012896248044516251 -0.010293942671696484 0.005837719074024611 0 0.005837719074024611 -0.016154622974098698 0 0 0 -0.0066121414114487867 -0.0099840409808869546 -0.012151597866430677 0 -0.012151597866430677 -0.016553818771948503 0 0 0 -0.006634464938208906 0.0023522147522375275 0.0013790680639622771 0 0.0013790680639622771 0.049494811860300525 0 0 0 0.012961756653134537 -0.0047133715954481015 -0.006098103649324782 0 -0.006098103649324782 0.024228782885759137 0 0 0 0.004878852822577745 -0.024304828155401588 0.0032972441653985954 0 0.0032972441653985954 0.021836699968899309 0 0 0 -0.00061703204662557493 -0.0035861343247596267 0.020289698529807554 0 0.020289698529807554 -0.008068642073880028 0 0 0 -0.0029136940996596916 -0.0046845895405944749 0.0081292101336108424 0 0.0081292101336108424 -0.0056838722125691632 0 0 0 -0.002592115438290854 -0.0035969447535419974 -0.0058795557568468437 0 -0.0058795557568468437 -0.0040726858177908554 0 0 0 -0.0019174076428332132 -0.004589965740418922 -0.016460221502627714 0 -0.016460221502627714 -0.0093193006013132518 0 0 0 -0.0034773165854331545 -0.0059431179250617428 0.0046442261551735229 0 0.0046442261551735229 -0.0011129111528953746 0 0 0 -0.0017640072694892787 -0.00840690416521922 0.021990555473420548 0 0.021990555473420548 0.0047473839071895951 0 0 0 -0.0009148800645072952 -0.0030484350609783842 -0.0053389731633446402 0 -0.0053389731633446402 -0.002382719488233126 0 0 0 -0.0013577886373029383 -0.016924558371315769 -0.00020903615347346496 0 -0.00020903615347346496 0.038727196427434787 0 0 0 0.0054506595140297589 -0.0042718589299228782 0.0075508665241301731 0 0.0075508665241301731 -0.0037832283853154181 0 0 0 -0.002013771828809352 -0.0079944624269362441 -0.018288134522774779 0 -0.018288134522774779 0.0013968481657746779 0 0 0 -0.0016494035652904193 0.00086657212688423524 -0.012909660187580579 0 -0.012909660187580579 0.011187431454537211 0 0 0 0.0030135008953553755 -0.019689544686500304 -0.011691453881141255 0 -0.011691453881141255 0.0058167376704827967 0 0 0 -0.003468201754004363 -0.018712486683933272 -0.010671002924038948 0 -0.010671002924038948 0.0081588820975223575 0 0 0 -0.0026384011466027146 -0.0050941184418682537 -0.0070423996127051015 0 -0.0070423996127051015 -0.0061536193170588886 0 0 0 -0.0028119344397317864 -0.0089220280912609695 0.038564802550549615 0 0.038564802550549615 0.0096024232431676793 0 0 0 0.00017009878797669131 -0.045046751374823529 -0.0042397273021943793 0 -0.0042397273021943793 -9.9701521970030349e-06 0 0 0 -0.011264180381755168 0.019207724705776606 -0.012427927961484057 0 -0.012427927961484057 0.015033671996619251 0 0 0 0.008560349175598966 -0.00090316562472364179 -0.0078055003614360616 0 -0.0078055003614360616 0.0085859025431693214 0 0 0 0.0019206842296114156 0.0055896433767464171 0.011484915700331458 0 0.011484915700331458 0.0079909157183048266 0 0 0 0.0033951397737628126 -0.0133480108806808 -0.0070412634031348093 0 -0.0070412634031348093 -0.0069590464567620969 0 0 0 -0.0050767643343607727 -0.014096364233275149 -0.0079701291990227074 0 -0.0079701291990227074 -0.012124795798154842 0 0 0 -0.0065552900078574838 -0.14232019415487135 0.00097469338161223465 0 0.00097469338161223465 0.0034314005389223246 0 0 0 -0.03472219840398727 -0.074781445312673042 -0.00039013421262661639 0 -0.00039013421262661639 0.0014591855099426176 0 0 0 -0.018330564950682623 -0.0092554638724473438 -0.0033454544848272503 0 -0.0033454544848272503 -0.0030863854870292751 0 0 0 -0.0030854623398691543 -0.013868169784020435 0.004462374922633093 0 0.004462374922633093 -0.0046225772198450294 0 0 0 -0.0046226867509663655 0.0098073938959989636 0.0029383345372089933 0 0.0029383345372089933 7.0359969657124433e-05 0 0 0 0.0024694384664140229 0.00075547156132855023 0.010372666919821218 0 0.010372666919821218 0.0091909950619633897 0 0 0 0.0024866166558229867 0.0033390504751978477 0.0064098316534006751 0 0.0064098316534006751 0.00023855148093149259 0 0 0 0.00089440048903233205 -0.055430908885240542 -0.0098517695132922436 0 -0.0098517695132922436 -0.0055613762257967613 0 0 0 -0.01524807127775934 -0.040380946861497929 0.0039544737920357174 0 0.0039544737920357174 -0.0024099677077922231 0 0 0 -0.010697728642322555 0.034185481594938838 0.01744319974756231 0 0.01744319974756231 0.012294108941637294 0 0 0 0.01161989763414395 -0.044452426881490141 -0.0092840712464689265 0 -0.0092840712464689265 -0.0030429385683152753 0 0 0 -0.011873841362451357 -0.034957922325618028 0.003950724059267061 0 0.003950724059267061 -0.0013797857028477562 0 0 0 -0.0090844270071164471 -0.017559249425143642 -0.0029518745119686135 0 -0.0029518745119686135 -0.0059481188366931059 0 0 0 -0.0058768420654591591 0.030457220836212384 0.046277862184811613 0 0.046277862184811613 0.030538366275191242 0 0 0 0.015248896777850907 0.007561636997030944 0.0048194204024784373 0 0.0048194204024784373 -0.0028664670780402315 0 0 0 0.0011737924797476807 -0.012852170526426558 -0.0049735810153607729 0 -0.0049735810153607729 0.0042497759690863224 0 0 0 -0.0021505986393350676 -0.024413890411426727 -0.0060442554098553147 0 -0.0060442554098553147 -0.0081361210053303729 0 0 0 -0.0081375028541892745 -0.023421050431587567 0.0041521566315821101 0 0.0041521566315821101 -0.0078050008657690141 0 0 0 -0.0078065128243391436 -0.057175402748711968 0.0025425380803941826 0 0.0025425380803941826 -0.00038762920204817725 0 0 0 -0.014390757987690029 -0.093932333503682297 -0.0060637174590216988 0 -0.0060637174590216988 -0.00077473663746469718 0 0 0 -0.023676767535286761 -0.032704992500033017 -0.0025339941836105273 0 -0.0025339941836105273 0.01200810079241113 0 0 0 -0.005174222926905489 0.013920069458625506 -0.0084667462442359342 0 -0.0084667462442359342 0.013533617555531341 0 0 0 0.0068634217535392117 -0.022126305692937932 -0.004448843140727847 0 -0.004448843140727847 0.027744606947855036 0 0 0 0.0014045753137292725 -0.0037532925640674855 0.0090685790889079923 0 0.0090685790889079923 0.015353463538651375 0 0 0 0.0029000427436459732 -0.0098072911666969367 0.0063139337061231798 0 0.0063139337061231798 0.01748467388854321 0 0 0 0.001919345680461571 0.013576004357233079 0.010541687852581888 0 0.010541687852581888 0.012270302660618581 0 0 0 0.0064615767544629272 0.020779737363946466 0.0079139218584958135 0 0.0079139218584958135 0.00614802620967363 0 0 0 0.0067319408934050258 -0.010064555379086904 -0.0091836973386440202 0 -0.0091836973386440202 -0.025378617656122704 0 0 0 -0.0088607932588024019 -0.026899608197921435 -0.0091107682332555867 0 -0.0091107682332555867 0.013140185886324214 0 0 0 -0.0034398555778992878 -0.026748347902112259 -0.014936724449226994 0 -0.014936724449226994 0.030602096590595929 0 0 0 0.00096343717212091923 -0.0019535501134113047 -0.025680683961547324 0 -0.025680683961547324 0.04994706542091671 0 0 0 0.011998378826876351 -0.052753588966666681 0.0023861837526433539 0 0.0023861837526433539 -0.00027683314009977616 0 0 0 -0.013257605526691607 -0.083118122517215273 -0.0052041555055403763 0 -0.0052041555055403763 -0.00072698611792344076 0 0 0 -0.020961277158784666 -0.00099903994411628294 -0.0014183243584795502 0 -0.0014183243584795502 -0.03378050677038319 0 0 0 -0.0086948866786249104 0.0017370241336764902 -0.01897073130258474 0 -0.01897073130258474 0.036081362528475935 0 0 0 0.0094545966655381064 0.0016095300456104439 0.0062565662089567285 0 0.0062565662089567285 -0.0019749837561734811 0 0 0 -9.1363427640758429e-05 -0.042205391898913036 -0.009263259668729918 0 -0.009263259668729918 -0.0067992731491753663 0 0 0 -0.012251166262022096 -0.033214858130937851 0.0042952084767227238 0 0.0042952084767227238 -0.0034975808876895661 0 0 0 -0.0091781097546568581 -0.011887799298618169 0.0033050371205477691 0 0.0033050371205477691 -0.0021888880271581281 0 0 0 -0.0035191718314440748 -0.021410727611625859 -0.0020212162021264928 0 -0.0020212162021264928 0.03033296434481577 0 0 0 0.0022305591832974848 -0.010398613245333754 -0.0091965427031974467 0 -0.0091965427031974467 0.0016945997000181179 0 0 0 -0.0021760033863288952 -0.013186320253224446 0.0045150029399208969 0 0.0045150029399208969 -0.0012046068001242746 0 0 0 -0.0035977317633371815 -0.041501581343661331 0.0098024955318203322 0 0.0098024955318203322 0.00054716981946656418 0 0 0 -0.010238602881048608 -0.0027943277025456181 -0.01192375304787946 0 -0.01192375304787946 0.02318642918331737 0 0 0 0.0050980253701929379 0.0018311642199249356 -0.010056208108376485 0 -0.010056208108376485 0.019595293534122815 0 0 0 0.005356614438511903 -0.015332155057892833 -0.011900007559592279 0 -0.011900007559592279 0.02289636983629223 0 0 0 0.0018910536945998431 -0.020358769277173602 -0.0085680305352040381 0 -0.0085680305352040381 0.015154714561828792 0 0 0 -0.0013010136788361992 -0.011124941260411218 0.00093134862311174973 0 0.00093134862311174973 0.012264033453762273 0 0 0 0.00028477304833776423 -0.020474878242290079 -0.0021505480360303692 0 -0.0021505480360303692 0.02941673649136587 0 0 0 0.0022354645622689479 0.0021575998143574804 0.020270315403445149 0 0.020270315403445149 0.042965603957699106 0 0 0 0.011280800943013869 -2.5588613040805619e-05 -0.00032367327559401637 0 -0.00032367327559401637 0.00042423674317726423 0 0 0 9.9662032534086897e-05 -0.00053103223384229348 -0.015986456763878998 0 -0.015986456763878998 0.021484615362757864 0 0 0 0.0052383957822288718 1.3524460344471745e-05 0.00047059006984051521 0 0.00047059006984051521 0.00048714350166367826 0 0 0 0.00012516699050174607 -0.010493796977170716 0.0029855118973110984 0 0.0029855118973110984 0.013285083594735817 0 0 0 0.00069782165439127549 -0.01192534557341883 0.0013481661547704851 0 0.0013481661547704851 0.0084209743471745334 0 0 0 -0.00087609280656107333 -0.011694007795608497 -0.003969778038291143 0 -0.003969778038291143 0.012040763179112483 0 0 0 8.6688845876000883e-05 -0.074613487629296052 -0.010128281097130699 0 -0.010128281097130699 0.00055552125990485091 0 0 0 -0.018514491592347821 -0.086807719339577635 -0.014108683678219484 0 -0.014108683678219484 0.00080188430440604475 0 0 0 -0.021501458758792905 -0.0080978467467566085 -0.015239487669021451 0 -0.015239487669021451 -0.0026709452691968671 0 0 0 -0.0026921980039883702 -0.018543072025802743 0.0014461317399128764 0 0.0014461317399128764 0.0029365467409274808 0 0 0 -0.0039016313212188163 -0.0026098909316241148 -0.01682784822974593 0 -0.01682784822974593 0.028157672722851343 0 0 0 0.0063869454478068174 -0.031993999236049932 0.004818787575910569 0 0.004818787575910569 -0.0032618174864757618 0 0 0 -0.0088139541806314305 -0.026341862114399456 0.0043984701373845263 0 0.0043984701373845263 -0.0042107192667376631 0 0 0 -0.0076381453452842793 -0.027657449257312741 -0.0086228528773431325 0 -0.0086228528773431325 -0.0083181072706588061 0 0 0 -0.0089938891319928868 -0.038810423884705333 -0.010174375276751038 0 -0.010174375276751038 -0.0083807480230024822 0 0 0 -0.011797792976926957 -0.035836187278066645 -0.01200353417259184 0 -0.01200353417259184 0.0011193203026422793 0 0 0 -0.0086792167438560219 -0.027148000400054051 -0.013381656236257727 0 -0.013381656236257727 0.00108384097149683 0 0 0 -0.006516039857139222 -0.010332378653633699 -0.0033017698200078246 0 -0.0033017698200078246 -0.0079973097099093979 0 0 0 -0.0045824220908857747 -0.0099537018115291361 -0.0038273106756480479 0 -0.0038273106756480479 -0.0091467860418339084 0 0 0 -0.0047751219633407624 -0.014067016478386086 0.0051388469096612689 0 0.0051388469096612689 -0.0044270503937134525 0 0 0 -0.0046235167180248837 -0.015703940758454701 0.0039630554917950613 0 0.0039630554917950613 -0.0055192469966280269 0 0 0 -0.0053057969387706842 -0.012553673407379673 0.029616873212572337 0 0.029616873212572337 -0.0034470916558433373 0 0 0 -0.0040001912658058636 -0.015553216409748993 -0.017297614974741693 0 -0.017297614974741693 -0.0032506662520257468 0 0 0 -0.0047009706654436711 -0.022756570115401026 0.0036829279998438456 0 0.0036829279998438456 -0.0033458143133020448 0 0 0 -0.0065255961071757698 -0.016115766551981468 -0.0070057610659001604 0 -0.0070057610659001604 -0.0089194371667442006 0 0 0 -0.006258800929681417 -0.012263207808733216 -0.00092589054819673146 0 -0.00092589054819673146 0.0052952584892299731 0 0 0 -0.0017419873298758163 -0.02849432274331538 0.0042076273292575581 0 0.0042076273292575581 -0.0022986682380094596 0 0 0 -0.0076982477453311996 -0.02985259949273019 -0.0095984747902106357 0 -0.0095984747902106357 -0.005661764126091505 0 0 0 -0.0088785909047054256 -0.039825923918950998 -0.0086418725781928912 0 -0.0086418725781928912 0.046475973099514525 0 0 0 0.0016625122951408888 -0.013011801323098232 0.00026925473904511419 0 0.00026925473904511419 0.0064572974149225103 0 0 0 -0.0016386259770439287 -0.033087915273774374 -0.0059511690810857935 0 -0.0059511690810857935 -0.011034889512879396 0 0 0 -0.011030701196663445 -0.028044291485655709 0.0033645746463402356 0 0.0033645746463402356 -0.0093508049948833674 0 0 0 -0.0093487741201347691 0.022491814482733727 0.0050229104823112363 0 0.0050229104823112363 0.013920174869396951 0 0 0 0.0091029973380326659 -0.0040535903689640773 -0.0018134471687273751 0 -0.0018134471687273751 -0.033081049837120124 0 0 0 -0.0092836600515209811 -0.024424246064697348 0.0033749610722567901 0 0.0033749610722567901 0.0039033911655102296 0 0 0 -0.0051302137247967797 0.010453799873541642 -0.014128205998021726 0 -0.014128205998021726 0.0087270331381182342 0 0 0 0.0047952082529149342 -0.010868179446892858 0.0036450530759863965 0 0.0036450530759863965 0.01332068682625524 0 0 0 0.00061312684484059535 -0.015713295662262889 -0.003013431241923293 0 -0.003013431241923293 0.014587593766879538 0 0 0 -0.00028142547384584111 -0.065115714038448042 -0.0043832674821052495 0 -0.0043832674821052495 -0.0046303023490264737 0 0 0 -0.017436504096868626 -0.045298218394473067 0.0010835106694407686 0 0.0010835106694407686 -0.0031408496655860058 0 0 0 -0.012109767015014766 0.00065263328280811689 -0.0074644545417528151 0 -0.0074644545417528151 0.016577713960484686 0 0 0 0.0043075868108231954 -0.0074618571521266669 0.0060375765427579482 0 0.0060375765427579482 0.008202402136031673 0 0 0 0.00018513624597625133 -0.013996150438829045 -9.3762240720574389e-05 0 -9.3762240720574389e-05 0.0037976934287492713 0 0 0 -0.0025496142525199463 -0.041816835751453292 0.0023882921919767333 0 0.0023882921919767333 0.002069469408038524 0 0 0 -0.0099368415858536868 -0.058459677046663883 0.010069655446246273 0 0.010069655446246273 0.00072973216109706307 0 0 0 -0.014432486221391705 -0.018310616211441283 0.00088295058190752257 0 0.00088295058190752257 0.011568900116168013 0 0 0 -0.0016854290238183037 -0.018376433274568591 -0.0090435162922100493 0 -0.0090435162922100493 0.010878388017020096 0 0 0 -0.0018745113143871298 -0.017090196142376474 0.0021508393885757635 0 0.0021508393885757635 0.0040039878180377769 0 0 0 -0.003271552081084662 -0.0066541923616714347 0.0058933351090433416 0 0.0058933351090433416 0.010879958363223693 0 0 0 0.0010564415003880634 -0.023466113011666057 -0.011624171313256895 0 -0.011624171313256895 0.0080518357274489694 0 0 0 -0.0038535693210542572 0.037110330232044644 0.0070632558887068764 0 0.0070632558887068764 0.040276565142240928 0 0 0 0.019346723843571403 -0.020264232886277812 0.0046295268144059005 0 0.0046295268144059005 0.0011917417891963225 0 0 0 -0.0047681227742703801 -0.041245293588836995 0.0086550579966888953 0 0.0086550579966888953 -0.0011355844877058985 0 0 0 -0.010595219519135668 0.0018196803195208722 -0.010785203424309553 0 -0.010785203424309553 0.025253148901289268 0 0 0 0.0067682073052025282 0.01065998370423471 -0.0080195427738153913 0 -0.0080195427738153913 0.017329375378893563 0 0 0 0.0069973397707820129 -0.055103187464692276 -0.017306103438063811 0 -0.017306103438063811 0.014663327234922034 0 0 0 -0.010109965057442542 0.0068361925875798819 -0.0059875042196238341 0 -0.0059875042196238341 -0.0072158687234545188 0 0 0 -9.4919033968660083e-05 -0.055604135190779391 0.0045992307459270937 0 0.0045992307459270937 0.0010332873901732903 0 0 0 -0.013642711950151515 -0.095695375180493605 -0.013423722680066488 0 -0.013423722680066488 0.0028000444883402829 0 0 0 -0.023223832673038354 -0.055045749238155361 0.00129904470594501 0 0.00129904470594501 -0.00032581718123087661 0 0 0 -0.013842891604846596 -0.096491360478748039 -0.0045934896406216383 0 -0.0045934896406216383 0.00031845577303357686 0 0 0 -0.024043226176428609 -0.039443463921491909 0.0012260293324020028 0 0.0012260293324020028 -0.0048994622602110283 0 0 0 -0.011085731545425739 -0.05401440884092603 -0.0039980412757954741 0 -0.0039980412757954741 -0.0064131533992731853 0 0 0 -0.015106890560049805 -0.017079327283489834 -0.0049694294326950265 0 -0.0049694294326950265 0.019498903998464129 0 0 0 0.00060489417874357541 -0.015373938853324904 -0.0096827869286590824 0 -0.0096827869286590824 0.025460167890250067 0 0 0 0.0025215572592312864 -0.0059427810407226556 -0.0018521543412893526 0 -0.0018521543412893526 0.02850345452681935 0 0 0 0.0056401683715242013 0.0027735179393483245 -0.0015407964329627877 0 -0.0015407964329627877 0.056336855520341123 0 0 0 0.014777593364922348 -0.0028150746670247001 0.0032095617553277236 0 0.0032095617553277236 0.016662487108847074 0 0 0 0.00346185311045559 8.1136437020873364e-05 0.00074574931541411538 0 0.00074574931541411538 0.04855456126810806 0 0 0 0.012158924426282247 -0.011906424673965951 -0.0056889400640553756 0 -0.0056889400640553756 0.024096680563064576 0 0 0 0.0030475639722746667 -0.016675179529194086 0.0023934126051546704 0 0.0023934126051546704 0.0044662825286186873 0 0 0 -0.0030522242501438463 -0.0078014826184711165 -0.0090149873743084162 0 -0.0090149873743084162 0.02068100004608571 0 0 0 0.0032198793569036509 -0.016862785490885213 -0.010274065914866083 0 -0.010274065914866083 0.017883665148880165 0 0 0 0.0002552199144987416 -0.012998223105785075 0.0017771984899816306 0 0.0017771984899816306 0.025257022495101047 0 0 0 0.0030646998473289905 -0.083717179951206311 0.0088791792429835908 0 0.0088791792429835908 -0.00022831277004353723 0 0 0 -0.020986373180312379 -0.020995295661082099 -0.0018324965589711483 0 -0.0018324965589711483 0.028551206357345309 0 0 0 0.0018889776740658032 0.01272034297402036 -0.011178192992497983 0 -0.011178192992497983 0.069405351164084306 0 0 0 0.020531423534526166 0.040772829859810567 -0.01253474930327538 0 -0.01253474930327538 0.034615097895977831 0 0 0 0.018846981938947099 0.017389077560370614 -0.0077893685640600951 0 -0.0077893685640600951 0.014166505341736246 0 0 0 0.0078888957255267289 -0.10695801107479694 -0.010250530755744516 0 -0.010250530755744516 0.0029566076958417731 0 0 0 -0.026000350844738757 -0.060031149929854477 0.0039098219729162484 0 0.0039098219729162484 0.0010553238043064499 0 0 0 -0.014743956531386992 -0.021800170775467625 -0.0017623162965424049 0 -0.0017623162965424049 0.029666041506431189 0 0 0 0.0019664676827408877 -0.047163354385205136 0.022481893831005628 0 0.022481893831005628 -0.0028375864337233381 0 0 0 -0.012500235204732091 -0.034604490221791906 0.024283260990909494 0 0.024283260990909494 0.0013487016207474056 0 0 0 -0.0083139471502611251 -0.010486264017015856 -0.018335907094256254 0 -0.018335907094256254 0.0080753720014002939 0 0 0 -0.00060272300390384892 -0.0055299263603624431 -0.01547368670616911 0 -0.01547368670616911 0.0097274845536194365 0 0 0 0.0010493895483142763 -0.0054486133874866449 -0.013327793636871421 0 -0.013327793636871421 0.027961643057417551 0 0 0 0.0056282574174827404 -0.021167944840120523 0.0074333932760464886 0 0.0074333932760464886 0.00057705726561785298 0 0 0 -0.0051477218936257785 -0.022130182662326234 0.0044467174273862863 0 0.0044467174273862863 -0.0034423720305345011 0 0 0 -0.0063931386732151837 -0.019166455897457847 -0.0057241311651535136 0 -0.0057241311651535136 -0.0082618084736292494 0 0 0 -0.0068570660927717722 -0.014007011163920727 -0.020411417722143665 0 -0.020411417722143665 0.0040320038153278046 0 0 0 -0.0024937518371481761 -0.013529623547379466 -0.017888637777056071 0 -0.017888637777056071 0.0044378468036865293 0 0 0 -0.0022729441859232757 -0.017598142746967943 -0.018619915007716037 0 -0.018619915007716037 0.0018308836306517307 0 0 0 -0.0039418147790790947 -0.017597151957671031 -0.019767677571248032 0 -0.019767677571248032 0.0035673966100810972 0 0 0 -0.0035074388368974696 -0.029084271741873974 0.031726096030853967 0 0.031726096030853967 -0.0029339890509086364 0 0 0 -0.0080045651981956734 -0.019980673636691117 0.028569948442244031 0 0.028569948442244031 -0.0021412455274231875 0 0 0 -0.0055304797910286311 -0.025436742231138398 0.0051887374819727817 0 0.0051887374819727817 -0.0064218368990172428 0 0 0 -0.007964644782538912 -0.029553532562467521 -0.0088239338932187949 0 -0.0088239338932187949 -0.0096119276096234378 0 0 0 -0.0097913650430227414 -0.053539214763467971 -0.0047415708786802679 0 -0.0047415708786802679 0.0038959804748104343 0 0 0 -0.012410808572164408 -0.094251649660923198 0.011262324043324043 0 0.011262324043324043 0.0055924678494625457 0 0 0 -0.022164795452865149 -0.038642816440753541 0.0064280621714803421 0 0.0064280621714803421 0.00088732151504480883 0 0 0 -0.0094388737314271831 -0.0063917743072003557 0.0056711317118080225 0 0.0056711317118080225 0.0040607422860347332 0 0 0 -0.00058275800529140713 -0.0037859423049692031 -0.0077809370316747895 0 -0.0077809370316747895 -0.023476678342796098 0 0 0 -0.0068156551619413253 -0.061295256897709427 -0.013126100418909341 0 -0.013126100418909341 0.00083322091004411208 0 0 0 -0.015115508996916337 -0.083324632779484806 -0.011386577097233889 0 -0.011386577097233889 -0.0024244053322776335 0 0 0 -0.021437259527940608 -0.0014424502247848525 1.8398652090765536e-05 0 1.8398652090765536e-05 -0.0082280968834763674 0 0 0 -0.0024176367770653052 -0.0080390928264010841 0.0041401740417292276 0 0.0041401740417292276 0.032271454071388289 0 0 0 0.0060580903112468082 -0.061759826925024894 -0.00022952345310102429 0 -0.00022952345310102429 -0.00030502910494098479 0 0 0 -0.015516214007491463 -0.11329009612247501 -0.00015186745262923962 0 -0.00015186745262923962 -0.00084606284653804958 0 0 0 -0.028534039742253187 -0.031631833779364849 -0.0036419597763270306 0 -0.0036419597763270306 0.0048433742429732918 0 0 0 -0.0066971148840978927 -0.044305731728446318 -0.012716886302815165 0 -0.012716886302815165 -0.0066062229232251076 0 0 0 -0.01272798866291786 -0.030543553812746163 -0.012163874083967699 0 -0.012163874083967699 -0.0046961921909842589 0 0 0 -0.0088099365009326018 0.006421305042127845 0.039723765532122424 0 0.039723765532122424 0.083534079348130508 0 0 0 0.022488846097564574 -0.076207331660762073 -0.0047841904030605301 0 -0.0047841904030605301 3.1336618097354413e-05 0 0 0 -0.019043998760666182 -0.048547445311380881 0.0021608416808161206 0 0.0021608416808161206 0.00023181989125580643 0 0 0 -0.012078906355031258 -0.014101019580332774 -0.0079625597730158988 0 -0.0079625597730158988 -0.0064630917692634626 0 0 0 -0.0051410278373990592 -0.015942053924545271 -0.007911159639315813 0 -0.007911159639315813 -0.003057419651391613 0 0 0 -0.0047498683939841968 -0.0087724821791623463 0.0056649031383809306 0 0.0056649031383809306 0.019532381203159407 0 0 0 0.0026899747559992635 -0.0073456194879850979 -0.0084367949454071875 0 -0.0084367949454071875 -0.00079297493234677108 0 0 0 -0.0020346486050829699 0.0012118856192577182 0.0085137950471748138 0 0.0085137950471748138 0.001732789824830213 0 0 0 0.0007361688610219826 0.0039235320837535115 0.0068953524208339723 0 0.0068953524208339723 0.077319975453873369 0 0 0 0.020310876884406748 -0.038625032966260298 0.0061329528290145 0 0.0061329528290145 0.0013389785466195701 0 0 0 -0.0093215136049101845 -0.013733996269474948 0.0012488052772762072 0 0.0012488052772762072 0.0032712811101936667 0 0 0 -0.0026156787898203217 0.05112618130306823 0.0087674430542489697 0 0.0087674430542489697 0.028849621107319479 0 0 0 0.019993950602596899 -0.043405163506808751 -0.0050765240232353293 0 -0.0050765240232353293 -0.001184049500785319 0 0 0 -0.011147303251898517 -0.13457204020707259 -0.0015937573579603986 0 -0.0015937573579603986 -0.00058194868436095559 0 0 0 -0.033788497222858357 -0.071881413837822927 0.00020282706923843911 0 0.00020282706923843911 -0.00044516963871416015 0 0 0 -0.018081645869134251 -0.019401437031584423 0.0015241761998117248 0 0.0015241761998117248 0.032477281090433671 0 0 0 0.0032689610147123051 -0.044938225889043774 -0.010247785011412106 0 -0.010247785011412106 -0.0033123111623520156 0 0 0 -0.012062634262848947 -0.055326342260146877 -0.013651086672076805 0 -0.013651086672076805 -0.0019305595754773161 0 0 0 -0.014314225458906033 0.02424122115583599 0.013503058716007987 0 0.013503058716007987 0.014460747597811935 0 0 0 0.0096754921884119743 -0.029787123777557767 -0.0066873719128331954 0 -0.0066873719128331954 -0.00091341012327883497 0 0 0 -0.0076751334752089839 -0.019706452684201008 -0.0096078540065022006 0 -0.0096078540065022006 0.0067745225263004666 0 0 0 -0.0032329825394751474 0.0055547986570541052 0.016151477525859506 0 0.016151477525859506 0.053338775630390245 0 0 0 0.014723393571860921 -0.014368946522600679 -0.0044221600556232791 0 -0.0044221600556232791 0.0010491732390316422 0 0 0 -0.0033299433208920926 -0.020581455608239207 -0.019266751655470524 0 -0.019266751655470524 0.015285155689384128 0 0 0 -0.0013240749797137699 -0.010423565469592673 -0.0033743628261077678 0 -0.0033743628261077678 0.020275297857692665 0 0 0 0.0024629330970249788 -0.018789952624028494 0.00093232402845033063 0 0.00093232402845033063 0.0070568730124206114 0 0 0 -0.0029332699029019638 -0.031110589002461442 0.0076336759734900728 0 0.0076336759734900728 -0.00098343262991651414 0 0 0 -0.008023505408094378 -0.0026896426656656258 -0.012272009112725968 0 -0.012272009112725968 0.029660878017907288 0 0 0 0.0067428088380604434 -0.019321134381608832 0.0040583275169712649 0 0.0040583275169712649 -0.001286715518231709 0 0 0 -0.0051519624749601367 0.012892304718387398 -0.0044481576115370305 0 -0.0044481576115370305 0.021607324098949152 0 0 0 0.0086249072043341479 -0.047057900481655514 0.0042728524679744948 0 0.0042728524679744948 -5.703035604945339e-05 0 0 0 -0.011778732709426247 -0.035199164710585061 -0.010263879009821765 0 -0.010263879009821765 0.01316433474540879 0 0 0 -0.0055087074912940487 -0.035902485936818641 0.005977842309365271 0 0.005977842309365271 -0.0014516647651137971 0 0 0 -0.0093385376754831079 -0.049130659939966681 -0.005961994213420585 0 -0.005961994213420585 0.00098848281453345344 0 0 0 -0.012035544281358224 -0.050810129332863108 0.0035958992429686362 0 0.0035958992429686362 -0.00057176843634516167 0 0 0 -0.012845474442302055 -0.043111796475395155 0.0043691813525611484 0 0.0043691813525611484 0.00029689773705358219 0 0 0 -0.010703724684585377 -0.050114667168184052 0.028230889602718579 0 0.028230889602718579 0.0015453345907484595 0 0 0 -0.012142333144358947 -0.019993633897139568 -0.0049021702969555539 0 -0.0049021702969555539 -0.0082679913630556157 0 0 0 -0.0070654063150487967 -0.024028889610921887 -0.0087817008070353031 0 -0.0087817008070353031 -0.0094052173971454663 0 0 0 -0.0083585267520168375 -0.023264248623119887 0.0054126771420923755 0 0.0054126771420923755 -0.0050512756324038906 0 0 0 -0.0070788810638809461 -0.02170098434414041 0.0036996869228494967 0 0.0036996869228494967 -0.0057765383815377956 0 0 0 -0.0068693806814195497 -0.013295531557839621 -0.0024571569829772606 0 -0.0024571569829772606 0.0095313996296979148 0 0 0 -0.0009410329820354231 -0.0099700113097444532 -0.015216434866957881 0 -0.015216434866957881 0.02974782655965523 0 0 0 0.0049444538124776907 -0.017204257172234304 -0.010253369900786818 0 -0.010253369900786818 0.014699605051993362 0 0 0 -0.00062616303006023219 -0.02286401274088673 -0.0085642850009198107 0 -0.0085642850009198107 0.018428075970386426 0 0 0 -0.0011089841926250898 -0.017326353101066769 -0.0087923742759073858 0 -0.0087923742759073858 0.014219172365134286 0 0 0 -0.00077679518398312414 -0.010435921951936655 -0.002406393651816224 0 -0.002406393651816224 0.018580968836516887 0 0 0 0.0020362617211450718 -0.015369612919886366 -0.0060076265204231927 0 -0.0060076265204231927 0.011181856379299637 0 0 0 -0.0010469391351466961 -0.07478742588642863 0.0018460224848191947 0 0.0018460224848191947 0.00030460878653176815 0 0 0 -0.01862070427497424 -0.14346603552148662 -0.0044674705872128507 0 -0.0044674705872128507 0.0021372605182675697 0 0 0 -0.035332193750804763 -0.0035983481160271474 -0.0037212273897588646 0 -0.0037212273897588646 0.011172816510604131 0 0 0 0.0018936170986442458 -0.0090679324159820412 -0.0042618735407431996 0 -0.0042618735407431996 0.019538575240580058 0 0 0 0.0026176607061494939 -0.034930577672087765 0.0053131291303177078 0 0.0053131291303177078 0.0045244328625871355 0 0 0 -0.007601536202375192 -0.0063233535860592544 0.0032597480139298462 0 0.0032597480139298462 -0.0037852182452875471 0 0 0 -0.0025271429578367006 -0.014700567303446673 -0.0089890626000988152 0 -0.0089890626000988152 -0.0062941613411347398 0 0 0 -0.0052486821611453655 -0.0065180059493183664 -0.0038481369123488916 0 -0.0038481369123488916 -0.0093522928675483265 0 0 0 -0.003967574704216676 -0.0049279195925306654 -0.021665558599322073 0 -0.021665558599322073 0.0496752993912499 0 0 0 0.011186844949679808 -0.045493733573597331 0.0026720663854578317 0 0.0026720663854578317 -0.0017140387417246168 0 0 0 -0.011801943078830493 -0.041009198876409261 0.0025014391982126159 0 0.0025014391982126159 -0.00073292407451670339 0 0 0 -0.010435530737731494 -0.056633818819381038 -0.0063286057704441158 0 -0.0063286057704441158 -0.00090737034810245247 0 0 0 -0.014385297291870873 -0.067552496392303318 -0.0069290820311651811 0 -0.0069290820311651811 -0.003433540683126084 0 0 0 -0.017746509268857343 -0.069450959777462212 -0.0036195611832787627 0 -0.0036195611832787627 0.0010093518177312077 0 0 0 -0.017110401989932744 -0.0037203984865824546 0.037063536728055346 0 0.037063536728055346 0.051210180123588134 0 0 0 0.011872445409251364 0.0073655117738196385 -0.0084657507149199507 0 -0.0084657507149199507 0.017026879520381066 0 0 0 0.0060980978235501693 -0.0065690524156504539 -0.0066870769494245252 0 -0.0066870769494245252 -0.018096272475588159 0 0 0 -0.0061663312228096602 -0.023161349100698649 0.0050017829014396909 0 0.0050017829014396909 -0.0014452651627390508 0 0 0 -0.0061516535658594287 -0.020255506113712504 -0.00047558302787007335 0 -0.00047558302787007335 0.023364580893053974 0 0 0 0.00077726869483536395 -0.038832773698650534 0.0045749556111463188 0 0.0045749556111463188 -0.00053439563632554088 0 0 0 -0.0098417923337440275 0.011976017253877758 0.020045688711189946 0 0.020045688711189946 0.011129472007514352 0 0 0 0.0057763723153479996 -0.0094039586779287518 0.0048286243339124403 0 0.0048286243339124403 -0.0040081841074460639 0 0 0 -0.0033530356963437039 -0.014818176474406697 -0.0099625001721755785 0 -0.0099625001721755785 -0.0020986044356728351 0 0 0 -0.004229195227519883 0.020660030561166345 -0.030455316272762035 0 -0.030455316272762035 0.037908374730664551 0 0 0 0.014642101322957726 -0.12702731331780098 0.0088516748392249434 0 0.0088516748392249434 0.0016456102296067421 0 0 0 -0.031345425772048463 -0.0028592456085779253 0.0019772348067920394 0 0.0019772348067920394 -0.004789552125216168 0 0 0 -0.001912199433448523 -0.027279011894727982 0.0034789350846548463 0 0.0034789350846548463 -0.0064096966161454778 0 0 0 -0.0084221771277183648 -0.030512382534953694 -0.0058740006343971016 0 -0.0058740006343971016 -0.0088848746783367662 0 0 0 -0.0098493143033226149 -0.0033388057913265549 0.0073350283286953144 0 0.0073350283286953144 0.0067294726674554939 0 0 0 0.00084766671903223345 -0.054889650721041877 0.0040130301059121062 0 0.0040130301059121062 0.0012281942918662136 0 0 0 -0.013415364107293909 -0.094620267468376568 -0.010662676633083776 0 -0.010662676633083776 0.0042057137943711936 0 0 0 -0.022603638418501406 0.005652470619901262 0.018508975134472361 0 0.018508975134472361 0.024709363778166349 0 0 0 0.0075904585995170137 -0.02720632060556083 -0.0090053938984810955 0 -0.0090053938984810955 -0.0022297778149749092 0 0 0 -0.0073590246051339347 -0.0052973851965559329 0.0024082442341892829 0 0.0024082442341892829 0.028705714324246179 0 0 0 0.0058520822819225563 0.00026189773204275679 -0.015667786248600803 0 -0.015667786248600803 0.0051572175462174241 0 0 0 0.0013547788195650556 -0.011519797521031841 0.0012302705782438403 0 0.0012302705782438403 0.010228136093410778 0 0 0 -0.00032291535690527617 -0.0072603630898921759 0.0047807275795788539 0 0.0047807275795788539 0.0026901801297735117 0 0 0 -0.0011425457400296678 -0.0037298769833631379 0.00012449487801263336 0 0.00012449487801263336 -0.0065410493817355643 0 0 0 -0.0025677315912746757 -0.01870551277299299 0.0039919984817061351 0 0.0039919984817061351 0.0010353695120885278 0 0 0 -0.0044175358152261108 -0.011995010044935944 -0.007367718186010324 0 -0.007367718186010324 0.062949754895674018 0 0 0 0.012738686212684529 -0.012404462542392854 -0.0072140027569965581 0 -0.0072140027569965581 0.058556341412948798 0 0 0 0.011537969717638985 -0.022260362033115821 -0.014215728149659934 0 -0.014215728149659934 -0.00014876155208476405 0 0 0 -0.0056022808963001602 -0.020608175512653537 -0.014026821761257857 0 -0.014026821761257857 9.0786326987224442e-06 0 0 0 -0.0051497742199886898 -0.0051067330655010235 0.02495968886288058 0 0.02495968886288058 0.010632259971465885 0 0 0 0.0013813817264911599 -0.0085060021776842687 0.027477743342264271 0 0.027477743342264271 0.0077216622678708546 0 0 0 -0.00019608497745338127 -0.0040679000582292124 0.026573483779557511 0 0.026573483779557511 0.0053107136903394192 0 0 0 0.00031070340802752394 0.016970355701058759 0.024217432281337936 0 0.024217432281337936 0.0094495906730305279 0 0 0 0.0066049865935223773 -0.0057279328093878673 0.0031768359369009035 0 0.0031768359369009035 -0.0019098285384427601 0 0 0 -0.0019094403369576565 -0.0044920979540533784 0.0010471743681440132 0 0.0010471743681440132 0.03791475526618443 0 0 0 0.0083556643280327594 -0.010016351799182716 0.00017535940083791834 0 0.00017535940083791834 0.017538734069820663 0 0 0 0.0018805955676594981 -0.047312291578217036 -0.0078108596909742534 0 -0.0078108596909742534 0.0004634667735231579 0 0 0 -0.011712206201173525 -0.053062841013105835 -0.0027043792633555941 0 -0.0027043792633555941 -0.00010197420533969437 0 0 0 -0.013291203804611365 -0.091517808400655348 0.0066651216787551038 0 0.0066651216787551038 -0.00046521515417885517 0 0 0 -0.022995755888708502 0.0063007564729198606 0.014231898872841649 0 0.014231898872841649 0.014788565907646795 0 0 0 0.0052723305951416707 0.0078095164199993711 0.015019147497804267 0 0.015019147497804267 0.01819533753774305 0 0 0 0.0065012134894356088 -0.0040648202553591074 0.0043245903562602944 0 0.0043245903562602944 -0.0034657638787704836 0 0 0 -0.0018826460335323991 -0.0068007844265231838 0.0039398292270670723 0 0.0039398292270670723 -0.0043735168986618143 0 0 0 -0.0027935753312962486 -0.079049408022289033 -0.0091883526872958751 0 -0.0091883526872958751 -0.003532298387872404 0 0 0 -0.020645426602540352 -0.049418013696525494 0.0034108883003730259 0 0.0034108883003730259 -0.00075859360392012409 0 0 0 -0.012544151825111413 -0.043760107197250139 0.0054374286149777582 0 0.0054374286149777582 -0.0010479498689259445 0 0 0 -0.011202014266544023 0.0059244791491137594 0.019657155460888087 0 0.019657155460888087 0.032668216070717904 0 0 0 0.0096481738049579713 -0.023141421542954121 -0.0068034724437074368 0 -0.0068034724437074368 0.0019846481833305507 0 0 0 -0.0052891933399058511 -0.006286326101115903 -0.0013337805739324759 0 -0.0013337805739324759 -0.0053753268149151472 0 0 0 -0.0029154132290077628 0.0030279917881673489 -0.00078177747130300313 0 -0.00078177747130300313 -0.006365918362986403 0 0 0 -0.00083448164370476504 -0.03180172085602978 -0.011775687842018795 0 -0.011775687842018795 0.0036230260474799936 0 0 0 -0.0070446737021374606 -0.023451204951561215 -0.01235768043449996 0 -0.01235768043449996 -0.0033545816402482803 0 0 0 -0.0067014466479523669 -0.010523270977207937 -0.0032811191543356821 0 -0.0032811191543356821 0.012942140986766951 0 0 0 0.00060471750238973512 0.0098381298543590325 0.010259348733762639 0 0.010259348733762639 0.0066289300185807393 0 0 0 0.0041167649682349455 -0.047026401352515901 0.026141988318239551 0 0.026141988318239551 0.0035172515600226384 0 0 0 -0.010877287448123329 -0.048605716315039127 0.0016867672936327904 0 0.0016867672936327904 0.0024685722180376457 0 0 0 -0.01153428602425037 -0.083737016826480021 -0.0033176431253791605 0 -0.0033176431253791605 0.0064842370912322478 0 0 0 -0.019313194933811978 -0.0016530717969406861 -0.0030997390926738866 0 -0.0030997390926738866 -0.026686200418115424 0 0 0 -0.0070848180537640415 -0.0056813215774899617 -0.0054319596103130363 0 -0.0054319596103130363 -0.034498643979092858 0 0 0 -0.010044991389145663 -0.037736926310308415 0.006031237073203197 0 0.006031237073203197 -0.00028436394537122503 0 0 0 -0.009505322563919897 -0.031628268195140426 0.0050140742500692868 0 0.0050140742500692868 -0.00080511733120438439 0 0 0 -0.0081083463815862025 -0.013241126569762389 0.00039471988602016433 0 0.00039471988602016433 0.0079824621426508383 0 0 0 -0.0013146661067778894 -0.050988019696559667 0.0060185599494088724 0 0.0060185599494088724 0.0011992682330788373 0 0 0 -0.012447187865870186 -0.0522805107020234 -0.013461985891151038 0 -0.013461985891151038 -0.0049860615335085394 0 0 0 -0.014316643058882986 -0.00082737052628514016 0.00011324687479019602 0 0.00011324687479019602 -0.033437956217950759 0 0 0 -0.0085663316860589613 -0.035608779968881787 0.03388410738002795 0 0.03388410738002795 0.0047370177571695038 0 0 0 -0.0077179405529280709 -0.0072808759769157688 0.0037878226189471788 0 0.0037878226189471788 -0.0024274897701786484 0 0 0 -0.002427091436773604 0.031881318478171411 0.0097123531927458817 0 0.0097123531927458817 0.031732146549343254 0 0 0 0.015903366256878798 0.024586698308623055 0.020945689651264962 0 0.020945689651264962 0.04896604343159322 0 0 0 0.01838818543505407 -0.078871692097626123 0.004274995290642708 0 0.004274995290642708 0.012634083534521931 0 0 0 -0.016559402140776055 0.011657893176287376 0.023106251674559042 0 0.023106251674559042 0.053973561346457866 0 0 0 0.016407863630686303 0.019363584319222596 0.019128533376725782 0 0.019128533376725782 0.034548459157482614 0 0 0 0.013478010869176299 -0.026584770759272139 0.0056315504087416871 0 0.0056315504087416871 0.00024734938260882744 0 0 0 -0.0065843553441658279 -0.015204646144201164 0.0035167513803372784 0 0.0035167513803372784 -0.0011818723477560432 0 0 0 -0.0040966296229892982 -0.079723446123469766 0.022016147651578222 0 0.022016147651578222 0.0075118968063330183 0 0 0 -0.018052887329284228 -0.021557808944893078 -0.0072480669625359026 0 -0.0072480669625359026 0.02867258997259664 0 0 0 0.0017786952569258854 -0.00094826259562737821 0.016481262545619657 0 0.016481262545619657 0.060098098846053202 0 0 0 0.014787459062606458 -0.018551648989242123 -0.012039097901227529 0 -0.012039097901227529 0.0044143652297097824 0 0 0 -0.0035343209398830955 -0.05936288954919075 -0.00090544270670844806 0 -0.00090544270670844806 0.0013147204871360313 0 0 0 -0.014512042265513697 -0.10628345545900425 0.0025315704033119224 0 0.0025315704033119224 0.0052750615833211389 0 0 0 -0.025252098468920847 -0.034116701820739892 0.015949213464237388 0 0.015949213464237388 -0.0039878959190813301 0 0 0 -0.0095261494349553333 -0.0074553853191107189 -0.016851190946741534 0 -0.016851190946741534 0.011614227110622433 0 0 0 0.0010397104478779839 -0.019000536653407049 -0.0091657665433620139 0 -0.0091657665433620139 0.010834285241836328 0 0 0 -0.0020415628528926838 0.014708251173180576 0.011167644081187878 0 0.011167644081187878 0.007736575028325518 0 0 0 0.0056112065503765261 -0.04579196066064177 -0.012991741348052152 0 -0.012991741348052152 -0.0079755364807915161 0 0 0 -0.013441874285358327 -0.046759804219110523 0.0046018272503430303 0 0.0046018272503430303 0.00080580997556099765 0 0 0 -0.011488498560887409 -0.067367296878802788 -0.0085778420178837106 0 -0.0085778420178837106 0.0028970203889447238 0 0 0 -0.016117569122464492 -0.0085492790513802819 -0.011299883407583866 0 -0.011299883407583866 0.021719720159245032 0 0 0 0.0032926102769661944 -0.035288025413864992 0.0035521300008410917 0 0.0035521300008410917 0.0015156813920437148 0 0 0 -0.0084430860054553157 -0.011570241799754442 0.0055938685042434162 0 0.0055938685042434162 0.050177968478860677 0 0 0 0.0096519316697765579 -0.0044316686401553078 -0.00012127778101183666 0 -0.00012127778101183666 -0.001476240920088253 0 0 0 -0.0014769773900608905 -0.016148955256924336 -0.0068048337886405796 0 -0.0068048337886405796 0.0052942172217436689 0 0 0 -0.0027136845087951944 -0.057643240450982292 0.0018799202032587989 0 0.0018799202032587989 0.0014308456546944862 0 0 0 -0.014053098699071953 -0.10094938740174454 -0.0059933643299302786 0 -0.0059933643299302786 0.0031267857030654322 0 0 0 -0.024455650424669809 -0.047718551171311796 -0.0097296642948084544 0 -0.0097296642948084544 0.0035480481986621959 0 0 0 -0.011042625743162365 -0.01651984590207331 -0.0082041751236034827 0 -0.0082041751236034827 0.014988436577231257 0 0 0 -0.00038285233121049256 -0.011069172240896666 -0.0052813595769859653 0 -0.0052813595769859653 0.028231507383499888 0 0 0 0.004290583785650795 -0.024508398468733233 0.0041873141030237277 0 0.0041873141030237277 0.0016339993476779807 0 0 0 -0.005718599780263801 -0.019399401556913443 -0.011277184441092429 0 -0.011277184441092429 0.0045294012609533585 0 0 0 -0.0037175000739900488 -0.033777682341772489 -0.01153242571205132 0 -0.01153242571205132 0.0013465755444714463 0 0 0 -0.0081077766993252875 -0.030970859352342874 0.0044224807353686526 0 0.0044224807353686526 0.0014751635525868112 0 0 0 -0.0073739239499390121 -0.017068434010189523 -0.011885769168127391 0 -0.011885769168127391 0.004708525863177937 0 0 0 -0.0030899770367528862 -0.0041201622083728989 -0.00029766575155631254 0 -0.00029766575155631254 -0.0075767638780122682 0 0 0 -0.0029242315215962911 -0.060460643529918506 0.001275148234895801 0 0.001275148234895801 0.0010952468689394146 0 0 0 -0.014841349165244766 -0.11041057924648019 -0.0028951002264392955 0 -0.0028951002264392955 0.0015993010524875118 0 0 0 -0.027202819548498139 -0.033856552107904891 -0.0054144311996997541 0 -0.0054144311996997541 -0.0017560156924880665 0 0 0 -0.0089031419500982811 0.018797247415623636 0.011888086742213311 0 0.011888086742213311 0.03992204895143292 0 0 0 0.014679824091764077 0.013401716968887478 0.017208392240841586 0 0.017208392240841586 0.029093273845015144 0 0 0 0.010623747703475628 -0.02752585294765364 -0.0048197901228839539 0 -0.0048197901228839539 -0.0014423429810719313 0 0 0 -0.0072420489821815037 0.020676783311882385 0.010884002548533086 0 0.010884002548533086 0.053976004157195057 0 0 0 0.018663196867269249 -0.0022251151951393766 -0.0078327998272658978 0 -0.0078327998272658978 0.0065863713503440391 0 0 0 0.0010903140388011656 -0.024277295162476231 -0.010832645983152846 0 -0.010832645983152846 0.008504088025269696 0 0 0 -0.0039433017843016338 0.0073479146493340974 0.0013760931032975349 0 0.0013760931032975349 0.037366011220128281 0 0 0 0.011178481467365664 0.0078839386069411155 -0.0040691476779485536 0 -0.0040691476779485536 0.069354327725698439 0 0 0 0.019309566583159882 -0.06525956987429829 -0.012858955478374373 0 -0.012858955478374373 0.013274037962700658 0 0 0 -0.012996382977899401 -0.0290936076383276 0.0046359204833056906 0 0.0046359204833056906 -0.00075013027669175621 0 0 0 -0.0074609344787548394 -0.0034722638996256255 0.0055583297767377825 0 0.0055583297767377825 -0.0012832389525157021 0 0 0 -0.0011888757130353309 -0.05076597676875727 0.023852954486962952 0 0.023852954486962952 -0.0011912033120251575 0 0 0 -0.012989295020195524 0.0032806827106452163 -0.01356945318304778 0 -0.01356945318304778 0.0091928247173099775 0 0 0 0.0031183768569887083 -0.0028955000756096627 0.00091619278464864144 0 0.00091619278464864144 -0.0046312776513818465 0 0 0 -0.0018816944317478776 -0.025953119217232437 0.0037244012218574374 0 0.0037244012218574374 0.0062808263421743477 0 0 0 -0.0049180732187645302 0.035336630073594222 0.010772838685116392 0 0.010772838685116392 0.031829848071316391 0 0 0 0.016791619536227653 -0.013174470094488473 -0.0063276572956685109 0 -0.0063276572956685109 -0.009302183143373742 0 0 0 -0.0056191633094655503 -0.010009658953446434 -0.0037023569682878843 0 -0.0037023569682878843 0.0014401306868050273 0 0 0 -0.0021423820666603526 -0.0067447759423534329 -0.0061146664208269891 0 -0.0061146664208269891 0.0031585876995419097 0 0 0 -0.00089654706070287733 -0.0041897792644564058 0.0043514923844094056 0 0.0043514923844094056 0.0036310194639056492 0 0 0 -0.00013968995013766139 0.0042385404192606391 0.0015647436861430941 0 0.0015647436861430941 0.037284813806779726 0 0 0 0.010380838556510119 0.0080356359478795658 -0.0063425484792831166 0 -0.0063425484792831166 0.064875140284816946 0 0 0 0.018227694058174176 -0.0043085986633176615 -0.0093554083129707422 0 -0.0093554083129707422 0.013494577345053264 0 0 0 0.0022964946704339267 0.0017949569503217522 0.012247619480507623 0 0.012247619480507623 0.017546389382971365 0 0 0 0.0048353365833232811 -0.00080591139972278208 -0.010118862243541811 0 -0.010118862243541811 -0.002481954807236772 0 0 0 -0.00082196655173988331 0.0070749079198085003 -0.021083018778492241 0 -0.021083018778492241 0.020736664117962926 0 0 0 0.0069528930094428596 -0.034249493194598607 -0.010642746128215141 0 -0.010642746128215141 0.0020680640204125411 0 0 0 -0.0080453572935464679 -0.038471865492921788 0.0049823589227850889 0 0.0049823589227850889 0.00050722838081994348 0 0 0 -0.0094911592780254524 -0.031545551156720017 0.0061255038417694658 0 0.0061255038417694658 0.001130189091123307 0 0 0 -0.0076038405163991775 -0.06282748661130963 0.0024628425407514989 0 0.0024628425407514989 0.025055502074256247 0 0 0 -0.0094429961342633456 -0.010229558019824919 0.00033449850171990425 0 0.00033449850171990425 -0.00016621834999941409 0 0 0 -0.0025989440924560625 -0.0082354938443454928 -0.0079436238478273746 0 -0.0079436238478273746 0.0046539787516016728 0 0 0 -0.00089537877318596193 -0.0034772188642593783 0.0062513172111403233 0 0.0062513172111403233 0.0025667479166671375 0 0 0 -0.00022761773689806107 0.00041249936400250542 -0.0005984225157449341 0 -0.0005984225157449341 -0.031162349117065946 0 0 0 -0.0076874624382659018 -0.009265601872503134 0.0039878213222143168 0 0.0039878213222143168 -0.0031796323034747175 0 0 0 -0.0031113085439944616 -0.017604406243292042 -0.011673315861374663 0 -0.011673315861374663 0.011484435786666497 0 0 0 -0.0015299926141563863 -0.0023225524913634324 0.00096809698703445276 0 0.00096809698703445276 -0.0080596910131577604 0 0 0 -0.0025955608761302979 -0.011751773999817305 0.029138916003159765 0 0.029138916003159765 0.0015399950291170583 0 0 0 -0.0025529447426752006 -0.013700925615259985 0.031055892894805703 0 0.031055892894805703 -0.00057304482803161028 0 0 0 -0.0035684926108228709 -0.016476013239241145 -0.017972665414121347 0 -0.017972665414121347 0.0020395230302366063 0 0 0 -0.0036091225522510498 0.015116342819280648 -0.043193461332555472 0 -0.043193461332555472 0.077925508209558542 0 0 0 0.023260462757209791 -0.0034676200068642065 0.0015411280826598409 0 0.0015411280826598409 -0.0064734030193136652 0 0 0 -0.0024852557565444677 -0.034751528428288214 -0.0068130887294903242 0 -0.0068130887294903242 0.0017819340083414792 0 0 0 -0.008242398604986656 0.00035723901180251261 3.172409019336353e-05 0 3.172409019336353e-05 -0.00033088374645506846 0 0 0 6.5888163369720587e-06 0.00066114329596245192 0.0062039931206387955 0 0.0062039931206387955 0.071452084366988355 0 0 0 0.018028306915737646 0.010494009561505499 7.0224431365062401e-05 0 7.0224431365062401e-05 0.048153750569154885 0 0 0 0.014661940032664763 0.0065226723491591532 -0.0016249876271328123 0 -0.0016249876271328123 0.02213007563744851 0 0 0 0.0071631869966519712 0.0004644116020666722 -7.6877423334887239e-06 0 -7.6877423334887239e-06 -0.00052246847499670679 0 0 0 -1.451421823217558e-05 -0.0003208275460597168 0.0001778965084862083 0 0.0001778965084862083 0.00045073793569301443 0 0 0 3.2477597408379921e-05 0.0004404156815065452 -0.0066461352700991124 0 -0.0066461352700991124 0.040198665180332327 0 0 0 0.010159770215459663 -0.00040975198028858628 -0.00025035167773945766 0 -0.00025035167773945766 0.00064679411939838616 0 0 0 5.9260534777783036e-05 -0.0054040399152445228 0.00063646527426806639 0 0.00063646527426806639 -0.0055100288805784567 0 0 0 -0.0027285171989557453 -0.01580437492032245 -0.011449246846128441 0 -0.011449246846128441 0.0014270276810957813 0 0 0 -0.0035943368098066523 -0.030875918421514083 0.005623117670361423 0 0.005623117670361423 0.0032911198623154364 0 0 0 -0.0068961996397996564 -0.028132194095414897 -0.014698485040272935 0 -0.014698485040272935 0.0029785800481810787 0 0 0 -0.0062884035118084824 -0.0075405392517464143 -0.0021018239420538673 0 -0.0021018239420538673 -0.0086759094348819992 0 0 0 -0.0040541121716571021 -0.017958404981192055 0.026129388540288678 0 0.026129388540288678 -0.0064333999443455525 0 0 0 -0.0060979512313843465 -0.011994066697999073 -0.020553152310979428 0 -0.020553152310979428 -0.0005786684674617959 0 0 0 -0.003143183791365245 0.00095869643302692875 -0.0035890583620636352 0 -0.0035890583620636352 0.030304488167365862 0 0 0 0.0078157961500981421 0.0034609782604096001 -0.0015268963432545357 0 -0.0015268963432545357 0.056142212570753747 0 0 0 0.014900797707790833 -0.017588417323812708 0.0050132400365404117 0 0.0050132400365404117 0.026527632834633497 0 0 0 0.0022348038777052076 -0.027901028833719178 0.0025761469874224334 0 0.0025761469874224334 0.0033484682837260082 0 0 0 -0.00613814013749827 -0.012322350247155334 -0.0072071264412066462 0 -0.0072071264412066462 0.021772573155043162 0 0 0 0.0023625557269719433 -0.0028725036641591289 0.0030935398433862837 0 0.0030935398433862837 0.04311764763408979 0 0 0 0.010061285992482655 -0.013639189419684491 -0.015410561730669459 0 -0.015410561730669459 0.004734127694577539 0 0 0 -0.0022262654312767832 -0.0022310459456493636 0.0054224110803763456 0 0.0054224110803763456 -0.00084723244431097675 0 0 0 -0.00076956959749008465 -0.013215522767411614 -0.019730326259081221 0 -0.019730326259081221 0.0049297244107147087 0 0 0 -0.0020714495891742124 -0.023402651626166393 0.0236683962035249 0 0.0236683962035249 -0.0020173250400605802 0 0 0 -0.0063549941665564935 -0.011608750174156579 -0.0012495779340499363 0 -0.0012495779340499363 0.0089285489497409332 0 0 0 -0.0006700503061038976 -0.0054664325306098827 -0.0011903006497552271 0 -0.0011903006497552271 0.010976117557753462 0 0 0 0.0013774212567859018 -0.018377513815723816 0.0042193249784748792 0 0.0042193249784748792 -0.0014024892457275059 0 0 0 -0.0049450007653628249 -0.019922465929856904 -0.00080499031629334417 0 -0.00080499031629334417 0.018509641999410638 0 0 0 -0.00035320598261154648 0.012079021170540868 -0.012556252833118675 0 -0.012556252833118675 0.011169051227047144 0 0 0 0.0058120180993970344 -0.015056965904751146 -0.011883674989264376 0 -0.011883674989264376 0.0035118806706239368 0 0 0 -0.0028862713085318122 0.032659687507393814 -0.0096068275486067278 0 -0.0096068275486067278 0.012123900859345005 0 0 0 0.011195897091684753 -0.0092351321328374147 -0.0035935119697431128 0 -0.0035935119697431128 0.020874022150953964 0 0 0 0.0029097225045291442 -0.015200866984796446 -0.0059202388664113953 0 -0.0059202388664113953 0.0025778539708209425 0 0 0 -0.0031557532534938759 -0.034252836708303293 0.0044489659453246701 0 0.0044489659453246701 -0.00084955004876056863 0 0 0 -0.0087755966892659604 -0.017205107219346115 -0.0034536950641271503 0 -0.0034536950641271503 0.022488017399897111 0 0 0 0.0013207275451377412 -0.017140928382796405 -0.0026128803375386417 0 -0.0026128803375386417 0.02791048443983872 0 0 0 0.0026923890142605753 0.024884075716987669 0.03430042459364515 0 0.03430042459364515 0.091560041012943238 0 0 0 0.029111029182482734 -0.0047914005624912284 -0.0060898025560985336 0 -0.0060898025560985336 0.10440427402632163 0 0 0 0.024903218365957602 0.026340834596921159 0.011587063553899869 0 0.011587063553899869 0.038977431603671064 0 0 0 0.016329566550147945 -0.0019830610656080758 0.013832514329034032 0 0.013832514329034032 0.023501539427951204 0 0 0 0.0053796195905857769 -0.03924018741323454 -0.0054621698625060755 0 -0.0054621698625060755 0.00063528066611184819 0 0 0 -0.0096512266867806451 -0.018572888962432629 0.0042742921944200762 0 0.0042742921944200762 -0.0023197419152134538 0 0 0 -0.005223157719411519 -0.042934953955680838 -0.0074356080439153633 0 -0.0074356080439153633 -0.0067954330669457753 0 0 0 -0.012432596755656649 -0.03439766147324308 0.0032475988224330826 0 0.0032475988224330826 -0.0037676827623508453 0 0 0 -0.0095413360588984739 0.0031092178255545024 0.002105077517316924 0 0.002105077517316924 -0.0073966468742557509 0 0 0 -0.0010718572621753117 -0.047215563041427502 -0.0023756892285335804 0 -0.0023756892285335804 -0.00038624103369784004 0 0 0 -0.011900451018781339 -0.042163695811218954 -0.0025108352292277612 0 -0.0025108352292277612 -0.0087974559573544987 0 0 0 -0.012740287942143365 -0.066240139107599363 0.0015387308606409297 0 0.0015387308606409297 0.0002528854318487846 0 0 0 -0.016496813418937648 -0.059337605752857972 0.0016110830192751541 0 0.0016110830192751541 -0.011865015647627672 0 0 0 -0.01780065535012141 -0.024325166411939173 -0.0073479318387426606 0 -0.0073479318387426606 0.011129107094223378 0 0 0 -0.0032990148294289173 -0.0013447842911219015 0.0020421840185565203 0 0.0020421840185565203 -0.0055596780462283616 0 0 0 -0.0017261155843375654 0.027582761519416799 0.017519944629187378 0 0.017519944629187378 0.010966965426103759 0 0 0 0.0096374317363800421 -0.0035399710699621917 -0.0022901065229891104 0 -0.0022901065229891104 0.035155647039311677 0 0 0 0.0079039189923373609 0.0047469205535613217 0.01862829964088699 0 0.01862829964088699 0.036049007535263779 0 0 0 0.010198982022206279 -0.012301016940639814 -0.014188444697361115 0 -0.014188444697361115 0.015710462369480205 0 0 0 0.00085236135721009076 -0.0027042741893798703 0.0014172779224757015 0 0.0014172779224757015 -0.0004226314159715425 0 0 0 -0.00078172640133807524 0.0012671772095184002 -0.0049088894701789787 0 -0.0049088894701789787 -0.0077570851252323535 0 0 0 -0.0016224769789285993 0.0019288254249798908 0.0053702091557581433 0 0.0053702091557581433 -0.0039085063903715415 0 0 0 -0.00049492024134774608 -0.00195470716522649 -0.001076060351830721 0 -0.001076060351830721 -0.00046409827058910378 0 0 0 -0.00060470135895406506 -0.0064143593139296025 0.0032107610371379103 0 0.0032107610371379103 -0.0073403923155157813 0 0 0 -0.0034386879073613381 -0.0062240481911241263 -0.0099694999595663497 0 -0.0099694999595663497 -0.010341259102018774 0 0 0 -0.0041413268232857459 -0.044695638858699295 -0.0046418772670440596 0 -0.0046418772670440596 -0.014871822898394747 0 0 0 -0.014891865439273509 -0.062559920519274795 0.0046208923665035477 0 0.0046208923665035477 -0.02081486739339437 0 0 0 -0.020843696978167292 -0.070314246574147365 0.0050378363570309156 0 0.0050378363570309156 -0.0095283619100560261 0 0 0 -0.019960652121050852 -0.050361120685914765 -0.0048502716299852356 0 -0.0048502716299852356 -0.0070519088765116852 0 0 0 -0.014353257390606611 -0.013034772306831199 -0.0178485839654558 0 -0.0178485839654558 0.0067827061445046577 0 0 0 -0.0015630165405815521 -0.018607893061051813 0.0044290588350510262 0 0.0044290588350510262 0.00077490049680728479 0 0 0 -0.0044582481410611356 -0.016244764950392676 -0.011973935576000478 0 -0.011973935576000478 0.0078104597139065091 0 0 0 -0.0021085763091215487 -0.014565160612688394 -0.011648068735849226 0 -0.011648068735849226 0.0036382692293473462 0 0 0 -0.0027317228458352549 -0.01442078218532317 0.0037362205275502693 0 0.0037362205275502693 0.0012103132226943779 0 0 0 -0.0033026172406571998 -0.0065841560971261022 0.0040966866637968911 0 0.0040966866637968911 -0.0025771000488317257 0 0 0 -0.0022903140364894546 -0.0064980420086619287 0.0046583008475386293 0 0.0046583008475386293 -0.0022783882690906379 0 0 0 -0.0021941075694381397 -0.015941720267129436 -0.018245860116692589 0 -0.018245860116692589 0.065172927746522169 0 0 0 0.012307801869848194 0.015992740899855428 -0.00087566319796797409 0 -0.00087566319796797409 0.18693945049568211 0 0 0 0.050733047848884397 -0.032175400000870748 -0.0040277821850715212 0 -0.0040277821850715212 0.0081071794107054757 0 0 0 -0.0060170551475413128 -0.0086799921662536195 -0.0018628238739941023 0 -0.0018628238739941023 0.019519880919914079 0 0 0 0.0027099721884151218 -0.016708051822171971 -0.0078235554614502212 0 -0.0078235554614502212 0.013541170786900925 0 0 0 -0.00079172025881779629 -0.0062096527178688264 0.0052375502407634089 0 0.0052375502407634089 0.0030263241617119602 0 0 0 -0.00079583213903921743 -0.0033323960914036777 0.02237296195855043 0 0.02237296195855043 0.018778929907821373 0 0 0 0.0038616334541045072 -0.019779003586642641 -0.0090877602644494626 0 -0.0090877602644494626 -0.0009044891267540045 0 0 0 -0.0051708731783493 0.01237336019286981 -0.014692012729329247 0 -0.014692012729329247 0.029058011107402137 0 0 0 0.010357842825067992 -0.003356394386753999 -0.0018730694364658615 0 -0.0018730694364658615 0.0074216219884948587 0 0 0 0.0010163069004352245 -0.029095760482413802 0.018624723031761325 0 0.018624723031761325 0.0013064827610911323 0 0 0 -0.0069473194303308894 -0.010182100192904997 -0.017132516861620983 0 -0.017132516861620983 0.011906612805526073 0 0 0 0.00043112815315526909 -0.0036192609399993692 -0.013778764353203379 0 -0.013778764353203379 0.012125578847755891 0 0 0 0.0021265794769391722 -0.011109254151582981 -0.0026656416056376753 0 -0.0026656416056376753 -0.0082812348094373212 0 0 0 -0.0048476222402550895 -0.0080987672959542678 -0.0056887772616758814 0 -0.0056887772616758814 0.022317299923041406 0 0 0 0.0035546331567717915 -0.0060215427916703469 -0.0065061011980274176 0 -0.0065061011980274176 -0.0076557082287493777 0 0 0 -0.003419312755104929 -0.010171121032912213 -0.0055104779175582097 0 -0.0055104779175582097 -0.030549916264178606 0 0 0 -0.010180259324272724 -0.021694230499464316 0.0049577296595671606 0 0.0049577296595671606 -0.0027468883221231756 0 0 0 -0.0061102797053968795 -0.01819363429147151 0.0048894913586930624 0 0.0048894913586930624 -0.0031132213097618856 0 0 0 -0.0053267139003083542 -0.016734676885645318 -0.00017438971738001526 0 -0.00017438971738001526 0.015984802715314016 0 0 0 -0.00018746854258282577 -0.020969824880010937 -0.0056340804241411108 0 -0.0056340804241411108 0.019151617380166963 0 0 0 -0.00045455187496096228 -0.013083326960473499 0.0033392498354033557 0 0.0033392498354033557 -0.002256693101488523 0 0 0 -0.0038350050154905063 -0.011212697455764729 0.0043600804214863967 0 0.0043600804214863967 0.0016763797664921566 0 0 0 -0.0023840794223181456 -0.012832303467087551 0.0036168641201609567 0 0.0036168641201609567 0.001105188163657009 0 0 0 -0.0029317788258576339 -0.0065833940975744409 0.0048992733109422815 0 0.0048992733109422815 -0.028093806728983817 0 0 0 -0.0086693002066396407 -0.002359721107936974 0.0055702104222661863 0 0.0055702104222661863 -0.014192098443568057 0 0 0 -0.0041379548878762717 -0.0026835905334321522 -0.01016831136089591 0 -0.01016831136089591 -0.015001218759964477 0 0 0 -0.0044212023233491451 -0.0064675147714396419 -0.0094483327290043051 0 -0.0094483327290043051 -0.02727190320410694 0 0 0 -0.0084348544938866454 0.00095506211946854574 -0.017669830706331727 0 -0.017669830706331727 0.064704130112794175 0 0 0 0.016414798058065679 -0.0011892101301838043 0.015252975887739106 0 0.015252975887739106 -0.0045676652648625193 0 0 0 -0.0014392188487613033 -0.000926620455479088 -0.0028218526879578709 0 -0.0028218526879578709 -0.0049792460042157316 0 0 0 -0.0014764666149239547 -0.0012366904793369993 -0.012336653761049643 0 -0.012336653761049643 -0.0060317469762765086 0 0 0 -0.0018171093639032798 -0.0012154451312978987 0.0038699365295751242 0 0.0038699365295751242 -0.007034054307001103 0 0 0 -0.0020623748595746116 -0.031523468951263345 0.024636240688537037 0 0.024636240688537037 -0.0023372471361358116 0 0 0 -0.0084651790218499556 -0.011994401708547486 -0.020011257007744143 0 -0.020011257007744143 0.0051892278670739866 0 0 0 -0.0017012934603682917 -0.0056618369218795483 -0.016405071292137752 0 -0.016405071292137752 0.0070912913706622227 0 0 0 0.00035736361219568247 -0.014011034547053656 -0.0016702689042977872 0 -0.0016702689042977872 0.022678166047601936 0 0 0 0.0021667828751370678 -0.00087171576883404711 0.0093967789471614271 0 0.0093967789471614271 -0.017771510467600393 0 0 0 -0.0046608065591087211 0.00016376803683848529 -0.0013142969419203399 0 -0.0013142969419203399 -0.0018058717040596584 0 0 0 -0.00041052591680501571 0.0001755948217085912 0.0016959679094559199 0 0.0016959679094559199 -0.0024369458921693621 0 0 0 -0.00056533776761513721 -0.0013472405781382868 -0.0076620425856080976 0 -0.0076620425856080976 -0.016461359681378518 0 0 0 -0.0044521500648793122 -0.013990199077780402 -0.0042957331321284015 0 -0.0042957331321284015 -0.017228197990790339 0 0 0 -0.0078045992671426923 0.016520440520982296 -0.01580011327210265 0 -0.01580011327210265 0.0038644953568856694 0 0 0 0.0050962339694670261 0.00980337034651136 0.00059676599081240345 0 0.00059676599081240345 0.032451887543183872 0 0 0 0.010563814472423806 0.014842244458996456 -0.0034980846556634249 0 -0.0034980846556634249 0.062656497052385296 0 0 0 0.019374685377845424 -0.0039584940228708163 0.0045955221312391735 0 0.0045955221312391735 -0.0034422900045862972 0 0 0 -0.0018501960068642784 -0.05081643003953229 0.023112747243589915 0 0.023112747243589915 0.0014900057192170912 0 0 0 -0.012331606080078772 -0.051777029665726393 0.019829169215235021 0 0.019829169215235021 -0.0010511632760157319 0 0 0 -0.013207048235435503 -0.014027717993838128 -0.0057357666699293375 0 -0.0057357666699293375 -0.0062654559949177624 0 0 0 -0.0050732934971889727 -0.012158869040801492 0.00071281068537831262 0 0.00071281068537831262 0.0071847414756356495 0 0 0 -0.0012435318912914634 -0.017705293685678043 -0.011341880302258564 0 -0.011341880302258564 0.0071859445526008051 0 0 0 -0.0026298372832692955 -0.014297790186321005 -0.013400952686851333 0 -0.013400952686851333 0.014082539025621243 0 0 0 -5.3812790174954418e-05 -0.031480317297021498 0.024225292239545781 0 0.024225292239545781 -0.0027026545377766276 0 0 0 -0.008545742958699476 -0.011603323355638517 -0.017756251627610992 0 -0.017756251627610992 0.0068817397976914663 0 0 0 -0.0011803958894868183 -0.012687766852781446 -0.018448377996525267 0 -0.018448377996525267 0.0061770980455355673 0 0 0 -0.0016276672018114557 -0.042001221490071912 0.0026538057899754587 0 0.0026538057899754587 -0.0037065136852292872 0 0 0 -0.011426933793825301 -0.058831465973712929 -0.0072601645381029653 0 -0.0072601645381029653 -0.0067550278815029473 0 0 0 -0.016396623463803963 -0.053542846867287344 -0.0092799047770329799 0 -0.0092799047770329799 -0.00024642092569015172 0 0 0 -0.013447316948244376 -0.039625792542570974 0.0037250772306142376 0 0.0037250772306142376 -0.00027608711302653513 0 0 0 -0.0099754699138993857 -0.014354961646360957 -4.7266880571268481e-05 0 -4.7266880571268481e-05 0.010593541315507545 0 0 0 -0.00094035508271335128 -0.047582361896768233 0.018995600211596853 0 0.018995600211596853 -0.00278806650086727 0 0 0 -0.012592607099408792 -0.0042916872690249019 -0.015603118319756915 0 -0.015603118319756915 0.011216864321475395 0 0 0 0.0017312942631126371 -0.004369206334340292 -0.015856662358171722 0 -0.015856662358171722 0.0095156210846061295 0 0 0 0.0012866036875664455 -0.028639246394553119 -0.016404666421943548 0 -0.016404666421943548 0.0058019800917864378 0 0 0 -0.0057093165756916808 -0.015399973657426017 -0.005010175846618975 0 -0.005010175846618975 -0.010562927931731095 0 0 0 -0.0064907253972892633 -0.0012567881060584034 -0.010780291855349983 0 -0.010780291855349983 -0.0045514180401254878 0 0 0 -0.0014520515365459771 -0.012051821728481949 -0.0023960763097164084 0 -0.0023960763097164084 0.0070248564351454226 0 0 0 -0.0012567413233341256 -0.034468615506124539 0.0053805805159908085 0 0.0053805805159908085 -0.0022517296790542669 0 0 0 -0.0091800862962947011 -0.052719017241306093 0.030362519809571387 0 0.030362519809571387 0.00978673270972924 0 0 0 -0.010733071132894262 -0.033136892958048836 -0.013651352079977419 0 -0.013651352079977419 0.0060147031939139506 0 0 0 -0.0067805474410337352 -0.0072053562261597745 0.027623239199028982 0 0.027623239199028982 0.0030022531992962564 0 0 0 -0.0010507757567157147 -0.021894212494269316 -0.01482917297189501 0 -0.01482917297189501 -0.0028000358115149449 0 0 0 -0.006173562076446093 -0.0020958877642960339 0.032368213568299276 0 0.032368213568299276 0.0034657963406721226 0 0 0 0.0003424771440940777 -0.032066679102696609 0.0046725638454210364 0 0.0046725638454210364 0.00011767352712345816 0 0 0 -0.0079872513938932851 -0.013288239502325888 0.0016923590761579251 0 0.0016923590761579251 0.0048590243456106668 0 0 0 -0.0021073037891788035 -0.028146387025040798 -0.014636796107927896 0 -0.014636796107927896 0.0022546807403267533 0 0 0 -0.0064729265711785944 -0.0028980178819851786 0.0075999510303480233 0 0.0075999510303480233 0.0046446978724092383 0 0 0 0.00043666999760600192 -0.0040446040638923431 -0.011500361340258697 0 -0.011500361340258697 0.014049628290694227 0 0 0 0.0025012560567004849 -0.012137592287132135 0.0024519975075856086 0 0.0024519975075856086 0.00053766571315208849 0 0 0 -0.0028999816434950071 0.00094379101530162046 0.00050624858284731289 0 0.00050624858284731289 -0.00062345404184060982 0 0 0 8.0084243365252661e-05 -0.0043461908580906261 0.0024122099840349076 0 0.0024122099840349076 -0.0020381028619667063 0 0 0 -0.0015960734300142221 -0.00058556269930365445 -0.011948251560000789 0 -0.011948251560000789 -0.0046231568819039559 0 0 0 -0.0013021798953017916 -0.00014515628043421103 -0.0055771241507421854 0 -0.0055771241507421854 -0.003378223058564167 0 0 0 -0.00088084483474970554 -0.00038275331275072766 0.0065381223017355605 0 0.0065381223017355605 0.0035710457978774812 0 0 0 0.00079707312128163288 0.00066426869222502294 -0.00037325266144083713 0 -0.00037325266144083713 -0.00040279712791591038 0 0 0 6.5367891077139362e-05 0.0011954717284063943 0.013751982430108445 0 0.013751982430108445 0.0028460103481453558 0 0 0 0.001010370519137993 -0.0032203269306043669 -0.0017494557687017798 0 -0.0017494557687017798 -0.0014456567813057042 0 0 0 -0.0011664959279775733 -0.014847712259749735 -0.0065776183609191907 0 -0.0065776183609191907 -0.011861954286000453 0 0 0 -0.0066774166364375054 -0.016247920674950928 -0.0070684392747408197 0 -0.0070684392747408197 0.0060702159596228711 0 0 0 -0.002544426178832021 -0.019303298788921924 -0.0076865605729924541 0 -0.0076865605729924541 0.0052576669745341698 0 0 0 -0.0035114079535969456 -0.0094108355750373018 -0.0019487251054007559 0 -0.0019487251054007559 -0.015331383842301205 0 0 0 -0.0061855548543346406 -0.0097306583781603673 -0.00099489943042349593 0 -0.00099489943042349593 -0.014469089937785229 0 0 0 -0.006049937078986406 -0.0042482924698166594 0.017148397293137878 0 0.017148397293137878 0.050036279277744691 0 0 0 0.011446996701982001 -0.018822843979258538 -0.012794967630766377 0 -0.012794967630766377 0.0034420112064207434 0 0 0 -0.0038452081932094442 -0.019884291396810805 -0.018116218931135186 0 -0.018116218931135186 0.0012117090897434124 0 0 0 -0.0046681455767668481 -0.025498314582503314 0.0034412591775679819 0 0.0034412591775679819 0.0017121150585617494 0 0 0 -0.0059465498809853929 -0.059670379180543076 0.018881444427166605 0 0.018881444427166605 0.0025688008668562912 0 0 0 -0.014275394578421863 -0.048094406688411473 0.028198925615082582 0 0.028198925615082582 0.022924715666757467 0 0 0 -0.0062924227554134737 0.00025647019877648308 0.01612079255881161 0 0.01612079255881161 0.032789933871304605 0 0 0 0.0082616010175202703 -0.012762394982248071 -0.006500992798175057 0 -0.006500992798175057 0.0033064034970108347 0 0 0 -0.0023639978713093091 -0.014656053566538624 -0.0084028277982734316 0 -0.0084028277982734316 0.00022127960336948416 0 0 0 -0.0036086934907922641 0.016139243512018814 0.020194300727651906 0 0.020194300727651906 0.033446119381661893 0 0 0 0.012396340723420191 -0.03256017573794133 -0.012435398456579982 0 -0.012435398456579982 0.010692546789018653 0 0 0 -0.0054669072372306865 -0.038625508778023294 -0.0079930202683748397 0 -0.0079930202683748397 0.0010101531592571766 0 0 0 -0.0094038389046915485 0.0010065946303553716 0.013874178264885528 0 0.013874178264885528 0.024106652908277001 0 0 0 0.0062783118846580915 0.0092177859599015411 0.016469421080055516 0 0.016469421080055516 0.018565728526298415 0 0 0 0.0069458786215499885 -0.0195745862517481 -0.0091860757907034074 0 -0.0091860757907034074 0.011233889455143642 0 0 0 -0.0020851741991511075 -0.012688840738520994 -0.00061961472280598856 0 -0.00061961472280598856 0.0055687613712650788 0 0 0 -0.0017800198418139747 -0.012173490115921455 0.00011969219113187532 0 0.00011969219113187532 0.010381885888708576 0 0 0 -0.00044790105680322066 -0.011843108234815984 0.00070761274629896256 0 0.00070761274629896256 0.017936045176349103 0 0 0 0.0015232342353832811 0.010955658788385336 0.014259150633199047 0 0.014259150633199047 0.056596077623674912 0 0 0 0.016887934103015145 -0.020910445441149283 -0.0041324223283440986 0 -0.0041324223283440986 0.00015278468759039043 0 0 0 -0.0051894151883896678 -0.032059289800225807 0.0058816923999279649 0 0.0058816923999279649 0.00018374961906025486 0 0 0 -0.0079688850452913906 -0.0068840395782592935 0.003901565135329015 0 0.003901565135329015 -0.0038790048178611609 0 0 0 -0.002690761099030113 0.033085629351864043 0.011110463461199038 0 0.011110463461199038 0.03107172395556157 0 0 0 0.016039338326856389 -0.012269407823361639 -0.0047773341185898544 0 -0.0047773341185898544 -0.011054782230236371 0 0 0 -0.0058310475133995232 -0.023846439296091159 -0.017417154754916554 0 -0.017417154754916554 -0.0019674537300423123 0 0 0 -0.0064534732565333756 -0.039354217453909615 -0.014878581149104505 0 -0.014878581149104505 -0.00073922201955073374 0 0 0 -0.010023359868365105 -0.01617949078037817 -0.0065719078786404261 0 -0.0065719078786404261 0.021760930789096911 0 0 0 0.0013953600021796575 
</DataArray>
<DataArray type="Float64" Name="cross_section_updated" format="ascii">
0.0010045461504858853 0.001011406649078825 0.0010159774877478457 0.0010206052973368346 0.0010257203900247047 0.0010316178591170614 0.0010384669081368444 0.0010458904841597024 0.0010538759665485156 0.0010614560196455054 0.0020171511188748119 0.0020448452576926567 0.002064895663279373 0.002084061637820607 0.0021037603128236716 0.0021241849619258089 0.0021455651770828526 0.0021671342858247088 0.0021888222907087049 0.0022095847522988149 1 1 1 1 1 1 1 1 1 1 1 1 1 1 1 1 1 1 1 1 1 1 1 1 1 1 1 1 1 1 1 1 1 1 1 1 1 1 1 1 1 1 1 1 1 1 1 1 1 1 1 1 1 1 1 1 1 1 1 1 1 1 1 1 1 1 1 1 1 1 1 1 1 1 1 1 1 1 1 1 1 1 1 1 1 1 1 1 1 1 1 1 1 1 1 1 1 1 1 1 1 1 1 1 1 1 1 1 1 1 1 1 1 1 1 1 1 1 1 1 1 1 1 1 1 1 1 1 1 1 1 1 1 1 1 1 1 1 1 1 1 1 1 1 1 1 1 1 1 1 1 1 1 1 1 1 1 1 1 1 1 1 1 1 1 1 1 1 1 1 1 1 1 1 1 1 1 1 1 1 1 1 1 1 1 1 1 1 1 1 1 1 1 1 1 1 1 1 1 1 1 1 1 1 1 1 1 1 1 1 1 1 1 1 1 1 1 1 1 1 1 1 1 1 1 1 1 1 1 1 1 1 1 1 1 1 1 1 1 1 1 1 1 1 1 1 1 1 1 1 1 1 1 1 1 1 1 1 1 1 1 1 1 1 1 1 1 1 1 1 1 1 1 1 1 1 1 1 1 1 1 1 1 1 1 1 1 1 1 1 1 1 1 1 1 1 1 1 1 1 1 1 1 1 1 1 1 1 1 1 1 1 1 1 1 1 1 1 1 1 1 1 1 1 1 1 1 1 1 1 1 1 1 1 1 1 1 1 1 1 1 1 1 1 1 1 1 1 1 1 1 1 1 1 1 1 1 1 1 1 1 1 1 1 1 1 1 1 1 1 1 1 1 1 1 1 1 1 1 1 1 1 1 1 1 1 1 1 1 1 1 1 1 1 1 1 1 1 1 1 1 1 1 1 1 1 1 1 1 1 1 1 1 1 1 1 1 1 1 1 1 1 1 1 1 1 1 1 1 1 1 1 1 1 1 1 1 1 1 1 1 1 1 1 1 1 1 1 1 1 1 1 1 1 1 1 1 1 1 1 1 1 1 1 1 1 1 1 1 1 1 1 1 1 1 1 1 1 1 1 1 1 1 1 1 1 1 1 1 1 1 1 1 1 1 1 1 1 1 1 1 1 1 1 1 1 1 1 1 1 1 1 1 1 1 1 1 1 1 1 1 1 1 1 1 1 1 1 1 1 1 1 1 1 1 1 1 1 1 1 1 1 1 1 1 1 1 1 1 1 1 1 1 1 1 1 1 1 1 1 1 1 1 1 1 1 1 1 1 1 1 1 1 1 1 1 1 1 1 1 1 1 1 1 1 1 1 1 1 1 1 1 1 1 1 1 1 1 1 1 1 1 1 1 1 1 1 1 1 1 1 1 1 1 1 1 1 1 1 1 1 1 1 1 1 1 1 1 1 1 1 1 1 1 1 1 1 1 1 1 1 1 1 1 1 1 1 1 1 1 1 1 1 1 1 1 1 1 1 1 1 1 1 1 1 1 1 1 1 1 1 1 1 1 1 1 1 1 1 1 1 1 1 1 1 1 1 1 1 1 1 1 1 1 1 1 1 1 1 1 1 1 1 1 1 1 1 1 1 1 1 1 1 1 1 1 1 1 1 1 1 1 1 1 1 1 1 1 1 1 1 1 1 1 1 1 1 1 1 1 1 1 1 1 1 1 1 1 1 1 1 1 1 1 1 1 1 1 1 1 1 1 1 1 1 1 1 1 1 1 1 1 1 1 1 1 1 1 1 1 1 1 1 1 1 1 1 1 1 1 1 1 1 1 1 1 1 1 1 1 1 1 1 1 1 1 1 1 1 1 1 1 1 1 1 1 1 1 1 1 1 1 1 1 1 1 1 1 1 1 1 1 1 1 1 1 1 1 1 1 1 1 1 1 1 1 1 1 1 1 1 1 1 1 1 1 1 1 1 1 1 1 1 1 1 1 1 1 1 1 1 1 1 1 1 1 1 1 1 1 1 1 1 1 1 1 1 1 1 1 1 1 1 1 1 1 1 1 1 1 1 1 1 1 1 1 1 1 1 1 1 1 1 1 1 1 1 1 1 1 1 1 1 1 1 1 1 1 1 1 1 1 1 1 1 1 1 1 1 1 1 1 1 1 1 1 1 1 1 1 1 1 1 1 1 1 1 1 1 1 1 1 1 1 1 1 1 1 1 1 1 1 1 1 1 1 1 1 1 1 1 1 1 1 1 1 1 1 1 1 1 1 1 1 1 1 1 1 1 1 1 1 1 1 1 1 1 1 1 1 1 1 1 1 1 1 1 1 1 1 1 1 1 1 1 1 1 1 1 1 1 1 1 1 
</DataArray>
<DataArray type="Float64" Name="displacement_divergence" format="ascii">
0.004537061505723544 0.011396395798176971 0.01596462074482358 0.020593535158294513 0.025710111846720566 0.031607923130997313 0.03845498348948876 0.045876868778294007 0.053868565324458141 0.06141972784710939 0.0086302640461469668 0.02243002493788392 0.032452693437455861 0.042030705819754148 0.051875279508236678 0.06208232772555513 0.072767692341056095 0.083532871934744943 0.094432037353554585 0.10458041487684606 -2.7290355900635166e-06 4.6315870076469009e-06 -6.4863062800565657e-06 -4.5700096956752932e-06 -3.8647531342297273e-05 -2.7272568328099418e-05 -4.2213419051956367e-05 -2.8718859256665506e-05 -3.7600655306343225e-05 -6.5603189194544541e-05 -4.3188631014013193e-06 -5.0465099737868279e-06 -1.3109308555035071e-05 -1.3603703401514601e-05 -1.5418515919600892e-05 -1.0279960861221996e-05 0.00011697172609403283 -1.0435370393513648e-05 -3.4680132608797681e-06 -1.282189765973267e-05 -2.6297502439887651e-06 -8.1389582902893342e-06 -1.0367350096045203e-05 -1.1717384766683827e-05 9.4770422994665433e-05 -7.8905020676289718e-05 -4.2729155055128544e-05 -2.329208705136287e-05 -1.4326575853662658e-05 -3.3541982763898109e-05 6.3864024717763816e-06 -9.6581493543654718e-06 -1.2875444555990843e-05 -7.503633853693124e-06 -1.693123716498858e-05 -2.3915660575415471e-05 1.6062083167212513e-05 -3.450186509597008e-05 0.00011593849155348119 -9.6204387750274938e-06 -6.7210000342311955e-06 1.6250332581792417e-05 1.306611434272859e-05 -5.4043310675827225e-06 -1.0538937444405734e-05 -1.0820476833531637e-05 -1.1011050001275927e-06 -2.663089590203933e-06 0.00012164293840735596 -5.4480270163300429e-06 7.4888614015291199e-06 -2.0310667458847307e-05 9.2621833238190095e-06 -4.2978587285623826e-06 -2.5253838365013408e-06 -4.4526869206845958e-05 -3.8906530773865407e-06 2.2184192637853765e-05 1.7482062765885499e-05 -1.5128460494821631e-06 -1.5323311557316e-05 3.6888987791205348e-05 -1.0172425809043051e-05 -7.2359928248930388e-06 -9.1512974747103319e-06 -2.9611865594733438e-05 -4.1597992062906855e-05 -1.5876632317731427e-05 -1.2683371002037997e-05 -3.1817355098996184e-05 -2.443542495823112e-05 -7.5544572771913856e-06 -2.7956752987987942e-05 -4.0372515335919987e-05 -8.70057085338642e-06 -4.2306108263091076e-06 3.05429964007244e-05 -4.0193282621041478e-06 -8.765736906274379e-06 -1.3733254564379571e-05 -2.0805833384457406e-05 -4.1663224507039943e-05 -3.0649799055549562e-05 -1.1655786319867157e-05 -1.4103701817874551e-05 -6.3761465571599571e-06 -6.0683101387626364e-06 -5.594070418040741e-06 -2.0241043095342675e-05 -1.2098567159789556e-05 -3.5531335603373348e-06 -5.0949323316246476e-06 -5.7059935722074647e-06 -8.3039787412052203e-06 3.7321777439629103e-06 -1.2612388325100978e-05 1.6827135338966217e-05 3.8316135555144411e-05 -9.7429262631179396e-07 -5.7377593327715901e-06 4.4403338723787884e-05 3.0377837180925601e-05 -7.8289438264712325e-06 -9.8947706561925551e-06 1.8102190983718298e-05 4.7571702103631468e-06 1.6730297825732945e-06 -2.1678095969255293e-05 -1.9488310863037366e-05 1.3768662476077265e-05 -8.7796780191599054e-06 2.0566984366495941e-05 -3.3579037907235793e-05 -5.5305617437843901e-05 2.0124320983778239e-06 5.2585954698064377e-05 -5.4790060167872402e-06 -3.7873046641049484e-06 -4.9676182298625265e-06 -5.7672033492084038e-06 -5.3217804463099802e-06 -4.5047588165483066e-06 8.8867393560069694e-06 -9.5993024582885045e-06 -7.2781938651614971e-06 -8.4144629436385134e-06 3.9716119299185951e-06 -5.7947887837107252e-05 -1.2602681211222074e-05 -8.8977519030376687e-06 -1.9665991922410267e-05 -4.5002057062059654e-05 -2.7935091426014081e-05 -2.9168991905196559e-05 -4.8344815207973551e-05 -4.436746922017868e-05 -1.1263630433215482e-05 -3.3353966083759476e-05 1.9890503959851553e-05 6.1604947325974815e-06 6.3518929514068287e-06 -1.692768497443646e-05 -5.9327099603183418e-06 4.3470244549786661e-06 -1.4868195901427805e-05 -1.0985431796853865e-05 -1.4771031723482126e-05 -1.3579705348022911e-05 -1.0499472820001246e-06 -2.0018065166764065e-05 -1.7775240960211621e-05 -8.1919627489594796e-06 -5.9568397986056176e-06 -8.2008177677407033e-06 -8.5766356674268556e-06 -1.37408083897539e-05 2.6603968497054801e-06 -5.442448057147448e-06 -1.2206070300338912e-05 1.3693499311448789e-05 -9.7979270757322539e-06 -7.5009084804880586e-06 -4.1643802978388921e-05 -3.063761240271831e-05 4.8599686182716448e-05 -5.7928703000986009e-06 4.853590693659109e-06 -2.3133591802255743e-05 -3.0732540985152098e-05 -4.9824634264652277e-05 -1.3930811879931987e-05 -2.7244206278569216e-05 -3.5516705838066079e-05 -2.9010742245751863e-05 -1.5962748621870384e-05 -1.5100842525132488e-05 -2.0084350231499678e-05 -1.1148027945235206e-05 -3.8648009989075173e-06 -1.331087199769247e-05 -7.2964050439713011e-06 -1.0108658450412416e-05 -1.9380465327776122e-05 -1.6735511599825571e-05 -9.128673081603065e-06 -9.0637834085044677e-06 -1.156853499545852e-05 1.5942970527804299e-05 3.7209180558581056e-05 9.0390190260111329e-07 -5.4431966315123101e-06 -1.0299838140324767e-05 -2.0503808139038819e-05 3.3658887713594252e-06 -1.4414241636055757e-05 -1.0470458723730865e-05 -8.8093267388214135e-06 -3.10282973955182e-05 -4.7856081993820842e-05 -5.304932455657015e-06 -1.9433753619841751e-05 -2.3144585157901792e-05 -6.3573399800333664e-05 -3.594370452381329e-05 4.5161785303629657e-05 0.00012136455436800044 -1.9887443147922229e-06 -8.8643477607350599e-06 1.2323015342753771e-05 -1.9404782265464745e-05 -8.0378036290781403e-06 -1.7936542093409684e-05 -1.8042983983865106e-05 -5.6766631098739943e-05 -1.5617164117508534e-05 -7.3592910689525455e-06 -7.3932889501851461e-07 -1.2724298601158701e-05 -1.0216495058023003e-06 3.0672646742115463e-06 -2.5361977478477239e-05 -1.215345134134428e-05 -4.1058316803526086e-05 -1.0038522483615375e-05 -1.1183051032856737e-05 -1.2012422102600315e-05 -9.7184111635467089e-06 -1.2397500134029416e-05 4.2692166457778107e-05 -4.3949219417402517e-06 -8.1361639674196688e-06 -4.2229771983519944e-06 2.6585322506143729e-05 -3.0713806649915472e-05 -5.968921344509271e-06 -4.8818730527242254e-05 -3.09971839138728e-05 -3.2522906448331865e-05 -6.6963666375697253e-06 -4.4015280196450302e-06 5.5394069520551254e-06 3.862629295570404e-06 -4.7943241516886429e-06 -1.7480591287756444e-05 -1.0342335371221019e-05 -6.6179828406783019e-06 4.7535988968488209e-06 -7.9325966159714614e-06 -1.3229187796203086e-05 -9.574592684257182e-06 -6.6716887365454204e-06 -2.8098749587285554e-05 -2.1369575826246553e-05 -2.5799469468490194e-05 -4.0391737498278566e-05 -3.0628410846809256e-05 -1.0892033459447137e-05 4.976547101864532e-05 -3.0937804881776278e-05 -2.3657216405753032e-05 -1.7460718728046031e-06 -1.6204387718809738e-05 -1.9324332263212867e-05 -3.9400636744084063e-05 -4.0330764366308815e-05 -3.378335496514312e-06 -5.0400046990987414e-06 -1.8021166130343439e-05 -1.8924789211515933e-05 -1.3365970552625545e-05 2.1550911044669672e-05 3.957933696616345e-05 -1.5930470813267114e-05 -2.4934548044729175e-05 -1.9874709894878253e-05 -3.737639140769902e-05 -2.3647744337937737e-06 -8.4568491398301208e-06 -7.5056327562351478e-06 -1.4982274008508606e-05 -1.8579824618193837e-05 -1.7153495213506652e-05 -1.6865098752402125e-05 -2.6033038511036007e-05 -3.9278610278702694e-05 -3.0634061444139028e-05 -2.3717281360569785e-05 -1.8886313636457915e-05 -2.4560040527412164e-05 -1.164659961064047e-05 1.5910841612948578e-05 -3.1188799038486321e-06 -8.223282462765328e-06 -4.8979319846175363e-06 -1.8829706921298055e-05 -2.3460605602039361e-05 -3.1136379947318218e-06 3.7899767040436251e-06 -3.7773121669758747e-05 1.634503386761121e-05 -1.4093091661474921e-05 4.2030230334177027e-06 -4.0592646237538932e-05 -2.7234502974132847e-05 4.4957047130824685e-06 -5.7840766524247597e-06 -9.8165000131612758e-06 -4.0659530762808106e-05 -2.7671697583055163e-05 1.1298721292825461e-05 -1.0093884069201824e-05 -1.1908822889036136e-05 -2.287680729114866e-05 -1.8028712800841972e-05 5.6456113344566469e-07 1.2349195317015123e-06 -1.6374126399620581e-05 -1.4413096765182502e-05 -1.5003484652713319e-05 -1.4643972219856623e-05 -1.0661902724409355e-05 9.9068266526509824e-06 1.3719353945569612e-06 -4.8097370024266853e-06 -1.4850921705721791e-05 -6.0465893054009213e-07 1.837715801328893e-06 7.8158563576967083e-06 -1.7842199677638908e-05 -9.678993159632711e-06 -3.1559066908684723e-05 -2.4201536915475158e-05 -6.4327931023378275e-07 2.3272110619275855e-05 4.1155804551561354e-05 1.8659308553548975e-06 4.6096193034439928e-06 -1.6335613165268422e-05 -2.0477379935132808e-05 -1.0920034187640088e-05 -1.4501229216908301e-05 -5.1555764267381427e-06 -1.2305940111759705e-05 -9.3431054780195293e-06 -1.14397160444887e-05 -1.23778392969549e-05 -5.17841091418091e-06 -2.2331679962478812e-06 -5.8242446007265858e-06 -8.5526218800929896e-06 -2.616901273549906e-05 -2.1133640863176101e-05 1.1539452043942506e-05 -3.9243330380417011e-05 -2.8279257185903462e-05 -1.898117936285958e-05 1.2973455707949023e-05 1.3178705885200465e-05 3.5765834221568663e-07 -1.2221835331303996e-05 -2.6997998066864519e-06 -1.1870696560302148e-05 -2.700250064892112e-05 -1.9615912716391406e-05 1.4209679462828069e-05 1.8050969732962148e-06 6.7326391913992618e-06 2.2607746174327061e-06 3.6122920173090343e-07 2.4086997590951475e-05 1.4143974895852648e-05 -8.735191849192081e-07 -1.0384442090685675e-05 8.2307378456300136e-06 -6.86803927208211e-06 -1.8071128855978009e-05 8.0689952431002582e-06 -9.4201731950444687e-06 -3.6019487387898685e-05 -1.6913256166544417e-05 1.9265150320846055e-07 1.6470615124040927e-05 -6.2907844943320239e-05 -6.5538792121191678e-06 -2.5620060499629058e-06 -9.4230844158745331e-06 -1.849927071986623e-05 -1.1624527059636384e-05 -5.0142544125973224e-06 -2.8180261402887886e-06 -7.4501593704364761e-06 -4.0280711424297254e-06 -2.7904726597309435e-05 3.1813322812665652e-05 -1.2332151893728786e-05 -3.9132215999704848e-06 -2.6370050461777348e-06 -1.0673522192451712e-05 4.1915002340904388e-07 2.105312900732862e-06 -5.6231626693712764e-07 -3.5374796106527523e-06 -2.3335278146360683e-05 -6.8081976964032067e-06 -3.2236139727861383e-07 -2.6303346929223277e-05 4.1649124273664134e-05 -1.0626987709390096e-05 -9.77777929388364e-06 -4.3281466490680272e-06 -5.0192478601268285e-06 1.3376579101788267e-05 -1.095205243573685e-05 -1.1478474930696998e-05 -3.4054271188606777e-06 -2.6409056594532904e-05 -2.1177951392362506e-05 -3.1782393998969924e-06 -3.1593648395097712e-05 -4.3198549512983228e-05 -2.0378880605081951e-06 -3.3657427056765473e-07 5.0977132415555608e-06 -1.7970562366387283e-05 4.4627214249933297e-05 -8.151995932266824e-06 1.3104996350449318e-06 2.8013448636429782e-05 -4.5888012525154313e-06 -1.1704123411432083e-05 -7.8269377371047123e-06 -7.6205380040099352e-06 2.4178188666198574e-06 5.8022757723004588e-06 -7.0902957041796364e-06 -4.086885088674785e-05 -7.3441188252338214e-05 2.7365163066761923e-05 -1.8334884274606332e-05 1.4203870251267127e-05 2.7259953435120261e-05 4.7552735020270202e-05 3.2240620111290553e-05 -1.6530353528621978e-05 -1.6586162345522191e-05 3.2404391632836306e-05 1.2197132056444371e-05 -1.5425801165639373e-06 -7.2842352491493505e-06 -6.4802885957272911e-06 -4.7935191070829549e-06 -8.6932914635825913e-06 -4.4100181737232042e-06 -2.2872001612685416e-06 -3.3944715932572177e-06 1.3626648785074375e-05 -5.0344295720239005e-06 -4.1235089132259876e-06 7.5337522383883844e-06 -8.6705043850109407e-06 -6.5960028665067443e-06 -7.02983609932946e-06 4.2524696994191693e-07 -2.8160450954387847e-05 2.1400872938997398e-05 4.8017105740285422e-06 8.4878494344070449e-06 -1.2691910835901769e-05 -1.6388225019643753e-05 -8.6805496009968145e-05 -4.5826412376706463e-05 -7.7136558496728853e-06 -1.1556716877415913e-05 6.1735961660350463e-06 6.2165416395574574e-06 2.2360012225808307e-06 -3.8120178194398338e-05 -2.6744321605806365e-05 2.9049744085359909e-05 -2.9684603406128343e-05 -2.2711067517791112e-05 -1.4692105163647932e-05 3.8122241944627227e-05 2.9344811993692061e-06 -5.3764965983376441e-06 -2.0343757135473181e-05 -1.9516282060847864e-05 -3.5976894969225081e-05 -5.919191883821688e-05 -1.2935557317263815e-05 1.7158554383848101e-05 3.5114382843231925e-06 7.250106859114927e-06 4.7983642011539225e-06 1.6153941886157281e-05 1.6829852233512545e-05 -2.2151983147006011e-05 -8.599638944748266e-06 2.4085929303022363e-06 2.9995947067190916e-05 -3.3144013816729045e-05 -5.2403192896961675e-05 -2.1737216696562297e-05 2.3636491663845273e-05 -2.284085691018958e-07 -3.0627915655055247e-05 -2.2945274386642152e-05 -8.7979295786101886e-06 5.5763979582436788e-06 -5.440008465822392e-06 -8.9943294083429412e-06 -2.5596507202621608e-05 1.274506342548241e-05 1.3391536096279857e-05 4.7276342364996338e-06 -3.2525341970904547e-06 7.1193262084440722e-07 5.5886614056723621e-06 2.8202002357534915e-05 2.4915508133570297e-07 1.3095989455572403e-05 3.1291747625505038e-07 1.7445541359781913e-06 -2.1902320164026904e-06 2.167221146899934e-07 -4.6286228980869527e-05 -5.3753646896982255e-05 -6.7304950099709253e-06 -9.7540783030470316e-06 1.5967363619516995e-05 -2.2034885451578567e-05 -1.9095363363210698e-05 -2.248472282998222e-05 -2.9494482442317377e-05 -2.1698041859640003e-05 -1.6290099642848302e-05 -1.1456055227214435e-05 -1.1937804908351904e-05 -1.1558791795062211e-05 -1.3264492346926704e-05 -1.0000478164514954e-05 -1.1752426663609464e-05 -1.6313990267939421e-05 -1.5647002324203534e-05 -4.3549683246895353e-06 -1.9245619363328016e-05 -2.2196477261763535e-05 4.1562807378522145e-06 -4.0965649426098154e-06 -2.7576752991658614e-05 -2.3371935300336922e-05 2.2757493345081664e-05 -2.3209150128802565e-05 -1.2825534311991922e-05 1.1988020632287431e-05 1.5328171121014866e-06 -7.0356368461459642e-07 -4.3591260242171559e-05 -3.0274417537536906e-05 1.0768967027057988e-05 4.628406149406252e-07 -6.3740356312998679e-06 -2.4842103964634235e-05 -3.6081215553479561e-05 -4.21357255954575e-06 -4.6862782859678125e-06 -8.1788802027116971e-06 2.6411037509701503e-06 -9.6339233026356892e-06 4.8366809608928513e-05 -1.1920306935675939e-05 -2.6488048797838459e-05 1.6920518263006425e-05 1.7493349426955188e-05 -2.527491264360634e-05 -2.3729758492163449e-07 -3.4106779875378796e-05 -5.8059581682595856e-05 -3.4607229012116388e-05 -6.0108065441071468e-05 -2.771432886356436e-05 -3.7767226400124511e-05 1.5122354468589309e-06 6.3038931480782117e-06 1.4100420928810488e-05 3.6943983412305909e-05 8.6546327761390112e-06 3.0397311065705624e-05 7.618909930686606e-06 -7.6305606253596189e-06 8.0496983922591212e-06 6.3804978624686483e-07 7.6617496183224884e-06 -5.2465932950781103e-05 4.7224441851645204e-06 5.1328558836315392e-05 4.7117454847367781e-05 1.9722239313816822e-05 -6.5000877111847028e-05 -3.6859891328467428e-05 4.9161692068522057e-06 -3.1250588011830227e-05 -2.0784867875652457e-05 -1.5068075097597654e-06 2.6234738707855564e-06 1.4070643543706855e-05 -1.2869304734064793e-05 -1.5982846683037965e-05 -1.7142665231929424e-05 -6.2343795928703624e-06 -5.6823604648083021e-06 -9.8545369476972738e-06 -8.7685970922438475e-06 -2.0011412995488647e-05 -1.3826199477571857e-05 -1.9911611956347277e-05 -2.4478412607556843e-05 -3.1027021430411034e-05 -5.5411988632162899e-05 -2.3597184328568012e-05 -1.4568950132285125e-06 -1.7039137904853278e-05 -3.7788772492290782e-05 -5.3593148819851536e-05 -6.0440919426632624e-06 1.5145225778116965e-05 -3.8790535018728715e-05 -7.1335099355633022e-05 -1.6742787210244754e-05 -3.1819971657294658e-05 -2.2024841252331513e-05 5.6222115243911614e-05 -4.7609996901665436e-05 -3.0197265887578199e-05 -1.2852569593497631e-05 -1.1874670984960561e-05 6.7249368899981623e-06 -5.0866215127074273e-06 1.8404221525549608e-06 5.0777192211016856e-05 -2.3303784012275447e-05 -6.5391969745507987e-06 4.9984876506492266e-05 -2.7868258129746149e-05 -8.4471243057145914e-05 -4.5204114672835676e-05 8.1724025367807863e-06 -3.0156585657122351e-05 -3.5785563647265116e-05 2.4188730471029943e-05 -1.9187833688022416e-05 -8.0824563486877558e-06 3.6808483929652146e-05 -8.3248583022303788e-06 -3.310187449284414e-06 6.1573327425624958e-06 -7.3331747572549376e-06 -2.0058763520235199e-05 1.6857022095151126e-05 -1.2879906187400317e-05 2.1562268010835321e-05 -2.9446831773565581e-05 -1.3771768728235135e-05 -2.3346344188707784e-05 -3.0088860703395546e-05 -3.2113686105755091e-05 -2.6759311711463504e-05 -3.0355832860897249e-05 -1.7663515787621998e-05 -2.0896316880042084e-05 -1.7697202659702364e-05 -1.717345170354887e-05 -2.3525824550885485e-06 1.236113453119425e-05 -1.5654075751505846e-06 -2.7724604815627181e-06 -1.9419879599577811e-06 5.0906543028626707e-06 -2.6173478378666427e-06 -4.6551760687435603e-05 -8.8330484377011932e-05 4.7340427466106122e-06 6.5441517653737162e-06 -1.9003840505937955e-05 -6.3178573945917486e-06 -1.3121705402863398e-05 -9.9189367605416839e-06 2.7967112374199496e-05 -2.9504857697076232e-05 -2.6088826844328718e-05 -3.5963243229677177e-05 -4.4366273172143334e-05 -4.2776004974831973e-05 2.9681113523128549e-05 1.5245244558875423e-05 -1.5415828057024175e-05 -1.5379133914648545e-05 1.9431717370884105e-06 -2.4604480834360016e-05 1.4440930788369778e-05 -8.3825892408592615e-06 -1.0572988068799644e-05 3.6605253307394319e-05 -7.8363564430121262e-05 -4.780498583621307e-06 -2.1055442819295915e-05 -2.4623285758306545e-05 2.1191667975805806e-06 -3.3538410268234834e-05 -5.6509096046253467e-05 1.8976146498792239e-05 -1.8397561512835219e-05 1.4630205704806379e-05 3.3869470489126239e-06 -8.0728839226321646e-07 -2.8563643500741636e-06 -6.4193289781866898e-06 -1.1043839538065287e-05 3.1846715531711308e-05 2.8844924294097474e-05 -1.4005702240750127e-05 -1.2874435549971807e-05 3.4534543162281339e-06 -4.9021244363355726e-07 7.7675852006909608e-07 1.6512466483805787e-05 -4.773600842394142e-06 2.0889160820081898e-05 4.7014889191487728e-06 -2.9280515502933652e-05 -3.3228009511528502e-05 -5.7489389721771108e-05 1.3180826487854154e-05 1.6253033723589007e-05 -4.7066150838309975e-06 -6.9839383282406212e-06 -5.1613566506350811e-05 -3.136037956277849e-05 -2.8005035666360053e-05 2.4120434512394685e-05 -1.3222983349764805e-05 -7.288533072519406e-06 -2.0862041092619136e-06 -1.7611684255343743e-05 -1.6753616619880902e-05 1.511793755974336e-06 1.0291912420587361e-05 -2.7193218620308145e-05 -2.8835715060626004e-05 -4.8282987334529967e-05 -1.771204513441023e-05 -2.5112478472864234e-05 -2.3763306409799778e-05 -2.0270865953965497e-05 -3.2866652669447181e-06 -3.1117969664675466e-05 -3.5791607647207525e-05 -2.1415829215147411e-05 -1.9294851382320108e-05 -6.067728591934011e-06 3.9758415642196802e-05 4.597046358763516e-05 -4.1398505351940191e-05 4.1019659076715751e-05 3.3695027172940772e-05 -1.6460888360414583e-05 -1.024157405747324e-05 -4.513221832321045e-05 4.4467381423147386e-06 3.6968647656516134e-05 -8.83580234970773e-06 -3.6280105663784212e-05 -6.3130246172301945e-05 -2.3815373587388403e-05 2.599276119694756e-06 -5.1039071322316987e-06 1.4028016375941302e-05 -3.360468571339584e-05 -2.8721246402218512e-05 -4.0293922806161308e-05 8.2315256924154708e-06 -2.1107715013638337e-05 2.4129829174441394e-05 -3.6924434751522256e-06 -6.7842112719879904e-06 -3.5132746747679997e-05 -6.113912606167462e-05 -2.7606564357906022e-05 -9.5713082802628018e-07 1.0726459464127002e-05 -1.429649945065946e-05 -9.2937501849750742e-06 -2.0269441748313285e-05 -1.8434809874847483e-05 -7.7249425918822826e-06 -7.3105788039907272e-06 -3.7103372913111984e-05 -6.800704887124562e-05 -2.2257854875245368e-05 3.6699560229410289e-05 2.6559369258689382e-05 -1.8105122455453577e-05 4.6657992168173002e-05 2.7257850970029509e-06 -9.8582544607540758e-06 2.7946203668414104e-05 4.8273916457899522e-05 -3.2490957444748466e-05 -1.8652336196887109e-05 -2.9721892825883338e-06 -3.2473237550488922e-05 7.7959421424717338e-06 -4.7042360793696942e-06 -1.2295183046911294e-05 4.197904884056889e-05 -1.404790827366388e-05 -5.355955166650857e-06 -2.241367651757194e-06 -3.4922487534422286e-07 2.5952096391275155e-05 4.5569235145435374e-05 5.7412366760847616e-06 1.2088341458308192e-05 -2.0549163793497262e-06 1.738223252360714e-05 -2.0113393233866275e-05 -2.3727898195063673e-05 -1.9009601290997916e-05 -2.360749033565834e-05 -6.4973602311400587e-06 -2.238446932964868e-06 -5.6904434224514922e-07 -1.9218656095664876e-05 -7.778271359986162e-06 -3.8249815353909788e-06 -6.4889021903257455e-06 -6.382361856687932e-06 -8.9212315270569172e-06 -9.0228063806276862e-06 5.8151156893024444e-05 -6.2131393913611682e-06 -2.0605996512466874e-05 1.6472040841996466e-08 4.5070767289344393e-05 3.6654850081662186e-05 1.7907967491629945e-05 -3.628554558036956e-08 8.1193993521131945e-08 2.5399425538649191e-05 1.4815133694444024e-07 -6.8212929973893617e-06 -8.9858420245166803e-06 -1.7240499099499133e-05 -1.572100877952128e-05 -1.0135280429142752e-05 -1.5244878078462133e-05 -7.8579594784133899e-06 1.9539490375245459e-05 3.7251994269477053e-05 5.5870096942630239e-06 -1.5345350343745669e-05 5.9063893174298235e-06 2.5153214981206646e-05 -5.56566357819179e-06 -1.9239239937252131e-06 -5.1786239729356004e-06 -1.5887485416391563e-05 -1.6751257652597245e-06 3.4435531419647414e-06 -1.2362501913407076e-05 -8.8301495652885211e-07 1.4530045248492681e-05 -7.2156782713295109e-06 2.7989742729211812e-05 7.2743062613228734e-06 -7.8893831337346909e-06 -2.1938991723164889e-05 3.3018188628443524e-06 6.7309725356514289e-06 7.277757295620681e-05 6.2258045914894024e-05 4.0823916375369845e-05 1.3449048976464471e-05 -2.4128066716952272e-05 -1.3057894298528801e-05 -3.1081491889141638e-05 -2.3853340147246192e-05 -2.6796431554382825e-06 -2.9751127546953349e-05 -3.1850719855358402e-05 -4.1242033547344132e-05 -4.4501638375303533e-05 -8.2475370735724007e-06 -4.3152889608439139e-06 2.4093579340950309e-05 1.9759797480843405e-05 2.5497455055515672e-05 2.1309033930252443e-06 -1.9543160033454313e-06 -4.0561924473215155e-06 -1.2373006033690878e-06 -1.5117533973854575e-06 -8.5967197684034654e-06 -1.0353317058214265e-05 -3.7229663598183774e-05 -5.2109242445418219e-05 -4.9901630302627144e-05 -3.5883143476516538e-05 -3.9075413514540495e-06 -1.1145620352652842e-05 -5.2714407728038327e-06 -6.8293071145881536e-06 -8.2565431016429971e-06 -5.7257850912236435e-06 -5.485268923595353e-06 3.076950467462047e-05 0.00012683261962221094 -1.5042637868853361e-05 6.7749304710377567e-06 -1.9793006470444669e-06 -1.9895803475980395e-06 9.6540836352608256e-06 -1.2927182945873328e-05 2.5894607062669955e-05 2.540767251088034e-06 -1.7368298575826634e-05 1.0778203828880773e-06 5.3164486923478176e-06 -1.2119055600637752e-05 8.8865828919293811e-06 -8.5482818877623254e-06 -2.5450648310681813e-05 -1.5275699263492181e-05 -1.3316784750770887e-05 -4.68671356457068e-07 -1.1363796874023927e-06 -9.5875125387262753e-06 -5.9601985557953615e-06 -7.3294470646440814e-06 -2.167325051659905e-05 -1.0344887219690532e-05 -1.1053005808372898e-05 -2.1087136234716687e-05 4.1036995145164208e-05 -3.5980471219032237e-06 -3.6911665373096612e-06 -4.5427734097585031e-06 -5.1559371489361041e-06 -2.1162947554624091e-05 -4.2532336509207291e-06 8.9340903048924086e-07 5.4169571878426798e-06 -1.1652016397772046e-05 -1.0263147920130944e-06 -1.4133444190371491e-06 -1.1130375162197786e-05 -1.9511498167856843e-05 1.2740584923667529e-05 2.6409536181059388e-05 4.8436713444613617e-05 -4.6254900171606954e-06 -3.0829015200197016e-05 -3.3017620588588533e-05 -1.2683233742972501e-05 -3.1088297282286549e-06 -6.5745932081732839e-06 -1.3453197543736694e-07 -2.1364357396749193e-05 -2.9509897237170891e-06 -4.0691680045288996e-06 -2.8567334484563246e-05 -4.099155865950993e-05 -3.3618292370610939e-05 -2.4938674784748458e-05 -2.3508877067833741e-06 -3.1481517748522311e-05 4.3282356577811071e-06 3.2165092189160617e-06 -1.4273291439229158e-05 -1.6226813493223213e-05 -3.6301288413649222e-06 -3.1418533083353437e-06 -2.2950215740736737e-05 -2.6832677832235561e-05 -1.6951368602584511e-05 -2.6269393917897909e-06 -1.5433905191115212e-05 8.5619286023519425e-07 -1.9968128484733221e-05 -5.2682594729470264e-06 -1.6182316427946564e-05 1.0916749940151905e-06 6.2531401417511862e-06 -7.2499541087375268e-06 2.0021060841320104e-07 -3.9901835750359715e-06 -3.255449738254635e-06 -2.2021120868742639e-06 1.9926828032047414e-06 1.6341972769299586e-07 2.5259262978454683e-06 -2.9162398199440113e-06 -1.6693541591093829e-05 -6.3610654470800223e-06 -8.7785198839923856e-06 -1.546388713583655e-05 -1.5124842697465885e-05 2.8617491754955022e-05 -9.6130204830236203e-06 -1.1670363941917132e-05 -1.4866374702463472e-05 -3.5688486446054527e-05 -1.5731056888533762e-05 2.0654002543800669e-05 -5.9099946782732466e-06 -9.0217337269807643e-06 3.0990851808550453e-05 -1.3667268093076713e-05 -2.3509597261728879e-05 1.5695779711645229e-05 1.7364696553874982e-05 -5.2129354978776125e-06 -4.4500496045349417e-06 -1.1197526420080339e-06 3.808085588458207e-06 4.2219835257537638e-05 -1.2973537970974299e-05 -1.9922212613228493e-05 -6.7269027475752843e-06 4.0098345817141112e-05 -1.4577618783498771e-05 -1.6133683141333422e-05 -2.5058399670912715e-05 3.4884000054492327e-06 
</DataArray>
</CellData>
</Piece>
</UnstructuredGrid>
</VTKFile>
